
 stresses (elem, integ.pnt.,sxx,syy,szz,sxy,sxz,syz) for set ELALL and time  0.1000000E+01

         1   1  2.204263E+06  1.280803E+05  1.454538E+05  7.602120E+04  9.946865E+04  1.213888E+01
         1   2  2.191064E+06  2.042648E+04  7.069808E+04  3.230594E+04  6.273785E+04  3.253669E+00
         1   3  2.204394E+06 -1.159622E+02  4.157539E+04 -1.140833E+04  2.600644E+04 -4.762707E-01
         1   4  2.204257E+06  1.280694E+05  1.454523E+05  5.164467E-08  9.946864E+04  3.879644E-10
         1   5  2.191063E+06  2.042453E+04  7.069780E+04 -7.059731E-08  6.273785E+04  2.012131E-09
         1   6  2.204393E+06 -1.162059E+02  4.157536E+04 -2.154540E-07  2.600644E+04  4.474002E-09
         1   7  2.204263E+06  1.280803E+05  1.454538E+05 -7.602120E+04  9.946865E+04 -1.213888E+01
         1   8  2.191064E+06  2.042648E+04  7.069808E+04 -3.230594E+04  6.273785E+04 -3.253669E+00
         1   9  2.204394E+06 -1.159622E+02  4.157539E+04  1.140833E+04  2.600644E+04  4.762707E-01
         1  10  2.204253E+06  1.280776E+05  1.454353E+05  7.602120E+04 -1.672936E-08  3.828955E-10
         1  11  2.191060E+06  2.042543E+04  7.069071E+04  3.230594E+04  3.567827E-08  2.361984E-09
         1  12  2.204393E+06 -1.161430E+02  4.157413E+04 -1.140833E+04  8.092873E-08  4.780350E-09
         1  13  2.204246E+06  1.280668E+05  1.454337E+05 -3.624353E-10  1.685769E-11  2.810338E-10
         1  14  2.191059E+06  2.042348E+04  7.069043E+04  2.542592E-09  8.544616E-10  1.906078E-09
         1  15  2.204393E+06 -1.163867E+02  4.157409E+04  1.674977E-10  1.140733E-09  4.532044E-09
         1  16  2.204253E+06  1.280776E+05  1.454353E+05 -7.602120E+04  1.625770E-08  5.375002E-11
         1  17  2.191060E+06  2.042543E+04  7.069071E+04 -3.230594E+04 -3.488049E-08  1.383976E-09
         1  18  2.204393E+06 -1.161430E+02  4.157413E+04  1.140833E+04 -7.986226E-08  4.228177E-09
         1  19  2.204263E+06  1.280803E+05  1.454538E+05  7.602120E+04 -9.946865E+04 -1.213888E+01
         1  20  2.191064E+06  2.042648E+04  7.069808E+04  3.230594E+04 -6.273785E+04 -3.253669E+00
         1  21  2.204394E+06 -1.159622E+02  4.157539E+04 -1.140833E+04 -2.600644E+04  4.762707E-01
         1  22  2.204257E+06  1.280694E+05  1.454523E+05 -5.298015E-08 -9.946864E+04  2.059603E-10
         1  23  2.191063E+06  2.042453E+04  7.069780E+04  7.349929E-08 -6.273785E+04  1.764054E-09
         1  24  2.204393E+06 -1.162059E+02  4.157536E+04  2.146396E-07 -2.600644E+04  4.574468E-09
         1  25  2.204263E+06  1.280803E+05  1.454538E+05 -7.602120E+04 -9.946865E+04  1.213888E+01
         1  26  2.191064E+06  2.042648E+04  7.069808E+04 -3.230594E+04 -6.273785E+04  3.253669E+00
         1  27  2.204394E+06 -1.159622E+02  4.157539E+04  1.140833E+04 -2.600644E+04 -4.762707E-01
         2   1  2.199057E+06  4.817863E+03  3.376288E+04  1.966556E+03  2.026362E+04  6.397024E-02
         2   2  2.197774E+06  2.358389E+02  2.362234E+04  7.960499E+02  8.501700E+03  1.086428E-02
         2   3  2.199066E+06 -1.476600E+02  2.216933E+04 -3.744593E+02 -3.260159E+03  1.959733E-03
         2   4  2.199057E+06  4.817855E+03  3.376288E+04  2.132966E-07  2.026362E+04  4.258011E-09
         2   5  2.197774E+06  2.358378E+02  2.362234E+04  6.846092E-08  8.501700E+03  9.657059E-10
         2   6  2.199066E+06 -1.476602E+02  2.216933E+04 -5.664410E-08 -3.260159E+03 -1.948518E-09
         2   7  2.199057E+06  4.817863E+03  3.376288E+04 -1.966556E+03  2.026362E+04 -6.397023E-02
         2   8  2.197774E+06  2.358389E+02  2.362234E+04 -7.960499E+02  8.501700E+03 -1.086428E-02
         2   9  2.199066E+06 -1.476600E+02  2.216933E+04  3.744593E+02 -3.260159E+03 -1.959737E-03
         2  10  2.199056E+06  4.817753E+03  3.376211E+04  1.966556E+03 -8.012970E-08  4.379468E-09
         2  11  2.197774E+06  2.358196E+02  2.362221E+04  7.960499E+02 -3.567182E-08  7.182758E-10
         2  12  2.199066E+06 -1.476628E+02  2.216931E+04 -3.744593E+02  1.710963E-08 -2.065118E-09
         2  13  2.199056E+06  4.817746E+03  3.376211E+04  8.409626E-10  1.499990E-09  4.430750E-09
         2  14  2.197774E+06  2.358184E+02  2.362220E+04  2.399311E-09  9.204558E-10  1.109855E-09
         2  15  2.199066E+06 -1.476631E+02  2.216931E+04  5.021450E-11  4.641579E-11 -1.721522E-09
         2  16  2.199056E+06  4.817753E+03  3.376211E+04 -1.966556E+03  8.123282E-08  4.556699E-09
         2  17  2.197774E+06  2.358196E+02  2.362221E+04 -7.960499E+02  3.442678E-08  1.416366E-09
         2  18  2.199066E+06 -1.476628E+02  2.216931E+04  3.744593E+02 -1.714425E-08 -1.534721E-09
         2  19  2.199057E+06  4.817863E+03  3.376288E+04  1.966556E+03 -2.026362E+04 -6.397023E-02
         2  20  2.197774E+06  2.358389E+02  2.362234E+04  7.960499E+02 -8.501700E+03 -1.086428E-02
         2  21  2.199066E+06 -1.476600E+02  2.216933E+04 -3.744593E+02  3.260159E+03 -1.959737E-03
         2  22  2.199057E+06  4.817855E+03  3.376288E+04 -2.122337E-07 -2.026362E+04  4.615936E-09
         2  23  2.197774E+06  2.358378E+02  2.362234E+04 -6.766656E-08 -8.501700E+03  1.268346E-09
         2  24  2.199066E+06 -1.476602E+02  2.216933E+04  5.245821E-08  3.260159E+03 -1.541854E-09
         2  25  2.199057E+06  4.817863E+03  3.376288E+04 -1.966556E+03 -2.026362E+04  6.397024E-02
         2  26  2.197774E+06  2.358389E+02  2.362234E+04 -7.960499E+02 -8.501700E+03  1.086428E-02
         2  27  2.199066E+06 -1.476600E+02  2.216933E+04  3.744593E+02  3.260159E+03  1.959734E-03
         3   1  2.199375E+06 -3.361184E+02  2.398313E+04  1.475859E+03 -7.330768E+03 -1.736794E-02
         3   2  2.197382E+06  6.519457E+02  3.357309E+04 -8.335851E+02 -2.407138E+04  3.221116E-02
         3   3  2.199351E+06  8.804204E+03  5.582570E+04 -3.142975E+03 -4.081203E+04  2.059132E-01
         3   4  2.199375E+06 -3.361225E+02  2.398313E+04 -4.517676E-09 -7.330768E+03 -2.389888E-09
         3   5  2.197382E+06  6.519444E+02  3.357309E+04 -1.039003E-09 -2.407138E+04 -1.428859E-09
         3   6  2.199351E+06  8.804185E+03  5.582570E+04 -1.286825E-09 -4.081203E+04 -6.045056E-10
         3   7  2.199375E+06 -3.361184E+02  2.398313E+04 -1.475859E+03 -7.330768E+03  1.736794E-02
         3   8  2.197382E+06  6.519457E+02  3.357309E+04  8.335851E+02 -2.407138E+04 -3.221117E-02
         3   9  2.199351E+06  8.804204E+03  5.582570E+04  3.142975E+03 -4.081203E+04 -2.059132E-01
         3  10  2.199375E+06 -3.361328E+02  2.398303E+04  1.475859E+03 -2.103907E-09 -2.359785E-09
         3  11  2.197381E+06  6.517908E+02  3.357201E+04 -8.335851E+02 -1.622054E-09 -1.251365E-09
         3  12  2.199349E+06  8.803758E+03  5.582258E+04 -3.142975E+03 -1.011166E-09 -5.679489E-10
         3  13  2.199375E+06 -3.361369E+02  2.398302E+04 -2.940498E-10 -8.317041E-11 -2.206018E-09
         3  14  2.197381E+06  6.517895E+02  3.357201E+04  4.476697E-10  5.356977E-28 -1.359435E-09
         3  15  2.199349E+06  8.803740E+03  5.582258E+04  3.809487E-10 -1.346303E-10 -5.413273E-10
         3  16  2.199375E+06 -3.361328E+02  2.398303E+04 -1.475859E+03  2.215600E-09 -2.123540E-09
         3  17  2.197381E+06  6.517908E+02  3.357201E+04  8.335851E+02  1.077523E-09 -1.443941E-09
         3  18  2.199349E+06  8.803758E+03  5.582258E+04  3.142975E+03  1.206015E-09 -5.226982E-10
         3  19  2.199375E+06 -3.361184E+02  2.398313E+04  1.475859E+03  7.330768E+03  1.736794E-02
         3  20  2.197382E+06  6.519457E+02  3.357309E+04 -8.335851E+02  2.407138E+04 -3.221117E-02
         3  21  2.199351E+06  8.804204E+03  5.582570E+04 -3.142975E+03  4.081203E+04 -2.059132E-01
         3  22  2.199375E+06 -3.361225E+02  2.398313E+04  1.617816E-09  7.330768E+03 -2.020935E-09
         3  23  2.197382E+06  6.519444E+02  3.357309E+04  2.199609E-09  2.407138E+04 -1.258830E-09
         3  24  2.199351E+06  8.804185E+03  5.582570E+04  6.551474E-11  4.081203E+04 -4.462937E-10
         3  25  2.199375E+06 -3.361184E+02  2.398313E+04 -1.475859E+03  7.330768E+03 -1.736794E-02
         3  26  2.197382E+06  6.519457E+02  3.357309E+04  8.335851E+02  2.407138E+04  3.221116E-02
         3  27  2.199351E+06  8.804204E+03  5.582570E+04  3.142975E+03  4.081203E+04  2.059132E-01
         4   1  2.209089E+06 -1.142868E+02  7.124568E+04  2.084378E+04 -5.037513E+04 -1.685549E+00
         4   2  2.185137E+06  3.685515E+04  1.256554E+05 -5.796206E+04 -1.156918E+05  1.076499E+01
         4   3  2.208863E+06  2.307278E+05  2.617166E+05 -1.367743E+05 -1.810093E+05  3.974353E+01
         4   4  2.209089E+06 -1.151004E+02  7.124556E+04 -8.119115E-10 -5.037513E+04 -2.334988E-10
         4   5  2.185134E+06  3.684886E+04  1.256545E+05  1.018888E-09 -1.156918E+05  1.256613E-10
         4   6  2.208843E+06  2.306928E+05  2.617116E+05 -1.015571E-09 -1.810093E+05  1.252874E-10
         4   7  2.209089E+06 -1.142868E+02  7.124568E+04 -2.084378E+04 -5.037513E+04  1.685549E+00
         4   8  2.185137E+06  3.685515E+04  1.256554E+05  5.796206E+04 -1.156918E+05 -1.076499E+01
         4   9  2.208863E+06  2.307278E+05  2.617166E+05  1.367743E+05 -1.810093E+05 -3.974353E+01
         4  10  2.209087E+06 -1.149651E+02  7.124093E+04  2.084378E+04 -4.354673E-10 -1.592707E-10
         4  11  2.185123E+06  3.685157E+04  1.256303E+05 -5.796206E+04  2.010341E-10  4.283109E-12
         4  12  2.208827E+06  2.307190E+05  2.616553E+05 -1.367743E+05  3.184008E-10  9.411871E-12
         4  13  2.209086E+06 -1.157787E+02  7.124081E+04 -1.254708E-10  9.720433E-11 -1.762127E-10
         4  14  2.185119E+06  3.684528E+04  1.256294E+05 -5.305207E-10  7.113034E-10  4.958889E-11
         4  15  2.208807E+06  2.306840E+05  2.616503E+05  4.139315E-11 -1.935468E-10  5.545888E-11
         4  16  2.209087E+06 -1.149651E+02  7.124093E+04 -2.084378E+04  3.220603E-10 -1.181112E-10
         4  17  2.185123E+06  3.685157E+04  1.256303E+05  5.796206E+04 -6.317678E-10  1.658525E-10
         4  18  2.208827E+06  2.307190E+05  2.616553E+05  1.367743E+05 -4.897266E-10  6.705435E-11
         4  19  2.209089E+06 -1.142868E+02  7.124568E+04  2.084378E+04  5.037513E+04  1.685549E+00
         4  20  2.185137E+06  3.685515E+04  1.256554E+05 -5.796206E+04  1.156918E+05 -1.076499E+01
         4  21  2.208863E+06  2.307278E+05  2.617166E+05 -1.367743E+05  1.810093E+05 -3.974353E+01
         4  22  2.209089E+06 -1.151004E+02  7.124556E+04 -1.144376E-09  5.037513E+04 -1.353163E-10
         4  23  2.185134E+06  3.684886E+04  1.256545E+05 -2.105227E-09  1.156918E+05 -4.831458E-12
         4  24  2.208843E+06  2.306928E+05  2.617116E+05 -1.562994E-09  1.810093E+05 -2.360323E-11
         4  25  2.209089E+06 -1.142868E+02  7.124568E+04 -2.084378E+04  5.037513E+04 -1.685549E+00
         4  26  2.185137E+06  3.685515E+04  1.256554E+05  5.796206E+04  1.156918E+05  1.076499E+01
         4  27  2.208863E+06  2.307278E+05  2.617166E+05  1.367743E+05  1.810093E+05  3.974353E+01
         5   1 -8.246668E+05 -2.077431E+06 -8.263693E+05  5.954066E+05 -3.137152E+04 -2.863670E+05
         5   2 -5.172137E+05 -1.500711E+06 -5.164858E+05  4.615138E+05 -9.452502E+04 -1.380050E+05
         5   3 -3.521511E+05 -9.783186E+05 -3.389418E+05  4.688436E+05 -9.030017E+04  1.049332E+04
         5   4 -1.854144E+05  5.010348E+05 -2.102690E+05  4.877290E+05 -3.118036E+04 -1.473288E+05
         5   5 -2.949049E+04  5.201774E+05 -9.938571E+04  4.169934E+05 -9.443466E+04 -9.553367E+04
         5   6  1.110879E+03  5.016939E+05 -5.346804E+04  4.875155E+05 -9.038001E+04 -4.374728E+04
         5   7  4.534116E+05  3.085673E+06  4.054424E+05  3.795975E+05 -3.103815E+04 -7.713186E+03
         5   8  4.579833E+05  2.544952E+06  3.175020E+05  3.723229E+05 -9.435063E+04 -5.292587E+04
         5   9  3.542455E+05  1.983821E+06  2.319153E+05  5.062314E+05 -9.046297E+04 -9.811429E+04
         5  10 -8.246899E+05 -2.077519E+06 -8.265257E+05  5.953993E+05 -1.589542E-10 -8.620459E-10
         5  11 -5.172284E+05 -1.500734E+06 -5.165384E+05  4.615033E+05 -8.401810E-10 -1.804653E-10
         5  12 -3.521599E+05 -9.783209E+05 -3.389573E+05  4.688444E+05 -3.232029E-10  6.642392E-10
         5  13 -1.854213E+05  5.010112E+05 -2.103116E+05  4.877253E+05  3.479983E-10 -1.245927E-11
         5  14 -2.950251E+04  5.201652E+05 -9.941959E+04  4.169861E+05 -1.692939E-10  3.316483E-12
         5  15  1.101597E+03  5.016897E+05 -5.348697E+04  4.875124E+05  4.498990E-10 -5.084490E-12
         5  16  4.534105E+05  3.085672E+06  4.054405E+05  3.795973E+05 -1.857751E-10  8.892581E-10
         5  17  4.579730E+05  2.544947E+06  3.174800E+05  3.723189E+05 -1.362341E-10  1.707093E-10
         5  18  3.542342E+05  1.983808E+06  2.318819E+05  5.062242E+05 -3.112502E-11 -6.839084E-10
         5  19 -8.246668E+05 -2.077431E+06 -8.263693E+05  5.954066E+05  3.137152E+04  2.863670E+05
         5  20 -5.172137E+05 -1.500711E+06 -5.164858E+05  4.615138E+05  9.452502E+04  1.380050E+05
         5  21 -3.521511E+05 -9.783186E+05 -3.389418E+05  4.688436E+05  9.030017E+04 -1.049332E+04
         5  22 -1.854144E+05  5.010348E+05 -2.102690E+05  4.877290E+05  3.118036E+04  1.473288E+05
         5  23 -2.949049E+04  5.201774E+05 -9.938571E+04  4.169934E+05  9.443466E+04  9.553367E+04
         5  24  1.110879E+03  5.016939E+05 -5.346804E+04  4.875155E+05  9.038001E+04  4.374728E+04
         5  25  4.534116E+05  3.085673E+06  4.054424E+05  3.795975E+05  3.103815E+04  7.713186E+03
         5  26  4.579833E+05  2.544952E+06  3.175020E+05  3.723229E+05  9.435063E+04  5.292587E+04
         5  27  3.542455E+05  1.983821E+06  2.319153E+05  5.062314E+05  9.046297E+04  9.811429E+04
         6   1 -2.696518E+05 -5.961044E+05 -2.525105E+05  4.890168E+05 -6.794045E+04  5.820370E+03
         6   2 -1.313518E+05 -4.587566E+04 -1.219756E+05  4.156858E+05 -3.726518E+04  1.742076E+04
         6   3  2.564126E+03  5.016698E+05 -2.223559E+02  4.873585E+05 -4.653789E+03  2.901321E+04
         6   4 -5.922340E+03  5.096996E+05 -3.973194E+04  4.883751E+05 -6.801453E+04 -3.693637E+04
         6   5  8.467633E+02  5.110333E+05 -1.774920E+04  4.158670E+05 -3.735466E+04 -2.812170E+04
         6   6  3.738415E+03  5.098904E+05 -2.591400E+03  4.883554E+05 -4.760231E+03 -1.932482E+04
         6   7  2.577357E+05  1.616684E+06  1.729971E+05  4.877313E+05 -6.808844E+04 -7.976752E+04
         6   8  1.330285E+05  1.068247E+06  8.647160E+04  4.160481E+05 -3.744411E+04 -7.370397E+04
         6   9  4.913966E+03  5.181162E+05 -4.951636E+03  4.893524E+05 -4.866827E+03 -6.766336E+04
         6  10 -2.696568E+05 -5.961057E+05 -2.525193E+05  4.890171E+05  1.068030E-11 -5.866331E-10
         6  11 -1.313533E+05 -4.587636E+04 -1.219788E+05  4.156863E+05 -7.110091E-10 -3.507575E-10
         6  12  2.563876E+03  5.016688E+05 -2.239777E+02  4.873586E+05  1.056746E-10  1.070355E-10
         6  13 -5.927672E+03  5.096968E+05 -3.974318E+04  4.883731E+05  4.192775E-10  2.228500E-11
         6  14  8.450535E+02  5.110321E+05 -1.775331E+04  4.158661E+05 -1.493146E-09 -7.128139E-11
         6  15  3.738290E+03  5.098900E+05 -2.592144E+03  4.883553E+05 -3.966066E-10 -2.504504E-11
         6  16  2.577290E+05  1.616676E+06  1.729765E+05  4.877270E+05 -1.391877E-10  5.110120E-10
         6  17  1.330255E+05  1.068240E+06  8.645878E+04  4.160459E+05 -1.635113E-10  1.669424E-10
         6  18  4.912713E+03  5.181113E+05 -4.960276E+03  4.893521E+05 -5.617309E-10 -1.133424E-10
         6  19 -2.696518E+05 -5.961044E+05 -2.525105E+05  4.890168E+05  6.794045E+04 -5.820370E+03
         6  20 -1.313518E+05 -4.587566E+04 -1.219756E+05  4.156858E+05  3.726518E+04 -1.742076E+04
         6  21  2.564126E+03  5.016698E+05 -2.223559E+02  4.873585E+05  4.653789E+03 -2.901321E+04
         6  22 -5.922340E+03  5.096996E+05 -3.973194E+04  4.883751E+05  6.801453E+04  3.693637E+04
         6  23  8.467633E+02  5.110333E+05 -1.774920E+04  4.158670E+05  3.735466E+04  2.812170E+04
         6  24  3.738415E+03  5.098904E+05 -2.591400E+03  4.883554E+05  4.760231E+03  1.932482E+04
         6  25  2.577357E+05  1.616684E+06  1.729971E+05  4.877313E+05  6.808844E+04  7.976752E+04
         6  26  1.330285E+05  1.068247E+06  8.647160E+04  4.160481E+05  3.744411E+04  7.370397E+04
         6  27  4.913966E+03  5.181162E+05 -4.951636E+03  4.893524E+05  4.866827E+03  6.766336E+04
         7   1  8.951923E+04  8.777106E+05  7.850567E+04  4.838247E+05  1.792268E+04  3.543496E+04
         7   2  2.289914E+05  1.417887E+06  2.133430E+05  4.282568E+05  3.574114E+04 -3.240243E+04
         7   3  4.089923E+05  1.977017E+06  4.023049E+05  5.155725E+05  1.369000E+04 -1.002601E+05
         7   4  1.622416E+03  5.123591E+05  3.972741E+03  4.878998E+05  1.780465E+04 -1.919668E+04
         7   5  8.393042E+03  5.078210E+05  1.964203E+04  4.164203E+05  3.575120E+04 -2.951855E+04
         7   6  4.577378E+04  5.120278E+05  4.957611E+04  4.878253E+05  1.380482E+04 -3.980043E+04
         7   7 -8.628107E+04  1.471408E+05 -7.055601E+04  4.919723E+05  1.768585E+04 -7.379680E+04
         7   8 -2.122587E+05 -4.014661E+05 -1.741064E+05  4.046008E+05  3.576116E+04 -2.663880E+04
         7   9 -3.175964E+05 -9.509935E+05 -3.032916E+05  4.601419E+05  1.391444E+04  2.051754E+04
         7  10  8.951855E+04  8.777092E+05  7.850272E+04  4.838242E+05  3.032676E-10 -5.718546E-10
         7  11  2.289898E+05  1.417886E+06  2.133386E+05  4.282577E+05  9.764730E-11  3.533828E-11
         7  12  4.089894E+05  1.977006E+06  4.022857E+05  5.155736E+05  1.639520E-10  4.810220E-10
         7  13  1.621976E+03  5.123586E+05  3.971452E+03  4.879001E+05  3.461018E-10 -6.152579E-11
         7  14  8.391435E+03  5.078197E+05  1.963799E+04  4.164212E+05  2.123409E-12 -8.077963E-12
         7  15  4.577315E+04  5.120260E+05  4.957277E+04  4.878257E+05  3.279436E-10  3.180192E-11
         7  16 -8.628287E+04  1.471349E+05 -7.056683E+04  4.919734E+05 -5.447306E-10  5.163052E-10
         7  17 -2.122602E+05 -4.014672E+05 -1.741101E+05  4.046016E+05 -2.750283E-10  9.478946E-11
         7  18 -3.175967E+05 -9.509940E+05 -3.032928E+05  4.601417E+05 -3.251050E-10 -4.458186E-10
         7  19  8.951923E+04  8.777106E+05  7.850567E+04  4.838247E+05 -1.792268E+04 -3.543496E+04
         7  20  2.289914E+05  1.417887E+06  2.133430E+05  4.282568E+05 -3.574114E+04  3.240243E+04
         7  21  4.089923E+05  1.977017E+06  4.023049E+05  5.155725E+05 -1.369000E+04  1.002601E+05
         7  22  1.622416E+03  5.123591E+05  3.972741E+03  4.878998E+05 -1.780465E+04  1.919668E+04
         7  23  8.393042E+03  5.078210E+05  1.964203E+04  4.164203E+05 -3.575120E+04  2.951855E+04
         7  24  4.577378E+04  5.120278E+05  4.957611E+04  4.878253E+05 -1.380482E+04  3.980043E+04
         7  25 -8.628107E+04  1.471408E+05 -7.055601E+04  4.919723E+05 -1.768585E+04  7.379680E+04
         7  26 -2.122587E+05 -4.014661E+05 -1.741064E+05  4.046008E+05 -3.576116E+04  2.663880E+04
         7  27 -3.175964E+05 -9.509935E+05 -3.032916E+05  4.601419E+05 -1.391444E+04 -2.051754E+04
         8   1  6.505605E+05  2.169999E+05 -1.270409E+05  5.377887E+05 -9.554206E+03  6.485873E+03
         8   2  7.150887E+05  2.347843E+05 -1.123733E+05  5.929982E+05 -1.348976E+04  3.369222E+04
         8   3  8.219628E+05  2.523609E+05 -9.750012E+04  6.274678E+05 -4.968544E+03  4.429198E+04
         8   4  1.280524E+06  6.071684E+05  6.690269E+04  8.235714E+05  3.028607E+04  3.635292E+04
         8   5  1.246194E+06  5.858232E+05  3.227746E+04  8.481159E+05  2.397475E+03  4.559499E+04
         8   6  1.259372E+06  5.694382E+05  1.860462E+04  8.519209E+05 -1.304238E+04  3.823928E+04
         8   7  1.910904E+06  9.974829E+05  2.608065E+05  1.109655E+06  7.018119E+04  6.625410E+04
         8   8  1.777608E+06  9.369962E+05  1.769019E+05  1.103472E+06  1.830297E+04  5.751026E+04
         8   9  1.696996E+06  8.866351E+05  1.346929E+05  1.076557E+06 -2.112385E+04  3.218064E+04
         8  10  6.505604E+05  2.169998E+05 -1.270411E+05  5.377888E+05  4.586165E-10 -1.107942E-10
         8  11  7.150882E+05  2.347830E+05 -1.123758E+05  5.929985E+05 -3.891025E-10 -4.466262E-10
         8  12  8.219623E+05  2.523588E+05 -9.750385E+04  6.274679E+05  6.936130E-10 -3.230187E-10
         8  13  1.280523E+06  6.071667E+05  6.689850E+04  8.235705E+05  3.194188E-11 -6.957654E-11
         8  14  1.246193E+06  5.858209E+05  3.227354E+04  8.481158E+05  3.731434E-10 -7.144983E-11
         8  15  1.259371E+06  5.694365E+05  1.860155E+04  8.519213E+05  7.035519E-10  8.730042E-11
         8  16  1.910898E+06  9.974769E+05  2.607891E+05  1.109651E+06 -4.164360E-10  1.570473E-11
         8  17  1.777607E+06  9.369926E+05  1.768951E+05  1.103471E+06 -5.936339E-10  2.391668E-10
         8  18  1.696996E+06  8.866338E+05  1.346901E+05  1.076558E+06  2.376592E-10  4.544131E-10
         8  19  6.505605E+05  2.169999E+05 -1.270409E+05  5.377887E+05  9.554206E+03 -6.485873E+03
         8  20  7.150887E+05  2.347843E+05 -1.123733E+05  5.929982E+05  1.348976E+04 -3.369222E+04
         8  21  8.219628E+05  2.523609E+05 -9.750012E+04  6.274678E+05  4.968544E+03 -4.429198E+04
         8  22  1.280524E+06  6.071684E+05  6.690269E+04  8.235714E+05 -3.028607E+04 -3.635292E+04
         8  23  1.246194E+06  5.858232E+05  3.227746E+04  8.481159E+05 -2.397475E+03 -4.559499E+04
         8  24  1.259372E+06  5.694382E+05  1.860462E+04  8.519209E+05  1.304238E+04 -3.823928E+04
         8  25  1.910904E+06  9.974829E+05  2.608065E+05  1.109655E+06 -7.018119E+04 -6.625410E+04
         8  26  1.777608E+06  9.369962E+05  1.769019E+05  1.103472E+06 -1.830297E+04 -5.751026E+04
         8  27  1.696996E+06  8.866351E+05  1.346929E+05  1.076557E+06  2.112385E+04 -3.218064E+04
         9   1  8.670882E+05  2.950215E+05 -8.745244E+04  6.527790E+05 -7.466942E+03  3.724041E+04
         9   2  9.286762E+05  3.592833E+05 -7.169646E+04  6.949746E+05 -6.477460E+03  3.152099E+04
         9   3  1.017452E+06  3.985483E+05 -5.385690E+04  7.291663E+05 -4.610197E+03  2.462542E+04
         9   4  1.258835E+06  5.697958E+05  1.480967E+04  8.495588E+05 -1.258224E+04  3.340539E+04
         9   5  1.244652E+06  5.813656E+05  9.556648E+03  8.541365E+05 -1.329093E+04  2.641567E+04
         9   6  1.258014E+06  5.683028E+05  7.854716E+03  8.507048E+05 -1.312180E+04  1.825052E+04
         9   7  1.650762E+06  8.446631E+05  1.170610E+05  1.046483E+06 -1.770195E+04  2.956709E+04
         9   8  1.560742E+06  8.035064E+05  9.080191E+04  1.013391E+06 -2.010904E+04  2.130687E+04
         9   9  1.498638E+06  7.380891E+05  6.956082E+04  9.722956E+05 -2.163770E+04  1.187239E+04
         9  10  8.670877E+05  2.950200E+05 -8.745515E+04  6.527793E+05  1.269921E-09  2.089867E-10
         9  11  9.286759E+05  3.592822E+05 -7.169841E+04  6.949748E+05  1.069756E-09  4.996011E-11
         9  12  1.017452E+06  3.985476E+05 -5.385808E+04  7.291664E+05 -1.339031E-10 -1.065673E-10
         9  13  1.258835E+06  5.697946E+05  1.480727E+04  8.495591E+05 -2.712976E-11  6.368477E-11
         9  14  1.244652E+06  5.813648E+05  9.555004E+03  8.541368E+05 -5.318249E-10 -1.093050E-10
         9  15  1.258014E+06  5.683024E+05  7.853766E+03  8.507050E+05  3.199483E-10  7.283603E-11
         9  16  1.650761E+06  8.446621E+05  1.170588E+05  1.046484E+06 -1.626702E-10 -1.155409E-10
         9  17  1.560741E+06  8.035058E+05  9.080030E+04  1.013391E+06 -1.410815E-10 -8.705580E-11
         9  18  1.498638E+06  7.380888E+05  6.955968E+04  9.722958E+05  6.448865E-10  2.454954E-10
         9  19  8.670882E+05  2.950215E+05 -8.745244E+04  6.527790E+05  7.466942E+03 -3.724041E+04
         9  20  9.286762E+05  3.592833E+05 -7.169646E+04  6.949746E+05  6.477460E+03 -3.152099E+04
         9  21  1.017452E+06  3.985483E+05 -5.385690E+04  7.291663E+05  4.610197E+03 -2.462542E+04
         9  22  1.258835E+06  5.697958E+05  1.480967E+04  8.495588E+05  1.258224E+04 -3.340539E+04
         9  23  1.244652E+06  5.813656E+05  9.556648E+03  8.541365E+05  1.329093E+04 -2.641567E+04
         9  24  1.258014E+06  5.683028E+05  7.854716E+03  8.507048E+05  1.312180E+04 -1.825052E+04
         9  25  1.650762E+06  8.446631E+05  1.170610E+05  1.046483E+06  1.770195E+04 -2.956709E+04
         9  26  1.560742E+06  8.035064E+05  9.080191E+04  1.013391E+06  2.010904E+04 -2.130687E+04
         9  27  1.498638E+06  7.380891E+05  6.956082E+04  9.722956E+05  2.163770E+04 -1.187239E+04
        10   1  1.067789E+06  4.347298E+05 -4.035352E+04  7.547464E+05 -3.375431E+03  2.018061E+04
        10   2  1.128972E+06  5.004552E+05 -1.934218E+04  7.962870E+05 -2.976981E+03  1.147614E+04
        10   3  1.216970E+06  5.405516E+05  4.959703E+03  8.303138E+05 -2.559145E+03  2.742906E+03
        10   4  1.257998E+06  5.683364E+05  7.949727E+03  8.506281E+05 -1.167783E+04  1.396330E+04
        10   5  1.244621E+06  5.812026E+05  1.000065E+04  8.543497E+05 -1.132139E+04  5.228172E+03
        10   6  1.258062E+06  5.684452E+05  1.537757E+04  8.505521E+05 -1.094497E+04 -3.535276E+03
        10   7  1.448248E+06  7.019644E+05  5.625056E+04  9.465435E+05 -1.998363E+04  7.743453E+03
        10   8  1.360287E+06  6.619586E+05  3.934315E+04  9.124253E+05 -1.966794E+04 -1.021386E+03
        10   9  1.299156E+06  5.963404E+05  2.579593E+04  8.707923E+05 -1.933168E+04 -9.814087E+03
        10  10  1.067788E+06  4.347293E+05 -4.035430E+04  7.547464E+05  4.682013E-10  2.435907E-10
        10  11  1.128972E+06  5.004550E+05 -1.934244E+04  7.962871E+05  3.519812E-10  6.270511E-11
        10  12  1.216970E+06  5.405516E+05  4.959676E+03  8.303138E+05  1.106038E-09  5.580465E-11
        10  13  1.257997E+06  5.683361E+05  7.949104E+03  8.506282E+05  5.592458E-10  1.695868E-10
        10  14  1.244621E+06  5.812025E+05  1.000036E+04  8.543498E+05 -1.021155E-09  9.665022E-11
        10  15  1.258061E+06  5.684452E+05  1.537732E+04  8.505521E+05  1.266642E-09 -1.121715E-10
        10  16  1.448248E+06  7.019642E+05  5.624970E+04  9.465437E+05 -9.673869E-11  1.601120E-10
        10  17  1.360286E+06  6.619585E+05  3.934243E+04  9.124253E+05 -3.530470E-11  1.039613E-10
        10  18  1.299155E+06  5.963401E+05  2.579505E+04  8.707922E+05  1.260288E-10 -4.171696E-10
        10  19  1.067789E+06  4.347298E+05 -4.035352E+04  7.547464E+05  3.375431E+03 -2.018061E+04
        10  20  1.128972E+06  5.004552E+05 -1.934218E+04  7.962870E+05  2.976981E+03 -1.147614E+04
        10  21  1.216970E+06  5.405516E+05  4.959703E+03  8.303138E+05  2.559145E+03 -2.742906E+03
        10  22  1.257998E+06  5.683364E+05  7.949727E+03  8.506281E+05  1.167783E+04 -1.396330E+04
        10  23  1.244621E+06  5.812026E+05  1.000065E+04  8.543497E+05  1.132139E+04 -5.228172E+03
        10  24  1.258062E+06  5.684452E+05  1.537757E+04  8.505521E+05  1.094497E+04  3.535276E+03
        10  25  1.448248E+06  7.019644E+05  5.625056E+04  9.465435E+05  1.998363E+04 -7.743453E+03
        10  26  1.360287E+06  6.619586E+05  3.934315E+04  9.124253E+05  1.966794E+04  1.021386E+03
        10  27  1.299156E+06  5.963404E+05  2.579593E+04  8.707923E+05  1.933168E+04  9.814087E+03
        11   1  1.266634E+06  5.775103E+05  2.259235E+04  8.567754E+05 -2.345530E+03 -2.461122E+03
        11   2  1.329952E+06  6.406955E+05  5.555008E+04  8.959604E+05 -1.260307E+04 -1.876149E+04
        11   3  1.425051E+06  6.844478E+05  1.021878E+05  9.257314E+05 -2.341164E+04 -3.433001E+04
        11   4  1.258361E+06  5.684276E+05  1.963505E+04  8.511360E+05 -1.084711E+04 -8.825880E+03
        11   5  1.244419E+06  5.815411E+05  3.338232E+04  8.533754E+05 -2.004408E+04 -2.433281E+04
        11   6  1.262026E+06  5.749924E+05  5.989577E+04  8.461971E+05 -2.978988E+04 -3.910631E+04
        11   7  1.250087E+06  5.593454E+05  1.667822E+04  8.454969E+05 -1.934840E+04 -1.519034E+04
        11   8  1.158895E+06  5.223914E+05  1.121452E+04  8.107974E+05 -2.748366E+04 -2.990307E+04
        11   9  1.099032E+06  4.655509E+05  1.760178E+04  7.666861E+05 -3.616585E+04 -4.388103E+04
        11  10  1.266634E+06  5.775103E+05  2.259233E+04  8.567754E+05  2.044090E-10 -2.674120E-10
        11  11  1.329952E+06  6.406951E+05  5.554912E+04  8.959602E+05 -1.044432E-09 -1.388772E-10
        11  12  1.425050E+06  6.844464E+05  1.021846E+05  9.257308E+05  2.895153E-10 -2.507099E-11
        11  13  1.258361E+06  5.684275E+05  1.963469E+04  8.511360E+05  3.208160E-10 -1.873681E-10
        11  14  1.244418E+06  5.815404E+05  3.338046E+04  8.533750E+05  4.044228E-10 -1.646950E-10
        11  15  1.262025E+06  5.749906E+05  5.989124E+04  8.461961E+05 -2.456438E-10  5.775491E-11
        11  16  1.250087E+06  5.593450E+05  1.667708E+04  8.454967E+05  3.418124E-10 -5.326572E-11
        11  17  1.158894E+06  5.223903E+05  1.121143E+04  8.107967E+05  5.044446E-10  1.090934E-10
        11  18  1.099030E+06  4.655485E+05  1.759571E+04  7.666848E+05 -4.759069E-10  7.210876E-11
        11  19  1.266634E+06  5.775103E+05  2.259235E+04  8.567754E+05  2.345530E+03  2.461122E+03
        11  20  1.329952E+06  6.406955E+05  5.555008E+04  8.959604E+05  1.260307E+04  1.876149E+04
        11  21  1.425051E+06  6.844478E+05  1.021878E+05  9.257314E+05  2.341164E+04  3.433001E+04
        11  22  1.258361E+06  5.684276E+05  1.963505E+04  8.511360E+05  1.084711E+04  8.825880E+03
        11  23  1.244419E+06  5.815411E+05  3.338232E+04  8.533754E+05  2.004408E+04  2.433281E+04
        11  24  1.262026E+06  5.749924E+05  5.989577E+04  8.461971E+05  2.978988E+04  3.910631E+04
        11  25  1.250087E+06  5.593454E+05  1.667822E+04  8.454969E+05  1.934840E+04  1.519034E+04
        11  26  1.158895E+06  5.223914E+05  1.121452E+04  8.107974E+05  2.748366E+04  2.990307E+04
        11  27  1.099032E+06  4.655509E+05  1.760178E+04  7.666861E+05  3.616585E+04  4.388103E+04
        12   1  1.453823E+06  7.437075E+05  1.335503E+05  9.689818E+05 -2.729796E+04 -4.247648E+04
        12   2  1.597284E+06  7.418687E+05  2.197325E+05  9.523115E+05 -9.972928E+04 -9.752298E+04
        12   3  1.866175E+06  8.486225E+05  4.094535E+05  8.698551E+05 -1.799411E+05 -1.422169E+05
        12   4  1.265283E+06  5.726731E+05  7.764383E+04  8.562404E+05 -3.551459E+04 -4.862755E+04
        12   5  1.250230E+06  6.021560E+05  1.390255E+05  8.274843E+05 -9.296747E+04 -9.247783E+04
        12   6  1.357375E+06  7.370425E+05  2.910248E+05  7.329405E+05 -1.581725E+05 -1.259817E+05
        12   7  1.076782E+06  4.016746E+05  2.173304E+04  7.435412E+05 -4.372805E+04 -5.477528E+04
        12   8  9.033174E+05  4.624630E+05  5.831265E+04  7.027169E+05 -8.621086E+04 -8.743442E+04
        12   9  8.489018E+05  6.254909E+05  1.725957E+05  5.960934E+05 -1.364294E+05 -1.097492E+05
        12  10  1.453821E+06  7.437053E+05  1.335455E+05  9.689809E+05  4.877837E-10  1.443281E-10
        12  11  1.597271E+06  7.418559E+05  2.196961E+05  9.523037E+05  5.252560E-10  6.752547E-11
        12  12  1.866135E+06  8.485922E+05  4.093550E+05  8.698345E+05  2.787187E-10  1.843341E-10
        12  13  1.265282E+06  5.726703E+05  7.763703E+04  8.562390E+05 -1.440518E-10  1.810189E-10
        12  14  1.250219E+06  6.021445E+05  1.389932E+05  8.274774E+05  1.013088E-10  7.011593E-11
        12  15  1.357344E+06  7.370188E+05  2.909482E+05  7.329244E+05 -2.176692E-10 -5.470714E-11
        12  16  1.076780E+06  4.016708E+05  2.172383E+04  7.435393E+05 -8.076558E-10  1.621604E-10
        12  17  9.033074E+05  4.624528E+05  5.828438E+04  7.027108E+05 -8.080770E-11  3.857994E-11
        12  18  8.488786E+05  6.254731E+05  1.725382E+05  5.960813E+05 -1.075161E-10  8.346663E-12
        12  19  1.453823E+06  7.437075E+05  1.335503E+05  9.689818E+05  2.729796E+04  4.247648E+04
        12  20  1.597284E+06  7.418687E+05  2.197325E+05  9.523115E+05  9.972928E+04  9.752298E+04
        12  21  1.866175E+06  8.486225E+05  4.094535E+05  8.698551E+05  1.799411E+05  1.422169E+05
        12  22  1.265283E+06  5.726731E+05  7.764383E+04  8.562404E+05  3.551459E+04  4.862755E+04
        12  23  1.250230E+06  6.021560E+05  1.390255E+05  8.274843E+05  9.296747E+04  9.247783E+04
        12  24  1.357375E+06  7.370425E+05  2.910248E+05  7.329405E+05  1.581725E+05  1.259817E+05
        12  25  1.076782E+06  4.016746E+05  2.173304E+04  7.435412E+05  4.372805E+04  5.477528E+04
        12  26  9.033174E+05  4.624630E+05  5.831265E+04  7.027169E+05  8.621086E+04  8.743442E+04
        12  27  8.489018E+05  6.254909E+05  1.725957E+05  5.960934E+05  1.364294E+05  1.097492E+05
        13   1  1.369003E+06  7.607636E+04  8.640732E+04  4.512689E+04  5.897345E+04  4.277646E+00
        13   2  1.361141E+06  1.212032E+04  4.204910E+04  1.918064E+04  3.713296E+04  1.144822E+00
        13   3  1.369051E+06 -7.688974E+01  2.482796E+04 -6.765020E+03  1.529245E+04 -1.662857E-01
        13   4  1.369000E+06  7.607254E+04  8.640678E+04  2.554064E-11  5.897345E+04 -1.887043E-10
        13   5  1.361141E+06  1.211963E+04  4.204901E+04  1.593304E-09  3.713296E+04 -4.538636E-10
        13   6  1.369051E+06 -7.697555E+01  2.482795E+04  4.587561E-10  1.529245E+04 -2.665028E-10
        13   7  1.369003E+06  7.607636E+04  8.640732E+04 -4.512689E+04  5.897345E+04 -4.277646E+00
        13   8  1.361141E+06  1.212032E+04  4.204910E+04 -1.918064E+04  3.713296E+04 -1.144822E+00
        13   9  1.369051E+06 -7.688974E+01  2.482796E+04  6.765020E+03  1.529245E+04  1.662857E-01
        13  10  1.368999E+06  7.607543E+04  8.640080E+04  4.512689E+04  1.625808E-10 -1.626795E-10
        13  11  1.361139E+06  1.211995E+04  4.204652E+04  1.918064E+04  1.370658E-10 -3.470214E-10
        13  12  1.369050E+06 -7.695235E+01  2.482752E+04 -6.765020E+03 -1.788135E-12  9.724423E-11
        13  13  1.368997E+06  7.607161E+04  8.640026E+04  4.295780E-10 -3.576776E-10 -1.265840E-10
        13  14  1.361139E+06  1.211926E+04  4.204642E+04  2.948042E-10  2.084156E-10 -2.685781E-10
        13  15  1.369050E+06 -7.703816E+01  2.482751E+04 -7.912472E-10 -1.143428E-10 -1.544321E-12
        13  16  1.368999E+06  7.607543E+04  8.640080E+04 -4.512689E+04 -2.794278E-10 -7.766120E-11
        13  17  1.361139E+06  1.211995E+04  4.204652E+04 -1.918064E+04 -8.258101E-10 -2.491252E-10
        13  18  1.369050E+06 -7.695235E+01  2.482752E+04  6.765020E+03  2.922699E-10 -6.075658E-11
        13  19  1.369003E+06  7.607636E+04  8.640732E+04  4.512689E+04 -5.897345E+04 -4.277646E+00
        13  20  1.361141E+06  1.212032E+04  4.204910E+04  1.918064E+04 -3.713296E+04 -1.144822E+00
        13  21  1.369051E+06 -7.688974E+01  2.482796E+04 -6.765020E+03 -1.529245E+04  1.662857E-01
        13  22  1.369000E+06  7.607254E+04  8.640678E+04 -8.396402E-10 -5.897345E+04 -6.854898E-11
        13  23  1.361141E+06  1.211963E+04  4.204901E+04 -2.643204E-09 -3.713296E+04 -1.047087E-10
        13  24  1.369051E+06 -7.697555E+01  2.482795E+04 -1.580336E-09 -1.529245E+04  2.591381E-10
        13  25  1.369003E+06  7.607636E+04  8.640732E+04 -4.512689E+04 -5.897345E+04  4.277646E+00
        13  26  1.361141E+06  1.212032E+04  4.204910E+04 -1.918064E+04 -3.713296E+04  1.144822E+00
        13  27  1.369051E+06 -7.688974E+01  2.482796E+04  6.765020E+03 -1.529245E+04 -1.662857E-01
        14   1  1.365887E+06  2.856351E+03  2.024134E+04  1.182670E+03  1.185497E+04  2.253591E-02
        14   2  1.365110E+06  1.308394E+02  1.437514E+04  4.958786E+02  4.700393E+03  3.746457E-03
        14   3  1.365890E+06 -8.488109E+01  1.378680E+04 -1.909036E+02 -2.454057E+03  7.530249E-04
        14   4  1.365887E+06  2.856349E+03  2.024134E+04 -2.259093E-10  1.185497E+04 -1.733236E-10
        14   5  1.365110E+06  1.308389E+02  1.437514E+04  4.163489E-10  4.700393E+03 -1.642733E-10
        14   6  1.365890E+06 -8.488115E+01  1.378680E+04  3.261903E-10 -2.454057E+03 -5.004358E-11
        14   7  1.365887E+06  2.856351E+03  2.024134E+04 -1.182670E+03  1.185497E+04 -2.253591E-02
        14   8  1.365110E+06  1.308394E+02  1.437514E+04 -4.958786E+02  4.700393E+03 -3.746457E-03
        14   9  1.365890E+06 -8.488109E+01  1.378680E+04  1.909036E+02 -2.454057E+03 -7.530250E-04
        14  10  1.365887E+06  2.856314E+03  2.024108E+04  1.182670E+03  5.289853E-10  2.936753E-10
        14  11  1.365110E+06  1.308335E+02  1.437509E+04  4.958786E+02  1.163944E-10  1.155100E-10
        14  12  1.365890E+06 -8.488270E+01  1.378679E+04 -1.909036E+02 -9.456027E-11 -3.305033E-11
        14  13  1.365887E+06  2.856311E+03  2.024108E+04 -1.356112E-09  1.061932E-10  1.099705E-10
        14  14  1.365110E+06  1.308330E+02  1.437509E+04 -1.785097E-09  5.102837E-10  1.484493E-11
        14  15  1.365890E+06 -8.488277E+01  1.378679E+04  1.178563E-09  6.142390E-10 -2.877316E-11
        14  16  1.365887E+06  2.856314E+03  2.024108E+04 -1.182670E+03 -3.748103E-10 -7.572651E-11
        14  17  1.365110E+06  1.308335E+02  1.437509E+04 -4.958786E+02 -1.954020E-10 -1.681630E-10
        14  18  1.365890E+06 -8.488270E+01  1.378679E+04  1.909036E+02  1.720748E-10  6.577159E-12
        14  19  1.365887E+06  2.856351E+03  2.024134E+04  1.182670E+03 -1.185497E+04 -2.253591E-02
        14  20  1.365110E+06  1.308394E+02  1.437514E+04  4.958786E+02 -4.700393E+03 -3.746457E-03
        14  21  1.365890E+06 -8.488109E+01  1.378680E+04 -1.909036E+02  2.454057E+03 -7.530251E-04
        14  22  1.365887E+06  2.856349E+03  2.024134E+04 -2.275891E-09 -1.185497E+04  3.890989E-10
        14  23  1.365110E+06  1.308389E+02  1.437514E+04 -4.718399E-10 -4.700393E+03  1.706549E-10
        14  24  1.365890E+06 -8.488115E+01  1.378680E+04 -4.546049E-10  2.454057E+03 -2.071833E-11
        14  25  1.365887E+06  2.856351E+03  2.024134E+04 -1.182670E+03 -1.185497E+04  2.253591E-02
        14  26  1.365110E+06  1.308394E+02  1.437514E+04 -4.958786E+02 -4.700393E+03  3.746457E-03
        14  27  1.365890E+06 -8.488109E+01  1.378680E+04  1.909036E+02  2.454057E+03  7.530252E-04
        15   1  1.366107E+06 -2.177735E+02  1.506405E+04  9.660600E+02 -4.996997E+03 -7.759322E-03
        15   2  1.364836E+06  4.236362E+02  2.138320E+04 -5.225244E+02 -1.565691E+04  1.314995E-02
        15   3  1.366098E+06  5.664811E+03  3.578151E+04 -2.011122E+03 -2.631710E+04  8.507223E-02
        15   4  1.366107E+06 -2.177752E+02  1.506405E+04 -5.664505E-10 -4.996997E+03 -1.000120E-10
        15   5  1.364836E+06  4.236356E+02  2.138320E+04 -3.157107E-10 -1.565691E+04 -4.128885E-10
        15   6  1.366098E+06  5.664804E+03  3.578151E+04 -9.994096E-10 -2.631710E+04 -5.626502E-10
        15   7  1.366107E+06 -2.177735E+02  1.506405E+04 -9.660600E+02 -4.996997E+03  7.759322E-03
        15   8  1.364836E+06  4.236362E+02  2.138320E+04  5.225244E+02 -1.565691E+04 -1.314995E-02
        15   9  1.366098E+06  5.664811E+03  3.578151E+04  2.011122E+03 -2.631710E+04 -8.507224E-02
        15  10  1.366107E+06 -2.177802E+02  1.506401E+04  9.660600E+02  6.238969E-10 -2.205606E-10
        15  11  1.364835E+06  4.235705E+02  2.138274E+04 -5.225244E+02  4.745597E-11 -4.078737E-10
        15  12  1.366097E+06  5.664626E+03  3.578021E+04 -2.011122E+03  8.560617E-11 -8.326640E-11
        15  13  1.366107E+06 -2.177819E+02  1.506401E+04  4.458298E-10  1.802066E-10 -9.010524E-11
        15  14  1.364835E+06  4.235700E+02  2.138274E+04  4.966632E-10  3.308372E-10 -1.589013E-10
        15  15  1.366097E+06  5.664618E+03  3.578021E+04  1.518354E-10 -7.676676E-11 -5.270694E-11
        15  16  1.366107E+06 -2.177802E+02  1.506401E+04 -9.660600E+02 -3.545023E-10  3.093648E-11
        15  17  1.364835E+06  4.235705E+02  2.138274E+04  5.225244E+02 -3.526031E-10 -3.932991E-11
        15  18  1.366097E+06  5.664626E+03  3.578021E+04  2.011122E+03  3.489352E-10  1.823102E-11
        15  19  1.366107E+06 -2.177735E+02  1.506405E+04  9.660600E+02  4.996997E+03  7.759322E-03
        15  20  1.364836E+06  4.236362E+02  2.138320E+04 -5.225244E+02  1.565691E+04 -1.314995E-02
        15  21  1.366098E+06  5.664811E+03  3.578151E+04 -2.011122E+03  2.631710E+04 -8.507223E-02
        15  22  1.366107E+06 -2.177752E+02  1.506405E+04 -7.412297E-10  4.996997E+03 -6.898924E-11
        15  23  1.364836E+06  4.236356E+02  2.138320E+04 -2.988688E-10  1.565691E+04  7.697043E-11
        15  24  1.366098E+06  5.664804E+03  3.578151E+04 -8.056829E-10  2.631710E+04  4.404708E-10
        15  25  1.366107E+06 -2.177735E+02  1.506405E+04 -9.660600E+02  4.996997E+03 -7.759322E-03
        15  26  1.364836E+06  4.236362E+02  2.138320E+04  5.225244E+02  1.565691E+04  1.314995E-02
        15  27  1.366098E+06  5.664811E+03  3.578151E+04  2.011122E+03  2.631710E+04  8.507223E-02
        16   1  1.372362E+06 -8.032866E+01  4.572616E+04  1.341422E+04 -3.244232E+04 -6.994950E-01
        16   2  1.356976E+06  2.368514E+04  8.076004E+04 -3.724298E+04 -7.441693E+04  4.454874E+00
        16   3  1.372272E+06  1.483993E+05  1.683196E+05 -8.790234E+04 -1.163915E+05  1.644511E+01
        16   4  1.372362E+06 -8.066607E+01  4.572611E+04 -1.338655E-10 -3.244232E+04 -3.767257E-10
        16   5  1.356975E+06  2.368254E+04  8.075967E+04  1.675500E-09 -7.441692E+04 -2.634654E-11
        16   6  1.372264E+06  1.483848E+05  1.683175E+05 -1.088440E-09 -1.163915E+05  4.922403E-11
        16   7  1.372362E+06 -8.032866E+01  4.572616E+04 -1.341422E+04 -3.244232E+04  6.994949E-01
        16   8  1.356976E+06  2.368514E+04  8.076004E+04  3.724298E+04 -7.441693E+04 -4.454874E+00
        16   9  1.372272E+06  1.483993E+05  1.683196E+05  8.790234E+04 -1.163915E+05 -1.644511E+01
        16  10  1.372361E+06 -8.061044E+01  4.572419E+04  1.341422E+04  3.040023E-10  7.645489E-11
        16  11  1.356970E+06  2.368366E+04  8.074965E+04 -3.724298E+04 -1.093486E-11  1.717525E-10
        16  12  1.372258E+06  1.483957E+05  1.682942E+05 -8.790234E+04  1.626466E-10  5.191558E-11
        16  13  1.372361E+06 -8.094785E+01  4.572414E+04  4.975521E-10  2.525555E-10  7.833165E-11
        16  14  1.356969E+06  2.368106E+04  8.074928E+04  1.523959E-09  3.437651E-10  1.357073E-10
        16  15  1.372249E+06  1.483812E+05  1.682921E+05  1.355122E-09  3.013452E-10  5.491174E-11
        16  16  1.372361E+06 -8.061044E+01  4.572419E+04 -1.341422E+04  1.534719E-10  8.202663E-12
        16  17  1.356970E+06  2.368366E+04  8.074965E+04  3.724298E+04 -1.009022E-11  1.591635E-10
        16  18  1.372258E+06  1.483957E+05  1.682942E+05  8.790234E+04 -6.304080E-10  6.748920E-11
        16  19  1.372362E+06 -8.032866E+01  4.572616E+04  1.341422E+04  3.244232E+04  6.994950E-01
        16  20  1.356976E+06  2.368514E+04  8.076004E+04 -3.724298E+04  7.441693E+04 -4.454874E+00
        16  21  1.372272E+06  1.483993E+05  1.683196E+05 -8.790234E+04  1.163915E+05 -1.644511E+01
        16  22  1.372362E+06 -8.066607E+01  4.572611E+04 -2.874326E-10  3.244232E+04  5.264898E-10
        16  23  1.356975E+06  2.368254E+04  8.075967E+04  5.853352E-10  7.441692E+04  3.143037E-10
        16  24  1.372264E+06  1.483848E+05  1.683175E+05 -1.568380E-09  1.163915E+05  5.871368E-11
        16  25  1.372362E+06 -8.032866E+01  4.572616E+04 -1.341422E+04  3.244232E+04 -6.994949E-01
        16  26  1.356976E+06  2.368514E+04  8.076004E+04  3.724298E+04  7.441693E+04  4.454874E+00
        16  27  1.372272E+06  1.483993E+05  1.683196E+05  8.790234E+04  1.163915E+05  1.644511E+01
        17   1 -4.732454E+05 -1.360677E+06 -5.064341E+05  2.842208E+05 -9.347161E+03 -2.673298E+05
        17   2 -1.909864E+05 -1.202760E+06 -2.860725E+05  1.682976E+05 -2.885349E+04 -1.556630E+05
        17   3 -1.134226E+05 -1.110558E+06 -1.896673E+05  8.424236E+04 -2.962815E+04 -4.396847E+04
        17   4 -2.934284E+05 -6.348915E+05 -3.334297E+05  1.105685E+05 -9.262165E+03 -2.258432E+05
        17   5 -4.668167E+04 -6.043251E+05 -1.632930E+05  9.457478E+04 -2.882781E+04 -1.410635E+05
        17   6  1.229260E+02 -6.347591E+05 -9.834334E+04  1.104772E+05 -2.963400E+04 -5.628342E+04
        17   7 -1.135349E+05  9.144703E+04 -1.604395E+05 -6.328813E+04 -9.200500E+03 -1.843082E+05
        17   8  9.762117E+04 -5.536902E+03 -4.052885E+04  2.077941E+04 -2.880563E+04 -1.264501E+05
        17   9  1.136577E+05 -1.587398E+05 -7.028840E+03  1.367326E+05 -2.964089E+04 -6.860758E+04
        17  10 -4.732647E+05 -1.360754E+06 -5.065688E+05  2.842188E+05 -2.163204E-10 -3.593600E-10
        17  11 -1.909938E+05 -1.202787E+06 -2.861197E+05  1.682940E+05 -2.834348E-10  3.703870E-10
        17  12 -1.134241E+05 -1.110561E+06 -1.896726E+05  8.424131E+04  1.994443E-10  1.049254E-09
        17  13 -2.934422E+05 -6.349464E+05 -3.335258E+05  1.105668E+05  1.698630E-10  1.421024E-11
        17  14 -4.668791E+04 -6.043467E+05 -1.633320E+05  9.457150E+04 -1.416900E-10  1.787758E-11
        17  15  1.211321E+02 -6.347627E+05 -9.835094E+04  1.104759E+05 -1.879598E-11  2.666742E-11
        17  16 -1.135441E+05  9.141053E+04 -1.605035E+05 -6.328950E+04 -3.430088E-10  3.866660E-10
        17  17  9.761598E+04 -5.554296E+03 -4.056046E+04  2.077648E+04 -4.046619E-10 -3.679866E-10
        17  18  1.136555E+05 -1.587451E+05 -7.039337E+03  1.367310E+05  3.715509E-11 -1.075843E-09
        17  19 -4.732454E+05 -1.360677E+06 -5.064341E+05  2.842208E+05  9.347161E+03  2.673298E+05
        17  20 -1.909864E+05 -1.202760E+06 -2.860725E+05  1.682976E+05  2.885349E+04  1.556630E+05
        17  21 -1.134226E+05 -1.110558E+06 -1.896673E+05  8.424236E+04  2.962815E+04  4.396847E+04
        17  22 -2.934284E+05 -6.348915E+05 -3.334297E+05  1.105685E+05  9.262165E+03  2.258432E+05
        17  23 -4.668167E+04 -6.043251E+05 -1.632930E+05  9.457478E+04  2.882781E+04  1.410635E+05
        17  24  1.229260E+02 -6.347591E+05 -9.834334E+04  1.104772E+05  2.963400E+04  5.628342E+04
        17  25 -1.135349E+05  9.144703E+04 -1.604395E+05 -6.328813E+04  9.200500E+03  1.843082E+05
        17  26  9.762117E+04 -5.536902E+03 -4.052885E+04  2.077941E+04  2.880563E+04  1.264501E+05
        17  27  1.136577E+05 -1.587398E+05 -7.028840E+03  1.367326E+05  2.964089E+04  6.860758E+04
        18   1 -1.040023E+05 -1.013364E+06 -1.563188E+05  1.159641E+05 -2.455673E+04 -3.351418E+04
        18   2 -6.460668E+04 -8.843717E+05 -1.117302E+05  9.433959E+04 -1.779298E+04 -1.265016E+03
        18   3 -4.031410E+04 -7.633661E+05 -9.193948E+04  1.057574E+05 -1.009948E+04  3.098855E+04
        18   4 -1.090816E+04 -6.229261E+05 -8.161769E+04  1.107438E+05 -2.455998E+04 -4.256478E+04
        18   5 -1.550467E+03 -6.190304E+05 -6.201527E+04  9.422117E+04 -1.779831E+04 -1.163885E+04
        18   6 -7.060079E+03 -6.229021E+05 -6.628088E+04  1.107410E+05 -1.010660E+04  1.928527E+04
        18   7  8.217709E+04 -2.323406E+05 -6.923202E+03  1.055201E+05 -2.456307E+04 -5.162094E+04
        18   8  6.150173E+04 -3.536208E+05 -1.230298E+04  9.410268E+04 -1.780364E+04 -2.201702E+04
        18   9  2.619299E+04 -4.824185E+05 -4.062255E+04  1.157258E+05 -1.011390E+04  7.579402E+03
        18  10 -1.040032E+05 -1.013366E+06 -1.563220E+05  1.159635E+05  9.071063E-11 -3.370575E-10
        18  11 -6.460702E+04 -8.843718E+05 -1.117308E+05  9.433957E+04 -2.692503E-10 -1.026910E-10
        18  12 -4.031446E+04 -7.633672E+05 -9.194148E+04  1.057576E+05  2.246134E-10  1.454589E-10
        18  13 -1.090930E+04 -6.229282E+05 -8.162223E+04  1.107430E+05  6.096744E-11 -9.552197E-12
        18  14 -1.550844E+03 -6.190307E+05 -6.201612E+04  9.422100E+04 -3.018709E-10  9.237633E-11
        18  15 -7.060289E+03 -6.229025E+05 -6.628178E+04  1.107412E+05  2.604285E-10 -2.102828E-11
        18  16  8.217572E+04 -2.323436E+05 -6.929344E+03  1.055191E+05  7.670239E-10  3.782448E-10
        18  17  6.150126E+04 -3.536214E+05 -1.230449E+04  9.410237E+04  3.472742E-10  1.358220E-10
        18  18  2.619286E+04 -4.824186E+05 -4.062285E+04  1.157259E+05  6.418971E-10 -2.283483E-10
        18  19 -1.040023E+05 -1.013364E+06 -1.563188E+05  1.159641E+05  2.455673E+04  3.351418E+04
        18  20 -6.460668E+04 -8.843717E+05 -1.117302E+05  9.433959E+04  1.779298E+04  1.265016E+03
        18  21 -4.031410E+04 -7.633661E+05 -9.193948E+04  1.057574E+05  1.009948E+04 -3.098855E+04
        18  22 -1.090816E+04 -6.229261E+05 -8.161769E+04  1.107438E+05  2.455998E+04  4.256478E+04
        18  23 -1.550467E+03 -6.190304E+05 -6.201527E+04  9.422117E+04  1.779831E+04  1.163885E+04
        18  24 -7.060079E+03 -6.229021E+05 -6.628088E+04  1.107410E+05  1.010660E+04 -1.928527E+04
        18  25  8.217709E+04 -2.323406E+05 -6.923202E+03  1.055201E+05  2.456307E+04  5.162094E+04
        18  26  6.150173E+04 -3.536208E+05 -1.230298E+04  9.410268E+04  1.780364E+04  2.201702E+04
        18  27  2.619299E+04 -4.824185E+05 -4.062255E+04  1.157258E+05  1.011390E+04 -7.579402E+03
        19   1 -1.281959E+04 -6.859258E+05 -8.386398E+04  1.278046E+05 -4.914054E+03  4.274525E+04
        19   2 -1.435024E+04 -5.407119E+05 -9.775653E+04  4.397922E+04  9.449445E+02  9.371100E+04
        19   3 -1.497876E+05 -4.356229E+05 -1.783237E+05 -7.029919E+03  1.093957E+03  1.446888E+05
        19   4  1.163572E+02 -6.304077E+05 -7.461327E+04  1.106755E+05 -4.923419E+03  3.024771E+04
        19   5 -3.135556E+04 -6.096443E+05 -1.141530E+05  9.431775E+04  9.498489E+02  8.940778E+04
        19   6 -1.981861E+05 -6.304704E+05 -2.260739E+05  1.107851E+05  1.123917E+03  1.485696E+05
        19   7  1.305333E+04 -5.748855E+05 -6.536191E+04  9.354478E+04 -4.932093E+03  1.774909E+04
        19   8 -4.835166E+04 -6.785667E+05 -1.305484E+05  1.446507E+05  9.540553E+02  8.510502E+04
        19   9 -2.465351E+05 -8.252535E+05 -2.738193E+05  2.285630E+05  1.155359E+03  1.524492E+05
        19  10 -1.282011E+04 -6.859278E+05 -8.386746E+04  1.278048E+05  4.345907E-10 -7.944282E-10
        19  11 -1.435261E+04 -5.407214E+05 -9.777305E+04  4.397915E+04 -2.734826E-10 -2.766612E-10
        19  12 -1.497932E+05 -4.356454E+05 -1.783631E+05 -7.030047E+03  1.504619E-11  2.236525E-10
        19  13  1.160852E+02 -6.304087E+05 -7.461504E+04  1.106756E+05  1.829140E-10 -3.789958E-12
        19  14 -3.135771E+04 -6.096529E+05 -1.141680E+05  9.431768E+04 -3.693068E-10  3.191368E-11
        19  15 -1.981920E+05 -6.304942E+05 -2.261154E+05  1.107850E+05  1.633617E-10 -9.421942E-13
        19  16  1.305322E+04 -5.748859E+05 -6.536255E+04  9.354485E+04 -3.451718E-10  8.929436E-10
        19  17 -4.835361E+04 -6.785745E+05 -1.305620E+05  1.446506E+05  1.290095E-10  2.524461E-10
        19  18 -2.465413E+05 -8.252784E+05 -2.738631E+05  2.285629E+05  2.255963E-10 -3.204336E-10
        19  19 -1.281959E+04 -6.859258E+05 -8.386398E+04  1.278046E+05  4.914054E+03 -4.274525E+04
        19  20 -1.435024E+04 -5.407119E+05 -9.775653E+04  4.397922E+04 -9.449445E+02 -9.371100E+04
        19  21 -1.497876E+05 -4.356229E+05 -1.783237E+05 -7.029919E+03 -1.093957E+03 -1.446888E+05
        19  22  1.163572E+02 -6.304077E+05 -7.461327E+04  1.106755E+05  4.923419E+03 -3.024771E+04
        19  23 -3.135556E+04 -6.096443E+05 -1.141530E+05  9.431775E+04 -9.498489E+02 -8.940778E+04
        19  24 -1.981861E+05 -6.304704E+05 -2.260739E+05  1.107851E+05 -1.123917E+03 -1.485696E+05
        19  25  1.305333E+04 -5.748855E+05 -6.536191E+04  9.354478E+04  4.932093E+03 -1.774909E+04
        19  26 -4.835166E+04 -6.785667E+05 -1.305484E+05  1.446507E+05 -9.540553E+02 -8.510502E+04
        19  27 -2.465351E+05 -8.252535E+05 -2.738193E+05  2.285630E+05 -1.155359E+03 -1.524492E+05
        20   1  2.539503E+05 -2.171034E+04 -1.363080E+05  2.256818E+05 -3.817614E+04 -2.038988E+04
        20   2  2.977002E+05  3.853138E+04 -9.589004E+04  2.474266E+05 -2.867642E+04  4.803588E+03
        20   3  3.485741E+05  7.111662E+04 -7.376909E+04  2.680725E+05 -1.156764E+04  1.985655E+04
        20   4  6.075621E+05  2.451924E+05 -1.820154E+04  4.080475E+05 -1.420847E+04 -2.420341E+03
        20   5  6.053134E+05  2.625869E+05 -8.557934E+03  4.047417E+05 -1.931659E+04  1.181877E+04
        20   6  6.133575E+05  2.554950E+05 -4.535878E+03  4.003332E+05 -1.682011E+04  1.591831E+04
        20   7  9.613117E+05  5.121776E+05  9.989267E+04  5.905358E+05  9.778052E+03  1.556448E+04
        20   8  9.130358E+05  4.867038E+05  7.876644E+04  5.621488E+05 -9.950396E+03  1.883892E+04
        20   9  8.782236E+05  4.399156E+05  6.469272E+04  5.326599E+05 -2.207566E+04  1.197779E+04
        20  10  2.539486E+05 -2.171118E+04 -1.363115E+05  2.256811E+05  2.148842E-10 -9.572453E-11
        20  11  2.976993E+05  3.853113E+04 -9.589163E+04  2.474267E+05  1.044141E-09  1.260482E-10
        20  12  3.485739E+05  7.111617E+04 -7.377008E+04  2.680727E+05 -2.555033E-10  3.404118E-10
        20  13  6.075619E+05  2.451924E+05 -1.820193E+04  4.080475E+05 -5.829375E-11  5.499508E-11
        20  14  6.053130E+05  2.625867E+05 -8.558898E+03  4.047418E+05  3.312635E-10  2.200918E-10
        20  15  6.133571E+05  2.554946E+05 -4.536886E+03  4.003334E+05  6.176864E-10  2.734937E-10
        20  16  9.613116E+05  5.121773E+05  9.989204E+04  5.905357E+05 -3.187872E-11  2.463444E-10
        20  17  9.130356E+05  4.867034E+05  7.876558E+04  5.621490E+05 -2.837215E-11  2.969130E-10
        20  18  8.782230E+05  4.399153E+05  6.469153E+04  5.326601E+05 -2.453333E-10  1.789020E-10
        20  19  2.539503E+05 -2.171034E+04 -1.363080E+05  2.256818E+05  3.817614E+04  2.038988E+04
        20  20  2.977002E+05  3.853138E+04 -9.589004E+04  2.474266E+05  2.867642E+04 -4.803588E+03
        20  21  3.485741E+05  7.111662E+04 -7.376909E+04  2.680725E+05  1.156764E+04 -1.985655E+04
        20  22  6.075621E+05  2.451924E+05 -1.820154E+04  4.080475E+05  1.420847E+04  2.420341E+03
        20  23  6.053134E+05  2.625869E+05 -8.557934E+03  4.047417E+05  1.931659E+04 -1.181877E+04
        20  24  6.133575E+05  2.554950E+05 -4.535878E+03  4.003332E+05  1.682011E+04 -1.591831E+04
        20  25  9.613117E+05  5.121776E+05  9.989267E+04  5.905358E+05 -9.778052E+03 -1.556448E+04
        20  26  9.130358E+05  4.867038E+05  7.876644E+04  5.621488E+05  9.950396E+03 -1.883892E+04
        20  27  8.782236E+05  4.399156E+05  6.469272E+04  5.326599E+05  2.207566E+04 -1.197779E+04
        21   1  3.839047E+05  9.279644E+04 -6.358173E+04  2.849817E+05 -1.129683E+04  1.669213E+04
        21   2  4.242759E+05  1.363705E+05 -4.801553E+04  3.117874E+05 -7.678163E+03  1.510458E+04
        21   3  4.811224E+05  1.623536E+05 -3.388683E+04  3.337637E+05 -3.520884E+03  1.279723E+04
        21   4  6.137300E+05  2.552003E+05 -3.304855E+03  4.009190E+05 -1.474601E+04  1.410605E+04
        21   5  6.054995E+05  2.640916E+05 -1.290699E+03  4.031815E+05 -1.216417E+04  1.174216E+04
        21   6  6.139673E+05  2.556166E+05  1.854521E+02  4.006131E+05 -9.043953E+03  8.658503E+03
        21   7  8.436113E+05  4.176326E+05  5.696634E+04  5.169037E+05 -1.819686E+04  1.151871E+04
        21   8  7.867590E+05  3.918311E+05  4.543105E+04  4.946056E+05 -1.665189E+04  8.378447E+03
        21   9  7.468322E+05  3.488898E+05  3.425646E+04  4.674790E+05 -1.456860E+04  4.518600E+03
        21  10  3.839045E+05  9.279611E+04 -6.358250E+04  2.849819E+05 -5.969191E-11  3.229762E-10
        21  11  4.242758E+05  1.363702E+05 -4.801606E+04  3.117875E+05 -2.815569E-10  3.074086E-10
        21  12  4.811224E+05  1.623534E+05 -3.388716E+04  3.337637E+05  5.731583E-11  1.927786E-10
        21  13  6.137297E+05  2.552000E+05 -3.305638E+03  4.009191E+05  3.154876E-10  3.313893E-10
        21  14  6.054994E+05  2.640914E+05 -1.291236E+03  4.031816E+05  8.428934E-10  2.380515E-10
        21  15  6.139672E+05  2.556164E+05  1.851575E+02  4.006132E+05  4.724342E-10  8.318774E-11
        21  16  8.436109E+05  4.176324E+05  5.696546E+04  5.169038E+05  2.643006E-10  2.857094E-10
        21  17  7.867587E+05  3.918309E+05  4.543040E+04  4.946057E+05  4.076101E-10  2.185309E-10
        21  18  7.468319E+05  3.488897E+05  3.425602E+04  4.674790E+05 -1.889889E-10 -1.357995E-10
        21  19  3.839047E+05  9.279644E+04 -6.358173E+04  2.849817E+05  1.129683E+04 -1.669213E+04
        21  20  4.242759E+05  1.363705E+05 -4.801553E+04  3.117874E+05  7.678163E+03 -1.510458E+04
        21  21  4.811224E+05  1.623536E+05 -3.388683E+04  3.337637E+05  3.520884E+03 -1.279723E+04
        21  22  6.137300E+05  2.552003E+05 -3.304855E+03  4.009190E+05  1.474601E+04 -1.410605E+04
        21  23  6.054995E+05  2.640916E+05 -1.290699E+03  4.031815E+05  1.216417E+04 -1.174216E+04
        21  24  6.139673E+05  2.556166E+05  1.854521E+02  4.006131E+05  9.043953E+03 -8.658503E+03
        21  25  8.436113E+05  4.176326E+05  5.696634E+04  5.169037E+05  1.819686E+04 -1.151871E+04
        21  26  7.867590E+05  3.918311E+05  4.543105E+04  4.946056E+05  1.665189E+04 -8.378447E+03
        21  27  7.468322E+05  3.488898E+05  3.425646E+04  4.674790E+05  1.456860E+04 -4.518600E+03
        22   1  5.141595E+05  1.855501E+05 -2.445081E+04  3.503950E+05 -2.053310E+03  1.040680E+04
        22   2  5.540998E+05  2.282960E+05 -1.039672E+04  3.773862E+05 -2.645197E+02  5.887738E+03
        22   3  6.112279E+05  2.541664E+05  4.517011E+03  3.994421E+05  1.533804E+03  1.355231E+03
        22   4  6.140169E+05  2.556186E+05  9.058789E+02  4.006720E+05 -7.452586E+03  6.361147E+03
        22   5  6.054395E+05  2.640840E+05  2.632049E+03  4.031203E+05 -5.683244E+03  1.827722E+03
        22   6  6.140504E+05  2.556763E+05  5.234381E+03  4.006308E+05 -3.904277E+03 -2.719020E+03
        22   7  7.138873E+05  3.256941E+05  2.626248E+04  4.509590E+05 -1.285311E+04  2.314563E+03
        22   8  6.567822E+05  2.998735E+05  1.566078E+04  4.288568E+05 -1.110257E+04 -2.232738E+03
        22   9  6.168729E+05  2.571862E+05  5.951910E+03  4.018194E+05 -9.342311E+03 -6.793226E+03
        22  10  5.141595E+05  1.855499E+05 -2.445102E+04  3.503951E+05 -1.608855E-10 -2.791035E-10
        22  11  5.540998E+05  2.282960E+05 -1.039678E+04  3.773862E+05  1.481251E-10  5.808420E-11
        22  12  6.112279E+05  2.541664E+05  4.517003E+03  3.994421E+05  6.127739E-10  1.078871E-10
        22  13  6.140169E+05  2.556185E+05  9.056984E+02  4.006720E+05 -2.007920E-10 -9.940607E-11
        22  14  6.054394E+05  2.640840E+05  2.631982E+03  4.031203E+05  4.346553E-10  3.098530E-12
        22  15  6.140504E+05  2.556763E+05  5.234338E+03  4.006308E+05 -1.242906E-10  1.848374E-12
        22  16  7.138871E+05  3.256940E+05  2.626216E+04  4.509590E+05  3.629539E-10  2.057154E-10
        22  17  6.567821E+05  2.998735E+05  1.566054E+04  4.288567E+05 -5.832083E-10  1.598081E-10
        22  18  6.168728E+05  2.571862E+05  5.951660E+03  4.018194E+05 -7.101766E-10 -1.226310E-10
        22  19  5.141595E+05  1.855501E+05 -2.445081E+04  3.503950E+05  2.053310E+03 -1.040680E+04
        22  20  5.540998E+05  2.282960E+05 -1.039672E+04  3.773862E+05  2.645197E+02 -5.887738E+03
        22  21  6.112279E+05  2.541664E+05  4.517011E+03  3.994421E+05 -1.533804E+03 -1.355231E+03
        22  22  6.140169E+05  2.556186E+05  9.058789E+02  4.006720E+05  7.452586E+03 -6.361147E+03
        22  23  6.054395E+05  2.640840E+05  2.632049E+03  4.031203E+05  5.683244E+03 -1.827722E+03
        22  24  6.140504E+05  2.556763E+05  5.234381E+03  4.006308E+05  3.904277E+03  2.719020E+03
        22  25  7.138873E+05  3.256941E+05  2.626248E+04  4.509590E+05  1.285311E+04 -2.314563E+03
        22  26  6.567822E+05  2.998735E+05  1.566078E+04  4.288568E+05  1.110257E+04  2.232738E+03
        22  27  6.168729E+05  2.571862E+05  5.951910E+03  4.018194E+05  9.342311E+03  6.793226E+03
        23   1  6.437868E+05  2.778682E+05  1.503892E+04  4.163955E+05  2.427661E+03 -1.465056E+03
        23   2  6.844963E+05  3.196070E+05  3.310643E+04  4.424691E+05 -6.803738E+02 -9.367269E+03
        23   3  7.444450E+05  3.470132E+05  5.666511E+04  4.628880E+05 -4.180294E+03 -1.674727E+04
        23   4  6.141716E+05  2.556746E+05  7.050949E+03  4.008674E+05 -3.094924E+03 -5.602641E+03
        23   5  6.053428E+05  2.641877E+05  1.259473E+04  4.027452E+05 -5.448867E+03 -1.294023E+04
        23   6  6.155878E+05  2.582038E+05  2.297710E+04  3.989663E+05 -8.194149E+03 -1.975516E+04
        23   7  5.845574E+05  2.334817E+05 -9.369267E+02  3.853401E+05 -8.617159E+03 -9.739942E+03
        23   8  5.261958E+05  2.087716E+05 -7.917587E+03  3.630269E+05 -1.021658E+04 -1.651262E+04
        23   9  4.867473E+05  1.694022E+05 -1.071293E+04  3.350587E+05 -1.220695E+04 -2.276229E+04
        23  10  6.437868E+05  2.778682E+05  1.503890E+04  4.163955E+05  2.010457E-10 -9.570529E-11
        23  11  6.844963E+05  3.196069E+05  3.310627E+04  4.424691E+05  1.008835E-10 -3.661158E-11
        23  12  7.444450E+05  3.470129E+05  5.666455E+04  4.628880E+05 -5.583367E-10 -2.075646E-12
        23  13  6.141716E+05  2.556746E+05  7.050872E+03  4.008674E+05 -2.959503E-10 -5.126618E-11
        23  14  6.053427E+05  2.641875E+05  1.259436E+04  4.027452E+05  1.530168E-10 -1.796474E-11
        23  15  6.155876E+05  2.582034E+05  2.297624E+04  3.989662E+05  3.806131E-10  4.360403E-11
        23  16  5.845573E+05  2.334816E+05 -9.372441E+02  3.853400E+05 -8.406384E-11 -1.566724E-11
        23  17  5.261956E+05  2.087713E+05 -7.918295E+03  3.630267E+05 -2.184879E-10  6.475184E-11
        23  18  4.867470E+05  1.694016E+05 -1.071418E+04  3.350585E+05  6.837823E-10  2.417352E-10
        23  19  6.437868E+05  2.778682E+05  1.503892E+04  4.163955E+05 -2.427661E+03  1.465056E+03
        23  20  6.844963E+05  3.196070E+05  3.310643E+04  4.424691E+05  6.803738E+02  9.367269E+03
        23  21  7.444450E+05  3.470132E+05  5.666511E+04  4.628880E+05  4.180294E+03  1.674727E+04
        23  22  6.141716E+05  2.556746E+05  7.050949E+03  4.008674E+05  3.094924E+03  5.602641E+03
        23  23  6.053428E+05  2.641877E+05  1.259473E+04  4.027452E+05  5.448867E+03  1.294023E+04
        23  24  6.155878E+05  2.582038E+05  2.297710E+04  3.989663E+05  8.194149E+03  1.975516E+04
        23  25  5.845574E+05  2.334817E+05 -9.369267E+02  3.853401E+05  8.617159E+03  9.739942E+03
        23  26  5.261958E+05  2.087716E+05 -7.917587E+03  3.630269E+05  1.021658E+04  1.651262E+04
        23  27  4.867473E+05  1.694022E+05 -1.071293E+04  3.350587E+05  1.220695E+04  2.276229E+04
        24   1  7.689844E+05  3.794981E+05  7.244432E+04  4.864026E+05 -4.397260E+03 -2.030797E+04
        24   2  8.405769E+05  3.959994E+05  1.127124E+05  4.905300E+05 -3.736032E+04 -4.501931E+04
        24   3  9.683888E+05  4.489066E+05  1.972232E+05  4.672784E+05 -7.585638E+04 -6.235733E+04
        24   4  6.167871E+05  2.573580E+05  2.988068E+04  4.028689E+05 -9.720611E+03 -2.429712E+04
        24   5  6.076591E+05  2.720686E+05  5.367025E+04  3.927303E+05 -3.204032E+04 -4.103581E+04
        24   6  6.524509E+05  3.208950E+05  1.124896E+05  3.552108E+05 -5.988767E+04 -5.040043E+04
        24   7  4.646186E+05  1.352385E+05 -1.268414E+04  3.193614E+05 -1.504214E+04 -2.828467E+04
        24   8  3.748044E+05  1.481545E+05 -5.375196E+03  2.949679E+05 -2.672309E+04 -3.705372E+04
        24   9  3.366265E+05  1.928983E+05  2.775040E+04  2.431914E+05 -4.393031E+04 -3.844733E+04
        24  10  7.689842E+05  3.794976E+05  7.244351E+04  4.864025E+05  1.216152E-11  3.359819E-10
        24  11  8.405749E+05  3.959969E+05  1.127059E+05  4.905286E+05  2.649294E-10  1.138972E-11
        24  12  9.683815E+05  4.489009E+05  1.972052E+05  4.672746E+05 -6.344206E-11 -3.706958E-11
        24  13  6.167869E+05  2.573573E+05  2.987939E+04  4.028687E+05 -1.117506E-10  9.847624E-11
        24  14  6.076575E+05  2.720666E+05  5.366516E+04  3.927293E+05  6.416997E-10  1.323536E-10
        24  15  6.524463E+05  3.208913E+05  1.124781E+05  3.552083E+05  5.478450E-10 -5.723900E-13
        24  16  4.646181E+05  1.352375E+05 -1.268607E+04  3.193611E+05 -3.274958E-10  5.898819E-11
        24  17  3.748033E+05  1.481529E+05 -5.379115E+03  2.949671E+05  4.695228E-11 -7.920292E-11
        24  18  3.366241E+05  1.928962E+05  2.774400E+04  2.431900E+05  1.429445E-10  1.156899E-11
        24  19  7.689844E+05  3.794981E+05  7.244432E+04  4.864026E+05  4.397260E+03  2.030797E+04
        24  20  8.405769E+05  3.959994E+05  1.127124E+05  4.905300E+05  3.736032E+04  4.501931E+04
        24  21  9.683888E+05  4.489066E+05  1.972232E+05  4.672784E+05  7.585638E+04  6.235733E+04
        24  22  6.167871E+05  2.573580E+05  2.988068E+04  4.028689E+05  9.720611E+03  2.429712E+04
        24  23  6.076591E+05  2.720686E+05  5.367025E+04  3.927303E+05  3.204032E+04  4.103581E+04
        24  24  6.524509E+05  3.208950E+05  1.124896E+05  3.552108E+05  5.988767E+04  5.040043E+04
        24  25  4.646186E+05  1.352385E+05 -1.268414E+04  3.193614E+05  1.504214E+04  2.828467E+04
        24  26  3.748044E+05  1.481545E+05 -5.375196E+03  2.949679E+05  2.672309E+04  3.705372E+04
        24  27  3.366265E+05  1.928983E+05  2.775040E+04  2.431914E+05  4.393031E+04  3.844733E+04
        25   1  9.323324E+05  6.733575E+04  7.644496E+04  3.990838E+04  5.238050E+04  3.362315E+00
        25   2  9.253710E+05  1.072957E+04  3.702730E+04  1.694386E+04  3.314626E+04  9.033445E-01
        25   3  9.323610E+05 -5.974036E+01  2.157309E+04 -6.019866E+03  1.391229E+04 -1.347058E-01
        25   4  9.323307E+05  6.733277E+04  7.644454E+04  7.084405E-10  5.238050E+04  4.792392E-11
        25   5  9.253707E+05  1.072903E+04  3.702722E+04  5.705110E-10  3.314626E+04  1.393401E-10
        25   6  9.323610E+05 -5.980836E+01  2.157308E+04 -2.297684E-11  1.391229E+04  1.383577E-10
        25   7  9.323324E+05  6.733575E+04  7.644496E+04 -3.990838E+04  5.238050E+04 -3.362315E+00
        25   8  9.253710E+05  1.072957E+04  3.702730E+04 -1.694386E+04  3.314626E+04 -9.033445E-01
        25   9  9.323610E+05 -5.974036E+01  2.157309E+04  6.019866E+03  1.391229E+04  1.347058E-01
        25  10  9.323294E+05  6.733502E+04  7.643981E+04  3.990838E+04  3.184940E-10  7.483145E-11
        25  11  9.253698E+05  1.072927E+04  3.702523E+04  1.694386E+04 -4.154850E-10  2.402152E-10
        25  12  9.323608E+05 -5.979222E+01  2.157273E+04 -6.019866E+03 -6.490400E-11  2.904308E-10
        25  13  9.323277E+05  6.733203E+04  7.643939E+04  1.006207E-09  2.203037E-10  1.696117E-11
        25  14  9.253695E+05  1.072873E+04  3.702516E+04 -3.343000E-10 -1.346753E-10  9.653269E-11
        25  15  9.323608E+05 -5.986022E+01  2.157272E+04 -8.541351E-10 -1.339622E-10  1.901907E-10
        25  16  9.323294E+05  6.733502E+04  7.643981E+04 -3.990838E+04  1.920613E-10 -5.374153E-11
        25  17  9.253698E+05  1.072927E+04  3.702523E+04 -1.694386E+04  3.640235E-10 -7.229913E-11
        25  18  9.323608E+05 -5.979222E+01  2.157273E+04  6.019866E+03 -4.283424E-10  9.319029E-11
        25  19  9.323324E+05  6.733575E+04  7.644496E+04  3.990838E+04 -5.238050E+04 -3.362315E+00
        25  20  9.253710E+05  1.072957E+04  3.702730E+04  1.694386E+04 -3.314626E+04 -9.033445E-01
        25  21  9.323610E+05 -5.974036E+01  2.157309E+04 -6.019866E+03 -1.391229E+04  1.347058E-01
        25  22  9.323307E+05  6.733277E+04  7.644454E+04  2.107851E-10 -5.238050E+04 -4.370037E-12
        25  23  9.253707E+05  1.072903E+04  3.702722E+04 -4.310821E-10 -3.314626E+04  4.677654E-11
        25  24  9.323610E+05 -5.980836E+01  2.157308E+04 -1.327566E-09 -1.391229E+04  2.470743E-10
        25  25  9.323324E+05  6.733575E+04  7.644496E+04 -3.990838E+04 -5.238050E+04  3.362315E+00
        25  26  9.253710E+05  1.072957E+04  3.702730E+04 -1.694386E+04 -3.314626E+04  9.033445E-01
        25  27  9.323610E+05 -5.974036E+01  2.157309E+04  6.019866E+03 -1.391229E+04 -1.347058E-01
        26   1  9.295475E+05  2.541691E+03  1.736704E+04  1.002758E+03  1.095684E+04  1.767195E-02
        26   2  9.288966E+05  1.404136E+02  1.174010E+04  3.732502E+02  5.112083E+03  3.069029E-03
        26   3  9.295499E+05 -8.279631E+01  1.045881E+04 -2.562680E+02 -7.327449E+02  3.020295E-04
        26   4  9.295475E+05  2.541689E+03  1.736704E+04  2.591203E-10  1.095684E+04  1.157604E-10
        26   5  9.288966E+05  1.404133E+02  1.174010E+04  1.725119E-10  5.112083E+03  5.235876E-11
        26   6  9.295499E+05 -8.279643E+01  1.045881E+04 -1.860507E-09 -7.327449E+02 -1.003910E-10
        26   7  9.295475E+05  2.541691E+03  1.736704E+04 -1.002758E+03  1.095684E+04 -1.767195E-02
        26   8  9.288966E+05  1.404136E+02  1.174010E+04 -3.732502E+02  5.112083E+03 -3.069029E-03
        26   9  9.295499E+05 -8.279631E+01  1.045881E+04  2.562680E+02 -7.327449E+02 -3.020298E-04
        26  10  9.295474E+05  2.541659E+03  1.736681E+04  1.002758E+03  4.220609E-10  1.156880E-10
        26  11  9.288965E+05  1.404066E+02  1.174005E+04  3.732502E+02 -4.140564E-11 -2.196948E-10
        26  12  9.295499E+05 -8.279645E+01  1.045881E+04 -2.562680E+02 -8.380647E-10 -1.359544E-10
        26  13  9.295474E+05  2.541657E+03  1.736681E+04  6.188779E-10  1.103805E-10  9.516483E-11
        26  14  9.288965E+05  1.404063E+02  1.174005E+04  4.081742E-10  3.347761E-10 -1.431691E-10
        26  15  9.295499E+05 -8.279657E+01  1.045881E+04 -1.275497E-09 -3.407789E-10 -6.397925E-11
        26  16  9.295474E+05  2.541659E+03  1.736681E+04 -1.002758E+03 -6.450976E-10  1.104310E-10
        26  17  9.288965E+05  1.404066E+02  1.174005E+04 -3.732502E+02 -5.598690E-11 -1.186012E-10
        26  18  9.295499E+05 -8.279645E+01  1.045881E+04  2.562680E+02  3.183681E-10 -2.811132E-12
        26  19  9.295475E+05  2.541691E+03  1.736704E+04  1.002758E+03 -1.095684E+04 -1.767195E-02
        26  20  9.288966E+05  1.404136E+02  1.174010E+04  3.732502E+02 -5.112083E+03 -3.069029E-03
        26  21  9.295499E+05 -8.279631E+01  1.045881E+04 -2.562680E+02  7.327449E+02 -3.020300E-04
        26  22  9.295475E+05  2.541689E+03  1.736704E+04 -1.213998E-09 -1.095684E+04  6.361355E-11
        26  23  9.288966E+05  1.404133E+02  1.174010E+04 -3.162432E-11 -5.112083E+03 -3.509171E-10
        26  24  9.295499E+05 -8.279643E+01  1.045881E+04 -1.151300E-09  7.327449E+02 -8.055309E-12
        26  25  9.295475E+05  2.541691E+03  1.736704E+04 -1.002758E+03 -1.095684E+04  1.767195E-02
        26  26  9.288966E+05  1.404136E+02  1.174010E+04 -3.732502E+02 -5.112083E+03  3.069029E-03
        26  27  9.295499E+05 -8.279631E+01  1.045881E+04  2.562680E+02  7.327449E+02  3.020299E-04
        27   1  9.296479E+05 -1.427811E+02  1.103490E+04  6.057980E+02 -2.626356E+03 -2.559080E-03
        27   2  9.287730E+05  2.724159E+02  1.490125E+04 -3.853144E+02 -1.005220E+04  6.229881E-03
        27   3  9.296437E+05  3.808745E+03  2.437733E+04 -1.376423E+03 -1.747810E+04  3.869451E-02
        27   4  9.296479E+05 -1.427818E+02  1.103490E+04  5.177366E-10 -2.626356E+03 -3.598389E-12
        27   5  9.287730E+05  2.724156E+02  1.490125E+04  1.264615E-09 -1.005220E+04  2.383894E-10
        27   6  9.296437E+05  3.808742E+03  2.437733E+04 -9.484877E-11 -1.747810E+04 -1.910426E-10
        27   7  9.296479E+05 -1.427811E+02  1.103490E+04 -6.057980E+02 -2.626356E+03  2.559080E-03
        27   8  9.287730E+05  2.724159E+02  1.490125E+04  3.853144E+02 -1.005220E+04 -6.229880E-03
        27   9  9.296437E+05  3.808745E+03  2.437733E+04  1.376423E+03 -1.747810E+04 -3.869451E-02
        27  10  9.296479E+05 -1.427829E+02  1.103489E+04  6.057980E+02 -2.631701E-10 -2.085468E-11
        27  11  9.287729E+05  2.723888E+02  1.490106E+04 -3.853144E+02  6.122219E-11  1.805779E-10
        27  12  9.296434E+05  3.808664E+03  2.437676E+04 -1.376423E+03  4.027939E-10  1.784713E-10
        27  13  9.296479E+05 -1.427836E+02  1.103489E+04  9.091714E-10  2.861871E-10  7.378509E-11
        27  14  9.287729E+05  2.723885E+02  1.490106E+04  7.322470E-10 -5.202183E-10  1.574000E-10
        27  15  9.296434E+05  3.808660E+03  2.437676E+04  5.637445E-10 -9.909303E-11  8.594337E-11
        27  16  9.296479E+05 -1.427829E+02  1.103489E+04 -6.057980E+02 -2.255883E-12  1.514748E-10
        27  17  9.287729E+05  2.723888E+02  1.490106E+04  3.853144E+02 -6.543231E-11  1.351087E-10
        27  18  9.296434E+05  3.808664E+03  2.437676E+04  1.376423E+03 -3.507996E-10 -2.316406E-11
        27  19  9.296479E+05 -1.427811E+02  1.103490E+04  6.057980E+02  2.626356E+03  2.559080E-03
        27  20  9.287730E+05  2.724159E+02  1.490125E+04 -3.853144E+02  1.005220E+04 -6.229881E-03
        27  21  9.296437E+05  3.808745E+03  2.437733E+04 -1.376423E+03  1.747810E+04 -3.869451E-02
        27  22  9.296479E+05 -1.427818E+02  1.103490E+04  4.252164E-10  2.626356E+03  1.461670E-10
        27  23  9.287730E+05  2.724156E+02  1.490125E+04  1.998773E-10  1.005220E+04  6.579270E-11
        27  24  9.296437E+05  3.808742E+03  2.437733E+04  3.196423E-10  1.747810E+04  3.672769E-10
        27  25  9.296479E+05 -1.427811E+02  1.103490E+04 -6.057980E+02  2.626356E+03 -2.559080E-03
        27  26  9.287730E+05  2.724159E+02  1.490125E+04  3.853144E+02  1.005220E+04  6.229881E-03
        27  27  9.296437E+05  3.808745E+03  2.437733E+04  1.376423E+03  1.747810E+04  3.869451E-02
        28   1  9.338561E+05 -6.238898E+01  3.100032E+04  9.020243E+03 -2.164513E+04 -3.140355E-01
        28   2  9.234947E+05  1.594475E+04  5.449026E+04 -2.508975E+04 -4.996171E+04  2.016239E+00
        28   3  9.338146E+05  9.996632E+04  1.134013E+05 -5.920023E+04 -7.827784E+04  7.453631E+00
        28   4  9.338560E+05 -6.254166E+01  3.100030E+04 -1.001780E-09 -2.164513E+04 -3.845603E-10
        28   5  9.234940E+05  1.594357E+04  5.449009E+04 -1.067025E-09 -4.996171E+04 -2.720462E-10
        28   6  9.338109E+05  9.995974E+04  1.134004E+05 -1.654207E-09 -7.827784E+04  9.932751E-13
        28   7  9.338561E+05 -6.238898E+01  3.100032E+04 -9.020243E+03 -2.164513E+04  3.140355E-01
        28   8  9.234947E+05  1.594475E+04  5.449026E+04  2.508975E+04 -4.996171E+04 -2.016239E+00
        28   9  9.338146E+05  9.996632E+04  1.134013E+05  5.920023E+04 -7.827784E+04 -7.453631E+00
        28  10  9.338556E+05 -6.251452E+01  3.099944E+04  9.020243E+03  8.357247E-11  9.789007E-12
        28  11  9.234920E+05  1.594408E+04  5.448557E+04 -2.508975E+04 -8.585608E-11 -1.966047E-10
        28  12  9.338081E+05  9.996468E+04  1.133898E+05 -5.920023E+04 -3.096704E-10 -1.078786E-10
        28  13  9.338555E+05 -6.266720E+01  3.099942E+04  4.007554E-12  1.390419E-10 -2.925712E-11
        28  14  9.234913E+05  1.594290E+04  5.448540E+04 -5.430891E-10 -3.074000E-10 -1.235413E-10
        28  15  9.338043E+05  9.995810E+04  1.133889E+05 -1.348578E-10  1.794752E-10 -5.718073E-11
        28  16  9.338556E+05 -6.251452E+01  3.099944E+04 -9.020243E+03 -2.268484E-10 -7.176566E-11
        28  17  9.234920E+05  1.594408E+04  5.448557E+04  2.508975E+04  2.624580E-10 -6.831296E-11
        28  18  9.338081E+05  9.996468E+04  1.133898E+05  5.920023E+04  4.894753E-10 -1.519302E-11
        28  19  9.338561E+05 -6.238898E+01  3.100032E+04  9.020243E+03  2.164513E+04  3.140355E-01
        28  20  9.234947E+05  1.594475E+04  5.449026E+04 -2.508975E+04  4.996171E+04 -2.016239E+00
        28  21  9.338146E+05  9.996632E+04  1.134013E+05 -5.920023E+04  7.827784E+04 -7.453631E+00
        28  22  9.338560E+05 -6.254166E+01  3.100030E+04 -6.315002E-10  2.164513E+04  3.396811E-10
        28  23  9.234940E+05  1.594357E+04  5.449009E+04  1.281585E-10  4.996171E+04 -9.217755E-12
        28  24  9.338109E+05  9.995974E+04  1.134004E+05 -7.640330E-10  7.827784E+04 -1.092528E-10
        28  25  9.338561E+05 -6.238898E+01  3.100032E+04 -9.020243E+03  2.164513E+04 -3.140355E-01
        28  26  9.234947E+05  1.594475E+04  5.449026E+04  2.508975E+04  4.996171E+04  2.016239E+00
        28  27  9.338146E+05  9.996632E+04  1.134013E+05  5.920023E+04  7.827784E+04  7.453631E+00
        29   1 -2.509300E+05 -7.306489E+05 -2.771793E+05  1.375841E+05 -2.585648E+03 -1.691601E+05
        29   2 -7.243243E+04 -6.907482E+05 -1.484604E+05  6.535140E+04 -8.319312E+03 -1.028530E+05
        29   3 -3.518901E+04 -6.948034E+05 -9.824747E+04 -2.451747E+03 -9.424364E+03 -3.654228E+04
        29   4 -2.054897E+05 -5.469901E+05 -2.336212E+05  1.577685E+04 -2.551943E+03 -1.575618E+05
        29   5 -3.267740E+04 -5.255650E+05 -1.149211E+05  1.355089E+04 -8.310199E+03 -9.791956E+04
        29   6  4.144348E+01 -5.469365E+05 -7.008473E+04  1.576170E+04 -9.425435E+03 -3.827666E+04
        29   7 -1.599958E+05 -3.632680E+05 -1.900570E+05 -1.060667E+05 -2.522803E+03 -1.459600E+05
        29   8  7.086036E+03 -3.603499E+05 -8.138164E+04 -3.826368E+04 -8.301912E+03 -9.298485E+04
        29   9  3.527186E+04 -3.990478E+05 -4.192278E+04  3.397959E+04 -9.426608E+03 -4.001145E+04
        29  10 -2.509377E+05 -7.306797E+05 -2.772332E+05  1.375838E+05 -2.940904E-10  4.332947E-11
        29  11 -7.243535E+04 -6.907595E+05 -1.484804E+05  6.535071E+04 -9.454707E-11  3.538794E-10
        29  12 -3.518947E+04 -6.948049E+05 -9.825015E+04 -2.452025E+03  8.343626E-10  5.010345E-10
        29  13 -2.054963E+05 -5.470168E+05 -2.336679E+05  1.577653E+04 -1.054084E-11 -2.749404E-12
        29  14 -3.268005E+04 -5.255753E+05 -1.149392E+05  1.355023E+04 -2.298401E-11 -1.226963E-11
        29  15  4.095435E+01 -5.469381E+05 -7.008765E+04  1.576141E+04  2.384004E-10 -1.451502E-11
        29  16 -1.600016E+05 -3.632909E+05 -1.900971E+05 -1.060670E+05 -2.734371E-10 -5.677645E-11
        29  17  7.083639E+03 -3.603592E+05 -8.139803E+04 -3.826431E+04  2.447257E-10 -3.537709E-10
        29  18  3.527134E+04 -3.990495E+05 -4.192596E+04  3.397929E+04  1.893004E-10 -4.757263E-10
        29  19 -2.509300E+05 -7.306489E+05 -2.771793E+05  1.375841E+05  2.585648E+03  1.691601E+05
        29  20 -7.243243E+04 -6.907482E+05 -1.484604E+05  6.535140E+04  8.319312E+03  1.028530E+05
        29  21 -3.518901E+04 -6.948034E+05 -9.824747E+04 -2.451747E+03  9.424364E+03  3.654228E+04
        29  22 -2.054897E+05 -5.469901E+05 -2.336212E+05  1.577685E+04  2.551943E+03  1.575618E+05
        29  23 -3.267740E+04 -5.255650E+05 -1.149211E+05  1.355089E+04  8.310199E+03  9.791956E+04
        29  24  4.144348E+01 -5.469365E+05 -7.008473E+04  1.576170E+04  9.425435E+03  3.827666E+04
        29  25 -1.599958E+05 -3.632680E+05 -1.900570E+05 -1.060667E+05  2.522803E+03  1.459600E+05
        29  26  7.086036E+03 -3.603499E+05 -8.138164E+04 -3.826368E+04  8.301912E+03  9.298485E+04
        29  27  3.527186E+04 -3.990478E+05 -4.192278E+04  3.397959E+04  9.426608E+03  4.001145E+04
        30   1 -3.993337E+04 -6.742946E+05 -8.456049E+04  1.976182E+04 -8.715363E+03 -2.751671E+04
        30   2 -2.916503E+04 -6.534393E+05 -6.844603E+04  1.354975E+04 -7.885524E+03 -3.781012E+03
        30   3 -2.964650E+04 -6.384893E+05 -7.060659E+04  1.206935E+04 -6.643910E+03  1.995527E+04
        30   4 -7.651217E+03 -5.387214E+05 -5.881000E+04  1.582929E+04 -8.715140E+03 -2.841391E+04
        30   5 -1.218501E+03 -5.358191E+05 -4.641236E+04  1.346320E+04 -7.885617E+03 -5.266799E+03
        30   6 -5.931954E+03 -5.387190E+05 -5.187821E+04  1.582884E+04 -6.644062E+03  1.788025E+04
        30   7  2.462992E+04 -4.031304E+05 -3.306032E+04  1.189587E+04 -8.714907E+03 -2.931131E+04
        30   8  2.672722E+04 -4.181855E+05 -2.437927E+04  1.337664E+04 -7.885709E+03 -6.752860E+03
        30   9  1.778207E+04 -4.389390E+05 -3.315025E+04  1.958895E+04 -6.644240E+03  1.580490E+04
        30  10 -3.993366E+04 -6.742954E+05 -8.456206E+04  1.976163E+04  1.326501E-10 -1.134093E-09
        30  11 -2.916510E+04 -6.534393E+05 -6.844618E+04  1.354973E+04 -1.916608E-10  2.842822E-10
        30  12 -2.964665E+04 -6.384897E+05 -7.060742E+04  1.206946E+04  4.335801E-10  1.386894E-09
        30  13 -7.651516E+03 -5.387222E+05 -5.881166E+04  1.582909E+04  5.361174E-10  2.283547E-13
        30  14 -1.218575E+03 -5.358191E+05 -4.641253E+04  1.346317E+04  5.713385E-10  3.814989E-11
        30  15 -5.932088E+03 -5.387193E+05 -5.187890E+04  1.582894E+04  9.031955E-10 -3.374074E-11
        30  16  2.462960E+04 -4.031313E+05 -3.306208E+04  1.189567E+04  2.626040E-10  1.156928E-09
        30  17  2.672715E+04 -4.181856E+05 -2.437947E+04  1.337659E+04  2.688144E-10 -2.151338E-10
        30  18  1.778195E+04 -4.389393E+05 -3.315080E+04  1.958903E+04  2.295276E-11 -1.395161E-09
        30  19 -3.993337E+04 -6.742946E+05 -8.456049E+04  1.976182E+04  8.715363E+03  2.751671E+04
        30  20 -2.916503E+04 -6.534393E+05 -6.844603E+04  1.354975E+04  7.885524E+03  3.781012E+03
        30  21 -2.964650E+04 -6.384893E+05 -7.060659E+04  1.206935E+04  6.643910E+03 -1.995527E+04
        30  22 -7.651217E+03 -5.387214E+05 -5.881000E+04  1.582929E+04  8.715140E+03  2.841391E+04
        30  23 -1.218501E+03 -5.358191E+05 -4.641236E+04  1.346320E+04  7.885617E+03  5.266799E+03
        30  24 -5.931954E+03 -5.387190E+05 -5.187821E+04  1.582884E+04  6.644062E+03 -1.788025E+04
        30  25  2.462992E+04 -4.031304E+05 -3.306032E+04  1.189587E+04  8.714907E+03  2.931131E+04
        30  26  2.672722E+04 -4.181855E+05 -2.437927E+04  1.337664E+04  7.885709E+03  6.752860E+03
        30  27  1.778207E+04 -4.389390E+05 -3.315025E+04  1.958895E+04  6.644240E+03 -1.580490E+04
        31   1 -2.081290E+04 -6.326540E+05 -7.576876E+04  2.999616E+04 -5.884168E+03  2.831557E+04
        31   2 -4.245919E+04 -5.975928E+05 -1.063214E+05 -2.774490E+04 -4.044380E+03  7.802207E+04
        31   3 -1.752720E+05 -5.968024E+05 -1.970417E+05 -8.064312E+04 -1.071891E+03  1.277288E+05
        31   4  9.702337E+00 -5.449778E+05 -5.935748E+04  1.584801E+04 -5.885084E+03  2.649693E+04
        31   5 -2.579317E+04 -5.280021E+05 -9.271037E+04  1.344230E+04 -4.039854E+03  7.456512E+04
        31   6 -1.624833E+05 -5.450177E+05 -1.850913E+05  1.587743E+04 -1.053113E+03  1.226325E+05
        31   7  2.083261E+04 -4.572936E+05 -4.294641E+04  1.697815E+03 -5.885917E+03  2.467805E+04
        31   8 -9.121061E+03 -4.584031E+05 -7.909858E+04  5.463422E+04 -4.035787E+03  7.110779E+04
        31   9 -1.496597E+05 -4.932105E+05 -1.731361E+05  1.124061E+05 -1.035923E+03  1.175358E+05
        31  10 -2.081315E+04 -6.326549E+05 -7.577034E+04  2.999629E+04  7.724327E-10 -7.707788E-10
        31  11 -4.246084E+04 -5.975994E+05 -1.063329E+05 -2.774464E+04  3.323451E-10 -2.070150E-10
        31  12 -1.752764E+05 -5.968199E+05 -1.970723E+05 -8.064301E+04 -1.897267E-10  1.432334E-10
        31  13  9.476454E+00 -5.449785E+05 -5.935887E+04  1.584814E+04  1.052065E-09 -6.111499E-11
        31  14 -2.579468E+04 -5.280081E+05 -9.272086E+04  1.344254E+04  1.973026E-10 -3.786162E-11
        31  15 -1.624873E+05 -5.450339E+05 -1.851196E+05  1.587754E+04  4.303054E-10 -2.559994E-11
        31  16  2.083241E+04 -4.572943E+05 -4.294762E+04  1.697932E+03  3.645692E-10  8.585272E-10
        31  17 -9.122437E+03 -4.584085E+05 -7.910812E+04  5.463445E+04 -5.343216E-10  1.633143E-10
        31  18 -1.496634E+05 -4.932253E+05 -1.731620E+05  1.124062E+05  5.569658E-11 -1.091373E-10
        31  19 -2.081290E+04 -6.326540E+05 -7.576876E+04  2.999616E+04  5.884168E+03 -2.831557E+04
        31  20 -4.245919E+04 -5.975928E+05 -1.063214E+05 -2.774490E+04  4.044380E+03 -7.802207E+04
        31  21 -1.752720E+05 -5.968024E+05 -1.970417E+05 -8.064312E+04  1.071891E+03 -1.277288E+05
        31  22  9.702337E+00 -5.449778E+05 -5.935748E+04  1.584801E+04  5.885084E+03 -2.649693E+04
        31  23 -2.579317E+04 -5.280021E+05 -9.271037E+04  1.344230E+04  4.039854E+03 -7.456512E+04
        31  24 -1.624833E+05 -5.450177E+05 -1.850913E+05  1.587743E+04  1.053113E+03 -1.226325E+05
        31  25  2.083261E+04 -4.572936E+05 -4.294641E+04  1.697815E+03  5.885917E+03 -2.467805E+04
        31  26 -9.121061E+03 -4.584031E+05 -7.909858E+04  5.463422E+04  4.035787E+03 -7.110779E+04
        31  27 -1.496597E+05 -4.932105E+05 -1.731361E+05  1.124061E+05  1.035923E+03 -1.175358E+05
        32   1  1.300034E+05 -3.571262E+04 -8.888331E+04  1.190309E+05 -2.551247E+04 -1.395219E+04
        32   2  1.585248E+05  5.343602E+03 -6.169055E+04  1.326661E+05 -1.890216E+04  2.329284E+03
        32   3  1.909582E+05  2.736336E+04 -4.693099E+04  1.460565E+05 -7.476747E+03  1.219282E+04
        32   4  3.520325E+05  1.343024E+05 -1.422683E+04  2.346313E+05 -1.045101E+04 -2.658577E+03
        32   5  3.513365E+05  1.468401E+05 -6.732988E+03  2.317401E+05 -1.308409E+04  6.690983E+03
        32   6  3.565580E+05  1.423481E+05 -3.649856E+03  2.286026E+05 -1.090397E+04  9.622919E+03
        32   7  5.741146E+05  3.043501E+05  6.042432E+04  3.502803E+05  4.617815E+03  8.641119E+03
        32   8  5.441885E+05  2.883593E+05  4.822063E+04  3.308493E+05 -7.263611E+03  1.105458E+04
        32   9  5.221867E+05  2.573468E+05  3.962831E+04  3.111728E+05 -1.433237E+04  7.052148E+03
        32  10  1.300027E+05 -3.571300E+04 -8.888490E+04  1.190306E+05 -6.941526E-11 -4.072799E-11
        32  11  1.585244E+05  5.343500E+03 -6.169123E+04  1.326661E+05  4.268990E-11  1.466081E-10
        32  12  1.909581E+05  2.736319E+04 -4.693137E+04  1.460566E+05 -3.478400E-10  2.320094E-10
        32  13  3.520323E+05  1.343024E+05 -1.422705E+04  2.346313E+05 -4.759045E-11  7.275787E-12
        32  14  3.513363E+05  1.468400E+05 -6.733394E+03  2.317401E+05  2.663294E-11  1.012481E-10
        32  15  3.565579E+05  1.423479E+05 -3.650254E+03  2.286027E+05  1.979429E-11  4.997984E-11
        32  16  5.741146E+05  3.043501E+05  6.042414E+04  3.502802E+05  1.472970E-10  1.293476E-10
        32  17  5.441884E+05  2.883591E+05  4.822030E+04  3.308494E+05  4.648340E-11  2.675166E-11
        32  18  5.221865E+05  2.573467E+05  3.962783E+04  3.111728E+05 -1.596836E-10 -1.449260E-10
        32  19  1.300034E+05 -3.571262E+04 -8.888331E+04  1.190309E+05  2.551247E+04  1.395219E+04
        32  20  1.585248E+05  5.343602E+03 -6.169055E+04  1.326661E+05  1.890216E+04 -2.329284E+03
        32  21  1.909582E+05  2.736336E+04 -4.693099E+04  1.460565E+05  7.476747E+03 -1.219282E+04
        32  22  3.520325E+05  1.343024E+05 -1.422683E+04  2.346313E+05  1.045101E+04  2.658577E+03
        32  23  3.513365E+05  1.468401E+05 -6.732988E+03  2.317401E+05  1.308409E+04 -6.690983E+03
        32  24  3.565580E+05  1.423481E+05 -3.649856E+03  2.286026E+05  1.090397E+04 -9.622919E+03
        32  25  5.741146E+05  3.043501E+05  6.042432E+04  3.502803E+05 -4.617815E+03 -8.641119E+03
        32  26  5.441885E+05  2.883593E+05  4.822063E+04  3.308493E+05  7.263611E+03 -1.105458E+04
        32  27  5.221867E+05  2.573468E+05  3.962831E+04  3.111728E+05  1.433237E+04 -7.052148E+03
        33   1  2.142037E+05  4.125184E+04 -4.017700E+04  1.570880E+05 -7.185795E+03  1.021357E+04
        33   2  2.405384E+05  6.972420E+04 -2.990943E+04  1.745391E+05 -4.659323E+03  9.271780E+03
        33   3  2.775653E+05  8.667017E+04 -2.071904E+04  1.888522E+05 -1.791325E+03  7.874087E+03
        33   4  3.568245E+05  1.421322E+05 -2.728420E+03  2.290637E+05 -9.472939E+03  8.498608E+03
        33   5  3.514993E+05  1.479860E+05 -1.271463E+03  2.305135E+05 -7.603096E+03  7.064842E+03
        33   6  3.570075E+05  1.424551E+05 -3.220222E+02  2.288244E+05 -5.391841E+03  5.175164E+03
        33   7  4.994683E+05  2.430246E+05  3.471847E+04  3.010583E+05 -1.176079E+04  6.783111E+03
        33   8  4.624751E+05  2.262557E+05  2.736585E+04  2.864999E+05 -1.054760E+04  4.857357E+03
        33   9  4.364583E+05  1.982447E+05  2.007499E+04  2.688030E+05 -8.993031E+03  2.475738E+03
        33  10  2.142036E+05  4.125171E+04 -4.017729E+04  1.570881E+05 -3.228073E-10  4.188741E-11
        33  11  2.405384E+05  6.972410E+04 -2.990963E+04  1.745392E+05 -4.515564E-10  4.572839E-11
        33  12  2.775652E+05  8.667010E+04 -2.071916E+04  1.888522E+05 -1.040438E-09  5.082219E-11
        33  13  3.568244E+05  1.421321E+05 -2.728725E+03  2.290637E+05 -4.748471E-11  4.740154E-11
        33  14  3.514992E+05  1.479859E+05 -1.271666E+03  2.305136E+05 -7.932859E-10  1.937838E-10
        33  15  3.570075E+05  1.424551E+05 -3.221272E+02  2.288244E+05  2.863771E-10  2.449785E-10
        33  16  4.994681E+05  2.430245E+05  3.471813E+04  3.010584E+05  4.040451E-10  5.092699E-11
        33  17  4.624750E+05  2.262557E+05  2.736560E+04  2.864999E+05  2.386924E-10  2.128047E-10
        33  18  4.364582E+05  1.982447E+05  2.007483E+04  2.688030E+05  6.283531E-10  5.071788E-10
        33  19  2.142037E+05  4.125184E+04 -4.017700E+04  1.570880E+05  7.185795E+03 -1.021357E+04
        33  20  2.405384E+05  6.972420E+04 -2.990943E+04  1.745391E+05  4.659323E+03 -9.271780E+03
        33  21  2.775653E+05  8.667017E+04 -2.071904E+04  1.888522E+05  1.791325E+03 -7.874087E+03
        33  22  3.568245E+05  1.421322E+05 -2.728420E+03  2.290637E+05  9.472939E+03 -8.498608E+03
        33  23  3.514993E+05  1.479860E+05 -1.271463E+03  2.305135E+05  7.603096E+03 -7.064842E+03
        33  24  3.570075E+05  1.424551E+05 -3.220222E+02  2.288244E+05  5.391841E+03 -5.175164E+03
        33  25  4.994683E+05  2.430246E+05  3.471847E+04  3.010583E+05  1.176079E+04 -6.783111E+03
        33  26  4.624751E+05  2.262557E+05  2.736585E+04  2.864999E+05  1.054760E+04 -4.857357E+03
        33  27  4.364583E+05  1.982447E+05  2.007499E+04  2.688030E+05  8.993031E+03 -2.475738E+03
        34   1  2.991256E+05  1.017817E+05 -1.461991E+04  1.996932E+05 -7.626047E+02  6.368289E+03
        34   2  3.252048E+05  1.296676E+05 -5.688397E+03  2.172990E+05  6.946798E+02  3.636110E+03
        34   3  3.624481E+05  1.465034E+05  3.560672E+03  2.316766E+05  2.157019E+03  8.969484E+02
        34   4  3.570394E+05  1.424536E+05  9.112801E+01  2.288630E+05 -4.285708E+03  3.727517E+03
        34   5  3.514641E+05  1.479912E+05  9.806211E+02  2.304674E+05 -2.838506E+03  9.878806E+02
        34   6  3.570546E+05  1.424806E+05  2.196631E+03  2.288429E+05 -1.386223E+03 -1.758727E+03
        34   7  4.149560E+05  1.831269E+05  1.480166E+04  2.580355E+05 -7.809197E+03  1.086457E+03
        34   8  3.777241E+05  1.663150E+05  7.649584E+03  2.436363E+05 -6.371864E+03 -1.660476E+03
        34   9  3.516611E+05  1.384579E+05  8.326633E+02  2.260093E+05 -4.929421E+03 -4.414368E+03
        34  10  2.991256E+05  1.017816E+05 -1.461999E+04  1.996932E+05 -3.028748E-10  1.680898E-10
        34  11  3.252048E+05  1.296676E+05 -5.688423E+03  2.172990E+05 -4.032841E-10 -8.003592E-11
        34  12  3.624481E+05  1.465034E+05  3.560662E+03  2.316766E+05 -2.039128E-10 -2.350468E-10
        34  13  3.570393E+05  1.424536E+05  9.106737E+01  2.288630E+05 -1.542404E-10  2.387050E-10
        34  14  3.514641E+05  1.479912E+05  9.806041E+02  2.304674E+05  4.389599E-10  1.550609E-10
        34  15  3.570546E+05  1.424806E+05  2.196622E+03  2.288429E+05  2.003606E-12 -4.160849E-11
        34  16  4.149560E+05  1.831269E+05  1.480154E+04  2.580356E+05 -3.279287E-10  2.752750E-10
        34  17  3.777240E+05  1.663150E+05  7.649503E+03  2.436363E+05  1.164675E-09  3.287223E-10
        34  18  3.516611E+05  1.384579E+05  8.325811E+02  2.260093E+05  3.879966E-10  2.495884E-10
        34  19  2.991256E+05  1.017817E+05 -1.461991E+04  1.996932E+05  7.626047E+02 -6.368289E+03
        34  20  3.252048E+05  1.296676E+05 -5.688397E+03  2.172990E+05 -6.946798E+02 -3.636110E+03
        34  21  3.624481E+05  1.465034E+05  3.560672E+03  2.316766E+05 -2.157019E+03 -8.969484E+02
        34  22  3.570394E+05  1.424536E+05  9.112801E+01  2.288630E+05  4.285708E+03 -3.727517E+03
        34  23  3.514641E+05  1.479912E+05  9.806211E+02  2.304674E+05  2.838506E+03 -9.878806E+02
        34  24  3.570546E+05  1.424806E+05  2.196631E+03  2.288429E+05  1.386223E+03  1.758727E+03
        34  25  4.149560E+05  1.831269E+05  1.480166E+04  2.580355E+05  7.809197E+03 -1.086457E+03
        34  26  3.777241E+05  1.663150E+05  7.649584E+03  2.436363E+05  6.371864E+03  1.660476E+03
        34  27  3.516611E+05  1.384579E+05  8.326633E+02  2.260093E+05  4.929421E+03  4.414368E+03
        35   1  3.837637E+05  1.618677E+05  1.006366E+04  2.426563E+05  2.941026E+03 -7.927170E+02
        35   2  4.101699E+05  1.893047E+05  2.070820E+04  2.598495E+05  1.980825E+03 -5.138485E+03
        35   3  4.486840E+05  2.068632E+05  3.390602E+04  2.735029E+05  7.545646E+02 -9.129522E+03
        35   4  3.571077E+05  1.424819E+05  3.018072E+03  2.289490E+05 -6.600699E+02 -3.491795E+03
        35   5  3.514202E+05  1.480312E+05  5.483355E+03  2.303025E+05 -1.108735E+03 -7.454335E+03
        35   6  3.577286E+05  1.435903E+05  1.005849E+04  2.281151E+05 -1.823265E+03 -1.106194E+04
        35   7  3.304522E+05  1.230963E+05 -4.027639E+03  2.152421E+05 -4.261012E+03 -6.190752E+03
        35   8  2.926745E+05  1.067598E+05 -9.741718E+03  2.007588E+05 -4.197902E+03 -9.769893E+03
        35   9  2.667840E+05  8.032304E+04 -1.378924E+04  1.827356E+05 -4.400549E+03 -1.299396E+04
        35  10  3.837637E+05  1.618677E+05  1.006364E+04  2.426563E+05  4.663072E-10  5.279322E-10
        35  11  4.101698E+05  1.893046E+05  2.070814E+04  2.598495E+05 -2.224329E-09 -1.139904E-09
        35  12  4.486840E+05  2.068631E+05  3.390586E+04  2.735029E+05 -1.013159E-09 -1.091453E-09
        35  13  3.571077E+05  1.424819E+05  3.018049E+03  2.289490E+05 -3.740007E-10 -2.474447E-10
        35  14  3.514202E+05  1.480312E+05  5.483248E+03  2.303025E+05 -4.607571E-10 -2.434867E-11
        35  15  3.577286E+05  1.435902E+05  1.005825E+04  2.281151E+05  3.547172E-09  2.561217E-09
        35  16  3.304522E+05  1.230962E+05 -4.027745E+03  2.152421E+05 -1.042809E-09 -1.123204E-09
        35  17  2.926745E+05  1.067597E+05 -9.741931E+03  2.007587E+05  2.400981E-09  1.013358E-09
        35  18  2.667839E+05  8.032285E+04 -1.378959E+04  1.827355E+05  8.391219E-09  5.830451E-09
        35  19  3.837637E+05  1.618677E+05  1.006366E+04  2.426563E+05 -2.941026E+03  7.927170E+02
        35  20  4.101699E+05  1.893047E+05  2.070820E+04  2.598495E+05 -1.980825E+03  5.138485E+03
        35  21  4.486840E+05  2.068632E+05  3.390602E+04  2.735029E+05 -7.545646E+02  9.129522E+03
        35  22  3.571077E+05  1.424819E+05  3.018072E+03  2.289490E+05  6.600699E+02  3.491795E+03
        35  23  3.514202E+05  1.480312E+05  5.483355E+03  2.303025E+05  1.108735E+03  7.454335E+03
        35  24  3.577286E+05  1.435903E+05  1.005849E+04  2.281151E+05  1.823265E+03  1.106194E+04
        35  25  3.304522E+05  1.230963E+05 -4.027639E+03  2.152421E+05  4.261012E+03  6.190752E+03
        35  26  2.926745E+05  1.067598E+05 -9.741718E+03  2.007588E+05  4.197902E+03  9.769893E+03
        35  27  2.667840E+05  8.032304E+04 -1.378924E+04  1.827356E+05  4.400549E+03  1.299396E+04
        36   1  4.665094E+05  2.261557E+05  4.273550E+04  2.873964E+05  1.324096E+03 -1.091711E+04
        36   2  5.064234E+05  2.424549E+05  6.403953E+04  2.947612E+05 -1.575613E+04 -2.356993E+04
        36   3  5.750687E+05  2.717925E+05  1.069727E+05  2.890898E+05 -3.659066E+04 -3.121897E+04
        36   4  3.582263E+05  1.432484E+05  1.309471E+04  2.298378E+05 -2.142169E+03 -1.351559E+04
        36   5  3.524743E+05  1.514502E+05  2.354362E+04  2.258993E+05 -1.200640E+04 -2.075977E+04
        36   6  3.738908E+05  1.711310E+05  4.936689E+04  2.089233E+05 -2.562356E+04 -2.299920E+04
        36   7  2.499564E+05  6.034951E+04 -1.654712E+04  1.722912E+05 -5.607627E+03 -1.611339E+04
        36   8  1.985504E+05  6.045360E+04 -1.695462E+04  1.570547E+05 -8.257907E+03 -1.795033E+04
        36   9  1.727545E+05  7.047724E+04 -8.242934E+03  1.287802E+05 -1.466121E+04 -1.478158E+04
        36  10  4.665094E+05  2.261555E+05  4.273527E+04  2.873964E+05  8.675083E-09  5.629077E-09
        36  11  5.064230E+05  2.424542E+05  6.403802E+04  2.947609E+05  2.340231E-09  1.000967E-09
        36  12  5.750670E+05  2.717911E+05  1.069684E+05  2.890889E+05 -1.439255E-09 -1.193082E-09
        36  13  3.582263E+05  1.432482E+05  1.309435E+04  2.298378E+05  3.471145E-09  2.463250E-09
        36  14  3.524740E+05  1.514497E+05  2.354254E+04  2.258991E+05  3.242868E-10 -7.362172E-11
        36  15  3.738900E+05  1.711303E+05  4.936466E+04  2.089229E+05 -2.752749E-10 -3.122263E-10
        36  16  2.499563E+05  6.034923E+04 -1.654767E+04  1.722911E+05 -1.181313E-09 -7.452258E-10
        36  17  1.985503E+05  6.045323E+04 -1.695535E+04  1.570546E+05 -2.843022E-09 -1.098851E-09
        36  18  1.727542E+05  7.047695E+04 -8.243748E+03  1.287800E+05  1.232374E-10  5.216281E-10
        36  19  4.665094E+05  2.261557E+05  4.273550E+04  2.873964E+05 -1.324096E+03  1.091711E+04
        36  20  5.064234E+05  2.424549E+05  6.403953E+04  2.947612E+05  1.575613E+04  2.356993E+04
        36  21  5.750687E+05  2.717925E+05  1.069727E+05  2.890898E+05  3.659066E+04  3.121897E+04
        36  22  3.582263E+05  1.432484E+05  1.309471E+04  2.298378E+05  2.142169E+03  1.351559E+04
        36  23  3.524743E+05  1.514502E+05  2.354362E+04  2.258993E+05  1.200640E+04  2.075977E+04
        36  24  3.738908E+05  1.711310E+05  4.936689E+04  2.089233E+05  2.562356E+04  2.299920E+04
        36  25  2.499564E+05  6.034951E+04 -1.654712E+04  1.722912E+05  5.607627E+03  1.611339E+04
        36  26  1.985504E+05  6.045360E+04 -1.695462E+04  1.570547E+05  8.257907E+03  1.795033E+04
        36  27  1.727545E+05  7.047724E+04 -8.242934E+03  1.287802E+05  1.466121E+04  1.478158E+04
        37   1  6.679007E+05  5.095159E+04  5.783597E+04  3.018623E+04  3.967408E+04  1.927065E+00
        37   2  6.626302E+05  8.117903E+03  2.797180E+04  1.281165E+04  2.514378E+04  5.183437E-01
        37   3  6.679161E+05 -4.379917E+01  1.622881E+04 -4.562921E+03  1.061326E+04 -7.792370E-02
        37   4  6.678997E+05  5.094988E+04  5.783573E+04  5.963926E-10  3.967408E+04 -6.265887E-12
        37   5  6.626300E+05  8.117594E+03  2.797176E+04  6.046451E-10  2.514378E+04  3.523182E-11
        37   6  6.679161E+05 -4.383825E+01  1.622880E+04  5.145256E-10  1.061326E+04  4.608557E-11
        37   7  6.679007E+05  5.095159E+04  5.783597E+04 -3.018623E+04  3.967408E+04 -1.927065E+00
        37   8  6.626302E+05  8.117903E+03  2.797180E+04 -1.281165E+04  2.514378E+04 -5.183437E-01
        37   9  6.679161E+05 -4.379917E+01  1.622881E+04  4.562921E+03  1.061326E+04  7.792370E-02
        37  10  6.678990E+05  5.095117E+04  5.783302E+04  3.018623E+04 -3.885614E-10  5.765794E-11
        37  11  6.626295E+05  8.117733E+03  2.797062E+04  1.281165E+04 -3.683961E-10  1.560850E-10
        37  12  6.679160E+05 -4.382937E+01  1.622860E+04 -4.562921E+03 -1.499713E-10  3.911091E-11
        37  13  6.678980E+05  5.094946E+04  5.783277E+04  1.704718E-09 -2.651137E-10  8.012441E-12
        37  14  6.626294E+05  8.117425E+03  2.797057E+04  1.020717E-09  5.816077E-10  3.917811E-11
        37  15  6.679160E+05 -4.386845E+01  1.622859E+04  6.741906E-11  1.728033E-12  5.837496E-11
        37  16  6.678990E+05  5.095117E+04  5.783302E+04 -3.018623E+04 -2.232760E-11 -5.046293E-11
        37  17  6.626295E+05  8.117733E+03  2.797062E+04 -1.281165E+04  5.866318E-10 -1.274861E-10
        37  18  6.679160E+05 -4.382937E+01  1.622860E+04  4.562921E+03 -4.493902E-10  4.909464E-11
        37  19  6.679007E+05  5.095159E+04  5.783597E+04  3.018623E+04 -3.967408E+04 -1.927065E+00
        37  20  6.626302E+05  8.117903E+03  2.797180E+04  1.281165E+04 -2.514378E+04 -5.183437E-01
        37  21  6.679161E+05 -4.379917E+01  1.622881E+04 -4.562921E+03 -1.061326E+04  7.792370E-02
        37  22  6.678997E+05  5.094988E+04  5.783573E+04  1.448550E-09 -3.967408E+04  2.701422E-11
        37  23  6.626300E+05  8.117594E+03  2.797176E+04  1.434158E-09 -2.514378E+04  3.689748E-11
        37  24  6.679161E+05 -4.383825E+01  1.622880E+04 -5.553660E-10 -1.061326E+04  6.473949E-11
        37  25  6.679007E+05  5.095159E+04  5.783597E+04 -3.018623E+04 -3.967408E+04  1.927065E+00
        37  26  6.626302E+05  8.117903E+03  2.797180E+04 -1.281165E+04 -2.514378E+04  5.183437E-01
        37  27  6.679161E+05 -4.379917E+01  1.622881E+04  4.562921E+03 -1.061326E+04 -7.792370E-02
        38   1  6.657842E+05  1.926383E+03  1.301213E+04  7.483862E+02  8.398000E+03  1.011302E-02
        38   2  6.652999E+05  1.119729E+02  8.652724E+03  2.670455E+02  4.089956E+03  1.757452E-03
        38   3  6.657855E+05 -6.444585E+01  7.505376E+03 -2.142958E+02 -2.180767E+02  7.519747E-05
        38   4  6.657842E+05  1.926382E+03  1.301213E+04 -2.745041E-10  8.398000E+03  8.976013E-12
        38   5  6.652999E+05  1.119728E+02  8.652724E+03  5.879790E-10  4.089956E+03 -1.165285E-11
        38   6  6.657855E+05 -6.444594E+01  7.505376E+03 -6.630259E-10 -2.180767E+02  1.380833E-10
        38   7  6.657842E+05  1.926383E+03  1.301213E+04 -7.483862E+02  8.398000E+03 -1.011302E-02
        38   8  6.652999E+05  1.119729E+02  8.652724E+03 -2.670455E+02  4.089956E+03 -1.757451E-03
        38   9  6.657855E+05 -6.444585E+01  7.505376E+03  2.142958E+02 -2.180767E+02 -7.519727E-05
        38  10  6.657841E+05  1.926364E+03  1.301200E+04  7.483862E+02  4.065784E-10 -5.493218E-11
        38  11  6.652999E+05  1.119685E+02  8.652692E+03  2.670455E+02 -1.583669E-11 -5.382074E-12
        38  12  6.657855E+05 -6.444586E+01  7.505376E+03 -2.142958E+02 -1.794930E-10  2.943802E-10
        38  13  6.657841E+05  1.926363E+03  1.301200E+04  2.188767E-10  1.325956E-10  2.772550E-11
        38  14  6.652999E+05  1.119683E+02  8.652692E+03  1.295992E-09  3.976214E-10  2.508597E-11
        38  15  6.657855E+05 -6.444595E+01  7.505376E+03  6.015147E-10  4.472943E-10  1.553943E-10
        38  16  6.657841E+05  1.926364E+03  1.301200E+04 -7.483862E+02 -5.244008E-10  1.185680E-10
        38  17  6.652999E+05  1.119685E+02  8.652692E+03 -2.670455E+02  7.483868E-11  3.281719E-11
        38  18  6.657855E+05 -6.444586E+01  7.505376E+03  2.142958E+02  5.654009E-10  2.338672E-12
        38  19  6.657842E+05  1.926383E+03  1.301213E+04  7.483862E+02 -8.398000E+03 -1.011302E-02
        38  20  6.652999E+05  1.119729E+02  8.652724E+03  2.670455E+02 -4.089956E+03 -1.757452E-03
        38  21  6.657855E+05 -6.444585E+01  7.505376E+03 -2.142958E+02  2.180767E+02 -7.519695E-05
        38  22  6.657842E+05  1.926382E+03  1.301213E+04 -1.178207E-09 -8.398000E+03  6.106002E-11
        38  23  6.652999E+05  1.119728E+02  8.652724E+03  1.188694E-09 -4.089956E+03  3.355598E-11
        38  24  6.657855E+05 -6.444594E+01  7.505376E+03  3.637957E-10  2.180767E+02  1.726032E-10
        38  25  6.657842E+05  1.926383E+03  1.301213E+04 -7.483862E+02 -8.398000E+03  1.011302E-02
        38  26  6.652999E+05  1.119729E+02  8.652724E+03 -2.670455E+02 -4.089956E+03  1.757452E-03
        38  27  6.657855E+05 -6.444585E+01  7.505376E+03  2.142958E+02  2.180767E+02  7.519729E-05
        39   1  6.658376E+05 -9.634718E+01  7.811640E+03  4.000894E+02 -1.567199E+03 -1.008928E-03
        39   2  6.652344E+05  1.821280E+02  1.033334E+04 -2.734753E+02 -6.715740E+03  2.955231E-03
        39   3  6.658356E+05  2.600078E+03  1.673927E+04 -9.470283E+02 -1.186423E+04  1.807931E-02
        39   4  6.658376E+05 -9.634748E+01  7.811640E+03 -3.788257E-10 -1.567199E+03  1.697243E-10
        39   5  6.652344E+05  1.821279E+02  1.033334E+04  3.449714E-10 -6.715740E+03  1.051373E-12
        39   6  6.658356E+05  2.600076E+03  1.673927E+04 -4.419161E-10 -1.186423E+04 -9.840570E-11
        39   7  6.658376E+05 -9.634718E+01  7.811640E+03 -4.000894E+02 -1.567199E+03  1.008928E-03
        39   8  6.652344E+05  1.821280E+02  1.033334E+04  2.734753E+02 -6.715740E+03 -2.955231E-03
        39   9  6.658356E+05  2.600078E+03  1.673927E+04  9.470283E+02 -1.186423E+04 -1.807931E-02
        39  10  6.658376E+05 -9.634784E+01  7.811635E+03  4.000894E+02 -1.404102E-10  2.552178E-10
        39  11  6.652343E+05  1.821159E+02  1.033325E+04 -2.734753E+02  1.244472E-10 -5.459122E-11
        39  12  6.658355E+05  2.600040E+03  1.673901E+04 -9.470283E+02 -1.478663E-10 -1.110581E-10
        39  13  6.658376E+05 -9.634814E+01  7.811635E+03  1.161298E-09  2.945726E-10  1.716079E-10
        39  14  6.652343E+05  1.821158E+02  1.033325E+04  9.635386E-10  1.643556E-10  2.447099E-11
        39  15  6.658355E+05  2.600039E+03  1.673901E+04 -4.216352E-11  4.526197E-10 -6.200719E-11
        39  16  6.658376E+05 -9.634784E+01  7.811635E+03 -4.000894E+02  3.634265E-10  5.597393E-11
        39  17  6.652343E+05  1.821159E+02  1.033325E+04  2.734753E+02  1.789188E-11  1.079191E-10
        39  18  6.658355E+05  2.600040E+03  1.673901E+04  9.470283E+02 -1.810279E-11 -4.687753E-13
        39  19  6.658376E+05 -9.634718E+01  7.811640E+03  4.000894E+02  1.567199E+03  1.008928E-03
        39  20  6.652344E+05  1.821280E+02  1.033334E+04 -2.734753E+02  6.715740E+03 -2.955231E-03
        39  21  6.658356E+05  2.600078E+03  1.673927E+04 -9.470283E+02  1.186423E+04 -1.807931E-02
        39  22  6.658376E+05 -9.634748E+01  7.811640E+03  7.783361E-10  1.567199E+03  1.854409E-10
        39  23  6.652344E+05  1.821279E+02  1.033334E+04  1.042425E-09  6.715740E+03  5.467896E-11
        39  24  6.658356E+05  2.600076E+03  1.673927E+04  3.491806E-10  1.186423E+04 -8.977363E-12
        39  25  6.658376E+05 -9.634718E+01  7.811640E+03 -4.000894E+02  1.567199E+03 -1.008928E-03
        39  26  6.652344E+05  1.821280E+02  1.033334E+04  2.734753E+02  6.715740E+03  2.955232E-03
        39  27  6.658356E+05  2.600078E+03  1.673927E+04  9.470283E+02  1.186423E+04  1.807931E-02
        40   1  6.687111E+05 -4.543125E+01  2.124107E+04  6.157943E+03 -1.472388E+04 -1.458934E-01
        40   2  6.616336E+05  1.089067E+04  3.725691E+04 -1.714192E+04 -3.408293E+04  9.401118E-01
        40   3  6.686908E+05  6.830200E+04  7.748617E+04 -4.044259E+04 -5.344226E+04  3.477803E+00
        40   4  6.687111E+05 -4.550243E+01  2.124106E+04 -2.555958E-10 -1.472388E+04 -1.591054E-10
        40   5  6.616333E+05  1.089012E+04  3.725683E+04  7.510526E-10 -3.408293E+04 -2.066271E-10
        40   6  6.686890E+05  6.829893E+04  7.748574E+04 -1.141657E-09 -5.344226E+04 -3.687182E-11
        40   7  6.687111E+05 -4.543125E+01  2.124107E+04 -6.157943E+03 -1.472388E+04  1.458934E-01
        40   8  6.616336E+05  1.089067E+04  3.725691E+04  1.714192E+04 -3.408293E+04 -9.401118E-01
        40   9  6.686908E+05  6.830200E+04  7.748617E+04  4.044259E+04 -5.344226E+04 -3.477803E+00
        40  10  6.687109E+05 -4.548937E+01  2.124067E+04  6.157943E+03  2.644732E-11 -6.651811E-11
        40  11  6.616324E+05  1.089036E+04  3.725473E+04 -1.714192E+04 -2.639068E-10 -8.288208E-11
        40  12  6.686877E+05  6.830124E+04  7.748081E+04 -4.044259E+04 -1.639826E-10 -2.395733E-11
        40  13  6.687108E+05 -4.556055E+01  2.124066E+04  1.473206E-10  1.093613E-10 -8.329503E-11
        40  14  6.616321E+05  1.088981E+04  3.725465E+04 -4.216182E-11  2.187483E-10 -8.644987E-11
        40  15  6.686859E+05  6.829817E+04  7.748037E+04 -2.947565E-10  1.472954E-10 -2.738142E-11
        40  16  6.687109E+05 -4.548937E+01  2.124067E+04 -6.157943E+03  1.502552E-10 -8.716291E-11
        40  17  6.616324E+05  1.089036E+04  3.725473E+04  1.714192E+04  1.250312E-10 -8.548606E-11
        40  18  6.686877E+05  6.830124E+04  7.748081E+04  4.044259E+04 -8.427433E-11 -4.176197E-11
        40  19  6.687111E+05 -4.543125E+01  2.124107E+04  6.157943E+03  1.472388E+04  1.458934E-01
        40  20  6.616336E+05  1.089067E+04  3.725691E+04 -1.714192E+04  3.408293E+04 -9.401118E-01
        40  21  6.686908E+05  6.830200E+04  7.748617E+04 -4.044259E+04  5.344226E+04 -3.477803E+00
        40  22  6.687111E+05 -4.550243E+01  2.124106E+04 -1.577711E-10  1.472388E+04 -9.943319E-12
        40  23  6.616333E+05  1.089012E+04  3.725683E+04  7.784070E-10  3.408293E+04  2.787721E-11
        40  24  6.686890E+05  6.829893E+04  7.748574E+04 -1.060633E-09  5.344226E+04 -1.659040E-11
        40  25  6.687111E+05 -4.543125E+01  2.124107E+04 -6.157943E+03  1.472388E+04 -1.458934E-01
        40  26  6.616336E+05  1.089067E+04  3.725691E+04  1.714192E+04  3.408293E+04  9.401118E-01
        40  27  6.686908E+05  6.830200E+04  7.748617E+04  4.044259E+04  5.344226E+04  3.477803E+00
        41   1 -1.419260E+05 -3.762310E+05 -1.609727E+05  7.020415E+04 -3.334702E+02 -1.092212E+05
        41   2 -2.722434E+04 -3.763913E+05 -8.258011E+04  2.427032E+04 -1.407160E+03 -6.830503E+04
        41   3 -8.357898E+03 -4.058394E+05 -5.479034E+04 -2.559303E+04 -2.455041E+03 -2.738920E+04
        41   4 -1.405616E+05 -3.705044E+05 -1.598419E+05 -1.315952E+04 -3.188291E+02 -1.076398E+05
        41   5 -2.235112E+04 -3.558498E+05 -7.875930E+04 -1.119532E+04 -1.403275E+03 -6.676973E+04
        41   6  2.471751E+01 -3.704806E+05 -4.824898E+04 -1.315906E+04 -2.455596E+03 -2.589911E+04
        41   7 -1.391711E+05 -3.647627E+05 -1.587074E+05 -9.652398E+04 -3.046130E+02 -1.060584E+05
        41   8 -1.747319E+04 -3.353052E+05 -7.493782E+04 -4.666218E+04 -1.399566E+03 -6.523437E+04
        41   9  8.407844E+03 -3.351203E+05 -4.170757E+04 -7.243768E+02 -2.456091E+03 -2.440895E+04
        41  10 -1.419292E+05 -3.762438E+05 -1.609951E+05  7.020412E+04 -5.384554E-12 -1.853357E-11
        41  11 -2.722559E+04 -3.763963E+05 -8.258889E+04  2.427025E+04  2.838996E-10  2.591783E-10
        41  12 -8.358106E+03 -4.058402E+05 -5.479176E+04 -2.559308E+04  2.505866E-10  4.964139E-10
        41  13 -1.405647E+05 -3.705168E+05 -1.598637E+05 -1.315955E+04  2.561683E-10  5.254429E-12
        41  14 -2.235232E+04 -3.558546E+05 -7.876768E+04 -1.119540E+04  1.785628E-10 -7.377264E-13
        41  15  2.453083E+01 -3.704813E+05 -4.825025E+04 -1.315912E+04  8.862774E-11  7.669226E-12
        41  16 -1.391741E+05 -3.647748E+05 -1.587286E+05 -9.652401E+04 -7.594962E-11  1.251682E-11
        41  17 -1.747434E+04 -3.353098E+05 -7.494582E+04 -4.666225E+04 -2.207419E-10 -2.519242E-10
        41  18  8.407678E+03 -3.351209E+05 -4.170870E+04 -7.244251E+02  3.790613E-10 -5.029035E-10
        41  19 -1.419260E+05 -3.762310E+05 -1.609727E+05  7.020415E+04  3.334702E+02  1.092212E+05
        41  20 -2.722434E+04 -3.763913E+05 -8.258011E+04  2.427032E+04  1.407160E+03  6.830503E+04
        41  21 -8.357898E+03 -4.058394E+05 -5.479034E+04 -2.559303E+04  2.455041E+03  2.738920E+04
        41  22 -1.405616E+05 -3.705044E+05 -1.598419E+05 -1.315952E+04  3.188291E+02  1.076398E+05
        41  23 -2.235112E+04 -3.558498E+05 -7.875930E+04 -1.119532E+04  1.403275E+03  6.676973E+04
        41  24  2.471751E+01 -3.704806E+05 -4.824898E+04 -1.315906E+04  2.455596E+03  2.589911E+04
        41  25 -1.391711E+05 -3.647627E+05 -1.587074E+05 -9.652398E+04  3.046130E+02  1.060584E+05
        41  26 -1.747319E+04 -3.353052E+05 -7.493782E+04 -4.666218E+04  1.399566E+03  6.523437E+04
        41  27  8.407844E+03 -3.351203E+05 -4.170757E+04 -7.243768E+02  2.456091E+03  2.440895E+04
        42   1 -1.600277E+04 -4.102732E+05 -4.911803E+04 -1.040844E+04 -3.074261E+03 -2.061731E+04
        42   2 -1.514881E+04 -4.230200E+05 -4.376909E+04 -1.114638E+04 -4.032712E+03 -4.106100E+03
        42   3 -2.215267E+04 -4.398813E+05 -5.113798E+04 -1.579623E+04 -4.780753E+03  1.240481E+04
        42   4 -5.225539E+03 -3.648787E+05 -4.064641E+04 -1.315550E+04 -3.074162E+03 -1.908746E+04
        42   5 -8.551462E+02 -3.628477E+05 -3.249965E+04 -1.119956E+04 -4.032669E+03 -2.878096E+03
        42   6 -4.289738E+03 -3.648789E+05 -3.686042E+04 -1.315557E+04 -4.780635E+03  1.333134E+04
        42   7  5.551604E+03 -3.194821E+05 -3.217486E+04 -1.590276E+04 -3.074076E+03 -1.755750E+04
        42   8  1.343831E+04 -3.026720E+05 -2.123037E+04 -1.125275E+04 -4.032627E+03 -1.649976E+03
        42   9  1.357289E+04 -2.898710E+05 -2.258310E+04 -1.051459E+04 -4.780509E+03  1.425799E+04
        42  10 -1.600290E+04 -4.102737E+05 -4.911884E+04 -1.040849E+04  8.501687E-11 -1.849379E-10
        42  11 -1.514883E+04 -4.230200E+05 -4.376915E+04 -1.114640E+04  4.908994E-10 -1.022652E-10
        42  12 -2.215274E+04 -4.398815E+05 -5.113831E+04 -1.579618E+04 -1.306916E-12 -3.743157E-11
        42  13 -5.225647E+03 -3.648790E+05 -4.064711E+04 -1.315555E+04  2.673328E-11 -2.066797E-11
        42  14 -8.551659E+02 -3.628477E+05 -3.249970E+04 -1.119957E+04  1.708826E-10  1.140150E-11
        42  15 -4.289810E+03 -3.648791E+05 -3.686080E+04 -1.315552E+04  1.051012E-10 -2.583724E-11
        42  16  5.551511E+03 -3.194824E+05 -3.217546E+04 -1.590281E+04  1.498171E-10  1.997289E-10
        42  17  1.343829E+04 -3.026720E+05 -2.123041E+04 -1.125275E+04  1.282935E-10  1.251452E-10
        42  18  1.357282E+04 -2.898712E+05 -2.258353E+04 -1.051454E+04  9.651588E-11 -1.225906E-12
        42  19 -1.600277E+04 -4.102732E+05 -4.911803E+04 -1.040844E+04  3.074261E+03  2.061731E+04
        42  20 -1.514881E+04 -4.230200E+05 -4.376909E+04 -1.114638E+04  4.032712E+03  4.106100E+03
        42  21 -2.215267E+04 -4.398813E+05 -5.113798E+04 -1.579623E+04  4.780753E+03 -1.240481E+04
        42  22 -5.225539E+03 -3.648787E+05 -4.064641E+04 -1.315550E+04  3.074162E+03  1.908746E+04
        42  23 -8.551462E+02 -3.628477E+05 -3.249965E+04 -1.119956E+04  4.032669E+03  2.878096E+03
        42  24 -4.289738E+03 -3.648789E+05 -3.686042E+04 -1.315557E+04  4.780635E+03 -1.333134E+04
        42  25  5.551604E+03 -3.194821E+05 -3.217486E+04 -1.590276E+04  3.074076E+03  1.755750E+04
        42  26  1.343831E+04 -3.026720E+05 -2.123037E+04 -1.125275E+04  4.032627E+03  1.649976E+03
        42  27  1.357289E+04 -2.898710E+05 -2.258310E+04 -1.051459E+04  4.780509E+03 -1.425799E+04
        43   1 -2.028414E+04 -4.545565E+05 -5.864690E+04 -2.893273E+03 -5.374287E+03  1.801636E+04
        43   2 -4.258568E+04 -4.567692E+05 -8.692705E+04 -4.090701E+04 -4.916238E+03  5.677211E+04
        43   3 -1.455013E+05 -4.841845E+05 -1.606013E+05 -8.264515E+04 -1.537436E+03  9.552588E+04
        43   4  3.103717E+00 -3.694122E+05 -4.238959E+04 -1.311585E+04 -5.374482E+03  1.946222E+04
        43   5 -1.859761E+04 -3.571868E+05 -6.662775E+04 -1.124917E+04 -4.913604E+03  5.401189E+04
        43   6 -1.170806E+05 -3.694330E+05 -1.333347E+05 -1.310980E+04 -1.527204E+03  8.856088E+04
        43   7  2.029031E+04 -2.842606E+05 -2.613255E+04 -2.333987E+04 -5.374724E+03  2.090826E+04
        43   8  5.393142E+03 -2.575931E+05 -4.632846E+04  1.841353E+04 -4.911234E+03  5.125124E+04
        43   9 -8.864266E+04 -2.546589E+05 -1.060662E+05  5.643848E+04 -1.518536E+03  8.159459E+04
        43  10 -2.028425E+04 -4.545569E+05 -5.864756E+04 -2.893195E+03  7.726475E-11 -7.548920E-11
        43  11 -4.258657E+04 -4.567726E+05 -8.693316E+04 -4.090679E+04 -9.783211E-11 -1.101558E-10
        43  12 -1.455037E+05 -4.841943E+05 -1.606185E+05 -8.264503E+04 -3.276582E-10 -1.061765E-10
        43  13  2.970944E+00 -3.694126E+05 -4.239036E+04 -1.311577E+04  8.410954E-11  7.678164E-12
        43  14 -1.859842E+04 -3.571899E+05 -6.663328E+04 -1.124895E+04  2.284032E-11 -1.211573E-11
        43  15 -1.170827E+05 -3.694414E+05 -1.333494E+05 -1.310969E+04  2.416606E-10  2.202245E-11
        43  16  2.029016E+04 -2.842611E+05 -2.613343E+04 -2.333978E+04  8.253253E-11  1.407710E-10
        43  17  5.392411E+03 -2.575959E+05 -4.633345E+04  1.841373E+04  4.790753E-10  8.934582E-11
        43  18 -8.864445E+04 -2.546660E+05 -1.060787E+05  5.643858E+04  2.352056E-10  5.541141E-11
        43  19 -2.028414E+04 -4.545565E+05 -5.864690E+04 -2.893273E+03  5.374287E+03 -1.801636E+04
        43  20 -4.258568E+04 -4.567692E+05 -8.692705E+04 -4.090701E+04  4.916238E+03 -5.677211E+04
        43  21 -1.455013E+05 -4.841845E+05 -1.606013E+05 -8.264515E+04  1.537436E+03 -9.552588E+04
        43  22  3.103717E+00 -3.694122E+05 -4.238959E+04 -1.311585E+04  5.374482E+03 -1.946222E+04
        43  23 -1.859761E+04 -3.571868E+05 -6.662775E+04 -1.124917E+04  4.913604E+03 -5.401189E+04
        43  24 -1.170806E+05 -3.694330E+05 -1.333347E+05 -1.310980E+04  1.527204E+03 -8.856088E+04
        43  25  2.029031E+04 -2.842606E+05 -2.613255E+04 -2.333987E+04  5.374724E+03 -2.090826E+04
        43  26  5.393142E+03 -2.575931E+05 -4.632846E+04  1.841353E+04  4.911234E+03 -5.125124E+04
        43  27 -8.864266E+04 -2.546589E+05 -1.060662E+05  5.643848E+04  1.518536E+03 -8.159459E+04
        44   1  9.164356E+04 -2.319426E+04 -6.046706E+04  8.225907E+04 -1.851881E+04 -1.064683E+04
        44   2  1.101817E+05  6.736342E+03 -4.084184E+04  9.007896E+04 -1.341595E+04  2.429890E+02
        44   3  1.298323E+05  2.244669E+04 -3.047193E+04  9.861115E+04 -5.283261E+03  7.093636E+03
        44   4  2.288750E+05  8.596100E+04 -1.353287E+04  1.555761E+05 -9.099931E+03 -3.583776E+03
        44   5  2.298375E+05  9.626354E+04 -6.432895E+03  1.523527E+05 -9.813978E+03  2.943701E+03
        44   6  2.331756E+05  9.360893E+04 -3.539161E+03  1.498411E+05 -7.498824E+03  5.432194E+03
        44   7  3.661244E+05  1.951281E+05  3.339837E+04  2.289112E+05  3.216199E+02  3.481622E+03
        44   8  3.495082E+05  1.857994E+05  2.797428E+04  2.146401E+05 -6.211097E+03  5.645145E+03
        44   9  3.365309E+05  1.647770E+05  2.339272E+04  2.010808E+05 -9.714882E+03  3.770393E+03
        44  10  9.164316E+04 -2.319447E+04 -6.046791E+04  8.225891E+04  2.839611E-10  5.717920E-10
        44  11  1.101815E+05  6.736294E+03 -4.084217E+04  9.007896E+04 -2.635949E-09 -1.174453E-09
        44  12  1.298323E+05  2.244663E+04 -3.047208E+04  9.861118E+04 -9.342338E-10 -9.704050E-10
        44  13  2.288749E+05  8.596096E+04 -1.353305E+04  1.555761E+05 -5.327307E-10 -3.177167E-10
        44  14  2.298374E+05  9.626351E+04 -6.433093E+03  1.523528E+05  2.600702E-11 -7.957497E-11
        44  15  2.331756E+05  9.360888E+04 -3.539322E+03  1.498412E+05  3.631237E-09  2.464517E-09
        44  16  3.661244E+05  1.951281E+05  3.339835E+04  2.289112E+05 -1.258827E-09 -1.255975E-09
        44  17  3.495082E+05  1.857994E+05  2.797415E+04  2.146401E+05  2.468793E-09  1.001983E-09
        44  18  3.365308E+05  1.647770E+05  2.339252E+04  2.010808E+05  8.281862E-09  5.802921E-09
        44  19  9.164356E+04 -2.319426E+04 -6.046706E+04  8.225907E+04  1.851881E+04  1.064683E+04
        44  20  1.101817E+05  6.736342E+03 -4.084184E+04  9.007896E+04  1.341595E+04 -2.429890E+02
        44  21  1.298323E+05  2.244669E+04 -3.047193E+04  9.861115E+04  5.283261E+03 -7.093636E+03
        44  22  2.288750E+05  8.596100E+04 -1.353287E+04  1.555761E+05  9.099931E+03  3.583776E+03
        44  23  2.298375E+05  9.626354E+04 -6.432895E+03  1.523527E+05  9.813978E+03 -2.943701E+03
        44  24  2.331756E+05  9.360893E+04 -3.539161E+03  1.498411E+05  7.498824E+03 -5.432194E+03
        44  25  3.661244E+05  1.951281E+05  3.339837E+04  2.289112E+05 -3.216199E+02 -3.481622E+03
        44  26  3.495082E+05  1.857994E+05  2.797428E+04  2.146401E+05  6.211097E+03 -5.645145E+03
        44  27  3.365309E+05  1.647770E+05  2.339272E+04  2.010808E+05  9.714882E+03 -3.770393E+03
        45   1  1.452678E+05  3.099070E+04 -2.585752E+04  1.057692E+05 -4.948813E+03  5.924095E+03
        45   2  1.623035E+05  4.950883E+04 -1.887111E+04  1.169997E+05 -3.097526E+03  5.462939E+03
        45   3  1.861632E+05  6.048695E+04 -1.278067E+04  1.262288E+05 -1.031155E+03  4.714829E+03
        45   4  2.333969E+05  9.343260E+04 -2.688145E+03  1.502886E+05 -6.447350E+03  4.800366E+03
        45   5  2.300271E+05  9.731091E+04 -1.377917E+03  1.511756E+05 -5.009301E+03  4.029474E+03
        45   6  2.335699E+05  9.373867E+04 -6.051280E+02  1.500609E+05 -3.356248E+03  2.971618E+03
        45   7  3.215361E+05  1.558801E+05  2.048104E+04  1.948160E+05 -7.946196E+03  3.676404E+03
        45   8  2.977559E+05  1.451157E+05  1.611492E+04  1.853559E+05 -6.921355E+03  2.595798E+03
        45   9  2.809785E+05  1.269912E+05  1.157001E+04  1.738946E+05 -5.681544E+03  1.228256E+03
        45  10  1.452677E+05  3.099065E+04 -2.585764E+04  1.057693E+05  9.445423E-09  5.870856E-09
        45  11  1.623035E+05  4.950879E+04 -1.887118E+04  1.169997E+05  2.185056E-09  8.570045E-10
        45  12  1.861632E+05  6.048693E+04 -1.278071E+04  1.262288E+05 -2.124563E-09 -1.351850E-09
        45  13  2.333968E+05  9.343256E+04 -2.688266E+03  1.502887E+05  3.580808E-09  2.350503E-09
        45  14  2.300270E+05  9.731089E+04 -1.377994E+03  1.511756E+05 -5.438915E-10 -2.116869E-10
        45  15  2.335699E+05  9.373866E+04 -6.051657E+02  1.500609E+05 -4.523741E-10 -8.745341E-11
        45  16  3.215360E+05  1.558800E+05  2.048090E+04  1.948160E+05 -1.698539E-09 -1.190704E-09
        45  17  2.977558E+05  1.451157E+05  1.611482E+04  1.853559E+05 -2.545502E-09 -1.227283E-09
        45  18  2.809784E+05  1.269912E+05  1.156995E+04  1.738946E+05  9.132045E-10  1.071437E-09
        45  19  1.452678E+05  3.099070E+04 -2.585752E+04  1.057692E+05  4.948813E+03 -5.924095E+03
        45  20  1.623035E+05  4.950883E+04 -1.887111E+04  1.169997E+05  3.097526E+03 -5.462939E+03
        45  21  1.861632E+05  6.048695E+04 -1.278067E+04  1.262288E+05  1.031155E+03 -4.714829E+03
        45  22  2.333969E+05  9.343260E+04 -2.688145E+03  1.502886E+05  6.447350E+03 -4.800366E+03
        45  23  2.300271E+05  9.731091E+04 -1.377917E+03  1.511756E+05  5.009301E+03 -4.029474E+03
        45  24  2.335699E+05  9.373867E+04 -6.051280E+02  1.500609E+05  3.356248E+03 -2.971618E+03
        45  25  3.215361E+05  1.558801E+05  2.048104E+04  1.948160E+05  7.946196E+03 -3.676404E+03
        45  26  2.977559E+05  1.451157E+05  1.611492E+04  1.853559E+05  6.921355E+03 -2.595798E+03
        45  27  2.809785E+05  1.269912E+05  1.157001E+04  1.738946E+05  5.681544E+03 -1.228256E+03
        46   1  2.001106E+05  7.022441E+04 -8.811556E+03  1.332302E+05 -3.105523E+02  3.784221E+03
        46   2  2.169724E+05  8.823945E+04 -3.065500E+03  1.446024E+05  7.845282E+02  2.133753E+03
        46   3  2.410213E+05  9.909490E+04  2.757005E+03  1.538847E+05  1.882208E+03  4.797882E+02
        46   4  2.335928E+05  9.373559E+04 -3.087096E+02  1.500920E+05 -2.587172E+03  2.077405E+03
        46   5  2.300033E+05  9.732245E+04  2.430065E+02  1.511318E+05 -1.497177E+03  4.231435E+02
        46   6  2.336014E+05  9.375045E+04  8.755462E+02  1.500812E+05 -4.045766E+02 -1.234617E+03
        46   7  2.670765E+05  1.172475E+05  8.194085E+03  1.669549E+05 -4.863958E+03  3.704656E+02
        46   8  2.430345E+05  1.064056E+05  3.551566E+03  1.576615E+05 -3.778965E+03 -1.287527E+03
        46   9  2.261814E+05  8.840596E+04 -1.005927E+03  1.462778E+05 -2.691360E+03 -2.949020E+03
        46  10  2.001106E+05  7.022440E+04 -8.811583E+03  1.332302E+05  2.037809E-10  8.111289E-10
        46  11  2.169724E+05  8.823944E+04 -3.065509E+03  1.446024E+05 -5.343187E-11  1.922719E-10
        46  12  2.410213E+05  9.909490E+04  2.756998E+03  1.538847E+05 -2.433173E-11 -7.056990E-11
        46  13  2.335928E+05  9.373559E+04 -3.087303E+02  1.500921E+05 -6.472209E-11  2.737197E-10
        46  14  2.300033E+05  9.732245E+04  2.430019E+02  1.511318E+05 -4.908859E-10  9.713953E-11
        46  15  2.336014E+05  9.375045E+04  8.755431E+02  1.500812E+05  6.241837E-11 -1.394532E-11
        46  16  2.670764E+05  1.172475E+05  8.194040E+03  1.669549E+05 -3.293572E-10 -1.292656E-10
        46  17  2.430345E+05  1.064056E+05  3.551536E+03  1.576615E+05 -8.621532E-12 -4.672569E-12
        46  18  2.261814E+05  8.840595E+04 -1.005957E+03  1.462778E+05 -7.015303E-11  1.926505E-10
        46  19  2.001106E+05  7.022441E+04 -8.811556E+03  1.332302E+05  3.105523E+02 -3.784221E+03
        46  20  2.169724E+05  8.823945E+04 -3.065500E+03  1.446024E+05 -7.845282E+02 -2.133753E+03
        46  21  2.410213E+05  9.909490E+04  2.757005E+03  1.538847E+05 -1.882208E+03 -4.797882E+02
        46  22  2.335928E+05  9.373559E+04 -3.087096E+02  1.500920E+05  2.587172E+03 -2.077405E+03
        46  23  2.300033E+05  9.732245E+04  2.430065E+02  1.511318E+05  1.497177E+03 -4.231435E+02
        46  24  2.336014E+05  9.375045E+04  8.755462E+02  1.500812E+05  4.045766E+02  1.234617E+03
        46  25  2.670765E+05  1.172475E+05  8.194085E+03  1.669549E+05  4.863958E+03 -3.704656E+02
        46  26  2.430345E+05  1.064056E+05  3.551566E+03  1.576615E+05  3.778965E+03  1.287527E+03
        46  27  2.261814E+05  8.840596E+04 -1.005927E+03  1.462778E+05  2.691360E+03  2.949020E+03
        47   1  2.548239E+05  1.089806E+05  6.826199E+03  1.609462E+05  2.476446E+03 -5.459359E+02
        47   2  2.718212E+05  1.267859E+05  1.326188E+04  1.721260E+05  2.290044E+03 -3.022331E+03
        47   3  2.964598E+05  1.379971E+05  2.092794E+04  1.810780E+05  1.926097E+03 -5.261888E+03
        47   4  2.336254E+05  9.375245E+04  1.273218E+03  1.501307E+05  1.508569E+02 -2.289450E+03
        47   5  2.299815E+05  9.733564E+04  2.421277E+03  1.510573E+05  3.057389E+02 -4.510044E+03
        47   6  2.339048E+05  9.425079E+04  4.503920E+03  1.497560E+05  2.831158E+02 -6.493765E+03
        47   7  2.124277E+05  7.852484E+04 -4.279653E+03  1.393159E+05 -2.174589E+03 -4.032855E+03
        47   8  1.881442E+05  6.788663E+04 -8.419326E+03  1.299905E+05 -1.678371E+03 -5.997612E+03
        47   9  1.713544E+05  5.050679E+04 -1.192041E+04  1.184377E+05 -1.359642E+03 -7.725476E+03
        47  10  2.548239E+05  1.089806E+05  6.826187E+03  1.609462E+05 -1.526925E-10  9.954827E-11
        47  11  2.718212E+05  1.267859E+05  1.326185E+04  1.721260E+05 -8.972575E-11  1.113437E-10
        47  12  2.964597E+05  1.379970E+05  2.092788E+04  1.810781E+05 -2.319072E-11  1.022960E-10
        47  13  2.336254E+05  9.375244E+04  1.273208E+03  1.501307E+05  1.748555E-10  1.485445E-10
        47  14  2.299815E+05  9.733562E+04  2.421238E+03  1.510573E+05  3.215617E-10 -4.717850E-11
        47  15  2.339048E+05  9.425075E+04  4.503841E+03  1.497560E+05 -1.577277E-10  1.021975E-10
        47  16  2.124277E+05  7.852482E+04 -4.279693E+03  1.393159E+05 -1.391250E-11  6.465938E-11
        47  17  1.881442E+05  6.788659E+04 -8.419399E+03  1.299904E+05  2.184513E-12 -2.408343E-11
        47  18  1.713544E+05  5.050673E+04 -1.192052E+04  1.184376E+05 -1.567890E-11 -1.759148E-11
        47  19  2.548239E+05  1.089806E+05  6.826199E+03  1.609462E+05 -2.476446E+03  5.459359E+02
        47  20  2.718212E+05  1.267859E+05  1.326188E+04  1.721260E+05 -2.290044E+03  3.022331E+03
        47  21  2.964598E+05  1.379971E+05  2.092794E+04  1.810780E+05 -1.926097E+03  5.261888E+03
        47  22  2.336254E+05  9.375245E+04  1.273218E+03  1.501307E+05 -1.508569E+02  2.289450E+03
        47  23  2.299815E+05  9.733564E+04  2.421277E+03  1.510573E+05 -3.057389E+02  4.510044E+03
        47  24  2.339048E+05  9.425079E+04  4.503920E+03  1.497560E+05 -2.831158E+02  6.493765E+03
        47  25  2.124277E+05  7.852484E+04 -4.279653E+03  1.393159E+05  2.174589E+03  4.032855E+03
        47  26  1.881442E+05  6.788663E+04 -8.419326E+03  1.299905E+05  1.678371E+03  5.997612E+03
        47  27  1.713544E+05  5.050679E+04 -1.192041E+04  1.184377E+05  1.359642E+03  7.725476E+03
        48   1  3.087082E+05  1.496982E+05  2.604785E+04  1.894735E+05  2.585783E+03 -6.196426E+03
        48   2  3.317664E+05  1.624520E+05  3.783672E+04  1.961043E+05 -6.720774E+03 -1.299069E+04
        48   3  3.701961E+05  1.793311E+05  6.072244E+04  1.962526E+05 -1.853173E+04 -1.644668E+04
        48   4  2.341123E+05  9.411421E+04  5.879092E+03  1.505378E+05  3.502355E+02 -7.872648E+03
        48   5  2.304774E+05  9.885292E+04  1.059673E+04  1.490680E+05 -4.144891E+03 -1.105953E+04
        48   6  2.411710E+05  1.066744E+05  2.223805E+04  1.411151E+05 -1.114388E+04 -1.090757E+04
        48   7  1.595217E+05  3.853313E+04 -1.429054E+04  1.116070E+05 -1.884986E+03 -9.548605E+03
        48   8  1.291998E+05  3.525818E+04 -1.664416E+04  1.020399E+05 -1.569580E+03 -9.128745E+03
        48   9  1.121658E+05  3.402377E+04 -1.624718E+04  8.598984E+04 -3.758261E+03 -5.369704E+03
        48  10  3.087082E+05  1.496981E+05  2.604776E+04  1.894735E+05  1.570446E-10  1.855123E-10
        48  11  3.317663E+05  1.624518E+05  3.783632E+04  1.961042E+05 -3.908547E-10 -4.632147E-12
        48  12  3.701957E+05  1.793307E+05  6.072128E+04  1.962524E+05 -3.152088E-10 -9.676763E-11
        48  13  2.341123E+05  9.411414E+04  5.878975E+03  1.505378E+05 -1.227055E-10 -9.048371E-12
        48  14  2.304773E+05  9.885278E+04  1.059646E+04  1.490679E+05  1.974893E-10 -4.797187E-11
        48  15  2.411708E+05  1.066742E+05  2.223759E+04  1.411150E+05 -2.202582E-10 -3.454376E-11
        48  16  1.595216E+05  3.853303E+04 -1.429071E+04  1.116070E+05  2.487282E-10 -1.910242E-10
        48  17  1.291998E+05  3.525809E+04 -1.664432E+04  1.020399E+05  1.869587E-10 -1.026427E-10
        48  18  1.121658E+05  3.402373E+04 -1.624726E+04  8.598982E+04  2.199275E-10  3.720988E-11
        48  19  3.087082E+05  1.496982E+05  2.604785E+04  1.894735E+05 -2.585783E+03  6.196426E+03
        48  20  3.317664E+05  1.624520E+05  3.783672E+04  1.961043E+05  6.720774E+03  1.299069E+04
        48  21  3.701961E+05  1.793311E+05  6.072244E+04  1.962526E+05  1.853173E+04  1.644668E+04
        48  22  2.341123E+05  9.411421E+04  5.879092E+03  1.505378E+05 -3.502355E+02  7.872648E+03
        48  23  2.304774E+05  9.885292E+04  1.059673E+04  1.490680E+05  4.144891E+03  1.105953E+04
        48  24  2.411710E+05  1.066744E+05  2.223805E+04  1.411151E+05  1.114388E+04  1.090757E+04
        48  25  1.595217E+05  3.853313E+04 -1.429054E+04  1.116070E+05  1.884986E+03  9.548605E+03
        48  26  1.291998E+05  3.525818E+04 -1.664416E+04  1.020399E+05  1.569580E+03  9.128745E+03
        48  27  1.121658E+05  3.402377E+04 -1.624718E+04  8.598984E+04  3.758261E+03  5.369704E+03
        49   1  4.952851E+05  3.633183E+04  4.123985E+04  2.152112E+04  2.829157E+04  9.799798E-01
        49   2  4.915253E+05  5.787750E+03  1.994020E+04  9.133267E+03  1.793354E+04  2.636262E-01
        49   3  4.952934E+05 -3.142835E+01  1.156167E+04 -3.254451E+03  7.575518E+03 -3.968108E-02
        49   4  4.952846E+05  3.633096E+04  4.123972E+04 -5.711914E-10  2.829157E+04  7.364588E-11
        49   5  4.915252E+05  5.787593E+03  1.994018E+04  1.532106E-09  1.793354E+04  1.701261E-10
        49   6  4.952933E+05 -3.144824E+01  1.156167E+04 -5.586841E-10  7.575518E+03 -1.163715E-10
        49   7  4.952851E+05  3.633183E+04  4.123985E+04 -2.152112E+04  2.829157E+04 -9.799798E-01
        49   8  4.915253E+05  5.787750E+03  1.994020E+04 -9.133267E+03  1.793354E+04 -2.636262E-01
        49   9  4.952934E+05 -3.142835E+01  1.156167E+04  3.254451E+03  7.575518E+03  3.968108E-02
        49  10  4.952843E+05  3.633162E+04  4.123834E+04  2.152112E+04  1.276863E-10  4.584017E-12
        49  11  4.915249E+05  5.787663E+03  1.993960E+04  9.133267E+03  5.671503E-13 -3.761335E-11
        49  12  4.952933E+05 -3.144374E+01  1.156156E+04 -3.254451E+03  2.807121E-10 -5.188381E-11
        49  13  4.952838E+05  3.633075E+04  4.123822E+04 -4.502207E-10 -1.514856E-10 -5.217549E-12
        49  14  4.915248E+05  5.787507E+03  1.993958E+04  5.711556E-10 -2.636414E-10 -2.685415E-11
        49  15  4.952933E+05 -3.146363E+01  1.156156E+04 -6.228577E-10  4.044215E-11 -8.217716E-11
        49  16  4.952843E+05  3.633162E+04  4.123834E+04 -2.152112E+04  7.639489E-11 -9.443335E-12
        49  17  4.915249E+05  5.787663E+03  1.993960E+04 -9.133267E+03 -2.656234E-10 -3.807609E-11
        49  18  4.952933E+05 -3.144374E+01  1.156156E+04  3.254451E+03 -4.863029E-10 -9.687022E-11
        49  19  4.952851E+05  3.633183E+04  4.123985E+04  2.152112E+04 -2.829157E+04 -9.799798E-01
        49  20  4.915253E+05  5.787750E+03  1.994020E+04  9.133267E+03 -1.793354E+04 -2.636262E-01
        49  21  4.952934E+05 -3.142835E+01  1.156167E+04 -3.254451E+03 -7.575518E+03  3.968108E-02
        49  22  4.952846E+05  3.633096E+04  4.123972E+04 -1.148722E-09 -2.829157E+04 -7.832806E-11
        49  23  4.915252E+05  5.787593E+03  1.994018E+04 -2.556675E-10 -1.793354E+04 -2.208893E-10
        49  24  4.952933E+05 -3.144824E+01  1.156167E+04 -1.428648E-09 -7.575518E+03 -4.719596E-11
        49  25  4.952851E+05  3.633183E+04  4.123985E+04 -2.152112E+04 -2.829157E+04  9.799798E-01
        49  26  4.915253E+05  5.787750E+03  1.994020E+04 -9.133267E+03 -1.793354E+04  2.636262E-01
        49  27  4.952934E+05 -3.142835E+01  1.156167E+04  3.254451E+03 -7.575518E+03 -3.968108E-02
        50   1  4.937729E+05  1.373934E+03  9.264558E+03  5.325141E+02  5.998350E+03  5.141115E-03
        50   2  4.934284E+05  8.041307E+01  6.145655E+03  1.888125E+02  2.938641E+03  8.930418E-04
        50   3  4.937736E+05 -4.613484E+01  5.309318E+03 -1.548842E+02 -1.210175E+02  3.016838E-05
        50   4  4.937729E+05  1.373933E+03  9.264558E+03 -3.493143E-10  5.998350E+03 -2.725800E-10
        50   5  4.934284E+05  8.041300E+01  6.145655E+03  9.404727E-10  2.938641E+03 -1.996558E-10
        50   6  4.937736E+05 -4.613488E+01  5.309318E+03 -3.701354E-10 -1.210175E+02  1.089607E-10
        50   7  4.937729E+05  1.373934E+03  9.264558E+03 -5.325141E+02  5.998350E+03 -5.141115E-03
        50   8  4.934284E+05  8.041307E+01  6.145655E+03 -1.888125E+02  2.938641E+03 -8.930421E-04
        50   9  4.937736E+05 -4.613484E+01  5.309318E+03  1.548842E+02 -1.210175E+02 -3.016819E-05
        50  10  4.937729E+05  1.373924E+03  9.264490E+03  5.325141E+02 -8.992068E-11 -2.563396E-11
        50  11  4.934284E+05  8.041075E+01  6.145639E+03  1.888125E+02  4.794856E-11  1.629073E-10
        50  12  4.937736E+05 -4.613484E+01  5.309318E+03 -1.548842E+02 -2.284902E-10  2.747386E-10
        50  13  4.937729E+05  1.373923E+03  9.264490E+03 -8.247768E-10 -1.304408E-10 -8.423569E-11
        50  14  4.934284E+05  8.041069E+01  6.145639E+03  4.262077E-12  1.388578E-10  3.037319E-11
        50  15  4.937736E+05 -4.613489E+01  5.309318E+03 -4.401624E-11 -3.047155E-10  2.153777E-10
        50  16  4.937729E+05  1.373924E+03  9.264490E+03 -5.325141E+02  1.236151E-11 -1.475951E-10
        50  17  4.934284E+05  8.041075E+01  6.145639E+03 -1.888125E+02 -9.241248E-11 -1.130606E-10
        50  18  4.937736E+05 -4.613484E+01  5.309318E+03  1.548842E+02  2.758379E-10  1.423753E-10
        50  19  4.937729E+05  1.373934E+03  9.264558E+03  5.325141E+02 -5.998350E+03 -5.141115E-03
        50  20  4.934284E+05  8.041307E+01  6.145655E+03  1.888125E+02 -2.938641E+03 -8.930414E-04
        50  21  4.937736E+05 -4.613484E+01  5.309318E+03 -1.548842E+02  1.210175E+02 -3.016781E-05
        50  22  4.937729E+05  1.373933E+03  9.264558E+03 -6.638255E-10 -5.998350E+03  1.114991E-10
        50  23  4.934284E+05  8.041300E+01  6.145655E+03 -3.944090E-10 -2.938641E+03  2.840437E-10
        50  24  4.937736E+05 -4.613488E+01  5.309318E+03 -7.498472E-10  1.210175E+02  3.236428E-10
        50  25  4.937729E+05  1.373934E+03  9.264558E+03 -5.325141E+02 -5.998350E+03  5.141115E-03
        50  26  4.934284E+05  8.041307E+01  6.145655E+03 -1.888125E+02 -2.938641E+03  8.930420E-04
        50  27  4.937736E+05 -4.613484E+01  5.309318E+03  1.548842E+02  1.210175E+02  3.016847E-05
        51   1  4.938085E+05 -6.750496E+01  5.514414E+03  2.792872E+02 -1.074296E+03 -4.829130E-04
        51   2  4.933845E+05  1.273896E+02  7.271142E+03 -1.931265E+02 -4.696784E+03  1.459947E-03
        51   3  4.938075E+05  1.825135E+03  1.176063E+04 -6.655465E+02 -8.319338E+03  8.911722E-03
        51   4  4.938085E+05 -6.750511E+01  5.514414E+03  3.463441E-10 -1.074296E+03  1.606253E-10
        51   5  4.933845E+05  1.273896E+02  7.271142E+03 -5.732197E-10 -4.696784E+03 -2.571808E-11
        51   6  4.938075E+05  1.825134E+03  1.176063E+04 -1.054124E-09 -8.319338E+03 -1.189685E-11
        51   7  4.938085E+05 -6.750496E+01  5.514414E+03 -2.792872E+02 -1.074296E+03  4.829134E-04
        51   8  4.933845E+05  1.273896E+02  7.271142E+03  1.931265E+02 -4.696784E+03 -1.459947E-03
        51   9  4.938075E+05  1.825135E+03  1.176063E+04  6.655465E+02 -8.319338E+03 -8.911722E-03
        51  10  4.938085E+05 -6.750527E+01  5.514412E+03  2.792872E+02  5.435420E-10  1.855624E-10
        51  11  4.933845E+05  1.273837E+02  7.271101E+03 -1.931265E+02 -1.454795E-11 -5.006503E-11
        51  12  4.938074E+05  1.825116E+03  1.176050E+04 -6.655465E+02 -1.213193E-10 -1.206785E-10
        51  13  4.938085E+05 -6.750542E+01  5.514412E+03  6.123878E-11  1.262584E-11  1.800135E-10
        51  14  4.933845E+05  1.273836E+02  7.271101E+03  1.052682E-10  4.928256E-10 -3.592485E-11
        51  15  4.938074E+05  1.825115E+03  1.176050E+04 -6.522775E-10  2.339950E-11 -6.921562E-11
        51  16  4.938085E+05 -6.750527E+01  5.514412E+03 -2.792872E+02 -4.693952E-10  1.523823E-10
        51  17  4.933845E+05  1.273837E+02  7.271101E+03  1.931265E+02  2.925188E-10 -5.197722E-11
        51  18  4.938074E+05  1.825116E+03  1.176050E+04  6.655465E+02  7.626733E-11 -1.831215E-11
        51  19  4.938085E+05 -6.750496E+01  5.514414E+03  2.792872E+02  1.074296E+03  4.829134E-04
        51  20  4.933845E+05  1.273896E+02  7.271142E+03 -1.931265E+02  4.696784E+03 -1.459947E-03
        51  21  4.938075E+05  1.825135E+03  1.176063E+04 -6.655465E+02  8.319338E+03 -8.911722E-03
        51  22  4.938085E+05 -6.750511E+01  5.514414E+03  1.653481E-10  1.074296E+03  2.040446E-10
        51  23  4.933845E+05  1.273896E+02  7.271142E+03  3.819159E-10  4.696784E+03 -5.515873E-11
        51  24  4.938075E+05  1.825134E+03  1.176063E+04 -9.888919E-10  8.319338E+03 -1.248782E-10
        51  25  4.938085E+05 -6.750496E+01  5.514414E+03 -2.792872E+02  1.074296E+03 -4.829130E-04
        51  26  4.933845E+05  1.273896E+02  7.271142E+03  1.931265E+02  4.696784E+03  1.459947E-03
        51  27  4.938075E+05  1.825135E+03  1.176063E+04  6.655465E+02  8.319338E+03  8.911722E-03
        52   1  4.958259E+05 -3.272505E+01  1.491833E+04  4.322898E+03 -1.032779E+04 -7.185810E-02
        52   2  4.908581E+05  7.644259E+03  2.615829E+04 -1.203297E+04 -2.391964E+04  4.632596E-01
        52   3  4.958153E+05  4.795211E+04  5.440023E+04 -2.838906E+04 -3.751148E+04  1.714000E+00
        52   4  4.958259E+05 -3.276014E+01  1.491832E+04 -6.638776E-10 -1.032779E+04  2.600507E-11
        52   5  4.908580E+05  7.643987E+03  2.615825E+04  3.218106E-10 -2.391964E+04  1.625683E-11
        52   6  4.958144E+05  4.795059E+04  5.440001E+04 -8.027047E-10 -3.751148E+04  7.965813E-11
        52   7  4.958259E+05 -3.272505E+01  1.491833E+04 -4.322898E+03 -1.032779E+04  7.185810E-02
        52   8  4.908581E+05  7.644259E+03  2.615829E+04  1.203297E+04 -2.391964E+04 -4.632596E-01
        52   9  4.958153E+05  4.795211E+04  5.440023E+04  2.838906E+04 -3.751148E+04 -1.714000E+00
        52  10  4.958258E+05 -3.275365E+01  1.491813E+04  4.322898E+03 -1.345576E-10 -1.005048E-10
        52  11  4.908575E+05  7.644106E+03  2.615721E+04 -1.203297E+04 -4.118262E-10 -3.487402E-11
        52  12  4.958138E+05  4.795173E+04  5.439758E+04 -2.838906E+04 -6.846916E-11  9.211260E-12
        52  13  4.958258E+05 -3.278874E+01  1.491812E+04 -2.441517E-10 -1.791452E-10 -3.282475E-11
        52  14  4.908573E+05  7.643834E+03  2.615717E+04  3.975519E-10 -5.139077E-11 -7.807164E-12
        52  15  4.958129E+05  4.795022E+04  5.439737E+04  4.880518E-10  4.959779E-11  4.962519E-13
        52  16  4.958258E+05 -3.275365E+01  1.491813E+04 -4.322898E+03  1.458396E-10  1.201193E-11
        52  17  4.908575E+05  7.644106E+03  2.615721E+04  1.203297E+04  1.250552E-12  2.180181E-11
        52  18  4.958138E+05  4.795173E+04  5.439758E+04  2.838906E+04  9.157757E-11  1.821669E-11
        52  19  4.958259E+05 -3.272505E+01  1.491833E+04  4.322898E+03  1.032779E+04  7.185810E-02
        52  20  4.908581E+05  7.644259E+03  2.615829E+04 -1.203297E+04  2.391964E+04 -4.632596E-01
        52  21  4.958153E+05  4.795211E+04  5.440023E+04 -2.838906E+04  3.751148E+04 -1.714000E+00
        52  22  4.958259E+05 -3.276014E+01  1.491832E+04 -5.081873E-10  1.032779E+04 -9.068070E-11
        52  23  4.908580E+05  7.643987E+03  2.615825E+04  7.415358E-10  2.391964E+04 -2.820869E-11
        52  24  4.958144E+05  4.795059E+04  5.440001E+04 -3.945433E-10  3.751148E+04 -7.824204E-11
        52  25  4.958259E+05 -3.272505E+01  1.491833E+04 -4.322898E+03  1.032779E+04 -7.185810E-02
        52  26  4.908581E+05  7.644259E+03  2.615829E+04  1.203297E+04  2.391964E+04  4.632596E-01
        52  27  4.958153E+05  4.795211E+04  5.440023E+04  2.838906E+04  3.751148E+04  1.714000E+00
        53   1 -7.763844E+04 -1.438426E+05 -9.079237E+04  3.314636E+04  5.473439E+02 -6.866788E+04
        53   2 -5.982521E+03 -1.590862E+05 -4.427601E+04  4.738357E+03  1.360584E+03 -4.408230E+04
        53   3  2.832075E+03 -1.932399E+05 -2.947641E+04 -3.010447E+04  4.929651E+02 -1.949743E+04
        53   4 -9.279677E+04 -2.048733E+05 -1.055366E+05 -2.190198E+04  5.535306E+02 -7.103800E+04
        53   5 -1.475679E+04 -1.952017E+05 -5.203143E+04 -1.868316E+04  1.362252E+03 -4.403848E+04
        53   6  1.647834E+01 -2.048641E+05 -3.192247E+04 -2.189908E+04  4.925739E+02 -1.703861E+04
        53   7 -1.079440E+05 -2.658941E+05 -1.202795E+05 -7.694489E+04  5.601383E+02 -7.340789E+04
        53   8 -2.352909E+04 -2.313147E+05 -5.978664E+04 -4.210329E+04  1.363916E+03 -4.399466E+04
        53   9 -2.798871E+03 -2.164880E+05 -3.436847E+04 -1.369384E+04  4.922478E+02 -1.457982E+04
        53  10 -7.763971E+04 -1.438476E+05 -9.080123E+04  3.314639E+04  4.705090E-10  2.024018E-09
        53  11 -5.983045E+03 -1.590883E+05 -4.427966E+04  4.738406E+03  9.360829E-10  1.535360E-09
        53  12  2.831973E+03 -1.932403E+05 -2.947713E+04 -3.010446E+04  1.188981E-10  1.716923E-09
        53  13 -9.279812E+04 -2.048787E+05 -1.055461E+05 -2.190195E+04  5.267637E-10  6.974051E-12
        53  14 -1.475731E+04 -1.952038E+05 -5.203508E+04 -1.868311E+04  1.102202E-09 -1.271463E-11
        53  15  1.640011E+01 -2.048644E+05 -3.192302E+04 -2.189907E+04 -3.417655E-10  1.295227E-11
        53  16 -1.079454E+05 -2.658999E+05 -1.202896E+05 -7.694486E+04  2.512236E-10 -2.028145E-09
        53  17 -2.352961E+04 -2.313168E+05 -5.979028E+04 -4.210324E+04  7.204463E-10 -1.536526E-09
        53  18 -2.798928E+03 -2.164882E+05 -3.436887E+04 -1.369384E+04 -2.751893E-10 -1.732340E-09
        53  19 -7.763844E+04 -1.438426E+05 -9.079237E+04  3.314636E+04 -5.473439E+02  6.866788E+04
        53  20 -5.982521E+03 -1.590862E+05 -4.427601E+04  4.738357E+03 -1.360584E+03  4.408230E+04
        53  21  2.832075E+03 -1.932399E+05 -2.947641E+04 -3.010447E+04 -4.929651E+02  1.949743E+04
        53  22 -9.279677E+04 -2.048733E+05 -1.055366E+05 -2.190198E+04 -5.535306E+02  7.103800E+04
        53  23 -1.475679E+04 -1.952017E+05 -5.203143E+04 -1.868316E+04 -1.362252E+03  4.403848E+04
        53  24  1.647834E+01 -2.048641E+05 -3.192247E+04 -2.189908E+04 -4.925739E+02  1.703861E+04
        53  25 -1.079440E+05 -2.658941E+05 -1.202795E+05 -7.694489E+04 -5.601383E+02  7.340789E+04
        53  26 -2.352909E+04 -2.313147E+05 -5.978664E+04 -4.210329E+04 -1.363916E+03  4.399466E+04
        53  27 -2.798871E+03 -2.164880E+05 -3.436847E+04 -1.369384E+04 -4.922478E+02  1.457982E+04
        54   1 -4.640736E+03 -2.063394E+05 -2.772759E+04 -2.009421E+04 -5.242583E+02 -1.472450E+04
        54   2 -7.655118E+03 -2.296617E+05 -2.720927E+04 -1.862434E+04 -1.999432E+03 -3.790381E+03
        54   3 -1.588710E+04 -2.557119E+05 -3.511524E+04 -2.367685E+04 -3.370353E+03  7.143378E+03
        54   4 -3.446120E+03 -2.011693E+05 -2.692701E+04 -2.191890E+04 -5.243354E+02 -1.252673E+04
        54   5 -5.673526E+02 -1.998183E+05 -2.162113E+04 -1.865768E+04 -1.999518E+03 -1.742578E+03
        54   6 -2.880012E+03 -2.011696E+05 -2.463530E+04 -2.191889E+04 -3.370388E+03  9.041624E+03
        54   7 -2.251491E+03 -1.959991E+05 -2.612641E+04 -2.374360E+04 -5.244254E+02 -1.032893E+04
        54   8  6.520364E+03 -1.699739E+05 -1.603301E+04 -1.869102E+04 -1.999604E+03  3.053216E+02
        54   9  1.012691E+04 -1.466245E+05 -1.415547E+04 -2.016077E+04 -3.370413E+03  1.094003E+04
        54  10 -4.640794E+03 -2.063397E+05 -2.772800E+04 -2.009422E+04 -1.745751E-09  5.044109E-08
        54  11 -7.655126E+03 -2.296618E+05 -2.720930E+04 -1.862435E+04 -2.819573E-09  6.339638E-11
        54  12 -1.588712E+04 -2.557119E+05 -3.511536E+04 -2.367683E+04 -1.862683E-09 -5.036739E-08
        54  13 -3.446163E+03 -2.011694E+05 -2.692731E+04 -2.191890E+04 -1.870166E-09  8.078478E-12
        54  14 -5.673577E+02 -1.998183E+05 -2.162114E+04 -1.865768E+04 -3.227385E-09 -3.019603E-12
        54  15 -2.880046E+03 -2.011697E+05 -2.463547E+04 -2.191887E+04 -1.901984E-09  1.383465E-12
        54  16 -2.251520E+03 -1.959992E+05 -2.612661E+04 -2.374360E+04 -1.933945E-09 -5.044418E-08
        54  17  6.520359E+03 -1.699739E+05 -1.603302E+04 -1.869102E+04 -3.275978E-09 -5.704585E-11
        54  18  1.012687E+04 -1.466246E+05 -1.415572E+04 -2.016075E+04 -1.569863E-09  5.036503E-08
        54  19 -4.640736E+03 -2.063394E+05 -2.772759E+04 -2.009421E+04  5.242583E+02  1.472450E+04
        54  20 -7.655118E+03 -2.296617E+05 -2.720927E+04 -1.862434E+04  1.999432E+03  3.790381E+03
        54  21 -1.588710E+04 -2.557119E+05 -3.511524E+04 -2.367685E+04  3.370353E+03 -7.143378E+03
        54  22 -3.446120E+03 -2.011693E+05 -2.692701E+04 -2.191890E+04  5.243354E+02  1.252673E+04
        54  23 -5.673526E+02 -1.998183E+05 -2.162113E+04 -1.865768E+04  1.999518E+03  1.742578E+03
        54  24 -2.880012E+03 -2.011696E+05 -2.463530E+04 -2.191889E+04  3.370388E+03 -9.041624E+03
        54  25 -2.251491E+03 -1.959991E+05 -2.612641E+04 -2.374360E+04  5.244254E+02  1.032893E+04
        54  26  6.520364E+03 -1.699739E+05 -1.603301E+04 -1.869102E+04  1.999604E+03 -3.053216E+02
        54  27  1.012691E+04 -1.466245E+05 -1.415547E+04 -2.016077E+04  3.370413E+03 -1.094003E+04
        55   1 -1.702947E+04 -2.756079E+05 -4.212717E+04 -1.500928E+04 -4.374984E+03  1.070487E+04
        55   2 -3.557294E+04 -2.917103E+05 -6.440578E+04 -3.861206E+04 -4.496266E+03  3.840286E+04
        55   3 -1.085157E+05 -3.250194E+05 -1.183207E+05 -6.855076E+04 -1.474996E+03  6.609907E+04
        55   4  3.134431E+00 -2.042175E+05 -2.837561E+04 -2.187806E+04 -4.375144E+03  1.314131E+04
        55   5 -1.248523E+04 -1.960118E+05 -4.468774E+04 -1.870923E+04 -4.494956E+03  3.631521E+04
        55   6 -7.858510E+04 -2.042263E+05 -8.949126E+04 -2.187837E+04 -1.470047E+03  5.948868E+04
        55   7  1.703562E+04 -1.328221E+05 -1.462424E+04 -2.874764E+04 -4.375359E+03  1.557803E+04
        55   8  1.060340E+04 -1.003039E+05 -2.496997E+04  1.196717E+03 -4.493781E+03  3.422725E+04
        55   9 -4.864737E+04 -8.341515E+04 -6.066148E+04  2.480315E+04 -1.466093E+03  5.287701E+04
        55  10 -1.702952E+04 -2.756080E+05 -4.212742E+04 -1.500924E+04 -2.558425E-10 -1.676058E-09
        55  11 -3.557336E+04 -2.917118E+05 -6.440859E+04 -3.861192E+04  9.701013E-10 -1.599511E-09
        55  12 -1.085168E+05 -3.250241E+05 -1.183290E+05 -6.855068E+04  4.810433E-10 -2.183591E-09
        55  13  3.067500E+00 -2.042177E+05 -2.837597E+04 -2.187801E+04 -1.140061E-10  2.590623E-11
        55  14 -1.248561E+04 -1.960133E+05 -4.469026E+04 -1.870910E+04  1.274367E-09  4.131357E-11
        55  15 -7.858605E+04 -2.042301E+05 -8.949792E+04 -2.187830E+04  3.504307E-10 -5.631433E-12
        55  16  1.703553E+04 -1.328224E+05 -1.462473E+04 -2.874759E+04  1.553033E-10  1.686256E-09
        55  17  1.060306E+04 -1.003051E+05 -2.497221E+04  1.196841E+03  1.274581E-09  1.596492E-09
        55  18 -4.864812E+04 -8.341815E+04 -6.066674E+04  2.480322E+04  4.437553E-10  2.190029E-09
        55  19 -1.702947E+04 -2.756079E+05 -4.212717E+04 -1.500928E+04  4.374984E+03 -1.070487E+04
        55  20 -3.557294E+04 -2.917103E+05 -6.440578E+04 -3.861206E+04  4.496266E+03 -3.840286E+04
        55  21 -1.085157E+05 -3.250194E+05 -1.183207E+05 -6.855076E+04  1.474996E+03 -6.609907E+04
        55  22  3.134431E+00 -2.042175E+05 -2.837561E+04 -2.187806E+04  4.375144E+03 -1.314131E+04
        55  23 -1.248523E+04 -1.960118E+05 -4.468774E+04 -1.870923E+04  4.494956E+03 -3.631521E+04
        55  24 -7.858510E+04 -2.042263E+05 -8.949126E+04 -2.187837E+04  1.470047E+03 -5.948868E+04
        55  25  1.703562E+04 -1.328221E+05 -1.462424E+04 -2.874764E+04  4.375359E+03 -1.557803E+04
        55  26  1.060340E+04 -1.003039E+05 -2.496997E+04  1.196717E+03  4.493781E+03 -3.422725E+04
        55  27 -4.864737E+04 -8.341515E+04 -6.066148E+04  2.480315E+04  1.466093E+03 -5.287701E+04
        56   1  7.310008E+04 -1.367965E+04 -4.434486E+04  6.397942E+04 -1.503908E+04 -9.228102E+03
        56   2  8.525821E+04  1.026060E+04 -2.871718E+04  6.769808E+04 -1.059881E+04 -1.439613E+03
        56   3  9.620569E+04  2.241019E+04 -2.082997E+04  7.304536E+04 -4.234827E+03  3.784529E+03
        56   4  1.571565E+05  5.856129E+04 -1.456601E+04  1.113607E+05 -9.083189E+03 -4.761847E+03
        56   5  1.596748E+05  6.817037E+04 -6.942338E+03  1.074611E+05 -8.335978E+03  2.571632E+02
        56   6  1.617842E+05  6.679033E+04 -3.853434E+03  1.051897E+05 -5.665389E+03  2.711697E+03
        56   7  2.412215E+05  1.308093E+05  1.521239E+04  1.587504E+05 -3.126138E+03 -2.944930E+02
        56   8  2.340985E+05  1.260849E+05  1.483229E+04  1.472303E+05 -6.072758E+03  1.954270E+03
        56   9  2.273683E+05  1.111733E+05  1.312305E+04  1.373382E+05 -7.096173E+03  1.638706E+03
        56  10  7.309982E+04 -1.367980E+04 -4.434544E+04  6.397931E+04 -5.607222E-11  1.924362E-11
        56  11  8.525809E+04  1.026057E+04 -2.871740E+04  6.769807E+04 -1.364645E-11  1.261489E-11
        56  12  9.620567E+04  2.241017E+04 -2.083003E+04  7.304538E+04  1.859716E-10 -2.325976E-11
        56  13  1.571564E+05  5.856124E+04 -1.456620E+04  1.113606E+05  1.799784E-11  1.319746E-12
        56  14  1.596747E+05  6.817036E+04 -6.942469E+03  1.074611E+05 -4.248594E-11 -3.144282E-11
        56  15  1.617841E+05  6.679031E+04 -3.853508E+03  1.051897E+05 -5.604834E-11 -5.516883E-11
        56  16  2.412215E+05  1.308093E+05  1.521237E+04  1.587504E+05  1.395217E-10  7.611878E-13
        56  17  2.340984E+05  1.260849E+05  1.483221E+04  1.472303E+05 -1.338456E-11 -6.126939E-11
        56  18  2.273683E+05  1.111733E+05  1.312295E+04  1.373383E+05 -5.266935E-11 -7.723436E-11
        56  19  7.310008E+04 -1.367965E+04 -4.434486E+04  6.397942E+04  1.503908E+04  9.228102E+03
        56  20  8.525821E+04  1.026060E+04 -2.871718E+04  6.769808E+04  1.059881E+04  1.439613E+03
        56  21  9.620569E+04  2.241019E+04 -2.082997E+04  7.304536E+04  4.234827E+03 -3.784529E+03
        56  22  1.571565E+05  5.856129E+04 -1.456601E+04  1.113607E+05  9.083189E+03  4.761847E+03
        56  23  1.596748E+05  6.817037E+04 -6.942338E+03  1.074611E+05  8.335978E+03 -2.571632E+02
        56  24  1.617842E+05  6.679033E+04 -3.853434E+03  1.051897E+05  5.665389E+03 -2.711697E+03
        56  25  2.412215E+05  1.308093E+05  1.521239E+04  1.587504E+05  3.126138E+03  2.944930E+02
        56  26  2.340985E+05  1.260849E+05  1.483229E+04  1.472303E+05  6.072758E+03 -1.954270E+03
        56  27  2.273683E+05  1.111733E+05  1.312305E+04  1.373382E+05  7.096173E+03 -1.638706E+03
        57   1  1.067419E+05  2.735906E+04 -1.750370E+04  7.771396E+04 -3.844282E+03  3.160452E+03
        57   2  1.177744E+05  3.948654E+04 -1.248617E+04  8.490706E+04 -2.369812E+03  3.065931E+03
        57   3  1.330993E+05  4.661957E+04 -8.310803E+03  9.084342E+04 -7.587758E+02  2.789206E+03
        57   4  1.619944E+05  6.662790E+04 -2.953985E+03  1.056798E+05 -4.819637E+03  2.429005E+03
        57   5  1.599123E+05  6.926113E+04 -1.593432E+03  1.061848E+05 -3.607503E+03  2.137819E+03
        57   6  1.621794E+05  6.695694E+04 -8.472523E+02  1.054331E+05 -2.258825E+03  1.664424E+03
        57   7  2.172495E+05  1.058979E+05  1.159517E+04  1.336481E+05 -5.795093E+03  1.697481E+03
        57   8  2.020518E+05  9.903652E+04  9.299045E+03  1.274641E+05 -4.845298E+03  1.209630E+03
        57   9  1.912606E+05  8.729478E+04  6.616238E+03  1.200236E+05 -3.758967E+03  5.395728E+02
        57  10  1.067418E+05  2.735905E+04 -1.750375E+04  7.771397E+04  4.054222E-10 -1.296075E-12
        57  11  1.177744E+05  3.948653E+04 -1.248619E+04  8.490706E+04  4.608485E-10 -2.058521E-10
        57  12  1.330993E+05  4.661956E+04 -8.310819E+03  9.084342E+04 -1.011870E-10 -1.034479E-10
        57  13  1.619944E+05  6.662789E+04 -2.954040E+03  1.056798E+05  4.900171E-11 -9.511732E-11
        57  14  1.599122E+05  6.926112E+04 -1.593465E+03  1.061849E+05 -1.555647E-10 -1.202616E-10
        57  15  1.621794E+05  6.695693E+04 -8.472671E+02  1.054331E+05 -1.215109E-10 -1.454618E-10
        57  16  2.172495E+05  1.058979E+05  1.159510E+04  1.336481E+05 -2.050334E-10 -2.205683E-10
        57  17  2.020518E+05  9.903651E+04  9.298999E+03  1.274641E+05 -2.478580E-10 -2.034605E-10
        57  18  1.912605E+05  8.729478E+04  6.616211E+03  1.200236E+05  6.351467E-12 -7.216858E-11
        57  19  1.067419E+05  2.735906E+04 -1.750370E+04  7.771396E+04  3.844282E+03 -3.160452E+03
        57  20  1.177744E+05  3.948654E+04 -1.248617E+04  8.490706E+04  2.369812E+03 -3.065931E+03
        57  21  1.330993E+05  4.661957E+04 -8.310803E+03  9.084342E+04  7.587758E+02 -2.789206E+03
        57  22  1.619944E+05  6.662790E+04 -2.953985E+03  1.056798E+05  4.819637E+03 -2.429005E+03
        57  23  1.599123E+05  6.926113E+04 -1.593432E+03  1.061848E+05  3.607503E+03 -2.137819E+03
        57  24  1.621794E+05  6.695694E+04 -8.472523E+02  1.054331E+05  2.258825E+03 -1.664424E+03
        57  25  2.172495E+05  1.058979E+05  1.159517E+04  1.336481E+05  5.795093E+03 -1.697481E+03
        57  26  2.020518E+05  9.903652E+04  9.299045E+03  1.274641E+05  4.845298E+03 -1.209630E+03
        57  27  1.912606E+05  8.729478E+04  6.616238E+03  1.200236E+05  3.758967E+03 -5.395728E+02
        58   1  1.421309E+05  5.287427E+04 -5.684935E+03  9.536342E+04 -2.328972E+02  2.234363E+03
        58   2  1.530287E+05  6.450148E+04 -1.932429E+03  1.027018E+05  6.108735E+02  1.271823E+03
        58   3  1.685425E+05  7.148961E+04  1.754387E+03  1.086868E+05  1.456028E+03  3.074288E+02
        58   4  1.621997E+05  6.695377E+04 -5.912533E+02  1.054639E+05 -1.702352E+03  1.132536E+03
        58   5  1.598942E+05  6.927766E+04 -1.905458E+02  1.061374E+05 -8.612620E+02  1.679886E+02
        58   6  1.622049E+05  6.696284E+04  1.467289E+02  1.054572E+05 -1.879815E+01 -7.984081E+02
        58   7  1.822692E+05  8.103373E+04  4.502514E+03  1.155648E+05 -3.171893E+03  3.064506E+01
        58   8  1.667597E+05  7.405388E+04  1.551346E+03  1.095730E+05 -2.333419E+03 -9.358624E+02
        58   9  1.558674E+05  6.243616E+04 -1.460886E+03  1.022277E+05 -1.493582E+03 -1.904213E+03
        58  10  1.421309E+05  5.287427E+04 -5.684944E+03  9.536342E+04  3.379673E-10  1.936637E-10
        58  11  1.530287E+05  6.450148E+04 -1.932433E+03  1.027018E+05  2.388546E-10 -5.772891E-11
        58  12  1.685425E+05  7.148961E+04  1.754383E+03  1.086868E+05  4.310319E-10 -2.806767E-10
        58  13  1.621997E+05  6.695377E+04 -5.912612E+02  1.054639E+05  1.442799E-11 -5.058869E-11
        58  14  1.598942E+05  6.927766E+04 -1.905472E+02  1.061374E+05  5.142353E-11 -2.590611E-10
        58  15  1.622049E+05  6.696284E+04  1.467277E+02  1.054572E+05  1.053167E-10 -3.884505E-10
        58  16  1.822692E+05  8.103373E+04  4.502495E+03  1.155648E+05 -4.188128E-10 -4.802664E-10
        58  17  1.667597E+05  7.405388E+04  1.551334E+03  1.095730E+05  2.664174E-10 -4.372657E-10
        58  18  1.558674E+05  6.243616E+04 -1.460897E+03  1.022277E+05 -9.171364E-11 -4.754043E-10
        58  19  1.421309E+05  5.287427E+04 -5.684935E+03  9.536342E+04  2.328972E+02 -2.234363E+03
        58  20  1.530287E+05  6.450148E+04 -1.932429E+03  1.027018E+05 -6.108735E+02 -1.271823E+03
        58  21  1.685425E+05  7.148961E+04  1.754387E+03  1.086868E+05 -1.456028E+03 -3.074288E+02
        58  22  1.621997E+05  6.695377E+04 -5.912533E+02  1.054639E+05  1.702352E+03 -1.132536E+03
        58  23  1.598942E+05  6.927766E+04 -1.905458E+02  1.061374E+05  8.612620E+02 -1.679886E+02
        58  24  1.622049E+05  6.696284E+04  1.467289E+02  1.054572E+05  1.879815E+01  7.984081E+02
        58  25  1.822692E+05  8.103373E+04  4.502514E+03  1.155648E+05  3.171893E+03 -3.064506E+01
        58  26  1.667597E+05  7.405388E+04  1.551346E+03  1.095730E+05  2.333419E+03  9.358624E+02
        58  27  1.558674E+05  6.243616E+04 -1.460886E+03  1.022277E+05  1.493582E+03  1.904213E+03
        59   1  1.774713E+05  7.783909E+04  4.300022E+03  1.132216E+05  1.904924E+03 -3.053790E+02
        59   2  1.884008E+05  8.938344E+04  8.164394E+03  1.204873E+05  2.093834E+03 -1.669247E+03
        59   3  2.041370E+05  9.652696E+04  1.252666E+04  1.263556E+05  2.165944E+03 -2.877311E+03
        59   4  1.622141E+05  6.696535E+04  3.233548E+02  1.054769E+05  4.045686E+02 -1.430362E+03
        59   5  1.598834E+05  6.927608E+04  7.741306E+02  1.061112E+05  8.179084E+02 -2.625987E+03
        59   6  1.623106E+05  6.713715E+04  1.528070E+03  1.053480E+05  1.114458E+03 -3.665795E+03
        59   7  1.469571E+05  5.609175E+04 -3.653322E+03  9.773254E+04 -1.095738E+03 -2.555308E+03
        59   8  1.313667E+05  4.916904E+04 -6.616271E+03  9.173585E+04 -4.579490E+02 -3.582675E+03
        59   9  1.204854E+05  3.774789E+04 -9.470890E+03  8.434162E+04  6.305191E+01 -4.454219E+03
        59  10  1.774713E+05  7.783908E+04  4.300015E+03  1.132216E+05 -3.822369E-09 -2.510948E-09
        59  11  1.884008E+05  8.938343E+04  8.164381E+03  1.204873E+05  4.515358E-09  5.211608E-09
        59  12  2.041370E+05  9.652695E+04  1.252663E+04  1.263556E+05  1.701862E-08  1.472274E-08
        59  13  1.622141E+05  6.696535E+04  3.233506E+02  1.054769E+05 -8.241513E-10 -8.008492E-10
        59  14  1.598834E+05  6.927607E+04  7.741163E+02  1.061112E+05 -2.232193E-10  2.789563E-10
        59  15  1.623106E+05  6.713713E+04  1.528042E+03  1.053480E+05  4.802344E-09  4.935744E-09
        59  16  1.469571E+05  5.609175E+04 -3.653336E+03  9.773254E+04  2.635310E-09  9.027365E-10
        59  17  1.313667E+05  4.916902E+04 -6.616296E+03  9.173585E+04 -4.940131E-09 -4.762170E-09
        59  18  1.204854E+05  3.774787E+04 -9.470927E+03  8.434162E+04 -7.419594E-09 -4.979589E-09
        59  19  1.774713E+05  7.783909E+04  4.300022E+03  1.132216E+05 -1.904924E+03  3.053790E+02
        59  20  1.884008E+05  8.938344E+04  8.164394E+03  1.204873E+05 -2.093834E+03  1.669247E+03
        59  21  2.041370E+05  9.652696E+04  1.252666E+04  1.263556E+05 -2.165944E+03  2.877311E+03
        59  22  1.622141E+05  6.696535E+04  3.233548E+02  1.054769E+05 -4.045686E+02  1.430362E+03
        59  23  1.598834E+05  6.927608E+04  7.741306E+02  1.061112E+05 -8.179084E+02  2.625987E+03
        59  24  1.623106E+05  6.713715E+04  1.528070E+03  1.053480E+05 -1.114458E+03  3.665795E+03
        59  25  1.469571E+05  5.609175E+04 -3.653322E+03  9.773254E+04  1.095738E+03  2.555308E+03
        59  26  1.313667E+05  4.916904E+04 -6.616271E+03  9.173585E+04  4.579490E+02  3.582675E+03
        59  27  1.204854E+05  3.774789E+04 -9.470890E+03  8.434162E+04 -6.305191E+01  4.454219E+03
        60   1  2.125468E+05  1.035542E+05  1.543264E+04  1.313760E+05  2.787729E+03 -3.332753E+03
        60   2  2.255583E+05  1.133120E+05  2.167268E+04  1.369440E+05 -1.975865E+03 -6.752462E+03
        60   3  2.462932E+05  1.227694E+05  3.306017E+04  1.396579E+05 -8.386402E+03 -7.976219E+03
        60   4  1.623662E+05  6.710566E+04  2.015992E+03  1.056245E+05  1.346520E+03 -4.413502E+03
        60   5  1.600746E+05  6.978140E+04  3.670492E+03  1.054142E+05 -2.532961E+02 -5.460818E+03
        60   6  1.648203E+05  7.147100E+04  7.727577E+03  1.023498E+05 -3.500043E+03 -4.312028E+03
        60   7  1.121893E+05  3.065923E+04 -1.140060E+04  7.987581E+04 -9.450977E+01 -5.494112E+03
        60   8  9.459615E+04  2.625326E+04 -1.433191E+04  7.388835E+04  1.469012E+03 -4.169355E+03
        60   9  8.335455E+04  2.017532E+04 -1.760564E+04  6.504686E+04  1.385432E+03 -6.484010E+02
        60  10  2.125468E+05  1.035542E+05  1.543261E+04  1.313760E+05 -7.648782E-09 -4.908035E-09
        60  11  2.255583E+05  1.133120E+05  2.167258E+04  1.369440E+05 -5.196366E-09 -4.698482E-09
        60  12  2.462931E+05  1.227693E+05  3.305992E+04  1.396579E+05  2.418441E-09  1.189386E-09
        60  13  1.623662E+05  6.710563E+04  2.015952E+03  1.056245E+05  4.722491E-09  4.903703E-09
        60  14  1.600746E+05  6.978137E+04  3.670436E+03  1.054142E+05  8.207327E-11  3.034083E-10
        60  15  1.648203E+05  7.147098E+04  7.727519E+03  1.023498E+05 -7.378941E-10 -4.780960E-10
        60  16  1.121893E+05  3.065919E+04 -1.140065E+04  7.987581E+04  1.729080E-08  1.468050E-08
        60  17  9.459614E+04  2.625324E+04 -1.433194E+04  7.388835E+04  4.624157E-09  5.260085E-09
        60  18  8.335455E+04  2.017532E+04 -1.760565E+04  6.504686E+04 -3.508089E-09 -2.123436E-09
        60  19  2.125468E+05  1.035542E+05  1.543264E+04  1.313760E+05 -2.787729E+03  3.332753E+03
        60  20  2.255583E+05  1.133120E+05  2.167268E+04  1.369440E+05  1.975865E+03  6.752462E+03
        60  21  2.462932E+05  1.227694E+05  3.306017E+04  1.396579E+05  8.386402E+03  7.976219E+03
        60  22  1.623662E+05  6.710566E+04  2.015992E+03  1.056245E+05 -1.346520E+03  4.413502E+03
        60  23  1.600746E+05  6.978140E+04  3.670492E+03  1.054142E+05  2.532961E+02  5.460818E+03
        60  24  1.648203E+05  7.147100E+04  7.727577E+03  1.023498E+05  3.500043E+03  4.312028E+03
        60  25  1.121893E+05  3.065923E+04 -1.140060E+04  7.987581E+04  9.450977E+01  5.494112E+03
        60  26  9.459615E+04  2.625326E+04 -1.433191E+04  7.388835E+04 -1.469012E+03  4.169355E+03
        60  27  8.335455E+04  2.017532E+04 -1.760564E+04  6.504686E+04 -1.385432E+03  6.484010E+02
        61   1  3.619728E+05  2.327232E+04  2.642070E+04  1.378616E+04  1.809376E+04  4.015651E-01
        61   2  3.595627E+05  3.706099E+03  1.279709E+04  5.852843E+03  1.144707E+04  1.078563E-01
        61   3  3.619767E+05 -2.167594E+01  7.458525E+03 -2.080300E+03  4.800473E+03 -1.607654E-02
        61   4  3.619726E+05  2.327196E+04  2.642065E+04 -2.203888E-11  1.809376E+04 -8.034270E-11
        61   5  3.595627E+05  3.706034E+03  1.279708E+04  1.002200E-11  1.144707E+04 -1.359159E-10
        61   6  3.619767E+05 -2.168407E+01  7.458524E+03  8.205340E-11  4.800473E+03 -1.295477E-10
        61   7  3.619728E+05  2.327232E+04  2.642070E+04 -1.378616E+04  1.809376E+04 -4.015651E-01
        61   8  3.595627E+05  3.706099E+03  1.279709E+04 -5.852843E+03  1.144707E+04 -1.078563E-01
        61   9  3.619767E+05 -2.167594E+01  7.458525E+03  2.080300E+03  4.800473E+03  1.607654E-02
        61  10  3.619725E+05  2.327223E+04  2.642008E+04  1.378616E+04 -1.740345E-10 -2.287265E-11
        61  11  3.595626E+05  3.706064E+03  1.279684E+04  5.852843E+03  9.315142E-11 -8.687802E-11
        61  12  3.619767E+05 -2.168212E+01  7.458482E+03 -2.080300E+03 -1.891224E-14 -1.435945E-10
        61  13  3.619723E+05  2.327188E+04  2.642003E+04  6.311860E-10 -2.718048E-10 -1.286607E-11
        61  14  3.595626E+05  3.705999E+03  1.279683E+04 -9.043628E-11  5.898393E-12 -7.479430E-11
        61  15  3.619767E+05 -2.169025E+01  7.458481E+03  5.027996E-10  4.918511E-10 -1.572278E-10
        61  16  3.619725E+05  2.327223E+04  2.642008E+04 -1.378616E+04 -1.215526E-10 -1.925899E-11
        61  17  3.595626E+05  3.706064E+03  1.279684E+04 -5.852843E+03 -2.585054E-10 -6.195655E-11
        61  18  3.619767E+05 -2.168212E+01  7.458482E+03  2.080300E+03  9.520814E-11 -1.748315E-10
        61  19  3.619728E+05  2.327232E+04  2.642070E+04  1.378616E+04 -1.809376E+04 -4.015651E-01
        61  20  3.595627E+05  3.706099E+03  1.279709E+04  5.852843E+03 -1.144707E+04 -1.078563E-01
        61  21  3.619767E+05 -2.167594E+01  7.458525E+03 -2.080300E+03 -4.800473E+03  1.607654E-02
        61  22  3.619726E+05  2.327196E+04  2.642065E+04 -6.938017E-11 -1.809376E+04  5.189433E-11
        61  23  3.595627E+05  3.706034E+03  1.279708E+04 -5.572874E-11 -1.144707E+04 -9.728070E-12
        61  24  3.619767E+05 -2.168407E+01  7.458524E+03  4.060228E-10 -4.800473E+03 -1.892376E-10
        61  25  3.619728E+05  2.327232E+04  2.642070E+04 -1.378616E+04 -1.809376E+04  4.015651E-01
        61  26  3.595627E+05  3.706099E+03  1.279709E+04 -5.852843E+03 -1.144707E+04  1.078563E-01
        61  27  3.619767E+05 -2.167594E+01  7.458525E+03  2.080300E+03 -4.800473E+03 -1.607654E-02
        62   1  3.610047E+05  8.782194E+02  6.006733E+03  3.468498E+02  3.778950E+03  2.110065E-03
        62   2  3.607789E+05  4.817676E+01  4.067011E+03  1.296518E+02  1.754634E+03  3.662253E-04
        62   3  3.610050E+05 -2.852052E+01  3.633002E+03 -8.754967E+01 -2.697097E+02  3.801327E-05
        62   4  3.610047E+05  8.782192E+02  6.006733E+03 -5.207777E-10  3.778950E+03 -1.087714E-10
        62   5  3.607789E+05  4.817672E+01  4.067011E+03 -6.652860E-10  1.754634E+03 -4.934018E-11
        62   6  3.610050E+05 -2.852054E+01  3.633002E+03 -4.416353E-10 -2.697097E+02  1.008509E-10
        62   7  3.610047E+05  8.782194E+02  6.006733E+03 -3.468498E+02  3.778950E+03 -2.110066E-03
        62   8  3.607789E+05  4.817676E+01  4.067011E+03 -1.296518E+02  1.754634E+03 -3.662254E-04
        62   9  3.610050E+05 -2.852052E+01  3.633002E+03  8.754967E+01 -2.697097E+02 -3.801313E-05
        62  10  3.610046E+05  8.782156E+02  6.006706E+03  3.468498E+02 -3.780706E-10 -1.242816E-10
        62  11  3.607789E+05  4.817593E+01  4.067005E+03  1.296518E+02 -3.774793E-10  1.228268E-11
        62  12  3.610050E+05 -2.852054E+01  3.633002E+03 -8.754967E+01 -3.690051E-10  1.504805E-10
        62  13  3.610046E+05  8.782154E+02  6.006706E+03 -3.366906E-10  2.731353E-10 -1.684998E-10
        62  14  3.607789E+05  4.817590E+01  4.067005E+03  2.672173E-10  3.970794E-10 -6.909935E-11
        62  15  3.610050E+05 -2.852056E+01  3.633002E+03 -8.076805E-10 -1.707944E-10  9.832508E-11
        62  16  3.610046E+05  8.782156E+02  6.006706E+03 -3.468498E+02 -3.697686E-11 -2.180643E-10
        62  17  3.607789E+05  4.817593E+01  4.067005E+03 -1.296518E+02  3.358320E-10 -1.470239E-10
        62  18  3.610050E+05 -2.852054E+01  3.633002E+03  8.754967E+01  2.119002E-10  4.125772E-11
        62  19  3.610047E+05  8.782194E+02  6.006733E+03  3.468498E+02 -3.778950E+03 -2.110066E-03
        62  20  3.607789E+05  4.817676E+01  4.067011E+03  1.296518E+02 -1.754634E+03 -3.662253E-04
        62  21  3.610050E+05 -2.852052E+01  3.633002E+03 -8.754967E+01  2.697097E+02 -3.801300E-05
        62  22  3.610047E+05  8.782192E+02  6.006733E+03  9.037820E-11 -3.778950E+03 -2.302003E-10
        62  23  3.607789E+05  4.817672E+01  4.067011E+03 -7.358376E-11 -1.754634E+03 -9.125140E-11
        62  24  3.610050E+05 -2.852054E+01  3.633002E+03 -4.132107E-10  2.697097E+02  9.679654E-11
        62  25  3.610047E+05  8.782194E+02  6.006733E+03 -3.468498E+02 -3.778950E+03  2.110065E-03
        62  26  3.607789E+05  4.817676E+01  4.067011E+03 -1.296518E+02 -1.754634E+03  3.662251E-04
        62  27  3.610050E+05 -2.852052E+01  3.633002E+03  8.754967E+01  2.697097E+02  3.801327E-05
        63   1  3.610400E+05 -4.993544E+01  3.838473E+03  2.121709E+02 -9.276206E+02 -3.168393E-04
        63   2  3.607351E+05  9.523187E+01  5.194587E+03 -1.339785E+02 -3.515822E+03  7.583074E-04
        63   3  3.610394E+05  1.330288E+03  8.507509E+03 -4.801274E+02 -6.104030E+03  4.717983E-03
        63   4  3.610400E+05 -4.993553E+01  3.838473E+03 -8.976785E-10 -9.276206E+02  1.298071E-10
        63   5  3.607351E+05  9.523184E+01  5.194587E+03 -6.926581E-10 -3.515822E+03  1.798267E-12
        63   6  3.610394E+05  1.330288E+03  8.507509E+03 -3.866565E-10 -6.104030E+03 -1.290154E-10
        63   7  3.610400E+05 -4.993544E+01  3.838473E+03 -2.121709E+02 -9.276206E+02  3.168396E-04
        63   8  3.607351E+05  9.523187E+01  5.194587E+03  1.339785E+02 -3.515822E+03 -7.583073E-04
        63   9  3.610394E+05  1.330288E+03  8.507509E+03  4.801274E+02 -6.104030E+03 -4.717983E-03
        63  10  3.610400E+05 -4.993567E+01  3.838471E+03  2.121709E+02  3.327465E-10  1.308262E-10
        63  11  3.607350E+05  9.522855E+01  5.194564E+03 -1.339785E+02 -2.579664E-10 -3.716858E-11
        63  12  3.610394E+05  1.330278E+03  8.507439E+03 -4.801274E+02 -7.373298E-13 -1.244159E-10
        63  13  3.610400E+05 -4.993576E+01  3.838471E+03 -9.655348E-10  1.051846E-10  1.045356E-10
        63  14  3.607350E+05  9.522852E+01  5.194564E+03 -5.427723E-10  1.996305E-10 -4.408294E-11
        63  15  3.610394E+05  1.330278E+03  8.507439E+03 -2.798950E-10 -2.591212E-10 -1.210149E-10
        63  16  3.610400E+05 -4.993567E+01  3.838471E+03 -2.121709E+02 -1.522811E-10  8.756037E-11
        63  17  3.607350E+05  9.522855E+01  5.194564E+03  1.339785E+02 -1.122987E-10 -5.247452E-11
        63  18  3.610394E+05  1.330278E+03  8.507439E+03  4.801274E+02  9.932216E-11 -1.125676E-10
        63  19  3.610400E+05 -4.993544E+01  3.838473E+03  2.121709E+02  9.276206E+02  3.168395E-04
        63  20  3.607351E+05  9.523187E+01  5.194587E+03 -1.339785E+02  3.515822E+03 -7.583074E-04
        63  21  3.610394E+05  1.330288E+03  8.507509E+03 -4.801274E+02  6.104030E+03 -4.717983E-03
        63  22  3.610400E+05 -4.993553E+01  3.838473E+03 -1.192229E-09  9.276206E+02  8.217959E-11
        63  23  3.607351E+05  9.523184E+01  5.194587E+03 -1.893472E-10  3.515822E+03 -9.126927E-11
        63  24  3.610394E+05  1.330288E+03  8.507509E+03 -5.733744E-10  6.104030E+03 -1.109435E-10
        63  25  3.610400E+05 -4.993544E+01  3.838473E+03 -2.121709E+02  9.276206E+02 -3.168394E-04
        63  26  3.607351E+05  9.523187E+01  5.194587E+03  1.339785E+02  3.515822E+03  7.583072E-04
        63  27  3.610394E+05  1.330288E+03  8.507509E+03  4.801274E+02  6.104030E+03  4.717983E-03
        64   1  3.625104E+05 -2.311427E+01  1.082147E+04  3.150927E+03 -7.557484E+03 -3.833522E-02
        64   2  3.588945E+05  5.565822E+03  1.902677E+04 -8.757790E+03 -1.744406E+04  2.459390E-01
        64   3  3.625047E+05  3.491495E+04  3.960627E+04 -2.066645E+04 -2.733049E+04  9.092797E-01
        64   4  3.625104E+05 -2.313291E+01  1.082147E+04 -7.584373E-11 -7.557484E+03 -1.725776E-10
        64   5  3.588944E+05  5.565678E+03  1.902675E+04  4.732816E-10 -1.744406E+04 -1.265857E-10
        64   6  3.625043E+05  3.491415E+04  3.960616E+04  1.440852E-10 -2.733049E+04 -2.091978E-11
        64   7  3.625104E+05 -2.311427E+01  1.082147E+04 -3.150927E+03 -7.557484E+03  3.833522E-02
        64   8  3.588945E+05  5.565822E+03  1.902677E+04  8.757790E+03 -1.744406E+04 -2.459390E-01
        64   9  3.625047E+05  3.491495E+04  3.960627E+04  2.066645E+04 -2.733049E+04 -9.092797E-01
        64  10  3.625104E+05 -2.312959E+01  1.082136E+04  3.150927E+03  2.004367E-13 -1.197989E-10
        64  11  3.588942E+05  5.565740E+03  1.902619E+04 -8.757790E+03  2.067934E-10 -7.507756E-11
        64  12  3.625039E+05  3.491475E+04  3.960487E+04 -2.066645E+04 -8.142433E-11 -2.494677E-11
        64  13  3.625103E+05 -2.314823E+01  1.082136E+04  7.983675E-11 -1.169877E-10 -1.217898E-10
        64  14  3.588941E+05  5.565596E+03  1.902617E+04  9.039804E-11  2.692860E-10 -8.205515E-11
        64  15  3.625035E+05  3.491395E+04  3.960475E+04  2.081878E-12  4.038893E-11 -1.991472E-11
        64  16  3.625104E+05 -2.312959E+01  1.082136E+04 -3.150927E+03 -2.850560E-10 -1.237237E-10
        64  17  3.588942E+05  5.565740E+03  1.902619E+04  8.757790E+03  3.387489E-11 -9.442189E-11
        64  18  3.625039E+05  3.491475E+04  3.960487E+04  2.066645E+04  2.336715E-11 -1.081827E-11
        64  19  3.625104E+05 -2.311427E+01  1.082147E+04  3.150927E+03  7.557484E+03  3.833522E-02
        64  20  3.588945E+05  5.565822E+03  1.902677E+04 -8.757790E+03  1.744406E+04 -2.459390E-01
        64  21  3.625047E+05  3.491495E+04  3.960627E+04 -2.066645E+04  2.733049E+04 -9.092797E-01
        64  22  3.625104E+05 -2.313291E+01  1.082147E+04 -8.516031E-10  7.557484E+03 -6.838547E-11
        64  23  3.588944E+05  5.565678E+03  1.902675E+04 -5.565057E-10  1.744406E+04 -3.721391E-11
        64  24  3.625043E+05  3.491415E+04  3.960616E+04 -3.345218E-10  2.733049E+04 -2.270300E-11
        64  25  3.625104E+05 -2.311427E+01  1.082147E+04 -3.150927E+03  7.557484E+03 -3.833522E-02
        64  26  3.588945E+05  5.565822E+03  1.902677E+04  8.757790E+03  1.744406E+04  2.459390E-01
        64  27  3.625047E+05  3.491495E+04  3.960627E+04  2.066645E+04  2.733049E+04  9.092797E-01
        65   1 -4.125014E+04 -1.733400E+04 -5.048985E+04  1.269167E+04  8.807015E+02 -4.387416E+04
        65   2  4.016667E+03 -3.858382E+04 -2.291653E+04 -5.020451E+03  2.430152E+03 -2.899484E+04
        65   3  7.301785E+03 -7.226438E+04 -1.552478E+04 -2.985864E+04  1.683956E+03 -1.411606E+04
        65   4 -6.242350E+04 -1.026859E+05 -7.100281E+04 -2.434510E+04  8.835004E+02 -4.775176E+04
        65   5 -9.926571E+03 -9.618023E+04 -3.503922E+04 -2.078065E+04  2.430937E+03 -2.957051E+04
        65   6  1.127957E+01 -1.026820E+05 -2.155254E+04 -2.434253E+04  1.683649E+03 -1.138903E+04
        65   7 -8.359223E+04 -1.880281E+05 -9.151548E+04 -6.137676E+04  8.867624E+02 -5.162883E+04
        65   8 -2.386909E+04 -1.537730E+05 -4.716197E+04 -3.653937E+04  2.431751E+03 -3.014613E+04
        65   9 -7.279164E+03 -1.330987E+05 -2.758031E+04 -1.882670E+04  1.683390E+03 -8.662125E+03
        65  10 -4.125066E+04 -1.733607E+04 -5.049347E+04  1.269170E+04 -1.247446E-10 -2.322775E-10
        65  11  4.016435E+03 -3.858473E+04 -2.291812E+04 -5.020394E+03 -1.309015E-10  6.834758E-11
        65  12  7.301729E+03 -7.226459E+04 -1.552516E+04 -2.985862E+04  7.292855E-11  4.328956E-10
        65  13 -6.242412E+04 -1.026883E+05 -7.100709E+04 -2.434507E+04 -1.772174E-10 -5.399960E-12
        65  14 -9.926812E+03 -9.618117E+04 -3.504088E+04 -2.078060E+04  1.024073E-10  1.999049E-12
        65  15  1.124170E+01 -1.026822E+05 -2.155279E+04 -2.434252E+04  1.641741E-10  8.559647E-12
        65  16 -8.359295E+04 -1.880310E+05 -9.152050E+04 -6.137672E+04 -1.894878E-10  2.355688E-10
        65  17 -2.386934E+04 -1.537740E+05 -4.716369E+04 -3.653931E+04 -3.735036E-10 -8.621362E-11
        65  18 -7.279187E+03 -1.330988E+05 -2.758045E+04 -1.882669E+04  1.812050E-10 -3.831308E-10
        65  19 -4.125014E+04 -1.733400E+04 -5.048985E+04  1.269167E+04 -8.807015E+02  4.387416E+04
        65  20  4.016667E+03 -3.858382E+04 -2.291653E+04 -5.020451E+03 -2.430152E+03  2.899484E+04
        65  21  7.301785E+03 -7.226438E+04 -1.552478E+04 -2.985864E+04 -1.683956E+03  1.411606E+04
        65  22 -6.242350E+04 -1.026859E+05 -7.100281E+04 -2.434510E+04 -8.835004E+02  4.775176E+04
        65  23 -9.926571E+03 -9.618023E+04 -3.503922E+04 -2.078065E+04 -2.430937E+03  2.957051E+04
        65  24  1.127957E+01 -1.026820E+05 -2.155254E+04 -2.434253E+04 -1.683649E+03  1.138903E+04
        65  25 -8.359223E+04 -1.880281E+05 -9.151548E+04 -6.137676E+04 -8.867624E+02  5.162883E+04
        65  26 -2.386909E+04 -1.537730E+05 -4.716197E+04 -3.653937E+04 -2.431751E+03  3.014613E+04
        65  27 -7.279164E+03 -1.330987E+05 -2.758031E+04 -1.882670E+04 -1.683390E+03  8.662125E+03
        66   1  5.137279E+02 -8.847107E+04 -1.580875E+04 -2.313124E+04  5.569713E+02 -1.069321E+04
        66   2 -4.116118E+03 -1.149903E+05 -1.767730E+04 -2.072592E+04 -1.052263E+03 -3.263969E+03
        66   3 -1.229737E+04 -1.433645E+05 -2.527093E+04 -2.557173E+04 -2.606649E+03  4.164985E+03
        66   4 -2.314586E+03 -1.002010E+05 -1.822016E+04 -2.437058E+04  5.568245E+02 -8.337403E+03
        66   5 -3.854485E+02 -9.928022E+04 -1.473598E+04 -2.074499E+04 -1.052409E+03 -9.872252E+02
        66   6 -1.993942E+03 -1.002013E+05 -1.692199E+04 -2.437057E+04 -2.606769E+03  6.362981E+03
        66   7 -5.142900E+03 -1.119309E+05 -2.063157E+04 -2.560990E+04  5.566682E+02 -5.981642E+03
        66   8  3.345209E+03 -8.356986E+04 -1.179464E+04 -2.076406E+04 -1.052556E+03  1.289575E+03
        66   9  8.309388E+03 -5.703631E+04 -8.573109E+03 -2.316932E+04 -2.606881E+03  8.561126E+03
        66  10  5.136969E+02 -8.847120E+04 -1.580896E+04 -2.313123E+04 -4.595347E-11 -5.063360E-10
        66  11 -4.116122E+03 -1.149903E+05 -1.767733E+04 -2.072592E+04  4.158829E-11 -3.371581E-11
        66  12 -1.229739E+04 -1.433645E+05 -2.527098E+04 -2.557172E+04  2.431159E-10  4.882209E-10
        66  13 -2.314605E+03 -1.002011E+05 -1.822030E+04 -2.437058E+04  8.268715E-11 -2.970133E-11
        66  14 -3.854499E+02 -9.928022E+04 -1.473598E+04 -2.074499E+04 -1.877639E-10  3.103377E-12
        66  15 -1.993960E+03 -1.002013E+05 -1.692208E+04 -2.437055E+04  3.029080E-10  1.234345E-11
        66  16 -5.142910E+03 -1.119309E+05 -2.063164E+04 -2.560989E+04  2.197536E-10  5.103548E-10
        66  17  3.345208E+03 -8.356986E+04 -1.179464E+04 -2.076406E+04 -1.930964E-10  1.584002E-11
        66  18  8.309361E+03 -5.703639E+04 -8.573260E+03 -2.316930E+04  6.801663E-11 -4.367396E-10
        66  19  5.137279E+02 -8.847107E+04 -1.580875E+04 -2.313124E+04 -5.569713E+02  1.069321E+04
        66  20 -4.116118E+03 -1.149903E+05 -1.767730E+04 -2.072592E+04  1.052263E+03  3.263969E+03
        66  21 -1.229737E+04 -1.433645E+05 -2.527093E+04 -2.557173E+04  2.606649E+03 -4.164985E+03
        66  22 -2.314586E+03 -1.002010E+05 -1.822016E+04 -2.437058E+04 -5.568245E+02  8.337403E+03
        66  23 -3.854485E+02 -9.928022E+04 -1.473598E+04 -2.074499E+04  1.052409E+03  9.872252E+02
        66  24 -1.993942E+03 -1.002013E+05 -1.692199E+04 -2.437057E+04  2.606769E+03 -6.362981E+03
        66  25 -5.142900E+03 -1.119309E+05 -2.063157E+04 -2.560990E+04 -5.566682E+02  5.981642E+03
        66  26  3.345209E+03 -8.356986E+04 -1.179464E+04 -2.076406E+04  1.052556E+03 -1.289575E+03
        66  27  8.309388E+03 -5.703631E+04 -8.573109E+03 -2.316932E+04  2.606881E+03 -8.561126E+03
        67   1 -1.477016E+04 -1.641948E+05 -3.152195E+04 -1.957233E+04 -3.727056E+03  6.466035E+03
        67   2 -3.011778E+04 -1.856012E+05 -4.929926E+04 -3.456030E+04 -4.080699E+03  2.689331E+04
        67   3 -8.332367E+04 -2.191314E+05 -8.984190E+04 -5.662320E+04 -1.368921E+03  4.731923E+04
        67   4  3.754622E+00 -1.023158E+05 -1.954335E+04 -2.433159E+04 -3.727234E+03  9.181078E+03
        67   5 -8.639799E+03 -9.663932E+04 -3.087917E+04 -2.079419E+04 -4.079995E+03  2.519533E+04
        67   6 -5.437353E+04 -1.023199E+05 -6.191363E+04 -2.433305E+04 -1.366315E+03  4.120931E+04
        67   7  1.477753E+04 -4.043306E+04 -7.564884E+03 -2.909134E+04 -3.727453E+03  1.189638E+04
        67   8  1.283839E+04 -7.669489E+03 -1.245940E+04 -7.026076E+03 -4.079366E+03  2.349711E+04
        67   9 -2.542044E+04  1.450655E+04 -3.398561E+04  7.963201E+03 -1.364346E+03  3.509824E+04
        67  10 -1.477019E+04 -1.641948E+05 -3.152205E+04 -1.957231E+04  3.850645E-10 -4.075323E-10
        67  11 -3.011799E+04 -1.856020E+05 -4.930065E+04 -3.456022E+04 -1.628443E-10 -1.891285E-10
        67  12 -8.332427E+04 -2.191338E+05 -8.984612E+04 -5.662314E+04 -1.868780E-10  2.827734E-11
        67  13  3.717073E+00 -1.023159E+05 -1.954353E+04 -2.433157E+04  3.098008E-10 -2.105057E-11
        67  14 -8.639987E+03 -9.664000E+04 -3.088039E+04 -2.079411E+04  1.430348E-10  2.889757E-12
        67  15 -5.437399E+04 -1.023217E+05 -6.191682E+04 -2.433300E+04  2.113810E-10 -1.255042E-11
        67  16  1.477748E+04 -4.043322E+04 -7.565176E+03 -2.909130E+04  1.779577E-10  4.211608E-10
        67  17  1.283822E+04 -7.670086E+03 -1.246047E+04 -7.025999E+03 -2.599319E-10  1.889823E-10
        67  18 -2.542077E+04  1.450523E+04 -3.398793E+04  7.963240E+03 -2.251751E-11 -5.902740E-11
        67  19 -1.477016E+04 -1.641948E+05 -3.152195E+04 -1.957233E+04  3.727056E+03 -6.466035E+03
        67  20 -3.011778E+04 -1.856012E+05 -4.929926E+04 -3.456030E+04  4.080699E+03 -2.689331E+04
        67  21 -8.332367E+04 -2.191314E+05 -8.984190E+04 -5.662320E+04  1.368921E+03 -4.731923E+04
        67  22  3.754622E+00 -1.023158E+05 -1.954335E+04 -2.433159E+04  3.727234E+03 -9.181078E+03
        67  23 -8.639799E+03 -9.663932E+04 -3.087917E+04 -2.079419E+04  4.079995E+03 -2.519533E+04
        67  24 -5.437353E+04 -1.023199E+05 -6.191363E+04 -2.433305E+04  1.366315E+03 -4.120931E+04
        67  25  1.477753E+04 -4.043306E+04 -7.564884E+03 -2.909134E+04  3.727453E+03 -1.189638E+04
        67  26  1.283839E+04 -7.669489E+03 -1.245940E+04 -7.026076E+03  4.079366E+03 -2.349711E+04
        67  27 -2.542044E+04  1.450655E+04 -3.398561E+04  7.963201E+03  1.364346E+03 -3.509824E+04
        68   1  5.717673E+04 -1.200929E+04 -3.546555E+04  5.012044E+04 -1.171854E+04 -7.090729E+03
        68   2  6.733605E+04  6.916523E+03 -2.316193E+04  5.359087E+04 -8.289376E+03 -8.331690E+02
        68   3  7.698629E+04  1.661052E+04 -1.686722E+04  5.812932E+04 -3.262721E+03  3.294794E+03
        68   4  1.276066E+05  4.727451E+04 -1.074808E+04  8.924599E+04 -6.788005E+03 -3.393204E+03
        68   5  1.292359E+05  5.459349E+04 -5.125364E+03  8.643543E+04 -6.425682E+03  5.643802E+02
        68   6  1.310216E+05  5.334645E+04 -2.849426E+03  8.469264E+04 -4.466121E+03  2.392314E+03
        68   7  1.980420E+05  1.065626E+05  1.396886E+04  1.283771E+05 -1.856705E+03  3.050361E+02
        68   8  1.911396E+05  1.022729E+05  1.291070E+04  1.192837E+05 -4.561748E+03  1.962132E+03
        68   9  1.850596E+05  9.008349E+04  1.116791E+04  1.112582E+05 -5.669647E+03  1.489745E+03
        68  10  5.717657E+04 -1.200938E+04 -3.546591E+04  5.012037E+04  1.603353E-10  2.890132E-11
        68  11  6.733597E+04  6.916504E+03 -2.316206E+04  5.359086E+04  1.123791E-10  2.821265E-11
        68  12  7.698628E+04  1.661050E+04 -1.686726E+04  5.812933E+04 -5.624277E-11 -7.080497E-12
        68  13  1.276066E+05  4.727449E+04 -1.074819E+04  8.924598E+04  1.816527E-10  1.922122E-11
        68  14  1.292358E+05  5.459348E+04 -5.125442E+03  8.643543E+04 -6.564669E-11 -3.184877E-11
        68  15  1.310216E+05  5.334644E+04 -2.849474E+03  8.469265E+04  9.489050E-11 -8.743275E-11
        68  16  1.980420E+05  1.065626E+05  1.396885E+04  1.283771E+05  2.581910E-12 -5.816964E-12
        68  17  1.911396E+05  1.022729E+05  1.291066E+04  1.192837E+05 -2.057513E-10 -8.915862E-11
        68  18  1.850596E+05  9.008348E+04  1.116784E+04  1.112582E+05  1.039875E-10 -1.618294E-10
        68  19  5.717673E+04 -1.200929E+04 -3.546555E+04  5.012044E+04  1.171854E+04  7.090729E+03
        68  20  6.733605E+04  6.916523E+03 -2.316193E+04  5.359087E+04  8.289376E+03  8.331690E+02
        68  21  7.698629E+04  1.661052E+04 -1.686722E+04  5.812932E+04  3.262721E+03 -3.294794E+03
        68  22  1.276066E+05  4.727451E+04 -1.074808E+04  8.924599E+04  6.788005E+03  3.393204E+03
        68  23  1.292359E+05  5.459349E+04 -5.125364E+03  8.643543E+04  6.425682E+03 -5.643802E+02
        68  24  1.310216E+05  5.334645E+04 -2.849426E+03  8.469264E+04  4.466121E+03 -2.392314E+03
        68  25  1.980420E+05  1.065626E+05  1.396886E+04  1.283771E+05  1.856705E+03 -3.050361E+02
        68  26  1.911396E+05  1.022729E+05  1.291070E+04  1.192837E+05  4.561748E+03 -1.962132E+03
        68  27  1.850596E+05  9.008349E+04  1.116791E+04  1.112582E+05  5.669647E+03 -1.489745E+03
        69   1  8.569329E+04  2.091459E+04 -1.416628E+04  6.204019E+04 -2.970087E+03  2.742975E+03
        69   2  9.495956E+04  3.106382E+04 -1.009787E+04  6.810145E+04 -1.790286E+03  2.614136E+03
        69   3  1.078623E+05  3.704603E+04 -6.677171E+03  7.309627E+04 -4.970248E+02  2.333991E+03
        69   4  1.311799E+05  5.322221E+04 -2.188300E+03  8.505251E+04 -3.795521E+03  2.123957E+03
        69   5  1.294065E+05  5.540370E+04 -1.191161E+03  8.549478E+04 -2.833620E+03  1.831747E+03
        69   6  1.313167E+05  5.346531E+04 -6.526058E+02  8.487045E+04 -1.758274E+03  1.388222E+03
        69   7  1.766688E+05  8.553108E+04  9.789511E+03  1.080668E+05 -4.621036E+03  1.504877E+03
        69   8  1.638550E+05  7.974450E+04  7.715555E+03  1.028894E+05 -3.877040E+03  1.049293E+03
        69   9  1.547721E+05  6.988518E+04  5.372051E+03  9.664534E+04 -3.019607E+03  4.423913E+02
        69  10  8.569328E+04  2.091458E+04 -1.416631E+04  6.204020E+04 -1.322691E-10 -1.691280E-10
        69  11  9.495956E+04  3.106381E+04 -1.009789E+04  6.810146E+04  6.557554E-11 -8.032890E-11
        69  12  1.078623E+05  3.704603E+04 -6.677181E+03  7.309627E+04  2.203892E-10 -1.034089E-10
        69  13  1.311799E+05  5.322220E+04 -2.188335E+03  8.505252E+04 -1.342939E-12 -4.085957E-11
        69  14  1.294065E+05  5.540370E+04 -1.191183E+03  8.549479E+04  2.138343E-10 -1.383462E-11
        69  15  1.313167E+05  5.346531E+04 -6.526152E+02  8.487046E+04 -1.906738E-10  2.152218E-11
        69  16  1.766688E+05  8.553107E+04  9.789467E+03  1.080668E+05  3.601816E-10  1.457185E-11
        69  17  1.638550E+05  7.974449E+04  7.715525E+03  1.028894E+05 -3.043228E-10  8.826405E-11
        69  18  1.547721E+05  6.988518E+04  5.372033E+03  9.664534E+04 -1.936839E-11  6.958612E-11
        69  19  8.569329E+04  2.091459E+04 -1.416628E+04  6.204019E+04  2.970087E+03 -2.742975E+03
        69  20  9.495956E+04  3.106382E+04 -1.009787E+04  6.810145E+04  1.790286E+03 -2.614136E+03
        69  21  1.078623E+05  3.704603E+04 -6.677171E+03  7.309627E+04  4.970248E+02 -2.333991E+03
        69  22  1.311799E+05  5.322221E+04 -2.188300E+03  8.505251E+04  3.795521E+03 -2.123957E+03
        69  23  1.294065E+05  5.540370E+04 -1.191161E+03  8.549478E+04  2.833620E+03 -1.831747E+03
        69  24  1.313167E+05  5.346531E+04 -6.526058E+02  8.487045E+04  1.758274E+03 -1.388222E+03
        69  25  1.766688E+05  8.553108E+04  9.789511E+03  1.080668E+05  4.621036E+03 -1.504877E+03
        69  26  1.638550E+05  7.974450E+04  7.715555E+03  1.028894E+05  3.877040E+03 -1.049293E+03
        69  27  1.547721E+05  6.988518E+04  5.372051E+03  9.664534E+04  3.019607E+03 -4.423913E+02
        70   1  1.154490E+05  4.231124E+04 -4.504202E+03  7.689503E+04 -6.023651E+01  1.863386E+03
        70   2  1.246133E+05  5.208708E+04 -1.417403E+03  8.306578E+04  6.662329E+02  1.066558E+03
        70   3  1.376558E+05  5.795968E+04  1.599826E+03  8.809781E+04  1.393649E+03  2.684417E+02
        70   4  1.313316E+05  5.346281E+04 -4.724692E+02  8.489275E+04 -1.296144E+03  9.366322E+02
        70   5  1.293939E+05  5.541703E+04 -2.038228E+02  8.545992E+04 -5.715256E+02  1.384290E+02
        70   6  1.313348E+05  5.346851E+04 -3.059136E+00  8.488839E+04  1.540408E+02 -6.610656E+02
        70   7  1.472143E+05  6.461436E+04  3.559167E+03  9.289059E+04 -2.532076E+03  9.861274E+00
        70   8  1.341745E+05  5.874696E+04  1.009751E+03  8.785408E+04 -1.809287E+03 -7.897016E+02
        70   9  1.250138E+05  4.897737E+04 -1.605937E+03  8.167900E+04 -1.085550E+03 -1.590560E+03
        70  10  1.154490E+05  4.231123E+04 -4.504209E+03  7.689503E+04  2.857881E-10 -1.225685E-10
        70  11  1.246133E+05  5.208708E+04 -1.417406E+03  8.306578E+04  6.219289E-11 -1.420001E-10
        70  12  1.376558E+05  5.795968E+04  1.599822E+03  8.809781E+04  4.843392E-12 -1.756968E-10
        70  13  1.313316E+05  5.346281E+04 -4.724740E+02  8.489276E+04  1.024321E-10 -1.378610E-10
        70  14  1.293939E+05  5.541703E+04 -2.038235E+02  8.545992E+04  2.616595E-10 -2.513710E-10
        70  15  1.313348E+05  5.346851E+04 -3.060002E+00  8.488839E+04 -6.134137E-11  4.586822E-12
        70  16  1.472143E+05  6.461436E+04  3.559155E+03  9.289059E+04 -2.270504E-10 -8.198916E-11
        70  17  1.341745E+05  5.874696E+04  1.009744E+03  8.785407E+04 -7.810778E-11 -2.510008E-11
        70  18  1.250138E+05  4.897737E+04 -1.605944E+03  8.167900E+04  8.616671E-11  1.097443E-10
        70  19  1.154490E+05  4.231124E+04 -4.504202E+03  7.689503E+04  6.023651E+01 -1.863386E+03
        70  20  1.246133E+05  5.208708E+04 -1.417403E+03  8.306578E+04 -6.662329E+02 -1.066558E+03
        70  21  1.376558E+05  5.795968E+04  1.599826E+03  8.809781E+04 -1.393649E+03 -2.684417E+02
        70  22  1.313316E+05  5.346281E+04 -4.724692E+02  8.489275E+04  1.296144E+03 -9.366322E+02
        70  23  1.293939E+05  5.541703E+04 -2.038228E+02  8.545992E+04  5.715256E+02 -1.384290E+02
        70  24  1.313348E+05  5.346851E+04 -3.059136E+00  8.488839E+04 -1.540408E+02  6.610656E+02
        70  25  1.472143E+05  6.461436E+04  3.559167E+03  9.289059E+04  2.532076E+03 -9.861274E+00
        70  26  1.341745E+05  5.874696E+04  1.009751E+03  8.785408E+04  1.809287E+03  7.897016E+02
        70  27  1.250138E+05  4.897737E+04 -1.605937E+03  8.167900E+04  1.085550E+03  1.590560E+03
        71   1  1.451726E+05  6.328605E+04  3.687072E+03  9.190050E+04  1.793001E+03 -2.303914E+02
        71   2  1.543440E+05  7.302000E+04  6.781403E+03  9.803374E+04  2.082546E+03 -1.277698E+03
        71   3  1.675011E+05  7.898651E+04  1.016720E+04  1.030111E+05  2.272437E+03 -2.192094E+03
        71   4  1.313390E+05  5.347079E+04  9.211497E+01  8.489847E+04  5.315272E+02 -1.176304E+03
        71   5  1.293880E+05  5.541312E+04  3.148588E+02  8.544801E+04  1.012516E+03 -2.080086E+03
        71   6  1.313811E+05  5.354620E+04  6.628977E+02  8.484142E+04  1.393855E+03 -2.850940E+03
        71   7  1.175053E+05  4.365549E+04 -3.502921E+03  7.789652E+04 -7.299274E+02 -2.122203E+03
        71   8  1.044328E+05  3.780660E+04 -6.151730E+03  7.286285E+04 -5.745694E+01 -2.882432E+03
        71   9  9.526307E+04  2.810705E+04 -8.841325E+03  6.667324E+04  5.153546E+02 -3.509724E+03
        71  10  1.451726E+05  6.328605E+04  3.687066E+03  9.190050E+04  1.285921E-10  2.032852E-10
        71  11  1.543440E+05  7.302000E+04  6.781391E+03  9.803375E+04  1.208267E-10  1.827903E-11
        71  12  1.675011E+05  7.898650E+04  1.016718E+04  1.030111E+05  2.018508E-10 -3.112339E-11
        71  13  1.313390E+05  5.347079E+04  9.211184E+01  8.489847E+04 -1.638388E-10  3.999693E-11
        71  14  1.293880E+05  5.541311E+04  3.148487E+02  8.544801E+04  9.286033E-11 -1.794328E-11
        71  15  1.313811E+05  5.354619E+04  6.628788E+02  8.484142E+04 -1.507874E-11 -1.915428E-11
        71  16  1.175053E+05  4.365548E+04 -3.502931E+03  7.789652E+04 -2.971586E-10 -1.336688E-10
        71  17  1.044328E+05  3.780659E+04 -6.151745E+03  7.286285E+04 -1.222511E-10 -8.648075E-11
        71  18  9.526307E+04  2.810704E+04 -8.841349E+03  6.667324E+04  1.374289E-10 -2.730505E-11
        71  19  1.451726E+05  6.328605E+04  3.687072E+03  9.190050E+04 -1.793001E+03  2.303914E+02
        71  20  1.543440E+05  7.302000E+04  6.781403E+03  9.803374E+04 -2.082546E+03  1.277698E+03
        71  21  1.675011E+05  7.898651E+04  1.016720E+04  1.030111E+05 -2.272437E+03  2.192094E+03
        71  22  1.313390E+05  5.347079E+04  9.211497E+01  8.489847E+04 -5.315272E+02  1.176304E+03
        71  23  1.293880E+05  5.541312E+04  3.148588E+02  8.544801E+04 -1.012516E+03  2.080086E+03
        71  24  1.313811E+05  5.354620E+04  6.628977E+02  8.484142E+04 -1.393855E+03  2.850940E+03
        71  25  1.175053E+05  4.365549E+04 -3.502921E+03  7.789652E+04  7.299274E+02  2.122203E+03
        71  26  1.044328E+05  3.780660E+04 -6.151730E+03  7.286285E+04  5.745694E+01  2.882432E+03
        71  27  9.526307E+04  2.810705E+04 -8.841325E+03  6.667324E+04 -5.153546E+02  3.509724E+03
        72   1  1.748043E+05  8.465236E+04  1.242175E+04  1.070481E+05  2.885107E+03 -2.507285E+03
        72   2  1.848804E+05  9.356380E+04  1.703386E+04  1.123258E+05 -5.611481E+02 -4.941862E+03
        72   3  2.004371E+05  1.008565E+05  2.505367E+04  1.158196E+05 -5.412149E+03 -5.503601E+03
        72   4  1.313921E+05  5.354671E+04  8.842902E+02  8.496900E+04  1.674206E+03 -3.415347E+03
        72   5  1.294898E+05  5.561860E+04  1.625826E+03  8.513340E+04  9.260287E+02 -3.826669E+03
        72   6  1.324828E+05  5.548654E+04  3.433843E+03  8.351388E+04 -1.226879E+03 -2.364967E+03
        72   7  8.798201E+04  2.244219E+04 -1.065334E+04  6.289165E+04  4.634179E+02 -4.323323E+03
        72   8  7.410220E+04  1.767471E+04 -1.378264E+04  5.794356E+04  2.413038E+03 -2.711596E+03
        72   9  6.453233E+04  1.011799E+04 -1.818681E+04  5.121153E+04  2.957829E+03  7.732819E+02
        72  10  1.748043E+05  8.465235E+04  1.242173E+04  1.070481E+05 -2.427482E-10 -6.458446E-11
        72  11  1.848804E+05  9.356378E+04  1.703381E+04  1.123258E+05 -1.432084E-10  1.425131E-10
        72  12  2.004371E+05  1.008565E+05  2.505356E+04  1.158196E+05  1.087688E-10  1.890686E-10
        72  13  1.313921E+05  5.354670E+04  8.842630E+02  8.496901E+04  2.688301E-10  1.242931E-11
        72  14  1.294898E+05  5.561858E+04  1.625797E+03  8.513341E+04  1.785049E-11  1.226790E-10
        72  15  1.324828E+05  5.548653E+04  3.433830E+03  8.351388E+04 -1.551496E-11  3.538863E-11
        72  16  8.798201E+04  2.244217E+04 -1.065338E+04  6.289166E+04  4.439406E-10  1.275165E-10
        72  17  7.410219E+04  1.767470E+04 -1.378267E+04  5.794356E+04  3.055693E-10  7.773077E-11
        72  18  6.453232E+04  1.011799E+04 -1.818683E+04  5.121153E+04 -2.013369E-10 -8.436082E-11
        72  19  1.748043E+05  8.465236E+04  1.242175E+04  1.070481E+05 -2.885107E+03  2.507285E+03
        72  20  1.848804E+05  9.356380E+04  1.703386E+04  1.123258E+05  5.611481E+02  4.941862E+03
        72  21  2.004371E+05  1.008565E+05  2.505367E+04  1.158196E+05  5.412149E+03  5.503601E+03
        72  22  1.313921E+05  5.354671E+04  8.842902E+02  8.496900E+04 -1.674206E+03  3.415347E+03
        72  23  1.294898E+05  5.561860E+04  1.625826E+03  8.513340E+04 -9.260287E+02  3.826669E+03
        72  24  1.324828E+05  5.548654E+04  3.433843E+03  8.351388E+04  1.226879E+03  2.364967E+03
        72  25  8.798201E+04  2.244219E+04 -1.065334E+04  6.289165E+04 -4.634179E+02  4.323323E+03
        72  26  7.410220E+04  1.767471E+04 -1.378264E+04  5.794356E+04 -2.413038E+03  2.711596E+03
        72  27  6.453233E+04  1.011799E+04 -1.818681E+04  5.121153E+04 -2.957829E+03 -7.732819E+02
        73   1  1.823766E+05  1.695258E+03  1.936986E+03  1.010291E+03  1.246821E+03  2.028400E-03
        73   2  1.821987E+05  2.676847E+02  9.982385E+02  4.350900E+02  7.300319E+02  5.114742E-04
        73   3  1.823767E+05 -5.218498E+00  6.845431E+02 -1.401193E+02  2.132347E+02 -4.811275E-05
        73   4  1.823766E+05  1.695256E+03  1.936986E+03 -1.525236E-11  1.246821E+03  2.869486E-12
        73   5  1.821987E+05  2.676844E+02  9.982384E+02 -8.441392E-11  7.300319E+02 -3.831982E-11
        73   6  1.823767E+05 -5.218535E+00  6.845431E+02 -3.736667E-10  2.132347E+02 -1.696278E-10
        73   7  1.823766E+05  1.695258E+03  1.936986E+03 -1.010291E+03  1.246821E+03 -2.028400E-03
        73   8  1.821987E+05  2.676847E+02  9.982385E+02 -4.350900E+02  7.300319E+02 -5.114743E-04
        73   9  1.823767E+05 -5.218498E+00  6.845431E+02  1.401193E+02  2.132347E+02  4.811238E-05
        73  10  1.823766E+05  1.695257E+03  1.936983E+03  1.010291E+03 -9.530563E-11 -1.788046E-11
        73  11  1.821987E+05  2.676846E+02  9.982375E+02  4.350900E+02  2.672965E-11 -3.111701E-11
        73  12  1.823767E+05 -5.218510E+00  6.845430E+02 -1.401193E+02 -4.005682E-11  1.515027E-11
        73  13  1.823766E+05  1.695255E+03  1.936983E+03 -3.471227E-11  6.575201E-11 -1.491463E-11
        73  14  1.821987E+05  2.676842E+02  9.982374E+02 -8.309904E-11 -1.361951E-10 -3.638073E-11
        73  15  1.823767E+05 -5.218547E+00  6.845430E+02  8.477490E-10 -1.086377E-11 -7.897515E-12
        73  16  1.823766E+05  1.695257E+03  1.936983E+03 -1.010291E+03  4.824310E-11 -1.562056E-11
        73  17  1.821987E+05  2.676846E+02  9.982375E+02 -4.350900E+02  1.029417E-10 -4.464549E-11
        73  18  1.823767E+05 -5.218510E+00  6.845430E+02  1.401193E+02  1.837410E-10 -2.560421E-11
        73  19  1.823766E+05  1.695258E+03  1.936986E+03  1.010291E+03 -1.246821E+03 -2.028400E-03
        73  20  1.821987E+05  2.676847E+02  9.982385E+02  4.350900E+02 -7.300319E+02 -5.114743E-04
        73  21  1.823767E+05 -5.218498E+00  6.845431E+02 -1.401193E+02 -2.132347E+02  4.811274E-05
        73  22  1.823766E+05  1.695256E+03  1.936986E+03 -1.980079E-10 -1.246821E+03 -3.180267E-11
        73  23  1.821987E+05  2.676844E+02  9.982384E+02 -8.125822E-11 -7.300319E+02 -3.437591E-11
        73  24  1.823767E+05 -5.218535E+00  6.845431E+02 -3.176538E-10 -2.132347E+02  1.518236E-10
        73  25  1.823766E+05  1.695258E+03  1.936986E+03 -1.010291E+03 -1.246821E+03  2.028400E-03
        73  26  1.821987E+05  2.676847E+02  9.982385E+02 -4.350900E+02 -7.300319E+02  5.114742E-04
        73  27  1.823767E+05 -5.218498E+00  6.845431E+02  1.401193E+02 -2.132347E+02 -4.811244E-05
        74   1  1.823107E+05  5.909154E+01  6.309212E+02  4.069352E+01  1.085636E+02  7.113829E-06
        74   2  1.822811E+05 -5.296655E+00  6.441372E+02  3.265729E+01 -2.110258E+02 -1.109736E-05
        74   3  1.823107E+05  6.660827E-01  8.829622E+02  2.462106E+01 -5.306151E+02 -2.103728E-05
        74   4  1.823107E+05  5.909154E+01  6.309212E+02 -6.423904E-10  1.085636E+02 -1.545802E-10
        74   5  1.822811E+05 -5.296657E+00  6.441372E+02  3.413076E-10 -2.110258E+02 -2.924922E-11
        74   6  1.823107E+05  6.660815E-01  8.829622E+02  2.458489E-10 -5.306151E+02 -6.551328E-11
        74   7  1.823107E+05  5.909154E+01  6.309212E+02 -4.069352E+01  1.085636E+02 -7.114135E-06
        74   8  1.822811E+05 -5.296655E+00  6.441372E+02 -3.265729E+01 -2.110258E+02  1.109730E-05
        74   9  1.823107E+05  6.660827E-01  8.829622E+02 -2.462106E+01 -5.306151E+02  2.103714E-05
        74  10  1.823107E+05  5.909154E+01  6.309212E+02  4.069352E+01  2.501498E-11 -8.629640E-13
        74  11  1.822811E+05 -5.296667E+00  6.441371E+02  3.265729E+01  1.132350E-10 -3.876026E-11
        74  12  1.823107E+05  6.660071E-01  8.829617E+02  2.462106E+01  1.396847E-10  3.262067E-11
        74  13  1.823107E+05  5.909154E+01  6.309212E+02  2.808340E-10  3.308835E-10 -5.881113E-12
        74  14  1.822811E+05 -5.296669E+00  6.441371E+02  7.425727E-10  2.333731E-10 -3.750837E-11
        74  15  1.823107E+05  6.660060E-01  8.829617E+02  3.576044E-10  1.087734E-10 -2.733231E-11
        74  16  1.823107E+05  5.909154E+01  6.309212E+02 -4.069352E+01  3.778558E-11 -5.583518E-12
        74  17  1.822811E+05 -5.296667E+00  6.441371E+02 -3.265729E+01 -4.920346E-11 -3.883093E-11
        74  18  1.823107E+05  6.660071E-01  8.829617E+02 -2.462106E+01 -1.308978E-10 -9.964363E-11
        74  19  1.823107E+05  5.909154E+01  6.309212E+02  4.069352E+01 -1.085636E+02 -7.113826E-06
        74  20  1.822811E+05 -5.296655E+00  6.441372E+02  3.265729E+01  2.110258E+02  1.109727E-05
        74  21  1.823107E+05  6.660827E-01  8.829622E+02  2.462106E+01  5.306151E+02  2.103733E-05
        74  22  1.823107E+05  5.909154E+01  6.309212E+02 -5.527270E-10 -1.085636E+02  1.431499E-10
        74  23  1.822811E+05 -5.296657E+00  6.441372E+02  4.667352E-10  2.110258E+02 -4.318354E-11
        74  24  1.823107E+05  6.660815E-01  8.829622E+02 -3.962785E-10  5.306151E+02  8.445618E-12
        74  25  1.823107E+05  5.909154E+01  6.309212E+02 -4.069352E+01 -1.085636E+02  7.114118E-06
        74  26  1.822811E+05 -5.296655E+00  6.441372E+02 -3.265729E+01  2.110258E+02 -1.109736E-05
        74  27  1.823107E+05  6.660827E-01  8.829622E+02 -2.462106E+01  5.306151E+02 -2.103732E-05
        75   1  1.823469E+05 -2.143950E+01  1.095003E+03  1.039723E+02 -7.047590E+02 -1.179943E-04
        75   2  1.822359E+05  4.325367E+01  1.807793E+03 -3.713038E+01 -1.606231E+03  9.603754E-05
        75   3  1.823467E+05  5.256620E+02  3.211787E+03 -1.782309E+02 -2.507691E+03  7.197141E-04
        75   4  1.823469E+05 -2.143952E+01  1.095003E+03  8.556801E-10 -7.047590E+02 -2.656160E-11
        75   5  1.822359E+05  4.325366E+01  1.807793E+03  2.645443E-10 -1.606231E+03  1.330865E-10
        75   6  1.823467E+05  5.256619E+02  3.211787E+03 -5.117095E-10 -2.507691E+03  1.197656E-10
        75   7  1.823469E+05 -2.143950E+01  1.095003E+03 -1.039723E+02 -7.047590E+02  1.179942E-04
        75   8  1.822359E+05  4.325367E+01  1.807793E+03  3.713038E+01 -1.606231E+03 -9.603725E-05
        75   9  1.823467E+05  5.256620E+02  3.211787E+03  1.782309E+02 -2.507691E+03 -7.197139E-04
        75  10  1.823469E+05 -2.143964E+01  1.095002E+03  1.039723E+02 -3.832928E-11  8.013599E-11
        75  11  1.822359E+05  4.325297E+01  1.807788E+03 -3.713038E+01 -8.892537E-11  8.210008E-11
        75  12  1.823467E+05  5.256603E+02  3.211776E+03 -1.782309E+02  3.115498E-11  8.699208E-11
        75  13  1.823469E+05 -2.143966E+01  1.095002E+03  7.615461E-10 -3.391953E-10  6.556212E-12
        75  14  1.822359E+05  4.325297E+01  1.807788E+03  2.166886E-10 -1.346318E-10  6.621172E-11
        75  15  1.823467E+05  5.256603E+02  3.211775E+03 -4.954062E-10  1.370308E-11  9.835615E-11
        75  16  1.823469E+05 -2.143964E+01  1.095002E+03 -1.039723E+02 -3.606599E-11 -6.667006E-11
        75  17  1.822359E+05  4.325297E+01  1.807788E+03  3.713038E+01 -9.101871E-11  4.857710E-11
        75  18  1.823467E+05  5.256603E+02  3.211776E+03  1.782309E+02  7.442534E-11  1.116883E-10
        75  19  1.823469E+05 -2.143950E+01  1.095003E+03  1.039723E+02  7.047590E+02  1.179944E-04
        75  20  1.822359E+05  4.325367E+01  1.807793E+03 -3.713038E+01  1.606231E+03 -9.603739E-05
        75  21  1.823467E+05  5.256620E+02  3.211787E+03 -1.782309E+02  2.507691E+03 -7.197139E-04
        75  22  1.823469E+05 -2.143952E+01  1.095003E+03  1.236263E-10  7.047590E+02  3.941090E-11
        75  23  1.822359E+05  4.325366E+01  1.807793E+03  4.409885E-10  1.606231E+03  6.189947E-12
        75  24  1.823467E+05  5.256619E+02  3.211787E+03 -3.681365E-10  2.507691E+03  7.832251E-11
        75  25  1.823469E+05 -2.143950E+01  1.095003E+03 -1.039723E+02  7.047590E+02 -1.179944E-04
        75  26  1.822359E+05  4.325367E+01  1.807793E+03  3.713038E+01  1.606231E+03  9.603741E-05
        75  27  1.823467E+05  5.256620E+02  3.211787E+03  1.782309E+02  2.507691E+03  7.197141E-04
        76   1  1.829276E+05 -6.825193E+00  4.155222E+03  1.244999E+03 -3.058188E+03 -6.131061E-03
        76   2  1.815095E+05  2.186919E+03  7.427621E+03 -3.432791E+03 -6.918608E+03  3.824457E-02
        76   3  1.829264E+05  1.371154E+04  1.554551E+04 -8.110670E+03 -1.077909E+04  1.407803E-01
        76   4  1.829276E+05 -6.828105E+00  4.155221E+03 -2.508649E-10 -3.058188E+03  2.986711E-11
        76   5  1.815095E+05  2.186897E+03  7.427618E+03 -1.840696E-10 -6.918608E+03 -7.580593E-11
        76   6  1.829264E+05  1.371141E+04  1.554549E+04 -2.001063E-10 -1.077909E+04 -2.644657E-11
        76   7  1.829276E+05 -6.825193E+00  4.155222E+03 -1.244999E+03 -3.058188E+03  6.131062E-03
        76   8  1.815095E+05  2.186919E+03  7.427621E+03  3.432791E+03 -6.918608E+03 -3.824457E-02
        76   9  1.829264E+05  1.371154E+04  1.554551E+04  8.110670E+03 -1.077909E+04 -1.407803E-01
        76  10  1.829276E+05 -6.827703E+00  4.155204E+03  1.244999E+03  2.666258E-10  1.559443E-11
        76  11  1.815094E+05  2.186906E+03  7.427531E+03 -3.432791E+03 -2.858812E-10 -8.794190E-11
        76  12  1.829263E+05  1.371151E+04  1.554529E+04 -8.110670E+03 -2.498310E-10 -3.816873E-11
        76  13  1.829276E+05 -6.830615E+00  4.155204E+03  7.045651E-11  1.346321E-10  4.169842E-11
        76  14  1.815094E+05  2.186884E+03  7.427528E+03  4.712052E-10  2.368144E-10 -6.653751E-11
        76  15  1.829262E+05  1.371138E+04  1.554527E+04  4.670102E-10  2.244754E-10 -3.656746E-11
        76  16  1.829276E+05 -6.827703E+00  4.155204E+03 -1.244999E+03 -2.486448E-11  5.722651E-11
        76  17  1.815094E+05  2.186906E+03  7.427531E+03  3.432791E+03  1.368358E-10 -4.206611E-11
        76  18  1.829263E+05  1.371151E+04  1.554529E+04  8.110670E+03  2.779327E-10 -1.852507E-11
        76  19  1.829276E+05 -6.825193E+00  4.155222E+03  1.244999E+03  3.058188E+03  6.131062E-03
        76  20  1.815095E+05  2.186919E+03  7.427621E+03 -3.432791E+03  6.918608E+03 -3.824457E-02
        76  21  1.829264E+05  1.371154E+04  1.554551E+04 -8.110670E+03  1.077909E+04 -1.407803E-01
        76  22  1.829276E+05 -6.828105E+00  4.155221E+03  1.151519E-10  3.058188E+03  5.503342E-11
        76  23  1.815095E+05  2.186897E+03  7.427618E+03  9.237439E-10  6.918608E+03 -6.265680E-11
        76  24  1.829264E+05  1.371141E+04  1.554549E+04  1.680351E-10  1.077909E+04 -4.695085E-11
        76  25  1.829276E+05 -6.825193E+00  4.155222E+03 -1.244999E+03  3.058188E+03 -6.131061E-03
        76  26  1.815095E+05  2.186919E+03  7.427621E+03  3.432791E+03  6.918608E+03  3.824457E-02
        76  27  1.829264E+05  1.371154E+04  1.554551E+04  8.110670E+03  1.077909E+04  1.407803E-01
        77   1 -4.006184E+04 -5.488328E+04 -4.688930E+04  1.820383E+04  3.009832E+02 -3.515520E+04
        77   2 -2.812804E+03 -6.150353E+04 -2.278269E+04  3.392872E+03  7.884775E+02 -2.238481E+04
        77   3  2.019673E+03 -7.789039E+04 -1.509426E+04 -1.441027E+04  4.213399E+02 -9.614490E+03
        77   4 -4.785128E+04 -8.626363E+04 -5.445191E+04 -1.019974E+04  3.026170E+02 -3.646954E+04
        77   5 -7.607179E+03 -8.127205E+04 -2.698607E+04 -8.703362E+03  7.889175E+02 -2.247018E+04
        77   6  5.335854E+00 -8.626163E+04 -1.679263E+04 -1.019900E+04  4.212445E+02 -8.470619E+03
        77   7 -5.563776E+04 -1.176413E+05 -6.201414E+04 -3.860187E+04  3.043712E+02 -3.778381E+04
        77   8 -1.240103E+04 -1.010399E+05 -3.118939E+04 -2.079920E+04  7.893607E+02 -2.255554E+04
        77   9 -2.008938E+03 -9.463276E+04 -1.849100E+04 -5.987774E+03  4.211645E+02 -7.326764E+03
        77  10 -4.006217E+04 -5.488461E+04 -4.689162E+04  1.820384E+04 -2.091287E-12 -1.522637E-10
        77  11 -2.812940E+03 -6.150407E+04 -2.278363E+04  3.392887E+03 -3.386602E-10  6.920630E-12
        77  12  2.019648E+03 -7.789049E+04 -1.509443E+04 -1.441027E+04  8.570024E-11  1.881425E-10
        77  13 -4.785164E+04 -8.626505E+04 -5.445441E+04 -1.019973E+04  1.004117E-10  1.305647E-13
        77  14 -7.607315E+03 -8.127260E+04 -2.698702E+04 -8.703347E+03 -1.425640E-10  4.249215E-12
        77  15  5.316398E+00 -8.626171E+04 -1.679277E+04 -1.019899E+04  4.908984E-11 -2.528822E-12
        77  16 -5.563814E+04 -1.176429E+05 -6.201682E+04 -3.860187E+04 -1.369825E-10  1.540637E-10
        77  17 -1.240117E+04 -1.010404E+05 -3.119035E+04 -2.079919E+04 -6.086795E-12 -4.864910E-12
        77  18 -2.008953E+03 -9.463282E+04 -1.849110E+04 -5.987772E+03 -1.919665E-10 -1.829768E-10
        77  19 -4.006184E+04 -5.488328E+04 -4.688930E+04  1.820383E+04 -3.009832E+02  3.515520E+04
        77  20 -2.812804E+03 -6.150353E+04 -2.278269E+04  3.392872E+03 -7.884775E+02  2.238481E+04
        77  21  2.019673E+03 -7.789039E+04 -1.509426E+04 -1.441027E+04 -4.213399E+02  9.614490E+03
        77  22 -4.785128E+04 -8.626363E+04 -5.445191E+04 -1.019974E+04 -3.026170E+02  3.646954E+04
        77  23 -7.607179E+03 -8.127205E+04 -2.698607E+04 -8.703362E+03 -7.889175E+02  2.247018E+04
        77  24  5.335854E+00 -8.626163E+04 -1.679263E+04 -1.019900E+04 -4.212445E+02  8.470619E+03
        77  25 -5.563776E+04 -1.176413E+05 -6.201414E+04 -3.860187E+04 -3.043712E+02  3.778381E+04
        77  26 -1.240103E+04 -1.010399E+05 -3.118939E+04 -2.079920E+04 -7.893607E+02  2.255554E+04
        77  27 -2.008938E+03 -9.463276E+04 -1.849100E+04 -5.987774E+03 -4.211645E+02  7.326764E+03
        78   1 -1.621350E+03 -8.382880E+04 -1.415170E+04 -9.215574E+03 -5.158892E+01 -7.083579E+03
        78   2 -2.913330E+03 -9.457363E+04 -1.401412E+04 -8.688329E+03 -7.332086E+02 -1.060493E+03
        78   3 -7.087514E+03 -1.068232E+05 -1.851865E+04 -1.119848E+04 -1.376632E+03  4.962495E+03
        78   4 -1.767846E+03 -8.437614E+04 -1.433710E+04 -1.020917E+04 -5.160522E+01 -6.074885E+03
        78   5 -3.142541E+02 -8.362851E+04 -1.196495E+04 -8.690466E+03 -7.332302E+02 -1.067892E+02
        78   6 -1.733293E+03 -8.437622E+04 -1.419671E+04 -1.020917E+04 -1.376641E+03  5.861314E+03
        78   7 -1.914338E+03 -8.492347E+04 -1.452249E+04 -1.120276E+04 -5.162474E+01 -5.066193E+03
        78   8  2.284816E+03 -7.268327E+04 -9.915784E+03 -8.692604E+03 -7.332519E+02  8.469304E+02
        78   9  3.620903E+03 -6.192872E+04 -9.874786E+03 -9.219831E+03 -1.376646E+03  6.760165E+03
        78  10 -1.621364E+03 -8.382886E+04 -1.415179E+04 -9.215574E+03  2.341927E-10 -2.983945E-10
        78  11 -2.913331E+03 -9.457363E+04 -1.401412E+04 -8.688330E+03 -9.770087E-11  5.053988E-11
        78  12 -7.087522E+03 -1.068233E+05 -1.851870E+04 -1.119847E+04  8.108870E-11  3.993132E-10
        78  13 -1.767856E+03 -8.437618E+04 -1.433717E+04 -1.020917E+04 -3.897495E-12  3.411026E-12
        78  14 -3.142546E+02 -8.362851E+04 -1.196495E+04 -8.690466E+03 -9.261515E-11  1.600621E-11
        78  15 -1.733304E+03 -8.437625E+04 -1.419678E+04 -1.020917E+04 -3.206736E-11 -2.322743E-12
        78  16 -1.914344E+03 -8.492350E+04 -1.452254E+04 -1.120276E+04 -2.372731E-10  3.103920E-10
        78  17  2.284815E+03 -7.268327E+04 -9.915787E+03 -8.692603E+03 -1.692779E-10 -4.488944E-11
        78  18  3.620888E+03 -6.192876E+04 -9.874875E+03 -9.219823E+03 -4.009324E-11 -4.018507E-10
        78  19 -1.621350E+03 -8.382880E+04 -1.415170E+04 -9.215574E+03  5.158892E+01  7.083579E+03
        78  20 -2.913330E+03 -9.457363E+04 -1.401412E+04 -8.688329E+03  7.332086E+02  1.060493E+03
        78  21 -7.087514E+03 -1.068232E+05 -1.851865E+04 -1.119848E+04  1.376632E+03 -4.962495E+03
        78  22 -1.767846E+03 -8.437614E+04 -1.433710E+04 -1.020917E+04  5.160522E+01  6.074885E+03
        78  23 -3.142541E+02 -8.362851E+04 -1.196495E+04 -8.690466E+03  7.332302E+02  1.067892E+02
        78  24 -1.733293E+03 -8.437622E+04 -1.419671E+04 -1.020917E+04  1.376641E+03 -5.861314E+03
        78  25 -1.914338E+03 -8.492347E+04 -1.452249E+04 -1.120276E+04  5.162474E+01  5.066193E+03
        78  26  2.284816E+03 -7.268327E+04 -9.915784E+03 -8.692604E+03  7.332519E+02 -8.469304E+02
        78  27  3.620903E+03 -6.192872E+04 -9.874786E+03 -9.219831E+03  1.376646E+03 -6.760165E+03
        79   1 -7.223560E+03 -1.165133E+05 -2.241952E+04 -6.061960E+03 -1.845019E+03  7.096122E+03
        79   2 -1.751170E+04 -1.229457E+05 -3.512675E+04 -2.059311E+04 -1.938447E+03  2.286427E+04
        79   3 -6.018793E+04 -1.395283E+05 -6.619753E+04 -3.808077E+04 -6.410147E+02  3.863184E+04
        79   4  4.344835E+00 -8.622207E+04 -1.657534E+04 -1.019137E+04 -1.845081E+03  8.231792E+03
        79   5 -7.468285E+03 -8.132190E+04 -2.653619E+04 -8.712878E+03 -1.937991E+03  2.199700E+04
        79   6 -4.698097E+04 -8.622420E+04 -5.346893E+04 -1.019164E+04 -6.392702E+02  3.576200E+04
        79   7  7.232260E+03 -5.592989E+04 -1.073119E+04 -1.432099E+04 -1.845158E+03  9.367516E+03
        79   8  2.575551E+03 -3.969620E+04 -1.794563E+04  3.168167E+03 -1.937569E+03  2.112967E+04
        79   9 -3.377128E+04 -3.291585E+04 -4.074008E+04  1.769990E+04 -6.377837E+02  3.289191E+04
        79  10 -7.223577E+03 -1.165134E+05 -2.241962E+04 -6.061949E+03 -9.936890E-11 -5.844126E-11
        79  11 -1.751184E+04 -1.229462E+05 -3.512774E+04 -2.059308E+04 -3.761626E-10 -9.350378E-12
        79  12 -6.018833E+04 -1.395299E+05 -6.620033E+04 -3.808075E+04 -1.771337E-10  5.403158E-11
        79  13  4.322985E+00 -8.622215E+04 -1.657547E+04 -1.019136E+04  6.468952E-11  5.232369E-12
        79  14 -7.468419E+03 -8.132242E+04 -2.653710E+04 -8.712844E+03 -1.411478E-10 -1.603351E-12
        79  15 -4.698131E+04 -8.622557E+04 -5.347133E+04 -1.019162E+04  7.984755E-12  1.553913E-12
        79  16  7.232233E+03 -5.592999E+04 -1.073136E+04 -1.432097E+04  1.679011E-10  7.284231E-11
        79  17  2.575427E+03 -3.969668E+04 -1.794648E+04  3.168200E+03  2.889339E-11  5.094635E-12
        79  18 -3.377157E+04 -3.291701E+04 -4.074211E+04  1.769992E+04 -4.400027E-11 -5.821335E-11
        79  19 -7.223560E+03 -1.165133E+05 -2.241952E+04 -6.061960E+03  1.845019E+03 -7.096122E+03
        79  20 -1.751170E+04 -1.229457E+05 -3.512675E+04 -2.059311E+04  1.938447E+03 -2.286427E+04
        79  21 -6.018793E+04 -1.395283E+05 -6.619753E+04 -3.808077E+04  6.410147E+02 -3.863184E+04
        79  22  4.344835E+00 -8.622207E+04 -1.657534E+04 -1.019137E+04  1.845081E+03 -8.231792E+03
        79  23 -7.468285E+03 -8.132190E+04 -2.653619E+04 -8.712878E+03  1.937991E+03 -2.199700E+04
        79  24 -4.698097E+04 -8.622420E+04 -5.346893E+04 -1.019164E+04  6.392702E+02 -3.576200E+04
        79  25  7.232260E+03 -5.592989E+04 -1.073119E+04 -1.432099E+04  1.845158E+03 -9.367516E+03
        79  26  2.575551E+03 -3.969620E+04 -1.794563E+04  3.168167E+03  1.937569E+03 -2.112967E+04
        79  27 -3.377128E+04 -3.291585E+04 -4.074008E+04  1.769990E+04  6.377837E+02 -3.289191E+04
        80   1  1.050687E+05  5.482091E+04 -3.464713E+03  8.170520E+04  2.958783E+03  3.301851E+03
        80   2  1.100655E+05  5.105609E+04 -5.751117E+03  8.767810E+04  1.340662E+03  4.474482E+03
        80   3  1.206783E+05  5.021265E+04 -5.960785E+03  9.065467E+04  7.149519E+02  4.323897E+03
        80   4  1.584349E+05  8.250942E+04  1.196381E+04  1.034284E+05  6.111822E+03  5.666504E+03
        80   5  1.535205E+05  7.746408E+04  5.721180E+03  1.074604E+05  2.587670E+03  5.409638E+03
        80   6  1.546354E+05  7.575324E+04  3.209245E+03  1.084962E+05  5.591666E+01  3.829646E+03
        80   7  2.118034E+05  1.101982E+05  2.739187E+04  1.251530E+05  9.265188E+03  8.031303E+03
        80   8  1.969772E+05  1.038726E+05  1.719321E+04  1.272440E+05  3.834787E+03  6.344860E+03
        80   9  1.885937E+05  1.012946E+05  1.237917E+04  1.263388E+05 -6.031665E+02  3.335356E+03
        80  10  1.050686E+05  5.482089E+04 -3.464750E+03  8.170519E+04  1.465412E-10  2.824301E-11
        80  11  1.100655E+05  5.105607E+04 -5.751158E+03  8.767809E+04 -8.908879E-11  6.681549E-11
        80  12  1.206783E+05  5.021263E+04 -5.960821E+03  9.065467E+04 -4.495493E-10  3.834973E-11
        80  13  1.584348E+05  8.250938E+04  1.196368E+04  1.034284E+05  1.901125E-10  3.707977E-11
        80  14  1.535205E+05  7.746405E+04  5.721112E+03  1.074604E+05 -4.607686E-10 -1.436715E-11
        80  15  1.546354E+05  7.575323E+04  3.209218E+03  1.084962E+05  1.746538E-11  1.465309E-10
        80  16  2.118033E+05  1.101981E+05  2.739158E+04  1.251530E+05 -1.122389E-10 -2.021362E-11
        80  17  1.969772E+05  1.038726E+05  1.719311E+04  1.272440E+05 -1.122959E-10  7.716169E-11
        80  18  1.885937E+05  1.012946E+05  1.237915E+04  1.263388E+05 -9.658056E-11  3.132112E-10
        80  19  1.050687E+05  5.482091E+04 -3.464713E+03  8.170520E+04 -2.958783E+03 -3.301851E+03
        80  20  1.100655E+05  5.105609E+04 -5.751117E+03  8.767810E+04 -1.340662E+03 -4.474482E+03
        80  21  1.206783E+05  5.021265E+04 -5.960785E+03  9.065467E+04 -7.149519E+02 -4.323897E+03
        80  22  1.584349E+05  8.250942E+04  1.196381E+04  1.034284E+05 -6.111822E+03 -5.666504E+03
        80  23  1.535205E+05  7.746408E+04  5.721180E+03  1.074604E+05 -2.587670E+03 -5.409638E+03
        80  24  1.546354E+05  7.575324E+04  3.209245E+03  1.084962E+05 -5.591666E+01 -3.829646E+03
        80  25  2.118034E+05  1.101982E+05  2.739187E+04  1.251530E+05 -9.265188E+03 -8.031303E+03
        80  26  1.969772E+05  1.038726E+05  1.719321E+04  1.272440E+05 -3.834787E+03 -6.344860E+03
        80  27  1.885937E+05  1.012946E+05  1.237917E+04  1.263388E+05  6.031665E+02 -3.335356E+03
        81   1  1.237090E+05  5.431200E+04 -5.554164E+03  9.265722E+04  3.423640E+02  3.621181E+03
        81   2  1.286960E+05  5.935603E+04 -4.908875E+03  9.615952E+04  1.678899E+02  2.956586E+03
        81   3  1.360198E+05  6.249744E+04 -3.840362E+03  9.896642E+04  6.395159E+01  2.197887E+03
        81   4  1.545176E+05  7.583400E+04  2.487463E+03  1.080788E+05 -8.184953E+01  3.303032E+03
        81   5  1.532585E+05  7.663514E+04  1.419648E+03  1.085284E+05 -3.918859E+02  2.536784E+03
        81   6  1.543655E+05  7.556304E+04  8.926207E+02  1.082825E+05 -6.313783E+02  1.676448E+03
        81   7  1.853276E+05  9.735687E+04  1.052917E+04  1.235016E+05 -5.060977E+02  2.984857E+03
        81   8  1.778217E+05  9.391460E+04  7.748124E+03  1.208978E+05 -9.516914E+02  2.116961E+03
        81   9  1.727112E+05  8.862863E+04  5.625482E+03  1.175987E+05 -1.326725E+03  1.154996E+03
        81  10  1.237090E+05  5.431199E+04 -5.554189E+03  9.265722E+04 -1.851448E-10  1.415343E-10
        81  11  1.286960E+05  5.935602E+04 -4.908892E+03  9.615952E+04 -4.700493E-10 -5.229397E-12
        81  12  1.360198E+05  6.249744E+04 -3.840371E+03  9.896642E+04 -7.940806E-10  6.215424E-12
        81  13  1.545176E+05  7.583398E+04  2.487443E+03  1.080788E+05  6.434389E-11  2.112715E-10
        81  14  1.532585E+05  7.663513E+04  1.419636E+03  1.085284E+05 -1.593653E-10  2.344831E-10
        81  15  1.543655E+05  7.556303E+04  8.926147E+02  1.082825E+05 -2.352808E-10  3.791760E-10
        81  16  1.853276E+05  9.735686E+04  1.052915E+04  1.235016E+05 -1.459659E-10  2.419076E-10
        81  17  1.778217E+05  9.391459E+04  7.748114E+03  1.208978E+05  1.226450E-10  4.599726E-10
        81  18  1.727112E+05  8.862863E+04  5.625476E+03  1.175987E+05  1.204476E-10  8.011398E-10
        81  19  1.237090E+05  5.431200E+04 -5.554164E+03  9.265722E+04 -3.423640E+02 -3.621181E+03
        81  20  1.286960E+05  5.935603E+04 -4.908875E+03  9.615952E+04 -1.678899E+02 -2.956586E+03
        81  21  1.360198E+05  6.249744E+04 -3.840362E+03  9.896642E+04 -6.395159E+01 -2.197887E+03
        81  22  1.545176E+05  7.583400E+04  2.487463E+03  1.080788E+05  8.184953E+01 -3.303032E+03
        81  23  1.532585E+05  7.663514E+04  1.419648E+03  1.085284E+05  3.918859E+02 -2.536784E+03
        81  24  1.543655E+05  7.556304E+04  8.926207E+02  1.082825E+05  6.313783E+02 -1.676448E+03
        81  25  1.853276E+05  9.735687E+04  1.052917E+04  1.235016E+05  5.060977E+02 -2.984857E+03
        81  26  1.778217E+05  9.391460E+04  7.748124E+03  1.208978E+05  9.516914E+02 -2.116961E+03
        81  27  1.727112E+05  8.862863E+04  5.625482E+03  1.175987E+05  1.326725E+03 -1.154996E+03
        82   1  1.401040E+05  6.548343E+04 -2.888356E+03  1.010497E+05  1.430863E+02  1.817267E+03
        82   2  1.451171E+05  7.086788E+04 -1.468918E+03  1.044528E+05  2.591303E+02  1.165760E+03
        82   3  1.523144E+05  7.413960E+04  1.510017E+02  1.072390E+05  3.768323E+02  5.120335E+02
        82   4  1.543553E+05  7.556351E+04  7.456900E+02  1.082597E+05 -5.361737E+02  1.307887E+03
        82   5  1.532627E+05  7.661923E+04  6.104233E+02  1.085684E+05 -4.233367E+02  6.539785E+02
        82   6  1.543549E+05  7.556284E+04  6.784049E+02  1.082603E+05 -3.088390E+02 -2.150980E+00
        82   7  1.686067E+05  8.564372E+04  4.379725E+03  1.154699E+05 -1.215455E+03  7.984906E+02
        82   8  1.614084E+05  8.237066E+04  2.689785E+03  1.126842E+05 -1.105821E+03  1.421833E+02
        82   9  1.563955E+05  7.698610E+04  1.205822E+03  1.092816E+05 -9.945240E+02 -5.163457E+02
        82  10  1.401040E+05  6.548342E+04 -2.888362E+03  1.010497E+05  3.778845E-09  3.172743E-09
        82  11  1.451171E+05  7.086788E+04 -1.468921E+03  1.044528E+05 -7.241941E-09 -6.345400E-09
        82  12  1.523144E+05  7.413960E+04  1.510009E+02  1.072390E+05 -1.840303E-08 -1.565956E-08
        82  13  1.543553E+05  7.556351E+04  7.456863E+02  1.082597E+05  2.042651E-10  4.989179E-10
        82  14  1.532627E+05  7.661923E+04  6.104221E+02  1.085684E+05  4.951138E-10 -3.212293E-10
        82  15  1.543549E+05  7.556284E+04  6.784047E+02  1.082603E+05 -1.137933E-09 -2.478241E-09
        82  16  1.686067E+05  8.564372E+04  4.379721E+03  1.154699E+05 -3.409466E-09 -2.182614E-09
        82  17  1.614084E+05  8.237066E+04  2.689783E+03  1.126842E+05  7.824087E-09  5.782070E-09
        82  18  1.563955E+05  7.698610E+04  1.205819E+03  1.092816E+05  1.642417E-08  1.069186E-08
        82  19  1.401040E+05  6.548343E+04 -2.888356E+03  1.010497E+05 -1.430863E+02 -1.817267E+03
        82  20  1.451171E+05  7.086788E+04 -1.468918E+03  1.044528E+05 -2.591303E+02 -1.165760E+03
        82  21  1.523144E+05  7.413960E+04  1.510017E+02  1.072390E+05 -3.768323E+02 -5.120335E+02
        82  22  1.543553E+05  7.556351E+04  7.456900E+02  1.082597E+05  5.361737E+02 -1.307887E+03
        82  23  1.532627E+05  7.661923E+04  6.104233E+02  1.085684E+05  4.233367E+02 -6.539785E+02
        82  24  1.543549E+05  7.556284E+04  6.784049E+02  1.082603E+05  3.088390E+02  2.150980E+00
        82  25  1.686067E+05  8.564372E+04  4.379725E+03  1.154699E+05  1.215455E+03 -7.984906E+02
        82  26  1.614084E+05  8.237066E+04  2.689785E+03  1.126842E+05  1.105821E+03 -1.421833E+02
        82  27  1.563955E+05  7.698610E+04  1.205822E+03  1.092816E+05  9.945240E+02  5.163457E+02
        83   1  1.564242E+05  7.711535E+04  1.356822E+03  1.093603E+05  4.943474E+02  1.598729E+02
        83   2  1.615205E+05  8.241766E+04  3.351747E+03  1.126775E+05  2.627988E+02 -7.194225E+02
        83   3  1.689662E+05  8.582002E+04  5.881920E+03  1.153115E+05 -1.570428E+01 -1.536098E+03
        83   4  1.543627E+05  7.556206E+04  7.858330E+02  1.082782E+05 -2.013352E+02 -3.618191E+02
        83   5  1.532611E+05  7.663458E+04  1.203776E+03  1.085352E+05 -3.426795E+02 -1.173471E+03
        83   6  1.544895E+05  7.578768E+04  2.078747E+03  1.081089E+05 -5.309751E+02 -1.922503E+03
        83   7  1.523012E+05  7.400881E+04  2.148575E+02  1.071962E+05 -8.970039E+02 -8.835004E+02
        83   8  1.450019E+05  7.085160E+04 -9.441763E+02  1.043929E+05 -9.481421E+02 -1.627508E+03
        83   9  1.400129E+05  6.575547E+04 -1.724439E+03  1.009065E+05 -1.046229E+03 -2.308895E+03
        83  10  1.564242E+05  7.711535E+04  1.356822E+03  1.093603E+05  1.639110E-08  1.074758E-08
        83  11  1.615205E+05  8.241766E+04  3.351746E+03  1.126775E+05  7.589588E-09  5.721616E-09
        83  12  1.689662E+05  8.582002E+04  5.881916E+03  1.153115E+05 -3.824855E-09 -2.245431E-09
        83  13  1.543627E+05  7.556206E+04  7.858327E+02  1.082782E+05 -1.164827E-09 -2.462066E-09
        83  14  1.532611E+05  7.663458E+04  1.203773E+03  1.085352E+05  3.008060E-11 -3.307993E-10
        83  15  1.544895E+05  7.578768E+04  2.078740E+03  1.081089E+05 -8.019788E-11  5.442441E-10
        83  16  1.523012E+05  7.400881E+04  2.148545E+02  1.071962E+05 -1.840353E-08 -1.576251E-08
        83  17  1.450018E+05  7.085160E+04 -9.441830E+02  1.043929E+05 -7.035710E-09 -6.364137E-09
        83  18  1.400129E+05  6.575547E+04 -1.724451E+03  1.009065E+05  3.778255E-09  3.311774E-09
        83  19  1.564242E+05  7.711535E+04  1.356822E+03  1.093603E+05 -4.943474E+02 -1.598729E+02
        83  20  1.615205E+05  8.241766E+04  3.351747E+03  1.126775E+05 -2.627988E+02  7.194225E+02
        83  21  1.689662E+05  8.582002E+04  5.881920E+03  1.153115E+05  1.570428E+01  1.536098E+03
        83  22  1.543627E+05  7.556206E+04  7.858330E+02  1.082782E+05  2.013352E+02  3.618191E+02
        83  23  1.532611E+05  7.663458E+04  1.203776E+03  1.085352E+05  3.426795E+02  1.173471E+03
        83  24  1.544895E+05  7.578768E+04  2.078747E+03  1.081089E+05  5.309751E+02  1.922503E+03
        83  25  1.523012E+05  7.400881E+04  2.148575E+02  1.071962E+05  8.970039E+02  8.835004E+02
        83  26  1.450019E+05  7.085160E+04 -9.441763E+02  1.043929E+05  9.481421E+02  1.627508E+03
        83  27  1.400129E+05  6.575547E+04 -1.724439E+03  1.009065E+05  1.046229E+03  2.308895E+03
        84   1  1.723747E+05  8.957494E+04  7.594449E+03  1.180154E+05  6.228236E+01 -1.906706E+03
        84   2  1.801931E+05  9.263572E+04  1.172243E+04  1.193697E+05 -3.168567E+03 -4.368193E+03
        84   3  1.936721E+05  9.835952E+04  2.005286E+04  1.181264E+05 -7.062278E+03 -5.946014E+03
        84   4  1.545905E+05  7.571719E+04  2.673989E+03  1.084541E+05 -6.097769E+02 -2.410691E+03
        84   5  1.534749E+05  7.732766E+04  4.753385E+03  1.076497E+05 -2.567567E+03 -3.917520E+03
        84   6  1.577436E+05  8.132507E+04  9.930611E+03  1.042476E+05 -5.188109E+03 -4.540622E+03
        84   7  1.368063E+05  6.185946E+04 -2.246596E+03  9.889302E+04 -1.281820E+03 -2.914663E+03
        84   8  1.267574E+05  6.201985E+04 -2.215718E+03  9.593027E+04 -1.966601E+03 -3.466868E+03
        84   9  1.218170E+05  6.429113E+04 -1.915658E+02  9.036971E+04 -3.314118E+03 -3.135315E+03
        84  10  1.723747E+05  8.957494E+04  7.594443E+03  1.180154E+05  4.266120E-10  8.790581E-10
        84  11  1.801931E+05  9.263570E+04  1.172238E+04  1.193697E+05 -1.312388E-10  5.469300E-10
        84  12  1.936720E+05  9.835947E+04  2.005270E+04  1.181263E+05  1.779812E-10  2.636145E-10
        84  13  1.545905E+05  7.571719E+04  2.673977E+03  1.084541E+05 -3.831971E-10  4.843175E-10
        84  14  1.534748E+05  7.732765E+04  4.753344E+03  1.076497E+05 -2.988360E-10  2.746737E-10
        84  15  1.577435E+05  8.132504E+04  9.930522E+03  1.042475E+05 -3.375148E-11  6.898862E-11
        84  16  1.368063E+05  6.185945E+04 -2.246615E+03  9.889302E+04 -1.137116E-09  1.108187E-10
        84  17  1.267573E+05  6.201984E+04 -2.215748E+03  9.593026E+04 -7.823324E-10 -2.963424E-12
        84  18  1.218170E+05  6.429111E+04 -1.916049E+02  9.036970E+04 -3.382104E-10 -1.532315E-10
        84  19  1.723747E+05  8.957494E+04  7.594449E+03  1.180154E+05 -6.228236E+01  1.906706E+03
        84  20  1.801931E+05  9.263572E+04  1.172243E+04  1.193697E+05  3.168567E+03  4.368193E+03
        84  21  1.936721E+05  9.835952E+04  2.005286E+04  1.181264E+05  7.062278E+03  5.946014E+03
        84  22  1.545905E+05  7.571719E+04  2.673989E+03  1.084541E+05  6.097769E+02  2.410691E+03
        84  23  1.534749E+05  7.732766E+04  4.753385E+03  1.076497E+05  2.567567E+03  3.917520E+03
        84  24  1.577436E+05  8.132507E+04  9.930611E+03  1.042476E+05  5.188109E+03  4.540622E+03
        84  25  1.368063E+05  6.185946E+04 -2.246596E+03  9.889302E+04  1.281820E+03  2.914663E+03
        84  26  1.267574E+05  6.201985E+04 -2.215718E+03  9.593027E+04  1.966601E+03  3.466868E+03
        84  27  1.218170E+05  6.429113E+04 -1.915658E+02  9.036971E+04  3.314118E+03  3.135315E+03
        85   1  3.580864E+03 -1.936939E+04 -2.198230E+04 -1.146695E+04 -1.509661E+04  2.788359E-01
        85   2  5.587533E+03 -3.084653E+03 -1.061143E+04 -4.864413E+03 -9.584485E+03  7.509656E-02
        85   3  3.580668E+03  1.646436E+01 -6.124962E+03  1.738164E+03 -4.072364E+03 -1.140144E-02
        85   4  3.580723E+03 -1.936964E+04 -2.198234E+04 -1.312028E-10 -1.509661E+04 -1.072374E-11
        85   5  5.587507E+03 -3.084697E+03 -1.061143E+04  1.354115E-10 -9.584485E+03 -1.104128E-10
        85   6  3.580665E+03  1.645868E+01 -6.124963E+03 -2.129794E-11 -4.072364E+03 -3.542628E-11
        85   7  3.580864E+03 -1.936939E+04 -2.198230E+04  1.146695E+04 -1.509661E+04 -2.788359E-01
        85   8  5.587533E+03 -3.084653E+03 -1.061143E+04  4.864413E+03 -9.584485E+03 -7.509656E-02
        85   9  3.580668E+03  1.646436E+01 -6.124962E+03 -1.738164E+03 -4.072364E+03  1.140144E-02
        85  10  3.580619E+03 -1.936946E+04 -2.198273E+04 -1.146695E+04  1.919024E-11  1.081620E-11
        85  11  5.587434E+03 -3.084677E+03 -1.061160E+04 -4.864413E+03 -4.646280E-11 -1.138402E-11
        85  12  3.580650E+03  1.645991E+01 -6.124993E+03  1.738164E+03  2.581966E-10 -2.127364E-11
        85  13  3.580478E+03 -1.936970E+04 -2.198277E+04  2.424228E-10  1.437943E-10 -2.273209E-11
        85  14  5.587409E+03 -3.084722E+03 -1.061161E+04 -6.836783E-12 -6.234381E-11 -6.549132E-11
        85  15  3.580647E+03  1.645423E+01 -6.124994E+03 -5.253428E-10  3.503024E-10 -5.525166E-11
        85  16  3.580619E+03 -1.936946E+04 -2.198273E+04  1.146695E+04 -1.528325E-10 -2.904674E-11
        85  17  5.587434E+03 -3.084677E+03 -1.061160E+04  4.864413E+03  3.061349E-11 -1.176089E-10
        85  18  3.580650E+03  1.645991E+01 -6.124993E+03 -1.738164E+03  8.015704E-11 -8.875557E-11
        85  19  3.580864E+03 -1.936939E+04 -2.198230E+04 -1.146695E+04  1.509661E+04 -2.788359E-01
        85  20  5.587533E+03 -3.084653E+03 -1.061143E+04 -4.864413E+03  9.584485E+03 -7.509656E-02
        85  21  3.580668E+03  1.646436E+01 -6.124962E+03  1.738164E+03  4.072364E+03  1.140144E-02
        85  22  3.580723E+03 -1.936964E+04 -2.198234E+04 -3.312950E-10  1.509661E+04 -3.335440E-11
        85  23  5.587507E+03 -3.084697E+03 -1.061143E+04  1.196344E-10  9.584485E+03 -2.025273E-11
        85  24  3.580665E+03  1.645868E+01 -6.124963E+03 -5.755635E-10  4.072364E+03 -7.046731E-11
        85  25  3.580864E+03 -1.936939E+04 -2.198230E+04  1.146695E+04  1.509661E+04  2.788359E-01
        85  26  5.587533E+03 -3.084653E+03 -1.061143E+04  4.864413E+03  9.584485E+03  7.509656E-02
        85  27  3.580668E+03  1.646436E+01 -6.124962E+03 -1.738164E+03  4.072364E+03 -1.140144E-02
        86   1  4.392387E+03 -7.337317E+02 -4.886661E+03 -2.796627E+02 -3.240204E+03  1.459583E-03
        86   2  4.572809E+03 -4.515495E+01 -3.182992E+03 -9.444691E+01 -1.655489E+03  2.518465E-04
        86   3  4.392378E+03  2.532012E+01 -2.665528E+03  9.076598E+01 -7.079634E+01 -1.035037E-05
        86   4  4.392387E+03 -7.337318E+02 -4.886661E+03  8.636160E-10 -3.240204E+03  1.317789E-11
        86   5  4.572809E+03 -4.515496E+01 -3.182992E+03  5.077342E-10 -1.655489E+03  6.887091E-12
        86   6  4.392378E+03  2.532010E+01 -2.665528E+03 -3.323646E-11 -7.079634E+01 -3.110773E-12
        86   7  4.392387E+03 -7.337317E+02 -4.886661E+03  2.796627E+02 -3.240204E+03 -1.459583E-03
        86   8  4.572809E+03 -4.515495E+01 -3.182992E+03  9.444691E+01 -1.655489E+03 -2.518465E-04
        86   9  4.392378E+03  2.532012E+01 -2.665528E+03 -9.076598E+01 -7.079634E+01  1.035036E-05
        86  10  4.392375E+03 -7.337345E+02 -4.886681E+03 -2.796627E+02  9.246517E-11 -3.612194E-11
        86  11  4.572806E+03 -4.515568E+01 -3.182997E+03 -9.444691E+01  1.737071E-10 -4.359515E-11
        86  12  4.392378E+03  2.532012E+01 -2.665528E+03  9.076598E+01  2.580322E-11 -1.688725E-12
        86  13  4.392375E+03 -7.337347E+02 -4.886681E+03  6.233849E-10  1.335698E-10 -2.206595E-11
        86  14  4.572806E+03 -4.515570E+01 -3.182997E+03  1.736520E-10  3.341424E-10  1.074573E-11
        86  15  4.392378E+03  2.532010E+01 -2.665528E+03 -6.737693E-12  3.218660E-11 -1.158188E-11
        86  16  4.392375E+03 -7.337345E+02 -4.886681E+03  2.796627E+02  1.420481E-10 -8.429741E-12
        86  17  4.572806E+03 -4.515568E+01 -3.182997E+03  9.444691E+01 -6.157095E-11  6.546495E-11
        86  18  4.392378E+03  2.532012E+01 -2.665528E+03 -9.076598E+01 -1.431801E-10 -2.117073E-11
        86  19  4.392387E+03 -7.337317E+02 -4.886661E+03 -2.796627E+02  3.240204E+03 -1.459583E-03
        86  20  4.572809E+03 -4.515495E+01 -3.182992E+03 -9.444691E+01  1.655489E+03 -2.518466E-04
        86  21  4.392378E+03  2.532012E+01 -2.665528E+03  9.076598E+01  7.079634E+01  1.035036E-05
        86  22  4.392387E+03 -7.337318E+02 -4.886661E+03  5.177593E-10  3.240204E+03 -5.720516E-11
        86  23  4.572809E+03 -4.515496E+01 -3.182992E+03  3.782229E-10  1.655489E+03  1.479796E-11
        86  24  4.392378E+03  2.532010E+01 -2.665528E+03 -1.820407E-10  7.079634E+01 -1.995085E-11
        86  25  4.392387E+03 -7.337317E+02 -4.886661E+03  2.796627E+02  3.240204E+03  1.459583E-03
        86  26  4.572809E+03 -4.515495E+01 -3.182992E+03  9.444691E+01  1.655489E+03  2.518466E-04
        86  27  4.392378E+03  2.532012E+01 -2.665528E+03 -9.076598E+01  7.079634E+01 -1.035040E-05
        87   1  4.382643E+03  3.127739E+01 -2.722654E+03 -1.254057E+02  4.035504E+02 -8.151485E-05
        87   2  4.584980E+03 -5.823337E+01 -3.496497E+03  9.565458E+01  2.145001E+03  3.304876E-04
        87   3  4.382655E+03 -8.594435E+02 -5.581995E+03  3.167183E+02  3.886475E+03  1.982672E-03
        87   4  4.382643E+03  3.127736E+01 -2.722654E+03 -4.648595E-10  4.035504E+02  2.568906E-11
        87   5  4.584980E+03 -5.823339E+01 -3.496497E+03 -7.695629E-10  2.145001E+03  8.106768E-11
        87   6  4.382654E+03 -8.594437E+02 -5.581995E+03 -2.160046E-10  3.886475E+03  3.182458E-11
        87   7  4.382643E+03  3.127739E+01 -2.722654E+03  1.254057E+02  4.035504E+02  8.151490E-05
        87   8  4.584980E+03 -5.823337E+01 -3.496497E+03 -9.565458E+01  2.145001E+03 -3.304874E-04
        87   9  4.382655E+03 -8.594435E+02 -5.581995E+03 -3.167183E+02  3.886475E+03 -1.982672E-03
        87  10  4.382643E+03  3.127734E+01 -2.722654E+03 -1.254057E+02  4.734795E-12  2.156970E-11
        87  11  4.584975E+03 -5.823460E+01 -3.496506E+03  9.565458E+01 -2.351071E-10  1.362543E-11
        87  12  4.382638E+03 -8.594476E+02 -5.582023E+03  3.167183E+02  7.935439E-11 -1.313906E-11
        87  13  4.382643E+03  3.127731E+01 -2.722654E+03 -2.935580E-10 -5.258676E-13 -2.826928E-12
        87  14  4.584975E+03 -5.823462E+01 -3.496506E+03 -9.037703E-10 -4.307717E-29  3.583942E-11
        87  15  4.382638E+03 -8.594477E+02 -5.582023E+03 -4.033494E-10 -4.952607E-11 -1.338064E-12
        87  16  4.382643E+03  3.127734E+01 -2.722654E+03  1.254057E+02  2.882586E-11 -2.723473E-11
        87  17  4.584975E+03 -5.823460E+01 -3.496506E+03 -9.565458E+01  2.113179E-11  5.632379E-11
        87  18  4.382638E+03 -8.594476E+02 -5.582023E+03 -3.167183E+02 -6.646834E-11  1.044785E-11
        87  19  4.382643E+03  3.127739E+01 -2.722654E+03 -1.254057E+02 -4.035504E+02  8.151488E-05
        87  20  4.584980E+03 -5.823337E+01 -3.496497E+03  9.565458E+01 -2.145001E+03 -3.304875E-04
        87  21  4.382655E+03 -8.594435E+02 -5.581995E+03  3.167183E+02 -3.886475E+03 -1.982672E-03
        87  22  4.382643E+03  3.127736E+01 -2.722654E+03 -2.568540E-10 -4.035504E+02 -3.137047E-11
        87  23  4.584980E+03 -5.823339E+01 -3.496497E+03 -7.686797E-10 -2.145001E+03 -9.168044E-12
        87  24  4.382654E+03 -8.594437E+02 -5.581995E+03 -8.260609E-10 -3.886475E+03 -3.453257E-11
        87  25  4.382643E+03  3.127739E+01 -2.722654E+03  1.254057E+02 -4.035504E+02 -8.151495E-05
        87  26  4.584980E+03 -5.823337E+01 -3.496497E+03 -9.565458E+01 -2.145001E+03  3.304875E-04
        87  27  4.382655E+03 -8.594435E+02 -5.581995E+03 -3.167183E+02 -3.886475E+03  1.982672E-03
        88   1  3.432213E+03  1.694801E+01 -7.060019E+03 -2.035883E+03  4.838709E+03 -1.586737E-02
        88   2  5.773132E+03 -3.601653E+03 -1.234360E+04  5.671983E+03  1.125169E+04  1.027953E-01
        88   3  3.432472E+03 -2.260699E+04 -2.564883E+04  1.337980E+04  1.766467E+04  3.806943E-01
        88   4  3.432209E+03  1.694023E+01 -7.060020E+03 -1.101532E-10  4.838709E+03 -1.568134E-11
        88   5  5.773097E+03 -3.601714E+03 -1.234361E+04  1.266356E-10  1.125169E+04 -3.508037E-11
        88   6  3.432280E+03 -2.260733E+04 -2.564888E+04  6.285863E-11  1.766467E+04 -5.915960E-11
        88   7  3.432213E+03  1.694801E+01 -7.060019E+03  2.035883E+03  4.838709E+03  1.586737E-02
        88   8  5.773132E+03 -3.601653E+03 -1.234360E+04 -5.671983E+03  1.125169E+04 -1.027953E-01
        88   9  3.432472E+03 -2.260699E+04 -2.564883E+04 -1.337980E+04  1.766467E+04 -3.806943E-01
        88  10  3.432188E+03  1.694173E+01 -7.060063E+03 -2.035883E+03  1.764772E-11 -1.771449E-11
        88  11  5.772996E+03 -3.601687E+03 -1.234384E+04  5.671983E+03 -1.019593E-10 -1.243773E-11
        88  12  3.432137E+03 -2.260708E+04 -2.564942E+04  1.337980E+04 -2.536198E-11 -6.665882E-12
        88  13  3.432183E+03  1.693394E+01 -7.060064E+03 -9.077818E-11 -9.190751E-12 -1.355829E-11
        88  14  5.772961E+03 -3.601748E+03 -1.234385E+04  4.678261E-10 -3.268358E-10  1.323204E-11
        88  15  3.431945E+03 -2.260741E+04 -2.564946E+04  1.650124E-11 -6.504390E-11  7.477311E-12
        88  16  3.432188E+03  1.694173E+01 -7.060063E+03  2.035883E+03 -8.754578E-11 -4.925274E-12
        88  17  5.772996E+03 -3.601687E+03 -1.234384E+04 -5.671983E+03  1.383274E-10  2.083278E-11
        88  18  3.432137E+03 -2.260708E+04 -2.564942E+04 -1.337980E+04  3.804064E-11  1.877987E-11
        88  19  3.432213E+03  1.694801E+01 -7.060019E+03 -2.035883E+03 -4.838709E+03  1.586737E-02
        88  20  5.773132E+03 -3.601653E+03 -1.234360E+04  5.671983E+03 -1.125169E+04 -1.027953E-01
        88  21  3.432472E+03 -2.260699E+04 -2.564883E+04  1.337980E+04 -1.766467E+04 -3.806943E-01
        88  22  3.432209E+03  1.694023E+01 -7.060020E+03 -2.063459E-10 -4.838709E+03 -1.028179E-11
        88  23  5.773097E+03 -3.601714E+03 -1.234361E+04  5.400093E-10 -1.125169E+04  5.909905E-11
        88  24  3.432280E+03 -2.260733E+04 -2.564888E+04  4.127956E-10 -1.766467E+04  5.429203E-11
        88  25  3.432213E+03  1.694801E+01 -7.060019E+03  2.035883E+03 -4.838709E+03 -1.586737E-02
        88  26  5.773132E+03 -3.601653E+03 -1.234360E+04 -5.671983E+03 -1.125169E+04  1.027953E-01
        88  27  3.432472E+03 -2.260699E+04 -2.564883E+04 -1.337980E+04 -1.766467E+04  3.806943E-01
        89   1 -4.473358E+04 -8.964890E+04 -4.542425E+04  3.414567E+04 -1.514836E+03 -1.615138E+04
        89   2 -2.583134E+04 -5.792466E+04 -2.794405E+04  2.594352E+04 -4.533153E+03 -7.381231E+03
        89   3 -1.649564E+04 -2.973215E+04 -1.856559E+04  2.545700E+04 -4.168612E+03  1.389473E+03
        89   4 -1.276197E+04  3.937143E+04 -1.458739E+04  2.654199E+04 -1.514272E+03 -9.370268E+03
        89   5 -2.021284E+03  4.071567E+04 -7.532946E+03  2.268369E+04 -4.532927E+03 -5.470183E+03
        89   6 -7.894428E-01  3.937308E+04 -5.197440E+03  2.654125E+04 -4.168846E+03 -1.570069E+03
        89   7  1.920867E+04  1.684073E+05  1.624850E+04  1.893672E+04 -1.513874E+03 -2.587754E+03
        89   8  2.178820E+04  1.393652E+05  1.287765E+04  1.942333E+04 -4.532721E+03 -3.558836E+03
        89   9  1.649378E+04  1.084829E+05  8.170517E+03  2.762562E+04 -4.169090E+03 -4.529933E+03
        89  10 -4.473365E+04 -8.964918E+04 -4.542474E+04  3.414565E+04  2.196077E-11 -1.939417E-10
        89  11 -2.583138E+04 -5.792472E+04 -2.794419E+04  2.594349E+04 -1.231826E-10  4.453441E-12
        89  12 -1.649566E+04 -2.973216E+04 -1.856562E+04  2.545701E+04 -1.128620E-10  2.354881E-10
        89  13 -1.276200E+04  3.937134E+04 -1.458756E+04  2.654198E+04 -6.228753E-11 -1.784980E-11
        89  14 -2.021314E+03  4.071563E+04 -7.533041E+03  2.268367E+04  8.719386E-11  3.048138E-11
        89  15 -8.087668E-01  3.937307E+04 -5.197477E+03  2.654124E+04 -2.842968E-10 -7.273270E-11
        89  16  1.920866E+04  1.684072E+05  1.624848E+04  1.893671E+04 -8.295306E-11  1.895733E-10
        89  17  2.178817E+04  1.393652E+05  1.287758E+04  1.942332E+04  6.494932E-11 -4.189430E-11
        89  18  1.649376E+04  1.084829E+05  8.170446E+03  2.762560E+04  7.080399E-11 -2.213183E-10
        89  19 -4.473358E+04 -8.964890E+04 -4.542425E+04  3.414567E+04  1.514836E+03  1.615138E+04
        89  20 -2.583134E+04 -5.792466E+04 -2.794405E+04  2.594352E+04  4.533153E+03  7.381231E+03
        89  21 -1.649564E+04 -2.973215E+04 -1.856559E+04  2.545700E+04  4.168612E+03 -1.389473E+03
        89  22 -1.276197E+04  3.937143E+04 -1.458739E+04  2.654199E+04  1.514272E+03  9.370268E+03
        89  23 -2.021284E+03  4.071567E+04 -7.532946E+03  2.268369E+04  4.532927E+03  5.470183E+03
        89  24 -7.894428E-01  3.937308E+04 -5.197440E+03  2.654125E+04  4.168846E+03  1.570069E+03
        89  25  1.920867E+04  1.684073E+05  1.624850E+04  1.893672E+04  1.513874E+03  2.587754E+03
        89  26  2.178820E+04  1.393652E+05  1.287765E+04  1.942333E+04  4.532721E+03  3.558836E+03
        89  27  1.649378E+04  1.084829E+05  8.170517E+03  2.762562E+04  4.169090E+03  4.529933E+03
        90   1 -1.206749E+04 -8.860946E+03 -1.421459E+04  2.696040E+04 -2.947412E+03  1.606583E+03
        90   2 -4.579880E+03  2.138865E+04 -8.474212E+03  2.259750E+04 -1.255787E+03  4.176525E+03
        90   3  1.700735E+03  5.100184E+04 -4.708976E+03  2.614138E+04  5.012897E+02  6.746548E+03
        90   4 -4.470350E+02  3.983266E+04 -4.804709E+03  2.658376E+04 -2.947633E+03 -7.819031E+02
        90   5 -1.269037E+02  4.014332E+04 -4.963408E+03  2.263039E+04 -1.256034E+03  1.693826E+03
        90   6 -9.973522E+02  3.983306E+04 -7.031790E+03  2.658382E+04  5.010166E+02  4.169519E+03
        90   7  1.117328E+04  8.852855E+04  4.605081E+03  2.620709E+04 -2.947851E+03 -3.170573E+03
        90   8  4.326056E+03  5.889835E+04 -1.452595E+03  2.266329E+04 -1.256281E+03 -7.889460E+02
        90   9 -3.695443E+03  2.866441E+04 -9.354585E+03  2.702624E+04  5.007398E+02  1.592536E+03
        90  10 -1.206750E+04 -8.860951E+03 -1.421461E+04  2.696040E+04 -1.885301E-10 -2.507749E-10
        90  11 -4.579887E+03  2.138863E+04 -8.474248E+03  2.259750E+04 -3.160688E-10  4.062877E-13
        90  12  1.700722E+03  5.100179E+04 -4.709062E+03  2.614138E+04 -6.454330E-11  3.210594E-10
        90  13 -4.470445E+02  3.983265E+04 -4.804727E+03  2.658376E+04 -3.347499E-10 -1.256035E-10
        90  14 -1.269062E+02  4.014332E+04 -4.963416E+03  2.263039E+04  5.412362E-11  6.406491E-11
        90  15 -9.973571E+02  3.983304E+04 -7.031823E+03  2.658381E+04  4.551086E-11 -9.986899E-11
        90  16  1.117327E+04  8.852854E+04  4.605046E+03  2.620709E+04 -5.596071E-11  2.471143E-10
        90  17  4.326054E+03  5.889835E+04 -1.452599E+03  2.266329E+04 -2.305575E-10 -7.765868E-11
        90  18 -3.695444E+03  2.866440E+04 -9.354590E+03  2.702624E+04 -1.986050E-11 -2.970179E-10
        90  19 -1.206749E+04 -8.860946E+03 -1.421459E+04  2.696040E+04  2.947412E+03 -1.606583E+03
        90  20 -4.579880E+03  2.138865E+04 -8.474212E+03  2.259750E+04  1.255787E+03 -4.176525E+03
        90  21  1.700735E+03  5.100184E+04 -4.708976E+03  2.614138E+04 -5.012897E+02 -6.746548E+03
        90  22 -4.470350E+02  3.983266E+04 -4.804709E+03  2.658376E+04  2.947633E+03  7.819031E+02
        90  23 -1.269037E+02  4.014332E+04 -4.963408E+03  2.263039E+04  1.256034E+03 -1.693826E+03
        90  24 -9.973522E+02  3.983306E+04 -7.031790E+03  2.658382E+04 -5.010166E+02 -4.169519E+03
        90  25  1.117328E+04  8.852855E+04  4.605081E+03  2.620709E+04  2.947851E+03  3.170573E+03
        90  26  4.326056E+03  5.889835E+04 -1.452595E+03  2.266329E+04  1.256281E+03  7.889460E+02
        90  27 -3.695443E+03  2.866441E+04 -9.354585E+03  2.702624E+04 -5.007398E+02 -1.592536E+03
        91   1  7.573840E+03  7.029043E+04 -2.379369E+03  2.893552E+04  1.730115E+03  8.332467E+03
        91   2  1.058509E+04  1.026943E+05 -1.776730E+03  1.598854E+04  2.564373E+03  1.240586E+04
        91   3 -3.888101E+03  1.301977E+05 -8.196841E+03  1.081553E+04  9.368298E+02  1.647951E+04
        91   4  1.156208E+01  3.874477E+04 -8.644338E+03  2.655407E+04  1.729777E+03  5.358397E+03
        91   5 -4.229523E+03  4.150311E+04 -1.466998E+04  2.266795E+04  2.564576E+03  1.297643E+04
        91   6 -2.657160E+04  3.874415E+04 -3.018028E+04  2.655607E+04  9.375840E+02  2.059445E+04
        91   7 -7.550750E+03  7.200096E+03 -1.490932E+04  2.417274E+04  1.729461E+03  2.384476E+03
        91   8 -1.904421E+04 -1.968449E+04 -2.756341E+04  2.934669E+04  2.564792E+03  1.354695E+04
        91   9 -4.925477E+04 -5.270121E+04 -5.216412E+04  4.229428E+04  9.385468E+02  2.470878E+04
        91  10  7.573818E+03  7.029035E+04 -2.379505E+03  2.893551E+04  8.934132E-11 -2.471060E-10
        91  11  1.058504E+04  1.026942E+05 -1.777031E+03  1.598852E+04 -3.527711E-10 -6.061717E-11
        91  12 -3.888175E+03  1.301974E+05 -8.197353E+03  1.081552E+04 -1.998189E-10  1.936518E-10
        91  13  1.155116E+01  3.874474E+04 -8.644398E+03  2.655406E+04  2.495354E-10 -1.378193E-10
        91  14 -4.229575E+03  4.150293E+04 -1.467031E+04  2.266792E+04 -2.008578E-11  5.812142E-11
        91  15 -2.657172E+04  3.874369E+04 -3.018108E+04  2.655606E+04 -8.507156E-12 -5.393589E-11
        91  16 -7.550755E+03  7.200090E+03 -1.490934E+04  2.417274E+04  1.923130E-10  2.385396E-10
        91  17 -1.904426E+04 -1.968469E+04 -2.756377E+04  2.934666E+04  2.131584E-10  3.048853E-12
        91  18 -4.925494E+04 -5.270186E+04 -5.216527E+04  4.229427E+04 -2.048484E-11 -1.829148E-10
        91  19  7.573840E+03  7.029043E+04 -2.379369E+03  2.893552E+04 -1.730115E+03 -8.332467E+03
        91  20  1.058509E+04  1.026943E+05 -1.776730E+03  1.598854E+04 -2.564373E+03 -1.240586E+04
        91  21 -3.888101E+03  1.301977E+05 -8.196841E+03  1.081553E+04 -9.368298E+02 -1.647951E+04
        91  22  1.156208E+01  3.874477E+04 -8.644338E+03  2.655407E+04 -1.729777E+03 -5.358397E+03
        91  23 -4.229523E+03  4.150311E+04 -1.466998E+04  2.266795E+04 -2.564576E+03 -1.297643E+04
        91  24 -2.657160E+04  3.874415E+04 -3.018028E+04  2.655607E+04 -9.375840E+02 -2.059445E+04
        91  25 -7.550750E+03  7.200096E+03 -1.490932E+04  2.417274E+04 -1.729461E+03 -2.384476E+03
        91  26 -1.904421E+04 -1.968449E+04 -2.756341E+04  2.934669E+04 -2.564792E+03 -1.354695E+04
        91  27 -4.925477E+04 -5.270121E+04 -5.216412E+04  4.229428E+04 -9.385468E+02 -2.470878E+04
        92   1  1.715467E+05  1.574520E+05  4.051423E+04  1.288145E+05  1.528654E+04  1.024967E+04
        92   2  1.576513E+05  1.273625E+05  2.280985E+04  1.251023E+05  9.829195E+03  3.787737E+03
        92   3  1.457990E+05  1.121667E+05  1.364312E+04  1.188659E+05  3.025155E+03 -8.782630E+02
        92   4  1.197508E+05  1.032956E+05  2.020435E+04  9.520379E+04  1.180921E+04  7.641097E+03
        92   5  1.158006E+05  9.042410E+04  9.636602E+03  1.007459E+05  8.938919E+03  3.119847E+03
        92   6  1.133329E+05  9.188570E+04  5.361973E+03  1.037635E+05  4.721744E+03  3.943421E+02
        92   7  6.795720E+04  4.914237E+04 -1.061849E+02  6.159637E+04  8.332206E+03  5.032967E+03
        92   8  7.395137E+04  5.348696E+04 -3.537061E+03  7.639121E+04  8.048712E+03  2.452028E+03
        92   9  8.086762E+04  7.160488E+04 -2.919377E+03  8.866183E+04  6.418234E+03  1.666887E+03
        92  10  1.715464E+05  1.574518E+05  4.051359E+04  1.288144E+05 -2.018107E-10 -8.176210E-11
        92  11  1.576512E+05  1.273624E+05  2.280965E+04  1.251023E+05 -1.234620E-10  1.150042E-10
        92  12  1.457989E+05  1.121667E+05  1.364310E+04  1.188659E+05 -1.627728E-10  1.402297E-10
        92  13  1.197506E+05  1.032955E+05  2.020398E+04  9.520371E+04 -2.512664E-11  2.096455E-11
        92  14  1.158005E+05  9.042407E+04  9.636433E+03  1.007459E+05 -2.778159E-10  2.807536E-10
        92  15  1.133329E+05  9.188569E+04  5.361931E+03  1.037635E+05 -2.949764E-10 -5.516759E-11
        92  16  6.795712E+04  4.914233E+04 -1.063629E+02  6.159633E+04  2.157801E-10  1.055367E-10
        92  17  7.395130E+04  5.348694E+04 -3.537194E+03  7.639119E+04 -9.213479E-11  2.329488E-11
        92  18  8.086757E+04  7.160487E+04 -2.919460E+03  8.866182E+04  1.688055E-11 -7.851003E-11
        92  19  1.715467E+05  1.574520E+05  4.051423E+04  1.288145E+05 -1.528654E+04 -1.024967E+04
        92  20  1.576513E+05  1.273625E+05  2.280985E+04  1.251023E+05 -9.829195E+03 -3.787737E+03
        92  21  1.457990E+05  1.121667E+05  1.364312E+04  1.188659E+05 -3.025155E+03  8.782630E+02
        92  22  1.197508E+05  1.032956E+05  2.020435E+04  9.520379E+04 -1.180921E+04 -7.641097E+03
        92  23  1.158006E+05  9.042410E+04  9.636602E+03  1.007459E+05 -8.938919E+03 -3.119847E+03
        92  24  1.133329E+05  9.188570E+04  5.361973E+03  1.037635E+05 -4.721744E+03 -3.943421E+02
        92  25  6.795720E+04  4.914237E+04 -1.061849E+02  6.159637E+04 -8.332206E+03 -5.032967E+03
        92  26  7.395137E+04  5.348696E+04 -3.537061E+03  7.639121E+04 -8.048712E+03 -2.452028E+03
        92  27  8.086762E+04  7.160488E+04 -2.919377E+03  8.866183E+04 -6.418234E+03 -1.666887E+03
        93   1  1.333027E+05  1.067535E+05  9.612103E+03  1.134310E+05  2.259007E+03 -3.718146E+02
        93   2  1.204890E+05  9.258681E+04  3.649758E+03  1.050943E+05  4.120657E+02 -1.628905E+02
        93   3  1.027200E+05  8.427657E+04 -1.287665E+03  9.819965E+04 -1.530001E+03  1.729891E+02
        93   4  1.130699E+05  9.208473E+04  4.120872E+03  1.030759E+05  3.637145E+03  6.619307E+02
        93   5  1.154397E+05  8.894890E+04  2.252456E+03  1.025260E+05  1.973007E+03  1.007974E+03
        93   6  1.128140E+05  9.162951E+04  1.250268E+03  1.034178E+05  2.136957E+02  1.480943E+03
        93   7  9.283781E+04  7.741642E+04 -1.370274E+03  9.272146E+04  5.015200E+03  1.695613E+03
        93   8  1.103904E+05  8.531104E+04  8.551814E+02  9.995780E+04  3.533919E+03  2.178816E+03
        93   9  1.229081E+05  9.898252E+04  3.788210E+03  1.086360E+05  1.957430E+03  2.788925E+03
        93  10  1.333027E+05  1.067535E+05  9.612093E+03  1.134310E+05 -2.468737E-10  7.028413E-12
        93  11  1.204890E+05  9.258681E+04  3.649757E+03  1.050943E+05  1.877049E-10  1.187519E-10
        93  12  1.027200E+05  8.427657E+04 -1.287670E+03  9.819965E+04 -2.854951E-10  8.263495E-11
        93  13  1.130699E+05  9.208472E+04  4.120847E+03  1.030759E+05 -2.697514E-11 -1.051109E-10
        93  14  1.154397E+05  8.894889E+04  2.252447E+03  1.025260E+05  2.876129E-13 -1.109777E-10
        93  15  1.128140E+05  9.162951E+04  1.250264E+03  1.034178E+05  5.010663E-11 -3.110484E-10
        93  16  9.283778E+04  7.741641E+04 -1.370327E+03  9.272145E+04  2.685553E-10  1.708178E-10
        93  17  1.103904E+05  8.531103E+04  8.551491E+02  9.995779E+04  2.523227E-10  2.280472E-10
        93  18  1.229081E+05  9.898251E+04  3.788188E+03  1.086360E+05  1.028720E-10 -4.968884E-11
        93  19  1.333027E+05  1.067535E+05  9.612103E+03  1.134310E+05 -2.259007E+03  3.718146E+02
        93  20  1.204890E+05  9.258681E+04  3.649758E+03  1.050943E+05 -4.120657E+02  1.628905E+02
        93  21  1.027200E+05  8.427657E+04 -1.287665E+03  9.819965E+04  1.530001E+03 -1.729891E+02
        93  22  1.130699E+05  9.208473E+04  4.120872E+03  1.030759E+05 -3.637145E+03 -6.619307E+02
        93  23  1.154397E+05  8.894890E+04  2.252456E+03  1.025260E+05 -1.973007E+03 -1.007974E+03
        93  24  1.128140E+05  9.162951E+04  1.250268E+03  1.034178E+05 -2.136957E+02 -1.480943E+03
        93  25  9.283781E+04  7.741642E+04 -1.370274E+03  9.272146E+04 -5.015200E+03 -1.695613E+03
        93  26  1.103904E+05  8.531104E+04  8.551814E+02  9.995780E+04 -3.533919E+03 -2.178816E+03
        93  27  1.229081E+05  9.898252E+04  3.788210E+03  1.086360E+05 -1.957430E+03 -2.788925E+03
        94   1  9.221400E+04  7.702509E+04 -4.370380E+03  9.294733E+04 -2.193166E+03  7.794850E+02
        94   2  7.954352E+04  6.351324E+04 -8.739860E+03  8.442071E+04 -3.246426E+03  1.852652E+03
        94   3  6.152015E+04  5.540065E+04 -1.297606E+04  7.746932E+04 -4.292328E+03  2.916120E+03
        94   4  1.127886E+05  9.163259E+04  9.191922E+02  1.033759E+05 -4.688027E+02  2.072927E+03
        94   5  1.154604E+05  8.892588E+04  4.369770E+02  1.025923E+05 -1.536099E+03  3.135518E+03
        94   6  1.127823E+05  9.162156E+04  1.003312E+02  1.033840E+05 -2.596035E+03  4.188400E+03
        94   7  1.333639E+05  1.062406E+05  6.208855E+03  1.138049E+05  1.255663E+03  3.366446E+03
        94   8  1.513787E+05  1.143393E+05  9.613728E+03  1.207652E+05  1.743602E+02  4.418485E+03
        94   9  1.640466E+05  1.278435E+05  1.317626E+04  1.293007E+05 -8.995794E+02  5.460803E+03
        94  10  9.221399E+04  7.702509E+04 -4.370390E+03  9.294733E+04 -3.368915E-10 -1.660986E-10
        94  11  7.954351E+04  6.351324E+04 -8.739886E+03  8.442071E+04 -1.878662E-10 -5.612103E-12
        94  12  6.152013E+04  5.540063E+04 -1.297611E+04  7.746933E+04  1.910669E-10  1.292046E-10
        94  13  1.127886E+05  9.163259E+04  9.191837E+02  1.033759E+05 -8.697800E-11  2.491257E-10
        94  14  1.154604E+05  8.892587E+04  4.369541E+02  1.025923E+05  4.031288E-10  2.608055E-10
        94  15  1.127822E+05  9.162154E+04  1.002855E+02  1.033840E+05  1.177255E-10  8.882342E-11
        94  16  1.333639E+05  1.062406E+05  6.208831E+03  1.138049E+05  2.985968E-10  7.188926E-11
        94  17  1.513787E+05  1.143393E+05  9.613691E+03  1.207652E+05  5.172036E-11 -8.785040E-11
        94  18  1.640466E+05  1.278434E+05  1.317620E+04  1.293007E+05 -1.849690E-10 -2.220669E-10
        94  19  9.221400E+04  7.702509E+04 -4.370380E+03  9.294733E+04  2.193166E+03 -7.794850E+02
        94  20  7.954352E+04  6.351324E+04 -8.739860E+03  8.442071E+04  3.246426E+03 -1.852652E+03
        94  21  6.152015E+04  5.540065E+04 -1.297606E+04  7.746932E+04  4.292328E+03 -2.916120E+03
        94  22  1.127886E+05  9.163259E+04  9.191922E+02  1.033759E+05  4.688027E+02 -2.072927E+03
        94  23  1.154604E+05  8.892588E+04  4.369770E+02  1.025923E+05  1.536099E+03 -3.135518E+03
        94  24  1.127823E+05  9.162156E+04  1.003312E+02  1.033840E+05  2.596035E+03 -4.188400E+03
        94  25  1.333639E+05  1.062406E+05  6.208855E+03  1.138049E+05 -1.255663E+03 -3.366446E+03
        94  26  1.513787E+05  1.143393E+05  9.613728E+03  1.207652E+05 -1.743602E+02 -4.418485E+03
        94  27  1.640466E+05  1.278435E+05  1.317626E+04  1.293007E+05  8.995794E+02 -5.460803E+03
        95   1  5.112549E+04  4.803609E+04 -1.588056E+04  7.221177E+04 -4.872257E+03  3.583680E+03
        95   2  3.844640E+04  3.458112E+04 -2.022281E+04  6.374249E+04 -5.146911E+03  5.060236E+03
        95   3  2.024493E+04  2.630931E+04 -2.504931E+04  5.686956E+04 -5.222093E+03  6.270958E+03
        95   4  1.127763E+05  9.161653E+04 -4.869966E+01  1.033692E+05 -3.129986E+03  4.890392E+03
        95   5  1.154667E+05  8.893218E+04 -3.748017E+02  1.026089E+05 -3.787475E+03  6.079706E+03
        95   6  1.127177E+05  9.151389E+04 -8.527766E+02  1.034446E+05 -4.245495E+03  7.003223E+03
        95   7  1.744315E+05  1.351993E+05  1.578288E+04  1.345302E+05 -1.387481E+03  6.197280E+03
        95   8  1.924943E+05  1.432872E+05  1.947295E+04  1.414811E+05 -2.427803E+03  7.099354E+03
        95   9  2.052016E+05  1.567245E+05  2.334354E+04  1.500284E+05 -3.268687E+03  7.735646E+03
        95  10  5.112546E+04  4.803607E+04 -1.588063E+04  7.221178E+04  5.152112E-11 -7.473567E-11
        95  11  3.844636E+04  3.458109E+04 -2.022291E+04  6.374252E+04 -2.754968E-11 -1.049732E-10
        95  12  2.024489E+04  2.630926E+04 -2.504943E+04  5.686959E+04 -1.388861E-10 -1.178020E-10
        95  13  1.127763E+05  9.161650E+04 -4.876302E+01  1.033692E+05 -1.659413E-11 -7.534405E-11
        95  14  1.154667E+05  8.893214E+04 -3.748982E+02  1.026089E+05  6.384562E-11 -1.056312E-10
        95  15  1.127176E+05  9.151384E+04 -8.529027E+02  1.034447E+05 -1.587231E-10 -9.001338E-11
        95  16  1.744315E+05  1.351992E+05  1.578281E+04  1.345302E+05  1.885339E-10 -4.492786E-11
        95  17  1.924943E+05  1.432872E+05  1.947284E+04  1.414811E+05 -1.781200E-10 -1.558280E-10
        95  18  2.052016E+05  1.567245E+05  2.334340E+04  1.500284E+05 -7.992383E-11  5.589359E-12
        95  19  5.112549E+04  4.803609E+04 -1.588056E+04  7.221177E+04  4.872257E+03 -3.583680E+03
        95  20  3.844640E+04  3.458112E+04 -2.022281E+04  6.374249E+04  5.146911E+03 -5.060236E+03
        95  21  2.024493E+04  2.630931E+04 -2.504931E+04  5.686956E+04  5.222093E+03 -6.270958E+03
        95  22  1.127763E+05  9.161653E+04 -4.869966E+01  1.033692E+05  3.129986E+03 -4.890392E+03
        95  23  1.154667E+05  8.893218E+04 -3.748017E+02  1.026089E+05  3.787475E+03 -6.079706E+03
        95  24  1.127177E+05  9.151389E+04 -8.527766E+02  1.034446E+05  4.245495E+03 -7.003223E+03
        95  25  1.744315E+05  1.351993E+05  1.578288E+04  1.345302E+05  1.387481E+03 -6.197280E+03
        95  26  1.924943E+05  1.432872E+05  1.947295E+04  1.414811E+05  2.427803E+03 -7.099354E+03
        95  27  2.052016E+05  1.567245E+05  2.334354E+04  1.500284E+05  3.268687E+03 -7.735646E+03
        96   1  1.010105E+04  1.844302E+04 -2.818624E+04  5.127703E+04 -6.273950E+03  6.537532E+03
        96   2 -3.754456E+03  6.108831E+03 -3.518746E+04  4.407725E+04  5.440994E+02  1.051080E+04
        96   3 -2.538143E+04 -4.328293E+03 -4.826205E+04  3.927828E+04  1.016335E+04  1.074731E+04
        96   4  1.127227E+05  9.149367E+04 -1.150830E+03  1.032719E+05 -4.634240E+03  7.767043E+03
        96   5  1.153036E+05  8.867953E+04 -2.140359E+03  1.030324E+05 -3.196204E+03  7.705715E+03
        96   6  1.112803E+05  8.892994E+04 -4.533660E+03  1.051933E+05  1.043000E+03  3.908340E+03
        96   7  2.153548E+05  1.645497E+05  2.588323E+04  1.552759E+05 -2.994187E+03  8.996815E+03
        96   8  2.343758E+05  1.712569E+05  3.090491E+04  1.619996E+05 -6.937429E+03  4.899962E+03
        96   9  2.479603E+05  1.821961E+05  3.919226E+04  1.711235E+05 -8.079984E+03 -2.932495E+03
        96  10  1.010100E+04  1.844296E+04 -2.818640E+04  5.127706E+04 -1.208983E-10 -1.040403E-10
        96  11 -3.754486E+03  6.108712E+03 -3.518766E+04  4.407724E+04 -1.206112E-10  1.504558E-10
        96  12 -2.538157E+04 -4.328445E+03 -4.826246E+04  3.927819E+04  8.593445E-11  1.579004E-10
        96  13  1.127226E+05  9.149360E+04 -1.150984E+03  1.032719E+05 -2.008652E-10 -2.676164E-14
        96  14  1.153035E+05  8.867946E+04 -2.140490E+03  1.030324E+05 -4.548175E-11 -1.709952E-10
        96  15  1.112803E+05  8.892992E+04 -4.533691E+03  1.051933E+05  3.492104E-11 -7.548054E-11
        96  16  2.153548E+05  1.645496E+05  2.588306E+04  1.552759E+05 -1.202459E-10  6.801271E-11
        96  17  2.343758E+05  1.712569E+05  3.090477E+04  1.619996E+05  3.939892E-11  2.734759E-11
        96  18  2.479603E+05  1.821961E+05  3.919212E+04  1.711235E+05 -2.274824E-11 -5.640871E-11
        96  19  1.010105E+04  1.844302E+04 -2.818624E+04  5.127703E+04  6.273950E+03 -6.537532E+03
        96  20 -3.754456E+03  6.108831E+03 -3.518746E+04  4.407725E+04 -5.440994E+02 -1.051080E+04
        96  21 -2.538143E+04 -4.328293E+03 -4.826205E+04  3.927828E+04 -1.016335E+04 -1.074731E+04
        96  22  1.127227E+05  9.149367E+04 -1.150830E+03  1.032719E+05  4.634240E+03 -7.767043E+03
        96  23  1.153036E+05  8.867953E+04 -2.140359E+03  1.030324E+05  3.196204E+03 -7.705715E+03
        96  24  1.112803E+05  8.892994E+04 -4.533660E+03  1.051933E+05 -1.043000E+03 -3.908340E+03
        96  25  2.153548E+05  1.645497E+05  2.588323E+04  1.552759E+05  2.994187E+03 -8.996815E+03
        96  26  2.343758E+05  1.712569E+05  3.090491E+04  1.619996E+05  6.937429E+03 -4.899962E+03
        96  27  2.479603E+05  1.821961E+05  3.919226E+04  1.711235E+05  8.079984E+03  2.932495E+03
        97   1 -2.815280E+03  1.457012E+05  1.340228E+03 -8.613204E+03 -1.494827E+03  1.081355E+04
        97   2 -1.971342E+04  1.490883E+05 -7.272768E+03 -1.542592E+03 -4.980997E+03  8.103048E+03
        97   3 -2.187561E+04  1.565136E+05 -1.043695E+04  6.792650E+03 -5.911000E+03  5.392454E+03
        97   4  2.258134E+04  2.484311E+05  2.561598E+04  4.752887E+03 -1.494482E+03  1.767740E+04
        97   5  3.599221E+03  2.460944E+05  1.230361E+04  4.121075E+03 -4.980753E+03  1.128452E+04
        97   6 -9.307382E+00  2.484341E+05  6.995988E+03  4.753780E+03 -5.910973E+03  4.891569E+03
        97   7  4.797789E+04  3.511712E+05  4.989127E+04  1.812120E+04 -1.493841E+03  2.454237E+04
        97   8  2.691140E+04  3.431095E+05  3.187956E+04  9.785643E+03 -4.980451E+03  1.446648E+04
        97   9  2.185652E+04  3.403628E+05  2.442855E+04  2.714601E+03 -5.910942E+03  4.390611E+03
        97  10 -2.815313E+03  1.457011E+05  1.340004E+03 -8.613191E+03 -2.088407E-11 -8.806588E-11
        97  11 -1.971346E+04  1.490882E+05 -7.272938E+03 -1.542559E+03 -7.408703E-11  3.879419E-13
        97  12 -2.187566E+04  1.565136E+05 -1.043707E+04  6.792676E+03 -6.681786E-11 -5.934964E-11
        97  13  2.258125E+04  2.484308E+05  2.561539E+04  4.752908E+03 -3.326723E-12 -5.114038E-12
        97  14  3.599161E+03  2.460942E+05  1.230333E+04  4.121120E+03  1.383534E-10  6.204970E-11
        97  15 -9.351326E+00  2.484341E+05  6.995877E+03  4.753803E+03 -1.272644E-10  1.552356E-11
        97  16  4.797773E+04  3.511706E+05  4.989014E+04  1.812123E+04 -8.753219E-11  7.014311E-11
        97  17  2.691132E+04  3.431093E+05  3.187912E+04  9.785701E+03 -1.931241E-11  8.842185E-11
        97  18  2.185647E+04  3.403628E+05  2.442845E+04  2.714622E+03  1.385682E-10  3.240818E-11
        97  19 -2.815280E+03  1.457012E+05  1.340228E+03 -8.613204E+03  1.494827E+03 -1.081355E+04
        97  20 -1.971342E+04  1.490883E+05 -7.272768E+03 -1.542592E+03  4.980997E+03 -8.103048E+03
        97  21 -2.187561E+04  1.565136E+05 -1.043695E+04  6.792650E+03  5.911000E+03 -5.392454E+03
        97  22  2.258134E+04  2.484311E+05  2.561598E+04  4.752887E+03  1.494482E+03 -1.767740E+04
        97  23  3.599221E+03  2.460944E+05  1.230361E+04  4.121075E+03  4.980753E+03 -1.128452E+04
        97  24 -9.307382E+00  2.484341E+05  6.995988E+03  4.753780E+03  5.910973E+03 -4.891569E+03
        97  25  4.797789E+04  3.511712E+05  4.989127E+04  1.812120E+04  1.493841E+03 -2.454237E+04
        97  26  2.691140E+04  3.431095E+05  3.187956E+04  9.785643E+03  4.980451E+03 -1.446648E+04
        97  27  2.185652E+04  3.403628E+05  2.442855E+04  2.714601E+03  5.910942E+03 -4.390611E+03
        98   1 -2.010862E+04  1.593096E+05 -1.119071E+04  4.462906E+03 -5.707755E+03  3.983105E+03
        98   2 -1.956175E+04  1.645052E+05 -1.213837E+04  4.030977E+03 -5.542859E+03  2.725917E+03
        98   3 -1.828155E+04  1.700485E+05 -1.208417E+04  5.017284E+03 -5.089495E+03  1.468677E+03
        98   4  8.608005E+02  2.474881E+05  5.497587E+03  4.787804E+03 -5.707687E+03  3.953617E+03
        98   5  8.749122E+01  2.472784E+05  3.353500E+03  4.078729E+03 -5.542834E+03  2.280752E+03
        98   6  1.196006E+02  2.474886E+05  2.499758E+03  4.787876E+03 -5.089530E+03  6.078446E+02
        98   7  2.182976E+04  3.356740E+05  2.218554E+04  5.112750E+03 -5.707619E+03  3.924126E+03
        98   8  1.973634E+04  3.300583E+05  1.884508E+04  4.126488E+03 -5.542808E+03  1.835529E+03
        98   9  1.852040E+04  3.249345E+05  1.708343E+04  4.558439E+03 -5.089564E+03 -2.530921E+02
        98  10 -2.010866E+04  1.593096E+05 -1.119080E+04  4.462924E+03 -7.622707E-11 -3.902896E-10
        98  11 -1.956179E+04  1.645051E+05 -1.213844E+04  4.030989E+03 -2.262536E-10  9.254055E-11
        98  12 -1.828158E+04  1.700484E+05 -1.208422E+04  5.017290E+03  1.589220E-10  1.271037E-10
        98  13  8.607613E+02  2.474880E+05  5.497496E+03  4.787822E+03 -2.520208E-10  6.987685E-11
        98  14  8.745682E+01  2.472784E+05  3.353432E+03  4.078740E+03  2.964050E-11  1.539522E-10
        98  15  1.195727E+02  2.474886E+05  2.499709E+03  4.787878E+03 -4.700903E-11  2.781761E-11
        98  16  2.182972E+04  3.356740E+05  2.218545E+04  5.112768E+03  1.299195E-10  3.117248E-10
        98  17  1.973630E+04  3.300583E+05  1.884501E+04  4.126497E+03  5.410438E-11  1.525271E-10
        98  18  1.852038E+04  3.249345E+05  1.708338E+04  4.558438E+03 -2.303711E-10 -1.733379E-10
        98  19 -2.010862E+04  1.593096E+05 -1.119071E+04  4.462906E+03  5.707755E+03 -3.983105E+03
        98  20 -1.956175E+04  1.645052E+05 -1.213837E+04  4.030977E+03  5.542859E+03 -2.725917E+03
        98  21 -1.828155E+04  1.700485E+05 -1.208417E+04  5.017284E+03  5.089495E+03 -1.468677E+03
        98  22  8.608005E+02  2.474881E+05  5.497587E+03  4.787804E+03  5.707687E+03 -3.953617E+03
        98  23  8.749122E+01  2.472784E+05  3.353500E+03  4.078729E+03  5.542834E+03 -2.280752E+03
        98  24  1.196006E+02  2.474886E+05  2.499758E+03  4.787876E+03  5.089530E+03 -6.078446E+02
        98  25  2.182976E+04  3.356740E+05  2.218554E+04  5.112750E+03  5.707619E+03 -3.924126E+03
        98  26  1.973634E+04  3.300583E+05  1.884508E+04  4.126488E+03  5.542808E+03 -1.835529E+03
        98  27  1.852040E+04  3.249345E+05  1.708343E+04  4.558439E+03  5.089564E+03  2.530921E+02
        99   1 -1.754566E+04  1.737231E+05 -1.155552E+04  4.508804E+03 -4.853546E+03  7.723486E+02
        99   2 -1.575833E+04  1.788204E+05 -1.090612E+04  5.105490E+03 -3.708459E+03  1.556490E+03
        99   3 -1.159916E+04  1.844087E+05 -1.017416E+04  7.216435E+03 -1.055059E+03  2.340393E+03
        99   4  6.333927E+00  2.475884E+05  2.356151E+03  4.809284E+03 -4.853560E+03  2.094291E+02
        99   5  6.253772E+02  2.471542E+05  2.696338E+03  4.051934E+03 -3.708771E+03 -1.178947E+03
        99   6  3.993206E+03  2.475882E+05  4.627346E+03  4.808827E+03 -1.055749E+03 -2.567538E+03
        99   7  1.755801E+04  3.214589E+05  1.626759E+04  5.109801E+03 -4.853574E+03 -3.535558E+02
        99   8  1.700881E+04  3.154926E+05  1.629859E+04  2.998260E+03 -3.709073E+03 -3.914678E+03
        99   9  1.958532E+04  3.107714E+05  1.942867E+04  2.400973E+03 -1.056400E+03 -7.475964E+03
        99  10 -1.754569E+04  1.737231E+05 -1.155557E+04  4.508807E+03  2.551345E-10 -7.111729E-11
        99  11 -1.575835E+04  1.788204E+05 -1.090615E+04  5.105495E+03  2.263540E-10  2.163967E-10
        99  12 -1.159916E+04  1.844087E+05 -1.017417E+04  7.216437E+03  8.513948E-11 -1.275145E-10
        99  13  6.308617E+00  2.475884E+05  2.356107E+03  4.809285E+03 -5.664885E-11  1.053465E-10
        99  14  6.253620E+02  2.471542E+05  2.696310E+03  4.051931E+03 -1.675360E-10  2.531188E-10
        99  15  3.993203E+03  2.475882E+05  4.627332E+03  4.808825E+03  2.218052E-11  3.249788E-11
        99  16  1.755799E+04  3.214589E+05  1.626754E+04  5.109799E+03 -4.364091E-11 -4.113000E-11
        99  17  1.700879E+04  3.154926E+05  1.629854E+04  2.998249E+03  1.341488E-11  1.909242E-10
        99  18  1.958531E+04  3.107714E+05  1.942856E+04  2.400967E+03  4.730724E-12  4.133658E-11
        99  19 -1.754566E+04  1.737231E+05 -1.155552E+04  4.508804E+03  4.853546E+03 -7.723486E+02
        99  20 -1.575833E+04  1.788204E+05 -1.090612E+04  5.105490E+03  3.708459E+03 -1.556490E+03
        99  21 -1.159916E+04  1.844087E+05 -1.017416E+04  7.216435E+03  1.055059E+03 -2.340393E+03
        99  22  6.333927E+00  2.475884E+05  2.356151E+03  4.809284E+03  4.853560E+03 -2.094291E+02
        99  23  6.253772E+02  2.471542E+05  2.696338E+03  4.051934E+03  3.708771E+03  1.178947E+03
        99  24  3.993206E+03  2.475882E+05  4.627346E+03  4.808827E+03  1.055749E+03  2.567538E+03
        99  25  1.755801E+04  3.214589E+05  1.626759E+04  5.109801E+03  4.853574E+03  3.535558E+02
        99  26  1.700881E+04  3.154926E+05  1.629859E+04  2.998260E+03  3.709073E+03  3.914678E+03
        99  27  1.958532E+04  3.107714E+05  1.942867E+04  2.400973E+03  1.056400E+03  7.475964E+03
       100   1  9.463318E+05  1.863283E+05  1.691437E+05  1.007263E+05  1.308143E+04 -1.277634E+04
       100   2  7.959829E+05  1.905731E+05  1.380207E+05  1.011077E+05 -6.923060E+03 -4.029816E+04
       100   3  6.402202E+05  1.619844E+05  1.117202E+05  1.403361E+05 -2.690084E+04 -4.251028E+04
       100   4 -4.046390E+04 -5.790675E+04 -6.546815E+04  1.353508E+05 -4.481131E+04 -1.274009E+04
       100   5 -3.453482E+04 -9.423314E+03 -3.173685E+04  1.159387E+05 -2.833959E+04 -4.029234E+04
       100   6 -4.038248E+04 -1.277630E+02 -1.850947E+04  1.353797E+05 -1.184495E+04 -4.251821E+04
       100   7 -1.026357E+06 -3.022057E+05 -3.001348E+05  1.699202E+05 -1.026126E+05 -1.271026E+04
       100   8 -8.643961E+05 -2.094619E+05 -2.015290E+05  1.307495E+05 -4.972799E+04 -4.028754E+04
       100   9 -7.205388E+05 -1.622670E+05 -1.487594E+05  1.304288E+05  3.194842E+03 -4.252639E+04
       100  10  9.463316E+05  1.863281E+05  1.691431E+05  1.007264E+05 -4.697713E-08 -5.542948E-10
       100  11  7.959824E+05  1.905714E+05  1.380175E+05  1.011075E+05  2.090710E-09 -1.237383E-09
       100  12  6.402189E+05  1.619822E+05  1.117155E+05  1.403351E+05  5.184349E-08 -7.683226E-11
       100  13 -4.046610E+04 -5.790746E+04 -6.547223E+04  1.353504E+05 -2.598637E-10 -5.824551E-10
       100  14 -3.453611E+04 -9.425273E+03 -3.174141E+04  1.159378E+05  1.485169E-10 -1.262820E-09
       100  15 -4.038312E+04 -1.297417E+02 -1.851313E+04  1.353793E+05 -6.520075E-12 -3.416781E-11
       100  16 -1.026368E+06 -3.022087E+05 -3.001550E+05  1.699191E+05  4.743903E-08 -6.288346E-10
       100  17 -8.643992E+05 -2.094643E+05 -2.015367E+05  1.307479E+05 -1.325842E-09 -1.287834E-09
       100  18 -7.205393E+05 -1.622689E+05 -1.487628E+05  1.304289E+05 -5.106532E-08 -1.064318E-12
       100  19  9.463318E+05  1.863283E+05  1.691437E+05  1.007263E+05 -1.308143E+04  1.277634E+04
       100  20  7.959829E+05  1.905731E+05  1.380207E+05  1.011077E+05  6.923060E+03  4.029816E+04
       100  21  6.402202E+05  1.619844E+05  1.117202E+05  1.403361E+05  2.690084E+04  4.251028E+04
       100  22 -4.046390E+04 -5.790675E+04 -6.546815E+04  1.353508E+05  4.481131E+04  1.274009E+04
       100  23 -3.453482E+04 -9.423314E+03 -3.173685E+04  1.159387E+05  2.833959E+04  4.029234E+04
       100  24 -4.038248E+04 -1.277630E+02 -1.850947E+04  1.353797E+05  1.184495E+04  4.251821E+04
       100  25 -1.026357E+06 -3.022057E+05 -3.001348E+05  1.699202E+05  1.026126E+05  1.271026E+04
       100  26 -8.643961E+05 -2.094619E+05 -2.015290E+05  1.307495E+05  4.972799E+04  4.028754E+04
       100  27 -7.205388E+05 -1.622670E+05 -1.487594E+05  1.304288E+05 -3.194842E+03  4.252639E+04
       101   1  5.380449E+05  1.348233E+05  9.495695E+04  1.347190E+05 -1.987764E+04 -3.634214E+04
       101   2  3.855057E+05  1.002257E+05  6.915087E+04  1.151195E+05 -1.730345E+04 -2.814492E+04
       101   3  2.323559E+05  6.416983E+04  4.132086E+04  1.359017E+05 -1.473254E+04 -1.821428E+04
       101   4 -3.797690E+04 -2.323804E+03 -1.493187E+04  1.357135E+05 -9.308580E+03 -3.634715E+04
       101   5 -3.742244E+04 -2.062243E+02 -1.017178E+04  1.155218E+05 -4.241954E+03 -2.814828E+04
       101   6 -3.793504E+04  2.055808E+01 -9.168208E+03  1.357138E+05  8.219903E+02 -1.821535E+04
       101   7 -6.136789E+05 -1.394904E+05 -1.248353E+05  1.367070E+05  1.250918E+03 -3.635213E+04
       101   8 -4.601773E+05 -1.006485E+05 -8.950155E+04  1.159238E+05  8.810871E+03 -2.815161E+04
       101   9 -3.081548E+05 -6.413280E+04 -5.965951E+04  1.355258E+05  1.636993E+04 -1.821642E+04
       101  10  5.380441E+05  1.348218E+05  9.495373E+04  1.347184E+05  9.879463E-10  1.477342E-09
       101  11  3.855051E+05  1.002248E+05  6.914882E+04  1.151191E+05  8.424947E-10  2.599953E-09
       101  12  2.323556E+05  6.416942E+04  4.131983E+04  1.359015E+05  7.558309E-10  1.063096E-09
       101  13 -3.797735E+04 -2.325245E+03 -1.493452E+04  1.357132E+05  2.723626E-10  1.560658E-09
       101  14 -3.742267E+04 -2.070799E+02 -1.017330E+04  1.155217E+05  3.528122E-12  2.701039E-09
       101  15 -3.793513E+04  2.020161E+01 -9.168833E+03  1.357138E+05 -3.246010E-10  1.025573E-09
       101  16 -6.136793E+05 -1.394918E+05 -1.248378E+05  1.367070E+05 -8.530613E-10  1.608262E-09
       101  17 -4.601776E+05 -1.006493E+05 -8.950318E+04  1.159240E+05 -6.387697E-10  2.785932E-09
       101  18 -3.081552E+05 -6.413323E+04 -5.966063E+04  1.355261E+05 -1.304322E-09  1.053060E-09
       101  19  5.380449E+05  1.348233E+05  9.495695E+04  1.347190E+05  1.987764E+04  3.634214E+04
       101  20  3.855057E+05  1.002257E+05  6.915087E+04  1.151195E+05  1.730345E+04  2.814492E+04
       101  21  2.323559E+05  6.416983E+04  4.132086E+04  1.359017E+05  1.473254E+04  1.821428E+04
       101  22 -3.797690E+04 -2.323804E+03 -1.493187E+04  1.357135E+05  9.308580E+03  3.634715E+04
       101  23 -3.742244E+04 -2.062243E+02 -1.017178E+04  1.155218E+05  4.241954E+03  2.814828E+04
       101  24 -3.793504E+04  2.055808E+01 -9.168208E+03  1.357138E+05 -8.219903E+02  1.821535E+04
       101  25 -6.136789E+05 -1.394904E+05 -1.248353E+05  1.367070E+05 -1.250918E+03  3.635213E+04
       101  26 -4.601773E+05 -1.006485E+05 -8.950155E+04  1.159238E+05 -8.810871E+03  2.815161E+04
       101  27 -3.081548E+05 -6.413280E+04 -5.965951E+04  1.355258E+05 -1.636993E+04  1.821642E+04
       102   1  1.286703E+05  3.954207E+04  2.083296E+04  1.351577E+05 -1.293230E+04 -1.184466E+04
       102   2 -2.326101E+04  2.927222E+03 -1.127283E+04  1.158468E+05 -4.995377E+03 -1.596926E+03
       102   3 -1.769358E+05 -3.673495E+04 -4.930257E+04  1.369659E+05  2.939067E+03  7.734589E+03
       102   4 -3.803074E+04  9.004061E+01 -9.736115E+03  1.357241E+05  2.485697E+03 -1.184493E+04
       102   5 -3.726093E+04 -2.734028E+02 -1.327567E+04  1.155090E+05  9.101216E+03 -1.597095E+03
       102   6 -3.802938E+04 -3.454040E+03 -2.182180E+04  1.357240E+05  1.571614E+04  7.734538E+03
       102   7 -2.047043E+05 -3.936343E+04 -4.030543E+04  1.362904E+05  1.789967E+04 -1.184516E+04
       102   8 -5.126023E+04 -3.473929E+03 -1.527776E+04  1.151711E+05  2.319751E+04 -1.597280E+03
       102   9  1.008958E+05  2.982579E+04  5.658628E+03  1.344819E+05  2.849600E+04  7.734434E+03
       102  10  1.286701E+05  3.954187E+04  2.083238E+04  1.351576E+05 -4.901007E-08 -8.598288E-10
       102  11 -2.326103E+04  2.927212E+03 -1.127288E+04  1.158468E+05  3.557231E-10 -2.543243E-09
       102  12 -1.769358E+05 -3.673502E+04 -4.930270E+04  1.369659E+05  5.108188E-08 -1.507633E-09
       102  13 -3.803078E+04  8.988828E+01 -9.736390E+03  1.357241E+05  3.921000E-12 -9.384227E-10
       102  14 -3.726102E+04 -2.734278E+02 -1.327583E+04  1.155090E+05  4.991393E-12 -2.690444E-09
       102  15 -3.802966E+04 -3.454171E+03 -2.182238E+04  1.357239E+05  3.140855E-10 -1.642172E-09
       102  16 -2.047047E+05 -3.936367E+04 -4.030630E+04  1.362905E+05  4.873081E-08 -1.064321E-09
       102  17 -5.126081E+04 -3.474076E+03 -1.527878E+04  1.151711E+05 -1.087098E-09 -2.833180E-09
       102  18  1.008949E+05  2.982551E+04  5.656990E+03  1.344817E+05 -5.070174E-08 -1.748889E-09
       102  19  1.286703E+05  3.954207E+04  2.083296E+04  1.351577E+05  1.293230E+04  1.184466E+04
       102  20 -2.326101E+04  2.927222E+03 -1.127283E+04  1.158468E+05  4.995377E+03  1.596926E+03
       102  21 -1.769358E+05 -3.673495E+04 -4.930257E+04  1.369659E+05 -2.939067E+03 -7.734589E+03
       102  22 -3.803074E+04  9.004061E+01 -9.736115E+03  1.357241E+05 -2.485697E+03  1.184493E+04
       102  23 -3.726093E+04 -2.734028E+02 -1.327567E+04  1.155090E+05 -9.101216E+03  1.597095E+03
       102  24 -3.802938E+04 -3.454040E+03 -2.182180E+04  1.357240E+05 -1.571614E+04 -7.734538E+03
       102  25 -2.047043E+05 -3.936343E+04 -4.030543E+04  1.362904E+05 -1.789967E+04  1.184516E+04
       102  26 -5.126023E+04 -3.473929E+03 -1.527776E+04  1.151711E+05 -2.319751E+04  1.597280E+03
       102  27  1.008958E+05  2.982579E+04  5.658628E+03  1.344819E+05 -2.849600E+04 -7.734434E+03
       103   1 -2.847761E+05 -5.810941E+04 -7.540678E+04  1.274481E+05  4.086475E+03  1.400102E+04
       103   2 -4.265628E+05 -1.096590E+05 -1.311654E+05  1.383001E+05  5.056923E+04  1.733856E+04
       103   3 -5.905270E+05 -2.259727E+05 -2.333802E+05  1.886876E+05  9.703460E+04  6.029854E+03
       103   4 -4.181055E+04  1.720826E+01 -2.777908E+04  1.355309E+05  1.944185E+04  1.400037E+04
       103   5 -3.257047E+04 -1.437731E+04 -4.889414E+04  1.157518E+05  4.485300E+04  1.733654E+04
       103   6 -4.185034E+04 -8.985361E+04 -1.018121E+05  1.355147E+05  7.025872E+04  6.026112E+03
       103   7  2.012122E+05  5.814063E+04  1.984669E+04  1.436168E+05  3.480310E+04  1.400013E+04
       103   8  3.615700E+05  8.089640E+04  3.336897E+04  9.318903E+04  3.913319E+04  1.733493E+04
       103   9  5.071098E+05  4.625461E+04  2.973885E+04  8.229450E+04  4.345924E+04  6.026965E+03
       103  10 -2.847761E+05 -5.810962E+04 -7.540718E+04  1.274480E+05  1.851975E-09  1.320913E-11
       103  11 -4.265657E+05 -1.096600E+05 -1.311708E+05  1.382994E+05  1.937227E-09  1.223131E-09
       103  12 -5.905371E+05 -2.259752E+05 -2.333979E+05  1.886872E+05  2.592640E-09  5.476886E-10
       103  13 -4.181101E+04  1.689639E+01 -2.778016E+04  1.355306E+05  1.333690E-09 -6.457849E-12
       103  14 -3.257271E+04 -1.437817E+04 -4.889849E+04  1.157512E+05  4.105109E-10  1.393631E-09
       103  15 -4.185565E+04 -8.985497E+04 -1.018214E+05  1.355143E+05 -1.208787E-10  6.880481E-10
       103  16  2.012109E+05  5.814010E+04  1.984405E+04  1.436164E+05 -8.856657E-10 -3.073726E-12
       103  17  3.615683E+05  8.089567E+04  3.336553E+04  9.318849E+04 -1.812071E-09  1.456577E-09
       103  18  5.071078E+05  4.625406E+04  2.973524E+04  8.229429E+04 -2.139228E-09  6.745164E-10
       103  19 -2.847761E+05 -5.810941E+04 -7.540678E+04  1.274481E+05 -4.086475E+03 -1.400102E+04
       103  20 -4.265628E+05 -1.096590E+05 -1.311654E+05  1.383001E+05 -5.056923E+04 -1.733856E+04
       103  21 -5.905270E+05 -2.259727E+05 -2.333802E+05  1.886876E+05 -9.703460E+04 -6.029854E+03
       103  22 -4.181055E+04  1.720826E+01 -2.777908E+04  1.355309E+05 -1.944185E+04 -1.400037E+04
       103  23 -3.257047E+04 -1.437731E+04 -4.889414E+04  1.157518E+05 -4.485300E+04 -1.733654E+04
       103  24 -4.185034E+04 -8.985361E+04 -1.018121E+05  1.355147E+05 -7.025872E+04 -6.026112E+03
       103  25  2.012122E+05  5.814063E+04  1.984669E+04  1.436168E+05 -3.480310E+04 -1.400013E+04
       103  26  3.615700E+05  8.089640E+04  3.336897E+04  9.318903E+04 -3.913319E+04 -1.733493E+04
       103  27  5.071098E+05  4.625461E+04  2.973885E+04  8.229450E+04 -4.345924E+04 -6.026965E+03
       104   1 -3.090784E+04  7.391570E+04 -3.961320E+04  6.873748E+04  1.997316E+03 -3.211311E+04
       104   2  2.288536E+04  1.211858E+05 -3.124582E+03  4.504380E+04  7.778058E+03 -1.998648E+04
       104   3  4.115391E+04  1.579754E+05  1.658053E+04  3.262132E+04  1.168301E+04 -7.857060E+03
       104   4 -5.286308E+04 -1.512246E+04 -5.998230E+04  3.738016E+04  1.989574E+03 -4.176496E+04
       104   5 -8.390042E+03 -9.647829E+03 -2.852668E+04  3.171974E+04  7.772085E+03 -2.693970E+04
       104   6  8.507025E+01 -1.512579E+04 -1.572971E+04  3.733250E+04  1.167932E+04 -1.211220E+04
       104   7 -7.481514E+04 -1.041510E+05 -8.035104E+04  6.027375E+03  1.982805E+03 -5.141544E+04
       104   8 -3.966577E+04 -1.404646E+05 -5.392931E+04  1.839854E+04  7.766410E+03 -3.389148E+04
       104   9 -4.098540E+04 -1.881979E+05 -4.804116E+04  4.204233E+04  1.167557E+04 -1.636618E+04
       104  10 -3.090812E+04  7.391459E+04 -3.961515E+04  6.873753E+04 -2.319532E-10 -6.556720E-10
       104  11  2.288518E+04  1.211854E+05 -3.125447E+03  4.504393E+04 -1.634542E-10  2.255566E-10
       104  12  4.115374E+04  1.579753E+05  1.658016E+04  3.262139E+04  2.997860E-11  1.073907E-09
       104  13 -5.286355E+04 -1.512433E+04 -5.998558E+04  3.738023E+04 -3.840353E-11  4.197451E-12
       104  14 -8.390301E+03 -9.648625E+03 -2.852816E+04  3.171990E+04 -6.085818E-10 -1.637561E-11
       104  15  8.488437E+01 -1.512599E+04 -1.573025E+04  3.733262E+04 -3.545969E-10 -2.509349E-11
       104  16 -7.481586E+04 -1.041538E+05 -8.035601E+04  6.027457E+03 -2.151807E-10  6.602728E-10
       104  17 -3.966615E+04 -1.404658E+05 -5.393158E+04  1.839875E+04 -9.428542E-11 -2.561956E-10
       104  18 -4.098562E+04 -1.881982E+05 -4.804192E+04  4.204249E+04  3.032480E-10 -1.022447E-09
       104  19 -3.090784E+04  7.391570E+04 -3.961320E+04  6.873748E+04 -1.997316E+03  3.211311E+04
       104  20  2.288536E+04  1.211858E+05 -3.124582E+03  4.504380E+04 -7.778058E+03  1.998648E+04
       104  21  4.115391E+04  1.579754E+05  1.658053E+04  3.262132E+04 -1.168301E+04  7.857060E+03
       104  22 -5.286308E+04 -1.512246E+04 -5.998230E+04  3.738016E+04 -1.989574E+03  4.176496E+04
       104  23 -8.390042E+03 -9.647829E+03 -2.852668E+04  3.171974E+04 -7.772085E+03  2.693970E+04
       104  24  8.507025E+01 -1.512579E+04 -1.572971E+04  3.733250E+04 -1.167932E+04  1.211220E+04
       104  25 -7.481514E+04 -1.041510E+05 -8.035104E+04  6.027375E+03 -1.982805E+03  5.141544E+04
       104  26 -3.966577E+04 -1.404646E+05 -5.392931E+04  1.839854E+04 -7.766410E+03  3.389148E+04
       104  27 -4.098540E+04 -1.881979E+05 -4.804116E+04  4.204233E+04 -1.167557E+04  1.636618E+04
       105   1  4.586448E+04  1.886244E+05  2.577730E+04  3.808162E+04  1.345321E+04 -5.348281E+03
       105   2  5.766465E+04  2.309313E+05  3.934554E+04  3.203218E+04  1.629945E+04 -3.472264E+03
       105   3  6.820469E+04  2.726675E+05  5.137357E+04  3.708209E+04  1.829644E+04 -1.594937E+03
       105   4 -1.981527E+03 -1.286849E+04 -1.197417E+04  3.730261E+04  1.344938E+04 -1.005469E+04
       105   5 -1.236607E+02 -1.247947E+04 -6.215867E+03  3.175186E+04  1.629708E+04 -6.956312E+03
       105   6  2.617539E+02 -1.287511E+04 -2.846723E+03  3.730078E+04  1.829536E+04 -3.856735E+03
       105   7 -4.982987E+04 -2.143220E+05 -4.972730E+04  3.652385E+04  1.344556E+04 -1.475962E+04
       105   8 -5.791539E+04 -2.558330E+05 -5.177978E+04  3.147165E+04  1.629470E+04 -1.043903E+04
       105   9 -6.768595E+04 -2.983391E+05 -5.707065E+04  3.751934E+04  1.829428E+04 -6.117518E+03
       105  10  4.586428E+04  1.886243E+05  2.577691E+04  3.808168E+04 -2.524937E-10 -8.541824E-10
       105  11  5.766436E+04  2.309312E+05  3.934502E+04  3.203222E+04  1.506672E-10 -1.711355E-10
       105  12  6.820433E+04  2.726675E+05  5.137294E+04  3.708211E+04 -1.349845E-10  6.106623E-10
       105  13 -1.981749E+03 -1.286865E+04 -1.197470E+04  3.730272E+04  6.795367E-11 -1.364016E-11
       105  14 -1.239589E+02 -1.247959E+04 -6.216457E+03  3.175195E+04 -2.280960E-10 -4.858387E-11
       105  15  2.613904E+02 -1.287521E+04 -2.847380E+03  3.730083E+04 -3.750038E-10 -2.507904E-11
       105  16 -4.983012E+04 -2.143223E+05 -4.972805E+04  3.652401E+04  5.452662E-10  8.364056E-10
       105  17 -5.791570E+04 -2.558331E+05 -5.178049E+04  3.147179E+04  1.242709E-10  2.363489E-10
       105  18 -6.768632E+04 -2.983393E+05 -5.707134E+04  3.751943E+04 -1.202336E-10 -6.826720E-10
       105  19  4.586448E+04  1.886244E+05  2.577730E+04  3.808162E+04 -1.345321E+04  5.348281E+03
       105  20  5.766465E+04  2.309313E+05  3.934554E+04  3.203218E+04 -1.629945E+04  3.472264E+03
       105  21  6.820469E+04  2.726675E+05  5.137357E+04  3.708209E+04 -1.829644E+04  1.594937E+03
       105  22 -1.981527E+03 -1.286849E+04 -1.197417E+04  3.730261E+04 -1.344938E+04  1.005469E+04
       105  23 -1.236607E+02 -1.247947E+04 -6.215867E+03  3.175186E+04 -1.629708E+04  6.956312E+03
       105  24  2.617539E+02 -1.287511E+04 -2.846723E+03  3.730078E+04 -1.829536E+04  3.856735E+03
       105  25 -4.982987E+04 -2.143220E+05 -4.972730E+04  3.652385E+04 -1.344556E+04  1.475962E+04
       105  26 -5.791539E+04 -2.558330E+05 -5.177978E+04  3.147165E+04 -1.629470E+04  1.043903E+04
       105  27 -6.768595E+04 -2.983391E+05 -5.707065E+04  3.751934E+04 -1.829428E+04  6.117518E+03
       106   1  7.486013E+04  3.018554E+05  5.826665E+04  3.684383E+04  1.996866E+04  6.301672E+02
       106   2  8.610261E+04  3.423631E+05  7.287336E+04  3.287724E+04  1.774729E+04 -1.428874E+04
       106   3  1.023232E+05  3.860599E+05  9.843603E+04  3.940236E+04  5.451031E+03 -2.920348E+04
       106   4  1.611418E+01 -1.255528E+04 -1.601957E+03  3.716647E+04  1.996644E+04 -3.441390E+03
       106   5  6.339245E+02 -1.289488E+04  7.231876E+02  3.191932E+04  1.775513E+04 -3.844779E+03
       106   6  3.712044E+03 -1.256464E+04  3.927603E+03  3.716395E+04  5.466361E+03 -4.243046E+03
       106   7 -7.483370E+04 -3.268706E+05 -6.147495E+04  3.748892E+04  1.996422E+04 -7.510934E+03
       106   8 -8.484256E+04 -3.680325E+05 -7.143316E+04  3.096193E+04  1.776293E+04  6.593317E+03
       106   9 -9.491021E+04 -4.110419E+05 -9.058954E+04  3.492696E+04  5.481516E+03  2.070146E+04
       106  10  7.485970E+04  3.018553E+05  5.826590E+04  3.684382E+04  3.583814E-10  3.024966E-10
       106  11  8.610222E+04  3.423628E+05  7.287239E+04  3.287745E+04 -2.067403E-10  1.405963E-10
       106  12  1.023230E+05  3.860590E+05  9.843438E+04  3.940248E+04 -1.643406E-10 -6.630090E-11
       106  13  1.568290E+01 -1.255540E+04 -1.602728E+03  3.716653E+04  3.556150E-10 -6.747824E-11
       106  14  6.335820E+02 -1.289498E+04  7.225675E+02  3.191937E+04 -7.566342E-11 -6.771160E-11
       106  15  3.712007E+03 -1.256467E+04  3.927513E+03  3.716397E+04 -1.523638E-10  3.990659E-11
       106  16 -7.483414E+04 -3.268708E+05 -6.147580E+04  3.748904E+04 -1.121832E-10 -3.730515E-10
       106  17 -8.484291E+04 -3.680327E+05 -7.143384E+04  3.096183E+04  4.176683E-10 -1.638017E-10
       106  18 -9.491036E+04 -4.110424E+05 -9.059040E+04  3.492687E+04 -1.068264E-10  6.215771E-11
       106  19  7.486013E+04  3.018554E+05  5.826665E+04  3.684383E+04 -1.996866E+04 -6.301672E+02
       106  20  8.610261E+04  3.423631E+05  7.287336E+04  3.287724E+04 -1.774729E+04  1.428874E+04
       106  21  1.023232E+05  3.860599E+05  9.843603E+04  3.940236E+04 -5.451031E+03  2.920348E+04
       106  22  1.611418E+01 -1.255528E+04 -1.601957E+03  3.716647E+04 -1.996644E+04  3.441390E+03
       106  23  6.339245E+02 -1.289488E+04  7.231876E+02  3.191932E+04 -1.775513E+04  3.844779E+03
       106  24  3.712044E+03 -1.256464E+04  3.927603E+03  3.716395E+04 -5.466361E+03  4.243046E+03
       106  25 -7.483370E+04 -3.268706E+05 -6.147495E+04  3.748892E+04 -1.996422E+04  7.510934E+03
       106  26 -8.484256E+04 -3.680325E+05 -7.143316E+04  3.096193E+04 -1.776293E+04 -6.593317E+03
       106  27 -9.491021E+04 -4.110419E+05 -9.058954E+04  3.492696E+04 -5.481516E+03 -2.070146E+04
       107   1  7.122016E+05  6.060527E+05  1.933724E+05  4.728899E+05  6.952017E+04  4.309444E+04
       107   2  6.758650E+05  5.143864E+05  1.282639E+05  4.693875E+05  5.012598E+04  8.320150E+03
       107   3  6.539222E+05  4.699119E+05  9.817473E+04  4.554039E+05  2.289873E+04 -1.598211E+04
       107   4  3.682937E+05  3.018277E+05  7.030417E+04  2.748437E+05  4.324715E+04  2.341633E+04
       107   5  3.515933E+05  2.599978E+05  3.367119E+04  2.949764E+05  3.895710E+04 -4.711305E+01
       107   6  3.460275E+05  2.620994E+05  1.898023E+04  3.046232E+05  2.682931E+04 -1.303971E+04
       107   7  2.451863E+04 -2.280906E+03 -5.277604E+04  7.693725E+04  1.699406E+04  3.757972E+03
       107   8  2.744154E+04  5.689338E+03 -6.093100E+04  1.206758E+05  2.779611E+04 -8.407597E+03
       107   9  3.824027E+04  5.433698E+04 -6.022189E+04  1.539264E+05  3.075726E+04 -1.009917E+04
       107  10  7.121959E+05  6.060494E+05  1.933599E+05  4.728875E+05 -3.701648E-11 -7.001714E-11
       107  11  6.758623E+05  5.143856E+05  1.282590E+05  4.693872E+05 -4.583134E-10  1.012615E-10
       107  12  6.539215E+05  4.699114E+05  9.817327E+04  4.554042E+05 -8.884244E-11 -3.671466E-12
       107  13  3.682915E+05  3.018266E+05  7.029963E+04  2.748429E+05 -6.991087E-10  7.973118E-11
       107  14  3.515917E+05  2.599974E+05  3.366833E+04  2.949764E+05 -6.483906E-10  1.171924E-10
       107  15  3.460267E+05  2.620990E+05  1.897856E+04  3.046234E+05  2.221472E-10  2.625739E-11
       107  16  2.451831E+04 -2.280998E+03 -5.277661E+04  7.693720E+04  2.591872E-10  1.987184E-10
       107  17  2.744069E+04  5.689055E+03 -6.093258E+04  1.206760E+05  3.812419E-10  1.101391E-10
       107  18  3.823923E+04  5.433662E+04 -6.022386E+04  1.539267E+05 -7.448113E-11  4.208960E-11
       107  19  7.122016E+05  6.060527E+05  1.933724E+05  4.728899E+05 -6.952017E+04 -4.309444E+04
       107  20  6.758650E+05  5.143864E+05  1.282639E+05  4.693875E+05 -5.012598E+04 -8.320150E+03
       107  21  6.539222E+05  4.699119E+05  9.817473E+04  4.554039E+05 -2.289873E+04  1.598211E+04
       107  22  3.682937E+05  3.018277E+05  7.030417E+04  2.748437E+05 -4.324715E+04 -2.341633E+04
       107  23  3.515933E+05  2.599978E+05  3.367119E+04  2.949764E+05 -3.895710E+04  4.711305E+01
       107  24  3.460275E+05  2.620994E+05  1.898023E+04  3.046232E+05 -2.682931E+04  1.303971E+04
       107  25  2.451863E+04 -2.280906E+03 -5.277604E+04  7.693725E+04 -1.699406E+04 -3.757972E+03
       107  26  2.744154E+04  5.689338E+03 -6.093100E+04  1.206758E+05 -2.779611E+04  8.407597E+03
       107  27  3.824027E+04  5.433698E+04 -6.022189E+04  1.539264E+05 -3.075726E+04  1.009917E+04
       108   1  6.211136E+05  4.587786E+05  8.706562E+04  4.419589E+05  2.151618E+04 -1.448208E+04
       108   2  5.896879E+05  4.237190E+05  7.021151E+04  4.219879E+05  1.564004E+04 -1.605869E+04
       108   3  5.468722E+05  4.034513E+05  5.756432E+04  4.054145E+05  9.206139E+03 -1.689149E+04
       108   4  3.450597E+05  2.628608E+05  1.478338E+04  3.022539E+05  2.358624E+04 -1.293294E+04
       108   5  3.504293E+05  2.547907E+05  8.639515E+03  3.011517E+05  1.878440E+04 -1.370411E+04
       108   6  3.441764E+05  2.612797E+05  5.772909E+03  3.034460E+05  1.342437E+04 -1.373152E+04
       108   7  6.908765E+04  6.698532E+04 -5.750676E+04  1.626183E+05  2.565510E+04 -1.138472E+04
       108   8  1.112358E+05  8.589621E+04 -5.293708E+04  1.803690E+05  2.192713E+04 -1.135075E+04
       108   9  1.415304E+05  1.191343E+05 -4.602063E+04  2.015172E+05  1.764070E+04 -1.057297E+04
       108  10  6.211131E+05  4.587783E+05  8.706436E+04  4.419591E+05 -4.308345E-10 -1.628373E-10
       108  11  5.896875E+05  4.237187E+05  7.021056E+04  4.219881E+05 -3.401142E-10 -1.022809E-10
       108  12  5.468721E+05  4.034510E+05  5.756363E+04  4.054147E+05  5.845154E-11 -2.323776E-11
       108  13  3.450590E+05  2.628604E+05  1.478202E+04  3.022542E+05 -5.027975E-10 -6.113601E-11
       108  14  3.504289E+05  2.547904E+05  8.638499E+03  3.011519E+05 -3.392970E-10 -1.567658E-10
       108  15  3.441761E+05  2.612795E+05  5.772216E+03  3.034462E+05 -1.346523E-10 -3.435973E-10
       108  16  6.908691E+04  6.698501E+04 -5.750824E+04  1.626186E+05 -2.547657E-10  5.676335E-11
       108  17  1.112353E+05  8.589594E+04 -5.293823E+04  1.803692E+05  4.866637E-10 -2.190285E-10
       108  18  1.415300E+05  1.191341E+05 -4.602142E+04  2.015174E+05  4.861978E-10 -5.670548E-10
       108  19  6.211136E+05  4.587786E+05  8.706562E+04  4.419589E+05 -2.151618E+04  1.448208E+04
       108  20  5.896879E+05  4.237190E+05  7.021151E+04  4.219879E+05 -1.564004E+04  1.605869E+04
       108  21  5.468722E+05  4.034513E+05  5.756432E+04  4.054145E+05 -9.206139E+03  1.689149E+04
       108  22  3.450597E+05  2.628608E+05  1.478338E+04  3.022539E+05 -2.358624E+04  1.293294E+04
       108  23  3.504293E+05  2.547907E+05  8.639515E+03  3.011517E+05 -1.878440E+04  1.370411E+04
       108  24  3.441764E+05  2.612797E+05  5.772909E+03  3.034460E+05 -1.342437E+04  1.373152E+04
       108  25  6.908765E+04  6.698532E+04 -5.750676E+04  1.626183E+05 -2.565510E+04  1.138472E+04
       108  26  1.112358E+05  8.589621E+04 -5.293708E+04  1.803690E+05 -2.192713E+04  1.135075E+04
       108  27  1.415304E+05  1.191343E+05 -4.602063E+04  2.015172E+05 -1.764070E+04  1.057297E+04
       109   1  5.212747E+05  3.860465E+05  5.020328E+04  3.927104E+05  7.289546E+03 -1.566343E+04
       109   2  4.904033E+05  3.533846E+05  4.049079E+04  3.720579E+05  3.197511E+03 -1.427527E+04
       109   3  4.468572E+05  3.340041E+05  3.242450E+04  3.552856E+05 -9.224746E+02 -1.285053E+04
       109   4  3.441153E+05  2.613023E+05  5.078670E+03  3.033255E+05  1.137507E+04 -1.260250E+04
       109   5  3.504679E+05  2.546800E+05  4.800594E+03  3.013789E+05  7.336349E+03 -1.117388E+04
       109   6  3.441323E+05  2.613274E+05  6.122668E+03  3.033116E+05  3.269493E+03 -9.708794E+03
       109   7  1.669916E+05  1.365765E+05 -4.004836E+04  2.139700E+05  1.545903E+04 -9.542747E+03
       109   8  2.105537E+05  1.559863E+05 -3.089145E+04  2.307178E+05  1.147397E+04 -8.073411E+03
       109   9  2.414179E+05  1.886559E+05 -2.018047E+04  2.513466E+05  7.460596E+03 -6.567704E+03
       109  10  5.212746E+05  3.860462E+05  5.020272E+04  3.927105E+05 -2.049819E-10 -4.415742E-10
       109  11  4.904032E+05  3.533844E+05  4.049039E+04  3.720579E+05 -2.920726E-10 -8.884788E-11
       109  12  4.468571E+05  3.340039E+05  3.242419E+04  3.552856E+05  2.654647E-11  1.400013E-10
       109  13  3.441151E+05  2.613021E+05  5.078128E+03  3.033256E+05 -3.212973E-10 -2.523189E-10
       109  14  3.504678E+05  2.546799E+05  4.800258E+03  3.013790E+05 -9.718894E-11  4.643229E-11
       109  15  3.441323E+05  2.613273E+05  6.122471E+03  3.033116E+05 -2.986099E-11  1.065197E-10
       109  16  1.669913E+05  1.365764E+05 -4.004898E+04  2.139701E+05  9.818865E-10 -4.220224E-11
       109  17  2.105536E+05  1.559862E+05 -3.089182E+04  2.307178E+05 -1.719590E-10  2.111877E-10
       109  18  2.414178E+05  1.886558E+05 -2.018065E+04  2.513466E+05  2.016082E-10  7.654832E-11
       109  19  5.212747E+05  3.860465E+05  5.020328E+04  3.927104E+05 -7.289546E+03  1.566343E+04
       109  20  4.904033E+05  3.533846E+05  4.049079E+04  3.720579E+05 -3.197511E+03  1.427527E+04
       109  21  4.468572E+05  3.340041E+05  3.242450E+04  3.552856E+05  9.224746E+02  1.285053E+04
       109  22  3.441153E+05  2.613023E+05  5.078670E+03  3.033255E+05 -1.137507E+04  1.260250E+04
       109  23  3.504679E+05  2.546800E+05  4.800594E+03  3.013789E+05 -7.336349E+03  1.117388E+04
       109  24  3.441323E+05  2.613274E+05  6.122668E+03  3.033116E+05 -3.269493E+03  9.708794E+03
       109  25  1.669916E+05  1.365765E+05 -4.004836E+04  2.139700E+05 -1.545903E+04  9.542747E+03
       109  26  2.105537E+05  1.559863E+05 -3.089145E+04  2.307178E+05 -1.147397E+04  8.073411E+03
       109  27  2.414179E+05  1.886559E+05 -2.018047E+04  2.513466E+05 -7.460596E+03  6.567704E+03
       110   1  4.213720E+05  3.167274E+05  2.708684E+04  3.429611E+05 -3.187778E+03 -1.188094E+04
       110   2  3.913810E+05  2.832746E+05  2.220091E+04  3.215433E+05 -9.792890E+03 -1.242105E+04
       110   3  3.502663E+05  2.650053E+05  2.162992E+04  3.033151E+05 -1.624421E+04 -1.316578E+04
       110   4  3.442369E+05  2.613091E+05  7.427677E+03  3.035013E+05  1.030268E+03 -8.719451E+03
       110   5  3.504174E+05  2.548421E+05  1.198861E+04  3.010409E+05 -5.869933E+03 -9.480647E+03
       110   6  3.455357E+05  2.636209E+05  2.112000E+04  3.017684E+05 -1.261672E+04 -1.044675E+04
       110   7  2.671099E+05  2.058953E+05 -1.223143E+04  2.640478E+05  5.247547E+03 -5.558545E+03
       110   8  3.094561E+05  2.264107E+05  1.776396E+03  2.805403E+05 -1.947355E+03 -6.540520E+03
       110   9  3.408052E+05  2.622366E+05  2.061015E+04  3.002217E+05 -8.989266E+03 -7.727736E+03
       110  10  4.213720E+05  3.167273E+05  2.708655E+04  3.429611E+05 -5.769199E-10 -9.377171E-11
       110  11  3.913809E+05  2.832744E+05  2.220044E+04  3.215432E+05 -1.450239E-11  1.419051E-10
       110  12  3.502660E+05  2.650050E+05  2.162910E+04  3.033149E+05 -1.859862E-10  2.650249E-10
       110  13  3.442369E+05  2.613090E+05  7.427532E+03  3.035013E+05 -1.120135E-10  1.326190E-10
       110  14  3.504174E+05  2.548420E+05  1.198838E+04  3.010409E+05  3.957097E-10  2.386648E-10
       110  15  3.455355E+05  2.636208E+05  2.111949E+04  3.017683E+05  5.754867E-11  2.052158E-10
       110  16  2.671099E+05  2.058953E+05 -1.223154E+04  2.640479E+05  2.279521E-10  4.227511E-10
       110  17  3.094561E+05  2.264107E+05  1.776308E+03  2.805403E+05 -1.966393E-12  4.055818E-10
       110  18  3.408051E+05  2.622365E+05  2.060988E+04  3.002217E+05 -2.485486E-11  1.106831E-10
       110  19  4.213720E+05  3.167274E+05  2.708684E+04  3.429611E+05  3.187778E+03  1.188094E+04
       110  20  3.913810E+05  2.832746E+05  2.220091E+04  3.215433E+05  9.792890E+03  1.242105E+04
       110  21  3.502663E+05  2.650053E+05  2.162992E+04  3.033151E+05  1.624421E+04  1.316578E+04
       110  22  3.442369E+05  2.613091E+05  7.427677E+03  3.035013E+05 -1.030268E+03  8.719451E+03
       110  23  3.504174E+05  2.548421E+05  1.198861E+04  3.010409E+05  5.869933E+03  9.480647E+03
       110  24  3.455357E+05  2.636209E+05  2.112000E+04  3.017684E+05  1.261672E+04  1.044675E+04
       110  25  2.671099E+05  2.058953E+05 -1.223143E+04  2.640478E+05 -5.247547E+03  5.558545E+03
       110  26  3.094561E+05  2.264107E+05  1.776396E+03  2.805403E+05  1.947355E+03  6.540520E+03
       110  27  3.408052E+05  2.622366E+05  2.061015E+04  3.002217E+05  8.989266E+03  7.727736E+03
       111   1  3.173325E+05  2.552447E+05  2.108323E+04  2.967213E+05 -2.091795E+04 -1.403998E+04
       111   2  3.154681E+05  1.991888E+05  3.148967E+04  2.564997E+05 -3.803342E+04 -2.464778E+04
       111   3  3.337917E+05  2.008040E+05  6.999785E+04  1.996015E+05 -5.296824E+04 -3.816294E+04
       111   4  3.467630E+05  2.627114E+05  2.727744E+04  3.052530E+05 -1.677581E+04 -1.093472E+04
       111   5  3.523650E+05  2.621815E+05  4.867842E+04  2.920286E+05 -3.808505E+04 -2.468857E+04
       111   6  3.790573E+05  3.202226E+05  1.018158E+05  2.621273E+05 -5.721376E+04 -4.135205E+04
       111   7  3.761951E+05  2.701784E+05  3.347185E+04  3.137851E+05 -1.263333E+04 -7.829385E+03
       111   8  3.892642E+05  3.251806E+05  6.586706E+04  3.275611E+05 -3.813669E+04 -2.472936E+04
       111   9  4.243287E+05  4.396642E+05  1.336336E+05  3.246615E+05 -6.145958E+04 -4.454251E+04
       111  10  3.173319E+05  2.552444E+05  2.108204E+04  2.967210E+05 -2.615450E-10  8.924067E-11
       111  11  3.154664E+05  1.991878E+05  3.148581E+04  2.564989E+05 -6.949990E-10  2.240697E-11
       111  12  3.337883E+05  2.008016E+05  6.998984E+04  1.995999E+05 -4.645951E-11  1.422377E-10
       111  13  3.467627E+05  2.627112E+05  2.727669E+04  3.052528E+05 -6.408481E-11  1.654795E-10
       111  14  3.523633E+05  2.621805E+05  4.867455E+04  2.920279E+05 -2.730509E-10  1.061479E-10
       111  15  3.790533E+05  3.202199E+05  1.018064E+05  2.621254E+05 -4.556535E-11 -2.497253E-11
       111  16  3.761950E+05  2.701783E+05  3.347144E+04  3.137851E+05 -2.683073E-11  1.745143E-10
       111  17  3.892624E+05  3.251796E+05  6.586318E+04  3.275603E+05  4.942836E-10  3.985046E-11
       111  18  4.243241E+05  4.396611E+05  1.336228E+05  3.246593E+05 -8.544111E-11 -4.298250E-11
       111  19  3.173325E+05  2.552447E+05  2.108323E+04  2.967213E+05  2.091795E+04  1.403998E+04
       111  20  3.154681E+05  1.991888E+05  3.148967E+04  2.564997E+05  3.803342E+04  2.464778E+04
       111  21  3.337917E+05  2.008040E+05  6.999785E+04  1.996015E+05  5.296824E+04  3.816294E+04
       111  22  3.467630E+05  2.627114E+05  2.727744E+04  3.052530E+05  1.677581E+04  1.093472E+04
       111  23  3.523650E+05  2.621815E+05  4.867842E+04  2.920286E+05  3.808505E+04  2.468857E+04
       111  24  3.790573E+05  3.202226E+05  1.018158E+05  2.621273E+05  5.721376E+04  4.135205E+04
       111  25  3.761951E+05  2.701784E+05  3.347185E+04  3.137851E+05  1.263333E+04  7.829385E+03
       111  26  3.892642E+05  3.251806E+05  6.586706E+04  3.275611E+05  3.813669E+04  2.472936E+04
       111  27  4.243287E+05  4.396642E+05  1.336336E+05  3.246615E+05  6.145958E+04  4.454251E+04
       112   1  1.419958E+06  2.271256E+05  2.255800E+05  1.374046E+05  7.508783E+04 -9.577626E+03
       112   2  1.285029E+06  1.563849E+05  1.499883E+05  1.071826E+05  3.543430E+04 -2.990929E+04
       112   3  1.163504E+06  1.183056E+05  1.083469E+05  1.096459E+05 -4.202115E+03 -3.084251E+04
       112   4  6.662177E+05  4.072583E+04  4.633792E+04  1.133100E+05  3.173997E+04 -9.572341E+03
       112   5  6.619749E+05  6.406635E+03  2.243836E+04  9.696571E+04  2.008397E+04 -2.991086E+04
       112   6  6.662814E+05 -8.607686E+01  1.308752E+04  1.133053E+05  8.435983E+03 -3.084386E+04
       112   7 -8.699667E+04 -1.457116E+05 -1.329365E+05  8.924467E+04 -1.155564E+04 -9.563699E+03
       112   8  3.928983E+04 -1.435954E+05 -1.051312E+05  8.675921E+04  4.748738E+03 -2.991193E+04
       112   9  1.692969E+05 -1.184921E+05 -8.218250E+04  1.169617E+05  2.106421E+04 -3.084506E+04
       112  10  1.419952E+06  2.271240E+05  2.255693E+05  1.374052E+05  4.755423E-10 -1.206200E-10
       112  11  1.285027E+06  1.563836E+05  1.499842E+05  1.071835E+05  9.173479E-11 -3.162873E-10
       112  12  1.163504E+06  1.183045E+05  1.083450E+05  1.096458E+05  1.760127E-11 -8.035834E-11
       112  13  6.662166E+05  4.072546E+04  4.633586E+04  1.133102E+05 -3.244191E-10 -8.543958E-12
       112  14  6.619742E+05  6.405566E+03  2.243592E+04  9.696619E+04 -2.969972E-11 -1.425109E-10
       112  15  6.662811E+05 -8.711790E+01  1.308560E+04  1.133055E+05  1.826330E-10 -1.479923E-10
       112  16 -8.699684E+04 -1.457118E+05 -1.329369E+05  8.924458E+04  2.378195E-10 -5.234672E-11
       112  17  3.928956E+04 -1.435964E+05 -1.051329E+05  8.675932E+04  4.456622E-10 -1.505930E-10
       112  18  1.692962E+05 -1.184933E+05 -8.218512E+04  1.169622E+05 -2.453164E-10 -1.726393E-10
       112  19  1.419958E+06  2.271256E+05  2.255800E+05  1.374046E+05 -7.508783E+04  9.577626E+03
       112  20  1.285029E+06  1.563849E+05  1.499883E+05  1.071826E+05 -3.543430E+04  2.990929E+04
       112  21  1.163504E+06  1.183056E+05  1.083469E+05  1.096459E+05  4.202115E+03  3.084251E+04
       112  22  6.662177E+05  4.072583E+04  4.633792E+04  1.133100E+05 -3.173997E+04  9.572341E+03
       112  23  6.619749E+05  6.406635E+03  2.243836E+04  9.696571E+04 -2.008397E+04  2.991086E+04
       112  24  6.662814E+05 -8.607686E+01  1.308752E+04  1.133053E+05 -8.435983E+03  3.084386E+04
       112  25 -8.699667E+04 -1.457116E+05 -1.329365E+05  8.924467E+04  1.155564E+04  9.563699E+03
       112  26  3.928983E+04 -1.435954E+05 -1.051312E+05  8.675921E+04 -4.748738E+03  2.991193E+04
       112  27  1.692969E+05 -1.184921E+05 -8.218250E+04  1.169617E+05 -2.106421E+04  3.084506E+04
       113   1  1.074372E+06  9.904690E+04  8.882066E+04  1.141686E+05 -2.559135E+03 -2.566803E+04
       113   2  9.459411E+05  6.696509E+04  6.004363E+04  9.690638E+04 -8.002381E+03 -1.862967E+04
       113   3  8.186644E+05  3.653445E+04  3.522204E+04  1.134162E+05 -1.344627E+04 -1.027903E+04
       113   4  6.645755E+05  1.512768E+03  1.053802E+04  1.135488E+05  6.641381E+03 -2.566839E+04
       113   5  6.641833E+05  8.330709E+01  7.133396E+03  9.666242E+04  3.091235E+03 -1.862861E+04
       113   6  6.645998E+05 -2.235776E+01  6.371945E+03  1.135490E+05 -4.606568E+02 -1.027622E+04
       113   7  2.549409E+05 -9.603120E+04 -6.775193E+04  1.129293E+05  1.583597E+04 -2.566877E+04
       113   8  3.825023E+05 -6.680301E+04 -4.577983E+04  9.641857E+04  1.417995E+04 -1.862755E+04
       113   9  5.105584E+05 -3.658044E+04 -2.247854E+04  1.136818E+05  1.252182E+04 -1.027340E+04
       113  10  1.074372E+06  9.904619E+04  8.881941E+04  1.141686E+05  1.984320E-09 -3.238275E-10
       113  11  9.459409E+05  6.696470E+04  6.004286E+04  9.690626E+04  1.349305E-09 -7.087659E-10
       113  12  8.186642E+05  3.653428E+04  3.522150E+04  1.134161E+05  9.725783E-10 -1.842046E-10
       113  13  6.645753E+05  1.512049E+03  1.053669E+04  1.135489E+05  5.731944E-10 -3.798516E-10
       113  14  6.641832E+05  8.293176E+01  7.132726E+03  9.666247E+04  1.944752E-10 -7.091411E-10
       113  15  6.645997E+05 -2.247125E+01  6.371746E+03  1.135490E+05  6.805888E-11 -1.576562E-11
       113  16  2.549405E+05 -9.603197E+04 -6.775364E+04  1.129296E+05 -1.881956E-09 -3.471311E-10
       113  17  3.825020E+05 -6.680343E+04 -4.578086E+04  9.641878E+04 -1.300854E-09 -5.718256E-10
       113  18  5.105582E+05 -3.658060E+04 -2.247904E+04  1.136819E+05 -1.183456E-09 -3.919564E-11
       113  19  1.074372E+06  9.904690E+04  8.882066E+04  1.141686E+05  2.559135E+03  2.566803E+04
       113  20  9.459411E+05  6.696509E+04  6.004363E+04  9.690638E+04  8.002381E+03  1.862967E+04
       113  21  8.186644E+05  3.653445E+04  3.522204E+04  1.134162E+05  1.344627E+04  1.027903E+04
       113  22  6.645755E+05  1.512768E+03  1.053802E+04  1.135488E+05 -6.641381E+03  2.566839E+04
       113  23  6.641833E+05  8.330709E+01  7.133396E+03  9.666242E+04 -3.091235E+03  1.862861E+04
       113  24  6.645998E+05 -2.235776E+01  6.371945E+03  1.135490E+05  4.606568E+02  1.027622E+04
       113  25  2.549409E+05 -9.603120E+04 -6.775193E+04  1.129293E+05 -1.583597E+04  2.566877E+04
       113  26  3.825023E+05 -6.680301E+04 -4.577983E+04  9.641857E+04 -1.417995E+04  1.862755E+04
       113  27  5.105584E+05 -3.658044E+04 -2.247854E+04  1.136818E+05 -1.252182E+04  1.027340E+04
       114   1  7.321268E+05  1.586934E+04  1.893869E+04  1.139288E+05 -1.453092E+04 -4.956687E+03
       114   2  6.039235E+05 -1.418083E+04 -2.606368E+03  9.641778E+04 -1.776573E+04  3.553433E+03
       114   3  4.765766E+05 -4.254734E+04 -2.162771E+04  1.126913E+05 -2.099961E+04  1.116276E+04
       114   4  6.646610E+05 -5.520040E+01  6.728884E+03  1.135515E+05 -1.616306E+03 -4.953534E+03
       114   5  6.641241E+05  1.916780E+02  9.097493E+03  9.665919E+04 -6.150703E+03  3.555961E+03
       114   6  6.646542E+05  2.348604E+03  1.489143E+04  1.135510E+05 -1.068482E+04  1.116474E+04
       114   7  5.972000E+05 -1.597990E+04 -5.480471E+03  1.131743E+05  1.129695E+04 -4.950397E+03
       114   8  7.243283E+05  1.456404E+04  2.080169E+04  9.690063E+04  5.465429E+03  3.558499E+03
       114   9  8.527659E+05  4.724249E+04  5.140930E+04  1.144110E+05 -3.669799E+02  1.116674E+04
       114  10  7.321265E+05  1.586925E+04  1.893824E+04  1.139288E+05  2.495498E-08  8.134532E-10
       114  11  6.039232E+05 -1.418092E+04 -2.606984E+03  9.641783E+04 -3.678520E-10  1.979579E-09
       114  12  4.765761E+05 -4.254759E+04 -2.162877E+04  1.126915E+05 -2.536921E-08  1.183579E-09
       114  13  6.646610E+05 -5.522745E+01  6.728833E+03  1.135515E+05 -6.784764E-11  7.913582E-10
       114  14  6.641240E+05  1.916543E+02  9.097398E+03  9.665921E+04  3.002167E-10  1.946448E-09
       114  15  6.646540E+05  2.348439E+03  1.489098E+04  1.135511E+05  3.822174E-10  1.260381E-09
       114  16  5.971998E+05 -1.597996E+04 -5.480757E+03  1.131744E+05 -2.494324E-08  8.294666E-10
       114  17  7.243283E+05  1.456402E+04  2.080161E+04  9.690061E+04  2.083425E-10  1.653746E-09
       114  18  8.527659E+05  4.724236E+04  5.140907E+04  1.144110E+05  2.543570E-08  1.301660E-09
       114  19  7.321268E+05  1.586934E+04  1.893869E+04  1.139288E+05  1.453092E+04  4.956687E+03
       114  20  6.039235E+05 -1.418083E+04 -2.606368E+03  9.641778E+04  1.776573E+04 -3.553433E+03
       114  21  4.765766E+05 -4.254734E+04 -2.162771E+04  1.126913E+05  2.099961E+04 -1.116276E+04
       114  22  6.646610E+05 -5.520040E+01  6.728884E+03  1.135515E+05  1.616306E+03  4.953534E+03
       114  23  6.641241E+05  1.916780E+02  9.097493E+03  9.665919E+04  6.150703E+03 -3.555961E+03
       114  24  6.646542E+05  2.348604E+03  1.489143E+04  1.135510E+05  1.068482E+04 -1.116474E+04
       114  25  5.972000E+05 -1.597990E+04 -5.480471E+03  1.131743E+05 -1.129695E+04  4.950397E+03
       114  26  7.243283E+05  1.456404E+04  2.080169E+04  9.690063E+04 -5.465429E+03 -3.558499E+03
       114  27  8.527659E+05  4.724249E+04  5.140930E+04  1.144110E+05  3.669799E+02 -1.116674E+04
       115   1  3.920734E+05 -6.570233E+04 -3.444402E+04  1.188600E+05 -2.601197E+04  1.638156E+04
       115   2  2.595042E+05 -8.715033E+04 -4.987945E+04  8.154186E+04 -2.314368E+04  1.826314E+04
       115   3  1.361398E+05 -7.049490E+04 -5.764833E+04  7.721858E+04 -2.027777E+04  6.153506E+03
       115   4  6.672281E+05 -2.871325E+01  1.894004E+04  1.133743E+05 -1.323206E+04  1.638366E+04
       115   5  6.608639E+05  9.716535E+03  3.328562E+04  9.687789E+04 -3.052532E+04  1.826096E+04
       115   6  6.671756E+05  6.104809E+04  6.928309E+04  1.133714E+05 -4.782080E+04  6.151358E+03
       115   7  9.424559E+05  6.564058E+04  7.232117E+04  1.078860E+05 -4.466136E+02  1.638553E+04
       115   8  1.062377E+06  1.065741E+05  1.164423E+05  1.122240E+05 -3.791164E+04  1.825842E+04
       115   9  1.198474E+06  1.925760E+05  1.961982E+05  1.495552E+05 -7.538726E+04  6.146007E+03
       115  10  3.920726E+05 -6.570280E+04 -3.444579E+04  1.188604E+05 -4.854163E-10  1.628624E-10
       115  11  2.595035E+05 -8.715083E+04 -4.988109E+04  8.154220E+04 -1.378654E-09 -7.902389E-10
       115  12  1.361393E+05 -7.049505E+04 -5.764917E+04  7.721868E+04 -1.364211E-09 -2.778966E-10
       115  13  6.672278E+05 -2.904858E+01  1.893921E+04  1.133744E+05  2.440867E-10  2.724853E-10
       115  14  6.608628E+05  9.715927E+03  3.328325E+04  9.687833E+04 -4.335234E-10 -6.073154E-10
       115  15  6.671732E+05  6.104744E+04  6.927873E+04  1.133716E+05  2.346490E-10 -2.834135E-10
       115  16  9.424558E+05  6.564030E+04  7.232066E+04  1.078860E+05  5.757545E-10  4.714253E-10
       115  17  1.062375E+06  1.065734E+05  1.164389E+05  1.122245E+05  1.027600E-09 -3.933406E-10
       115  18  1.198468E+06  1.925744E+05  1.961875E+05  1.495555E+05  1.572078E-09 -2.532994E-10
       115  19  3.920734E+05 -6.570233E+04 -3.444402E+04  1.188600E+05  2.601197E+04 -1.638156E+04
       115  20  2.595042E+05 -8.715033E+04 -4.987945E+04  8.154186E+04  2.314368E+04 -1.826314E+04
       115  21  1.361398E+05 -7.049490E+04 -5.764833E+04  7.721858E+04  2.027777E+04 -6.153506E+03
       115  22  6.672281E+05 -2.871325E+01  1.894004E+04  1.133743E+05  1.323206E+04 -1.638366E+04
       115  23  6.608639E+05  9.716535E+03  3.328562E+04  9.687789E+04  3.052532E+04 -1.826096E+04
       115  24  6.671756E+05  6.104809E+04  6.928309E+04  1.133714E+05  4.782080E+04 -6.151358E+03
       115  25  9.424559E+05  6.564058E+04  7.232117E+04  1.078860E+05  4.466136E+02 -1.638553E+04
       115  26  1.062377E+06  1.065741E+05  1.164423E+05  1.122240E+05  3.791164E+04 -1.825842E+04
       115  27  1.198474E+06  1.925760E+05  1.961982E+05  1.495552E+05  7.538726E+04 -6.146007E+03
       116   1 -2.736912E+05 -8.128439E+05 -2.834652E+05  2.313305E+05 -7.317841E+03 -1.172651E+05
       116   2 -1.311873E+05 -6.112535E+05 -1.590383E+05  1.695583E+05 -2.071999E+04 -6.046426E+04
       116   3 -6.793710E+04 -4.368906E+05 -9.144520E+04  1.564500E+05 -1.652472E+04 -3.652753E+03
       116   4 -1.098126E+05 -1.518419E+05 -1.249054E+05  1.665700E+05 -7.281114E+03 -8.529917E+04
       116   5 -1.734862E+04 -1.403893E+05 -6.065178E+04  1.421916E+05 -2.071056E+04 -5.378978E+04
       116   6  2.898462E+02 -1.517779E+05 -3.562564E+04  1.664877E+05 -1.654182E+04 -2.228849E+04
       116   7  5.405060E+04  5.095720E+05  3.362953E+04  1.017400E+05 -7.251089E+03 -5.329930E+04
       116   8  9.647871E+04  3.306864E+05  3.772303E+04  1.148036E+05 -2.070172E+04 -4.711031E+04
       116   9  6.851245E+04  1.334137E+05  2.019136E+04  1.765301E+05 -1.655951E+04 -4.093259E+04
       116  10 -2.736950E+05 -8.128587E+05 -2.834911E+05  2.313298E+05  2.742766E-11 -8.710296E-11
       116  11 -1.311887E+05 -6.112575E+05 -1.590460E+05  1.695573E+05 -7.745869E-11  4.303287E-10
       116  12 -6.793739E+04 -4.368907E+05 -9.144574E+04  1.564499E+05  9.130054E-10  1.375890E-09
       116  13 -1.098147E+05 -1.518497E+05 -1.249192E+05  1.665695E+05  7.397913E-11  2.801013E-11
       116  14 -1.734986E+04 -1.403926E+05 -6.065803E+04  1.421907E+05 -1.151551E-10  1.196192E-10
       116  15  2.894192E+02 -1.517785E+05 -3.562709E+04  1.664874E+05  2.020900E-10  4.587314E-12
       116  16  5.404979E+04  5.095690E+05  3.362410E+04  1.017397E+05 -9.824030E-11  1.232457E-10
       116  17  9.647765E+04  3.306839E+05  3.771806E+04  1.148028E+05  4.805356E-10 -5.343037E-10
       116  18  6.851171E+04  1.334118E+05  2.018770E+04  1.765296E+05  5.209672E-10 -1.465857E-09
       116  19 -2.736912E+05 -8.128439E+05 -2.834652E+05  2.313305E+05  7.317841E+03  1.172651E+05
       116  20 -1.311873E+05 -6.112535E+05 -1.590383E+05  1.695583E+05  2.071999E+04  6.046426E+04
       116  21 -6.793710E+04 -4.368906E+05 -9.144520E+04  1.564500E+05  1.652472E+04  3.652753E+03
       116  22 -1.098126E+05 -1.518419E+05 -1.249054E+05  1.665700E+05  7.281114E+03  8.529917E+04
       116  23 -1.734862E+04 -1.403893E+05 -6.065178E+04  1.421916E+05  2.071056E+04  5.378978E+04
       116  24  2.898462E+02 -1.517779E+05 -3.562564E+04  1.664877E+05  1.654182E+04  2.228849E+04
       116  25  5.405060E+04  5.095720E+05  3.362953E+04  1.017400E+05  7.251089E+03  5.329930E+04
       116  26  9.647871E+04  3.306864E+05  3.772303E+04  1.148036E+05  2.070172E+04  4.711031E+04
       116  27  6.851245E+04  1.334137E+05  2.019136E+04  1.765301E+05  1.655951E+04  4.093259E+04
       117   1 -4.152485E+04 -3.044465E+05 -5.993435E+04  1.684243E+05 -8.825849E+03 -1.671238E+03
       117   2  6.981062E+03 -1.153270E+05 -1.444702E+04  1.420534E+05  2.060939E+03  8.233733E+03
       117   3  5.073333E+04  7.126817E+04  2.337672E+04  1.653131E+05  1.284007E+04  1.814198E+04
       117   4 -3.878117E+03 -1.472663E+05 -2.890127E+04  1.667131E+05 -8.841008E+03 -1.740903E+04
       117   5 -2.976582E+02 -1.459760E+05 -2.018573E+04  1.418964E+05  2.046164E+03 -7.349591E+03
       117   6 -1.495395E+03 -1.472697E+05 -1.923896E+04  1.667109E+05  1.282564E+04  2.710271E+03
       117   7  3.376726E+04  9.938081E+03  2.131528E+03  1.650015E+05 -8.856078E+03 -3.315073E+04
       117   8 -7.576302E+03 -1.766235E+05 -2.592358E+04  1.417394E+05  2.031397E+03 -2.293216E+04
       117   9 -5.372686E+04 -3.657612E+05 -6.185603E+04  1.681082E+05  1.281113E+04 -1.271613E+04
       117  10 -4.152493E+04 -3.044465E+05 -5.993450E+04  1.684243E+05  9.801038E-10  1.040810E-09
       117  11  6.981039E+03 -1.153271E+05 -1.444715E+04  1.420534E+05  6.313931E-10  9.041163E-10
       117  12  5.073307E+04  7.126778E+04  2.337580E+04  1.653129E+05  1.813582E-10  1.413610E-09
       117  13 -3.878283E+03 -1.472666E+05 -2.890199E+04  1.667130E+05  6.200018E-10 -2.272204E-11
       117  14 -2.976772E+02 -1.459760E+05 -2.018584E+04  1.418964E+05  7.873980E-10  1.822558E-10
       117  15 -1.495574E+03 -1.472697E+05 -1.923929E+04  1.667108E+05 -7.831718E-11  4.927271E-11
       117  16  3.376688E+04  9.936880E+03  2.129316E+03  1.650013E+05  1.303187E-09 -9.023533E-10
       117  17 -7.576448E+03 -1.766240E+05 -2.592457E+04  1.417394E+05  1.276649E-09 -8.575139E-10
       117  18 -5.372708E+04 -3.657614E+05 -6.185665E+04  1.681083E+05  5.153490E-11 -1.461282E-09
       117  19 -4.152485E+04 -3.044465E+05 -5.993435E+04  1.684243E+05  8.825849E+03  1.671238E+03
       117  20  6.981062E+03 -1.153270E+05 -1.444702E+04  1.420534E+05 -2.060939E+03 -8.233733E+03
       117  21  5.073333E+04  7.126817E+04  2.337672E+04  1.653131E+05 -1.284007E+04 -1.814198E+04
       117  22 -3.878117E+03 -1.472663E+05 -2.890127E+04  1.667131E+05  8.841008E+03  1.740903E+04
       117  23 -2.976582E+02 -1.459760E+05 -2.018573E+04  1.418964E+05 -2.046164E+03  7.349591E+03
       117  24 -1.495395E+03 -1.472697E+05 -1.923896E+04  1.667109E+05 -1.282564E+04 -2.710271E+03
       117  25  3.376726E+04  9.938081E+03  2.131528E+03  1.650015E+05  8.856078E+03  3.315073E+04
       117  26 -7.576302E+03 -1.766235E+05 -2.592358E+04  1.417394E+05 -2.031397E+03  2.293216E+04
       117  27 -5.372686E+04 -3.657612E+05 -6.185603E+04  1.681082E+05 -1.281113E+04  1.271613E+04
       118   1  8.303783E+04  1.975423E+05  4.675383E+04  1.709072E+05  2.052845E+04  2.446735E+04
       118   2  1.207680E+05  3.884674E+05  8.096864E+04  1.296737E+05  2.389058E+04  1.234141E+04
       118   3  1.291698E+05  5.736568E+05  1.157357E+05  1.369983E+05  8.160967E+03  2.206469E+02
       118   4  2.278182E+02 -1.490537E+05 -2.067099E+04  1.664689E+05  2.051197E+04  5.851726E+03
       118   5 -7.779733E+03 -1.438124E+05 -2.968941E+04  1.422043E+05  2.389947E+04  2.122304E+04
       118   6 -4.990247E+04 -1.491209E+05 -5.725456E+04  1.665048E+05  8.187102E+03  3.660249E+04
       118   7 -8.258913E+04 -4.955337E+05 -8.810019E+04  1.620332E+05  2.049576E+04 -1.275374E+04
       118   8 -1.363449E+05 -6.758234E+05 -1.403626E+05  1.547240E+05  2.390873E+04  3.009718E+04
       118   9 -2.290085E+05 -8.714154E+05 -2.302762E+05  1.959768E+05  8.216713E+03  7.294217E+04
       118  10  8.303722E+04  1.975416E+05  4.675192E+04  1.709068E+05 -9.098243E-11  2.599227E-08
       118  11  1.207674E+05  3.884671E+05  8.096728E+04  1.296734E+05 -1.025098E-09  1.026034E-09
       118  12  1.291697E+05  5.736567E+05  1.157355E+05  1.369983E+05 -3.043910E-10 -2.324773E-08
       118  13  2.273573E+02 -1.490539E+05 -2.067184E+04  1.664688E+05 -1.115292E-10  2.195621E-11
       118  14 -7.780467E+03 -1.438130E+05 -2.969133E+04  1.422039E+05 -1.124763E-09  3.365749E-11
       118  15 -4.990290E+04 -1.491224E+05 -5.725720E+04  1.665046E+05 -3.813622E-10 -6.401928E-11
       118  16 -8.258963E+04 -4.955339E+05 -8.810128E+04  1.620334E+05 -6.049811E-10 -2.588834E-08
       118  17 -1.363457E+05 -6.758246E+05 -1.403654E+05  1.547234E+05 -6.974773E-10 -1.199702E-09
       118  18 -2.290100E+05 -8.714211E+05 -2.302864E+05  1.959763E+05 -3.820533E-10  2.320847E-08
       118  19  8.303783E+04  1.975423E+05  4.675383E+04  1.709072E+05 -2.052845E+04 -2.446735E+04
       118  20  1.207680E+05  3.884674E+05  8.096864E+04  1.296737E+05 -2.389058E+04 -1.234141E+04
       118  21  1.291698E+05  5.736568E+05  1.157357E+05  1.369983E+05 -8.160967E+03 -2.206469E+02
       118  22  2.278182E+02 -1.490537E+05 -2.067099E+04  1.664689E+05 -2.051197E+04 -5.851726E+03
       118  23 -7.779733E+03 -1.438124E+05 -2.968941E+04  1.422043E+05 -2.389947E+04 -2.122304E+04
       118  24 -4.990247E+04 -1.491209E+05 -5.725456E+04  1.665048E+05 -8.187102E+03 -3.660249E+04
       118  25 -8.258913E+04 -4.955337E+05 -8.810019E+04  1.620332E+05 -2.049576E+04  1.275374E+04
       118  26 -1.363449E+05 -6.758234E+05 -1.403626E+05  1.547240E+05 -2.390873E+04 -3.009718E+04
       118  27 -2.290085E+05 -8.714154E+05 -2.302762E+05  1.959768E+05 -8.216713E+03 -7.294217E+04
       119   1  6.579203E+05  5.093010E+05  1.290404E+05  4.639132E+05  6.503486E+04  4.698552E+04
       119   2  6.512985E+05  4.215506E+05  6.941803E+04  4.868571E+05  4.307507E+04  2.638856E+04
       119   3  6.798709E+05  3.831192E+05  4.538209E+04  4.886902E+05  1.970363E+04  7.676035E+03
       119   4  6.417692E+05  4.065364E+05  1.065437E+05  4.138329E+05  5.985821E+04  4.309751E+04
       119   5  6.075784E+05  3.520816E+05  5.104492E+04  4.469529E+05  4.061157E+04  2.454005E+04
       119   6  6.079950E+05  3.463579E+05  2.878083E+04  4.589617E+05  1.995454E+04  7.864333E+03
       119   7  6.256235E+05  3.037924E+05  8.404822E+04  3.637568E+05  5.468165E+04  3.921101E+04
       119   8  5.638608E+05  2.826197E+05  3.267153E+04  4.070531E+05  3.814826E+04  2.269198E+04
       119   9  5.361240E+05  3.095973E+05  1.217894E+04  4.292362E+05  2.020542E+04  8.052614E+03
       119  10  6.579152E+05  5.092975E+05  1.290284E+05  4.639108E+05  1.951982E-10  9.171617E-11
       119  11  6.512964E+05  4.215494E+05  6.941325E+04  4.868562E+05 -1.105938E-11 -1.780010E-10
       119  12  6.798704E+05  3.831191E+05  4.538125E+04  4.886901E+05  8.031085E-10 -1.672094E-10
       119  13  6.417649E+05  4.065334E+05  1.065335E+05  4.138308E+05  1.718825E-10  1.865219E-11
       119  14  6.075764E+05  3.520805E+05  5.104070E+04  4.469521E+05 -3.829241E-10 -8.996460E-12
       119  15  6.079946E+05  3.463577E+05  2.877997E+04  4.589616E+05 -2.053230E-10 -1.886518E-10
       119  16  6.256198E+05  3.037899E+05  8.403972E+04  3.637551E+05 -1.880766E-10 -7.342503E-11
       119  17  5.638591E+05  2.826187E+05  3.266783E+04  4.070524E+05 -1.746921E-10 -8.638982E-11
       119  18  5.361235E+05  3.095971E+05  1.217805E+04  4.292360E+05 -4.720909E-11 -1.961777E-10
       119  19  6.579203E+05  5.093010E+05  1.290404E+05  4.639132E+05 -6.503486E+04 -4.698552E+04
       119  20  6.512985E+05  4.215506E+05  6.941803E+04  4.868571E+05 -4.307507E+04 -2.638856E+04
       119  21  6.798709E+05  3.831192E+05  4.538209E+04  4.886902E+05 -1.970363E+04 -7.676035E+03
       119  22  6.417692E+05  4.065364E+05  1.065437E+05  4.138329E+05 -5.985821E+04 -4.309751E+04
       119  23  6.075784E+05  3.520816E+05  5.104492E+04  4.469529E+05 -4.061157E+04 -2.454005E+04
       119  24  6.079950E+05  3.463579E+05  2.878083E+04  4.589617E+05 -1.995454E+04 -7.864333E+03
       119  25  6.256235E+05  3.037924E+05  8.404822E+04  3.637568E+05 -5.468165E+04 -3.921101E+04
       119  26  5.638608E+05  2.826197E+05  3.267153E+04  4.070531E+05 -3.814826E+04 -2.269198E+04
       119  27  5.361240E+05  3.095973E+05  1.217894E+04  4.292362E+05 -2.020542E+04 -8.052614E+03
       120   1  6.673386E+05  3.920670E+05  3.849889E+04  4.868243E+05  1.688381E+04  5.732344E+03
       120   2  6.642735E+05  3.863584E+05  2.828310E+04  4.863000E+05  1.144420E+04  1.670622E+03
       120   3  6.623453E+05  3.840173E+05  2.320615E+04  4.854296E+05  5.904434E+03 -2.257116E+03
       120   4  6.067341E+05  3.472885E+05  2.242602E+04  4.553138E+05  1.679980E+04  5.669264E+03
       120   5  6.055064E+05  3.444128E+05  1.313275E+04  4.563976E+05  1.155380E+04  1.752675E+03
       120   6  6.053738E+05  3.448629E+05  8.811018E+03  4.571353E+05  6.207570E+03 -2.029994E+03
       120   7  5.461347E+05  3.025131E+05  6.353161E+03  4.238074E+05  1.671580E+04  5.606193E+03
       120   8  5.467437E+05  3.024697E+05 -2.017717E+03  4.264987E+05  1.166338E+04  1.834717E+03
       120   9  5.484060E+05  3.057104E+05 -5.584359E+03  4.288441E+05  6.510668E+03 -1.802900E+03
       120  10  6.673383E+05  3.920669E+05  3.849829E+04  4.868243E+05 -2.367601E-10 -3.164226E-10
       120  11  6.642733E+05  3.863584E+05  2.828285E+04  4.862999E+05 -3.278507E-10  1.972366E-10
       120  12  6.623452E+05  3.840173E+05  2.320608E+04  4.854296E+05  3.963110E-11  2.479486E-11
       120  13  6.067338E+05  3.472884E+05  2.242543E+04  4.553137E+05 -9.448817E-11 -9.944681E-11
       120  14  6.055062E+05  3.444128E+05  1.313249E+04  4.563976E+05  5.664868E-10  8.261632E-11
       120  15  6.053738E+05  3.448629E+05  8.810938E+03  4.571354E+05  6.161319E-10  5.546259E-12
       120  16  5.461344E+05  3.025130E+05  6.352578E+03  4.238073E+05  5.244263E-10  2.154390E-11
       120  17  5.467435E+05  3.024696E+05 -2.017979E+03  4.264987E+05  5.198203E-10  1.368874E-10
       120  18  5.484060E+05  3.057104E+05 -5.584445E+03  4.288441E+05 -5.532141E-11  6.397371E-11
       120  19  6.673386E+05  3.920670E+05  3.849889E+04  4.868243E+05 -1.688381E+04 -5.732344E+03
       120  20  6.642735E+05  3.863584E+05  2.828310E+04  4.863000E+05 -1.144420E+04 -1.670622E+03
       120  21  6.623453E+05  3.840173E+05  2.320615E+04  4.854296E+05 -5.904434E+03  2.257116E+03
       120  22  6.067341E+05  3.472885E+05  2.242602E+04  4.553138E+05 -1.679980E+04 -5.669264E+03
       120  23  6.055064E+05  3.444128E+05  1.313275E+04  4.563976E+05 -1.155380E+04 -1.752675E+03
       120  24  6.053738E+05  3.448629E+05  8.811018E+03  4.571353E+05 -6.207570E+03  2.029994E+03
       120  25  5.461347E+05  3.025131E+05  6.353161E+03  4.238074E+05 -1.671580E+04 -5.606193E+03
       120  26  5.467437E+05  3.024697E+05 -2.017717E+03  4.264987E+05 -1.166338E+04 -1.834717E+03
       120  27  5.484060E+05  3.057104E+05 -5.584359E+03  4.288441E+05 -6.510668E+03  1.802900E+03
       121   1  6.599238E+05  3.832675E+05  2.169114E+04  4.844808E+05  4.660007E+03 -2.998753E+03
       121   2  6.573349E+05  3.808949E+05  2.064825E+04  4.829852E+05  1.553277E+03 -5.016303E+03
       121   3  6.542937E+05  3.798675E+05  2.209125E+04  4.818743E+05 -1.563517E+03 -7.020516E+03
       121   4  6.052880E+05  3.448826E+05  7.778881E+03  4.569526E+05  4.937278E+03 -2.791010E+03
       121   5  6.055218E+05  3.442227E+05  7.418289E+03  4.567521E+05  1.850105E+03 -4.793889E+03
       121   6  6.052994E+05  3.449036E+05  9.526820E+03  4.569363E+05 -1.247106E+03 -6.783409E+03
       121   7  5.506547E+05  3.064989E+05 -6.133900E+03  4.294268E+05  5.214521E+03 -2.583289E+03
       121   8  5.537119E+05  3.075520E+05 -5.811889E+03  4.305215E+05  2.146900E+03 -4.571500E+03
       121   9  5.563085E+05  3.099417E+05 -3.037545E+03  4.320009E+05 -9.307325E+02 -6.546330E+03
       121  10  6.599237E+05  3.832675E+05  2.169108E+04  4.844808E+05  5.252949E-11 -3.998808E-11
       121  11  6.573349E+05  3.808949E+05  2.064820E+04  4.829852E+05  3.324102E-10 -1.663585E-10
       121  12  6.542936E+05  3.798674E+05  2.209115E+04  4.818743E+05  1.471456E-10 -1.793183E-10
       121  13  6.052879E+05  3.448826E+05  7.778820E+03  4.569527E+05 -4.883766E-11  5.307566E-11
       121  14  6.055218E+05  3.442227E+05  7.418239E+03  4.567521E+05 -3.020134E-10 -8.747885E-11
       121  15  6.052993E+05  3.449035E+05  9.526731E+03  4.569363E+05  3.953139E-11  8.036293E-11
       121  16  5.506547E+05  3.064989E+05 -6.133964E+03  4.294268E+05  1.497846E-10 -6.566443E-11
       121  17  5.537118E+05  3.075520E+05 -5.811937E+03  4.305215E+05  7.696167E-10  6.713448E-11
       121  18  5.563085E+05  3.099416E+05 -3.037627E+03  4.320009E+05  5.853176E-10  1.820942E-10
       121  19  6.599238E+05  3.832675E+05  2.169114E+04  4.844808E+05 -4.660007E+03  2.998753E+03
       121  20  6.573349E+05  3.808949E+05  2.064825E+04  4.829852E+05 -1.553277E+03  5.016303E+03
       121  21  6.542937E+05  3.798675E+05  2.209125E+04  4.818743E+05  1.563517E+03  7.020516E+03
       121  22  6.052880E+05  3.448826E+05  7.778881E+03  4.569526E+05 -4.937278E+03  2.791010E+03
       121  23  6.055218E+05  3.442227E+05  7.418289E+03  4.567521E+05 -1.850105E+03  4.793889E+03
       121  24  6.052994E+05  3.449036E+05  9.526820E+03  4.569363E+05  1.247106E+03  6.783409E+03
       121  25  5.506547E+05  3.064989E+05 -6.133900E+03  4.294268E+05 -5.214521E+03  2.583289E+03
       121  26  5.537119E+05  3.075520E+05 -5.811889E+03  4.305215E+05 -2.146900E+03  4.571500E+03
       121  27  5.563085E+05  3.099417E+05 -3.037545E+03  4.320009E+05  9.307325E+02  6.546330E+03
       122   1  6.519309E+05  3.793109E+05  2.367579E+04  4.814876E+05 -3.135424E+03 -8.007469E+03
       122   2  6.506463E+05  3.756539E+05  3.020805E+04  4.787350E+05 -1.089060E+04 -1.344212E+04
       122   3  6.514495E+05  3.764950E+05  4.396671E+04  4.753023E+05 -1.869513E+04 -1.881112E+04
       122   4  6.054565E+05  3.448819E+05  1.158400E+04  4.572387E+05 -2.833340E+03 -7.781081E+03
       122   5  6.054358E+05  3.444483E+05  1.874037E+04  4.562232E+05 -1.049309E+04 -1.314422E+04
       122   6  6.074823E+05  3.484924E+05  3.304081E+04  4.545277E+05 -1.820226E+04 -1.844181E+04
       122   7  5.589845E+05  3.104543E+05 -5.079731E+02  4.329920E+05 -2.531286E+03 -7.554717E+03
       122   8  5.602272E+05  3.132436E+05  7.272408E+03  4.337132E+05 -1.009561E+04 -1.284634E+04
       122   9  5.635166E+05  3.204903E+05  2.211454E+04  4.337543E+05 -1.770944E+04 -1.807253E+04
       122  10  6.519308E+05  3.793108E+05  2.367565E+04  4.814875E+05 -1.325259E-10  1.393270E-10
       122  11  6.506462E+05  3.756537E+05  3.020749E+04  4.787349E+05  7.863005E-10 -2.015429E-11
       122  12  6.514491E+05  3.764945E+05  4.396539E+04  4.753021E+05  3.109600E-10 -1.760244E-10
       122  13  6.054565E+05  3.448818E+05  1.158387E+04  4.572387E+05  2.484564E-10  3.627163E-11
       122  14  6.054356E+05  3.444481E+05  1.873984E+04  4.562231E+05  2.085047E-10 -1.707800E-11
       122  15  6.074818E+05  3.484920E+05  3.303955E+04  4.545274E+05  9.204317E-10 -2.346495E-10
       122  16  5.589845E+05  3.104542E+05 -5.080923E+02  4.329920E+05 -2.844126E-10  2.599621E-12
       122  17  5.602271E+05  3.132434E+05  7.271907E+03  4.337131E+05  5.148859E-10 -1.089268E-10
       122  18  5.635161E+05  3.204899E+05  2.211334E+04  4.337541E+05  4.210361E-10 -3.001716E-10
       122  19  6.519309E+05  3.793109E+05  2.367579E+04  4.814876E+05  3.135424E+03  8.007469E+03
       122  20  6.506463E+05  3.756539E+05  3.020805E+04  4.787350E+05  1.089060E+04  1.344212E+04
       122  21  6.514495E+05  3.764950E+05  4.396671E+04  4.753023E+05  1.869513E+04  1.881112E+04
       122  22  6.054565E+05  3.448819E+05  1.158400E+04  4.572387E+05  2.833340E+03  7.781081E+03
       122  23  6.054358E+05  3.444483E+05  1.874037E+04  4.562232E+05  1.049309E+04  1.314422E+04
       122  24  6.074823E+05  3.484924E+05  3.304081E+04  4.545277E+05  1.820226E+04  1.844181E+04
       122  25  5.589845E+05  3.104543E+05 -5.079731E+02  4.329920E+05  2.531286E+03  7.554717E+03
       122  26  5.602272E+05  3.132436E+05  7.272408E+03  4.337132E+05  1.009561E+04  1.284634E+04
       122  27  5.635166E+05  3.204903E+05  2.211454E+04  4.337543E+05  1.770944E+04  1.807253E+04
       123   1  6.375561E+05  3.879388E+05  5.316203E+04  4.839963E+05 -2.316055E+04 -2.195798E+04
       123   2  6.802013E+05  3.487424E+05  8.653702E+04  4.512014E+05 -5.669438E+04 -4.601429E+04
       123   3  7.751392E+05  3.824712E+05  1.707204E+05  3.867517E+05 -9.092290E+04 -6.914247E+04
       123   4  6.093202E+05  3.471564E+05  4.268101E+04  4.600042E+05 -2.283249E+04 -2.171129E+04
       123   5  6.085863E+05  3.558306E+05  7.617886E+04  4.420823E+05 -5.503128E+04 -4.477281E+04
       123   6  6.598517E+05  4.371375E+05  1.593308E+05  3.925066E+05 -8.792124E+04 -6.691145E+04
       123   7  5.810860E+05  3.063772E+05  3.220016E+04  4.360142E+05 -2.250446E+04 -2.146464E+04
       123   8  5.369798E+05  3.629206E+05  6.582135E+04  4.329628E+05 -5.336847E+04 -4.353124E+04
       123   9  5.445907E+05  4.918201E+05  1.479448E+05  3.982554E+05 -8.492041E+04 -6.467981E+04
       123  10  6.375553E+05  3.879382E+05  5.316012E+04  4.839959E+05  1.186185E-10 -3.884760E-10
       123  11  6.801973E+05  3.487393E+05  8.652702E+04  4.511993E+05  4.079333E-10 -6.012444E-11
       123  12  7.751290E+05  3.824639E+05  1.706959E+05  3.867467E+05  4.858672E-10  6.995273E-11
       123  13  6.093195E+05  3.471557E+05  4.267915E+04  4.600038E+05  5.733806E-10 -2.265041E-10
       123  14  6.085826E+05  3.558276E+05  7.616942E+04  4.420803E+05  2.699818E-10  1.267470E-10
       123  15  6.598422E+05  4.371306E+05  1.593079E+05  3.925019E+05 -1.116525E-10  4.804749E-11
       123  16  5.810853E+05  3.063765E+05  3.219834E+04  4.360138E+05 -4.473003E-11 -1.200500E-10
       123  17  5.369763E+05  3.629178E+05  6.581245E+04  4.329609E+05 -5.097872E-10 -1.757195E-11
       123  18  5.445818E+05  4.918137E+05  1.479234E+05  3.982510E+05 -9.901506E-11  2.363131E-11
       123  19  6.375561E+05  3.879388E+05  5.316203E+04  4.839963E+05  2.316055E+04  2.195798E+04
       123  20  6.802013E+05  3.487424E+05  8.653702E+04  4.512014E+05  5.669438E+04  4.601429E+04
       123  21  7.751392E+05  3.824712E+05  1.707204E+05  3.867517E+05  9.092290E+04  6.914247E+04
       123  22  6.093202E+05  3.471564E+05  4.268101E+04  4.600042E+05  2.283249E+04  2.171129E+04
       123  23  6.085863E+05  3.558306E+05  7.617886E+04  4.420823E+05  5.503128E+04  4.477281E+04
       123  24  6.598517E+05  4.371375E+05  1.593308E+05  3.925066E+05  8.792124E+04  6.691145E+04
       123  25  5.810860E+05  3.063772E+05  3.220016E+04  4.360142E+05  2.250446E+04  2.146464E+04
       123  26  5.369798E+05  3.629206E+05  6.582135E+04  4.329628E+05  5.336847E+04  4.353124E+04
       123  27  5.445907E+05  4.918201E+05  1.479448E+05  3.982554E+05  8.492041E+04  6.467981E+04
       124   1  1.101076E+06  1.665415E+05  1.717320E+05  1.031389E+05  7.483907E+04 -5.083834E+03
       124   2  1.020785E+06  9.032058E+04  1.043310E+05  7.126282E+04  4.084141E+04 -1.580934E+04
       124   3  9.568952E+05  6.195214E+04  7.100216E+04  5.780050E+04  6.850664E+03 -1.609190E+04
       124   4  6.964826E+05  6.645784E+04  7.545413E+04  6.376032E+04  5.182800E+04 -5.087287E+03
       124   5  6.896047E+05  1.057147E+04  3.644021E+04  5.455423E+04  3.289752E+04 -1.581108E+04
       124   6  6.965200E+05 -6.214006E+01  2.105734E+04  6.375902E+04  1.396917E+04 -1.609186E+04
       124   7  2.920438E+05 -3.363147E+04 -2.083233E+04  2.440750E+04  2.883182E+04 -5.087827E+03
       124   8  3.585296E+05 -6.918344E+04 -3.145602E+04  3.785469E+04  2.495777E+04 -1.581238E+04
       124   9  4.362103E+05 -6.208027E+04 -2.889037E+04  6.971499E+04  2.108475E+04 -1.609168E+04
       124  10  1.101070E+06  1.665399E+05  1.717214E+05  1.031392E+05  1.566929E-10  4.398709E-12
       124  11  1.020783E+06  9.031987E+04  1.043274E+05  7.126334E+04 -1.047617E-10 -2.371766E-11
       124  12  9.568951E+05  6.195185E+04  7.100158E+04  5.780059E+04 -1.278225E-10 -7.368282E-11
       124  13  6.964797E+05  6.645710E+04  7.544904E+04  6.376053E+04 -3.265688E-10  5.444428E-11
       124  14  6.896035E+05  1.057091E+04  3.643771E+04  5.455465E+04 -2.693363E-10 -1.177544E-10
       124  15  6.965198E+05 -6.247056E+01  2.105649E+04  6.375921E+04 -2.436786E-10  6.555530E-12
       124  16  2.920429E+05 -3.363172E+04 -2.083394E+04  2.440762E+04 -1.871879E-10 -1.197647E-10
       124  17  3.585289E+05 -6.918388E+04 -3.145766E+04  3.785501E+04 -2.380840E-10 -1.154638E-10
       124  18  4.362097E+05 -6.208066E+04 -2.889169E+04  6.971526E+04 -4.540674E-10 -1.612444E-11
       124  19  1.101076E+06  1.665415E+05  1.717320E+05  1.031389E+05 -7.483907E+04  5.083834E+03
       124  20  1.020785E+06  9.032058E+04  1.043310E+05  7.126282E+04 -4.084141E+04  1.580934E+04
       124  21  9.568952E+05  6.195214E+04  7.100216E+04  5.780050E+04 -6.850664E+03  1.609190E+04
       124  22  6.964826E+05  6.645784E+04  7.545413E+04  6.376032E+04 -5.182800E+04  5.087287E+03
       124  23  6.896047E+05  1.057147E+04  3.644021E+04  5.455423E+04 -3.289752E+04  1.581108E+04
       124  24  6.965200E+05 -6.214006E+01  2.105734E+04  6.375902E+04 -1.396917E+04  1.609186E+04
       124  25  2.920438E+05 -3.363147E+04 -2.083233E+04  2.440750E+04 -2.883182E+04  5.087827E+03
       124  26  3.585296E+05 -6.918344E+04 -3.145602E+04  3.785469E+04 -2.495777E+04  1.581238E+04
       124  27  4.362103E+05 -6.208027E+04 -2.889037E+04  6.971499E+04 -2.108475E+04  1.609168E+04
       125   1  9.049682E+05  5.280534E+04  5.722030E+04  6.486360E+04  5.832721E+03 -1.317751E+04
       125   2  8.323538E+05  3.321854E+04  3.717809E+04  5.472854E+04 -6.561578E+02 -9.169392E+03
       125   3  7.611645E+05  1.593260E+04  2.193116E+04  6.359168E+04 -7.144917E+03 -4.458942E+03
       125   4  6.937340E+05  2.515650E+03  1.681499E+04  6.389036E+04  1.110312E+04 -1.317734E+04
       125   5  6.931151E+05  1.582303E+02  1.099512E+04  5.439132E+04  5.628029E+03 -9.168772E+03
       125   6  6.937423E+05 -7.310981E+01  9.268699E+03  6.389069E+04  1.523546E+02 -4.457794E+03
       125   7  4.825427E+05 -4.777665E+04 -2.359225E+04  6.291745E+04  1.637177E+04 -1.317719E+04
       125   8  5.538952E+05 -3.290318E+04 -1.518854E+04  5.405418E+04  1.191084E+04 -9.168158E+03
       125   9  6.263245E+05 -1.607906E+04 -3.393762E+03  6.418967E+04  7.448854E+03 -4.456639E+03
       125  10  9.049681E+05  5.280515E+04  5.721991E+04  6.486366E+04  1.954629E-10 -1.164560E-10
       125  11  8.323538E+05  3.321845E+04  3.717793E+04  5.472854E+04  5.330481E-10 -1.231760E-10
       125  12  7.611645E+05  1.593257E+04  2.193103E+04  6.359166E+04 -4.900550E-10  4.234058E-11
       125  13  6.937338E+05  2.515430E+03  1.681443E+04  6.389047E+04 -6.382133E-10 -3.995368E-11
       125  14  6.931150E+05  1.581315E+02  1.099490E+04  5.439136E+04 -1.543301E-10  1.086815E-10
       125  15  6.937422E+05 -7.313116E+01  9.268662E+03  6.389069E+04 -1.582040E-12  1.682019E-10
       125  16  4.825424E+05 -4.777691E+04 -2.359308E+04  6.291762E+04 -6.077801E-10  7.067516E-11
       125  17  5.538950E+05 -3.290331E+04 -1.518897E+04  5.405427E+04 -1.870097E-10  1.697893E-10
       125  18  6.263244E+05 -1.607909E+04 -3.393904E+03  6.418969E+04  4.852917E-11  3.398773E-10
       125  19  9.049682E+05  5.280534E+04  5.722030E+04  6.486360E+04 -5.832721E+03  1.317751E+04
       125  20  8.323538E+05  3.321854E+04  3.717809E+04  5.472854E+04  6.561578E+02  9.169392E+03
       125  21  7.611645E+05  1.593260E+04  2.193116E+04  6.359168E+04  7.144917E+03  4.458942E+03
       125  22  6.937340E+05  2.515650E+03  1.681499E+04  6.389036E+04 -1.110312E+04  1.317734E+04
       125  23  6.931151E+05  1.582303E+02  1.099512E+04  5.439132E+04 -5.628029E+03  9.168772E+03
       125  24  6.937423E+05 -7.310981E+01  9.268699E+03  6.389069E+04 -1.523546E+02  4.457794E+03
       125  25  4.825427E+05 -4.777665E+04 -2.359225E+04  6.291745E+04 -1.637177E+04  1.317719E+04
       125  26  5.538952E+05 -3.290318E+04 -1.518854E+04  5.405418E+04 -1.191084E+04  9.168158E+03
       125  27  6.263245E+05 -1.607906E+04 -3.393762E+03  6.418967E+04 -7.448854E+03  4.456639E+03
       126   1  7.125004E+05  4.305290E+03  1.280383E+04  6.433903E+04 -8.771196E+03 -1.465473E+03
       126   2  6.399808E+05 -1.242472E+04  2.107565E+03  5.405263E+04 -1.410068E+04  3.306840E+03
       126   3  5.687513E+05 -2.678473E+04 -4.529588E+03  6.276787E+04 -1.942941E+04  7.536785E+03
       126   4  6.937818E+05 -9.628712E+01  9.500307E+03  6.389138E+04 -1.501484E+03 -1.464244E+03
       126   5  6.930693E+05  2.171066E+02  1.226725E+04  5.439044E+04 -7.613403E+03  3.307781E+03
       126   6  6.937769E+05  3.036201E+03  1.963571E+04  6.389092E+04 -1.372515E+04  7.537459E+03
       126   7  6.750637E+05 -4.497854E+03  6.196965E+03  6.344375E+04  5.768015E+03 -1.463025E+03
       126   8  7.461605E+05  1.285879E+04  2.242697E+04  5.472827E+04 -1.125581E+03  3.308729E+03
       126   9  8.188176E+05  3.285623E+04  4.380039E+04  6.501421E+04 -8.019768E+03  7.538154E+03
       126  10  7.125003E+05  4.305267E+03  1.280368E+04  6.433902E+04  2.439045E-10  1.076481E-10
       126  11  6.399806E+05 -1.242478E+04  2.107171E+03  5.405267E+04  5.922661E-11 -2.369279E-11
       126  12  5.687509E+05 -2.678489E+04 -4.530403E+03  6.276798E+04 -2.465373E-10  1.870375E-10
       126  13  6.937818E+05 -9.629002E+01  9.500298E+03  6.389138E+04  3.029931E-10  1.427714E-10
       126  14  6.930692E+05  2.170793E+02  1.226713E+04  5.439046E+04 -1.955714E-10 -6.781291E-11
       126  15  6.937767E+05  3.036090E+03  1.963524E+04  6.389100E+04  1.416173E-10 -4.435013E-11
       126  16  6.750636E+05 -4.497865E+03  6.196899E+03  6.344376E+04 -9.286472E-11  2.467853E-10
       126  17  7.461605E+05  1.285878E+04  2.242695E+04  5.472828E+04  3.489690E-10  3.518892E-11
       126  18  8.188175E+05  3.285615E+04  4.380016E+04  6.501425E+04  3.877629E-10 -3.473027E-11
       126  19  7.125004E+05  4.305290E+03  1.280383E+04  6.433903E+04  8.771196E+03  1.465473E+03
       126  20  6.399808E+05 -1.242472E+04  2.107565E+03  5.405263E+04  1.410068E+04 -3.306840E+03
       126  21  5.687513E+05 -2.678473E+04 -4.529588E+03  6.276787E+04  1.942941E+04 -7.536785E+03
       126  22  6.937818E+05 -9.628712E+01  9.500307E+03  6.389138E+04  1.501484E+03  1.464244E+03
       126  23  6.930693E+05  2.171066E+02  1.226725E+04  5.439044E+04  7.613403E+03 -3.307781E+03
       126  24  6.937769E+05  3.036201E+03  1.963571E+04  6.389092E+04  1.372515E+04 -7.537459E+03
       126  25  6.750637E+05 -4.497854E+03  6.196965E+03  6.344375E+04 -5.768015E+03  1.463025E+03
       126  26  7.461605E+05  1.285879E+04  2.242697E+04  5.472827E+04  1.125581E+03 -3.308729E+03
       126  27  8.188176E+05  3.285623E+04  4.380039E+04  6.501421E+04  8.019768E+03 -7.538154E+03
       127   1  5.230928E+05 -4.156375E+04 -8.810506E+03  7.094477E+04 -2.425322E+04  1.046783E+04
       127   2  4.438749E+05 -4.640955E+04 -7.162274E+03  3.452835E+04 -3.481737E+04  1.128190E+04
       127   3  3.790780E+05  8.538004E+02  1.439143E+04  1.664634E+04 -4.538040E+04  3.759107E+03
       127   4  6.971258E+05 -5.050277E+01  2.485011E+04  6.378647E+04 -1.707848E+04  1.046878E+04
       127   5  6.888617E+05  1.268489E+04  4.346724E+04  5.451915E+04 -3.966257E+04  1.128011E+04
       127   6  6.970878E+05  7.959992E+04  9.032387E+04  6.378300E+04 -6.224697E+04  3.755136E+03
       127   7  8.711881E+05  4.146116E+04  5.850953E+04  5.662612E+04 -9.901774E+03  1.046957E+04
       127   8  9.339064E+05  7.177704E+04  9.409380E+04  7.451797E+04 -4.450965E+04  1.127800E+04
       127   9  1.015196E+06  1.583472E+05  1.662515E+05  1.109439E+05 -7.912214E+04  3.748609E+03
       127  10  5.230922E+05 -4.156402E+04 -8.811817E+03  7.094498E+04  3.452402E-10  2.338268E-10
       127  11  4.438735E+05 -4.641002E+04 -7.164790E+03  3.452867E+04 -2.562551E-10  2.968951E-11
       127  12  3.790758E+05  8.532328E+02  1.438753E+04  1.664648E+04 -4.094929E-10 -1.042398E-11
       127  13  6.971255E+05 -5.069872E+01  2.484935E+04  6.378662E+04  1.056011E-10  1.431168E-10
       127  14  6.888600E+05  1.268433E+04  4.346404E+04  5.451951E+04  1.222991E-11 -3.309516E-12
       127  15  6.970837E+05  7.959887E+04  9.031657E+04  6.378318E+04 -1.939336E-10 -5.335881E-11
       127  16  8.711879E+05  4.146102E+04  5.850914E+04  5.662621E+04  1.382769E-10 -3.307081E-11
       127  17  9.339042E+05  7.177638E+04  9.408984E+04  7.451837E+04 -8.831593E-11 -1.411285E-10
       127  18  1.015189E+06  1.583455E+05  1.662397E+05  1.109441E+05 -7.543449E-12 -3.682110E-11
       127  19  5.230928E+05 -4.156375E+04 -8.810506E+03  7.094477E+04  2.425322E+04 -1.046783E+04
       127  20  4.438749E+05 -4.640955E+04 -7.162274E+03  3.452835E+04  3.481737E+04 -1.128190E+04
       127  21  3.790780E+05  8.538004E+02  1.439143E+04  1.664634E+04  4.538040E+04 -3.759107E+03
       127  22  6.971258E+05 -5.050277E+01  2.485011E+04  6.378647E+04  1.707848E+04 -1.046878E+04
       127  23  6.888617E+05  1.268489E+04  4.346724E+04  5.451915E+04  3.966257E+04 -1.128011E+04
       127  24  6.970878E+05  7.959992E+04  9.032387E+04  6.378300E+04  6.224697E+04 -3.755136E+03
       127  25  8.711881E+05  4.146116E+04  5.850953E+04  5.662612E+04  9.901774E+03 -1.046957E+04
       127  26  9.339064E+05  7.177704E+04  9.409380E+04  7.451797E+04  4.450965E+04 -1.127800E+04
       127  27  1.015196E+06  1.583472E+05  1.662515E+05  1.109439E+05  7.912214E+04 -3.748609E+03
       128   1 -2.740116E+05 -9.721286E+05 -2.897506E+05  2.038753E+05 -5.948623E+03 -1.378916E+05
       128   2 -1.155746E+05 -8.224151E+05 -1.612489E+05  1.370318E+05 -1.727476E+04 -7.585711E+04
       128   3 -5.999962E+04 -7.065048E+05 -9.889262E+04  1.044834E+05 -1.493767E+04 -1.381036E+04
       128   4 -1.458323E+05 -4.550852E+05 -1.659008E+05  1.175521E+05 -5.918185E+03 -1.117646E+05
       128   5 -2.314089E+04 -4.398614E+05 -8.170116E+04  1.003670E+05 -1.726629E+04 -6.936220E+04
       128   6  1.308123E+02 -4.550220E+05 -4.997165E+04  1.174892E+05 -1.494507E+04 -2.696239E+04
       128   7 -1.764408E+04  6.222100E+04 -4.206330E+04  3.115661E+04 -5.895042E+03 -8.561591E+04
       128   8  6.928856E+04 -5.716588E+04 -2.160553E+03  6.367918E+04 -1.725860E+04 -6.286335E+04
       128   9  6.025817E+04 -2.034778E+05 -1.052938E+03  1.305004E+05 -1.495302E+04 -4.011964E+04
       128  10 -2.740167E+05 -9.721491E+05 -2.897864E+05  2.038746E+05 -1.015929E-10 -4.861599E-10
       128  11 -1.155764E+05 -8.224214E+05 -1.612603E+05  1.370307E+05 -3.409678E-10  4.661670E-10
       128  12 -5.999991E+04 -7.065050E+05 -9.889340E+04  1.044833E+05  1.826596E-10  8.806213E-10
       128  13 -1.458357E+05 -4.550986E+05 -1.659243E+05  1.175516E+05  1.935622E-10 -3.532253E-11
       128  14 -2.314251E+04 -4.398666E+05 -8.171076E+04  1.003660E+05 -1.448493E-10 -3.568465E-11
       128  15  1.303773E+02 -4.550229E+05 -4.997344E+04  1.174889E+05 -9.921064E-11 -1.128054E-11
       128  16 -1.764608E+04  6.221312E+04 -4.207714E+04  3.115621E+04 -2.291146E-10  4.843055E-10
       128  17  6.928718E+04 -5.717020E+04 -2.168540E+03  6.367831E+04 -4.365251E-10 -5.128823E-10
       128  18  6.025750E+04 -2.034795E+05 -1.056384E+03  1.304999E+05  7.870629E-10 -9.260866E-10
       128  19 -2.740116E+05 -9.721286E+05 -2.897506E+05  2.038753E+05  5.948623E+03  1.378916E+05
       128  20 -1.155746E+05 -8.224151E+05 -1.612489E+05  1.370318E+05  1.727476E+04  7.585711E+04
       128  21 -5.999962E+04 -7.065048E+05 -9.889262E+04  1.044834E+05  1.493767E+04  1.381036E+04
       128  22 -1.458323E+05 -4.550852E+05 -1.659008E+05  1.175521E+05  5.918185E+03  1.117646E+05
       128  23 -2.314089E+04 -4.398614E+05 -8.170116E+04  1.003670E+05  1.726629E+04  6.936220E+04
       128  24  1.308123E+02 -4.550220E+05 -4.997165E+04  1.174892E+05  1.494507E+04  2.696239E+04
       128  25 -1.764408E+04  6.222100E+04 -4.206330E+04  3.115661E+04  5.895042E+03  8.561591E+04
       128  26  6.928856E+04 -5.716588E+04 -2.160553E+03  6.367918E+04  1.725860E+04  6.286335E+04
       128  27  6.025817E+04 -2.034778E+05 -1.052938E+03  1.305004E+05  1.495302E+04  4.011964E+04
       129   1 -4.381119E+04 -6.102389E+05 -7.342412E+04  1.204414E+05 -9.504417E+03 -9.048473E+03
       129   2 -7.501248E+03 -4.753948E+05 -3.877893E+04  1.001801E+05 -1.892203E+03  7.785660E+03
       129   3  2.077123E+04 -3.447699E+05 -1.711952E+04  1.149955E+05  5.818757E+03  2.462303E+04
       129   4 -5.312616E+03 -4.492021E+05 -4.204492E+04  1.176695E+05 -9.510744E+03 -1.991937E+04
       129   5 -7.783479E+02 -4.470951E+05 -3.347853E+04  1.001306E+05 -1.898764E+03 -3.226024E+03
       129   6 -4.255591E+03 -4.491991E+05 -3.779810E+04  1.176689E+05  5.812066E+03  1.346713E+04
       129   7  3.318450E+04 -2.881401E+05 -1.066652E+04  1.148970E+05 -9.516974E+03 -3.079303E+04
       129   8  5.944571E+03 -4.187943E+05 -2.817772E+04  1.000811E+05 -1.905322E+03 -1.423820E+04
       129   9 -2.928298E+04 -5.536176E+05 -5.847674E+04  1.203418E+05  5.805278E+03  2.313065E+03
       129  10 -4.381131E+04 -6.102390E+05 -7.342444E+04  1.204413E+05 -2.096929E-10 -7.358777E-10
       129  11 -7.501268E+03 -4.753949E+05 -3.877905E+04  1.001801E+05 -8.159612E-10  4.753596E-11
       129  12  2.077103E+04 -3.447706E+05 -1.712073E+04  1.149954E+05 -1.612040E-10  1.684952E-10
       129  13 -5.312819E+03 -4.492025E+05 -4.204584E+04  1.176694E+05 -1.431270E-10 -3.360716E-11
       129  14 -7.783546E+02 -4.470951E+05 -3.347856E+04  1.001306E+05  1.471332E-11  3.674986E-11
       129  15 -4.255676E+03 -4.491993E+05 -3.779850E+04  1.176688E+05 -4.020915E-12 -8.264783E-11
       129  16  3.318415E+04 -2.881411E+05 -1.066847E+04  1.148967E+05  4.149914E-10  7.883881E-10
       129  17  5.944512E+03 -4.187946E+05 -2.817810E+04  1.000811E+05  4.788386E-10  1.250685E-11
       129  18 -2.928302E+04 -5.536176E+05 -5.847681E+04  1.203417E+05  1.156804E-10 -1.680195E-10
       129  19 -4.381119E+04 -6.102389E+05 -7.342412E+04  1.204414E+05  9.504417E+03  9.048473E+03
       129  20 -7.501248E+03 -4.753948E+05 -3.877893E+04  1.001801E+05  1.892203E+03 -7.785660E+03
       129  21  2.077123E+04 -3.447699E+05 -1.711952E+04  1.149955E+05 -5.818757E+03 -2.462303E+04
       129  22 -5.312616E+03 -4.492021E+05 -4.204492E+04  1.176695E+05  9.510744E+03  1.991937E+04
       129  23 -7.783479E+02 -4.470951E+05 -3.347853E+04  1.001306E+05  1.898764E+03  3.226024E+03
       129  24 -4.255591E+03 -4.491991E+05 -3.779810E+04  1.176689E+05 -5.812066E+03 -1.346713E+04
       129  25  3.318450E+04 -2.881401E+05 -1.066652E+04  1.148970E+05  9.516974E+03  3.079303E+04
       129  26  5.944571E+03 -4.187943E+05 -2.817772E+04  1.000811E+05  1.905322E+03  1.423820E+04
       129  27 -2.928298E+04 -5.536176E+05 -5.847674E+04  1.203418E+05 -5.805278E+03 -2.313065E+03
       130   1  4.675734E+04 -2.589617E+05 -5.203883E+03  1.280250E+05  1.126562E+04  3.292195E+04
       130   2  5.994529E+04 -1.151728E+05  1.046966E+02  7.015779E+04  1.428225E+04  5.057308E+04
       130   3 -5.302005E+03  6.723620E+03 -2.568883E+04  4.668355E+04  5.022596E+03  6.823188E+04
       130   4  1.171575E+02 -4.538205E+05 -4.339973E+04  1.175105E+05  1.125748E+04  1.974662E+04
       130   5 -1.891499E+04 -4.413486E+05 -6.809267E+04  1.003375E+05  1.428760E+04  5.505483E+04
       130   6 -1.194786E+05 -4.538732E+05 -1.361684E+05  1.175651E+05  5.040817E+03  9.036600E+04
       130   7 -4.652481E+04 -6.486421E+05 -8.159669E+04  1.069993E+05  1.124978E+04  6.575327E+03
       130   8 -9.777863E+04 -7.674216E+05 -1.362954E+05  1.305010E+05  1.429339E+04  5.953426E+04
       130   9 -2.336515E+05 -9.142639E+05 -2.466585E+05  1.883937E+05  5.064103E+03  1.124837E+05
       130  10  4.675691E+04 -2.589629E+05 -5.206159E+03  1.280247E+05 -7.050969E-11 -1.185148E-10
       130  11  5.994438E+04 -1.151756E+05  9.950642E+01  7.015721E+04 -1.922429E-10  3.462627E-10
       130  12 -5.303282E+03  6.718613E+03 -2.569762E+04  4.668328E+04  1.587956E-10  1.640789E-10
       130  13  1.169167E+02 -4.538209E+05 -4.340070E+04  1.175103E+05  1.618798E-10 -1.835237E-10
       130  14 -1.891602E+04 -4.413519E+05 -6.809875E+04  1.003369E+05 -1.602608E-10 -4.253819E-11
       130  15 -1.194809E+05 -4.538820E+05 -1.361838E+05  1.175647E+05 -2.299867E-11 -1.107583E-10
       130  16 -4.652496E+04 -6.486422E+05 -8.159701E+04  1.069993E+05  1.398160E-10  1.824015E-10
       130  17 -9.777981E+04 -7.674255E+05 -1.363024E+05  1.305004E+05  5.159185E-11 -3.430142E-10
       130  18 -2.336549E+05 -9.142775E+05 -2.466823E+05  1.883933E+05 -3.375714E-10 -6.498275E-11
       130  19  4.675734E+04 -2.589617E+05 -5.203883E+03  1.280250E+05 -1.126562E+04 -3.292195E+04
       130  20  5.994529E+04 -1.151728E+05  1.046966E+02  7.015779E+04 -1.428225E+04 -5.057308E+04
       130  21 -5.302005E+03  6.723620E+03 -2.568883E+04  4.668355E+04 -5.022596E+03 -6.823188E+04
       130  22  1.171575E+02 -4.538205E+05 -4.339973E+04  1.175105E+05 -1.125748E+04 -1.974662E+04
       130  23 -1.891499E+04 -4.413486E+05 -6.809267E+04  1.003375E+05 -1.428760E+04 -5.505483E+04
       130  24 -1.194786E+05 -4.538732E+05 -1.361684E+05  1.175651E+05 -5.040817E+03 -9.036600E+04
       130  25 -4.652481E+04 -6.486421E+05 -8.159669E+04  1.069993E+05 -1.124978E+04 -6.575327E+03
       130  26 -9.777863E+04 -7.674216E+05 -1.362954E+05  1.305010E+05 -1.429339E+04 -5.953426E+04
       130  27 -2.336515E+05 -9.142639E+05 -2.466585E+05  1.883937E+05 -5.064103E+03 -1.124837E+05
       131   1  4.045043E+05  2.920950E+05  6.185254E+04  2.936067E+05  4.235865E+04  3.335285E+04
       131   2  4.131960E+05  2.360244E+05  2.421454E+04  3.205219E+05  2.664407E+04  2.491385E+04
       131   3  4.544942E+05  2.134522E+05  1.081338E+04  3.288195E+05  1.251292E+04  1.436116E+04
       131   4  5.221748E+05  3.018586E+05  8.617623E+04  3.178915E+05  4.697561E+04  3.680904E+04
       131   5  4.918768E+05  2.604481E+05  4.126518E+04  3.454518E+05  2.820980E+04  2.608611E+04
       131   6  4.948400E+05  2.531918E+05  2.323215E+04  3.543952E+05  1.102895E+04  1.324901E+04
       131   7  6.398655E+05  3.116246E+05  1.105008E+05  3.421781E+05  5.159390E+04  4.026517E+04
       131   8  5.705650E+05  2.848725E+05  5.831566E+04  3.703840E+05  2.977580E+04  2.725844E+04
       131   9  5.351871E+05  2.929330E+05  3.565052E+04  3.799728E+05  9.544885E+03  1.213673E+04
       131  10  4.045021E+05  2.920933E+05  6.184708E+04  2.936055E+05  2.607180E-10  1.852560E-10
       131  11  4.131951E+05  2.360236E+05  2.421204E+04  3.205214E+05 -4.787758E-10 -2.804974E-11
       131  12  4.544939E+05  2.134520E+05  1.081270E+04  3.288193E+05 -6.859013E-10 -8.413954E-11
       131  13  5.221720E+05  3.018565E+05  8.616955E+04  3.178902E+05  2.207725E-10 -6.698601E-11
       131  14  4.918757E+05  2.604471E+05  4.126240E+04  3.454512E+05 -4.806335E-10 -1.084581E-10
       131  15  4.948398E+05  2.531916E+05  2.323159E+04  3.543951E+05 -1.138283E-10  3.974515E-10
       131  16  6.398622E+05  3.116221E+05  1.104927E+05  3.421765E+05 -4.505672E-10 -2.917397E-10
       131  17  5.705639E+05  2.848715E+05  5.831260E+04  3.703834E+05  2.674638E-10  4.761485E-11
       131  18  5.351869E+05  2.929328E+05  3.565007E+04  3.799727E+05  6.679393E-10  8.506830E-10
       131  19  4.045043E+05  2.920950E+05  6.185254E+04  2.936067E+05 -4.235865E+04 -3.335285E+04
       131  20  4.131960E+05  2.360244E+05  2.421454E+04  3.205219E+05 -2.664407E+04 -2.491385E+04
       131  21  4.544942E+05  2.134522E+05  1.081338E+04  3.288195E+05 -1.251292E+04 -1.436116E+04
       131  22  5.221748E+05  3.018586E+05  8.617623E+04  3.178915E+05 -4.697561E+04 -3.680904E+04
       131  23  4.918768E+05  2.604481E+05  4.126518E+04  3.454518E+05 -2.820980E+04 -2.608611E+04
       131  24  4.948400E+05  2.531918E+05  2.323215E+04  3.543952E+05 -1.102895E+04 -1.324901E+04
       131  25  6.398655E+05  3.116246E+05  1.105008E+05  3.421781E+05 -5.159390E+04 -4.026517E+04
       131  26  5.705650E+05  2.848725E+05  5.831566E+04  3.703840E+05 -2.977580E+04 -2.725844E+04
       131  27  5.351871E+05  2.929330E+05  3.565052E+04  3.799728E+05 -9.544885E+03 -1.213673E+04
       132   1  4.552257E+05  2.282690E+05  8.134720E+03  3.327302E+05  1.011504E+04  1.161606E+04
       132   2  4.658061E+05  2.375677E+05  4.253024E+03  3.410315E+05  6.772861E+03  7.791809E+03
       132   3  4.827184E+05  2.440089E+05  4.168817E+03  3.474433E+05  3.542882E+03  3.817619E+03
       132   4  4.938740E+05  2.538914E+05  1.807514E+04  3.514278E+05  9.006485E+03  1.078505E+04
       132   5  4.901351E+05  2.543172E+05  1.050789E+04  3.531082E+05  5.447978E+03  6.798699E+03
       132   6  4.927745E+05  2.519320E+05  6.925371E+03  3.528988E+05  2.001765E+03  2.662459E+03
       132   7  5.325240E+05  2.795144E+05  2.801545E+04  3.701266E+05  7.897832E+03  9.953978E+03
       132   8  5.144650E+05  2.710670E+05  1.676279E+04  3.651854E+05  4.123014E+03  5.805531E+03
       132   9  5.028310E+05  2.598553E+05  9.681988E+03  3.583545E+05  4.605902E+02  1.507252E+03
       132  10  4.552255E+05  2.282689E+05  8.134275E+03  3.327301E+05  1.340806E-10  7.757812E-10
       132  11  4.658061E+05  2.375677E+05  4.252824E+03  3.410315E+05  3.371384E-10  2.756145E-10
       132  12  4.827184E+05  2.440089E+05  4.168766E+03  3.474433E+05  1.451053E-10 -1.166014E-11
       132  13  4.938739E+05  2.538912E+05  1.807477E+04  3.514277E+05 -2.597595E-10  4.977273E-10
       132  14  4.901351E+05  2.543171E+05  1.050775E+04  3.531081E+05 -2.894867E-10  2.765962E-10
       132  15  4.927745E+05  2.519320E+05  6.925351E+03  3.528988E+05  2.586196E-10 -1.777812E-10
       132  16  5.325239E+05  2.795143E+05  2.801515E+04  3.701265E+05 -3.248382E-10  1.918595E-10
       132  17  5.144650E+05  2.710670E+05  1.676270E+04  3.651854E+05  1.352143E-10  6.072515E-11
       132  18  5.028310E+05  2.598553E+05  9.681983E+03  3.583545E+05 -3.145389E-14 -2.398471E-10
       132  19  4.552257E+05  2.282690E+05  8.134720E+03  3.327302E+05 -1.011504E+04 -1.161606E+04
       132  20  4.658061E+05  2.375677E+05  4.253024E+03  3.410315E+05 -6.772861E+03 -7.791809E+03
       132  21  4.827184E+05  2.440089E+05  4.168817E+03  3.474433E+05 -3.542882E+03 -3.817619E+03
       132  22  4.938740E+05  2.538914E+05  1.807514E+04  3.514278E+05 -9.006485E+03 -1.078505E+04
       132  23  4.901351E+05  2.543172E+05  1.050789E+04  3.531082E+05 -5.447978E+03 -6.798699E+03
       132  24  4.927745E+05  2.519320E+05  6.925371E+03  3.528988E+05 -2.001765E+03 -2.662459E+03
       132  25  5.325240E+05  2.795144E+05  2.801545E+04  3.701266E+05 -7.897832E+03 -9.953978E+03
       132  26  5.144650E+05  2.710670E+05  1.676279E+04  3.651854E+05 -4.123014E+03 -5.805531E+03
       132  27  5.028310E+05  2.598553E+05  9.681988E+03  3.583545E+05 -4.605902E+02 -1.507252E+03
       133   1  4.914272E+05  2.509185E+05  5.700987E+03  3.520397E+05  3.066975E+03  2.486492E+03
       133   2  5.023117E+05  2.628204E+05  8.648864E+03  3.595697E+05  1.657096E+03 -2.113997E+02
       133   3  5.183021E+05  2.702778E+05  1.344383E+04  3.657953E+05  2.447730E+02 -2.906065E+03
       133   4  4.927031E+05  2.519452E+05  6.026063E+03  3.527468E+05  1.550168E+03  1.349554E+03
       133   5  4.901534E+05  2.541728E+05  5.537294E+03  3.533951E+05  1.449754E+02 -1.344832E+03
       133   6  4.927084E+05  2.519551E+05  6.891690E+03  3.527390E+05 -1.262613E+03 -4.035960E+03
       133   7  4.939790E+05  2.529719E+05  6.351145E+03  3.534538E+05  3.338140E+01  2.126302E+02
       133   8  4.779953E+05  2.455254E+05  2.425761E+03  3.472207E+05 -1.367093E+03 -2.478226E+03
       133   9  4.671156E+05  2.336328E+05  3.395116E+02  3.396834E+05 -2.769915E+03 -5.165791E+03
       133  10  4.914272E+05  2.509185E+05  5.700958E+03  3.520397E+05 -5.234009E-10 -5.373405E-10
       133  11  5.023117E+05  2.628204E+05  8.648858E+03  3.595697E+05 -4.419231E-10 -2.309621E-10
       133  12  5.183021E+05  2.702778E+05  1.344382E+04  3.657953E+05  1.236778E-10 -2.152218E-10
       133  13  4.927031E+05  2.519452E+05  6.026055E+03  3.527468E+05  1.813808E-10 -1.510680E-10
       133  14  4.901534E+05  2.541728E+05  5.537291E+03  3.533951E+05 -1.173625E-11  1.803877E-10
       133  15  4.927084E+05  2.519551E+05  6.891656E+03  3.527390E+05  2.649729E-10  2.133627E-10
       133  16  4.939790E+05  2.529719E+05  6.351145E+03  3.534538E+05  5.737804E-10  1.585096E-10
       133  17  4.779952E+05  2.455254E+05  2.425746E+03  3.472207E+05  3.794868E-10  4.066214E-10
       133  18  4.671156E+05  2.336328E+05  3.394471E+02  3.396834E+05  5.743057E-12  4.859897E-10
       133  19  4.914272E+05  2.509185E+05  5.700987E+03  3.520397E+05 -3.066975E+03 -2.486492E+03
       133  20  5.023117E+05  2.628204E+05  8.648864E+03  3.595697E+05 -1.657096E+03  2.113997E+02
       133  21  5.183021E+05  2.702778E+05  1.344383E+04  3.657953E+05 -2.447730E+02  2.906065E+03
       133  22  4.927031E+05  2.519452E+05  6.026063E+03  3.527468E+05 -1.550168E+03 -1.349554E+03
       133  23  4.901534E+05  2.541728E+05  5.537294E+03  3.533951E+05 -1.449754E+02  1.344832E+03
       133  24  4.927084E+05  2.519551E+05  6.891690E+03  3.527390E+05  1.262613E+03  4.035960E+03
       133  25  4.939790E+05  2.529719E+05  6.351145E+03  3.534538E+05 -3.338140E+01 -2.126302E+02
       133  26  4.779953E+05  2.455254E+05  2.425761E+03  3.472207E+05  1.367093E+03  2.478226E+03
       133  27  4.671156E+05  2.336328E+05  3.395116E+02  3.396834E+05  2.769915E+03  5.165791E+03
       134   1  5.270838E+05  2.772679E+05  1.728293E+04  3.707875E+05 -3.296006E+02 -4.310752E+03
       134   2  5.388901E+05  2.882600E+05  2.579802E+04  3.774135E+05 -5.186501E+03 -9.467919E+03
       134   3  5.576156E+05  2.970759E+05  3.961990E+04  3.819856E+05 -1.019117E+04 -1.442847E+04
       134   4  4.928146E+05  2.519412E+05  8.298678E+03  3.529507E+05 -1.870709E+03 -5.465949E+03
       134   5  4.900996E+05  2.543327E+05  1.328489E+04  3.530219E+05 -6.443459E+03 -1.041020E+04
       134   6  4.942424E+05  2.544863E+05  2.333198E+04  3.510391E+05 -1.116373E+04 -1.515764E+04
       134   7  4.585462E+05  2.266149E+05 -6.858414E+02  3.351147E+05 -3.411726E+03 -6.621072E+03
       134   8  4.413119E+05  2.204068E+05  7.715851E+02  3.286326E+05 -7.700284E+03 -1.135237E+04
       134   9  4.308747E+05  2.118995E+05  7.044062E+03  3.200966E+05 -1.213614E+04 -1.588671E+04
       134  10  5.270838E+05  2.772679E+05  1.728289E+04  3.707875E+05  5.285144E-10  6.154631E-10
       134  11  5.388900E+05  2.882599E+05  2.579780E+04  3.774134E+05 -2.189265E-09 -9.884661E-10
       134  12  5.576155E+05  2.970757E+05  3.961931E+04  3.819855E+05 -8.412102E-10 -9.633528E-10
       134  13  4.928146E+05  2.519412E+05  8.298615E+03  3.529507E+05 -7.319046E-10 -8.972740E-11
       134  14  4.900995E+05  2.543326E+05  1.328461E+04  3.530219E+05 -8.964491E-11  8.318698E-12
       134  15  4.942422E+05  2.544861E+05  2.333131E+04  3.510390E+05  4.038076E-09  2.375580E-09
       134  16  4.585461E+05  2.266149E+05 -6.859455E+02  3.351147E+05 -1.589148E-09 -9.234100E-10
       134  17  4.413118E+05  2.204066E+05  7.712318E+02  3.286325E+05  2.506816E-09  9.745192E-10
       134  18  4.308745E+05  2.118992E+05  7.043312E+03  3.200964E+05  8.493924E-09  5.488073E-09
       134  19  5.270838E+05  2.772679E+05  1.728293E+04  3.707875E+05  3.296006E+02  4.310752E+03
       134  20  5.388901E+05  2.882600E+05  2.579802E+04  3.774135E+05  5.186501E+03  9.467919E+03
       134  21  5.576156E+05  2.970759E+05  3.961990E+04  3.819856E+05  1.019117E+04  1.442847E+04
       134  22  4.928146E+05  2.519412E+05  8.298678E+03  3.529507E+05  1.870709E+03  5.465949E+03
       134  23  4.900996E+05  2.543327E+05  1.328489E+04  3.530219E+05  6.443459E+03  1.041020E+04
       134  24  4.942424E+05  2.544863E+05  2.333198E+04  3.510391E+05  1.116373E+04  1.515764E+04
       134  25  4.585462E+05  2.266149E+05 -6.858414E+02  3.351147E+05  3.411726E+03  6.621072E+03
       134  26  4.413119E+05  2.204068E+05  7.715851E+02  3.286326E+05  7.700284E+03  1.135237E+04
       134  27  4.308747E+05  2.118995E+05  7.044062E+03  3.200966E+05  1.213614E+04  1.588671E+04
       135   1  5.583148E+05  3.126083E+05  4.890075E+04  3.934239E+05 -1.244778E+04 -1.706056E+04
       135   2  6.010544E+05  2.984883E+05  7.751408E+04  3.786444E+05 -3.906323E+04 -3.643436E+04
       135   3  6.865788E+05  3.311871E+05  1.446044E+05  3.400157E+05 -6.776048E+04 -5.303396E+04
       135   4  4.955040E+05  2.535762E+05  3.011631E+04  3.549101E+05 -1.391303E+04 -1.815870E+04
       135   5  4.923624E+05  2.623136E+05  5.371281E+04  3.430441E+05 -3.652692E+04 -3.453571E+04
       135   6  5.311387E+05  3.170078E+05  1.123212E+05  3.073287E+05 -6.121978E+04 -4.814044E+04
       135   7  4.326978E+05  1.945488E+05  1.133148E+04  3.164013E+05 -1.537809E+04 -1.925663E+04
       135   8  3.836837E+05  2.261403E+05  2.991095E+04  3.074483E+05 -3.399121E+04 -3.263718E+04
       135   9  3.757285E+05  3.028321E+05  8.003823E+04  2.746437E+05 -5.468132E+04 -4.324668E+04
       135  10  5.583145E+05  3.126079E+05  4.889991E+04  3.934237E+05  8.943517E-09  5.650239E-09
       135  11  6.010524E+05  2.984864E+05  7.750872E+04  3.786433E+05  2.756899E-09  6.413959E-10
       135  12  6.865731E+05  3.311829E+05  1.445905E+05  3.400128E+05 -1.194794E-09 -1.521975E-09
       135  13  4.955037E+05  2.535758E+05  3.011533E+04  3.549099E+05  3.987290E-09  2.351976E-09
       135  14  4.923606E+05  2.623120E+05  5.370806E+04  3.430431E+05  2.640947E-10 -3.238580E-10
       135  15  5.311341E+05  3.170043E+05  1.123098E+05  3.073263E+05 -3.801370E-10 -4.904447E-10
       135  16  4.326974E+05  1.945484E+05  1.133034E+04  3.164011E+05 -1.385284E-09 -1.172531E-09
       135  17  3.836821E+05  2.261388E+05  2.990678E+04  3.074474E+05 -2.278201E-09 -1.235154E-09
       135  18  3.757248E+05  3.028293E+05  8.002910E+04  2.746418E+05  5.347348E-10  6.850057E-10
       135  19  5.583148E+05  3.126083E+05  4.890075E+04  3.934239E+05  1.244778E+04  1.706056E+04
       135  20  6.010544E+05  2.984883E+05  7.751408E+04  3.786444E+05  3.906323E+04  3.643436E+04
       135  21  6.865788E+05  3.311871E+05  1.446044E+05  3.400157E+05  6.776048E+04  5.303396E+04
       135  22  4.955040E+05  2.535762E+05  3.011631E+04  3.549101E+05  1.391303E+04  1.815870E+04
       135  23  4.923624E+05  2.623136E+05  5.371281E+04  3.430441E+05  3.652692E+04  3.453571E+04
       135  24  5.311387E+05  3.170078E+05  1.123212E+05  3.073287E+05  6.121978E+04  4.814044E+04
       135  25  4.326978E+05  1.945488E+05  1.133148E+04  3.164013E+05  1.537809E+04  1.925663E+04
       135  26  3.836837E+05  2.261403E+05  2.991095E+04  3.074483E+05  3.399121E+04  3.263718E+04
       135  27  3.757285E+05  3.028321E+05  8.003823E+04  2.746437E+05  5.468132E+04  4.324668E+04
       136   1  8.147300E+05  1.165049E+05  1.219167E+05  7.220396E+04  5.799792E+04 -3.019789E+03
       136   2  7.645187E+05  5.645680E+04  7.150709E+04  4.725387E+04  3.283539E+04 -9.380989E+03
       136   3  7.276441E+05  3.664847E+04  4.752543E+04  3.343387E+04  7.675100E+03 -9.510554E+03
       136   4  5.735907E+05  5.683618E+04  6.451261E+04  3.853239E+04  4.433092E+04 -3.022710E+03
       136   5  5.677106E+05  9.050821E+03  3.113871E+04  3.296807E+04  2.815464E+04 -9.382048E+03
       136   6  5.736119E+05 -4.717803E+01  1.796297E+04  3.853267E+04  1.197867E+04 -9.510421E+03
       136   7  3.325076E+05 -2.832343E+03  7.105719E+03  4.873945E+03  3.066920E+04 -3.024151E+03
       136   8  3.709396E+05 -3.835681E+04 -9.231549E+03  1.868688E+04  2.347535E+04 -9.382891E+03
       136   9  4.196025E+05 -3.674412E+04 -1.160050E+04  4.363018E+04  1.628120E+04 -9.510218E+03
       136  10  8.147263E+05  1.165040E+05  1.219104E+05  7.220410E+04  2.217643E-10  7.737916E-11
       136  11  7.645175E+05  5.645641E+04  7.150490E+04  4.725411E+04 -2.272754E-10  7.761451E-11
       136  12  7.276440E+05  3.664836E+04  4.752515E+04  3.343393E+04  2.490578E-10 -4.137794E-11
       136  13  5.735886E+05  5.683564E+04  6.450891E+04  3.853250E+04 -8.421394E-12 -4.377741E-11
       136  14  5.677097E+05  9.050514E+03  3.113705E+04  3.296828E+04  2.863320E-10 -1.248836E-10
       136  15  5.736117E+05 -4.731366E+01  1.796253E+04  3.853277E+04  3.367255E-10 -9.495666E-11
       136  16  3.325066E+05 -2.832605E+03  7.103935E+03  4.874019E+03 -8.403507E-11 -6.215477E-11
       136  17  3.709390E+05 -3.835705E+04 -9.232749E+03  1.868706E+04 -3.831344E-11 -2.707357E-10
       136  18  4.196022E+05 -3.674429E+04 -1.160117E+04  4.363031E+04  1.336085E-10 -1.257674E-10
       136  19  8.147300E+05  1.165049E+05  1.219167E+05  7.220396E+04 -5.799792E+04  3.019789E+03
       136  20  7.645187E+05  5.645680E+04  7.150709E+04  4.725387E+04 -3.283539E+04  9.380989E+03
       136  21  7.276441E+05  3.664847E+04  4.752543E+04  3.343387E+04 -7.675100E+03  9.510554E+03
       136  22  5.735907E+05  5.683618E+04  6.451261E+04  3.853239E+04 -4.433092E+04  3.022710E+03
       136  23  5.677106E+05  9.050821E+03  3.113871E+04  3.296807E+04 -2.815464E+04  9.382048E+03
       136  24  5.736119E+05 -4.717803E+01  1.796297E+04  3.853267E+04 -1.197867E+04  9.510421E+03
       136  25  3.325076E+05 -2.832343E+03  7.105719E+03  4.873945E+03 -3.066920E+04  3.024151E+03
       136  26  3.709396E+05 -3.835681E+04 -9.231549E+03  1.868688E+04 -2.347535E+04  9.382891E+03
       136  27  4.196025E+05 -3.674412E+04 -1.160050E+04  4.363018E+04 -1.628120E+04  9.510218E+03
       137   1  6.955753E+05  3.176620E+04  3.812070E+04  3.943543E+04  6.336482E+03 -7.748556E+03
       137   2  6.515482E+05  1.933705E+04  2.451374E+04  3.314914E+04  1.100567E+03 -5.317671E+03
       137   3  6.086835E+05  8.825189E+03  1.479207E+04  3.834375E+04 -4.135173E+03 -2.468309E+03
       137   4  5.712284E+05  2.154700E+03  1.432144E+04  3.861113E+04  9.537773E+03 -7.748440E+03
       137   5  5.707021E+05  1.365812E+02  9.301807E+03  3.287075E+04  4.905649E+03 -5.317382E+03
       137   6  5.712320E+05 -6.864177E+01  7.749080E+03  3.861134E+04  2.733511E+02 -2.467824E+03
       137   7  4.468964E+05 -2.745770E+04 -9.478493E+03  3.778700E+04  1.273844E+04 -7.748333E+03
       137   8  4.898624E+05 -1.906426E+04 -5.910362E+03  3.259240E+04  8.710249E+03 -5.317096E+03
       137   9  5.337819E+05 -8.962543E+03  7.060996E+02  3.887891E+04  4.681616E+03 -2.467334E+03
       137  10  6.955753E+05  3.176612E+04  3.812051E+04  3.943547E+04  1.323418E-10 -1.451965E-10
       137  11  6.515482E+05  1.933702E+04  2.451369E+04  3.314914E+04 -4.859349E-10 -1.377598E-10
       137  12  6.086835E+05  8.825178E+03  1.479203E+04  3.834374E+04  1.518623E-11  5.531001E-11
       137  13  5.712283E+05  2.154611E+03  1.432115E+04  3.861119E+04  1.504433E-11 -1.191482E-10
       137  14  5.707021E+05  1.365443E+02  9.301709E+03  3.287077E+04 -3.188071E-11 -2.563286E-11
       137  15  5.712320E+05 -6.864833E+01  7.749069E+03  3.861134E+04  1.561628E-10  1.389679E-10
       137  16  4.468962E+05 -2.745781E+04 -9.478911E+03  3.778708E+04  5.006420E-11 -1.015942E-11
       137  17  4.898623E+05 -1.906431E+04 -5.910557E+03  3.259244E+04  2.506355E-10 -3.160953E-11
       137  18  5.337818E+05 -8.962555E+03  7.060470E+02  3.887891E+04  2.996621E-10  1.553456E-10
       137  19  6.955753E+05  3.176620E+04  3.812070E+04  3.943543E+04 -6.336482E+03  7.748556E+03
       137  20  6.515482E+05  1.933705E+04  2.451374E+04  3.314914E+04 -1.100567E+03  5.317671E+03
       137  21  6.086835E+05  8.825189E+03  1.479207E+04  3.834375E+04  4.135173E+03  2.468309E+03
       137  22  5.712284E+05  2.154700E+03  1.432144E+04  3.861113E+04 -9.537773E+03  7.748440E+03
       137  23  5.707021E+05  1.365812E+02  9.301807E+03  3.287075E+04 -4.905649E+03  5.317382E+03
       137  24  5.712320E+05 -6.864177E+01  7.749080E+03  3.861134E+04 -2.733511E+02  2.467824E+03
       137  25  4.468964E+05 -2.745770E+04 -9.478493E+03  3.778700E+04 -1.273844E+04  7.748333E+03
       137  26  4.898624E+05 -1.906426E+04 -5.910362E+03  3.259240E+04 -8.710249E+03  5.317096E+03
       137  27  5.337819E+05 -8.962543E+03  7.060996E+02  3.887891E+04 -4.681616E+03  2.467334E+03
       138   1  5.792754E+05  1.796888E+03  9.277951E+03  3.896911E+04 -5.498533E+03 -6.590658E+02
       138   2  5.352989E+05 -8.249941E+03  3.332082E+03  3.259053E+04 -1.004098E+04  2.222886E+03
       138   3  4.924060E+05 -1.633348E+04  8.324200E+02  3.769551E+04 -1.458300E+04  4.770939E+03
       138   4  5.712563E+05 -8.319913E+01  7.891729E+03  3.861190E+04 -1.104430E+03 -6.585531E+02
       138   5  5.706728E+05  1.711093E+02  1.008497E+04  3.287004E+04 -6.128421E+03  2.223278E+03
       138   6  5.712537E+05  2.472034E+03  1.605815E+04  3.861164E+04 -1.115227E+04  4.771215E+03
       138   7  5.632374E+05 -1.963279E+03  6.505577E+03  3.825470E+04  3.289617E+03 -6.580454E+02
       138   8  6.060480E+05  8.592095E+03  1.683787E+04  3.314957E+04 -2.215643E+03  2.223674E+03
       138   9  6.501074E+05  2.127719E+04  3.128364E+04  3.952789E+04 -7.721123E+03  4.771500E+03
       138  10  5.792753E+05  1.796879E+03  9.277893E+03  3.896911E+04  1.199993E-10  1.310547E-10
       138  11  5.352988E+05 -8.249973E+03  3.331883E+03  3.259054E+04 -5.362436E-11  2.346655E-10
       138  12  4.924058E+05 -1.633356E+04  8.319779E+02  3.769556E+04 -3.425130E-11  1.189904E-10
       138  13  5.712563E+05 -8.319993E+01  7.891726E+03  3.861190E+04  1.346512E-10  1.429613E-10
       138  14  5.706728E+05  1.710940E+02  1.008489E+04  3.287005E+04 -7.082388E-11  4.446976E-11
       138  15  5.712536E+05  2.471976E+03  1.605788E+04  3.861168E+04 -8.996552E-11  1.053668E-10
       138  16  5.632374E+05 -1.963282E+03  6.505556E+03  3.825470E+04 -1.105972E-11  1.591925E-10
       138  17  6.060480E+05  8.592088E+03  1.683785E+04  3.314957E+04  1.924489E-10  1.721426E-10
       138  18  6.501074E+05  2.127715E+04  3.128348E+04  3.952792E+04  1.737505E-10  6.461251E-11
       138  19  5.792754E+05  1.796888E+03  9.277951E+03  3.896911E+04  5.498533E+03  6.590658E+02
       138  20  5.352989E+05 -8.249941E+03  3.332082E+03  3.259053E+04  1.004098E+04 -2.222886E+03
       138  21  4.924060E+05 -1.633348E+04  8.324200E+02  3.769551E+04  1.458300E+04 -4.770939E+03
       138  22  5.712563E+05 -8.319913E+01  7.891729E+03  3.861190E+04  1.104430E+03  6.585531E+02
       138  23  5.706728E+05  1.711093E+02  1.008497E+04  3.287004E+04  6.128421E+03 -2.223278E+03
       138  24  5.712537E+05  2.472034E+03  1.605815E+04  3.861164E+04  1.115227E+04 -4.771215E+03
       138  25  5.632374E+05 -1.963279E+03  6.505577E+03  3.825470E+04 -3.289617E+03  6.580454E+02
       138  26  6.060480E+05  8.592095E+03  1.683787E+04  3.314957E+04  2.215643E+03 -2.223674E+03
       138  27  6.501074E+05  2.127719E+04  3.128364E+04  3.952789E+04  7.721123E+03 -4.771500E+03
       139   1  4.655142E+05 -2.591726E+04 -6.679063E+02  4.438616E+04 -1.822739E+04  6.541742E+03
       139   2  4.159158E+05 -2.615519E+04  4.208449E+03  1.664736E+04 -2.927398E+04  6.991621E+03
       139   3  3.784884E+05  1.651937E+04  2.700269E+04  9.970224E+01 -4.031995E+04  2.322676E+03
       139   4  5.739835E+05 -4.382120E+01  2.029842E+04  3.854665E+04 -1.389356E+04  6.542207E+03
       139   5  5.672501E+05  1.034781E+04  3.546563E+04  3.295028E+04 -3.231968E+04  6.990560E+03
       139   6  5.739614E+05  6.492462E+04  7.366882E+04  3.854416E+04 -5.074624E+04  2.319869E+03
       139   7  6.824642E+05  2.582906E+04  4.126428E+04  3.270609E+04 -9.559003E+03  6.542591E+03
       139   8  7.186066E+05  4.685037E+04  6.672175E+04  4.925725E+04 -3.536610E+04  6.989340E+03
       139   9  7.694727E+05  1.133327E+05  1.203335E+05  7.700076E+04 -6.117580E+04  2.315773E+03
       139  10  4.655139E+05 -2.591740E+04 -6.686106E+02  4.438626E+04 -2.392998E-10  1.441805E-10
       139  11  4.159149E+05 -2.615548E+04  4.206748E+03  1.664752E+04 -3.042499E-10  1.807257E-10
       139  12  3.784867E+05  1.651893E+04  2.699963E+04  9.977765E+01 -2.717917E-10  6.732349E-11
       139  13  5.739833E+05 -4.391894E+01  2.029797E+04  3.854672E+04  2.100909E-10  1.539597E-10
       139  14  5.672490E+05  1.034748E+04  3.546358E+04  3.295046E+04  7.064790E-10  9.478887E-11
       139  15  5.739586E+05  6.492393E+04  7.366397E+04  3.854425E+04 -1.477784E-11  1.139046E-11
       139  16  6.824641E+05  2.582899E+04  4.126403E+04  3.270614E+04  3.167594E-10  1.826517E-11
       139  17  7.186053E+05  4.684998E+04  6.671931E+04  4.925745E+04  3.269470E-10 -6.266110E-11
       139  18  7.694687E+05  1.133317E+05  1.203264E+05  7.700088E+04  2.410293E-10 -3.281572E-11
       139  19  4.655142E+05 -2.591726E+04 -6.679063E+02  4.438616E+04  1.822739E+04 -6.541742E+03
       139  20  4.159158E+05 -2.615519E+04  4.208449E+03  1.664736E+04  2.927398E+04 -6.991621E+03
       139  21  3.784884E+05  1.651937E+04  2.700269E+04  9.970224E+01  4.031995E+04 -2.322676E+03
       139  22  5.739835E+05 -4.382120E+01  2.029842E+04  3.854665E+04  1.389356E+04 -6.542207E+03
       139  23  5.672501E+05  1.034781E+04  3.546563E+04  3.295028E+04  3.231968E+04 -6.990560E+03
       139  24  5.739614E+05  6.492462E+04  7.366882E+04  3.854416E+04  5.074624E+04 -2.319869E+03
       139  25  6.824642E+05  2.582906E+04  4.126428E+04  3.270609E+04  9.559003E+03 -6.542591E+03
       139  26  7.186066E+05  4.685037E+04  6.672175E+04  4.925725E+04  3.536610E+04 -6.989340E+03
       139  27  7.694727E+05  1.133327E+05  1.203335E+05  7.700076E+04  6.117580E+04 -2.315773E+03
       140   1 -2.038541E+05 -7.292497E+05 -2.182001E+05  1.439056E+05 -3.746010E+03 -1.112510E+05
       140   2 -7.802467E+04 -6.357348E+05 -1.198827E+05  9.138625E+04 -1.099031E+04 -6.285565E+04
       140   3 -3.890521E+04 -5.702059E+05 -7.477391E+04  5.937799E+04 -9.751420E+03 -1.445382E+04
       140   4 -1.240336E+05 -4.072217E+05 -1.411216E+05  7.038406E+04 -3.728830E+03 -9.471987E+04
       140   5 -1.970174E+04 -3.942729E+05 -6.976745E+04  6.010973E+04 -1.098560E+04 -5.852118E+04
       140   6  5.334599E+01 -4.071861E+05 -4.313112E+04  7.035358E+04 -9.754104E+03 -2.232306E+04
       140   7 -4.420008E+04 -8.508635E+04 -6.404651E+04 -3.175810E+03 -3.715576E+03 -7.818018E+04
       140   8  3.862118E+04 -1.527536E+05 -1.965477E+04  2.882084E+04 -1.098134E+04 -5.418504E+04
       140   9  3.901080E+04 -2.441403E+05 -1.148928E+04  8.133212E+04 -9.757067E+03 -3.019433E+04
       140  10 -2.038575E+05 -7.292630E+05 -2.182234E+05  1.439052E+05  3.688893E-11  4.428782E-11
       140  11 -7.802586E+04 -6.357390E+05 -1.198904E+05  9.138569E+04 -4.313175E-11  2.277878E-12
       140  12 -3.890537E+04 -5.702061E+05 -7.477449E+04  5.937787E+04  3.833830E-11  6.251884E-11
       140  13 -1.240360E+05 -4.072313E+05 -1.411385E+05  7.038378E+04  3.093509E-10 -2.539989E-11
       140  14 -1.970279E+04 -3.942766E+05 -6.977412E+04  6.010922E+04  1.355122E-11 -1.728161E-11
       140  15  5.310999E+01 -4.071866E+05 -4.313223E+04  7.035340E+04 -1.022942E-11  3.121900E-11
       140  16 -4.420173E+04 -8.509292E+04 -6.405802E+04 -3.176044E+03  3.688959E-11  4.231506E-11
       140  17  3.862026E+04 -1.527568E+05 -1.966052E+04  2.882036E+04 -3.326476E-10  8.937324E-12
       140  18  3.901045E+04 -2.441413E+05 -1.149117E+04  8.133188E+04 -1.080406E-11 -1.119625E-10
       140  19 -2.038541E+05 -7.292497E+05 -2.182001E+05  1.439056E+05  3.746010E+03  1.112510E+05
       140  20 -7.802467E+04 -6.357348E+05 -1.198827E+05  9.138625E+04  1.099031E+04  6.285565E+04
       140  21 -3.890521E+04 -5.702059E+05 -7.477391E+04  5.937799E+04  9.751420E+03  1.445382E+04
       140  22 -1.240336E+05 -4.072217E+05 -1.411216E+05  7.038406E+04  3.728830E+03  9.471987E+04
       140  23 -1.970174E+04 -3.942729E+05 -6.976745E+04  6.010973E+04  1.098560E+04  5.852118E+04
       140  24  5.334599E+01 -4.071861E+05 -4.313112E+04  7.035358E+04  9.754104E+03  2.232306E+04
       140  25 -4.420008E+04 -8.508635E+04 -6.404651E+04 -3.175810E+03  3.715576E+03  7.818018E+04
       140  26  3.862118E+04 -1.527536E+05 -1.965477E+04  2.882084E+04  1.098134E+04  5.418504E+04
       140  27  3.901080E+04 -2.441403E+05 -1.148928E+04  8.133212E+04  9.757067E+03  3.019433E+04
       141   1 -3.056356E+04 -5.111292E+05 -5.775903E+04  7.295239E+04 -6.501577E+03 -9.753090E+03
       141   2 -7.732219E+03 -4.297683E+05 -3.554187E+04  5.998106E+04 -1.966906E+03  5.374714E+03
       141   3  7.868668E+03 -3.521914E+05 -2.498943E+04  6.800965E+04  2.670393E+03  2.050423E+04
       141   4 -4.556389E+03 -4.022754E+05 -3.662287E+04  7.046508E+04 -6.503717E+03 -1.619906E+04
       141   5 -7.539555E+02 -4.003924E+05 -3.004009E+04  5.996491E+04 -1.969209E+03 -1.217914E+03
       141   6 -4.155805E+03 -4.022737E+05 -3.501905E+04  7.046491E+04  2.668030E+03  1.376310E+04
       141   7  2.145012E+04 -2.934102E+05 -1.548711E+04  6.797732E+04 -6.505804E+03 -2.264614E+04
       141   8  6.224281E+03 -3.710156E+05 -2.453819E+04  5.994875E+04 -1.971510E+03 -7.810847E+03
       141   9 -1.618038E+04 -4.523535E+05 -4.504862E+04  7.291997E+04  2.665614E+03  7.022503E+03
       141  10 -3.056363E+04 -5.111293E+05 -5.775929E+04  7.295234E+04 -2.558935E-11  1.149507E-10
       141  11 -7.732231E+03 -4.297683E+05 -3.554193E+04  5.998107E+04  3.688201E-11  2.144348E-10
       141  12  7.868547E+03 -3.521919E+05 -2.499024E+04  6.800960E+04  1.825632E-10  4.151213E-10
       141  13 -4.556505E+03 -4.022757E+05 -3.662345E+04  7.046499E+04 -3.415527E-11  8.398768E-11
       141  14 -7.539600E+02 -4.003924E+05 -3.004010E+04  5.996491E+04 -2.283623E-10  4.521346E-12
       141  15 -4.155863E+03 -4.022739E+05 -3.501942E+04  7.046488E+04  2.123838E-10  7.735514E-11
       141  16  2.144993E+04 -2.934107E+05 -1.548816E+04  6.797721E+04  1.220350E-10  9.557131E-11
       141  17  6.224261E+03 -3.710157E+05 -2.453831E+04  5.994874E+04  1.933258E-10 -1.531689E-10
       141  18 -1.618041E+04 -4.523535E+05 -4.504873E+04  7.291995E+04  2.940592E-10 -4.889942E-10
       141  19 -3.056356E+04 -5.111292E+05 -5.775903E+04  7.295239E+04  6.501577E+03  9.753090E+03
       141  20 -7.732219E+03 -4.297683E+05 -3.554187E+04  5.998106E+04  1.966906E+03 -5.374714E+03
       141  21  7.868668E+03 -3.521914E+05 -2.498943E+04  6.800965E+04 -2.670393E+03 -2.050423E+04
       141  22 -4.556389E+03 -4.022754E+05 -3.662287E+04  7.046508E+04  6.503717E+03  1.619906E+04
       141  23 -7.539555E+02 -4.003924E+05 -3.004009E+04  5.996491E+04  1.969209E+03  1.217914E+03
       141  24 -4.155805E+03 -4.022737E+05 -3.501905E+04  7.046491E+04 -2.668030E+03 -1.376310E+04
       141  25  2.145012E+04 -2.934102E+05 -1.548711E+04  6.797732E+04  6.505804E+03  2.264614E+04
       141  26  6.224281E+03 -3.710156E+05 -2.453819E+04  5.994875E+04  1.971510E+03  7.810847E+03
       141  27 -1.618038E+04 -4.523535E+05 -4.504862E+04  7.291997E+04 -2.665614E+03 -7.022503E+03
       142   1  2.501056E+04 -3.025234E+05 -2.013761E+04  8.040626E+04  5.933534E+03  2.749082E+04
       142   2  2.613038E+04 -2.119712E+05 -2.629024E+04  3.124934E+04  7.896714E+03  5.087909E+04
       142   3 -4.879438E+04 -1.434700E+05 -6.668269E+04  2.705093E+03  2.813789E+03  7.427166E+04
       142   4  5.029688E+01 -4.067317E+05 -4.064933E+04  7.037493E+04  5.930367E+03  1.959874E+04
       142   5 -1.810275E+04 -3.948323E+05 -6.462807E+04  6.008245E+04  7.899950E+03  5.311844E+04
       142   6 -1.140787E+05 -4.067625E+05 -1.298935E+05  7.040601E+04  2.825412E+03  8.663892E+04
       142   7 -2.491021E+04 -5.109293E+05 -6.116129E+04  6.034531E+04  5.927455E+03  1.170796E+04
       142   8 -6.233490E+04 -5.776600E+05 -1.029673E+05  8.890693E+04  7.903395E+03  5.535714E+04
       142   9 -1.793507E+05 -6.699813E+05 -1.931062E+05  1.380781E+05  2.839737E+03  9.900094E+04
       142  10  2.501032E+04 -3.025242E+05 -2.013910E+04  8.040613E+04  5.742413E-10  1.619515E-12
       142  11  2.612962E+04 -2.119740E+05 -2.629523E+04  3.124902E+04  4.939187E-10 -2.105590E-10
       142  12 -4.879587E+04 -1.434759E+05 -6.669307E+04  2.704925E+03  2.345940E-10 -2.557629E-10
       142  13  5.015593E+01 -4.067321E+05 -4.065012E+04  7.037483E+04  4.262314E-10  1.072084E-10
       142  14 -1.810358E+04 -3.948353E+05 -6.463349E+04  6.008211E+04  5.159545E-10 -2.435815E-10
       142  15 -1.140807E+05 -4.067706E+05 -1.299076E+05  7.040581E+04  9.345274E-11  6.072159E-12
       142  16 -2.491029E+04 -5.109295E+05 -6.116162E+04  6.034525E+04  3.609890E-10  2.172170E-10
       142  17 -6.233579E+04 -5.776633E+05 -1.029732E+05  8.890658E+04  3.282306E-10  1.190534E-10
       142  18 -1.793533E+05 -6.699919E+05 -1.931247E+05  1.380779E+05 -6.794333E-11  2.435450E-10
       142  19  2.501056E+04 -3.025234E+05 -2.013761E+04  8.040626E+04 -5.933534E+03 -2.749082E+04
       142  20  2.613038E+04 -2.119712E+05 -2.629024E+04  3.124934E+04 -7.896714E+03 -5.087909E+04
       142  21 -4.879438E+04 -1.434700E+05 -6.668269E+04  2.705093E+03 -2.813789E+03 -7.427166E+04
       142  22  5.029688E+01 -4.067317E+05 -4.064933E+04  7.037493E+04 -5.930367E+03 -1.959874E+04
       142  23 -1.810275E+04 -3.948323E+05 -6.462807E+04  6.008245E+04 -7.899950E+03 -5.311844E+04
       142  24 -1.140787E+05 -4.067625E+05 -1.298935E+05  7.040601E+04 -2.825412E+03 -8.663892E+04
       142  25 -2.491021E+04 -5.109293E+05 -6.116129E+04  6.034531E+04 -5.927455E+03 -1.170796E+04
       142  26 -6.233490E+04 -5.776600E+05 -1.029673E+05  8.890693E+04 -7.903395E+03 -5.535714E+04
       142  27 -1.793507E+05 -6.699813E+05 -1.931062E+05  1.380781E+05 -2.839737E+03 -9.900094E+04
       143   1  2.923933E+05  2.058233E+05  3.924764E+04  2.150058E+05  2.998633E+04  2.420140E+04
       143   2  3.008102E+05  1.658162E+05  1.265641E+04  2.362827E+05  1.851910E+04  1.928542E+04
       143   3  3.341749E+05  1.500398E+05  3.474700E+03  2.434009E+05  8.693068E+03  1.218035E+04
       143   4  4.024791E+05  2.287086E+05  6.459506E+04  2.440631E+05  3.496666E+04  2.793302E+04
       143   5  3.794149E+05  1.980147E+05  3.091826E+04  2.648231E+05  2.034185E+04  2.065125E+04
       143   6  3.819798E+05  1.922315E+05  1.738714E+04  2.714252E+05  7.358914E+03  1.118018E+04
       143   7  5.125784E+05  2.515949E+05  8.994202E+04  2.731229E+05  3.994816E+04  3.166469E+04
       143   8  4.580263E+05  2.302139E+05  4.917965E+04  2.933664E+05  2.216492E+04  2.201717E+04
       143   9  4.297872E+05  2.344256E+05  3.129936E+04  2.994523E+05  6.024626E+03  1.017988E+04
       143  10  2.923922E+05  2.058224E+05  3.924485E+04  2.150052E+05  3.211850E-10  1.143955E-10
       143  11  3.008097E+05  1.658157E+05  1.265506E+04  2.362824E+05  2.523797E-10 -2.304324E-11
       143  12  3.341748E+05  1.500396E+05  3.474280E+03  2.434008E+05 -3.746395E-10 -2.792673E-11
       143  13  4.024776E+05  2.287075E+05  6.459130E+04  2.440623E+05  1.167605E-10 -5.492639E-12
       143  14  3.794144E+05  1.980141E+05  3.091669E+04  2.648228E+05  3.837356E-10 -4.703384E-11
       143  15  3.819797E+05  1.922314E+05  1.738681E+04  2.714252E+05 -2.458650E-11  1.877908E-10
       143  16  5.125764E+05  2.515934E+05  8.993714E+04  2.731219E+05 -2.591546E-10 -2.064987E-10
       143  17  4.580257E+05  2.302133E+05  4.917782E+04  2.933660E+05  3.102289E-11 -1.566447E-10
       143  18  4.297871E+05  2.344255E+05  3.129910E+04  2.994522E+05  5.389350E-10  2.750845E-10
       143  19  2.923933E+05  2.058233E+05  3.924764E+04  2.150058E+05 -2.998633E+04 -2.420140E+04
       143  20  3.008102E+05  1.658162E+05  1.265641E+04  2.362827E+05 -1.851910E+04 -1.928542E+04
       143  21  3.341749E+05  1.500398E+05  3.474700E+03  2.434009E+05 -8.693068E+03 -1.218035E+04
       143  22  4.024791E+05  2.287086E+05  6.459506E+04  2.440631E+05 -3.496666E+04 -2.793302E+04
       143  23  3.794149E+05  1.980147E+05  3.091826E+04  2.648231E+05 -2.034185E+04 -2.065125E+04
       143  24  3.819798E+05  1.922315E+05  1.738714E+04  2.714252E+05 -7.358914E+03 -1.118018E+04
       143  25  5.125784E+05  2.515949E+05  8.994202E+04  2.731229E+05 -3.994816E+04 -3.166469E+04
       143  26  4.580263E+05  2.302139E+05  4.917965E+04  2.933664E+05 -2.216492E+04 -2.201717E+04
       143  27  4.297872E+05  2.344256E+05  3.129936E+04  2.994523E+05 -6.024626E+03 -1.017988E+04
       144   1  3.361821E+05  1.621609E+05  1.848729E+03  2.470563E+05  6.862272E+03  9.953788E+03
       144   2  3.458626E+05  1.709952E+05 -4.809842E+02  2.544435E+05  4.521252E+03  7.051832E+03
       144   3  3.610087E+05  1.769375E+05 -3.857627E+01  2.601988E+05  2.296568E+03  3.994429E+03
       144   4  3.812657E+05  1.927461E+05  1.351198E+04  2.691972E+05  5.916898E+03  9.244962E+03
       144   5  3.780972E+05  1.934345E+05  7.811109E+03  2.705641E+05  3.351690E+03  6.174969E+03
       144   6  3.804423E+05  1.912792E+05  5.076408E+03  2.702988E+05  9.029329E+02  2.949624E+03
       144   7  4.263524E+05  2.233329E+05  2.517530E+04  2.913402E+05  4.971417E+03  8.536060E+03
       144   8  4.103330E+05  2.158744E+05  1.610312E+04  2.866857E+05  2.182047E+03  5.298045E+03
       144   9  3.998760E+05  2.056209E+05  1.019127E+04  2.803991E+05 -4.907396E+02  1.904788E+03
       144  10  3.361820E+05  1.621608E+05  1.848454E+03  2.470563E+05  1.586461E-10  4.315073E-10
       144  11  3.458626E+05  1.709951E+05 -4.811160E+02  2.544435E+05  1.099300E-10  6.427758E-11
       144  12  3.610087E+05  1.769374E+05 -3.861614E+01  2.601987E+05 -5.319972E-10 -1.104485E-10
       144  13  3.812657E+05  1.927460E+05  1.351175E+04  2.691972E+05 -8.179898E-11  2.115101E-10
       144  14  3.780972E+05  1.934344E+05  7.811016E+03  2.705641E+05 -7.613263E-11 -1.207175E-11
       144  15  3.804423E+05  1.912792E+05  5.076390E+03  2.702988E+05 -1.656744E-10  7.862094E-11
       144  16  4.263523E+05  2.233328E+05  2.517511E+04  2.913402E+05 -7.919584E-11 -1.485200E-10
       144  17  4.103330E+05  2.158743E+05  1.610306E+04  2.866857E+05 -2.160799E-10 -1.569640E-11
       144  18  3.998760E+05  2.056209E+05  1.019126E+04  2.803991E+05  3.476137E-10  3.159325E-10
       144  19  3.361821E+05  1.621609E+05  1.848729E+03  2.470563E+05 -6.862272E+03 -9.953788E+03
       144  20  3.458626E+05  1.709952E+05 -4.809842E+02  2.544435E+05 -4.521252E+03 -7.051832E+03
       144  21  3.610087E+05  1.769375E+05 -3.857627E+01  2.601988E+05 -2.296568E+03 -3.994429E+03
       144  22  3.812657E+05  1.927461E+05  1.351198E+04  2.691972E+05 -5.916898E+03 -9.244962E+03
       144  23  3.780972E+05  1.934345E+05  7.811109E+03  2.705641E+05 -3.351690E+03 -6.174969E+03
       144  24  3.804423E+05  1.912792E+05  5.076408E+03  2.702988E+05 -9.029329E+02 -2.949624E+03
       144  25  4.263524E+05  2.233329E+05  2.517530E+04  2.913402E+05 -4.971417E+03 -8.536060E+03
       144  26  4.103330E+05  2.158744E+05  1.610312E+04  2.866857E+05 -2.182047E+03 -5.298045E+03
       144  27  3.998760E+05  2.056209E+05  1.019127E+04  2.803991E+05  4.907396E+02 -1.904788E+03
       145   1  3.689597E+05  1.831178E+05  1.450013E+03  2.643571E+05  2.023997E+03  2.908720E+03
       145   2  3.788620E+05  1.938881E+05  4.081944E+03  2.711702E+05  1.196202E+03  8.056628E+02
       145   3  3.933106E+05  2.005758E+05  8.008158E+03  2.767873E+05  3.682375E+02 -1.297246E+03
       145   4  3.803870E+05  1.912881E+05  4.365577E+03  2.701825E+05  6.563085E+02  1.883378E+03
       145   5  3.781152E+05  1.933315E+05  3.887021E+03  2.707791E+05 -1.712575E+02 -2.195124E+02
       145   6  3.803893E+05  1.912921E+05  4.702512E+03  2.701795E+05 -9.989636E+02 -2.322236E+03
       145   7  3.918146E+05  1.994585E+05  7.281145E+03  2.760080E+05 -7.114144E+02  8.580106E+02
       145   8  3.773684E+05  1.927749E+05  3.692106E+03  2.703880E+05 -1.538726E+03 -1.244694E+03
       145   9  3.674681E+05  1.820084E+05  1.396793E+03  2.635718E+05 -2.366148E+03 -3.347213E+03
       145  10  3.689596E+05  1.831178E+05  1.449989E+03  2.643571E+05 -1.028235E-10  2.553719E-10
       145  11  3.788620E+05  1.938881E+05  4.081940E+03  2.711702E+05 -4.872115E-11  4.840837E-11
       145  12  3.933106E+05  2.005758E+05  8.008154E+03  2.767873E+05 -1.130561E-10 -1.105418E-10
       145  13  3.803870E+05  1.912881E+05  4.365570E+03  2.701825E+05  1.160026E-11  1.224798E-10
       145  14  3.781152E+05  1.933315E+05  3.887020E+03  2.707791E+05 -8.217032E-11  5.572891E-11
       145  15  3.803893E+05  1.912921E+05  4.702500E+03  2.701795E+05  9.624059E-11  4.589664E-11
       145  16  3.918146E+05  1.994585E+05  7.281142E+03  2.760080E+05 -3.592832E-10  3.935343E-11
       145  17  3.773684E+05  1.927749E+05  3.692099E+03  2.703880E+05 -4.869648E-11  1.133308E-10
       145  18  3.674681E+05  1.820084E+05  1.396762E+03  2.635718E+05  9.832886E-11  3.295581E-10
       145  19  3.689597E+05  1.831178E+05  1.450013E+03  2.643571E+05 -2.023997E+03 -2.908720E+03
       145  20  3.788620E+05  1.938881E+05  4.081944E+03  2.711702E+05 -1.196202E+03 -8.056628E+02
       145  21  3.933106E+05  2.005758E+05  8.008158E+03  2.767873E+05 -3.682375E+02  1.297246E+03
       145  22  3.803870E+05  1.912881E+05  4.365577E+03  2.701825E+05 -6.563085E+02 -1.883378E+03
       145  23  3.781152E+05  1.933315E+05  3.887021E+03  2.707791E+05  1.712575E+02  2.195124E+02
       145  24  3.803893E+05  1.912921E+05  4.702512E+03  2.701795E+05  9.989636E+02  2.322236E+03
       145  25  3.918146E+05  1.994585E+05  7.281145E+03  2.760080E+05  7.114144E+02 -8.580106E+02
       145  26  3.773684E+05  1.927749E+05  3.692106E+03  2.703880E+05  1.538726E+03  1.244694E+03
       145  27  3.674681E+05  1.820084E+05  1.396793E+03  2.635718E+05  2.366148E+03  3.347213E+03
       146   1  4.013477E+05  2.067819E+05  1.111703E+04  2.812153E+05  8.730005E+01 -2.389233E+03
       146   2  4.118672E+05  2.169451E+05  1.757665E+04  2.874205E+05 -3.022630E+03 -6.107920E+03
       146   3  4.281350E+05  2.245373E+05  2.761893E+04  2.919296E+05 -6.251282E+03 -9.668303E+03
       146   4  3.804576E+05  1.912829E+05  5.610769E+03  2.703188E+05 -1.306397E+03 -3.434097E+03
       146   5  3.780840E+05  1.934408E+05  8.891961E+03  2.705305E+05 -4.187929E+03 -6.981587E+03
       146   6  3.814094E+05  1.929783E+05  1.555807E+04  2.690460E+05 -7.188109E+03 -1.037073E+04
       146   7  3.595682E+05  1.757845E+05  1.045964E+02  2.594229E+05 -2.700009E+03 -4.478896E+03
       146   8  3.443024E+05  1.699372E+05  2.072824E+02  2.536415E+05 -5.353133E+03 -7.855183E+03
       146   9  3.346864E+05  1.614204E+05  3.497041E+03  2.461643E+05 -8.124841E+03 -1.107308E+04
       146  10  4.013477E+05  2.067819E+05  1.111702E+04  2.812153E+05  3.247618E-11  1.788705E-10
       146  11  4.118672E+05  2.169451E+05  1.757656E+04  2.874205E+05  1.818390E-10  1.227368E-10
       146  12  4.281349E+05  2.245372E+05  2.761868E+04  2.919296E+05 -2.471673E-10  2.711015E-11
       146  13  3.804576E+05  1.912829E+05  5.610743E+03  2.703188E+05 -1.564573E-10  1.553846E-10
       146  14  3.780840E+05  1.934407E+05  8.891836E+03  2.705304E+05  5.756529E-10 -2.146880E-11
       146  15  3.814093E+05  1.929782E+05  1.555777E+04  2.690459E+05  3.604231E-10  9.297383E-11
       146  16  3.595682E+05  1.757845E+05  1.045451E+02  2.594229E+05 -1.198322E-10  4.828411E-11
       146  17  3.443024E+05  1.699372E+05  2.071127E+02  2.536415E+05  3.680898E-10 -2.373420E-11
       146  18  3.346863E+05  1.614203E+05  3.496686E+03  2.461642E+05  4.593011E-10  1.217514E-10
       146  19  4.013477E+05  2.067819E+05  1.111703E+04  2.812153E+05 -8.730005E+01  2.389233E+03
       146  20  4.118672E+05  2.169451E+05  1.757665E+04  2.874205E+05  3.022630E+03  6.107920E+03
       146  21  4.281350E+05  2.245373E+05  2.761893E+04  2.919296E+05  6.251282E+03  9.668303E+03
       146  22  3.804576E+05  1.912829E+05  5.610769E+03  2.703188E+05  1.306397E+03  3.434097E+03
       146  23  3.780840E+05  1.934408E+05  8.891961E+03  2.705305E+05  4.187929E+03  6.981587E+03
       146  24  3.814094E+05  1.929783E+05  1.555807E+04  2.690460E+05  7.188109E+03  1.037073E+04
       146  25  3.595682E+05  1.757845E+05  1.045964E+02  2.594229E+05  2.700009E+03  4.478896E+03
       146  26  3.443024E+05  1.699372E+05  2.072824E+02  2.536415E+05  5.353133E+03  7.855183E+03
       146  27  3.346864E+05  1.614204E+05  3.497041E+03  2.461643E+05  8.124841E+03  1.107308E+04
       147   1  4.307968E+05  2.364402E+05  3.437761E+04  3.006545E+05 -7.578826E+03 -1.151729E+04
       147   2  4.619018E+05  2.298731E+05  5.444799E+04  2.925712E+05 -2.581001E+04 -2.488855E+04
       147   3  5.227164E+05  2.534908E+05  1.006179E+05  2.682886E+05 -4.571567E+04 -3.602857E+04
       147   4  3.822422E+05  1.923782E+05  2.006664E+04  2.716248E+05 -8.911725E+03 -1.251652E+04
       147   5  3.796003E+05  1.987458E+05  3.576304E+04  2.638872E+05 -2.392574E+04 -2.347702E+04
       147   6  4.059708E+05  2.346035E+05  7.477105E+04  2.399504E+05 -4.061247E+04 -3.220678E+04
       147   7  3.336896E+05  1.483181E+05  5.755168E+03  2.425975E+05 -1.024451E+04 -1.351562E+04
       147   8  2.973068E+05  1.676196E+05  1.707782E+04  2.352063E+05 -2.204182E+04 -2.206559E+04
       147   9  2.892443E+05  2.157180E+05  4.892480E+04  2.116151E+05 -3.551071E+04 -2.838507E+04
       147  10  4.307967E+05  2.364401E+05  3.437725E+04  3.006545E+05  8.504524E-11  2.018558E-10
       147  11  4.619009E+05  2.298722E+05  5.444558E+04  2.925707E+05  2.158306E-10  2.775827E-11
       147  12  5.227138E+05  2.534889E+05  1.006115E+05  2.682873E+05 -5.345844E-11 -6.943417E-11
       147  13  3.822421E+05  1.923780E+05  2.006620E+04  2.716247E+05  1.433782E-10  3.177771E-11
       147  14  3.795995E+05  1.987451E+05  3.576094E+04  2.638867E+05  2.570169E-10 -2.920004E-11
       147  15  4.059687E+05  2.346019E+05  7.476601E+04  2.399493E+05 -2.349074E-10 -1.767816E-11
       147  16  3.336894E+05  1.483179E+05  5.754628E+03  2.425974E+05 -1.392568E-10 -8.865165E-11
       147  17  2.973061E+05  1.676189E+05  1.707600E+04  2.352059E+05  1.599651E-10  4.180313E-11
       147  18  2.892428E+05  2.157168E+05  4.892092E+04  2.116143E+05  1.502116E-10  5.250418E-11
       147  19  4.307968E+05  2.364402E+05  3.437761E+04  3.006545E+05  7.578826E+03  1.151729E+04
       147  20  4.619018E+05  2.298731E+05  5.444799E+04  2.925712E+05  2.581001E+04  2.488855E+04
       147  21  5.227164E+05  2.534908E+05  1.006179E+05  2.682886E+05  4.571567E+04  3.602857E+04
       147  22  3.822422E+05  1.923782E+05  2.006664E+04  2.716248E+05  8.911725E+03  1.251652E+04
       147  23  3.796003E+05  1.987458E+05  3.576304E+04  2.638872E+05  2.392574E+04  2.347702E+04
       147  24  4.059708E+05  2.346035E+05  7.477105E+04  2.399504E+05  4.061247E+04  3.220678E+04
       147  25  3.336896E+05  1.483181E+05  5.755168E+03  2.425975E+05  1.024451E+04  1.351562E+04
       147  26  2.973068E+05  1.676196E+05  1.707782E+04  2.352063E+05  2.204182E+04  2.206559E+04
       147  27  2.892443E+05  2.157180E+05  4.892480E+04  2.116151E+05  3.551071E+04  2.838507E+04
       148   1  5.886863E+05  7.581158E+04  8.050675E+04  4.689712E+04  4.145527E+04 -1.615683E+03
       148   2  5.600466E+05  3.234658E+04  4.559073E+04  2.893854E+04  2.417235E+04 -5.012056E+03
       148   3  5.413137E+05  1.951261E+04  2.957731E+04  1.703718E+04  6.890354E+03 -5.060070E+03
       148   4  4.592671E+05  4.377941E+04  4.968732E+04  2.096629E+04  3.414643E+04 -1.617383E+03
       148   5  4.547375E+05  6.973995E+03  2.397828E+04  1.793818E+04  2.168986E+04 -5.012581E+03
       148   6  4.592784E+05 -3.547924E+01  1.382440E+04  2.096659E+04  9.233429E+03 -5.059994E+03
       148   7  3.298648E+05  1.174858E+04  1.886727E+04 -4.959117E+03  2.683910E+04 -1.618472E+03
       148   8  3.494391E+05 -1.839883E+04  2.365323E+03  6.939706E+03  1.920778E+04 -5.013019E+03
       148   9  3.772496E+05 -1.958390E+04 -1.928791E+03  2.489546E+04  1.157620E+04 -5.059889E+03
       148  10  5.886844E+05  7.581112E+04  8.050352E+04  4.689717E+04 -1.505158E-09  2.908223E-10
       148  11  5.600460E+05  3.234639E+04  4.558959E+04  2.893864E+04 -8.736932E-10  5.854044E-10
       148  12  5.413136E+05  1.951257E+04  2.957718E+04  1.703721E+04 -6.368183E-10 -2.398518E-10
       148  13  4.592658E+05  4.377909E+04  4.968512E+04  2.096633E+04  1.605699E-14  3.070950E-10
       148  14  4.547370E+05  6.973842E+03  2.397735E+04  1.793826E+04 -2.431190E-10  6.372742E-10
       148  15  4.592783E+05 -3.552961E+01  1.382419E+04  2.096663E+04  3.235019E-10 -1.785693E-10
       148  16  3.298641E+05  1.174839E+04  1.886591E+04 -4.959082E+03  1.240888E-09  3.096164E-10
       148  17  3.494387E+05 -1.839895E+04  2.364583E+03  6.939784E+03  9.466243E-10  6.503093E-10
       148  18  3.772495E+05 -1.958397E+04 -1.929091E+03  2.489551E+04  4.620500E-10 -1.498301E-10
       148  19  5.886863E+05  7.581158E+04  8.050675E+04  4.689712E+04 -4.145527E+04  1.615683E+03
       148  20  5.600466E+05  3.234658E+04  4.559073E+04  2.893854E+04 -2.417235E+04  5.012056E+03
       148  21  5.413137E+05  1.951261E+04  2.957731E+04  1.703718E+04 -6.890354E+03  5.060070E+03
       148  22  4.592671E+05  4.377941E+04  4.968732E+04  2.096629E+04 -3.414643E+04  1.617383E+03
       148  23  4.547375E+05  6.973995E+03  2.397828E+04  1.793818E+04 -2.168986E+04  5.012581E+03
       148  24  4.592784E+05 -3.547924E+01  1.382440E+04  2.096659E+04 -9.233429E+03  5.059994E+03
       148  25  3.298648E+05  1.174858E+04  1.886727E+04 -4.959117E+03 -2.683910E+04  1.618472E+03
       148  26  3.494391E+05 -1.839883E+04  2.365323E+03  6.939706E+03 -1.920778E+04  5.013019E+03
       148  27  3.772496E+05 -1.958390E+04 -1.928791E+03  2.489546E+04 -1.157620E+04  5.059889E+03
       149   1  5.233280E+05  1.735311E+04  2.363365E+04  2.164069E+04  5.604934E+03 -4.100754E+03
       149   2  4.992531E+05  1.013282E+04  1.508777E+04  1.809626E+04  1.725873E+03 -2.773118E+03
       149   3  4.760464E+05  4.363451E+03  9.428493E+03  2.079970E+04 -2.153035E+03 -1.220979E+03
       149   4  4.574424E+05  1.659782E+03  1.101628E+04  2.100917E+04  7.356007E+03 -4.100714E+03
       149   5  4.570375E+05  1.046082E+02  7.139554E+03  1.788528E+04  3.800709E+03 -2.773024E+03
       149   6  4.574439E+05 -5.577576E+01  5.924878E+03  2.100926E+04  2.454191E+02 -1.220828E+03
       149   7  3.915611E+05 -1.403380E+04 -1.601285E+03  2.037772E+04  9.106898E+03 -4.100678E+03
       149   8  4.148237E+05 -9.923703E+03 -8.087244E+02  1.767431E+04  5.875408E+03 -2.772932E+03
       149   9  4.388417E+05 -4.475020E+03  2.421271E+03  2.121882E+04  2.643803E+03 -1.220675E+03
       149  10  5.233279E+05  1.735308E+04  2.363356E+04  2.164071E+04 -2.530272E-08 -1.155232E-09
       149  11  4.992531E+05  1.013281E+04  1.508775E+04  1.809626E+04 -3.192915E-10 -1.753530E-09
       149  12  4.760464E+05  4.363448E+03  9.428481E+03  2.079970E+04  2.509893E-08 -9.998546E-10
       149  13  4.574424E+05  1.659749E+03  1.101614E+04  2.100920E+04  2.096247E-11 -1.078405E-09
       149  14  4.570375E+05  1.045960E+02  7.139512E+03  1.788529E+04  2.016323E-10 -1.727028E-09
       149  15  4.574439E+05 -5.577738E+01  5.924876E+03  2.100926E+04 -3.721032E-11 -1.085007E-09
       149  16  3.915610E+05 -1.403384E+04 -1.601472E+03  2.037775E+04  2.509509E-08 -9.955463E-10
       149  17  4.148237E+05 -9.923720E+03 -8.088037E+02  1.767433E+04  6.623067E-11 -1.715057E-09
       149  18  4.388417E+05 -4.475023E+03  2.421255E+03  2.121882E+04 -2.520250E-08 -1.130072E-09
       149  19  5.233280E+05  1.735311E+04  2.363365E+04  2.164069E+04 -5.604934E+03  4.100754E+03
       149  20  4.992531E+05  1.013282E+04  1.508777E+04  1.809626E+04 -1.725873E+03  2.773118E+03
       149  21  4.760464E+05  4.363451E+03  9.428493E+03  2.079970E+04  2.153035E+03  1.220979E+03
       149  22  4.574424E+05  1.659782E+03  1.101628E+04  2.100917E+04 -7.356007E+03  4.100714E+03
       149  23  4.570375E+05  1.046082E+02  7.139554E+03  1.788528E+04 -3.800709E+03  2.773024E+03
       149  24  4.574439E+05 -5.577576E+01  5.924878E+03  2.100926E+04 -2.454191E+02  1.220828E+03
       149  25  3.915611E+05 -1.403380E+04 -1.601285E+03  2.037772E+04 -9.106898E+03  4.100678E+03
       149  26  4.148237E+05 -9.923703E+03 -8.087244E+02  1.767431E+04 -5.875408E+03  2.772932E+03
       149  27  4.388417E+05 -4.475020E+03  2.421271E+03  2.121882E+04 -2.643803E+03  1.220675E+03
       150   1  4.600449E+05  5.358667E+02  6.445773E+03  2.127842E+04 -3.198523E+03 -2.362428E+02
       150   2  4.359883E+05 -4.877816E+03  3.662045E+03  1.767239E+04 -6.751476E+03  1.331080E+03
       150   3  4.127705E+05 -8.785252E+03  3.566679E+03  2.031572E+04 -1.030434E+04  2.713347E+03
       150   4  4.574603E+05 -6.573730E+01  6.021215E+03  2.100959E+04 -8.067533E+02 -2.360838E+02
       150   5  4.570172E+05  1.271435E+02  7.668309E+03  1.788487E+04 -4.626463E+03  1.331199E+03
       150   6  4.574590E+05  1.872616E+03  1.218890E+04  2.100948E+04 -8.446213E+03  2.713426E+03
       150   7  4.548757E+05 -6.673383E+02  5.596678E+03  2.074077E+04  1.585007E+03 -2.359269E+02
       150   8  4.780466E+05  5.132079E+03  1.167457E+04  1.809735E+04 -2.501379E+03  1.331320E+03
       150   9  5.021494E+05  1.253037E+04  2.081104E+04  2.170329E+04 -6.587958E+03  2.713508E+03
       150  10  4.600449E+05  5.358639E+02  6.445754E+03  2.127842E+04  8.048920E-10 -8.772243E-11
       150  11  4.359883E+05 -4.877830E+03  3.661956E+03  1.767239E+04  3.833403E-10  6.997160E-10
       150  12  4.127704E+05 -8.785289E+03  3.566466E+03  2.031574E+04  6.660600E-10  7.450701E-10
       150  13  4.574603E+05 -6.573753E+01  6.021214E+03  2.100959E+04 -2.650832E-10 -2.356381E-10
       150  14  4.570172E+05  1.271359E+02  7.668266E+03  1.788487E+04 -5.236114E-11  6.265677E-10
       150  15  4.574589E+05  1.872589E+03  1.218875E+04  2.100950E+04 -5.671870E-11  7.593106E-10
       150  16  4.548757E+05 -6.673390E+02  5.596673E+03  2.074077E+04 -8.712357E-10 -3.785714E-10
       150  17  4.780466E+05  5.132076E+03  1.167456E+04  1.809736E+04 -7.759737E-10  5.225172E-10
       150  18  5.021494E+05  1.253035E+04  2.081095E+04  2.170330E+04 -9.651035E-10  7.085177E-10
       150  19  4.600449E+05  5.358667E+02  6.445773E+03  2.127842E+04  3.198523E+03  2.362428E+02
       150  20  4.359883E+05 -4.877816E+03  3.662045E+03  1.767239E+04  6.751476E+03 -1.331080E+03
       150  21  4.127705E+05 -8.785252E+03  3.566679E+03  2.031572E+04  1.030434E+04 -2.713347E+03
       150  22  4.574603E+05 -6.573730E+01  6.021215E+03  2.100959E+04  8.067533E+02  2.360838E+02
       150  23  4.570172E+05  1.271435E+02  7.668309E+03  1.788487E+04  4.626463E+03 -1.331199E+03
       150  24  4.574590E+05  1.872616E+03  1.218890E+04  2.100948E+04  8.446213E+03 -2.713426E+03
       150  25  4.548757E+05 -6.673383E+02  5.596678E+03  2.074077E+04 -1.585007E+03  2.359269E+02
       150  26  4.780466E+05  5.132079E+03  1.167457E+04  1.809735E+04  2.501379E+03 -1.331320E+03
       150  27  5.021494E+05  1.253037E+04  2.081104E+04  2.170329E+04  6.587958E+03 -2.713508E+03
       151   1  3.987185E+05 -1.454027E+04  3.653976E+03  2.540403E+04 -1.288373E+04  3.676794E+03
       151   2  3.702946E+05 -1.244494E+04  9.532245E+03  5.567802E+03 -2.278100E+04  3.898987E+03
       151   3  3.513615E+05  2.245582E+04  3.005339E+04 -8.181227E+03 -3.267786E+04  1.291788E+03
       151   4  4.595289E+05 -3.505623E+01  1.540128E+04  2.097343E+04 -1.052625E+04  3.676975E+03
       151   5  4.544250E+05  7.847354E+03  2.689953E+04  1.792950E+04 -2.450196E+04  3.898441E+03
       151   6  4.595167E+05  4.923927E+04  5.586988E+04  2.097233E+04 -3.847772E+04  1.290154E+03
       151   7  5.203429E+05  1.447001E+04  2.714845E+04  1.654240E+04 -8.168542E+03  3.677123E+03
       151   8  5.385625E+05  2.813977E+04  4.426652E+04  3.029290E+04 -2.622315E+04  3.897827E+03
       151   9  5.676845E+05  7.602508E+04  8.168613E+04  5.013099E+04 -4.427859E+04  1.287976E+03
       151  10  3.987184E+05 -1.454033E+04  3.653639E+03  2.540407E+04  7.510582E-10  5.456393E-10
       151  11  3.702940E+05 -1.244509E+04  9.531242E+03  5.567873E+03  2.263125E-10  2.468166E-10
       151  12  3.513604E+05  2.245553E+04  3.005139E+04 -8.181193E+03  4.286267E-11  4.019685E-11
       151  13  4.595288E+05 -3.510048E+01  1.540105E+04  2.097347E+04 -2.963520E-10  4.978178E-10
       151  14  4.544244E+05  7.847177E+03  2.689837E+04  1.792957E+04  3.501531E-10  2.194420E-10
       151  15  4.595151E+05  4.923887E+04  5.586710E+04  2.097237E+04  3.764434E-10  2.659211E-11
       151  16  5.203428E+05  1.446998E+04  2.714830E+04  1.654242E+04 -6.141818E-10  5.645441E-10
       151  17  5.385618E+05  2.813957E+04  4.426520E+04  3.029298E+04 -5.563726E-10  1.508946E-10
       151  18  5.676824E+05  7.602455E+04  8.168245E+04  5.013103E+04  1.365967E-10  2.687489E-11
       151  19  3.987185E+05 -1.454027E+04  3.653976E+03  2.540403E+04  1.288373E+04 -3.676794E+03
       151  20  3.702946E+05 -1.244494E+04  9.532245E+03  5.567802E+03  2.278100E+04 -3.898987E+03
       151  21  3.513615E+05  2.245582E+04  3.005339E+04 -8.181227E+03  3.267786E+04 -1.291788E+03
       151  22  4.595289E+05 -3.505623E+01  1.540128E+04  2.097343E+04  1.052625E+04 -3.676975E+03
       151  23  4.544250E+05  7.847354E+03  2.689953E+04  1.792950E+04  2.450196E+04 -3.898441E+03
       151  24  4.595167E+05  4.923927E+04  5.586988E+04  2.097233E+04  3.847772E+04 -1.290154E+03
       151  25  5.203429E+05  1.447001E+04  2.714845E+04  1.654240E+04  8.168542E+03 -3.677123E+03
       151  26  5.385625E+05  2.813977E+04  4.426652E+04  3.029290E+04  2.622315E+04 -3.897827E+03
       151  27  5.676845E+05  7.602508E+04  8.168613E+04  5.013099E+04  4.427859E+04 -1.287976E+03
       152   1 -1.394193E+05 -4.604379E+05 -1.494698E+05  9.587837E+04 -2.521303E+03 -7.696171E+04
       152   2 -5.310189E+04 -4.002704E+05 -8.247799E+04  5.996803E+04 -7.488983E+03 -4.360905E+04
       152   3 -2.705684E+04 -3.595160E+05 -5.227817E+04  3.705663E+04 -6.831139E+03 -1.025326E+04
       152   4 -8.631183E+04 -2.461447E+05 -9.822507E+04  4.467806E+04 -2.513382E+03 -6.576210E+04
       152   5 -1.371445E+04 -2.371345E+05 -4.869249E+04  3.817061E+04 -7.486787E+03 -4.050195E+04
       152   6  2.261177E+01 -2.461296E+05 -3.032289E+04  4.466547E+04 -6.832179E+03 -1.524183E+04
       152   7 -3.319779E+04 -3.180343E+04 -4.698169E+04 -6.540017E+03 -2.507312E+03 -5.455864E+04
       152   8  2.567309E+04 -7.397240E+04 -1.490813E+04  1.636737E+04 -7.484810E+03 -3.739406E+04
       152   9  2.710153E+04 -1.327307E+05 -8.368078E+03  5.227573E+04 -6.833341E+03 -2.023130E+04
       152  10 -1.394209E+05 -4.604442E+05 -1.494810E+05  9.587821E+04  1.409429E-11  2.445484E-11
       152  11 -5.310246E+04 -4.002724E+05 -8.248168E+04  5.996777E+04  1.818424E-10  9.685418E-11
       152  12 -2.705692E+04 -3.595161E+05 -5.227846E+04  3.705658E+04  2.742339E-10  1.605290E-10
       152  13 -8.631300E+04 -2.461493E+05 -9.823321E+04  4.467792E+04  2.824724E-10 -5.674012E-11
       152  14 -1.371495E+04 -2.371363E+05 -4.869568E+04  3.817037E+04  9.486401E-11  1.111844E-10
       152  15  2.249926E+01 -2.461299E+05 -3.032341E+04  4.466539E+04 -2.311613E-10 -9.209410E-11
       152  16 -3.319859E+04 -3.180662E+04 -4.698730E+04 -6.540127E+03  6.871972E-11 -3.671525E-11
       152  17  2.567266E+04 -7.397392E+04 -1.491087E+04  1.636714E+04  1.596597E-10 -1.476958E-10
       152  18  2.710137E+04 -1.327312E+05 -8.368935E+03  5.227562E+04  1.214484E-11 -1.224953E-10
       152  19 -1.394193E+05 -4.604379E+05 -1.494698E+05  9.587837E+04  2.521303E+03  7.696171E+04
       152  20 -5.310189E+04 -4.002704E+05 -8.247799E+04  5.996803E+04  7.488983E+03  4.360905E+04
       152  21 -2.705684E+04 -3.595160E+05 -5.227817E+04  3.705663E+04  6.831139E+03  1.025326E+04
       152  22 -8.631183E+04 -2.461447E+05 -9.822507E+04  4.467806E+04  2.513382E+03  6.576210E+04
       152  23 -1.371445E+04 -2.371345E+05 -4.869249E+04  3.817061E+04  7.486787E+03  4.050195E+04
       152  24  2.261177E+01 -2.461296E+05 -3.032289E+04  4.466547E+04  6.832179E+03  1.524183E+04
       152  25 -3.319779E+04 -3.180343E+04 -4.698169E+04 -6.540017E+03  2.507312E+03  5.455864E+04
       152  26  2.567309E+04 -7.397240E+04 -1.490813E+04  1.636737E+04  7.484810E+03  3.739406E+04
       152  27  2.710153E+04 -1.327307E+05 -8.368078E+03  5.227573E+04  6.833341E+03  2.023130E+04
       153   1 -2.203665E+04 -3.217379E+05 -4.119252E+04  4.652489E+04 -4.771916E+03 -6.875183E+03
       153   2 -7.342125E+03 -2.699483E+05 -2.701592E+04  3.807508E+04 -1.913729E+03  4.073492E+03
       153   3  2.128771E+03 -2.208927E+05 -2.127667E+04  4.294801E+04  1.044270E+03  1.502293E+04
       153   4 -3.173894E+03 -2.427309E+05 -2.590641E+04  4.473848E+04 -4.772718E+03 -1.091492E+04
       153   5 -5.556537E+02 -2.413748E+05 -2.166534E+04  3.807703E+04 -1.914628E+03 -1.092981E+02
       153   6 -3.135865E+03 -2.427300E+05 -2.576170E+04  4.473845E+04  1.043328E+03  1.069624E+04
       153   7  1.568852E+04 -1.637179E+05 -1.062052E+04  4.295182E+04 -4.773498E+03 -1.495516E+04
       153   8  6.230780E+03 -2.128004E+05 -1.631473E+04  3.807898E+04 -1.915527E+03 -4.292276E+03
       153   9 -8.400508E+03 -2.645668E+05 -3.024669E+04  4.652881E+04  1.042362E+03  6.369695E+03
       153  10 -2.203669E+04 -3.217380E+05 -4.119266E+04  4.652487E+04 -1.825090E-11 -4.161919E-10
       153  11 -7.342134E+03 -2.699483E+05 -2.701595E+04  3.807508E+04  1.547206E-10 -1.894621E-11
       153  12  2.128709E+03 -2.208929E+05 -2.127709E+04  4.294800E+04  3.283914E-11  3.475729E-10
       153  13 -3.173950E+03 -2.427311E+05 -2.590667E+04  4.473843E+04 -1.888245E-10 -7.097664E-11
       153  14 -5.556577E+02 -2.413748E+05 -2.166534E+04  3.807703E+04  2.197452E-10  1.515257E-10
       153  15 -3.135896E+03 -2.427301E+05 -2.576192E+04  4.473844E+04  1.899915E-10 -4.213836E-11
       153  16  1.568843E+04 -1.637181E+05 -1.062098E+04  4.295177E+04  2.032056E-10  3.967259E-10
       153  17  6.230771E+03 -2.128004E+05 -1.631477E+04  3.807897E+04 -2.677608E-10  3.131644E-11
       153  18 -8.400520E+03 -2.645668E+05 -3.024676E+04  4.652881E+04 -8.459605E-11 -2.321380E-10
       153  19 -2.203665E+04 -3.217379E+05 -4.119252E+04  4.652489E+04  4.771916E+03  6.875183E+03
       153  20 -7.342125E+03 -2.699483E+05 -2.701592E+04  3.807508E+04  1.913729E+03 -4.073492E+03
       153  21  2.128771E+03 -2.208927E+05 -2.127667E+04  4.294801E+04 -1.044270E+03 -1.502293E+04
       153  22 -3.173894E+03 -2.427309E+05 -2.590641E+04  4.473848E+04  4.772718E+03  1.091492E+04
       153  23 -5.556537E+02 -2.413748E+05 -2.166534E+04  3.807703E+04  1.914628E+03  1.092981E+02
       153  24 -3.135865E+03 -2.427300E+05 -2.576170E+04  4.473845E+04 -1.043328E+03 -1.069624E+04
       153  25  1.568852E+04 -1.637179E+05 -1.062052E+04  4.295182E+04  4.773498E+03  1.495516E+04
       153  26  6.230780E+03 -2.128004E+05 -1.631473E+04  3.807898E+04  1.915527E+03  4.292276E+03
       153  27 -8.400508E+03 -2.645668E+05 -3.024669E+04  4.652881E+04 -1.042362E+03 -6.369695E+03
       154   1  1.349155E+04 -1.899186E+05 -1.896889E+04  5.220468E+04  3.115750E+03  2.000750E+04
       154   2  1.211626E+04 -1.310785E+05 -2.589758E+04  1.656098E+04  4.485326E+03  3.894812E+04
       154   3 -4.644760E+04 -8.899963E+04 -5.945523E+04 -5.988444E+03  1.629516E+03  5.789065E+04
       154   4  2.512696E+01 -2.460879E+05 -3.009913E+04  4.468574E+04  3.114412E+03  1.499714E+04
       154   5 -1.356610E+04 -2.371819E+05 -4.822870E+04  3.814530E+04  4.486948E+03  4.001522E+04
       154   6 -8.541014E+04 -2.461010E+05 -9.721254E+04  4.470042E+04  1.635546E+03  6.503343E+04
       154   7 -1.344127E+04 -3.022540E+05 -4.122939E+04  3.716749E+04  3.113195E+03  9.987211E+03
       154   8 -3.924743E+04 -3.432737E+05 -7.056020E+04  5.972586E+04  4.488645E+03  4.108214E+04
       154   9 -1.243648E+05 -4.031741E+05 -1.349700E+05  9.537640E+04  1.642744E+03  7.217440E+04
       154  10  1.349144E+04 -1.899191E+05 -1.896967E+04  5.220463E+04  2.647246E-10 -2.196083E-10
       154  11  1.211583E+04 -1.310801E+05 -2.590047E+04  1.656084E+04 -8.828903E-11 -7.373709E-12
       154  12 -4.644851E+04 -8.900323E+04 -5.946153E+04 -5.988520E+03 -5.138176E-11  2.038968E-10
       154  13  2.505614E+01 -2.460881E+05 -3.009957E+04  4.468570E+04 -6.977693E-11 -7.743908E-11
       154  14 -1.356655E+04 -2.371836E+05 -4.823175E+04  3.814515E+04 -2.225338E-10  1.671054E-10
       154  15 -8.541128E+04 -2.461055E+05 -9.722050E+04  4.470033E+04 -9.071248E-11 -2.035920E-11
       154  16 -1.344130E+04 -3.022541E+05 -4.122960E+04  3.716746E+04  4.981495E-12  2.483318E-10
       154  17 -3.924791E+04 -3.432755E+05 -7.056341E+04  5.972571E+04 -3.597946E-10 -5.621456E-11
       154  18 -1.243662E+05 -4.031797E+05 -1.349798E+05  9.537630E+04 -4.305491E-11 -1.447387E-10
       154  19  1.349155E+04 -1.899186E+05 -1.896889E+04  5.220468E+04 -3.115750E+03 -2.000750E+04
       154  20  1.211626E+04 -1.310785E+05 -2.589758E+04  1.656098E+04 -4.485326E+03 -3.894812E+04
       154  21 -4.644760E+04 -8.899963E+04 -5.945523E+04 -5.988444E+03 -1.629516E+03 -5.789065E+04
       154  22  2.512696E+01 -2.460879E+05 -3.009913E+04  4.468574E+04 -3.114412E+03 -1.499714E+04
       154  23 -1.356610E+04 -2.371819E+05 -4.822870E+04  3.814530E+04 -4.486948E+03 -4.001522E+04
       154  24 -8.541014E+04 -2.461010E+05 -9.721254E+04  4.470042E+04 -1.635546E+03 -6.503343E+04
       154  25 -1.344127E+04 -3.022540E+05 -4.122939E+04  3.716749E+04 -3.113195E+03 -9.987211E+03
       154  26 -3.924743E+04 -3.432737E+05 -7.056020E+04  5.972586E+04 -4.488645E+03 -4.108214E+04
       154  27 -1.243648E+05 -4.031741E+05 -1.349700E+05  9.537640E+04 -1.642744E+03 -7.217440E+04
       155   1  2.084665E+05  1.416063E+05  2.141774E+04  1.557154E+05  1.720970E+04  1.408272E+04
       155   2  2.131924E+05  1.176253E+05  5.844463E+03  1.681022E+05  1.043822E+04  1.158733E+04
       155   3  2.325151E+05  1.080918E+05  4.003160E+02  1.721405E+05  4.751466E+03  7.645141E+03
       155   4  2.793858E+05  1.592207E+05  3.827176E+04  1.757596E+05  2.063564E+04  1.665090E+04
       155   5  2.657871E+05  1.409653E+05  1.831911E+04  1.880395E+05  1.177883E+04  1.259233E+04
       155   6  2.672360E+05  1.376084E+05  1.030386E+04  1.919712E+05  4.006929E+03  7.086866E+03
       155   7  3.503113E+05  1.768356E+05  5.512573E+04  1.958052E+05  2.406214E+04  1.921915E+04
       155   8  3.183854E+05  1.643061E+05  3.079373E+04  2.079785E+05  1.311962E+04  1.359741E+04
       155   9  3.019588E+05  1.671265E+05  2.020749E+04  2.118036E+05  3.262325E+03  6.528530E+03
       155  10  2.084661E+05  1.416060E+05  2.141681E+04  1.557152E+05  1.133199E-11  4.704994E-11
       155  11  2.131923E+05  1.176251E+05  5.844006E+03  1.681021E+05  6.549819E-12  3.747068E-11
       155  12  2.325151E+05  1.080918E+05  4.001638E+02  1.721404E+05 -1.866709E-10  3.681911E-12
       155  13  2.793852E+05  1.592202E+05  3.827044E+04  1.757593E+05  1.117914E-11 -3.180177E-11
       155  14  2.657869E+05  1.409651E+05  1.831855E+04  1.880394E+05 -1.790174E-11 -1.712388E-11
       155  15  2.672359E+05  1.376083E+05  1.030373E+04  1.919711E+05 -1.249738E-10 -5.178438E-11
       155  16  3.503105E+05  1.768350E+05  5.512395E+04  1.958048E+05  2.492430E-11 -5.137619E-11
       155  17  3.183851E+05  1.643059E+05  3.079306E+04  2.079784E+05  2.956079E-10 -1.102717E-10
       155  18  3.019588E+05  1.671264E+05  2.020739E+04  2.118036E+05  1.552269E-10 -1.158629E-10
       155  19  2.084665E+05  1.416063E+05  2.141774E+04  1.557154E+05 -1.720970E+04 -1.408272E+04
       155  20  2.131924E+05  1.176253E+05  5.844463E+03  1.681022E+05 -1.043822E+04 -1.158733E+04
       155  21  2.325151E+05  1.080918E+05  4.003160E+02  1.721405E+05 -4.751466E+03 -7.645141E+03
       155  22  2.793858E+05  1.592207E+05  3.827176E+04  1.757596E+05 -2.063564E+04 -1.665090E+04
       155  23  2.657871E+05  1.409653E+05  1.831911E+04  1.880395E+05 -1.177883E+04 -1.259233E+04
       155  24  2.672360E+05  1.376084E+05  1.030386E+04  1.919712E+05 -4.006929E+03 -7.086866E+03
       155  25  3.503113E+05  1.768356E+05  5.512573E+04  1.958052E+05 -2.406214E+04 -1.921915E+04
       155  26  3.183854E+05  1.643061E+05  3.079373E+04  2.079785E+05 -1.311962E+04 -1.359741E+04
       155  27  3.019588E+05  1.671265E+05  2.020749E+04  2.118036E+05 -3.262325E+03 -6.528530E+03
       156   1  2.334684E+05  1.151041E+05 -6.223932E+02  1.741848E+05  3.626703E+03  6.323829E+03
       156   2  2.389058E+05  1.200220E+05 -2.071164E+03  1.783577E+05  2.218869E+03  4.658736E+03
       156   3  2.474500E+05  1.233515E+05 -1.888498E+03  1.816015E+05  8.880923E+02  2.890870E+03
       156   4  2.668161E+05  1.379113E+05  8.009323E+03  1.906506E+05  3.138994E+03  5.958093E+03
       156   5  2.650023E+05  1.382546E+05  4.634981E+03  1.914414E+05  1.582970E+03  4.181902E+03
       156   6  2.663275E+05  1.370418E+05  3.020601E+03  1.913031E+05  1.040161E+02  2.302949E+03
       156   7  3.001645E+05  1.607187E+05  1.664077E+04  2.071172E+05  2.651258E+03  5.592337E+03
       156   8  2.910994E+05  1.564875E+05  1.134100E+04  2.045256E+05  9.470397E+02  3.705045E+03
       156   9  2.852054E+05  1.507322E+05  7.929670E+03  2.010050E+05 -6.800915E+02  1.715004E+03
       156  10  2.334684E+05  1.151040E+05 -6.224931E+02  1.741848E+05  1.874891E-11 -8.258454E-12
       156  11  2.389057E+05  1.200219E+05 -2.071214E+03  1.783577E+05  1.798557E-10  6.401376E-11
       156  12  2.474500E+05  1.233515E+05 -1.888515E+03  1.816015E+05  1.501903E-10  1.495260E-10
       156  13  2.668161E+05  1.379113E+05  8.009238E+03  1.906506E+05  1.420026E-10 -4.020088E-11
       156  14  2.650023E+05  1.382546E+05  4.634943E+03  1.914414E+05  1.151362E-10  3.939766E-11
       156  15  2.663275E+05  1.370418E+05  3.020591E+03  1.913031E+05  1.379600E-10 -1.240825E-11
       156  16  3.001645E+05  1.607187E+05  1.664070E+04  2.071172E+05 -1.614279E-11 -3.658741E-11
       156  17  2.910994E+05  1.564875E+05  1.134097E+04  2.045256E+05  3.801899E-10 -5.779059E-11
       156  18  2.852054E+05  1.507322E+05  7.929663E+03  2.010050E+05  2.670873E-10 -1.171883E-10
       156  19  2.334684E+05  1.151041E+05 -6.223932E+02  1.741848E+05 -3.626703E+03 -6.323829E+03
       156  20  2.389058E+05  1.200220E+05 -2.071164E+03  1.783577E+05 -2.218869E+03 -4.658736E+03
       156  21  2.474500E+05  1.233515E+05 -1.888498E+03  1.816015E+05 -8.880923E+02 -2.890870E+03
       156  22  2.668161E+05  1.379113E+05  8.009323E+03  1.906506E+05 -3.138994E+03 -5.958093E+03
       156  23  2.650023E+05  1.382546E+05  4.634981E+03  1.914414E+05 -1.582970E+03 -4.181902E+03
       156  24  2.663275E+05  1.370418E+05  3.020601E+03  1.913031E+05 -1.040161E+02 -2.302949E+03
       156  25  3.001645E+05  1.607187E+05  1.664077E+04  2.071172E+05 -2.651258E+03 -5.592337E+03
       156  26  2.910994E+05  1.564875E+05  1.134100E+04  2.045256E+05 -9.470397E+02 -3.705045E+03
       156  27  2.852054E+05  1.507322E+05  7.929670E+03  2.010050E+05  6.800915E+02 -1.715004E+03
       157   1  2.519151E+05  1.268406E+05 -1.066744E+03  1.839418E+05  7.097959E+02  2.261188E+03
       157   2  2.574806E+05  1.329033E+05  4.154060E+02  1.877758E+05  1.886185E+02  1.037549E+03
       157   3  2.656141E+05  1.366752E+05  2.672065E+03  1.909391E+05 -3.310799E+02 -1.881289E+02
       157   4  2.662953E+05  1.370468E+05  2.603809E+03  1.912344E+05 -5.678058E+01  1.686393E+03
       157   5  2.650119E+05  1.381935E+05  2.333509E+03  1.915687E+05 -5.808938E+02  4.605540E+02
       157   6  2.662970E+05  1.370498E+05  2.840205E+03  1.912322E+05 -1.103504E+03 -7.672992E+02
       157   7  2.806760E+05  1.472534E+05  6.274424E+03  1.985273E+05 -8.233923E+02  1.111571E+03
       157   8  2.725433E+05  1.434837E+05  4.251611E+03  1.953616E+05 -1.350419E+03 -1.164507E+02
       157   9  2.669799E+05  1.374244E+05  3.008344E+03  1.915253E+05 -1.875918E+03 -1.346461E+03
       157  10  2.519151E+05  1.268405E+05 -1.066754E+03  1.839418E+05  5.488274E-11  6.898845E-11
       157  11  2.574806E+05  1.329033E+05  4.154039E+02  1.877758E+05 -1.008582E-10  6.435806E-11
       157  12  2.656141E+05  1.366752E+05  2.672065E+03  1.909391E+05  2.519595E-10  2.731299E-11
       157  13  2.662953E+05  1.370468E+05  2.603804E+03  1.912344E+05  4.061465E-11  6.509576E-12
       157  14  2.650119E+05  1.381935E+05  2.333508E+03  1.915687E+05  9.791593E-11 -2.240261E-11
       157  15  2.662970E+05  1.370498E+05  2.840201E+03  1.912322E+05  1.030529E-10 -3.053945E-11
       157  16  2.806760E+05  1.472534E+05  6.274421E+03  1.985273E+05  6.593980E-11 -1.323161E-10
       157  17  2.725433E+05  1.434837E+05  4.251607E+03  1.953616E+05 -2.771857E-10 -5.552455E-11
       157  18  2.669799E+05  1.374244E+05  3.008334E+03  1.915253E+05 -1.919238E-10 -2.059518E-11
       157  19  2.519151E+05  1.268406E+05 -1.066744E+03  1.839418E+05 -7.097959E+02 -2.261188E+03
       157  20  2.574806E+05  1.329033E+05  4.154060E+02  1.877758E+05 -1.886185E+02 -1.037549E+03
       157  21  2.656141E+05  1.366752E+05  2.672065E+03  1.909391E+05  3.310799E+02  1.881289E+02
       157  22  2.662953E+05  1.370468E+05  2.603809E+03  1.912344E+05  5.678058E+01 -1.686393E+03
       157  23  2.650119E+05  1.381935E+05  2.333509E+03  1.915687E+05  5.808938E+02 -4.605540E+02
       157  24  2.662970E+05  1.370498E+05  2.840205E+03  1.912322E+05  1.103504E+03  7.672992E+02
       157  25  2.806760E+05  1.472534E+05  6.274424E+03  1.985273E+05  8.233923E+02 -1.111571E+03
       157  26  2.725433E+05  1.434837E+05  4.251611E+03  1.953616E+05  1.350419E+03  1.164507E+02
       157  27  2.669799E+05  1.374244E+05  3.008344E+03  1.915253E+05  1.875918E+03  1.346461E+03
       158   1  2.701217E+05  1.401809E+05  4.464920E+03  1.934403E+05 -5.225886E+02 -8.279390E+02
       158   2  2.760579E+05  1.458708E+05  8.242216E+03  1.969054E+05 -2.399753E+03 -3.028276E+03
       158   3  2.852873E+05  1.501832E+05  1.416549E+04  1.993963E+05 -4.332266E+03 -5.154881E+03
       158   4  2.663387E+05  1.370444E+05  3.395551E+03  1.913171E+05 -1.306874E+03 -1.416001E+03
       158   5  2.649930E+05  1.382597E+05  5.393342E+03  1.914178E+05 -3.077708E+03 -3.536621E+03
       158   6  2.669175E+05  1.380744E+05  9.444899E+03  1.905442E+05 -4.903872E+03 -5.583498E+03
       158   7  2.625557E+05  1.339079E+05  2.326183E+03  1.891939E+05 -2.091154E+03 -2.004058E+03
       158   8  2.539282E+05  1.306486E+05  2.544429E+03  1.859302E+05 -3.755653E+03 -4.044958E+03
       158   9  2.485477E+05  1.259657E+05  4.724186E+03  1.816922E+05 -5.475463E+03 -6.012107E+03
       158  10  2.701217E+05  1.401809E+05  4.464918E+03  1.934403E+05 -6.940735E-11 -1.171938E-10
       158  11  2.760579E+05  1.458707E+05  8.242188E+03  1.969054E+05  5.597746E-11  1.397743E-10
       158  12  2.852873E+05  1.501831E+05  1.416540E+04  1.993963E+05 -5.682879E-11  2.261514E-10
       158  13  2.663387E+05  1.370444E+05  3.395544E+03  1.913171E+05 -1.590334E-10  4.865657E-11
       158  14  2.649930E+05  1.382597E+05  5.393300E+03  1.914178E+05 -1.238464E-10  1.602547E-10
       158  15  2.669175E+05  1.380744E+05  9.444795E+03  1.905442E+05 -2.585903E-10  8.898108E-11
       158  16  2.625557E+05  1.339079E+05  2.326167E+03  1.891939E+05 -1.116588E-11  2.083678E-10
       158  17  2.539282E+05  1.306486E+05  2.544372E+03  1.859302E+05 -3.180003E-10  2.079890E-10
       158  18  2.485477E+05  1.259656E+05  4.724062E+03  1.816922E+05 -2.176227E-10  2.310583E-11
       158  19  2.701217E+05  1.401809E+05  4.464920E+03  1.934403E+05  5.225886E+02  8.279390E+02
       158  20  2.760579E+05  1.458708E+05  8.242216E+03  1.969054E+05  2.399753E+03  3.028276E+03
       158  21  2.852873E+05  1.501832E+05  1.416549E+04  1.993963E+05  4.332266E+03  5.154881E+03
       158  22  2.663387E+05  1.370444E+05  3.395551E+03  1.913171E+05  1.306874E+03  1.416001E+03
       158  23  2.649930E+05  1.382597E+05  5.393342E+03  1.914178E+05  3.077708E+03  3.536621E+03
       158  24  2.669175E+05  1.380744E+05  9.444899E+03  1.905442E+05  4.903872E+03  5.583498E+03
       158  25  2.625557E+05  1.339079E+05  2.326183E+03  1.891939E+05  2.091154E+03  2.004058E+03
       158  26  2.539282E+05  1.306486E+05  2.544429E+03  1.859302E+05  3.755653E+03  4.044958E+03
       158  27  2.485477E+05  1.259657E+05  4.724186E+03  1.816922E+05  5.475463E+03  6.012107E+03
       159   1  2.865241E+05  1.571368E+05  1.816594E+04  2.045006E+05 -5.210357E+03 -6.296481E+03
       159   2  3.049635E+05  1.526705E+05  3.003624E+04  1.993214E+05 -1.573879E+04 -1.419771E+04
       159   3  3.411794E+05  1.666118E+05  5.736690E+04  1.843527E+05 -2.704825E+04 -2.105737E+04
       159   4  2.674270E+05  1.377052E+05  1.218385E+04  1.921090E+05 -5.966692E+03 -6.863556E+03
       159   5  2.659097E+05  1.414872E+05  2.171844E+04  1.873853E+05 -1.499439E+04 -1.363996E+04
       159   6  2.818435E+05  1.633517E+05  4.541213E+04  1.728723E+05 -2.480267E+04 -1.937516E+04
       159   7  2.483307E+05  1.182745E+05  6.201856E+03  1.797182E+05 -6.722985E+03 -7.430586E+03
       159   8  2.268580E+05  1.303041E+05  1.340069E+04  1.754499E+05 -1.425005E+04 -1.308223E+04
       159   9  2.225124E+05  1.600922E+05  3.345752E+04  1.613921E+05 -2.255741E+04 -1.769292E+04
       159  10  2.865241E+05  1.571367E+05  1.816581E+04  2.045006E+05  9.778936E-11  1.622787E-10
       159  11  3.049632E+05  1.526702E+05  3.003540E+04  1.993212E+05 -4.115364E-11  1.980330E-11
       159  12  3.411785E+05  1.666111E+05  5.736469E+04  1.843523E+05  1.312176E-12 -1.260467E-10
       159  13  2.674270E+05  1.377052E+05  1.218370E+04  1.921090E+05  2.640019E-11  2.633919E-11
       159  14  2.659094E+05  1.414869E+05  2.171767E+04  1.873852E+05 -1.306490E-10 -6.333299E-11
       159  15  2.818427E+05  1.633511E+05  4.541027E+04  1.728719E+05  3.705767E-11 -3.536005E-11
       159  16  2.483307E+05  1.182744E+05  6.201668E+03  1.797181E+05 -2.912430E-10 -1.318487E-10
       159  17  2.268578E+05  1.303039E+05  1.339998E+04  1.754498E+05  9.163196E-11 -1.777201E-10
       159  18  2.225118E+05  1.600917E+05  3.345597E+04  1.613918E+05  1.321851E-10  3.001220E-11
       159  19  2.865241E+05  1.571368E+05  1.816594E+04  2.045006E+05  5.210357E+03  6.296481E+03
       159  20  3.049635E+05  1.526705E+05  3.003624E+04  1.993214E+05  1.573879E+04  1.419771E+04
       159  21  3.411794E+05  1.666118E+05  5.736690E+04  1.843527E+05  2.704825E+04  2.105737E+04
       159  22  2.674270E+05  1.377052E+05  1.218385E+04  1.921090E+05  5.966692E+03  6.863556E+03
       159  23  2.659097E+05  1.414872E+05  2.171844E+04  1.873853E+05  1.499439E+04  1.363996E+04
       159  24  2.818435E+05  1.633517E+05  4.541213E+04  1.728723E+05  2.480267E+04  1.937516E+04
       159  25  2.483307E+05  1.182745E+05  6.201856E+03  1.797182E+05  6.722985E+03  7.430586E+03
       159  26  2.268580E+05  1.303041E+05  1.340069E+04  1.754499E+05  1.425005E+04  1.308223E+04
       159  27  2.225124E+05  1.600922E+05  3.345752E+04  1.613921E+05  2.255741E+04  1.769292E+04
       160   1  4.710876E+05  5.469212E+04  5.982383E+04  3.332648E+04  3.547049E+04 -6.533156E+02
       160   2  4.568395E+05  1.691059E+04  3.157573E+04  1.786286E+04  2.165146E+04 -2.024422E+03
       160   3  4.515654E+05  7.836211E+03  1.949645E+04  4.897460E+03  7.832926E+03 -2.034226E+03
       160   4  4.185358E+05  4.168332E+04  4.730612E+04  8.640497E+03  3.251434E+04 -6.547032E+02
       160   5  4.142232E+05  6.641321E+03  2.282523E+04  7.391619E+03  2.065674E+04 -2.024797E+03
       160   6  4.185444E+05 -3.349714E+01  1.315247E+04  8.640369E+03  8.799348E+03 -2.034179E+03
       160   7  3.659878E+05  2.867663E+04  3.478857E+04 -1.604339E+04  2.955844E+04 -6.558559E+02
       160   8  3.716088E+05 -3.627654E+03  1.407470E+04 -3.078892E+03  1.966209E+04 -2.025139E+03
       160   9  3.855246E+05 -7.903217E+03  6.808460E+03  1.238307E+04  9.765720E+03 -2.034120E+03
       160  10  4.710863E+05  5.469178E+04  5.982147E+04  3.332650E+04  8.846028E-11  2.816902E-11
       160  11  4.568390E+05  1.691046E+04  3.157484E+04  1.786290E+04  6.373934E-11  1.295644E-10
       160  12  4.515653E+05  7.836191E+03  1.949633E+04  4.897473E+03  2.837315E-10  2.303232E-10
       160  13  4.185346E+05  4.168304E+04  4.730413E+04  8.640514E+03 -2.343407E-11  4.842580E-11
       160  14  4.142227E+05  6.641202E+03  2.282442E+04  7.391653E+03 -2.864119E-10  1.297728E-10
       160  15  4.185444E+05 -3.352236E+01  1.315232E+04  8.640383E+03  2.384291E-10  1.327097E-10
       160  16  3.659869E+05  2.867639E+04  3.478693E+04 -1.604338E+04 -7.941950E-13  3.948467E-11
       160  17  3.716084E+05 -3.627762E+03  1.407396E+04 -3.078860E+03 -2.048340E-10  1.330519E-10
       160  18  3.855245E+05 -7.903247E+03  6.808273E+03  1.238309E+04 -1.264582E-10  5.107790E-11
       160  19  4.710876E+05  5.469212E+04  5.982383E+04  3.332648E+04 -3.547049E+04  6.533156E+02
       160  20  4.568395E+05  1.691059E+04  3.157573E+04  1.786286E+04 -2.165146E+04  2.024422E+03
       160  21  4.515654E+05  7.836211E+03  1.949645E+04  4.897460E+03 -7.832926E+03  2.034226E+03
       160  22  4.185358E+05  4.168332E+04  4.730612E+04  8.640497E+03 -3.251434E+04  6.547032E+02
       160  23  4.142232E+05  6.641321E+03  2.282523E+04  7.391619E+03 -2.065674E+04  2.024797E+03
       160  24  4.185444E+05 -3.349714E+01  1.315247E+04  8.640369E+03 -8.799348E+03  2.034179E+03
       160  25  3.659878E+05  2.867663E+04  3.478857E+04 -1.604339E+04 -2.955844E+04  6.558559E+02
       160  26  3.716088E+05 -3.627654E+03  1.407470E+04 -3.078892E+03 -1.966209E+04  2.025139E+03
       160  27  3.855246E+05 -7.903217E+03  6.808460E+03  1.238307E+04 -9.765720E+03  2.034120E+03
       161   1  4.431607E+05  7.860845E+03  1.552712E+04  9.256646E+03  6.288031E+03 -1.638530E+03
       161   2  4.330186E+05  4.044933E+03  9.903019E+03  7.568144E+03  2.783317E+03 -1.089102E+03
       161   3  4.236699E+05  1.578395E+03  6.896802E+03  8.455637E+03 -7.213959E+02 -4.485968E+02
       161   4  4.167962E+05  1.580171E+03  1.047548E+04  8.657853E+03  7.013913E+03 -1.638532E+03
       161   5  4.164113E+05  9.930651E+01  6.774284E+03  7.369866E+03  3.640540E+03 -1.089092E+03
       161   6  4.167970E+05 -5.489344E+01  5.599948E+03  8.657879E+03  2.671168E+02 -4.485775E+02
       161   7  3.904325E+05 -4.700543E+03  5.423805E+03  8.059085E+03  7.739765E+03 -1.638536E+03
       161   8  3.998043E+05 -3.846336E+03  3.645540E+03  7.171594E+03  4.497740E+03 -1.089083E+03
       161   9  4.099242E+05 -1.688184E+03  4.303096E+03  8.860118E+03  1.255619E+03 -4.485575E+02
       161  10  4.431606E+05  7.860832E+03  1.552704E+04  9.256654E+03 -2.350791E-10  2.585509E-10
       161  11  4.330186E+05  4.044930E+03  9.903002E+03  7.568147E+03  8.982640E-11  1.525534E-10
       161  12  4.236699E+05  1.578394E+03  6.896801E+03  8.455637E+03  4.806768E-10  4.119469E-11
       161  13  4.167962E+05  1.580155E+03  1.047538E+04  8.657862E+03  1.954422E-11  1.488968E-10
       161  14  4.164113E+05  9.930168E+01  6.774257E+03  7.369869E+03  1.576492E-10  1.404037E-10
       161  15  4.167970E+05 -5.489368E+01  5.599948E+03  8.657879E+03  2.341951E-11 -4.216438E-11
       161  16  3.904324E+05 -4.700562E+03  5.423687E+03  8.059095E+03  5.464642E-11  4.308542E-11
       161  17  3.998042E+05 -3.846342E+03  3.645500E+03  7.171598E+03  6.754193E-11  1.064601E-10
       161  18  4.099242E+05 -1.688184E+03  4.303092E+03  8.860118E+03 -1.293273E-10 -1.052090E-10
       161  19  4.431607E+05  7.860845E+03  1.552712E+04  9.256646E+03 -6.288031E+03  1.638530E+03
       161  20  4.330186E+05  4.044933E+03  9.903019E+03  7.568144E+03 -2.783317E+03  1.089102E+03
       161  21  4.236699E+05  1.578395E+03  6.896802E+03  8.455637E+03  7.213959E+02  4.485968E+02
       161  22  4.167962E+05  1.580171E+03  1.047548E+04  8.657853E+03 -7.013913E+03  1.638532E+03
       161  23  4.164113E+05  9.930651E+01  6.774284E+03  7.369866E+03 -3.640540E+03  1.089092E+03
       161  24  4.167970E+05 -5.489344E+01  5.599948E+03  8.657879E+03 -2.671168E+02  4.485775E+02
       161  25  3.904325E+05 -4.700543E+03  5.423805E+03  8.059085E+03 -7.739765E+03  1.638536E+03
       161  26  3.998043E+05 -3.846336E+03  3.645540E+03  7.171594E+03 -4.497740E+03  1.089083E+03
       161  27  4.099242E+05 -1.688184E+03  4.303096E+03  8.860118E+03 -1.255619E+03  4.485575E+02
       162   1  4.170800E+05 -3.697706E+00  5.706167E+03  8.908061E+03 -1.712365E+03 -4.260970E+01
       162   2  4.069293E+05 -2.134728E+03  5.406745E+03  7.169856E+03 -5.189827E+03  6.030093E+02
       162   3  3.975902E+05 -2.829523E+03  7.729319E+03  8.008067E+03 -8.667242E+03  1.170858E+03
       162   4  4.168105E+05 -6.309153E+01  5.678711E+03  8.657970E+03 -7.261004E+02 -4.258864E+01
       162   5  4.163945E+05  1.174113E+02  7.206528E+03  7.369751E+03 -4.315665E+03  6.030223E+02
       162   6  4.168096E+05  1.753581E+03  1.143411E+04  8.657938E+03 -7.905236E+03  1.170858E+03
       162   7  4.165409E+05 -1.224846E+02  5.651258E+03  8.407879E+03  2.601639E+02 -4.256838E+01
       162   8  4.258599E+05  2.369545E+03  9.006311E+03  7.569649E+03 -3.441491E+03  6.030358E+02
       162   9  4.360293E+05  6.336666E+03  1.513889E+04  9.307830E+03 -7.143208E+03  1.170860E+03
       162  10  4.170800E+05 -3.698495E+00  5.706162E+03  8.908061E+03  8.998442E-11  2.354658E-11
       162  11  4.069293E+05 -2.134735E+03  5.406693E+03  7.169859E+03 -8.877749E-11 -6.361702E-11
       162  12  3.975901E+05 -2.829545E+03  7.729176E+03  8.008075E+03  1.264437E-10 -2.124817E-10
       162  13  4.168105E+05 -6.309167E+01  5.678710E+03  8.657970E+03  1.178115E-10 -8.445233E-11
       162  14  4.163945E+05  1.174059E+02  7.206493E+03  7.369753E+03  1.422937E-10 -8.162975E-11
       162  15  4.168095E+05  1.753563E+03  1.143399E+04  8.657946E+03 -1.783532E-10 -1.754589E-10
       162  16  4.165409E+05 -1.224846E+02  5.651257E+03  8.407879E+03  5.154102E-11 -1.798832E-10
       162  17  4.258599E+05  2.369542E+03  9.006288E+03  7.569651E+03  1.928889E-10 -1.109870E-10
       162  18  4.360293E+05  6.336651E+03  1.513879E+04  9.307837E+03 -4.367642E-11 -1.336139E-10
       162  19  4.170800E+05 -3.697706E+00  5.706167E+03  8.908061E+03  1.712365E+03  4.260970E+01
       162  20  4.069293E+05 -2.134728E+03  5.406745E+03  7.169856E+03  5.189827E+03 -6.030093E+02
       162  21  3.975902E+05 -2.829523E+03  7.729319E+03  8.008067E+03  8.667242E+03 -1.170858E+03
       162  22  4.168105E+05 -6.309153E+01  5.678711E+03  8.657970E+03  7.261004E+02  4.258864E+01
       162  23  4.163945E+05  1.174113E+02  7.206528E+03  7.369751E+03  4.315665E+03 -6.030223E+02
       162  24  4.168096E+05  1.753581E+03  1.143411E+04  8.657938E+03  7.905236E+03 -1.170858E+03
       162  25  4.165409E+05 -1.224846E+02  5.651258E+03  8.407879E+03 -2.601639E+02  4.256838E+01
       162  26  4.258599E+05  2.369545E+03  9.006311E+03  7.569649E+03  3.441491E+03 -6.030358E+02
       162  27  4.360293E+05  6.336666E+03  1.513889E+04  9.307830E+03  7.143208E+03 -1.170860E+03
       163   1  3.928824E+05 -6.203504E+03  9.448000E+03  1.279595E+04 -1.082749E+04  1.567874E+03
       163   2  3.784884E+05 -1.202080E+03  1.789381E+04 -4.195728E+03 -2.221756E+04  1.649665E+03
       163   3  3.733541E+05  3.490847E+04  4.152961E+04 -1.867877E+04 -3.360726E+04  5.459110E+02
       163   4  4.187491E+05 -3.392314E+01  1.444156E+04  8.642790E+03 -9.856125E+03  1.567955E+03
       163   5  4.139670E+05  7.354219E+03  2.521314E+04  7.388557E+03 -2.295562E+04  1.649240E+03
       163   6  4.187396E+05  4.614612E+04  5.236048E+04  8.642690E+03 -3.605494E+04  5.444333E+02
       163   7  4.446166E+05  6.135683E+03  1.943511E+04  4.489455E+03 -8.884725E+03  1.568022E+03
       163   8  4.494471E+05  1.591094E+04  3.253248E+04  1.897352E+04 -2.369373E+04  1.648787E+03
       163   9  4.641286E+05  5.738642E+04  6.319163E+04  3.596615E+04 -3.850280E+04  5.427403E+02
       163  10  3.928822E+05 -6.203538E+03  9.447775E+03  1.279596E+04  2.065768E-11 -2.436603E-10
       163  11  3.784879E+05 -1.202215E+03  1.789287E+04 -4.195698E+03 -1.010786E-10 -1.118631E-10
       163  12  3.733529E+05  3.490816E+04  4.152749E+04 -1.867875E+04  5.491630E-11 -3.115108E-11
       163  13  4.187490E+05 -3.395183E+01  1.444138E+04  8.642803E+03 -2.902803E-10 -1.988799E-10
       163  14  4.139664E+05  7.354075E+03  2.521214E+04  7.388587E+03  2.692918E-10 -1.083604E-10
       163  15  4.187382E+05  4.614577E+04  5.235804E+04  8.642706E+03 -6.703758E-11 -2.672565E-11
       163  16  4.446165E+05  6.135659E+03  1.943495E+04  4.489466E+03 -1.136920E-10 -1.579207E-10
       163  17  4.494465E+05  1.591079E+04  3.253142E+04  1.897355E+04 -1.469194E-10 -1.244740E-10
       163  18  4.641270E+05  5.738603E+04  6.318885E+04  3.596617E+04  4.633289E-10 -2.262585E-11
       163  19  3.928824E+05 -6.203504E+03  9.448000E+03  1.279595E+04  1.082749E+04 -1.567874E+03
       163  20  3.784884E+05 -1.202080E+03  1.789381E+04 -4.195728E+03  2.221756E+04 -1.649665E+03
       163  21  3.733541E+05  3.490847E+04  4.152961E+04 -1.867877E+04  3.360726E+04 -5.459110E+02
       163  22  4.187491E+05 -3.392314E+01  1.444156E+04  8.642790E+03  9.856125E+03 -1.567955E+03
       163  23  4.139670E+05  7.354219E+03  2.521314E+04  7.388557E+03  2.295562E+04 -1.649240E+03
       163  24  4.187396E+05  4.614612E+04  5.236048E+04  8.642690E+03  3.605494E+04 -5.444333E+02
       163  25  4.446166E+05  6.135683E+03  1.943511E+04  4.489455E+03  8.884725E+03 -1.568022E+03
       163  26  4.494471E+05  1.591094E+04  3.253248E+04  1.897352E+04  2.369373E+04 -1.648787E+03
       163  27  4.641286E+05  5.738642E+04  6.319163E+04  3.596615E+04  3.850280E+04 -5.427403E+02
       164   1 -7.406291E+04 -1.812575E+05 -8.073176E+04  4.398185E+04 -1.041985E+03 -4.580485E+04
       164   2 -2.483080E+04 -1.618444E+05 -4.424547E+04  2.387378E+04 -3.254733E+03 -2.701038E+04
       164   3 -1.291167E+04 -1.542073E+05 -2.932519E+04  7.211181E+03 -3.376954E+03 -8.215213E+03
       164   4 -5.394860E+04 -1.000156E+05 -6.139117E+04  1.196447E+04 -1.039377E+03 -4.111302E+04
       164   5 -8.576234E+03 -9.438759E+04 -3.042814E+04  1.023963E+04 -3.254005E+03 -2.532792E+04
       164   6  6.779517E+00 -1.000126E+05 -1.893954E+04  1.196121E+04 -3.377097E+03 -9.542673E+03
       164   7 -3.383091E+04 -1.876531E+04 -4.205041E+04 -2.005712E+04 -1.037253E+03 -3.642057E+04
       164   8  7.678744E+03 -2.692602E+04 -1.661095E+04 -3.396027E+03 -3.253352E+03 -2.364528E+04
       164   9  1.292514E+04 -4.581492E+04 -8.554000E+03  1.671166E+04 -3.377260E+03 -1.087024E+04
       164  10 -7.406347E+04 -1.812598E+05 -8.073571E+04  4.398181E+04 -2.376923E-11 -8.963950E-11
       164  11 -2.483100E+04 -1.618452E+05 -4.424686E+04  2.387371E+04  1.290013E-10  1.554246E-10
       164  12 -1.291170E+04 -1.542074E+05 -2.932534E+04  7.211159E+03  2.807691E-10  2.143173E-10
       164  13 -5.394906E+04 -1.000174E+05 -6.139435E+04  1.196444E+04  1.281100E-10  2.632773E-11
       164  14 -8.576417E+03 -9.438828E+04 -3.042937E+04  1.023956E+04  3.827366E-11  8.119652E-12
       164  15  6.742820E+00 -1.000127E+05 -1.893973E+04  1.196118E+04 -5.514822E-11 -1.931181E-11
       164  16 -3.383127E+04 -1.876673E+04 -4.205290E+04 -2.005715E+04 -8.257829E-11  8.468987E-11
       164  17  7.678583E+03 -2.692662E+04 -1.661202E+04 -3.396089E+03 -2.536520E-10 -1.244680E-10
       164  18  1.292510E+04 -4.581505E+04 -8.554244E+03  1.671163E+04  1.812771E-10 -3.272716E-10
       164  19 -7.406291E+04 -1.812575E+05 -8.073176E+04  4.398185E+04  1.041985E+03  4.580485E+04
       164  20 -2.483080E+04 -1.618444E+05 -4.424547E+04  2.387378E+04  3.254733E+03  2.701038E+04
       164  21 -1.291167E+04 -1.542073E+05 -2.932519E+04  7.211181E+03  3.376954E+03  8.215213E+03
       164  22 -5.394860E+04 -1.000156E+05 -6.139117E+04  1.196447E+04  1.039377E+03  4.111302E+04
       164  23 -8.576234E+03 -9.438759E+04 -3.042814E+04  1.023963E+04  3.254005E+03  2.532792E+04
       164  24  6.779517E+00 -1.000126E+05 -1.893954E+04  1.196121E+04  3.377097E+03  9.542673E+03
       164  25 -3.383091E+04 -1.876531E+04 -4.205041E+04 -2.005712E+04  1.037253E+03  3.642057E+04
       164  26  7.678744E+03 -2.692602E+04 -1.661095E+04 -3.396027E+03  3.253352E+03  2.364528E+04
       164  27  1.292514E+04 -4.581492E+04 -8.554000E+03  1.671166E+04  3.377260E+03  1.087024E+04
       165   1 -1.270314E+04 -1.428491E+05 -2.476299E+04  1.310756E+04 -2.830214E+03 -5.877432E+03
       165   2 -7.819642E+03 -1.284828E+05 -1.939361E+04  1.020443E+04 -2.106195E+03  1.017578E+03
       165   3 -6.206095E+03 -1.158323E+05 -1.933130E+04  1.087017E+04 -1.272413E+03  7.912703E+03
       165   4 -1.991935E+03 -9.788728E+04 -1.617375E+04  1.198890E+04 -2.830269E+03 -6.840264E+03
       165   5 -3.535809E+02 -9.704293E+04 -1.350720E+04  1.020446E+04 -2.106287E+03 -1.029528E+02
       165   6 -1.957680E+03 -9.788700E+04 -1.603798E+04  1.198889E+04 -1.272522E+03  6.634329E+03
       165   7  8.719162E+03 -5.292351E+04 -7.584596E+03  1.087017E+04 -2.830319E+03 -7.803163E+03
       165   8  7.112423E+03 -6.560206E+04 -7.620828E+03  1.020448E+04 -2.106380E+03 -1.223539E+03
       165   9  2.290722E+03 -7.994138E+04 -1.274466E+04  1.310763E+04 -1.272635E+03  5.355920E+03
       165  10 -1.270316E+04 -1.428491E+05 -2.476307E+04  1.310754E+04  1.724722E-10 -1.208912E-10
       165  11 -7.819647E+03 -1.284828E+05 -1.939362E+04  1.020443E+04 -1.228848E-10 -2.282597E-11
       165  12 -6.206113E+03 -1.158324E+05 -1.933143E+04  1.087018E+04  2.815391E-10 -1.578888E-10
       165  13 -1.991956E+03 -9.788733E+04 -1.617385E+04  1.198889E+04 -2.627268E-10  7.840953E-11
       165  14 -3.535856E+02 -9.704293E+04 -1.350721E+04  1.020445E+04  2.061426E-10  1.700134E-11
       165  15 -1.957693E+03 -9.788705E+04 -1.603807E+04  1.198889E+04  2.681332E-10 -3.476414E-11
       165  16  8.719137E+03 -5.292357E+04 -7.584726E+03  1.087015E+04  2.414100E-10  1.181511E-10
       165  17  7.112418E+03 -6.560206E+04 -7.620839E+03  1.020448E+04 -1.248744E-10  8.963693E-11
       165  18  2.290713E+03 -7.994141E+04 -1.274472E+04  1.310764E+04  1.895277E-10  2.385899E-11
       165  19 -1.270314E+04 -1.428491E+05 -2.476299E+04  1.310756E+04  2.830214E+03  5.877432E+03
       165  20 -7.819642E+03 -1.284828E+05 -1.939361E+04  1.020443E+04  2.106195E+03 -1.017578E+03
       165  21 -6.206095E+03 -1.158323E+05 -1.933130E+04  1.087017E+04  1.272413E+03 -7.912703E+03
       165  22 -1.991935E+03 -9.788728E+04 -1.617375E+04  1.198890E+04  2.830269E+03  6.840264E+03
       165  23 -3.535809E+02 -9.704293E+04 -1.350720E+04  1.020446E+04  2.106287E+03  1.029528E+02
       165  24 -1.957680E+03 -9.788700E+04 -1.603798E+04  1.198889E+04  1.272522E+03 -6.634329E+03
       165  25  8.719162E+03 -5.292351E+04 -7.584596E+03  1.087017E+04  2.830319E+03  7.803163E+03
       165  26  7.112423E+03 -6.560206E+04 -7.620828E+03  1.020448E+04  2.106380E+03  1.223539E+03
       165  27  2.290722E+03 -7.994138E+04 -1.274466E+04  1.310763E+04  1.272635E+03 -5.355920E+03
       166   1 -2.050943E+03 -1.087450E+05 -2.025296E+04  1.665069E+04 -7.128054E+02  1.066321E+04
       166   2 -7.264505E+03 -8.975788E+04 -2.877815E+04 -3.217136E+03 -4.726495E+01  2.543414E+04
       166   3 -4.855797E+04 -8.171440E+04 -5.594021E+04 -1.953820E+04  7.040488E+01  4.020523E+04
       166   4  7.055291E+00 -9.997399E+04 -1.872947E+04  1.198315E+04 -7.130200E+02  9.312318E+03
       166   5 -8.440105E+03 -9.443441E+04 -2.999304E+04  1.021222E+04 -4.676977E+01  2.487074E+04
       166   6 -5.310535E+04 -9.997641E+04 -6.044079E+04  1.198789E+04  7.246894E+01  4.042899E+04
       166   7  2.065132E+03 -9.120281E+04 -1.720597E+04  7.315543E+03 -7.132142E+02  7.961410E+03
       166   8 -9.615029E+03 -9.911054E+04 -3.120783E+04  2.364148E+04 -4.629897E+01  2.430735E+04
       166   9 -5.764901E+04 -1.182360E+05 -6.494086E+04  4.351305E+04  7.455579E+01  4.065275E+04
       166  10 -2.050974E+03 -1.087452E+05 -2.025317E+04  1.665070E+04  2.392694E-10 -6.082321E-10
       166  11 -7.264678E+03 -8.975858E+04 -2.877937E+04 -3.217135E+03  1.803574E-10 -1.129360E-10
       166  12 -4.855840E+04 -8.171613E+04 -5.594325E+04 -1.953820E+04 -1.947185E-10  1.344143E-10
       166  13  7.031460E+00 -9.997408E+04 -1.872964E+04  1.198316E+04  2.515550E-10  8.749930E-11
       166  14 -8.440271E+03 -9.443508E+04 -2.999420E+04  1.021222E+04  2.666144E-10 -2.964753E-12
       166  15 -5.310579E+04 -9.997817E+04 -6.044386E+04  1.198788E+04 -1.935282E-10 -5.518867E-11
       166  16  2.065115E+03 -9.120288E+04 -1.720609E+04  7.315548E+03  1.029299E-10  6.054913E-10
       166  17 -9.615188E+03 -9.911117E+04 -3.120894E+04  2.364148E+04 -2.064232E-10  1.622588E-10
       166  18 -5.764946E+04 -1.182378E+05 -6.494396E+04  4.351304E+04 -1.594477E-10 -2.585052E-10
       166  19 -2.050943E+03 -1.087450E+05 -2.025296E+04  1.665069E+04  7.128054E+02 -1.066321E+04
       166  20 -7.264505E+03 -8.975788E+04 -2.877815E+04 -3.217136E+03  4.726495E+01 -2.543414E+04
       166  21 -4.855797E+04 -8.171440E+04 -5.594021E+04 -1.953820E+04 -7.040488E+01 -4.020523E+04
       166  22  7.055291E+00 -9.997399E+04 -1.872947E+04  1.198315E+04  7.130200E+02 -9.312318E+03
       166  23 -8.440105E+03 -9.443441E+04 -2.999304E+04  1.021222E+04  4.676977E+01 -2.487074E+04
       166  24 -5.310535E+04 -9.997641E+04 -6.044079E+04  1.198789E+04 -7.246894E+01 -4.042899E+04
       166  25  2.065132E+03 -9.120281E+04 -1.720597E+04  7.315543E+03  7.132142E+02 -7.961410E+03
       166  26 -9.615029E+03 -9.911054E+04 -3.120783E+04  2.364148E+04  4.629897E+01 -2.430735E+04
       166  27 -5.764901E+04 -1.182360E+05 -6.494086E+04  4.351305E+04 -7.455579E+01 -4.065275E+04
       167   1  9.484228E+04  3.602205E+04 -1.253692E+04  7.484315E+04  3.092931E+02  1.779259E+03
       167   2  1.034763E+05  3.758704E+04 -1.163226E+04  8.258718E+04 -5.000050E+02  4.527695E+03
       167   3  1.182848E+05  3.961586E+04 -1.002577E+04  8.731607E+04  1.496213E+02  5.330838E+03
       167   4  1.690955E+05  8.021243E+04  1.003368E+04  1.076698E+05  4.803838E+03  5.149768E+03
       167   5  1.641125E+05  7.684418E+04  4.812734E+03  1.113024E+05  1.192592E+03  5.796909E+03
       167   6  1.659109E+05  7.454739E+04  2.724963E+03  1.119198E+05 -9.598344E+02  4.498855E+03
       167   7  2.433558E+05  1.244054E+05  3.260413E+04  1.405009E+05  9.299190E+03  8.520765E+03
       167   8  2.247527E+05  1.161030E+05  2.125740E+04  1.400206E+05  2.885414E+03  7.066273E+03
       167   9  2.135388E+05  1.094798E+05  1.547525E+04  1.365253E+05 -2.069388E+03  3.666795E+03
       167  10  9.484228E+04  3.602205E+04 -1.253692E+04  7.484315E+04  3.840281E-10  1.937144E-10
       167  11  1.034763E+05  3.758701E+04 -1.163230E+04  8.258718E+04  4.954580E-10 -7.136633E-11
       167  12  1.182848E+05  3.961583E+04 -1.002582E+04  8.731607E+04  4.472290E-10 -3.743339E-10
       167  13  1.690955E+05  8.021240E+04  1.003358E+04  1.076697E+05  1.004902E-10 -5.921351E-11
       167  14  1.641124E+05  7.684414E+04  4.812668E+03  1.113023E+05  3.310230E-10 -1.549286E-10
       167  15  1.659109E+05  7.454737E+04  2.724923E+03  1.119198E+05  1.751624E-11  1.733226E-11
       167  16  2.433557E+05  1.244053E+05  3.260383E+04  1.405009E+05 -1.908901E-10 -3.386327E-10
       167  17  2.247527E+05  1.161030E+05  2.125729E+04  1.400206E+05 -1.245737E-10 -2.148702E-10
       167  18  2.135388E+05  1.094798E+05  1.547522E+04  1.365253E+05 -5.253112E-10  4.146595E-10
       167  19  9.484228E+04  3.602205E+04 -1.253692E+04  7.484315E+04 -3.092931E+02 -1.779259E+03
       167  20  1.034763E+05  3.758704E+04 -1.163226E+04  8.258718E+04  5.000050E+02 -4.527695E+03
       167  21  1.182848E+05  3.961586E+04 -1.002577E+04  8.731607E+04 -1.496213E+02 -5.330838E+03
       167  22  1.690955E+05  8.021243E+04  1.003368E+04  1.076698E+05 -4.803838E+03 -5.149768E+03
       167  23  1.641125E+05  7.684418E+04  4.812734E+03  1.113024E+05 -1.192592E+03 -5.796909E+03
       167  24  1.659109E+05  7.454739E+04  2.724963E+03  1.119198E+05  9.598344E+02 -4.498855E+03
       167  25  2.433558E+05  1.244054E+05  3.260413E+04  1.405009E+05 -9.299190E+03 -8.520765E+03
       167  26  2.247527E+05  1.161030E+05  2.125740E+04  1.400206E+05 -2.885414E+03 -7.066273E+03
       167  27  2.135388E+05  1.094798E+05  1.547525E+04  1.365253E+05  2.069388E+03 -3.666795E+03
       168   1  1.243258E+05  4.550387E+04 -8.738893E+03  9.074663E+04 -1.460883E+02  4.398077E+03
       168   2  1.327210E+05  5.423786E+04 -6.768724E+03  9.651239E+04 -5.256285E+00  3.566684E+03
       168   3  1.448443E+05  5.957697E+04 -4.490707E+03  1.011768E+05  2.391644E+02  2.597093E+03
       168   4  1.658255E+05  7.460248E+04  2.132334E+03  1.115664E+05 -9.103337E+02  3.824973E+03
       168   5  1.638759E+05  7.616417E+04  1.274339E+03  1.122030E+05 -9.685874E+02  2.844319E+03
       168   6  1.656973E+05  7.437400E+04  8.968976E+02  1.117381E+05 -9.232514E+02  1.725470E+03
       168   7  2.073273E+05  1.037021E+05  1.300343E+04  1.323878E+05 -1.674648E+03  3.251817E+03
       168   8  1.950321E+05  9.809123E+04  9.317416E+03  1.278946E+05 -1.931991E+03  2.121899E+03
       168   9  1.865511E+05  8.917153E+04  6.284588E+03  1.222999E+05 -2.085738E+03  8.537933E+02
       168  10  1.243258E+05  4.550385E+04 -8.738930E+03  9.074663E+04  3.950703E-09  2.023940E-09
       168  11  1.327210E+05  5.423785E+04 -6.768748E+03  9.651239E+04 -3.161639E-09 -2.562656E-09
       168  12  1.448443E+05  5.957697E+04 -4.490719E+03  1.011768E+05 -7.339908E-09 -4.515332E-09
       168  13  1.658255E+05  7.460246E+04  2.132304E+03  1.115664E+05 -1.943907E-09 -9.782864E-10
       168  14  1.638759E+05  7.616416E+04  1.274322E+03  1.122030E+05 -5.764528E-09 -3.551895E-09
       168  15  1.656973E+05  7.437400E+04  8.968904E+02  1.117381E+05 -6.030467E-09 -3.890498E-09
       168  16  2.073273E+05  1.037021E+05  1.300340E+04  1.323878E+05 -7.624076E-09 -4.065767E-09
       168  17  1.950321E+05  9.809122E+04  9.317401E+03  1.278946E+05 -8.213961E-09 -4.489651E-09
       168  18  1.865511E+05  8.917153E+04  6.284578E+03  1.222999E+05 -4.505810E-09 -3.344306E-09
       168  19  1.243258E+05  4.550387E+04 -8.738893E+03  9.074663E+04  1.460883E+02 -4.398077E+03
       168  20  1.327210E+05  5.423786E+04 -6.768724E+03  9.651239E+04  5.256285E+00 -3.566684E+03
       168  21  1.448443E+05  5.957697E+04 -4.490707E+03  1.011768E+05 -2.391644E+02 -2.597093E+03
       168  22  1.658255E+05  7.460248E+04  2.132334E+03  1.115664E+05  9.103337E+02 -3.824973E+03
       168  23  1.638759E+05  7.616417E+04  1.274339E+03  1.122030E+05  9.685874E+02 -2.844319E+03
       168  24  1.656973E+05  7.437400E+04  8.968976E+02  1.117381E+05  9.232514E+02 -1.725470E+03
       168  25  2.073273E+05  1.037021E+05  1.300343E+04  1.323878E+05  1.674648E+03 -3.251817E+03
       168  26  1.950321E+05  9.809123E+04  9.317416E+03  1.278946E+05  1.931991E+03 -2.121899E+03
       168  27  1.865511E+05  8.917153E+04  6.284588E+03  1.222999E+05  2.085738E+03 -8.537933E+02
       169   1  1.517252E+05  6.452468E+04 -2.729495E+03  1.046679E+05  4.468375E+02  2.017281E+03
       169   2  1.601149E+05  7.352708E+04 -9.983693E+01  1.103541E+05  7.035305E+02  9.733164E+02
       169   3  1.721452E+05  7.899001E+04  2.812989E+03  1.150065E+05  9.609592E+02 -7.165333E+01
       169   4  1.656923E+05  7.437465E+04  8.215864E+02  1.117217E+05 -6.924517E+02  1.163009E+03
       169   5  1.638730E+05  7.614629E+04  8.543312E+02  1.122369E+05 -4.372084E+02  1.179679E+02
       169   6  1.656946E+05  7.437888E+04  1.171574E+03  1.117184E+05 -1.812229E+02 -9.280773E+02
       169   7  1.796593E+05  8.422458E+04  4.372584E+03  1.187755E+05 -1.831758E+03  3.087249E+02
       169   8  1.676310E+05  7.876550E+04  1.808495E+03  1.141197E+05 -1.577948E+03 -7.373806E+02
       169   9  1.592440E+05  6.976779E+04 -4.698356E+02  1.084303E+05 -1.323389E+03 -1.784489E+03
       169  10  1.517252E+05  6.452467E+04 -2.729503E+03  1.046679E+05 -9.468052E-09 -5.695318E-09
       169  11  1.601149E+05  7.352708E+04 -9.983964E+01  1.103541E+05 -2.891399E-09 -1.138080E-09
       169  12  1.721452E+05  7.899001E+04  2.812987E+03  1.150065E+05  1.599122E-09  8.589634E-10
       169  13  1.656923E+05  7.437465E+04  8.215829E+02  1.117217E+05 -3.664303E-09 -2.556016E-09
       169  14  1.638730E+05  7.614629E+04  8.543308E+02  1.122369E+05  2.724150E-10 -1.771009E-10
       169  15  1.656946E+05  7.437888E+04  1.171572E+03  1.117184E+05  6.475101E-10  1.196188E-10
       169  16  1.796593E+05  8.422458E+04  4.372578E+03  1.187755E+05  1.937802E-09  6.744621E-10
       169  17  1.676310E+05  7.876549E+04  1.808490E+03  1.141197E+05  2.638993E-09  1.182772E-09
       169  18  1.592440E+05  6.976779E+04 -4.698448E+02  1.084303E+05 -3.583254E-10 -7.359416E-10
       169  19  1.517252E+05  6.452468E+04 -2.729495E+03  1.046679E+05 -4.468375E+02 -2.017281E+03
       169  20  1.601149E+05  7.352708E+04 -9.983693E+01  1.103541E+05 -7.035305E+02 -9.733164E+02
       169  21  1.721452E+05  7.899001E+04  2.812989E+03  1.150065E+05 -9.609592E+02  7.165333E+01
       169  22  1.656923E+05  7.437465E+04  8.215864E+02  1.117217E+05  6.924517E+02 -1.163009E+03
       169  23  1.638730E+05  7.614629E+04  8.543312E+02  1.122369E+05  4.372084E+02 -1.179679E+02
       169  24  1.656946E+05  7.437888E+04  1.171574E+03  1.117184E+05  1.812229E+02  9.280773E+02
       169  25  1.796593E+05  8.422458E+04  4.372584E+03  1.187755E+05  1.831758E+03 -3.087249E+02
       169  26  1.676310E+05  7.876550E+04  1.808495E+03  1.141197E+05  1.577948E+03  7.373806E+02
       169  27  1.592440E+05  6.976779E+04 -4.698356E+02  1.084303E+05  1.323389E+03  1.784489E+03
       170   1  1.790058E+05  8.397787E+04  4.929315E+03  1.185663E+05  1.149030E+03 -6.662663E+02
       170   2  1.875527E+05  9.280402E+04  8.521527E+03  1.240784E+05  5.732370E+02 -2.262259E+03
       170   3  2.001036E+05  9.854884E+04  1.318428E+04  1.284225E+05 -9.534701E+01 -3.734558E+03
       170   4  1.657139E+05  7.437810E+04  1.452176E+03  1.117590E+05 -1.354977E+01 -1.537994E+03
       170   5  1.638621E+05  7.617117E+04  2.397221E+03  1.121681E+05 -4.110949E+02 -3.000358E+03
       170   6  1.659755E+05  7.484403E+04  4.258148E+03  1.114090E+05 -9.013957E+02 -4.338990E+03
       170   7  1.524221E+05  6.477830E+04 -2.025041E+03  1.049517E+05 -1.176113E+03 -2.409708E+03
       170   8  1.401722E+05  5.953864E+04 -3.727126E+03  1.002583E+05 -1.395376E+03 -3.738419E+03
       170   9  1.318493E+05  5.114024E+04 -4.667906E+03  9.439682E+04 -1.707373E+03 -4.943369E+03
       170  10  1.790058E+05  8.397787E+04  4.929312E+03  1.185663E+05 -9.398488E-11 -5.094931E-10
       170  11  1.875527E+05  9.280401E+04  8.521517E+03  1.240784E+05 -3.525651E-10 -2.467386E-10
       170  12  2.001036E+05  9.854883E+04  1.318426E+04  1.284225E+05 -4.050470E-11 -7.385507E-11
       170  13  1.657139E+05  7.437810E+04  1.452171E+03  1.117590E+05  1.543994E-10 -2.572277E-10
       170  14  1.638621E+05  7.617116E+04  2.397204E+03  1.121681E+05 -3.068784E-10 -1.127654E-10
       170  15  1.659755E+05  7.484401E+04  4.258111E+03  1.114090E+05 -1.866924E-10 -4.774616E-11
       170  16  1.524221E+05  6.477829E+04 -2.025055E+03  1.049517E+05  3.865031E-10  2.930546E-11
       170  17  1.401722E+05  5.953863E+04 -3.727156E+03  1.002583E+05  4.308907E-10 -1.357139E-10
       170  18  1.318493E+05  5.114022E+04 -4.667957E+03  9.439681E+04  1.539954E-10 -7.409237E-11
       170  19  1.790058E+05  8.397787E+04  4.929315E+03  1.185663E+05 -1.149030E+03  6.662663E+02
       170  20  1.875527E+05  9.280402E+04  8.521527E+03  1.240784E+05 -5.732370E+02  2.262259E+03
       170  21  2.001036E+05  9.854884E+04  1.318428E+04  1.284225E+05  9.534701E+01  3.734558E+03
       170  22  1.657139E+05  7.437810E+04  1.452176E+03  1.117590E+05  1.354977E+01  1.537994E+03
       170  23  1.638621E+05  7.617117E+04  2.397221E+03  1.121681E+05  4.110949E+02  3.000358E+03
       170  24  1.659755E+05  7.484403E+04  4.258148E+03  1.114090E+05  9.013957E+02  4.338990E+03
       170  25  1.524221E+05  6.477830E+04 -2.025041E+03  1.049517E+05  1.176113E+03  2.409708E+03
       170  26  1.401722E+05  5.953864E+04 -3.727126E+03  1.002583E+05  1.395376E+03  3.738419E+03
       170  27  1.318493E+05  5.114024E+04 -4.667906E+03  9.439682E+04  1.707373E+03  4.943369E+03
       171   1  2.055037E+05  1.051561E+05  1.630902E+04  1.331901E+05 -2.744843E+01 -4.397294E+03
       171   2  2.196961E+05  1.093349E+05  2.422419E+04  1.346372E+05 -6.706566E+03 -9.253658E+03
       171   3  2.447478E+05  1.198724E+05  4.074202E+04  1.309432E+05 -1.469333E+04 -1.236678E+04
       171   4  1.661871E+05  7.469658E+04  5.508761E+03  1.121257E+05 -1.142837E+03 -5.233689E+03
       171   5  1.643016E+05  7.760861E+04  9.846419E+03  1.103317E+05 -5.310094E+03 -8.206616E+03
       171   6  1.727309E+05  8.633517E+04  2.060765E+04  1.033963E+05 -1.078482E+04 -9.436205E+03
       171   7  1.268722E+05  4.423822E+04 -5.291642E+03  9.106289E+04 -2.258131E+03 -6.070004E+03
       171   8  1.089102E+05  4.588308E+04 -4.531737E+03  8.602816E+04 -3.913781E+03 -7.159661E+03
       171   9  1.007186E+05  5.279844E+04  4.725896E+02  7.585186E+04 -6.876886E+03 -6.505847E+03
       171  10  2.055037E+05  1.051560E+05  1.630898E+04  1.331901E+05 -3.262913E-10  1.207071E-11
       171  11  2.196960E+05  1.093348E+05  2.422395E+04  1.346372E+05  4.938427E-11  9.641228E-11
       171  12  2.447476E+05  1.198722E+05  4.074133E+04  1.309431E+05 -1.065651E-11  1.033033E-10
       171  13  1.661871E+05  7.469655E+04  5.508707E+03  1.121257E+05 -5.329410E-11 -3.552843E-11
       171  14  1.643016E+05  7.760853E+04  9.846239E+03  1.103316E+05 -3.640900E-11  6.257530E-11
       171  15  1.727307E+05  8.633505E+04  2.060726E+04  1.033962E+05  5.733902E-12  2.515756E-11
       171  16  1.268722E+05  4.423818E+04 -5.291721E+03  9.106288E+04  4.584064E-11  1.160609E-11
       171  17  1.089102E+05  4.588303E+04 -4.531862E+03  8.602813E+04 -9.690423E-12 -1.567263E-12
       171  18  1.007186E+05  5.279838E+04  4.724212E+02  7.585183E+04 -1.622987E-10 -8.009011E-11
       171  19  2.055037E+05  1.051561E+05  1.630902E+04  1.331901E+05  2.744843E+01  4.397294E+03
       171  20  2.196961E+05  1.093349E+05  2.422419E+04  1.346372E+05  6.706566E+03  9.253658E+03
       171  21  2.447478E+05  1.198724E+05  4.074202E+04  1.309432E+05  1.469333E+04  1.236678E+04
       171  22  1.661871E+05  7.469658E+04  5.508761E+03  1.121257E+05  1.142837E+03  5.233689E+03
       171  23  1.643016E+05  7.760861E+04  9.846419E+03  1.103317E+05  5.310094E+03  8.206616E+03
       171  24  1.727309E+05  8.633517E+04  2.060765E+04  1.033963E+05  1.078482E+04  9.436205E+03
       171  25  1.268722E+05  4.423822E+04 -5.291642E+03  9.106289E+04  2.258131E+03  6.070004E+03
       171  26  1.089102E+05  4.588308E+04 -4.531737E+03  8.602816E+04  3.913781E+03  7.159661E+03
       171  27  1.007186E+05  5.279844E+04  4.725896E+02  7.585186E+04  6.876886E+03  6.505847E+03
       172   1  4.634868E+05  6.065935E+04  6.463029E+04  3.991782E+04  3.360035E+04 -1.192037E+03
       172   2  4.385195E+05  2.451824E+04  3.578782E+04  2.490841E+04  1.961435E+04 -3.626607E+03
       172   3  4.216818E+05  1.361720E+04  2.235635E+04  1.526866E+04  5.628712E+03 -3.476036E+03
       172   4  3.644668E+05  3.613866E+04  4.100598E+04  1.851805E+04  2.822958E+04 -1.193304E+03
       172   5  3.607284E+05  5.758711E+03  1.974971E+04  1.583385E+04  1.796901E+04 -3.626982E+03
       172   6  3.644742E+05 -2.617897E+01  1.132002E+04  1.851899E+04  7.708306E+03 -3.475927E+03
       172   7  2.654569E+05  1.161899E+04  1.738133E+04 -2.878291E+03  2.285967E+04 -1.194201E+03
       172   8  2.829432E+05 -1.300089E+04  3.711324E+03  6.760442E+03  1.632386E+04 -3.627309E+03
       172   9  3.072697E+05 -1.366971E+04  2.835638E+02  2.176901E+04  9.787713E+03 -3.475796E+03
       172  10  4.634856E+05  6.065905E+04  6.462817E+04  3.991785E+04  1.818802E-11 -3.256833E-11
       172  11  4.385191E+05  2.451812E+04  3.578707E+04  2.490847E+04  4.272066E-10  3.067274E-11
       172  12  4.216818E+05  1.361718E+04  2.235627E+04  1.526867E+04 -3.679865E-10  1.652422E-10
       172  13  3.644660E+05  3.613844E+04  4.100448E+04  1.851808E+04 -8.233325E-12 -7.253821E-12
       172  14  3.607280E+05  5.758611E+03  1.974908E+04  1.583390E+04  1.916290E-10  5.036621E-11
       172  15  3.644741E+05 -2.620788E+01  1.131989E+04  1.851901E+04 -4.190740E-10  1.604365E-10
       172  16  2.654563E+05  1.161885E+04  1.738034E+04 -2.878269E+03  6.974397E-11 -9.670452E-12
       172  17  2.829429E+05 -1.300097E+04  3.710799E+03  6.760490E+03  2.434848E-10  8.666877E-11
       172  18  3.072696E+05 -1.366975E+04  2.833611E+02  2.176904E+04  4.608793E-10  2.796873E-10
       172  19  4.634868E+05  6.065935E+04  6.463029E+04  3.991782E+04 -3.360035E+04  1.192037E+03
       172  20  4.385195E+05  2.451824E+04  3.578782E+04  2.490841E+04 -1.961435E+04  3.626607E+03
       172  21  4.216818E+05  1.361720E+04  2.235635E+04  1.526866E+04 -5.628712E+03  3.476036E+03
       172  22  3.644668E+05  3.613866E+04  4.100598E+04  1.851805E+04 -2.822958E+04  1.193304E+03
       172  23  3.607284E+05  5.758711E+03  1.974971E+04  1.583385E+04 -1.796901E+04  3.626982E+03
       172  24  3.644742E+05 -2.617897E+01  1.132002E+04  1.851899E+04 -7.708306E+03  3.475927E+03
       172  25  2.654569E+05  1.161899E+04  1.738133E+04 -2.878291E+03 -2.285967E+04  1.194201E+03
       172  26  2.829432E+05 -1.300089E+04  3.711324E+03  6.760442E+03 -1.632386E+04  3.627309E+03
       172  27  3.072697E+05 -1.366971E+04  2.835638E+02  2.176901E+04 -9.787713E+03  3.475796E+03
       173   1  4.059217E+05  1.161855E+04  1.724351E+04  1.906347E+04  4.555068E+03 -2.625778E+03
       173   2  3.847014E+05  5.342935E+03  9.859121E+03  1.595179E+04  1.486241E+03 -1.414121E+03
       173   3  3.641765E+05  2.512581E+02  4.767577E+03  1.835871E+04 -1.582508E+03 -3.251102E+01
       173   4  3.629557E+05  1.374035E+03  8.968670E+03  1.855206E+04  6.178290E+03 -2.625704E+03
       173   5  3.626298E+05  9.251382E+01  5.669410E+03  1.579281E+04  3.354453E+03 -1.414014E+03
       173   6  3.629565E+05 -4.750810E+01  4.493087E+03  1.855215E+04  5.305944E+02 -3.237062E+01
       173   7  3.199914E+05 -8.870583E+03  6.937508E+02  1.804069E+04  7.801402E+03 -2.625632E+03
       173   8  3.405587E+05 -5.157934E+03  1.479690E+03  1.563383E+04  5.222599E+03 -1.413908E+03
       173   9  3.617365E+05 -3.462718E+02  4.218614E+03  1.874558E+04  2.643693E+03 -3.222891E+01
       173  10  4.059217E+05  1.161853E+04  1.724346E+04  1.906348E+04  1.680180E-10  1.856510E-10
       173  11  3.847014E+05  5.342932E+03  9.859113E+03  1.595179E+04  2.111292E-10  9.935167E-11
       173  12  3.641765E+05  2.512574E+02  4.767573E+03  1.835871E+04  2.389359E-11 -7.992631E-11
       173  13  3.629556E+05  1.374018E+03  8.968585E+03  1.855207E+04  2.568524E-10  2.369430E-10
       173  14  3.626298E+05  9.250865E+01  5.669385E+03  1.579281E+04  3.305842E-10  4.672949E-11
       173  15  3.629565E+05 -4.750817E+01  4.493087E+03  1.855215E+04 -1.534521E-10 -1.421837E-10
       173  16  3.199913E+05 -8.870607E+03  6.936236E+02  1.804071E+04 -1.801635E-10  1.677745E-10
       173  17  3.405587E+05 -5.157943E+03  1.479635E+03  1.563383E+04 -1.153579E-11 -7.974347E-11
       173  18  3.617365E+05 -3.462737E+02  4.218600E+03  1.874558E+04 -1.742871E-10 -9.354320E-11
       173  19  4.059217E+05  1.161855E+04  1.724351E+04  1.906347E+04 -4.555068E+03  2.625778E+03
       173  20  3.847014E+05  5.342935E+03  9.859121E+03  1.595179E+04 -1.486241E+03  1.414121E+03
       173  21  3.641765E+05  2.512581E+02  4.767577E+03  1.835871E+04  1.582508E+03  3.251102E+01
       173  22  3.629557E+05  1.374035E+03  8.968670E+03  1.855206E+04 -6.178290E+03  2.625704E+03
       173  23  3.626298E+05  9.251382E+01  5.669410E+03  1.579281E+04 -3.354453E+03  1.414014E+03
       173  24  3.629565E+05 -4.750810E+01  4.493087E+03  1.855215E+04 -5.305944E+02  3.237062E+01
       173  25  3.199914E+05 -8.870583E+03  6.937508E+02  1.804069E+04 -7.801402E+03  2.625632E+03
       173  26  3.405587E+05 -5.157934E+03  1.479690E+03  1.563383E+04 -5.222599E+03  1.413908E+03
       173  27  3.617365E+05 -3.462718E+02  4.218614E+03  1.874558E+04 -2.643693E+03  3.222891E+01
       174   1  3.500243E+05 -3.115370E+03  2.001311E+03  1.871642E+04 -2.373373E+03  8.371485E+02
       174   2  3.288657E+05 -7.944198E+03 -9.562853E+02  1.563469E+04 -4.791752E+03  2.210476E+03
       174   3  3.082766E+05 -1.175642E+04 -2.085863E+03  1.807089E+04 -7.209981E+03  3.392044E+03
       174   4  3.629485E+05 -4.264392E+01  4.446062E+03  1.855199E+04 -2.566240E+02  8.372872E+02
       174   5  3.626397E+05  8.151410E+01  5.411299E+03  1.579300E+04 -2.951417E+03  2.210569E+03
       174   6  3.629475E+05  1.270134E+03  8.396243E+03  1.855191E+04 -5.646134E+03  3.392094E+03
       174   7  3.758729E+05  3.030075E+03  6.890823E+03  1.838756E+04  1.860168E+03  8.374249E+02
       174   8  3.964148E+05  8.107162E+03  1.177885E+04  1.595133E+04 -1.110984E+03  2.210662E+03
       174   9  4.176214E+05  1.429651E+04  1.887822E+04  1.903299E+04 -4.082153E+03  3.392147E+03
       174  10  3.500243E+05 -3.115372E+03  2.001299E+03  1.871642E+04  6.540757E-12 -1.505858E-10
       174  11  3.288657E+05 -7.944210E+03 -9.563376E+02  1.563469E+04 -1.830134E-10 -1.685462E-10
       174  12  3.082765E+05 -1.175645E+04 -2.085982E+03  1.807091E+04 -5.119734E-11 -1.597331E-11
       174  13  3.629485E+05 -4.264469E+01  4.446061E+03  1.855199E+04 -2.737094E-10 -1.046708E-10
       174  14  3.626397E+05  8.150651E+01  5.411273E+03  1.579301E+04  4.208060E-12  7.608588E-12
       174  15  3.629475E+05  1.270113E+03  8.396161E+03  1.855193E+04 -3.380569E-10 -3.541200E-11
       174  16  3.758729E+05  3.030073E+03  6.890815E+03  1.838755E+04 -7.556055E-11 -2.601054E-11
       174  17  3.964148E+05  8.107156E+03  1.177883E+04  1.595133E+04 -1.378279E-10  2.855458E-11
       174  18  4.176213E+05  1.429650E+04  1.887817E+04  1.903300E+04  7.384638E-12  9.581385E-11
       174  19  3.500243E+05 -3.115370E+03  2.001311E+03  1.871642E+04  2.373373E+03 -8.371485E+02
       174  20  3.288657E+05 -7.944198E+03 -9.562853E+02  1.563469E+04  4.791752E+03 -2.210476E+03
       174  21  3.082766E+05 -1.175642E+04 -2.085863E+03  1.807089E+04  7.209981E+03 -3.392044E+03
       174  22  3.629485E+05 -4.264392E+01  4.446062E+03  1.855199E+04  2.566240E+02 -8.372872E+02
       174  23  3.626397E+05  8.151410E+01  5.411299E+03  1.579300E+04  2.951417E+03 -2.210569E+03
       174  24  3.629475E+05  1.270134E+03  8.396243E+03  1.855191E+04  5.646134E+03 -3.392094E+03
       174  25  3.758729E+05  3.030075E+03  6.890823E+03  1.838756E+04 -1.860168E+03 -8.374249E+02
       174  26  3.964148E+05  8.107162E+03  1.177885E+04  1.595133E+04  1.110984E+03 -2.210662E+03
       174  27  4.176214E+05  1.429651E+04  1.887822E+04  1.903299E+04  4.082153E+03 -3.392147E+03
       175   1  2.954267E+05 -1.645589E+04 -2.699168E+03  2.151982E+04 -9.148573E+03  4.239828E+03
       175   2  2.714043E+05 -1.623344E+04 -5.971392E+01  7.430913E+03 -1.453077E+04  4.242667E+03
       175   3  2.536003E+05  6.055213E+03  1.159958E+04 -1.306523E+03 -1.991288E+04  1.374650E+03
       175   4  3.643518E+05 -2.633009E+01  1.055030E+04  1.851493E+04 -7.077393E+03  4.239924E+03
       175   5  3.608810E+05  5.332556E+03  1.832385E+04  1.583897E+04 -1.659632E+04  4.242376E+03
       175   6  3.643448E+05  3.347332E+04  3.798789E+04  1.851435E+04 -2.611547E+04  1.373962E+03
       175   7  4.332815E+05  1.640298E+04  2.379956E+04  1.550970E+04 -5.005987E+03  4.240000E+03
       175   8  4.503654E+05  2.689831E+04  3.670704E+04  2.424826E+04 -1.866217E+04  4.242028E+03
       175   9  4.751014E+05  6.089204E+04  6.437570E+04  3.833878E+04 -3.231915E+04  1.372878E+03
       175  10  2.954266E+05 -1.645593E+04 -2.699359E+03  2.151986E+04  5.264657E-11  1.992521E-11
       175  11  2.714041E+05 -1.623351E+04 -6.014436E+01  7.430962E+03  6.781052E-11  3.851207E-11
       175  12  2.535999E+05  6.055105E+03  1.159883E+04 -1.306501E+03 -1.196345E-10  4.618502E-11
       175  13  3.643518E+05 -2.636283E+01  1.055017E+04  1.851496E+04  2.777017E-10  3.152113E-11
       175  14  3.608807E+05  5.332463E+03  1.832330E+04  1.583903E+04 -6.856023E-11 -4.644410E-12
       175  15  3.643440E+05  3.347314E+04  3.798661E+04  1.851438E+04  1.881508E-10 -1.930654E-11
       175  16  4.332815E+05  1.640296E+04  2.379948E+04  1.550972E+04 -2.407236E-11  6.474245E-11
       175  17  4.503650E+05  2.689820E+04  3.670635E+04  2.424832E+04  3.335857E-12 -5.778820E-11
       175  18  4.751002E+05  6.089176E+04  6.437373E+04  3.833882E+04  2.202388E-10 -2.661250E-11
       175  19  2.954267E+05 -1.645589E+04 -2.699168E+03  2.151982E+04  9.148573E+03 -4.239828E+03
       175  20  2.714043E+05 -1.623344E+04 -5.971392E+01  7.430913E+03  1.453077E+04 -4.242667E+03
       175  21  2.536003E+05  6.055213E+03  1.159958E+04 -1.306523E+03  1.991288E+04 -1.374650E+03
       175  22  3.643518E+05 -2.633009E+01  1.055030E+04  1.851493E+04  7.077393E+03 -4.239924E+03
       175  23  3.608810E+05  5.332556E+03  1.832385E+04  1.583897E+04  1.659632E+04 -4.242376E+03
       175  24  3.643448E+05  3.347332E+04  3.798789E+04  1.851435E+04  2.611547E+04 -1.373962E+03
       175  25  4.332815E+05  1.640298E+04  2.379956E+04  1.550970E+04  5.005987E+03 -4.240000E+03
       175  26  4.503654E+05  2.689831E+04  3.670704E+04  2.424826E+04  1.866217E+04 -4.242028E+03
       175  27  4.751014E+05  6.089204E+04  6.437570E+04  3.833878E+04  3.231915E+04 -1.372878E+03
       176   1 -4.660541E+04 -9.469063E+04 -5.426684E+04  2.159083E+04  2.779473E+02 -4.014926E+04
       176   2 -4.152641E+03 -1.010310E+05 -2.651250E+04  4.685955E+03  7.052568E+02 -2.555248E+04
       176   3  1.594887E+03 -1.184480E+05 -1.743788E+04 -1.531196E+04  3.005015E+02 -1.095578E+04
       176   4 -5.413971E+04 -1.250261E+05 -6.158941E+04 -1.053543E+04  2.800272E+02 -4.135959E+04
       176   5 -8.608831E+03 -1.193816E+05 -3.043924E+04 -8.989097E+03  7.058214E+02 -2.556674E+04
       176   6  7.147430E+00 -1.250229E+05 -1.880031E+04 -1.053558E+04  3.004071E+02 -9.773659E+03
       176   7 -6.167020E+04 -1.553585E+05 -6.891149E+04 -4.266012E+04  2.822325E+02 -4.256986E+04
       176   8 -1.306434E+04 -1.377316E+05 -3.436590E+04 -2.266374E+04  7.063866E+02 -2.558100E+04
       176   9 -1.580508E+03 -1.315977E+05 -2.016273E+04 -5.759248E+03  3.003310E+02 -8.591550E+03
       176  10 -4.660585E+04 -9.469236E+04 -5.426987E+04  2.159084E+04  7.759982E-11 -2.282373E-10
       176  11 -4.152817E+03 -1.010317E+05 -2.651372E+04  4.685970E+03 -2.046849E-10  2.546378E-11
       176  12  1.594855E+03 -1.184481E+05 -1.743810E+04 -1.531195E+04 -5.201862E-11  2.906726E-10
       176  13 -5.414017E+04 -1.250279E+05 -6.159263E+04 -1.053542E+04 -5.298560E-11  5.477547E-12
       176  14 -8.609007E+03 -1.193823E+05 -3.044047E+04 -8.989082E+03  6.046653E-11  9.969040E-12
       176  15  7.121682E+00 -1.250230E+05 -1.880049E+04 -1.053557E+04 -1.234759E-10  1.583815E-11
       176  16 -6.167069E+04 -1.553604E+05 -6.891490E+04 -4.266011E+04  1.301502E-11  2.092083E-10
       176  17 -1.306452E+04 -1.377323E+05 -3.436713E+04 -2.266372E+04 -1.724945E-10 -4.013091E-11
       176  18 -1.580528E+03 -1.315977E+05 -2.016287E+04 -5.759246E+03 -1.780440E-10 -2.866222E-10
       176  19 -4.660541E+04 -9.469063E+04 -5.426684E+04  2.159083E+04 -2.779473E+02  4.014926E+04
       176  20 -4.152641E+03 -1.010310E+05 -2.651250E+04  4.685955E+03 -7.052568E+02  2.555248E+04
       176  21  1.594887E+03 -1.184480E+05 -1.743788E+04 -1.531196E+04 -3.005015E+02  1.095578E+04
       176  22 -5.413971E+04 -1.250261E+05 -6.158941E+04 -1.053543E+04 -2.800272E+02  4.135959E+04
       176  23 -8.608831E+03 -1.193816E+05 -3.043924E+04 -8.989097E+03 -7.058214E+02  2.556674E+04
       176  24  7.147430E+00 -1.250229E+05 -1.880031E+04 -1.053558E+04 -3.004071E+02  9.773659E+03
       176  25 -6.167020E+04 -1.553585E+05 -6.891149E+04 -4.266012E+04 -2.822325E+02  4.256986E+04
       176  26 -1.306434E+04 -1.377316E+05 -3.436590E+04 -2.266374E+04 -7.063866E+02  2.558100E+04
       176  27 -1.580508E+03 -1.315977E+05 -2.016273E+04 -5.759248E+03 -3.003310E+02  8.591550E+03
       177   1 -2.346994E+03 -1.243812E+05 -1.614897E+04 -9.452847E+03 -1.883309E+02 -8.156624E+03
       177   2 -3.518379E+03 -1.354337E+05 -1.555056E+04 -8.965693E+03 -8.958015E+02 -1.581674E+03
       177   3 -7.834117E+03 -1.481283E+05 -2.001926E+04 -1.161543E+04 -1.556597E+03  4.993166E+03
       177   4 -2.006358E+03 -1.228777E+05 -1.594966E+04 -1.054530E+04 -1.883260E+02 -7.104520E+03
       177   5 -3.430298E+02 -1.220624E+05 -1.304704E+04 -8.976846E+03 -8.958047E+02 -5.967499E+02
       177   6 -1.812357E+03 -1.228777E+05 -1.516485E+04 -1.054530E+04 -1.556586E+03  5.911031E+03
       177   7 -1.665716E+03 -1.213741E+05 -1.575035E+04 -1.163775E+04 -1.883248E+02 -6.052414E+03
       177   8  2.832310E+03 -1.086910E+05 -1.054353E+04 -8.988000E+03 -8.958079E+02  3.881951E+02
       177   9  4.209371E+03 -9.762655E+04 -1.031047E+04 -9.475131E+03 -1.556572E+03  6.828932E+03
       177  10 -2.347012E+03 -1.243813E+05 -1.614909E+04 -9.452849E+03 -9.910526E-11  1.865532E-10
       177  11 -3.518381E+03 -1.354337E+05 -1.555057E+04 -8.965695E+03 -6.402031E-11  9.561513E-11
       177  12 -7.834126E+03 -1.481283E+05 -2.001931E+04 -1.161542E+04 -2.393489E-11 -4.145666E-11
       177  13 -2.006371E+03 -1.228777E+05 -1.594976E+04 -1.054530E+04  2.682267E-10  1.575345E-12
       177  14 -3.430308E+02 -1.220624E+05 -1.304705E+04 -8.976847E+03  3.121895E-10  1.385990E-11
       177  15 -1.812369E+03 -1.228778E+05 -1.516492E+04 -1.054530E+04  1.535924E-10  1.278786E-12
       177  16 -1.665726E+03 -1.213741E+05 -1.575042E+04 -1.163775E+04 -9.715479E-11 -1.802161E-10
       177  17  2.832309E+03 -1.086910E+05 -1.054353E+04 -8.988000E+03  1.350424E-10 -9.123838E-11
       177  18  4.209355E+03 -9.762660E+04 -1.031056E+04 -9.475123E+03  1.830666E-10  4.256176E-11
       177  19 -2.346994E+03 -1.243812E+05 -1.614897E+04 -9.452847E+03  1.883309E+02  8.156624E+03
       177  20 -3.518379E+03 -1.354337E+05 -1.555056E+04 -8.965693E+03  8.958015E+02  1.581674E+03
       177  21 -7.834117E+03 -1.481283E+05 -2.001926E+04 -1.161543E+04  1.556597E+03 -4.993166E+03
       177  22 -2.006358E+03 -1.228777E+05 -1.594966E+04 -1.054530E+04  1.883260E+02  7.104520E+03
       177  23 -3.430298E+02 -1.220624E+05 -1.304704E+04 -8.976846E+03  8.958047E+02  5.967499E+02
       177  24 -1.812357E+03 -1.228777E+05 -1.516485E+04 -1.054530E+04  1.556586E+03 -5.911031E+03
       177  25 -1.665716E+03 -1.213741E+05 -1.575035E+04 -1.163775E+04  1.883248E+02  6.052414E+03
       177  26  2.832310E+03 -1.086910E+05 -1.054353E+04 -8.988000E+03  8.958079E+02 -3.881951E+02
       177  27  4.209371E+03 -9.762655E+04 -1.031047E+04 -9.475131E+03  1.556572E+03 -6.828932E+03
       178   1 -7.954388E+03 -1.581551E+05 -2.401307E+04 -6.207951E+03 -2.039878E+03  7.266922E+03
       178   2 -1.869945E+04 -1.647086E+05 -3.721070E+04 -2.147119E+04 -2.110114E+03  2.389135E+04
       178   3 -6.342548E+04 -1.819222E+05 -6.972807E+04 -3.978380E+04 -6.931461E+02  4.051512E+04
       178   4  2.822638E+00 -1.248014E+05 -1.758566E+04 -1.052622E+04 -2.039919E+03  8.438993E+03
       178   5 -7.830593E+03 -1.196589E+05 -2.792424E+04 -9.000764E+03 -2.109633E+03  2.292186E+04
       178   6 -4.927279E+04 -1.248045E+05 -5.609450E+04 -1.052549E+04 -6.912926E+02  3.740447E+04
       178   7  7.960038E+03 -9.144657E+04 -1.115828E+04 -1.484473E+04 -2.039977E+03  9.611125E+03
       178   8  3.038722E+03 -7.460692E+04 -1.863781E+04  3.470578E+03 -2.109190E+03  2.195230E+04
       178   9 -3.511710E+04 -6.768203E+04 -4.246066E+04  1.873552E+04 -6.897325E+02  3.429354E+04
       178  10 -7.954407E+03 -1.581551E+05 -2.401318E+04 -6.207939E+03 -1.875656E-10  1.714417E-11
       178  11 -1.869961E+04 -1.647092E+05 -3.721178E+04 -2.147114E+04 -1.205005E-10  3.528876E-11
       178  12 -6.342593E+04 -1.819240E+05 -6.973115E+04 -3.978377E+04  1.479026E-11  5.850159E-11
       178  13  2.799047E+00 -1.248015E+05 -1.758580E+04 -1.052621E+04 -1.500710E-10 -1.226696E-11
       178  14 -7.830739E+03 -1.196595E+05 -2.792524E+04 -9.000725E+03 -1.584516E-11 -5.891492E-11
       178  15 -4.927316E+04 -1.248060E+05 -5.609713E+04 -1.052547E+04 -1.870303E-10 -4.710758E-12
       178  16  7.960009E+03 -9.144667E+04 -1.115847E+04 -1.484471E+04  5.268481E-11 -3.655563E-11
       178  17  3.038588E+03 -7.460744E+04 -1.863872E+04  3.470615E+03  8.676542E-11 -5.000300E-11
       178  18 -3.511742E+04 -6.768329E+04 -4.246287E+04  1.873554E+04 -1.344650E-11 -6.977263E-11
       178  19 -7.954388E+03 -1.581551E+05 -2.401307E+04 -6.207951E+03  2.039878E+03 -7.266922E+03
       178  20 -1.869945E+04 -1.647086E+05 -3.721070E+04 -2.147119E+04  2.110114E+03 -2.389135E+04
       178  21 -6.342548E+04 -1.819222E+05 -6.972807E+04 -3.978380E+04  6.931461E+02 -4.051512E+04
       178  22  2.822638E+00 -1.248014E+05 -1.758566E+04 -1.052622E+04  2.039919E+03 -8.438993E+03
       178  23 -7.830593E+03 -1.196589E+05 -2.792424E+04 -9.000764E+03  2.109633E+03 -2.292186E+04
       178  24 -4.927279E+04 -1.248045E+05 -5.609450E+04 -1.052549E+04  6.912926E+02 -3.740447E+04
       178  25  7.960038E+03 -9.144657E+04 -1.115828E+04 -1.484473E+04  2.039977E+03 -9.611125E+03
       178  26  3.038722E+03 -7.460692E+04 -1.863781E+04  3.470578E+03  2.109190E+03 -2.195230E+04
       178  27 -3.511710E+04 -6.768203E+04 -4.246066E+04  1.873552E+04  6.897325E+02 -3.429354E+04
       179   1  7.388762E+04  1.033064E+04 -1.742553E+04  5.612359E+04  1.596647E+03  3.399101E+03
       179   2  8.983980E+04  1.495551E+04 -1.576903E+04  7.006739E+04  3.714575E+02  7.089380E+03
       179   3  1.167481E+05  1.953014E+04 -1.270253E+04  7.886586E+04  1.345100E+03  7.847759E+03
       179   4  1.851497E+05  7.549347E+04  1.626871E+04  1.048137E+05  7.958006E+03  8.169422E+03
       179   5  1.766318E+05  7.046785E+04  7.782910E+03  1.108316E+05  2.509766E+03  8.692690E+03
       179   6  1.799853E+05  6.630735E+04  4.371639E+03  1.117044E+05 -7.398231E+02  6.284377E+03
       179   7  2.964233E+05  1.406594E+05  4.996127E+04  1.535119E+05  1.432084E+04  1.294058E+04
       179   8  2.634315E+05  1.259831E+05  3.133395E+04  1.516017E+05  4.648463E+03  1.029625E+04
       179   9  2.432270E+05  1.130872E+05  2.144545E+04  1.445468E+05 -2.825030E+03  4.720769E+03
       179  10  7.388762E+04  1.033062E+04 -1.742556E+04  5.612359E+04 -6.342039E-11 -3.574210E-11
       179  11  8.983979E+04  1.495546E+04 -1.576913E+04  7.006739E+04  3.334456E-11  2.073500E-11
       179  12  1.167481E+05  1.953007E+04 -1.270264E+04  7.886585E+04  8.130146E-11  7.919486E-11
       179  13  1.851496E+05  7.549338E+04  1.626846E+04  1.048136E+05  6.212379E-11  2.605720E-11
       179  14  1.766318E+05  7.046777E+04  7.782756E+03  1.108316E+05  5.416432E-11  1.172460E-11
       179  15  1.799853E+05  6.630731E+04  4.371564E+03  1.117044E+05 -3.289117E-11  5.311076E-11
       179  16  2.964231E+05  1.406592E+05  4.996057E+04  1.535117E+05 -2.846096E-11  3.437187E-11
       179  17  2.634314E+05  1.259830E+05  3.133371E+04  1.516017E+05 -7.932252E-11  2.545500E-11
       179  18  2.432270E+05  1.130871E+05  2.144540E+04  1.445468E+05  3.330578E-11 -5.826263E-11
       179  19  7.388762E+04  1.033064E+04 -1.742553E+04  5.612359E+04 -1.596647E+03 -3.399101E+03
       179  20  8.983980E+04  1.495551E+04 -1.576903E+04  7.006739E+04 -3.714575E+02 -7.089380E+03
       179  21  1.167481E+05  1.953014E+04 -1.270253E+04  7.886586E+04 -1.345100E+03 -7.847759E+03
       179  22  1.851497E+05  7.549347E+04  1.626871E+04  1.048137E+05 -7.958006E+03 -8.169422E+03
       179  23  1.766318E+05  7.046785E+04  7.782910E+03  1.108316E+05 -2.509766E+03 -8.692690E+03
       179  24  1.799853E+05  6.630735E+04  4.371639E+03  1.117044E+05  7.398231E+02 -6.284377E+03
       179  25  2.964233E+05  1.406594E+05  4.996127E+04  1.535119E+05 -1.432084E+04 -1.294058E+04
       179  26  2.634315E+05  1.259831E+05  3.133395E+04  1.516017E+05 -4.648463E+03 -1.029625E+04
       179  27  2.432270E+05  1.130872E+05  2.144545E+04  1.445468E+05  2.825030E+03 -4.720769E+03
       180   1  1.281887E+05  3.024296E+04 -1.020066E+04  8.525873E+04  9.994858E+02  6.256301E+03
       180   2  1.438229E+05  4.655222E+04 -6.471434E+03  9.597075E+04  1.414269E+03  4.707461E+03
       180   3  1.663622E+05  5.649944E+04 -2.260454E+03  1.046430E+05  1.984837E+03  2.950715E+03
       180   4  1.798432E+05  6.639985E+04  3.392901E+03  1.111316E+05 -5.653824E+02  5.082898E+03
       180   5  1.762554E+05  6.936460E+04  1.949159E+03  1.122901E+05 -4.501193E+02  3.309519E+03
       180   6  1.796369E+05  6.603194E+04  1.246858E+03  1.114084E+05 -1.790579E+02  1.328274E+03
       180   7  2.315014E+05  1.025588E+05  1.698651E+04  1.370072E+05 -2.130449E+03  3.909348E+03
       180   8  2.086892E+05  9.217761E+04  1.036968E+04  1.286104E+05 -2.314638E+03  1.911480E+03
       180   9  1.929117E+05  7.556440E+04  4.754113E+03  1.181739E+05 -2.342983E+03 -2.941916E+02
       180  10  1.281887E+05  3.024291E+04 -1.020073E+04  8.525873E+04 -1.356579E-10  6.339566E-11
       180  11  1.438229E+05  4.655220E+04 -6.471479E+03  9.597074E+04  3.199131E-10 -1.656065E-11
       180  12  1.663621E+05  5.649943E+04 -2.260478E+03  1.046430E+05  2.316341E-10  1.183668E-10
       180  13  1.798432E+05  6.639982E+04  3.392851E+03  1.111316E+05  2.043499E-10 -4.032546E-11
       180  14  1.762554E+05  6.936459E+04  1.949138E+03  1.122901E+05  2.791224E-10  1.816889E-11
       180  15  1.796369E+05  6.603194E+04  1.246855E+03  1.114084E+05  4.537183E-11 -7.695194E-11
       180  16  2.315014E+05  1.025588E+05  1.698648E+04  1.370073E+05 -6.241566E-11  2.593483E-11
       180  17  2.086892E+05  9.217760E+04  1.036967E+04  1.286104E+05 -1.852538E-10  5.212273E-11
       180  18  1.929117E+05  7.556440E+04  4.754102E+03  1.181739E+05  1.099441E-11 -2.803344E-11
       180  19  1.281887E+05  3.024296E+04 -1.020066E+04  8.525873E+04 -9.994858E+02 -6.256301E+03
       180  20  1.438229E+05  4.655222E+04 -6.471434E+03  9.597075E+04 -1.414269E+03 -4.707461E+03
       180  21  1.663622E+05  5.649944E+04 -2.260454E+03  1.046430E+05 -1.984837E+03 -2.950715E+03
       180  22  1.798432E+05  6.639985E+04  3.392901E+03  1.111316E+05  5.653824E+02 -5.082898E+03
       180  23  1.762554E+05  6.936460E+04  1.949159E+03  1.122901E+05  4.501193E+02 -3.309519E+03
       180  24  1.796369E+05  6.603194E+04  1.246858E+03  1.114084E+05  1.790579E+02 -1.328274E+03
       180  25  2.315014E+05  1.025588E+05  1.698651E+04  1.370072E+05  2.130449E+03 -3.909348E+03
       180  26  2.086892E+05  9.217761E+04  1.036968E+04  1.286104E+05  2.314638E+03 -1.911480E+03
       180  27  1.929117E+05  7.556440E+04  4.754113E+03  1.181739E+05  2.342983E+03  2.941916E+02
       181   1  1.791786E+05  6.568510E+04  9.663179E+02  1.111328E+05  2.445136E+03  1.926548E+03
       181   2  1.948260E+05  8.243751E+04  5.643213E+03  1.217195E+05  3.186284E+03  1.758839E+02
       181   3  2.172078E+05  9.256781E+04  1.062811E+04  1.303723E+05  3.923699E+03 -1.569742E+03
       181   4  1.796248E+05  6.603157E+04  1.057645E+03  1.113777E+05  3.148672E+02  3.293318E+02
       181   5  1.762584E+05  6.934318E+04  9.059499E+02  1.123451E+05  1.063216E+03 -1.415974E+03
       181   6  1.796243E+05  6.603078E+04  1.055984E+03  1.113782E+05  1.807846E+03 -3.156237E+03
       181   7  1.800710E+05  6.637804E+04  1.148999E+03  1.116226E+05 -1.815405E+03 -1.267887E+03
       181   8  1.576910E+05  5.624895E+04 -3.831366E+03  1.029709E+05 -1.059784E+03 -3.007781E+03
       181   9  1.420419E+05  3.949418E+04 -8.516431E+03  9.238519E+04 -3.078674E+02 -4.742627E+03
       181  10  1.791786E+05  6.568509E+04  9.662997E+02  1.111328E+05 -9.013229E-11 -8.928579E-12
       181  11  1.948260E+05  8.243751E+04  5.643193E+03  1.217195E+05  1.828956E-11  3.067980E-11
       181  12  2.172078E+05  9.256780E+04  1.062808E+04  1.303723E+05  1.625982E-10  7.972668E-11
       181  13  1.796248E+05  6.603157E+04  1.057645E+03  1.113777E+05 -1.292965E-12  3.776378E-11
       181  14  1.762584E+05  6.934318E+04  9.059440E+02  1.123451E+05 -2.266616E-10 -4.756247E-11
       181  15  1.796243E+05  6.603077E+04  1.055959E+03  1.113782E+05  1.572013E-10  3.926628E-11
       181  16  1.800710E+05  6.637804E+04  1.148990E+03  1.116226E+05  2.027468E-10  1.483647E-11
       181  17  1.576910E+05  5.624894E+04 -3.831385E+03  1.029709E+05  7.820045E-11  2.377868E-10
       181  18  1.420419E+05  3.949416E+04 -8.516473E+03  9.238519E+04 -2.362117E-11 -6.909082E-11
       181  19  1.791786E+05  6.568510E+04  9.663179E+02  1.111328E+05 -2.445136E+03 -1.926548E+03
       181  20  1.948260E+05  8.243751E+04  5.643213E+03  1.217195E+05 -3.186284E+03 -1.758839E+02
       181  21  2.172078E+05  9.256781E+04  1.062811E+04  1.303723E+05 -3.923699E+03  1.569742E+03
       181  22  1.796248E+05  6.603157E+04  1.057645E+03  1.113777E+05 -3.148672E+02 -3.293318E+02
       181  23  1.762584E+05  6.934318E+04  9.059499E+02  1.123451E+05 -1.063216E+03  1.415974E+03
       181  24  1.796243E+05  6.603078E+04  1.055984E+03  1.113782E+05 -1.807846E+03  3.156237E+03
       181  25  1.800710E+05  6.637804E+04  1.148999E+03  1.116226E+05  1.815405E+03  1.267887E+03
       181  26  1.576910E+05  5.624895E+04 -3.831366E+03  1.029709E+05  1.059784E+03  3.007781E+03
       181  27  1.420419E+05  3.949418E+04 -8.516431E+03  9.238519E+04  3.078674E+02  4.742627E+03
       182   1  2.300540E+05  1.017594E+05  1.423485E+04  1.369271E+05  4.465060E+03 -2.532386E+03
       182   2  2.458320E+05  1.183768E+05  1.988947E+04  1.473597E+05  4.308280E+03 -4.777610E+03
       182   3  2.686629E+05  1.287858E+05  2.663268E+04  1.557541E+05  3.941942E+03 -6.743250E+03
       182   4  1.796349E+05  6.603123E+04  1.244097E+03  1.114088E+05  2.301757E+03 -4.154508E+03
       182   5  1.762545E+05  6.936164E+04  1.943696E+03  1.122904E+05  2.547830E+03 -6.097769E+03
       182   6  1.798395E+05  6.639644E+04  3.382645E+03  1.111337E+05  2.584370E+03 -7.761405E+03
       182   7  1.292195E+05  3.030519E+04 -1.174656E+04  8.589319E+04  1.387242E+02 -5.776427E+03
       182   8  1.066831E+05  2.034972E+04 -1.600226E+04  7.722585E+04  7.876604E+02 -7.417719E+03
       182   9  9.102515E+04  4.011652E+03 -1.986804E+04  6.652058E+04  1.227059E+03 -8.779366E+03
       182  10  2.300540E+05  1.017593E+05  1.423480E+04  1.369271E+05  5.299345E-11 -6.549535E-11
       182  11  2.458320E+05  1.183768E+05  1.988939E+04  1.473597E+05 -7.752115E-11  4.261497E-11
       182  12  2.686628E+05  1.287858E+05  2.663257E+04  1.557541E+05  6.385580E-11  2.022487E-11
       182  13  1.796349E+05  6.603121E+04  1.244055E+03  1.114088E+05 -5.788606E-11  1.482012E-10
       182  14  1.762545E+05  6.936160E+04  1.943614E+03  1.122904E+05  1.906021E-10  5.262543E-11
       182  15  1.798395E+05  6.639638E+04  3.382519E+03  1.111337E+05 -2.735438E-11 -3.302520E-11
       182  16  1.292195E+05  3.030516E+04 -1.174662E+04  8.589319E+04  1.378517E-10  4.759931E-11
       182  17  1.066831E+05  2.034966E+04 -1.600236E+04  7.722585E+04 -2.763251E-10  3.453437E-11
       182  18  9.102512E+04  4.011569E+03 -1.986818E+04  6.652058E+04  1.611828E-10 -1.392644E-10
       182  19  2.300540E+05  1.017594E+05  1.423485E+04  1.369271E+05 -4.465060E+03  2.532386E+03
       182  20  2.458320E+05  1.183768E+05  1.988947E+04  1.473597E+05 -4.308280E+03  4.777610E+03
       182  21  2.686629E+05  1.287858E+05  2.663268E+04  1.557541E+05 -3.941942E+03  6.743250E+03
       182  22  1.796349E+05  6.603123E+04  1.244097E+03  1.114088E+05 -2.301757E+03  4.154508E+03
       182  23  1.762545E+05  6.936164E+04  1.943696E+03  1.122904E+05 -2.547830E+03  6.097769E+03
       182  24  1.798395E+05  6.639644E+04  3.382645E+03  1.111337E+05 -2.584370E+03  7.761405E+03
       182  25  1.292195E+05  3.030519E+04 -1.174656E+04  8.589319E+04 -1.387242E+02  5.776427E+03
       182  26  1.066831E+05  2.034972E+04 -1.600226E+04  7.722585E+04 -7.876604E+02  7.417719E+03
       182  27  9.102515E+04  4.011652E+03 -1.986804E+04  6.652058E+04 -1.227059E+03  8.779366E+03
       183   1  2.804207E+05  1.393606E+05  3.111371E+04  1.633175E+05  4.809589E+03 -7.411646E+03
       183   2  3.005960E+05  1.522455E+05  4.157012E+04  1.702680E+05 -4.487085E+03 -1.354090E+04
       183   3  3.337846E+05  1.672744E+05  6.200183E+04  1.721057E+05 -1.673403E+04 -1.573809E+04
       183   4  1.799659E+05  6.631964E+04  4.358436E+03  1.117098E+05  2.753942E+03 -8.953368E+03
       183   5  1.766472E+05  7.044000E+04  7.758558E+03  1.108309E+05 -8.759689E+02 -1.083302E+04
       183   6  1.851132E+05  7.547609E+04  1.621798E+04  1.048385E+05 -7.455813E+03 -8.779855E+03
       183   7  7.952110E+04 -6.716059E+03 -2.239823E+04  6.011105E+04  6.987108E+02 -1.049476E+04
       183   8  5.271546E+04 -1.135804E+04 -2.605437E+04  5.140681E+04  2.734170E+03 -8.125803E+03
       183   9  3.646784E+04 -1.631247E+04 -2.956720E+04  3.758919E+04  1.819210E+03 -1.823617E+03
       183  10  2.804206E+05  1.393605E+05  3.111356E+04  1.633175E+05  9.517103E-11  9.851888E-12
       183  11  3.005959E+05  1.522453E+05  4.156974E+04  1.702680E+05  1.762747E-10 -2.290815E-10
       183  12  3.337843E+05  1.672741E+05  6.200084E+04  1.721055E+05 -1.046224E-10 -2.294287E-10
       183  13  1.799659E+05  6.631955E+04  4.358271E+03  1.117098E+05  2.069994E-10 -1.112086E-10
       183  14  1.766471E+05  7.043987E+04  7.758336E+03  1.108309E+05  2.102932E-10 -1.330412E-10
       183  15  1.851131E+05  7.547599E+04  1.621773E+04  1.048384E+05  7.442896E-11  6.213115E-11
       183  16  7.952107E+04 -6.716177E+03 -2.239844E+04  6.011106E+04  5.271228E-13 -1.875931E-10
       183  17  5.271543E+04 -1.135811E+04 -2.605450E+04  5.140683E+04 -1.671226E-10 -2.179305E-10
       183  18  3.646784E+04 -1.631247E+04 -2.956722E+04  3.758919E+04  6.577182E-11  3.212969E-11
       183  19  2.804207E+05  1.393606E+05  3.111371E+04  1.633175E+05 -4.809589E+03  7.411646E+03
       183  20  3.005960E+05  1.522455E+05  4.157012E+04  1.702680E+05  4.487085E+03  1.354090E+04
       183  21  3.337846E+05  1.672744E+05  6.200183E+04  1.721057E+05  1.673403E+04  1.573809E+04
       183  22  1.799659E+05  6.631964E+04  4.358436E+03  1.117098E+05 -2.753942E+03  8.953368E+03
       183  23  1.766472E+05  7.044000E+04  7.758558E+03  1.108309E+05  8.759689E+02  1.083302E+04
       183  24  1.851132E+05  7.547609E+04  1.621798E+04  1.048385E+05  7.455813E+03  8.779855E+03
       183  25  7.952110E+04 -6.716059E+03 -2.239823E+04  6.011105E+04 -6.987108E+02  1.049476E+04
       183  26  5.271546E+04 -1.135804E+04 -2.605437E+04  5.140681E+04 -2.734170E+03  8.125803E+03
       183  27  3.646784E+04 -1.631247E+04 -2.956720E+04  3.758919E+04 -1.819210E+03  1.823617E+03
       184   1  2.331726E+05  2.260875E+04  1.680684E+04  2.813966E+04 -1.214043E+04 -2.425997E+03
       184   2  1.840518E+05  3.348581E+04  1.661767E+04  3.156118E+04 -1.172755E+04 -7.178930E+03
       184   3  1.302126E+05  2.567431E+04  1.148856E+04  4.825668E+04 -1.131471E+04 -6.380209E+03
       184   4  2.284765E+04 -2.950896E+04 -3.349257E+04  4.560588E+04 -2.297965E+04 -2.426999E+03
       184   5  2.590546E+04 -4.698775E+03 -1.618464E+04  3.896747E+04 -1.457241E+04 -7.179450E+03
       184   6  2.285245E+04  3.201154E+01 -9.369302E+03  4.560397E+04 -6.165074E+03 -6.379618E+03
       184   7 -1.874359E+05 -8.162866E+04 -8.379449E+04  6.306616E+04 -3.381522E+04 -2.428611E+03
       184   8 -1.322171E+05 -4.288474E+04 -4.898826E+04  4.637184E+04 -1.741655E+04 -7.180039E+03
       184   9 -8.449653E+04 -2.561093E+04 -3.022760E+04  4.295172E+04 -1.016310E+03 -6.379071E+03
       184  10  2.331725E+05  2.260871E+04  1.680655E+04  2.813964E+04 -1.313666E-10  2.548358E-11
       184  11  1.840516E+05  3.348572E+04  1.661732E+04  3.156111E+04  9.172808E-11  3.964308E-11
       184  12  1.302124E+05  2.567423E+04  1.148824E+04  4.825663E+04  4.876475E-11 -1.490229E-10
       184  13  2.284708E+04 -2.950911E+04 -3.349357E+04  4.560584E+04 -4.346322E-11  5.480900E-11
       184  14  2.590521E+04 -4.698888E+03 -1.618514E+04  3.896738E+04 -1.128767E-10  1.010739E-10
       184  15  2.285240E+04  3.195764E+01 -9.369450E+03  4.560393E+04 -4.031190E-11 -8.259774E-11
       184  16 -1.874371E+05 -8.162898E+04 -8.379666E+04  6.306609E+04 -5.530054E-11  4.715193E-11
       184  17 -1.322174E+05 -4.288487E+04 -4.898893E+04  4.637174E+04  1.166977E-10 -2.235407E-11
       184  18 -8.449655E+04 -2.561098E+04 -3.022768E+04  4.295171E+04 -1.319684E-10 -1.270796E-10
       184  19  2.331726E+05  2.260875E+04  1.680684E+04  2.813966E+04  1.214043E+04  2.425997E+03
       184  20  1.840518E+05  3.348581E+04  1.661767E+04  3.156118E+04  1.172755E+04  7.178930E+03
       184  21  1.302126E+05  2.567431E+04  1.148856E+04  4.825668E+04  1.131471E+04  6.380209E+03
       184  22  2.284765E+04 -2.950896E+04 -3.349257E+04  4.560588E+04  2.297965E+04  2.426999E+03
       184  23  2.590546E+04 -4.698775E+03 -1.618464E+04  3.896747E+04  1.457241E+04  7.179450E+03
       184  24  2.285245E+04  3.201154E+01 -9.369302E+03  4.560397E+04  6.165074E+03  6.379618E+03
       184  25 -1.874359E+05 -8.162866E+04 -8.379449E+04  6.306616E+04  3.381522E+04  2.428611E+03
       184  26 -1.322171E+05 -4.288474E+04 -4.898826E+04  4.637184E+04  1.741655E+04  7.180039E+03
       184  27 -8.449653E+04 -2.561093E+04 -3.022760E+04  4.295172E+04  1.016310E+03  6.379071E+03
       185   1  9.639464E+04  1.616485E+04  6.569743E+03  4.525231E+04 -9.060167E+03 -4.276970E+03
       185   2  4.520104E+04  4.924080E+03 -8.629264E+02  3.872672E+04 -7.111612E+03 -1.202791E+03
       185   3 -6.458109E+03 -7.171714E+03 -9.778150E+03  4.580453E+04 -5.163301E+03  2.227671E+03
       185   4  2.408766E+04 -1.108788E+03 -7.497350E+03  4.567718E+04 -4.889521E+03 -4.276457E+03
       185   5  2.436700E+04 -5.882837E+01 -4.944578E+03  3.887538E+04 -2.428319E+03 -1.202172E+03
       185   6  2.408831E+04  4.695351E+01 -4.230776E+03  4.567703E+04  3.278458E+01  2.228406E+03
       185   7 -4.821427E+04 -1.838272E+04 -2.156463E+04  4.610199E+04 -7.193495E+02 -4.275939E+03
       185   8  3.533429E+03 -5.041751E+03 -9.026168E+03  3.902403E+04  2.254820E+03 -1.201551E+03
       185   9  5.463569E+04  7.265584E+03  1.316663E+03  4.554953E+04  5.229119E+03  2.229140E+03
       185  10  9.639455E+04  1.616480E+04  6.569554E+03  4.525228E+04 -3.072030E-10 -7.582488E-12
       185  11  4.520098E+04  4.924065E+03 -8.630242E+02  3.872671E+04  6.327587E-12 -1.415330E-10
       185  12 -6.458139E+03 -7.171727E+03 -9.778209E+03  4.580454E+04  2.647728E-10  1.128747E-10
       185  13  2.408763E+04 -1.108814E+03 -7.497429E+03  4.567716E+04 -6.730999E-11 -1.026812E-10
       185  14  2.436699E+04 -5.883150E+01 -4.944592E+03  3.887537E+04 -9.169856E-12 -7.137094E-11
       185  15  2.408831E+04  4.694818E+01 -4.230785E+03  4.567703E+04 -3.736163E-11 -2.014358E-12
       185  16 -4.821427E+04 -1.838274E+04 -2.156466E+04  4.610199E+04  3.433996E-10 -2.312758E-10
       185  17  3.533423E+03 -5.041754E+03 -9.026180E+03  3.902403E+04  5.338201E-11 -9.282046E-11
       185  18  5.463566E+04  7.265571E+03  1.316602E+03  4.554952E+04  1.951245E-11  8.723435E-11
       185  19  9.639464E+04  1.616485E+04  6.569743E+03  4.525231E+04  9.060167E+03  4.276970E+03
       185  20  4.520104E+04  4.924080E+03 -8.629264E+02  3.872672E+04  7.111612E+03  1.202791E+03
       185  21 -6.458109E+03 -7.171714E+03 -9.778150E+03  4.580453E+04  5.163301E+03 -2.227671E+03
       185  22  2.408766E+04 -1.108788E+03 -7.497350E+03  4.567718E+04  4.889521E+03  4.276457E+03
       185  23  2.436700E+04 -5.882837E+01 -4.944578E+03  3.887538E+04  2.428319E+03  1.202172E+03
       185  24  2.408831E+04  4.695351E+01 -4.230776E+03  4.567703E+04 -3.278458E+01 -2.228406E+03
       185  25 -4.821427E+04 -1.838272E+04 -2.156463E+04  4.610199E+04  7.193495E+02  4.275939E+03
       185  26  3.533429E+03 -5.041751E+03 -9.026168E+03  3.902403E+04 -2.254820E+03  1.201551E+03
       185  27  5.463569E+04  7.265584E+03  1.316663E+03  4.554953E+04 -5.229119E+03 -2.229140E+03
       186   1 -4.133678E+04 -1.546976E+04 -1.662361E+04  4.545348E+04 -4.435921E+03  4.371645E+03
       186   2 -9.236285E+04 -2.783625E+04 -2.766172E+04  3.902497E+04 -8.153921E+02  7.733531E+03
       186   3 -1.441851E+05 -4.151323E+04 -4.138501E+04  4.618973E+04  2.805219E+03  1.055974E+04
       186   4  2.406414E+04  6.093793E+01 -4.372148E+03  4.567474E+04  7.897938E+02  4.372322E+03
       186   5  2.439413E+04 -9.583746E+01 -5.721369E+03  3.887826E+04  3.639358E+03  7.733884E+03
       186   6  2.406031E+04 -1.428735E+03 -9.219797E+03  4.567491E+04  6.489283E+03  1.055982E+04
       186   7  8.946925E+04  1.559140E+04  7.879233E+03  4.589602E+04  6.016045E+03  4.373002E+03
       186   8  1.411643E+05  2.764379E+04  1.621846E+04  3.873152E+04  8.094926E+03  7.734236E+03
       186   9  1.923330E+05  3.865410E+04  2.294418E+04  4.515994E+04  1.017432E+04  1.055989E+04
       186  10 -4.133681E+04 -1.546979E+04 -1.662368E+04  4.545349E+04  5.625622E-11  9.002818E-11
       186  11 -9.236287E+04 -2.783631E+04 -2.766183E+04  3.902498E+04  1.384752E-10 -3.687516E-11
       186  12 -1.441851E+05 -4.151335E+04 -4.138524E+04  4.618971E+04  1.065386E-10 -1.058630E-10
       186  13  2.406413E+04  6.091724E+01 -4.372185E+03  4.567474E+04  1.372517E-10  7.134805E-11
       186  14  2.439410E+04 -9.590525E+01 -5.721506E+03  3.887824E+04  6.836315E-11  1.617239E-11
       186  15  2.406024E+04 -1.428866E+03 -9.220086E+03  4.567485E+04 -8.844852E-11 -5.911869E-11
       186  16  8.946921E+04  1.559137E+04  7.879129E+03  4.589600E+04 -3.728984E-11  8.383383E-11
       186  17  1.411642E+05  2.764371E+04  1.621822E+04  3.873147E+04  1.251524E-10  2.633378E-10
       186  18  1.923328E+05  3.865396E+04  2.294378E+04  4.515986E+04 -5.526333E-11  3.551685E-11
       186  19 -4.133678E+04 -1.546976E+04 -1.662361E+04  4.545348E+04  4.435921E+03 -4.371645E+03
       186  20 -9.236285E+04 -2.783625E+04 -2.766172E+04  3.902497E+04  8.153921E+02 -7.733531E+03
       186  21 -1.441851E+05 -4.151323E+04 -4.138501E+04  4.618973E+04 -2.805219E+03 -1.055974E+04
       186  22  2.406414E+04  6.093793E+01 -4.372148E+03  4.567474E+04 -7.897938E+02 -4.372322E+03
       186  23  2.439413E+04 -9.583746E+01 -5.721369E+03  3.887826E+04 -3.639358E+03 -7.733884E+03
       186  24  2.406031E+04 -1.428735E+03 -9.219797E+03  4.567491E+04 -6.489283E+03 -1.055982E+04
       186  25  8.946925E+04  1.559140E+04  7.879233E+03  4.589602E+04 -6.016045E+03 -4.373002E+03
       186  26  1.411643E+05  2.764379E+04  1.621846E+04  3.873152E+04 -8.094926E+03 -7.734236E+03
       186  27  1.923330E+05  3.865410E+04  2.294418E+04  4.515994E+04 -1.017432E+04 -1.055989E+04
       187   1 -1.809073E+05 -4.845932E+04 -5.068570E+04  4.218407E+04  2.981366E+03  1.264246E+04
       187   2 -2.275306E+05 -6.718014E+04 -7.249798E+04  4.842229E+04  2.498894E+04  1.222217E+04
       187   3 -2.838857E+05 -1.134130E+05 -1.155166E+05  6.778261E+04  4.699341E+04  3.903343E+03
       187   4  2.248158E+04  2.283255E+01 -1.168525E+04  4.557070E+04  8.062330E+03  1.264246E+04
       187   5  2.635593E+04 -5.992050E+03 -2.047584E+04  3.900909E+04  1.870221E+04  1.222137E+04
       187   6  2.247379E+04 -3.753928E+04 -4.257377E+04  4.557050E+04  2.934109E+04  3.902304E+03
       187   7  2.259104E+05  4.850259E+04  2.731341E+04  4.895846E+04  1.314492E+04  1.264251E+04
       187   8  2.803040E+05  5.519235E+04  3.154306E+04  2.959197E+04  1.241295E+04  1.222076E+04
       187   9  3.289212E+05  3.832971E+04  3.036389E+04  2.334738E+04  1.168009E+04  3.902528E+03
       187  10 -1.809073E+05 -4.845949E+04 -5.068602E+04  4.218404E+04 -2.264500E-10 -3.307201E-11
       187  11 -2.275313E+05 -6.718047E+04 -7.249943E+04  4.842204E+04  4.283355E-11  1.175739E-10
       187  12 -2.838881E+05 -1.134136E+05 -1.155208E+05  6.778246E+04  1.584642E-10  5.858069E-11
       187  13  2.248146E+04  2.264348E+01 -1.168567E+04  4.557062E+04 -1.752445E-10 -1.334339E-10
       187  14  2.635552E+04 -5.992305E+03 -2.047678E+04  3.900891E+04 -1.024160E-10 -5.093957E-11
       187  15  2.247286E+04 -3.753953E+04 -4.257542E+04  4.557041E+04  7.243067E-11  1.308541E-11
       187  16  2.259101E+05  4.850238E+04  2.731279E+04  4.895833E+04  2.740322E-10 -1.602798E-11
       187  17  2.803038E+05  5.519214E+04  3.154249E+04  2.959185E+04  7.151917E-12 -4.499893E-11
       187  18  3.289210E+05  3.832965E+04  3.036361E+04  2.334734E+04 -2.275271E-10  8.266187E-11
       187  19 -1.809073E+05 -4.845932E+04 -5.068570E+04  4.218407E+04 -2.981366E+03 -1.264246E+04
       187  20 -2.275306E+05 -6.718014E+04 -7.249798E+04  4.842229E+04 -2.498894E+04 -1.222217E+04
       187  21 -2.838857E+05 -1.134130E+05 -1.155166E+05  6.778261E+04 -4.699341E+04 -3.903343E+03
       187  22  2.248158E+04  2.283255E+01 -1.168525E+04  4.557070E+04 -8.062330E+03 -1.264246E+04
       187  23  2.635593E+04 -5.992050E+03 -2.047584E+04  3.900909E+04 -1.870221E+04 -1.222137E+04
       187  24  2.247379E+04 -3.753928E+04 -4.257377E+04  4.557050E+04 -2.934109E+04 -3.902304E+03
       187  25  2.259104E+05  4.850259E+04  2.731341E+04  4.895846E+04 -1.314492E+04 -1.264251E+04
       187  26  2.803040E+05  5.519235E+04  3.154306E+04  2.959197E+04 -1.241295E+04 -1.222076E+04
       187  27  3.289212E+05  3.832971E+04  3.036389E+04  2.334738E+04 -1.168009E+04 -3.902528E+03
       188   1 -8.052649E+04 -2.422283E+05 -9.039132E+04  6.306129E+04 -1.581464E+02 -5.568319E+04
       188   2 -1.402353E+04 -2.118505E+05 -4.325327E+04  3.544166E+04 -4.145358E+01 -3.313919E+04
       188   3  2.921894E+03 -1.967991E+05 -2.318516E+04  1.377520E+04  1.049500E+03 -1.059409E+04
       188   4 -7.231455E+04 -2.092396E+05 -8.228383E+04  2.014670E+04 -1.542600E+02 -5.514378E+04
       188   5 -1.149435E+04 -2.016943E+05 -4.074979E+04  1.716737E+04 -4.053420E+01 -3.400381E+04
       188   6  1.066117E+01 -2.092325E+05 -2.530958E+04  2.014300E+04  1.049235E+03 -1.286359E+04
       188   7 -6.409577E+04 -1.762460E+05 -7.417544E+04 -2.277016E+04 -1.504482E+02 -5.460433E+04
       188   8 -8.963934E+03 -1.915374E+05 -3.824612E+04 -1.107223E+03 -3.956391E+01 -3.486845E+04
       188   9 -2.900424E+03 -2.216657E+05 -2.743398E+04  2.651068E+04  1.048923E+03 -1.513305E+04
       188  10 -8.052732E+04 -2.422317E+05 -9.039715E+04  6.306128E+04 -1.178804E-11  5.384413E-11
       188  11 -1.402382E+04 -2.118516E+05 -4.325534E+04  3.544166E+04 -2.776551E-11 -2.074974E-11
       188  12  2.921862E+03 -1.967992E+05 -2.318537E+04  1.377521E+04  7.832580E-11 -1.814319E-11
       188  13 -7.231537E+04 -2.092429E+05 -8.228955E+04  2.014670E+04 -1.346520E-10 -8.278213E-11
       188  14 -1.149467E+04 -2.016956E+05 -4.075196E+04  1.716737E+04 -1.016044E-10  4.695256E-11
       188  15  1.061554E+01 -2.092327E+05 -2.530990E+04  2.014302E+04  3.908065E-12 -3.981482E-11
       188  16 -6.409657E+04 -1.762492E+05 -7.418104E+04 -2.277017E+04 -1.798371E-11 -6.879772E-11
       188  17 -8.964260E+03 -1.915387E+05 -3.824841E+04 -1.107224E+03  1.799817E-10 -4.778914E-11
       188  18 -2.900487E+03 -2.216659E+05 -2.743441E+04  2.651069E+04  1.132696E-10  1.753451E-11
       188  19 -8.052649E+04 -2.422283E+05 -9.039132E+04  6.306129E+04  1.581464E+02  5.568319E+04
       188  20 -1.402353E+04 -2.118505E+05 -4.325327E+04  3.544166E+04  4.145358E+01  3.313919E+04
       188  21  2.921894E+03 -1.967991E+05 -2.318516E+04  1.377520E+04 -1.049500E+03  1.059409E+04
       188  22 -7.231455E+04 -2.092396E+05 -8.228383E+04  2.014670E+04  1.542600E+02  5.514378E+04
       188  23 -1.149435E+04 -2.016943E+05 -4.074979E+04  1.716737E+04  4.053420E+01  3.400381E+04
       188  24  1.066117E+01 -2.092325E+05 -2.530958E+04  2.014300E+04 -1.049235E+03  1.286359E+04
       188  25 -6.409577E+04 -1.762460E+05 -7.417544E+04 -2.277016E+04  1.504482E+02  5.460433E+04
       188  26 -8.963934E+03 -1.915374E+05 -3.824612E+04 -1.107223E+03  3.956391E+01  3.486845E+04
       188  27 -2.900424E+03 -2.216657E+05 -2.743398E+04  2.651068E+04 -1.048923E+03  1.513305E+04
       189   1  3.920371E+03 -1.785236E+05 -1.647417E+04  2.164506E+04  1.989124E+03 -7.120822E+03
       189   2  1.153146E+04 -1.547248E+05 -8.453728E+03  1.716173E+04  3.385921E+03  1.561572E+03
       189   3  1.488521E+04 -1.331205E+05 -7.151137E+03  1.867607E+04  4.606118E+03  1.024433E+04
       189   4 -2.672233E+03 -2.063792E+05 -2.157438E+04  2.015305E+04  1.989005E+03 -9.257671E+03
       189   5 -4.700477E+02 -2.052600E+05 -1.791600E+04  1.715419E+04  3.385842E+03 -3.216070E+02
       189   6 -2.569427E+03 -2.063799E+05 -2.115191E+04  2.015308E+04  4.606113E+03  8.614521E+03
       189   7 -9.264870E+03 -2.342341E+05 -2.667461E+04  1.866112E+04  1.988896E+03 -1.139443E+04
       189   8 -1.247170E+04 -2.557927E+05 -2.737837E+04  1.714665E+04  3.385764E+03 -2.204637E+03
       189   9 -2.002437E+04 -2.796342E+05 -3.515292E+04  2.162991E+04  4.606100E+03  6.984897E+03
       189  10  3.920353E+03 -1.785236E+05 -1.647427E+04  2.164507E+04  6.451113E-11 -6.160552E-11
       189  11  1.153145E+04 -1.547248E+05 -8.453754E+03  1.716172E+04 -6.977903E-11 -5.583081E-11
       189  12  1.488516E+04 -1.331206E+05 -7.151375E+03  1.867603E+04  1.096164E-10 -3.261593E-12
       189  13 -2.672260E+03 -2.063793E+05 -2.157455E+04  2.015307E+04 -1.495356E-10 -5.970007E-11
       189  14 -4.700601E+02 -2.052600E+05 -1.791602E+04  1.715419E+04 -7.133292E-11  4.066005E-11
       189  15 -2.569470E+03 -2.063800E+05 -2.115209E+04  2.015305E+04  1.816354E-10 -1.673311E-11
       189  16 -9.264909E+03 -2.342342E+05 -2.667486E+04  1.866114E+04  1.703083E-10  5.495538E-11
       189  17 -1.247172E+04 -2.557927E+05 -2.737840E+04  1.714665E+04  2.357481E-10  3.259535E-11
       189  18 -2.002441E+04 -2.796343E+05 -3.515305E+04  2.162989E+04 -8.450393E-12 -4.329918E-12
       189  19  3.920371E+03 -1.785236E+05 -1.647417E+04  2.164506E+04 -1.989124E+03  7.120822E+03
       189  20  1.153146E+04 -1.547248E+05 -8.453728E+03  1.716173E+04 -3.385921E+03 -1.561572E+03
       189  21  1.488521E+04 -1.331205E+05 -7.151137E+03  1.867607E+04 -4.606118E+03 -1.024433E+04
       189  22 -2.672233E+03 -2.063792E+05 -2.157438E+04  2.015305E+04 -1.989005E+03  9.257671E+03
       189  23 -4.700477E+02 -2.052600E+05 -1.791600E+04  1.715419E+04 -3.385842E+03  3.216070E+02
       189  24 -2.569427E+03 -2.063799E+05 -2.115191E+04  2.015308E+04 -4.606113E+03 -8.614521E+03
       189  25 -9.264870E+03 -2.342341E+05 -2.667461E+04  1.866112E+04 -1.988896E+03  1.139443E+04
       189  26 -1.247170E+04 -2.557927E+05 -2.737837E+04  1.714665E+04 -3.385764E+03  2.204637E+03
       189  27 -2.002437E+04 -2.796342E+05 -3.515292E+04  2.162991E+04 -4.606100E+03 -6.984897E+03
       190   1  2.116841E+04 -1.203385E+05 -7.636819E+03  2.623096E+04  5.525521E+03  1.437645E+04
       190   2  1.568946E+04 -9.078293E+04 -1.663663E+04 -4.158627E+02  5.344816E+03  2.983472E+04
       190   3 -3.645231E+04 -7.490243E+04 -4.736581E+04 -2.127142E+04  1.704349E+03  4.529335E+04
       190   4  5.919924E+00 -2.091139E+05 -2.465560E+04  2.010733E+04  5.525365E+03  1.214445E+04
       190   5 -1.107896E+04 -2.018462E+05 -3.939603E+04  1.721186E+04  5.345765E+03  3.257965E+04
       190   6 -6.969764E+04 -2.091223E+05 -7.932543E+04  2.010768E+04  1.707304E+03  5.301442E+04
       190   7 -2.115689E+04 -2.978817E+05 -4.167469E+04  1.398459E+04  5.525253E+03  9.912753E+03
       190   8 -3.784698E+04 -3.128972E+05 -6.215590E+04  3.483637E+04  5.346870E+03  3.532410E+04
       190   9 -1.029378E+05 -3.433217E+05 -1.112852E+05  6.147779E+04  1.711289E+03  6.073382E+04
       190  10  2.116832E+04 -1.203388E+05 -7.637265E+03  2.623090E+04  7.630622E-11 -1.623442E-10
       190  11  1.568919E+04 -9.078390E+04 -1.663836E+04 -4.159911E+02  3.421364E-11 -8.420234E-11
       190  12 -3.645286E+04 -7.490463E+04 -4.736968E+04 -2.127149E+04  2.018102E-10  4.656407E-11
       190  13  5.847535E+00 -2.091141E+05 -2.465593E+04  2.010728E+04  9.983126E-11 -2.306712E-11
       190  14 -1.107928E+04 -2.018474E+05 -3.939808E+04  1.721172E+04 -3.457460E-11 -3.458550E-11
       190  15 -6.969840E+04 -2.091253E+05 -7.933072E+04  2.010761E+04 -2.055369E-10  5.957762E-11
       190  16 -2.115695E+04 -2.978818E+05 -4.167494E+04  1.398455E+04  7.822894E-11  1.589229E-10
       190  17 -3.784735E+04 -3.128985E+05 -6.215830E+04  3.483622E+04 -3.345571E-10  8.585567E-11
       190  18 -1.029388E+05 -3.433257E+05 -1.112921E+05  6.147771E+04 -8.999296E-11 -3.309222E-11
       190  19  2.116841E+04 -1.203385E+05 -7.636819E+03  2.623096E+04 -5.525521E+03 -1.437645E+04
       190  20  1.568946E+04 -9.078293E+04 -1.663663E+04 -4.158627E+02 -5.344816E+03 -2.983472E+04
       190  21 -3.645231E+04 -7.490243E+04 -4.736581E+04 -2.127142E+04 -1.704349E+03 -4.529335E+04
       190  22  5.919924E+00 -2.091139E+05 -2.465560E+04  2.010733E+04 -5.525365E+03 -1.214445E+04
       190  23 -1.107896E+04 -2.018462E+05 -3.939603E+04  1.721186E+04 -5.345765E+03 -3.257965E+04
       190  24 -6.969764E+04 -2.091223E+05 -7.932543E+04  2.010768E+04 -1.707304E+03 -5.301442E+04
       190  25 -2.115689E+04 -2.978817E+05 -4.167469E+04  1.398459E+04 -5.525253E+03 -9.912753E+03
       190  26 -3.784698E+04 -3.128972E+05 -6.215590E+04  3.483637E+04 -5.346870E+03 -3.532410E+04
       190  27 -1.029378E+05 -3.433217E+05 -1.112852E+05  6.147779E+04 -1.711289E+03 -6.073382E+04
       191   1  3.273765E+05  2.209284E+05  6.168049E+04  2.187548E+05  4.713192E+04  3.720595E+04
       191   2  3.516766E+05  1.740831E+05  2.536873E+04  2.583796E+05  3.094575E+04  2.834586E+04
       191   3  4.181474E+05  1.582346E+05  1.510150E+04  2.754923E+05  1.706627E+04  1.640729E+04
       191   4  4.795474E+05  2.468835E+05  9.594908E+04  2.562582E+05  5.238643E+04  4.113988E+04
       191   5  4.427594E+05  2.038159E+05  4.581690E+04  2.878393E+05  3.175792E+04  2.895300E+04
       191   6  4.490953E+05  1.927006E+05  2.557596E+04  2.969085E+05  1.343800E+04  1.368723E+04
       191   7  6.317477E+05  2.728413E+05  1.302178E+05  2.937662E+05  5.764278E+04  4.507387E+04
       191   8  5.338530E+05  2.335499E+05  6.626498E+04  3.173024E+05  3.257027E+04  2.956017E+04
       191   9  4.800448E+05  2.271689E+05  3.605060E+04  3.183265E+05  9.809433E+03  1.096681E+04
       191  10  3.273738E+05  2.209263E+05  6.167372E+04  2.187534E+05 -2.691528E-10 -1.175023E-10
       191  11  3.516753E+05  1.740820E+05  2.536542E+04  2.583789E+05 -1.334790E-10  2.212418E-10
       191  12  4.181470E+05  1.582342E+05  1.510045E+04  2.754921E+05  4.590361E-11  1.662247E-10
       191  13  4.795440E+05  2.468809E+05  9.594075E+04  2.562565E+05 -2.007076E-10  7.437545E-11
       191  14  4.427581E+05  2.038147E+05  4.581343E+04  2.878385E+05  3.453450E-10  2.537045E-10
       191  15  4.490950E+05  1.927004E+05  2.557527E+04  2.969083E+05 -8.642951E-11  8.174264E-11
       191  16  6.317435E+05  2.728382E+05  1.302077E+05  2.937641E+05  1.259479E-10  2.012371E-10
       191  17  5.338517E+05  2.335486E+05  6.626134E+04  3.173017E+05 -3.372785E-10  7.569853E-11
       191  18  4.800446E+05  2.271687E+05  3.605019E+04  3.183264E+05 -6.168000E-11  8.862496E-12
       191  19  3.273765E+05  2.209284E+05  6.168049E+04  2.187548E+05 -4.713192E+04 -3.720595E+04
       191  20  3.516766E+05  1.740831E+05  2.536873E+04  2.583796E+05 -3.094575E+04 -2.834586E+04
       191  21  4.181474E+05  1.582346E+05  1.510150E+04  2.754923E+05 -1.706627E+04 -1.640729E+04
       191  22  4.795474E+05  2.468835E+05  9.594908E+04  2.562582E+05 -5.238643E+04 -4.113988E+04
       191  23  4.427594E+05  2.038159E+05  4.581690E+04  2.878393E+05 -3.175792E+04 -2.895300E+04
       191  24  4.490953E+05  1.927006E+05  2.557596E+04  2.969085E+05 -1.343800E+04 -1.368723E+04
       191  25  6.317477E+05  2.728413E+05  1.302178E+05  2.937662E+05 -5.764278E+04 -4.507387E+04
       191  26  5.338530E+05  2.335499E+05  6.626498E+04  3.173024E+05 -3.257027E+04 -2.956017E+04
       191  27  4.800448E+05  2.271689E+05  3.605060E+04  3.183265E+05 -9.809433E+03 -1.096681E+04
       192   1  4.308549E+05  1.831053E+05  1.516005E+04  2.858185E+05  1.492072E+04  1.249234E+04
       192   2  4.571285E+05  2.088703E+05  1.501162E+04  3.047933E+05  1.254097E+04  7.196525E+03
       192   3  4.965395E+05  2.252809E+05  1.879286E+04  3.198560E+05  1.032399E+04  1.683366E+03
       192   4  4.480285E+05  1.934648E+05  1.972340E+04  2.935950E+05  1.183788E+04  1.018087E+04
       192   5  4.408168E+05  1.970233E+05  1.097193E+04  2.963654E+05  9.144730E+03  4.650080E+03
       192   6  4.468095E+05  1.912952E+05  6.421792E+03  2.952231E+05  6.614618E+03 -1.097881E+03
       192   7  4.652021E+05  2.038243E+05  2.428670E+04  3.013716E+05  8.754965E+03  7.869364E+03
       192   8  4.245056E+05  1.851767E+05  6.932335E+03  2.879379E+05  5.748633E+03  2.103748E+03
       192   9  3.970825E+05  1.573109E+05 -5.949368E+03  2.705924E+05  2.905646E+03 -3.878840E+03
       192  10  4.308546E+05  1.831051E+05  1.515934E+04  2.858184E+05  2.007487E-10 -2.241510E-11
       192  11  4.571283E+05  2.088702E+05  1.501123E+04  3.047932E+05  3.371054E-10 -9.286503E-12
       192  12  4.965393E+05  2.252808E+05  1.879265E+04  3.198560E+05  1.661151E-10 -5.432262E-11
       192  13  4.480283E+05  1.934647E+05  1.972295E+04  2.935949E+05  2.337571E-11 -4.091029E-12
       192  14  4.408167E+05  1.970233E+05  1.097173E+04  2.963654E+05 -1.774012E-10 -5.553041E-11
       192  15  4.468095E+05  1.912952E+05  6.421707E+03  2.952231E+05 -3.467150E-10 -1.517771E-10
       192  16  4.652020E+05  2.038242E+05  2.428644E+04  3.013715E+05  1.490469E-10  6.931563E-11
       192  17  4.245056E+05  1.851766E+05  6.932265E+03  2.879379E+05  3.232330E-10  3.049849E-11
       192  18  3.970824E+05  1.573109E+05 -5.949412E+03  2.705924E+05 -1.858405E-10 -1.623223E-12
       192  19  4.308549E+05  1.831053E+05  1.516005E+04  2.858185E+05 -1.492072E+04 -1.249234E+04
       192  20  4.571285E+05  2.088703E+05  1.501162E+04  3.047933E+05 -1.254097E+04 -7.196525E+03
       192  21  4.965395E+05  2.252809E+05  1.879286E+04  3.198560E+05 -1.032399E+04 -1.683366E+03
       192  22  4.480285E+05  1.934648E+05  1.972340E+04  2.935950E+05 -1.183788E+04 -1.018087E+04
       192  23  4.408168E+05  1.970233E+05  1.097193E+04  2.963654E+05 -9.144730E+03 -4.650080E+03
       192  24  4.468095E+05  1.912952E+05  6.421792E+03  2.952231E+05 -6.614618E+03  1.097881E+03
       192  25  4.652021E+05  2.038243E+05  2.428670E+04  3.013716E+05 -8.754965E+03 -7.869364E+03
       192  26  4.245056E+05  1.851767E+05  6.932335E+03  2.879379E+05 -5.748633E+03 -2.103748E+03
       192  27  3.970825E+05  1.573109E+05 -5.949368E+03  2.705924E+05 -2.905646E+03  3.878840E+03
       193   1  5.181144E+05  2.413087E+05  2.322093E+04  3.309181E+05  1.061360E+04 -4.458681E+02
       193   2  5.448306E+05  2.699941E+05  2.966671E+04  3.490796E+05  1.121488E+04 -3.960977E+03
       193   3  5.832007E+05  2.874298E+05  3.720953E+04  3.639553E+05  1.179590E+04 -7.448658E+03
       193   4  4.467115E+05  1.912992E+05  5.005169E+03  2.950300E+05  6.934468E+03 -3.204575E+03
       193   5  4.408774E+05  1.969095E+05  3.189692E+03  2.966864E+05  7.575282E+03 -6.690389E+03
       193   6  4.466873E+05  1.912601E+05  2.436917E+03  2.950557E+05  8.195927E+03 -1.014867E+04
       193   7  3.753132E+05  1.412920E+05 -1.321129E+04  2.591462E+05  3.255848E+03 -5.962902E+03
       193   8  3.369365E+05  1.238313E+05 -2.328810E+04  2.443033E+05  3.936501E+03 -9.419189E+03
       193   9  3.101973E+05  9.510294E+04 -3.233638E+04  2.261745E+05  4.597068E+03 -1.284784E+04
       193  10  5.181143E+05  2.413087E+05  2.322072E+04  3.309181E+05 -2.256762E-10 -1.561861E-10
       193  11  5.448305E+05  2.699941E+05  2.966644E+04  3.490796E+05 -3.736821E-10 -3.770914E-11
       193  12  5.832005E+05  2.874297E+05  3.720916E+04  3.639554E+05 -1.067818E-10  7.634011E-11
       193  13  4.467114E+05  1.912992E+05  5.005060E+03  2.950301E+05  3.489231E-10  9.601127E-11
       193  14  4.408773E+05  1.969095E+05  3.189500E+03  2.966865E+05  2.207202E-10  2.048111E-10
       193  15  4.466872E+05  1.912600E+05  2.436597E+03  2.950558E+05  2.249399E-10  1.538073E-10
       193  16  3.753132E+05  1.412919E+05 -1.321138E+04  2.591462E+05  1.950707E-10  1.866923E-10
       193  17  3.369365E+05  1.238312E+05 -2.328830E+04  2.443034E+05 -3.014135E-10 -4.757648E-11
       193  18  3.101972E+05  9.510275E+04 -3.233673E+04  2.261745E+05  3.084273E-11 -1.535854E-10
       193  19  5.181144E+05  2.413087E+05  2.322093E+04  3.309181E+05 -1.061360E+04  4.458681E+02
       193  20  5.448306E+05  2.699941E+05  2.966671E+04  3.490796E+05 -1.121488E+04  3.960977E+03
       193  21  5.832007E+05  2.874298E+05  3.720953E+04  3.639553E+05 -1.179590E+04  7.448658E+03
       193  22  4.467115E+05  1.912992E+05  5.005169E+03  2.950300E+05 -6.934468E+03  3.204575E+03
       193  23  4.408774E+05  1.969095E+05  3.189692E+03  2.966864E+05 -7.575282E+03  6.690389E+03
       193  24  4.466873E+05  1.912601E+05  2.436917E+03  2.950557E+05 -8.195927E+03  1.014867E+04
       193  25  3.753132E+05  1.412920E+05 -1.321129E+04  2.591462E+05 -3.255848E+03  5.962902E+03
       193  26  3.369365E+05  1.238313E+05 -2.328810E+04  2.443033E+05 -3.936501E+03  9.419189E+03
       193  27  3.101973E+05  9.510294E+04 -3.233638E+04  2.261745E+05 -4.597068E+03  1.284784E+04
       194   1  6.052253E+05  3.031714E+05  4.298266E+04  3.751626E+05  1.268797E+04 -9.124092E+03
       194   2  6.322092E+05  3.317913E+05  5.194784E+04  3.931327E+05  1.240820E+04 -1.287217E+04
       194   3  6.711836E+05  3.496233E+05  6.269738E+04  4.076866E+05  1.166585E+04 -1.600288E+04
       194   4  4.466830E+05  1.912555E+05  2.349084E+03  2.950752E+05  8.978743E+03 -1.190630E+04
       194   5  4.408997E+05  1.969531E+05  2.733265E+03  2.966262E+05  9.589272E+03 -1.498723E+04
       194   6  4.469129E+05  1.916692E+05  4.130251E+03  2.947600E+05  9.737266E+03 -1.745056E+04
       194   7  2.881693E+05  7.935449E+04 -3.828647E+04  2.150113E+05  5.270784E+03 -1.468756E+04
       194   8  2.496302E+05  6.213539E+04 -4.648478E+04  2.001531E+05  6.771491E+03 -1.710143E+04
       194   9  2.226955E+05  3.374197E+04 -5.444232E+04  1.818784E+05  7.809589E+03 -1.889756E+04
       194  10  6.052251E+05  3.031713E+05  4.298221E+04  3.751626E+05  2.061286E-11  5.140224E-11
       194  11  6.322090E+05  3.317911E+05  5.194723E+04  3.931328E+05  3.142761E-10  1.932662E-10
       194  12  6.711834E+05  3.496230E+05  6.269664E+04  4.076867E+05  3.926900E-11 -1.538628E-10
       194  13  4.466829E+05  1.912553E+05  2.348666E+03  2.950753E+05  7.157274E-11 -1.164584E-10
       194  14  4.408995E+05  1.969528E+05  2.732669E+03  2.966263E+05  6.971871E-11 -1.430092E-10
       194  15  4.469127E+05  1.916689E+05  4.129500E+03  2.947601E+05  4.878359E-11 -2.499742E-10
       194  16  2.881692E+05  7.935425E+04 -3.828693E+04  2.150113E+05  4.651948E-11 -1.641648E-10
       194  17  2.496301E+05  6.213507E+04 -4.648541E+04  2.001532E+05 -1.348581E-11 -4.943889E-10
       194  18  2.226954E+05  3.374157E+04 -5.444311E+04  1.818785E+05  1.432347E-10 -5.828948E-12
       194  19  6.052253E+05  3.031714E+05  4.298266E+04  3.751626E+05 -1.268797E+04  9.124092E+03
       194  20  6.322092E+05  3.317913E+05  5.194784E+04  3.931327E+05 -1.240820E+04  1.287217E+04
       194  21  6.711836E+05  3.496233E+05  6.269738E+04  4.076866E+05 -1.166585E+04  1.600288E+04
       194  22  4.466830E+05  1.912555E+05  2.349084E+03  2.950752E+05 -8.978743E+03  1.190630E+04
       194  23  4.408997E+05  1.969531E+05  2.733265E+03  2.966262E+05 -9.589272E+03  1.498723E+04
       194  24  4.469129E+05  1.916692E+05  4.130251E+03  2.947600E+05 -9.737266E+03  1.745056E+04
       194  25  2.881693E+05  7.935449E+04 -3.828647E+04  2.150113E+05 -5.270784E+03  1.468756E+04
       194  26  2.496302E+05  6.213539E+04 -4.648478E+04  2.001531E+05 -6.771491E+03  1.710143E+04
       194  27  2.226955E+05  3.374197E+04 -5.444232E+04  1.818784E+05 -7.809589E+03  1.889756E+04
       195   1  6.921472E+05  3.671339E+05  6.979114E+04  4.201619E+05  1.372188E+04 -1.669891E+04
       195   2  7.241088E+05  3.914444E+05  8.676963E+04  4.337530E+05 -3.943275E+03 -2.693226E+04
       195   3  7.757608E+05  4.159203E+05  1.203756E+05  4.405092E+05 -2.812577E+04 -2.848472E+04
       195   4  4.469878E+05  1.916367E+05  5.156186E+03  2.954267E+05  1.024899E+04 -1.930542E+04
       195   5  4.414162E+05  1.980975E+05  8.893103E+03  2.949464E+05  5.105656E+03 -2.014415E+04
       195   6  4.528227E+05  2.020133E+05  1.840074E+04  2.876302E+05 -6.555456E+03 -1.229902E+04
       195   7  2.019003E+05  1.617889E+04 -5.948254E+04  1.707504E+05  6.777996E+03 -2.191048E+04
       195   8  1.588148E+05  4.794537E+03 -6.898983E+04  1.562118E+05  1.414894E+04 -1.336009E+04
       195   9  1.299965E+05 -1.184623E+04 -8.358418E+04  1.348379E+05  1.499949E+04  3.876180E+03
       195  10  6.921469E+05  3.671335E+05  6.979026E+04  4.201621E+05  3.341010E-10  3.563605E-10
       195  11  7.241086E+05  3.914436E+05  8.676824E+04  4.337529E+05 -5.394185E-11  6.132357E-11
       195  12  7.757597E+05  4.159193E+05  1.203726E+05  4.405085E+05  1.142158E-11 -2.583374E-11
       195  13  4.469876E+05  1.916363E+05  5.155288E+03  2.954269E+05 -5.036492E-11 -2.096595E-10
       195  14  4.414160E+05  1.980971E+05  8.892291E+03  2.949465E+05  6.454080E-10  1.957307E-09
       195  15  4.528226E+05  2.020131E+05  1.840038E+04  2.876302E+05  1.510752E-10  6.431587E-10
       195  16  2.019001E+05  1.617836E+04 -5.948353E+04  1.707505E+05  2.061279E-11  1.938921E-10
       195  17  1.588145E+05  4.794292E+03 -6.899054E+04  1.562120E+05 -1.485536E-10  2.586911E-11
       195  18  1.299963E+05 -1.184631E+04 -8.358463E+04  1.348379E+05 -4.722895E-11 -1.440700E-10
       195  19  6.921472E+05  3.671339E+05  6.979114E+04  4.201619E+05 -1.372188E+04  1.669891E+04
       195  20  7.241088E+05  3.914444E+05  8.676963E+04  4.337530E+05  3.943275E+03  2.693226E+04
       195  21  7.757608E+05  4.159203E+05  1.203756E+05  4.405092E+05  2.812577E+04  2.848472E+04
       195  22  4.469878E+05  1.916367E+05  5.156186E+03  2.954267E+05 -1.024899E+04  1.930542E+04
       195  23  4.414162E+05  1.980975E+05  8.893103E+03  2.949464E+05 -5.105656E+03  2.014415E+04
       195  24  4.528227E+05  2.020133E+05  1.840074E+04  2.876302E+05  6.555456E+03  1.229902E+04
       195  25  2.019003E+05  1.617889E+04 -5.948254E+04  1.707504E+05 -6.777996E+03  2.191048E+04
       195  26  1.588148E+05  4.794537E+03 -6.898983E+04  1.562118E+05 -1.414894E+04  1.336009E+04
       195  27  1.299965E+05 -1.184623E+04 -8.358418E+04  1.348379E+05 -1.499949E+04 -3.876180E+03
       196   1 -8.734588E+04 -7.410417E+04 -7.934597E+04  1.721794E+05 -4.281378E+03  1.169173E+04
       196   2 -6.247153E+04  1.427407E+05 -4.137938E+04  1.564492E+05 -1.001969E+04  2.152389E+04
       196   3 -1.563638E+04  3.638385E+05 -4.328577E+03  1.978226E+05 -1.834630E+03  3.135739E+04
       196   4  3.746346E+04  4.283525E+05  4.222889E+04  1.943669E+05 -4.271919E+03  2.999955E+04
       196   5  6.085937E+03  4.245373E+05  1.964504E+04  1.658258E+05 -1.001993E+04  1.977628E+04
       196   6  1.446339E+02  4.283998E+05  1.006485E+04  1.943819E+05 -1.847894E+03  9.550800E+03
       196   7  1.622563E+05  9.310416E+05  1.637871E+05  2.165723E+05 -4.261157E+03  4.832213E+04
       196   8  7.463849E+04  7.064085E+05  8.066481E+04  1.752067E+05 -1.002023E+04  1.802790E+04
       196   9  1.592566E+04  4.929661E+05  2.445981E+04  1.909408E+05 -1.860915E+03 -1.225803E+04
       196  10 -8.734594E+04 -7.410432E+04 -7.934626E+04  1.721794E+05 -5.060845E-12 -1.991553E-10
       196  11 -6.247176E+04  1.427402E+05 -4.138044E+04  1.564493E+05 -5.377712E-11  6.263676E-10
       196  12 -1.563664E+04  3.638374E+05 -4.330430E+03  1.978227E+05  3.489425E-11 -2.537948E-11
       196  13  3.746320E+04  4.283515E+05  4.222717E+04  1.943670E+05 -2.921757E-11  1.886034E-10
       196  14  6.085724E+03  4.245368E+05  1.964412E+04  1.658259E+05 -1.288410E-10  5.077018E-10
       196  15  1.446058E+02  4.283997E+05  1.006467E+04  1.943819E+05 -9.675265E-11  1.014608E-11
       196  16  1.622557E+05  9.310390E+05  1.637827E+05  2.165725E+05  8.018826E-11  5.066200E-11
       196  17  7.463829E+04  7.064081E+05  8.066401E+04  1.752068E+05  4.303296E-11  2.472226E-10
       196  18  1.592562E+04  4.929659E+05  2.445953E+04  1.909408E+05 -1.829902E-11 -2.166066E-10
       196  19 -8.734588E+04 -7.410417E+04 -7.934597E+04  1.721794E+05  4.281378E+03 -1.169173E+04
       196  20 -6.247153E+04  1.427407E+05 -4.137938E+04  1.564492E+05  1.001969E+04 -2.152389E+04
       196  21 -1.563638E+04  3.638385E+05 -4.328577E+03  1.978226E+05  1.834630E+03 -3.135739E+04
       196  22  3.746346E+04  4.283525E+05  4.222889E+04  1.943669E+05  4.271919E+03 -2.999955E+04
       196  23  6.085937E+03  4.245373E+05  1.964504E+04  1.658258E+05  1.001993E+04 -1.977628E+04
       196  24  1.446339E+02  4.283998E+05  1.006485E+04  1.943819E+05  1.847894E+03 -9.550800E+03
       196  25  1.622563E+05  9.310416E+05  1.637871E+05  2.165723E+05  4.261157E+03 -4.832213E+04
       196  26  7.463849E+04  7.064085E+05  8.066481E+04  1.752067E+05  1.002023E+04 -1.802790E+04
       196  27  1.592566E+04  4.929661E+05  2.445981E+04  1.909408E+05  1.860915E+03  1.225803E+04
       197   1  2.135542E+04  5.110249E+05  2.138107E+04  1.942877E+05  7.176469E+03  2.798574E+04
       197   2  7.207357E+04  7.297237E+05  5.851351E+04  1.655793E+05  2.030337E+04  2.556271E+04
       197   3  1.235147E+05  9.489581E+05  9.739620E+04  1.946835E+05  3.237585E+04  2.314247E+04
       197   4  1.638888E+03  4.267422E+05  7.032906E+03  1.945391E+05  7.164764E+03  8.304907E+03
       197   5  1.499390E+02  4.266090E+05  1.806554E+03  1.656326E+05  2.029491E+04  7.397918E+03
       197   6 -8.770764E+02  4.267007E+05 -2.722900E+03  1.945404E+05  3.237027E+04  6.494522E+03
       197   7 -1.807782E+04  3.424674E+05 -7.314039E+03  1.947905E+05  7.153043E+03 -1.137335E+04
       197   8 -7.177882E+04  1.235837E+05 -5.490312E+04  1.656859E+05  2.028645E+04 -1.075824E+04
       197   9 -1.252848E+05 -9.529386E+04 -1.028534E+05  1.943973E+05  3.236469E+04 -1.013976E+04
       197  10  2.135516E+04  5.110240E+05  2.137950E+04  1.942876E+05  4.745061E-11 -3.738477E-10
       197  11  7.207295E+04  7.297229E+05  5.851151E+04  1.655789E+05 -2.991659E-11  3.723503E-10
       197  12  1.235135E+05  9.489573E+05  9.739322E+04  1.946829E+05  9.038506E-11 -3.992699E-10
       197  13  1.638814E+03  4.267421E+05  7.032680E+03  1.945391E+05  2.828524E-11  3.217397E-10
       197  14  1.494820E+02  4.266088E+05  1.805677E+03  1.656325E+05  1.322432E-10  5.566405E-10
       197  15 -8.782131E+02  4.267004E+05 -2.724949E+03  1.945402E+05  5.330821E-11 -1.840548E-11
       197  16 -1.807791E+04  3.424672E+05 -7.314378E+03  1.947905E+05 -8.730069E-11  8.443932E-11
       197  17 -7.177929E+04  1.235835E+05 -5.490412E+04  1.656860E+05  8.349473E-11  4.245359E-10
       197  18 -1.252860E+05 -9.529425E+04 -1.028556E+05  1.943976E+05 -7.697571E-11  1.730204E-10
       197  19  2.135542E+04  5.110249E+05  2.138107E+04  1.942877E+05 -7.176469E+03 -2.798574E+04
       197  20  7.207357E+04  7.297237E+05  5.851351E+04  1.655793E+05 -2.030337E+04 -2.556271E+04
       197  21  1.235147E+05  9.489581E+05  9.739620E+04  1.946835E+05 -3.237585E+04 -2.314247E+04
       197  22  1.638888E+03  4.267422E+05  7.032906E+03  1.945391E+05 -7.164764E+03 -8.304907E+03
       197  23  1.499390E+02  4.266090E+05  1.806554E+03  1.656326E+05 -2.029491E+04 -7.397918E+03
       197  24 -8.770764E+02  4.267007E+05 -2.722900E+03  1.945404E+05 -3.237027E+04 -6.494522E+03
       197  25 -1.807782E+04  3.424674E+05 -7.314039E+03  1.947905E+05 -7.153043E+03  1.137335E+04
       197  26 -7.177882E+04  1.235837E+05 -5.490312E+04  1.656859E+05 -2.028645E+04  1.075824E+04
       197  27 -1.252848E+05 -9.529386E+04 -1.028534E+05  1.943973E+05 -3.236469E+04  1.013976E+04
       198   1  1.601143E+05  1.097428E+06  1.241024E+05  1.965337E+05  4.127090E+04  2.860871E+04
       198   2  2.100347E+05  1.315516E+06  1.708522E+05  1.604763E+05  4.183939E+04 -6.831957E+03
       198   3  2.516168E+05  1.536307E+06  2.385847E+05  1.806101E+05  1.362123E+04 -4.229365E+04
       198   4  4.203371E+01  4.256061E+05 -5.025419E+03  1.941811E+05  4.126592E+04  7.004191E+03
       198   5 -3.817595E+03  4.278170E+05 -1.162271E+04  1.660837E+05  4.184768E+04  1.308412E+04
       198   6 -2.322099E+04  4.254876E+05 -2.604022E+04  1.941841E+05  1.362315E+04  1.915502E+04
       198   7 -1.600567E+05 -2.457813E+05 -1.341723E+05  1.918311E+05  4.126111E+04 -1.457752E+04
       198   8 -2.177192E+05 -4.591343E+05 -1.941383E+05  1.716828E+05  4.185633E+04  3.297226E+04
       198   9 -2.981451E+05 -6.841936E+05 -2.907374E+05  2.077335E+05  1.362777E+04  8.049444E+04
       198  10  1.601122E+05  1.097427E+06  1.240977E+05  1.965327E+05  1.572057E-11 -3.306680E-10
       198  11  2.100328E+05  1.315515E+06  1.708488E+05  1.604765E+05 -3.959332E-11 -2.970614E-10
       198  12  2.516162E+05  1.536305E+06  2.385810E+05  1.806106E+05 -1.688357E-11  1.196408E-10
       198  13  4.019173E+01  4.256056E+05 -5.028711E+03  1.941809E+05  3.185202E-11  1.128352E-10
       198  14 -3.819521E+03  4.278164E+05 -1.162633E+04  1.660832E+05  7.590160E-11 -1.514017E-10
       198  15 -2.322129E+04  4.254871E+05 -2.604126E+04  1.941839E+05 -1.397430E-11  3.402630E-11
       198  16 -1.600585E+05 -2.457820E+05 -1.341759E+05  1.918315E+05 -2.905514E-10  1.220654E-10
       198  17 -2.177213E+05 -4.591359E+05 -1.941437E+05  1.716817E+05 -2.561189E-11  1.808114E-11
       198  18 -2.981470E+05 -6.842006E+05 -2.907499E+05  2.077326E+05  6.764287E-11  8.559231E-11
       198  19  1.601143E+05  1.097428E+06  1.241024E+05  1.965337E+05 -4.127090E+04 -2.860871E+04
       198  20  2.100347E+05  1.315516E+06  1.708522E+05  1.604763E+05 -4.183939E+04  6.831957E+03
       198  21  2.516168E+05  1.536307E+06  2.385847E+05  1.806101E+05 -1.362123E+04  4.229365E+04
       198  22  4.203371E+01  4.256061E+05 -5.025419E+03  1.941811E+05 -4.126592E+04 -7.004191E+03
       198  23 -3.817595E+03  4.278170E+05 -1.162271E+04  1.660837E+05 -4.184768E+04 -1.308412E+04
       198  24 -2.322099E+04  4.254876E+05 -2.604022E+04  1.941841E+05 -1.362315E+04 -1.915502E+04
       198  25 -1.600567E+05 -2.457813E+05 -1.341723E+05  1.918311E+05 -4.126111E+04  1.457752E+04
       198  26 -2.177192E+05 -4.591343E+05 -1.941383E+05  1.716828E+05 -4.185633E+04 -3.297226E+04
       198  27 -2.981451E+05 -6.841936E+05 -2.907374E+05  2.077335E+05 -1.362777E+04 -8.049444E+04
       199   1  1.908898E+05  6.215257E+04  5.623834E+04  3.622370E+04  3.701336E+03 -4.264014E+03
       199   2  1.373642E+05  6.353816E+04  4.553185E+04  3.619405E+04 -2.810987E+03 -1.337915E+04
       199   3  8.181083E+04  5.330658E+04  3.616256E+04  5.004881E+04 -9.318563E+03 -1.392790E+04
       199   4 -1.419363E+05 -2.026509E+04 -2.297197E+04  4.830974E+04 -1.559513E+04 -4.256036E+03
       199   5 -1.398442E+05 -3.259402E+03 -1.122696E+04  4.137098E+04 -9.770527E+03 -1.337711E+04
       199   6 -1.419254E+05 -1.548302E+01 -6.712921E+03  4.831732E+04 -3.941496E+03 -1.392990E+04
       199   7 -4.746598E+05 -1.026900E+05 -1.021886E+05  6.038928E+04 -3.488130E+04 -4.248808E+03
       199   8 -4.169795E+05 -7.006166E+04 -6.798966E+04  4.654555E+04 -1.672701E+04 -1.337518E+04
       199   9 -3.656133E+05 -5.334047E+04 -4.959058E+04  4.658648E+04  1.433679E+03 -1.393193E+04
       199  10  1.908898E+05  6.215255E+04  5.623828E+04  3.622371E+04 -9.898942E-11 -2.011924E-11
       199  11  1.373641E+05  6.353796E+04  4.553150E+04  3.619402E+04 -6.491951E-10 -1.640132E-11
       199  12  8.181069E+04  5.330635E+04  3.616203E+04  5.004870E+04 -6.280759E-11  1.282513E-10
       199  13 -1.419366E+05 -2.026517E+04 -2.297247E+04  4.830969E+04 -1.369885E-10  1.385908E-11
       199  14 -1.398444E+05 -3.259620E+03 -1.122748E+04  4.137087E+04 -6.108029E-11  1.650297E-11
       199  15 -1.419254E+05 -1.569554E+01 -6.713315E+03  4.831728E+04 -1.255687E-10  5.549945E-11
       199  16 -4.746611E+05 -1.026903E+05 -1.021909E+05  6.038916E+04  4.305358E-10  6.302864E-11
       199  17 -4.169798E+05 -7.006193E+04 -6.799052E+04  4.654537E+04  6.294108E-10  7.257159E-11
       199  18 -3.656134E+05 -5.334068E+04 -4.959094E+04  4.658649E+04 -8.985251E-11 -4.085834E-11
       199  19  1.908898E+05  6.215257E+04  5.623834E+04  3.622370E+04 -3.701336E+03  4.264014E+03
       199  20  1.373642E+05  6.353816E+04  4.553185E+04  3.619405E+04  2.810987E+03  1.337915E+04
       199  21  8.181083E+04  5.330658E+04  3.616256E+04  5.004881E+04  9.318563E+03  1.392790E+04
       199  22 -1.419363E+05 -2.026509E+04 -2.297197E+04  4.830974E+04  1.559513E+04  4.256036E+03
       199  23 -1.398442E+05 -3.259402E+03 -1.122696E+04  4.137098E+04  9.770527E+03  1.337711E+04
       199  24 -1.419254E+05 -1.548302E+01 -6.712921E+03  4.831732E+04  3.941496E+03  1.392990E+04
       199  25 -4.746598E+05 -1.026900E+05 -1.021886E+05  6.038928E+04  3.488130E+04  4.248808E+03
       199  26 -4.169795E+05 -7.006166E+04 -6.798966E+04  4.654555E+04  1.672701E+04  1.337518E+04
       199  27 -3.656133E+05 -5.334047E+04 -4.959058E+04  4.658648E+04 -1.433679E+03  1.393193E+04
       200   1  4.539466E+04  4.363306E+04  3.009064E+04  4.806017E+04 -6.865550E+03 -1.172412E+04
       200   2 -8.956599E+03  3.128684E+04  2.066275E+04  4.104935E+04 -5.657944E+03 -8.751806E+03
       200   3 -6.358295E+04  1.839727E+04  1.031646E+04  4.844087E+04 -4.450613E+03 -5.196429E+03
       200   4 -1.410893E+05 -7.917386E+02 -5.539676E+03  4.843080E+04 -3.003980E+03 -1.172548E+04
       200   5 -1.408751E+05 -5.427907E+01 -4.113503E+03  4.122963E+04 -9.573965E+02 -8.753149E+03
       200   6 -1.410846E+05 -5.798573E+00 -4.188651E+03  4.843100E+04  1.089013E+03 -5.197691E+03
       200   7 -3.275397E+05 -4.521858E+04 -4.117152E+04  4.880132E+04  8.564579E+02 -1.172683E+04
       200   8 -2.727766E+05 -3.139639E+04 -2.889043E+04  4.140987E+04  3.742177E+03 -8.754488E+03
       200   9 -2.185803E+05 -1.840920E+04 -1.869391E+04  4.842114E+04  6.627966E+03 -5.198954E+03
       200  10  4.539457E+04  4.363290E+04  3.009029E+04  4.806010E+04  4.459737E-10  3.856703E-11
       200  11 -8.956654E+03  3.128675E+04  2.066254E+04  4.104931E+04 -5.219467E-10 -1.782991E-10
       200  12 -6.358298E+04  1.839724E+04  1.031637E+04  4.844085E+04 -2.549105E-10  5.439751E-11
       200  13 -1.410894E+05 -7.918887E+02 -5.539952E+03  4.843077E+04  1.419746E-10 -9.920634E-12
       200  14 -1.408751E+05 -5.436158E+01 -4.113649E+03  4.122962E+04 -1.729976E-10 -9.876737E-11
       200  15 -1.410846E+05 -5.827901E+00 -4.188704E+03  4.843101E+04  1.983286E-10 -2.759792E-12
       200  16 -3.275398E+05 -4.521873E+04 -4.117178E+04  4.880133E+04 -2.916541E-10 -1.085037E-10
       200  17 -2.727767E+05 -3.139648E+04 -2.889060E+04  4.140990E+04  3.168826E-10 -5.787367E-11
       200  18 -2.185804E+05 -1.840924E+04 -1.869404E+04  4.842117E+04  3.397640E-10 -2.234361E-11
       200  19  4.539466E+04  4.363306E+04  3.009064E+04  4.806017E+04  6.865550E+03  1.172412E+04
       200  20 -8.956599E+03  3.128684E+04  2.066275E+04  4.104935E+04  5.657944E+03  8.751806E+03
       200  21 -6.358295E+04  1.839727E+04  1.031646E+04  4.844087E+04  4.450613E+03  5.196429E+03
       200  22 -1.410893E+05 -7.917386E+02 -5.539676E+03  4.843080E+04  3.003980E+03  1.172548E+04
       200  23 -1.408751E+05 -5.427907E+01 -4.113503E+03  4.122963E+04  9.573965E+02  8.753149E+03
       200  24 -1.410846E+05 -5.798573E+00 -4.188651E+03  4.843100E+04 -1.089013E+03  5.197691E+03
       200  25 -3.275397E+05 -4.521858E+04 -4.117152E+04  4.880132E+04 -8.564579E+02  1.172683E+04
       200  26 -2.727766E+05 -3.139639E+04 -2.889043E+04  4.140987E+04 -3.742177E+03  8.754488E+03
       200  27 -2.185803E+05 -1.840920E+04 -1.869391E+04  4.842114E+04 -6.627966E+03  5.198954E+03
       201   1 -1.006044E+05  9.642962E+03  2.703137E+03  4.809362E+04 -3.631581E+03 -2.924842E+03
       201   2 -1.546395E+05 -3.500330E+03 -9.702783E+03  4.139057E+04  3.314780E+02  7.153855E+02
       201   3 -2.095791E+05 -1.825628E+04 -2.508966E+04  4.910362E+04  4.294050E+03  3.993489E+03
       201   4 -1.411712E+05  4.824279E+01 -4.697281E+03  4.843409E+04  1.871549E+03 -2.926020E+03
       201   5 -1.407629E+05 -1.646462E+02 -6.903706E+03  4.122580E+04  5.313052E+03  7.142910E+02
       201   6 -1.411720E+05 -1.899620E+03 -1.172890E+04  4.843366E+04  8.754408E+03  3.992482E+03
       201   7 -1.817363E+05 -9.546553E+03 -1.209765E+04  4.877452E+04  7.374329E+03 -2.927192E+03
       201   8 -1.268860E+05  3.171039E+03 -4.104546E+03  4.106103E+04  1.029474E+04  7.131939E+02
       201   9 -7.276030E+04  1.445677E+04  1.631708E+03  4.776361E+04  1.321525E+04  3.991466E+03
       201  10 -1.006044E+05  9.642949E+03  2.703097E+03  4.809361E+04  4.722091E-10  1.264775E-10
       201  11 -1.546395E+05 -3.500330E+03 -9.702784E+03  4.139057E+04 -3.206987E-10 -8.369618E-11
       201  12 -2.095791E+05 -1.825630E+04 -2.508972E+04  4.910361E+04  5.104281E-11  1.809654E-10
       201  13 -1.411712E+05  4.823266E+01 -4.697303E+03  4.843409E+04  2.702954E-10  9.376025E-11
       201  14 -1.407629E+05 -1.646543E+02 -6.903760E+03  4.122580E+04  9.694656E-11 -6.223950E-12
       201  15 -1.411721E+05 -1.899657E+03 -1.172907E+04  4.843363E+04 -1.319980E-10  1.243669E-10
       201  16 -1.817364E+05 -9.546577E+03 -1.209777E+04  4.877454E+04 -1.890975E-10  2.961048E-11
       201  17 -1.268861E+05  3.171010E+03 -4.104746E+03  4.106103E+04  5.981728E-10  6.082722E-11
       201  18 -7.276049E+04  1.445671E+04  1.631350E+03  4.776357E+04  1.753318E-10  2.437704E-11
       201  19 -1.006044E+05  9.642962E+03  2.703137E+03  4.809362E+04  3.631581E+03  2.924842E+03
       201  20 -1.546395E+05 -3.500330E+03 -9.702783E+03  4.139057E+04 -3.314780E+02 -7.153855E+02
       201  21 -2.095791E+05 -1.825628E+04 -2.508966E+04  4.910362E+04 -4.294050E+03 -3.993489E+03
       201  22 -1.411712E+05  4.824279E+01 -4.697281E+03  4.843409E+04 -1.871549E+03  2.926020E+03
       201  23 -1.407629E+05 -1.646462E+02 -6.903706E+03  4.122580E+04 -5.313052E+03 -7.142910E+02
       201  24 -1.411720E+05 -1.899620E+03 -1.172890E+04  4.843366E+04 -8.754408E+03 -3.992482E+03
       201  25 -1.817363E+05 -9.546553E+03 -1.209765E+04  4.877452E+04 -7.374329E+03  2.927192E+03
       201  26 -1.268860E+05  3.171039E+03 -4.104546E+03  4.106103E+04 -1.029474E+04 -7.131939E+02
       201  27 -7.276030E+04  1.445677E+04  1.631708E+03  4.776361E+04 -1.321525E+04 -3.991466E+03
       202   1 -2.487811E+05 -2.521807E+04 -3.559066E+04  4.394194E+04  5.299013E+03  6.223771E+03
       202   2 -2.975184E+05 -4.635216E+04 -5.976365E+04  5.363532E+04  2.732551E+04  7.169701E+03
       202   3 -3.578101E+05 -1.022918E+05 -1.069794E+05  7.739528E+04  4.934810E+04  2.432166E+03
       202   4 -1.432428E+05  2.529420E+00 -1.503640E+04  4.835910E+04  1.076066E+04  6.222480E+03
       202   5 -1.381811E+05 -7.844908E+03 -2.664488E+04  4.131813E+04  2.460744E+04  7.169743E+03
       202   6 -1.432517E+05 -4.907285E+04 -5.561092E+04  4.834497E+04  3.845231E+04  2.433018E+03
       202   7 -3.769380E+04  2.522255E+04  5.517458E+03  5.277702E+04  1.622322E+04  6.221266E+03
       202   8  2.118067E+04  3.066130E+04  6.472606E+03  2.899772E+04  2.188868E+04  7.169894E+03
       202   9  7.135103E+04  4.146034E+03 -4.244772E+03  1.928457E+04  2.755277E+04  2.434891E+03
       202  10 -2.487811E+05 -2.521812E+04 -3.559078E+04  4.394191E+04  1.107509E-10  2.724181E-10
       202  11 -2.975192E+05 -4.635242E+04 -5.976515E+04  5.363516E+04 -7.265724E-10  4.121253E-11
       202  12 -3.578127E+05 -1.022925E+05 -1.069840E+05  7.739518E+04 -1.630309E-10 -7.842077E-11
       202  13 -1.432430E+05  2.456758E+00 -1.503669E+04  4.835904E+04  1.255724E-10  1.930694E-10
       202  14 -1.381817E+05 -7.845126E+03 -2.664611E+04  4.131799E+04 -1.737464E-10  1.651873E-10
       202  15 -1.432533E+05 -4.907325E+04 -5.561371E+04  4.834489E+04  2.958356E-10  5.089979E-11
       202  16 -3.769410E+04  2.522244E+04  5.516891E+03  5.277694E+04 -3.285255E-11  4.392956E-11
       202  17  2.118014E+04  3.066112E+04  6.471610E+03  2.899760E+04  4.964646E-10  7.443139E-11
       202  18  7.135021E+04  4.145824E+03 -4.246210E+03  1.928451E+04  1.180827E-10  3.869155E-11
       202  19 -2.487811E+05 -2.521807E+04 -3.559066E+04  4.394194E+04 -5.299013E+03 -6.223771E+03
       202  20 -2.975184E+05 -4.635216E+04 -5.976365E+04  5.363532E+04 -2.732551E+04 -7.169701E+03
       202  21 -3.578101E+05 -1.022918E+05 -1.069794E+05  7.739528E+04 -4.934810E+04 -2.432166E+03
       202  22 -1.432428E+05  2.529420E+00 -1.503640E+04  4.835910E+04 -1.076066E+04 -6.222480E+03
       202  23 -1.381811E+05 -7.844908E+03 -2.664488E+04  4.131813E+04 -2.460744E+04 -7.169743E+03
       202  24 -1.432517E+05 -4.907285E+04 -5.561092E+04  4.834497E+04 -3.845231E+04 -2.433018E+03
       202  25 -3.769380E+04  2.522255E+04  5.517458E+03  5.277702E+04 -1.622322E+04 -6.221266E+03
       202  26  2.118067E+04  3.066130E+04  6.472606E+03  2.899772E+04 -2.188868E+04 -7.169894E+03
       202  27  7.135103E+04  4.146034E+03 -4.244772E+03  1.928457E+04 -2.755277E+04 -2.434891E+03
       203   1 -4.748732E+04 -2.644148E+05 -5.083423E+04  3.549516E+04 -8.343144E+02 -2.626926E+04
       203   2 -1.752483E+04 -2.403666E+05 -2.708552E+04  2.289587E+04 -2.365646E+03 -1.514525E+04
       203   3 -7.842896E+03 -2.228442E+05 -1.565221E+04  1.567821E+04 -1.918625E+03 -4.021708E+03
       203   4 -2.904106E+04 -1.899398E+05 -3.298317E+04  1.832391E+04 -8.315773E+02 -2.263263E+04
       203   5 -4.612662E+03 -1.869225E+05 -1.593281E+04  1.562483E+04 -2.365011E+03 -1.435609E+04
       203   6  3.036522E+01 -1.899364E+05 -9.219114E+03  1.830789E+04 -1.919814E+03 -6.080448E+03
       203   7 -1.059408E+04 -1.154591E+05 -1.513228E+04  1.150593E+03 -8.290416E+02 -1.899557E+04
       203   8  8.299525E+03 -1.334755E+05 -4.780228E+03  8.353143E+03 -2.364394E+03 -1.356685E+04
       203   9  7.903589E+03 -1.570276E+05 -2.786055E+03  2.093771E+04 -1.921020E+03 -8.139296E+03
       203  10 -4.748750E+04 -2.644155E+05 -5.083553E+04  3.549514E+04 -3.669051E-11  1.598489E-10
       203  11 -1.752490E+04 -2.403669E+05 -2.708597E+04  2.289585E+04  4.735601E-10  6.881782E-11
       203  12 -7.842904E+03 -2.228442E+05 -1.565224E+04  1.567820E+04  1.995094E-10  6.589645E-11
       203  13 -2.904119E+04 -1.899404E+05 -3.298413E+04  1.832389E+04 -1.175679E-10  3.494228E-11
       203  14 -4.612723E+03 -1.869227E+05 -1.593321E+04  1.562480E+04  4.715804E-11 -9.194084E-11
       203  15  3.035133E+01 -1.899365E+05 -9.219191E+03  1.830788E+04 -7.292986E-11 -2.356680E-12
       203  16 -1.059418E+04 -1.154594E+05 -1.513296E+04  1.150581E+03  9.776776E-11 -1.426301E-10
       203  17  8.299470E+03 -1.334757E+05 -4.780584E+03  8.353117E+03 -6.980579E-10 -1.065867E-10
       203  18  7.903568E+03 -1.570277E+05 -2.786186E+03  2.093770E+04 -3.242863E-12 -4.270076E-11
       203  19 -4.748732E+04 -2.644148E+05 -5.083423E+04  3.549516E+04  8.343144E+02  2.626926E+04
       203  20 -1.752483E+04 -2.403666E+05 -2.708552E+04  2.289587E+04  2.365646E+03  1.514525E+04
       203  21 -7.842896E+03 -2.228442E+05 -1.565221E+04  1.567821E+04  1.918625E+03  4.021708E+03
       203  22 -2.904106E+04 -1.899398E+05 -3.298317E+04  1.832391E+04  8.315773E+02  2.263263E+04
       203  23 -4.612662E+03 -1.869225E+05 -1.593281E+04  1.562483E+04  2.365011E+03  1.435609E+04
       203  24  3.036522E+01 -1.899364E+05 -9.219114E+03  1.830789E+04  1.919814E+03  6.080448E+03
       203  25 -1.059408E+04 -1.154591E+05 -1.513228E+04  1.150593E+03  8.290416E+02  1.899557E+04
       203  26  8.299525E+03 -1.334755E+05 -4.780228E+03  8.353143E+03  2.364394E+03  1.356685E+04
       203  27  7.903589E+03 -1.570276E+05 -2.786055E+03  2.093771E+04  1.921020E+03  8.139296E+03
       204   1 -5.573834E+03 -2.074984E+05 -1.106384E+04  1.877297E+04 -1.067834E+03 -3.097252E+03
       204   2  3.638615E+02 -1.864311E+05 -4.478617E+03  1.563670E+04  1.332621E+02 -6.878409E+02
       204   3  5.144189E+03 -1.659740E+05  2.462889E+02  1.798603E+04  1.327368E+03  1.721657E+03
       204   4 -1.081786E+03 -1.887324E+05 -7.370771E+03  1.833372E+04 -1.068828E+03 -4.829490E+03
       204   5 -1.100097E+02 -1.884261E+05 -4.852186E+03  1.559069E+04  1.322739E+02 -2.409989E+03
       204   6 -2.973129E+02 -1.887322E+05 -4.200853E+03  1.833327E+04  1.326387E+03  9.522146E+00
       204   7  3.410243E+03 -1.699660E+05 -3.677712E+03  1.789446E+04 -1.069819E+03 -6.561780E+03
       204   8 -5.838796E+02 -1.904212E+05 -5.225744E+03  1.554468E+04  1.312859E+02 -4.132132E+03
       204   9 -5.738844E+03 -2.114900E+05 -8.648009E+03  1.868050E+04  1.325405E+03 -1.702551E+03
       204  10 -5.573838E+03 -2.074984E+05 -1.106386E+04  1.877296E+04  2.480610E-10 -2.263955E-10
       204  11  3.638614E+02 -1.864311E+05 -4.478618E+03  1.563670E+04 -7.706561E-11 -1.127255E-11
       204  12  5.144186E+03 -1.659740E+05  2.462800E+02  1.798603E+04 -2.347150E-10  1.540103E-10
       204  13 -1.081794E+03 -1.887324E+05 -7.370817E+03  1.833372E+04  1.089620E-10  1.676838E-11
       204  14 -1.100113E+02 -1.884261E+05 -4.852197E+03  1.559069E+04  5.946746E-11  1.690165E-11
       204  15 -2.973148E+02 -1.887322E+05 -4.200856E+03  1.833327E+04  1.710040E-10  1.049997E-11
       204  16  3.410230E+03 -1.699661E+05 -3.677796E+03  1.789446E+04 -2.100607E-11  1.912454E-10
       204  17 -5.838842E+02 -1.904212E+05 -5.225776E+03  1.554468E+04  2.460398E-10  2.985799E-11
       204  18 -5.738846E+03 -2.114900E+05 -8.648018E+03  1.868050E+04  4.162376E-11 -1.303986E-10
       204  19 -5.573834E+03 -2.074984E+05 -1.106384E+04  1.877297E+04  1.067834E+03  3.097252E+03
       204  20  3.638615E+02 -1.864311E+05 -4.478617E+03  1.563670E+04 -1.332621E+02  6.878409E+02
       204  21  5.144189E+03 -1.659740E+05  2.462889E+02  1.798603E+04 -1.327368E+03 -1.721657E+03
       204  22 -1.081786E+03 -1.887324E+05 -7.370771E+03  1.833372E+04  1.068828E+03  4.829490E+03
       204  23 -1.100097E+02 -1.884261E+05 -4.852186E+03  1.559069E+04 -1.322739E+02  2.409989E+03
       204  24 -2.973129E+02 -1.887322E+05 -4.200853E+03  1.833327E+04 -1.326387E+03 -9.522146E+00
       204  25  3.410243E+03 -1.699660E+05 -3.677712E+03  1.789446E+04  1.069819E+03  6.561780E+03
       204  26 -5.838796E+02 -1.904212E+05 -5.225744E+03  1.554468E+04 -1.312859E+02  4.132132E+03
       204  27 -5.738844E+03 -2.114900E+05 -8.648009E+03  1.868050E+04 -1.325405E+03  1.702551E+03
       205   1  8.835692E+03 -1.521350E+05  2.875673E+03  1.908966E+04  2.177394E+03  2.747353E+03
       205   2  1.240679E+04 -1.306151E+05  6.178188E+03  1.321849E+04  2.567908E+03  2.741876E+03
       205   3  1.006503E+04 -1.105792E+05  8.004525E+03  1.271826E+04  8.820476E+02  2.737483E+03
       205   4  1.419025E+01 -1.890414E+05 -4.313114E+03  1.830701E+04  2.176225E+03  6.902694E+02
       205   5 -1.467569E+03 -1.880405E+05 -5.774090E+03  1.562408E+04  2.568457E+03  3.674118E+03
       205   6 -9.381529E+03 -1.890430E+05 -1.078765E+04  1.831217E+04  8.842271E+02  6.659000E+03
       205   7 -8.807389E+03 -2.259465E+05 -1.150195E+04  1.752440E+04  2.175061E+03 -1.366694E+03
       205   8 -1.534212E+04 -2.454627E+05 -1.772654E+04  1.802944E+04  2.569013E+03  4.606275E+03
       205   9 -2.882841E+04 -2.675010E+05 -2.958018E+04  2.390536E+04  8.864774E+02  1.058002E+04
       205  10  8.835685E+03 -1.521350E+05  2.875649E+03  1.908966E+04 -2.478129E-12 -8.529642E-11
       205  11  1.240678E+04 -1.306151E+05  6.178162E+03  1.321848E+04 -4.109598E-10  2.688181E-11
       205  12  1.006502E+04 -1.105792E+05  8.004510E+03  1.271826E+04 -1.910879E-12  1.160185E-10
       205  13  1.418503E+01 -1.890414E+05 -4.313124E+03  1.830701E+04 -2.242595E-11  6.317571E-11
       205  14 -1.467579E+03 -1.880405E+05 -5.774128E+03  1.562407E+04  7.545484E-11  4.209839E-11
       205  15 -9.381542E+03 -1.890430E+05 -1.078773E+04  1.831216E+04  1.906277E-11 -1.046818E-11
       205  16 -8.807395E+03 -2.259465E+05 -1.150196E+04  1.752441E+04  2.758271E-10  4.030707E-11
       205  17 -1.534213E+04 -2.454628E+05 -1.772660E+04  1.802943E+04 -1.734139E-10  3.339039E-11
       205  18 -2.882844E+04 -2.675011E+05 -2.958039E+04  2.390535E+04 -1.974718E-10 -7.838828E-11
       205  19  8.835692E+03 -1.521350E+05  2.875673E+03  1.908966E+04 -2.177394E+03 -2.747353E+03
       205  20  1.240679E+04 -1.306151E+05  6.178188E+03  1.321849E+04 -2.567908E+03 -2.741876E+03
       205  21  1.006503E+04 -1.105792E+05  8.004525E+03  1.271826E+04 -8.820476E+02 -2.737483E+03
       205  22  1.419025E+01 -1.890414E+05 -4.313114E+03  1.830701E+04 -2.176225E+03 -6.902694E+02
       205  23 -1.467569E+03 -1.880405E+05 -5.774090E+03  1.562408E+04 -2.568457E+03 -3.674118E+03
       205  24 -9.381529E+03 -1.890430E+05 -1.078765E+04  1.831217E+04 -8.842271E+02 -6.659000E+03
       205  25 -8.807389E+03 -2.259465E+05 -1.150195E+04  1.752440E+04 -2.175061E+03  1.366694E+03
       205  26 -1.534212E+04 -2.454627E+05 -1.772654E+04  1.802944E+04 -2.569013E+03 -4.606275E+03
       205  27 -2.882841E+04 -2.675010E+05 -2.958018E+04  2.390536E+04 -8.864774E+02 -1.058002E+04
       206   1  2.155214E+05  2.097674E+05  8.311357E+04  1.387658E+05  3.616757E+04  2.464970E+04
       206   2  2.061012E+05  1.617996E+05  4.978221E+04  1.459283E+05  2.485725E+04  1.056609E+04
       206   3  2.115592E+05  1.399512E+05  3.558175E+04  1.438193E+05  1.145649E+04 -7.259119E+02
       206   4  1.391121E+05  1.125527E+05  5.016251E+04  8.113228E+04  2.898056E+04  1.926259E+04
       206   5  1.241523E+05  8.575562E+04  2.399629E+04  9.639009E+04  2.169152E+04  8.193385E+03
       206   6  1.232006E+05  8.420717E+04  1.347423E+04  1.023757E+05  1.231184E+04 -8.506354E+01
       206   7  6.271125E+04  1.535298E+04  1.721131E+04  2.351005E+04  2.179482E+04  1.387736E+04
       206   8  4.221162E+04  9.719819E+03 -1.790082E+03  4.686073E+04  1.852637E+04  5.821289E+03
       206   9  3.485094E+04  2.846666E+04 -8.633869E+03  6.093854E+04  1.316703E+04  5.556782E+02
       206  10  2.155198E+05  2.097664E+05  8.310998E+04  1.387651E+05 -1.860776E-10 -6.106282E-11
       206  11  2.061005E+05  1.617993E+05  4.978084E+04  1.459281E+05 -3.659944E-10 -1.325483E-11
       206  12  2.115590E+05  1.399512E+05  3.558150E+04  1.438193E+05  7.725163E-11  9.975157E-12
       206  13  1.391111E+05  1.125521E+05  5.016023E+04  8.113183E+04  2.608287E-10  5.051356E-11
       206  14  1.241517E+05  8.575542E+04  2.399528E+04  9.638995E+04  3.046579E-11  9.222754E-11
       206  15  1.232004E+05  8.420713E+04  1.347394E+04  1.023757E+05 -9.600282E-12  1.311772E-11
       206  16  6.271069E+04  1.535265E+04  1.721006E+04  2.350980E+04  1.540227E-10  1.271233E-10
       206  17  4.221124E+04  9.719691E+03 -1.790790E+03  4.686065E+04  1.829606E-10  8.417339E-11
       206  18  3.485075E+04  2.846661E+04 -8.634195E+03  6.093853E+04 -2.614240E-11 -4.284742E-11
       206  19  2.155214E+05  2.097674E+05  8.311357E+04  1.387658E+05 -3.616757E+04 -2.464970E+04
       206  20  2.061012E+05  1.617996E+05  4.978221E+04  1.459283E+05 -2.485725E+04 -1.056609E+04
       206  21  2.115592E+05  1.399512E+05  3.558175E+04  1.438193E+05 -1.145649E+04  7.259119E+02
       206  22  1.391121E+05  1.125527E+05  5.016251E+04  8.113228E+04 -2.898056E+04 -1.926259E+04
       206  23  1.241523E+05  8.575562E+04  2.399629E+04  9.639009E+04 -2.169152E+04 -8.193385E+03
       206  24  1.232006E+05  8.420717E+04  1.347423E+04  1.023757E+05 -1.231184E+04  8.506354E+01
       206  25  6.271125E+04  1.535298E+04  1.721131E+04  2.351005E+04 -2.179482E+04 -1.387736E+04
       206  26  4.221162E+04  9.719819E+03 -1.790082E+03  4.686073E+04 -1.852637E+04 -5.821289E+03
       206  27  3.485094E+04  2.846666E+04 -8.633869E+03  6.093854E+04 -1.316703E+04 -5.556782E+02
       207   1  2.008322E+05  1.408118E+05  3.102090E+04  1.405381E+05  1.025201E+04 -1.073104E+03
       207   2  1.936169E+05  1.319571E+05  2.413001E+04  1.364311E+05  7.309527E+03 -2.731541E+03
       207   3  1.845399E+05  1.271584E+05  1.977057E+04  1.328683E+05  4.217946E+03 -4.191068E+03
       207   4  1.225764E+05  8.467804E+04  1.045548E+04  1.006655E+05  1.061223E+04 -8.033180E+02
       207   5  1.232187E+05  8.211210E+04  5.999442E+03  1.008199E+05  7.956648E+03 -2.246716E+03
       207   6  1.219373E+05  8.353987E+04  3.826258E+03  1.015186E+05  5.151958E+03 -3.491202E+03
       207   7  4.432625E+04  2.854721E+04 -1.011088E+04  6.079807E+04  1.097239E+04 -5.335749E+02
       207   8  5.282606E+04  3.227003E+04 -1.213153E+04  6.521347E+04  8.603670E+03 -1.761966E+03
       207   9  5.934023E+04  3.992426E+04 -1.211803E+04  7.017303E+04  6.085830E+03 -2.791441E+03
       207  10  2.008321E+05  1.408117E+05  3.102071E+04  1.405381E+05 -2.199883E-10 -1.037450E-10
       207  11  1.936169E+05  1.319571E+05  2.412989E+04  1.364311E+05 -3.815023E-10 -1.254906E-10
       207  12  1.845398E+05  1.271584E+05  1.977050E+04  1.328683E+05 -3.463767E-10 -1.353167E-10
       207  13  1.225762E+05  8.467801E+04  1.045527E+04  1.006655E+05  2.830564E-10 -3.596994E-11
       207  14  1.232186E+05  8.211208E+04  5.999313E+03  1.008200E+05  4.193625E-10 -1.777996E-11
       207  15  1.219373E+05  8.353985E+04  3.826186E+03  1.015186E+05  6.719637E-11  1.249980E-10
       207  16  4.432612E+04  2.854717E+04 -1.011111E+04  6.079807E+04  4.494324E-10  3.169329E-11
       207  17  5.282598E+04  3.227000E+04 -1.213167E+04  6.521348E+04  6.757084E-10  1.209758E-10
       207  18  5.934018E+04  3.992424E+04 -1.211811E+04  7.017304E+04  3.412212E-10  3.612271E-10
       207  19  2.008322E+05  1.408118E+05  3.102090E+04  1.405381E+05 -1.025201E+04  1.073104E+03
       207  20  1.936169E+05  1.319571E+05  2.413001E+04  1.364311E+05 -7.309527E+03  2.731541E+03
       207  21  1.845399E+05  1.271584E+05  1.977057E+04  1.328683E+05 -4.217946E+03  4.191068E+03
       207  22  1.225764E+05  8.467804E+04  1.045548E+04  1.006655E+05 -1.061223E+04  8.033180E+02
       207  23  1.232187E+05  8.211210E+04  5.999442E+03  1.008199E+05 -7.956648E+03  2.246716E+03
       207  24  1.219373E+05  8.353987E+04  3.826258E+03  1.015186E+05 -5.151958E+03  3.491202E+03
       207  25  4.432625E+04  2.854721E+04 -1.011088E+04  6.079807E+04 -1.097239E+04  5.335749E+02
       207  26  5.282606E+04  3.227003E+04 -1.213153E+04  6.521347E+04 -8.603670E+03  1.761966E+03
       207  27  5.934023E+04  3.992426E+04 -1.211803E+04  7.017303E+04 -6.085830E+03  2.791441E+03
       208   1  1.786716E+05  1.234625E+05  1.770236E+04  1.300343E+05  3.469548E+03 -4.161476E+03
       208   2  1.717347E+05  1.162052E+05  1.512174E+04  1.254556E+05  1.888008E+03 -4.362265E+03
       208   3  1.620953E+05  1.119884E+05  1.347475E+04  1.217624E+05  2.966130E+02 -4.549961E+03
       208   4  1.218891E+05  8.355057E+04  3.237599E+03  1.014276E+05  4.368119E+03 -3.488145E+03
       208   5  1.232427E+05  8.203248E+04  2.753180E+03  1.009849E+05  2.805570E+03 -3.674662E+03
       208   6  1.218896E+05  8.355097E+04  3.185996E+03  1.014278E+05  1.233136E+03 -3.848102E+03
       208   7  6.511014E+04  4.364047E+04 -1.122743E+04  7.282388E+04  5.266581E+03 -2.814896E+03
       208   8  7.475295E+04  4.786088E+04 -9.615697E+03  7.651631E+04  3.723044E+03 -2.987125E+03
       208   9  8.168506E+04  5.511401E+04 -7.103103E+03  8.109440E+04  2.169592E+03 -3.146294E+03
       208  10  1.786716E+05  1.234625E+05  1.770231E+04  1.300343E+05 -4.534315E-10 -1.128848E-10
       208  11  1.717347E+05  1.162052E+05  1.512170E+04  1.254556E+05 -4.592502E-10  1.855190E-10
       208  12  1.620953E+05  1.119884E+05  1.347471E+04  1.217624E+05 -3.872866E-10  5.979677E-10
       208  13  1.218890E+05  8.355055E+04  3.237540E+03  1.014276E+05 -5.242452E-10  1.690643E-10
       208  14  1.232427E+05  8.203247E+04  2.753139E+03  1.009849E+05 -4.854470E-10  2.741508E-10
       208  15  1.218896E+05  8.355095E+04  3.185965E+03  1.014278E+05 -4.222703E-11 -4.055691E-11
       208  16  6.511011E+04  4.364045E+04 -1.122750E+04  7.282390E+04  2.303408E-10  5.442937E-10
       208  17  7.475293E+04  4.786087E+04 -9.615740E+03  7.651632E+04 -1.081978E-10  3.259260E-10
       208  18  8.168505E+04  5.511400E+04 -7.103131E+03  8.109441E+04  1.727960E-10 -6.186161E-10
       208  19  1.786716E+05  1.234625E+05  1.770236E+04  1.300343E+05 -3.469548E+03  4.161476E+03
       208  20  1.717347E+05  1.162052E+05  1.512174E+04  1.254556E+05 -1.888008E+03  4.362265E+03
       208  21  1.620953E+05  1.119884E+05  1.347475E+04  1.217624E+05 -2.966130E+02  4.549961E+03
       208  22  1.218891E+05  8.355057E+04  3.237599E+03  1.014276E+05 -4.368119E+03  3.488145E+03
       208  23  1.232427E+05  8.203248E+04  2.753180E+03  1.009849E+05 -2.805570E+03  3.674662E+03
       208  24  1.218896E+05  8.355097E+04  3.185996E+03  1.014278E+05 -1.233136E+03  3.848102E+03
       208  25  6.511014E+04  4.364047E+04 -1.122743E+04  7.282388E+04 -5.266581E+03  2.814896E+03
       208  26  7.475295E+04  4.786088E+04 -9.615697E+03  7.651631E+04 -3.723044E+03  2.987125E+03
       208  27  8.168506E+04  5.511401E+04 -7.103103E+03  8.109440E+04 -2.169592E+03  3.146294E+03
       209   1  1.563401E+05  1.082769E+05  1.255956E+04  1.191120E+05 -4.783225E+02 -4.538389E+03
       209   2  1.498245E+05  1.006396E+05  1.257146E+04  1.141479E+05 -3.271281E+03 -5.625971E+03
       209   3  1.413425E+05  9.696713E+04  1.478711E+04  1.097400E+05 -6.055408E+03 -6.725206E+03
       209   4  1.219338E+05  8.354274E+04  3.744264E+03  1.015157E+05  4.577611E+02 -3.836840E+03
       209   5  1.232256E+05  8.211092E+04  5.833810E+03  1.008238E+05 -2.351956E+03 -4.936970E+03
       209   6  1.225544E+05  8.464750E+04  1.014163E+04  1.006878E+05 -5.152899E+03 -6.048799E+03
       209   7  8.752937E+04  5.880974E+04 -5.070930E+03  8.392080E+04  1.393761E+03 -3.135355E+03
       209   8  9.662771E+04  6.358285E+04 -9.038120E+02  8.750038E+04 -1.432692E+03 -4.248015E+03
       209   9  1.037667E+05  7.232805E+04  5.496140E+03  9.163593E+04 -4.250427E+03 -5.372416E+03
       209  10  1.563401E+05  1.082769E+05  1.255952E+04  1.191120E+05 -4.259474E-09 -2.553786E-09
       209  11  1.498245E+05  1.006395E+05  1.257138E+04  1.141479E+05  5.711824E-09  3.715537E-09
       209  12  1.413424E+05  9.696707E+04  1.478696E+04  1.097399E+05  8.825316E-09  5.266782E-09
       209  13  1.219338E+05  8.354273E+04  3.744236E+03  1.015157E+05  1.967309E-09  1.359699E-09
       209  14  1.232256E+05  8.211089E+04  5.833754E+03  1.008238E+05  5.293365E-09  3.512283E-09
       209  15  1.225544E+05  8.464745E+04  1.014152E+04  1.006878E+05  2.530099E-09  1.334600E-09
       209  16  8.752936E+04  5.880972E+04 -5.070952E+03  8.392080E+04  8.908394E-09  5.313736E-09
       209  17  9.662770E+04  6.358283E+04 -9.038498E+02  8.750037E+04  5.175651E-09  3.528171E-09
       209  18  1.037667E+05  7.232801E+04  5.496052E+03  9.163591E+04 -4.518249E-09 -2.618973E-09
       209  19  1.563401E+05  1.082769E+05  1.255956E+04  1.191120E+05  4.783225E+02  4.538389E+03
       209  20  1.498245E+05  1.006396E+05  1.257146E+04  1.141479E+05  3.271281E+03  5.625971E+03
       209  21  1.413425E+05  9.696713E+04  1.478711E+04  1.097400E+05  6.055408E+03  6.725206E+03
       209  22  1.219338E+05  8.354274E+04  3.744264E+03  1.015157E+05 -4.577611E+02  3.836840E+03
       209  23  1.232256E+05  8.211092E+04  5.833810E+03  1.008238E+05  2.351956E+03  4.936970E+03
       209  24  1.225544E+05  8.464750E+04  1.014163E+04  1.006878E+05  5.152899E+03  6.048799E+03
       209  25  8.752937E+04  5.880974E+04 -5.070930E+03  8.392080E+04 -1.393761E+03  3.135355E+03
       209  26  9.662771E+04  6.358285E+04 -9.038120E+02  8.750038E+04  1.432692E+03  4.248015E+03
       209  27  1.037667E+05  7.232805E+04  5.496140E+03  9.163593E+04  4.250427E+03  5.372416E+03
       210   1  1.320612E+05  9.688615E+04  1.623172E+04  1.098496E+05 -7.759391E+03 -7.412381E+03
       210   2  1.389498E+05  7.842477E+04  2.425279E+04  9.577594E+04 -1.759547E+04 -1.390953E+04
       210   3  1.590822E+05  8.464185E+04  4.721161E+04  7.279753E+04 -2.729985E+04 -2.058238E+04
       210   4  1.231202E+05  8.423125E+04  1.306328E+04  1.023562E+05 -6.825939E+03 -6.712678E+03
       210   5  1.241822E+05  8.559380E+04  2.325334E+04  9.651718E+04 -1.691549E+04 -1.340037E+04
       210   6  1.385423E+05  1.116893E+05  4.860123E+04  8.177362E+04 -2.687303E+04 -2.026422E+04
       210   7  1.141792E+05  7.157642E+04  9.894766E+03  9.486281E+04 -5.892490E+03 -6.012995E+03
       210   8  1.094150E+05  9.276311E+04  2.225396E+04  9.725833E+04 -1.623554E+04 -1.289119E+04
       210   9  1.180043E+05  1.387385E+05  4.999117E+04  9.074914E+04 -2.644623E+04 -1.994602E+04
       210  10  1.320611E+05  9.688607E+04  1.623151E+04  1.098496E+05  5.819090E-10 -6.599776E-10
       210  11  1.389494E+05  7.842448E+04  2.425184E+04  9.577574E+04  3.814423E-10  1.606200E-10
       210  12  1.590813E+05  8.464119E+04  4.720941E+04  7.279708E+04  4.153806E-10  4.474071E-10
       210  13  1.231202E+05  8.423119E+04  1.306311E+04  1.023561E+05 -7.016230E-11 -5.177838E-11
       210  14  1.241819E+05  8.559353E+04  2.325247E+04  9.651700E+04 -6.196868E-10  1.950084E-10
       210  15  1.385414E+05  1.116886E+05  4.859910E+04  8.177318E+04  3.440048E-11 -1.340601E-11
       210  16  1.141792E+05  7.157637E+04  9.894633E+03  9.486278E+04 -4.917175E-10  6.364331E-10
       210  17  1.094147E+05  9.276286E+04  2.225316E+04  9.725816E+04 -5.906879E-10  1.346001E-10
       210  18  1.180034E+05  1.387379E+05  4.998911E+04  9.074872E+04 -5.990872E-10 -2.646187E-10
       210  19  1.320612E+05  9.688615E+04  1.623172E+04  1.098496E+05  7.759391E+03  7.412381E+03
       210  20  1.389498E+05  7.842477E+04  2.425279E+04  9.577594E+04  1.759547E+04  1.390953E+04
       210  21  1.590822E+05  8.464185E+04  4.721161E+04  7.279753E+04  2.729985E+04  2.058238E+04
       210  22  1.231202E+05  8.423125E+04  1.306328E+04  1.023562E+05  6.825939E+03  6.712678E+03
       210  23  1.241822E+05  8.559380E+04  2.325334E+04  9.651718E+04  1.691549E+04  1.340037E+04
       210  24  1.385423E+05  1.116893E+05  4.860123E+04  8.177362E+04  2.687303E+04  2.026422E+04
       210  25  1.141792E+05  7.157642E+04  9.894766E+03  9.486281E+04  5.892490E+03  6.012995E+03
       210  26  1.094150E+05  9.276311E+04  2.225396E+04  9.725833E+04  1.623554E+04  1.289119E+04
       210  27  1.180043E+05  1.387385E+05  4.999117E+04  9.074914E+04  2.644623E+04  1.994602E+04
       211   1  5.648387E+05  1.170582E+05  1.087619E+05  7.425892E+04  1.478691E+04 -7.109736E+03
       211   2  4.663340E+05  1.078176E+05  8.253789E+04  6.927526E+04  2.119813E+02 -2.213717E+04
       211   3  3.669018E+05  8.704796E+04  6.292111E+04  8.954639E+04 -1.435536E+04 -2.262009E+04
       211   4  1.574035E+03 -2.238676E+04 -2.534754E+04  8.757018E+04 -1.734058E+04 -7.103099E+03
       211   5  3.876576E+03 -3.615416E+03 -1.229129E+04  7.494340E+04 -1.095858E+04 -2.213709E+04
       211   6  1.603030E+03 -1.486420E+01 -7.177331E+03  8.757341E+04 -4.571257E+03 -2.262128E+04
       211   7 -5.613971E+05 -1.618534E+05 -1.594753E+05  1.008693E+05 -4.943907E+04 -7.097837E+03
       211   8 -4.583775E+05 -1.150617E+05 -1.071314E+05  8.060723E+04 -2.212098E+04 -2.213722E+04
       211   9 -3.635672E+05 -8.708551E+04 -7.728154E+04  8.560160E+04  5.207230E+03 -2.262254E+04
       211  10  5.648385E+05  1.170581E+05  1.087614E+05  7.425901E+04  3.057639E-10  2.226170E-12
       211  11  4.663339E+05  1.078171E+05  8.253697E+04  6.927526E+04 -3.843263E-10 -1.197511E-10
       211  12  3.669015E+05  8.704735E+04  6.291977E+04  8.954613E+04 -1.044425E-10  2.106392E-10
       211  13  1.573699E+03 -2.238689E+04 -2.534820E+04  8.757008E+04 -1.373560E-10  6.220393E-11
       211  14  3.876315E+03 -3.615975E+03 -1.229244E+04  7.494320E+04 -3.045431E-10  3.622830E-11
       211  15  1.602870E+03 -1.541930E+01 -7.178332E+03  8.757332E+04  1.229317E-10  1.573736E-10
       211  16 -5.613998E+05 -1.618541E+05 -1.594800E+05  1.008690E+05  2.442620E-11 -1.260941E-12
       211  17 -4.583781E+05 -1.150624E+05 -1.071332E+05  8.060684E+04  6.269934E-10  1.226590E-10
       211  18 -3.635673E+05 -8.708607E+04 -7.728255E+04  8.560169E+04  7.602749E-11  2.235844E-11
       211  19  5.648387E+05  1.170582E+05  1.087619E+05  7.425892E+04 -1.478691E+04  7.109736E+03
       211  20  4.663340E+05  1.078176E+05  8.253789E+04  6.927526E+04 -2.119813E+02  2.213717E+04
       211  21  3.669018E+05  8.704796E+04  6.292111E+04  8.954639E+04  1.435536E+04  2.262009E+04
       211  22  1.574035E+03 -2.238676E+04 -2.534754E+04  8.757018E+04  1.734058E+04  7.103099E+03
       211  23  3.876576E+03 -3.615416E+03 -1.229129E+04  7.494340E+04  1.095858E+04  2.213709E+04
       211  24  1.603030E+03 -1.486420E+01 -7.177331E+03  8.757341E+04  4.571257E+03  2.262128E+04
       211  25 -5.613971E+05 -1.618534E+05 -1.594753E+05  1.008693E+05  4.943907E+04  7.097837E+03
       211  26 -4.583775E+05 -1.150617E+05 -1.071314E+05  8.060723E+04  2.212098E+04  2.213722E+04
       211  27 -3.635672E+05 -8.708551E+04 -7.728154E+04  8.560160E+04 -5.207230E+03  2.262254E+04
       212   1  3.002954E+05  7.007026E+04  5.118098E+04  8.742206E+04 -1.079796E+04 -1.861355E+04
       212   2  2.015461E+05  4.717910E+04  3.342889E+04  7.457404E+04 -1.023582E+04 -1.311813E+04
       212   3  1.026269E+05  2.380544E+04  1.519330E+04  8.784871E+04 -9.674691E+03 -6.641405E+03
       212   4  2.534019E+03 -8.664730E+02 -5.796260E+03  8.776512E+04 -3.587449E+03 -1.861410E+04
       212   5  2.753512E+03 -5.335700E+01 -3.965750E+03  7.470346E+04 -1.613171E+03 -1.311798E+04
       212   6  2.546724E+03  3.202778E+01 -3.600066E+03  8.776507E+04  3.601601E+02 -6.640367E+03
       212   7 -2.951419E+05 -7.180841E+04 -6.277734E+04  8.810800E+04  3.619684E+03 -1.861464E+04
       212   8 -1.960008E+05 -4.728807E+04 -4.136183E+04  7.483284E+04  7.006785E+03 -1.311782E+04
       212   9 -9.752356E+04 -2.374191E+04 -2.239349E+04  8.768144E+04  1.039343E+04 -6.639332E+03
       212  10  3.002952E+05  7.006986E+04  5.118011E+04  8.742190E+04  2.685630E-11  2.241165E-10
       212  11  2.015460E+05  4.717889E+04  3.342837E+04  7.457393E+04 -3.170569E-10 -1.413590E-10
       212  12  1.026268E+05  2.380537E+04  1.519304E+04  8.784866E+04  1.230087E-10 -3.021069E-11
       212  13  2.533912E+03 -8.668485E+02 -5.796935E+03  8.776506E+04  1.328663E-10  1.924486E-10
       212  14  2.753463E+03 -5.354248E+01 -3.966078E+03  7.470344E+04 -8.184939E-10  1.095253E-11
       212  15  2.546712E+03  3.198039E+01 -3.600149E+03  8.776507E+04 -1.497937E-10  1.502166E-11
       212  16 -2.951420E+05 -7.180879E+04 -6.277802E+04  8.810806E+04 -1.378948E-10  7.689703E-11
       212  17 -1.960009E+05 -4.728827E+04 -4.136225E+04  7.483292E+04  4.648704E-10  2.813815E-10
       212  18 -9.752369E+04 -2.374199E+04 -2.239378E+04  8.768150E+04  3.609414E-11  1.480481E-11
       212  19  3.002954E+05  7.007026E+04  5.118098E+04  8.742206E+04  1.079796E+04  1.861355E+04
       212  20  2.015461E+05  4.717910E+04  3.342889E+04  7.457404E+04  1.023582E+04  1.311813E+04
       212  21  1.026269E+05  2.380544E+04  1.519330E+04  8.784871E+04  9.674691E+03  6.641405E+03
       212  22  2.534019E+03 -8.664730E+02 -5.796260E+03  8.776512E+04  3.587449E+03  1.861410E+04
       212  23  2.753512E+03 -5.335700E+01 -3.965750E+03  7.470346E+04  1.613171E+03  1.311798E+04
       212  24  2.546724E+03  3.202778E+01 -3.600066E+03  8.776507E+04 -3.601601E+02  6.640367E+03
       212  25 -2.951419E+05 -7.180841E+04 -6.277734E+04  8.810800E+04 -3.619684E+03  1.861464E+04
       212  26 -1.960008E+05 -4.728807E+04 -4.136183E+04  7.483284E+04 -7.006785E+03  1.311782E+04
       212  27 -9.752356E+04 -2.374191E+04 -2.239349E+04  8.768144E+04 -1.039343E+04  6.639332E+03
       213   1  3.560282E+04  7.859756E+03  2.074936E+03  8.754766E+04 -8.979038E+03 -2.521867E+03
       213   2 -6.281788E+04 -1.574307E+04 -1.786572E+04  7.483141E+04 -5.305037E+03  4.052009E+03
       213   3 -1.620281E+05 -4.064323E+04 -4.052289E+04  8.825316E+04 -1.631280E+03  9.893359E+03
       213   4  2.506767E+03  5.863251E+01 -3.835800E+03  8.776831E+04  1.014063E+03 -2.520677E+03
       213   5  2.811721E+03 -9.494406E+01 -5.256936E+03  7.469944E+04  3.632898E+03  4.052834E+03
       213   6  2.502596E+03 -1.361664E+03 -8.661134E+03  8.776844E+04  6.252032E+03  9.893875E+03
       213   7 -3.058800E+04 -7.742498E+03 -9.746203E+03  8.798895E+04  1.100665E+04 -2.519480E+03
       213   8  6.844564E+04  1.555297E+04  7.351955E+03  7.456747E+04  1.257176E+04  4.053654E+03
       213   9  1.670595E+05  3.791832E+04  2.319958E+04  8.728360E+04  1.413739E+04  9.894378E+03
       213  10  3.560273E+04  7.859728E+03  2.074773E+03  8.754764E+04  1.155191E-11  5.360621E-11
       213  11 -6.281791E+04 -1.574310E+04 -1.786581E+04  7.483143E+04 -4.050003E-10  4.848221E-11
       213  12 -1.620282E+05 -4.064333E+04 -4.052307E+04  8.825317E+04  1.075359E-10  2.659904E-11
       213  13  2.506765E+03  5.862541E+01 -3.835814E+03  8.776831E+04 -3.254746E-12 -1.578500E-10
       213  14  2.811702E+03 -9.496524E+01 -5.256991E+03  7.469943E+04 -2.747065E-10 -1.577265E-10
       213  15  2.502528E+03 -1.361780E+03 -8.661391E+03  8.776839E+04  4.996124E-11 -2.055139E-11
       213  16 -3.058813E+04 -7.742537E+03 -9.746443E+03  8.798897E+04 -1.381603E-10 -1.478116E-10
       213  17  6.844546E+04  1.555291E+04  7.351627E+03  7.456743E+04  3.559053E-10 -2.666082E-10
       213  18  1.670592E+05  3.791816E+04  2.319902E+04  8.728348E+04  2.658172E-11 -1.252943E-10
       213  19  3.560282E+04  7.859756E+03  2.074936E+03  8.754766E+04  8.979038E+03  2.521867E+03
       213  20 -6.281788E+04 -1.574307E+04 -1.786572E+04  7.483141E+04  5.305037E+03 -4.052009E+03
       213  21 -1.620281E+05 -4.064323E+04 -4.052289E+04  8.825316E+04  1.631280E+03 -9.893359E+03
       213  22  2.506767E+03  5.863251E+01 -3.835800E+03  8.776831E+04 -1.014063E+03  2.520677E+03
       213  23  2.811721E+03 -9.494406E+01 -5.256936E+03  7.469944E+04 -3.632898E+03 -4.052834E+03
       213  24  2.502596E+03 -1.361664E+03 -8.661134E+03  8.776844E+04 -6.252032E+03 -9.893875E+03
       213  25 -3.058800E+04 -7.742498E+03 -9.746203E+03  8.798895E+04 -1.100665E+04  2.519480E+03
       213  26  6.844564E+04  1.555297E+04  7.351955E+03  7.456747E+04 -1.257176E+04 -4.053654E+03
       213  27  1.670595E+05  3.791832E+04  2.319958E+04  8.728360E+04 -1.413739E+04 -9.894378E+03
       214   1 -2.308976E+05 -5.535616E+04 -5.595447E+04  8.439822E+04 -2.144711E+03  1.392951E+04
       214   2 -3.247054E+05 -8.523304E+04 -8.759252E+04  8.383683E+04  2.420980E+04  1.514042E+04
       214   3 -4.286862E+05 -1.422018E+05 -1.431622E+05  1.087395E+05  5.055735E+04  5.054028E+03
       214   4  9.997899E+02  1.475891E+01 -1.103074E+04  8.761965E+04  7.730426E+03  1.392974E+04
       214   5  4.666018E+03 -5.712208E+03 -1.942688E+04  7.488616E+04  1.782723E+04  1.513952E+04
       214   6  9.791290E+02 -3.569968E+04 -4.045699E+04  8.761798E+04  2.792163E+04  5.053705E+03
       214   7  2.329491E+05  5.538256E+04  3.389083E+04  9.084231E+04  1.760917E+04  1.393007E+04
       214   8  3.341405E+05  7.380207E+04  4.873306E+04  6.593064E+04  1.144134E+04  1.513881E+04
       214   9  4.308158E+05  7.079105E+04  6.223739E+04  6.648178E+04  5.270292E+03  5.054924E+03
       214  10 -2.308977E+05 -5.535637E+04 -5.595484E+04  8.439824E+04 -3.763290E-10  1.495537E-11
       214  11 -3.247060E+05 -8.523344E+04 -8.759405E+04  8.383654E+04 -7.383348E-10 -7.562557E-11
       214  12 -4.286889E+05 -1.422026E+05 -1.431671E+05  1.087393E+05  6.422406E-11  1.893308E-11
       214  13  9.996736E+02  1.453453E+01 -1.103122E+04  8.761956E+04  2.671434E-10  7.345574E-11
       214  14  4.665615E+03 -5.712539E+03 -1.942791E+04  7.488594E+04  1.129398E-10  7.448131E-11
       214  15  9.782850E+02 -3.569992E+04 -4.045851E+04  8.761787E+04  2.426857E-11  8.973888E-11
       214  16  2.329488E+05  5.538227E+04  3.388988E+04  9.084211E+04 -7.338298E-11 -2.272538E-11
       214  17  3.341403E+05  7.380179E+04  4.873239E+04  6.593050E+04  5.597036E-10  6.838027E-11
       214  18  4.308157E+05  7.079102E+04  6.223729E+04  6.648176E+04 -3.135704E-11  3.821116E-11
       214  19 -2.308976E+05 -5.535616E+04 -5.595447E+04  8.439822E+04  2.144711E+03 -1.392951E+04
       214  20 -3.247054E+05 -8.523304E+04 -8.759252E+04  8.383683E+04 -2.420980E+04 -1.514042E+04
       214  21 -4.286862E+05 -1.422018E+05 -1.431622E+05  1.087395E+05 -5.055735E+04 -5.054028E+03
       214  22  9.997899E+02  1.475891E+01 -1.103074E+04  8.761965E+04 -7.730426E+03 -1.392974E+04
       214  23  4.666018E+03 -5.712208E+03 -1.942688E+04  7.488616E+04 -1.782723E+04 -1.513952E+04
       214  24  9.791290E+02 -3.569968E+04 -4.045699E+04  8.761798E+04 -2.792163E+04 -5.053705E+03
       214  25  2.329491E+05  5.538256E+04  3.389083E+04  9.084231E+04 -1.760917E+04 -1.393007E+04
       214  26  3.341405E+05  7.380207E+04  4.873306E+04  6.593064E+04 -1.144134E+04 -1.513881E+04
       214  27  4.308158E+05  7.079105E+04  6.223739E+04  6.648178E+04 -5.270292E+03 -5.054924E+03
       215   1 -1.224426E+05 -4.276238E+05 -1.253337E+05  1.114464E+05 -3.571265E+03 -4.708554E+04
       215   2 -6.231527E+04 -3.233504E+05 -7.057880E+04  8.489405E+04 -1.002013E+04 -2.285638E+04
       215   3 -3.184064E+04 -2.296588E+05 -3.902257E+04  8.399306E+04 -7.613976E+03  1.373579E+03
       215   4 -4.025676E+04 -9.620216E+04 -4.578034E+04  8.770601E+04 -3.560726E+03 -3.141904E+04
       215   5 -6.355743E+03 -9.200689E+04 -2.211172E+04  7.486837E+04 -1.001775E+04 -1.992964E+04
       215   6  1.117976E+02 -9.618573E+04 -1.278562E+04  8.768406E+04 -7.620189E+03 -8.443703E+03
       215   7  4.192333E+04  2.353219E+05  3.376648E+04  6.395286E+04 -3.551389E+03 -1.574421E+04
       215   8  4.960074E+04  1.393875E+05  2.635248E+04  6.483889E+04 -1.001546E+04 -1.700182E+04
       215   9  3.206326E+04  3.730467E+04  1.345083E+04  9.137586E+04 -7.626517E+03 -1.826305E+04
       215  10 -1.224432E+05 -4.276262E+05 -1.253379E+05  1.114463E+05 -5.755610E-11 -2.386840E-10
       215  11 -6.231552E+04 -3.233510E+05 -7.057997E+04  8.489386E+04  6.584090E-11 -3.077311E-11
       215  12 -3.184070E+04 -2.296588E+05 -3.902268E+04  8.399307E+04  1.938917E-10  3.219160E-10
       215  13 -4.025704E+04 -9.620322E+04 -4.578222E+04  8.770592E+04 -6.027469E-10  7.808646E-12
       215  14 -6.355957E+03 -9.200734E+04 -2.211265E+04  7.486821E+04  3.554511E-10  1.892355E-10
       215  15  1.117161E+02 -9.618583E+04 -1.278587E+04  8.768401E+04 -1.315234E-10  8.267736E-11
       215  16  4.192325E+04  2.353216E+05  3.376599E+04  6.395281E+04 -1.258028E-10  3.059606E-10
       215  17  4.960056E+04  1.393872E+05  2.635174E+04  6.483875E+04 -5.050310E-10  6.878364E-12
       215  18  3.206311E+04  3.730430E+04  1.345009E+04  9.137575E+04 -1.945998E-10 -3.927535E-10
       215  19 -1.224426E+05 -4.276238E+05 -1.253337E+05  1.114464E+05  3.571265E+03  4.708554E+04
       215  20 -6.231527E+04 -3.233504E+05 -7.057880E+04  8.489405E+04  1.002013E+04  2.285638E+04
       215  21 -3.184064E+04 -2.296588E+05 -3.902257E+04  8.399306E+04  7.613976E+03 -1.373579E+03
       215  22 -4.025676E+04 -9.620216E+04 -4.578034E+04  8.770601E+04  3.560726E+03  3.141904E+04
       215  23 -6.355743E+03 -9.200689E+04 -2.211172E+04  7.486837E+04  1.001775E+04  1.992964E+04
       215  24  1.117976E+02 -9.618573E+04 -1.278562E+04  8.768406E+04  7.620189E+03  8.443703E+03
       215  25  4.192333E+04  2.353219E+05  3.376648E+04  6.395286E+04  3.551389E+03  1.574421E+04
       215  26  4.960074E+04  1.393875E+05  2.635248E+04  6.483889E+04  1.001546E+04  1.700182E+04
       215  27  3.206326E+04  3.730467E+04  1.345083E+04  9.137586E+04  7.626517E+03  1.826305E+04
       216   1 -1.729044E+04 -1.606259E+05 -2.341078E+04  8.838461E+04 -3.558231E+03  1.658056E+03
       216   2  7.696122E+03 -6.129216E+04 -5.736113E+02  7.480485E+04  2.199733E+03  4.838428E+03
       216   3  3.112548E+04  3.721610E+04  1.979407E+04  8.735814E+04  7.843110E+03  8.019513E+03
       216   4 -1.428434E+03 -9.451423E+04 -1.021732E+04  8.779430E+04 -3.563723E+03 -6.711861E+03
       216   5 -9.068411E+01 -9.408359E+04 -6.712914E+03  7.472735E+04  2.194473E+03 -3.366848E+03
       216   6 -3.381512E+02 -9.451621E+04 -5.791928E+03  8.779360E+04  7.838061E+03 -2.160452E+01
       216   7  1.443334E+04 -2.839826E+04  2.976193E+03  8.720393E+04 -3.569200E+03 -1.508265E+04
       216   8 -7.877517E+03 -1.268738E+05 -1.285201E+04  7.464984E+04  2.189215E+03 -1.157170E+04
       216   9 -3.180279E+04 -2.262317E+05 -3.137850E+04  8.822897E+04  7.832999E+03 -8.061054E+03
       216  10 -1.729046E+04 -1.606259E+05 -2.341081E+04  8.838462E+04  8.343312E-11 -1.673927E-10
       216  11  7.696111E+03 -6.129219E+04 -5.736643E+02  7.480484E+04 -1.004106E-10 -3.286591E-11
       216  12  3.112540E+04  3.721601E+04  1.979384E+04  8.735808E+04 -1.286292E-10  1.368944E-10
       216  13 -1.428460E+03 -9.451429E+04 -1.021742E+04  8.779428E+04  7.137609E-11  2.597186E-12
       216  14 -9.069233E+01 -9.408360E+04 -6.712944E+03  7.472735E+04  2.059889E-10  1.046851E-10
       216  15 -3.382172E+02 -9.451623E+04 -5.792043E+03  8.779360E+04  6.639454E-10  1.188122E-10
       216  16  1.443327E+04 -2.839851E+04  2.975742E+03  8.720388E+04  1.511379E-10  2.127631E-10
       216  17 -7.877558E+03 -1.268740E+05 -1.285227E+04  7.464986E+04  6.709802E-10  6.288834E-11
       216  18 -3.180287E+04 -2.262318E+05 -3.137874E+04  8.822902E+04  1.534323E-10 -2.083048E-10
       216  19 -1.729044E+04 -1.606259E+05 -2.341078E+04  8.838461E+04  3.558231E+03 -1.658056E+03
       216  20  7.696122E+03 -6.129216E+04 -5.736113E+02  7.480485E+04 -2.199733E+03 -4.838428E+03
       216  21  3.112548E+04  3.721610E+04  1.979407E+04  8.735814E+04 -7.843110E+03 -8.019513E+03
       216  22 -1.428434E+03 -9.451423E+04 -1.021732E+04  8.779430E+04  3.563723E+03  6.711861E+03
       216  23 -9.068411E+01 -9.408359E+04 -6.712914E+03  7.472735E+04 -2.194473E+03  3.366848E+03
       216  24 -3.381512E+02 -9.451621E+04 -5.791928E+03  8.779360E+04 -7.838061E+03  2.160452E+01
       216  25  1.443334E+04 -2.839826E+04  2.976193E+03  8.720393E+04  3.569200E+03  1.508265E+04
       216  26 -7.877517E+03 -1.268738E+05 -1.285201E+04  7.464984E+04 -2.189215E+03  1.157170E+04
       216  27 -3.180279E+04 -2.262317E+05 -3.137850E+04  8.822897E+04 -7.832999E+03  8.061054E+03
       217   1  4.764935E+04  1.042364E+05  3.272019E+04  8.879821E+04  1.188654E+04  1.070756E+04
       217   2  6.971430E+04  2.033071E+05  5.367715E+04  7.167600E+04  1.344817E+04 -2.611656E+02
       217   3  8.560778E+04  3.022590E+05  8.022710E+04  8.009770E+04  4.548137E+03 -1.122772E+04
       217   4  8.217793E+01 -9.493835E+04 -5.936120E+03  8.766202E+04  1.188072E+04  9.141015E+02
       217   5 -1.975219E+03 -9.357631E+04 -7.929950E+03  7.489272E+04  1.345158E+04  5.013267E+03
       217   6 -1.282084E+04 -9.495764E+04 -1.479400E+04  8.766862E+04  4.558343E+03  9.116130E+03
       217   7 -4.748730E+04 -2.940748E+05 -4.459394E+04  8.652620E+04  1.187493E+04 -8.876290E+03
       217   8 -7.367028E+04 -3.903762E+05 -6.954176E+04  7.810786E+04  1.345504E+04  1.028522E+04
       217   9 -1.112604E+05 -4.920287E+05 -1.098247E+05  9.523465E+04  4.569048E+03  2.944702E+04
       217  10  4.764916E+04  1.042362E+05  3.271971E+04  8.879811E+04  8.401651E-12 -2.336301E-10
       217  11  6.971410E+04  2.033071E+05  5.367681E+04  7.167600E+04 -2.273545E-10 -6.194398E-11
       217  12  8.560772E+04  3.022589E+05  8.022683E+04  8.009774E+04 -8.313527E-11  2.107974E-10
       217  13  8.202614E+01 -9.493839E+04 -5.936387E+03  8.766201E+04  1.439341E-10  4.406524E-11
       217  14 -1.975420E+03 -9.357639E+04 -7.930338E+03  7.489266E+04  7.359749E-11  3.894528E-11
       217  15 -1.282088E+04 -9.495774E+04 -1.479419E+04  8.766859E+04 -7.638740E-12  7.738354E-11
       217  16 -4.748748E+04 -2.940749E+05 -4.459435E+04  8.652629E+04  4.089131E-10  2.859172E-10
       217  17 -7.367050E+04 -3.903763E+05 -6.954229E+04  7.810775E+04 -1.264186E-10  1.697313E-10
       217  18 -1.112607E+05 -4.920297E+05 -1.098263E+05  9.523454E+04 -9.095151E-11 -1.896426E-10
       217  19  4.764935E+04  1.042364E+05  3.272019E+04  8.879821E+04 -1.188654E+04 -1.070756E+04
       217  20  6.971430E+04  2.033071E+05  5.367715E+04  7.167600E+04 -1.344817E+04  2.611656E+02
       217  21  8.560778E+04  3.022590E+05  8.022710E+04  8.009770E+04 -4.548137E+03  1.122772E+04
       217  22  8.217793E+01 -9.493835E+04 -5.936120E+03  8.766202E+04 -1.188072E+04 -9.141015E+02
       217  23 -1.975219E+03 -9.357631E+04 -7.929950E+03  7.489272E+04 -1.345158E+04 -5.013267E+03
       217  24 -1.282084E+04 -9.495764E+04 -1.479400E+04  8.766862E+04 -4.558343E+03 -9.116130E+03
       217  25 -4.748730E+04 -2.940748E+05 -4.459394E+04  8.652620E+04 -1.187493E+04  8.876290E+03
       217  26 -7.367028E+04 -3.903762E+05 -6.954176E+04  7.810786E+04 -1.345504E+04 -1.028522E+04
       217  27 -1.112604E+05 -4.920287E+05 -1.098247E+05  9.523465E+04 -4.569048E+03 -2.944702E+04
       218   1  4.134270E+05  3.632751E+05  1.182731E+05  2.819464E+05  5.350301E+04  3.720903E+04
       218   2  4.001786E+05  2.895702E+05  6.821044E+04  2.939106E+05  3.613210E+04  1.762800E+04
       218   3  4.104193E+05  2.561003E+05  4.690971E+04  2.911870E+05  1.624602E+04  1.404706E+03
       218   4  3.312266E+05  2.374063E+05  7.876514E+04  2.101423E+05  4.502768E+04  3.085181E+04
       218   5  3.075122E+05  1.955658E+05  3.770467E+04  2.341670E+05  3.249495E+04  1.490042E+04
       218   6  3.062417E+05  1.929145E+05  2.121272E+04  2.435027E+05  1.744709E+04  2.304949E+03
       218   7  2.490358E+05  1.115615E+05  3.925660E+04  1.383533E+05  3.655376E+04  2.449740E+04
       218   8  2.148550E+05  1.015726E+05  7.197657E+03  1.744349E+05  2.885849E+04  1.217367E+04
       218   9  2.020749E+05  1.297320E+05 -4.485601E+03  1.958263E+05  1.864790E+04  3.205038E+03
       218  10  4.134236E+05  3.632728E+05  1.182651E+05  2.819448E+05  6.809724E-11  5.570959E-11
       218  11  4.001772E+05  2.895695E+05  6.820741E+04  2.939101E+05 -1.039834E-10 -8.880317E-11
       218  12  4.104190E+05  2.561003E+05  4.690921E+04  2.911869E+05  6.237839E-10 -6.880409E-11
       218  13  3.312241E+05  2.374047E+05  7.875955E+04  2.101412E+05 -1.336040E-10  7.315064E-11
       218  14  3.075110E+05  1.955653E+05  3.770227E+04  2.341666E+05  3.538916E-10  2.295287E-11
       218  15  3.062414E+05  1.929144E+05  2.121214E+04  2.435027E+05  3.984927E-11 -9.721107E-11
       218  16  2.490342E+05  1.115605E+05  3.925296E+04  1.383526E+05 -8.282032E-11 -1.420605E-10
       218  17  2.148540E+05  1.015723E+05  7.195815E+03  1.744346E+05 -2.992940E-10 -2.702035E-12
       218  18  2.020745E+05  1.297319E+05 -4.486273E+03  1.958262E+05 -3.356646E-10 -2.197262E-10
       218  19  4.134270E+05  3.632751E+05  1.182731E+05  2.819464E+05 -5.350301E+04 -3.720903E+04
       218  20  4.001786E+05  2.895702E+05  6.821044E+04  2.939106E+05 -3.613210E+04 -1.762800E+04
       218  21  4.104193E+05  2.561003E+05  4.690971E+04  2.911870E+05 -1.624602E+04 -1.404706E+03
       218  22  3.312266E+05  2.374063E+05  7.876514E+04  2.101423E+05 -4.502768E+04 -3.085181E+04
       218  23  3.075122E+05  1.955658E+05  3.770467E+04  2.341670E+05 -3.249495E+04 -1.490042E+04
       218  24  3.062417E+05  1.929145E+05  2.121272E+04  2.435027E+05 -1.744709E+04 -2.304949E+03
       218  25  2.490358E+05  1.115615E+05  3.925660E+04  1.383533E+05 -3.655376E+04 -2.449740E+04
       218  26  2.148550E+05  1.015726E+05  7.197657E+03  1.744349E+05 -2.885849E+04 -1.217367E+04
       218  27  2.020749E+05  1.297320E+05 -4.485601E+03  1.958263E+05 -1.864790E+04 -3.205038E+03
       219   1  3.946641E+05  2.581883E+05  4.006530E+04  2.865639E+05  1.420917E+04  6.548663E+02
       219   2  3.845995E+05  2.456403E+05  2.982011E+04  2.809507E+05  9.648455E+03 -1.920165E+03
       219   3  3.721214E+05  2.389136E+05  2.350028E+04  2.760399E+05  4.908902E+03 -4.256311E+03
       219   4  3.052788E+05  1.936339E+05  1.649209E+04  2.408122E+05  1.481424E+04  1.108226E+03
       219   5  3.060211E+05  1.898663E+05  9.554634E+03  2.411326E+05  1.059827E+04 -1.208321E+03
       219   6  3.042752E+05  1.918454E+05  6.244053E+03  2.421554E+05  6.203303E+03 -3.286074E+03
       219   7  2.159039E+05  1.290855E+05 -7.081316E+03  1.950687E+05  1.541919E+04  1.561488E+03
       219   8  2.274505E+05  1.340965E+05 -1.071112E+04  2.013207E+05  1.154791E+04 -4.966044E+02
       219   9  2.364343E+05  1.447799E+05 -1.101252E+04  2.082751E+05  7.497514E+03 -2.315977E+03
       219  10  3.946639E+05  2.581882E+05  4.006492E+04  2.865639E+05  6.988062E-11 -2.192235E-10
       219  11  3.845994E+05  2.456403E+05  2.981993E+04  2.809507E+05  1.511765E-11  2.260347E-10
       219  12  3.721214E+05  2.389135E+05  2.350020E+04  2.760400E+05 -2.662779E-10  3.773337E-10
       219  13  3.052785E+05  1.936338E+05  1.649167E+04  2.408121E+05 -1.838758E-10 -7.454062E-11
       219  14  3.060210E+05  1.898663E+05  9.554420E+03  2.411326E+05 -4.943648E-10  2.299117E-11
       219  15  3.042752E+05  1.918454E+05  6.243961E+03  2.421554E+05 -1.068478E-10  2.563102E-10
       219  16  2.159036E+05  1.290855E+05 -7.081767E+03  1.950687E+05 -1.641417E-11  1.278390E-10
       219  17  2.274503E+05  1.340965E+05 -1.071137E+04  2.013207E+05 -8.005771E-10  1.592686E-10
       219  18  2.364342E+05  1.447799E+05 -1.101263E+04  2.082751E+05 -2.710936E-10  2.038546E-11
       219  19  3.946641E+05  2.581883E+05  4.006530E+04  2.865639E+05 -1.420917E+04 -6.548663E+02
       219  20  3.845995E+05  2.456403E+05  2.982011E+04  2.809507E+05 -9.648455E+03  1.920165E+03
       219  21  3.721214E+05  2.389136E+05  2.350028E+04  2.760399E+05 -4.908902E+03  4.256311E+03
       219  22  3.052788E+05  1.936339E+05  1.649209E+04  2.408122E+05 -1.481424E+04 -1.108226E+03
       219  23  3.060211E+05  1.898663E+05  9.554634E+03  2.411326E+05 -1.059827E+04  1.208321E+03
       219  24  3.042752E+05  1.918454E+05  6.244053E+03  2.421554E+05 -6.203303E+03  3.286074E+03
       219  25  2.159039E+05  1.290855E+05 -7.081316E+03  1.950687E+05 -1.541919E+04 -1.561488E+03
       219  26  2.274505E+05  1.340965E+05 -1.071112E+04  2.013207E+05 -1.154791E+04  4.966044E+02
       219  27  2.364343E+05  1.447799E+05 -1.101252E+04  2.082751E+05 -7.497514E+03  2.315977E+03
       220   1  3.639434E+05  2.338453E+05  2.060357E+04  2.721154E+05  3.733151E+03 -4.319531E+03
       220   2  3.542877E+05  2.237952E+05  1.717621E+04  2.657714E+05  1.131926E+03 -4.902496E+03
       220   3  3.409557E+05  2.180100E+05  1.538494E+04  2.606676E+05 -1.478944E+03 -5.472662E+03
       220   4  3.042050E+05  1.918613E+05  5.395104E+03  2.420160E+05  4.985017E+03 -3.381137E+03
       220   5  3.060474E+05  1.897348E+05  4.865533E+03  2.413929E+05  2.402419E+03 -3.950080E+03
       220   6  3.042095E+05  1.918692E+05  5.956050E+03  2.420101E+05 -1.898398E+02 -4.506243E+03
       220   7  2.444698E+05  1.498787E+05 -9.813943E+03  2.119194E+05  6.236740E+03 -2.442849E+03
       220   8  2.578098E+05  1.556758E+05 -7.445321E+03  2.170167E+05  3.672779E+03 -2.997764E+03
       220   9  2.674654E+05  1.657296E+05 -3.472747E+03  2.233542E+05  1.099143E+03 -3.539916E+03
       220  10  3.639434E+05  2.338453E+05  2.060350E+04  2.721154E+05 -2.779814E-10  1.515121E-10
       220  11  3.542877E+05  2.237952E+05  1.717616E+04  2.657714E+05  1.876852E-10  1.302944E-10
       220  12  3.409557E+05  2.180099E+05  1.538488E+04  2.606675E+05 -1.196079E-10  8.939643E-11
       220  13  3.042050E+05  1.918613E+05  5.395036E+03  2.420160E+05 -4.350993E-10  1.131689E-10
       220  14  3.060474E+05  1.897348E+05  4.865493E+03  2.413930E+05 -8.943215E-11 -7.779882E-13
       220  15  3.042095E+05  1.918692E+05  5.956012E+03  2.420101E+05  2.074392E-10  2.312853E-10
       220  16  2.444698E+05  1.498787E+05 -9.814027E+03  2.119195E+05 -1.345014E-10  6.046196E-11
       220  17  2.578097E+05  1.556758E+05 -7.445363E+03  2.170167E+05  4.166018E-10  6.844753E-11
       220  18  2.674654E+05  1.657296E+05 -3.472773E+03  2.233542E+05  9.434757E-11  1.008873E-10
       220  19  3.639434E+05  2.338453E+05  2.060357E+04  2.721154E+05 -3.733151E+03  4.319531E+03
       220  20  3.542877E+05  2.237952E+05  1.717621E+04  2.657714E+05 -1.131926E+03  4.902496E+03
       220  21  3.409557E+05  2.180100E+05  1.538494E+04  2.606676E+05  1.478944E+03  5.472662E+03
       220  22  3.042050E+05  1.918613E+05  5.395104E+03  2.420160E+05 -4.985017E+03  3.381137E+03
       220  23  3.060474E+05  1.897348E+05  4.865533E+03  2.413929E+05 -2.402419E+03  3.950080E+03
       220  24  3.042095E+05  1.918692E+05  5.956050E+03  2.420101E+05  1.898398E+02  4.506243E+03
       220  25  2.444698E+05  1.498787E+05 -9.813943E+03  2.119194E+05 -6.236740E+03  2.442849E+03
       220  26  2.578098E+05  1.556758E+05 -7.445321E+03  2.170167E+05 -3.672779E+03  2.997764E+03
       220  27  2.674654E+05  1.657296E+05 -3.472747E+03  2.233542E+05 -1.099143E+03  3.539916E+03
       221   1  3.328903E+05  2.129917E+05  1.452201E+04  2.570892E+05 -2.805279E+03 -5.647560E+03
       221   2  3.240362E+05  2.021780E+05  1.584713E+04  2.499938E+05 -7.913130E+03 -8.114128E+03
       221   3  3.129831E+05  1.974698E+05  2.143068E+04  2.434944E+05 -1.298143E+04 -1.063339E+04
       221   4  3.043018E+05  1.918546E+05  7.133951E+03  2.421883E+05 -1.510067E+03 -4.676538E+03
       221   5  3.060031E+05  1.898792E+05  1.135447E+04  2.410758E+05 -6.693729E+03 -7.199933E+03
       221   6  3.055215E+05  1.940259E+05  1.989918E+04  2.405590E+05 -1.183797E+04 -9.776143E+03
       221   7  2.757143E+05  1.707179E+05 -2.541701E+02  2.272883E+05 -2.149337E+02 -3.705579E+03
       221   8  2.879701E+05  1.775805E+05  6.861738E+03  2.321580E+05 -5.474367E+03 -6.285766E+03
       221   9  2.980598E+05  1.905820E+05  1.836765E+04  2.376237E+05 -1.069452E+04 -8.918887E+03
       221  10  3.328903E+05  2.129917E+05  1.452194E+04  2.570892E+05  4.031232E-11  2.212738E-10
       221  11  3.240361E+05  2.021779E+05  1.584689E+04  2.499938E+05  9.209275E-11 -7.398010E-11
       221  12  3.129829E+05  1.974696E+05  2.143015E+04  2.434942E+05 -9.716514E-12 -1.111470E-10
       221  13  3.043018E+05  1.918545E+05  7.133906E+03  2.421883E+05  1.302919E-11  7.868408E-11
       221  14  3.060030E+05  1.898791E+05  1.135429E+04  2.410757E+05  3.025559E-10 -7.566529E-11
       221  15  3.055213E+05  1.940258E+05  1.989874E+04  2.405589E+05  2.018396E-10 -1.150486E-10
       221  16  2.757143E+05  1.707179E+05 -2.541960E+02  2.272883E+05  1.243461E-10 -1.051743E-10
       221  17  2.879701E+05  1.775805E+05  6.861608E+03  2.321579E+05  2.298138E-10 -1.384593E-11
       221  18  2.980597E+05  1.905819E+05  1.836729E+04  2.376236E+05  1.291861E-10  2.670321E-11
       221  19  3.328903E+05  2.129917E+05  1.452201E+04  2.570892E+05  2.805279E+03  5.647560E+03
       221  20  3.240362E+05  2.021780E+05  1.584713E+04  2.499938E+05  7.913130E+03  8.114128E+03
       221  21  3.129831E+05  1.974698E+05  2.143068E+04  2.434944E+05  1.298143E+04  1.063339E+04
       221  22  3.043018E+05  1.918546E+05  7.133951E+03  2.421883E+05  1.510067E+03  4.676538E+03
       221  23  3.060031E+05  1.898792E+05  1.135447E+04  2.410758E+05  6.693729E+03  7.199933E+03
       221  24  3.055215E+05  1.940259E+05  1.989918E+04  2.405590E+05  1.183797E+04  9.776143E+03
       221  25  2.757143E+05  1.707179E+05 -2.541701E+02  2.272883E+05  2.149337E+02  3.705579E+03
       221  26  2.879701E+05  1.775805E+05  6.861738E+03  2.321580E+05  5.474367E+03  6.285766E+03
       221  27  2.980598E+05  1.905820E+05  1.836765E+04  2.376237E+05  1.069452E+04  8.918887E+03
       222   1  2.979600E+05  1.995970E+05  2.515086E+04  2.453412E+05 -1.623101E+04 -1.226053E+04
       222   2  3.155102E+05  1.674689E+05  4.195510E+04  2.203507E+05 -3.456617E+04 -2.520735E+04
       222   3  3.607337E+05  1.820913E+05  8.766111E+04  1.773198E+05 -5.233876E+04 -3.890286E+04
       222   4  3.066426E+05  1.932025E+05  2.567398E+04  2.438436E+05 -1.495481E+04 -1.130340E+04
       222   5  3.078770E+05  1.967400E+05  4.577240E+04  2.325933E+05 -3.437145E+04 -2.506319E+04
       222   6  3.370159E+05  2.472579E+05  9.571016E+04  2.033028E+05 -5.322488E+04 -3.957375E+04
       222   7  3.153252E+05  1.868083E+05  2.619712E+04  2.423460E+05 -1.367860E+04 -1.034632E+04
       222   8  3.002447E+05  2.260130E+05  4.958988E+04  2.448357E+05 -3.417674E+04 -2.491901E+04
       222   9  3.133030E+05  3.124353E+05  1.037605E+05  2.292850E+05 -5.411094E+04 -4.024482E+04
       222  10  2.979597E+05  1.995967E+05  2.515009E+04  2.453410E+05  1.924703E-11 -1.055605E-10
       222  11  3.155088E+05  1.674679E+05  4.195167E+04  2.203500E+05  2.015336E-10  8.350550E-11
       222  12  3.607303E+05  1.820889E+05  8.765312E+04  1.773182E+05  1.251772E-10  1.242949E-10
       222  13  3.066423E+05  1.932023E+05  2.567332E+04  2.438435E+05 -6.275969E-11 -1.288907E-11
       222  14  3.078756E+05  1.967390E+05  4.576900E+04  2.325926E+05 -2.064151E-10  8.316722E-11
       222  15  3.370125E+05  2.472554E+05  9.570190E+04  2.033011E+05  1.802223E-10  4.107885E-11
       222  16  3.153250E+05  1.868081E+05  2.619657E+04  2.423459E+05  2.571387E-10  1.292827E-10
       222  17  3.002432E+05  2.260120E+05  4.958652E+04  2.448350E+05 -1.819382E-10 -1.047537E-10
       222  18  3.132995E+05  3.124327E+05  1.037519E+05  2.292833E+05 -9.797765E-11 -4.394295E-11
       222  19  2.979600E+05  1.995970E+05  2.515086E+04  2.453412E+05  1.623101E+04  1.226053E+04
       222  20  3.155102E+05  1.674689E+05  4.195510E+04  2.203507E+05  3.456617E+04  2.520735E+04
       222  21  3.607337E+05  1.820913E+05  8.766111E+04  1.773198E+05  5.233876E+04  3.890286E+04
       222  22  3.066426E+05  1.932025E+05  2.567398E+04  2.438436E+05  1.495481E+04  1.130340E+04
       222  23  3.078770E+05  1.967400E+05  4.577240E+04  2.325933E+05  3.437145E+04  2.506319E+04
       222  24  3.370159E+05  2.472579E+05  9.571016E+04  2.033028E+05  5.322488E+04  3.957375E+04
       222  25  3.153252E+05  1.868083E+05  2.619712E+04  2.423460E+05  1.367860E+04  1.034632E+04
       222  26  3.002447E+05  2.260130E+05  4.958988E+04  2.448357E+05  3.417674E+04  2.491901E+04
       222  27  3.133030E+05  3.124353E+05  1.037605E+05  2.292850E+05  5.411094E+04  4.024482E+04
       223   1  7.842676E+05  1.413456E+05  1.383596E+05  9.163636E+04  3.975068E+04 -6.457891E+03
       223   2  6.866291E+05  1.033971E+05  9.364344E+04  7.495831E+04  1.665342E+04 -2.001135E+04
       223   3  5.951781E+05  7.801678E+04  6.709792E+04  8.244290E+04 -6.436762E+03 -2.020207E+04
       223   4  2.676846E+05  1.349153E+04  1.534380E+04  8.365125E+04  1.057860E+04 -6.456628E+03
       223   5  2.662782E+05  2.119873E+03  7.374855E+03  7.156980E+04  6.747229E+03 -2.001256E+04
       223   6  2.677116E+05 -2.086235E+01  4.211190E+03  8.365102E+04  2.918849E+03 -2.020198E+04
       223   7 -2.486519E+05 -1.143811E+05 -1.076875E+05  7.567280E+04 -1.856934E+04 -6.454616E+03
       223   8 -1.539048E+05 -9.916833E+04 -7.890278E+04  6.818362E+04 -3.152382E+03 -2.001366E+04
       223   9 -5.965164E+04 -7.806479E+04 -5.868014E+04  8.485849E+04  1.226964E+04 -2.020185E+04
       223  10  7.842659E+05  1.413452E+05  1.383566E+05  9.163657E+04 -1.024056E-10 -5.530087E-11
       223  11  6.866287E+05  1.033966E+05  9.364216E+04  7.495858E+04 -7.806879E-10 -1.225225E-10
       223  12  5.951779E+05  7.801633E+04  6.709708E+04  8.244280E+04  7.272606E-11 -1.505136E-10
       223  13  2.676845E+05  1.349146E+04  1.534351E+04  8.365131E+04 -1.648274E-10  5.522073E-11
       223  14  2.662781E+05  2.119430E+03  7.374017E+03  7.156991E+04 -4.207702E-10 -7.737138E-11
       223  15  2.677114E+05 -2.130295E+01  4.210407E+03  8.365107E+04 -4.261223E-11 -6.941532E-11
       223  16 -2.486523E+05 -1.143813E+05 -1.076882E+05  7.567270E+04  2.373795E-10 -6.216251E-11
       223  17 -1.539050E+05 -9.916876E+04 -7.890355E+04  6.818357E+04  2.490387E-10  5.460614E-11
       223  18 -5.965191E+04 -7.806527E+04 -5.868119E+04  8.485869E+04 -4.526311E-10 -2.918657E-11
       223  19  7.842676E+05  1.413456E+05  1.383596E+05  9.163636E+04 -3.975068E+04  6.457891E+03
       223  20  6.866291E+05  1.033971E+05  9.364344E+04  7.495831E+04 -1.665342E+04  2.001135E+04
       223  21  5.951781E+05  7.801678E+04  6.709792E+04  8.244290E+04  6.436762E+03  2.020207E+04
       223  22  2.676846E+05  1.349153E+04  1.534380E+04  8.365125E+04 -1.057860E+04  6.456628E+03
       223  23  2.662782E+05  2.119873E+03  7.374855E+03  7.156980E+04 -6.747229E+03  2.001256E+04
       223  24  2.677116E+05 -2.086235E+01  4.211190E+03  8.365102E+04 -2.918849E+03  2.020198E+04
       223  25 -2.486519E+05 -1.143811E+05 -1.076875E+05  7.567280E+04  1.856934E+04  6.454616E+03
       223  26 -1.539048E+05 -9.916833E+04 -7.890278E+04  6.818362E+04  3.152382E+03  2.001366E+04
       223  27 -5.965164E+04 -7.806479E+04 -5.868014E+04  8.485849E+04 -1.226964E+04  2.020185E+04
       224   1  5.301356E+05  6.316198E+04  5.368895E+04  8.402944E+04 -4.640937E+03 -1.637252E+04
       224   2  4.355269E+05  4.007776E+04  3.378298E+04  7.142128E+04 -6.955419E+03 -1.107190E+04
       224   3  3.413928E+05  1.764406E+04  1.554546E+04  8.375654E+04 -9.270433E+03 -4.874863E+03
       224   4  2.671419E+05  5.135696E+02  3.319543E+03  8.382480E+04  2.350735E+03 -1.637210E+04
       224   5  2.670254E+05  4.515294E+01  2.053413E+03  7.135293E+04  1.327815E+03 -1.107076E+04
       224   6  2.671524E+05  4.091004E+00  1.559997E+03  8.382489E+04  3.040459E+02 -4.872866E+03
       224   7  4.214940E+03 -6.213890E+04 -4.705284E+04  8.362024E+04  9.339516E+03 -1.637168E+04
       224   8  9.855150E+04 -3.998906E+04 -2.967714E+04  7.128459E+04  9.608858E+03 -1.106963E+04
       224   9  1.929174E+05 -1.763615E+04 -1.242536E+04  8.389324E+04  9.877408E+03 -4.870866E+03
       224  10  5.301355E+05  6.316169E+04  5.368841E+04  8.402938E+04 -2.284750E-10 -3.262356E-11
       224  11  4.355268E+05  4.007761E+04  3.378266E+04  7.142122E+04 -3.720670E-10  1.460712E-10
       224  12  3.413927E+05  1.764401E+04  1.554525E+04  8.375651E+04 -1.158584E-10  1.718546E-10
       224  13  2.671418E+05  5.132803E+02  3.319029E+03  8.382483E+04 -3.174459E-10 -2.604625E-11
       224  14  2.670254E+05  4.502083E+01  2.053180E+03  7.135294E+04  5.051362E-10  1.057632E-10
       224  15  2.671524E+05  4.065478E+00  1.559952E+03  8.382489E+04  1.394614E-10  2.283413E-10
       224  16  4.214774E+03 -6.213921E+04 -4.705351E+04  8.362036E+04  1.798712E-10 -4.095604E-11
       224  17  9.855137E+04 -3.998922E+04 -2.967755E+04  7.128468E+04  1.276140E-10  2.251172E-10
       224  18  1.929173E+05 -1.763620E+04 -1.242559E+04  8.389327E+04 -2.407998E-10  4.937469E-11
       224  19  5.301356E+05  6.316198E+04  5.368895E+04  8.402944E+04  4.640937E+03  1.637252E+04
       224  20  4.355269E+05  4.007776E+04  3.378298E+04  7.142128E+04  6.955419E+03  1.107190E+04
       224  21  3.413928E+05  1.764406E+04  1.554546E+04  8.375654E+04  9.270433E+03  4.874863E+03
       224  22  2.671419E+05  5.135696E+02  3.319543E+03  8.382480E+04 -2.350735E+03  1.637210E+04
       224  23  2.670254E+05  4.515294E+01  2.053413E+03  7.135293E+04 -1.327815E+03  1.107076E+04
       224  24  2.671524E+05  4.091004E+00  1.559997E+03  8.382489E+04 -3.040459E+02  4.872866E+03
       224  25  4.214940E+03 -6.213890E+04 -4.705284E+04  8.362024E+04 -9.339516E+03  1.637168E+04
       224  26  9.855150E+04 -3.998906E+04 -2.967714E+04  7.128459E+04 -9.608858E+03  1.106963E+04
       224  27  1.929174E+05 -1.763615E+04 -1.242536E+04  8.389324E+04 -9.877408E+03  4.870866E+03
       225   1  2.774382E+05  2.408018E+03  3.193459E+03  8.386999E+04 -9.514243E+03 -9.429725E+02
       225   2  1.830806E+05 -1.994872E+04 -1.426126E+04  7.128946E+04 -9.315470E+03  5.316032E+03
       225   3  8.874178E+04 -4.215732E+04 -3.180955E+04  8.365907E+04 -9.116302E+03  1.083607E+04
       225   4  2.671427E+05  1.132807E+01  1.502310E+03  8.382624E+04  3.334467E+01 -9.408817E+02
       225   5  2.670426E+05  3.944430E+01  1.738367E+03  7.135125E+04 -8.329536E+02  5.317593E+03
       225   6  2.671374E+05  4.009265E+02  2.620140E+03  8.382617E+04 -1.698829E+03  1.083717E+04
       225   7  2.568474E+05 -2.385318E+03 -1.884995E+02  8.378249E+04  9.580780E+03 -9.387922E+02
       225   8  3.510115E+05  2.002723E+04  1.773794E+04  7.141306E+04  7.650682E+03  5.319155E+03
       225   9  4.455638E+05  4.295731E+04  3.704855E+04  8.399332E+04  5.720727E+03  1.083828E+04
       225  10  2.774381E+05  2.407993E+03  3.193287E+03  8.386998E+04 -4.981309E-11  1.918176E-10
       225  11  1.830805E+05 -1.994878E+04 -1.426147E+04  7.128950E+04 -3.075185E-10 -2.090925E-10
       225  12  8.874166E+04 -4.215747E+04 -3.180992E+04  8.365915E+04  7.534639E-11 -1.558532E-10
       225  13  2.671427E+05  1.132712E+01  1.502308E+03  8.382624E+04 -1.093889E-10  1.394161E-10
       225  14  2.670426E+05  3.941375E+01  1.738312E+03  7.135126E+04 -6.426527E-11 -1.170094E-10
       225  15  2.671374E+05  4.007996E+02  2.619913E+03  8.382618E+04 -5.348335E-11 -2.952059E-10
       225  16  2.568473E+05 -2.385344E+03 -1.886736E+02  8.378250E+04  2.807330E-11  8.123553E-11
       225  17  3.510115E+05  2.002719E+04  1.773778E+04  7.141303E+04  1.579040E-10  1.717675E-10
       225  18  4.455637E+05  4.295718E+04  3.704827E+04  8.399327E+04 -3.281753E-11 -1.641014E-10
       225  19  2.774382E+05  2.408018E+03  3.193459E+03  8.386999E+04  9.514243E+03  9.429725E+02
       225  20  1.830806E+05 -1.994872E+04 -1.426126E+04  7.128946E+04  9.315470E+03 -5.316032E+03
       225  21  8.874178E+04 -4.215732E+04 -3.180955E+04  8.365907E+04  9.116302E+03 -1.083607E+04
       225  22  2.671427E+05  1.132807E+01  1.502310E+03  8.382624E+04 -3.334467E+01  9.408817E+02
       225  23  2.670426E+05  3.944430E+01  1.738367E+03  7.135125E+04  8.329536E+02 -5.317593E+03
       225  24  2.671374E+05  4.009265E+02  2.620140E+03  8.382617E+04  1.698829E+03 -1.083717E+04
       225  25  2.568474E+05 -2.385318E+03 -1.884995E+02  8.378249E+04 -9.580780E+03  9.387922E+02
       225  26  3.510115E+05  2.002723E+04  1.773794E+04  7.141306E+04 -7.650682E+03 -5.319155E+03
       225  27  4.455638E+05  4.295731E+04  3.704855E+04  8.399332E+04 -5.720727E+03 -1.083828E+04
       226   1  2.482816E+04 -5.792527E+04 -4.363728E+04  8.458120E+04 -1.155741E+04  1.468363E+04
       226   2 -6.930409E+04 -7.939884E+04 -6.370729E+04  6.894170E+04  1.794352E+03  1.557046E+04
       226   3 -1.640978E+05 -9.668829E+04 -9.141974E+04  7.759609E+04  1.514249E+04  5.154029E+03
       226   4  2.675674E+05 -3.707233E+00  3.270122E+03  8.368010E+04 -2.146156E+03  1.468465E+04
       226   5  2.664800E+05  1.619942E+03  5.633182E+03  7.153355E+04 -5.069921E+03  1.556929E+04
       226   6  2.675459E+05  1.025163E+04  1.165426E+04  8.367963E+04 -7.995027E+03  5.153602E+03
       226   7  5.103635E+05  5.791440E+04  5.017511E+04  8.277862E+04  7.268695E+03  1.468564E+04
       226   8  6.023712E+05  8.263164E+04  7.496774E+04  7.412681E+04 -1.193784E+04  1.556807E+04
       226   9  6.993616E+05  1.171785E+05  1.147172E+05  8.976741E+04 -3.114856E+04  5.152722E+03
       226  10  2.482796E+04 -5.792554E+04 -4.363794E+04  8.458134E+04 -3.358095E-10 -9.632844E-11
       226  11 -6.930416E+04 -7.939910E+04 -6.370775E+04  6.894168E+04 -3.525446E-10 -1.949241E-11
       226  12 -1.640981E+05 -9.668838E+04 -9.142022E+04  7.759603E+04  6.763926E-12  4.163592E-11
       226  13  2.675673E+05 -3.940063E+00  3.269708E+03  8.368012E+04  4.367679E-11 -8.486064E-11
       226  14  2.664799E+05  1.619674E+03  5.632678E+03  7.153361E+04  2.139149E-10 -8.306506E-12
       226  15  2.675458E+05  1.025159E+04  1.165409E+04  8.367967E+04 -7.886955E-11 -3.104486E-13
       226  16  5.103633E+05  5.791416E+04  5.017461E+04  8.277854E+04  2.774624E-10 -2.824296E-10
       226  17  6.023710E+05  8.263134E+04  7.496701E+04  7.412696E+04  3.247169E-10  3.719781E-11
       226  18  6.993606E+05  1.171782E+05  1.147153E+05  8.976754E+04  1.413499E-10  5.825253E-11
       226  19  2.482816E+04 -5.792527E+04 -4.363728E+04  8.458120E+04  1.155741E+04 -1.468363E+04
       226  20 -6.930409E+04 -7.939884E+04 -6.370729E+04  6.894170E+04 -1.794352E+03 -1.557046E+04
       226  21 -1.640978E+05 -9.668829E+04 -9.141974E+04  7.759609E+04 -1.514249E+04 -5.154029E+03
       226  22  2.675674E+05 -3.707233E+00  3.270122E+03  8.368010E+04  2.146156E+03 -1.468465E+04
       226  23  2.664800E+05  1.619942E+03  5.633182E+03  7.153355E+04  5.069921E+03 -1.556929E+04
       226  24  2.675459E+05  1.025163E+04  1.165426E+04  8.367963E+04  7.995027E+03 -5.153602E+03
       226  25  5.103635E+05  5.791440E+04  5.017511E+04  8.277862E+04 -7.268695E+03 -1.468564E+04
       226  26  6.023712E+05  8.263164E+04  7.496774E+04  7.412681E+04  1.193784E+04 -1.556807E+04
       226  27  6.993616E+05  1.171785E+05  1.147172E+05  8.976741E+04  3.114856E+04 -5.152722E+03
       227   1 -1.956620E+05 -7.082827E+05 -2.031341E+05  1.643734E+05 -5.071276E+03 -8.507032E+04
       227   2 -9.218172E+04 -5.670668E+05 -1.138484E+05  1.196284E+05 -1.440707E+04 -4.390099E+04
       227   3 -4.729502E+04 -4.458653E+05 -6.603809E+04  1.088506E+05 -1.147978E+04 -2.725128E+03
       227   4 -8.144966E+04 -2.477164E+05 -9.264803E+04  1.162219E+05 -5.054226E+03 -6.280594E+04
       227   5 -1.290365E+04 -2.392205E+05 -4.533513E+04  9.921685E+04 -1.440265E+04 -3.926816E+04
       227   6  1.291515E+02 -2.476795E+05 -2.722998E+04  1.161847E+05 -1.148726E+04 -1.573341E+04
       227   7  3.275623E+04  2.130504E+05  1.782610E+04  6.803456E+04 -5.040642E+03 -4.052508E+04
       227   8  6.636913E+04  8.872842E+04  2.317246E+04  7.879432E+04 -1.439854E+04 -3.463291E+04
       227   9  4.755125E+04 -4.945558E+04  1.157690E+04  1.235212E+05 -1.149506E+04 -2.874576E+04
       227  10 -1.956639E+05 -7.082905E+05 -2.031478E+05  1.643730E+05 -2.523915E-10 -5.144216E-10
       227  11 -9.218246E+04 -5.670689E+05 -1.138524E+05  1.196279E+05 -3.886493E-10  1.143760E-10
       227  12 -4.729517E+04 -4.458654E+05 -6.603836E+04  1.088505E+05  4.993751E-11  6.239344E-10
       227  13 -8.145075E+04 -2.477206E+05 -9.265550E+04  1.162217E+05  3.179231E-11 -1.546806E-10
       227  14 -1.290429E+04 -2.392222E+05 -4.533842E+04  9.921640E+04  6.461845E-11 -3.753358E-11
       227  15  1.289434E+02 -2.476798E+05 -2.723070E+04  1.161846E+05 -7.105976E-11 -1.077904E-10
       227  16  3.275576E+04  2.130487E+05  1.782297E+04  6.803439E+04 -2.548039E-10  5.183357E-10
       227  17  6.636858E+04  8.872707E+04  2.316982E+04  7.879392E+04 -6.296161E-10 -2.732040E-10
       227  18  4.755089E+04 -4.945650E+04  1.157510E+04  1.235210E+05 -1.384026E-10 -6.385110E-10
       227  19 -1.956620E+05 -7.082827E+05 -2.031341E+05  1.643734E+05  5.071276E+03  8.507032E+04
       227  20 -9.218172E+04 -5.670668E+05 -1.138484E+05  1.196284E+05  1.440707E+04  4.390099E+04
       227  21 -4.729502E+04 -4.458653E+05 -6.603809E+04  1.088506E+05  1.147978E+04  2.725128E+03
       227  22 -8.144966E+04 -2.477164E+05 -9.264803E+04  1.162219E+05  5.054226E+03  6.280594E+04
       227  23 -1.290365E+04 -2.392205E+05 -4.533513E+04  9.921685E+04  1.440265E+04  3.926816E+04
       227  24  1.291515E+02 -2.476795E+05 -2.722998E+04  1.161847E+05  1.148726E+04  1.573341E+04
       227  25  3.275623E+04  2.130504E+05  1.782610E+04  6.803456E+04  5.040642E+03  4.052508E+04
       227  26  6.636913E+04  8.872842E+04  2.317246E+04  7.879432E+04  1.439854E+04  3.463291E+04
       227  27  4.755125E+04 -4.945558E+04  1.157690E+04  1.235212E+05  1.149506E+04  2.874576E+04
       228   1 -2.901466E+04 -3.532551E+05 -4.405060E+04  1.177711E+05 -6.105246E+03 -9.530506E+02
       228   2  4.938077E+03 -2.210626E+05 -1.282855E+04  9.908973E+04  1.495069E+03  7.407698E+03
       228   3  3.485720E+04 -9.098392E+04  1.192954E+04  1.150560E+05  9.017444E+03  1.577033E+04
       228   4 -2.934599E+03 -2.443852E+05 -2.254669E+04  1.163403E+05 -6.111921E+03 -1.194300E+04
       228   5 -3.461405E+02 -2.433112E+05 -1.699482E+04  9.901604E+04  1.488582E+03 -3.470354E+03
       228   6 -1.809692E+03 -2.443868E+05 -1.798375E+04  1.163397E+05  9.011137E+03  5.002494E+03
       228   7  2.314482E+04 -1.355037E+05 -1.042916E+03  1.149094E+05 -6.118543E+03 -2.293484E+04
       228   8 -5.630323E+03 -2.655591E+05 -2.116068E+04  9.894234E+04  1.482097E+03 -1.434803E+04
       228   9 -3.847793E+04 -3.977668E+05 -4.789772E+04  1.176231E+05  9.004784E+03 -5.762741E+03
       228  10 -2.901470E+04 -3.532551E+05 -4.405067E+04  1.177711E+05  1.814461E-10 -1.193636E-10
       228  11  4.938060E+03 -2.210626E+05 -1.282865E+04  9.908972E+04  4.754909E-11  5.977064E-10
       228  12  3.485705E+04 -9.098421E+04  1.192892E+04  1.150559E+05  7.993368E-11  3.880855E-10
       228  13 -2.934677E+03 -2.443854E+05 -2.254703E+04  1.163403E+05  2.556435E-10 -1.253019E-10
       228  14 -3.461461E+02 -2.433112E+05 -1.699485E+04  9.901604E+04 -6.151423E-12  4.236895E-11
       228  15 -1.809786E+03 -2.443868E+05 -1.798395E+04  1.163396E+05 -1.692171E-11  3.453791E-11
       228  16  2.314463E+04 -1.355043E+05 -1.043975E+03  1.149092E+05 -1.550845E-10  1.602374E-10
       228  17 -5.630381E+03 -2.655593E+05 -2.116107E+04  9.894236E+04  1.168262E-10 -5.380464E-10
       228  18 -3.847803E+04 -3.977669E+05 -4.789793E+04  1.176231E+05 -3.086763E-11 -2.268807E-10
       228  19 -2.901466E+04 -3.532551E+05 -4.405060E+04  1.177711E+05  6.105246E+03  9.530506E+02
       228  20  4.938077E+03 -2.210626E+05 -1.282855E+04  9.908973E+04 -1.495069E+03 -7.407698E+03
       228  21  3.485720E+04 -9.098392E+04  1.192954E+04  1.150560E+05 -9.017444E+03 -1.577033E+04
       228  22 -2.934599E+03 -2.443852E+05 -2.254669E+04  1.163403E+05  6.111921E+03  1.194300E+04
       228  23 -3.461405E+02 -2.433112E+05 -1.699482E+04  9.901604E+04 -1.488582E+03  3.470354E+03
       228  24 -1.809692E+03 -2.443868E+05 -1.798375E+04  1.163397E+05 -9.011137E+03 -5.002494E+03
       228  25  2.314482E+04 -1.355037E+05 -1.042916E+03  1.149094E+05  6.118543E+03  2.293484E+04
       228  26 -5.630323E+03 -2.655591E+05 -2.116068E+04  9.894234E+04 -1.482097E+03  1.434803E+04
       228  27 -3.847793E+04 -3.977668E+05 -4.789772E+04  1.176231E+05 -9.004784E+03  5.762741E+03
       229   1  5.811664E+04 -3.601732E+03  2.706681E+04  1.208589E+05  1.438405E+04  2.096613E+04
       229   2  8.156357E+04  1.315414E+05  4.671173E+04  8.582291E+04  1.672588E+04  1.766115E+04
       229   3  7.207309E+04  2.588961E+05  6.027205E+04  8.468055E+04  5.716066E+03  1.435902E+04
       229   4  9.924155E+01 -2.463930E+05 -2.016775E+04  1.161697E+05  1.437681E+04  7.972214E+03
       229   5 -8.385854E+03 -2.408370E+05 -3.071309E+04  9.923231E+04  1.673009E+04  2.389008E+04
       229   6 -5.315753E+04 -2.464302E+05 -6.069884E+04  1.161929E+05  5.727874E+03  3.981091E+04
       229   7 -5.792152E+04 -4.891272E+05 -6.740445E+04  1.114824E+05  1.436976E+04 -5.016737E+03
       229   8 -9.834340E+04 -6.130835E+05 -1.081453E+05  1.126335E+05  1.673456E+04  3.011533E+04
       229   9 -1.784026E+05 -7.515191E+05 -1.816848E+05  1.476795E+05  5.742272E+03  6.524217E+04
       229  10  5.811630E+04 -3.602260E+03  2.706560E+04  1.208587E+05  1.788475E-10 -1.320289E-10
       229  11  8.156318E+04  1.315410E+05  4.671062E+04  8.582267E+04 -2.449510E-10  1.579560E-10
       229  12  7.207300E+04  2.588959E+05  6.027160E+04  8.468049E+04 -1.382948E-10  4.607990E-12
       229  13  9.900258E+01 -2.463931E+05 -2.016825E+04  1.161696E+05  2.305860E-11  5.208323E-11
       229  14 -8.386308E+03 -2.408377E+05 -3.071468E+04  9.923199E+04 -2.396931E-10  1.051316E-10
       229  15 -5.315799E+04 -2.464319E+05 -6.070188E+04  1.161927E+05  9.359778E-11  1.736141E-11
       229  16 -5.792174E+04 -4.891273E+05 -6.740489E+04  1.114825E+05  3.644574E-10  1.267085E-10
       229  17 -9.834395E+04 -6.130846E+05 -1.081475E+05  1.126331E+05  1.995175E-11 -7.708070E-11
       229  18 -1.784038E+05 -7.515237E+05 -1.816929E+05  1.476792E+05 -1.323537E-10  5.413894E-11
       229  19  5.811664E+04 -3.601732E+03  2.706681E+04  1.208589E+05 -1.438405E+04 -2.096613E+04
       229  20  8.156357E+04  1.315414E+05  4.671173E+04  8.582291E+04 -1.672588E+04 -1.766115E+04
       229  21  7.207309E+04  2.588961E+05  6.027205E+04  8.468055E+04 -5.716066E+03 -1.435902E+04
       229  22  9.924155E+01 -2.463930E+05 -2.016775E+04  1.161697E+05 -1.437681E+04 -7.972214E+03
       229  23 -8.385854E+03 -2.408370E+05 -3.071309E+04  9.923231E+04 -1.673009E+04 -2.389008E+04
       229  24 -5.315753E+04 -2.464302E+05 -6.069884E+04  1.161929E+05 -5.727874E+03 -3.981091E+04
       229  25 -5.792152E+04 -4.891272E+05 -6.740445E+04  1.114824E+05 -1.436976E+04  5.016737E+03
       229  26 -9.834340E+04 -6.130835E+05 -1.081453E+05  1.126335E+05 -1.673456E+04 -3.011533E+04
       229  27 -1.784026E+05 -7.515191E+05 -1.816848E+05  1.476795E+05 -5.742272E+03 -6.524217E+04
       230   1  4.154999E+05  3.435496E+05  1.004124E+05  2.907468E+05  5.264354E+04  3.859088E+04
       230   2  4.118227E+05  2.718008E+05  5.202201E+04  3.111206E+05  3.453242E+04  2.289943E+04
       230   3  4.382073E+05  2.406239E+05  3.268885E+04  3.135436E+05  1.574572E+04  8.108788E+03
       230   4  4.267930E+05  2.748263E+05  8.956590E+04  2.609936E+05  5.004897E+04  3.663978E+04
       230   5  3.976946E+05  2.293894E+05  4.287352E+04  2.889379E+05  3.323276E+04  2.192348E+04
       230   6  3.983765E+05  2.242422E+05  2.411391E+04  2.989313E+05  1.574238E+04  8.106517E+03
       230   7  4.380901E+05  2.061129E+05  7.872031E+04  2.312402E+05  4.745426E+04  3.468918E+04
       230   8  3.835674E+05  1.869812E+05  3.372514E+04  2.667564E+05  3.193314E+04  2.094769E+04
       230   9  3.585481E+05  2.078610E+05  1.553909E+04  2.843201E+05  1.573905E+04  8.104246E+03
       230  10  4.154965E+05  3.435472E+05  1.004044E+05  2.907452E+05  2.461415E-08  1.916580E-08
       230  11  4.118213E+05  2.717999E+05  5.201879E+04  3.111199E+05 -4.569816E-09 -1.721104E-09
       230  12  4.382070E+05  2.406237E+05  3.268826E+04  3.135435E+05 -3.076349E-08 -2.184403E-08
       230  13  4.267900E+05  2.748242E+05  8.955868E+04  2.609921E+05 -1.403224E-09 -3.609119E-10
       230  14  3.976933E+05  2.293885E+05  4.287054E+04  2.889373E+05 -2.774406E-09 -9.220918E-10
       230  15  3.983762E+05  2.242420E+05  2.411333E+04  2.989312E+05 -1.577320E-09 -1.988737E-10
       230  16  4.380874E+05  2.061110E+05  7.871382E+04  2.312389E+05 -2.726588E-08 -1.977566E-08
       230  17  3.835662E+05  1.869804E+05  3.372240E+04  2.667559E+05 -2.037395E-09  1.189855E-10
       230  18  3.585478E+05  2.078609E+05  1.553850E+04  2.843200E+05  2.832563E-08  2.121752E-08
       230  19  4.154999E+05  3.435496E+05  1.004124E+05  2.907468E+05 -5.264354E+04 -3.859088E+04
       230  20  4.118227E+05  2.718008E+05  5.202201E+04  3.111206E+05 -3.453242E+04 -2.289943E+04
       230  21  4.382073E+05  2.406239E+05  3.268885E+04  3.135436E+05 -1.574572E+04 -8.108788E+03
       230  22  4.267930E+05  2.748263E+05  8.956590E+04  2.609936E+05 -5.004897E+04 -3.663978E+04
       230  23  3.976946E+05  2.293894E+05  4.287352E+04  2.889379E+05 -3.323276E+04 -2.192348E+04
       230  24  3.983765E+05  2.242422E+05  2.411391E+04  2.989313E+05 -1.574238E+04 -8.106517E+03
       230  25  4.380901E+05  2.061129E+05  7.872031E+04  2.312402E+05 -4.745426E+04 -3.468918E+04
       230  26  3.835674E+05  1.869812E+05  3.372514E+04  2.667564E+05 -3.193314E+04 -2.094769E+04
       230  27  3.585481E+05  2.078610E+05  1.553909E+04  2.843201E+05 -1.573905E+04 -8.104246E+03
       231   1  4.291025E+05  2.491377E+05  2.725728E+04  3.126813E+05  1.333508E+04  6.305064E+03
       231   2  4.282474E+05  2.461562E+05  1.918835E+04  3.133773E+05  8.977436E+03  2.912117E+03
       231   3  4.290410E+05  2.452690E+05  1.531673E+04  3.135676E+05  4.571720E+03 -4.166794E+02
       231   4  3.973265E+05  2.250155E+05  1.874284E+04  2.958604E+05  1.317190E+04  6.182685E+03
       231   5  3.959407E+05  2.229605E+05  1.084392E+04  2.968772E+05  8.906992E+03  2.859278E+03
       231   6  3.961835E+05  2.229799E+05  7.062104E+03  2.973883E+05  4.593976E+03 -4.000133E+02
       231   7  3.655516E+05  2.008939E+05  1.022831E+04  2.790405E+05  1.300874E+04  6.060315E+03
       231   8  3.636349E+05  1.997652E+05  2.499318E+03  2.803780E+05  8.836552E+03  2.806442E+03
       231   9  3.633268E+05  2.006910E+05 -1.192777E+03  2.812098E+05  4.616232E+03 -3.833480E+02
       231  10  4.291022E+05  2.491377E+05  2.725687E+04  3.126812E+05 -1.867456E-09 -1.262697E-09
       231  11  4.282473E+05  2.461562E+05  1.918819E+04  3.133773E+05 -4.429493E-10 -1.696032E-09
       231  12  4.290410E+05  2.452690E+05  1.531669E+04  3.135676E+05 -1.281105E-09 -1.842314E-09
       231  13  3.973263E+05  2.250154E+05  1.874244E+04  2.958603E+05  2.246268E-10 -2.142880E-10
       231  14  3.959406E+05  2.229605E+05  1.084376E+04  2.968772E+05  4.791865E-10 -7.854496E-10
       231  15  3.961835E+05  2.229799E+05  7.062064E+03  2.973883E+05  4.044772E-10 -5.893815E-10
       231  16  3.655514E+05  2.008939E+05  1.022792E+04  2.790404E+05  2.303005E-09  6.034337E-10
       231  17  3.636348E+05  1.997652E+05  2.499157E+03  2.803780E+05  1.883246E-09  6.807637E-11
       231  18  3.633267E+05  2.006910E+05 -1.192817E+03  2.812098E+05  2.121620E-09  6.300917E-10
       231  19  4.291025E+05  2.491377E+05  2.725728E+04  3.126813E+05 -1.333508E+04 -6.305064E+03
       231  20  4.282474E+05  2.461562E+05  1.918835E+04  3.133773E+05 -8.977436E+03 -2.912117E+03
       231  21  4.290410E+05  2.452690E+05  1.531673E+04  3.135676E+05 -4.571720E+03  4.166794E+02
       231  22  3.973265E+05  2.250155E+05  1.874284E+04  2.958604E+05 -1.317190E+04 -6.182685E+03
       231  23  3.959407E+05  2.229605E+05  1.084392E+04  2.968772E+05 -8.906992E+03 -2.859278E+03
       231  24  3.961835E+05  2.229799E+05  7.062104E+03  2.973883E+05 -4.593976E+03  4.000133E+02
       231  25  3.655516E+05  2.008939E+05  1.022831E+04  2.790405E+05 -1.300874E+04 -6.060315E+03
       231  26  3.636349E+05  1.997652E+05  2.499318E+03  2.803780E+05 -8.836552E+03 -2.806442E+03
       231  27  3.633268E+05  2.006910E+05 -1.192777E+03  2.812098E+05 -4.616232E+03  3.833480E+02
       232   1  4.284010E+05  2.456105E+05  1.430167E+04  3.134620E+05  3.645271E+03 -1.097419E+03
       232   2  4.279450E+05  2.454073E+05  1.360551E+04  3.133432E+05  1.469317E+03 -2.711550E+03
       232   3  4.277710E+05  2.455759E+05  1.473208E+04  3.133270E+05 -7.129437E+02 -4.317181E+03
       232   4  3.961047E+05  2.229946E+05  6.083957E+03  2.972281E+05  3.654957E+03 -1.090181E+03
       232   5  3.959669E+05  2.228132E+05  5.443350E+03  2.971745E+05  1.491344E+03 -2.695059E+03
       232   6  3.961083E+05  2.230010E+05  6.614864E+03  2.972234E+05 -6.785936E+02 -4.291449E+03
       232   7  3.638101E+05  2.003797E+05 -2.133664E+03  2.809955E+05  3.664642E+03 -1.082942E+03
       232   8  3.639902E+05  2.002199E+05 -2.718806E+03  2.810069E+05  1.513370E+03 -2.678569E+03
       232   9  3.644468E+05  2.004267E+05 -1.502430E+03  2.811209E+05 -6.442458E+02 -4.265719E+03
       232  10  4.284009E+05  2.456105E+05  1.430164E+04  3.134620E+05 -5.434008E-10 -8.156865E-10
       232  11  4.279450E+05  2.454072E+05  1.360550E+04  3.133432E+05 -1.571302E-10 -7.472498E-10
       232  12  4.277710E+05  2.455759E+05  1.473205E+04  3.133270E+05 -3.741459E-10 -4.973210E-10
       232  13  3.961047E+05  2.229946E+05  6.083930E+03  2.972281E+05 -2.726436E-11 -3.212847E-10
       232  14  3.959669E+05  2.228132E+05  5.443332E+03  2.971745E+05 -7.097330E-11 -3.602867E-10
       232  15  3.961083E+05  2.230010E+05  6.614828E+03  2.972234E+05  1.898827E-10 -2.599795E-10
       232  16  3.638101E+05  2.003797E+05 -2.133692E+03  2.809955E+05  9.352257E-10  1.526484E-10
       232  17  3.639902E+05  2.002199E+05 -2.718823E+03  2.810069E+05  6.861356E-10  8.298539E-11
       232  18  3.644468E+05  2.004267E+05 -1.502465E+03  2.811209E+05  5.587083E-10 -1.833202E-10
       232  19  4.284010E+05  2.456105E+05  1.430167E+04  3.134620E+05 -3.645271E+03  1.097419E+03
       232  20  4.279450E+05  2.454073E+05  1.360551E+04  3.133432E+05 -1.469317E+03  2.711550E+03
       232  21  4.277710E+05  2.455759E+05  1.473208E+04  3.133270E+05  7.129437E+02  4.317181E+03
       232  22  3.961047E+05  2.229946E+05  6.083957E+03  2.972281E+05 -3.654957E+03  1.090181E+03
       232  23  3.959669E+05  2.228132E+05  5.443350E+03  2.971745E+05 -1.491344E+03  2.695059E+03
       232  24  3.961083E+05  2.230010E+05  6.614864E+03  2.972234E+05  6.785936E+02  4.291449E+03
       232  25  3.638101E+05  2.003797E+05 -2.133664E+03  2.809955E+05 -3.664642E+03  1.082942E+03
       232  26  3.639902E+05  2.002199E+05 -2.718806E+03  2.810069E+05 -1.513370E+03  2.678569E+03
       232  27  3.644468E+05  2.004267E+05 -1.502430E+03  2.811209E+05  6.442458E+02  4.265719E+03
       233   1  4.272534E+05  2.459590E+05  1.598812E+04  3.136014E+05 -1.736445E+03 -5.070033E+03
       233   2  4.276816E+05  2.449121E+05  2.061875E+04  3.126430E+05 -6.861124E+03 -8.841792E+03
       233   3  4.300499E+05  2.463091E+05  3.010010E+04  3.110778E+05 -1.203025E+04 -1.255451E+04
       233   4  3.962081E+05  2.229858E+05  7.904222E+03  2.974199E+05 -1.713852E+03 -5.053111E+03
       233   5  3.959197E+05  2.229707E+05  1.254705E+04  2.968242E+05 -6.753056E+03 -8.760795E+03
       233   6  3.975531E+05  2.253811E+05  2.196672E+04  2.956217E+05 -1.183662E+04 -1.240939E+04
       233   7  3.651634E+05  2.000130E+05 -1.799159E+02  2.812391E+05 -1.691261E+03 -5.036190E+03
       233   8  3.641589E+05  2.010300E+05  4.475279E+03  2.810063E+05 -6.644996E+03 -8.679803E+03
       233   9  3.650581E+05  2.044539E+05  1.383343E+04  2.801666E+05 -1.164301E+04 -1.226429E+04
       233  10  4.272534E+05  2.459589E+05  1.598806E+04  3.136014E+05 -1.777056E-10 -3.624761E-10
       233  11  4.276815E+05  2.449120E+05  2.061851E+04  3.126430E+05  1.657969E-10 -2.965494E-10
       233  12  4.300497E+05  2.463089E+05  3.009953E+04  3.110777E+05  3.897233E-10 -1.048237E-10
       233  13  3.962081E+05  2.229858E+05  7.904169E+03  2.974199E+05 -1.173598E-10 -2.426762E-10
       233  14  3.959196E+05  2.229706E+05  1.254682E+04  2.968241E+05 -4.816482E-11 -1.592260E-10
       233  15  3.975529E+05  2.253809E+05  2.196617E+04  2.956215E+05  5.813178E-11 -1.830989E-10
       233  16  3.651634E+05  2.000130E+05 -1.799689E+02  2.812391E+05  4.709314E-10 -3.962482E-11
       233  17  3.641588E+05  2.010299E+05  4.475055E+03  2.810062E+05  1.441873E-10 -6.776573E-11
       233  18  3.650579E+05  2.044537E+05  1.383290E+04  2.801665E+05  2.909415E-11 -3.282406E-10
       233  19  4.272534E+05  2.459590E+05  1.598812E+04  3.136014E+05  1.736445E+03  5.070033E+03
       233  20  4.276816E+05  2.449121E+05  2.061875E+04  3.126430E+05  6.861124E+03  8.841792E+03
       233  21  4.300499E+05  2.463091E+05  3.010010E+04  3.110778E+05  1.203025E+04  1.255451E+04
       233  22  3.962081E+05  2.229858E+05  7.904222E+03  2.974199E+05  1.713852E+03  5.053111E+03
       233  23  3.959197E+05  2.229707E+05  1.254705E+04  2.968242E+05  6.753056E+03  8.760795E+03
       233  24  3.975531E+05  2.253811E+05  2.196672E+04  2.956217E+05  1.183662E+04  1.240939E+04
       233  25  3.651634E+05  2.000130E+05 -1.799159E+02  2.812391E+05  1.691261E+03  5.036190E+03
       233  26  3.641589E+05  2.010300E+05  4.475279E+03  2.810063E+05  6.644996E+03  8.679803E+03
       233  27  3.650581E+05  2.044539E+05  1.383343E+04  2.801666E+05  1.164301E+04  1.226429E+04
       234   1  4.218921E+05  2.546442E+05  3.645634E+04  3.173718E+05 -1.490655E+04 -1.468716E+04
       234   2  4.514308E+05  2.300299E+05  5.906186E+04  2.964871E+05 -3.743917E+04 -3.088307E+04
       234   3  5.162346E+05  2.532877E+05  1.156243E+05  2.544664E+05 -6.059451E+04 -4.624887E+04
       234   4  3.987647E+05  2.244989E+05  2.833591E+04  2.992528E+05 -1.486052E+04 -1.465232E+04
       234   5  3.980195E+05  2.305091E+05  5.050777E+04  2.874538E+05 -3.619728E+04 -2.995420E+04
       234   6  4.322783E+05  2.841324E+05  1.056010E+05  2.545189E+05 -5.815516E+04 -4.442826E+04
       234   7  3.756380E+05  1.943550E+05  2.021544E+04  2.811349E+05 -1.481449E+04 -1.461748E+04
       234   8  3.446118E+05  2.309889E+05  4.195379E+04  2.784204E+05 -3.495554E+04 -2.902529E+04
       234   9  3.483338E+05  3.149840E+05  9.557915E+04  2.545689E+05 -5.571626E+04 -4.260731E+04
       234  10  4.218918E+05  2.546439E+05  3.645552E+04  3.173716E+05  3.931728E-10 -2.484263E-11
       234  11  4.514291E+05  2.300285E+05  5.905744E+04  2.964862E+05  3.828594E-10 -1.219299E-10
       234  12  5.162301E+05  2.532844E+05  1.156134E+05  2.544641E+05 -2.870012E-11 -2.802384E-10
       234  13  3.987644E+05  2.244986E+05  2.833510E+04  2.992527E+05  1.165767E-10 -3.286903E-10
       234  14  3.980179E+05  2.305077E+05  5.050362E+04  2.874529E+05  3.999102E-11 -2.202413E-10
       234  15  4.322742E+05  2.841293E+05  1.055910E+05  2.545169E+05  8.290943E-11 -3.725574E-11
       234  16  3.756377E+05  1.943547E+05  2.021462E+04  2.811347E+05  5.436767E-11 -4.559381E-10
       234  17  3.446103E+05  2.309877E+05  4.194992E+04  2.784196E+05 -1.266757E-10 -3.875367E-10
       234  18  3.483299E+05  3.149812E+05  9.556992E+04  2.545670E+05  1.277153E-10  1.123660E-10
       234  19  4.218921E+05  2.546442E+05  3.645634E+04  3.173718E+05  1.490655E+04  1.468716E+04
       234  20  4.514308E+05  2.300299E+05  5.906186E+04  2.964871E+05  3.743917E+04  3.088307E+04
       234  21  5.162346E+05  2.532877E+05  1.156243E+05  2.544664E+05  6.059451E+04  4.624887E+04
       234  22  3.987647E+05  2.244989E+05  2.833591E+04  2.992528E+05  1.486052E+04  1.465232E+04
       234  23  3.980195E+05  2.305091E+05  5.050777E+04  2.874538E+05  3.619728E+04  2.995420E+04
       234  24  4.322783E+05  2.841324E+05  1.056010E+05  2.545189E+05  5.815516E+04  4.442826E+04
       234  25  3.756380E+05  1.943550E+05  2.021544E+04  2.811349E+05  1.481449E+04  1.461748E+04
       234  26  3.446118E+05  2.309889E+05  4.195379E+04  2.784204E+05  3.495554E+04  2.902529E+04
       234  27  3.483338E+05  3.149840E+05  9.557915E+04  2.545689E+05  5.571626E+04  4.260731E+04
       235   1  7.482207E+05  1.246412E+05  1.240459E+05  8.188541E+04  4.136341E+04 -5.066802E+03
       235   2  6.677522E+05  8.327453E+04  8.071399E+04  6.401109E+04  1.940323E+04 -1.565406E+04
       235   3  5.948512E+05  6.066857E+04  5.635970E+04  6.575826E+04 -2.552926E+03 -1.567030E+04
       235   4  3.401900E+05  2.364917E+04  2.685216E+04  6.787112E+04  1.848029E+04 -5.067670E+03
       235   5  3.377381E+05  3.753751E+03  1.293527E+04  5.806093E+04  1.176078E+04 -1.565527E+04
       235   6  3.402100E+05 -1.879244E+01  7.424591E+03  6.787183E+04  5.042550E+03 -1.566988E+04
       235   7 -6.768647E+04 -7.735388E+04 -7.035118E+04  5.386607E+04 -4.387873E+03 -5.067507E+03
       235   8  7.827623E+03 -7.577372E+04 -5.484903E+04  5.211397E+04  4.122328E+03 -1.565634E+04
       235   9  8.563124E+04 -6.070994E+04 -4.151329E+04  6.998450E+04  1.263498E+04 -1.566940E+04
       235  10  7.482188E+05  1.246407E+05  1.240426E+05  8.188558E+04 -4.706395E-08 -6.378080E-10
       235  11  6.677517E+05  8.327417E+04  8.071282E+04  6.401133E+04  1.567992E-09 -1.627476E-09
       235  12  5.948512E+05  6.066830E+04  5.635923E+04  6.575822E+04  5.293924E-08 -7.482874E-10
       235  13  3.401897E+05  2.364905E+04  2.685147E+04  6.787119E+04 -5.013573E-12 -6.343484E-10
       235  14  3.377379E+05  3.753451E+03  1.293455E+04  5.806107E+04  2.187055E-10 -1.757174E-09
       235  15  3.402099E+05 -1.906299E+01  7.424082E+03  6.787189E+04  1.160048E-10 -8.251513E-10
       235  16 -6.768650E+04 -7.735391E+04 -7.035127E+04  5.386605E+04  4.687387E-08 -6.996375E-10
       235  17  7.827539E+03 -7.577398E+04 -5.484952E+04  5.211402E+04 -1.941399E-09 -1.862999E-09
       235  18  8.563100E+04 -6.071025E+04 -4.151405E+04  6.998466E+04 -5.271054E-08 -9.123573E-10
       235  19  7.482207E+05  1.246412E+05  1.240459E+05  8.188541E+04 -4.136341E+04  5.066802E+03
       235  20  6.677522E+05  8.327453E+04  8.071399E+04  6.401109E+04 -1.940323E+04  1.565406E+04
       235  21  5.948512E+05  6.066857E+04  5.635970E+04  6.575826E+04  2.552926E+03  1.567030E+04
       235  22  3.401900E+05  2.364917E+04  2.685216E+04  6.787112E+04 -1.848029E+04  5.067670E+03
       235  23  3.377381E+05  3.753751E+03  1.293527E+04  5.806093E+04 -1.176078E+04  1.565527E+04
       235  24  3.402100E+05 -1.879244E+01  7.424591E+03  6.787183E+04 -5.042550E+03  1.566988E+04
       235  25 -6.768647E+04 -7.735388E+04 -7.035118E+04  5.386607E+04  4.387873E+03  5.067507E+03
       235  26  7.827623E+03 -7.577372E+04 -5.484903E+04  5.211397E+04 -4.122328E+03  1.565634E+04
       235  27  8.563124E+04 -6.070994E+04 -4.151329E+04  6.998450E+04 -1.263498E+04  1.566940E+04
       236   1  5.415782E+05  4.911403E+04  4.467613E+04  6.835936E+04 -1.688496E+03 -1.256199E+04
       236   2  4.647295E+05  2.994330E+04  2.743579E+04  5.800921E+04 -4.568856E+03 -8.234811E+03
       236   3  3.884931E+05  1.170079E+04  1.230104E+04  6.789020E+04 -7.449405E+03 -3.201040E+03
       236   4  3.392157E+05  9.042225E+02  5.887881E+03  6.800751E+04  4.037400E+03 -1.256143E+04
       236   5  3.390039E+05  7.017956E+01  3.738255E+03  5.789191E+04  2.175363E+03 -8.233773E+03
       236   6  3.392223E+05 -1.186604E+01  2.987874E+03  6.800768E+04  3.127962E+02 -3.199436E+03
       236   7  1.368927E+05 -4.730798E+04 -3.290212E+04  6.765578E+04  9.761475E+03 -1.256088E+04
       236   8  2.132937E+05 -2.980383E+04 -1.995980E+04  5.777463E+04  8.918250E+03 -8.232737E+03
       236   9  2.899539E+05 -1.172463E+04 -6.325172E+03  6.812514E+04  8.074396E+03 -3.197829E+03
       236  10  5.415782E+05  4.911386E+04  4.467583E+04  6.835935E+04  2.935919E-09  4.780916E-10
       236  11  4.647295E+05  2.994322E+04  2.743562E+04  5.800918E+04  2.233701E-09  1.598269E-09
       236  12  3.884931E+05  1.170076E+04  1.230091E+04  6.789019E+04  2.861327E-09  1.513210E-09
       236  13  3.392157E+05  9.040487E+02  5.887554E+03  6.800755E+04 -3.430164E-10  3.832724E-10
       236  14  3.390039E+05  7.010547E+01  3.738119E+03  5.789192E+04  1.375323E-10  1.703145E-09
       236  15  3.392223E+05 -1.187706E+01  2.987854E+03  6.800768E+04  1.192860E-10  1.533288E-09
       236  16  1.368926E+05 -4.730818E+04 -3.290260E+04  6.765588E+04 -3.039832E-09  2.815075E-10
       236  17  2.132936E+05 -2.980393E+04 -1.996008E+04  5.777469E+04 -2.524097E-09  1.512681E-09
       236  18  2.899539E+05 -1.172466E+04 -6.325314E+03  6.812516E+04 -2.700150E-09  1.469826E-09
       236  19  5.415782E+05  4.911403E+04  4.467613E+04  6.835936E+04  1.688496E+03  1.256199E+04
       236  20  4.647295E+05  2.994330E+04  2.743579E+04  5.800921E+04  4.568856E+03  8.234811E+03
       236  21  3.884931E+05  1.170079E+04  1.230104E+04  6.789020E+04  7.449405E+03  3.201040E+03
       236  22  3.392157E+05  9.042225E+02  5.887881E+03  6.800751E+04 -4.037400E+03  1.256143E+04
       236  23  3.390039E+05  7.017956E+01  3.738255E+03  5.789191E+04 -2.175363E+03  8.233773E+03
       236  24  3.392223E+05 -1.186604E+01  2.987874E+03  6.800768E+04 -3.127962E+02  3.199436E+03
       236  25  1.368927E+05 -4.730798E+04 -3.290212E+04  6.765578E+04 -9.761475E+03  1.256088E+04
       236  26  2.132937E+05 -2.980383E+04 -1.995980E+04  5.777463E+04 -8.918250E+03  8.232737E+03
       236  27  2.899539E+05 -1.172463E+04 -6.325172E+03  6.812514E+04 -8.074396E+03  3.197829E+03
       237   1  3.366277E+05 -6.591584E+02  2.313347E+03  6.812154E+04 -7.960016E+03 -1.222969E+01
       237   2  2.599675E+05 -1.873606E+04 -1.136702E+04  5.777760E+04 -8.882871E+03  5.055853E+03
       237   3  1.835745E+05 -3.624358E+04 -2.430532E+04  6.766895E+04 -9.805261E+03  9.504257E+03
       237   4  3.392194E+05 -9.539347E+00  2.970815E+03  6.800851E+04 -2.127117E+02 -1.058255E+01
       237   5  3.390097E+05  6.963112E+01  3.645322E+03  5.789088E+04 -2.028846E+03  5.057082E+03
       237   6  3.392152E+05  8.730842E+02  5.681468E+03  6.800834E+04 -3.844612E+03  9.505121E+03
       237   7  3.418113E+05  6.401115E+02  3.628507E+03  6.789547E+04  7.534625E+03 -8.938242E+00
       237   8  4.180581E+05  1.887498E+04  1.865756E+04  5.800417E+04  4.826030E+03  5.058314E+03
       237   9  4.948793E+05  3.798833E+04  3.566727E+04  6.834782E+04  2.117498E+03  9.505991E+03
       237  10  3.366276E+05 -6.591754E+02  2.313228E+03  6.812154E+04  1.394764E-09  1.007024E-09
       237  11  2.599674E+05 -1.873611E+04 -1.136722E+04  5.777764E+04  1.008194E-09  8.690943E-10
       237  12  1.835744E+05 -3.624370E+04 -2.430567E+04  6.766902E+04  4.671183E-10  5.216199E-10
       237  13  3.392194E+05 -9.539359E+00  2.970815E+03  6.800851E+04 -2.693158E-10  1.010003E-09
       237  14  3.390097E+05  6.960254E+01  3.645266E+03  5.789089E+04  9.055775E-11  4.280079E-10
       237  15  3.392152E+05  8.729832E+02  5.681271E+03  6.800837E+04 -6.174085E-11  4.066309E-10
       237  16  3.418113E+05  6.400962E+02  3.628401E+03  6.789547E+04 -1.424883E-09  9.900537E-10
       237  17  4.180580E+05  1.887494E+04  1.865747E+04  5.800415E+04 -1.175062E-09  6.084264E-10
       237  18  4.948792E+05  3.798823E+04  3.566709E+04  6.834780E+04 -5.726782E-10  3.064159E-10
       237  19  3.366277E+05 -6.591584E+02  2.313347E+03  6.812154E+04  7.960016E+03  1.222969E+01
       237  20  2.599675E+05 -1.873606E+04 -1.136702E+04  5.777760E+04  8.882871E+03 -5.055853E+03
       237  21  1.835745E+05 -3.624358E+04 -2.430532E+04  6.766895E+04  9.805261E+03 -9.504257E+03
       237  22  3.392194E+05 -9.539347E+00  2.970815E+03  6.800851E+04  2.127117E+02  1.058255E+01
       237  23  3.390097E+05  6.963112E+01  3.645322E+03  5.789088E+04  2.028846E+03 -5.057082E+03
       237  24  3.392152E+05  8.730842E+02  5.681468E+03  6.800834E+04  3.844612E+03 -9.505121E+03
       237  25  3.418113E+05  6.401115E+02  3.628507E+03  6.789547E+04 -7.534625E+03  8.938242E+00
       237  26  4.180581E+05  1.887498E+04  1.865756E+04  5.800417E+04 -4.826030E+03 -5.058314E+03
       237  27  4.948793E+05  3.798833E+04  3.566727E+04  6.834782E+04 -2.117498E+03 -9.505991E+03
       238   1  1.323228E+05 -4.959133E+04 -3.296537E+04  6.990880E+04 -1.243950E+04  1.262228E+04
       238   2  5.450402E+04 -6.472515E+04 -4.600978E+04  5.232858E+04 -5.303583E+03  1.320243E+04
       238   3 -2.094753E+04 -6.674858E+04 -6.041939E+04  5.443558E+04  1.830930E+03  4.348543E+03
       238   4  3.401682E+05 -1.114647E+01  7.146810E+03  6.788640E+04 -4.814233E+03  1.262316E+04
       238   5  3.378001E+05  3.609421E+03  1.242150E+04  5.804269E+04 -1.126565E+04  1.320138E+04
       238   6  3.401506E+05  2.269556E+04  2.576306E+04  6.788495E+04 -1.771787E+04  4.347712E+03
       238   7  5.480552E+05  4.956652E+04  4.725720E+04  6.586331E+04  2.813533E+03  1.262399E+04
       238   8  6.211724E+05  7.193907E+04  7.084860E+04  6.375944E+04 -1.723038E+04  1.320023E+04
       238   9  7.013695E+05  1.121312E+05  1.119379E+05  8.134217E+04 -3.727800E+04  4.346035E+03
       238  10  1.323226E+05 -4.959154E+04 -3.296596E+04  6.990892E+04  5.019611E-10  3.991856E-10
       238  11  5.450394E+04 -6.472535E+04 -4.601016E+04  5.232864E+04  1.163409E-10  1.192616E-10
       238  12 -2.094754E+04 -6.674861E+04 -6.041943E+04  5.443557E+04 -2.957465E-11 -2.849912E-12
       238  13  3.401681E+05 -1.132383E+01  7.146467E+03  6.788645E+04  4.028285E-10  3.841368E-10
       238  14  3.377999E+05  3.609200E+03  1.242093E+04  5.804281E+04 -9.040608E-11  2.092669E-10
       238  15  3.401503E+05  2.269545E+04  2.576244E+04  6.788501E+04 -3.459395E-11  1.084486E-11
       238  16  5.480552E+05  4.956634E+04  4.725689E+04  6.586328E+04 -3.929405E-10  2.372427E-10
       238  17  6.211720E+05  7.193880E+04  7.084771E+04  6.375962E+04  6.299456E-11  1.199722E-10
       238  18  7.013680E+05  1.121308E+05  1.119352E+05  8.134230E+04 -2.259598E-10  7.734049E-12
       238  19  1.323228E+05 -4.959133E+04 -3.296537E+04  6.990880E+04  1.243950E+04 -1.262228E+04
       238  20  5.450402E+04 -6.472515E+04 -4.600978E+04  5.232858E+04  5.303583E+03 -1.320243E+04
       238  21 -2.094753E+04 -6.674858E+04 -6.041939E+04  5.443558E+04 -1.830930E+03 -4.348543E+03
       238  22  3.401682E+05 -1.114647E+01  7.146810E+03  6.788640E+04  4.814233E+03 -1.262316E+04
       238  23  3.378001E+05  3.609421E+03  1.242150E+04  5.804269E+04  1.126565E+04 -1.320138E+04
       238  24  3.401506E+05  2.269556E+04  2.576306E+04  6.788495E+04  1.771787E+04 -4.347712E+03
       238  25  5.480552E+05  4.956652E+04  4.725720E+04  6.586331E+04 -2.813533E+03 -1.262399E+04
       238  26  6.211724E+05  7.193907E+04  7.084860E+04  6.375944E+04  1.723038E+04 -1.320023E+04
       238  27  7.013695E+05  1.121312E+05  1.119379E+05  8.134217E+04  3.727800E+04 -4.346035E+03
       239   1 -1.989189E+05 -7.287336E+05 -2.093717E+05  1.595709E+05 -4.425360E+03 -9.567165E+04
       239   2 -8.493481E+04 -6.033914E+05 -1.155056E+05  1.109573E+05 -1.258577E+04 -5.139286E+04
       239   3 -4.146718E+04 -5.014479E+05 -6.812062E+04  9.175681E+04 -1.007586E+04 -7.106617E+03
       239   4 -9.949998E+04 -3.278275E+05 -1.132005E+05  1.006491E+05 -4.409554E+03 -7.624876E+04
       239   5 -1.578860E+04 -3.174431E+05 -5.576122E+04  8.592237E+04 -1.258167E+04 -4.731048E+04
       239   6  8.812578E+01 -3.277916E+05 -3.412645E+04  1.006157E+05 -1.008088E+04 -1.837371E+04
       239   7 -7.946891E+01  7.323427E+04 -1.703747E+04  4.168893E+04 -4.397445E+03 -5.681335E+04
       239   8  5.335476E+04 -3.141599E+04  3.979091E+03  6.087571E+04 -1.257791E+04 -4.322625E+04
       239   9  4.164198E+04 -1.541059E+05 -1.332206E+02  1.094770E+05 -1.008622E+04 -2.964388E+04
       239  10 -1.989214E+05 -7.287434E+05 -2.093889E+05  1.595706E+05 -6.908429E-11 -3.177558E-10
       239  11 -8.493569E+04 -6.033943E+05 -1.155109E+05  1.109568E+05  1.145811E-11 -6.222038E-11
       239  12 -4.146730E+04 -5.014480E+05 -6.812090E+04  9.175675E+04  2.205394E-12  3.662217E-10
       239  13 -9.950157E+04 -3.278337E+05 -1.132115E+05  1.006488E+05 -1.574116E-10  3.791098E-11
       239  14 -1.578937E+04 -3.174455E+05 -5.576572E+04  8.592189E+04 -3.794887E-11 -1.709664E-10
       239  15  8.792603E+01 -3.277920E+05 -3.412728E+04  1.006155E+05 -1.970203E-10  1.113386E-11
       239  16 -8.035605E+01  7.323080E+04 -1.704357E+04  4.168873E+04 -1.376495E-10  4.292425E-10
       239  17  5.335409E+04 -3.141803E+04  3.975282E+03  6.087527E+04 -5.194946E-10 -3.513579E-12
       239  18  4.164163E+04 -1.541068E+05 -1.350633E+02  1.094768E+05  1.755835E-10 -5.146171E-10
       239  19 -1.989189E+05 -7.287336E+05 -2.093717E+05  1.595709E+05  4.425360E+03  9.567165E+04
       239  20 -8.493481E+04 -6.033914E+05 -1.155056E+05  1.109573E+05  1.258577E+04  5.139286E+04
       239  21 -4.146718E+04 -5.014479E+05 -6.812062E+04  9.175681E+04  1.007586E+04  7.106617E+03
       239  22 -9.949998E+04 -3.278275E+05 -1.132005E+05  1.006491E+05  4.409554E+03  7.624876E+04
       239  23 -1.578860E+04 -3.174431E+05 -5.576122E+04  8.592237E+04  1.258167E+04  4.731048E+04
       239  24  8.812578E+01 -3.277916E+05 -3.412645E+04  1.006157E+05  1.008088E+04  1.837371E+04
       239  25 -7.946891E+01  7.323427E+04 -1.703747E+04  4.168893E+04  4.397445E+03  5.681335E+04
       239  26  5.335476E+04 -3.141599E+04  3.979091E+03  6.087571E+04  1.257791E+04  4.322625E+04
       239  27  4.164198E+04 -1.541059E+05 -1.332206E+02  1.094770E+05  1.008622E+04  2.964388E+04
       240   1 -2.669067E+04 -4.201154E+05 -4.773213E+04  1.026624E+05 -5.420332E+03 -4.052199E+03
       240   2  3.565766E+03 -3.051101E+05 -1.968001E+04  8.579122E+04  1.160726E+03  7.287144E+03
       240   3  2.835186E+04 -1.929573E+05 -3.874606E+02  9.893080E+04  7.681249E+03  1.862860E+04
       240   4 -3.625166E+03 -3.238220E+05 -2.872797E+04  1.007519E+05 -5.424754E+03 -1.356129E+04
       240   5 -5.369047E+02 -3.223825E+05 -2.291474E+04  8.574616E+04  1.156415E+03 -2.134872E+03
       240   6 -2.933335E+03 -3.238230E+05 -2.592078E+04  1.007516E+05  7.677085E+03  9.291678E+03
       240   7  1.943983E+04 -2.275195E+05 -9.723925E+03  9.884108E+04 -5.429118E+03 -2.307182E+04
       240   8 -4.639545E+03 -3.396544E+05 -2.614915E+04  8.570110E+04  1.152105E+03 -1.155663E+04
       240   9 -3.421950E+04 -4.546720E+05 -5.145458E+04  1.025720E+05  7.672865E+03 -4.331646E+01
       240  10 -2.669070E+04 -4.201154E+05 -4.773221E+04  1.026624E+05 -2.133972E-10 -1.993624E-10
       240  11  3.565751E+03 -3.051101E+05 -1.968012E+04  8.579121E+04 -1.828663E-11 -9.043834E-11
       240  12  2.835170E+04 -1.929577E+05 -3.882237E+02  9.893068E+04  2.736789E-11 -2.175003E-11
       240  13 -3.625247E+03 -3.238222E+05 -2.872837E+04  1.007518E+05 -1.886737E-10  2.062520E-12
       240  14 -5.369074E+02 -3.223825E+05 -2.291475E+04  8.574616E+04  2.370536E-10 -2.616319E-10
       240  15 -2.933421E+03 -3.238231E+05 -2.592105E+04  1.007515E+05  1.067607E-10  9.626157E-11
       240  16  1.943966E+04 -2.275200E+05 -9.724981E+03  9.884098E+04  5.443761E-11  4.247974E-10
       240  17 -4.639583E+03 -3.396546E+05 -2.614941E+04  8.570111E+04  1.644241E-10  2.299801E-10
       240  18 -3.421956E+04 -4.546720E+05 -5.145469E+04  1.025720E+05 -1.419765E-10 -4.403052E-11
       240  19 -2.669067E+04 -4.201154E+05 -4.773213E+04  1.026624E+05  5.420332E+03  4.052199E+03
       240  20  3.565766E+03 -3.051101E+05 -1.968001E+04  8.579122E+04 -1.160726E+03 -7.287144E+03
       240  21  2.835186E+04 -1.929573E+05 -3.874606E+02  9.893080E+04 -7.681249E+03 -1.862860E+04
       240  22 -3.625166E+03 -3.238220E+05 -2.872797E+04  1.007519E+05  5.424754E+03  1.356129E+04
       240  23 -5.369047E+02 -3.223825E+05 -2.291474E+04  8.574616E+04 -1.156415E+03  2.134872E+03
       240  24 -2.933335E+03 -3.238230E+05 -2.592078E+04  1.007516E+05 -7.677085E+03 -9.291678E+03
       240  25  1.943983E+04 -2.275195E+05 -9.723925E+03  9.884108E+04  5.429118E+03  2.307182E+04
       240  26 -4.639545E+03 -3.396544E+05 -2.614915E+04  8.570110E+04 -1.152105E+03  1.155663E+04
       240  27 -3.421950E+04 -4.546720E+05 -5.145458E+04  1.025720E+05 -7.672865E+03  4.331646E+01
       241   1  4.985022E+04 -1.187172E+05  1.075488E+04  1.078357E+05  1.233080E+04  2.485570E+04
       241   2  6.442052E+04  2.079604E+03  1.989748E+04  6.520211E+04  1.438748E+04  3.252981E+04
       241   3  2.588234E+04  1.086185E+05  1.076765E+04  5.192586E+04  4.925265E+03  4.020744E+04
       241   4  6.923548E+01 -3.270001E+05 -2.978168E+04  1.006037E+05  1.232584E+04  1.359926E+04
       241   5 -1.300983E+04 -3.184377E+05 -4.676573E+04  8.593574E+04  1.439109E+04  3.784996E+04
       241   6 -8.209401E+04 -3.270358E+05 -9.354493E+04  1.006299E+05  4.935418E+03  6.210207E+04
       241   7 -4.971409E+04 -5.352410E+05 -7.031979E+04  9.337417E+04  1.232115E+04  2.346510E+03
       241   8 -9.044508E+04 -6.388568E+05 -1.134342E+05  1.066585E+05  1.439505E+04  4.316741E+04
       241   9 -1.900750E+05 -7.625101E+05 -1.978678E+05  1.492996E+05  4.949012E+03  8.398139E+04
       241  10  4.984989E+04 -1.187179E+05  1.075343E+04  1.078355E+05 -5.890532E-11  6.103484E-11
       241  11  6.442002E+04  2.078412E+03  1.989510E+04  6.520173E+04  4.394014E-11  2.198636E-11
       241  12  2.588188E+04  1.086168E+05  1.076457E+04  5.192570E+04 -4.165554E-11  2.237309E-11
       241  13  6.902272E+01 -3.270004E+05 -2.978231E+04  1.006036E+05 -2.164699E-11  2.561634E-11
       241  14 -1.301043E+04 -3.184393E+05 -4.676881E+04  8.593531E+04  2.093622E-12 -1.113178E-10
       241  15 -8.209508E+04 -3.270400E+05 -9.355222E+04  1.006297E+05  4.072908E-11  4.632948E-11
       241  16 -4.971425E+04 -5.352411E+05 -7.032009E+04  9.337415E+04  1.371483E-10  2.698614E-10
       241  17 -9.044580E+04 -6.388589E+05 -1.134381E+05  1.066580E+05 -2.186448E-10  4.886713E-12
       241  18 -1.900769E+05 -7.625177E+05 -1.978812E+05  1.492993E+05  4.262524E-11 -2.136644E-10
       241  19  4.985022E+04 -1.187172E+05  1.075488E+04  1.078357E+05 -1.233080E+04 -2.485570E+04
       241  20  6.442052E+04  2.079604E+03  1.989748E+04  6.520211E+04 -1.438748E+04 -3.252981E+04
       241  21  2.588234E+04  1.086185E+05  1.076765E+04  5.192586E+04 -4.925265E+03 -4.020744E+04
       241  22  6.923548E+01 -3.270001E+05 -2.978168E+04  1.006037E+05 -1.232584E+04 -1.359926E+04
       241  23 -1.300983E+04 -3.184377E+05 -4.676573E+04  8.593574E+04 -1.439109E+04 -3.784996E+04
       241  24 -8.209401E+04 -3.270358E+05 -9.354493E+04  1.006299E+05 -4.935418E+03 -6.210207E+04
       241  25 -4.971409E+04 -5.352410E+05 -7.031979E+04  9.337417E+04 -1.232115E+04 -2.346510E+03
       241  26 -9.044508E+04 -6.388568E+05 -1.134342E+05  1.066585E+05 -1.439505E+04 -4.316741E+04
       241  27 -1.900750E+05 -7.625101E+05 -1.978678E+05  1.492996E+05 -4.949012E+03 -8.398139E+04
       242   1  3.765550E+05  3.013109E+05  8.181057E+04  2.678120E+05  4.744062E+04  3.587226E+04
       242   2  3.780228E+05  2.366728E+05  3.852767E+04  2.906712E+05  3.052959E+04  2.370715E+04
       242   3  4.102677E+05  2.093074E+05  2.186450E+04  2.954677E+05  1.399326E+04  1.104248E+04
       242   4  4.372287E+05  2.695497E+05  8.737588E+04  2.633959E+05  4.828309E+04  3.649845E+04
       242   5  4.078992E+05  2.261659E+05  4.181164E+04  2.909332E+05  3.064752E+04  2.379407E+04
       242   6  4.095015E+05  2.202073E+05  2.349295E+04  3.004084E+05  1.338781E+04  1.058880E+04
       242   7  4.979090E+05  2.377942E+05  9.294217E+04  2.589781E+05  4.912567E+04  3.712453E+04
       242   8  4.377770E+05  2.156598E+05  4.509576E+04  2.911949E+05  3.076546E+04  2.388098E+04
       242   9  4.087353E+05  2.311075E+05  2.512142E+04  3.053492E+05  1.278235E+04  1.013510E+04
       242  10  3.765522E+05  3.013089E+05  8.180393E+04  2.678106E+05 -3.739572E-09 -2.663679E-09
       242  11  3.780217E+05  2.366720E+05  3.852487E+04  2.906706E+05  7.495941E-09  6.488298E-09
       242  12  4.102675E+05  2.093072E+05  2.186390E+04  2.954676E+05  1.843996E-08  1.552839E-08
       242  13  4.372258E+05  2.695477E+05  8.736900E+04  2.633945E+05  9.908368E-11 -8.858489E-11
       242  14  4.078981E+05  2.261650E+05  4.180881E+04  2.909326E+05 -5.154252E-10  3.572733E-10
       242  15  4.095013E+05  2.202072E+05  2.349240E+04  3.004083E+05  7.385700E-10  2.445801E-09
       242  16  4.979060E+05  2.377921E+05  9.293505E+04  2.589766E+05  3.299514E-09  2.403118E-09
       242  17  4.377758E+05  2.156589E+05  4.509291E+04  2.911943E+05 -7.931011E-09 -5.773934E-09
       242  18  4.087351E+05  2.311074E+05  2.512092E+04  3.053491E+05 -1.620879E-08 -1.073758E-08
       242  19  3.765550E+05  3.013109E+05  8.181057E+04  2.678120E+05 -4.744062E+04 -3.587226E+04
       242  20  3.780228E+05  2.366728E+05  3.852767E+04  2.906712E+05 -3.052959E+04 -2.370715E+04
       242  21  4.102677E+05  2.093074E+05  2.186450E+04  2.954677E+05 -1.399326E+04 -1.104248E+04
       242  22  4.372287E+05  2.695497E+05  8.737588E+04  2.633959E+05 -4.828309E+04 -3.649845E+04
       242  23  4.078992E+05  2.261659E+05  4.181164E+04  2.909332E+05 -3.064752E+04 -2.379407E+04
       242  24  4.095015E+05  2.202073E+05  2.349295E+04  3.004084E+05 -1.338781E+04 -1.058880E+04
       242  25  4.979090E+05  2.377942E+05  9.294217E+04  2.589781E+05 -4.912567E+04 -3.712453E+04
       242  26  4.377770E+05  2.156598E+05  4.509576E+04  2.911949E+05 -3.076546E+04 -2.388098E+04
       242  27  4.087353E+05  2.311075E+05  2.512142E+04  3.053492E+05 -1.278235E+04 -1.013510E+04
       243   1  4.052856E+05  2.203301E+05  1.759719E+04  2.965698E+05  1.158828E+04  8.854942E+03
       243   2  4.091370E+05  2.224123E+05  1.128910E+04  3.003760E+05  7.732850E+03  5.376861E+03
       243   3  4.165333E+05  2.245334E+05  8.927598E+03  3.031110E+05  3.903844E+03  1.863367E+03
       243   4  4.084978E+05  2.209401E+05  1.824108E+04  2.974056E+05  1.107182E+04  8.467703E+03
       243   5  4.061627E+05  2.199229E+05  1.050001E+04  2.986860E+05  7.165361E+03  4.951384E+03
       243   6  4.073834E+05  2.189558E+05  6.749606E+03  2.988951E+05  3.285441E+03  1.399728E+03
       243   7  4.117100E+05  2.215500E+05  1.888497E+04  2.982415E+05  1.055535E+04  8.080457E+03
       243   8  4.031884E+05  2.174336E+05  9.710918E+03  2.969960E+05  6.597876E+03  4.525911E+03
       243   9  3.982337E+05  2.133782E+05  4.571656E+03  2.946792E+05  2.667060E+03  9.361033E+02
       243  10  4.052854E+05  2.203300E+05  1.759679E+04  2.965697E+05 -1.663314E-08 -1.096406E-08
       243  11  4.091369E+05  2.224122E+05  1.128894E+04  3.003760E+05 -7.559743E-09 -5.830388E-09
       243  12  4.165333E+05  2.245334E+05  8.927563E+03  3.031110E+05  3.905491E-09  2.128776E-09
       243  13  4.084976E+05  2.209399E+05  1.824071E+04  2.974056E+05  8.035838E-10  2.481897E-09
       243  14  4.061626E+05  2.199229E+05  1.049987E+04  2.986860E+05 -7.014131E-12  3.502406E-10
       243  15  4.073834E+05  2.189558E+05  6.749582E+03  2.988951E+05  2.969773E-10 -5.290035E-10
       243  16  4.117099E+05  2.215499E+05  1.888464E+04  2.982414E+05  1.849144E-08  1.579563E-08
       243  17  4.031884E+05  2.174336E+05  9.710798E+03  2.969960E+05  7.246494E-09  6.520533E-09
       243  18  3.982337E+05  2.133782E+05  4.571641E+03  2.946792E+05 -3.619737E-09 -3.139288E-09
       243  19  4.052856E+05  2.203301E+05  1.759719E+04  2.965698E+05 -1.158828E+04 -8.854942E+03
       243  20  4.091370E+05  2.224123E+05  1.128910E+04  3.003760E+05 -7.732850E+03 -5.376861E+03
       243  21  4.165333E+05  2.245334E+05  8.927598E+03  3.031110E+05 -3.903844E+03 -1.863367E+03
       243  22  4.084978E+05  2.209401E+05  1.824108E+04  2.974056E+05 -1.107182E+04 -8.467703E+03
       243  23  4.061627E+05  2.199229E+05  1.050001E+04  2.986860E+05 -7.165361E+03 -4.951384E+03
       243  24  4.073834E+05  2.189558E+05  6.749606E+03  2.988951E+05 -3.285441E+03 -1.399728E+03
       243  25  4.117100E+05  2.215500E+05  1.888497E+04  2.982415E+05 -1.055535E+04 -8.080457E+03
       243  26  4.031884E+05  2.174336E+05  9.710918E+03  2.969960E+05 -6.597876E+03 -4.525911E+03
       243  27  3.982337E+05  2.133782E+05  4.571656E+03  2.946792E+05 -2.667060E+03 -9.361033E+02
       244   1  4.197283E+05  2.275558E+05  8.902426E+03  3.049269E+05  3.200551E+03  9.448981E+02
       244   2  4.239449E+05  2.323144E+05  9.516472E+03  3.079459E+05  1.536400E+03 -9.640765E+02
       244   3  4.303887E+05  2.354435E+05  1.179679E+04  3.104838E+05 -1.312515E+02 -2.868422E+03
       244   4  4.073052E+05  2.189689E+05  5.750358E+03  2.987363E+05  2.587085E+03  4.849547E+02
       244   5  4.061927E+05  2.197851E+05  4.987430E+03  2.989763E+05  9.296995E+02 -1.418959E+03
       244   6  4.073060E+05  2.189703E+05  5.884929E+03  2.987353E+05 -7.311787E+02 -3.318239E+03
       244   7  3.948821E+05  2.103820E+05  2.598278E+03  2.925459E+05  1.973635E+03  2.502302E+01
       244   8  3.884407E+05  2.072558E+05  4.583146E+02  2.900070E+05  3.230169E+02 -1.873828E+03
       244   9  3.842235E+05  2.024971E+05 -2.709411E+01  2.869871E+05 -1.331085E+03 -3.768040E+03
       244  10  4.197283E+05  2.275558E+05  8.902405E+03  3.049269E+05 -3.285244E-10 -8.613149E-10
       244  11  4.239449E+05  2.323144E+05  9.516466E+03  3.079459E+05  2.151056E-10 -5.795830E-10
       244  12  4.303887E+05  2.354435E+05  1.179677E+04  3.104838E+05  3.977759E-10 -2.756301E-10
       244  13  4.073051E+05  2.189689E+05  5.750345E+03  2.987363E+05  4.268404E-10 -4.713017E-10
       244  14  4.061927E+05  2.197851E+05  4.987424E+03  2.989763E+05  2.366923E-10 -3.308625E-10
       244  15  4.073060E+05  2.189703E+05  5.884907E+03  2.987353E+05  3.519186E-10 -2.852655E-10
       244  16  3.948821E+05  2.103820E+05  2.598271E+03  2.925459E+05  1.023431E-09 -2.194729E-12
       244  17  3.884407E+05  2.072558E+05  4.583079E+02  2.900070E+05  4.971762E-10 -7.212487E-11
       244  18  3.842235E+05  2.024971E+05 -2.712410E+01  2.869871E+05  3.136413E-11 -8.370439E-11
       244  19  4.197283E+05  2.275558E+05  8.902426E+03  3.049269E+05 -3.200551E+03 -9.448981E+02
       244  20  4.239449E+05  2.323144E+05  9.516472E+03  3.079459E+05 -1.536400E+03  9.640765E+02
       244  21  4.303887E+05  2.354435E+05  1.179679E+04  3.104838E+05  1.312515E+02  2.868422E+03
       244  22  4.073052E+05  2.189689E+05  5.750358E+03  2.987363E+05 -2.587085E+03 -4.849547E+02
       244  23  4.061927E+05  2.197851E+05  4.987430E+03  2.989763E+05 -9.296995E+02  1.418959E+03
       244  24  4.073060E+05  2.189703E+05  5.884929E+03  2.987353E+05  7.311787E+02  3.318239E+03
       244  25  3.948821E+05  2.103820E+05  2.598278E+03  2.925459E+05 -1.973635E+03 -2.502302E+01
       244  26  3.884407E+05  2.072558E+05  4.583146E+02  2.900070E+05 -3.230169E+02  1.873828E+03
       244  27  3.842235E+05  2.024971E+05 -2.709411E+01  2.869871E+05  1.331085E+03  3.768040E+03
       245   1  4.337401E+05  2.384644E+05  1.385312E+04  3.126369E+05 -8.356281E+02 -3.787427E+03
       245   2  4.387289E+05  2.424935E+05  1.925277E+04  3.149208E+05 -5.063435E+03 -7.546575E+03
       245   3  4.473796E+05  2.466943E+05  2.894007E+04  3.161081E+05 -9.369061E+03 -1.120190E+04
       245   4  4.073891E+05  2.189570E+05  6.963004E+03  2.989032E+05 -1.453915E+03 -4.251015E+03
       245   5  4.061570E+05  2.199248E+05  1.093165E+04  2.986726E+05 -5.531835E+03 -7.897800E+03
       245   6  4.085545E+05  2.210320E+05  1.905825E+04  2.973455E+05 -9.687550E+03 -1.144076E+04
       245   7  3.810394E+05  1.994504E+05  7.297673E+01  2.851704E+05 -2.072157E+03 -4.714567E+03
       245   8  3.735866E+05  1.973569E+05  2.610540E+03  2.824255E+05 -6.000198E+03 -8.248999E+03
       245   9  3.697311E+05  1.953705E+05  9.176310E+03  2.785841E+05 -1.000601E+04 -1.167960E+04
       245  10  4.337401E+05  2.384644E+05  1.385309E+04  3.126369E+05  1.064897E-10 -2.357869E-10
       245  11  4.387288E+05  2.424934E+05  1.925261E+04  3.149208E+05  1.598355E-10 -8.246307E-11
       245  12  4.473795E+05  2.466941E+05  2.893967E+04  3.161080E+05  2.091971E-11 -5.525638E-11
       245  13  4.073891E+05  2.189570E+05  6.962966E+03  2.989032E+05  2.530077E-10 -1.672209E-10
       245  14  4.061569E+05  2.199247E+05  1.093147E+04  2.986726E+05  3.477112E-10 -9.587719E-11
       245  15  4.085543E+05  2.210318E+05  1.905783E+04  2.973454E+05  3.253735E-10  1.350175E-10
       245  16  3.810393E+05  1.994503E+05  7.292692E+01  2.851704E+05  1.252415E-10 -1.855260E-11
       245  17  3.735865E+05  1.973568E+05  2.610345E+03  2.824255E+05 -5.866853E-11 -1.463978E-11
       245  18  3.697310E+05  1.953703E+05  9.175866E+03  2.785840E+05  6.486329E-11  1.814986E-10
       245  19  4.337401E+05  2.384644E+05  1.385312E+04  3.126369E+05  8.356281E+02  3.787427E+03
       245  20  4.387289E+05  2.424935E+05  1.925277E+04  3.149208E+05  5.063435E+03  7.546575E+03
       245  21  4.473796E+05  2.466943E+05  2.894007E+04  3.161081E+05  9.369061E+03  1.120190E+04
       245  22  4.073891E+05  2.189570E+05  6.963004E+03  2.989032E+05  1.453915E+03  4.251015E+03
       245  23  4.061570E+05  2.199248E+05  1.093165E+04  2.986726E+05  5.531835E+03  7.897800E+03
       245  24  4.085545E+05  2.210320E+05  1.905825E+04  2.973455E+05  9.687550E+03  1.144076E+04
       245  25  3.810394E+05  1.994504E+05  7.297673E+01  2.851704E+05  2.072157E+03  4.714567E+03
       245  26  3.735866E+05  1.973569E+05  2.610540E+03  2.824255E+05  6.000198E+03  8.248999E+03
       245  27  3.697311E+05  1.953705E+05  9.176310E+03  2.785841E+05  1.000601E+04  1.167960E+04
       246   1  4.441330E+05  2.566275E+05  3.545609E+04  3.234886E+05 -1.154355E+04 -1.320554E+04
       246   2  4.743230E+05  2.402296E+05  5.685495E+04  3.084402E+05 -3.208691E+04 -2.809453E+04
       246   3  5.371945E+05  2.636015E+05  1.085886E+05  2.745319E+05 -5.372693E+04 -4.152243E+04
       246   4  4.095919E+05  2.202790E+05  2.456318E+04  3.004926E+05 -1.212147E+04 -1.363865E+04
       246   5  4.079899E+05  2.264390E+05  4.374646E+04  2.905544E+05 -3.055853E+04 -2.695026E+04
       246   6  4.386118E+05  2.719137E+05  9.143997E+04  2.617567E+05 -5.009030E+04 -3.880203E+04
       246   7  3.750518E+05  1.839319E+05  1.366993E+04  2.774980E+05 -1.269935E+04 -1.407171E+04
       246   8  3.416623E+05  2.126490E+05  3.063799E+04  2.726696E+05 -2.903038E+04 -2.580601E+04
       246   9  3.400451E+05  2.802291E+05  7.429251E+04  2.489808E+05 -4.645456E+04 -3.608143E+04
       246  10  4.441328E+05  2.566272E+05  3.545551E+04  3.234885E+05  2.594860E-10  1.395769E-10
       246  11  4.743217E+05  2.402285E+05  5.685153E+04  3.084395E+05  5.395659E-11 -1.287063E-10
       246  12  5.371909E+05  2.635989E+05  1.085800E+05  2.745301E+05 -1.897368E-10 -1.202332E-10
       246  13  4.095917E+05  2.202788E+05  2.456255E+04  3.004925E+05  7.349758E-11 -2.765338E-11
       246  14  4.079887E+05  2.264380E+05  4.374335E+04  2.905537E+05 -2.386312E-10 -1.647627E-10
       246  15  4.386087E+05  2.719114E+05  9.143243E+04  2.617551E+05  1.157572E-10 -4.961136E-11
       246  16  3.750516E+05  1.839316E+05  1.366926E+04  2.774979E+05 -9.476500E-11 -7.045254E-11
       246  17  3.416612E+05  2.126480E+05  3.063516E+04  2.726690E+05  4.719770E-11 -1.300363E-10
       246  18  3.400424E+05  2.802271E+05  7.428602E+04  2.489794E+05  2.095057E-10  9.062199E-11
       246  19  4.441330E+05  2.566275E+05  3.545609E+04  3.234886E+05  1.154355E+04  1.320554E+04
       246  20  4.743230E+05  2.402296E+05  5.685495E+04  3.084402E+05  3.208691E+04  2.809453E+04
       246  21  5.371945E+05  2.636015E+05  1.085886E+05  2.745319E+05  5.372693E+04  4.152243E+04
       246  22  4.095919E+05  2.202790E+05  2.456318E+04  3.004926E+05  1.212147E+04  1.363865E+04
       246  23  4.079899E+05  2.264390E+05  4.374646E+04  2.905544E+05  3.055853E+04  2.695026E+04
       246  24  4.386118E+05  2.719137E+05  9.143997E+04  2.617567E+05  5.009030E+04  3.880203E+04
       246  25  3.750518E+05  1.839319E+05  1.366993E+04  2.774980E+05  1.269935E+04  1.407171E+04
       246  26  3.416623E+05  2.126490E+05  3.063799E+04  2.726696E+05  2.903038E+04  2.580601E+04
       246  27  3.400451E+05  2.802291E+05  7.429251E+04  2.489808E+05  4.645456E+04  3.608143E+04
       247   1  5.512160E+05  7.991972E+04  7.835702E+04  5.449305E+04  2.248033E+04 -3.573372E+03
       247   2  4.933480E+05  5.739227E+04  5.235925E+04  4.452389E+04  9.296804E+03 -1.099749E+04
       247   3  4.390730E+05  4.233012E+04  3.680674E+04  4.891433E+04 -3.884820E+03 -1.089957E+04
       247   4  2.614675E+05  8.186719E+03  9.303556E+03  4.963639E+04  6.361888E+03 -3.573690E+03
       247   5  2.606168E+05  1.296684E+03  4.512301E+03  4.245671E+04  4.018907E+03 -1.099808E+04
       247   6  2.614768E+05 -7.298209E+00  2.643603E+03  4.963664E+04  1.676549E+03 -1.089928E+04
       247   7 -2.820351E+04 -6.355212E+04 -5.975481E+04  4.478201E+04 -9.749071E+03 -3.573757E+03
       247   8  2.793711E+04 -5.480228E+04 -4.333745E+04  4.039031E+04 -1.257048E+03 -1.099864E+04
       247   9  8.391093E+04 -4.234657E+04 -3.152088E+04  5.035874E+04  7.236365E+03 -1.089896E+04
       247  10  5.512155E+05  7.991958E+04  7.835605E+04  5.449312E+04  1.048520E-10  2.332009E-11
       247  11  4.933479E+05  5.739212E+04  5.235886E+04  4.452397E+04 -2.477420E-10 -1.445142E-11
       247  12  4.390730E+05  4.232999E+04  3.680649E+04  4.891430E+04  4.001308E-10 -1.348794E-10
       247  13  2.614674E+05  8.186695E+03  9.303456E+03  4.963641E+04  1.283274E-10  2.260091E-11
       247  14  2.606168E+05  1.296550E+03  4.512043E+03  4.245674E+04  5.273873E-11  4.050057E-11
       247  15  2.614768E+05 -7.426545E+00  2.643375E+03  4.963665E+04  4.482047E-10 -3.128634E-11
       247  16 -2.820362E+04 -6.355216E+04 -5.975502E+04  4.478198E+04  3.603324E-11  2.751735E-11
       247  17  2.793708E+04 -5.480241E+04 -4.333768E+04  4.039030E+04 -2.582576E-10  1.260503E-10
       247  18  8.391084E+04 -4.234671E+04 -3.152120E+04  5.035880E+04 -1.205709E-10  6.100088E-11
       247  19  5.512160E+05  7.991972E+04  7.835702E+04  5.449305E+04 -2.248033E+04  3.573372E+03
       247  20  4.933480E+05  5.739227E+04  5.235925E+04  4.452389E+04 -9.296804E+03  1.099749E+04
       247  21  4.390730E+05  4.233012E+04  3.680674E+04  4.891433E+04  3.884820E+03  1.089957E+04
       247  22  2.614675E+05  8.186719E+03  9.303556E+03  4.963639E+04 -6.361888E+03  3.573690E+03
       247  23  2.606168E+05  1.296684E+03  4.512301E+03  4.245671E+04 -4.018907E+03  1.099808E+04
       247  24  2.614768E+05 -7.298209E+00  2.643603E+03  4.963664E+04 -1.676549E+03  1.089928E+04
       247  25 -2.820351E+04 -6.355212E+04 -5.975481E+04  4.478201E+04  9.749071E+03  3.573757E+03
       247  26  2.793711E+04 -5.480228E+04 -4.333745E+04  4.039031E+04  1.257048E+03  1.099864E+04
       247  27  8.391093E+04 -4.234657E+04 -3.152088E+04  5.035874E+04 -7.236365E+03  1.089896E+04
       248   1  4.005095E+05  3.352619E+04  2.888380E+04  4.986702E+04 -2.918864E+03 -8.624154E+03
       248   2  3.443851E+05  1.982854E+04  1.720235E+04  4.238970E+04 -4.373681E+03 -5.436576E+03
       248   3  2.885520E+05  6.525189E+03  6.565989E+03  4.970988E+04 -5.828612E+03 -1.748160E+03
       248   4  2.611350E+05  3.127169E+02  2.138227E+03  4.973398E+04  1.312755E+03 -8.623804E+03
       248   5  2.610554E+05  2.254724E+01  1.473353E+03  4.233519E+04  5.793983E+02 -5.435982E+03
       248   6  2.611381E+05  1.461694E+00  1.352643E+03  4.973402E+04 -1.542076E+02 -1.747282E+03
       248   7  1.217792E+05 -3.290190E+04 -2.460817E+04  4.960097E+04  5.543446E+03 -8.623455E+03
       248   8  1.777324E+05 -1.978383E+04 -1.425585E+04  4.228068E+04  5.531830E+03 -5.435389E+03
       248   9  2.337250E+05 -6.522292E+03 -3.860616E+03  4.975816E+04  5.519952E+03 -1.746403E+03
       248  10  4.005095E+05  3.352611E+04  2.888365E+04  4.986700E+04 -1.596141E-11 -9.011280E-11
       248  11  3.443851E+05  1.982850E+04  1.720226E+04  4.238968E+04 -2.298207E-11  1.083504E-10
       248  12  2.885520E+05  6.525177E+03  6.565919E+03  4.970987E+04 -2.204286E-10  1.955093E-12
       248  13  2.611350E+05  3.126366E+02  2.138084E+03  4.973399E+04  2.650645E-10 -5.076130E-11
       248  14  2.610554E+05  2.251541E+01  1.473297E+03  4.233519E+04  7.298511E-12  1.407213E-11
       248  15  2.611381E+05  1.458409E+00  1.352637E+03  4.973402E+04  3.348121E-10 -3.188215E-11
       248  16  1.217791E+05 -3.290199E+04 -2.460837E+04  4.960100E+04  1.468201E-10  3.129603E-11
       248  17  1.777324E+05 -1.978387E+04 -1.425597E+04  4.228071E+04  2.034070E-10 -1.371915E-10
       248  18  2.337249E+05 -6.522304E+03 -3.860679E+03  4.975816E+04  8.869674E-11  8.004300E-11
       248  19  4.005095E+05  3.352619E+04  2.888380E+04  4.986702E+04  2.918864E+03  8.624154E+03
       248  20  3.443851E+05  1.982854E+04  1.720235E+04  4.238970E+04  4.373681E+03  5.436576E+03
       248  21  2.885520E+05  6.525189E+03  6.565989E+03  4.970988E+04  5.828612E+03  1.748160E+03
       248  22  2.611350E+05  3.127169E+02  2.138227E+03  4.973398E+04 -1.312755E+03  8.623804E+03
       248  23  2.610554E+05  2.254724E+01  1.473353E+03  4.233519E+04 -5.793983E+02  5.435982E+03
       248  24  2.611381E+05  1.461694E+00  1.352643E+03  4.973402E+04  1.542076E+02  1.747282E+03
       248  25  1.217792E+05 -3.290190E+04 -2.460817E+04  4.960097E+04 -5.543446E+03  8.623455E+03
       248  26  1.777324E+05 -1.978383E+04 -1.425585E+04  4.228068E+04 -5.531830E+03  5.435389E+03
       248  27  2.337250E+05 -6.522292E+03 -3.860616E+03  4.975816E+04 -5.519952E+03  1.746403E+03
       249   1  2.506347E+05 -2.527701E+03 -6.323055E+02  4.981791E+04 -6.070213E+03  5.844052E+02
       249   2  1.946031E+05 -1.575497E+04 -1.058855E+04  4.227925E+04 -6.389230E+03  4.285413E+03
       249   3  1.386912E+05 -2.867460E+04 -2.026102E+04  4.953977E+04 -6.708013E+03  7.517011E+03
       249   4  2.611544E+05 -8.333769E+00  1.448008E+03  4.973435E+04 -4.012618E+02  5.852954E+02
       249   5  2.610356E+05  4.527472E+01  1.996877E+03  4.233477E+04 -1.396664E+03  4.286058E+03
       249   6  2.611518E+05  5.242390E+02  3.299244E+03  4.973427E+04 -2.391871E+03  7.517442E+03
       249   7  2.716742E+05  2.511044E+03  3.528436E+03  4.965078E+04  5.267784E+03  5.861841E+02
       249   8  3.274725E+05  1.584528E+04  1.458221E+04  4.239030E+04  3.596423E+03  4.286704E+03
       249   9  3.836269E+05  2.972220E+04  2.685889E+04  4.992881E+04  1.925103E+03  7.517876E+03
       249  10  2.506347E+05 -2.527712E+03 -6.323753E+02  4.981792E+04  2.281594E-10  3.606905E-11
       249  11  1.946030E+05 -1.575500E+04 -1.058866E+04  4.227927E+04 -8.206556E-11 -7.324417E-11
       249  12  1.386911E+05 -2.867467E+04 -2.026121E+04  4.953981E+04 -3.671117E-11 -6.509019E-11
       249  13  2.611544E+05 -8.334180E+00  1.448007E+03  4.973435E+04  1.304286E-10 -9.595169E-12
       249  14  2.610356E+05  4.525447E+01  1.996839E+03  4.233477E+04  5.262467E-10 -4.086022E-11
       249  15  2.611518E+05  5.241768E+02  3.299127E+03  4.973429E+04  1.176148E-10  6.840297E-12
       249  16  2.716741E+05  2.511037E+03  3.528383E+03  4.965078E+04 -5.544035E-12 -2.528692E-12
       249  17  3.274725E+05  1.584525E+04  1.458215E+04  4.239028E+04  2.635611E-10 -8.916792E-11
       249  18  3.836269E+05  2.972214E+04  2.685877E+04  4.992880E+04  2.335314E-10 -5.255115E-11
       249  19  2.506347E+05 -2.527701E+03 -6.323055E+02  4.981791E+04  6.070213E+03 -5.844052E+02
       249  20  1.946031E+05 -1.575497E+04 -1.058855E+04  4.227925E+04  6.389230E+03 -4.285413E+03
       249  21  1.386912E+05 -2.867460E+04 -2.026102E+04  4.953977E+04  6.708013E+03 -7.517011E+03
       249  22  2.611544E+05 -8.333769E+00  1.448008E+03  4.973435E+04  4.012618E+02 -5.852954E+02
       249  23  2.610356E+05  4.527472E+01  1.996877E+03  4.233477E+04  1.396664E+03 -4.286058E+03
       249  24  2.611518E+05  5.242390E+02  3.299244E+03  4.973427E+04  2.391871E+03 -7.517442E+03
       249  25  2.716742E+05  2.511044E+03  3.528436E+03  4.965078E+04 -5.267784E+03 -5.861841E+02
       249  26  3.274725E+05  1.584528E+04  1.458221E+04  4.239030E+04 -3.596423E+03 -4.286704E+03
       249  27  3.836269E+05  2.972220E+04  2.685889E+04  4.992881E+04 -1.925103E+03 -7.517876E+03
       250   1  1.010731E+05 -3.832384E+04 -2.676535E+04  5.086090E+04 -8.527699E+03  9.795959E+03
       250   2  4.449832E+04 -4.988594E+04 -3.706040E+04  3.903295E+04 -2.133166E+03  1.011039E+04
       250   3 -1.102615E+04 -5.396118E+04 -4.964488E+04  4.159074E+04  4.260371E+03  3.313574E+03
       250   4  2.617252E+05 -6.014875E+00  4.204839E+03  4.964230E+04 -2.956228E+03  9.796386E+03
       250   5  2.603085E+05  2.162466E+03  7.404635E+03  4.244946E+04 -6.802948E+03  1.010983E+04
       250   6  2.617158E+05  1.359402E+04  1.542504E+04  4.964172E+04 -1.065012E+04  3.313241E+03
       250   7  4.224021E+05  3.831030E+04  3.517395E+04  4.842338E+04  2.616651E+03  9.796790E+03
       250   8  4.761629E+05  5.420799E+04  5.186725E+04  4.586718E+04 -1.147432E+04  1.010921E+04
       250   9  5.345265E+05  8.114420E+04  8.049061E+04  5.769626E+04 -2.556713E+04  3.312522E+03
       250  10  1.010730E+05 -3.832396E+04 -2.676567E+04  5.086097E+04  7.112342E-11  2.500763E-11
       250  11  4.449829E+04 -4.988605E+04 -3.706060E+04  3.903296E+04 -4.017064E-10 -4.293095E-12
       250  12 -1.102618E+04 -5.396119E+04 -4.964494E+04  4.159073E+04 -2.688323E-10  5.262908E-12
       250  13  2.617252E+05 -6.120290E+00  4.204642E+03  4.964233E+04 -8.496606E-11 -5.384134E-11
       250  14  2.603084E+05  2.162344E+03  7.404356E+03  4.244952E+04  2.461524E-10  3.841067E-11
       250  15  2.617156E+05  1.359397E+04  1.542481E+04  4.964175E+04  1.497094E-10  2.725999E-12
       250  16  4.224021E+05  3.831020E+04  3.517376E+04  4.842336E+04  1.602833E-10  1.075737E-10
       250  17  4.761627E+05  5.420784E+04  5.186681E+04  4.586728E+04 -5.690338E-11  3.716467E-12
       250  18  5.345258E+05  8.114401E+04  8.048936E+04  5.769632E+04  7.322683E-11 -1.663348E-13
       250  19  1.010731E+05 -3.832384E+04 -2.676535E+04  5.086090E+04  8.527699E+03 -9.795959E+03
       250  20  4.449832E+04 -4.988594E+04 -3.706040E+04  3.903295E+04  2.133166E+03 -1.011039E+04
       250  21 -1.102615E+04 -5.396118E+04 -4.964488E+04  4.159074E+04 -4.260371E+03 -3.313574E+03
       250  22  2.617252E+05 -6.014875E+00  4.204839E+03  4.964230E+04  2.956228E+03 -9.796386E+03
       250  23  2.603085E+05  2.162466E+03  7.404635E+03  4.244946E+04  6.802948E+03 -1.010983E+04
       250  24  2.617158E+05  1.359402E+04  1.542504E+04  4.964172E+04  1.065012E+04 -3.313241E+03
       250  25  4.224021E+05  3.831030E+04  3.517395E+04  4.842338E+04 -2.616651E+03 -9.796790E+03
       250  26  4.761629E+05  5.420799E+04  5.186725E+04  4.586718E+04  1.147432E+04 -1.010921E+04
       250  27  5.345265E+05  8.114420E+04  8.049061E+04  5.769626E+04  2.556713E+04 -3.312522E+03
       251   1 -1.813249E+05 -6.399493E+05 -1.908188E+05  1.441744E+05 -4.064673E+03 -8.689480E+04
       251   2 -7.796280E+04 -5.270445E+05 -1.058597E+05  1.001351E+05 -1.162522E+04 -4.645550E+04
       251   3 -3.870853E+04 -4.354325E+05 -6.327432E+04  8.255159E+04 -9.442613E+03 -6.009666E+03
       251   4 -9.042658E+04 -2.733905E+05 -1.029168E+05  9.058372E+04 -4.052245E+03 -6.900338E+04
       251   5 -1.435199E+04 -2.639470E+05 -5.093989E+04  7.734094E+04 -1.162192E+04 -4.257399E+04
       251   6  6.234544E+01 -2.733619E+05 -3.158857E+04  9.055954E+04 -9.446312E+03 -1.614545E+04
       251   7  4.729986E+02  9.329832E+04 -1.502171E+04  3.696121E+04 -4.042914E+03 -5.110143E+04
       251   8  4.925637E+04 -7.827994E+02  3.976408E+03  5.453691E+04 -1.161891E+04 -3.869086E+04
       251   9  3.883194E+04 -1.112658E+05  9.635277E+01  9.856962E+04 -9.450271E+03 -2.628382E+04
       251  10 -1.813270E+05 -6.399575E+05 -1.908330E+05  1.441741E+05  6.509009E-11 -3.528845E-11
       251  11 -7.796352E+04 -5.270469E+05 -1.058640E+05  1.001347E+05  4.573007E-12  2.711660E-12
       251  12 -3.870864E+04 -4.354326E+05 -6.327456E+04  8.255155E+04  4.433972E-11  9.606928E-11
       251  13 -9.042787E+04 -2.733957E+05 -1.029258E+05  9.058350E+04 -7.937375E-11 -2.103496E-11
       251  14 -1.435262E+04 -2.639490E+05 -5.094355E+04  7.734054E+04  1.330355E-11  1.593079E-10
       251  15  6.217964E+01 -2.733623E+05 -3.158922E+04  9.055942E+04 -1.000281E-10 -6.753635E-11
       251  16  4.722802E+02  9.329551E+04 -1.502664E+04  3.696104E+04 -1.468729E-10  6.049202E-13
       251  17  4.925582E+04 -7.844431E+02  3.973341E+03  5.453655E+04 -6.723448E-10 -1.213442E-10
       251  18  3.883166E+04 -1.112666E+05  9.488667E+01  9.856942E+04 -4.326393E-11 -5.989271E-11
       251  19 -1.813249E+05 -6.399493E+05 -1.908188E+05  1.441744E+05  4.064673E+03  8.689480E+04
       251  20 -7.796280E+04 -5.270445E+05 -1.058597E+05  1.001351E+05  1.162522E+04  4.645550E+04
       251  21 -3.870853E+04 -4.354325E+05 -6.327432E+04  8.255159E+04  9.442613E+03  6.009666E+03
       251  22 -9.042658E+04 -2.733905E+05 -1.029168E+05  9.058372E+04  4.052245E+03  6.900338E+04
       251  23 -1.435199E+04 -2.639470E+05 -5.093989E+04  7.734094E+04  1.162192E+04  4.257399E+04
       251  24  6.234544E+01 -2.733619E+05 -3.158857E+04  9.055954E+04  9.446312E+03  1.614545E+04
       251  25  4.729986E+02  9.329832E+04 -1.502171E+04  3.696121E+04  4.042914E+03  5.110143E+04
       251  26  4.925637E+04 -7.827994E+02  3.976408E+03  5.453691E+04  1.161891E+04  3.869086E+04
       251  27  3.883194E+04 -1.112658E+05  9.635277E+01  9.856962E+04  9.450271E+03  2.628382E+04
       252   1 -2.542575E+04 -3.622416E+05 -4.508940E+04  9.251502E+04 -5.255146E+03 -3.124648E+03
       252   2  1.776395E+03 -2.586553E+05 -2.042205E+04  7.719443E+04  6.555529E+02  7.919931E+03
       252   3  2.365748E+04 -1.578421E+05 -4.282542E+03  8.887692E+04  6.532147E+03  1.896630E+04
       252   4 -3.291156E+03 -2.697894E+05 -2.689326E+04  9.068338E+04 -5.258426E+03 -1.165177E+04
       252   5 -5.366507E+02 -2.683940E+05 -2.224581E+04  7.718164E+04  6.523303E+02 -5.580978E+02
       252   6 -3.111120E+03 -2.697900E+05 -2.615972E+04  9.068332E+04  6.529020E+03  1.053564E+04
       252   7  1.884297E+04 -1.773289E+05 -8.697256E+03  8.885146E+04 -5.261655E+03 -2.018014E+04
       252   8 -2.849663E+03 -2.781324E+05 -2.406931E+04  7.716886E+04  6.491080E+02 -9.035997E+03
       252   9 -2.988042E+04 -3.817258E+05 -4.803723E+04  9.248938E+04  6.525843E+03  2.106466E+03
       252  10 -2.542578E+04 -3.622416E+05 -4.508947E+04  9.251500E+04 -9.387020E-11 -1.971045E-10
       252  11  1.776378E+03 -2.586554E+05 -2.042217E+04  7.719443E+04 -4.707008E-10  1.820477E-10
       252  12  2.365733E+04 -1.578425E+05 -4.283298E+03  8.887682E+04 -3.781992E-11  5.343314E-10
       252  13 -3.291222E+03 -2.697896E+05 -2.689356E+04  9.068333E+04  7.714953E-11 -1.437488E-10
       252  14 -5.366512E+02 -2.683940E+05 -2.224581E+04  7.718164E+04  1.534302E-10  1.556096E-10
       252  15 -3.111195E+03 -2.697902E+05 -2.616001E+04  9.068326E+04  2.742154E-10 -1.011561E-10
       252  16  1.884283E+04 -1.773294E+05 -8.698073E+03  8.885138E+04 -1.552908E-10  1.775075E-10
       252  17 -2.849686E+03 -2.781324E+05 -2.406947E+04  7.716886E+04 -2.543735E-10 -2.885684E-10
       252  18 -2.988047E+04 -3.817258E+05 -4.803732E+04  9.248937E+04 -1.921971E-10 -4.128324E-10
       252  19 -2.542575E+04 -3.622416E+05 -4.508940E+04  9.251502E+04  5.255146E+03  3.124648E+03
       252  20  1.776395E+03 -2.586553E+05 -2.042205E+04  7.719443E+04 -6.555529E+02 -7.919931E+03
       252  21  2.365748E+04 -1.578421E+05 -4.282542E+03  8.887692E+04 -6.532147E+03 -1.896630E+04
       252  22 -3.291156E+03 -2.697894E+05 -2.689326E+04  9.068338E+04  5.258426E+03  1.165177E+04
       252  23 -5.366507E+02 -2.683940E+05 -2.224581E+04  7.718164E+04 -6.523303E+02  5.580978E+02
       252  24 -3.111120E+03 -2.697900E+05 -2.615972E+04  9.068332E+04 -6.529020E+03 -1.053564E+04
       252  25  1.884297E+04 -1.773289E+05 -8.697256E+03  8.885146E+04  5.261655E+03  2.018014E+04
       252  26 -2.849663E+03 -2.781324E+05 -2.406931E+04  7.716886E+04 -6.491080E+02  9.035997E+03
       252  27 -2.988042E+04 -3.817258E+05 -4.803723E+04  9.248938E+04 -6.525843E+03 -2.106466E+03
       253   1  4.346496E+04 -9.155278E+04  4.920922E+03  9.813862E+04  1.071667E+04  2.502842E+04
       253   2  5.465233E+04  1.840405E+04  1.023028E+04  5.567268E+04  1.264039E+04  3.552228E+04
       253   3  9.842952E+03  1.130128E+05 -5.289836E+03  3.963183E+04  4.341603E+03  4.601930E+04
       253   4  5.633663E+01 -2.731555E+05 -3.045318E+04  9.055270E+04  1.071287E+04  1.489739E+04
       253   5 -1.362745E+04 -2.642082E+05 -4.858935E+04  7.734913E+04  1.264346E+04  4.010156E+04
       253   6 -8.587979E+04 -2.731847E+05 -9.778060E+04  9.057489E+04  4.350398E+03  6.530650E+04
       253   7 -4.335400E+04 -4.547261E+05 -6.582844E+04  8.296905E+04  1.070931E+04  4.769256E+03
       253   8 -8.191054E+04 -5.467437E+05 -1.074130E+05  9.901554E+04  1.264684E+04  4.467879E+04
       253   9 -1.816034E+05 -6.592392E+05 -1.902791E+05  1.414861E+05  4.362362E+03  8.458175E+04
       253  10  4.346467E+04 -9.155348E+04  4.919529E+03  9.813840E+04  1.390045E-10 -2.800337E-10
       253  11  5.465182E+04  1.840265E+04  1.022761E+04  5.567232E+04 -2.093175E-10 -5.102489E-11
       253  12  9.842363E+03  1.130105E+05 -5.293850E+03  3.963167E+04  1.856780E-10  2.120572E-10
       253  13  5.615383E+01 -2.731557E+05 -3.045382E+04  9.055257E+04  1.395697E-10 -1.279958E-10
       253  14 -1.362805E+04 -2.642100E+05 -4.859267E+04  7.734872E+04 -1.376188E-10  2.032904E-10
       253  15 -8.588095E+04 -2.731893E+05 -9.778865E+04  9.057467E+04 -1.909214E-10  2.479564E-11
       253  16 -4.335413E+04 -4.547262E+05 -6.582870E+04  8.296901E+04  2.931074E-11  3.111391E-10
       253  17 -8.191125E+04 -5.467459E+05 -1.074171E+05  9.901508E+04 -3.399876E-11  4.486526E-11
       253  18 -1.816053E+05 -6.592469E+05 -1.902926E+05  1.414858E+05  4.619026E-11 -2.335725E-10
       253  19  4.346496E+04 -9.155278E+04  4.920922E+03  9.813862E+04 -1.071667E+04 -2.502842E+04
       253  20  5.465233E+04  1.840405E+04  1.023028E+04  5.567268E+04 -1.264039E+04 -3.552228E+04
       253  21  9.842952E+03  1.130128E+05 -5.289836E+03  3.963183E+04 -4.341603E+03 -4.601930E+04
       253  22  5.633663E+01 -2.731555E+05 -3.045318E+04  9.055270E+04 -1.071287E+04 -1.489739E+04
       253  23 -1.362745E+04 -2.642082E+05 -4.858935E+04  7.734913E+04 -1.264346E+04 -4.010156E+04
       253  24 -8.587979E+04 -2.731847E+05 -9.778060E+04  9.057489E+04 -4.350398E+03 -6.530650E+04
       253  25 -4.335400E+04 -4.547261E+05 -6.582844E+04  8.296905E+04 -1.070931E+04 -4.769256E+03
       253  26 -8.191054E+04 -5.467437E+05 -1.074130E+05  9.901554E+04 -1.264684E+04 -4.467879E+04
       253  27 -1.816034E+05 -6.592392E+05 -1.902791E+05  1.414861E+05 -4.362362E+03 -8.458175E+04
       254   1  3.826657E+05  3.155815E+05  8.486167E+04  2.761853E+05  4.741594E+04  3.567891E+04
       254   2  3.794747E+05  2.468178E+05  4.003667E+04  2.957485E+05  3.028407E+04  2.312025E+04
       254   3  4.048947E+05  2.168712E+05  2.196507E+04  2.980298E+05  1.323803E+04  1.044693E+04
       254   4  4.302684E+05  2.754677E+05  8.627372E+04  2.657429E+05  4.777127E+04  3.593997E+04
       254   5  4.022545E+05  2.316836E+05  4.126955E+04  2.926575E+05  3.047033E+04  2.325845E+04
       254   6  4.028865E+05  2.267503E+05  2.316349E+04  3.022905E+05  1.325616E+04  1.046076E+04
       254   7  4.778771E+05  2.353600E+05  8.768686E+04  2.552987E+05  4.812663E+04  3.620098E+04
       254   8  4.250357E+05  2.165504E+05  4.250264E+04  2.895661E+05  3.065659E+04  2.339664E+04
       254   9  4.008784E+05  2.366299E+05  2.436196E+04  3.065513E+05  1.327429E+04  1.047459E+04
       254  10  3.826630E+05  3.155795E+05  8.485506E+04  2.761839E+05  2.535265E-11  7.273950E-11
       254  11  3.794736E+05  2.468169E+05  4.003394E+04  2.957480E+05 -1.621057E-10  9.967678E-11
       254  12  4.048945E+05  2.168710E+05  2.196453E+04  2.980297E+05  1.433439E-10 -8.709659E-12
       254  13  4.302656E+05  2.754657E+05  8.626701E+04  2.657415E+05  5.451353E-11  2.469864E-12
       254  14  4.022533E+05  2.316828E+05  4.126679E+04  2.926569E+05  1.376343E-10 -9.203085E-11
       254  15  4.028863E+05  2.267502E+05  2.316295E+04  3.022904E+05  6.291662E-11 -5.411384E-11
       254  16  4.778742E+05  2.353580E+05  8.768005E+04  2.552973E+05  2.537185E-11 -5.693481E-11
       254  17  4.250345E+05  2.165495E+05  4.249985E+04  2.895655E+05  1.248209E-10 -1.932748E-10
       254  18  4.008782E+05  2.366297E+05  2.436142E+04  3.065512E+05 -4.279848E-11 -1.413045E-10
       254  19  3.826657E+05  3.155815E+05  8.486167E+04  2.761853E+05 -4.741594E+04 -3.567891E+04
       254  20  3.794747E+05  2.468178E+05  4.003667E+04  2.957485E+05 -3.028407E+04 -2.312025E+04
       254  21  4.048947E+05  2.168712E+05  2.196507E+04  2.980298E+05 -1.323803E+04 -1.044693E+04
       254  22  4.302684E+05  2.754677E+05  8.627372E+04  2.657429E+05 -4.777127E+04 -3.593997E+04
       254  23  4.022545E+05  2.316836E+05  4.126955E+04  2.926575E+05 -3.047033E+04 -2.325845E+04
       254  24  4.028865E+05  2.267503E+05  2.316349E+04  3.022905E+05 -1.325616E+04 -1.046076E+04
       254  25  4.778771E+05  2.353600E+05  8.768686E+04  2.552987E+05 -4.812663E+04 -3.620098E+04
       254  26  4.250357E+05  2.165504E+05  4.250264E+04  2.895661E+05 -3.065659E+04 -2.339664E+04
       254  27  4.008784E+05  2.366299E+05  2.436196E+04  3.065513E+05 -1.327429E+04 -1.047459E+04
       255   1  3.962359E+05  2.251257E+05  1.674749E+04  2.972384E+05  1.074914E+04  8.591706E+03
       255   2  3.955047E+05  2.223356E+05  9.049314E+03  2.979408E+05  6.641401E+03  5.547063E+03
       255   3  3.963526E+05  2.215152E+05  5.254236E+03  2.981453E+05  2.539944E+03  2.494264E+03
       255   4  4.018890E+05  2.274794E+05  1.796525E+04  2.993266E+05  1.078797E+04  8.620792E+03
       255   5  4.005484E+05  2.255145E+05  1.028458E+04  3.003103E+05  6.668295E+03  5.567224E+03
       255   6  4.007894E+05  2.255220E+05  6.517364E+03  3.007961E+05  2.554881E+03  2.505467E+03
       255   7  4.075421E+05  2.298331E+05  1.918299E+04  3.014147E+05  1.082679E+04  8.649877E+03
       255   8  4.055920E+05  2.286935E+05  1.151983E+04  3.026798E+05  6.695188E+03  5.587385E+03
       255   9  4.052263E+05  2.295288E+05  7.780489E+03  3.034469E+05  2.569817E+03  2.516670E+03
       255  10  3.962358E+05  2.251256E+05  1.674713E+04  2.972384E+05  3.097630E-11 -1.330704E-10
       255  11  3.955046E+05  2.223355E+05  9.049173E+03  2.979408E+05  1.882108E-10  2.517508E-11
       255  12  3.963526E+05  2.215152E+05  5.254212E+03  2.981453E+05  6.097519E-11  1.825216E-11
       255  13  4.018889E+05  2.274793E+05  1.796490E+04  2.993265E+05 -2.318477E-10 -1.179940E-10
       255  14  4.005483E+05  2.255145E+05  1.028444E+04  3.003103E+05 -2.164103E-10 -3.371742E-11
       255  15  4.007894E+05  2.255220E+05  6.517340E+03  3.007961E+05 -1.360128E-11  8.124049E-11
       255  16  4.075419E+05  2.298330E+05  1.918263E+04  3.014147E+05  4.049167E-11 -4.429226E-11
       255  17  4.055920E+05  2.286935E+05  1.151969E+04  3.026797E+05 -2.891916E-11  1.902398E-11
       255  18  4.052263E+05  2.295288E+05  7.780464E+03  3.034469E+05 -1.182946E-10  9.051560E-11
       255  19  3.962359E+05  2.251257E+05  1.674749E+04  2.972384E+05 -1.074914E+04 -8.591706E+03
       255  20  3.955047E+05  2.223356E+05  9.049314E+03  2.979408E+05 -6.641401E+03 -5.547063E+03
       255  21  3.963526E+05  2.215152E+05  5.254236E+03  2.981453E+05 -2.539944E+03 -2.494264E+03
       255  22  4.018890E+05  2.274794E+05  1.796525E+04  2.993266E+05 -1.078797E+04 -8.620792E+03
       255  23  4.005484E+05  2.255145E+05  1.028458E+04  3.003103E+05 -6.668295E+03 -5.567224E+03
       255  24  4.007894E+05  2.255220E+05  6.517364E+03  3.007961E+05 -2.554881E+03 -2.505467E+03
       255  25  4.075421E+05  2.298331E+05  1.918299E+04  3.014147E+05 -1.082679E+04 -8.649877E+03
       255  26  4.055920E+05  2.286935E+05  1.151983E+04  3.026798E+05 -6.695188E+03 -5.587385E+03
       255  27  4.052263E+05  2.295288E+05  7.780489E+03  3.034469E+05 -2.569817E+03 -2.516670E+03
       256   1  3.957827E+05  2.218658E+05  4.196625E+03  2.980582E+05  1.683609E+03  1.861632E+03
       256   2  3.954282E+05  2.217235E+05  3.266298E+03  2.979816E+05 -1.378420E+02  5.127264E+02
       256   3  3.953212E+05  2.218793E+05  3.860614E+03  2.979877E+05 -1.958297E+03 -8.375623E+02
       256   4  4.007092E+05  2.255346E+05  5.483242E+03  3.006367E+05  1.700196E+03  1.874070E+03
       256   5  4.005844E+05  2.253837E+05  4.584947E+03  3.005967E+05 -1.232504E+02  5.236672E+02
       256   6  4.007075E+05  2.255314E+05  5.213001E+03  3.006392E+05 -1.945674E+03 -8.280977E+02
       256   7  4.056358E+05  2.292034E+05  6.769884E+03  3.032154E+05  1.716783E+03  1.886507E+03
       256   8  4.057406E+05  2.290439E+05  5.903593E+03  3.032117E+05 -1.086586E+02  5.346081E+02
       256   9  4.060937E+05  2.291833E+05  6.565359E+03  3.032907E+05 -1.933051E+03 -8.186330E+02
       256  10  3.957827E+05  2.218658E+05  4.196613E+03  2.980582E+05  5.377841E-10  1.647541E-10
       256  11  3.954282E+05  2.217235E+05  3.266297E+03  2.979816E+05  5.435576E-10 -1.999587E-11
       256  12  3.953212E+05  2.218793E+05  3.860605E+03  2.979877E+05  6.699291E-10 -5.931782E-11
       256  13  4.007092E+05  2.255346E+05  5.483230E+03  3.006367E+05 -8.299199E-11  4.165264E-12
       256  14  4.005844E+05  2.253837E+05  4.584946E+03  3.005967E+05 -2.422108E-11 -9.395898E-11
       256  15  4.007075E+05  2.255314E+05  5.212993E+03  3.006392E+05  3.554681E-10 -1.738811E-10
       256  16  4.056358E+05  2.292034E+05  6.769872E+03  3.032154E+05 -3.744152E-10 -5.667940E-11
       256  17  4.057406E+05  2.290439E+05  5.903593E+03  3.032117E+05 -2.832699E-10 -1.397988E-10
       256  18  4.060937E+05  2.291833E+05  6.565351E+03  3.032907E+05  6.593295E-11 -2.752888E-10
       256  19  3.957827E+05  2.218658E+05  4.196625E+03  2.980582E+05 -1.683609E+03 -1.861632E+03
       256  20  3.954282E+05  2.217235E+05  3.266298E+03  2.979816E+05  1.378420E+02 -5.127264E+02
       256  21  3.953212E+05  2.218793E+05  3.860614E+03  2.979877E+05  1.958297E+03  8.375623E+02
       256  22  4.007092E+05  2.255346E+05  5.483242E+03  3.006367E+05 -1.700196E+03 -1.874070E+03
       256  23  4.005844E+05  2.253837E+05  4.584947E+03  3.005967E+05  1.232504E+02 -5.236672E+02
       256  24  4.007075E+05  2.255314E+05  5.213001E+03  3.006392E+05  1.945674E+03  8.280977E+02
       256  25  4.056358E+05  2.292034E+05  6.769884E+03  3.032154E+05 -1.716783E+03 -1.886507E+03
       256  26  4.057406E+05  2.290439E+05  5.903593E+03  3.032117E+05  1.086586E+02 -5.346081E+02
       256  27  4.060937E+05  2.291833E+05  6.565359E+03  3.032907E+05  1.933051E+03  8.186330E+02
       257   1  3.949320E+05  2.221702E+05  4.711961E+03  2.981900E+05 -2.766405E+03 -1.434133E+03
       257   2  3.952438E+05  2.214039E+05  8.000598E+03  2.974876E+05 -6.509325E+03 -4.233599E+03
       257   3  3.969846E+05  2.224269E+05  1.485217E+04  2.963386E+05 -1.024353E+04 -7.044758E+03
       257   4  4.007770E+05  2.255189E+05  6.088655E+03  3.007800E+05 -2.751503E+03 -1.422957E+03
       257   5  4.005590E+05  2.255095E+05  9.417596E+03  3.003373E+05 -6.511255E+03 -4.235051E+03
       257   6  4.017736E+05  2.272931E+05  1.632402E+04  2.994480E+05 -1.026232E+04 -7.058868E+03
       257   7  4.066220E+05  2.288675E+05  7.465348E+03  3.033700E+05 -2.736601E+03 -1.411780E+03
       257   8  4.058743E+05  2.296151E+05  1.083461E+04  3.031870E+05 -6.513185E+03 -4.236502E+03
       257   9  4.065627E+05  2.321594E+05  1.779591E+04  3.025574E+05 -1.028110E+04 -7.072977E+03
       257  10  3.949319E+05  2.221702E+05  4.711943E+03  2.981900E+05  2.911059E-10 -1.457426E-10
       257  11  3.952438E+05  2.214038E+05  8.000484E+03  2.974876E+05 -4.805206E-11 -6.851851E-11
       257  12  3.969845E+05  2.224269E+05  1.485188E+04  2.963385E+05  3.173106E-10  2.877378E-11
       257  13  4.007770E+05  2.255188E+05  6.088637E+03  3.007800E+05  3.206861E-10 -2.224546E-10
       257  14  4.005590E+05  2.255094E+05  9.417483E+03  3.003373E+05 -2.475419E-10 -1.735013E-10
       257  15  4.017735E+05  2.272930E+05  1.632373E+04  2.994479E+05 -9.097144E-11 -1.079347E-10
       257  16  4.066220E+05  2.288675E+05  7.465331E+03  3.033700E+05  2.655836E-10 -1.454285E-10
       257  17  4.058742E+05  2.296151E+05  1.083449E+04  3.031870E+05 -9.006895E-11 -1.987930E-10
       257  18  4.065626E+05  2.321593E+05  1.779561E+04  3.025574E+05 -1.723903E-10 -2.318827E-10
       257  19  3.949320E+05  2.221702E+05  4.711961E+03  2.981900E+05  2.766405E+03  1.434133E+03
       257  20  3.952438E+05  2.214039E+05  8.000598E+03  2.974876E+05  6.509325E+03  4.233599E+03
       257  21  3.969846E+05  2.224269E+05  1.485217E+04  2.963386E+05  1.024353E+04  7.044758E+03
       257  22  4.007770E+05  2.255189E+05  6.088655E+03  3.007800E+05  2.751503E+03  1.422957E+03
       257  23  4.005590E+05  2.255095E+05  9.417596E+03  3.003373E+05  6.511255E+03  4.235051E+03
       257  24  4.017736E+05  2.272931E+05  1.632402E+04  2.994480E+05  1.026232E+04  7.058868E+03
       257  25  4.066220E+05  2.288675E+05  7.465348E+03  3.033700E+05  2.736601E+03  1.411780E+03
       257  26  4.058743E+05  2.296151E+05  1.083461E+04  3.031870E+05  6.513185E+03  4.236502E+03
       257  27  4.065627E+05  2.321594E+05  1.779591E+04  3.025574E+05  1.028110E+04  7.072977E+03
       258   1  3.909315E+05  2.285602E+05  1.951535E+04  3.009765E+05 -1.251341E+04 -8.739603E+03
       258   2  4.127900E+05  2.103741E+05  3.575628E+04  2.856193E+05 -2.776820E+04 -2.029281E+04
       258   3  4.605476E+05  2.273007E+05  7.615232E+04  2.546126E+05 -4.290124E+04 -3.200773E+04
       258   4  4.026800E+05  2.266288E+05  2.101426E+04  3.021296E+05 -1.250322E+04 -8.731770E+03
       258   5  4.021007E+05  2.311021E+05  3.738337E+04  2.934097E+05 -2.799258E+04 -2.046225E+04
       258   6  4.274697E+05  2.707369E+05  7.811110E+04  2.690407E+05 -4.335945E+04 -3.235570E+04
       258   7  4.144285E+05  2.246975E+05  2.251315E+04  3.032827E+05 -1.249302E+04 -8.723938E+03
       258   8  3.914121E+05  2.518311E+05  3.901060E+04  3.011998E+05 -2.821696E+04 -2.063170E+04
       258   9  3.943958E+05  3.141788E+05  8.007077E+04  2.834678E+05 -4.381763E+04 -3.270373E+04
       258  10  3.909313E+05  2.285601E+05  1.951492E+04  3.009764E+05  4.740207E-10 -2.975914E-12
       258  11  4.127890E+05  2.103735E+05  3.575406E+04  2.856188E+05  7.177800E-11 -5.321133E-11
       258  12  4.605454E+05  2.272991E+05  7.614694E+04  2.546115E+05  5.258798E-11 -7.303829E-11
       258  13  4.026798E+05  2.266287E+05  2.101382E+04  3.021295E+05  1.200281E-10 -1.110748E-10
       258  14  4.020997E+05  2.311015E+05  3.738111E+04  2.934092E+05  2.158998E-11 -3.103024E-11
       258  15  4.274674E+05  2.707352E+05  7.810561E+04  2.690396E+05 -8.591077E-11 -3.352308E-12
       258  16  4.144283E+05  2.246973E+05  2.251271E+04  3.032826E+05 -1.176800E-10 -1.132252E-10
       258  17  3.914112E+05  2.518305E+05  3.900831E+04  3.011994E+05  3.800205E-11 -3.937385E-11
       258  18  3.943934E+05  3.141772E+05  8.006516E+04  2.834667E+05 -3.573192E-11  1.942197E-11
       258  19  3.909315E+05  2.285602E+05  1.951535E+04  3.009765E+05  1.251341E+04  8.739603E+03
       258  20  4.127900E+05  2.103741E+05  3.575628E+04  2.856193E+05  2.776820E+04  2.029281E+04
       258  21  4.605476E+05  2.273007E+05  7.615232E+04  2.546126E+05  4.290124E+04  3.200773E+04
       258  22  4.026800E+05  2.266288E+05  2.101426E+04  3.021296E+05  1.250322E+04  8.731770E+03
       258  23  4.021007E+05  2.311021E+05  3.738337E+04  2.934097E+05  2.799258E+04  2.046225E+04
       258  24  4.274697E+05  2.707369E+05  7.811110E+04  2.690407E+05  4.335945E+04  3.235570E+04
       258  25  4.144285E+05  2.246975E+05  2.251315E+04  3.032827E+05  1.249302E+04  8.723938E+03
       258  26  3.914121E+05  2.518311E+05  3.901060E+04  3.011998E+05  2.821696E+04  2.063170E+04
       258  27  3.943958E+05  3.141788E+05  8.007077E+04  2.834678E+05  4.381763E+04  3.270373E+04
       259   1  3.883752E+05  4.482973E+04  4.553559E+04  2.724207E+04  1.798710E+04 -1.581802E+03
       259   2  3.650644E+05  2.701181E+04  2.876776E+04  1.975260E+04  9.363186E+03 -4.938290E+03
       259   3  3.454524E+05  1.949035E+04  2.018630E+04  1.773730E+04  7.399782E+02 -5.076783E+03
       259   4  2.635914E+05  1.394275E+04  1.583377E+04  1.898334E+04  1.083195E+04 -1.581782E+03
       259   5  2.621460E+05  2.217497E+03  7.676960E+03  1.624619E+04  6.844868E+03 -4.938357E+03
       259   6  2.635946E+05 -1.510244E+01  4.488493E+03  1.898301E+04  2.858083E+03 -5.076828E+03
       259   7  1.388221E+05 -1.694507E+04 -1.386891E+04  1.072629E+04  3.678230E+03 -1.581572E+03
       259   8  1.592376E+05 -2.257743E+04 -1.341438E+04  1.274038E+04  4.326961E+03 -4.938396E+03
       259   9  1.817432E+05 -1.952094E+04 -1.120960E+04  2.022854E+04  4.975915E+03 -5.076864E+03
       259  10  3.883749E+05  4.482964E+04  4.553498E+04  2.724209E+04  4.667189E-11 -4.749648E-11
       259  11  3.650643E+05  2.701176E+04  2.876755E+04  1.975264E+04 -4.987023E-11 -8.262999E-11
       259  12  3.454524E+05  1.949032E+04  2.018625E+04  1.773731E+04  2.181802E-10  9.571348E-11
       259  13  2.635913E+05  1.394272E+04  1.583355E+04  1.898336E+04 -2.202399E-10  5.083168E-11
       259  14  2.621459E+05  2.217459E+03  7.676826E+03  1.624622E+04 -3.026285E-10  3.291605E-11
       259  15  2.635945E+05 -1.513231E+01  4.488429E+03  1.898302E+04  3.280823E-11 -3.898749E-12
       259  16  1.388220E+05 -1.694507E+04 -1.386894E+04  1.072629E+04  9.442578E-11  4.848711E-11
       259  17  1.592375E+05 -2.257746E+04 -1.341446E+04  1.274040E+04 -2.204853E-10  1.253930E-10
       259  18  1.817432E+05 -1.952098E+04 -1.120970E+04  2.022856E+04  1.121179E-11 -7.677779E-11
       259  19  3.883752E+05  4.482973E+04  4.553559E+04  2.724207E+04 -1.798710E+04  1.581802E+03
       259  20  3.650644E+05  2.701181E+04  2.876776E+04  1.975260E+04 -9.363186E+03  4.938290E+03
       259  21  3.454524E+05  1.949035E+04  2.018630E+04  1.773730E+04 -7.399782E+02  5.076783E+03
       259  22  2.635914E+05  1.394275E+04  1.583377E+04  1.898334E+04 -1.083195E+04  1.581782E+03
       259  23  2.621460E+05  2.217497E+03  7.676960E+03  1.624619E+04 -6.844868E+03  4.938357E+03
       259  24  2.635946E+05 -1.510244E+01  4.488493E+03  1.898301E+04 -2.858083E+03  5.076828E+03
       259  25  1.388221E+05 -1.694507E+04 -1.386891E+04  1.072629E+04 -3.678230E+03  1.581572E+03
       259  26  1.592376E+05 -2.257743E+04 -1.341438E+04  1.274038E+04 -4.326961E+03  4.938396E+03
       259  27  1.817432E+05 -1.952094E+04 -1.120960E+04  2.022854E+04 -4.975915E+03  5.076864E+03
       260   1  3.302293E+05  1.653393E+04  1.647806E+04  1.923483E+04  6.930270E+02 -4.208947E+03
       260   2  3.086425E+05  1.089828E+04  1.108621E+04  1.627501E+04 -8.566853E+02 -3.024929E+03
       260   3  2.873850E+05  5.770439E+03  6.829877E+03  1.897707E+04 -2.406416E+03 -1.623371E+03
       260   4  2.630127E+05  5.246495E+02  3.625543E+03  1.902487E+04  2.241874E+03 -4.208964E+03
       260   5  2.628757E+05  2.747714E+01  2.484107E+03  1.619392E+04  1.005640E+03 -3.024908E+03
       260   6  2.630135E+05 -1.615244E+01  2.260751E+03  1.902488E+04 -2.306592E+02 -1.623304E+03
       260   7  1.958006E+05 -1.548489E+04 -9.227168E+03  1.881493E+04  3.790556E+03 -4.208982E+03
       260   8  2.171110E+05 -1.084344E+04 -6.118069E+03  1.611283E+04  2.867831E+03 -3.024887E+03
       260   9  2.386426E+05 -5.802775E+03 -2.308384E+03  1.907269E+04  1.945015E+03 -1.623237E+03
       260  10  3.302293E+05  1.653391E+04  1.647802E+04  1.923484E+04 -9.316424E-11  9.174326E-11
       260  11  3.086425E+05  1.089827E+04  1.108619E+04  1.627500E+04  1.919592E-10 -3.578978E-11
       260  12  2.873850E+05  5.770434E+03  6.829862E+03  1.897707E+04 -7.411511E-11  3.868537E-11
       260  13  2.630127E+05  5.246292E+02  3.625501E+03  1.902488E+04  9.481504E-11 -1.342632E-11
       260  14  2.628757E+05  2.746704E+01  2.484088E+03  1.619392E+04  7.794916E-11 -6.899019E-12
       260  15  2.630135E+05 -1.615528E+01  2.260746E+03  1.902488E+04 -1.154569E-10  3.430937E-11
       260  16  1.958005E+05 -1.548491E+04 -9.227228E+03  1.881494E+04 -2.703026E-10 -1.457380E-10
       260  17  2.171110E+05 -1.084346E+04 -6.118102E+03  1.611284E+04  2.678788E-10 -2.679675E-11
       260  18  2.386426E+05 -5.802779E+03 -2.308396E+03  1.907269E+04  4.364874E-11  1.167322E-10
       260  19  3.302293E+05  1.653393E+04  1.647806E+04  1.923483E+04 -6.930270E+02  4.208947E+03
       260  20  3.086425E+05  1.089828E+04  1.108621E+04  1.627501E+04  8.566853E+02  3.024929E+03
       260  21  2.873850E+05  5.770439E+03  6.829877E+03  1.897707E+04  2.406416E+03  1.623371E+03
       260  22  2.630127E+05  5.246495E+02  3.625543E+03  1.902487E+04 -2.241874E+03  4.208964E+03
       260  23  2.628757E+05  2.747714E+01  2.484107E+03  1.619392E+04 -1.005640E+03  3.024908E+03
       260  24  2.630135E+05 -1.615244E+01  2.260751E+03  1.902488E+04  2.306592E+02  1.623304E+03
       260  25  1.958006E+05 -1.548489E+04 -9.227168E+03  1.881493E+04 -3.790556E+03  4.208982E+03
       260  26  2.171110E+05 -1.084344E+04 -6.118069E+03  1.611283E+04 -2.867831E+03  3.024887E+03
       260  27  2.386426E+05 -5.802775E+03 -2.308384E+03  1.907269E+04 -1.945015E+03  1.623237E+03
       261   1  2.728948E+05  2.294533E+03  4.188707E+03  1.916467E+04 -2.807040E+03 -7.307844E+02
       261   2  2.513009E+05 -2.692131E+03  1.073279E+03  1.610906E+04 -4.232964E+03  6.953365E+02
       261   3  2.300583E+05 -7.018290E+03 -9.489531E+02  1.871794E+04 -5.658833E+03  1.967733E+03
       261   4  2.630390E+05 -3.165365E+01  2.410536E+03  1.902545E+04 -6.420012E+02 -7.307082E+02
       261   5  2.628442E+05  6.246575E+01  3.306246E+03  1.619320E+04 -2.289416E+03  6.953944E+02
       261   6  2.630386E+05  8.555328E+02  5.448874E+03  1.902542E+04 -3.936823E+03  1.967774E+03
       261   7  2.531834E+05 -2.357843E+03  6.323780E+02  1.888623E+04  1.523004E+03 -7.306329E+02
       261   8  2.743877E+05  2.817057E+03  5.539220E+03  1.627734E+04 -3.458332E+02  6.954529E+02
       261   9  2.960200E+05  8.729293E+03  1.184666E+04  1.933292E+04 -2.214724E+03  1.967817E+03
       261  10  2.728948E+05  2.294530E+03  4.188692E+03  1.916467E+04  4.098990E-10  1.198100E-10
       261  11  2.513009E+05 -2.692136E+03  1.073245E+03  1.610906E+04 -7.800644E-11 -1.887575E-12
       261  12  2.300583E+05 -7.018303E+03 -9.490205E+02  1.871795E+04 -1.072193E-10 -5.752150E-11
       261  13  2.630390E+05 -3.165434E+01  2.410534E+03  1.902545E+04  1.122818E-15  9.486974E-11
       261  14  2.628442E+05  6.246383E+01  3.306235E+03  1.619320E+04  1.821110E-10 -6.947567E-11
       261  15  2.630386E+05  8.555245E+02  5.448838E+03  1.902543E+04 -2.712024E-10 -8.066018E-11
       261  16  2.531834E+05 -2.357844E+03  6.323726E+02  1.888624E+04 -3.549372E-10  5.676463E-11
       261  17  2.743877E+05  2.817056E+03  5.539219E+03  1.627734E+04  8.266022E-11 -1.255472E-10
       261  18  2.960199E+05  8.729287E+03  1.184665E+04  1.933293E+04  2.328845E-10 -9.440756E-11
       261  19  2.728948E+05  2.294533E+03  4.188707E+03  1.916467E+04  2.807040E+03  7.307844E+02
       261  20  2.513009E+05 -2.692131E+03  1.073279E+03  1.610906E+04  4.232964E+03 -6.953365E+02
       261  21  2.300583E+05 -7.018290E+03 -9.489531E+02  1.871794E+04  5.658833E+03 -1.967733E+03
       261  22  2.630390E+05 -3.165365E+01  2.410536E+03  1.902545E+04  6.420012E+02  7.307082E+02
       261  23  2.628442E+05  6.246575E+01  3.306246E+03  1.619320E+04  2.289416E+03 -6.953944E+02
       261  24  2.630386E+05  8.555328E+02  5.448874E+03  1.902542E+04  3.936823E+03 -1.967774E+03
       261  25  2.531834E+05 -2.357843E+03  6.323780E+02  1.888623E+04 -1.523004E+03  7.306329E+02
       261  26  2.743877E+05  2.817057E+03  5.539220E+03  1.627734E+04  3.458332E+02 -6.954529E+02
       261  27  2.960200E+05  8.729293E+03  1.184666E+04  1.933292E+04  2.214724E+03 -1.967817E+03
       262   1  2.164036E+05 -1.137348E+04 -2.286277E+03  2.101976E+04 -7.009802E+03  2.842673E+03
       262   2  1.929338E+05 -1.301347E+04 -2.014982E+03  1.060586E+04 -9.928285E+03  3.139265E+03
       262   3  1.735142E+05  2.034853E+01  3.824821E+03  5.718446E+03 -1.284667E+04  1.054448E+03
       262   4  2.639842E+05 -1.467657E+01  6.940386E+03  1.899464E+04 -4.867941E+03  2.842732E+03
       262   5  2.616603E+05  3.575184E+03  1.221914E+04  1.623156E+04 -1.121713E+04  3.139137E+03
       262   6  2.639804E+05  2.243305E+04  2.544751E+04  1.899462E+04 -1.756631E+04  1.054181E+03
       262   7  3.115670E+05  1.134401E+04  1.616696E+04  1.696935E+04 -2.725919E+03  2.842778E+03
       262   8  3.303913E+05  2.016365E+04  2.645302E+04  2.185789E+04 -1.250612E+04  3.138985E+03
       262   9  3.544546E+05  4.484584E+04  4.706981E+04  3.227273E+04 -2.228664E+04  1.053712E+03
       262  10  2.164036E+05 -1.137350E+04 -2.286384E+03  2.101978E+04  4.232479E-11 -6.771201E-11
       262  11  1.929337E+05 -1.301350E+04 -2.015185E+03  1.060588E+04  1.134079E-11 -5.349116E-11
       262  12  1.735140E+05  2.030304E+01  3.824509E+03  5.718456E+03 -1.289098E-10 -3.407964E-11
       262  13  2.639842E+05 -1.469160E+01  6.940326E+03  1.899465E+04 -5.220142E-11 -9.543229E-11
       262  14  2.616601E+05  3.575139E+03  1.221888E+04  1.623159E+04 -1.374960E-10 -8.348432E-11
       262  15  2.639801E+05  2.243297E+04  2.544693E+04  1.899463E+04 -1.603574E-10 -4.318049E-11
       262  16  3.115670E+05  1.134400E+04  1.616693E+04  1.696936E+04 -7.068933E-11 -9.357429E-11
       262  17  3.303911E+05  2.016360E+04  2.645271E+04  2.185792E+04  2.068430E-11 -1.090145E-10
       262  18  3.544540E+05  4.484570E+04  4.706887E+04  3.227275E+04  1.001972E-10 -4.036130E-11
       262  19  2.164036E+05 -1.137348E+04 -2.286277E+03  2.101976E+04  7.009802E+03 -2.842673E+03
       262  20  1.929338E+05 -1.301347E+04 -2.014982E+03  1.060586E+04  9.928285E+03 -3.139265E+03
       262  21  1.735142E+05  2.034853E+01  3.824821E+03  5.718446E+03  1.284667E+04 -1.054448E+03
       262  22  2.639842E+05 -1.467657E+01  6.940386E+03  1.899464E+04  4.867941E+03 -2.842732E+03
       262  23  2.616603E+05  3.575184E+03  1.221914E+04  1.623156E+04  1.121713E+04 -3.139137E+03
       262  24  2.639804E+05  2.243305E+04  2.544751E+04  1.899462E+04  1.756631E+04 -1.054181E+03
       262  25  3.115670E+05  1.134401E+04  1.616696E+04  1.696935E+04  2.725919E+03 -2.842778E+03
       262  26  3.303913E+05  2.016365E+04  2.645302E+04  2.185789E+04  1.250612E+04 -3.138985E+03
       262  27  3.544546E+05  4.484584E+04  4.706981E+04  3.227273E+04  2.228664E+04 -1.053712E+03
       263   1 -1.366375E+05 -4.230347E+05 -1.394425E+05  1.108705E+05 -4.312438E+03 -5.160165E+04
       263   2 -7.449541E+04 -3.209438E+05 -8.279420E+04  8.378915E+04 -1.263977E+04 -2.451070E+04
       263   3 -4.417674E+04 -2.303283E+05 -5.174722E+04  8.158502E+04 -1.099453E+04  2.584124E+03
       263   4 -4.298690E+04 -4.526199E+04 -4.900443E+04  8.538208E+04 -4.305556E+03 -3.243844E+04
       263   5 -6.810011E+03 -4.075932E+04 -2.457621E+04  7.293708E+04 -1.263751E+04 -1.969431E+04
       263   6  4.333340E+01 -4.524394E+04 -1.577591E+04  8.537131E+04 -1.099766E+04 -6.951032E+03
       263   7  5.065602E+04  3.326437E+05  4.142527E+04  5.987806E+04 -4.300251E+03 -1.326361E+04
       263   8  6.087085E+04  2.394998E+05  3.363764E+04  6.208002E+04 -1.263542E+04 -1.487578E+04
       263   9  4.426146E+04  1.398736E+05  2.019414E+04  8.915875E+04 -1.100090E+04 -1.648897E+04
       263  10 -1.366383E+05 -4.230376E+05 -1.394475E+05  1.108703E+05  4.583516E-11 -3.492458E-10
       263  11 -7.449574E+04 -3.209445E+05 -8.279563E+04  8.378890E+04 -5.998506E-11  2.814142E-10
       263  12 -4.417687E+04 -2.303283E+05 -5.174746E+04  8.158505E+04  1.964157E-10  3.695891E-10
       263  13 -4.298720E+04 -4.526312E+04 -4.900644E+04  8.538197E+04 -2.717859E-10  1.179532E-10
       263  14 -6.810287E+03 -4.075978E+04 -2.457724E+04  7.293688E+04  1.271416E-10 -9.936352E-12
       263  15  4.319057E+01 -4.524402E+04 -1.577623E+04  8.537125E+04 -4.784080E-11 -9.741573E-11
       263  16  5.065596E+04  3.326435E+05  4.142491E+04  5.987802E+04  5.184070E-11  3.400168E-10
       263  17  6.087062E+04  2.394996E+05  3.363692E+04  6.207987E+04 -5.499916E-10 -2.486872E-10
       263  18  4.426125E+04  1.398732E+05  2.019340E+04  8.915860E+04 -2.193938E-11 -8.001413E-10
       263  19 -1.366375E+05 -4.230347E+05 -1.394425E+05  1.108705E+05  4.312438E+03  5.160165E+04
       263  20 -7.449541E+04 -3.209438E+05 -8.279420E+04  8.378915E+04  1.263977E+04  2.451070E+04
       263  21 -4.417674E+04 -2.303283E+05 -5.174722E+04  8.158502E+04  1.099453E+04 -2.584124E+03
       263  22 -4.298690E+04 -4.526199E+04 -4.900443E+04  8.538208E+04  4.305556E+03  3.243844E+04
       263  23 -6.810011E+03 -4.075932E+04 -2.457621E+04  7.293708E+04  1.263751E+04  1.969431E+04
       263  24  4.333340E+01 -4.524394E+04 -1.577591E+04  8.537131E+04  1.099766E+04  6.951032E+03
       263  25  5.065602E+04  3.326437E+05  4.142527E+04  5.987806E+04  4.300251E+03  1.326361E+04
       263  26  6.087085E+04  2.394998E+05  3.363764E+04  6.208002E+04  1.263542E+04  1.487578E+04
       263  27  4.426146E+04  1.398736E+05  2.019414E+04  8.915875E+04  1.100090E+04  1.648897E+04
       264   1 -3.006552E+04 -1.630553E+05 -3.707135E+04  8.647070E+04 -7.057717E+03  3.212585E+03
       264   2 -5.785148E+03 -6.598057E+04 -1.677994E+04  7.274382E+04 -1.548788E+03  9.533577E+03
       264   3  1.549958E+04  2.951786E+04 -1.357369E+03  8.445405E+04  4.041112E+03  1.585536E+04
       264   4 -1.520158E+03 -4.359074E+04 -1.381920E+04  8.549677E+04 -7.060579E+03 -4.657809E+03
       264   5 -2.825542E+02 -4.280751E+04 -1.244172E+04  7.277825E+04 -1.551752E+03  1.546590E+03
       264   6 -2.019798E+03 -4.358931E+04 -1.585177E+04  8.549695E+04  4.038041E+03  7.750849E+03
       264   7  2.702439E+04  7.588767E+04  9.432498E+03  8.452264E+04 -7.063416E+03 -1.252968E+04
       264   8  5.220042E+03 -1.963378E+04 -8.103282E+03  7.281268E+04 -1.554717E+03 -6.440687E+03
       264   9 -1.953947E+04 -1.166912E+05 -3.034619E+04  8.653972E+04  4.034943E+03 -3.527286E+02
       264  10 -3.006558E+04 -1.630553E+05 -3.707146E+04  8.647072E+04  1.726647E-10 -3.595840E-10
       264  11 -5.785175E+03 -6.598067E+04 -1.678012E+04  7.274383E+04 -2.494953E-12  2.076305E-10
       264  12  1.549950E+04  2.951759E+04 -1.357872E+03  8.445400E+04 -3.762276E-11  1.816401E-11
       264  13 -1.520218E+03 -4.359078E+04 -1.381934E+04  8.549674E+04  2.610845E-10  2.590818E-10
       264  14 -2.825574E+02 -4.280751E+04 -1.244173E+04  7.277825E+04 -4.736182E-11  1.821927E-12
       264  15 -2.019831E+03 -4.358938E+04 -1.585191E+04  8.549692E+04  2.405240E-10 -1.278344E-10
       264  16  2.702429E+04  7.588749E+04  9.432110E+03  8.452257E+04  6.924318E-11  3.614805E-10
       264  17  5.220029E+03 -1.963383E+04 -8.103365E+03  7.281267E+04  4.937227E-11 -3.210843E-11
       264  18 -1.953948E+04 -1.166912E+05 -3.034622E+04  8.653972E+04  2.064412E-10 -5.119407E-10
       264  19 -3.006552E+04 -1.630553E+05 -3.707135E+04  8.647070E+04  7.057717E+03 -3.212585E+03
       264  20 -5.785148E+03 -6.598057E+04 -1.677994E+04  7.274382E+04  1.548788E+03 -9.533577E+03
       264  21  1.549958E+04  2.951786E+04 -1.357369E+03  8.445405E+04 -4.041112E+03 -1.585536E+04
       264  22 -1.520158E+03 -4.359074E+04 -1.381920E+04  8.549677E+04  7.060579E+03  4.657809E+03
       264  23 -2.825542E+02 -4.280751E+04 -1.244172E+04  7.277825E+04  1.551752E+03 -1.546590E+03
       264  24 -2.019798E+03 -4.358931E+04 -1.585177E+04  8.549695E+04 -4.038041E+03 -7.750849E+03
       264  25  2.702439E+04  7.588767E+04  9.432498E+03  8.452264E+04  7.063416E+03  1.252968E+04
       264  26  5.220042E+03 -1.963378E+04 -8.103282E+03  7.281268E+04  1.554717E+03  6.440687E+03
       264  27 -1.953947E+04 -1.166912E+05 -3.034619E+04  8.653972E+04 -4.034943E+03  3.527286E+02
       265   1  3.324011E+04  9.288251E+04  8.271284E+03  9.035141E+04  7.988199E+03  1.996527E+04
       265   2  4.774602E+04  1.939363E+05  1.783622E+04  5.893645E+04  1.020519E+04  2.338453E+04
       265   3  2.658003E+04  2.856368E+05  1.625711E+04  5.247163E+04  3.589593E+03  2.680575E+04
       265   4  5.857628E+01 -4.581633E+04 -1.892195E+04  8.538716E+04  7.984615E+03  1.040975E+04
       265   5 -8.819632E+03 -4.003646E+04 -3.108960E+04  7.291821E+04  1.020701E+04  2.654579E+04
       265   6 -5.558599E+04 -4.583177E+04 -6.323601E+04  8.540229E+04  3.595502E+03  4.268283E+04
       265   7 -3.312398E+04 -1.844965E+05 -4.611576E+04  8.042404E+04  7.981183E+03  8.563145E+02
       265   8 -6.538805E+04 -2.739570E+05 -8.001832E+04  8.689462E+04  1.020897E+04  2.970587E+04
       265   9 -1.377558E+05 -3.771969E+05 -1.427354E+05  1.183153E+05  3.603097E+03  5.855148E+04
       265  10  3.323994E+04  9.288207E+04  8.270416E+03  9.035128E+04  2.698764E-10 -3.399334E-10
       265  11  4.774576E+04  1.939357E+05  1.783500E+04  5.893625E+04 -2.605724E-10  7.196618E-11
       265  12  2.657983E+04  2.856361E+05  1.625574E+04  5.247155E+04 -2.478419E-11  2.920311E-11
       265  13  5.847874E+01 -4.581646E+04 -1.892227E+04  8.538709E+04  2.627448E-13  2.462692E-10
       265  14 -8.819933E+03 -4.003724E+04 -3.109112E+04  7.291799E+04 -2.698772E-10  1.209198E-11
       265  15 -5.558649E+04 -4.583373E+04 -6.323946E+04  8.540216E+04  8.646434E-11 -7.864110E-11
       265  16 -3.312405E+04 -1.844965E+05 -4.611588E+04  8.042403E+04  1.010561E-10  3.630276E-10
       265  17 -6.538840E+04 -2.739580E+05 -8.002017E+04  8.689437E+04 -2.047662E-10  1.065228E-10
       265  18 -1.377567E+05 -3.772006E+05 -1.427419E+05  1.183151E+05  4.910909E-12 -2.907734E-10
       265  19  3.324011E+04  9.288251E+04  8.271284E+03  9.035141E+04 -7.988199E+03 -1.996527E+04
       265  20  4.774602E+04  1.939363E+05  1.783622E+04  5.893645E+04 -1.020519E+04 -2.338453E+04
       265  21  2.658003E+04  2.856368E+05  1.625711E+04  5.247163E+04 -3.589593E+03 -2.680575E+04
       265  22  5.857628E+01 -4.581633E+04 -1.892195E+04  8.538716E+04 -7.984615E+03 -1.040975E+04
       265  23 -8.819632E+03 -4.003646E+04 -3.108960E+04  7.291821E+04 -1.020701E+04 -2.654579E+04
       265  24 -5.558599E+04 -4.583177E+04 -6.323601E+04  8.540229E+04 -3.595502E+03 -4.268283E+04
       265  25 -3.312398E+04 -1.844965E+05 -4.611576E+04  8.042404E+04 -7.981183E+03 -8.563145E+02
       265  26 -6.538805E+04 -2.739570E+05 -8.001832E+04  8.689462E+04 -1.020897E+04 -2.970587E+04
       265  27 -1.377558E+05 -3.771969E+05 -1.427354E+05  1.183153E+05 -3.603097E+03 -5.855148E+04
       266   1  2.348915E+05  1.959740E+05  4.400510E+04  1.761484E+05  1.930439E+04  1.370722E+04
       266   2  2.234206E+05  1.608361E+05  2.294454E+04  1.764343E+05  1.217810E+04  6.952540E+03
       266   3  2.182413E+05  1.438677E+05  1.286976E+04  1.718663E+05  4.132166E+03  1.424472E+03
       266   4  2.083358E+05  1.511310E+05  3.028479E+04  1.510667E+05  1.712042E+04  1.206867E+04
       266   5  2.005739E+05  1.336878E+05  1.451880E+04  1.599071E+05  1.176103E+04  6.639566E+03
       266   6  1.987211E+05  1.340310E+05  8.205880E+03  1.638935E+05  5.482016E+03  2.436803E+03
       266   7  1.817808E+05  1.062904E+05  1.656420E+04  1.259864E+05  1.493655E+04  1.043035E+04
       266   8  1.777279E+05  1.065406E+05  6.093006E+03  1.433808E+05  1.134398E+04  6.326620E+03
       266   9  1.792017E+05  1.241946E+05  3.542078E+03  1.559210E+05  6.831787E+03  3.449092E+03
       266  10  2.348910E+05  1.959736E+05  4.400405E+04  1.761482E+05 -4.463231E-11 -2.408909E-11
       266  11  2.234204E+05  1.608360E+05  2.294417E+04  1.764343E+05 -1.779594E-10  9.243962E-12
       266  12  2.182413E+05  1.438677E+05  1.286972E+04  1.718663E+05  9.077704E-11 -6.214546E-11
       266  13  2.083354E+05  1.511307E+05  3.028397E+04  1.510665E+05  3.146861E-10  1.692973E-12
       266  14  2.005738E+05  1.336877E+05  1.451846E+04  1.599071E+05 -1.724482E-10  1.444875E-11
       266  15  1.987211E+05  1.340310E+05  8.205812E+03  1.638935E+05 -8.097153E-11 -1.058276E-10
       266  16  1.817805E+05  1.062902E+05  1.656358E+04  1.259862E+05  1.354345E-10  3.391911E-11
       266  17  1.777278E+05  1.065405E+05  6.092690E+03  1.433807E+05  1.314537E-10 -3.561117E-11
       266  18  1.792016E+05  1.241946E+05  3.541968E+03  1.559210E+05  1.017295E-10 -1.202554E-10
       266  19  2.348915E+05  1.959740E+05  4.400510E+04  1.761484E+05 -1.930439E+04 -1.370722E+04
       266  20  2.234206E+05  1.608361E+05  2.294454E+04  1.764343E+05 -1.217810E+04 -6.952540E+03
       266  21  2.182413E+05  1.438677E+05  1.286976E+04  1.718663E+05 -4.132166E+03 -1.424472E+03
       266  22  2.083358E+05  1.511310E+05  3.028479E+04  1.510667E+05 -1.712042E+04 -1.206867E+04
       266  23  2.005739E+05  1.336878E+05  1.451880E+04  1.599071E+05 -1.176103E+04 -6.639566E+03
       266  24  1.987211E+05  1.340310E+05  8.205880E+03  1.638935E+05 -5.482016E+03 -2.436803E+03
       266  25  1.817808E+05  1.062904E+05  1.656420E+04  1.259864E+05 -1.493655E+04 -1.043035E+04
       266  26  1.777279E+05  1.065406E+05  6.093006E+03  1.433808E+05 -1.134398E+04 -6.326620E+03
       266  27  1.792017E+05  1.241946E+05  3.542078E+03  1.559210E+05 -6.831787E+03 -3.449092E+03
       267   1  2.069332E+05  1.409603E+05  8.868668E+03  1.674422E+05  3.059894E+03  1.479225E+03
       267   2  1.966608E+05  1.293058E+05  3.040725E+03  1.609665E+05  7.986584E+02  1.079229E+03
       267   3  1.827416E+05  1.226142E+05 -1.243926E+03  1.555579E+05 -1.527388E+03  7.657306E+02
       267   4  1.983530E+05  1.343078E+05  6.410306E+03  1.628601E+05  4.192347E+03  2.328502E+03
       267   5  1.999957E+05  1.314944E+05  3.799291E+03  1.625858E+05  2.055709E+03  2.021949E+03
       267   6  1.979645E+05  1.336169E+05  2.623536E+03  1.633785E+05 -1.457947E+02  1.801856E+03
       267   7  1.897730E+05  1.276554E+05  3.951942E+03  1.582782E+05  5.324779E+03  3.177762E+03
       267   8  2.033307E+05  1.336830E+05  4.557874E+03  1.642051E+05  3.312778E+03  2.964682E+03
       267   9  2.131879E+05  1.446198E+05  6.491074E+03  1.711994E+05  1.235865E+03  2.838032E+03
       267  10  2.069332E+05  1.409603E+05  8.868646E+03  1.674422E+05 -4.170419E-10 -2.783340E-10
       267  11  1.966608E+05  1.293058E+05  3.040722E+03  1.609665E+05 -9.895423E-11 -1.442824E-10
       267  12  1.827416E+05  1.226142E+05 -1.243931E+03  1.555579E+05  1.141376E-10 -1.168219E-11
       267  13  1.983530E+05  1.343078E+05  6.410263E+03  1.628601E+05  4.572821E-11 -1.312224E-10
       267  14  1.999957E+05  1.314944E+05  3.799275E+03  1.625858E+05 -6.133235E-12 -6.303689E-11
       267  15  1.979645E+05  1.336169E+05  2.623529E+03  1.633785E+05 -1.096990E-11 -9.277661E-11
       267  16  1.897729E+05  1.276554E+05  3.951870E+03  1.582782E+05  2.913851E-10  6.023392E-11
       267  17  2.033307E+05  1.336830E+05  4.557837E+03  1.642051E+05  1.062096E-10 -1.292610E-11
       267  18  2.131879E+05  1.446198E+05  6.491056E+03  1.711994E+05  4.417135E-11 -1.350749E-10
       267  19  2.069332E+05  1.409603E+05  8.868668E+03  1.674422E+05 -3.059894E+03 -1.479225E+03
       267  20  1.966608E+05  1.293058E+05  3.040725E+03  1.609665E+05 -7.986584E+02 -1.079229E+03
       267  21  1.827416E+05  1.226142E+05 -1.243926E+03  1.555579E+05  1.527388E+03 -7.657306E+02
       267  22  1.983530E+05  1.343078E+05  6.410306E+03  1.628601E+05 -4.192347E+03 -2.328502E+03
       267  23  1.999957E+05  1.314944E+05  3.799291E+03  1.625858E+05 -2.055709E+03 -2.021949E+03
       267  24  1.979645E+05  1.336169E+05  2.623536E+03  1.633785E+05  1.457947E+02 -1.801856E+03
       267  25  1.897730E+05  1.276554E+05  3.951942E+03  1.582782E+05 -5.324779E+03 -3.177762E+03
       267  26  2.033307E+05  1.336830E+05  4.557874E+03  1.642051E+05 -3.312778E+03 -2.964682E+03
       267  27  2.131879E+05  1.446198E+05  6.491074E+03  1.711994E+05 -1.235865E+03 -2.838032E+03
       268   1  1.743359E+05  1.169587E+05 -3.676889E+03  1.514061E+05 -2.289414E+03  1.068746E+03
       268   2  1.641908E+05  1.062517E+05 -6.739106E+03  1.446406E+05 -3.928942E+03  1.316601E+03
       268   3  1.499353E+05  9.993507E+04 -9.018736E+03  1.391552E+05 -5.561183E+03  1.554924E+03
       268   4  1.979405E+05  1.336248E+05  2.369166E+03  1.633294E+05 -9.203509E+02  2.095461E+03
       268   5  1.999966E+05  1.314327E+05  2.385347E+03  1.626860E+05 -2.573766E+03  2.332851E+03
       268   6  1.979452E+05  1.336336E+05  3.196052E+03  1.633223E+05 -4.219928E+03  2.560690E+03
       268   7  2.215453E+05  1.502909E+05  8.415059E+03  1.752531E+05  4.487610E+02  3.122212E+03
       268   8  2.358037E+05  1.566142E+05  1.150961E+04  1.807324E+05 -1.218495E+03  3.349170E+03
       268   9  2.459576E+05  1.673334E+05  1.541066E+04  1.874915E+05 -2.878534E+03  3.566559E+03
       268  10  1.743359E+05  1.169587E+05 -3.676901E+03  1.514061E+05 -6.055470E-11 -1.736416E-10
       268  11  1.641907E+05  1.062517E+05 -6.739138E+03  1.446406E+05 -1.668614E-10  1.506395E-11
       268  12  1.499353E+05  9.993506E+04 -9.018799E+03  1.391552E+05  1.171508E-10  1.640060E-10
       268  13  1.979405E+05  1.336248E+05  2.369156E+03  1.633294E+05  1.974938E-10 -3.570311E-11
       268  14  1.999966E+05  1.314327E+05  2.385324E+03  1.626860E+05 -1.865571E-10  6.093200E-11
       268  15  1.979451E+05  1.336336E+05  3.196006E+03  1.633223E+05 -1.693602E-10  1.387771E-11
       268  16  2.215453E+05  1.502909E+05  8.415040E+03  1.752531E+05  8.201955E-11  1.002885E-10
       268  17  2.358037E+05  1.566142E+05  1.150958E+04  1.807324E+05  1.091877E-10  8.464882E-11
       268  18  2.459576E+05  1.673334E+05  1.541062E+04  1.874915E+05 -6.590972E-11 -1.642453E-10
       268  19  1.743359E+05  1.169587E+05 -3.676889E+03  1.514061E+05  2.289414E+03 -1.068746E+03
       268  20  1.641908E+05  1.062517E+05 -6.739106E+03  1.446406E+05  3.928942E+03 -1.316601E+03
       268  21  1.499353E+05  9.993507E+04 -9.018736E+03  1.391552E+05  5.561183E+03 -1.554924E+03
       268  22  1.979405E+05  1.336248E+05  2.369166E+03  1.633294E+05  9.203509E+02 -2.095461E+03
       268  23  1.999966E+05  1.314327E+05  2.385347E+03  1.626860E+05  2.573766E+03 -2.332851E+03
       268  24  1.979452E+05  1.336336E+05  3.196052E+03  1.633223E+05  4.219928E+03 -2.560690E+03
       268  25  2.215453E+05  1.502909E+05  8.415059E+03  1.752531E+05 -4.487610E+02 -3.122212E+03
       268  26  2.358037E+05  1.566142E+05  1.150961E+04  1.807324E+05  1.218495E+03 -3.349170E+03
       268  27  2.459576E+05  1.673334E+05  1.541066E+04  1.874915E+05  2.878534E+03 -3.566559E+03
       269   1  1.414982E+05  9.435503E+04 -1.046298E+04  1.351823E+05 -6.523685E+03  1.706466E+03
       269   2  1.317850E+05  8.319150E+04 -1.113712E+04  1.280000E+05 -9.408327E+03  8.653407E+02
       269   3  1.187909E+05  7.743713E+04 -9.628278E+03  1.217272E+05 -1.212452E+04 -2.002667E+02
       269   4  1.980028E+05  1.336236E+05  3.935305E+03  1.634279E+05 -5.143249E+03  2.741582E+03
       269   5  1.999594E+05  1.315088E+05  6.452110E+03  1.625042E+05 -8.351666E+03  1.657591E+03
       269   6  1.987051E+05  1.348734E+05  1.143267E+04  1.624900E+05 -1.139167E+04  3.491068E+02
       269   7  2.545118E+05  1.728947E+05  1.833364E+04  1.916769E+05 -3.762624E+03  3.776838E+03
       269   8  2.681391E+05  1.798289E+05  2.404097E+04  1.970128E+05 -7.294850E+03  2.449959E+03
       269   9  2.786253E+05  1.923127E+05  3.249265E+04  2.032582E+05 -1.065870E+04  8.985694E+02
       269  10  1.414981E+05  9.435501E+04 -1.046307E+04  1.351823E+05 -3.202449E-10 -1.287412E-11
       269  11  1.317849E+05  8.319148E+04 -1.113729E+04  1.280000E+05  7.573843E-11  9.803287E-11
       269  12  1.187907E+05  7.743709E+04 -9.628554E+03  1.217272E+05 -1.935231E-10  1.903359E-10
       269  13  1.980027E+05  1.336236E+05  3.935241E+03  1.634279E+05  1.019009E-10  2.185567E-12
       269  14  1.999593E+05  1.315088E+05  6.451973E+03  1.625042E+05  6.483809E-11  9.870106E-11
       269  15  1.987049E+05  1.348734E+05  1.143243E+04  1.624900E+05  1.739505E-11  1.556088E-10
       269  16  2.545118E+05  1.728947E+05  1.833359E+04  1.916770E+05  7.154799E-11  3.978524E-11
       269  17  2.681390E+05  1.798289E+05  2.404085E+04  1.970128E+05 -2.291461E-11  9.738524E-11
       269  18  2.786251E+05  1.923127E+05  3.249243E+04  2.032582E+05  4.885659E-11  6.956485E-11
       269  19  1.414982E+05  9.435503E+04 -1.046298E+04  1.351823E+05  6.523685E+03 -1.706466E+03
       269  20  1.317850E+05  8.319150E+04 -1.113712E+04  1.280000E+05  9.408327E+03 -8.653407E+02
       269  21  1.187909E+05  7.743713E+04 -9.628278E+03  1.217272E+05  1.212452E+04  2.002667E+02
       269  22  1.980028E+05  1.336236E+05  3.935305E+03  1.634279E+05  5.143249E+03 -2.741582E+03
       269  23  1.999594E+05  1.315088E+05  6.452110E+03  1.625042E+05  8.351666E+03 -1.657591E+03
       269  24  1.987051E+05  1.348734E+05  1.143267E+04  1.624900E+05  1.139167E+04 -3.491068E+02
       269  25  2.545118E+05  1.728947E+05  1.833364E+04  1.916769E+05  3.762624E+03 -3.776838E+03
       269  26  2.681391E+05  1.798289E+05  2.404097E+04  1.970128E+05  7.294850E+03 -2.449959E+03
       269  27  2.786253E+05  1.923127E+05  3.249265E+04  2.032582E+05  1.065870E+04 -8.985694E+02
       270   1  1.062544E+05  7.586571E+04 -8.532851E+03  1.208222E+05 -1.465251E+04 -1.262102E+03
       270   2  1.118249E+05  5.247317E+04 -1.784101E+03  1.036053E+05 -2.057847E+04 -6.766119E+03
       270   3  1.307715E+05  5.699084E+04  1.824803E+04  7.648205E+04 -2.413844E+04 -1.542560E+04
       270   4  1.993938E+05  1.343557E+05  1.478295E+04  1.643756E+05 -1.335976E+04 -2.928342E+02
       270   5  2.009860E+05  1.355170E+05  2.641114E+04  1.576226E+05 -2.383269E+04 -9.206663E+03
       270   6  2.169371E+05  1.655705E+05  5.526618E+04  1.409640E+05 -3.193999E+04 -2.127631E+04
       270   7  2.925430E+05  1.928496E+05  3.809812E+04  2.079361E+05 -1.206674E+04  6.766020E+02
       270   8  2.901568E+05  2.185704E+05  5.460580E+04  2.116505E+05 -2.708755E+04 -1.164789E+04
       270   9  3.031132E+05  2.741684E+05  9.228404E+04  2.054601E+05 -3.974307E+04 -2.712931E+04
       270  10  1.062542E+05  7.586565E+04 -8.533258E+03  1.208222E+05 -6.495660E-11  2.682243E-10
       270  11  1.118245E+05  5.247300E+04 -1.784982E+03  1.036052E+05  2.663034E-10 -1.282160E-10
       270  12  1.307708E+05  5.699043E+04  1.824649E+04  7.648175E+04  2.620795E-11 -2.087647E-10
       270  13  1.993936E+05  1.343556E+05  1.478262E+04  1.643756E+05  2.212778E-10  4.037427E-12
       270  14  2.009853E+05  1.355167E+05  2.640991E+04  1.576224E+05 -1.379810E-12  4.645162E-12
       270  15  2.169359E+05  1.655697E+05  5.526341E+04  1.409635E+05  3.515355E-10  1.312804E-10
       270  16  2.925428E+05  1.928495E+05  3.809785E+04  2.079361E+05 -1.085980E-10 -4.335557E-11
       270  17  2.901559E+05  2.185701E+05  5.460416E+04  2.116502E+05 -2.354193E-10  3.710058E-11
       270  18  3.031113E+05  2.741672E+05  9.227969E+04  2.054592E+05 -8.643799E-11  1.325105E-10
       270  19  1.062544E+05  7.586571E+04 -8.532851E+03  1.208222E+05  1.465251E+04  1.262102E+03
       270  20  1.118249E+05  5.247317E+04 -1.784101E+03  1.036053E+05  2.057847E+04  6.766119E+03
       270  21  1.307715E+05  5.699084E+04  1.824803E+04  7.648205E+04  2.413844E+04  1.542560E+04
       270  22  1.993938E+05  1.343557E+05  1.478295E+04  1.643756E+05  1.335976E+04  2.928342E+02
       270  23  2.009860E+05  1.355170E+05  2.641114E+04  1.576226E+05  2.383269E+04  9.206663E+03
       270  24  2.169371E+05  1.655705E+05  5.526618E+04  1.409640E+05  3.193999E+04  2.127631E+04
       270  25  2.925430E+05  1.928496E+05  3.809812E+04  2.079361E+05  1.206674E+04 -6.766020E+02
       270  26  2.901568E+05  2.185704E+05  5.460580E+04  2.116505E+05  2.708755E+04  1.164789E+04
       270  27  3.031132E+05  2.741684E+05  9.228404E+04  2.054601E+05  3.974307E+04  2.712931E+04
       271   1  4.631006E+05  6.224468E+04  6.843386E+04  3.089549E+04  4.249429E+04 -7.353388E+02
       271   2  4.563091E+05  1.944216E+04  3.695155E+04  1.367169E+04  2.653586E+04 -2.480227E+03
       271   3  4.601843E+05  1.100290E+04  2.444502E+04 -3.244041E+03  1.057734E+04 -3.009234E+03
       271   4  4.137349E+05  5.004872E+04  5.678874E+04  1.262487E+03  3.910424E+04 -7.372512E+02
       271   5  4.085584E+05  7.975909E+03  2.734501E+04  1.107933E+03  2.489738E+04 -2.480738E+03
       271   6  4.137449E+05 -3.721753E+01  1.566193E+04  1.261412E+03  1.069035E+04 -3.009177E+03
       271   7  3.643733E+05  3.785588E+04  4.514396E+04 -2.836815E+04  3.571446E+04 -7.388404E+02
       271   8  3.608103E+05 -3.489887E+03  1.773843E+04 -1.145484E+04  2.325902E+04 -2.481183E+03
       271   9  3.673076E+05 -1.107738E+04  6.878760E+03  5.766520E+03  1.080335E+04 -3.009120E+03
       271  10  4.630987E+05  6.224420E+04  6.843047E+04  3.089551E+04  7.202453E-11 -1.478832E-11
       271  11  4.563084E+05  1.944196E+04  3.695022E+04  1.367175E+04  2.341101E-10 -2.044714E-11
       271  12  4.601842E+05  1.100286E+04  2.444479E+04 -3.244016E+03 -2.137088E-10  9.183983E-11
       271  13  4.137332E+05  5.004831E+04  5.678586E+04  1.262510E+03  1.345678E-10 -8.422335E-11
       271  14  4.085578E+05  7.975736E+03  2.734383E+04  1.107983E+03  2.087841E-10 -7.585982E-11
       271  15  4.137448E+05 -3.725791E+01  1.566170E+04  1.261438E+03 -1.090895E-10  1.390409E-10
       271  16  3.643719E+05  3.785554E+04  4.514157E+04 -2.836812E+04 -9.881381E-11 -1.250620E-10
       271  17  3.608097E+05 -3.490038E+03  1.773741E+04 -1.145480E+04  2.441884E-10 -1.581806E-10
       271  18  3.673074E+05 -1.107743E+04  6.878524E+03  5.766546E+03  3.004649E-10  1.593590E-10
       271  19  4.631006E+05  6.224468E+04  6.843386E+04  3.089549E+04 -4.249429E+04  7.353388E+02
       271  20  4.563091E+05  1.944216E+04  3.695155E+04  1.367169E+04 -2.653586E+04  2.480227E+03
       271  21  4.601843E+05  1.100290E+04  2.444502E+04 -3.244041E+03 -1.057734E+04  3.009234E+03
       271  22  4.137349E+05  5.004872E+04  5.678874E+04  1.262487E+03 -3.910424E+04  7.372512E+02
       271  23  4.085584E+05  7.975909E+03  2.734501E+04  1.107933E+03 -2.489738E+04  2.480738E+03
       271  24  4.137449E+05 -3.721753E+01  1.566193E+04  1.261412E+03 -1.069035E+04  3.009177E+03
       271  25  3.643733E+05  3.785588E+04  4.514396E+04 -2.836815E+04 -3.571446E+04  7.388404E+02
       271  26  3.608103E+05 -3.489887E+03  1.773843E+04 -1.145484E+04 -2.325902E+04  2.481183E+03
       271  27  3.673076E+05 -1.107738E+04  6.878760E+03  5.766520E+03 -1.080335E+04  3.009120E+03
       272   1  4.570517E+05  1.269352E+04  2.097235E+04  1.981026E+03  8.678251E+03 -2.959411E+03
       272   2  4.551503E+05  1.055146E+04  1.599905E+04  1.305266E+03  4.655280E+03 -2.985587E+03
       272   3  4.541729E+05  1.001076E+04  1.404395E+04  1.005615E+03  6.323293E+02 -2.921022E+03
       272   4  4.116413E+05  1.901417E+03  1.239981E+04  1.276765E+03  8.574698E+03 -2.959438E+03
       272   5  4.111910E+05  1.268560E+02  7.813700E+03  1.088714E+03  4.682713E+03 -2.985606E+03
       272   6  4.116422E+05 -6.899433E+01  6.155007E+03  1.276775E+03  7.907380E+02 -2.921037E+03
       272   7  3.662329E+05 -8.890803E+03  3.827184E+03  5.725556E+02  8.471153E+03 -2.959465E+03
       272   8  3.672337E+05 -1.029785E+04 -3.717373E+02  8.721784E+02  4.710144E+03 -2.985626E+03
       272   9  3.691132E+05 -1.014885E+04 -1.734012E+03  1.547915E+03  9.491362E+02 -2.921052E+03
       272  10  4.570516E+05  1.269349E+04  2.097219E+04  1.981047E+03  1.917932E-10  1.121158E-10
       272  11  4.551502E+05  1.055144E+04  1.599900E+04  1.305277E+03  3.537141E-10  7.332670E-11
       272  12  4.541729E+05  1.001075E+04  1.404393E+04  1.005616E+03  2.483024E-10 -7.458234E-11
       272  13  4.116412E+05  1.901387E+03  1.239966E+04  1.276785E+03  1.606449E-10  1.370192E-10
       272  14  4.111910E+05  1.268405E+02  7.813642E+03  1.088726E+03 -4.749921E-11  1.858021E-11
       272  15  4.116422E+05 -6.900367E+01  6.154990E+03  1.276776E+03 -2.153249E-11 -7.285250E-11
       272  16  3.662328E+05 -8.890832E+03  3.827032E+03  5.725758E+02 -3.521125E-10  2.212421E-10
       272  17  3.672337E+05 -1.029787E+04 -3.717957E+02  8.721897E+02 -8.816839E-11  1.724220E-11
       272  18  3.691132E+05 -1.014886E+04 -1.734030E+03  1.547917E+03 -1.735046E-10 -9.860844E-11
       272  19  4.570517E+05  1.269352E+04  2.097235E+04  1.981026E+03 -8.678251E+03  2.959411E+03
       272  20  4.551503E+05  1.055146E+04  1.599905E+04  1.305266E+03 -4.655280E+03  2.985587E+03
       272  21  4.541729E+05  1.001076E+04  1.404395E+04  1.005615E+03 -6.323293E+02  2.921022E+03
       272  22  4.116413E+05  1.901417E+03  1.239981E+04  1.276765E+03 -8.574698E+03  2.959438E+03
       272  23  4.111910E+05  1.268560E+02  7.813700E+03  1.088714E+03 -4.682713E+03  2.985606E+03
       272  24  4.116422E+05 -6.899433E+01  6.155007E+03  1.276775E+03 -7.907380E+02  2.921037E+03
       272  25  3.662329E+05 -8.890803E+03  3.827184E+03  5.725556E+02 -8.471153E+03  2.959465E+03
       272  26  3.672337E+05 -1.029785E+04 -3.717373E+02  8.721784E+02 -4.710144E+03  2.985626E+03
       272  27  3.691132E+05 -1.014885E+04 -1.734012E+03  1.547915E+03 -9.491362E+02  2.921052E+03
       273   1  4.531868E+05  9.788309E+03  1.377057E+04  1.497326E+03 -4.177096E+02 -2.861313E+03
       273   2  4.513335E+05  9.620042E+03  1.479853E+04  8.731373E+02 -4.167053E+03 -2.736767E+03
       273   3  4.503316E+05  1.090502E+04  1.862960E+04  6.304983E+02 -7.916349E+03 -2.546314E+03
       273   4  4.116274E+05 -5.994389E+01  6.068347E+03  1.277989E+03 -2.856489E+02 -2.861327E+03
       273   5  4.112096E+05  1.071212E+02  7.338148E+03  1.087201E+03 -3.939829E+03 -2.736779E+03
       273   6  4.116267E+05  1.710970E+03  1.134511E+04  1.277956E+03 -7.593970E+03 -2.546326E+03
       273   7  3.700697E+05 -9.908295E+03 -1.633953E+03  1.058667E+03 -1.535969E+02 -2.861342E+03
       273   8  3.710873E+05 -9.405892E+03 -1.223063E+02  1.301251E+03 -3.712619E+03 -2.736790E+03
       273   9  3.729233E+05 -7.483164E+03  4.060559E+03  1.925373E+03 -7.271612E+03 -2.546336E+03
       273  10  4.531868E+05  9.788300E+03  1.377056E+04  1.497325E+03 -4.558781E-11 -1.182422E-10
       273  11  4.513335E+05  9.620030E+03  1.479849E+04  8.731282E+02 -3.554756E-10 -1.114421E-10
       273  12  4.503315E+05  1.090499E+04  1.862947E+04  6.304821E+02  8.610251E-11  5.956383E-12
       273  13  4.116274E+05 -5.995270E+01  6.068331E+03  1.277988E+03 -1.762350E-11 -1.046115E-10
       273  14  4.112096E+05  1.071090E+02  7.338104E+03  1.087192E+03 -1.317640E-10 -2.209031E-11
       273  15  4.116266E+05  1.710947E+03  1.134499E+04  1.277941E+03 -1.436348E-10 -7.853736E-11
       273  16  3.700697E+05 -9.908304E+03 -1.633968E+03  1.058667E+03 -1.270377E-10 -8.016914E-11
       273  17  3.710873E+05 -9.405904E+03 -1.223462E+02  1.301242E+03  8.609683E-11 -4.434707E-11
       273  18  3.729232E+05 -7.483185E+03  4.060447E+03  1.925358E+03 -2.542331E-11  4.127304E-11
       273  19  4.531868E+05  9.788309E+03  1.377057E+04  1.497326E+03  4.177096E+02  2.861313E+03
       273  20  4.513335E+05  9.620042E+03  1.479853E+04  8.731373E+02  4.167053E+03  2.736767E+03
       273  21  4.503316E+05  1.090502E+04  1.862960E+04  6.304983E+02  7.916349E+03  2.546314E+03
       273  22  4.116274E+05 -5.994389E+01  6.068347E+03  1.277989E+03  2.856489E+02  2.861327E+03
       273  23  4.112096E+05  1.071212E+02  7.338148E+03  1.087201E+03  3.939829E+03  2.736779E+03
       273  24  4.116267E+05  1.710970E+03  1.134511E+04  1.277956E+03  7.593970E+03  2.546326E+03
       273  25  3.700697E+05 -9.908295E+03 -1.633953E+03  1.058667E+03  1.535969E+02  2.861342E+03
       273  26  3.710873E+05 -9.405892E+03 -1.223063E+02  1.301251E+03  3.712619E+03  2.736790E+03
       273  27  3.729233E+05 -7.483164E+03  4.060559E+03  1.925373E+03  7.271612E+03  2.546336E+03
       274   1  4.512965E+05  8.938775E+03  2.135901E+04  5.342974E+03 -9.699574E+03 -2.479542E+03
       274   2  4.451038E+05  1.588874E+04  3.196053E+04 -1.026456E+04 -2.375157E+04 -1.940277E+03
       274   3  4.484707E+05  5.376748E+04  5.943842E+04 -2.544396E+04 -3.780384E+04 -5.598873E+02
       274   4  4.135198E+05 -3.633444E+01  1.424365E+04  1.288738E+03 -9.527586E+03 -2.479485E+03
       274   5  4.088406E+05  7.192071E+03  2.471780E+04  1.073572E+03 -2.236809E+04 -1.940658E+03
       274   6  4.135109E+05  4.513910E+04  5.122778E+04  1.286927E+03 -3.520884E+04 -5.613806E+02
       274   7  3.757445E+05 -9.011465E+03  7.128227E+03 -2.765246E+03 -9.355609E+03 -2.479430E+03
       274   8  3.725790E+05 -1.504191E+03  1.747508E+04  1.241103E+04 -2.098469E+04 -1.940989E+03
       274   9  3.785537E+05  3.651333E+04  4.301746E+04  2.801630E+04 -3.261398E+04 -5.626506E+02
       274  10  4.512964E+05  8.938743E+03  2.135882E+04  5.342955E+03  9.495727E-11  1.530484E-11
       274  11  4.451032E+05  1.588858E+04  3.195947E+04 -1.026459E+04 -6.380002E-11  2.354593E-11
       274  12  4.484691E+05  5.376709E+04  5.943573E+04 -2.544398E+04 -1.129861E-10 -1.151636E-11
       274  13  4.135197E+05 -3.636540E+01  1.424346E+04  1.288719E+03  1.346449E-10  7.218013E-12
       274  14  4.088401E+05  7.191933E+03  2.471685E+04  1.073537E+03 -6.701378E-11  3.022053E-11
       274  15  4.135095E+05  4.513877E+04  5.122545E+04  1.286911E+03  3.546519E-10  8.548454E-11
       274  16  3.757444E+05 -9.011495E+03  7.128051E+03 -2.765265E+03 -5.017757E-11  5.627460E-11
       274  17  3.725785E+05 -1.504313E+03  1.747424E+04  1.241099E+04 -1.831784E-10 -1.436249E-11
       274  18  3.785526E+05  3.651305E+04  4.301546E+04  2.801628E+04 -4.684552E-11  4.663774E-11
       274  19  4.512965E+05  8.938775E+03  2.135901E+04  5.342974E+03  9.699574E+03  2.479542E+03
       274  20  4.451038E+05  1.588874E+04  3.196053E+04 -1.026456E+04  2.375157E+04  1.940277E+03
       274  21  4.484707E+05  5.376748E+04  5.943842E+04 -2.544396E+04  3.780384E+04  5.598873E+02
       274  22  4.135198E+05 -3.633444E+01  1.424365E+04  1.288738E+03  9.527586E+03  2.479485E+03
       274  23  4.088406E+05  7.192071E+03  2.471780E+04  1.073572E+03  2.236809E+04  1.940658E+03
       274  24  4.135109E+05  4.513910E+04  5.122778E+04  1.286927E+03  3.520884E+04  5.613806E+02
       274  25  3.757445E+05 -9.011465E+03  7.128227E+03 -2.765246E+03  9.355609E+03  2.479430E+03
       274  26  3.725790E+05 -1.504191E+03  1.747508E+04  1.241103E+04  2.098469E+04  1.940989E+03
       274  27  3.785537E+05  3.651333E+04  4.301746E+04  2.801630E+04  3.261398E+04  5.626506E+02
       275   1 -4.443052E+04 -7.242674E+04 -4.689067E+04  8.221145E+03 -1.309025E+03 -2.575361E+04
       275   2 -2.432975E+04 -7.717909E+04 -3.082236E+04  6.380957E+02 -4.616479E+03 -1.584141E+04
       275   3 -2.196981E+04 -8.765606E+04 -2.564235E+04 -9.083145E+03 -6.087249E+03 -5.929139E+03
       275   4 -2.536958E+04  4.800581E+03 -2.880942E+04 -6.804021E+03 -1.308185E+03 -1.966945E+04
       275   5 -4.042157E+03  7.432905E+03 -1.399568E+04 -5.735809E+03 -4.616085E+03 -1.240137E+04
       275   6  4.503861E+00  4.800052E+03 -8.233390E+03 -6.805682E+03 -6.087139E+03 -5.133214E+03
       275   7 -6.308198E+03  8.203397E+04 -1.072832E+04 -2.183107E+04 -1.307640E+03 -1.358454E+04
       275   8  1.624516E+04  9.205185E+04  2.830709E+03 -1.211060E+04 -4.615761E+03 -8.960877E+03
       275   9  2.197834E+04  9.726444E+04  9.175199E+03 -4.527872E+03 -6.087023E+03 -4.337173E+03
       275  10 -4.443070E+04 -7.242746E+04 -4.689192E+04  8.221117E+03  1.044058E-10  3.794912E-11
       275  11 -2.432984E+04 -7.717936E+04 -3.082287E+04  6.380368E+02  9.940526E-11  9.214805E-11
       275  12 -2.196985E+04 -8.765611E+04 -2.564248E+04 -9.083174E+03  9.573413E-11  1.762714E-10
       275  13 -2.536969E+04  4.800165E+03 -2.881015E+04 -6.804041E+03  1.271883E-10  1.105458E-12
       275  14 -4.042221E+03  7.432734E+03 -1.399601E+04 -5.735856E+03 -9.888473E-11 -5.500703E-11
       275  15  4.456998E+00  4.800014E+03 -8.233509E+03 -6.805708E+03  3.093440E-12  2.946880E-12
       275  16 -6.308250E+03  8.203377E+04 -1.072867E+04 -2.183108E+04 -3.442020E-11 -9.564662E-11
       275  17  1.624511E+04  9.205176E+04  2.830518E+03 -1.211063E+04 -1.768259E-10 -1.472482E-10
       275  18  2.197829E+04  9.726441E+04  9.175094E+03 -4.527894E+03  9.666796E-12 -2.025783E-10
       275  19 -4.443052E+04 -7.242674E+04 -4.689067E+04  8.221145E+03  1.309025E+03  2.575361E+04
       275  20 -2.432975E+04 -7.717909E+04 -3.082236E+04  6.380957E+02  4.616479E+03  1.584141E+04
       275  21 -2.196981E+04 -8.765606E+04 -2.564235E+04 -9.083145E+03  6.087249E+03  5.929139E+03
       275  22 -2.536958E+04  4.800581E+03 -2.880942E+04 -6.804021E+03  1.308185E+03  1.966945E+04
       275  23 -4.042157E+03  7.432905E+03 -1.399568E+04 -5.735809E+03  4.616085E+03  1.240137E+04
       275  24  4.503861E+00  4.800052E+03 -8.233390E+03 -6.805682E+03  6.087139E+03  5.133214E+03
       275  25 -6.308198E+03  8.203397E+04 -1.072832E+04 -2.183107E+04  1.307640E+03  1.358454E+04
       275  26  1.624516E+04  9.205185E+04  2.830709E+03 -1.211060E+04  4.615761E+03  8.960877E+03
       275  27  2.197834E+04  9.726444E+04  9.175199E+03 -4.527872E+03  6.087023E+03  4.337173E+03
       276   1 -2.414645E+04 -9.171684E+04 -2.505863E+04 -6.364841E+03 -6.420654E+03 -5.162894E+03
       276   2 -2.509361E+04 -9.901203E+04 -2.437618E+04 -5.747816E+03 -7.043567E+03 -2.294543E+03
       276   3 -2.725889E+04 -1.069830E+05 -2.586526E+04 -7.147330E+03 -7.299585E+03  5.737757E+02
       276   4 -9.598103E+02  5.840078E+03 -6.687036E+03 -6.778382E+03 -6.420471E+03 -4.001998E+03
       276   5 -1.267691E+02  6.131881E+03 -4.691763E+03 -5.770157E+03 -7.043400E+03 -1.661567E+03
       276   6 -4.200733E+02  5.839547E+03 -4.501214E+03 -6.778455E+03 -7.299460E+03  6.788649E+02
       276   7  2.222627E+04  1.034062E+05  1.168415E+04 -7.191989E+03 -6.420290E+03 -2.840924E+03
       276   8  2.483943E+04  1.112865E+05  1.499217E+04 -5.792502E+03 -7.043233E+03 -1.028486E+03
       276   9  2.641800E+04  1.186744E+05  1.686227E+04 -6.409512E+03 -7.299335E+03  7.839728E+02
       276  10 -2.414650E+04 -9.171688E+04 -2.505876E+04 -6.364867E+03  7.093085E-11  3.170132E-11
       276  11 -2.509366E+04 -9.901204E+04 -2.437628E+04 -5.747829E+03 -2.513176E-10  2.321890E-10
       276  12 -2.725895E+04 -1.069831E+05 -2.586537E+04 -7.147327E+03  6.464947E-12  3.543057E-10
       276  13 -9.598589E+02  5.840050E+03 -6.687144E+03 -6.778402E+03 -3.466214E-10  1.735014E-11
       276  14 -1.268231E+02  6.131865E+03 -4.691862E+03 -5.770166E+03 -3.467595E-10 -1.120160E-10
       276  15 -4.201307E+02  5.839533E+03 -4.501315E+03 -6.778451E+03  2.240902E-11  2.860291E-11
       276  16  2.222623E+04  1.034062E+05  1.168406E+04 -7.192004E+03 -2.298558E-10 -1.296602E-10
       276  17  2.483938E+04  1.112865E+05  1.499208E+04 -5.792507E+03 -2.139024E-10 -2.841215E-10
       276  18  2.641795E+04  1.186744E+05  1.686217E+04 -6.409507E+03  1.348124E-10 -4.050773E-10
       276  19 -2.414645E+04 -9.171684E+04 -2.505863E+04 -6.364841E+03  6.420654E+03  5.162894E+03
       276  20 -2.509361E+04 -9.901203E+04 -2.437618E+04 -5.747816E+03  7.043567E+03  2.294543E+03
       276  21 -2.725889E+04 -1.069830E+05 -2.586526E+04 -7.147330E+03  7.299585E+03 -5.737757E+02
       276  22 -9.598103E+02  5.840078E+03 -6.687036E+03 -6.778382E+03  6.420471E+03  4.001998E+03
       276  23 -1.267691E+02  6.131881E+03 -4.691763E+03 -5.770157E+03  7.043400E+03  1.661567E+03
       276  24 -4.200733E+02  5.839547E+03 -4.501214E+03 -6.778455E+03  7.299460E+03 -6.788649E+02
       276  25  2.222627E+04  1.034062E+05  1.168415E+04 -7.191989E+03  6.420290E+03  2.840924E+03
       276  26  2.483943E+04  1.112865E+05  1.499217E+04 -5.792502E+03  7.043233E+03  1.028486E+03
       276  27  2.641800E+04  1.186744E+05  1.686227E+04 -6.409512E+03  7.299335E+03 -7.839728E+02
       277   1 -2.811757E+04 -1.127079E+05 -2.726674E+04 -5.748752E+03 -7.590976E+03  6.999532E+02
       277   2 -3.201672E+04 -1.187096E+05 -3.231187E+04 -8.865690E+03 -6.423773E+03  9.109036E+03
       277   3 -4.482152E+04 -1.280298E+05 -4.505799E+04 -1.379325E+04 -1.929137E+03  1.751710E+04
       277   4 -8.198474E+00  5.416570E+03 -4.850318E+03 -6.733072E+03 -7.590755E+03  1.416798E+03
       277   5 -1.875740E+03  6.659527E+03 -6.990852E+03 -5.826746E+03 -6.424310E+03  5.035679E+03
       277   6 -1.181636E+04  5.416016E+03 -1.350509E+04 -6.731165E+03 -1.930630E+03  8.653765E+03
       277   7  2.810036E+04  1.235545E+05  1.756549E+04 -7.717584E+03 -7.590537E+03  2.133777E+03
       277   8  2.826431E+04  1.320437E+05  1.832943E+04 -2.787176E+03 -6.424888E+03  9.615153E+02
       277   9  2.118774E+04  1.388785E+05  1.804689E+04  3.324431E+02 -1.932325E+03 -2.114622E+02
       277  10 -2.811763E+04 -1.127079E+05 -2.726685E+04 -5.748748E+03  2.015368E-10 -4.519345E-10
       277  11 -3.201678E+04 -1.187097E+05 -3.231211E+04 -8.865643E+03  1.008808E-11 -8.647911E-11
       277  12 -4.482160E+04 -1.280301E+05 -4.505857E+04 -1.379322E+04 -4.258659E-11  3.012251E-10
       277  13 -8.260887E+00  5.416552E+03 -4.850430E+03 -6.733063E+03  9.094530E-11 -3.671276E-12
       277  14 -1.875791E+03  6.659489E+03 -6.990978E+03 -5.826720E+03 -2.030284E-10 -1.925010E-10
       277  15 -1.181639E+04  5.415935E+03 -1.350524E+04 -6.731151E+03 -2.392359E-12  3.043538E-11
       277  16  2.810029E+04  1.235545E+05  1.756537E+04 -7.717571E+03  1.790455E-10  3.024670E-10
       277  17  2.826426E+04  1.320437E+05  1.832935E+04 -2.787171E+03 -1.131322E-10 -4.511731E-12
       277  18  2.118774E+04  1.388785E+05  1.804688E+04  3.324428E+02  3.515834E-11 -3.559232E-10
       277  19 -2.811757E+04 -1.127079E+05 -2.726674E+04 -5.748752E+03  7.590976E+03 -6.999532E+02
       277  20 -3.201672E+04 -1.187096E+05 -3.231187E+04 -8.865690E+03  6.423773E+03 -9.109036E+03
       277  21 -4.482152E+04 -1.280298E+05 -4.505799E+04 -1.379325E+04  1.929137E+03 -1.751710E+04
       277  22 -8.198474E+00  5.416570E+03 -4.850318E+03 -6.733072E+03  7.590755E+03 -1.416798E+03
       277  23 -1.875740E+03  6.659527E+03 -6.990852E+03 -5.826746E+03  6.424310E+03 -5.035679E+03
       277  24 -1.181636E+04  5.416016E+03 -1.350509E+04 -6.731165E+03  1.930630E+03 -8.653765E+03
       277  25  2.810036E+04  1.235545E+05  1.756549E+04 -7.717584E+03  7.590537E+03 -2.133777E+03
       277  26  2.826431E+04  1.320437E+05  1.832943E+04 -2.787176E+03  6.424888E+03 -9.615153E+02
       277  27  2.118774E+04  1.388785E+05  1.804689E+04  3.324431E+02  1.932325E+03  2.114622E+02
       278   1  1.657879E+04 -3.363352E+04 -2.893041E+04  1.191726E+04 -1.248560E+04 -8.820870E+03
       278   2  2.477280E+04 -1.036565E+04 -1.506079E+04  1.232872E+04 -7.906383E+03 -4.404029E+03
       278   3  2.932331E+04  9.768687E+02 -8.250689E+03  1.571255E+04 -2.673269E+03 -8.591053E+02
       278   4  3.656581E+04 -2.972944E+03 -1.919127E+04  2.937040E+04 -1.095188E+04 -7.671027E+03
       278   5  4.130004E+04  8.274962E+03 -9.125370E+03  2.381831E+04 -7.628275E+03 -4.195558E+03
       278   6  4.266356E+04  7.870283E+03 -5.028933E+03  2.123854E+04 -3.650777E+03 -1.592117E+03
       278   7  5.655308E+04  2.768857E+04 -9.452330E+03  4.682415E+04 -9.418123E+03 -6.521077E+03
       278   8  5.782748E+04  2.691590E+04 -3.190039E+03  3.530823E+04 -7.350161E+03 -3.987077E+03
       278   9  5.600401E+04  1.476374E+04 -1.807186E+03  2.676465E+04 -4.628313E+03 -2.325142E+03
       278  10  1.657860E+04 -3.363365E+04 -2.893085E+04  1.191717E+04  3.217106E-11 -4.269454E-11
       278  11  2.477273E+04 -1.036569E+04 -1.506095E+04  1.232869E+04  7.662270E-11  1.725062E-11
       278  12  2.932330E+04  9.768659E+02 -8.250704E+03  1.571255E+04  4.205527E-10  1.837281E-10
       278  13  3.656566E+04 -2.973040E+03 -1.919160E+04  2.937033E+04  2.933508E-11 -3.398988E-11
       278  14  4.129998E+04  8.274927E+03 -9.125512E+03  2.381828E+04  1.857480E-12 -8.721958E-11
       278  15  4.266355E+04  7.870277E+03 -5.028963E+03  2.123854E+04  4.887236E-11 -1.105920E-10
       278  16  5.655298E+04  2.768851E+04 -9.452577E+03  4.682410E+04  2.907501E-11  4.810572E-11
       278  17  5.782741E+04  2.691587E+04 -3.190170E+03  3.530821E+04 -1.373312E-11 -1.467853E-10
       278  18  5.600398E+04  1.476373E+04 -1.807236E+03  2.676464E+04 -9.851011E-11 -5.287073E-10
       278  19  1.657879E+04 -3.363352E+04 -2.893041E+04  1.191726E+04  1.248560E+04  8.820870E+03
       278  20  2.477280E+04 -1.036565E+04 -1.506079E+04  1.232872E+04  7.906383E+03  4.404029E+03
       278  21  2.932331E+04  9.768687E+02 -8.250689E+03  1.571255E+04  2.673269E+03  8.591053E+02
       278  22  3.656581E+04 -2.972944E+03 -1.919127E+04  2.937040E+04  1.095188E+04  7.671027E+03
       278  23  4.130004E+04  8.274962E+03 -9.125370E+03  2.381831E+04  7.628275E+03  4.195558E+03
       278  24  4.266356E+04  7.870283E+03 -5.028933E+03  2.123854E+04  3.650777E+03  1.592117E+03
       278  25  5.655308E+04  2.768857E+04 -9.452330E+03  4.682415E+04  9.418123E+03  6.521077E+03
       278  26  5.782748E+04  2.691590E+04 -3.190039E+03  3.530823E+04  7.350161E+03  3.987077E+03
       278  27  5.600401E+04  1.476374E+04 -1.807186E+03  2.676465E+04  4.628313E+03  2.325142E+03
       279   1  3.723725E+04  3.345860E+03 -5.451266E+03  1.889364E+04 -2.003176E+03 -9.785986E+02
       279   2  4.462079E+04  1.170268E+04 -1.278093E+03  2.360638E+04 -6.727277E+02 -9.216798E+02
       279   3  5.471650E+04  1.654166E+04  2.047326E+03  2.754307E+04  7.038127E+02 -9.261532E+02
       279   4  4.290165E+04  7.694396E+03 -3.825727E+03  2.189636E+04 -2.826121E+03 -1.595714E+03
       279   5  4.165683E+04  9.658604E+03 -1.979242E+03  2.212332E+04 -1.584107E+03 -1.605115E+03
       279   6  4.314318E+04  8.124020E+03 -9.037572E+02  2.157410E+04 -2.960327E+02 -1.675927E+03
       279   7  4.856617E+04  1.204302E+04 -2.200158E+03  2.489915E+04 -3.649089E+03 -2.212846E+03
       279   8  3.869288E+04  7.614534E+03 -2.680386E+03  2.064026E+04 -2.495480E+03 -2.288547E+03
       279   9  3.157020E+04 -2.934017E+02 -3.854784E+03  1.560534E+04 -1.295838E+03 -2.425671E+03
       279  10  3.723724E+04  3.345858E+03 -5.451275E+03  1.889364E+04 -3.158794E-10 -6.885174E-10
       279  11  4.462079E+04  1.170268E+04 -1.278096E+03  2.360638E+04  2.585006E-09  1.166907E-09
       279  12  5.471650E+04  1.654166E+04  2.047324E+03  2.754307E+04  1.320433E-09  1.056793E-09
       279  13  4.290164E+04  7.694391E+03 -3.825747E+03  2.189635E+04  4.317971E-10  1.525637E-10
       279  14  4.165682E+04  9.658601E+03 -1.979251E+03  2.212331E+04 -1.682271E-10  1.808374E-10
       279  15  4.314318E+04  8.124017E+03 -9.037627E+02  2.157410E+04 -4.083794E-09 -2.427944E-09
       279  16  4.856615E+04  1.204301E+04 -2.200192E+03  2.489914E+04  1.401142E-09  1.224770E-09
       279  17  3.869287E+04  7.614527E+03 -2.680407E+03  2.064026E+04 -2.550904E-09 -8.419052E-10
       279  18  3.157020E+04 -2.934085E+02 -3.854798E+03  1.560534E+04 -9.057754E-09 -5.739171E-09
       279  19  3.723725E+04  3.345860E+03 -5.451266E+03  1.889364E+04  2.003176E+03  9.785986E+02
       279  20  4.462079E+04  1.170268E+04 -1.278093E+03  2.360638E+04  6.727277E+02  9.216798E+02
       279  21  5.471650E+04  1.654166E+04  2.047326E+03  2.754307E+04 -7.038127E+02  9.261532E+02
       279  22  4.290165E+04  7.694396E+03 -3.825727E+03  2.189636E+04  2.826121E+03  1.595714E+03
       279  23  4.165683E+04  9.658604E+03 -1.979242E+03  2.212332E+04  1.584107E+03  1.605115E+03
       279  24  4.314318E+04  8.124020E+03 -9.037572E+02  2.157410E+04  2.960327E+02  1.675927E+03
       279  25  4.856617E+04  1.204302E+04 -2.200158E+03  2.489915E+04  3.649089E+03  2.212846E+03
       279  26  3.869288E+04  7.614534E+03 -2.680386E+03  2.064026E+04  2.495480E+03  2.288547E+03
       279  27  3.157020E+04 -2.934017E+02 -3.854784E+03  1.560534E+04  1.295838E+03  2.425671E+03
       280   1  6.077825E+04  2.067359E+04  4.030632E+03  3.056743E+04  1.095862E+03 -1.265166E+03
       280   2  6.801828E+04  2.842158E+04  6.995628E+03  3.545004E+04  1.503819E+03 -2.028566E+03
       280   3  7.835932E+04  3.310249E+04  1.004964E+04  3.943702E+04  1.906358E+03 -2.784691E+03
       280   4  4.317084E+04  8.123462E+03 -4.978443E+02  2.161946E+04  1.049826E+02 -2.008221E+03
       280   5  4.162661E+04  9.667229E+03  2.396426E+02  2.206051E+04  5.234000E+02 -2.763803E+03
       280   6  4.318100E+04  8.141582E+03  1.057069E+03  2.160585E+04  9.364020E+02 -3.512110E+03
       280   7  2.556376E+04 -4.426479E+03 -5.026343E+03  1.267178E+04 -8.858597E+02 -2.751249E+03
       280   8  1.523551E+04 -9.086851E+03 -6.516467E+03  8.671528E+03 -4.569710E+02 -3.499003E+03
       280   9  8.003534E+03 -1.681898E+04 -7.935785E+03  3.775563E+03 -3.349506E+01 -4.239484E+03
       280  10  6.077825E+04  2.067358E+04  4.030626E+03  3.056743E+04 -8.653410E-09 -5.773233E-09
       280  11  6.801828E+04  2.842157E+04  6.995616E+03  3.545004E+04 -2.595594E-09 -9.942322E-10
       280  12  7.835932E+04  3.310248E+04  1.004962E+04  3.943703E+04  1.440716E-09  1.159355E-09
       280  13  4.317083E+04  8.123458E+03 -4.978519E+02  2.161946E+04 -3.975713E-09 -2.369914E-09
       280  14  4.162661E+04  9.667221E+03  2.396277E+02  2.206051E+04 -1.229999E-10  7.679072E-11
       280  15  4.318100E+04  8.141569E+03  1.057044E+03  2.160585E+04  5.049798E-10  2.248946E-10
       280  16  2.556376E+04 -4.426487E+03 -5.026359E+03  1.267178E+04  9.103889E-10  9.727278E-10
       280  17  1.523551E+04 -9.086865E+03 -6.516491E+03  8.671527E+03  2.627740E-09  1.291241E-09
       280  18  8.003529E+03 -1.681900E+04 -7.935818E+03  3.775563E+03 -2.041138E-10 -7.209362E-10
       280  19  6.077825E+04  2.067359E+04  4.030632E+03  3.056743E+04 -1.095862E+03  1.265166E+03
       280  20  6.801828E+04  2.842158E+04  6.995628E+03  3.545004E+04 -1.503819E+03  2.028566E+03
       280  21  7.835932E+04  3.310249E+04  1.004964E+04  3.943702E+04 -1.906358E+03  2.784691E+03
       280  22  4.317084E+04  8.123462E+03 -4.978443E+02  2.161946E+04 -1.049826E+02  2.008221E+03
       280  23  4.162661E+04  9.667229E+03  2.396426E+02  2.206051E+04 -5.234000E+02  2.763803E+03
       280  24  4.318100E+04  8.141582E+03  1.057069E+03  2.160585E+04 -9.364020E+02  3.512110E+03
       280  25  2.556376E+04 -4.426479E+03 -5.026343E+03  1.267178E+04  8.858597E+02  2.751249E+03
       280  26  1.523551E+04 -9.086851E+03 -6.516467E+03  8.671528E+03  4.569710E+02  3.499003E+03
       280  27  8.003534E+03 -1.681898E+04 -7.935785E+03  3.775563E+03  3.349506E+01  4.239484E+03
       281   1  8.423996E+04  3.743042E+04  1.213534E+04  4.253594E+04  2.054502E+03 -3.305353E+03
       281   2  9.165277E+04  4.492341E+04  1.588972E+04  4.718835E+04  1.075835E+03 -4.994483E+03
       281   3  1.027000E+05  5.000659E+04  2.101158E+04  5.077158E+04 -2.561828E+01 -6.519838E+03
       281   4  4.321287E+04  8.142498E+03  1.562706E+03  2.166757E+04  1.056185E+03 -4.054060E+03
       281   5  4.159658E+04  9.684851E+03  3.009220E+03  2.196804E+04  3.135038E+02 -5.566248E+03
       281   6  4.356357E+04  8.766403E+03  5.618596E+03  2.119936E+04 -5.519528E+02 -6.914646E+03
       281   7  2.188356E+03 -2.114393E+04 -9.009836E+03  8.011170E+02  5.797158E+01 -4.802688E+03
       281   8 -8.456349E+03 -2.555194E+04 -9.871337E+03 -3.249733E+03 -4.487386E+02 -6.137946E+03
       281   9 -1.556885E+04 -3.247176E+04 -9.774673E+03 -8.369617E+03 -1.078220E+03 -7.309403E+03
       281  10  8.423995E+04  3.743041E+04  1.213531E+04  4.253595E+04 -2.653927E-10 -4.692401E-10
       281  11  9.165277E+04  4.492338E+04  1.588967E+04  4.718836E+04 -2.540465E-10 -1.864632E-10
       281  12  1.027000E+05  5.000654E+04  2.101150E+04  5.077158E+04 -9.892081E-12 -7.722956E-11
       281  13  4.321287E+04  8.142480E+03  1.562673E+03  2.166757E+04  7.230894E-11 -1.158057E-10
       281  14  4.159657E+04  9.684818E+03  3.009161E+03  2.196804E+04  8.986796E-11 -2.859143E-11
       281  15  4.356356E+04  8.766352E+03  5.618505E+03  2.119936E+04  1.809770E-11 -6.668553E-11
       281  16  2.188350E+03 -2.114395E+04 -9.009880E+03  8.011172E+02  4.314295E-10  1.389433E-10
       281  17 -8.456360E+03 -2.555198E+04 -9.871408E+03 -3.249735E+03  3.872643E-10  7.747299E-11
       281  18 -1.556887E+04 -3.247182E+04 -9.774776E+03 -8.369624E+03  2.913693E-10 -1.135644E-11
       281  19  8.423996E+04  3.743042E+04  1.213534E+04  4.253594E+04 -2.054502E+03  3.305353E+03
       281  20  9.165277E+04  4.492341E+04  1.588972E+04  4.718835E+04 -1.075835E+03  4.994483E+03
       281  21  1.027000E+05  5.000659E+04  2.101158E+04  5.077158E+04  2.561828E+01  6.519838E+03
       281  22  4.321287E+04  8.142498E+03  1.562706E+03  2.166757E+04 -1.056185E+03  4.054060E+03
       281  23  4.159658E+04  9.684851E+03  3.009220E+03  2.196804E+04 -3.135038E+02  5.566248E+03
       281  24  4.356357E+04  8.766403E+03  5.618596E+03  2.119936E+04  5.519528E+02  6.914646E+03
       281  25  2.188356E+03 -2.114393E+04 -9.009836E+03  8.011170E+02 -5.797158E+01  4.802688E+03
       281  26 -8.456349E+03 -2.555194E+04 -9.871337E+03 -3.249733E+03  4.487386E+02  6.137946E+03
       281  27 -1.556885E+04 -3.247176E+04 -9.774673E+03 -8.369617E+03  1.078220E+03  7.309403E+03
       282   1  1.065924E+05  5.652297E+04  2.436200E+04  5.549410E+04 -1.004630E+02 -7.178489E+03
       282   2  1.216076E+05  5.775073E+04  3.379565E+04  5.466690E+04 -9.291592E+03 -1.328992E+04
       282   3  1.495014E+05  6.929062E+04  5.475392E+04  4.741517E+04 -2.020716E+04 -1.710316E+04
       282   4  4.385098E+04  8.567791E+03  7.339097E+03  2.216773E+04 -1.034475E+03 -7.879052E+03
       282   5  4.218493E+04  1.161857E+04  1.323830E+04  1.949303E+04 -6.914544E+03 -1.150734E+04
       282   6  5.267962E+04  2.426413E+04  2.778918E+04  1.039353E+04 -1.451863E+04 -1.283725E+04
       282   7 -1.888690E+04 -3.938532E+04 -9.684500E+03 -1.115513E+04 -1.968374E+03 -8.579520E+03
       282   8 -3.723067E+04 -3.451134E+04 -7.319530E+03 -1.567616E+04 -4.537912E+03 -9.725000E+03
       282   9 -4.413024E+04 -2.075983E+04  8.242724E+02 -2.662229E+04 -8.831422E+03 -8.571911E+03
       282  10  1.065923E+05  5.652292E+04  2.436191E+04  5.549410E+04 -1.507001E-10 -1.572846E-10
       282  11  1.216075E+05  5.775052E+04  3.379515E+04  5.466680E+04 -1.209053E-10 -1.495919E-10
       282  12  1.495009E+05  6.929019E+04  5.475261E+04  4.741490E+04  5.725461E-11 -6.767212E-11
       282  13  4.385096E+04  8.567724E+03  7.338978E+03  2.216772E+04  1.732137E-10 -8.612209E-11
       282  14  4.218485E+04  1.161842E+04  1.323796E+04  1.949297E+04  1.646914E-10 -3.059018E-11
       282  15  5.267935E+04  2.426390E+04  2.778848E+04  1.039338E+04  1.930757E-11  4.836969E-11
       282  16 -1.888692E+04 -3.938540E+04 -9.684645E+03 -1.115515E+04  9.637805E-11  4.055511E-11
       282  17 -3.723071E+04 -3.451144E+04 -7.319747E+03 -1.567620E+04  1.196985E-10  5.155278E-12
       282  18 -4.413034E+04 -2.075993E+04  8.239877E+02 -2.662235E+04  5.980225E-11  1.612646E-11
       282  19  1.065924E+05  5.652297E+04  2.436200E+04  5.549410E+04  1.004630E+02  7.178489E+03
       282  20  1.216076E+05  5.775073E+04  3.379565E+04  5.466690E+04  9.291592E+03  1.328992E+04
       282  21  1.495014E+05  6.929062E+04  5.475392E+04  4.741517E+04  2.020716E+04  1.710316E+04
       282  22  4.385098E+04  8.567791E+03  7.339097E+03  2.216773E+04  1.034475E+03  7.879052E+03
       282  23  4.218493E+04  1.161857E+04  1.323830E+04  1.949303E+04  6.914544E+03  1.150734E+04
       282  24  5.267962E+04  2.426413E+04  2.778918E+04  1.039353E+04  1.451863E+04  1.283725E+04
       282  25 -1.888690E+04 -3.938532E+04 -9.684500E+03 -1.115513E+04  1.968374E+03  8.579520E+03
       282  26 -3.723067E+04 -3.451134E+04 -7.319530E+03 -1.567616E+04  4.537912E+03  9.725000E+03
       282  27 -4.413024E+04 -2.075983E+04  8.242724E+02 -2.662229E+04  8.831422E+03  8.571911E+03
       283   1  7.197722E+05  1.104187E+05  1.189097E+05  4.467889E+04  6.953145E+04 -2.154961E+03
       283   2  7.116209E+05  4.576065E+04  6.911031E+04  1.898604E+04  4.329586E+04 -7.382251E+03
       283   3  7.199662E+05  3.343857E+04  4.946403E+04 -6.957032E+03  1.706048E+04 -9.180110E+03
       283   4  5.790409E+05  7.565826E+04  8.577917E+04 -1.020967E+02  5.952633E+04 -2.160611E+03
       283   5  5.712311E+05  1.206917E+04  4.096337E+04  2.720822E+01  3.823464E+04 -7.384163E+03
       283   6  5.790620E+05 -3.779565E+01  2.287305E+04 -9.424583E+01  1.694285E+04 -9.180110E+03
       283   7  4.383324E+05  4.090402E+04  5.264875E+04 -4.487289E+04  4.952346E+04 -2.164820E+03
       283   8  4.308609E+05 -2.162216E+04  1.281573E+04 -1.892726E+04  3.317455E+04 -7.385766E+03
       283   9  4.381771E+05 -3.351514E+04 -3.718784E+03  6.766946E+03  1.682525E+04 -9.180112E+03
       283  10  7.197670E+05  1.104174E+05  1.189006E+05  4.467901E+04 -2.833016E-10 -2.318519E-11
       283  11  7.116188E+05  4.576009E+04  6.910669E+04  1.898630E+04  2.466969E-10  1.844737E-10
       283  12  7.199658E+05  3.343841E+04  4.946333E+04 -6.956906E+03  2.122554E-10 -2.087454E-10
       283  13  5.790371E+05  7.565730E+04  8.577251E+04 -1.019931E+02  2.305464E-10  1.681514E-10
       283  14  5.712295E+05  1.206872E+04  4.096053E+04  2.743554E+01  4.868280E-10  2.712049E-10
       283  15  5.790617E+05 -3.796314E+01  2.287235E+04 -9.412059E+01  4.216360E-11 -7.727151E-12
       283  16  4.383297E+05  4.090336E+04  5.264414E+04 -4.487280E+04  3.703234E-10  3.176150E-11
       283  17  4.308597E+05 -2.162252E+04  1.281356E+04 -1.892706E+04 -2.077046E-10 -2.690665E-11
       283  18  4.381768E+05 -3.351531E+04 -3.719474E+03  6.767070E+03 -3.375009E-10 -1.173615E-12
       283  19  7.197722E+05  1.104187E+05  1.189097E+05  4.467889E+04 -6.953145E+04  2.154961E+03
       283  20  7.116209E+05  4.576065E+04  6.911031E+04  1.898604E+04 -4.329586E+04  7.382251E+03
       283  21  7.199662E+05  3.343857E+04  4.946403E+04 -6.957032E+03 -1.706048E+04  9.180110E+03
       283  22  5.790409E+05  7.565826E+04  8.577917E+04 -1.020967E+02 -5.952633E+04  2.160611E+03
       283  23  5.712311E+05  1.206917E+04  4.096337E+04  2.720822E+01 -3.823464E+04  7.384163E+03
       283  24  5.790620E+05 -3.779565E+01  2.287305E+04 -9.424583E+01 -1.694285E+04  9.180110E+03
       283  25  4.383324E+05  4.090402E+04  5.264875E+04 -4.487289E+04 -4.952346E+04  2.164820E+03
       283  26  4.308609E+05 -2.162216E+04  1.281573E+04 -1.892726E+04 -3.317455E+04  7.385766E+03
       283  27  4.381771E+05 -3.351514E+04 -3.718784E+03  6.766946E+03 -1.682525E+04  9.180112E+03
       284   1  7.167065E+05  3.635838E+04  4.418909E+04  9.392887E+02  1.464640E+04 -9.216292E+03
       284   2  7.162299E+05  3.365969E+04  3.605676E+04  1.900406E+02  9.365901E+03 -9.591444E+03
       284   3  7.170338E+05  3.332501E+04  3.195118E+04 -6.181746E+02  4.085489E+03 -9.705502E+03
       284   4  5.758541E+05  2.899339E+03  1.764435E+04 -5.296709E+01  1.391641E+04 -9.216591E+03
       284   5  5.752475E+05  2.386614E+02  9.830747E+03 -2.320165E+01  9.013225E+03 -9.591690E+03
       284   6  5.758563E+05 -1.231329E+02  5.782661E+03 -5.241281E+01  4.110111E+03 -9.705681E+03
       284   7  4.350209E+05 -3.056085E+04 -8.901259E+03 -1.044993E+03  1.318659E+04 -9.216887E+03
       284   8  4.342844E+05 -3.318351E+04 -1.639611E+04 -2.363950E+02  8.660626E+03 -9.591937E+03
       284   9  4.346980E+05 -3.357242E+04 -2.038670E+04  5.132162E+02  4.134727E+03 -9.705859E+03
       284  10  7.167062E+05  3.635823E+04  4.418852E+04  9.393974E+02 -1.394656E-10 -1.633914E-11
       284  11  7.162298E+05  3.365957E+04  3.605642E+04  1.901129E+02 -5.064768E-10 -2.272151E-10
       284  12  7.170338E+05  3.332490E+04  3.195097E+04 -6.181427E+02  4.429541E-10  4.455026E-11
       284  13  5.758539E+05  2.899196E+03  1.764382E+04 -5.286381E+01  5.322683E-15 -3.853190E-11
       284  14  5.752474E+05  2.385408E+02  9.830421E+03 -2.313204E+01 -1.845047E-10 -7.945756E-11
       284  15  5.758562E+05 -1.232386E+02  5.782452E+03 -5.238069E+01 -3.157019E-10 -1.082050E-10
       284  16  4.350206E+05 -3.056099E+04 -8.901745E+03 -1.044895E+03  1.696101E-10 -1.529114E-10
       284  17  4.342843E+05 -3.318363E+04 -1.639642E+04 -2.363281E+02 -2.050551E-10 -1.396931E-10
       284  18  4.346980E+05 -3.357252E+04 -2.038691E+04  5.132486E+02 -3.174380E-10  2.961418E-11
       284  19  7.167065E+05  3.635838E+04  4.418909E+04  9.392887E+02 -1.464640E+04  9.216292E+03
       284  20  7.162299E+05  3.365969E+04  3.605676E+04  1.900406E+02 -9.365901E+03  9.591444E+03
       284  21  7.170338E+05  3.332501E+04  3.195118E+04 -6.181746E+02 -4.085489E+03  9.705502E+03
       284  22  5.758541E+05  2.899339E+03  1.764435E+04 -5.296709E+01 -1.391641E+04  9.216591E+03
       284  23  5.752475E+05  2.386614E+02  9.830747E+03 -2.320165E+01 -9.013225E+03  9.591690E+03
       284  24  5.758563E+05 -1.231329E+02  5.782661E+03 -5.241281E+01 -4.110111E+03  9.705681E+03
       284  25  4.350209E+05 -3.056085E+04 -8.901259E+03 -1.044993E+03 -1.318659E+04  9.216887E+03
       284  26  4.342844E+05 -3.318351E+04 -1.639611E+04 -2.363950E+02 -8.660626E+03  9.591937E+03
       284  27  4.346980E+05 -3.357242E+04 -2.038670E+04  5.132162E+02 -4.134727E+03  9.705859E+03
       285   1  7.169497E+05  3.348665E+04  3.072224E+04 -1.990986E+02  3.266398E+03 -9.713615E+03
       285   2  7.170098E+05  3.349380E+04  2.927294E+04 -1.700073E+02  1.422429E+03 -9.626080E+03
       285   3  7.173905E+05  3.381279E+04  2.910185E+04 -1.830622E+02 -4.216430E+02 -9.273957E+03
       285   4  5.756428E+05  7.488117E+00  4.528833E+03 -4.877286E+01  3.201954E+03 -9.713816E+03
       285   5  5.755157E+05 -4.859995E+01  2.950342E+03 -2.771341E+01  1.739637E+03 -9.626187E+03
       285   6  5.756431E+05  1.410052E+02  2.385405E+03 -4.880086E+01  2.772220E+02 -9.273942E+03
       285   7  4.343552E+05 -3.347282E+04 -2.166541E+04  1.015169E+02  3.137525E+03 -9.714017E+03
       285   8  4.340409E+05 -3.359215E+04 -2.337310E+04  1.145461E+02  2.056774E+03 -9.626295E+03
       285   9  4.339151E+05 -3.353195E+04 -2.433192E+04  8.542779E+01  9.759315E+02 -9.273927E+03
       285  10  7.169497E+05  3.348655E+04  3.072204E+04 -1.990731E+02  1.303675E-10 -6.268042E-12
       285  11  7.170097E+05  3.349370E+04  2.927276E+04 -1.699962E+02  5.123773E-10 -7.720453E-11
       285  12  7.173904E+05  3.381270E+04  2.910169E+04 -1.830653E+02  5.354263E-10 -4.087862E-10
       285  13  5.756427E+05  7.384016E+00  4.528636E+03 -4.874781E+01 -5.889852E-11 -6.096428E-11
       285  14  5.755156E+05 -4.870029E+01  2.950162E+03 -2.769992E+01  3.312446E-11 -1.125801E-10
       285  15  5.756431E+05  1.409128E+02  2.385243E+03 -4.879879E+01  1.974185E-10 -2.656142E-10
       285  16  4.343551E+05 -3.347292E+04 -2.166561E+04  1.015414E+02 -1.066931E-11 -1.857968E-11
       285  17  4.340409E+05 -3.359225E+04 -2.337329E+04  1.145620E+02 -4.963472E-12  5.200246E-10
       285  18  4.339150E+05 -3.353204E+04 -2.433209E+04  8.543508E+01 -2.384168E-10 -2.187618E-11
       285  19  7.169497E+05  3.348665E+04  3.072224E+04 -1.990986E+02 -3.266398E+03  9.713615E+03
       285  20  7.170098E+05  3.349380E+04  2.927294E+04 -1.700073E+02 -1.422429E+03  9.626080E+03
       285  21  7.173905E+05  3.381279E+04  2.910185E+04 -1.830622E+02  4.216430E+02  9.273957E+03
       285  22  5.756428E+05  7.488117E+00  4.528833E+03 -4.877286E+01 -3.201954E+03  9.713816E+03
       285  23  5.755157E+05 -4.859995E+01  2.950342E+03 -2.771341E+01 -1.739637E+03  9.626187E+03
       285  24  5.756431E+05  1.410052E+02  2.385405E+03 -4.880086E+01 -2.772220E+02  9.273942E+03
       285  25  4.343552E+05 -3.347282E+04 -2.166541E+04  1.015169E+02 -3.137525E+03  9.714017E+03
       285  26  4.340409E+05 -3.359215E+04 -2.337310E+04  1.145461E+02 -2.056774E+03  9.626295E+03
       285  27  4.339151E+05 -3.353195E+04 -2.433192E+04  8.542779E+01 -9.759315E+02  9.273927E+03
       286   1  7.178652E+05  3.372349E+04  2.916676E+04  3.695330E+02 -1.894169E+02 -9.253353E+03
       286   2  7.172382E+05  3.477589E+04  3.141339E+04 -1.266410E+03 -6.727275E+03 -7.462411E+03
       286   3  7.184706E+05  3.985530E+04  3.892007E+04 -2.752099E+03 -1.326651E+04 -2.192450E+03
       286   4  5.758067E+05 -3.023746E+01  2.353264E+03 -5.773434E+00 -1.124750E+02 -9.253507E+03
       286   5  5.753111E+05  7.199303E+02  2.951807E+03 -8.164512E+01 -1.635754E+03 -7.460914E+03
       286   6  5.758055E+05  4.627651E+03  5.331090E+03 -7.218780E+00 -3.160375E+03 -2.188971E+03
       286   7  4.337676E+05 -3.378514E+04 -2.446112E+04 -3.809934E+02 -3.555020E+01 -9.253662E+03
       286   8  4.334032E+05 -3.333725E+04 -2.551070E+04  1.102842E+03  3.454626E+03 -7.459397E+03
       286   9  4.331594E+05 -3.060137E+04 -2.825891E+04  2.737026E+03  6.943457E+03 -2.185402E+03
       286  10  7.178652E+05  3.372340E+04  2.916660E+04  3.695316E+02 -4.481907E-11 -6.877072E-10
       286  11  7.172381E+05  3.477582E+04  3.141320E+04 -1.266450E+03 -5.601946E-10 -1.020946E-09
       286  12  7.184704E+05  3.985525E+04  3.891974E+04 -2.752123E+03 -8.192945E-10 -2.662340E-10
       286  13  5.758066E+05 -3.032944E+01  2.353103E+03 -5.774272E+00 -6.309612E-10 -1.580745E-09
       286  14  5.753111E+05  7.198698E+02  2.951698E+03 -8.165494E+01  5.991289E-10  5.242988E-10
       286  15  5.758055E+05  4.627643E+03  5.331062E+03 -7.224350E+00  1.655471E-10 -7.459497E-11
       286  16  4.337676E+05 -3.378523E+04 -2.446129E+04 -3.809936E+02  1.138384E-10 -3.532579E-10
       286  17  4.334032E+05 -3.333732E+04 -2.551083E+04  1.102863E+03  5.529798E-10  2.870286E-10
       286  18  4.331593E+05 -3.060139E+04 -2.825901E+04  2.737039E+03  6.267677E-10 -4.268291E-10
       286  19  7.178652E+05  3.372349E+04  2.916676E+04  3.695330E+02  1.894169E+02  9.253353E+03
       286  20  7.172382E+05  3.477589E+04  3.141339E+04 -1.266410E+03  6.727275E+03  7.462411E+03
       286  21  7.184706E+05  3.985530E+04  3.892007E+04 -2.752099E+03  1.326651E+04  2.192450E+03
       286  22  5.758067E+05 -3.023746E+01  2.353264E+03 -5.773434E+00  1.124750E+02  9.253507E+03
       286  23  5.753111E+05  7.199303E+02  2.951807E+03 -8.164512E+01  1.635754E+03  7.460914E+03
       286  24  5.758055E+05  4.627651E+03  5.331090E+03 -7.218780E+00  3.160375E+03  2.188971E+03
       286  25  4.337676E+05 -3.378514E+04 -2.446112E+04 -3.809934E+02  3.555020E+01  9.253662E+03
       286  26  4.334032E+05 -3.333725E+04 -2.551070E+04  1.102842E+03 -3.454626E+03  7.459397E+03
       286  27  4.331594E+05 -3.060137E+04 -2.825891E+04  2.737026E+03 -6.943457E+03  2.185402E+03
       287   1 -1.976485E+04  1.132817E+04 -2.851772E+04 -8.975914E+02  1.647290E+03 -3.650749E+04
       287   2  1.699521E+04 -2.176852E+04 -8.183030E+03 -1.503223E+04  4.805922E+03 -2.622269E+04
       287   3  1.660380E+04 -6.548980E+04 -3.831081E+03 -3.908971E+04  4.097834E+03 -1.593875E+04
       287   4 -5.599573E+04 -1.348448E+05 -6.351998E+04 -3.402228E+04  1.650117E+03 -4.383302E+04
       287   5 -8.921252E+03 -1.290441E+05 -3.050091E+04 -2.905717E+04  4.806817E+03 -2.798427E+04
       287   6  3.055828E+01 -1.348387E+05 -1.733166E+04 -3.401556E+04  4.097126E+03 -1.213553E+04
       287   7 -9.222400E+04 -2.809957E+05 -9.852295E+04 -6.713914E+04  1.653726E+03 -5.115683E+04
       287   8 -3.483771E+04 -2.363083E+05 -5.281930E+04 -4.307964E+04  4.807792E+03 -2.974555E+04
       287   9 -1.654287E+04 -2.041828E+05 -3.083239E+04 -2.894199E+04  4.096479E+03 -8.332737E+03
       287  10 -1.976521E+04  1.132673E+04 -2.852023E+04 -8.975430E+02 -2.037307E-11 -9.329216E-11
       287  11  1.699500E+04 -2.176927E+04 -8.184366E+03 -1.503213E+04 -1.061193E-10 -4.574815E-11
       287  12  1.660372E+04 -6.549007E+04 -3.831590E+03 -3.908966E+04 -1.119739E-10 -9.297452E-11
       287  13 -5.599625E+04 -1.348469E+05 -6.352359E+04 -3.402222E+04 -1.364499E-10  1.379073E-10
       287  14 -8.921488E+03 -1.290449E+05 -3.050242E+04 -2.905706E+04 -2.544105E-10 -1.102794E-10
       287  15  3.050072E+01 -1.348388E+05 -1.733196E+04 -3.401552E+04 -1.597489E-10  1.636127E-10
       287  16 -9.222471E+04 -2.809985E+05 -9.852788E+04 -6.713907E+04 -1.618170E-11  8.275640E-11
       287  17 -3.483797E+04 -2.363093E+05 -5.282101E+04 -4.307952E+04  3.126157E-10  2.061099E-10
       287  18 -1.654291E+04 -2.041829E+05 -3.083255E+04 -2.894197E+04  1.926552E-11  6.342747E-11
       287  19 -1.976485E+04  1.132817E+04 -2.851772E+04 -8.975914E+02 -1.647290E+03  3.650749E+04
       287  20  1.699521E+04 -2.176852E+04 -8.183030E+03 -1.503223E+04 -4.805922E+03  2.622269E+04
       287  21  1.660380E+04 -6.548980E+04 -3.831081E+03 -3.908971E+04 -4.097834E+03  1.593875E+04
       287  22 -5.599573E+04 -1.348448E+05 -6.351998E+04 -3.402228E+04 -1.650117E+03  4.383302E+04
       287  23 -8.921252E+03 -1.290441E+05 -3.050091E+04 -2.905717E+04 -4.806817E+03  2.798427E+04
       287  24  3.055828E+01 -1.348387E+05 -1.733166E+04 -3.401556E+04 -4.097126E+03  1.213553E+04
       287  25 -9.222400E+04 -2.809957E+05 -9.852295E+04 -6.713914E+04 -1.653726E+03  5.115683E+04
       287  26 -3.483771E+04 -2.363083E+05 -5.281930E+04 -4.307964E+04 -4.807792E+03  2.974555E+04
       287  27 -1.654287E+04 -2.041828E+05 -3.083239E+04 -2.894199E+04 -4.096479E+03  8.332737E+03
       288   1  8.198194E+03 -8.929853E+04 -5.178913E+03 -3.327641E+04  2.527326E+03 -1.297403E+04
       288   2  9.334480E+02 -1.271604E+05 -7.378716E+03 -2.888877E+04  3.239608E+02 -8.868054E+03
       288   3 -8.312891E+03 -1.660534E+05 -1.274797E+04 -3.464021E+04 -1.896114E+03 -4.762316E+03
       288   4 -2.127791E+03 -1.324922E+05 -1.361149E+04 -3.406449E+04  2.526823E+03 -9.814293E+03
       288   5 -2.095187E+02 -1.319736E+05 -8.279930E+03 -2.899477E+04  3.234343E+02 -5.684629E+03
       288   6 -2.769848E+02 -1.324918E+05 -6.134568E+03 -3.406418E+04 -1.896659E+03 -1.554959E+03
       288   7 -1.245388E+04 -1.756841E+05 -2.204412E+04 -3.485252E+04  2.526311E+03 -6.654772E+03
       288   8 -1.352481E+03 -1.367867E+05 -9.181108E+03 -2.910077E+04  3.229066E+02 -2.501227E+03
       288   9  7.758860E+03 -9.892916E+04  4.788162E+02 -3.348812E+04 -1.897198E+03  1.652569E+03
       288  10  8.198142E+03 -8.929871E+04 -5.179242E+03 -3.327639E+04 -8.831865E-11 -2.598071E-10
       288  11  9.334268E+02 -1.271605E+05 -7.378864E+03 -2.888877E+04  1.213815E-10 -8.901141E-12
       288  12 -8.312901E+03 -1.660534E+05 -1.274802E+04 -3.464022E+04  6.719482E-11  9.660447E-11
       288  13 -2.127823E+03 -1.324923E+05 -1.361169E+04 -3.406447E+04 -5.072507E-11  2.472291E-10
       288  14 -2.095275E+02 -1.319736E+05 -8.279991E+03 -2.899477E+04  9.104962E-12 -1.067595E-10
       288  15 -2.769893E+02 -1.324918E+05 -6.134580E+03 -3.406418E+04  5.392758E-11  2.085366E-10
       288  16 -1.245390E+04 -1.756841E+05 -2.204422E+04 -3.485250E+04 -1.546661E-10  2.385461E-10
       288  17 -1.352483E+03 -1.367867E+05 -9.181120E+03 -2.910077E+04 -1.196289E-10  1.210495E-10
       288  18  7.758856E+03 -9.892916E+04  4.788043E+02 -3.348811E+04 -1.695220E-10 -1.172879E-10
       288  19  8.198194E+03 -8.929853E+04 -5.178913E+03 -3.327641E+04 -2.527326E+03  1.297403E+04
       288  20  9.334480E+02 -1.271604E+05 -7.378716E+03 -2.888877E+04 -3.239608E+02  8.868054E+03
       288  21 -8.312891E+03 -1.660534E+05 -1.274797E+04 -3.464021E+04  1.896114E+03  4.762316E+03
       288  22 -2.127791E+03 -1.324922E+05 -1.361149E+04 -3.406449E+04 -2.526823E+03  9.814293E+03
       288  23 -2.095187E+02 -1.319736E+05 -8.279930E+03 -2.899477E+04 -3.234343E+02  5.684629E+03
       288  24 -2.769848E+02 -1.324918E+05 -6.134568E+03 -3.406418E+04  1.896659E+03  1.554959E+03
       288  25 -1.245388E+04 -1.756841E+05 -2.204412E+04 -3.485252E+04 -2.526311E+03  6.654772E+03
       288  26 -1.352481E+03 -1.367867E+05 -9.181108E+03 -2.910077E+04 -3.229066E+02  2.501227E+03
       288  27  7.758860E+03 -9.892916E+04  4.788162E+02 -3.348812E+04  1.897198E+03 -1.652569E+03
       289   1 -1.428595E+04 -1.924335E+05 -1.743724E+04 -3.330714E+04 -3.468019E+03 -4.384109E+03
       289   2 -2.511285E+04 -2.293324E+05 -2.692898E+04 -3.160078E+04 -4.297934E+03  4.206947E+03
       289   3 -4.347541E+04 -2.692332E+05 -4.389930E+04 -3.983202E+04 -1.498370E+03  1.279758E+04
       289   4 -6.806901E+00 -1.327276E+05 -5.759866E+03 -3.401930E+04 -3.468615E+03 -5.787265E+02
       289   5 -1.501545E+03 -1.316810E+05 -6.539892E+03 -2.905101E+04 -4.297665E+03  2.787610E+03
       289   6 -9.624095E+03 -1.327305E+05 -1.116917E+04 -3.402048E+04 -1.497406E+03  6.154155E+03
       289   7  1.427213E+04 -7.301823E+04  5.917389E+03 -3.473154E+04 -3.469220E+03  3.227014E+03
       289   8  2.210918E+04 -3.402065E+04  1.384868E+04 -2.650084E+04 -4.297408E+03  1.368054E+03
       289   9  2.422602E+04  3.789364E+03  2.155983E+04 -2.820766E+04 -1.496567E+03 -4.907288E+02
       289  10 -1.428596E+04 -1.924335E+05 -1.743730E+04 -3.330715E+04 -7.558775E-11  2.699632E-11
       289  11 -2.511288E+04 -2.293324E+05 -2.692905E+04 -3.160077E+04 -2.127250E-11  8.191857E-11
       289  12 -4.347546E+04 -2.692334E+05 -4.389961E+04 -3.983201E+04  8.128587E-11 -7.702568E-12
       289  13 -6.819910E+00 -1.327276E+05 -5.759890E+03 -3.401931E+04 -9.437817E-12  2.678965E-10
       289  14 -1.501567E+03 -1.316811E+05 -6.539941E+03 -2.905100E+04  9.488281E-11 -9.368292E-11
       289  15 -9.624107E+03 -1.327306E+05 -1.116924E+04 -3.402048E+04  1.683697E-10  1.176841E-10
       289  16  1.427211E+04 -7.301825E+04  5.917346E+03 -3.473153E+04  1.905262E-11 -1.873969E-11
       289  17  2.210916E+04 -3.402066E+04  1.384864E+04 -2.650083E+04  1.469590E-12  4.914180E-11
       289  18  2.422602E+04  3.789363E+03  2.155983E+04 -2.820766E+04 -1.107927E-10 -7.452234E-12
       289  19 -1.428595E+04 -1.924335E+05 -1.743724E+04 -3.330714E+04  3.468019E+03  4.384109E+03
       289  20 -2.511285E+04 -2.293324E+05 -2.692898E+04 -3.160078E+04  4.297934E+03 -4.206947E+03
       289  21 -4.347541E+04 -2.692332E+05 -4.389930E+04 -3.983202E+04  1.498370E+03 -1.279758E+04
       289  22 -6.806901E+00 -1.327276E+05 -5.759866E+03 -3.401930E+04  3.468615E+03  5.787265E+02
       289  23 -1.501545E+03 -1.316810E+05 -6.539892E+03 -2.905101E+04  4.297665E+03 -2.787610E+03
       289  24 -9.624095E+03 -1.327305E+05 -1.116917E+04 -3.402048E+04  1.497406E+03 -6.154155E+03
       289  25  1.427213E+04 -7.301823E+04  5.917389E+03 -3.473154E+04  3.469220E+03 -3.227014E+03
       289  26  2.210918E+04 -3.402065E+04  1.384868E+04 -2.650084E+04  4.297408E+03 -1.368054E+03
       289  27  2.422602E+04  3.789364E+03  2.155983E+04 -2.820766E+04  1.496567E+03  4.907288E+02
       290   1  1.455914E+05  5.802596E+04  7.239244E+03  8.309367E+04 -2.363724E+02 -2.046343E+03
       290   2  1.539601E+05  7.617612E+04  1.335246E+04  8.617950E+04  2.301825E+03 -5.027144E+03
       290   3  1.624662E+05  8.568512E+04  1.761378E+04  9.061885E+04  3.695954E+03 -6.482523E+03
       290   4  7.910820E+04  2.113806E+04 -1.208630E+04  5.486918E+04 -5.836698E+03 -6.246926E+03
       290   5  8.119799E+04  2.910987E+04 -5.747165E+03  5.163223E+04 -1.101603E+03 -7.580116E+03
       290   6  8.294809E+04  2.796316E+04 -3.166849E+03  4.974886E+04  2.489384E+03 -7.387742E+03
       290   7  1.262988E+04 -1.574852E+04 -3.141211E+04  2.664772E+04 -1.143620E+04 -1.044707E+04
       290   8  8.441300E+03 -1.795428E+04 -2.484737E+04  1.708914E+04 -4.504516E+03 -1.013275E+04
       290   9  3.435939E+03 -2.975573E+04 -2.394844E+04  8.884334E+03  1.283002E+03 -8.292813E+03
       290  10  1.455914E+05  5.802595E+04  7.239236E+03  8.309367E+04 -1.056703E-10 -9.675788E-11
       290  11  1.539600E+05  7.617609E+04  1.335240E+04  8.617951E+04 -2.889274E-11  1.799542E-10
       290  12  1.624661E+05  8.568507E+04  1.761368E+04  9.061887E+04 -5.326437E-11  1.050072E-10
       290  13  7.910815E+04  2.113801E+04 -1.208644E+04  5.486915E+04 -9.172994E-11  3.098808E-11
       290  14  8.119798E+04  2.910981E+04 -5.747275E+03  5.163222E+04 -1.908990E-10 -3.550391E-11
       290  15  8.294807E+04  2.796310E+04 -3.166963E+03  4.974887E+04 -2.231819E-10 -1.172026E-11
       290  16  1.262971E+04 -1.574867E+04 -3.141256E+04  2.664762E+04  1.935488E-10  1.087114E-10
       290  17  8.441251E+03 -1.795439E+04 -2.484760E+04  1.708910E+04  1.793962E-11 -1.545365E-12
       290  18  3.435919E+03 -2.975580E+04 -2.394857E+04  8.884343E+03  8.184436E-11 -2.900295E-11
       290  19  1.455914E+05  5.802596E+04  7.239244E+03  8.309367E+04  2.363724E+02  2.046343E+03
       290  20  1.539601E+05  7.617612E+04  1.335246E+04  8.617950E+04 -2.301825E+03  5.027144E+03
       290  21  1.624662E+05  8.568512E+04  1.761378E+04  9.061885E+04 -3.695954E+03  6.482523E+03
       290  22  7.910820E+04  2.113806E+04 -1.208630E+04  5.486918E+04  5.836698E+03  6.246926E+03
       290  23  8.119799E+04  2.910987E+04 -5.747165E+03  5.163223E+04  1.101603E+03  7.580116E+03
       290  24  8.294809E+04  2.796316E+04 -3.166849E+03  4.974886E+04 -2.489384E+03  7.387742E+03
       290  25  1.262988E+04 -1.574852E+04 -3.141211E+04  2.664772E+04  1.143620E+04  1.044707E+04
       290  26  8.441300E+03 -1.795428E+04 -2.484737E+04  1.708914E+04  4.504516E+03  1.013275E+04
       290  27  3.435939E+03 -2.975573E+04 -2.394844E+04  8.884334E+03 -1.283002E+03  8.292813E+03
       291   1  1.704707E+05  8.936602E+04  2.015773E+04  9.417518E+04  4.660407E+03 -6.513075E+03
       291   2  1.788890E+05  9.866835E+04  2.368184E+04  9.973921E+04  5.727068E+03 -7.230046E+03
       291   3  1.906996E+05  1.041656E+05  2.685916E+04  1.043393E+05  6.710825E+03 -7.836327E+03
       291   4  8.306452E+04  2.788400E+04 -2.409150E+03  5.017216E+04  3.182630E+03 -7.621792E+03
       291   5  8.146091E+04  2.993783E+04 -1.246056E+03  5.055322E+04  4.408607E+03 -8.219354E+03
       291   6  8.321506E+04  2.815214E+04 -5.679622E+02  4.997035E+04  5.551669E+03 -8.706224E+03
       291   7 -4.331630E+03 -3.359255E+04 -2.497617E+04  6.176938E+03  1.705156E+03 -8.730284E+03
       291   8 -1.595557E+04 -3.878649E+04 -2.617443E+04  1.376511E+03  3.090435E+03 -9.208446E+03
       291   9 -2.425626E+04 -4.785432E+04 -2.799597E+04 -4.387688E+03  4.392783E+03 -9.575918E+03
       291  10  1.704707E+05  8.936597E+04  2.015761E+04  9.417520E+04 -1.178312E-10  1.738069E-10
       291  11  1.788889E+05  9.866828E+04  2.368168E+04  9.973924E+04 -2.128156E-10  3.064047E-10
       291  12  1.906996E+05  1.041655E+05  2.685896E+04  1.043393E+05 -2.862043E-10 -3.754496E-11
       291  13  8.306449E+04  2.788394E+04 -2.409278E+03  5.017218E+04 -1.027889E-10 -7.969869E-11
       291  14  8.146087E+04  2.993775E+04 -1.246219E+03  5.055325E+04  9.605927E-11 -1.583702E-10
       291  15  8.321501E+04  2.815205E+04 -5.681626E+02  4.997039E+04 -3.652187E-10 -5.892645E-10
       291  16 -4.331654E+03 -3.359263E+04 -2.497632E+04  6.176950E+03  1.267676E-10 -4.168495E-11
       291  17 -1.595560E+04 -3.878658E+04 -2.617461E+04  1.376534E+03 -1.098817E-10  4.079715E-10
       291  18 -2.425631E+04 -4.785443E+04 -2.799618E+04 -4.387654E+03 -1.451899E-10  2.047929E-10
       291  19  1.704707E+05  8.936602E+04  2.015773E+04  9.417518E+04 -4.660407E+03  6.513075E+03
       291  20  1.788890E+05  9.866835E+04  2.368184E+04  9.973921E+04 -5.727068E+03  7.230046E+03
       291  21  1.906996E+05  1.041656E+05  2.685916E+04  1.043393E+05 -6.710825E+03  7.836327E+03
       291  22  8.306452E+04  2.788400E+04 -2.409150E+03  5.017216E+04 -3.182630E+03  7.621792E+03
       291  23  8.146091E+04  2.993783E+04 -1.246056E+03  5.055322E+04 -4.408607E+03  8.219354E+03
       291  24  8.321506E+04  2.815214E+04 -5.679622E+02  4.997035E+04 -5.551669E+03  8.706224E+03
       291  25 -4.331630E+03 -3.359255E+04 -2.497617E+04  6.176938E+03 -1.705156E+03  8.730284E+03
       291  26 -1.595557E+04 -3.878649E+04 -2.617443E+04  1.376511E+03 -3.090435E+03  9.208446E+03
       291  27 -2.425626E+04 -4.785432E+04 -2.799597E+04 -4.387688E+03 -4.392783E+03  9.575918E+03
       292   1  1.976462E+05  1.089864E+05  2.893605E+04  1.078256E+05  7.148909E+03 -8.242335E+03
       292   2  2.060177E+05  1.179519E+05  3.196352E+04  1.134824E+05  7.642954E+03 -9.129363E+03
       292   3  2.179816E+05  1.233706E+05  3.508598E+04  1.181043E+05  8.111600E+03 -9.982310E+03
       292   4  8.323072E+04  2.815389E+04 -3.115582E+02  5.000029E+04  5.965455E+03 -9.130531E+03
       292   5  8.144147E+04  2.993707E+04  1.536665E+02  5.051359E+04  6.508546E+03 -9.980890E+03
       292   6  8.323406E+04  2.816220E+04  6.713329E+02  4.999177E+04  7.026232E+03 -1.079716E+04
       292   7 -3.117156E+04 -5.267211E+04 -2.956080E+04 -7.813584E+03  4.782277E+03 -1.001852E+04
       292   8 -4.311706E+04 -5.806854E+04 -3.165741E+04 -1.244064E+04  5.374443E+03 -1.083219E+04
       292   9 -5.149068E+04 -6.703387E+04 -3.374405E+04 -1.810275E+04  5.941197E+03 -1.161175E+04
       292  10  1.976461E+05  1.089863E+05  2.893582E+04  1.078256E+05 -4.308315E-10 -2.487409E-10
       292  11  2.060176E+05  1.179518E+05  3.196325E+04  1.134824E+05 -4.302513E-10 -4.949328E-10
       292  12  2.179815E+05  1.233704E+05  3.508567E+04  1.181044E+05  2.777068E-11 -3.086741E-11
       292  13  8.323066E+04  2.815379E+04 -3.117818E+02  5.000033E+04 -2.142499E-10  5.623822E-10
       292  14  8.144139E+04  2.993696E+04  1.533997E+02  5.051364E+04 -4.294065E-10  6.535607E-10
       292  15  8.323398E+04  2.816206E+04  6.710210E+02  4.999183E+04 -2.609172E-10  4.040151E-10
       292  16 -3.117161E+04 -5.267223E+04 -2.956103E+04 -7.813546E+03 -2.672104E-11  4.720464E-10
       292  17 -4.311712E+04 -5.806868E+04 -3.165769E+04 -1.244060E+04 -2.461349E-10 -1.188256E-10
       292  18 -5.149075E+04 -6.703402E+04 -3.374437E+04 -1.810269E+04 -8.860667E-11 -2.225287E-10
       292  19  1.976462E+05  1.089864E+05  2.893605E+04  1.078256E+05 -7.148909E+03  8.242335E+03
       292  20  2.060177E+05  1.179519E+05  3.196352E+04  1.134824E+05 -7.642954E+03  9.129363E+03
       292  21  2.179816E+05  1.233706E+05  3.508598E+04  1.181043E+05 -8.111600E+03  9.982310E+03
       292  22  8.323072E+04  2.815389E+04 -3.115582E+02  5.000029E+04 -5.965455E+03  9.130531E+03
       292  23  8.144147E+04  2.993707E+04  1.536665E+02  5.051359E+04 -6.508546E+03  9.980890E+03
       292  24  8.323406E+04  2.816220E+04  6.713329E+02  4.999177E+04 -7.026232E+03  1.079716E+04
       292  25 -3.117156E+04 -5.267211E+04 -2.956080E+04 -7.813584E+03 -4.782277E+03  1.001852E+04
       292  26 -4.311706E+04 -5.806854E+04 -3.165741E+04 -1.244064E+04 -5.374443E+03  1.083219E+04
       292  27 -5.149068E+04 -6.703387E+04 -3.374405E+04 -1.810275E+04 -5.941197E+03  1.161175E+04
       293   1  2.248310E+05  1.283332E+05  3.723919E+04  1.216486E+05  8.412770E+03 -1.048555E+04
       293   2  2.333121E+05  1.371395E+05  4.093032E+04  1.271331E+05  7.578337E+03 -1.207307E+04
       293   3  2.457839E+05  1.429095E+05  4.582498E+04  1.314794E+05  6.465534E+03 -1.328954E+04
       293   4  8.325092E+04  2.816683E+04  9.920669E+02  5.003304E+04  7.259944E+03 -1.135110E+04
       293   5  8.142406E+04  2.993935E+04  1.907891E+03  5.045447E+04  6.960297E+03 -1.253741E+04
       293   6  8.347172E+04  2.855964E+04  3.563291E+03  4.973753E+04  6.382258E+03 -1.335259E+04
       293   7 -5.830643E+04 -7.198763E+04 -3.525669E+04 -2.156373E+04  6.107471E+03 -1.221637E+04
       293   8 -7.043900E+04 -7.724806E+04 -3.711683E+04 -2.620324E+04  6.342454E+03 -1.300160E+04
       293   9 -7.881318E+04 -8.577665E+04 -3.870149E+04 -3.198110E+04  6.299010E+03 -1.341562E+04
       293  10  2.248309E+05  1.283331E+05  3.723885E+04  1.216487E+05 -3.056182E-10 -1.568769E-10
       293  11  2.333120E+05  1.371394E+05  4.092994E+04  1.271332E+05 -7.644426E-12  5.965154E-10
       293  12  2.457838E+05  1.429093E+05  4.582457E+04  1.314795E+05  2.396431E-10  2.411370E-10
       293  13  8.325083E+04  2.816668E+04  9.917257E+02  5.003311E+04 -1.342276E-10  2.890326E-13
       293  14  8.142396E+04  2.993917E+04  1.907504E+03  5.045454E+04 -1.232404E-10  3.034189E-11
       293  15  8.347163E+04  2.855944E+04  3.562880E+03  4.973759E+04 -3.304210E-10 -4.284724E-10
       293  16 -5.830651E+04 -7.198780E+04 -3.525704E+04 -2.156367E+04  2.351365E-10  3.006504E-10
       293  17 -7.043909E+04 -7.724825E+04 -3.711723E+04 -2.620317E+04 -2.669141E-11 -7.604227E-10
       293  18 -7.881327E+04 -8.577685E+04 -3.870190E+04 -3.198103E+04 -1.812141E-10 -2.071378E-10
       293  19  2.248310E+05  1.283332E+05  3.723919E+04  1.216486E+05 -8.412770E+03  1.048555E+04
       293  20  2.333121E+05  1.371395E+05  4.093032E+04  1.271331E+05 -7.578337E+03  1.207307E+04
       293  21  2.457839E+05  1.429095E+05  4.582498E+04  1.314794E+05 -6.465534E+03  1.328954E+04
       293  22  8.325092E+04  2.816683E+04  9.920669E+02  5.003304E+04 -7.259944E+03  1.135110E+04
       293  23  8.142406E+04  2.993935E+04  1.907891E+03  5.045447E+04 -6.960297E+03  1.253741E+04
       293  24  8.347172E+04  2.855964E+04  3.563291E+03  4.973753E+04 -6.382258E+03  1.335259E+04
       293  25 -5.830643E+04 -7.198763E+04 -3.525669E+04 -2.156373E+04 -6.107471E+03  1.221637E+04
       293  26 -7.043900E+04 -7.724806E+04 -3.711683E+04 -2.620324E+04 -6.342454E+03  1.300160E+04
       293  27 -7.881318E+04 -8.577665E+04 -3.870149E+04 -3.198110E+04 -6.299010E+03  1.341562E+04
       294   1  2.514601E+05  1.494240E+05  4.886471E+04  1.361354E+05  7.216707E+03 -1.338917E+04
       294   2  2.646926E+05  1.541412E+05  5.815519E+04  1.377295E+05 -5.178117E+03 -1.972590E+04
       294   3  2.886039E+05  1.652321E+05  7.942669E+04  1.348633E+05 -2.147129E+04 -2.087099E+04
       294   4  8.359320E+04  2.849044E+04  4.653700E+03  5.036774E+04  6.211595E+03 -1.414420E+04
       294   5  8.186766E+04  3.108902E+04  8.393472E+03  4.886296E+04  1.298188E+03 -1.486488E+04
       294   6  8.919878E+04  3.844005E+04  1.762136E+04  4.289745E+04 -7.513908E+03 -1.039303E+04
       294   7 -8.423914E+04 -9.242378E+04 -3.955881E+04 -3.537167E+04  5.206865E+03 -1.489893E+04
       294   8 -1.009185E+05 -9.194509E+04 -4.137062E+04 -3.997368E+04  7.771860E+03 -1.000570E+04
       294   9 -1.101633E+05 -8.833549E+04 -4.418747E+04 -4.903678E+04  6.437313E+03  8.094350E+01
       294  10  2.514600E+05  1.494238E+05  4.886428E+04  1.361354E+05 -3.120701E-10  2.210022E-10
       294  11  2.646925E+05  1.541408E+05  5.815441E+04  1.377295E+05 -3.182044E-10 -2.742986E-10
       294  12  2.886033E+05  1.652315E+05  7.942500E+04  1.348630E+05 -1.625138E-10 -2.180810E-10
       294  13  8.359311E+04  2.849021E+04  4.653251E+03  5.036781E+04  6.389952E-11 -6.500216E-10
       294  14  8.186760E+04  3.108878E+04  8.393053E+03  4.886298E+04  1.935342E-10  2.393884E-09
       294  15  8.919869E+04  3.843991E+04  1.762105E+04  4.289739E+04  1.194868E-11  7.929700E-10
       294  16 -8.423923E+04 -9.242403E+04 -3.955928E+04 -3.537161E+04  3.382789E-10  3.368785E-10
       294  17 -1.009186E+05 -9.194522E+04 -4.137092E+04 -3.997362E+04  4.605611E-10  1.889829E-10
       294  18 -1.101634E+05 -8.833551E+04 -4.418755E+04 -4.903678E+04  1.304428E-10 -7.929447E-11
       294  19  2.514601E+05  1.494240E+05  4.886471E+04  1.361354E+05 -7.216707E+03  1.338917E+04
       294  20  2.646926E+05  1.541412E+05  5.815519E+04  1.377295E+05  5.178117E+03  1.972590E+04
       294  21  2.886039E+05  1.652321E+05  7.942669E+04  1.348633E+05  2.147129E+04  2.087099E+04
       294  22  8.359320E+04  2.849044E+04  4.653700E+03  5.036774E+04 -6.211595E+03  1.414420E+04
       294  23  8.186766E+04  3.108902E+04  8.393472E+03  4.886296E+04 -1.298188E+03  1.486488E+04
       294  24  8.919878E+04  3.844005E+04  1.762136E+04  4.289745E+04  7.513908E+03  1.039303E+04
       294  25 -8.423914E+04 -9.242378E+04 -3.955881E+04 -3.537167E+04 -5.206865E+03  1.489893E+04
       294  26 -1.009185E+05 -9.194509E+04 -4.137062E+04 -3.997368E+04 -7.771860E+03  1.000570E+04
       294  27 -1.101633E+05 -8.833549E+04 -4.418747E+04 -4.903678E+04 -6.437313E+03 -8.094350E+01
       295   1  1.833363E+06  3.030547E+05  2.979773E+05  1.460518E+05  9.630842E+04 -1.405569E+04
       295   2  1.689277E+06  2.275490E+05  2.098344E+05  1.148334E+05  4.565684E+04 -4.523963E+04
       295   3  1.560590E+06  1.870047E+05  1.633657E+05  1.179420E+05 -4.990930E+03 -4.954421E+04
       295   4  7.745082E+05  4.135207E+04  4.688356E+04  1.210200E+05  3.192700E+04 -1.410117E+04
       295   5  7.702188E+05  6.580013E+03  2.283973E+04  1.038738E+05  2.009504E+04 -4.526619E+04
       295   6  7.746025E+05  7.002770E+01  1.357986E+04  1.210531E+05  8.253486E+03 -4.953604E+04
       295   7 -2.833092E+05 -2.204265E+05 -2.042724E+05  9.603080E+04 -3.234546E+04 -1.414153E+04
       295   8 -1.480365E+05 -2.144408E+05 -1.641967E+05  9.293053E+04 -5.429729E+03 -4.529187E+04
       295   9 -1.079035E+04 -1.869008E+05 -1.362332E+05  1.241599E+05  2.148156E+04 -4.952773E+04
       295  10  1.833353E+06  3.030520E+05  2.979596E+05  1.460529E+05  1.041921E-09 -2.741778E-10
       295  11  1.689274E+06  2.275463E+05  2.098266E+05  1.148351E+05  3.817881E-10 -1.785101E-09
       295  12  1.560589E+06  1.870021E+05  1.633610E+05  1.179418E+05  3.212601E-10 -1.772111E-09
       295  13  7.745071E+05  4.135158E+04  4.688127E+04  1.210204E+05  2.845225E-10  3.410927E-10
       295  14  7.702178E+05  6.577703E+03  2.283512E+04  1.038746E+05 -5.141939E-11 -1.065418E-09
       295  15  7.746018E+05  6.737342E+01  1.357512E+04  1.210534E+05  5.695828E-10 -1.559786E-10
       295  16 -2.833104E+05 -2.204270E+05 -2.042747E+05  9.603043E+04 -1.090261E-09  5.725853E-11
       295  17 -1.480371E+05 -2.144430E+05 -1.642006E+05  9.293033E+04 -9.327202E-10 -2.407801E-09
       295  18 -1.079150E+04 -1.869036E+05 -1.362386E+05  1.241608E+05 -2.497623E-10 -2.734406E-09
       295  19  1.833363E+06  3.030547E+05  2.979773E+05  1.460518E+05 -9.630842E+04  1.405569E+04
       295  20  1.689277E+06  2.275490E+05  2.098344E+05  1.148334E+05 -4.565684E+04  4.523963E+04
       295  21  1.560590E+06  1.870047E+05  1.633657E+05  1.179420E+05  4.990930E+03  4.954421E+04
       295  22  7.745082E+05  4.135207E+04  4.688356E+04  1.210200E+05 -3.192700E+04  1.410117E+04
       295  23  7.702188E+05  6.580013E+03  2.283973E+04  1.038738E+05 -2.009504E+04  4.526619E+04
       295  24  7.746025E+05  7.002770E+01  1.357986E+04  1.210531E+05 -8.253486E+03  4.953604E+04
       295  25 -2.833092E+05 -2.204265E+05 -2.042724E+05  9.603080E+04  3.234546E+04  1.414153E+04
       295  26 -1.480365E+05 -2.144408E+05 -1.641967E+05  9.293053E+04  5.429729E+03  4.529187E+04
       295  27 -1.079035E+04 -1.869008E+05 -1.362332E+05  1.241599E+05 -2.148156E+04  4.952773E+04
       296   1  1.465682E+06  1.664084E+05  1.427595E+05  1.225789E+05 -2.108190E+03 -4.410054E+04
       296   2  1.329217E+06  1.322563E+05  1.121138E+05  1.042278E+05 -8.823365E+03 -3.730027E+04
       296   3  1.194078E+06  1.000295E+05  8.630236E+04  1.217152E+05 -1.554296E+04 -2.862951E+04
       296   4  7.728878E+05  1.699743E+03  1.112735E+04  1.213844E+05  6.358872E+03 -4.409528E+04
       296   5  7.724914E+05  2.335379E+02  8.059913E+03  1.034652E+05  2.345084E+03 -3.728959E+04
       296   6  7.729375E+05  2.269868E+02  7.956707E+03  1.213863E+05 -1.674492E+03 -2.861256E+04
       296   7  8.055566E+04 -1.630370E+05 -1.205261E+05  1.201912E+05  1.481673E+04 -4.409006E+04
       296   8  2.160648E+05 -1.318070E+05 -9.600684E+04  1.027032E+05  1.350379E+04 -3.727893E+04
       296   9  3.519687E+05 -9.958558E+04 -7.039576E+04  1.210576E+05  1.218482E+04 -2.859562E+04
       296  10  1.465681E+06  1.664063E+05  1.427559E+05  1.225788E+05 -2.967677E-09 -2.119458E-09
       296  11  1.329217E+06  1.322547E+05  1.121110E+05  1.042275E+05 -2.898109E-10  9.871032E-10
       296  12  1.194078E+06  1.000285E+05  8.630036E+04  1.217148E+05 -4.685056E-10  1.038862E-09
       296  13  7.728872E+05  1.697643E+03  1.112362E+04  1.213847E+05 -1.581251E-11 -1.488224E-09
       296  14  7.724910E+05  2.320427E+02  8.057289E+03  1.034653E+05  1.876654E-10  8.075658E-11
       296  15  7.729373E+05  2.261066E+02  7.955162E+03  1.213863E+05 -3.458979E-10 -1.160161E-09
       296  16  8.055490E+04 -1.630391E+05 -1.205301E+05  1.201918E+05  2.583277E-09 -2.122133E-10
       296  17  2.160643E+05 -1.318085E+05 -9.600979E+04  1.027036E+05  4.165274E-10  6.191694E-10
       296  18  3.519683E+05 -9.958650E+04 -7.039757E+04  1.210579E+05  5.097689E-10  4.561076E-10
       296  19  1.465682E+06  1.664084E+05  1.427595E+05  1.225789E+05  2.108190E+03  4.410054E+04
       296  20  1.329217E+06  1.322563E+05  1.121138E+05  1.042278E+05  8.823365E+03  3.730027E+04
       296  21  1.194078E+06  1.000295E+05  8.630236E+04  1.217152E+05  1.554296E+04  2.862951E+04
       296  22  7.728878E+05  1.699743E+03  1.112735E+04  1.213844E+05 -6.358872E+03  4.409528E+04
       296  23  7.724914E+05  2.335379E+02  8.059913E+03  1.034652E+05 -2.345084E+03  3.728959E+04
       296  24  7.729375E+05  2.269868E+02  7.956707E+03  1.213863E+05  1.674492E+03  2.861256E+04
       296  25  8.055566E+04 -1.630370E+05 -1.205261E+05  1.201912E+05 -1.481673E+04  4.409006E+04
       296  26  2.160648E+05 -1.318070E+05 -9.600684E+04  1.027032E+05 -1.350379E+04  3.727893E+04
       296  27  3.519687E+05 -9.958558E+04 -7.039576E+04  1.210576E+05 -1.218482E+04  2.859562E+04
       297   1  1.102289E+06  7.806577E+04  6.948632E+04  1.223091E+05 -1.678729E+04 -2.298352E+04
       297   2  9.660538E+05  4.631580E+04  4.817951E+04  1.033487E+05 -2.243807E+04 -1.377805E+04
       297   3  8.311500E+05  1.728859E+04  3.120088E+04  1.202513E+05 -2.808872E+04 -5.050045E+03
       297   4  7.730823E+05  1.549960E+02  8.797716E+03  1.213920E+05 -3.158036E+03 -2.296563E+04
       297   5  7.723729E+05  5.218036E+02  1.269434E+04  1.034578E+05 -9.496896E+03 -1.376012E+04
       297   6  7.730961E+05  3.731748E+03  2.139652E+04  1.213870E+05 -1.583679E+04 -5.032132E+03
       297   7  4.439807E+05 -7.776185E+04 -5.189469E+04  1.204753E+05  1.046419E+04 -2.294778E+04
       297   8  5.787288E+05 -4.527423E+04 -2.279173E+04  1.035669E+05  3.440359E+03 -1.374219E+04
       297   9  7.150459E+05 -9.825182E+03  1.159262E+04  1.225227E+05 -3.585966E+03 -5.014173E+03
       297  10  1.102289E+06  7.806513E+04  6.948480E+04  1.223088E+05 -1.306624E-09  1.664953E-09
       297  11  9.660532E+05  4.631546E+04  4.817821E+04  1.033485E+05  1.020964E-09  1.564275E-09
       297  12  8.311491E+05  1.728835E+04  3.119935E+04  1.202512E+05  2.126699E-09 -2.187901E-10
       297  13  7.730822E+05  1.544268E+02  8.796706E+03  1.213919E+05 -5.308230E-10 -1.619437E-09
       297  14  7.723728E+05  5.215760E+02  1.269382E+04  1.034577E+05  2.473969E-10  1.450002E-09
       297  15  7.730958E+05  3.731654E+03  2.139600E+04  1.213870E+05  2.981015E-10  2.649221E-09
       297  16  4.439804E+05 -7.776244E+04 -5.189588E+04  1.204755E+05  1.168024E-09  1.338555E-09
       297  17  5.787288E+05 -4.527443E+04 -2.279211E+04  1.035669E+05 -1.159396E-09  1.944577E-09
       297  18  7.150459E+05 -9.825213E+03  1.159255E+04  1.225226E+05 -2.454419E-09  3.311110E-10
       297  19  1.102289E+06  7.806577E+04  6.948632E+04  1.223091E+05  1.678729E+04  2.298352E+04
       297  20  9.660538E+05  4.631580E+04  4.817951E+04  1.033487E+05  2.243807E+04  1.377805E+04
       297  21  8.311500E+05  1.728859E+04  3.120088E+04  1.202513E+05  2.808872E+04  5.050045E+03
       297  22  7.730823E+05  1.549960E+02  8.797716E+03  1.213920E+05  3.158036E+03  2.296563E+04
       297  23  7.723729E+05  5.218036E+02  1.269434E+04  1.034578E+05  9.496896E+03  1.376012E+04
       297  24  7.730961E+05  3.731748E+03  2.139652E+04  1.213870E+05  1.583679E+04  5.032132E+03
       297  25  4.439807E+05 -7.776185E+04 -5.189469E+04  1.204753E+05 -1.046419E+04  2.294778E+04
       297  26  5.787288E+05 -4.527423E+04 -2.279173E+04  1.035669E+05 -3.440359E+03  1.374219E+04
       297  27  7.150459E+05 -9.825182E+03  1.159262E+04  1.225227E+05  3.585966E+03  5.014173E+03
       298   1  7.427964E+05 -8.090666E+03  1.942567E+04  1.293025E+05 -3.324936E+04  5.312693E+02
       298   2  5.991483E+05 -2.660217E+04  1.179795E+04  8.106496E+04 -4.610287E+04  5.779261E+03
       298   3  4.717353E+05  1.344950E+04  2.715146E+04  6.814716E+04 -5.894297E+04  2.483077E+03
       298   4  7.768572E+05  2.795971E+02  2.738295E+04  1.212857E+05 -1.950730E+04  5.519166E+02
       298   5  7.676636E+05  1.447595E+04  4.842983E+04  1.035693E+05 -4.468226E+04  5.779508E+03
       298   6  7.768093E+05  8.935896E+04  1.009988E+05  1.211655E+05 -6.984664E+04  2.462731E+03
       298   7  8.109196E+05  8.650122E+03  3.534089E+04  1.132684E+05 -5.764493E+03  5.722088E+02
       298   8  9.362065E+05  5.555406E+04  8.506029E+04  1.260797E+05 -4.326127E+04  5.779858E+03
       298   9  1.081975E+06  1.652722E+05  1.748414E+05  1.742099E+05 -8.075564E+04  2.440530E+03
       298  10  7.427952E+05 -8.090963E+03  1.942360E+04  1.293025E+05  8.724632E-10 -2.568404E-10
       298  11  5.991460E+05 -2.660277E+04  1.179389E+04  8.106518E+04  1.851658E-09  3.429565E-09
       298  12  4.717316E+05  1.344856E+04  2.714493E+04  6.814728E+04  3.520593E-10  1.542179E-09
       298  13  7.768568E+05  2.794948E+02  2.738223E+04  1.212857E+05  3.327686E-11  3.301260E-10
       298  14  7.676614E+05  1.447537E+04  4.842602E+04  1.035695E+05  8.026437E-10  2.885493E-09
       298  15  7.768041E+05  8.935765E+04  1.009896E+05  1.211656E+05 -1.094823E-11 -6.294923E-10
       298  16  8.109195E+05  8.650112E+03  3.534083E+04  1.132684E+05 -1.323296E-09  2.513973E-10
       298  17  9.362045E+05  5.555353E+04  8.505672E+04  1.260799E+05 -1.636339E-09  2.979806E-10
       298  18  1.081968E+06  1.652704E+05  1.748291E+05  1.742101E+05 -3.667168E-10 -5.604948E-10
       298  19  7.427964E+05 -8.090666E+03  1.942567E+04  1.293025E+05  3.324936E+04 -5.312693E+02
       298  20  5.991483E+05 -2.660217E+04  1.179795E+04  8.106496E+04  4.610287E+04 -5.779261E+03
       298  21  4.717353E+05  1.344950E+04  2.715146E+04  6.814716E+04  5.894297E+04 -2.483077E+03
       298  22  7.768572E+05  2.795971E+02  2.738295E+04  1.212857E+05  1.950730E+04 -5.519166E+02
       298  23  7.676636E+05  1.447595E+04  4.842983E+04  1.035693E+05  4.468226E+04 -5.779508E+03
       298  24  7.768093E+05  8.935896E+04  1.009988E+05  1.211655E+05  6.984664E+04 -2.462731E+03
       298  25  8.109196E+05  8.650122E+03  3.534089E+04  1.132684E+05  5.764493E+03 -5.722088E+02
       298  26  9.362065E+05  5.555406E+04  8.506029E+04  1.260797E+05  4.326127E+04 -5.779858E+03
       298  27  1.081975E+06  1.652722E+05  1.748414E+05  1.742099E+05  8.075564E+04 -2.440530E+03
       299   1 -3.691299E+04  3.184243E+05 -4.588817E+04  3.636160E+04  1.489475E+03 -4.165663E+04
       299   2  1.331086E+04  3.252405E+05 -1.257435E+04  1.556186E+04  5.062201E+03 -2.846696E+04
       299   3  2.308598E+04  3.202317E+05  2.045286E+03 -4.851413E+03  6.310830E+03 -1.527804E+04
       299   4 -6.037801E+04  2.233073E+05 -6.826895E+04  7.617025E+02  1.494383E+03 -4.847616E+04
       299   5 -9.653438E+03  2.295076E+05 -3.176099E+04  5.800925E+02  5.064298E+03 -3.194188E+04
       299   6  3.696470E+01  2.233002E+05 -1.627099E+04  7.856860E+02  6.310828E+03 -1.540815E+04
       299   7 -8.383888E+04  1.282014E+05 -9.064949E+04 -3.483271E+04  1.500072E+03 -5.529466E+04
       299   8 -3.261745E+04  1.337841E+05 -5.094792E+04 -1.439932E+04  5.066562E+03 -3.541627E+04
       299   9 -2.301248E+04  1.263779E+05 -3.458766E+04  6.421885E+03  6.310823E+03 -1.553824E+04
       299  10 -3.691345E+04  3.184225E+05 -4.589143E+04  3.636165E+04 -2.918365E-11 -3.612517E-11
       299  11  1.331062E+04  3.252396E+05 -1.257592E+04  1.556198E+04 -1.704385E-10 -9.109260E-10
       299  12  2.308587E+04  3.202314E+05  2.044772E+03 -4.851335E+03 -6.055442E-11  4.588879E-10
       299  13 -6.037864E+04  2.233048E+05 -6.827337E+04  7.617609E+02 -4.464302E-11 -4.015289E-10
       299  14 -9.653739E+03  2.295065E+05 -3.176295E+04  5.802228E+02 -1.746705E-10 -8.773664E-10
       299  15  3.685822E+01  2.232999E+05 -1.627151E+04  7.857643E+02 -1.806311E-11 -5.588197E-11
       299  16 -8.383971E+04  1.281981E+05 -9.065524E+04 -3.483265E+04 -1.134943E-10  4.223944E-10
       299  17 -3.261782E+04  1.337827E+05 -5.095033E+04 -1.439918E+04  1.025035E-10 -4.106466E-10
       299  18 -2.301259E+04  1.263776E+05 -3.458819E+04  6.421963E+03  1.122816E-10 -1.626045E-10
       299  19 -3.691299E+04  3.184243E+05 -4.588817E+04  3.636160E+04 -1.489475E+03  4.165663E+04
       299  20  1.331086E+04  3.252405E+05 -1.257435E+04  1.556186E+04 -5.062201E+03  2.846696E+04
       299  21  2.308598E+04  3.202317E+05  2.045286E+03 -4.851413E+03 -6.310830E+03  1.527804E+04
       299  22 -6.037801E+04  2.233073E+05 -6.826895E+04  7.617025E+02 -1.494383E+03  4.847616E+04
       299  23 -9.653438E+03  2.295076E+05 -3.176099E+04  5.800925E+02 -5.064298E+03  3.194188E+04
       299  24  3.696470E+01  2.233002E+05 -1.627099E+04  7.856860E+02 -6.310828E+03  1.540815E+04
       299  25 -8.383888E+04  1.282014E+05 -9.064949E+04 -3.483271E+04 -1.500072E+03  5.529466E+04
       299  26 -3.261745E+04  1.337841E+05 -5.094792E+04 -1.439932E+04 -5.066562E+03  3.541627E+04
       299  27 -2.301248E+04  1.263779E+05 -3.458766E+04  6.421885E+03 -6.310823E+03  1.553824E+04
       300   1  2.079462E+04  3.234672E+05  7.022739E+03  1.189480E+03  6.368377E+03 -1.283380E+04
       300   2  2.327792E+04  3.245675E+05  1.545162E+04  8.159669E+02  6.594841E+03 -1.184850E+04
       300   3  2.513548E+04  3.253848E+05  2.308336E+04  6.958828E+02  6.478289E+03 -1.086334E+04
       300   4 -2.376955E+03  2.259761E+05 -1.137708E+04  7.514808E+02  6.368710E+03 -1.340621E+04
       300   5 -8.044710E+01  2.261598E+05 -2.964756E+03  6.256261E+02  6.594968E+03 -1.192697E+04
       300   6  1.504534E+03  2.259748E+05  4.307429E+03  7.532025E+02  6.478184E+03 -1.044786E+04
       300   7 -2.554908E+04  1.284942E+05 -2.977732E+04  3.135526E+02  6.369045E+03 -1.397853E+04
       300   8 -2.343937E+04  1.277615E+05 -2.138155E+04  4.353172E+02  6.595095E+03 -1.200542E+04
       300   9 -2.212699E+04  1.265744E+05 -1.446893E+04  8.105138E+02  6.478079E+03 -1.003244E+04
       300  10  2.079453E+04  3.234670E+05  7.022353E+03  1.189546E+03 -2.441632E-10 -1.937170E-10
       300  11  2.327783E+04  3.245673E+05  1.545128E+04  8.160299E+02 -1.496986E-10 -1.292287E-09
       300  12  2.513540E+04  3.253847E+05  2.308306E+04  6.959395E+02 -6.572571E-11  6.435363E-10
       300  13 -2.377047E+03  2.259759E+05 -1.137750E+04  7.515495E+02  3.381136E-11 -5.209801E-10
       300  14 -8.053198E+01  2.261596E+05 -2.965105E+03  6.256895E+02 -1.519358E-10 -1.063780E-09
       300  15  1.504459E+03  2.259747E+05  4.307145E+03  7.532570E+02  4.404263E-11 -1.734309E-10
       300  16 -2.554918E+04  1.284940E+05 -2.977777E+04  3.136243E+02 -9.025426E-12  7.150473E-10
       300  17 -2.343946E+04  1.277614E+05 -2.138190E+04  4.353810E+02  8.768197E-11 -3.395637E-10
       300  18 -2.212706E+04  1.265742E+05 -1.446920E+04  8.105661E+02  1.849734E-10 -3.137549E-10
       300  19  2.079462E+04  3.234672E+05  7.022739E+03  1.189480E+03 -6.368377E+03  1.283380E+04
       300  20  2.327792E+04  3.245675E+05  1.545162E+04  8.159669E+02 -6.594841E+03  1.184850E+04
       300  21  2.513548E+04  3.253848E+05  2.308336E+04  6.958828E+02 -6.478289E+03  1.086334E+04
       300  22 -2.376955E+03  2.259761E+05 -1.137708E+04  7.514808E+02 -6.368710E+03  1.340621E+04
       300  23 -8.044710E+01  2.261598E+05 -2.964756E+03  6.256261E+02 -6.594968E+03  1.192697E+04
       300  24  1.504534E+03  2.259748E+05  4.307429E+03  7.532025E+02 -6.478184E+03  1.044786E+04
       300  25 -2.554908E+04  1.284942E+05 -2.977732E+04  3.135526E+02 -6.369045E+03  1.397853E+04
       300  26 -2.343937E+04  1.277615E+05 -2.138155E+04  4.353172E+02 -6.595095E+03  1.200542E+04
       300  27 -2.212699E+04  1.265744E+05 -1.446893E+04  8.105138E+02 -6.478079E+03  1.003244E+04
       301   1  2.377869E+04  3.278858E+05  2.694939E+04 -2.859379E+03  6.498354E+03 -1.121132E+04
       301   2  3.011787E+04  3.248229E+05  3.875726E+04  9.702143E+03  5.290482E+03 -2.448022E+04
       301   3  6.210011E+04  3.298986E+05  6.561186E+04  2.237229E+04  1.573203E+03 -3.775043E+04
       301   4 -3.999614E+01  2.277265E+05  8.003957E+03  7.174825E+02  6.498405E+03 -1.126857E+04
       301   5  5.913021E+03  2.239684E+05  1.850252E+04  6.721336E+02  5.289145E+03 -2.092190E+04
       301   6  3.688322E+04  2.277222E+05  4.153886E+04  7.354650E+02  1.570829E+03 -3.057644E+04
       301   7 -2.385922E+04  1.275768E+05 -1.094192E+04  4.293754E+03  6.498456E+03 -1.132581E+04
       301   8 -1.829214E+04  1.231238E+05 -1.752641E+03 -8.356380E+03  5.287703E+03 -1.736414E+04
       301   9  1.166738E+04  1.255566E+05  1.746559E+04 -2.089778E+04  1.567955E+03 -2.340363E+04
       301  10  2.377861E+04  3.278857E+05  2.694908E+04 -2.859320E+03 -3.497211E-11  2.258131E-10
       301  11  3.011768E+04  3.248223E+05  3.875608E+04  9.702247E+03 -2.161951E-12 -1.130759E-09
       301  12  6.209972E+04  3.298971E+05  6.560918E+04  2.237234E+04  5.495288E-11  3.627147E-10
       301  13 -4.007556E+01  2.277263E+05  8.003639E+03  7.175415E+02  2.580553E-10 -5.319026E-10
       301  14  5.912874E+03  2.239679E+05  1.850165E+04  6.722227E+02 -7.398876E-11 -1.068358E-09
       301  15  3.688297E+04  2.277212E+05  4.153710E+04  7.355037E+02 -1.297846E-10 -1.680411E-10
       301  16 -2.385930E+04  1.275767E+05 -1.094224E+04  4.293814E+03  2.348097E-10  2.468690E-10
       301  17 -1.829225E+04  1.231234E+05 -1.753260E+03 -8.356306E+03  1.506767E-10 -5.478163E-10
       301  18  1.166723E+04  1.255560E+05  1.746455E+04 -2.089775E+04 -1.989529E-10  6.150125E-11
       301  19  2.377869E+04  3.278858E+05  2.694939E+04 -2.859379E+03 -6.498354E+03  1.121132E+04
       301  20  3.011787E+04  3.248229E+05  3.875726E+04  9.702143E+03 -5.290482E+03  2.448022E+04
       301  21  6.210011E+04  3.298986E+05  6.561186E+04  2.237229E+04 -1.573203E+03  3.775043E+04
       301  22 -3.999614E+01  2.277265E+05  8.003957E+03  7.174825E+02 -6.498405E+03  1.126857E+04
       301  23  5.913021E+03  2.239684E+05  1.850252E+04  6.721336E+02 -5.289145E+03  2.092190E+04
       301  24  3.688322E+04  2.277222E+05  4.153886E+04  7.354650E+02 -1.570829E+03  3.057644E+04
       301  25 -2.385922E+04  1.275768E+05 -1.094192E+04  4.293754E+03 -6.498456E+03  1.132581E+04
       301  26 -1.829214E+04  1.231238E+05 -1.752641E+03 -8.356380E+03 -5.287703E+03  1.736414E+04
       301  27  1.166738E+04  1.255566E+05  1.746559E+04 -2.089778E+04 -1.567955E+03  2.340363E+04
       302   1  7.915373E+05  6.044323E+05  1.584330E+05  5.319587E+05  4.770124E+04  2.611255E+04
       302   2  7.571196E+05  5.478728E+05  1.150311E+05  5.190333E+05  3.681587E+04 -4.110574E+03
       302   3  7.231283E+05  5.188147E+05  9.397443E+04  5.042529E+05  1.754740E+04 -2.316037E+04
       302   4  3.993471E+05  3.024129E+05  2.669127E+04  3.268422E+05  1.930224E+04  4.790420E+03
       302   5  3.966397E+05  2.828835E+05  1.289890E+04  3.334272E+05  2.453422E+04 -1.333516E+04
       302   6  3.908718E+05  2.873671E+05  7.480039E+03  3.381548E+05  2.137851E+04 -2.028517E+04
       302   7  7.315263E+03  4.911492E+02 -1.050692E+05  1.218741E+05 -9.072853E+03 -1.651178E+04
       302   8  3.630446E+04  1.797627E+04 -8.924560E+04  1.479462E+05  1.226217E+04 -2.255218E+04
       302   9  5.874521E+04  5.598573E+04 -7.902182E+04  1.721606E+05  2.520681E+04 -1.741204E+04
       302  10  7.915347E+05  6.044310E+05  1.584274E+05  5.319577E+05  9.046475E-11  1.505080E-10
       302  11  7.571181E+05  5.478724E+05  1.150285E+05  5.190334E+05 -3.840415E-10 -1.426109E-09
       302  12  7.231279E+05  5.188141E+05  9.397284E+04  5.042532E+05  2.775575E-10 -1.355302E-09
       302  13  3.993467E+05  3.024127E+05  2.669052E+04  3.268422E+05  1.532222E-10  1.215892E-09
       302  14  3.966390E+05  2.828831E+05  1.289743E+04  3.334274E+05 -4.067619E-10 -1.459798E-09
       302  15  3.908712E+05  2.873665E+05  7.478406E+03  3.381552E+05  2.054368E-10 -1.169384E-09
       302  16  7.315101E+03  4.908343E+02 -1.050698E+05  1.218740E+05 -1.710056E-10 -1.256812E-10
       302  17  3.630416E+04  1.797568E+04 -8.924684E+04  1.479464E+05  4.883967E-10 -1.050773E-09
       302  18  5.874444E+04  5.598523E+04 -7.902358E+04  1.721609E+05  1.084959E-10  6.037129E-10
       302  19  7.915373E+05  6.044323E+05  1.584330E+05  5.319587E+05 -4.770124E+04 -2.611255E+04
       302  20  7.571196E+05  5.478728E+05  1.150311E+05  5.190333E+05 -3.681587E+04  4.110574E+03
       302  21  7.231283E+05  5.188147E+05  9.397443E+04  5.042529E+05 -1.754740E+04  2.316037E+04
       302  22  3.993471E+05  3.024129E+05  2.669127E+04  3.268422E+05 -1.930224E+04 -4.790420E+03
       302  23  3.966397E+05  2.828835E+05  1.289890E+04  3.334272E+05 -2.453422E+04  1.333516E+04
       302  24  3.908718E+05  2.873671E+05  7.480039E+03  3.381548E+05 -2.137851E+04  2.028517E+04
       302  25  7.315263E+03  4.911492E+02 -1.050692E+05  1.218741E+05  9.072853E+03  1.651178E+04
       302  26  3.630446E+04  1.797627E+04 -8.924560E+04  1.479462E+05 -1.226217E+04  2.255218E+04
       302  27  5.874521E+04  5.598573E+04 -7.902182E+04  1.721606E+05 -2.520681E+04  1.741204E+04
       303   1  6.951142E+05  5.037640E+05  8.567875E+04  4.913913E+05  1.752796E+04 -2.069614E+04
       303   2  6.645675E+05  4.706102E+05  7.302366E+04  4.714238E+05  1.354596E+04 -2.106578E+04
       303   3  6.220911E+05  4.510734E+05  6.283279E+04  4.550234E+05  8.966998E+03 -2.064182E+04
       303   4  3.904075E+05  2.877673E+05  5.991565E+03  3.372892E+05  1.937158E+04 -1.931322E+04
       303   5  3.963321E+05  2.807842E+05  3.965714E+03  3.357355E+05  1.653514E+04 -1.882169E+04
       303   6  3.900766E+05  2.871704E+05  3.410884E+03  3.377480E+05  1.310132E+04 -1.753647E+04
       303   7  8.580575E+04  7.182556E+04 -7.370353E+04  1.832739E+05  2.121399E+04 -1.793122E+04
       303   8  1.281762E+05  9.099953E+04 -6.509879E+04  2.001134E+05  1.952261E+04 -1.657888E+04
       303   9  1.581196E+05  1.232966E+05 -5.601651E+04  2.205211E+05  1.723363E+04 -1.443262E+04
       303  10  6.951138E+05  5.037635E+05  8.567737E+04  4.913916E+05  1.237111E-09 -1.410203E-09
       303  11  6.645672E+05  4.706097E+05  7.302248E+04  4.714241E+05  1.572201E-09 -5.582035E-10
       303  12  6.220909E+05  4.510730E+05  6.283184E+04  4.550236E+05  6.805924E-10  7.865617E-10
       303  13  3.904070E+05  2.877668E+05  5.990159E+03  3.372895E+05 -4.152392E-11 -1.275452E-09
       303  14  3.963317E+05  2.807838E+05  3.964534E+03  3.357357E+05  8.139804E-10 -8.117468E-10
       303  15  3.900763E+05  2.871700E+05  3.409983E+03  3.377482E+05  2.328223E-10 -2.146394E-09
       303  16  8.580518E+04  7.182509E+04 -7.370498E+04  1.832742E+05 -5.219237E-10  2.836443E-10
       303  17  1.281757E+05  9.099913E+04 -6.510002E+04  2.001137E+05 -2.434837E-11 -3.067678E-09
       303  18  1.581193E+05  1.232963E+05 -5.601746E+04  2.205213E+05  8.497279E-10 -3.554266E-10
       303  19  6.951142E+05  5.037640E+05  8.567875E+04  4.913913E+05 -1.752796E+04  2.069614E+04
       303  20  6.645675E+05  4.706102E+05  7.302366E+04  4.714238E+05 -1.354596E+04  2.106578E+04
       303  21  6.220911E+05  4.510734E+05  6.283279E+04  4.550234E+05 -8.966998E+03  2.064182E+04
       303  22  3.904075E+05  2.877673E+05  5.991565E+03  3.372892E+05 -1.937158E+04  1.931322E+04
       303  23  3.963321E+05  2.807842E+05  3.965714E+03  3.357355E+05 -1.653514E+04  1.882169E+04
       303  24  3.900766E+05  2.871704E+05  3.410884E+03  3.377480E+05 -1.310132E+04  1.753647E+04
       303  25  8.580575E+04  7.182556E+04 -7.370353E+04  1.832739E+05 -2.121399E+04  1.793122E+04
       303  26  1.281762E+05  9.099953E+04 -6.509879E+04  2.001134E+05 -1.952261E+04  1.657888E+04
       303  27  1.581196E+05  1.232966E+05 -5.601651E+04  2.205211E+05 -1.723363E+04  1.443262E+04
       304   1  5.972421E+05  4.337979E+05  5.642308E+04  4.425957E+05  7.357260E+03 -1.923628E+04
       304   2  5.670270E+05  4.017320E+05  4.826081E+04  4.223301E+05  3.362416E+03 -1.787238E+04
       304   3  5.243723E+05  3.826975E+05  4.169940E+04  4.058352E+05 -6.664802E+02 -1.646391E+04
       304   4  3.900701E+05  2.871882E+05  3.538861E+03  3.377218E+05  1.134822E+04 -1.623819E+04
       304   5  3.963171E+05  2.807100E+05  4.634129E+03  3.358179E+05  7.418207E+03 -1.482500E+04
       304   6  3.901076E+05  2.872481E+05  7.273777E+03  3.376831E+05  3.453960E+03 -1.336734E+04
       304   7  1.829502E+05  1.406066E+05 -4.934756E+04  2.328899E+05  1.533734E+04 -1.324149E+04
       304   8  2.256418E+05  1.597065E+05 -3.899430E+04  2.493338E+05  1.147247E+04 -1.177878E+04
       304   9  2.558636E+05  1.918098E+05 -2.715317E+04  2.695481E+05  7.573202E+03 -1.027168E+04
       304  10  5.972420E+05  4.337974E+05  5.642228E+04  4.425958E+05  3.766231E-10  2.437559E-10
       304  11  5.670269E+05  4.017316E+05  4.826019E+04  4.223302E+05 -4.652403E-10  7.681373E-10
       304  12  5.243722E+05  3.826972E+05  4.169889E+04  4.058352E+05 -5.954698E-10 -1.565436E-09
       304  13  3.900699E+05  2.871879E+05  3.538123E+03  3.377220E+05  6.138869E-10 -7.041647E-10
       304  14  3.963170E+05  2.807097E+05  4.633612E+03  3.358180E+05  8.364705E-10  5.483147E-09
       304  15  3.901076E+05  2.872479E+05  7.273419E+03  3.376831E+05 -1.806557E-10 -4.704052E-11
       304  16  1.829499E+05  1.406063E+05 -4.934833E+04  2.328901E+05  5.048859E-10 -6.094581E-10
       304  17  2.256416E+05  1.597063E+05 -3.899481E+04  2.493339E+05  1.306228E-09  8.047131E-10
       304  18  2.558636E+05  1.918096E+05 -2.715347E+04  2.695481E+05  7.139715E-10  1.377106E-09
       304  19  5.972421E+05  4.337979E+05  5.642308E+04  4.425957E+05 -7.357260E+03  1.923628E+04
       304  20  5.670270E+05  4.017320E+05  4.826081E+04  4.223301E+05 -3.362416E+03  1.787238E+04
       304  21  5.243723E+05  3.826975E+05  4.169940E+04  4.058352E+05  6.664802E+02  1.646391E+04
       304  22  3.900701E+05  2.871882E+05  3.538861E+03  3.377218E+05 -1.134822E+04  1.623819E+04
       304  23  3.963171E+05  2.807100E+05  4.634129E+03  3.358179E+05 -7.418207E+03  1.482500E+04
       304  24  3.901076E+05  2.872481E+05  7.273777E+03  3.376831E+05 -3.453960E+03  1.336734E+04
       304  25  1.829502E+05  1.406066E+05 -4.934756E+04  2.328899E+05 -1.533734E+04  1.324149E+04
       304  26  2.256418E+05  1.597065E+05 -3.899430E+04  2.493338E+05 -1.147247E+04  1.177878E+04
       304  27  2.558636E+05  1.918098E+05 -2.715317E+04  2.695481E+05 -7.573202E+03  1.027168E+04
       305   1  4.993071E+05  3.658856E+05  3.724626E+04  3.938760E+05 -3.107507E+03 -1.568009E+04
       305   2  4.702147E+05  3.326900E+05  3.463947E+04  3.725648E+05 -1.137411E+04 -1.751381E+04
       305   3  4.309508E+05  3.152787E+05  3.796973E+04  3.540961E+05 -1.953864E+04 -1.948320E+04
       305   4  3.902637E+05  2.872315E+05  9.333270E+03  3.379606E+05  1.025250E+03 -1.257398E+04
       305   5  3.962188E+05  2.808945E+05  1.594699E+04  3.353548E+05 -7.436471E+03 -1.455411E+04
       305   6  3.920437E+05  2.903834E+05  2.866745E+04  3.355902E+05 -1.579645E+04 -1.667026E+04
       305   7  2.812323E+05  2.085838E+05 -1.858115E+04  2.820559E+05  5.157095E+03 -9.468562E+03
       305   8  3.222291E+05  2.291022E+05 -2.745828E+03  2.981498E+05 -3.499462E+03 -1.159489E+04
       305   9  3.531390E+05  2.654893E+05  1.936535E+04  3.170858E+05 -1.205465E+04 -1.385758E+04
       305  10  4.993070E+05  3.658853E+05  3.724578E+04  3.938760E+05  2.848319E-10  2.060675E-09
       305  11  4.702145E+05  3.326897E+05  3.463865E+04  3.725647E+05  4.152962E-10 -1.090676E-09
       305  12  4.309503E+05  3.152781E+05  3.796830E+04  3.540958E+05  1.066988E-09 -4.055564E-10
       305  13  3.902637E+05  2.872314E+05  9.332971E+03  3.379606E+05  3.154270E-10  2.629762E-09
       305  14  3.962186E+05  2.808943E+05  1.594649E+04  3.353547E+05 -2.882894E-10 -9.826118E-10
       305  15  3.920434E+05  2.903831E+05  2.866646E+04  3.355900E+05 -4.930382E-10  4.968086E-11
       305  16  2.812322E+05  2.085837E+05 -1.858137E+04  2.820559E+05 -1.727339E-10  5.551254E-10
       305  17  3.222290E+05  2.291020E+05 -2.746104E+03  2.981498E+05 -1.126948E-09 -1.462117E-09
       305  18  3.531388E+05  2.654891E+05  1.936472E+04  3.170857E+05 -1.100797E-09 -1.627559E-09
       305  19  4.993071E+05  3.658856E+05  3.724626E+04  3.938760E+05  3.107507E+03  1.568009E+04
       305  20  4.702147E+05  3.326900E+05  3.463947E+04  3.725648E+05  1.137411E+04  1.751381E+04
       305  21  4.309508E+05  3.152787E+05  3.796973E+04  3.540961E+05  1.953864E+04  1.948320E+04
       305  22  3.902637E+05  2.872315E+05  9.333270E+03  3.379606E+05 -1.025250E+03  1.257398E+04
       305  23  3.962188E+05  2.808945E+05  1.594699E+04  3.353548E+05  7.436471E+03  1.455411E+04
       305  24  3.920437E+05  2.903834E+05  2.866745E+04  3.355902E+05  1.579645E+04  1.667026E+04
       305  25  2.812323E+05  2.085838E+05 -1.858115E+04  2.820559E+05 -5.157095E+03  9.468562E+03
       305  26  3.222291E+05  2.291022E+05 -2.745828E+03  2.981498E+05  3.499462E+03  1.159489E+04
       305  27  3.531390E+05  2.654893E+05  1.936535E+04  3.170858E+05  1.205465E+04  1.385758E+04
       306   1  3.956890E+05  3.088936E+05  3.992869E+04  3.499995E+05 -2.505639E+04 -2.103994E+04
       306   2  4.051454E+05  2.446127E+05  5.910336E+04  3.027932E+05 -5.133641E+04 -3.787086E+04
       306   3  4.478678E+05  2.549866E+05  1.193019E+05  2.312465E+05 -7.616092E+04 -5.663446E+04
       306   4  3.936851E+05  2.891851E+05  3.717446E+04  3.403798E+05 -2.097305E+04 -1.796969E+04
       306   5  3.989535E+05  2.908686E+05  6.659621E+04  3.229882E+05 -5.004406E+04 -3.690336E+04
       306   6  4.380853E+05  3.678016E+05  1.394627E+05  2.812549E+05 -7.765929E+04 -5.777470E+04
       306   7  3.916815E+05  2.694774E+05  3.442038E+04  3.307602E+05 -1.688970E+04 -1.489966E+04
       306   8  3.927631E+05  3.371298E+05  7.408957E+04  3.431836E+05 -4.875172E+04 -3.593566E+04
       306   9  4.283116E+05  4.806464E+05  1.596262E+05  3.312660E+05 -7.915761E+04 -5.891546E+04
       306  10  3.956882E+05  3.088929E+05  3.992668E+04  3.499991E+05 -2.323030E-10 -2.102589E-10
       306  11  4.051422E+05  2.446105E+05  5.909572E+04  3.027917E+05 -3.815370E-12  1.189220E-09
       306  12  4.478607E+05  2.549816E+05  1.192850E+05  2.312430E+05  2.237746E-10 -9.731054E-10
       306  13  3.936845E+05  2.891846E+05  3.717303E+04  3.403795E+05  8.125019E-11 -2.783444E-09
       306  14  3.989504E+05  2.908665E+05  6.658895E+04  3.229867E+05  4.662590E-11  4.343604E-10
       306  15  4.380779E+05  3.677964E+05  1.394451E+05  2.812513E+05 -2.392576E-10 -7.567906E-10
       306  16  3.916811E+05  2.694771E+05  3.441943E+04  3.307600E+05 -2.658690E-10  9.667378E-10
       306  17  3.927602E+05  3.371277E+05  7.408269E+04  3.431822E+05  4.441046E-10 -1.203377E-09
       306  18  4.283040E+05  4.806410E+05  1.596079E+05  3.312622E+05  5.883035E-11  8.005059E-10
       306  19  3.956890E+05  3.088936E+05  3.992869E+04  3.499995E+05  2.505639E+04  2.103994E+04
       306  20  4.051454E+05  2.446127E+05  5.910336E+04  3.027932E+05  5.133641E+04  3.787086E+04
       306  21  4.478678E+05  2.549866E+05  1.193019E+05  2.312465E+05  7.616092E+04  5.663446E+04
       306  22  3.936851E+05  2.891851E+05  3.717446E+04  3.403798E+05  2.097305E+04  1.796969E+04
       306  23  3.989535E+05  2.908686E+05  6.659621E+04  3.229882E+05  5.004406E+04  3.690336E+04
       306  24  4.380853E+05  3.678016E+05  1.394627E+05  2.812549E+05  7.765929E+04  5.777470E+04
       306  25  3.916815E+05  2.694774E+05  3.442038E+04  3.307602E+05  1.688970E+04  1.489966E+04
       306  26  3.927631E+05  3.371298E+05  7.408957E+04  3.431836E+05  4.875172E+04  3.593566E+04
       306  27  4.283116E+05  4.806464E+05  1.596262E+05  3.312660E+05  7.915761E+04  5.891546E+04
       307   1  5.920230E+05  6.987811E+04  6.912335E+04  4.125668E+04  2.249010E+04 -2.986909E+03
       307   2  5.519818E+05  4.917374E+04  4.671658E+04  3.243879E+04  1.038410E+04 -9.463626E+03
       307   3  5.158520E+05  3.790905E+04  3.454606E+04  3.330921E+04 -1.728466E+03 -9.898448E+03
       307   4  3.569501E+05  1.168532E+04  1.320913E+04  3.414017E+04  8.824157E+03 -3.004394E+03
       307   5  3.557528E+05  1.909184E+03  6.567712E+03  2.930352E+04  5.426122E+03 -9.470322E+03
       307   6  3.569568E+05  6.368807E+01  4.120406E+03  3.415513E+04  2.020826E+03 -9.893641E+03
       307   7  1.219284E+05 -4.651117E+04 -4.270823E+04  2.702635E+04 -4.836639E+03 -3.021569E+03
       307   8  1.595606E+05 -4.535774E+04 -3.358310E+04  2.616925E+04  4.696845E+02 -9.476969E+03
       307   9  1.980859E+05 -3.778315E+04 -2.630635E+04  3.500081E+04  5.769182E+03 -9.888823E+03
       307  10  5.920225E+05  6.987796E+04  6.912238E+04  4.125673E+04  2.716334E-09 -1.167582E-09
       307  11  5.519816E+05  4.917362E+04  4.671621E+04  3.243887E+04  1.211777E-09 -1.515112E-09
       307  12  5.158520E+05  3.790894E+04  3.454587E+04  3.330919E+04 -2.654889E-09 -1.901795E-09
       307  13  3.569500E+05  1.168529E+04  1.320897E+04  3.414019E+04  2.550244E-10  2.389478E-09
       307  14  3.557528E+05  1.909080E+03  6.567488E+03  2.930356E+04  3.382579E-10 -2.940419E-10
       307  15  3.569568E+05  6.358185E+01  4.120214E+03  3.415514E+04  1.530043E-11 -1.653464E-09
       307  16  1.219284E+05 -4.651118E+04 -4.270829E+04  2.702634E+04 -3.102527E-09  6.825774E-10
       307  17  1.595605E+05 -4.535784E+04 -3.358327E+04  2.616925E+04 -1.450213E-09 -1.251291E-09
       307  18  1.980859E+05 -3.778326E+04 -2.630659E+04  3.500086E+04  2.481219E-09 -1.368480E-09
       307  19  5.920230E+05  6.987811E+04  6.912335E+04  4.125668E+04 -2.249010E+04  2.986909E+03
       307  20  5.519818E+05  4.917374E+04  4.671658E+04  3.243879E+04 -1.038410E+04  9.463626E+03
       307  21  5.158520E+05  3.790905E+04  3.454606E+04  3.330921E+04  1.728466E+03  9.898448E+03
       307  22  3.569501E+05  1.168532E+04  1.320913E+04  3.414017E+04 -8.824157E+03  3.004394E+03
       307  23  3.557528E+05  1.909184E+03  6.567712E+03  2.930352E+04 -5.426122E+03  9.470322E+03
       307  24  3.569568E+05  6.368807E+01  4.120406E+03  3.415513E+04 -2.020826E+03  9.893641E+03
       307  25  1.219284E+05 -4.651117E+04 -4.270823E+04  2.702635E+04  4.836639E+03  3.021569E+03
       307  26  1.595606E+05 -4.535774E+04 -3.358310E+04  2.616925E+04 -4.696845E+02  9.476969E+03
       307  27  1.980859E+05 -3.778315E+04 -2.630635E+04  3.500081E+04 -5.769182E+03  9.888823E+03
       308   1  4.893817E+05  3.215262E+04  2.891542E+04  3.458326E+04 -1.256074E+03 -8.361003E+03
       308   2  4.511808E+05  2.259282E+04  2.081179E+04  2.943804E+04 -3.349375E+03 -6.298498E+03
       308   3  4.133591E+05  1.358222E+04  1.419944E+04  3.433615E+04 -5.443280E+03 -3.824760E+03
       308   4  3.564856E+05  5.110788E+02  3.544175E+03  3.423139E+04  1.423306E+03 -8.357515E+03
       308   5  3.563493E+05  7.536165E+01  3.015260E+03  2.920997E+04 -7.730504E+01 -6.294085E+03
       308   6  3.564880E+05  8.613240E+01  3.566405E+03  3.423197E+04 -1.578643E+03 -3.819389E+03
       308   7  2.236065E+05 -3.113150E+04 -2.182785E+04  3.387959E+04  4.102127E+03 -8.354030E+03
       308   8  2.615265E+05 -2.244261E+04 -1.478161E+04  2.898193E+04  3.194278E+03 -6.289674E+03
       308   9  2.996200E+05 -1.341013E+04 -7.066710E+03  3.412779E+04  2.285649E+03 -3.814018E+03
       308  10  4.893816E+05  3.215254E+04  2.891529E+04  3.458325E+04 -1.501211E-09  3.915557E-10
       308  11  4.511808E+05  2.259277E+04  2.081169E+04  2.943803E+04 -5.659782E-10  3.059002E-10
       308  12  4.133590E+05  1.358220E+04  1.419935E+04  3.433614E+04 -2.004140E-09  1.534542E-09
       308  13  3.564856E+05  5.110032E+02  3.544040E+03  3.423140E+04  2.015288E-11 -5.987902E-10
       308  14  3.563493E+05  7.531910E+01  3.015186E+03  2.920997E+04  1.718724E-10  3.786023E-10
       308  15  3.564880E+05  8.611607E+01  3.566373E+03  3.423196E+04  4.699443E-11  1.473466E-09
       308  16  2.236065E+05 -3.113157E+04 -2.182801E+04  3.387962E+04  1.300837E-09  9.783476E-10
       308  17  2.615265E+05 -2.244265E+04 -1.478171E+04  2.898195E+04  5.199136E-11 -3.717837E-09
       308  18  2.996200E+05 -1.341015E+04 -7.066747E+03  3.412780E+04  1.819275E-09 -5.755174E-10
       308  19  4.893817E+05  3.215262E+04  2.891542E+04  3.458326E+04  1.256074E+03  8.361003E+03
       308  20  4.511808E+05  2.259282E+04  2.081179E+04  2.943804E+04  3.349375E+03  6.298498E+03
       308  21  4.133591E+05  1.358222E+04  1.419944E+04  3.433615E+04  5.443280E+03  3.824760E+03
       308  22  3.564856E+05  5.110788E+02  3.544175E+03  3.423139E+04 -1.423306E+03  8.357515E+03
       308  23  3.563493E+05  7.536165E+01  3.015260E+03  2.920997E+04  7.730504E+01  6.294085E+03
       308  24  3.564880E+05  8.613240E+01  3.566405E+03  3.423197E+04  1.578643E+03  3.819389E+03
       308  25  2.236065E+05 -3.113150E+04 -2.182785E+04  3.387959E+04 -4.102127E+03  8.354030E+03
       308  26  2.615265E+05 -2.244261E+04 -1.478161E+04  2.898193E+04 -3.194278E+03  6.289674E+03
       308  27  2.996200E+05 -1.341013E+04 -7.066710E+03  3.412779E+04 -2.285649E+03  3.814018E+03
       309   1  3.877180E+05  7.376226E+03  9.910066E+03  3.462313E+04 -6.104203E+03 -2.242266E+03
       309   2  3.493615E+05 -1.424646E+03  5.221041E+03  2.905615E+04 -9.064636E+03  2.932808E+02
       309   3  3.117255E+05 -8.757146E+03  2.816929E+03  3.353818E+04 -1.202453E+04  2.581504E+03
       309   4  3.566007E+05  1.771438E+01  4.227842E+03  3.423362E+04 -2.267216E+03 -2.236889E+03
       309   5  3.562101E+05  2.299724E+02  6.645699E+03  2.920778E+04 -5.584139E+03  2.981422E+02
       309   6  3.565997E+05  1.972321E+03  1.159561E+04  3.423089E+04 -8.900688E+03  2.585850E+03
       309   7  3.254844E+05 -7.340844E+03 -1.454365E+03  3.384413E+04  1.569583E+03 -2.231517E+03
       309   8  3.630587E+05  1.884595E+03  8.070399E+03  2.935940E+04 -2.103605E+03  3.030053E+02
       309   9  4.014758E+05  1.270167E+04  2.037423E+04  3.492364E+04 -5.776628E+03  2.590202E+03
       309  10  3.877179E+05  7.376211E+03  9.909987E+03  3.462311E+04 -3.157251E-09  2.834771E-09
       309  11  3.493614E+05 -1.424668E+03  5.220886E+03  2.905615E+04  6.603233E-10  1.415552E-09
       309  12  3.117253E+05 -8.757192E+03  2.816645E+03  3.353821E+04  3.409707E-09  2.469826E-09
       309  13  3.566007E+05  1.770763E+01  4.227823E+03  3.423362E+04 -3.151543E-11  1.835722E-09
       309  14  3.562100E+05  2.299639E+02  6.645640E+03  2.920778E+04  1.743937E-10  1.271939E-09
       309  15  3.565996E+05  1.972293E+03  1.159545E+04  3.423090E+04 -2.960688E-11 -1.471162E-09
       309  16  3.254844E+05 -7.340850E+03 -1.454379E+03  3.384414E+04  2.819438E-09  1.023032E-09
       309  17  3.630587E+05  1.884593E+03  8.070391E+03  2.935940E+04 -1.279620E-09 -7.657253E-10
       309  18  4.014758E+05  1.270166E+04  2.037416E+04  3.492365E+04 -3.684661E-09 -3.350843E-09
       309  19  3.877180E+05  7.376226E+03  9.910066E+03  3.462313E+04  6.104203E+03  2.242266E+03
       309  20  3.493615E+05 -1.424646E+03  5.221041E+03  2.905615E+04  9.064636E+03 -2.932808E+02
       309  21  3.117255E+05 -8.757146E+03  2.816929E+03  3.353818E+04  1.202453E+04 -2.581504E+03
       309  22  3.566007E+05  1.771438E+01  4.227842E+03  3.423362E+04  2.267216E+03  2.236889E+03
       309  23  3.562101E+05  2.299724E+02  6.645699E+03  2.920778E+04  5.584139E+03 -2.981422E+02
       309  24  3.565997E+05  1.972321E+03  1.159561E+04  3.423089E+04  8.900688E+03 -2.585850E+03
       309  25  3.254844E+05 -7.340844E+03 -1.454365E+03  3.384413E+04 -1.569583E+03  2.231517E+03
       309  26  3.630587E+05  1.884595E+03  8.070399E+03  2.935940E+04  2.103605E+03 -3.030053E+02
       309  27  4.014758E+05  1.270167E+04  2.037423E+04  3.492364E+04  5.776628E+03 -2.590202E+03
       310   1  2.879020E+05 -1.682709E+04  1.157165E+03  3.856322E+04 -1.469827E+04  4.132665E+03
       310   2  2.453251E+05 -1.828813E+04  4.104847E+03  1.685032E+04 -2.292978E+04  4.821374E+03
       310   3  2.119062E+05  1.271276E+04  2.051927E+04  4.931049E+03 -3.115576E+04  1.619450E+03
       310   4  3.586770E+05  6.625271E+01  1.494759E+04  3.418598E+04 -1.088940E+04  4.138037E+03
       310   5  3.536080E+05  7.905389E+03  2.662555E+04  2.925630E+04 -2.472769E+04  4.818399E+03
       310   6  3.586660E+05  4.917528E+04  5.566047E+04  3.411962E+04 -3.856114E+04  1.607994E+03
       310   7  4.294569E+05  1.695937E+04  2.873784E+04  2.980823E+04 -7.080114E+03  4.143355E+03
       310   8  4.619024E+05  3.409874E+04  4.914570E+04  4.166447E+04 -2.652591E+04  4.815353E+03
       310   9  5.054474E+05  8.563945E+04  9.080081E+04  6.331512E+04 -4.596827E+04  1.595842E+03
       310  10  2.879018E+05 -1.682716E+04  1.156728E+03  3.856327E+04 -1.759080E-09  2.116723E-09
       310  11  2.453246E+05 -1.828829E+04  4.103816E+03  1.685041E+04  5.072929E-10 -9.329332E-10
       310  12  2.119052E+05  1.271250E+04  2.051744E+04  4.931090E+03  9.830643E-10 -7.496048E-10
       310  13  3.586769E+05  6.620250E+01  1.494733E+04  3.418602E+04  2.829662E-10  2.494585E-09
       310  14  3.536074E+05  7.905200E+03  2.662436E+04  2.925639E+04 -3.044550E-11 -3.310816E-09
       310  15  3.586644E+05  4.917488E+04  5.565767E+04  3.411967E+04  1.765352E-10  1.829118E-09
       310  16  4.294569E+05  1.695934E+04  2.873771E+04  2.980825E+04  1.703020E-09  3.932893E-10
       310  17  4.619016E+05  3.409852E+04  4.914434E+04  4.166457E+04 -8.104769E-10  1.304818E-09
       310  18  5.054452E+05  8.563888E+04  9.079684E+04  6.331517E+04 -1.103538E-09  1.635030E-10
       310  19  2.879020E+05 -1.682709E+04  1.157165E+03  3.856322E+04  1.469827E+04 -4.132665E+03
       310  20  2.453251E+05 -1.828813E+04  4.104847E+03  1.685032E+04  2.292978E+04 -4.821374E+03
       310  21  2.119062E+05  1.271276E+04  2.051927E+04  4.931049E+03  3.115576E+04 -1.619450E+03
       310  22  3.586770E+05  6.625271E+01  1.494759E+04  3.418598E+04  1.088940E+04 -4.138037E+03
       310  23  3.536080E+05  7.905389E+03  2.662555E+04  2.925630E+04  2.472769E+04 -4.818399E+03
       310  24  3.586660E+05  4.917528E+04  5.566047E+04  3.411962E+04  3.856114E+04 -1.607994E+03
       310  25  4.294569E+05  1.695937E+04  2.873784E+04  2.980823E+04  7.080114E+03 -4.143355E+03
       310  26  4.619024E+05  3.409874E+04  4.914570E+04  4.166447E+04  2.652591E+04 -4.815353E+03
       310  27  5.054474E+05  8.563945E+04  9.080081E+04  6.331512E+04  4.596827E+04 -1.595842E+03
       311   1 -2.440511E+05 -8.579790E+05 -2.558822E+05  1.652464E+05 -5.800851E+03 -1.208557E+05
       311   2 -1.124874E+05 -7.396364E+05 -1.470479E+05  1.102464E+05 -1.789694E+04 -6.732628E+04
       311   3 -6.742154E+04 -6.498034E+05 -9.471055E+04  8.193841E+04 -1.719818E+04 -1.377116E+04
       311   4 -1.223739E+05 -3.679264E+05 -1.387824E+05  9.252514E+04 -5.813124E+03 -9.435445E+04
       311   5 -1.962364E+04 -3.552500E+05 -6.770694E+04  7.923424E+04 -1.790033E+04 -5.921357E+04
       311   6 -1.499882E+02 -3.678799E+05 -4.032579E+04  9.264356E+04 -1.718910E+04 -2.405739E+04
       311   7 -6.940205E+02  1.223593E+05 -2.169400E+04  1.974614E+04 -5.831612E+03 -6.783236E+04
       311   8  7.323444E+04  2.927878E+04  1.162678E+04  4.820258E+04 -1.790454E+04 -5.109590E+04
       311   9  6.711733E+04 -8.587944E+04  1.405573E+04  1.033537E+05 -1.718037E+04 -3.434818E+04
       311  10 -2.440550E+05 -8.579947E+05 -2.559098E+05  1.652459E+05 -3.178964E-10 -8.114457E-10
       311  11 -1.124890E+05 -7.396413E+05 -1.470570E+05  1.102454E+05 -9.148488E-10  1.561164E-09
       311  12 -6.742191E+04 -6.498037E+05 -9.471146E+04  8.193822E+04  7.429061E-10  9.322194E-10
       311  13 -1.223764E+05 -3.679360E+05 -1.387992E+05  9.252470E+04  2.316123E-10  3.483622E-11
       311  14 -1.962493E+04 -3.552539E+05 -6.771413E+04  7.923339E+04 -1.471284E-10  1.909372E-09
       311  15 -1.504609E+02 -3.678806E+05 -4.032743E+04  9.264323E+04  4.603757E-10  3.853286E-10
       311  16 -6.952920E+02  1.223544E+05 -2.170271E+04  1.974582E+04  1.954227E-10  1.371670E-09
       311  17  7.323339E+04  2.927589E+04  1.162127E+04  4.820184E+04  1.259182E-09 -2.592626E-09
       311  18  6.711670E+04 -8.588078E+04  1.405296E+04  1.033532E+05 -2.412794E-10 -1.401512E-09
       311  19 -2.440511E+05 -8.579790E+05 -2.558822E+05  1.652464E+05  5.800851E+03  1.208557E+05
       311  20 -1.124874E+05 -7.396364E+05 -1.470479E+05  1.102464E+05  1.789694E+04  6.732628E+04
       311  21 -6.742154E+04 -6.498034E+05 -9.471055E+04  8.193841E+04  1.719818E+04  1.377116E+04
       311  22 -1.223739E+05 -3.679264E+05 -1.387824E+05  9.252514E+04  5.813124E+03  9.435445E+04
       311  23 -1.962364E+04 -3.552500E+05 -6.770694E+04  7.923424E+04  1.790033E+04  5.921357E+04
       311  24 -1.499882E+02 -3.678799E+05 -4.032579E+04  9.264356E+04  1.718910E+04  2.405739E+04
       311  25 -6.940205E+02  1.223593E+05 -2.169400E+04  1.974614E+04  5.831612E+03  6.783236E+04
       311  26  7.323444E+04  2.927878E+04  1.162678E+04  4.820258E+04  1.790454E+04  5.109590E+04
       311  27  6.711733E+04 -8.587944E+04  1.405573E+04  1.033537E+05  1.718037E+04  3.434818E+04
       312   1 -5.507834E+04 -5.737734E+05 -7.372288E+04  9.507421E+04 -1.295836E+04 -1.036368E+04
       312   2 -2.612443E+04 -4.681173E+05 -4.426897E+04  7.923541E+04 -7.152712E+03  2.288285E+03
       312   3 -3.148517E+03 -3.655247E+05 -2.453504E+04  9.091016E+04 -9.742519E+02  1.494212E+04
       312   4 -4.761724E+03 -3.629142E+05 -3.313363E+04  9.280183E+04 -1.295137E+04 -1.846828E+04
       312   5 -7.779640E+02 -3.614201E+05 -2.428547E+04  7.904580E+04 -7.145687E+03 -6.350397E+03
       312   6 -2.677884E+03 -3.629062E+05 -2.478383E+04  9.280339E+04 -9.671655E+02  5.767327E+03
       312   7  4.555230E+04 -1.520121E+05  7.453815E+03  9.052866E+04 -1.294432E+04 -2.657557E+04
       312   8  2.456788E+04 -2.547118E+05 -4.302182E+03  7.885616E+04 -7.138658E+03 -1.499053E+04
       312   9 -2.207192E+03 -3.602874E+05 -2.503231E+04  9.469663E+04 -9.601351E+02 -3.407498E+03
       312  10 -5.507855E+04 -5.737736E+05 -7.372340E+04  9.507410E+04  4.499901E-10 -8.896360E-10
       312  11 -2.612449E+04 -4.681173E+05 -4.426908E+04  7.923542E+04 -1.969525E-10  1.545459E-09
       312  12 -3.148578E+03 -3.655249E+05 -2.453546E+04  9.091017E+04  6.144173E-10  1.270346E-09
       312  13 -4.761996E+03 -3.629146E+05 -3.313459E+04  9.280163E+04  1.191225E-10  5.427888E-10
       312  14 -7.780296E+02 -3.614202E+05 -2.428564E+04  7.904577E+04 -1.195051E-10  1.650621E-09
       312  15 -2.677894E+03 -3.629062E+05 -2.478390E+04  9.280339E+04  2.419954E-10 -3.073310E-11
       312  16  4.555193E+04 -1.520129E+05  7.452173E+03  9.052838E+04 -4.213815E-10  1.749041E-09
       312  17  2.456777E+04 -2.547121E+05 -4.302700E+03  7.885608E+04 -4.940760E-10 -2.010344E-09
       312  18 -2.207196E+03 -3.602874E+05 -2.503233E+04  9.469662E+04 -3.333152E-10 -1.475541E-09
       312  19 -5.507834E+04 -5.737734E+05 -7.372288E+04  9.507421E+04  1.295836E+04  1.036368E+04
       312  20 -2.612443E+04 -4.681173E+05 -4.426897E+04  7.923541E+04  7.152712E+03 -2.288285E+03
       312  21 -3.148517E+03 -3.655247E+05 -2.453504E+04  9.091016E+04  9.742519E+02 -1.494212E+04
       312  22 -4.761724E+03 -3.629142E+05 -3.313363E+04  9.280183E+04  1.295137E+04  1.846828E+04
       312  23 -7.779640E+02 -3.614201E+05 -2.428547E+04  7.904580E+04  7.145687E+03  6.350397E+03
       312  24 -2.677884E+03 -3.629062E+05 -2.478383E+04  9.280339E+04  9.671655E+02 -5.767327E+03
       312  25  4.555230E+04 -1.520121E+05  7.453815E+03  9.052866E+04  1.294432E+04  2.657557E+04
       312  26  2.456788E+04 -2.547118E+05 -4.302182E+03  7.885616E+04  7.138658E+03  1.499053E+04
       312  27 -2.207192E+03 -3.602874E+05 -2.503231E+04  9.469663E+04  9.601351E+02  3.407498E+03
       313   1  1.626947E+04 -2.972495E+05 -1.344937E+04  9.870857E+04  3.307468E+03  2.022025E+04
       313   2  3.035230E+04 -1.866929E+05 -4.384822E+03  6.110503E+04  6.721114E+03  3.056898E+04
       313   3 -1.783499E+03 -8.895427E+04 -1.359701E+04  5.057939E+04  2.582075E+03  4.091199E+04
       313   4 -1.682208E+02 -3.655151E+05 -2.740490E+04  9.271832E+04  3.315297E+03  9.855077E+03
       313   5 -1.130221E+04 -3.581655E+05 -4.094972E+04  7.914685E+04  6.721727E+03  3.107103E+04
       313   6 -7.055142E+04 -3.655384E+05 -8.032526E+04  9.265691E+04  2.575317E+03  5.227920E+04
       313   7 -1.660602E+04 -4.337760E+05 -4.136025E+04  8.672874E+04  3.323327E+03 -5.089796E+02
       313   8 -5.295742E+04 -5.296097E+05 -7.751614E+04  9.718361E+04  6.722369E+03  3.157294E+04
       313   9 -1.393182E+05 -6.420486E+05 -1.470576E+05  1.347156E+05  2.570100E+03  6.364137E+04
       313  10  1.626935E+04 -2.972499E+05 -1.345016E+04  9.870851E+04  2.178089E-10 -1.315544E-09
       313  11  3.035200E+04 -1.866939E+05 -4.386664E+03  6.110487E+04 -5.453342E-10  1.402355E-09
       313  12 -1.783955E+03 -8.895607E+04 -1.360016E+04  5.057931E+04 -5.043258E-10  1.062782E-09
       313  13 -1.682587E+02 -3.655152E+05 -2.740510E+04  9.271829E+04  1.842278E-10  2.986605E-10
       313  14 -1.130252E+04 -3.581666E+05 -4.095162E+04  7.914668E+04 -4.769658E-10  2.750661E-09
       313  15 -7.055216E+04 -3.655414E+05 -8.033041E+04  9.265680E+04  1.478778E-10  1.165708E-10
       313  16 -1.660603E+04 -4.337760E+05 -4.136027E+04  8.672874E+04 -4.655525E-11  1.633394E-09
       313  17 -5.295774E+04 -5.296108E+05 -7.751810E+04  9.718344E+04 -1.357582E-10 -2.191290E-09
       313  18 -1.393193E+05 -6.420529E+05 -1.470652E+05  1.347155E+05 -2.824882E-10 -1.792998E-09
       313  19  1.626947E+04 -2.972495E+05 -1.344937E+04  9.870857E+04 -3.307468E+03 -2.022025E+04
       313  20  3.035230E+04 -1.866929E+05 -4.384822E+03  6.110503E+04 -6.721114E+03 -3.056898E+04
       313  21 -1.783499E+03 -8.895427E+04 -1.359701E+04  5.057939E+04 -2.582075E+03 -4.091199E+04
       313  22 -1.682208E+02 -3.655151E+05 -2.740490E+04  9.271832E+04 -3.315297E+03 -9.855077E+03
       313  23 -1.130221E+04 -3.581655E+05 -4.094972E+04  7.914685E+04 -6.721727E+03 -3.107103E+04
       313  24 -7.055142E+04 -3.655384E+05 -8.032526E+04  9.265691E+04 -2.575317E+03 -5.227920E+04
       313  25 -1.660602E+04 -4.337760E+05 -4.136025E+04  8.672874E+04 -3.323327E+03  5.089796E+02
       313  26 -5.295742E+04 -5.296097E+05 -7.751614E+04  9.718361E+04 -6.722369E+03 -3.157294E+04
       313  27 -1.393182E+05 -6.420486E+05 -1.470576E+05  1.347156E+05 -2.570100E+03 -6.364137E+04
       314   1  2.147240E+05  1.252326E+05  6.876210E+03  1.604236E+05  9.171183E+03  7.994910E+03
       314   2  2.214357E+05  1.146980E+05 -4.474079E+02  1.704440E+05  5.432370E+03  7.514766E+03
       314   3  2.384446E+05  1.112815E+05 -2.240611E+03  1.749217E+05  2.770242E+03  5.602546E+03
       314   4  2.770324E+05  1.495598E+05  2.340675E+04  1.821316E+05  1.234917E+04  1.038390E+04
       314   5  2.679338E+05  1.391831E+05  1.127651E+04  1.898619E+05  6.546711E+03  8.352414E+03
       314   6  2.695799E+05  1.363717E+05  6.468318E+03  1.920498E+05  1.821002E+03  4.888925E+03
       314   7  3.393443E+05  1.738873E+05  3.993682E+04  2.038411E+05  1.552755E+04  1.277299E+04
       314   8  3.144341E+05  1.636687E+05  2.300015E+04  2.092812E+05  7.661158E+03  9.190113E+03
       314   9  3.007162E+05  1.614627E+05  1.517715E+04  2.091790E+05  8.716995E+02  4.175249E+03
       314  10  2.147239E+05  1.252325E+05  6.875932E+03  1.604235E+05 -2.530734E-09 -1.645136E-09
       314  11  2.214356E+05  1.146979E+05 -4.475694E+02  1.704439E+05 -3.034006E-10  7.228041E-10
       314  12  2.384446E+05  1.112815E+05 -2.240685E+03  1.749216E+05  2.410088E-09  1.644970E-09
       314  13  2.770322E+05  1.495597E+05  2.340626E+04  1.821315E+05 -5.501076E-10 -3.044389E-09
       314  14  2.679338E+05  1.391830E+05  1.127630E+04  1.898619E+05  4.960970E-10  8.707345E-09
       314  15  2.695799E+05  1.363717E+05  6.468267E+03  1.920498E+05  4.211133E-11 -6.177951E-10
       314  16  3.393440E+05  1.738870E+05  3.993606E+04  2.038409E+05  1.542007E-09  1.504605E-09
       314  17  3.144340E+05  1.636686E+05  2.299989E+04  2.092812E+05 -3.411836E-10  1.738848E-09
       314  18  3.007162E+05  1.614627E+05  1.517712E+04  2.091790E+05 -2.704217E-09 -2.636458E-09
       314  19  2.147240E+05  1.252326E+05  6.876210E+03  1.604236E+05 -9.171183E+03 -7.994910E+03
       314  20  2.214357E+05  1.146980E+05 -4.474079E+02  1.704440E+05 -5.432370E+03 -7.514766E+03
       314  21  2.384446E+05  1.112815E+05 -2.240611E+03  1.749217E+05 -2.770242E+03 -5.602546E+03
       314  22  2.770324E+05  1.495598E+05  2.340675E+04  1.821316E+05 -1.234917E+04 -1.038390E+04
       314  23  2.679338E+05  1.391831E+05  1.127651E+04  1.898619E+05 -6.546711E+03 -8.352414E+03
       314  24  2.695799E+05  1.363717E+05  6.468318E+03  1.920498E+05 -1.821002E+03 -4.888925E+03
       314  25  3.393443E+05  1.738873E+05  3.993682E+04  2.038411E+05 -1.552755E+04 -1.277299E+04
       314  26  3.144341E+05  1.636687E+05  2.300015E+04  2.092812E+05 -7.661158E+03 -9.190113E+03
       314  27  3.007162E+05  1.614627E+05  1.517715E+04  2.091790E+05 -8.716995E+02 -4.175249E+03
       315   1  2.420851E+05  1.177273E+05 -1.987552E+03  1.777066E+05  2.108645E+03  4.497071E+03
       315   2  2.490728E+05  1.247068E+05 -1.487702E+03  1.827480E+05  1.361485E+03  3.100616E+03
       315   3  2.595381E+05  1.291447E+05  9.670716E+01  1.867828E+05  6.906306E+02  1.602560E+03
       315   4  2.693367E+05  1.365474E+05  5.128761E+03  1.912421E+05  1.413578E+03  3.974520E+03
       315   5  2.674301E+05  1.375330E+05  3.252529E+03  1.919482E+05  5.200088E+02  2.468009E+03
       315   6  2.690326E+05  1.360088E+05  2.587860E+03  1.916476E+05 -2.972202E+02  8.599333E+02
       315   7  2.965895E+05  1.553681E+05  1.224516E+04  2.047785E+05  7.184593E+02  3.451931E+03
       315   8  2.857878E+05  1.503595E+05  7.992736E+03  2.011487E+05 -3.215006E+02  1.835378E+03
       315   9  2.785271E+05  1.428728E+05  5.078961E+03  1.965124E+05 -1.285077E+03  1.173020E+02
       315  10  2.420850E+05  1.177273E+05 -1.987598E+03  1.777066E+05  5.940149E-10  1.535572E-09
       315  11  2.490728E+05  1.247068E+05 -1.487723E+03  1.827480E+05 -3.111795E-10 -1.261749E-09
       315  12  2.595381E+05  1.291447E+05  9.670144E+01  1.867828E+05 -9.012377E-10  7.822080E-10
       315  13  2.693366E+05  1.365473E+05  5.128728E+03  1.912421E+05  2.792324E-10  1.613541E-09
       315  14  2.674301E+05  1.375330E+05  3.252517E+03  1.919482E+05  1.838498E-10 -1.309493E-09
       315  15  2.690326E+05  1.360088E+05  2.587858E+03  1.916476E+05 -4.381195E-10  2.886176E-10
       315  16  2.965895E+05  1.553681E+05  1.224513E+04  2.047785E+05  1.664859E-10 -9.456552E-10
       315  17  2.857878E+05  1.503595E+05  7.992729E+03  2.011487E+05  2.781456E-10  1.396144E-09
       315  18  2.785271E+05  1.428728E+05  5.078958E+03  1.965124E+05  4.325913E-10  3.181939E-09
       315  19  2.420851E+05  1.177273E+05 -1.987552E+03  1.777066E+05 -2.108645E+03 -4.497071E+03
       315  20  2.490728E+05  1.247068E+05 -1.487702E+03  1.827480E+05 -1.361485E+03 -3.100616E+03
       315  21  2.595381E+05  1.291447E+05  9.670716E+01  1.867828E+05 -6.906306E+02 -1.602560E+03
       315  22  2.693367E+05  1.365474E+05  5.128761E+03  1.912421E+05 -1.413578E+03 -3.974520E+03
       315  23  2.674301E+05  1.375330E+05  3.252529E+03  1.919482E+05 -5.200088E+02 -2.468009E+03
       315  24  2.690326E+05  1.360088E+05  2.587860E+03  1.916476E+05  2.972202E+02 -8.599333E+02
       315  25  2.965895E+05  1.553681E+05  1.224516E+04  2.047785E+05 -7.184593E+02 -3.451931E+03
       315  26  2.857878E+05  1.503595E+05  7.992736E+03  2.011487E+05  3.215006E+02 -1.835378E+03
       315  27  2.785271E+05  1.428728E+05  5.078961E+03  1.965124E+05  1.285077E+03 -1.173020E+02
       316   1  2.652900E+05  1.334512E+05  1.641254E+03  1.897634E+05  6.064758E+02  9.131730E+02
       316   2  2.722889E+05  1.411152E+05  4.412717E+03  1.945872E+05 -1.298653E+02 -6.943699E+02
       316   3  2.825407E+05  1.459014E+05  8.230264E+03  1.985760E+05 -8.672244E+02 -2.300601E+03
       316   4  2.690256E+05  1.360155E+05  2.571827E+03  1.916190E+05 -3.646763E+02  1.831055E+02
       316   5  2.674067E+05  1.374676E+05  3.136690E+03  1.920267E+05 -1.099097E+03 -1.423001E+03
       316   6  2.690401E+05  1.360414E+05  4.745965E+03  1.915995E+05 -1.834522E+03 -3.027787E+03
       316   7  2.727612E+05  1.385798E+05  3.502406E+03  1.934746E+05 -1.335837E+03 -5.469682E+02
       316   8  2.625245E+05  1.338200E+05  1.860652E+03  1.894663E+05 -2.068327E+03 -2.151629E+03
       316   9  2.555395E+05  1.261813E+05  1.261582E+03  1.846230E+05 -2.801805E+03 -3.754961E+03
       316  10  2.652900E+05  1.334512E+05  1.641252E+03  1.897634E+05  2.865166E-09  2.255901E-09
       316  11  2.722889E+05  1.411152E+05  4.412716E+03  1.945872E+05  1.185539E-09  1.351651E-09
       316  12  2.825407E+05  1.459014E+05  8.230253E+03  1.985760E+05 -1.003484E-09 -1.137559E-09
       316  13  2.690256E+05  1.360155E+05  2.571827E+03  1.916190E+05 -2.582371E-11 -2.360234E-09
       316  14  2.674067E+05  1.374676E+05  3.136684E+03  1.920267E+05  9.046188E-10  6.765873E-10
       316  15  2.690401E+05  1.360414E+05  4.745941E+03  1.915995E+05  6.875060E-11 -6.837126E-10
       316  16  2.727612E+05  1.385798E+05  3.502402E+03  1.934746E+05 -2.908086E-09  1.283589E-09
       316  17  2.625245E+05  1.338200E+05  1.860635E+03  1.894663E+05 -1.263494E-10 -5.308256E-09
       316  18  2.555395E+05  1.261813E+05  1.261541E+03  1.846230E+05  1.682802E-09  6.408193E-10
       316  19  2.652900E+05  1.334512E+05  1.641254E+03  1.897634E+05 -6.064758E+02 -9.131730E+02
       316  20  2.722889E+05  1.411152E+05  4.412717E+03  1.945872E+05  1.298653E+02  6.943699E+02
       316  21  2.825407E+05  1.459014E+05  8.230264E+03  1.985760E+05  8.672244E+02  2.300601E+03
       316  22  2.690256E+05  1.360155E+05  2.571827E+03  1.916190E+05  3.646763E+02 -1.831055E+02
       316  23  2.674067E+05  1.374676E+05  3.136690E+03  1.920267E+05  1.099097E+03  1.423001E+03
       316  24  2.690401E+05  1.360414E+05  4.745965E+03  1.915995E+05  1.834522E+03  3.027787E+03
       316  25  2.727612E+05  1.385798E+05  3.502406E+03  1.934746E+05  1.335837E+03  5.469682E+02
       316  26  2.625245E+05  1.338200E+05  1.860652E+03  1.894663E+05  2.068327E+03  2.151629E+03
       316  27  2.555395E+05  1.261813E+05  1.261582E+03  1.846230E+05  2.801805E+03  3.754961E+03
       317   1  2.881297E+05  1.504630E+05  1.108296E+04  2.018421E+05 -1.306524E+03 -3.256839E+03
       317   2  2.958011E+05  1.573709E+05  1.753411E+04  2.059583E+05 -5.087976E+03 -7.078126E+03
       317   3  3.082198E+05  1.632474E+05  2.805107E+04  2.086547E+05 -8.960304E+03 -1.077856E+04
       317   4  2.691324E+05  1.360339E+05  6.036609E+03  1.917773E+05 -2.294203E+03 -3.999353E+03
       317   5  2.673450E+05  1.375732E+05  1.022743E+04  1.917310E+05 -5.901282E+03 -7.689574E+03
       317   6  2.702673E+05  1.380435E+05  1.833294E+04  1.902651E+05 -9.599184E+03 -1.125891E+04
       317   7  2.501357E+05  1.216052E+05  9.903384E+02  1.817129E+05 -3.281827E+03 -4.741822E+03
       317   8  2.388901E+05  1.177761E+05  2.920759E+03  1.775046E+05 -6.714532E+03 -8.300981E+03
       317   9  2.323165E+05  1.128403E+05  8.614696E+03  1.718767E+05 -1.023801E+04 -1.173924E+04
       317  10  2.881297E+05  1.504630E+05  1.108294E+04  2.018421E+05  5.782202E-10 -4.263913E-12
       317  11  2.958010E+05  1.573708E+05  1.753397E+04  2.059583E+05 -8.349658E-10 -2.725765E-09
       317  12  3.082197E+05  1.632472E+05  2.805070E+04  2.086547E+05 -1.977660E-09 -1.747007E-10
       317  13  2.691323E+05  1.360338E+05  6.036569E+03  1.917773E+05  3.981661E-10  1.191055E-09
       317  14  2.673450E+05  1.375731E+05  1.022725E+04  1.917310E+05  2.768110E-10 -5.078281E-10
       317  15  2.702672E+05  1.380433E+05  1.833253E+04  1.902650E+05 -6.559309E-11 -4.752262E-10
       317  16  2.501357E+05  1.216052E+05  9.902759E+02  1.817129E+05 -6.239939E-10 -6.528294E-10
       317  17  2.388901E+05  1.177760E+05  2.920545E+03  1.775046E+05  8.139037E-10  9.463425E-10
       317  18  2.323164E+05  1.128402E+05  8.614240E+03  1.718766E+05  1.638886E-09 -8.086618E-10
       317  19  2.881297E+05  1.504630E+05  1.108296E+04  2.018421E+05  1.306524E+03  3.256839E+03
       317  20  2.958011E+05  1.573709E+05  1.753411E+04  2.059583E+05  5.087976E+03  7.078126E+03
       317  21  3.082198E+05  1.632474E+05  2.805107E+04  2.086547E+05  8.960304E+03  1.077856E+04
       317  22  2.691324E+05  1.360339E+05  6.036609E+03  1.917773E+05  2.294203E+03  3.999353E+03
       317  23  2.673450E+05  1.375732E+05  1.022743E+04  1.917310E+05  5.901282E+03  7.689574E+03
       317  24  2.702673E+05  1.380435E+05  1.833294E+04  1.902651E+05  9.599184E+03  1.125891E+04
       317  25  2.501357E+05  1.216052E+05  9.903384E+02  1.817129E+05  3.281827E+03  4.741822E+03
       317  26  2.388901E+05  1.177761E+05  2.920759E+03  1.775046E+05  6.714532E+03  8.300981E+03
       317  27  2.323165E+05  1.128403E+05  8.614696E+03  1.718767E+05  1.023801E+04  1.173924E+04
       318   1  3.073437E+05  1.745801E+05  3.507756E+04  2.169964E+05 -1.088111E+04 -1.282746E+04
       318   2  3.395793E+05  1.615417E+05  5.703260E+04  2.042468E+05 -3.115675E+04 -2.776081E+04
       318   3  4.049618E+05  1.861287E+05  1.088730E+05  1.727711E+05 -5.271360E+04 -4.099182E+04
       318   4  2.712679E+05  1.373232E+05  2.375995E+04  1.933385E+05 -1.182191E+04 -1.353456E+04
       318   5  2.691495E+05  1.438835E+05  4.254282E+04  1.838186E+05 -2.964386E+04 -2.662506E+04
       318   6  2.996447E+05  1.875386E+05  8.908275E+04  1.555728E+05 -4.874497E+04 -3.801428E+04
       318   7  2.351932E+05  1.000676E+05  1.244199E+04  1.696821E+05 -1.276266E+04 -1.424158E+04
       318   8  1.987259E+05  1.262258E+05  2.805300E+04  1.633918E+05 -2.813122E+04 -2.548934E+04
       318   9  1.943450E+05  1.889513E+05  6.929358E+04  1.383746E+05 -4.477738E+04 -3.503658E+04
       318  10  3.073435E+05  1.745799E+05  3.507703E+04  2.169962E+05  1.375968E-09  2.726925E-09
       318  11  3.395781E+05  1.615406E+05  5.702933E+04  2.042462E+05  5.493441E-10  3.005942E-10
       318  12  4.049583E+05  1.861262E+05  1.088646E+05  1.727694E+05 -1.575529E-09 -2.722354E-09
       318  13  2.712677E+05  1.373229E+05  2.375934E+04  1.933384E+05  3.686917E-10  9.565749E-10
       318  14  2.691484E+05  1.438825E+05  4.253984E+04  1.838179E+05  1.568379E-09 -3.849928E-09
       318  15  2.996417E+05  1.875364E+05  8.907558E+04  1.555713E+05  5.016943E-10  3.863603E-09
       318  16  2.351930E+05  1.000673E+05  1.244130E+04  1.696820E+05 -1.199796E-09 -2.677543E-09
       318  17  1.987249E+05  1.262249E+05  2.805030E+04  1.633912E+05  9.739412E-10 -9.395412E-10
       318  18  1.943425E+05  1.889494E+05  6.928750E+04  1.383734E+05  2.075410E-09  1.666989E-09
       318  19  3.073437E+05  1.745801E+05  3.507756E+04  2.169964E+05  1.088111E+04  1.282746E+04
       318  20  3.395793E+05  1.615417E+05  5.703260E+04  2.042468E+05  3.115675E+04  2.776081E+04
       318  21  4.049618E+05  1.861287E+05  1.088730E+05  1.727711E+05  5.271360E+04  4.099182E+04
       318  22  2.712679E+05  1.373232E+05  2.375995E+04  1.933385E+05  1.182191E+04  1.353456E+04
       318  23  2.691495E+05  1.438835E+05  4.254282E+04  1.838186E+05  2.964386E+04  2.662506E+04
       318  24  2.996447E+05  1.875386E+05  8.908275E+04  1.555728E+05  4.874497E+04  3.801428E+04
       318  25  2.351932E+05  1.000676E+05  1.244199E+04  1.696821E+05  1.276266E+04  1.424158E+04
       318  26  1.987259E+05  1.262258E+05  2.805300E+04  1.633918E+05  2.813122E+04  2.548934E+04
       318  27  1.943450E+05  1.889513E+05  6.929358E+04  1.383746E+05  4.477738E+04  3.503658E+04
       319   1  2.880062E+05  4.685333E+04  4.584987E+04  3.107099E+04  1.314375E+04 -2.095893E+03
       319   2  2.554335E+05  3.398135E+04  3.096969E+04  2.539302E+04  5.410774E+03 -6.531578E+03
       319   3  2.249363E+05  2.547484E+04  2.221266E+04  2.777929E+04 -2.327453E+03 -6.571445E+03
       319   4  1.183433E+05  4.834195E+03  5.423467E+03  2.807032E+04  3.602607E+03 -2.108766E+03
       319   5  1.178569E+05  8.163321E+02  2.712387E+03  2.404143E+04  2.202361E+03 -6.536081E+03
       319   6  1.183463E+05  6.540796E+01  1.728397E+03  2.807680E+04  7.964410E+02 -6.567175E+03
       319   7 -5.129300E+04 -3.718694E+04 -3.500461E+04  2.507047E+04 -5.935944E+03 -2.121549E+03
       319   8 -1.970180E+04 -3.234987E+04 -2.554589E+04  2.269015E+04 -1.005355E+03 -6.540570E+03
       319   9  1.176734E+04 -2.534469E+04 -1.875636E+04  2.837424E+04  3.919811E+03 -6.562902E+03
       319  10  2.880060E+05  4.685328E+04  4.584954E+04  3.107101E+04 -3.313642E-09  3.648722E-10
       319  11  2.554334E+05  3.398130E+04  3.096955E+04  2.539304E+04  3.647730E-11  4.145985E-09
       319  12  2.249362E+05  2.547479E+04  2.221257E+04  2.777928E+04  8.654852E-10  1.094693E-09
       319  13  1.183433E+05  4.834186E+03  5.423434E+03  2.807033E+04 -8.381375E-11 -3.232923E-09
       319  14  1.178568E+05  8.162849E+02  2.712297E+03  2.404145E+04  7.721519E-11 -5.285753E-09
       319  15  1.183463E+05  6.536148E+01  1.728315E+03  2.807680E+04  1.701614E-11 -7.962518E-10
       319  16 -5.129304E+04 -3.718696E+04 -3.500468E+04  2.507046E+04  2.824325E-09 -6.265730E-11
       319  17 -1.970182E+04 -3.234991E+04 -2.554597E+04  2.269015E+04 -3.830557E-10  1.350847E-09
       319  18  1.176732E+04 -2.534474E+04 -1.875647E+04  2.837427E+04 -9.514947E-10 -9.205955E-10
       319  19  2.880062E+05  4.685333E+04  4.584987E+04  3.107099E+04 -1.314375E+04  2.095893E+03
       319  20  2.554335E+05  3.398135E+04  3.096969E+04  2.539302E+04 -5.410774E+03  6.531578E+03
       319  21  2.249363E+05  2.547484E+04  2.221266E+04  2.777929E+04  2.327453E+03  6.571445E+03
       319  22  1.183433E+05  4.834195E+03  5.423467E+03  2.807032E+04 -3.602607E+03  2.108766E+03
       319  23  1.178569E+05  8.163321E+02  2.712387E+03  2.404143E+04 -2.202361E+03  6.536081E+03
       319  24  1.183463E+05  6.540796E+01  1.728397E+03  2.807680E+04 -7.964410E+02  6.567175E+03
       319  25 -5.129300E+04 -3.718694E+04 -3.500461E+04  2.507047E+04  5.935944E+03  2.121549E+03
       319  26 -1.970180E+04 -3.234987E+04 -2.554589E+04  2.269015E+04  1.005355E+03  6.540570E+03
       319  27  1.176734E+04 -2.534469E+04 -1.875636E+04  2.837424E+04 -3.919811E+03  6.562902E+03
       320   1  2.032336E+05  2.052373E+04  1.781319E+04  2.831681E+04 -1.804632E+03 -5.291788E+03
       320   2  1.716478E+05  1.278961E+04  1.142157E+04  2.408783E+04 -2.891506E+03 -3.516739E+03
       320   3  1.402449E+05  5.328446E+03  5.798505E+03  2.818434E+04 -3.978801E+03 -1.447369E+03
       320   4  1.181542E+05  2.490624E+02  1.505847E+03  2.813370E+04  5.422645E+02 -5.288540E+03
       320   5  1.181008E+05  6.339143E+01  1.330072E+03  2.397105E+04 -1.206968E+02 -3.512837E+03
       320   6  1.181553E+05  7.703680E+01  1.628438E+03  2.813394E+04 -7.841377E+02 -1.442798E+03
       320   7  3.308176E+04 -2.002603E+04 -1.480180E+04  2.795061E+04  2.888847E+03 -5.285294E+03
       320   8  6.455661E+04 -1.266299E+04 -8.761519E+03  2.385429E+04  2.649879E+03 -3.508936E+03
       320   9  9.606619E+04 -5.174396E+03 -2.541612E+03  2.808354E+04  2.410414E+03 -1.438227E+03
       320  10  2.032336E+05  2.052370E+04  1.781313E+04  2.831681E+04 -3.274644E-10 -2.942264E-10
       320  11  1.716478E+05  1.278959E+04  1.142153E+04  2.408782E+04  1.807426E-09  4.044001E-09
       320  12  1.402449E+05  5.328440E+03  5.798472E+03  2.818434E+04  1.942531E-09  3.218780E-09
       320  13  1.181542E+05  2.490323E+02  1.505794E+03  2.813371E+04  8.096844E-11  4.112653E-09
       320  14  1.181008E+05  6.337817E+01  1.330049E+03  2.397105E+04  9.444444E-12 -8.897773E-09
       320  15  1.181553E+05  7.703440E+01  1.628433E+03  2.813394E+04  1.763457E-10  4.891915E-09
       320  16  3.308174E+04 -2.002606E+04 -1.480187E+04  2.795063E+04 -2.324873E-10 -4.276626E-09
       320  17  6.455660E+04 -1.266300E+04 -8.761555E+03  2.385429E+04 -2.233693E-09 -1.507631E-09
       320  18  9.606618E+04 -5.174400E+03 -2.541627E+03  2.808355E+04 -1.891078E-09  1.484219E-09
       320  19  2.032336E+05  2.052373E+04  1.781319E+04  2.831681E+04  1.804632E+03  5.291788E+03
       320  20  1.716478E+05  1.278961E+04  1.142157E+04  2.408783E+04  2.891506E+03  3.516739E+03
       320  21  1.402449E+05  5.328446E+03  5.798505E+03  2.818434E+04  3.978801E+03  1.447369E+03
       320  22  1.181542E+05  2.490624E+02  1.505847E+03  2.813370E+04 -5.422645E+02  5.288540E+03
       320  23  1.181008E+05  6.339143E+01  1.330072E+03  2.397105E+04  1.206968E+02  3.512837E+03
       320  24  1.181553E+05  7.703680E+01  1.628438E+03  2.813394E+04  7.841377E+02  1.442798E+03
       320  25  3.308176E+04 -2.002603E+04 -1.480180E+04  2.795061E+04 -2.888847E+03  5.285294E+03
       320  26  6.455661E+04 -1.266299E+04 -8.761519E+03  2.385429E+04 -2.649879E+03  3.508936E+03
       320  27  9.606619E+04 -5.174396E+03 -2.541612E+03  2.808354E+04 -2.410414E+03  1.438227E+03
       321   1  1.189555E+05  2.059913E+02  2.017861E+03  2.830531E+04 -4.288818E+03 -1.351874E+02
       321   2  8.731783E+04 -7.172553E+03 -2.733277E+03  2.387077E+04 -5.478867E+03  1.950541E+03
       321   3  5.597369E+04 -1.388397E+04 -6.550647E+03  2.776369E+04 -6.668484E+03  3.784529E+03
       321   4  1.182105E+05  4.336493E+01  1.952474E+03  2.813457E+04 -1.101319E+03 -1.306170E+02
       321   5  1.180322E+05  1.382579E+02  3.108493E+03  2.397021E+04 -2.654038E+03  1.954554E+03
       321   6  1.182098E+05  9.633658E+02  5.450147E+03  2.813326E+04 -4.206388E+03  3.787992E+03
       321   7  1.174656E+05 -1.192559E+02  1.887126E+03  2.796383E+04  2.086177E+03 -1.260484E+02
       321   8  1.487475E+05  7.449018E+03  8.950251E+03  2.406965E+04  1.709278E+02  1.958568E+03
       321   9  1.804496E+05  1.581047E+04  1.745078E+04  2.850286E+04 -1.744051E+03  3.791457E+03
       321  10  1.189555E+05  2.059864E+02  2.017826E+03  2.830531E+04  1.943841E-09 -2.181721E-09
       321  11  8.731780E+04 -7.172565E+03 -2.733340E+03  2.387078E+04  6.538994E-10 -9.315550E-10
       321  12  5.597364E+04 -1.388399E+04 -6.550757E+03  2.776371E+04 -2.453348E-09 -7.020000E-10
       321  13  1.182105E+05  4.336458E+01  1.952472E+03  2.813457E+04 -1.926575E-12 -1.296518E-10
       321  14  1.180322E+05  1.382519E+02  3.108473E+03  2.397021E+04  1.786297E-10 -1.985880E-09
       321  15  1.182097E+05  9.633456E+02  5.450086E+03  2.813327E+04  8.517848E-11 -1.393940E-09
       321  16  1.174656E+05 -1.192571E+02  1.887117E+03  2.796383E+04 -2.534200E-09 -1.105034E-09
       321  17  1.487475E+05  7.449014E+03  8.950243E+03  2.406965E+04 -1.033148E-09  2.160915E-09
       321  18  1.804496E+05  1.581045E+04  1.745075E+04  2.850287E+04  2.451491E-09  2.945149E-09
       321  19  1.189555E+05  2.059913E+02  2.017861E+03  2.830531E+04  4.288818E+03  1.351874E+02
       321  20  8.731783E+04 -7.172553E+03 -2.733277E+03  2.387077E+04  5.478867E+03 -1.950541E+03
       321  21  5.597369E+04 -1.388397E+04 -6.550647E+03  2.776369E+04  6.668484E+03 -3.784529E+03
       321  22  1.182105E+05  4.336493E+01  1.952474E+03  2.813457E+04  1.101319E+03  1.306170E+02
       321  23  1.180322E+05  1.382579E+02  3.108493E+03  2.397021E+04  2.654038E+03 -1.954554E+03
       321  24  1.182098E+05  9.633658E+02  5.450147E+03  2.813326E+04  4.206388E+03 -3.787992E+03
       321  25  1.174656E+05 -1.192559E+02  1.887126E+03  2.796383E+04 -2.086177E+03  1.260484E+02
       321  26  1.487475E+05  7.449018E+03  8.950251E+03  2.406965E+04 -1.709278E+02 -1.958568E+03
       321  27  1.804496E+05  1.581047E+04  1.745078E+04  2.850286E+04  1.744051E+03 -3.791457E+03
       322   1  3.546517E+04 -1.990548E+04 -9.134653E+03  3.009485E+04 -8.280969E+03  5.066058E+03
       322   2  2.056295E+03 -2.395342E+04 -1.114558E+04  1.811595E+04 -9.269636E+03  5.326129E+03
       322   3 -2.754631E+04 -1.319657E+04 -8.816736E+03  1.422542E+04 -1.025315E+04  1.748123E+03
       322   4  1.191888E+05  6.438057E+01  7.032527E+03  2.808579E+04 -5.141817E+03  5.070459E+03
       322   5  1.168051E+05  3.751018E+03  1.253851E+04  2.402592E+04 -1.165824E+04  5.322661E+03
       322   6  1.191852E+05  2.320027E+04  2.622183E+04  2.805401E+04 -1.816962E+04  1.737083E+03
       322   7  2.029192E+05  2.003385E+04  2.319942E+04  2.607645E+04 -2.002251E+03  5.074841E+03
       322   8  2.315666E+05  3.145475E+04  3.622193E+04  2.993700E+04 -1.404729E+04  5.319148E+03
       322   9  2.659370E+05  5.959629E+04  6.125922E+04  4.188587E+04 -2.608795E+04  1.725691E+03
       322  10  3.546509E+04 -1.990553E+04 -9.134830E+03  3.009489E+04  3.565218E-09 -3.378582E-09
       322  11  2.056195E+03 -2.395347E+04 -1.114579E+04  1.811599E+04  8.087054E-10  7.202338E-10
       322  12 -2.754642E+04 -1.319660E+04 -8.816939E+03  1.422543E+04 -2.916279E-09 -4.930634E-10
       322  13  1.191888E+05  6.434587E+01  7.032429E+03  2.808581E+04  5.013108E-11 -1.378567E-09
       322  14  1.168050E+05  3.750951E+03  1.253820E+04  2.402597E+04  2.197901E-10 -3.471854E-09
       322  15  1.191849E+05  2.320018E+04  2.622121E+04  2.805403E+04  8.636995E-12 -3.144917E-09
       322  16  2.029192E+05  2.003382E+04  2.319936E+04  2.607646E+04 -3.994431E-09 -7.053054E-10
       322  17  2.315663E+05  3.145467E+04  3.622150E+04  2.993706E+04 -9.910667E-10  1.270469E-09
       322  18  2.659363E+05  5.959610E+04  6.125794E+04  4.188591E+04  2.932222E-09  4.941007E-10
       322  19  3.546517E+04 -1.990548E+04 -9.134653E+03  3.009485E+04  8.280969E+03 -5.066058E+03
       322  20  2.056295E+03 -2.395342E+04 -1.114558E+04  1.811595E+04  9.269636E+03 -5.326129E+03
       322  21 -2.754631E+04 -1.319657E+04 -8.816736E+03  1.422542E+04  1.025315E+04 -1.748123E+03
       322  22  1.191888E+05  6.438057E+01  7.032527E+03  2.808579E+04  5.141817E+03 -5.070459E+03
       322  23  1.168051E+05  3.751018E+03  1.253851E+04  2.402592E+04  1.165824E+04 -5.322661E+03
       322  24  1.191852E+05  2.320027E+04  2.622183E+04  2.805401E+04  1.816962E+04 -1.737083E+03
       322  25  2.029192E+05  2.003385E+04  2.319942E+04  2.607645E+04  2.002251E+03 -5.074841E+03
       322  26  2.315666E+05  3.145475E+04  3.622193E+04  2.993700E+04  1.404729E+04 -5.319148E+03
       322  27  2.659370E+05  5.959629E+04  6.125922E+04  4.188587E+04  2.608795E+04 -1.725691E+03
       323   1 -1.510767E+05 -6.263254E+05 -1.592189E+05  1.054062E+05 -3.298690E+03 -7.652206E+04
       323   2 -6.605606E+04 -5.522731E+05 -9.015685E+04  6.984025E+04 -1.012336E+04 -4.260266E+04
       323   3 -3.741777E+04 -4.966800E+05 -5.728259E+04  5.092626E+04 -9.454068E+03 -8.669333E+03
       323   4 -8.005022E+04 -3.404002E+05 -9.084014E+04  5.779020E+04 -3.310503E+03 -6.137607E+04
       323   5 -1.283339E+04 -3.320971E+05 -4.460664E+04  4.950861E+04 -1.012665E+04 -3.823371E+04
       323   6 -1.173521E+02 -3.403782E+05 -2.706370E+04  5.788249E+04 -9.447051E+03 -1.508154E+04
       323   7 -9.021022E+03 -5.439467E+04 -2.246504E+04  1.015219E+04 -3.324639E+03 -4.622312E+04
       323   8  4.038776E+04 -1.118741E+05  9.412314E+02  2.916965E+04 -1.013022E+04 -3.386322E+04
       323   9  3.718181E+04 -1.840527E+05  3.154219E+03  6.484053E+04 -9.440179E+03 -2.149533E+04
       323  10 -1.510783E+05 -6.263317E+05 -1.592300E+05  1.054060E+05  5.796007E-11  1.241615E-09
       323  11 -6.605665E+04 -5.522751E+05 -9.016046E+04  6.983990E+04 -2.039218E-10 -2.279669E-10
       323  12 -3.741788E+04 -4.966801E+05 -5.728290E+04  5.092619E+04  7.565452E-10 -9.709685E-10
       323  13 -8.005124E+04 -3.404042E+05 -9.084725E+04  5.779003E+04  5.505844E-10  3.833169E-09
       323  14 -1.283389E+04 -3.320987E+05 -4.460958E+04  4.950830E+04  3.463414E-10 -1.840105E-09
       323  15 -1.175090E+02 -3.403785E+05 -2.706430E+04  5.788238E+04  4.502161E-10  1.984526E-09
       323  16 -9.021607E+03 -5.439697E+04 -2.246908E+04  1.015206E+04  3.670842E-10 -4.228017E-10
       323  17  4.038734E+04 -1.118754E+05  9.388833E+02  2.916937E+04  1.682344E-09 -7.626925E-10
       323  18  3.718159E+04 -1.840533E+05  3.153183E+03  6.484036E+04 -2.403890E-10  3.207875E-11
       323  19 -1.510767E+05 -6.263254E+05 -1.592189E+05  1.054062E+05  3.298690E+03  7.652206E+04
       323  20 -6.605606E+04 -5.522731E+05 -9.015685E+04  6.984025E+04  1.012336E+04  4.260266E+04
       323  21 -3.741777E+04 -4.966800E+05 -5.728259E+04  5.092626E+04  9.454068E+03  8.669333E+03
       323  22 -8.005022E+04 -3.404002E+05 -9.084014E+04  5.779020E+04  3.310503E+03  6.137607E+04
       323  23 -1.283339E+04 -3.320971E+05 -4.460664E+04  4.950861E+04  1.012665E+04  3.823371E+04
       323  24 -1.173521E+02 -3.403782E+05 -2.706370E+04  5.788249E+04  9.447051E+03  1.508154E+04
       323  25 -9.021022E+03 -5.439467E+04 -2.246504E+04  1.015219E+04  3.324639E+03  4.622312E+04
       323  26  4.038776E+04 -1.118741E+05  9.412314E+02  2.916965E+04  1.013022E+04  3.386322E+04
       323  27  3.718181E+04 -1.840527E+05  3.154219E+03  6.484053E+04  9.440179E+03  2.149533E+04
       324   1 -2.986289E+04 -4.492214E+05 -4.424423E+04  5.956981E+04 -6.810762E+03 -6.138597E+03
       324   2 -1.177828E+04 -3.832726E+05 -2.641224E+04  4.949173E+04 -3.164814E+03  2.868181E+03
       324   3  2.004663E+03 -3.195178E+05 -1.550975E+04  5.654853E+04  6.459568E+02  1.187590E+04
       324   4 -3.111799E+03 -3.371713E+05 -2.260891E+04  5.797216E+04 -6.805182E+03 -1.128227E+04
       324   5 -5.708940E+02 -3.360918E+05 -1.757621E+04  4.940510E+04 -3.159096E+03 -2.511905E+03
       324   6 -2.290065E+03 -3.371690E+05 -1.930796E+04  5.797300E+04  6.518391E+02  6.258505E+03
       324   7  2.363857E+04 -2.251090E+05 -9.740758E+02  5.637422E+04 -6.799576E+03 -1.642684E+04
       324   8  1.063638E+04 -2.889087E+05 -8.740162E+03  4.931846E+04 -3.153376E+03 -7.892389E+03
       324   9 -6.584789E+03 -3.548197E+05 -2.310606E+04  5.939742E+04  6.576958E+02  6.412632E+02
       324  10 -2.986295E+04 -4.492215E+05 -4.424439E+04  5.956978E+04  8.688251E-11  1.149577E-09
       324  11 -1.177829E+04 -3.832726E+05 -2.641227E+04  4.949174E+04 -5.846913E-10  6.726288E-10
       324  12  2.004625E+03 -3.195180E+05 -1.551002E+04  5.654853E+04  4.815985E-11 -8.827573E-11
       324  13 -3.111883E+03 -3.371714E+05 -2.260924E+04  5.797210E+04 -5.762791E-12  1.952739E-09
       324  14 -5.709064E+02 -3.360918E+05 -1.757624E+04  4.940509E+04  1.556881E-10 -1.922512E-09
       324  15 -2.290076E+03 -3.371690E+05 -1.930803E+04  5.797299E+04 -3.003759E-10  1.699819E-09
       324  16  2.363845E+04 -2.251093E+05 -9.746699E+02  5.637413E+04 -5.200842E-10 -3.821985E-11
       324  17  1.063635E+04 -2.889088E+05 -8.740298E+03  4.931844E+04  1.097054E-09 -1.274412E-09
       324  18 -6.584790E+03 -3.548197E+05 -2.310606E+04  5.939742E+04 -4.374336E-10  2.459028E-10
       324  19 -2.986289E+04 -4.492214E+05 -4.424423E+04  5.956981E+04  6.810762E+03  6.138597E+03
       324  20 -1.177828E+04 -3.832726E+05 -2.641224E+04  4.949173E+04  3.164814E+03 -2.868181E+03
       324  21  2.004663E+03 -3.195178E+05 -1.550975E+04  5.654853E+04 -6.459568E+02 -1.187590E+04
       324  22 -3.111799E+03 -3.371713E+05 -2.260891E+04  5.797216E+04  6.805182E+03  1.128227E+04
       324  23 -5.708940E+02 -3.360918E+05 -1.757621E+04  4.940510E+04  3.159096E+03  2.511905E+03
       324  24 -2.290065E+03 -3.371690E+05 -1.930796E+04  5.797300E+04 -6.518391E+02 -6.258505E+03
       324  25  2.363857E+04 -2.251090E+05 -9.740758E+02  5.637422E+04  6.799576E+03  1.642684E+04
       324  26  1.063638E+04 -2.889087E+05 -8.740162E+03  4.931846E+04  3.153376E+03  7.892389E+03
       324  27 -6.584789E+03 -3.548197E+05 -2.310606E+04  5.939742E+04 -6.576958E+02 -6.412632E+02
       325   1  1.469643E+04 -2.776224E+05 -9.612867E+03  6.302970E+04  3.306922E+03  1.591223E+04
       325   2  2.103103E+04 -2.072315E+05 -7.392561E+03  3.428613E+04  5.185256E+03  2.610474E+04
       325   3 -1.193343E+04 -1.479353E+05 -2.162196E+04  2.236353E+04  1.886310E+03  3.629214E+04
       325   4 -1.275255E+02 -3.394441E+05 -2.195542E+04  5.791530E+04  3.313569E+03  9.464194E+03
       325   5 -9.548074E+03 -3.332531E+05 -3.402835E+04  4.947094E+04  5.184889E+03  2.710618E+04
       325   6 -5.956745E+04 -3.394588E+05 -6.772886E+04  5.784920E+04  1.879115E+03  4.474177E+04
       325   7 -1.495159E+04 -4.012620E+05 -3.429799E+04  5.280141E+04  3.320321E+03  3.016787E+03
       325   8 -4.012734E+04 -4.592592E+05 -6.066491E+04  6.465262E+04  5.184570E+03  2.810743E+04
       325   9 -1.071994E+05 -5.309459E+05 -1.138374E+05  9.332389E+04  1.872886E+03  5.318880E+04
       325  10  1.469635E+04 -2.776227E+05 -9.613364E+03  6.302966E+04  4.035534E-10  6.611685E-10
       325  11  2.103081E+04 -2.072322E+05 -7.393892E+03  3.428602E+04 -4.203859E-10  4.651958E-10
       325  12 -1.193379E+04 -1.479368E+05 -2.162445E+04  2.236347E+04 -4.536195E-10 -1.342011E-09
       325  13 -1.275613E+02 -3.394442E+05 -2.195560E+04  5.791527E+04 -1.908966E-11  2.487524E-09
       325  14 -9.548300E+03 -3.332539E+05 -3.402978E+04  4.947082E+04 -4.720858E-10 -2.255074E-09
       325  15 -5.956799E+04 -3.394610E+05 -6.773263E+04  5.784913E+04  2.815971E-10  1.873765E-09
       325  16 -1.495161E+04 -4.012620E+05 -3.429802E+04  5.280140E+04 -2.045487E-10 -1.219697E-10
       325  17 -4.012758E+04 -4.592601E+05 -6.066645E+04  6.465250E+04  8.056589E-10 -6.695433E-10
       325  18 -1.072002E+05 -5.309489E+05 -1.138428E+05  9.332381E+04 -9.206237E-11  3.761323E-10
       325  19  1.469643E+04 -2.776224E+05 -9.612867E+03  6.302970E+04 -3.306922E+03 -1.591223E+04
       325  20  2.103103E+04 -2.072315E+05 -7.392561E+03  3.428613E+04 -5.185256E+03 -2.610474E+04
       325  21 -1.193343E+04 -1.479353E+05 -2.162196E+04  2.236353E+04 -1.886310E+03 -3.629214E+04
       325  22 -1.275255E+02 -3.394441E+05 -2.195542E+04  5.791530E+04 -3.313569E+03 -9.464194E+03
       325  23 -9.548074E+03 -3.332531E+05 -3.402835E+04  4.947094E+04 -5.184889E+03 -2.710618E+04
       325  24 -5.956745E+04 -3.394588E+05 -6.772886E+04  5.784920E+04 -1.879115E+03 -4.474177E+04
       325  25 -1.495159E+04 -4.012620E+05 -3.429799E+04  5.280141E+04 -3.320321E+03 -3.016787E+03
       325  26 -4.012734E+04 -4.592592E+05 -6.066491E+04  6.465262E+04 -5.184570E+03 -2.810743E+04
       325  27 -1.071994E+05 -5.309459E+05 -1.138374E+05  9.332389E+04 -1.872886E+03 -5.318880E+04
       326   1  1.222792E+05  9.363256E+04  2.125197E+04  8.993940E+04  1.403966E+04  1.106516E+04
       326   2  1.238813E+05  7.377885E+04  8.302545E+03  9.806308E+04  8.725112E+03  8.180230E+03
       326   3  1.358031E+05  6.553163E+04  3.476207E+03  1.001740E+05  3.879400E+03  4.671635E+03
       326   4  1.588574E+05  9.522815E+04  2.852067E+04  9.687162E+04  1.551263E+04  1.217228E+04
       326   5  1.490565E+05  8.129110E+04  1.367425E+04  1.059223E+05  9.299324E+03  8.611873E+03
       326   6  1.497700E+05  7.915529E+04  7.731209E+03  1.089602E+05  3.554981E+03  4.427699E+03
       326   7  1.954379E+05  9.682402E+04  3.578953E+04  1.038040E+05  1.698575E+04  1.327939E+04
       326   8  1.742328E+05  8.880352E+04  1.904603E+04  1.137818E+05  9.873577E+03  9.043528E+03
       326   9  1.637373E+05  9.277937E+04  1.198626E+04  1.177468E+05  3.230547E+03  4.183749E+03
       326  10  1.222790E+05  9.363238E+04  2.125137E+04  8.993928E+04 -5.777955E-10  2.178121E-09
       326  11  1.238812E+05  7.377875E+04  8.302276E+03  9.806302E+04  6.313272E-10  2.038018E-09
       326  12  1.358031E+05  6.553161E+04  3.476138E+03  1.001740E+05  6.496717E-11 -5.642421E-10
       326  13  1.588571E+05  9.522792E+04  2.851994E+04  9.687147E+04 -1.158943E-10  6.727257E-10
       326  14  1.490564E+05  8.129099E+04  1.367395E+04  1.059222E+05  3.502697E-10 -7.845350E-09
       326  15  1.497700E+05  7.915526E+04  7.731148E+03  1.089602E+05 -1.468109E-10 -2.795373E-10
       326  16  1.954375E+05  9.682375E+04  3.578865E+04  1.038038E+05  1.912644E-10 -1.189545E-09
       326  17  1.742327E+05  8.880341E+04  1.904569E+04  1.137817E+05 -2.119195E-10 -1.259343E-09
       326  18  1.637373E+05  9.277935E+04  1.198621E+04  1.177467E+05 -5.874455E-10 -1.353708E-09
       326  19  1.222792E+05  9.363256E+04  2.125197E+04  8.993940E+04 -1.403966E+04 -1.106516E+04
       326  20  1.238813E+05  7.377885E+04  8.302545E+03  9.806308E+04 -8.725112E+03 -8.180230E+03
       326  21  1.358031E+05  6.553163E+04  3.476207E+03  1.001740E+05 -3.879400E+03 -4.671635E+03
       326  22  1.588574E+05  9.522815E+04  2.852067E+04  9.687162E+04 -1.551263E+04 -1.217228E+04
       326  23  1.490565E+05  8.129110E+04  1.367425E+04  1.059223E+05 -9.299324E+03 -8.611873E+03
       326  24  1.497700E+05  7.915529E+04  7.731209E+03  1.089602E+05 -3.554981E+03 -4.427699E+03
       326  25  1.954379E+05  9.682402E+04  3.578953E+04  1.038040E+05 -1.698575E+04 -1.327939E+04
       326  26  1.742328E+05  8.880352E+04  1.904603E+04  1.137818E+05 -9.873577E+03 -9.043528E+03
       326  27  1.637373E+05  9.277937E+04  1.198626E+04  1.177468E+05 -3.230547E+03 -4.183749E+03
       327   1  1.350402E+05  6.973218E+04  2.341211E+03  1.009566E+05  3.043052E+03  3.834070E+03
       327   2  1.373086E+05  7.151647E+04  7.254598E+02  1.028836E+05  1.806587E+03  2.637153E+03
       327   3  1.411634E+05  7.287585E+04  4.089927E+02  1.043424E+05  6.034644E+02  1.395931E+03
       327   4  1.494539E+05  7.938564E+04  6.041785E+03  1.079783E+05  2.829268E+03  3.673301E+03
       327   5  1.484701E+05  7.926642E+04  3.587231E+03  1.084566E+05  1.528923E+03  2.428356E+03
       327   6  1.490868E+05  7.873617E+04  2.487451E+03  1.084668E+05  2.619205E+02  1.139103E+03
       327   7  1.638677E+05  8.903906E+04  9.742265E+03  1.150000E+05  2.615480E+03  3.512530E+03
       327   8  1.596318E+05  8.701638E+04  6.448961E+03  1.140297E+05  1.251254E+03  2.219555E+03
       327   9  1.570102E+05  8.459653E+04  4.565903E+03  1.125912E+05 -7.962908E+01  8.822704E+02
       327  10  1.350402E+05  6.973216E+04  2.341166E+03  1.009565E+05  2.156477E-09  1.093802E-09
       327  11  1.373086E+05  7.151646E+04  7.254406E+02  1.028836E+05  7.828924E-10 -1.232949E-09
       327  12  1.411634E+05  7.287585E+04  4.089883E+02  1.043424E+05  4.076085E-10  1.064240E-09
       327  13  1.494539E+05  7.938563E+04  6.041744E+03  1.079782E+05  4.405568E-10 -3.580215E-09
       327  14  1.484701E+05  7.926641E+04  3.587216E+03  1.084566E+05  1.647045E-09  8.854556E-10
       327  15  1.490868E+05  7.873617E+04  2.487449E+03  1.084668E+05  9.747533E-10 -3.067161E-10
       327  16  1.638676E+05  8.903905E+04  9.742229E+03  1.150000E+05 -1.852851E-09  5.257622E-10
       327  17  1.596318E+05  8.701637E+04  6.448949E+03  1.140297E+05  1.284664E-09  1.814107E-09
       327  18  1.570102E+05  8.459653E+04  4.565902E+03  1.125912E+05  1.616345E-09 -3.514150E-09
       327  19  1.350402E+05  6.973218E+04  2.341211E+03  1.009566E+05 -3.043052E+03 -3.834070E+03
       327  20  1.373086E+05  7.151647E+04  7.254598E+02  1.028836E+05 -1.806587E+03 -2.637153E+03
       327  21  1.411634E+05  7.287585E+04  4.089927E+02  1.043424E+05 -6.034644E+02 -1.395931E+03
       327  22  1.494539E+05  7.938564E+04  6.041785E+03  1.079783E+05 -2.829268E+03 -3.673301E+03
       327  23  1.484701E+05  7.926642E+04  3.587231E+03  1.084566E+05 -1.528923E+03 -2.428356E+03
       327  24  1.490868E+05  7.873617E+04  2.487451E+03  1.084668E+05 -2.619205E+02 -1.139103E+03
       327  25  1.638677E+05  8.903906E+04  9.742265E+03  1.150000E+05 -2.615480E+03 -3.512530E+03
       327  26  1.596318E+05  8.701638E+04  6.448961E+03  1.140297E+05 -1.251254E+03 -2.219555E+03
       327  27  1.570102E+05  8.459653E+04  4.565903E+03  1.125912E+05  7.962908E+01 -8.822704E+02
       328   1  1.430393E+05  7.446546E+04  7.150533E+02  1.053646E+05  3.633401E+02  9.988193E+02
       328   2  1.453961E+05  7.711121E+04  1.511678E+03  1.070315E+05 -3.646476E+02  8.770924E+01
       328   3  1.489550E+05  7.882701E+04  3.068421E+03  1.084279E+05 -1.092040E+03 -8.242358E+02
       328   4  1.490665E+05  7.874150E+04  2.253328E+03  1.084200E+05  2.930239E+01  7.476355E+02
       328   5  1.484681E+05  7.921130E+04  2.285556E+03  1.085516E+05 -6.998803E+02 -1.643736E+02
       328   6  1.490720E+05  7.875138E+04  3.078916E+03  1.084126E+05 -1.428449E+03 -1.077201E+03
       328   7  1.550938E+05  8.301763E+04  3.791633E+03  1.114755E+05 -3.047447E+02  4.964446E+02
       328   8  1.515402E+05  8.131139E+04  3.059434E+03  1.100716E+05 -1.035115E+03 -4.164581E+02
       328   9  1.491891E+05  7.867575E+04  3.089413E+03  1.083973E+05 -1.764854E+03 -1.330163E+03
       328  10  1.430393E+05  7.446546E+04  7.150511E+02  1.053646E+05 -2.741912E-09 -3.273861E-09
       328  11  1.453961E+05  7.711121E+04  1.511678E+03  1.070315E+05  4.949285E-09  8.320733E-09
       328  12  1.489550E+05  7.882701E+04  3.068417E+03  1.084279E+05  1.783645E-08  9.664768E-09
       328  13  1.490665E+05  7.874150E+04  2.253327E+03  1.084200E+05  5.039299E-10 -1.174967E-09
       328  14  1.484681E+05  7.921130E+04  2.285555E+03  1.085516E+05  3.568344E-10 -2.033457E-09
       328  15  1.490720E+05  7.875138E+04  3.078910E+03  1.084126E+05  5.649180E-09  5.114617E-09
       328  16  1.550938E+05  8.301763E+04  3.791632E+03  1.114755E+05  3.189591E-09 -1.114056E-09
       328  17  1.515402E+05  8.131139E+04  3.059432E+03  1.100716E+05 -3.715593E-09 -9.156148E-09
       328  18  1.491891E+05  7.867575E+04  3.089403E+03  1.083973E+05 -6.641953E-09 -6.036508E-09
       328  19  1.430393E+05  7.446546E+04  7.150533E+02  1.053646E+05 -3.633401E+02 -9.988193E+02
       328  20  1.453961E+05  7.711121E+04  1.511678E+03  1.070315E+05  3.646476E+02 -8.770924E+01
       328  21  1.489550E+05  7.882701E+04  3.068421E+03  1.084279E+05  1.092040E+03  8.242358E+02
       328  22  1.490665E+05  7.874150E+04  2.253328E+03  1.084200E+05 -2.930239E+01 -7.476355E+02
       328  23  1.484681E+05  7.921130E+04  2.285556E+03  1.085516E+05  6.998803E+02  1.643736E+02
       328  24  1.490720E+05  7.875138E+04  3.078916E+03  1.084126E+05  1.428449E+03  1.077201E+03
       328  25  1.550938E+05  8.301763E+04  3.791633E+03  1.114755E+05  3.047447E+02 -4.964446E+02
       328  26  1.515402E+05  8.131139E+04  3.059434E+03  1.100716E+05  1.035115E+03  4.164581E+02
       328  27  1.491891E+05  7.867575E+04  3.089413E+03  1.083973E+05  1.764854E+03  1.330163E+03
       329   1  1.508021E+05  8.050617E+04  4.326397E+03  1.096291E+05 -1.468233E+03 -1.323784E+03
       329   2  1.535791E+05  8.270545E+04  7.541666E+03  1.108715E+05 -3.834296E+03 -3.448760E+03
       329   3  1.584236E+05  8.505027E+04  1.317916E+04  1.114886E+05 -6.224924E+03 -5.541139E+03
       329   4  1.491250E+05  7.874564E+04  3.797067E+03  1.085160E+05 -1.809906E+03 -1.580706E+03
       329   5  1.484378E+05  7.928208E+04  6.235900E+03  1.083742E+05 -4.128940E+03 -3.670322E+03
       329   6  1.498079E+05  7.995385E+04  1.105612E+04  1.076071E+05 -6.472537E+03 -5.727349E+03
       329   7  1.474478E+05  7.698511E+04  3.267737E+03  1.074029E+05 -2.151578E+03 -1.837625E+03
       329   8  1.432965E+05  7.585869E+04  4.930118E+03  1.058770E+05 -4.423583E+03 -3.891884E+03
       329   9  1.411922E+05  7.485737E+04  8.933026E+03  1.037257E+05 -6.720150E+03 -5.913558E+03
       329  10  1.508021E+05  8.050616E+04  4.326390E+03  1.096291E+05 -7.597223E-09 -7.961295E-09
       329  11  1.535791E+05  8.270543E+04  7.541616E+03  1.108715E+05 -5.632736E-09 -1.693429E-09
       329  12  1.584235E+05  8.505023E+04  1.317903E+04  1.114885E+05  1.085570E-09  1.517935E-09
       329  13  1.491250E+05  7.874564E+04  3.797056E+03  1.085160E+05  6.427676E-09  3.334528E-09
       329  14  1.484378E+05  7.928206E+04  6.235842E+03  1.083742E+05 -1.013676E-10 -5.230174E-09
       329  15  1.498079E+05  7.995380E+04  1.105598E+04  1.076071E+05 -1.092632E-09  1.850202E-09
       329  16  1.474478E+05  7.698511E+04  3.267722E+03  1.074029E+05  1.821179E-08  1.427369E-08
       329  17  1.432965E+05  7.585867E+04  4.930053E+03  1.058770E+05  5.434789E-09  2.291731E-09
       329  18  1.411922E+05  7.485732E+04  8.932876E+03  1.037257E+05 -3.058812E-09 -3.960167E-09
       329  19  1.508021E+05  8.050617E+04  4.326397E+03  1.096291E+05  1.468233E+03  1.323784E+03
       329  20  1.535791E+05  8.270545E+04  7.541666E+03  1.108715E+05  3.834296E+03  3.448760E+03
       329  21  1.584236E+05  8.505027E+04  1.317916E+04  1.114886E+05  6.224924E+03  5.541139E+03
       329  22  1.491250E+05  7.874564E+04  3.797067E+03  1.085160E+05  1.809906E+03  1.580706E+03
       329  23  1.484378E+05  7.928208E+04  6.235900E+03  1.083742E+05  4.128940E+03  3.670322E+03
       329  24  1.498079E+05  7.995385E+04  1.105612E+04  1.076071E+05  6.472537E+03  5.727349E+03
       329  25  1.474478E+05  7.698511E+04  3.267737E+03  1.074029E+05  2.151578E+03  1.837625E+03
       329  26  1.432965E+05  7.585869E+04  4.930118E+03  1.058770E+05  4.423583E+03  3.891884E+03
       329  27  1.411922E+05  7.485737E+04  8.933026E+03  1.037257E+05  6.720150E+03  5.913558E+03
       330   1  1.563846E+05  9.076689E+04  1.697125E+04  1.157248E+05 -7.556476E+03 -6.753359E+03
       330   2  1.739156E+05  8.100716E+04  2.924372E+04  1.069108E+05 -1.883354E+04 -1.523038E+04
       330   3  2.104311E+05  9.438977E+04  5.875717E+04  8.707117E+04 -3.045702E+04 -2.324647E+04
       330   4  1.504153E+05  7.951268E+04  1.429775E+04  1.094486E+05 -7.885716E+03 -7.000852E+03
       330   5  1.495140E+05  8.308105E+04  2.554796E+04  1.036291E+05 -1.849924E+04 -1.497958E+04
       330   6  1.674529E+05  1.096473E+05  5.346320E+04  8.678434E+04 -2.945874E+04 -2.249794E+04
       330   7  1.444463E+05  6.825886E+04  1.162431E+04  1.031725E+05 -8.214947E+03 -7.248332E+03
       330   8  1.251136E+05  8.515512E+04  2.185230E+04  1.003475E+05 -1.816496E+04 -1.472877E+04
       330   9  1.244781E+05  1.249065E+05  4.816962E+04  8.649686E+04 -2.846056E+04 -2.174936E+04
       330  10  1.563845E+05  9.076683E+04  1.697106E+04  1.157248E+05 -2.034075E-09 -2.578770E-09
       330  11  1.739151E+05  8.100681E+04  2.924262E+04  1.069106E+05  5.367379E-11 -4.366319E-09
       330  12  2.104300E+05  9.438894E+04  5.875441E+04  8.707060E+04  1.429418E-09  1.626702E-09
       330  13  1.504152E+05  7.951261E+04  1.429754E+04  1.094485E+05 -2.577767E-10  1.309918E-09
       330  14  1.495136E+05  8.308071E+04  2.554690E+04  1.036289E+05 -7.772558E-10  5.732325E-10
       330  15  1.674519E+05  1.096465E+05  5.346062E+04  8.678381E+04 -3.853568E-10  1.336578E-09
       330  16  1.444462E+05  6.825879E+04  1.162409E+04  1.031724E+05  8.623769E-10  2.191735E-09
       330  17  1.251132E+05  8.515480E+04  2.185127E+04  1.003472E+05 -1.515085E-09 -1.586484E-09
       330  18  1.244771E+05  1.249058E+05  4.816721E+04  8.649636E+04 -1.816250E-09 -2.625881E-10
       330  19  1.563846E+05  9.076689E+04  1.697125E+04  1.157248E+05  7.556476E+03  6.753359E+03
       330  20  1.739156E+05  8.100716E+04  2.924372E+04  1.069108E+05  1.883354E+04  1.523038E+04
       330  21  2.104311E+05  9.438977E+04  5.875717E+04  8.707117E+04  3.045702E+04  2.324647E+04
       330  22  1.504153E+05  7.951268E+04  1.429775E+04  1.094486E+05  7.885716E+03  7.000852E+03
       330  23  1.495140E+05  8.308105E+04  2.554796E+04  1.036291E+05  1.849924E+04  1.497958E+04
       330  24  1.674529E+05  1.096473E+05  5.346320E+04  8.678434E+04  2.945874E+04  2.249794E+04
       330  25  1.444463E+05  6.825886E+04  1.162431E+04  1.031725E+05  8.214947E+03  7.248332E+03
       330  26  1.251136E+05  8.515512E+04  2.185230E+04  1.003475E+05  1.816496E+04  1.472877E+04
       330  27  1.244781E+05  1.249065E+05  4.816962E+04  8.649686E+04  2.846056E+04  2.174936E+04
       331   1  8.480410E+04  2.126297E+04  2.112843E+04  1.620486E+04  6.634598E+03 -8.249401E+02
       331   2  6.855330E+04  1.375042E+04  1.341275E+04  1.288039E+04  2.853079E+03 -2.507693E+03
       331   3  5.355276E+04  9.318310E+03  8.927725E+03  1.357386E+04 -9.306979E+02 -2.350537E+03
       331   4  1.462737E+04  3.868483E+03  4.365443E+03  1.385743E+04  2.893419E+03 -8.299655E+02
       331   5  1.423269E+04  6.384878E+02  2.187168E+03  1.185104E+04  1.761807E+03 -2.509183E+03
       331   6  1.462793E+04  2.902595E+01  1.399562E+03  1.386257E+04  6.277975E+02 -2.348433E+03
       331   7 -5.554481E+04 -1.352633E+04 -1.239784E+04  1.151026E+04 -8.473393E+02 -8.349629E+02
       331   8 -4.008511E+04 -1.247363E+04 -9.038571E+03  1.082179E+04  6.706299E+02 -2.510668E+03
       331   9 -2.429545E+04 -9.260347E+03 -6.128662E+03  1.415126E+04  2.186197E+03 -2.346328E+03
       331  10  8.480405E+04  2.126296E+04  2.112835E+04  1.620487E+04  1.336231E-10  2.340979E-10
       331  11  6.855329E+04  1.375041E+04  1.341273E+04  1.288040E+04  5.841140E-10 -1.030040E-09
       331  12  5.355276E+04  9.318304E+03  8.927713E+03  1.357386E+04 -7.791459E-10 -1.691263E-09
       331  13  1.462736E+04  3.868480E+03  4.365426E+03  1.385743E+04  4.164751E-11  2.302762E-09
       331  14  1.423269E+04  6.384802E+02  2.187150E+03  1.185105E+04  2.456337E-10  9.941392E-10
       331  15  1.462792E+04  2.901992E+01  1.399551E+03  1.386257E+04  9.323990E-11  4.077879E-10
       331  16 -5.554481E+04 -1.352633E+04 -1.239784E+04  1.151026E+04 -5.092183E-10  8.633751E-10
       331  17 -4.008512E+04 -1.247363E+04 -9.038584E+03  1.082179E+04 -8.135286E-10 -4.527960E-09
       331  18 -2.429545E+04 -9.260354E+03 -6.128681E+03  1.415127E+04  7.698626E-10 -1.408646E-09
       331  19  8.480410E+04  2.126297E+04  2.112843E+04  1.620486E+04 -6.634598E+03  8.249401E+02
       331  20  6.855330E+04  1.375042E+04  1.341275E+04  1.288039E+04 -2.853079E+03  2.507693E+03
       331  21  5.355276E+04  9.318310E+03  8.927725E+03  1.357386E+04  9.306979E+02  2.350537E+03
       331  22  1.462737E+04  3.868483E+03  4.365443E+03  1.385743E+04 -2.893419E+03  8.299655E+02
       331  23  1.423269E+04  6.384878E+02  2.187168E+03  1.185104E+04 -1.761807E+03  2.509183E+03
       331  24  1.462793E+04  2.902595E+01  1.399562E+03  1.386257E+04 -6.277975E+02  2.348433E+03
       331  25 -5.554481E+04 -1.352633E+04 -1.239784E+04  1.151026E+04  8.473393E+02  8.349629E+02
       331  26 -4.008511E+04 -1.247363E+04 -9.038571E+03  1.082179E+04 -6.706299E+02  2.510668E+03
       331  27 -2.429545E+04 -9.260347E+03 -6.128662E+03  1.415126E+04 -2.186197E+03  2.346328E+03
       332   1  4.274888E+04  6.923836E+03  6.687266E+03  1.399138E+04 -8.119479E+02 -1.713280E+03
       332   2  2.707299E+04  3.041880E+03  3.508172E+03  1.188436E+04 -1.528248E+03 -7.973763E+02
       332   3  1.152240E+04 -6.562153E+02  8.377443E+02  1.390683E+04 -2.244713E+03  2.385065E+02
       332   4  1.447371E+04  1.760054E+02  1.223815E+03  1.388644E+04  4.220100E+02 -1.711606E+03
       332   5  1.442612E+04  2.916471E+01  1.092076E+03  1.182179E+04 -1.215040E+02 -7.954596E+02
       332   6  1.447384E+04  3.626318E+01  1.349092E+03  1.388663E+04 -6.651964E+02  2.406668E+02
       332   7 -1.380069E+04 -6.571872E+03 -4.239669E+03  1.378151E+04  1.655913E+03 -1.709931E+03
       332   8  1.779403E+03 -2.983559E+03 -1.324019E+03  1.175922E+04  1.285212E+03 -7.935432E+02
       332   9  1.742529E+04  7.287425E+02  1.860448E+03  1.386644E+04  9.143272E+02  2.428270E+02
       332  10  4.274888E+04  6.923833E+03  6.687260E+03  1.399138E+04 -8.371960E-09 -1.153044E-10
       332  11  2.707299E+04  3.041879E+03  3.508166E+03  1.188436E+04  1.939913E-08 -1.421470E-09
       332  12  1.152240E+04 -6.562167E+02  8.377348E+02  1.390683E+04  4.100441E-08 -1.616452E-10
       332  13  1.447371E+04  1.760022E+02  1.223809E+03  1.388644E+04  9.685581E-11  1.513128E-09
       332  14  1.442612E+04  2.916402E+01  1.092075E+03  1.182179E+04  1.461580E-10 -4.893097E-10
       332  15  1.447384E+04  3.626300E+01  1.349091E+03  1.388663E+04  4.265683E-11  2.816924E-09
       332  16 -1.380070E+04 -6.571876E+03 -4.239679E+03  1.378151E+04  8.038306E-09  4.710987E-09
       332  17  1.779402E+03 -2.983560E+03 -1.324023E+03  1.175922E+04 -1.974039E-08 -6.167665E-11
       332  18  1.742529E+04  7.287422E+02  1.860447E+03  1.386644E+04 -4.109597E-08  2.401489E-09
       332  19  4.274888E+04  6.923836E+03  6.687266E+03  1.399138E+04  8.119479E+02  1.713280E+03
       332  20  2.707299E+04  3.041880E+03  3.508172E+03  1.188436E+04  1.528248E+03  7.973763E+02
       332  21  1.152240E+04 -6.562153E+02  8.377443E+02  1.390683E+04  2.244713E+03 -2.385065E+02
       332  22  1.447371E+04  1.760054E+02  1.223815E+03  1.388644E+04 -4.220100E+02  1.711606E+03
       332  23  1.442612E+04  2.916471E+01  1.092076E+03  1.182179E+04  1.215040E+02  7.954596E+02
       332  24  1.447384E+04  3.626318E+01  1.349092E+03  1.388663E+04  6.651964E+02 -2.406668E+02
       332  25 -1.380069E+04 -6.571872E+03 -4.239669E+03  1.378151E+04 -1.655913E+03  1.709931E+03
       332  26  1.779403E+03 -2.983559E+03 -1.324019E+03  1.175922E+04 -1.285212E+03  7.935432E+02
       332  27  1.742529E+04  7.287425E+02  1.860448E+03  1.386644E+04 -9.143272E+02 -2.428270E+02
       333   1  9.864749E+02 -3.207923E+03 -9.244094E+02  1.401473E+04 -2.512252E+03  8.890050E+02
       333   2 -1.476003E+04 -6.831209E+03 -2.893075E+03  1.173685E+04 -3.588333E+03  1.912583E+03
       333   3 -3.023901E+04 -9.890677E+03 -4.023813E+03  1.358645E+04 -4.664165E+03  2.785364E+03
       333   4  1.452039E+04  7.735062E+00  1.622278E+03  1.388635E+04 -9.276603E+02  8.911696E+02
       333   5  1.436776E+04  9.146383E+01  2.591290E+03  1.182210E+04 -2.220959E+03  1.914433E+03
       333   6  1.452009E+04  7.767073E+02  4.549026E+03  1.388530E+04 -3.514035E+03  2.786903E+03
       333   7  2.805449E+04  3.223384E+03  4.168967E+03  1.375797E+04  6.569651E+02  8.933335E+02
       333   8  4.349637E+04  7.014088E+03  8.075624E+03  1.190735E+04 -8.535232E+02  1.916284E+03
       333   9  5.928112E+04  1.144397E+04  1.312178E+04  1.418418E+04 -2.363825E+03  2.788443E+03
       333  10  9.864679E+02 -3.207926E+03 -9.244227E+02  1.401473E+04 -3.715160E-08  7.687620E-10
       333  11 -1.476005E+04 -6.831216E+03 -2.893106E+03  1.173686E+04 -1.757015E-08  3.775510E-09
       333  12 -3.023904E+04 -9.890691E+03 -4.023868E+03  1.358646E+04  4.505514E-09 -1.908399E-09
       333  13  1.452039E+04  7.733978E+00  1.622275E+03  1.388635E+04 -8.407544E-11 -3.433678E-09
       333  14  1.436775E+04  9.145857E+01  2.591274E+03  1.182210E+04  2.604928E-10  4.657592E-09
       333  15  1.452007E+04  7.766956E+02  4.548988E+03  1.388531E+04  3.228857E-11 -9.072093E-11
       333  16  2.805449E+04  3.223383E+03  4.168964E+03  1.375797E+04  3.681176E-08 -3.156856E-10
       333  17  4.349637E+04  7.014084E+03  8.075616E+03  1.190735E+04  1.724481E-08 -4.526848E-09
       333  18  5.928112E+04  1.144396E+04  1.312175E+04  1.418418E+04 -4.585649E-09 -1.645303E-10
       333  19  9.864749E+02 -3.207923E+03 -9.244094E+02  1.401473E+04  2.512252E+03 -8.890050E+02
       333  20 -1.476003E+04 -6.831209E+03 -2.893075E+03  1.173685E+04  3.588333E+03 -1.912583E+03
       333  21 -3.023901E+04 -9.890677E+03 -4.023813E+03  1.358645E+04  4.664165E+03 -2.785364E+03
       333  22  1.452039E+04  7.735062E+00  1.622278E+03  1.388635E+04  9.276603E+02 -8.911696E+02
       333  23  1.436776E+04  9.146383E+01  2.591290E+03  1.182210E+04  2.220959E+03 -1.914433E+03
       333  24  1.452009E+04  7.767073E+02  4.549026E+03  1.388530E+04  3.514035E+03 -2.786903E+03
       333  25  2.805449E+04  3.223384E+03  4.168967E+03  1.375797E+04 -6.569651E+02 -8.933335E+02
       333  26  4.349637E+04  7.014088E+03  8.075624E+03  1.190735E+04  8.535232E+02 -1.916284E+03
       333  27  5.928112E+04  1.144397E+04  1.312178E+04  1.418418E+04  2.363825E+03 -2.788443E+03
       334   1 -4.009100E+04 -1.318319E+04 -4.773822E+03  1.555377E+04 -5.840395E+03  3.417346E+03
       334   2 -5.741790E+04 -1.396368E+04 -4.056545E+03  6.946543E+03 -8.052127E+03  3.367226E+03
       334   3 -7.131908E+04 -2.147429E+03  1.247704E+03  2.323019E+03 -1.026084E+04  1.074391E+03
       334   4  1.533777E+04  2.620190E+01  5.871221E+03  1.385797E+04 -4.294040E+03  3.419422E+03
       334   5  1.334468E+04  3.110218E+03  1.047098E+04  1.185341E+04 -9.735607E+03  3.364892E+03
       334   6  1.533698E+04  1.935069E+04  2.190019E+04  1.383231E+04 -1.517419E+04  1.067717E+03
       334   7  7.076951E+04  1.323542E+04  1.651613E+04  1.216201E+04 -2.747549E+03  3.421489E+03
       334   8  8.411207E+04  2.018389E+04  2.499826E+04  1.676085E+04 -1.141928E+04  3.362531E+03
       334   9  1.020003E+05  4.084877E+04  4.255230E+04  2.534321E+04 -2.008823E+04  1.060861E+03
       334  10 -4.009104E+04 -1.318321E+04 -4.773908E+03  1.555378E+04  1.065544E-09 -1.922963E-09
       334  11 -5.741798E+04 -1.396371E+04 -4.056688E+03  6.946565E+03  3.344555E-09  3.556125E-10
       334  12 -7.131920E+04 -2.147459E+03  1.247504E+03  2.323028E+03  2.168650E-09  3.714238E-09
       334  13  1.533775E+04  2.618440E+01  5.871164E+03  1.385798E+04 -4.059299E-13  1.308860E-09
       334  14  1.334457E+04  3.110181E+03  1.047078E+04  1.185344E+04  1.751923E-10  1.701955E-09
       334  15  1.533673E+04  1.935062E+04  2.189975E+04  1.383232E+04  3.298069E-11  3.215241E-09
       334  16  7.076950E+04  1.323541E+04  1.651610E+04  1.216202E+04 -1.386872E-09  6.885414E-10
       334  17  8.411192E+04  2.018384E+04  2.499800E+04  1.676088E+04 -3.586982E-09  2.149098E-09
       334  18  1.019998E+05  4.084866E+04  4.255154E+04  2.534323E+04 -2.372072E-09 -4.349292E-10
       334  19 -4.009100E+04 -1.318319E+04 -4.773822E+03  1.555377E+04  5.840395E+03 -3.417346E+03
       334  20 -5.741790E+04 -1.396368E+04 -4.056545E+03  6.946543E+03  8.052127E+03 -3.367226E+03
       334  21 -7.131908E+04 -2.147429E+03  1.247704E+03  2.323019E+03  1.026084E+04 -1.074391E+03
       334  22  1.533777E+04  2.620190E+01  5.871221E+03  1.385797E+04  4.294040E+03 -3.419422E+03
       334  23  1.334468E+04  3.110218E+03  1.047098E+04  1.185341E+04  9.735607E+03 -3.364892E+03
       334  24  1.533698E+04  1.935069E+04  2.190019E+04  1.383231E+04  1.517419E+04 -1.067717E+03
       334  25  7.076951E+04  1.323542E+04  1.651613E+04  1.216201E+04  2.747549E+03 -3.421489E+03
       334  26  8.411207E+04  2.018389E+04  2.499826E+04  1.676085E+04  1.141928E+04 -3.362531E+03
       334  27  1.020003E+05  4.084877E+04  4.255230E+04  2.534321E+04  2.008823E+04 -1.060861E+03
       335   1 -8.934860E+04 -4.269118E+05 -9.367398E+04  6.499382E+04 -2.063704E+03 -4.316597E+04
       335   2 -4.040607E+04 -3.784348E+05 -5.337321E+04  4.437156E+04 -6.274075E+03 -2.342311E+04
       335   3 -2.278015E+04 -3.403212E+05 -3.375720E+04  3.489049E+04 -5.709244E+03 -3.672244E+03
       335   4 -4.423435E+04 -2.452643E+05 -5.021095E+04  3.864184E+04 -2.073522E+03 -3.370808E+04
       335   5 -7.101448E+03 -2.406749E+05 -2.482187E+04  3.309764E+04 -6.276678E+03 -2.083562E+04
       335   6 -8.849725E+01 -2.452553E+05 -1.534136E+04  3.869596E+04 -5.704154E+03 -7.956780E+03
       335   7  8.801528E+02 -6.358481E+04 -6.749542E+03  1.228211E+04 -2.084142E+03 -2.424743E+04
       335   8  2.620245E+04 -1.028968E+05  3.728532E+03  2.182118E+04 -6.279374E+03 -1.824756E+04
       335   9  2.260268E+04 -1.501807E+05  3.074132E+03  4.250203E+04 -5.699118E+03 -1.224196E+04
       335  10 -8.934911E+04 -4.269138E+05 -9.367749E+04  6.499375E+04  2.388203E-10  1.558765E-09
       335  11 -4.040626E+04 -3.784354E+05 -5.337431E+04  4.437144E+04  1.204309E-10 -1.909948E-10
       335  12 -2.278019E+04 -3.403212E+05 -3.375729E+04  3.489047E+04  6.643208E-10  8.451738E-10
       335  13 -4.423466E+04 -2.452655E+05 -5.021309E+04  3.864178E+04  6.260056E-10  3.902076E-09
       335  14 -7.101607E+03 -2.406754E+05 -2.482276E+04  3.309754E+04  7.110071E-10 -1.120187E-11
       335  15 -8.854919E+01 -2.452554E+05 -1.534154E+04  3.869592E+04  1.170050E-09  6.062480E-10
       335  16  8.799902E+02 -6.358545E+04 -6.750655E+03  1.228207E+04  2.818642E-10 -2.412823E-09
       335  17  2.620231E+04 -1.028972E+05  3.727832E+03  2.182109E+04  1.959379E-09 -6.634515E-10
       335  18  2.260261E+04 -1.501809E+05  3.073789E+03  4.250197E+04  1.286218E-09 -2.700134E-09
       335  19 -8.934860E+04 -4.269118E+05 -9.367398E+04  6.499382E+04  2.063704E+03  4.316597E+04
       335  20 -4.040607E+04 -3.784348E+05 -5.337321E+04  4.437156E+04  6.274075E+03  2.342311E+04
       335  21 -2.278015E+04 -3.403212E+05 -3.375720E+04  3.489049E+04  5.709244E+03  3.672244E+03
       335  22 -4.423435E+04 -2.452643E+05 -5.021095E+04  3.864184E+04  2.073522E+03  3.370808E+04
       335  23 -7.101448E+03 -2.406749E+05 -2.482187E+04  3.309764E+04  6.276678E+03  2.083562E+04
       335  24 -8.849725E+01 -2.452553E+05 -1.534136E+04  3.869596E+04  5.704154E+03  7.956780E+03
       335  25  8.801528E+02 -6.358481E+04 -6.749542E+03  1.228211E+04  2.084142E+03  2.424743E+04
       335  26  2.620245E+04 -1.028968E+05  3.728532E+03  2.182118E+04  6.279374E+03  1.824756E+04
       335  27  2.260268E+04 -1.501807E+05  3.074132E+03  4.250203E+04  5.699118E+03  1.224196E+04
       336   1 -1.737803E+04 -3.090328E+05 -2.571240E+04  3.970525E+04 -3.942352E+03 -2.294982E+03
       336   2 -5.634768E+03 -2.650656E+05 -1.483484E+04  3.306073E+04 -1.491922E+03  3.144089E+03
       336   3  3.497475E+03 -2.224220E+05 -8.143330E+03  3.785729E+04  1.036075E+03  8.583570E+03
       336   4 -1.728510E+03 -2.435075E+05 -1.302364E+04  3.875261E+04 -3.938254E+03 -5.775955E+03
       336   5 -3.592996E+02 -2.428542E+05 -1.067558E+04  3.303213E+04 -1.487728E+03 -4.483210E+02
       336   6 -1.581572E+03 -2.435068E+05 -1.243592E+04  3.875277E+04  1.040376E+03  4.879361E+03
       336   7  1.392076E+04 -1.779780E+05 -3.350381E+02  3.779987E+04 -3.934145E+03 -9.257288E+03
       336   8  4.916147E+03 -2.206422E+05 -6.516301E+03  3.300353E+04 -1.483533E+03 -4.040857E+03
       336   9 -6.660637E+03 -2.645912E+05 -1.672849E+04  3.964822E+04  1.044666E+03  1.175276E+03
       336  10 -1.737805E+04 -3.090328E+05 -2.571243E+04  3.970524E+04  7.365844E-12  1.233796E-09
       336  11 -5.634773E+03 -2.650656E+05 -1.483486E+04  3.306074E+04 -5.194715E-10 -7.050025E-10
       336  12  3.497454E+03 -2.224221E+05 -8.143470E+03  3.785728E+04 -7.802592E-10  2.453390E-09
       336  13 -1.728535E+03 -2.435075E+05 -1.302373E+04  3.875259E+04  7.568470E-10  1.571989E-09
       336  14 -3.593021E+02 -2.428542E+05 -1.067559E+04  3.303213E+04  4.350396E-10 -1.604177E-09
       336  15 -1.581580E+03 -2.435068E+05 -1.243597E+04  3.875277E+04 -8.636718E-11  1.636651E-09
       336  16  1.392072E+04 -1.779781E+05 -3.352283E+02  3.779984E+04  9.095196E-10 -2.329158E-09
       336  17  4.916140E+03 -2.206422E+05 -6.516335E+03  3.300353E+04  2.560128E-10  1.623499E-10
       336  18 -6.660638E+03 -2.645912E+05 -1.672850E+04  3.964822E+04  7.812744E-10 -5.246157E-09
       336  19 -1.737803E+04 -3.090328E+05 -2.571240E+04  3.970525E+04  3.942352E+03  2.294982E+03
       336  20 -5.634768E+03 -2.650656E+05 -1.483484E+04  3.306073E+04  1.491922E+03 -3.144089E+03
       336  21  3.497475E+03 -2.224220E+05 -8.143330E+03  3.785729E+04 -1.036075E+03 -8.583570E+03
       336  22 -1.728510E+03 -2.435075E+05 -1.302364E+04  3.875261E+04  3.938254E+03  5.775955E+03
       336  23 -3.592996E+02 -2.428542E+05 -1.067558E+04  3.303213E+04  1.487728E+03  4.483210E+02
       336  24 -1.581572E+03 -2.435068E+05 -1.243592E+04  3.875277E+04 -1.040376E+03 -4.879361E+03
       336  25  1.392076E+04 -1.779780E+05 -3.350381E+02  3.779987E+04  3.934145E+03  9.257288E+03
       336  26  4.916147E+03 -2.206422E+05 -6.516301E+03  3.300353E+04  1.483533E+03  4.040857E+03
       336  27 -6.660637E+03 -2.645912E+05 -1.672849E+04  3.964822E+04 -1.044666E+03 -1.175276E+03
       337   1  1.202090E+04 -1.945012E+05 -4.430835E+03  4.221612E+04  2.810461E+03  1.125627E+04
       337   2  1.613339E+04 -1.474530E+05 -3.291206E+03  2.274753E+04  3.947692E+03  1.785144E+04
       337   3 -6.476045E+03 -1.079056E+05 -1.311811E+04  1.449471E+04  1.400340E+03  2.444240E+04
       337   4 -8.936524E+01 -2.450887E+05 -1.443191E+04  3.871152E+04  2.815412E+03  6.954497E+03
       337   5 -6.515083E+03 -2.408798E+05 -2.293840E+04  3.307887E+04  3.946845E+03  1.885264E+04
       337   6 -4.058652E+04 -2.450960E+05 -4.609629E+04  3.866269E+04  1.393736E+03  3.074598E+04
       337   7 -1.219973E+04 -2.956738E+05 -2.443304E+04  3.520720E+04  2.820411E+03  2.653070E+03
       337   8 -2.916372E+04 -3.342981E+05 -4.258602E+04  4.340863E+04  3.946031E+03  1.985370E+04
       337   9 -7.469616E+04 -3.822679E+05 -7.907535E+04  6.282530E+04  1.387623E+03  3.704816E+04
       337  10  1.202086E+04 -1.945013E+05 -4.431088E+03  4.221610E+04 -1.535188E-09  2.198851E-09
       337  11  1.613329E+04 -1.474534E+05 -3.291835E+03  2.274747E+04 -9.549551E-10 -3.281150E-10
       337  12 -6.476207E+03 -1.079062E+05 -1.311924E+04  1.449468E+04 -4.939338E-10  8.237961E-10
       337  13 -8.938674E+01 -2.450888E+05 -1.443202E+04  3.871150E+04 -1.084293E-10  3.200712E-09
       337  14 -6.515195E+03 -2.408802E+05 -2.293909E+04  3.307881E+04 -8.313335E-10  5.352715E-10
       337  15 -4.058678E+04 -2.450971E+05 -4.609807E+04  3.866265E+04 -2.481982E-10  2.046857E-09
       337  16 -1.219974E+04 -2.956738E+05 -2.443306E+04  3.520719E+04 -1.295414E-10 -3.029442E-09
       337  17 -2.916384E+04 -3.342985E+05 -4.258679E+04  4.340857E+04 -2.156800E-10 -2.845703E-11
       337  18 -7.469653E+04 -3.822694E+05 -7.907793E+04  6.282526E+04  5.879470E-12 -4.019717E-09
       337  19  1.202090E+04 -1.945012E+05 -4.430835E+03  4.221612E+04 -2.810461E+03 -1.125627E+04
       337  20  1.613339E+04 -1.474530E+05 -3.291206E+03  2.274753E+04 -3.947692E+03 -1.785144E+04
       337  21 -6.476045E+03 -1.079056E+05 -1.311811E+04  1.449471E+04 -1.400340E+03 -2.444240E+04
       337  22 -8.936524E+01 -2.450887E+05 -1.443191E+04  3.871152E+04 -2.815412E+03 -6.954497E+03
       337  23 -6.515083E+03 -2.408798E+05 -2.293840E+04  3.307887E+04 -3.946845E+03 -1.885264E+04
       337  24 -4.058652E+04 -2.450960E+05 -4.609629E+04  3.866269E+04 -1.393736E+03 -3.074598E+04
       337  25 -1.219973E+04 -2.956738E+05 -2.443304E+04  3.520720E+04 -2.820411E+03 -2.653070E+03
       337  26 -2.916372E+04 -3.342981E+05 -4.258602E+04  4.340863E+04 -3.946031E+03 -1.985370E+04
       337  27 -7.469616E+04 -3.822679E+05 -7.907535E+04  6.282530E+04 -1.387623E+03 -3.704816E+04
       338   1  2.607824E+04  2.965062E+04  1.034190E+04  2.146600E+04  8.201789E+03  6.807847E+03
       338   2  2.702479E+04  1.644674E+04  2.297554E+03  2.664984E+04  4.777662E+03  5.710987E+03
       338   3  3.457027E+04  1.090140E+04 -7.729210E+02  2.790297E+04  1.888758E+03  3.902355E+03
       338   4  6.148923E+04  3.877207E+04  1.878790E+04  3.165569E+04  1.007470E+04  8.216139E+03
       338   5  5.508475E+04  2.953750E+04  9.003749E+03  3.760263E+04  5.625271E+03  6.348344E+03
       338   6  5.550145E+04  2.818381E+04  5.083994E+03  3.961898E+04  1.711132E+03  3.768779E+03
       338   7  9.690185E+04  4.789368E+04  2.723391E+04  4.184578E+04  1.194777E+04  9.624457E+03
       338   8  8.314548E+04  4.262837E+04  1.570986E+04  4.855584E+04  6.472929E+03  6.985721E+03
       338   9  7.643287E+04  4.546638E+04  1.094077E+04  5.133534E+04  1.533499E+03  3.635197E+03
       338  10  2.607815E+04  2.965055E+04  1.034168E+04  2.146596E+04  2.260104E-09  6.390779E-10
       338  11  2.702475E+04  1.644670E+04  2.297450E+03  2.664981E+04  1.093128E-09  4.598682E-10
       338  12  3.457026E+04  1.090138E+04 -7.729563E+02  2.790297E+04 -1.412871E-09 -3.414878E-09
       338  13  6.148911E+04  3.877197E+04  1.878758E+04  3.165562E+04  3.920491E-10 -2.046650E-09
       338  14  5.508470E+04  2.953745E+04  9.003614E+03  3.760260E+04 -3.880642E-11  2.088191E-09
       338  15  5.550144E+04  2.818379E+04  5.083962E+03  3.961898E+04  6.039989E-10  9.180761E-10
       338  16  9.690167E+04  4.789354E+04  2.723347E+04  4.184569E+04 -1.867692E-09  1.186067E-10
       338  17  8.314543E+04  4.262831E+04  1.570969E+04  4.855580E+04  1.460990E-09 -2.527803E-09
       338  18  7.643286E+04  4.546636E+04  1.094074E+04  5.133533E+04  2.000917E-09  3.847739E-10
       338  19  2.607824E+04  2.965062E+04  1.034190E+04  2.146600E+04 -8.201789E+03 -6.807847E+03
       338  20  2.702479E+04  1.644674E+04  2.297554E+03  2.664984E+04 -4.777662E+03 -5.710987E+03
       338  21  3.457027E+04  1.090140E+04 -7.729210E+02  2.790297E+04 -1.888758E+03 -3.902355E+03
       338  22  6.148923E+04  3.877207E+04  1.878790E+04  3.165569E+04 -1.007470E+04 -8.216139E+03
       338  23  5.508475E+04  2.953750E+04  9.003749E+03  3.760263E+04 -5.625271E+03 -6.348344E+03
       338  24  5.550145E+04  2.818381E+04  5.083994E+03  3.961898E+04 -1.711132E+03 -3.768779E+03
       338  25  9.690185E+04  4.789368E+04  2.723391E+04  4.184578E+04 -1.194777E+04 -9.624457E+03
       338  26  8.314548E+04  4.262837E+04  1.570986E+04  4.855584E+04 -6.472929E+03 -6.985721E+03
       338  27  7.643287E+04  4.546638E+04  1.094077E+04  5.133534E+04 -1.533499E+03 -3.635197E+03
       339   1  3.392377E+04  1.355871E+04 -1.559314E+03  2.834112E+04  1.275818E+03  3.325138E+03
       339   2  3.523124E+04  1.453184E+04 -2.653564E+03  2.947640E+04  4.626082E+02  2.617939E+03
       339   3  3.749162E+04  1.530189E+04 -2.926013E+03  3.032708E+04 -3.123873E+02  1.859910E+03
       339   4  5.529784E+04  2.833059E+04  3.967741E+03  3.897036E+04  1.224498E+03  3.286534E+03
       339   5  5.469259E+04  2.821049E+04  2.341136E+03  3.927338E+04  3.380594E+02  2.524270E+03
       339   6  5.505615E+04  2.790317E+04  1.599927E+03  3.929179E+04 -5.101694E+02  1.711171E+03
       339   7  7.667245E+04  4.310274E+04  9.494762E+03  4.960002E+04  1.173177E+03  3.247929E+03
       339   8  7.415452E+04  4.188948E+04  7.335859E+03  4.907079E+04  2.135044E+02  2.430596E+03
       339   9  7.262130E+04  4.050485E+04  6.125939E+03  4.825692E+04 -7.079621E+02  1.562425E+03
       339  10  3.392376E+04  1.355870E+04 -1.559337E+03  2.834111E+04 -1.303587E-09 -3.252747E-09
       339  11  3.523124E+04  1.453183E+04 -2.653577E+03  2.947640E+04 -7.010060E-10  3.446260E-09
       339  12  3.749162E+04  1.530188E+04 -2.926019E+03  3.032708E+04  1.665734E-09  3.310520E-09
       339  13  5.529784E+04  2.833058E+04  3.967718E+03  3.897035E+04  1.098409E-10  3.163884E-09
       339  14  5.469258E+04  2.821049E+04  2.341124E+03  3.927338E+04 -2.614201E-10 -4.937935E-09
       339  15  5.505614E+04  2.790317E+04  1.599921E+03  3.929179E+04 -4.257797E-10  1.742317E-09
       339  16  7.667245E+04  4.310273E+04  9.494740E+03  4.960001E+04  6.551518E-10 -1.679388E-10
       339  17  7.415452E+04  4.188948E+04  7.335848E+03  4.907079E+04 -1.054699E-09 -3.372024E-09
       339  18  7.262130E+04  4.050485E+04  6.125933E+03  4.825693E+04 -1.810353E-09 -4.194383E-09
       339  19  3.392377E+04  1.355871E+04 -1.559314E+03  2.834112E+04 -1.275818E+03 -3.325138E+03
       339  20  3.523124E+04  1.453184E+04 -2.653564E+03  2.947640E+04 -4.626082E+02 -2.617939E+03
       339  21  3.749162E+04  1.530189E+04 -2.926013E+03  3.032708E+04  3.123873E+02 -1.859910E+03
       339  22  5.529784E+04  2.833059E+04  3.967741E+03  3.897036E+04 -1.224498E+03 -3.286534E+03
       339  23  5.469259E+04  2.821049E+04  2.341136E+03  3.927338E+04 -3.380594E+02 -2.524270E+03
       339  24  5.505615E+04  2.790317E+04  1.599927E+03  3.929179E+04  5.101694E+02 -1.711171E+03
       339  25  7.667245E+04  4.310274E+04  9.494762E+03  4.960002E+04 -1.173177E+03 -3.247929E+03
       339  26  7.415452E+04  4.188948E+04  7.335859E+03  4.907079E+04 -2.135044E+02 -2.430596E+03
       339  27  7.262130E+04  4.050485E+04  6.125939E+03  4.825692E+04  7.079621E+02 -1.562425E+03
       340   1  3.856944E+04  1.623536E+04 -2.778412E+03  3.091933E+04 -4.765095E+02  1.611132E+03
       340   2  3.993204E+04  1.777001E+04 -2.349374E+03  3.188624E+04 -9.309028E+02  1.061178E+03
       340   3  4.199667E+04  1.876928E+04 -1.453474E+03  3.269767E+04 -1.382267E+03  5.072056E+02
       340   4  5.504261E+04  2.790631E+04  1.433384E+03  3.926032E+04 -6.651806E+02  1.469247E+03
       340   5  5.469242E+04  2.817601E+04  1.416706E+03  3.933604E+04 -1.125383E+03  9.149275E+02
       340   6  5.504556E+04  2.791159E+04  1.871942E+03  3.925629E+04 -1.582558E+03  3.565889E+02
       340   7  7.151584E+04  3.957724E+04  5.645070E+03  4.760144E+04 -8.538555E+02  1.327358E+03
       340   8  6.945293E+04  3.858204E+04  5.182728E+03  4.678598E+04 -1.319868E+03  7.686739E+02
       340   9  6.809463E+04  3.705398E+04  5.197341E+03  4.581506E+04 -1.782855E+03  2.059680E+02
       340  10  3.856944E+04  1.623536E+04 -2.778417E+03  3.091933E+04 -4.176151E-10  1.074312E-09
       340  11  3.993204E+04  1.777001E+04 -2.349378E+03  3.188624E+04  2.572819E-09  1.242706E-09
       340  12  4.199667E+04  1.876928E+04 -1.453478E+03  3.269767E+04  1.865720E-09  4.418094E-09
       340  13  5.504261E+04  2.790631E+04  1.433379E+03  3.926032E+04  7.043283E-10 -6.311742E-09
       340  14  5.469242E+04  2.817601E+04  1.416702E+03  3.933604E+04 -9.696876E-11  2.207036E-09
       340  15  5.504556E+04  2.791158E+04  1.871937E+03  3.925629E+04 -4.355279E-09 -1.985394E-09
       340  16  7.151583E+04  3.957724E+04  5.645065E+03  4.760144E+04  1.308911E-09 -2.659451E-09
       340  17  6.945292E+04  3.858204E+04  5.182724E+03  4.678598E+04 -2.682105E-09 -5.455140E-09
       340  18  6.809463E+04  3.705398E+04  5.197335E+03  4.581506E+04 -9.458511E-09 -7.584612E-09
       340  19  3.856944E+04  1.623536E+04 -2.778412E+03  3.091933E+04  4.765095E+02 -1.611132E+03
       340  20  3.993204E+04  1.777001E+04 -2.349374E+03  3.188624E+04  9.309028E+02 -1.061178E+03
       340  21  4.199667E+04  1.876928E+04 -1.453474E+03  3.269767E+04  1.382267E+03 -5.072056E+02
       340  22  5.504261E+04  2.790631E+04  1.433384E+03  3.926032E+04  6.651806E+02 -1.469247E+03
       340  23  5.469242E+04  2.817601E+04  1.416706E+03  3.933604E+04  1.125383E+03 -9.149275E+02
       340  24  5.504556E+04  2.791159E+04  1.871942E+03  3.925629E+04  1.582558E+03 -3.565889E+02
       340  25  7.151584E+04  3.957724E+04  5.645070E+03  4.760144E+04  8.538555E+02 -1.327358E+03
       340  26  6.945293E+04  3.858204E+04  5.182728E+03  4.678598E+04  1.319868E+03 -7.686739E+02
       340  27  6.809463E+04  3.705398E+04  5.197341E+03  4.581506E+04  1.782855E+03 -2.059680E+02
       341   1  4.306337E+04  1.974733E+04 -7.170377E+02  3.339708E+04 -1.617776E+03  2.040909E+02
       341   2  4.467969E+04  2.101566E+04  1.171745E+03  3.411231E+04 -2.996498E+03 -1.053335E+03
       341   3  4.750922E+04  2.238186E+04  4.483692E+03  3.445844E+04 -4.370627E+03 -2.316935E+03
       341   4  5.507733E+04  2.790757E+04  2.295651E+03  3.931773E+04 -1.816355E+03  5.476305E+01
       341   5  5.467460E+04  2.821987E+04  3.748188E+03  3.922993E+04 -3.203976E+03 -1.209355E+03
       341   6  5.548697E+04  2.863198E+04  6.631605E+03  3.877302E+04 -4.586978E+03 -2.479627E+03
       341   7  6.709164E+04  3.606801E+04  5.308390E+03  4.523861E+04 -2.014942E+03 -9.457066E+01
       341   8  6.466964E+04  3.542414E+04  6.324624E+03  4.434764E+04 -3.411459E+03 -1.365379E+03
       341   9  6.346467E+04  3.488205E+04  8.779470E+03  4.308760E+04 -4.803328E+03 -2.642320E+03
       341  10  4.306337E+04  1.974733E+04 -7.170427E+02  3.339708E+04 -8.837908E-09 -2.964597E-09
       341  11  4.467968E+04  2.101566E+04  1.171726E+03  3.411231E+04 -2.616501E-09  2.776976E-09
       341  12  4.750920E+04  2.238185E+04  4.483646E+03  3.445843E+04  2.035731E-09  2.290784E-09
       341  13  5.507733E+04  2.790757E+04  2.295645E+03  3.931773E+04 -3.576110E-09 -1.781041E-09
       341  14  5.467459E+04  2.821987E+04  3.748166E+03  3.922992E+04 -3.520875E-10 -1.160893E-10
       341  15  5.548694E+04  2.863197E+04  6.631554E+03  3.877301E+04 -1.517435E-11  4.285978E-10
       341  16  6.709164E+04  3.606801E+04  5.308383E+03  4.523861E+04  7.688975E-10  5.054167E-10
       341  17  6.466962E+04  3.542414E+04  6.324599E+03  4.434764E+04  1.361361E-09  8.140764E-10
       341  18  6.346464E+04  3.488204E+04  8.779414E+03  4.308759E+04 -9.918332E-10 -6.396728E-10
       341  19  4.306337E+04  1.974733E+04 -7.170377E+02  3.339708E+04  1.617776E+03 -2.040909E+02
       341  20  4.467969E+04  2.101566E+04  1.171745E+03  3.411231E+04  2.996498E+03  1.053335E+03
       341  21  4.750922E+04  2.238186E+04  4.483692E+03  3.445844E+04  4.370627E+03  2.316935E+03
       341  22  5.507733E+04  2.790757E+04  2.295651E+03  3.931773E+04  1.816355E+03 -5.476305E+01
       341  23  5.467460E+04  2.821987E+04  3.748188E+03  3.922993E+04  3.203976E+03  1.209355E+03
       341  24  5.548697E+04  2.863198E+04  6.631605E+03  3.877302E+04  4.586978E+03  2.479627E+03
       341  25  6.709164E+04  3.606801E+04  5.308390E+03  4.523861E+04  2.014942E+03  9.457066E+01
       341  26  6.466964E+04  3.542414E+04  6.324624E+03  4.434764E+04  3.411459E+03  1.365379E+03
       341  27  6.346467E+04  3.488205E+04  8.779470E+03  4.308760E+04  4.803328E+03  2.642320E+03
       342   1  4.623825E+04  2.576285E+04  6.735213E+03  3.696862E+04 -5.232521E+03 -3.092176E+03
       342   2  5.670256E+04  1.987628E+04  1.386596E+04  3.169798E+04 -1.133694E+04 -7.966191E+03
       342   3  7.843920E+04  2.774008E+04  3.088116E+04  1.981794E+04 -1.737920E+04 -1.292295E+04
       342   4  5.585631E+04  2.836182E+04  8.572419E+03  3.987490E+04 -5.434175E+03 -3.243781E+03
       342   5  5.531323E+04  3.050374E+04  1.531176E+04  3.638885E+04 -1.165789E+04 -8.207728E+03
       342   6  6.606801E+04  4.642185E+04  3.203919E+04  2.629347E+04 -1.781933E+04 -1.325464E+04
       342   7  6.547450E+04  3.096079E+04  1.040963E+04  4.278121E+04 -5.635833E+03 -3.395386E+03
       342   8  5.392398E+04  4.113155E+04  1.675760E+04  4.107977E+04 -1.197884E+04 -8.449278E+03
       342   9  5.369728E+04  6.510494E+04  3.319740E+04  3.276894E+04 -1.825945E+04 -1.358636E+04
       342  10  4.623822E+04  2.576283E+04  6.735144E+03  3.696861E+04 -8.603943E-10  8.185683E-11
       342  11  5.670241E+04  1.987618E+04  1.386560E+04  3.169791E+04 -7.286571E-10 -1.652704E-09
       342  12  7.843883E+04  2.773982E+04  3.088028E+04  1.981776E+04 -2.822794E-11  5.551059E-10
       342  13  5.585628E+04  2.836180E+04  8.572344E+03  3.987489E+04  3.802760E-10  1.186004E-10
       342  14  5.531307E+04  3.050363E+04  1.531138E+04  3.638877E+04  1.355197E-10 -5.023947E-09
       342  15  6.606762E+04  4.642158E+04  3.203827E+04  2.629328E+04 -3.601459E-10  1.091801E-10
       342  16  6.547446E+04  3.096077E+04  1.040955E+04  4.278119E+04  9.626998E-10 -9.424106E-10
       342  17  5.392380E+04  4.113144E+04  1.675719E+04  4.107969E+04  1.135161E-09  3.276698E-09
       342  18  5.369687E+04  6.510465E+04  3.319642E+04  3.276874E+04 -3.823847E-10  3.905867E-10
       342  19  4.623825E+04  2.576285E+04  6.735213E+03  3.696862E+04  5.232521E+03  3.092176E+03
       342  20  5.670256E+04  1.987628E+04  1.386596E+04  3.169798E+04  1.133694E+04  7.966191E+03
       342  21  7.843920E+04  2.774008E+04  3.088116E+04  1.981794E+04  1.737920E+04  1.292295E+04
       342  22  5.585631E+04  2.836182E+04  8.572419E+03  3.987490E+04  5.434175E+03  3.243781E+03
       342  23  5.531323E+04  3.050374E+04  1.531176E+04  3.638885E+04  1.165789E+04  8.207728E+03
       342  24  6.606801E+04  4.642185E+04  3.203919E+04  2.629347E+04  1.781933E+04  1.325464E+04
       342  25  6.547450E+04  3.096079E+04  1.040963E+04  4.278121E+04  5.635833E+03  3.395386E+03
       342  26  5.392398E+04  4.113155E+04  1.675760E+04  4.107977E+04  1.197884E+04  8.449278E+03
       342  27  5.369728E+04  6.510494E+04  3.319740E+04  3.276894E+04  1.825945E+04  1.358636E+04
       343   1 -4.115104E+04 -2.823951E+05 -4.303139E+04  2.722619E+04 -1.031538E+03 -1.968737E+04
       343   2 -1.975793E+04 -2.629085E+05 -2.537456E+04  1.830526E+04 -3.226427E+03 -1.064599E+04
       343   3 -1.239831E+04 -2.480938E+05 -1.711324E+04  1.377426E+04 -3.182236E+03 -1.601306E+03
       343   4 -1.977192E+04 -1.962585E+05 -2.247392E+04  1.542435E+04 -1.037149E+03 -1.493336E+04
       343   5 -3.168324E+03 -1.942011E+05 -1.122715E+04  1.324159E+04 -3.228224E+03 -9.114612E+03
       343   6 -3.784769E+01 -1.962559E+05 -7.136679E+03  1.544906E+04 -3.180136E+03 -3.292899E+03
       343   7  1.607195E+03 -1.101147E+05 -1.916807E+03  3.620862E+03 -1.042939E+03 -1.017869E+04
       343   8  1.342108E+04 -1.254892E+05  2.920023E+03  8.177358E+03 -3.230045E+03 -7.583070E+03
       343   9  1.232247E+04 -1.444154E+05  2.839770E+03  1.712401E+04 -3.178045E+03 -4.984631E+03
       343  10 -4.115115E+04 -2.823955E+05 -4.303212E+04  2.722617E+04  3.247000E-10 -8.652645E-10
       343  11 -1.975797E+04 -2.629086E+05 -2.537479E+04  1.830523E+04  2.496104E-11 -5.465621E-09
       343  12 -1.239832E+04 -2.480938E+05 -1.711326E+04  1.377425E+04 -1.806650E-10  2.692503E-09
       343  13 -1.977198E+04 -1.962587E+05 -2.247434E+04  1.542433E+04  5.236109E-10 -1.686705E-09
       343  14 -3.168357E+03 -1.942012E+05 -1.122733E+04  1.324157E+04  1.516785E-10 -5.445294E-11
       343  15 -3.786147E+01 -1.962559E+05 -7.136719E+03  1.544905E+04 -3.659039E-11 -6.956196E-09
       343  16  1.607166E+03 -1.101148E+05 -1.917004E+03  3.620853E+03  8.681541E-11 -2.111541E-10
       343  17  1.342105E+04 -1.254892E+05  2.919896E+03  8.177338E+03  1.205578E-09  4.092701E-09
       343  18  1.232245E+04 -1.444154E+05  2.839704E+03  1.712400E+04 -1.197742E-11  2.177161E-09
       343  19 -4.115104E+04 -2.823951E+05 -4.303139E+04  2.722619E+04  1.031538E+03  1.968737E+04
       343  20 -1.975793E+04 -2.629085E+05 -2.537456E+04  1.830526E+04  3.226427E+03  1.064599E+04
       343  21 -1.239831E+04 -2.480938E+05 -1.711324E+04  1.377426E+04  3.182236E+03  1.601306E+03
       343  22 -1.977192E+04 -1.962585E+05 -2.247392E+04  1.542435E+04  1.037149E+03  1.493336E+04
       343  23 -3.168324E+03 -1.942011E+05 -1.122715E+04  1.324159E+04  3.228224E+03  9.114612E+03
       343  24 -3.784769E+01 -1.962559E+05 -7.136679E+03  1.544906E+04  3.180136E+03  3.292899E+03
       343  25  1.607195E+03 -1.101147E+05 -1.916807E+03  3.620862E+03  1.042939E+03  1.017869E+04
       343  26  1.342108E+04 -1.254892E+05  2.920023E+03  8.177358E+03  3.230045E+03  7.583070E+03
       343  27  1.232247E+04 -1.444154E+05  2.839770E+03  1.712401E+04  3.178045E+03  4.984631E+03
       344   1 -1.032952E+04 -2.356134E+05 -1.390376E+04  1.595746E+04 -2.485420E+03 -9.525285E+02
       344   2 -5.628459E+03 -2.181144E+05 -9.756155E+03  1.322311E+04 -1.540519E+03  1.885878E+03
       344   3 -2.269069E+03 -2.013058E+05 -7.788752E+03  1.502047E+04 -5.154552E+02  4.724438E+03
       344   4 -7.612870E+02 -1.954911E+05 -6.201562E+03  1.547618E+04 -2.483803E+03 -2.260192E+03
       344   5 -1.758269E+02 -1.951556E+05 -5.457174E+03  1.321023E+04 -1.538775E+03  4.629106E+02
       344   6 -9.119688E+02 -1.954909E+05 -6.812832E+03  1.547599E+04 -5.135813E+02  3.186092E+03
       344   7  8.806854E+03 -1.553672E+05  1.500573E+03  1.499486E+04 -2.482185E+03 -3.567939E+03
       344   8  5.276776E+03 -1.721964E+05 -1.158209E+03  1.319734E+04 -1.537031E+03 -9.601079E+02
       344   9  4.451321E+02 -1.896759E+05 -5.836904E+03  1.593151E+04 -5.117096E+02  1.647733E+03
       344  10 -1.032953E+04 -2.356134E+05 -1.390378E+04  1.595746E+04 -8.926103E-10  1.677917E-09
       344  11 -5.628462E+03 -2.181144E+05 -9.756166E+03  1.322312E+04 -4.515145E-10 -6.101278E-09
       344  12 -2.269076E+03 -2.013059E+05 -7.788794E+03  1.502047E+04 -4.802848E-10  2.944726E-09
       344  13 -7.612949E+02 -1.954911E+05 -6.201584E+03  1.547617E+04 -4.371550E-10 -1.620487E-09
       344  14 -1.758295E+02 -1.951556E+05 -5.457179E+03  1.321023E+04 -1.830680E-09 -2.746880E-09
       344  15 -9.119718E+02 -1.954909E+05 -6.812851E+03  1.547599E+04 -1.067510E-09 -6.745907E-09
       344  16  8.806844E+03 -1.553672E+05  1.500537E+03  1.499485E+04 -3.707531E-10 -6.209004E-10
       344  17  5.276773E+03 -1.721964E+05 -1.158215E+03  1.319734E+04  2.709151E-10  3.992945E-09
       344  18  4.451311E+02 -1.896759E+05 -5.836909E+03  1.593151E+04 -7.802645E-10  2.833956E-09
       344  19 -1.032952E+04 -2.356134E+05 -1.390376E+04  1.595746E+04  2.485420E+03  9.525285E+02
       344  20 -5.628459E+03 -2.181144E+05 -9.756155E+03  1.322311E+04  1.540519E+03 -1.885878E+03
       344  21 -2.269069E+03 -2.013058E+05 -7.788752E+03  1.502047E+04  5.154552E+02 -4.724438E+03
       344  22 -7.612870E+02 -1.954911E+05 -6.201562E+03  1.547618E+04  2.483803E+03  2.260192E+03
       344  23 -1.758269E+02 -1.951556E+05 -5.457174E+03  1.321023E+04  1.538775E+03 -4.629106E+02
       344  24 -9.119688E+02 -1.954909E+05 -6.812832E+03  1.547599E+04  5.135813E+02 -3.186092E+03
       344  25  8.806854E+03 -1.553672E+05  1.500573E+03  1.499486E+04  2.482185E+03  3.567939E+03
       344  26  5.276776E+03 -1.721964E+05 -1.158209E+03  1.319734E+04  1.537031E+03  9.601079E+02
       344  27  4.451321E+02 -1.896759E+05 -5.836904E+03  1.593151E+04  5.117096E+02 -1.647733E+03
       345   1  1.388154E+03 -1.905680E+05 -6.803522E+03  1.754050E+04  1.898483E+02  6.038004E+03
       345   2  1.806841E+03 -1.711197E+05 -8.241779E+03  7.262300E+03  8.147085E+02  1.128069E+04
       345   3 -1.354491E+04 -1.562827E+05 -1.703315E+04  1.445295E+03  3.278732E+02  1.652206E+04
       345   4 -3.389746E+01 -1.964282E+05 -8.082777E+03  1.546547E+04  1.919060E+02  4.328769E+03
       345   5 -3.773474E+03 -1.939846E+05 -1.318608E+04  1.322036E+04  8.149521E+02  1.117155E+04
       345   6 -2.356189E+04 -1.964306E+05 -2.675414E+04  1.543650E+04  3.264194E+02  1.801285E+04
       345   7 -1.455933E+03 -2.022883E+05 -9.362020E+03  1.339047E+04  1.939751E+02  2.619551E+03
       345   8 -9.353690E+03 -2.168489E+05 -1.813039E+04  1.917820E+04  8.151935E+02  1.106242E+04
       345   9 -3.357825E+04 -2.365767E+05 -3.647513E+04  2.942680E+04  3.250328E+02  1.950354E+04
       345  10  1.388144E+03 -1.905681E+05 -6.803590E+03  1.754050E+04 -4.118461E-11 -2.309183E-08
       345  11  1.806806E+03 -1.711199E+05 -8.242020E+03  7.262293E+03  1.777720E-09 -6.269940E-09
       345  12 -1.354498E+04 -1.562830E+05 -1.703366E+04  1.445291E+03  7.284142E-10  2.517627E-08
       345  13 -3.390253E+01 -1.964282E+05 -8.082812E+03  1.546547E+04 -1.364125E-10 -2.667871E-09
       345  14 -3.773508E+03 -1.939847E+05 -1.318631E+04  1.322035E+04  7.521082E-10 -1.624176E-09
       345  15 -2.356198E+04 -1.964310E+05 -2.675475E+04  1.543650E+04  6.426389E-10 -5.586041E-09
       345  16 -1.455935E+03 -2.022883E+05 -9.362033E+03  1.339047E+04 -5.423980E-10  2.308168E-08
       345  17 -9.353724E+03 -2.168490E+05 -1.813062E+04  1.917819E+04  8.049730E-10  3.317211E-09
       345  18 -3.357836E+04 -2.365771E+05 -3.647585E+04  2.942679E+04 -2.125894E-10 -2.176839E-08
       345  19  1.388154E+03 -1.905680E+05 -6.803522E+03  1.754050E+04 -1.898483E+02 -6.038004E+03
       345  20  1.806841E+03 -1.711197E+05 -8.241779E+03  7.262300E+03 -8.147085E+02 -1.128069E+04
       345  21 -1.354491E+04 -1.562827E+05 -1.703315E+04  1.445295E+03 -3.278732E+02 -1.652206E+04
       345  22 -3.389746E+01 -1.964282E+05 -8.082777E+03  1.546547E+04 -1.919060E+02 -4.328769E+03
       345  23 -3.773474E+03 -1.939846E+05 -1.318608E+04  1.322036E+04 -8.149521E+02 -1.117155E+04
       345  24 -2.356189E+04 -1.964306E+05 -2.675414E+04  1.543650E+04 -3.264194E+02 -1.801285E+04
       345  25 -1.455933E+03 -2.022883E+05 -9.362020E+03  1.339047E+04 -1.939751E+02 -2.619551E+03
       345  26 -9.353690E+03 -2.168489E+05 -1.813039E+04  1.917820E+04 -8.151935E+02 -1.106242E+04
       345  27 -3.357825E+04 -2.365767E+05 -3.647513E+04  2.942680E+04 -3.250328E+02 -1.950354E+04
       346   1  1.685582E+05  7.840511E+04  7.403572E+04  4.220912E+04  1.474748E+04 -4.515851E+03
       346   2  1.154322E+05  6.939520E+04  5.571467E+04  3.807891E+04  4.112423E+03 -1.426281E+04
       346   3  6.300348E+04  5.752232E+04  4.360302E+04  4.734687E+04 -6.517365E+03 -1.511008E+04
       346   4 -1.785296E+05 -7.525429E+03 -8.509179E+03  4.675301E+04 -5.704154E+03 -4.507406E+03
       346   5 -1.777592E+05 -1.232140E+03 -4.215445E+03  4.005509E+04 -3.520826E+03 -1.426059E+04
       346   6 -1.785191E+05 -2.771642E+01 -2.613588E+03  4.675576E+04 -1.332960E+03 -1.511207E+04
       346   7 -5.255058E+05 -9.346435E+04 -9.106093E+04  5.129436E+04 -2.614442E+04 -4.499257E+03
       346   8 -4.708688E+05 -7.186483E+04 -6.414988E+04  4.203032E+04 -1.115054E+04 -1.425841E+04
       346   9 -4.199855E+05 -5.758118E+04 -4.883275E+04  4.616489E+04  3.849476E+03 -1.511408E+04
       346  10  1.685579E+05  7.840503E+04  7.403528E+04  4.220918E+04  1.791076E-10  1.398815E-11
       346  11  1.154321E+05  6.939498E+04  5.571425E+04  3.807896E+04  1.440605E-10  4.489796E-11
       346  12  6.300338E+04  5.752206E+04  4.360251E+04  4.734679E+04  8.048617E-11  9.358366E-11
       346  13 -1.785296E+05 -7.525460E+03 -8.509279E+03  4.675299E+04 -1.370409E-10 -9.459536E-12
       346  14 -1.777593E+05 -1.232362E+03 -4.215850E+03  4.005505E+04  4.359377E-10 -5.507739E-12
       346  15 -1.785192E+05 -2.796211E+01 -2.614021E+03  4.675574E+04 -4.609446E-11  1.760410E-11
       346  16 -5.255065E+05 -9.346455E+04 -9.106225E+04  5.129426E+04 -2.650631E-11 -4.691422E-11
       346  17 -4.708690E+05 -7.186508E+04 -6.415050E+04  4.203019E+04 -1.511155E-11 -9.977265E-11
       346  18 -4.199855E+05 -5.758143E+04 -4.883321E+04  4.616493E+04  2.088609E-10 -3.845579E-11
       346  19  1.685582E+05  7.840511E+04  7.403572E+04  4.220912E+04 -1.474748E+04  4.515851E+03
       346  20  1.154322E+05  6.939520E+04  5.571467E+04  3.807891E+04 -4.112423E+03  1.426281E+04
       346  21  6.300348E+04  5.752232E+04  4.360302E+04  4.734687E+04  6.517365E+03  1.511008E+04
       346  22 -1.785296E+05 -7.525429E+03 -8.509179E+03  4.675301E+04  5.704154E+03  4.507406E+03
       346  23 -1.777592E+05 -1.232140E+03 -4.215445E+03  4.005509E+04  3.520826E+03  1.426059E+04
       346  24 -1.785191E+05 -2.771642E+01 -2.613588E+03  4.675576E+04  1.332960E+03  1.511207E+04
       346  25 -5.255058E+05 -9.346435E+04 -9.106093E+04  5.129436E+04  2.614442E+04  4.499257E+03
       346  26 -4.708688E+05 -7.186483E+04 -6.414988E+04  4.203032E+04  1.115054E+04  1.425841E+04
       346  27 -4.199855E+05 -5.758118E+04 -4.883275E+04  4.616489E+04 -3.849476E+03  1.511408E+04
       347   1  2.723706E+04  4.862152E+04  3.696614E+04  4.669292E+04 -4.567490E+03 -1.298284E+04
       347   2 -2.548245E+04  3.622955E+04  2.678440E+04  3.979798E+04 -4.529597E+03 -1.017096E+04
       347   3 -7.821961E+04  2.371658E+04  1.655130E+04  4.683758E+04 -4.491928E+03 -6.748084E+03
       347   4 -1.782144E+05 -3.109242E+02 -2.228298E+03  4.687436E+04 -9.579595E+02 -1.298415E+04
       347   5 -1.781253E+05 -2.812720E+01 -1.844294E+03  3.990702E+04 -4.059439E+01 -1.017223E+04
       347   6 -1.782092E+05 -1.893599E+01 -2.122538E+03  4.687444E+04  8.765498E+02 -6.749241E+03
       347   7 -3.836252E+05 -4.924584E+04 -4.142460E+04  4.705575E+04  2.650405E+03 -1.298545E+04
       347   8 -3.307455E+05 -3.628714E+04 -3.047392E+04  4.001603E+04  4.447332E+03 -1.017350E+04
       347   9 -2.781890E+05 -2.375501E+04 -2.079670E+04  4.691129E+04  6.244184E+03 -6.750398E+03
       347  10  2.723700E+04  4.862133E+04  3.696579E+04  4.669287E+04  2.379782E-10  4.882110E-11
       347  11 -2.548250E+04  3.622943E+04  2.678417E+04  3.979794E+04  1.666769E-10 -5.137134E-11
       347  12 -7.821964E+04  2.371652E+04  1.655118E+04  4.683755E+04 -6.722255E-11 -1.103137E-10
       347  13 -1.782145E+05 -3.111055E+02 -2.228617E+03  4.687435E+04  8.238877E-11  5.319795E-11
       347  14 -1.781253E+05 -2.823830E+01 -1.844488E+03  3.990702E+04  3.116896E-10  5.023036E-11
       347  15 -1.782092E+05 -1.898511E+01 -2.122625E+03  4.687444E+04 -3.718961E-11 -7.085898E-11
       347  16 -3.836253E+05 -4.924603E+04 -4.142493E+04  4.705577E+04 -8.922203E-12  3.412266E-11
       347  17 -3.307456E+05 -3.628726E+04 -3.047416E+04  4.001607E+04  6.913038E-11  1.044484E-10
       347  18 -2.781891E+05 -2.375507E+04 -2.079686E+04  4.691132E+04  4.674491E-11 -1.150888E-11
       347  19  2.723706E+04  4.862152E+04  3.696614E+04  4.669292E+04  4.567490E+03  1.298284E+04
       347  20 -2.548245E+04  3.622955E+04  2.678440E+04  3.979798E+04  4.529597E+03  1.017096E+04
       347  21 -7.821961E+04  2.371658E+04  1.655130E+04  4.683758E+04  4.491928E+03  6.748084E+03
       347  22 -1.782144E+05 -3.109242E+02 -2.228298E+03  4.687436E+04  9.579595E+02  1.298415E+04
       347  23 -1.781253E+05 -2.812720E+01 -1.844294E+03  3.990702E+04  4.059439E+01  1.017223E+04
       347  24 -1.782092E+05 -1.893599E+01 -2.122538E+03  4.687444E+04 -8.765498E+02  6.749241E+03
       347  25 -3.836252E+05 -4.924584E+04 -4.142460E+04  4.705575E+04 -2.650405E+03  1.298545E+04
       347  26 -3.307455E+05 -3.628714E+04 -3.047392E+04  4.001603E+04 -4.447332E+03  1.017350E+04
       347  27 -2.781890E+05 -2.375501E+04 -2.079670E+04  4.691129E+04 -6.244184E+03  6.750398E+03
       348   1 -1.140265E+05  1.523210E+04  9.304346E+03  4.666244E+04 -4.034618E+03 -4.549701E+03
       348   2 -1.664897E+05  2.594259E+03 -1.937388E+03  3.998490E+04 -1.662122E+03 -1.008492E+03
       348   3 -2.194880E+05 -1.100093E+04 -1.496089E+04  4.726147E+04  7.100127E+02  2.228995E+03
       348   4 -1.782723E+05  2.111630E+01 -2.493766E+03  4.687878E+04  1.283228E+03 -4.550744E+03
       348   5 -1.780410E+05 -1.049426E+02 -3.880010E+03  3.990160E+04  3.218175E+03 -1.009427E+03
       348   6 -1.782722E+05 -1.112422E+03 -6.744289E+03  4.687856E+04  5.152959E+03  2.228168E+03
       348   7 -2.425141E+05 -1.519009E+04 -1.429194E+04  4.709510E+04  6.600538E+03 -4.551783E+03
       348   8 -1.895922E+05 -2.804138E+03 -5.822546E+03  3.981830E+04  8.098384E+03 -1.010364E+03
       348   9 -1.370547E+05  8.775995E+03  1.472303E+03  4.649563E+04  9.596195E+03  2.227336E+03
       348  10 -1.140265E+05  1.523208E+04  9.304276E+03  4.666243E+04 -1.333005E-10  3.634175E-11
       348  11 -1.664897E+05  2.594257E+03 -1.937395E+03  3.998490E+04  4.822111E-11  1.057324E-10
       348  12 -2.194880E+05 -1.100094E+04 -1.496090E+04  4.726147E+04  9.010238E-11  9.039362E-11
       348  13 -1.782723E+05  2.109362E+01 -2.493808E+03  4.687879E+04 -1.526366E-10 -4.890740E-11
       348  14 -1.780410E+05 -1.049465E+02 -3.880031E+03  3.990161E+04  2.121004E-10  1.568904E-11
       348  15 -1.782722E+05 -1.112434E+03 -6.744348E+03  4.687855E+04 -7.654002E-11  7.590766E-11
       348  16 -2.425142E+05 -1.519012E+04 -1.429206E+04  4.709513E+04  9.842655E-11 -7.970490E-11
       348  17 -1.895922E+05 -2.804157E+03 -5.822671E+03  3.981831E+04  4.373311E-11 -2.824397E-11
       348  18 -1.370548E+05  8.775965E+03  1.472121E+03  4.649562E+04 -5.988455E-11  3.962424E-11
       348  19 -1.140265E+05  1.523210E+04  9.304346E+03  4.666244E+04  4.034618E+03  4.549701E+03
       348  20 -1.664897E+05  2.594259E+03 -1.937388E+03  3.998490E+04  1.662122E+03  1.008492E+03
       348  21 -2.194880E+05 -1.100093E+04 -1.496089E+04  4.726147E+04 -7.100127E+02 -2.228995E+03
       348  22 -1.782723E+05  2.111630E+01 -2.493766E+03  4.687878E+04 -1.283228E+03  4.550744E+03
       348  23 -1.780410E+05 -1.049426E+02 -3.880010E+03  3.990160E+04 -3.218175E+03  1.009427E+03
       348  24 -1.782722E+05 -1.112422E+03 -6.744289E+03  4.687856E+04 -5.152959E+03 -2.228168E+03
       348  25 -2.425141E+05 -1.519009E+04 -1.429194E+04  4.709510E+04 -6.600538E+03  4.551783E+03
       348  26 -1.895922E+05 -2.804138E+03 -5.822546E+03  3.981830E+04 -8.098384E+03  1.010364E+03
       348  27 -1.370547E+05  8.775995E+03  1.472303E+03  4.649563E+04 -9.596195E+03 -2.227336E+03
       349   1 -2.566024E+05 -1.846707E+04 -2.385427E+04  4.424267E+04  1.004872E+03  4.392953E+03
       349   2 -3.058049E+05 -3.584155E+04 -4.251214E+04  4.714246E+04  1.608002E+04  5.628306E+03
       349   3 -3.621157E+05 -7.384870E+04 -7.614362E+04  6.370004E+04  3.115247E+04  1.973967E+03
       349   4 -1.794780E+05 -6.213318E+00 -8.687124E+03  4.681426E+04  6.307693E+03  4.391901E+03
       349   5 -1.765384E+05 -4.567732E+03 -1.546512E+04  3.998157E+04  1.434515E+04  5.628419E+03
       349   6 -1.794848E+05 -2.853716E+04 -3.232617E+04  4.680724E+04  2.238116E+04  1.975236E+03
       349   7 -1.023478E+05  1.845432E+04  6.479844E+03  4.938618E+04  1.161116E+04  4.390894E+03
       349   8 -4.725596E+04  2.670521E+04  1.158100E+04  3.281916E+04  1.260992E+04  5.628572E+03
       349   9  3.177507E+03  1.677306E+04  1.148935E+04  2.990944E+04  1.360728E+04  1.976983E+03
       349  10 -2.566024E+05 -1.846709E+04 -2.385431E+04  4.424267E+04  1.692302E-10  8.810082E-12
       349  11 -3.058052E+05 -3.584165E+04 -4.251268E+04  4.714239E+04 -1.341061E-10 -1.251285E-10
       349  12 -3.621168E+05 -7.384897E+04 -7.614545E+04  6.369999E+04 -7.718773E-11 -5.135305E-11
       349  13 -1.794780E+05 -6.244711E+00 -8.687235E+03  4.681424E+04  1.182896E-10  5.895833E-11
       349  14 -1.765386E+05 -4.567821E+03 -1.546557E+04  3.998150E+04  3.697408E-10  4.779861E-11
       349  15 -1.794853E+05 -2.853730E+04 -3.232712E+04  4.680720E+04 -9.720026E-11  4.264931E-11
       349  16 -1.023479E+05  1.845427E+04  6.479555E+03  4.938613E+04  6.704928E-11  1.468996E-10
       349  17 -4.725614E+04  2.670513E+04  1.158064E+04  3.281910E+04  2.034129E-10  1.490230E-10
       349  18  3.177307E+03  1.677301E+04  1.148900E+04  2.990942E+04  7.868520E-11  7.483750E-11
       349  19 -2.566024E+05 -1.846707E+04 -2.385427E+04  4.424267E+04 -1.004872E+03 -4.392953E+03
       349  20 -3.058049E+05 -3.584155E+04 -4.251214E+04  4.714246E+04 -1.608002E+04 -5.628306E+03
       349  21 -3.621157E+05 -7.384870E+04 -7.614362E+04  6.370004E+04 -3.115247E+04 -1.973967E+03
       349  22 -1.794780E+05 -6.213318E+00 -8.687124E+03  4.681426E+04 -6.307693E+03 -4.391901E+03
       349  23 -1.765384E+05 -4.567732E+03 -1.546512E+04  3.998157E+04 -1.434515E+04 -5.628419E+03
       349  24 -1.794848E+05 -2.853716E+04 -3.232617E+04  4.680724E+04 -2.238116E+04 -1.975236E+03
       349  25 -1.023478E+05  1.845432E+04  6.479844E+03  4.938618E+04 -1.161116E+04 -4.390894E+03
       349  26 -4.725596E+04  2.670521E+04  1.158100E+04  3.281916E+04 -1.260992E+04 -5.628572E+03
       349  27  3.177507E+03  1.677306E+04  1.148935E+04  2.990944E+04 -1.360728E+04 -1.976983E+03
       350   1 -1.358414E+05 -7.338620E+05 -1.369740E+05  1.178298E+05 -4.607859E+03 -4.813686E+04
       350   2 -7.744687E+04 -6.183310E+05 -7.984114E+04  9.186803E+04 -1.328600E+04 -2.326353E+04
       350   3 -4.498987E+04 -5.125449E+05 -4.540436E+04  9.452580E+04 -1.108831E+04  1.609004E+03
       350   4 -3.413828E+04 -3.237388E+05 -3.867415E+04  9.787832E+04 -4.591925E+03 -2.781056E+04
       350   5 -5.378912E+03 -3.202086E+05 -1.771151E+04  8.355573E+04 -1.328168E+04 -1.857879E+04
       350   6  1.681201E+02 -3.237122E+05 -8.568595E+03  9.785416E+04 -1.109705E+04 -9.352766E+03
       350   7  6.755432E+04  8.654041E+04  5.961557E+04  7.791359E+04 -4.577305E+03 -7.470880E+03
       350   8  6.668365E+04 -2.200176E+04  4.441334E+04  7.523935E+04 -1.327749E+04 -1.389183E+04
       350   9  4.532407E+04 -1.348450E+05  2.826593E+04  1.011836E+05 -1.110591E+04 -2.031780E+04
       350  10 -1.358420E+05 -7.338645E+05 -1.369784E+05  1.178296E+05  2.378515E-11  2.829715E-10
       350  11 -7.744721E+04 -6.183317E+05 -7.984249E+04  9.186778E+04  2.248748E-10 -3.814895E-11
       350  12 -4.499000E+04 -5.125449E+05 -4.540460E+04  9.452581E+04 -4.048543E-10 -3.304140E-10
       350  13 -3.413851E+04 -3.237396E+05 -3.867564E+04  9.787822E+04 -4.411195E-10  2.762209E-11
       350  14 -5.379194E+03 -3.202090E+05 -1.771249E+04  8.355553E+04  9.197552E-10 -1.058641E-10
       350  15  1.679644E+02 -3.237123E+05 -8.568991E+03  9.785408E+04  5.589082E-12 -2.015474E-11
       350  16  6.755428E+04  8.654034E+04  5.961542E+04  7.791356E+04  2.759258E-11 -2.701954E-10
       350  17  6.668341E+04 -2.200202E+04  4.441265E+04  7.523920E+04  2.400871E-10 -2.984229E-12
       350  18  4.532383E+04 -1.348455E+05  2.826492E+04  1.011834E+05  1.320270E-10  3.758261E-10
       350  19 -1.358414E+05 -7.338620E+05 -1.369740E+05  1.178298E+05  4.607859E+03  4.813686E+04
       350  20 -7.744687E+04 -6.183310E+05 -7.984114E+04  9.186803E+04  1.328600E+04  2.326353E+04
       350  21 -4.498987E+04 -5.125449E+05 -4.540436E+04  9.452580E+04  1.108831E+04 -1.609004E+03
       350  22 -3.413828E+04 -3.237388E+05 -3.867415E+04  9.787832E+04  4.591925E+03  2.781056E+04
       350  23 -5.378912E+03 -3.202086E+05 -1.771151E+04  8.355573E+04  1.328168E+04  1.857879E+04
       350  24  1.681201E+02 -3.237122E+05 -8.568595E+03  9.785416E+04  1.109705E+04  9.352766E+03
       350  25  6.755432E+04  8.654041E+04  5.961557E+04  7.791359E+04  4.577305E+03  7.470880E+03
       350  26  6.668365E+04 -2.200176E+04  4.441334E+04  7.523935E+04  1.327749E+04  1.389183E+04
       350  27  4.532407E+04 -1.348450E+05  2.826593E+04  1.011836E+05  1.110591E+04  2.031780E+04
       351   1 -2.837042E+04 -4.356311E+05 -2.778374E+04  9.808808E+04 -6.560933E+03  8.007841E+02
       351   2 -5.578987E+02 -3.250075E+05 -5.979247E+02  8.353347E+04 -1.921228E+02  8.399013E+02
       351   3  2.727663E+04 -2.144198E+05  2.655374E+04  9.820404E+04  6.186341E+03  8.790034E+02
       351   4 -1.219714E+03 -3.221551E+05 -5.553830E+03  9.799268E+04 -6.568554E+03 -8.359433E+03
       351   5  1.247382E+02 -3.221321E+05 -5.953429E+01  8.337895E+04 -1.997504E+02 -8.334473E+03
       351   6  1.494554E+03 -3.221537E+05  5.411331E+03  9.799040E+04  6.178675E+03 -8.309537E+03
       351   7  2.593027E+04 -2.086666E+05  1.667577E+04  9.789725E+04 -6.576170E+03 -1.752129E+04
       351   8  8.074200E+02 -3.192566E+05  4.791722E+02  8.322444E+04 -2.073734E+02 -1.750889E+04
       351   9 -2.428818E+04 -4.298764E+05 -1.573132E+04  9.777680E+04  6.171015E+03 -1.749652E+04
       351  10 -2.837047E+04 -4.356311E+05 -2.778382E+04  9.808809E+04 -9.483065E-11  3.552398E-10
       351  11 -5.578990E+02 -3.250075E+05 -5.979260E+02  8.353347E+04 -4.961464E-11  2.700928E-10
       351  12  2.727659E+04 -2.144198E+05  2.655367E+04  9.820404E+04  3.604929E-10  1.033943E-10
       351  13 -1.219779E+03 -3.221552E+05 -5.554042E+03  9.799263E+04 -8.449566E-11 -8.362672E-12
       351  14  1.247195E+02 -3.221322E+05 -5.966496E+01  8.337895E+04 -4.002617E-10  1.000325E-10
       351  15  1.494495E+03 -3.221538E+05  5.411129E+03  9.799044E+04 -4.738508E-10  7.669478E-11
       351  16  2.593014E+04 -2.086670E+05  1.667511E+04  9.789715E+04 -8.059934E-11 -3.601301E-10
       351  17  8.073377E+02 -3.192569E+05  4.785958E+02  8.322444E+04  3.793769E-10 -2.035430E-10
       351  18 -2.428830E+04 -4.298767E+05 -1.573197E+04  9.777689E+04  3.114340E-10 -9.750162E-11
       351  19 -2.837042E+04 -4.356311E+05 -2.778374E+04  9.808808E+04  6.560933E+03 -8.007841E+02
       351  20 -5.578987E+02 -3.250075E+05 -5.979247E+02  8.353347E+04  1.921228E+02 -8.399013E+02
       351  21  2.727663E+04 -2.144198E+05  2.655374E+04  9.820404E+04 -6.186341E+03 -8.790034E+02
       351  22 -1.219714E+03 -3.221551E+05 -5.553830E+03  9.799268E+04  6.568554E+03  8.359433E+03
       351  23  1.247382E+02 -3.221321E+05 -5.953429E+01  8.337895E+04  1.997504E+02  8.334473E+03
       351  24  1.494554E+03 -3.221537E+05  5.411331E+03  9.799040E+04 -6.178675E+03  8.309537E+03
       351  25  2.593027E+04 -2.086666E+05  1.667577E+04  9.789725E+04  6.576170E+03  1.752129E+04
       351  26  8.074200E+02 -3.192566E+05  4.791722E+02  8.322444E+04  2.073734E+02  1.750889E+04
       351  27 -2.428818E+04 -4.298764E+05 -1.573132E+04  9.777680E+04 -6.171015E+03  1.749652E+04
       352   1  4.388789E+04 -1.375003E+05  4.414648E+04  9.478914E+04  1.071521E+04  1.674249E+03
       352   2  7.620892E+04 -3.163264E+04  7.840239E+04  9.204889E+04  1.294646E+04 -2.285595E+04
       352   3  1.341866E+05  8.382285E+04  1.350358E+05  1.179242E+05  4.448758E+03 -4.738457E+04
       352   4  1.126681E+02 -3.206153E+05  8.401830E+03  9.785890E+04  1.070643E+04 -9.288428E+03
       352   5  5.500633E+03 -3.240729E+05  1.743001E+04  8.353976E+04  1.295062E+04 -1.836647E+04
       352   6  3.386981E+04 -3.206304E+05  3.810814E+04  9.783501E+04  4.464457E+03 -2.743852E+04
       352   7 -4.366447E+04 -5.036978E+05 -2.734396E+04  1.009277E+05  1.069753E+04 -2.024794E+04
       352   8 -6.521283E+04 -6.164320E+05 -4.354696E+04  7.503468E+04  1.295465E+04 -1.387907E+04
       352   9 -6.645711E+04 -7.249320E+05 -5.882941E+04  7.775892E+04  4.478872E+03 -7.505404E+03
       352  10  4.388777E+04 -1.375003E+05  4.414626E+04  9.478912E+04  2.375584E-11 -2.057949E-10
       352  11  7.620860E+04 -3.163325E+04  7.840109E+04  9.204913E+04 -1.407544E-10 -1.555627E-10
       352  12  1.341859E+05  8.382043E+04  1.350316E+05  1.179244E+05  9.860368E-11  2.243040E-11
       352  13  1.125218E+02 -3.206154E+05  8.401452E+03  9.785898E+04  5.259136E-10 -1.184479E-10
       352  14  5.500363E+03 -3.240733E+05  1.742907E+04  8.353995E+04 -3.654567E-10  4.472786E-11
       352  15  3.386959E+04 -3.206312E+05  3.810669E+04  9.783511E+04  1.156929E-10 -2.124899E-11
       352  16 -4.366471E+04 -5.036983E+05 -2.734495E+04  1.009279E+05 -3.959695E-11  2.937767E-10
       352  17 -6.521307E+04 -6.164323E+05 -4.354764E+04  7.503482E+04 -1.484746E-10  1.893199E-10
       352  18 -6.645715E+04 -7.249321E+05 -5.882956E+04  7.775895E+04  1.571569E-10 -2.337201E-11
       352  19  4.388789E+04 -1.375003E+05  4.414648E+04  9.478914E+04 -1.071521E+04 -1.674249E+03
       352  20  7.620892E+04 -3.163264E+04  7.840239E+04  9.204889E+04 -1.294646E+04  2.285595E+04
       352  21  1.341866E+05  8.382285E+04  1.350358E+05  1.179242E+05 -4.448758E+03  4.738457E+04
       352  22  1.126681E+02 -3.206153E+05  8.401830E+03  9.785890E+04 -1.070643E+04  9.288428E+03
       352  23  5.500633E+03 -3.240729E+05  1.743001E+04  8.353976E+04 -1.295062E+04  1.836647E+04
       352  24  3.386981E+04 -3.206304E+05  3.810814E+04  9.783501E+04 -4.464457E+03  2.743852E+04
       352  25 -4.366447E+04 -5.036978E+05 -2.734396E+04  1.009277E+05 -1.069753E+04  2.024794E+04
       352  26 -6.521283E+04 -6.164320E+05 -4.354696E+04  7.503468E+04 -1.295465E+04  1.387907E+04
       352  27 -6.645711E+04 -7.249320E+05 -5.882941E+04  7.775892E+04 -4.478872E+03  7.505404E+03
       353   1  1.885822E+05  2.067350E+05  9.687779E+04  1.129814E+05  4.211754E+04  2.862910E+04
       353   2  1.786327E+05  1.522897E+05  5.856862E+04  1.219202E+05  2.907699E+04  1.209606E+04
       353   3  1.863187E+05  1.276482E+05  4.246233E+04  1.200200E+05  1.357783E+04 -1.153652E+03
       353   4  9.777339E+04  9.258263E+04  5.800422E+04  4.512155E+04  3.351271E+04  2.217882E+04
       353   5  8.026744E+04  6.180554E+04  2.778677E+04  6.282247E+04  2.520160E+04  9.191303E+03
       353   6  7.937421E+04  5.980850E+04  1.567141E+04  6.968334E+04  1.443166E+04 -5.139668E+02
       353   7  6.976162E+03 -2.154956E+04  1.913033E+04 -2.272278E+04  2.490965E+04  1.573118E+04
       353   8 -1.808597E+04 -2.866723E+04 -2.995794E+03  3.737236E+03  2.132705E+04  6.287429E+03
       353   9 -2.755722E+04 -8.025922E+03 -1.112036E+04  1.935616E+04  1.528529E+04  1.255891E+02
       353  10  1.885801E+05  2.067337E+05  9.687292E+04  1.129804E+05  4.624010E-11  1.203611E-11
       353  11  1.786317E+05  1.522893E+05  5.856676E+04  1.219200E+05  5.009754E-11  1.568491E-12
       353  12  1.863185E+05  1.276481E+05  4.246199E+04  1.200200E+05 -4.025202E-10  4.733557E-11
       353  13  9.777206E+04  9.258180E+04  5.800118E+04  4.512095E+04 -2.673539E-10 -1.957851E-12
       353  14  8.026674E+04  6.180528E+04  2.778542E+04  6.282228E+04  1.140717E-10  1.515698E-11
       353  15  7.937398E+04  5.980844E+04  1.567102E+04  6.968334E+04  4.612040E-12  8.637087E-11
       353  16  6.975429E+03 -2.154999E+04  1.912870E+04 -2.272310E+04 -6.565209E-11 -1.542651E-11
       353  17 -1.808647E+04 -2.866739E+04 -2.996723E+03  3.737128E+03 -2.695975E-10  2.337422E-11
       353  18 -2.755747E+04 -8.025985E+03 -1.112080E+04  1.935616E+04  3.264124E-11  1.451235E-10
       353  19  1.885822E+05  2.067350E+05  9.687779E+04  1.129814E+05 -4.211754E+04 -2.862910E+04
       353  20  1.786327E+05  1.522897E+05  5.856862E+04  1.219202E+05 -2.907699E+04 -1.209606E+04
       353  21  1.863187E+05  1.276482E+05  4.246233E+04  1.200200E+05 -1.357783E+04  1.153652E+03
       353  22  9.777339E+04  9.258263E+04  5.800422E+04  4.512155E+04 -3.351271E+04 -2.217882E+04
       353  23  8.026744E+04  6.180554E+04  2.778677E+04  6.282247E+04 -2.520160E+04 -9.191303E+03
       353  24  7.937421E+04  5.980850E+04  1.567141E+04  6.968334E+04 -1.443166E+04  5.139668E+02
       353  25  6.976162E+03 -2.154956E+04  1.913033E+04 -2.272278E+04 -2.490965E+04 -1.573118E+04
       353  26 -1.808597E+04 -2.866723E+04 -2.995794E+03  3.737236E+03 -2.132705E+04 -6.287429E+03
       353  27 -2.755722E+04 -8.025922E+03 -1.112036E+04  1.935616E+04 -1.528529E+04 -1.255891E+02
       354   1  1.747035E+05  1.292027E+05  3.743153E+04  1.166253E+05  1.221967E+04 -1.614022E+03
       354   2  1.673040E+05  1.199920E+05  2.985241E+04  1.125264E+05  8.794385E+03 -3.702476E+03
       354   3  1.581726E+05  1.150707E+05  2.528014E+04  1.089437E+05  5.193574E+03 -5.556769E+03
       354   4  7.865315E+04  6.035495E+04  1.221594E+04  6.770779E+04  1.249134E+04 -1.410649E+03
       354   5  7.918474E+04  5.758668E+04  7.166317E+03  6.794454E+04  9.403896E+03 -3.245875E+03
       354   6  7.791169E+04  5.903462E+04  4.830859E+03  6.869742E+04  6.140906E+03 -4.846935E+03
       354   7 -1.738820E+04 -8.488195E+03 -1.300094E+04  1.879832E+04  1.276296E+04 -1.207316E+03
       354   8 -8.925642E+03 -4.813967E+03 -1.552040E+04  2.336996E+04  1.001329E+04 -2.789362E+03
       354   9 -2.340674E+03  3.003147E+03 -1.561851E+04  2.845768E+04  7.088059E+03 -4.137233E+03
       354  10  1.747033E+05  1.292026E+05  3.743124E+04  1.166253E+05 -1.298144E-11  2.060028E-10
       354  11  1.673039E+05  1.199919E+05  2.985223E+04  1.125264E+05  3.616479E-10  1.100087E-10
       354  12  1.581726E+05  1.150706E+05  2.528003E+04  1.089437E+05  1.352465E-10  2.325569E-11
       354  13  7.865298E+04  6.035490E+04  1.221564E+04  6.770781E+04 -1.192780E-10  1.164994E-10
       354  14  7.918464E+04  5.758664E+04  7.166131E+03  6.794457E+04 -3.166106E-10  4.222584E-11
       354  15  7.791164E+04  5.903458E+04  4.830744E+03  6.869744E+04 -2.367926E-10  4.013020E-11
       354  16 -1.738837E+04 -8.488240E+03 -1.300125E+04  1.879833E+04 -8.073141E-11  1.425372E-11
       354  17 -8.925752E+03 -4.814002E+03 -1.552060E+04  2.336999E+04 -2.006360E-10  5.372529E-11
       354  18 -2.340732E+03  3.003115E+03 -1.561864E+04  2.845770E+04  3.050233E-10  1.596990E-10
       354  19  1.747035E+05  1.292027E+05  3.743153E+04  1.166253E+05 -1.221967E+04  1.614022E+03
       354  20  1.673040E+05  1.199920E+05  2.985241E+04  1.125264E+05 -8.794385E+03  3.702476E+03
       354  21  1.581726E+05  1.150707E+05  2.528014E+04  1.089437E+05 -5.193574E+03  5.556769E+03
       354  22  7.865315E+04  6.035495E+04  1.221594E+04  6.770779E+04 -1.249134E+04  1.410649E+03
       354  23  7.918474E+04  5.758668E+04  7.166317E+03  6.794454E+04 -9.403896E+03  3.245875E+03
       354  24  7.791169E+04  5.903462E+04  4.830859E+03  6.869742E+04 -6.140906E+03  4.846935E+03
       354  25 -1.738820E+04 -8.488195E+03 -1.300094E+04  1.879832E+04 -1.276296E+04  1.207316E+03
       354  26 -8.925642E+03 -4.813967E+03 -1.552040E+04  2.336996E+04 -1.001329E+04  2.789362E+03
       354  27 -2.340674E+03  3.003147E+03 -1.561851E+04  2.845768E+04 -7.088059E+03  4.137233E+03
       355   1  1.521717E+05  1.113667E+05  2.322840E+04  1.060745E+05  4.301130E+03 -5.626769E+03
       355   2  1.450624E+05  1.039993E+05  2.093903E+04  1.014209E+05  2.165119E+03 -6.232070E+03
       355   3  1.352972E+05  9.979329E+04  2.004566E+04  9.768628E+04  1.566155E+01 -6.819503E+03
       355   4  7.786236E+04  5.904963E+04  4.281488E+03  6.859974E+04  5.206440E+03 -4.948394E+03
       355   5  7.919738E+04  5.747873E+04  4.122597E+03  6.813538E+04  3.096410E+03 -5.534168E+03
       355   6  7.787065E+04  5.906366E+04  5.337292E+03  6.858991E+04  9.728899E+02 -6.102100E+03
       355   7  3.559237E+03  6.735782E+03 -1.466588E+04  3.113015E+04  6.111605E+03 -4.270128E+03
       355   8  1.333672E+04  1.096032E+04 -1.269436E+04  3.485363E+04  4.027576E+03 -4.836360E+03
       355   9  2.044698E+04  1.833537E+04 -9.371643E+03  3.949619E+04  1.930014E+03 -5.384776E+03
       355  10  1.521717E+05  1.113667E+05  2.322831E+04  1.060745E+05 -1.524998E-10 -6.577118E-12
       355  11  1.450624E+05  1.039993E+05  2.093895E+04  1.014209E+05 -1.508969E-11 -6.373853E-11
       355  12  1.352972E+05  9.979324E+04  2.004557E+04  9.768628E+04  2.878367E-11 -2.207298E-11
       355  13  7.786233E+04  5.904959E+04  4.281392E+03  6.859976E+04 -2.493964E-10  3.399918E-11
       355  14  7.919736E+04  5.747869E+04  4.122521E+03  6.813539E+04  2.602603E-10 -8.172074E-12
       355  15  7.787064E+04  5.906362E+04  5.337221E+03  6.858991E+04  7.368353E-11 -3.440953E-11
       355  16  3.559192E+03  6.735752E+03 -1.466598E+04  3.113018E+04 -1.816245E-10  1.413776E-10
       355  17  1.333670E+04  1.096029E+04 -1.269443E+04  3.485365E+04  1.049606E-10  1.968119E-10
       355  18  2.044697E+04  1.833534E+04 -9.371704E+03  3.949619E+04 -5.633116E-11  1.921218E-11
       355  19  1.521717E+05  1.113667E+05  2.322840E+04  1.060745E+05 -4.301130E+03  5.626769E+03
       355  20  1.450624E+05  1.039993E+05  2.093903E+04  1.014209E+05 -2.165119E+03  6.232070E+03
       355  21  1.352972E+05  9.979329E+04  2.004566E+04  9.768628E+04 -1.566155E+01  6.819503E+03
       355  22  7.786236E+04  5.904963E+04  4.281488E+03  6.859974E+04 -5.206440E+03  4.948394E+03
       355  23  7.919738E+04  5.747873E+04  4.122597E+03  6.813538E+04 -3.096410E+03  5.534168E+03
       355  24  7.787065E+04  5.906366E+04  5.337292E+03  6.858991E+04 -9.728899E+02  6.102100E+03
       355  25  3.559237E+03  6.735782E+03 -1.466588E+04  3.113015E+04 -6.111605E+03  4.270128E+03
       355  26  1.333672E+04  1.096032E+04 -1.269436E+04  3.485363E+04 -4.027576E+03  4.836360E+03
       355  27  2.044698E+04  1.833537E+04 -9.371643E+03  3.949619E+04 -1.930014E+03  5.384776E+03
       356   1  1.293207E+05  9.620261E+04  1.971890E+04  9.513065E+04 -1.104169E+03 -7.057194E+03
       356   2  1.229408E+05  8.810405E+04  2.167629E+04  8.976427E+04 -5.846325E+03 -9.565157E+03
       356   3  1.153292E+05  8.494236E+04  2.768592E+04  8.471679E+04 -1.060362E+04 -1.205271E+04
       356   4  7.795857E+04  5.905181E+04  6.505459E+03  6.876068E+04 -1.534500E+02 -6.344638E+03
       356   5  7.915054E+04  5.760601E+04  1.055351E+04  6.783736E+04 -4.865996E+03 -8.830388E+03
       356   6  7.910415E+04  6.109058E+04  1.862822E+04  6.723278E+04 -9.593785E+03 -1.129581E+04
       356   7  2.660024E+04  2.190328E+04 -6.707902E+03  4.239365E+04  7.971489E+02 -5.632175E+03
       356   8  3.536281E+04  2.710933E+04 -5.692890E+02  4.591240E+04 -3.885767E+03 -8.095693E+03
       356   9  4.288064E+04  3.723948E+04  9.570437E+03  4.974991E+04 -8.584025E+03 -1.053897E+04
       356  10  1.293207E+05  9.620255E+04  1.971880E+04  9.513065E+04  2.747103E-11 -2.107157E-11
       356  11  1.229407E+05  8.810394E+04  2.167606E+04  8.976422E+04 -2.428269E-10  2.153714E-11
       356  12  1.153290E+05  8.494217E+04  2.768544E+04  8.471669E+04  2.863484E-10 -2.350004E-11
       356  13  7.795856E+04  5.905177E+04  6.505383E+03  6.876068E+04 -5.801626E-11 -4.746657E-11
       356  14  7.915049E+04  5.760592E+04  1.055332E+04  6.783732E+04 -4.275729E-11 -2.318513E-10
       356  15  7.910401E+04  6.109042E+04  1.862781E+04  6.723269E+04  3.913522E-11 -9.350762E-11
       356  16  2.660023E+04  2.190325E+04 -6.707963E+03  4.239365E+04 -8.415011E-11  4.423292E-11
       356  17  3.536278E+04  2.710925E+04 -5.694405E+02  4.591237E+04 -1.549671E-10 -1.601728E-10
       356  18  4.288053E+04  3.723934E+04  9.570089E+03  4.974984E+04 -1.959102E-10 -3.240628E-10
       356  19  1.293207E+05  9.620261E+04  1.971890E+04  9.513065E+04  1.104169E+03  7.057194E+03
       356  20  1.229408E+05  8.810405E+04  2.167629E+04  8.976427E+04  5.846325E+03  9.565157E+03
       356  21  1.153292E+05  8.494236E+04  2.768592E+04  8.471679E+04  1.060362E+04  1.205271E+04
       356  22  7.795857E+04  5.905181E+04  6.505459E+03  6.876068E+04  1.534500E+02  6.344638E+03
       356  23  7.915054E+04  5.760601E+04  1.055351E+04  6.783736E+04  4.865996E+03  8.830388E+03
       356  24  7.910415E+04  6.109058E+04  1.862822E+04  6.723278E+04  9.593785E+03  1.129581E+04
       356  25  2.660024E+04  2.190328E+04 -6.707902E+03  4.239365E+04 -7.971489E+02  5.632175E+03
       356  26  3.536281E+04  2.710933E+04 -5.692890E+02  4.591240E+04  3.885767E+03  8.095693E+03
       356  27  4.288064E+04  3.723948E+04  9.570437E+03  4.974991E+04  8.584025E+03  1.053897E+04
       357   1  1.028267E+05  8.810036E+04  3.163785E+04  8.727495E+04 -1.339965E+04 -1.354381E+04
       357   2  1.212188E+05  5.996217E+04  4.859842E+04  6.499010E+04 -3.226181E+04 -2.642728E+04
       357   3  1.666604E+05  7.530085E+04  9.392593E+04  2.553955E+04 -5.132814E+04 -3.903812E+04
       357   4  8.014265E+04  6.033123E+04  2.406883E+04  7.032381E+04 -1.243833E+04 -1.282297E+04
       357   5  8.092888E+04  6.403047E+04  4.297200E+04  5.986912E+04 -3.090873E+04 -2.541468E+04
       357   6  1.086782E+05  1.111207E+05  8.990302E+04  3.224883E+04 -4.958223E+04 -3.773545E+04
       357   7  5.745900E+04  3.256289E+04  1.649965E+04  5.337337E+04 -1.147705E+04 -1.210218E+04
       357   8  4.064129E+04  6.809940E+04  3.734572E+04  5.474797E+04 -2.955577E+04 -2.440203E+04
       357   9  5.070362E+04  1.469462E+05  8.588130E+04  3.895616E+04 -4.783658E+04 -3.643255E+04
       357  10  1.028264E+05  8.810012E+04  3.163716E+04  8.727480E+04 -8.966366E-11 -2.862731E-10
       357  11  1.212175E+05  5.996114E+04  4.859516E+04  6.498941E+04  1.047964E-10 -4.228211E-11
       357  12  1.666572E+05  7.529851E+04  9.391812E+04  2.553794E+04 -1.095903E-11  1.135352E-10
       357  13  8.014244E+04  6.033101E+04  2.406823E+04  7.032368E+04 -1.447078E-11 -1.075290E-10
       357  14  8.092768E+04  6.402952E+04  4.296899E+04  5.986849E+04 -2.977416E-11  1.342159E-10
       357  15  1.086752E+05  1.111185E+05  8.989573E+04  3.224732E+04  1.826978E-10 -2.745065E-11
       357  16  5.745882E+04  3.256270E+04  1.649912E+04  5.337326E+04  1.519707E-10  6.181368E-11
       357  17  4.064019E+04  6.809853E+04  3.734296E+04  5.474739E+04 -3.245555E-10  3.155160E-11
       357  18  5.070080E+04  1.469442E+05  8.587450E+04  3.895476E+04 -1.277696E-10 -8.043853E-11
       357  19  1.028267E+05  8.810036E+04  3.163785E+04  8.727495E+04  1.339965E+04  1.354381E+04
       357  20  1.212188E+05  5.996217E+04  4.859842E+04  6.499010E+04  3.226181E+04  2.642728E+04
       357  21  1.666604E+05  7.530085E+04  9.392593E+04  2.553955E+04  5.132814E+04  3.903812E+04
       357  22  8.014265E+04  6.033123E+04  2.406883E+04  7.032381E+04  1.243833E+04  1.282297E+04
       357  23  8.092888E+04  6.403047E+04  4.297200E+04  5.986912E+04  3.090873E+04  2.541468E+04
       357  24  1.086782E+05  1.111207E+05  8.990302E+04  3.224883E+04  4.958223E+04  3.773545E+04
       357  25  5.745900E+04  3.256289E+04  1.649965E+04  5.337337E+04  1.147705E+04  1.210218E+04
       357  26  4.064129E+04  6.809940E+04  3.734572E+04  5.474797E+04  2.955577E+04  2.440203E+04
       357  27  5.070362E+04  1.469462E+05  8.588130E+04  3.895616E+04  4.783658E+04  3.643255E+04
       358   1  2.186719E+05  7.009618E+04  6.244965E+04  4.297509E+04  6.585937E+02 -5.070938E+03
       358   2  1.525677E+05  7.488985E+04  5.185226E+04  4.412327E+04 -5.981909E+03 -1.585524E+04
       358   3  8.313193E+04  6.277169E+04  4.135282E+04  6.254596E+04 -1.261853E+04 -1.635286E+04
       358   4 -1.802221E+05 -2.868385E+04 -3.251903E+04  6.000081E+04 -2.227595E+04 -5.066299E+03
       358   5 -1.772583E+05 -4.596772E+03 -1.574028E+04  5.136520E+04 -1.410250E+04 -1.585477E+04
       358   6 -1.802055E+05  1.329300E+00 -9.153217E+03  6.000545E+04 -5.925764E+03 -1.635386E+04
       358   7 -5.789684E+05 -1.274740E+05 -1.274967E+05  7.701553E+04 -4.519583E+04 -5.062917E+03
       358   8 -5.069807E+05 -8.409000E+04 -8.333833E+04  5.860320E+04 -2.221886E+04 -1.585448E+04
       358   9 -4.434760E+05 -6.277309E+04 -5.966226E+04  5.746603E+04  7.642342E+02 -1.635491E+04
       358  10  2.186719E+05  7.009615E+04  6.244960E+04  4.297509E+04 -7.735036E-11 -1.343952E-12
       358  11  1.525676E+05  7.488957E+04  5.185172E+04  4.412320E+04 -4.953831E-11  1.188596E-10
       358  12  8.313168E+04  6.277136E+04  4.135202E+04  6.254579E+04 -7.489427E-11  2.208761E-10
       358  13 -1.802226E+05 -2.868401E+04 -3.252002E+04  6.000071E+04 -4.229641E-10  1.164522E-10
       358  14 -1.772586E+05 -4.597095E+03 -1.574113E+04  5.136502E+04  2.055724E-10  1.897644E-10
       358  15 -1.802056E+05  1.032713E+00 -9.153786E+03  6.000537E+04  2.137483E-11  1.228451E-10
       358  16 -5.789706E+05 -1.274746E+05 -1.275006E+05  7.701535E+04  1.948003E-10  3.883256E-11
       358  17 -5.069813E+05 -8.409040E+04 -8.333973E+04  5.860292E+04  3.875274E-11  1.548006E-10
       358  18 -4.434760E+05 -6.277337E+04 -5.966276E+04  5.746604E+04  1.522353E-10  3.229592E-11
       358  19  2.186719E+05  7.009618E+04  6.244965E+04  4.297509E+04 -6.585937E+02  5.070938E+03
       358  20  1.525677E+05  7.488985E+04  5.185226E+04  4.412327E+04  5.981909E+03  1.585524E+04
       358  21  8.313193E+04  6.277169E+04  4.135282E+04  6.254596E+04  1.261853E+04  1.635286E+04
       358  22 -1.802221E+05 -2.868385E+04 -3.251903E+04  6.000081E+04  2.227595E+04  5.066299E+03
       358  23 -1.772583E+05 -4.596772E+03 -1.574028E+04  5.136520E+04  1.410250E+04  1.585477E+04
       358  24 -1.802055E+05  1.329300E+00 -9.153217E+03  6.000545E+04  5.925764E+03  1.635386E+04
       358  25 -5.789684E+05 -1.274740E+05 -1.274967E+05  7.701553E+04  4.519583E+04  5.062917E+03
       358  26 -5.069807E+05 -8.409000E+04 -8.333833E+04  5.860320E+04  2.221886E+04  1.585448E+04
       358  27 -4.434760E+05 -6.277309E+04 -5.966226E+04  5.746603E+04 -7.642342E+02  1.635491E+04
       359   1  3.805367E+04  5.061579E+04  3.415106E+04  5.970487E+04 -9.548329E+03 -1.361048E+04
       359   2 -2.947369E+04  3.539546E+04  2.311242E+04  5.103121E+04 -8.089220E+03 -9.878594E+03
       359   3 -9.736468E+04  1.942185E+04  1.093789E+04  6.025517E+04 -6.630717E+03 -5.449562E+03
       359   4 -1.790086E+05 -1.101665E+03 -7.358544E+03  6.014261E+04 -4.675015E+03 -1.361108E+04
       359   5 -1.787335E+05 -7.141436E+01 -4.945621E+03  5.119366E+04 -2.213017E+03 -9.878892E+03
       359   6 -1.790019E+05  3.119095E+01 -4.365840E+03  6.014263E+04  2.485125E+02 -5.449465E+03
       359   7 -3.960254E+05 -5.282189E+04 -4.887020E+04  6.058020E+04  1.966347E+02 -1.361168E+04
       359   8 -3.279717E+05 -3.553956E+04 -3.300451E+04  5.135607E+04  3.661809E+03 -9.879187E+03
       359   9 -2.606325E+05 -1.935983E+04 -1.966968E+04  6.003011E+04  7.126860E+03 -5.449370E+03
       359  10  3.805352E+04  5.061557E+04  3.415054E+04  5.970476E+04  1.361164E-10  3.507603E-11
       359  11 -2.947379E+04  3.539534E+04  2.311212E+04  5.103114E+04 -8.265186E-11 -1.009934E-10
       359  12 -9.736473E+04  1.942181E+04  1.093775E+04  6.025514E+04 -1.644259E-10  4.301433E-11
       359  13 -1.790087E+05 -1.101870E+03 -7.358933E+03  6.014256E+04 -3.375559E-10  1.703817E-11
       359  14 -1.787335E+05 -7.152046E+01 -4.945813E+03  5.119364E+04  1.781606E-10 -1.168990E-10
       359  15 -1.790019E+05  3.115904E+01 -4.365895E+03  6.014263E+04  1.839796E-11 -8.574835E-11
       359  16 -3.960255E+05 -5.282208E+04 -4.887055E+04  6.058020E+04 -1.061041E-12  6.879255E-11
       359  17 -3.279717E+05 -3.553967E+04 -3.300471E+04  5.135610E+04 -2.924850E-11  1.027088E-10
       359  18 -2.606326E+05 -1.935987E+04 -1.966983E+04  6.003014E+04  3.419839E-10 -2.018408E-11
       359  19  3.805367E+04  5.061579E+04  3.415106E+04  5.970487E+04  9.548329E+03  1.361048E+04
       359  20 -2.947369E+04  3.539546E+04  2.311242E+04  5.103121E+04  8.089220E+03  9.878594E+03
       359  21 -9.736468E+04  1.942185E+04  1.093789E+04  6.025517E+04  6.630717E+03  5.449562E+03
       359  22 -1.790086E+05 -1.101665E+03 -7.358544E+03  6.014261E+04  4.675015E+03  1.361108E+04
       359  23 -1.787335E+05 -7.141436E+01 -4.945621E+03  5.119366E+04  2.213017E+03  9.878892E+03
       359  24 -1.790019E+05  3.119095E+01 -4.365840E+03  6.014263E+04 -2.485125E+02  5.449465E+03
       359  25 -3.960254E+05 -5.282189E+04 -4.887020E+04  6.058020E+04 -1.966347E+02  1.361168E+04
       359  26 -3.279717E+05 -3.553956E+04 -3.300451E+04  5.135607E+04 -3.661809E+03  9.879187E+03
       359  27 -2.606325E+05 -1.935983E+04 -1.966968E+04  6.003011E+04 -7.126860E+03  5.449370E+03
       360   1 -1.433002E+05  8.499390E+03  1.887940E+03  5.989843E+04 -5.806552E+03 -2.626445E+03
       360   2 -2.105904E+05 -7.739384E+03 -1.236377E+04  5.135045E+04 -2.052908E+03  1.887855E+03
       360   3 -2.787138E+05 -2.538677E+04 -2.941156E+04  6.071515E+04  1.700446E+03  5.924604E+03
       360   4 -1.790393E+05  5.542160E+01 -4.586419E+03  6.014590E+04  1.036316E+03 -2.626255E+03
       360   5 -1.786817E+05 -1.144247E+02 -6.154675E+03  5.118959E+04  4.102295E+03  1.887946E+03
       360   6 -1.790410E+05 -1.572890E+03 -1.004089E+04  6.014592E+04  7.168364E+03  5.924614E+03
       360   7 -2.147771E+05 -8.388594E+03 -1.106065E+04  6.039336E+04  7.878800E+03 -2.626059E+03
       360   8 -1.467720E+05  7.510494E+03  5.451609E+01  5.102871E+04  1.025781E+04  1.888035E+03
       360   9 -7.935872E+04  2.224041E+04  9.329418E+03  5.957661E+04  1.263714E+04  5.924615E+03
       360  10 -1.433002E+05  8.499374E+03  1.887863E+03  5.989842E+04  4.658040E-11  1.244825E-10
       360  11 -2.105904E+05 -7.739388E+03 -1.236379E+04  5.135045E+04 -1.407986E-10  1.037630E-10
       360  12 -2.787138E+05 -2.538681E+04 -2.941163E+04  6.071514E+04 -5.370942E-11  8.462464E-12
       360  13 -1.790393E+05  5.541390E+01 -4.586434E+03  6.014590E+04 -2.252061E-11  5.433817E-11
       360  14 -1.786817E+05 -1.144331E+02 -6.154713E+03  5.118958E+04 -4.369353E-10  6.424872E-11
       360  15 -1.790411E+05 -1.572941E+03 -1.004106E+04  6.014589E+04 -1.177088E-10 -6.278627E-11
       360  16 -2.147772E+05 -8.388618E+03 -1.106078E+04  6.039337E+04 -2.728932E-11 -7.746604E-11
       360  17 -1.467721E+05  7.510461E+03  5.431162E+01  5.102870E+04 -6.940980E-11  8.700279E-12
       360  18 -7.935890E+04  2.224033E+04  9.329052E+03  5.957655E+04 -2.923038E-11 -1.058497E-11
       360  19 -1.433002E+05  8.499390E+03  1.887940E+03  5.989843E+04  5.806552E+03  2.626445E+03
       360  20 -2.105904E+05 -7.739384E+03 -1.236377E+04  5.135045E+04  2.052908E+03 -1.887855E+03
       360  21 -2.787138E+05 -2.538677E+04 -2.941156E+04  6.071515E+04 -1.700446E+03 -5.924604E+03
       360  22 -1.790393E+05  5.542160E+01 -4.586419E+03  6.014590E+04 -1.036316E+03  2.626255E+03
       360  23 -1.786817E+05 -1.144247E+02 -6.154675E+03  5.118959E+04 -4.102295E+03 -1.887946E+03
       360  24 -1.790410E+05 -1.572890E+03 -1.004089E+04  6.014592E+04 -7.168364E+03 -5.924614E+03
       360  25 -2.147771E+05 -8.388594E+03 -1.106065E+04  6.039336E+04 -7.878800E+03  2.626059E+03
       360  26 -1.467720E+05  7.510494E+03  5.451609E+01  5.102871E+04 -1.025781E+04 -1.888035E+03
       360  27 -7.935872E+04  2.224041E+04  9.329418E+03  5.957661E+04 -1.263714E+04 -5.924615E+03
       361   1 -3.265943E+05 -3.481571E+04 -4.107701E+04  5.634069E+04  2.106323E+03  8.693298E+03
       361   2 -3.891624E+05 -5.793188E+04 -6.651530E+04  6.163712E+04  2.443712E+04  9.688224E+03
       361   3 -4.620888E+05 -1.109052E+05 -1.139598E+05  8.439798E+04  4.676388E+04  3.261264E+03
       361   4 -1.807732E+05  2.003444E+01 -1.276084E+04  6.004746E+04  8.882145E+03  8.693151E+03
       361   5 -1.765278E+05 -6.570868E+03 -2.242179E+04  5.131302E+04  2.053278E+04  9.687759E+03
       361   6 -1.807859E+05 -4.115856E+04 -4.666588E+04  6.004434E+04  3.218204E+04  3.260631E+03
       361   7 -3.493159E+04  3.485458E+04  1.555450E+04  6.375513E+04  1.565952E+04  8.693084E+03
       361   8  3.614984E+04  4.478769E+04  2.166937E+04  4.098532E+04  1.662712E+04  9.687425E+03
       361   9  1.005912E+05  2.858470E+04  2.062353E+04  3.567961E+04  1.759362E+04  3.261144E+03
       361  10 -3.265943E+05 -3.481579E+04 -4.107716E+04  5.634067E+04  4.574756E-11 -3.796136E-12
       361  11 -3.891631E+05 -5.793215E+04 -6.651659E+04  6.163693E+04 -2.342516E-11  2.725003E-11
       361  12 -4.620911E+05 -1.109058E+05 -1.139639E+05  8.439786E+04 -2.166362E-10 -4.222260E-11
       361  13 -1.807733E+05  1.993212E+01 -1.276113E+04  6.004740E+04 -5.401376E-11 -5.204940E-11
       361  14 -1.765283E+05 -6.571082E+03 -2.242275E+04  5.131286E+04 -3.101370E-10 -1.011404E-10
       361  15 -1.807870E+05 -4.115885E+04 -4.666785E+04  6.004426E+04  6.274942E-12  1.626840E-11
       361  16 -3.493187E+04  3.485443E+04  1.555389E+04  6.375502E+04 -1.372712E-10 -1.070038E-10
       361  17  3.614952E+04  4.478751E+04  2.166868E+04  4.098519E+04  2.232106E-11 -1.628953E-10
       361  18  1.005909E+05  2.858460E+04  2.062292E+04  3.567956E+04  2.371347E-10 -3.096060E-11
       361  19 -3.265943E+05 -3.481571E+04 -4.107701E+04  5.634069E+04 -2.106323E+03 -8.693298E+03
       361  20 -3.891624E+05 -5.793188E+04 -6.651530E+04  6.163712E+04 -2.443712E+04 -9.688224E+03
       361  21 -4.620888E+05 -1.109052E+05 -1.139598E+05  8.439798E+04 -4.676388E+04 -3.261264E+03
       361  22 -1.807732E+05  2.003444E+01 -1.276084E+04  6.004746E+04 -8.882145E+03 -8.693151E+03
       361  23 -1.765278E+05 -6.570868E+03 -2.242179E+04  5.131302E+04 -2.053278E+04 -9.687759E+03
       361  24 -1.807859E+05 -4.115856E+04 -4.666588E+04  6.004434E+04 -3.218204E+04 -3.260631E+03
       361  25 -3.493159E+04  3.485458E+04  1.555450E+04  6.375513E+04 -1.565952E+04 -8.693084E+03
       361  26  3.614984E+04  4.478769E+04  2.166937E+04  4.098532E+04 -1.662712E+04 -9.687425E+03
       361  27  1.005912E+05  2.858470E+04  2.062353E+04  3.567961E+04 -1.759362E+04 -3.261144E+03
       362   1 -1.008301E+05 -4.532809E+05 -1.000916E+05  1.020084E+05 -3.663462E+03 -2.914559E+04
       362   2 -6.006597E+04 -3.455295E+05 -5.753622E+04  8.313566E+04 -1.024279E+04 -1.192772E+04
       362   3 -3.205588E+04 -2.432165E+05 -2.938823E+04  9.149383E+04 -7.603684E+03  5.290153E+03
       362   4 -1.539643E+04 -1.088822E+05 -1.738600E+04  9.306806E+04 -3.654772E+03 -1.303332E+04
       362   5 -2.417439E+03 -1.073020E+05 -7.560715E+03  7.944857E+04 -1.024087E+04 -9.080203E+03
       362   6  1.146900E+02 -1.088653E+05 -2.924619E+03  9.306032E+04 -7.609848E+03 -5.130312E+03
       362   7  7.002905E+04  2.356260E+05  6.531221E+04  8.412270E+04 -3.646549E+03  3.087847E+03
       362   8  5.522750E+04  1.309793E+05  4.241166E+04  7.576002E+04 -1.023898E+04 -6.231614E+03
       362   9  3.228424E+04  2.550342E+04  2.353852E+04  9.462716E+04 -7.616064E+03 -1.555298E+04
       362  10 -1.008303E+05 -4.532818E+05 -1.000932E+05  1.020083E+05 -1.771452E-11 -1.395804E-10
       362  11 -6.006612E+04 -3.455296E+05 -5.753669E+04  8.313556E+04 -7.586287E-11 -1.386944E-10
       362  12 -3.205595E+04 -2.432166E+05 -2.938839E+04  9.149386E+04 -2.115187E-10 -5.732433E-11
       362  13 -1.539649E+04 -1.088823E+05 -1.738635E+04  9.306802E+04 -2.768951E-10  5.613367E-11
       362  14 -2.417574E+03 -1.073021E+05 -7.561067E+03  7.944849E+04  5.771149E-10 -6.946103E-11
       362  15  1.146207E+02 -1.088653E+05 -2.924777E+03  9.306029E+04 -6.653100E-11  6.150939E-11
       362  16  7.002903E+04  2.356260E+05  6.531217E+04  8.412271E+04  1.468462E-11  1.165980E-10
       362  17  5.522738E+04  1.309792E+05  4.241139E+04  7.575997E+04  4.264951E-10  1.072290E-10
       362  18  3.228411E+04  2.550315E+04  2.353796E+04  9.462706E+04  6.010213E-11  2.864792E-11
       362  19 -1.008301E+05 -4.532809E+05 -1.000916E+05  1.020084E+05  3.663462E+03  2.914559E+04
       362  20 -6.006597E+04 -3.455295E+05 -5.753622E+04  8.313566E+04  1.024279E+04  1.192772E+04
       362  21 -3.205588E+04 -2.432165E+05 -2.938823E+04  9.149383E+04  7.603684E+03 -5.290153E+03
       362  22 -1.539643E+04 -1.088822E+05 -1.738600E+04  9.306806E+04  3.654772E+03  1.303332E+04
       362  23 -2.417439E+03 -1.073020E+05 -7.560715E+03  7.944857E+04  1.024087E+04  9.080203E+03
       362  24  1.146900E+02 -1.088653E+05 -2.924619E+03  9.306032E+04  7.609848E+03  5.130312E+03
       362  25  7.002905E+04  2.356260E+05  6.531221E+04  8.412270E+04  3.646549E+03 -3.087847E+03
       362  26  5.522750E+04  1.309793E+05  4.241166E+04  7.576002E+04  1.023898E+04  6.231614E+03
       362  27  3.228424E+04  2.550342E+04  2.353852E+04  9.462716E+04  7.616064E+03  1.555298E+04
       363   1 -1.564512E+04 -1.709715E+05 -1.384205E+04  9.307027E+04 -3.299069E+03  4.039720E+03
       363   2  1.013935E+04 -6.614675E+04  1.018439E+04  7.943585E+04  2.821172E+03  2.675949E+03
       363   3  3.653810E+04  3.899015E+04  3.524320E+04  9.353522E+04  8.794301E+03  1.312243E+03
       363   4 -5.449276E+02 -1.081051E+05 -1.218124E+03  9.317341E+04 -3.304554E+03 -4.879188E+03
       363   5  1.437603E+02 -1.082390E+05  2.303683E+03  7.930588E+04  2.815982E+03 -6.031518E+03
       363   6  1.410757E+03 -1.081077E+05  6.711575E+03  9.317223E+04  8.789373E+03 -7.183562E+03
       363   7  1.455507E+04 -4.523478E+04  1.140590E+04  9.327656E+04 -3.310041E+03 -1.379898E+04
       363   8 -9.851892E+03 -1.503294E+05 -5.576816E+03  7.917592E+04  2.810795E+03 -1.473841E+04
       363   9 -3.371784E+04 -2.551845E+05 -2.182079E+04  9.280931E+04  8.784455E+03 -1.567740E+04
       363  10 -1.564514E+04 -1.709715E+05 -1.384211E+04  9.307029E+04 -9.210317E-11  2.837930E-10
       363  11  1.013934E+04 -6.614676E+04  1.018436E+04  7.943585E+04 -4.375365E-11  9.810908E-11
       363  12  3.653801E+04  3.899013E+04  3.524305E+04  9.353522E+04  1.951863E-10 -7.043546E-11
       363  13 -5.449457E+02 -1.081051E+05 -1.218189E+03  9.317340E+04 -6.530400E-11  6.102371E-11
       363  14  1.437421E+02 -1.082391E+05  2.303600E+03  7.930590E+04 -3.562487E-10  1.554748E-10
       363  15  1.410660E+03 -1.081077E+05  6.711333E+03  9.317228E+04 -3.305547E-10  1.291560E-10
       363  16  1.455501E+04 -4.523498E+04  1.140553E+04  9.327652E+04  7.029704E-11 -2.659910E-10
       363  17 -9.851959E+03 -1.503296E+05 -5.577239E+03  7.917596E+04  2.811140E-10 -5.831160E-11
       363  18 -3.371799E+04 -2.551848E+05 -2.182140E+04  9.280942E+04  1.283673E-10  4.610903E-12
       363  19 -1.564512E+04 -1.709715E+05 -1.384205E+04  9.307027E+04  3.299069E+03 -4.039720E+03
       363  20  1.013935E+04 -6.614675E+04  1.018439E+04  7.943585E+04 -2.821172E+03 -2.675949E+03
       363  21  3.653810E+04  3.899015E+04  3.524320E+04  9.353522E+04 -8.794301E+03 -1.312243E+03
       363  22 -5.449276E+02 -1.081051E+05 -1.218124E+03  9.317341E+04  3.304554E+03  4.879188E+03
       363  23  1.437603E+02 -1.082390E+05  2.303683E+03  7.930588E+04 -2.815982E+03  6.031518E+03
       363  24  1.410757E+03 -1.081077E+05  6.711575E+03  9.317223E+04 -8.789373E+03  7.183562E+03
       363  25  1.455507E+04 -4.523478E+04  1.140590E+04  9.327656E+04  3.310041E+03  1.379898E+04
       363  26 -9.851892E+03 -1.503294E+05 -5.576816E+03  7.917592E+04 -2.810795E+03  1.473841E+04
       363  27 -3.371784E+04 -2.551845E+05 -2.182079E+04  9.280931E+04 -8.784455E+03  1.567740E+04
       364   1  5.227820E+04  1.120547E+05  5.175435E+04  9.000338E+04  1.308232E+04  2.028748E+03
       364   2  8.327850E+04  2.122331E+05  8.469548E+04  8.798331E+04  1.464208E+04 -2.350868E+04
       364   3  1.400524E+05  3.221783E+05  1.406996E+05  1.130571E+05  4.921594E+03 -4.904708E+04
       364   4  6.480962E+01 -1.066291E+05  9.348686E+03  9.303231E+04  1.307671E+04 -8.359073E+03
       364   5  5.436100E+03 -1.101103E+05  1.785231E+04  7.947819E+04  1.464590E+04 -1.764508E+04
       364   6  3.376807E+04 -1.066488E+05  3.813962E+04  9.301682E+04  4.933132E+03 -2.692767E+04
       364   7 -5.215134E+04 -3.252667E+05 -3.305882E+04  9.606014E+04  1.307100E+04 -1.874332E+04
       364   8 -7.241261E+04 -4.323550E+05 -4.899635E+04  7.097753E+04  1.464957E+04 -1.178448E+04
       364   9 -7.252779E+04 -5.353055E+05 -6.443131E+04  7.299046E+04  4.943246E+03 -4.823468E+03
       364  10  5.227802E+04  1.120546E+05  5.175402E+04  9.000336E+04 -6.925595E-11 -1.198780E-10
       364  11  8.327812E+04  2.122324E+05  8.469403E+04  8.798359E+04 -1.147279E-10 -1.162672E-10
       364  12  1.400517E+05  3.221757E+05  1.406951E+05  1.130573E+05  8.641048E-11  5.222990E-11
       364  13  6.460722E+01 -1.066292E+05  9.348233E+03  9.303240E+04  3.503356E-10 -9.859698E-11
       364  14  5.435786E+03 -1.101107E+05  1.785132E+04  7.947839E+04 -3.807756E-10  6.808125E-11
       364  15  3.376785E+04 -1.066496E+05  3.813821E+04  9.301693E+04  2.593789E-11  2.011621E-11
       364  16 -5.215162E+04 -3.252671E+05 -3.305980E+04  9.606034E+04 -1.339139E-10  1.755173E-10
       364  17 -7.241288E+04 -4.323552E+05 -4.899702E+04  7.097767E+04 -1.541932E-10  1.787430E-10
       364  18 -7.252783E+04 -5.353056E+05 -6.443140E+04  7.299047E+04  5.662165E-11 -1.138443E-10
       364  19  5.227820E+04  1.120547E+05  5.175435E+04  9.000338E+04 -1.308232E+04 -2.028748E+03
       364  20  8.327850E+04  2.122331E+05  8.469548E+04  8.798331E+04 -1.464208E+04  2.350868E+04
       364  21  1.400524E+05  3.221783E+05  1.406996E+05  1.130571E+05 -4.921594E+03  4.904708E+04
       364  22  6.480962E+01 -1.066291E+05  9.348686E+03  9.303231E+04 -1.307671E+04  8.359073E+03
       364  23  5.436100E+03 -1.101103E+05  1.785231E+04  7.947819E+04 -1.464590E+04  1.764508E+04
       364  24  3.376807E+04 -1.066488E+05  3.813962E+04  9.301682E+04 -4.933132E+03  2.692767E+04
       364  25 -5.215134E+04 -3.252667E+05 -3.305882E+04  9.606014E+04 -1.307100E+04  1.874332E+04
       364  26 -7.241261E+04 -4.323550E+05 -4.899635E+04  7.097753E+04 -1.464957E+04  1.178448E+04
       364  27 -7.252779E+04 -5.353055E+05 -6.443131E+04  7.299046E+04 -4.943246E+03  4.823468E+03
       365   1  2.356977E+05  2.284478E+05  8.926920E+04  1.517483E+05  3.692725E+04  2.464903E+04
       365   2  2.234615E+05  1.791048E+05  5.496200E+04  1.567158E+05  2.561637E+04  9.281447E+03
       365   3  2.245443E+05  1.562402E+05  4.002762E+04  1.531521E+05  1.168391E+04 -2.587209E+03
       365   4  1.328938E+05  1.142428E+05  4.806172E+04  8.186357E+04  2.805017E+04  1.799311E+04
       365   5  1.191542E+05  8.797506E+04  2.302919E+04  9.630665E+04  2.178045E+04  6.405363E+03
       365   6  1.176429E+05  8.709517E+04  1.299810E+04  1.022177E+05  1.288877E+04 -1.684152E+03
       365   7  3.010206E+04  5.529729E+01  6.852916E+03  1.199480E+04  1.917503E+04  1.133976E+04
       365   8  1.485834E+04 -3.144847E+03 -8.905083E+03  3.590982E+04  1.794536E+04  3.530102E+03
       365   9  1.075277E+04  1.795446E+04 -1.403287E+04  5.129219E+04  1.409337E+04 -7.812678E+02
       365  10  2.356960E+05  2.284468E+05  8.926550E+04  1.517475E+05  1.245609E-10  3.502344E-11
       365  11  2.234608E+05  1.791045E+05  5.496061E+04  1.567156E+05  5.804068E-11 -3.991462E-11
       365  12  2.245442E+05  1.562402E+05  4.002735E+04  1.531521E+05 -2.847231E-11 -4.203062E-11
       365  13  1.328929E+05  1.142423E+05  4.805964E+04  8.186316E+04 -4.365454E-10  5.564297E-11
       365  14  1.191537E+05  8.797489E+04  2.302822E+04  9.630653E+04 -1.627010E-10 -8.211966E-12
       365  15  1.176427E+05  8.709512E+04  1.299778E+04  1.022177E+05 -3.352207E-10  1.794620E-10
       365  16  3.010163E+04  5.506051E+01  6.851984E+03  1.199462E+04  5.277073E-11 -1.020138E-10
       365  17  1.485799E+04 -3.144947E+03 -8.905711E+03  3.590977E+04 -9.816036E-11 -1.518309E-11
       365  18  1.075255E+04  1.795441E+04 -1.403325E+04  5.129220E+04  1.517015E-11  1.661588E-10
       365  19  2.356977E+05  2.284478E+05  8.926920E+04  1.517483E+05 -3.692725E+04 -2.464903E+04
       365  20  2.234615E+05  1.791048E+05  5.496200E+04  1.567158E+05 -2.561637E+04 -9.281447E+03
       365  21  2.245443E+05  1.562402E+05  4.002762E+04  1.531521E+05 -1.168391E+04  2.587209E+03
       365  22  1.328938E+05  1.142428E+05  4.806172E+04  8.186357E+04 -2.805017E+04 -1.799311E+04
       365  23  1.191542E+05  8.797506E+04  2.302919E+04  9.630665E+04 -2.178045E+04 -6.405363E+03
       365  24  1.176429E+05  8.709517E+04  1.299810E+04  1.022177E+05 -1.288877E+04  1.684152E+03
       365  25  3.010206E+04  5.529729E+01  6.852916E+03  1.199480E+04 -1.917503E+04 -1.133976E+04
       365  26  1.485834E+04 -3.144847E+03 -8.905083E+03  3.590982E+04 -1.794536E+04 -3.530102E+03
       365  27  1.075277E+04  1.795446E+04 -1.403287E+04  5.129219E+04 -1.409337E+04  7.812678E+02
       366   1  2.117897E+05  1.553374E+05  3.502896E+04  1.487709E+05  1.054230E+04 -2.663099E+03
       366   2  2.018815E+05  1.436770E+05  2.751374E+04  1.428444E+05  7.405015E+03 -4.186280E+03
       366   3  1.889626E+05  1.371829E+05  2.256879E+04  1.378113E+05  4.080938E+03 -5.460160E+03
       366   4  1.170333E+05  8.755825E+04  1.013913E+04  1.005830E+05  1.112634E+04 -2.225458E+03
       366   5  1.182710E+05  8.446752E+04  5.969015E+03  1.005470E+05  8.348541E+03 -3.479075E+03
       366   6  1.164199E+05  8.646519E+04  4.057557E+03  1.014042E+05  5.383842E+03 -4.483441E+03
       366   7  2.228851E+04  1.978564E+04 -1.475095E+04  5.240434E+04  1.171025E+04 -1.787915E+03
       366   8  3.466917E+04  2.526272E+04 -1.557604E+04  5.825645E+04  9.291888E+03 -2.772005E+03
       366   9  4.388310E+04  3.575057E+04 -1.445407E+04  6.500194E+04  6.686541E+03 -3.506874E+03
       366  10  2.117896E+05  1.553374E+05  3.502873E+04  1.487709E+05  1.019148E-10  2.349161E-10
       366  11  2.018814E+05  1.436770E+05  2.751361E+04  1.428444E+05  1.780986E-10  2.392196E-10
       366  12  1.889626E+05  1.371829E+05  2.256870E+04  1.378113E+05  2.226103E-10  1.394290E-10
       366  13  1.170331E+05  8.755822E+04  1.013888E+04  1.005830E+05 -3.492135E-10  6.317231E-11
       366  14  1.182709E+05  8.446749E+04  5.968861E+03  1.005470E+05 -5.354201E-10 -8.578969E-11
       366  15  1.164198E+05  8.646516E+04  4.057464E+03  1.014042E+05 -1.577953E-10 -1.483807E-10
       366  16  2.228836E+04  1.978560E+04 -1.475122E+04  5.240436E+04 -5.115887E-10 -4.932844E-11
       366  17  3.466908E+04  2.526269E+04 -1.557622E+04  5.825647E+04 -3.324992E-10 -2.810608E-10
       366  18  4.388304E+04  3.575055E+04 -1.445418E+04  6.500196E+04  1.538491E-10 -2.828477E-10
       366  19  2.117897E+05  1.553374E+05  3.502896E+04  1.487709E+05 -1.054230E+04  2.663099E+03
       366  20  2.018815E+05  1.436770E+05  2.751374E+04  1.428444E+05 -7.405015E+03  4.186280E+03
       366  21  1.889626E+05  1.371829E+05  2.256879E+04  1.378113E+05 -4.080938E+03  5.460160E+03
       366  22  1.170333E+05  8.755825E+04  1.013913E+04  1.005830E+05 -1.112634E+04  2.225458E+03
       366  23  1.182710E+05  8.446752E+04  5.969015E+03  1.005470E+05 -8.348541E+03  3.479075E+03
       366  24  1.164199E+05  8.646519E+04  4.057557E+03  1.014042E+05 -5.383842E+03  4.483441E+03
       366  25  2.228851E+04  1.978564E+04 -1.475095E+04  5.240434E+04 -1.171025E+04  1.787915E+03
       366  26  3.466917E+04  2.526272E+04 -1.557604E+04  5.825645E+04 -9.291888E+03  2.772005E+03
       366  27  4.388310E+04  3.575057E+04 -1.445407E+04  6.500194E+04 -6.686541E+03  3.506874E+03
       367   1  1.809001E+05  1.319342E+05  2.006834E+04  1.338789E+05  3.184215E+03 -5.308519E+03
       367   2  1.712489E+05  1.218190E+05  1.706947E+04  1.274884E+05  1.100657E+03 -5.494299E+03
       367   3  1.578069E+05  1.159265E+05  1.526823E+04  1.223265E+05 -9.937065E+02 -5.665756E+03
       367   4  1.163794E+05  8.647848E+04  3.619837E+03  1.013243E+05  4.443083E+03 -4.364767E+03
       367   5  1.182808E+05  8.437618E+04  3.541879E+03  1.007049E+05  2.380307E+03 -4.534902E+03
       367   6  1.163871E+05  8.649207E+04  4.643638E+03  1.013141E+05  3.067163E+02 -4.690728E+03
       367   7  5.186240E+04  4.102453E+04 -1.282932E+04  6.877299E+04  5.701795E+03 -3.421132E+03
       367   8  6.531583E+04  4.693507E+04 -9.985931E+03  7.392404E+04  3.659811E+03 -3.575614E+03
       367   9  7.496979E+04  5.705915E+04 -5.980865E+03  8.030364E+04  1.607003E+03 -3.715803E+03
       367  10  1.809001E+05  1.319342E+05  2.006827E+04  1.338789E+05 -2.270277E-10 -1.960601E-10
       367  11  1.712489E+05  1.218189E+05  1.706942E+04  1.274884E+05  2.340608E-11 -5.774191E-11
       367  12  1.578069E+05  1.159264E+05  1.526817E+04  1.223265E+05  2.061055E-10  1.317537E-10
       367  13  1.163794E+05  8.647846E+04  3.619764E+03  1.013243E+05  1.872977E-10 -1.209989E-10
       367  14  1.182807E+05  8.437616E+04  3.541829E+03  1.007049E+05  1.160026E-10 -7.470065E-11
       367  15  1.163871E+05  8.649204E+04  4.643596E+03  1.013141E+05  4.281460E-11  1.257149E-10
       367  16  5.186237E+04  4.102451E+04 -1.282941E+04  6.877300E+04  5.414653E-10 -5.035498E-11
       367  17  6.531581E+04  4.693505E+04 -9.985980E+03  7.392405E+04  2.061886E-10 -4.651980E-11
       367  18  7.496979E+04  5.705913E+04 -5.980896E+03  8.030365E+04 -8.515542E-11  5.537573E-11
       367  19  1.809001E+05  1.319342E+05  2.006834E+04  1.338789E+05 -3.184215E+03  5.308519E+03
       367  20  1.712489E+05  1.218190E+05  1.706947E+04  1.274884E+05 -1.100657E+03  5.494299E+03
       367  21  1.578069E+05  1.159265E+05  1.526823E+04  1.223265E+05  9.937065E+02  5.665756E+03
       367  22  1.163794E+05  8.647848E+04  3.619837E+03  1.013243E+05 -4.443083E+03  4.364767E+03
       367  23  1.182808E+05  8.437618E+04  3.541879E+03  1.007049E+05 -2.380307E+03  4.534902E+03
       367  24  1.163871E+05  8.649207E+04  4.643638E+03  1.013141E+05 -3.067163E+02  4.690728E+03
       367  25  5.186240E+04  4.102453E+04 -1.282932E+04  6.877299E+04 -5.701795E+03  3.421132E+03
       367  26  6.531583E+04  4.693507E+04 -9.985931E+03  7.392404E+04 -3.659811E+03  3.575614E+03
       367  27  7.496979E+04  5.705915E+04 -5.980865E+03  8.030364E+04 -1.607003E+03  3.715803E+03
       368   1  1.497525E+05  1.107874E+05  1.424930E+04  1.186675E+05 -2.125088E+03 -5.687981E+03
       368   2  1.407408E+05  1.000296E+05  1.490733E+04  1.116583E+05 -6.415163E+03 -7.524135E+03
       368   3  1.291799E+05  9.503645E+04  1.904152E+04  1.053500E+05 -1.067181E+04 -9.404833E+03
       368   4  1.164664E+05  8.648156E+04  5.681682E+03  1.014652E+05 -8.199340E+02 -4.709380E+03
       368   5  1.182373E+05  8.448745E+04  9.253895E+03  1.004434E+05 -5.174039E+03 -6.593526E+03
       368   6  1.174728E+05  8.827181E+04  1.635785E+04  1.001225E+05 -9.494826E+03 -8.522309E+03
       368   7  8.318154E+04  6.217643E+04 -2.886018E+03  8.426386E+04  4.851267E+02 -3.730852E+03
       368   8  9.573421E+04  6.894542E+04  3.600365E+03  8.922885E+04 -3.932966E+03 -5.662954E+03
       368   9  1.057656E+05  8.150712E+04  1.367412E+04  9.489498E+04 -8.317855E+03 -7.639790E+03
       368  10  1.497525E+05  1.107874E+05  1.424923E+04  1.186675E+05  3.016827E-11  7.465675E-11
       368  11  1.407407E+05  1.000296E+05  1.490715E+04  1.116582E+05 -2.531665E-10  8.035218E-12
       368  12  1.291798E+05  9.503633E+04  1.904114E+04  1.053500E+05  6.252935E-12  1.338889E-10
       368  13  1.164664E+05  8.648154E+04  5.681639E+03  1.014651E+05 -1.692608E-10  5.144704E-11
       368  14  1.182372E+05  8.448740E+04  9.253763E+03  1.004433E+05  2.130658E-10  1.141693E-10
       368  15  1.174727E+05  8.827171E+04  1.635755E+04  1.001224E+05 -8.507532E-11 -5.156339E-11
       368  16  8.318154E+04  6.217641E+04 -2.886045E+03  8.426387E+04 -1.100370E-10  5.859123E-11
       368  17  9.573419E+04  6.894538E+04  3.600276E+03  8.922883E+04 -3.573981E-11 -1.064679E-10
       368  18  1.057655E+05  8.150703E+04  1.367388E+04  9.489493E+04  1.232585E-10 -1.248586E-10
       368  19  1.497525E+05  1.107874E+05  1.424930E+04  1.186675E+05  2.125088E+03  5.687981E+03
       368  20  1.407408E+05  1.000296E+05  1.490733E+04  1.116583E+05  6.415163E+03  7.524135E+03
       368  21  1.291799E+05  9.503645E+04  1.904152E+04  1.053500E+05  1.067181E+04  9.404833E+03
       368  22  1.164664E+05  8.648156E+04  5.681682E+03  1.014652E+05  8.199340E+02  4.709380E+03
       368  23  1.182373E+05  8.448745E+04  9.253895E+03  1.004434E+05  5.174039E+03  6.593526E+03
       368  24  1.174728E+05  8.827181E+04  1.635785E+04  1.001225E+05  9.494826E+03  8.522309E+03
       368  25  8.318154E+04  6.217643E+04 -2.886018E+03  8.426386E+04 -4.851267E+02  3.730852E+03
       368  26  9.573421E+04  6.894542E+04  3.600365E+03  8.922885E+04  3.932966E+03  5.662954E+03
       368  27  1.057656E+05  8.150712E+04  1.367412E+04  9.489498E+04  8.317855E+03  7.639790E+03
       369   1  1.153722E+05  9.579573E+04  2.175570E+04  1.061652E+05 -1.342012E+04 -1.064796E+04
       369   2  1.281479E+05  6.745164E+04  3.511660E+04  8.439346E+04 -2.863041E+04 -2.115162E+04
       369   3  1.630369E+05  7.841809E+04  7.230507E+04  4.794061E+04 -4.336178E+04 -3.229287E+04
       369   4  1.183983E+05  8.759162E+04  2.114133E+04  1.028348E+05 -1.213010E+04 -9.680421E+03
       369   5  1.197836E+05  9.014670E+04  3.775520E+04  9.344568E+04 -2.826062E+04 -2.087559E+04
       369   6  1.434795E+05  1.322085E+05  7.899484E+04  6.937574E+04 -4.391174E+04 -3.270972E+04
       369   7  1.214244E+05  7.938780E+04  2.052700E+04  9.950430E+04 -1.084008E+04 -8.712930E+03
       369   8  1.114199E+05  1.128428E+05  4.039392E+04  1.024977E+05 -2.789083E+04 -2.059953E+04
       369   9  1.239256E+05  1.860056E+05  8.568538E+04  9.081015E+04 -4.446166E+04 -3.312667E+04
       369  10  1.153720E+05  9.579556E+04  2.175515E+04  1.061651E+05  4.767393E-11  4.226543E-11
       369  11  1.281469E+05  6.745094E+04  3.511422E+04  8.439297E+04  3.821465E-10  5.492329E-11
       369  12  1.630346E+05  7.841646E+04  7.229958E+04  4.793948E+04  9.670393E-11 -9.058428E-11
       369  13  1.183981E+05  8.759148E+04  2.114088E+04  1.028347E+05 -1.463556E-10  3.150126E-11
       369  14  1.197826E+05  9.014602E+04  3.775288E+04  9.344520E+04  6.555788E-11  1.270522E-10
       369  15  1.434771E+05  1.322069E+05  7.898920E+04  6.937458E+04  1.264612E-10  9.964063E-11
       369  16  1.214243E+05  7.938769E+04  2.052664E+04  9.950422E+04 -1.587755E-10 -1.037877E-10
       369  17  1.114190E+05  1.128421E+05  4.039166E+04  1.024972E+05  5.779604E-11  9.205258E-11
       369  18  1.239232E+05  1.860039E+05  8.567960E+04  9.080896E+04  1.044983E-10  8.470929E-11
       369  19  1.153722E+05  9.579573E+04  2.175570E+04  1.061652E+05  1.342012E+04  1.064796E+04
       369  20  1.281479E+05  6.745164E+04  3.511660E+04  8.439346E+04  2.863041E+04  2.115162E+04
       369  21  1.630369E+05  7.841809E+04  7.230507E+04  4.794061E+04  4.336178E+04  3.229287E+04
       369  22  1.183983E+05  8.759162E+04  2.114133E+04  1.028348E+05  1.213010E+04  9.680421E+03
       369  23  1.197836E+05  9.014670E+04  3.775520E+04  9.344568E+04  2.826062E+04  2.087559E+04
       369  24  1.434795E+05  1.322085E+05  7.899484E+04  6.937574E+04  4.391174E+04  3.270972E+04
       369  25  1.214244E+05  7.938780E+04  2.052700E+04  9.950430E+04  1.084008E+04  8.712930E+03
       369  26  1.114199E+05  1.128428E+05  4.039392E+04  1.024977E+05  2.789083E+04  2.059953E+04
       369  27  1.239256E+05  1.860056E+05  8.568538E+04  9.081015E+04  4.446166E+04  3.312667E+04
       370   1  4.096179E+05  9.386058E+04  8.883010E+04  6.107002E+04  1.686844E+04 -5.187401E+03
       370   2  3.344126E+05  7.996451E+04  6.452217E+04  5.443834E+04  3.918381E+03 -1.610142E+04
       370   3  2.601444E+05  6.296076E+04  4.786785E+04  6.689936E+04 -9.027898E+03 -1.631756E+04
       370   4 -3.983928E+03 -8.543672E+03 -9.684289E+03  6.614233E+04 -6.560248E+03 -5.185826E+03
       370   5 -3.103629E+03 -1.378790E+03 -4.745241E+03  5.659565E+04 -4.097089E+03 -1.610204E+04
       370   6 -3.967900E+03  2.275613E+00 -2.853115E+03  6.614254E+04 -1.631960E+03 -1.631759E+04
       370   7 -4.174276E+05 -1.109599E+05 -1.082086E+05  7.121124E+04 -2.997341E+04 -5.184634E+03
       370   8 -3.405116E+05 -8.272920E+04 -7.401849E+04  5.875177E+04 -1.210828E+04 -1.610270E+04
       370   9 -2.680130E+05 -6.296030E+04 -5.357708E+04  6.538605E+04  5.760906E+03 -1.631764E+04
       370  10  4.096176E+05  9.386047E+04  8.882951E+04  6.107009E+04  4.533385E-11 -7.549660E-11
       370  11  3.344125E+05  7.996423E+04  6.452165E+04  5.443839E+04  3.693953E-11 -1.857889E-11
       370  12  2.601442E+05  6.296045E+04  4.786720E+04  6.689925E+04 -2.006501E-10  1.163039E-10
       370  13 -3.983982E+03 -8.543712E+03 -9.684420E+03  6.614230E+04  3.581891E-11  6.554601E-11
       370  14 -3.103716E+03 -1.379073E+03 -4.745760E+03  5.659560E+04 -7.527391E-11 -1.034849E-10
       370  15 -3.967975E+03  1.988981E+00 -2.853620E+03  6.614252E+04  2.356460E-10  1.494271E-10
       370  16 -4.174286E+05 -1.109601E+05 -1.082103E+05  7.121111E+04 -1.590583E-10 -8.667476E-11
       370  17 -3.405118E+05 -8.272952E+04 -7.401925E+04  5.875161E+04  6.865536E-11  6.226203E-11
       370  18 -2.680131E+05 -6.296060E+04 -5.357765E+04  6.538612E+04  3.397059E-10 -8.216093E-11
       370  19  4.096179E+05  9.386058E+04  8.883010E+04  6.107002E+04 -1.686844E+04  5.187401E+03
       370  20  3.344126E+05  7.996451E+04  6.452217E+04  5.443834E+04 -3.918381E+03  1.610142E+04
       370  21  2.601444E+05  6.296076E+04  4.786785E+04  6.689936E+04  9.027898E+03  1.631756E+04
       370  22 -3.983928E+03 -8.543672E+03 -9.684289E+03  6.614233E+04  6.560248E+03  5.185826E+03
       370  23 -3.103629E+03 -1.378790E+03 -4.745241E+03  5.659565E+04  4.097089E+03  1.610204E+04
       370  24 -3.967900E+03  2.275613E+00 -2.853115E+03  6.614254E+04  1.631960E+03  1.631759E+04
       370  25 -4.174276E+05 -1.109599E+05 -1.082086E+05  7.121124E+04  2.997341E+04  5.184634E+03
       370  26 -3.405116E+05 -8.272920E+04 -7.401849E+04  5.875177E+04  1.210828E+04  1.610270E+04
       370  27 -2.680130E+05 -6.296030E+04 -5.357708E+04  6.538605E+04 -5.760906E+03  1.631764E+04
       371   1  2.095045E+05  5.046231E+04  3.844762E+04  6.615292E+04 -6.736682E+03 -1.328890E+04
       371   2  1.348648E+05  3.288061E+04  2.426064E+04  5.635821E+04 -6.879413E+03 -9.108012E+03
       371   3  6.022379E+04  1.519039E+04  1.013954E+04  6.629555E+04 -7.022666E+03 -4.207971E+03
       371   4 -3.616607E+03 -3.197492E+02 -2.368470E+03  6.628438E+04 -1.232406E+03 -1.328872E+04
       371   5 -3.520610E+03 -5.370088E+00 -1.795105E+03  5.641820E+04 -3.398429E+02 -9.107376E+03
       371   6 -3.609922E+03  2.130090E+01 -1.874523E+03  6.628435E+04  5.521965E+02 -4.206789E+03
       371   7 -2.166940E+05 -5.110448E+04 -4.318652E+04  6.641580E+04  4.270026E+03 -1.328854E+04
       371   8 -1.418874E+05 -3.289244E+04 -2.785153E+04  5.647817E+04  6.198306E+03 -9.106739E+03
       371   9 -6.743957E+04 -1.514800E+04 -1.388855E+04  6.627315E+04  8.126300E+03 -4.205606E+03
       371  10  2.095044E+05  5.046211E+04  3.844720E+04  6.615285E+04  1.870230E-10  9.922922E-11
       371  11  1.348647E+05  3.288050E+04  2.426039E+04  5.635816E+04 -1.472405E-10 -5.957681E-11
       371  12  6.022373E+04  1.519036E+04  1.013941E+04  6.629552E+04 -6.372486E-11  1.700162E-11
       371  13 -3.616656E+03 -3.199392E+02 -2.368804E+03  6.628437E+04  1.295888E-10 -5.893574E-11
       371  14 -3.520632E+03 -5.459187E+00 -1.795261E+03  5.641819E+04  1.893192E-10 -1.280326E-10
       371  15 -3.609927E+03  2.128181E+01 -1.874557E+03  6.628435E+04  3.398774E-11 -1.420996E-10
       371  16 -2.166940E+05 -5.110467E+04 -4.318688E+04  6.641585E+04 -1.179701E-10 -1.182544E-10
       371  17 -1.418875E+05 -3.289254E+04 -2.785175E+04  5.647822E+04  2.879859E-10 -4.882122E-11
       371  18 -6.743965E+04 -1.514804E+04 -1.388870E+04  6.627318E+04  3.167408E-10 -9.242183E-11
       371  19  2.095045E+05  5.046231E+04  3.844762E+04  6.615292E+04  6.736682E+03  1.328890E+04
       371  20  1.348648E+05  3.288061E+04  2.426064E+04  5.635821E+04  6.879413E+03  9.108012E+03
       371  21  6.022379E+04  1.519039E+04  1.013954E+04  6.629555E+04  7.022666E+03  4.207971E+03
       371  22 -3.616607E+03 -3.197492E+02 -2.368470E+03  6.628438E+04  1.232406E+03  1.328872E+04
       371  23 -3.520610E+03 -5.370088E+00 -1.795105E+03  5.641820E+04  3.398429E+02  9.107376E+03
       371  24 -3.609922E+03  2.130090E+01 -1.874523E+03  6.628435E+04 -5.521965E+02  4.206789E+03
       371  25 -2.166940E+05 -5.110448E+04 -4.318652E+04  6.641580E+04 -4.270026E+03  1.328854E+04
       371  26 -1.418874E+05 -3.289244E+04 -2.785153E+04  5.647817E+04 -6.198306E+03  9.106739E+03
       371  27 -6.743957E+04 -1.514800E+04 -1.388855E+04  6.627315E+04 -8.126300E+03  4.205606E+03
       372   1  9.594644E+03  3.154500E+03  1.604129E+02  6.613037E+04 -6.647152E+03 -1.096687E+03
       372   2 -6.477648E+04 -1.466206E+04 -1.487439E+04  5.648480E+04 -4.241851E+03  3.859800E+03
       372   3 -1.396661E+05 -3.331939E+04 -3.168623E+04  6.657913E+04 -1.836589E+03  8.241093E+03
       372   4 -3.652395E+03  4.823222E+01 -2.124291E+03  6.628600E+04  9.035611E+02 -1.095439E+03
       372   5 -3.463907E+03 -5.713712E+01 -3.164746E+03  5.641617E+04  2.480393E+03  3.860741E+03
       372   6 -3.655352E+03 -8.590960E+02 -5.406759E+03  6.628613E+04  4.057463E+03  8.241768E+03
       372   7 -1.689914E+04 -3.058014E+03 -4.408787E+03  6.644162E+04  8.454118E+03 -1.094188E+03
       372   8  5.785239E+04  1.454759E+04  8.544895E+03  5.634753E+04  9.203285E+03  3.861681E+03
       372   9  1.323733E+05  3.160012E+04  2.087198E+04  6.599307E+04  9.952777E+03  8.242437E+03
       372  10  9.594596E+03  3.154487E+03  1.603276E+02  6.613036E+04  5.305751E-11  1.228341E-11
       372  11 -6.477651E+04 -1.466208E+04 -1.487445E+04  5.648481E+04 -1.585906E-11 -1.286826E-10
       372  12 -1.396661E+05 -3.331947E+04 -3.168637E+04  6.657914E+04 -2.960988E-10  1.389725E-10
       372  13 -3.652397E+03  4.823071E+01 -2.124295E+03  6.628600E+04  1.634977E-10 -5.140198E-11
       372  14 -3.463918E+03 -5.715478E+01 -3.164785E+03  5.641616E+04 -2.095615E-11 -2.598411E-10
       372  15 -3.655388E+03 -8.591734E+02 -5.406918E+03  6.628610E+04  3.393587E-10 -4.907174E-11
       372  16 -1.689922E+04 -3.058035E+03 -4.408924E+03  6.644163E+04 -2.651626E-12 -2.028812E-10
       372  17  5.785229E+04  1.454755E+04  8.544708E+03  5.634750E+04  9.116308E-11 -3.787627E-11
       372  18  1.323731E+05  3.160002E+04  2.087167E+04  6.599300E+04  2.417643E-10  8.509310E-11
       372  19  9.594644E+03  3.154500E+03  1.604129E+02  6.613037E+04  6.647152E+03  1.096687E+03
       372  20 -6.477648E+04 -1.466206E+04 -1.487439E+04  5.648480E+04  4.241851E+03 -3.859800E+03
       372  21 -1.396661E+05 -3.331939E+04 -3.168623E+04  6.657913E+04  1.836589E+03 -8.241093E+03
       372  22 -3.652395E+03  4.823222E+01 -2.124291E+03  6.628600E+04 -9.035611E+02  1.095439E+03
       372  23 -3.463907E+03 -5.713712E+01 -3.164746E+03  5.641617E+04 -2.480393E+03 -3.860741E+03
       372  24 -3.655352E+03 -8.590960E+02 -5.406759E+03  6.628613E+04 -4.057463E+03 -8.241768E+03
       372  25 -1.689914E+04 -3.058014E+03 -4.408787E+03  6.644162E+04 -8.454118E+03  1.094188E+03
       372  26  5.785239E+04  1.454759E+04  8.544895E+03  5.634753E+04 -9.203285E+03 -3.861681E+03
       372  27  1.323733E+05  3.160012E+04  2.087198E+04  6.599307E+04 -9.952777E+03 -8.242437E+03
       373   1 -1.915154E+05 -4.459885E+04 -4.308905E+04  6.410716E+04 -2.467817E+03  1.128671E+04
       373   2 -2.627723E+05 -6.649604E+04 -6.614816E+04  6.223278E+04  1.662552E+04  1.205298E+04
       373   3 -3.409047E+05 -1.060174E+05 -1.060446E+05  7.957497E+04  3.571522E+04  4.000457E+03
       373   4 -4.612951E+03  1.647366E+01 -6.939250E+03  6.617004E+04  4.981583E+03  1.128731E+04
       373   5 -2.281851E+03 -3.623239E+03 -1.231352E+04  5.656179E+04  1.138200E+04  1.205214E+04
       373   6 -4.625364E+03 -2.267905E+04 -2.570675E+04  6.617076E+04  1.778144E+04  3.999383E+03
       373   7  1.823232E+05  4.462976E+04  2.920913E+04  6.823357E+04  1.243318E+04  1.128796E+04
       373   8  2.582731E+05  5.924540E+04  4.151756E+04  5.088839E+04  6.136305E+03  1.205140E+04
       373   9  3.317588E+05  6.065195E+04  5.462449E+04  5.275925E+04 -1.620202E+02  3.999085E+03
       373  10 -1.915154E+05 -4.459899E+04 -4.308931E+04  6.410718E+04  5.716265E-11 -9.791563E-12
       373  11 -2.627727E+05 -6.649627E+04 -6.614895E+04  6.223261E+04  9.696366E-11 -1.080591E-10
       373  12 -3.409061E+05 -1.060177E+05 -1.060471E+05  7.957485E+04 -3.076315E-11 -2.955516E-11
       373  13 -4.613012E+03  1.633019E+01 -6.939536E+03  6.617000E+04 -1.277235E-10  8.630451E-11
       373  14 -2.282030E+03 -3.623430E+03 -1.231404E+04  5.656168E+04  2.575699E-11 -9.153584E-11
       373  15 -4.625708E+03 -2.267915E+04 -2.570737E+04  6.617070E+04 -1.404388E-10 -4.379165E-11
       373  16  1.823230E+05  4.462958E+04  2.920860E+04  6.823345E+04  3.841837E-11  7.784124E-11
       373  17  2.582730E+05  5.924524E+04  4.151721E+04  5.088833E+04  1.757696E-10  1.086403E-10
       373  18  3.317588E+05  6.065193E+04  5.462446E+04  5.275925E+04  2.810281E-11  2.443494E-11
       373  19 -1.915154E+05 -4.459885E+04 -4.308905E+04  6.410716E+04  2.467817E+03 -1.128671E+04
       373  20 -2.627723E+05 -6.649604E+04 -6.614816E+04  6.223278E+04 -1.662552E+04 -1.205298E+04
       373  21 -3.409047E+05 -1.060174E+05 -1.060446E+05  7.957497E+04 -3.571522E+04 -4.000457E+03
       373  22 -4.612951E+03  1.647366E+01 -6.939250E+03  6.617004E+04 -4.981583E+03 -1.128731E+04
       373  23 -2.281851E+03 -3.623239E+03 -1.231352E+04  5.656179E+04 -1.138200E+04 -1.205214E+04
       373  24 -4.625364E+03 -2.267905E+04 -2.570675E+04  6.617076E+04 -1.778144E+04 -3.999383E+03
       373  25  1.823232E+05  4.462976E+04  2.920913E+04  6.823357E+04 -1.243318E+04 -1.128796E+04
       373  26  2.582731E+05  5.924540E+04  4.151756E+04  5.088839E+04 -6.136305E+03 -1.205140E+04
       373  27  3.317588E+05  6.065195E+04  5.462449E+04  5.275925E+04  1.620202E+02 -3.999085E+03
       374   1 -1.108263E+05 -4.496683E+05 -1.126636E+05  1.058025E+05 -3.350418E+03 -4.031581E+04
       374   2 -5.781276E+04 -3.473102E+05 -6.300003E+04  8.210136E+04 -9.322526E+03 -1.911487E+04
       374   3 -2.886719E+04 -2.537320E+05 -3.316557E+04  8.380553E+04 -6.805376E+03  2.087990E+03
       374   4 -3.224473E+04 -1.328861E+05 -3.656990E+04  8.681510E+04 -3.343714E+03 -2.560580E+04
       374   5 -5.110707E+03 -1.295462E+05 -1.727722E+04  7.410598E+04 -9.321030E+03 -1.661888E+04
       374   6  8.191480E+01 -1.328705E+05 -9.323661E+03  8.680359E+04 -6.809694E+03 -7.633747E+03
       374   7  4.633106E+04  1.839892E+05  3.951772E+04  6.781796E+04 -3.337913E+03 -1.088831E+04
       374   8  4.758855E+04  8.826289E+04  2.844299E+04  6.610776E+04 -9.319598E+03 -1.412204E+04
       374   9  2.903021E+04 -1.199474E+04  1.451789E+04  8.980225E+04 -6.814105E+03 -1.735734E+04
       374  10 -1.108268E+05 -4.496701E+05 -1.126667E+05  1.058024E+05 -1.489472E-10 -3.571822E-10
       374  11 -5.781296E+04 -3.473106E+05 -6.300089E+04  8.210121E+04 -6.884686E-10 -1.837726E-10
       374  12 -2.886724E+04 -2.537320E+05 -3.316567E+04  8.380554E+04 -7.640659E-10 -4.247981E-10
       374  13 -3.224491E+04 -1.328868E+05 -3.657115E+04  8.681503E+04 -2.654581E-10 -3.530162E-11
       374  14 -5.110874E+03 -1.295465E+05 -1.727791E+04  7.410586E+04  4.761787E-11 -1.114070E-10
       374  15  8.184937E+01 -1.328705E+05 -9.323858E+03  8.680355E+04 -3.192855E-10  1.041082E-11
       374  16  4.633101E+04  1.839891E+05  3.951748E+04  6.781793E+04  5.242756E-11  3.842596E-10
       374  17  4.758840E+04  8.826265E+04  2.844246E+04  6.610765E+04 -2.043484E-10  6.669950E-11
       374  18  2.903008E+04 -1.199507E+04  1.451724E+04  8.980216E+04 -3.375727E-10  5.280828E-10
       374  19 -1.108263E+05 -4.496683E+05 -1.126636E+05  1.058025E+05  3.350418E+03  4.031581E+04
       374  20 -5.781276E+04 -3.473102E+05 -6.300003E+04  8.210136E+04  9.322526E+03  1.911487E+04
       374  21 -2.886719E+04 -2.537320E+05 -3.316557E+04  8.380553E+04  6.805376E+03 -2.087990E+03
       374  22 -3.224473E+04 -1.328861E+05 -3.656990E+04  8.681510E+04  3.343714E+03  2.560580E+04
       374  23 -5.110707E+03 -1.295462E+05 -1.727722E+04  7.410598E+04  9.321030E+03  1.661888E+04
       374  24  8.191480E+01 -1.328705E+05 -9.323661E+03  8.680359E+04  6.809694E+03  7.633747E+03
       374  25  4.633106E+04  1.839892E+05  3.951772E+04  6.781796E+04  3.337913E+03  1.088831E+04
       374  26  4.758855E+04  8.826289E+04  2.844299E+04  6.610776E+04  9.319598E+03  1.412204E+04
       374  27  2.903021E+04 -1.199474E+04  1.451789E+04  8.980225E+04  6.814105E+03  1.735734E+04
       375   1 -1.421046E+04 -1.856676E+05 -1.786986E+04  8.724280E+04 -2.788678E+03  1.904833E+03
       375   2  1.035260E+04 -8.757126E+04  5.057073E+03  7.407765E+04  2.929209E+03  3.242119E+03
       375   3  3.421893E+04  1.016755E+04  2.693290E+04  8.678082E+04  8.494368E+03  4.579875E+03
       375   4 -1.183849E+03 -1.314773E+05 -6.935008E+03  8.690805E+04 -2.792556E+03 -6.436587E+03
       375   5 -2.614295E+01 -1.312763E+05 -3.125762E+03  7.397345E+04  2.925592E+03 -4.879731E+03
       375   6  3.973287E+02 -1.314798E+05 -5.196394E+02  8.690733E+04  8.490984E+03 -3.322605E+03
       375   7  1.184261E+04 -7.728411E+04  3.999960E+03  8.657326E+04 -2.796426E+03 -1.477872E+04
       375   8 -1.040496E+04 -1.749793E+05 -1.130843E+04  7.386926E+04  2.921978E+03 -1.300102E+04
       375   9 -3.342544E+04 -2.731078E+05 -2.797289E+04  8.703382E+04  8.487596E+03 -1.122332E+04
       375  10 -1.421047E+04 -1.856676E+05 -1.786989E+04  8.724281E+04 -6.021683E-10  4.209735E-09
       375  11  1.035258E+04 -8.757127E+04  5.057037E+03  7.407764E+04  1.397526E-10 -8.181495E-09
       375  12  3.421885E+04  1.016751E+04  2.693273E+04  8.678079E+04  1.444545E-09 -1.956890E-08
       375  13 -1.183869E+03 -1.314774E+05 -6.935100E+03  8.690803E+04 -1.852909E-10 -2.445320E-11
       375  14 -2.615853E+01 -1.312763E+05 -3.125823E+03  7.397347E+04  1.710952E-10  2.015393E-10
       375  15  3.972483E+02 -1.314799E+05 -5.197957E+02  8.690736E+04  1.196120E-09  1.073643E-10
       375  16  1.184255E+04 -7.728434E+04  3.999535E+03  8.657323E+04 -2.942505E-10 -4.172828E-09
       375  17 -1.040501E+04 -1.749795E+05 -1.130876E+04  7.386930E+04  6.753416E-10  8.289982E-09
       375  18 -3.342555E+04 -2.731080E+05 -2.797326E+04  8.703389E+04  1.326041E-09  1.975602E-08
       375  19 -1.421046E+04 -1.856676E+05 -1.786986E+04  8.724280E+04  2.788678E+03 -1.904833E+03
       375  20  1.035260E+04 -8.757126E+04  5.057073E+03  7.407765E+04 -2.929209E+03 -3.242119E+03
       375  21  3.421893E+04  1.016755E+04  2.693290E+04  8.678082E+04 -8.494368E+03 -4.579875E+03
       375  22 -1.183849E+03 -1.314773E+05 -6.935008E+03  8.690805E+04  2.792556E+03  6.436587E+03
       375  23 -2.614295E+01 -1.312763E+05 -3.125762E+03  7.397345E+04 -2.925592E+03  4.879731E+03
       375  24  3.973287E+02 -1.314798E+05 -5.196394E+02  8.690733E+04 -8.490984E+03  3.322605E+03
       375  25  1.184261E+04 -7.728411E+04  3.999960E+03  8.657326E+04  2.796426E+03  1.477872E+04
       375  26 -1.040496E+04 -1.749793E+05 -1.130843E+04  7.386926E+04 -2.921978E+03  1.300102E+04
       375  27 -3.342544E+04 -2.731078E+05 -2.797289E+04  8.703382E+04 -8.487596E+03  1.122332E+04
       376   1  4.980278E+04  7.735652E+04  4.100127E+04  8.605175E+04  1.249363E+04  6.408988E+03
       376   2  7.490617E+04  1.732738E+05  6.651956E+04  7.600249E+04  1.389863E+04 -1.062797E+04
       376   3  1.077531E+05  2.733530E+05  1.050627E+05  9.121858E+04  4.672345E+03 -2.766581E+04
       376   4  3.987020E+01 -1.310618E+05  6.058471E+02  8.677383E+04  1.248985E+04 -3.279569E+03
       376   5  1.240746E+03 -1.318199E+05  3.282146E+03  7.413979E+04  1.390116E+04 -5.002862E+03
       376   6  7.529720E+03 -1.310803E+05  8.351396E+03  8.677144E+04  4.678964E+03 -6.724452E+03
       376   7 -4.972558E+04 -3.394381E+05 -3.979127E+04  8.749567E+04  1.248605E+04 -1.296495E+04
       376   8 -7.243056E+04 -4.368253E+05 -5.996022E+04  7.227802E+04  1.390367E+04  6.195258E+02
       376   9 -9.270524E+04 -5.353627E+05 -8.836981E+04  8.232718E+04  4.685285E+03  1.420333E+04
       376  10  4.980261E+04  7.735644E+04  4.100090E+04  8.605168E+04  1.253230E-09  1.963547E-08
       376  11  7.490593E+04  1.732736E+05  6.651899E+04  7.600261E+04  4.449805E-10  8.903500E-09
       376  12  1.077529E+05  2.733522E+05  1.050612E+05  9.121869E+04  8.692133E-11 -3.998458E-09
       376  13  3.969980E+01 -1.310618E+05  6.055337E+02  8.677387E+04  1.617435E-09 -3.154580E-11
       376  14  1.240532E+03 -1.318200E+05  3.281736E+03  7.413985E+04  4.303522E-10  8.914751E-11
       376  15  7.529684E+03 -1.310803E+05  8.351270E+03  8.677146E+04 -2.963510E-12  1.088138E-11
       376  16 -4.972580E+04 -3.394383E+05 -3.979188E+04  8.749580E+04  1.202946E-09 -1.954908E-08
       376  17 -7.243076E+04 -4.368254E+05 -5.996059E+04  7.227801E+04  3.532312E-10 -8.821585E-09
       376  18 -9.270531E+04 -5.353629E+05 -8.837023E+04  8.232713E+04  1.094388E-10  3.931464E-09
       376  19  4.980278E+04  7.735652E+04  4.100127E+04  8.605175E+04 -1.249363E+04 -6.408988E+03
       376  20  7.490617E+04  1.732738E+05  6.651956E+04  7.600249E+04 -1.389863E+04  1.062797E+04
       376  21  1.077531E+05  2.733530E+05  1.050627E+05  9.121858E+04 -4.672345E+03  2.766581E+04
       376  22  3.987020E+01 -1.310618E+05  6.058471E+02  8.677383E+04 -1.248985E+04  3.279569E+03
       376  23  1.240746E+03 -1.318199E+05  3.282146E+03  7.413979E+04 -1.390116E+04  5.002862E+03
       376  24  7.529720E+03 -1.310803E+05  8.351396E+03  8.677144E+04 -4.678964E+03  6.724452E+03
       376  25 -4.972558E+04 -3.394381E+05 -3.979127E+04  8.749567E+04 -1.248605E+04  1.296495E+04
       376  26 -7.243056E+04 -4.368253E+05 -5.996022E+04  7.227802E+04 -1.390367E+04 -6.195258E+02
       376  27 -9.270524E+04 -5.353627E+05 -8.836981E+04  8.232718E+04 -4.685285E+03 -1.420333E+04
       377   1  2.642488E+05  2.375275E+05  8.303824E+04  1.765547E+05  3.788690E+04  2.636380E+04
       377   2  2.564536E+05  1.870098E+05  4.818829E+04  1.860960E+05  2.571821E+04  1.253883E+04
       377   3  2.659491E+05  1.643105E+05  3.362415E+04  1.850323E+05  1.182466E+04  1.014878E+03
       377   4  2.082976E+05  1.499487E+05  5.581291E+04  1.268132E+05  3.189271E+04  2.186717E+04
       377   5  1.911526E+05  1.206372E+05  2.671864E+04  1.439356E+05  2.303884E+04  1.052919E+04
       377   6  1.905812E+05  1.184264E+05  1.503524E+04  1.504523E+05  1.246045E+04  1.491569E+03
       377   7  1.523502E+05  6.238036E+04  2.858691E+04  7.707817E+04  2.589913E+04  1.737186E+04
       377   8  1.258567E+05  5.427045E+04  5.248544E+03  1.017811E+05  2.035985E+04  8.519996E+03
       377   9  1.152210E+05  7.254521E+04 -3.553708E+03  1.158772E+05  1.309613E+04  1.968189E+03
       377  10  2.642470E+05  2.375264E+05  8.303424E+04  1.765539E+05  4.895822E-11  7.023311E-12
       377  11  2.564528E+05  1.870095E+05  4.818675E+04  1.860957E+05 -3.447023E-11 -2.841122E-10
       377  12  2.659489E+05  1.643105E+05  3.362389E+04  1.850323E+05 -1.178530E-10 -3.090576E-11
       377  13  2.082964E+05  1.499479E+05  5.581011E+04  1.268126E+05 -2.665849E-10 -2.419720E-12
       377  14  1.911520E+05  1.206369E+05  2.671744E+04  1.439354E+05 -1.116368E-10  4.162848E-11
       377  15  1.905810E+05  1.184263E+05  1.503495E+04  1.504522E+05 -3.854204E-10  1.617044E-10
       377  16  1.523494E+05  6.237985E+04  2.858508E+04  7.707780E+04  7.454726E-12 -6.207405E-11
       377  17  1.258562E+05  5.427026E+04  5.247629E+03  1.017810E+05 -6.164728E-11  3.206274E-11
       377  18  1.152208E+05  7.254516E+04 -3.554037E+03  1.158772E+05 -2.652462E-11  1.704459E-10
       377  19  2.642488E+05  2.375275E+05  8.303824E+04  1.765547E+05 -3.788690E+04 -2.636380E+04
       377  20  2.564536E+05  1.870098E+05  4.818829E+04  1.860960E+05 -2.571821E+04 -1.253883E+04
       377  21  2.659491E+05  1.643105E+05  3.362415E+04  1.850323E+05 -1.182466E+04 -1.014878E+03
       377  22  2.082976E+05  1.499487E+05  5.581291E+04  1.268132E+05 -3.189271E+04 -2.186717E+04
       377  23  1.911526E+05  1.206372E+05  2.671864E+04  1.439356E+05 -2.303884E+04 -1.052919E+04
       377  24  1.905812E+05  1.184264E+05  1.503524E+04  1.504523E+05 -1.246045E+04 -1.491569E+03
       377  25  1.523502E+05  6.238036E+04  2.858691E+04  7.707817E+04 -2.589913E+04 -1.737186E+04
       377  26  1.258567E+05  5.427045E+04  5.248544E+03  1.017811E+05 -2.035985E+04 -8.519996E+03
       377  27  1.152210E+05  7.254521E+04 -3.553708E+03  1.158772E+05 -1.309613E+04 -1.968189E+03
       378   1  2.560802E+05  1.667010E+05  2.911882E+04  1.824060E+05  1.043236E+04  3.852315E+02
       378   2  2.505209E+05  1.594855E+05  2.235407E+04  1.794886E+05  7.310708E+03 -1.580014E+03
       378   3  2.439177E+05  1.557278E+05  1.836899E+04  1.768738E+05  4.066133E+03 -3.381309E+03
       378   4  1.899011E+05  1.189363E+05  1.169275E+04  1.485463E+05  1.065978E+04  5.556434E+02
       378   5  1.900925E+05  1.165989E+05  6.782688E+03  1.488710E+05  7.774688E+03 -1.232192E+03
       378   6  1.891887E+05  1.176681E+05  4.447356E+03  1.494983E+05  4.766611E+03 -2.856112E+03
       378   7  1.237269E+05  7.117430E+04 -5.733714E+03  1.146909E+05  1.088716E+04  7.260302E+02
       378   8  1.296677E+05  7.371404E+04 -8.789161E+03  1.182567E+05  8.238610E+03 -8.844130E+02
       378   9  1.344622E+05  7.960955E+04 -9.474810E+03  1.221252E+05  5.467018E+03 -2.330968E+03
       378  10  2.560801E+05  1.667009E+05  2.911861E+04  1.824059E+05  5.824923E-11  1.711469E-10
       378  11  2.505208E+05  1.594855E+05  2.235397E+04  1.794886E+05 -4.145694E-11  6.380427E-11
       378  12  2.439177E+05  1.557278E+05  1.836894E+04  1.768738E+05 -3.113126E-11 -1.339227E-11
       378  13  1.899010E+05  1.189362E+05  1.169253E+04  1.485463E+05 -1.788282E-10  1.430165E-10
       378  14  1.900924E+05  1.165988E+05  6.782572E+03  1.488710E+05 -1.173333E-10 -4.475094E-11
       378  15  1.891887E+05  1.176681E+05  4.447298E+03  1.494983E+05  2.072712E-10  7.661501E-11
       378  16  1.237268E+05  7.117426E+04 -5.733937E+03  1.146909E+05 -1.322746E-10  1.726245E-11
       378  17  1.296676E+05  7.371402E+04 -8.789290E+03  1.182567E+05  3.679184E-11 -4.865053E-11
       378  18  1.344622E+05  7.960953E+04 -9.474877E+03  1.221252E+05  7.247922E-11  1.651617E-10
       378  19  2.560802E+05  1.667010E+05  2.911882E+04  1.824060E+05 -1.043236E+04 -3.852315E+02
       378  20  2.505209E+05  1.594855E+05  2.235407E+04  1.794886E+05 -7.310708E+03  1.580014E+03
       378  21  2.439177E+05  1.557278E+05  1.836899E+04  1.768738E+05 -4.066133E+03  3.381309E+03
       378  22  1.899011E+05  1.189363E+05  1.169275E+04  1.485463E+05 -1.065978E+04 -5.556434E+02
       378  23  1.900925E+05  1.165989E+05  6.782688E+03  1.488710E+05 -7.774688E+03  1.232192E+03
       378  24  1.891887E+05  1.176681E+05  4.447356E+03  1.494983E+05 -4.766611E+03  2.856112E+03
       378  25  1.237269E+05  7.117430E+04 -5.733714E+03  1.146909E+05 -1.088716E+04 -7.260302E+02
       378  26  1.296677E+05  7.371404E+04 -8.789161E+03  1.182567E+05 -8.238610E+03  8.844130E+02
       378  27  1.344622E+05  7.960955E+04 -9.474810E+03  1.221252E+05 -5.467018E+03  2.330968E+03
       379   1  2.394144E+05  1.530481E+05  1.666552E+04  1.747437E+05  3.294421E+03 -3.517111E+03
       379   2  2.341370E+05  1.475973E+05  1.474009E+04  1.713053E+05  1.537374E+03 -4.097749E+03
       379   3  2.269248E+05  1.445064E+05  1.399551E+04  1.685514E+05 -2.285456E+02 -4.666502E+03
       379   4  1.891384E+05  1.176791E+05  3.853239E+03  1.493995E+05  3.965362E+03 -3.014045E+03
       379   5  1.901098E+05  1.165042E+05  3.501355E+03  1.490552E+05  2.225520E+03 -3.581760E+03
       379   6  1.891423E+05  1.176854E+05  4.315424E+03  1.493953E+05  4.767739E+02 -4.137610E+03
       379   7  1.388662E+05  8.231226E+04 -8.958962E+03  1.240581E+05  4.636220E+03 -2.511042E+03
       379   8  1.460851E+05  8.541254E+04 -7.737404E+03  1.268071E+05  2.913595E+03 -3.065825E+03
       379   9  1.513614E+05  9.086531E+04 -5.364762E+03  1.302406E+05  1.182035E+03 -3.608761E+03
       379  10  2.394144E+05  1.530481E+05  1.666547E+04  1.747437E+05  4.000446E-10  3.553178E-10
       379  11  2.341370E+05  1.475973E+05  1.474005E+04  1.713053E+05  9.920781E-12 -2.345146E-10
       379  12  2.269248E+05  1.445064E+05  1.399547E+04  1.685514E+05 -4.948194E-11 -3.066288E-10
       379  13  1.891384E+05  1.176791E+05  3.853193E+03  1.493995E+05  1.623152E-10  2.139395E-11
       379  14  1.901097E+05  1.165042E+05  3.501321E+03  1.490552E+05 -6.903837E-11 -1.291639E-10
       379  15  1.891422E+05  1.176854E+05  4.315392E+03  1.493953E+05  6.774824E-11  7.772301E-11
       379  16  1.388661E+05  8.231225E+04 -8.959014E+03  1.240581E+05 -4.085328E-10 -2.050095E-10
       379  17  1.460850E+05  8.541252E+04 -7.737438E+03  1.268071E+05  7.229828E-11  1.027046E-11
       379  18  1.513614E+05  9.086530E+04 -5.364789E+03  1.302406E+05  1.524684E-10  1.823872E-10
       379  19  2.394144E+05  1.530481E+05  1.666552E+04  1.747437E+05 -3.294421E+03  3.517111E+03
       379  20  2.341370E+05  1.475973E+05  1.474009E+04  1.713053E+05 -1.537374E+03  4.097749E+03
       379  21  2.269248E+05  1.445064E+05  1.399551E+04  1.685514E+05  2.285456E+02  4.666502E+03
       379  22  1.891384E+05  1.176791E+05  3.853239E+03  1.493995E+05 -3.965362E+03  3.014045E+03
       379  23  1.901098E+05  1.165042E+05  3.501355E+03  1.490552E+05 -2.225520E+03  3.581760E+03
       379  24  1.891423E+05  1.176854E+05  4.315424E+03  1.493953E+05 -4.767739E+02  4.137610E+03
       379  25  1.388662E+05  8.231226E+04 -8.958962E+03  1.240581E+05 -4.636220E+03  2.511042E+03
       379  26  1.460851E+05  8.541254E+04 -7.737404E+03  1.268071E+05 -2.913595E+03  3.065825E+03
       379  27  1.513614E+05  9.086531E+04 -5.364762E+03  1.302406E+05 -1.182035E+03  3.608761E+03
       380   1  2.224917E+05  1.418686E+05  1.375533E+04  1.666714E+05 -1.110705E+03 -4.883603E+03
       380   2  2.177971E+05  1.358601E+05  1.529184E+04  1.626814E+05 -4.783931E+03 -6.872301E+03
       380   3  2.122570E+05  1.335715E+05  1.998473E+04  1.589074E+05 -8.461724E+03 -8.854991E+03
       380   4  1.892092E+05  1.176755E+05  5.180301E+03  1.495258E+05 -4.086809E+02 -4.357164E+03
       380   5  1.900776E+05  1.166077E+05  8.265344E+03  1.488240E+05 -4.073077E+03 -6.339228E+03
       380   6  1.900987E+05  1.192581E+05  1.449925E+04  1.483382E+05 -7.742026E+03 -8.315287E+03
       380   7  1.559273E+05  9.348273E+04 -3.394989E+03  1.323810E+05  2.933035E+02 -3.830757E+03
       380   8  1.623589E+05  9.735583E+04  1.238789E+03  1.349673E+05 -3.362266E+03 -5.806185E+03
       380   9  1.679414E+05  1.049451E+05  9.013837E+03  1.377696E+05 -7.022373E+03 -7.775615E+03
       380  10  2.224917E+05  1.418686E+05  1.375528E+04  1.666714E+05  1.804040E-10  3.035158E-11
       380  11  2.177970E+05  1.358600E+05  1.529171E+04  1.626814E+05  2.182209E-10  1.712272E-10
       380  12  2.122569E+05  1.335714E+05  1.998445E+04  1.589073E+05  1.038114E-10  1.763179E-10
       380  13  1.892092E+05  1.176755E+05  5.180265E+03  1.495258E+05  1.959717E-11  1.064492E-11
       380  14  1.900775E+05  1.166077E+05  8.265237E+03  1.488240E+05  2.001804E-10  2.383217E-10
       380  15  1.900987E+05  1.192580E+05  1.449900E+04  1.483381E+05 -2.462481E-10  1.147262E-10
       380  16  1.559273E+05  9.348271E+04 -3.395017E+03  1.323810E+05 -6.397852E-11  4.312075E-11
       380  17  1.623589E+05  9.735579E+04  1.238705E+03  1.349673E+05 -8.756542E-11 -4.422553E-11
       380  18  1.679414E+05  1.049451E+05  9.013631E+03  1.377695E+05  5.997090E-11 -2.472821E-12
       380  19  2.224917E+05  1.418686E+05  1.375533E+04  1.666714E+05  1.110705E+03  4.883603E+03
       380  20  2.177971E+05  1.358601E+05  1.529184E+04  1.626814E+05  4.783931E+03  6.872301E+03
       380  21  2.122570E+05  1.335715E+05  1.998473E+04  1.589074E+05  8.461724E+03  8.854991E+03
       380  22  1.892092E+05  1.176755E+05  5.180301E+03  1.495258E+05  4.086809E+02  4.357164E+03
       380  23  1.900776E+05  1.166077E+05  8.265344E+03  1.488240E+05  4.073077E+03  6.339228E+03
       380  24  1.900987E+05  1.192581E+05  1.449925E+04  1.483382E+05  7.742026E+03  8.315287E+03
       380  25  1.559273E+05  9.348273E+04 -3.394989E+03  1.323810E+05 -2.933035E+02  3.830757E+03
       380  26  1.623589E+05  9.735583E+04  1.238789E+03  1.349673E+05  3.362266E+03  5.806185E+03
       380  27  1.679414E+05  1.049451E+05  9.013837E+03  1.377696E+05  7.022373E+03  7.775615E+03
       381   1  2.027615E+05  1.361678E+05  2.309393E+04  1.609931E+05 -1.064907E+04 -1.005043E+04
       381   2  2.173064E+05  1.146014E+05  3.624215E+04  1.438950E+05 -2.502670E+04 -2.000736E+04
       381   3  2.529266E+05  1.266056E+05  7.123937E+04  1.134377E+05 -3.946154E+04 -2.988780E+04
       381   4  1.909055E+05  1.186678E+05  1.871066E+04  1.507361E+05 -9.943256E+03 -9.520948E+03
       381   5  1.914584E+05  1.215953E+05  3.336484E+04  1.426378E+05 -2.421125E+04 -1.939681E+04
       381   6  2.130619E+05  1.580690E+05  6.977326E+04  1.211803E+05 -3.853602E+04 -2.919733E+04
       381   7  1.790496E+05  1.011683E+05  1.432737E+04  1.404794E+05 -9.237456E+03 -8.991498E+03
       381   8  1.656114E+05  1.285897E+05  3.048763E+04  1.413805E+05 -2.339585E+04 -1.878623E+04
       381   9  1.732006E+05  1.895367E+05  6.830785E+04  1.289220E+05 -3.761059E+04 -2.850674E+04
       381  10  2.027614E+05  1.361677E+05  2.309353E+04  1.609931E+05  1.843756E-10  2.209801E-10
       381  11  2.173056E+05  1.146008E+05  3.624022E+04  1.438946E+05  2.012333E-10 -4.959772E-11
       381  12  2.529246E+05  1.266042E+05  7.123477E+04  1.134368E+05 -8.742222E-11 -9.978978E-11
       381  13  1.909054E+05  1.186677E+05  1.871030E+04  1.507360E+05  4.671068E-11  2.307304E-10
       381  14  1.914577E+05  1.215948E+05  3.336303E+04  1.426374E+05  1.642937E-10 -9.690145E-12
       381  15  2.130600E+05  1.580677E+05  6.976887E+04  1.211794E+05  1.602111E-10  2.097127E-11
       381  16  1.790495E+05  1.011682E+05  1.432706E+04  1.404793E+05 -2.055837E-10 -1.390662E-10
       381  17  1.656107E+05  1.285892E+05  3.048594E+04  1.413801E+05 -1.834376E-10  2.499125E-11
       381  18  1.731988E+05  1.895355E+05  6.830366E+04  1.289211E+05  1.241733E-10  6.844246E-11
       381  19  2.027615E+05  1.361678E+05  2.309393E+04  1.609931E+05  1.064907E+04  1.005043E+04
       381  20  2.173064E+05  1.146014E+05  3.624215E+04  1.438950E+05  2.502670E+04  2.000736E+04
       381  21  2.529266E+05  1.266056E+05  7.123937E+04  1.134377E+05  3.946154E+04  2.988780E+04
       381  22  1.909055E+05  1.186678E+05  1.871066E+04  1.507361E+05  9.943256E+03  9.520948E+03
       381  23  1.914584E+05  1.215953E+05  3.336484E+04  1.426378E+05  2.421125E+04  1.939681E+04
       381  24  2.130619E+05  1.580690E+05  6.977326E+04  1.211803E+05  3.853602E+04  2.919733E+04
       381  25  1.790496E+05  1.011683E+05  1.432737E+04  1.404794E+05  9.237456E+03  8.991498E+03
       381  26  1.656114E+05  1.285897E+05  3.048763E+04  1.413805E+05  2.339585E+04  1.878623E+04
       381  27  1.732006E+05  1.895367E+05  6.830785E+04  1.289220E+05  3.761059E+04  2.850674E+04
       382   1  5.778089E+05  1.090829E+05  1.073379E+05  7.297760E+04  3.229645E+04 -4.774569E+03
       382   2  5.018250E+05  7.710946E+04  7.127958E+04  5.894139E+04  1.404957E+04 -1.472950E+04
       382   3  4.311849E+05  5.694042E+04  5.004630E+04  6.367145E+04 -4.194220E+03 -1.468663E+04
       382   4  1.922889E+05  1.364195E+04  1.547726E+04  6.489519E+04  1.074542E+04 -4.775395E+03
       382   5  1.908756E+05  2.164997E+03  7.383459E+03  5.551241E+04  6.908513E+03 -1.473064E+04
       382   6  1.923046E+05 -4.024669E+00  4.116154E+03  6.489586E+04  3.072569E+03 -1.468608E+04
       382   7 -1.930938E+05 -8.180926E+04 -7.639204E+04  5.681781E+04 -1.079230E+04 -4.775662E+03
       382   8 -1.199819E+05 -7.278548E+04 -5.651763E+04  5.208516E+04 -2.290380E+02 -1.473170E+04
       382   9 -4.652063E+04 -5.695181E+04 -4.181642E+04  6.611978E+04  1.033663E+04 -1.468550E+04
       382  10  5.778078E+05  1.090826E+05  1.073359E+05  7.297772E+04  2.415127E-11  2.224581E-11
       382  11  5.018247E+05  7.710917E+04  7.127880E+04  5.894156E+04 -2.103958E-10 -7.487627E-12
       382  12  4.311848E+05  5.694018E+04  5.004586E+04  6.367140E+04 -9.722685E-11  1.055782E-10
       382  13  1.922887E+05  1.364190E+04  1.547700E+04  6.489523E+04  8.718890E-11  3.502799E-11
       382  14  1.908755E+05  2.164751E+03  7.382962E+03  5.551249E+04  7.155338E-11  1.063156E-10
       382  15  1.923045E+05 -4.258833E+00  4.115731E+03  6.489589E+04  1.638406E-10  8.026211E-11
       382  16 -1.930939E+05 -8.180932E+04 -7.639231E+04  5.681777E+04 -1.276063E-10 -1.256086E-10
       382  17 -1.199820E+05 -7.278571E+04 -5.651804E+04  5.208516E+04 -1.197650E-10 -1.300936E-10
       382  18 -4.652080E+04 -5.695207E+04 -4.181703E+04  6.611990E+04  2.139353E-10  4.135551E-11
       382  19  5.778089E+05  1.090829E+05  1.073379E+05  7.297760E+04 -3.229645E+04  4.774569E+03
       382  20  5.018250E+05  7.710946E+04  7.127958E+04  5.894139E+04 -1.404957E+04  1.472950E+04
       382  21  4.311849E+05  5.694042E+04  5.004630E+04  6.367145E+04  4.194220E+03  1.468663E+04
       382  22  1.922889E+05  1.364195E+04  1.547726E+04  6.489519E+04 -1.074542E+04  4.775395E+03
       382  23  1.908756E+05  2.164997E+03  7.383459E+03  5.551241E+04 -6.908513E+03  1.473064E+04
       382  24  1.923046E+05 -4.024669E+00  4.116154E+03  6.489586E+04 -3.072569E+03  1.468608E+04
       382  25 -1.930938E+05 -8.180926E+04 -7.639204E+04  5.681781E+04  1.079230E+04  4.775662E+03
       382  26 -1.199819E+05 -7.278548E+04 -5.651763E+04  5.208516E+04  2.290380E+02  1.473170E+04
       382  27 -4.652063E+04 -5.695181E+04 -4.181642E+04  6.611978E+04 -1.033663E+04  1.468550E+04
       383   1  3.806193E+05  4.554410E+04  3.939512E+04  6.521821E+04 -2.970942E+03 -1.171269E+04
       383   2  3.072279E+05  2.753300E+04  2.354911E+04  5.539601E+04 -4.802325E+03 -7.561767E+03
       383   3  2.342248E+05  1.010577E+04  9.040108E+03  6.492345E+04 -6.633981E+03 -2.743460E+03
       383   4  1.917252E+05  5.321748E+02  3.167453E+03  6.502553E+04  2.528296E+03 -1.171206E+04
       383   5  1.916198E+05  5.691179E+01  1.743685E+03  5.535067E+04  1.658301E+03 -7.560688E+03
       383   6  1.917308E+05 -9.693961E-01  9.897731E+02  6.502564E+04  7.878262E+02 -2.741861E+03
       383   7  2.865441E+03 -4.448184E+04 -3.306173E+04  6.483292E+04  8.025900E+03 -1.171143E+04
       383   8  7.602463E+04 -2.741993E+04 -2.006217E+04  5.530533E+04  8.117754E+03 -7.559610E+03
       383   9  1.492387E+05 -1.010778E+04 -7.060435E+03  6.512784E+04  8.209137E+03 -2.740261E+03
       383  10  3.806192E+05  4.554395E+04  3.939484E+04  6.521818E+04  2.298917E-10  1.134742E-10
       383  11  3.072278E+05  2.753293E+04  2.354896E+04  5.539598E+04  1.028617E-10 -1.565634E-10
       383  12  2.342247E+05  1.010575E+04  9.040011E+03  6.492343E+04  1.331642E-10 -4.694359E-11
       383  13  1.917251E+05  5.320258E+02  3.167183E+03  6.502556E+04  1.252564E-10  4.371424E-11
       383  14  1.916197E+05  5.684966E+01  1.743573E+03  5.535068E+04 -8.088104E-12  1.552711E-10
       383  15  1.917308E+05 -9.776366E-01  9.897578E+02  6.502565E+04 -8.593640E-11  1.389363E-10
       383  16  2.865335E+03 -4.448200E+04 -3.306211E+04  6.483300E+04 -2.305031E-10  2.082482E-11
       383  17  7.602455E+04 -2.742001E+04 -2.006240E+04  5.530538E+04  6.191866E-11 -1.382801E-10
       383  18  1.492386E+05 -1.010781E+04 -7.060576E+03  6.512785E+04  1.223754E-10  1.057036E-10
       383  19  3.806193E+05  4.554410E+04  3.939512E+04  6.521821E+04  2.970942E+03  1.171269E+04
       383  20  3.072279E+05  2.753300E+04  2.354911E+04  5.539601E+04  4.802325E+03  7.561767E+03
       383  21  2.342248E+05  1.010577E+04  9.040108E+03  6.492345E+04  6.633981E+03  2.743460E+03
       383  22  1.917252E+05  5.321748E+02  3.167453E+03  6.502553E+04 -2.528296E+03  1.171206E+04
       383  23  1.916198E+05  5.691179E+01  1.743685E+03  5.535067E+04 -1.658301E+03  7.560688E+03
       383  24  1.917308E+05 -9.693961E-01  9.897731E+02  6.502564E+04 -7.878262E+02  2.741861E+03
       383  25  2.865441E+03 -4.448184E+04 -3.306173E+04  6.483292E+04 -8.025900E+03  1.171143E+04
       383  26  7.602463E+04 -2.741993E+04 -2.006217E+04  5.530533E+04 -8.117754E+03  7.559610E+03
       383  27  1.492387E+05 -1.010778E+04 -7.060435E+03  6.512784E+04 -8.209137E+03  2.740261E+03
       384   1  1.845818E+05 -1.693855E+03 -7.416429E+02  6.498535E+04 -6.776329E+03  3.067747E+02
       384   2  1.114547E+05 -1.908172E+04 -1.481542E+04  5.531269E+04 -6.110974E+03  5.151454E+03
       384   3  3.821146E+04 -3.660212E+04 -2.935654E+04  6.499340E+04 -5.445361E+03  9.394741E+03
       384   4  1.916893E+05  2.486437E+01  7.457863E+02  6.502638E+04  6.342207E+02  3.084030E+02
       384   5  1.916734E+05  3.481463E+00  4.052086E+02  5.534978E+04  4.330206E+02  5.152674E+03
       384   6  1.916855E+05 -5.054813E-02  1.986395E+02  6.502639E+04  2.321670E+02  9.395603E+03
       384   7  1.987969E+05  1.743609E+03  2.233419E+03  6.506741E+04  8.044853E+03  3.100322E+02
       384   8  2.718984E+05  1.908832E+04  1.562572E+04  5.538687E+04  6.977840E+03  5.153894E+03
       384   9  3.451822E+05  3.660064E+04  2.975285E+04  6.505939E+04  5.911066E+03  9.396466E+03
       384  10  1.845817E+05 -1.693867E+03 -7.417294E+02  6.498536E+04  4.706900E-11 -7.852447E-11
       384  11  1.114546E+05 -1.908175E+04 -1.481554E+04  5.531271E+04  3.956228E-11  2.465731E-10
       384  12  3.821140E+04 -3.660222E+04 -2.935676E+04  6.499345E+04 -1.997063E-10  2.545858E-10
       384  13  1.916893E+05  2.486416E+01  7.457854E+02  6.502638E+04  5.710943E-11 -4.406441E-11
       384  14  1.916734E+05  3.452900E+00  4.051583E+02  5.534977E+04 -1.192435E-10 -1.253134E-10
       384  15  1.916855E+05 -1.453652E-01  1.984735E+02  6.502639E+04  1.061924E-10  2.766817E-10
       384  16  1.987968E+05  1.743592E+03  2.233297E+03  6.506741E+04 -5.604659E-11  3.610804E-11
       384  17  2.718983E+05  1.908828E+04  1.562557E+04  5.538684E+04  1.241920E-10 -8.022965E-11
       384  18  3.451822E+05  3.660053E+04  2.975262E+04  6.505934E+04  4.003468E-10  1.945251E-10
       384  19  1.845818E+05 -1.693855E+03 -7.416429E+02  6.498535E+04  6.776329E+03 -3.067747E+02
       384  20  1.114547E+05 -1.908172E+04 -1.481542E+04  5.531269E+04  6.110974E+03 -5.151454E+03
       384  21  3.821146E+04 -3.660212E+04 -2.935654E+04  6.499340E+04  5.445361E+03 -9.394741E+03
       384  22  1.916893E+05  2.486437E+01  7.457863E+02  6.502638E+04 -6.342207E+02 -3.084030E+02
       384  23  1.916734E+05  3.481463E+00  4.052086E+02  5.534978E+04 -4.330206E+02 -5.152674E+03
       384  24  1.916855E+05 -5.054813E-02  1.986395E+02  6.502639E+04 -2.321670E+02 -9.395603E+03
       384  25  1.987969E+05  1.743609E+03  2.233419E+03  6.506741E+04 -8.044853E+03 -3.100322E+02
       384  26  2.718984E+05  1.908832E+04  1.562572E+04  5.538687E+04 -6.977840E+03 -5.153894E+03
       384  27  3.451822E+05  3.660064E+04  2.975285E+04  6.505939E+04 -5.911066E+03 -9.396466E+03
       385   1 -1.173080E+04 -4.852205E+04 -3.911849E+04  6.485915E+04 -7.089331E+03  1.237630E+04
       385   2 -8.385808E+04 -6.650206E+04 -5.682397E+04  5.551496E+04  6.076129E+03  1.287256E+04
       385   3 -1.582801E+05 -8.686663E+04 -8.369530E+04  6.498686E+04  1.923961E+04  4.231522E+03
       385   4  1.916726E+05  3.275840E+00  1.236281E+02  6.490693E+04  2.006484E+02  1.237715E+04
       385   5  1.916733E+05 -3.607501E+01 -1.203908E+01  5.549911E+04  2.104954E+02  1.287154E+04
       385   6  1.916597E+05 -1.750648E+02 -1.772953E+02  6.490695E+04  2.197823E+02  4.230477E+03
       385   7  3.951158E+05  4.852617E+04  3.936403E+04  6.495473E+04  7.492961E+03  1.237801E+04
       385   8  4.672768E+05  6.642513E+04  5.679593E+04  5.548325E+04 -5.657696E+03  1.287053E+04
       385   9  5.417126E+05  8.650784E+04  8.333346E+04  6.482698E+04 -1.881072E+04  4.229438E+03
       385  10 -1.173089E+04 -4.852223E+04 -3.911888E+04  6.485922E+04  3.106456E-10  3.768350E-10
       385  11 -8.385816E+04 -6.650224E+04 -5.682435E+04  5.551490E+04 -4.488913E-11  7.325030E-11
       385  12 -1.582805E+05 -8.686675E+04 -8.369603E+04  6.498680E+04 -1.061145E-10  4.549899E-11
       385  13  1.916725E+05  3.111311E+00  1.233401E+02  6.490693E+04  2.349785E-10  4.521673E-10
       385  14  1.916733E+05 -3.625295E+01 -1.235053E+01  5.549911E+04  2.389602E-10  1.689481E-10
       385  15  1.916597E+05 -1.750840E+02 -1.773291E+02  6.490695E+04  1.217252E-10  2.298647E-11
       385  16  3.951157E+05  4.852599E+04  3.936363E+04  6.495466E+04 -2.190249E-10  2.815201E-10
       385  17  4.672767E+05  6.642494E+04  5.679556E+04  5.548331E+04  7.666045E-11  1.417155E-10
       385  18  5.417122E+05  8.650772E+04  8.333276E+04  6.482705E+04 -4.329134E-11  2.359195E-11
       385  19 -1.173080E+04 -4.852205E+04 -3.911849E+04  6.485915E+04  7.089331E+03 -1.237630E+04
       385  20 -8.385808E+04 -6.650206E+04 -5.682397E+04  5.551496E+04 -6.076129E+03 -1.287256E+04
       385  21 -1.582801E+05 -8.686663E+04 -8.369530E+04  6.498686E+04 -1.923961E+04 -4.231522E+03
       385  22  1.916726E+05  3.275840E+00  1.236281E+02  6.490693E+04 -2.006484E+02 -1.237715E+04
       385  23  1.916733E+05 -3.607501E+01 -1.203908E+01  5.549911E+04 -2.104954E+02 -1.287154E+04
       385  24  1.916597E+05 -1.750648E+02 -1.772953E+02  6.490695E+04 -2.197823E+02 -4.230477E+03
       385  25  3.951158E+05  4.852617E+04  3.936403E+04  6.495473E+04 -7.492961E+03 -1.237801E+04
       385  26  4.672768E+05  6.642513E+04  5.679593E+04  5.548325E+04  5.657696E+03 -1.287053E+04
       385  27  5.417126E+05  8.650784E+04  8.333346E+04  6.482698E+04  1.881072E+04 -4.229438E+03
       386   1 -1.212669E+05 -4.508752E+05 -1.271749E+05  1.079073E+05 -2.654072E+03 -5.619465E+04
       386   2 -5.087382E+04 -3.607596E+05 -6.821604E+04  7.744656E+04 -7.253228E+03 -2.969190E+04
       386   3 -2.149957E+04 -2.843514E+05 -3.677655E+04  6.859601E+04 -4.952473E+03 -3.185946E+03
       386   4 -5.765876E+04 -1.944799E+05 -6.552667E+04  7.378309E+04 -2.647957E+03 -4.460631E+04
       386   5 -9.158303E+03 -1.884800E+05 -3.192474E+04  6.296957E+04 -7.251911E+03 -2.802973E+04
       386   6  5.352628E+01 -1.944655E+05 -1.893994E+04  7.376906E+04 -4.955149E+03 -1.145386E+04
       386   7  5.949019E+03  6.197846E+04 -3.882027E+03  3.964475E+04 -2.643118E+03 -3.301319E+04
       386   8  3.255610E+04 -1.617192E+04  4.365003E+03  4.848849E+04 -7.250671E+03 -2.636710E+04
       386   9  2.160626E+04 -1.045717E+05 -1.103465E+03  7.894287E+04 -4.957962E+03 -1.972294E+04
       386  10 -1.212677E+05 -4.508786E+05 -1.271808E+05  1.079071E+05 -1.530623E-10 -6.607079E-11
       386  11 -5.087412E+04 -3.607605E+05 -6.821780E+04  7.744639E+04  2.941937E-11 -8.408957E-12
       386  12 -2.149960E+04 -2.843514E+05 -3.677661E+04  6.859600E+04 -1.577736E-11  8.353120E-11
       386  13 -5.765930E+04 -1.944820E+05 -6.553042E+04  7.378299E+04 -8.680571E-12 -3.787345E-11
       386  14 -9.158571E+03 -1.884809E+05 -3.192632E+04  6.296940E+04  6.320779E-11 -1.556730E-10
       386  15  5.346470E+01 -1.944656E+05 -1.894023E+04  7.376901E+04 -1.409755E-10 -6.220921E-11
       386  16  5.948719E+03  6.197729E+04 -3.884088E+03  3.964468E+04 -4.633573E-11  1.871084E-10
       386  17  3.255585E+04 -1.617268E+04  4.363598E+03  4.848833E+04 -3.443365E-10  1.642781E-12
       386  18  2.160613E+04 -1.045721E+05 -1.104242E+03  7.894279E+04  1.008325E-10 -7.358252E-11
       386  19 -1.212669E+05 -4.508752E+05 -1.271749E+05  1.079073E+05  2.654072E+03  5.619465E+04
       386  20 -5.087382E+04 -3.607596E+05 -6.821604E+04  7.744656E+04  7.253228E+03  2.969190E+04
       386  21 -2.149957E+04 -2.843514E+05 -3.677655E+04  6.859601E+04  4.952473E+03  3.185946E+03
       386  22 -5.765876E+04 -1.944799E+05 -6.552667E+04  7.378309E+04  2.647957E+03  4.460631E+04
       386  23 -9.158303E+03 -1.884800E+05 -3.192474E+04  6.296957E+04  7.251911E+03  2.802973E+04
       386  24  5.352628E+01 -1.944655E+05 -1.893994E+04  7.376906E+04  4.955149E+03  1.145386E+04
       386  25  5.949019E+03  6.197846E+04 -3.882027E+03  3.964475E+04  2.643118E+03  3.301319E+04
       386  26  3.255610E+04 -1.617192E+04  4.365003E+03  4.848849E+04  7.250671E+03  2.636710E+04
       386  27  2.160626E+04 -1.045717E+05 -1.103465E+03  7.894287E+04  4.957962E+03  1.972294E+04
       387   1 -1.015147E+04 -2.253491E+05 -2.237734E+04  7.483772E+04 -1.535383E+03 -1.684470E+03
       387   2  1.160171E+04 -1.414532E+05 -1.859888E+03  6.293174E+04  3.348145E+03  3.656525E+03
       387   3  3.071444E+04 -5.891586E+04  1.451608E+04  7.301120E+04  8.057083E+03  8.998461E+03
       387   4 -2.129370E+03 -1.921144E+05 -1.550550E+04  7.385396E+04 -1.537771E+03 -8.838241E+03
       387   5 -2.626213E+02 -1.914112E+05 -1.121402E+04  6.286096E+04  3.345989E+03 -3.246248E+03
       387   6 -1.079550E+03 -1.921168E+05 -1.123808E+04  7.385364E+04  8.055150E+03  2.346005E+03
       387   7  5.892694E+03 -1.588785E+05 -8.633529E+03  7.287014E+04 -1.540137E+03 -1.599239E+04
       387   8 -1.212707E+04 -2.413668E+05 -2.056809E+04  6.279019E+04  3.343834E+03 -1.014848E+04
       387   9 -3.287457E+04 -3.253006E+05 -3.699290E+04  7.469590E+04  8.053199E+03 -4.305056E+03
       387  10 -1.015148E+04 -2.253491E+05 -2.237735E+04  7.483772E+04 -8.132719E-11 -1.706502E-10
       387  11  1.160169E+04 -1.414532E+05 -1.859935E+03  6.293173E+04 -1.847056E-10  2.024600E-10
       387  12  3.071435E+04 -5.891596E+04  1.451581E+04  7.301114E+04  2.276089E-10  4.375892E-10
       387  13 -2.129394E+03 -1.921145E+05 -1.550565E+04  7.385395E+04 -8.030827E-11 -8.399938E-12
       387  14 -2.626362E+02 -1.914112E+05 -1.121406E+04  6.286097E+04 -3.958767E-10 -2.251027E-11
       387  15 -1.079621E+03 -1.921168E+05 -1.123821E+04  7.385363E+04  8.642994E-11  1.829594E-10
       387  16  5.892622E+03 -1.588788E+05 -8.634014E+03  7.287013E+04 -1.224612E-10  3.313553E-10
       387  17 -1.212711E+04 -2.413669E+05 -2.056830E+04  6.279022E+04 -1.223730E-10 -1.703827E-10
       387  18 -3.287465E+04 -3.253007E+05 -3.699306E+04  7.469593E+04  2.076051E-10 -4.147367E-10
       387  19 -1.015147E+04 -2.253491E+05 -2.237734E+04  7.483772E+04  1.535383E+03  1.684470E+03
       387  20  1.160171E+04 -1.414532E+05 -1.859888E+03  6.293174E+04 -3.348145E+03 -3.656525E+03
       387  21  3.071444E+04 -5.891586E+04  1.451608E+04  7.301120E+04 -8.057083E+03 -8.998461E+03
       387  22 -2.129370E+03 -1.921144E+05 -1.550550E+04  7.385396E+04  1.537771E+03  8.838241E+03
       387  23 -2.626213E+02 -1.914112E+05 -1.121402E+04  6.286096E+04 -3.345989E+03  3.246248E+03
       387  24 -1.079550E+03 -1.921168E+05 -1.123808E+04  7.385364E+04 -8.055150E+03 -2.346005E+03
       387  25  5.892694E+03 -1.588785E+05 -8.633529E+03  7.287014E+04  1.540137E+03  1.599239E+04
       387  26 -1.212707E+04 -2.413668E+05 -2.056809E+04  6.279019E+04 -3.343834E+03  1.014848E+04
       387  27 -3.287457E+04 -3.253006E+05 -3.699290E+04  7.469590E+04 -8.053199E+03  4.305056E+03
       388   1  4.537137E+04 -3.306522E+03  2.442523E+04  7.643479E+04  1.145416E+04  1.242474E+04
       388   2  6.073881E+04  8.208021E+04  3.806389E+04  5.508816E+04  1.249126E+04  8.412052E+03
       388   3  5.714284E+04  1.632612E+05  4.957468E+04  5.519168E+04  4.176477E+03  4.399568E+03
       388   4  2.245249E+01 -1.932632E+05 -1.233486E+04  7.373424E+04  1.145197E+04  4.193996E+03
       388   5 -4.937784E+03 -1.899956E+05 -1.824946E+04  6.301141E+04  1.249298E+04  1.364684E+04
       388   6 -3.120401E+04 -1.932804E+05 -3.564571E+04  7.374038E+04  4.180099E+03  2.310011E+04
       388   7 -4.532855E+04 -3.831850E+05 -4.909637E+04  7.103453E+04  1.144986E+04 -4.034284E+03
       388   8 -7.061882E+04 -4.620010E+05 -7.456670E+04  7.093112E+04  1.249483E+04  1.887937E+04
       388   9 -1.195586E+05 -5.497040E+05 -1.208736E+05  9.227837E+04  4.184840E+03  4.178995E+04
       388  10  4.537119E+04 -3.306723E+03  2.442469E+04  7.643467E+04  8.582150E-11  3.036669E-11
       388  11  6.073863E+04  8.208009E+04  3.806346E+04  5.508807E+04  1.881303E-10  2.003892E-11
       388  12  5.714281E+04  1.632612E+05  4.957461E+04  5.519166E+04  4.655151E-11 -1.714296E-10
       388  13  2.230695E+01 -1.932632E+05 -1.233514E+04  7.373420E+04  2.296015E-10 -9.660881E-11
       388  14 -4.938002E+03 -1.899958E+05 -1.825011E+04  6.301127E+04  2.053483E-10  7.453714E-11
       388  15 -3.120417E+04 -1.932810E+05 -3.564674E+04  7.374030E+04  5.995177E-11 -2.157473E-11
       388  16 -4.532870E+04 -3.831850E+05 -4.909665E+04  7.103457E+04  1.465442E-10  1.385318E-10
       388  17 -7.061909E+04 -4.620014E+05 -7.456766E+04  7.093093E+04  5.208765E-11  2.137841E-10
       388  18 -1.195591E+05 -5.497059E+05 -1.208769E+05  9.227823E+04  1.000027E-10  1.158459E-10
       388  19  4.537137E+04 -3.306522E+03  2.442523E+04  7.643479E+04 -1.145416E+04 -1.242474E+04
       388  20  6.073881E+04  8.208021E+04  3.806389E+04  5.508816E+04 -1.249126E+04 -8.412052E+03
       388  21  5.714284E+04  1.632612E+05  4.957468E+04  5.519168E+04 -4.176477E+03 -4.399568E+03
       388  22  2.245249E+01 -1.932632E+05 -1.233486E+04  7.373424E+04 -1.145197E+04 -4.193996E+03
       388  23 -4.937784E+03 -1.899956E+05 -1.824946E+04  6.301141E+04 -1.249298E+04 -1.364684E+04
       388  24 -3.120401E+04 -1.932804E+05 -3.564571E+04  7.374038E+04 -4.180099E+03 -2.310011E+04
       388  25 -4.532855E+04 -3.831850E+05 -4.909637E+04  7.103453E+04 -1.144986E+04  4.034284E+03
       388  26 -7.061882E+04 -4.620010E+05 -7.456670E+04  7.093112E+04 -1.249483E+04 -1.887937E+04
       388  27 -1.195586E+05 -5.497040E+05 -1.208736E+05  9.227837E+04 -4.184840E+03 -4.178995E+04
       389   1  2.734387E+05  2.245050E+05  6.746387E+04  1.889851E+05  3.565008E+04  2.611171E+04
       389   2  2.724671E+05  1.777147E+05  3.531750E+04  2.037494E+05  2.356194E+04  1.548303E+04
       389   3  2.924094E+05  1.576494E+05  2.272428E+04  2.062129E+05  1.104605E+04  5.425322E+03
       389   4  2.818236E+05  1.786861E+05  6.042798E+04  1.692951E+05  3.379834E+04  2.472044E+04
       389   5  2.618641E+05  1.483500E+05  2.890034E+04  1.882441E+05  2.253103E+04  1.470927E+04
       389   6  2.626403E+05  1.445596E+05  1.621330E+04  1.948923E+05  1.083642E+04  5.268241E+03
       389   7  2.902102E+05  1.328729E+05  5.339269E+04  1.496055E+05  3.194658E+04  2.332945E+04
       389   8  2.512615E+05  1.189871E+05  2.248330E+04  1.727395E+05  2.150014E+04  1.393559E+04
       389   9  2.328723E+05  1.314701E+05  9.702280E+03  1.835723E+05  1.062681E+04  5.111166E+03
       389  10  2.734371E+05  2.245039E+05  6.746021E+04  1.889843E+05  2.352154E-10  1.750849E-10
       389  11  2.724664E+05  1.777143E+05  3.531601E+04  2.037491E+05  6.216555E-10  5.034134E-11
       389  12  2.924093E+05  1.576493E+05  2.272400E+04  2.062128E+05  2.749849E-10 -1.401167E-10
       389  13  2.818222E+05  1.786852E+05  6.042468E+04  1.692944E+05 -1.871872E-10 -7.571048E-11
       389  14  2.618634E+05  1.483496E+05  2.889898E+04  1.882438E+05  2.641883E-10 -9.714905E-11
       389  15  2.626402E+05  1.445596E+05  1.621303E+04  1.948923E+05  9.990812E-11  9.070073E-11
       389  16  2.902089E+05  1.328720E+05  5.338975E+04  1.496049E+05 -2.668078E-13 -1.117901E-10
       389  17  2.512610E+05  1.189867E+05  2.248206E+04  1.727393E+05 -3.000945E-10 -1.172628E-10
       389  18  2.328722E+05  1.314700E+05  9.702019E+03  1.835723E+05 -9.196860E-11  3.132683E-10
       389  19  2.734387E+05  2.245050E+05  6.746387E+04  1.889851E+05 -3.565008E+04 -2.611171E+04
       389  20  2.724671E+05  1.777147E+05  3.531750E+04  2.037494E+05 -2.356194E+04 -1.548303E+04
       389  21  2.924094E+05  1.576494E+05  2.272428E+04  2.062129E+05 -1.104605E+04 -5.425322E+03
       389  22  2.818236E+05  1.786861E+05  6.042798E+04  1.692951E+05 -3.379834E+04 -2.472044E+04
       389  23  2.618641E+05  1.483500E+05  2.890034E+04  1.882441E+05 -2.253103E+04 -1.470927E+04
       389  24  2.626403E+05  1.445596E+05  1.621330E+04  1.948923E+05 -1.083642E+04 -5.268241E+03
       389  25  2.902102E+05  1.328729E+05  5.339269E+04  1.496055E+05 -3.194658E+04 -2.332945E+04
       389  26  2.512615E+05  1.189871E+05  2.248330E+04  1.727395E+05 -2.150014E+04 -1.393559E+04
       389  27  2.328723E+05  1.314701E+05  9.702280E+03  1.835723E+05 -1.062681E+04 -5.111166E+03
       390   1  2.875059E+05  1.642670E+05  1.936711E+04  2.062520E+05  9.486171E+03  4.126789E+03
       390   2  2.884446E+05  1.638619E+05  1.432679E+04  2.077371E+05  6.709920E+03  1.740202E+03
       390   3  2.911293E+05  1.642246E+05  1.207122E+04  2.086902E+05  3.902955E+03 -6.055013E+02
       390   4  2.619324E+05  1.450804E+05  1.256895E+04  1.928188E+05  9.175284E+03  3.893644E+03
       390   5  2.606805E+05  1.440175E+05  7.178715E+03  1.935991E+05  6.458092E+03  1.551348E+03
       390   6  2.611618E+05  1.437095E+05  4.522029E+03  1.938473E+05  3.710243E+03 -7.500272E+02
       390   7  2.363592E+05  1.258941E+05  5.770591E+03  1.793861E+05  8.864408E+03  3.660510E+03
       390   8  2.329173E+05  1.241737E+05  3.058029E+01  1.794618E+05  6.206279E+03  1.362506E+03
       390   9  2.311958E+05  1.231953E+05 -3.027080E+03  1.790055E+05  3.517546E+03 -8.945420E+02
       390  10  2.875058E+05  1.642669E+05  1.936690E+04  2.062519E+05  4.825633E-10  2.688630E-10
       390  11  2.884446E+05  1.638619E+05  1.432670E+04  2.077371E+05  1.037098E-10  4.441426E-11
       390  12  2.911293E+05  1.642246E+05  1.207119E+04  2.086902E+05 -1.823201E-10 -1.127040E-10
       390  13  2.619323E+05  1.450804E+05  1.256876E+04  1.928188E+05  1.174370E-10  2.016763E-10
       390  14  2.606805E+05  1.440175E+05  7.178632E+03  1.935991E+05 -1.569007E-10  2.679720E-12
       390  15  2.611618E+05  1.437095E+05  4.522002E+03  1.938473E+05 -3.160756E-10  7.078572E-11
       390  16  2.363591E+05  1.258940E+05  5.770419E+03  1.793861E+05 -4.707192E-10 -3.463049E-11
       390  17  2.329172E+05  1.241736E+05  3.050445E+01  1.794618E+05 -2.859993E-10  5.619577E-11
       390  18  2.311958E+05  1.231953E+05 -3.027104E+03  1.790055E+05  2.905113E-10  3.542746E-10
       390  19  2.875059E+05  1.642670E+05  1.936711E+04  2.062520E+05 -9.486171E+03 -4.126789E+03
       390  20  2.884446E+05  1.638619E+05  1.432679E+04  2.077371E+05 -6.709920E+03 -1.740202E+03
       390  21  2.911293E+05  1.642246E+05  1.207122E+04  2.086902E+05 -3.902955E+03  6.055013E+02
       390  22  2.619324E+05  1.450804E+05  1.256895E+04  1.928188E+05 -9.175284E+03 -3.893644E+03
       390  23  2.606805E+05  1.440175E+05  7.178715E+03  1.935991E+05 -6.458092E+03 -1.551348E+03
       390  24  2.611618E+05  1.437095E+05  4.522029E+03  1.938473E+05 -3.710243E+03  7.500272E+02
       390  25  2.363592E+05  1.258941E+05  5.770591E+03  1.793861E+05 -8.864408E+03 -3.660510E+03
       390  26  2.329173E+05  1.241737E+05  3.058029E+01  1.794618E+05 -6.206279E+03 -1.362506E+03
       390  27  2.311958E+05  1.231953E+05 -3.027080E+03  1.790055E+05 -3.517546E+03  8.945420E+02
       391   1  2.919333E+05  1.653186E+05  1.163466E+04  2.092343E+05  3.381934E+03 -1.118318E+03
       391   2  2.931576E+05  1.667865E+05  1.138794E+04  2.101728E+05  2.238083E+03 -2.187428E+03
       391   3  2.951771E+05  1.678365E+05  1.218906E+04  2.109856E+05  1.087742E+03 -3.247892E+03
       391   4  2.611048E+05  1.437185E+05  3.784346E+03  1.937351E+05  3.180709E+03 -1.269231E+03
       391   5  2.607075E+05  1.439269E+05  3.113855E+03  1.937994E+05  2.049408E+03 -2.328936E+03
       391   6  2.611028E+05  1.437148E+05  3.480373E+03  1.937380E+05  9.116133E+02 -3.379998E+03
       391   7  2.302773E+05  1.221189E+05 -4.066052E+03  1.782368E+05  2.979497E+03 -1.420135E+03
       391   8  2.282583E+05  1.210678E+05 -5.160401E+03  1.774269E+05  1.860746E+03 -2.470436E+03
       391   9  2.270292E+05  1.195934E+05 -5.228591E+03  1.764913E+05  7.354947E+02 -3.512097E+03
       391  10  2.919333E+05  1.653186E+05  1.163464E+04  2.092343E+05  2.504819E-10  1.162228E-10
       391  11  2.931575E+05  1.667865E+05  1.138792E+04  2.101728E+05 -9.502164E-11 -2.178435E-10
       391  12  2.951771E+05  1.678365E+05  1.218904E+04  2.109856E+05 -3.796790E-10 -8.170054E-11
       391  13  2.611048E+05  1.437185E+05  3.784324E+03  1.937351E+05 -2.209306E-10  8.916887E-11
       391  14  2.607075E+05  1.439269E+05  3.113837E+03  1.937994E+05  1.956347E-10  3.378163E-11
       391  15  2.611028E+05  1.437148E+05  3.480350E+03  1.937380E+05 -9.039461E-11  4.972686E-11
       391  16  2.302773E+05  1.221189E+05 -4.066072E+03  1.782368E+05 -2.700694E-10  4.642427E-11
       391  17  2.282583E+05  1.210678E+05 -5.160419E+03  1.774269E+05  2.630024E-10  3.948343E-11
       391  18  2.270292E+05  1.195934E+05 -5.228615E+03  1.764913E+05  3.148810E-10  1.660347E-10
       391  19  2.919333E+05  1.653186E+05  1.163466E+04  2.092343E+05 -3.381934E+03  1.118318E+03
       391  20  2.931576E+05  1.667865E+05  1.138794E+04  2.101728E+05 -2.238083E+03  2.187428E+03
       391  21  2.951771E+05  1.678365E+05  1.218906E+04  2.109856E+05 -1.087742E+03  3.247892E+03
       391  22  2.611048E+05  1.437185E+05  3.784346E+03  1.937351E+05 -3.180709E+03  1.269231E+03
       391  23  2.607075E+05  1.439269E+05  3.113855E+03  1.937994E+05 -2.049408E+03  2.328936E+03
       391  24  2.611028E+05  1.437148E+05  3.480373E+03  1.937380E+05 -9.116133E+02  3.379998E+03
       391  25  2.302773E+05  1.221189E+05 -4.066052E+03  1.782368E+05 -2.979497E+03  1.420135E+03
       391  26  2.282583E+05  1.210678E+05 -5.160401E+03  1.774269E+05 -1.860746E+03  2.470436E+03
       391  27  2.270292E+05  1.195934E+05 -5.228591E+03  1.764913E+05 -7.354947E+02  3.512097E+03
       392   1  2.961329E+05  1.688860E+05  1.305492E+04  2.117292E+05  6.284496E+02 -3.713501E+03
       392   2  2.978075E+05  1.699554E+05  1.569461E+04  2.122524E+05 -1.898744E+03 -5.751061E+03
       392   3  3.010700E+05  1.716078E+05  2.079512E+04  2.123024E+05 -4.489071E+03 -7.704364E+03
       392   4  2.611467E+05  1.437066E+05  4.039759E+03  1.938295E+05  4.365675E+02 -3.857423E+03
       392   5  2.606932E+05  1.440105E+05  6.203435E+03  1.936292E+05 -1.969085E+03 -5.803843E+03
       392   6  2.618013E+05  1.448711E+05  1.072265E+04  1.929556E+05 -4.437880E+03 -7.666016E+03
       392   7  2.261625E+05  1.185284E+05 -4.975314E+03  1.759313E+05  2.447028E+02 -4.001332E+03
       392   8  2.235808E+05  1.180666E+05 -3.287741E+03  1.750073E+05 -2.039420E+03 -5.856621E+03
       392   9  2.225343E+05  1.181352E+05  6.500577E+02  1.736102E+05 -4.386695E+03 -7.627670E+03
       392  10  2.961329E+05  1.688860E+05  1.305490E+04  2.117292E+05 -5.074138E-11  2.016006E-10
       392  11  2.978075E+05  1.699554E+05  1.569454E+04  2.122524E+05 -3.885229E-11  5.101425E-11
       392  12  3.010700E+05  1.716078E+05  2.079497E+04  2.123024E+05 -6.698562E-11  1.959813E-11
       392  13  2.611467E+05  1.437066E+05  4.039731E+03  1.938295E+05 -2.239057E-10 -2.078054E-11
       392  14  2.606932E+05  1.440105E+05  6.203365E+03  1.936292E+05  9.643758E-11 -7.797707E-11
       392  15  2.618012E+05  1.448710E+05  1.072250E+04  1.929556E+05  2.044936E-10  1.278420E-10
       392  16  2.261625E+05  1.185284E+05 -4.975344E+03  1.759313E+05  7.619591E-11  4.535263E-12
       392  17  2.235808E+05  1.180665E+05 -3.287813E+03  1.750073E+05  3.599812E-11 -2.344455E-11
       392  18  2.225343E+05  1.181351E+05  6.499122E+02  1.736102E+05  2.258111E-10  1.652607E-10
       392  19  2.961329E+05  1.688860E+05  1.305492E+04  2.117292E+05 -6.284496E+02  3.713501E+03
       392  20  2.978075E+05  1.699554E+05  1.569461E+04  2.122524E+05  1.898744E+03  5.751061E+03
       392  21  3.010700E+05  1.716078E+05  2.079512E+04  2.123024E+05  4.489071E+03  7.704364E+03
       392  22  2.611467E+05  1.437066E+05  4.039759E+03  1.938295E+05 -4.365675E+02  3.857423E+03
       392  23  2.606932E+05  1.440105E+05  6.203435E+03  1.936292E+05  1.969085E+03  5.803843E+03
       392  24  2.618013E+05  1.448711E+05  1.072265E+04  1.929556E+05  4.437880E+03  7.666016E+03
       392  25  2.261625E+05  1.185284E+05 -4.975314E+03  1.759313E+05 -2.447028E+02  4.001332E+03
       392  26  2.235808E+05  1.180666E+05 -3.287741E+03  1.750073E+05  2.039420E+03  5.856621E+03
       392  27  2.225343E+05  1.181352E+05  6.500577E+02  1.736102E+05  4.386695E+03  7.627670E+03
       393   1  2.983410E+05  1.765445E+05  2.420107E+04  2.159844E+05 -5.697299E+03 -8.717200E+03
       393   2  3.141358E+05  1.661543E+05  3.604347E+04  2.067588E+05 -1.795631E+04 -1.716107E+04
       393   3  3.478605E+05  1.786669E+05  6.534427E+04  1.871103E+05 -3.110087E+04 -2.442464E+04
       393   4  2.623758E+05  1.444545E+05  1.379560E+04  1.947208E+05 -5.855833E+03 -8.836045E+03
       393   5  2.617306E+05  1.476547E+05  2.452844E+04  1.890784E+05 -1.641379E+04 -1.600480E+04
       393   6  2.786468E+05  1.733899E+05  5.124481E+04  1.730131E+05 -2.785669E+04 -2.199365E+04
       393   7  2.264116E+05  1.123653E+05  3.389826E+03  1.734585E+05 -6.014356E+03 -8.954879E+03
       393   8  2.093286E+05  1.291555E+05  1.301325E+04  1.713992E+05 -1.487144E+04 -1.484857E+04
       393   9  2.094397E+05  1.681137E+05  3.714560E+04  1.589164E+05 -2.461304E+04 -1.956261E+04
       393  10  2.983410E+05  1.765444E+05  2.420087E+04  2.159843E+05 -8.656802E-11  2.781181E-11
       393  11  3.141354E+05  1.661539E+05  3.604231E+04  2.067585E+05 -8.736982E-11  8.896785E-11
       393  12  3.478593E+05  1.786660E+05  6.534133E+04  1.871097E+05  4.215858E-11  7.179458E-12
       393  13  2.623757E+05  1.444544E+05  1.379539E+04  1.947208E+05 -6.021742E-11  1.815441E-11
       393  14  2.617303E+05  1.476544E+05  2.452745E+04  1.890782E+05  1.531601E-10 -1.202436E-11
       393  15  2.786458E+05  1.733891E+05  5.124245E+04  1.730126E+05  1.840530E-10  1.307600E-11
       393  16  2.264116E+05  1.123652E+05  3.389607E+03  1.734585E+05  9.596726E-11  1.141863E-10
       393  17  2.093283E+05  1.291552E+05  1.301242E+04  1.713990E+05 -1.321724E-10  1.327592E-10
       393  18  2.094390E+05  1.681131E+05  3.714374E+04  1.589160E+05  6.779954E-11 -2.473554E-11
       393  19  2.983410E+05  1.765445E+05  2.420107E+04  2.159844E+05  5.697299E+03  8.717200E+03
       393  20  3.141358E+05  1.661543E+05  3.604347E+04  2.067588E+05  1.795631E+04  1.716107E+04
       393  21  3.478605E+05  1.786669E+05  6.534427E+04  1.871103E+05  3.110087E+04  2.442464E+04
       393  22  2.623758E+05  1.444545E+05  1.379560E+04  1.947208E+05  5.855833E+03  8.836045E+03
       393  23  2.617306E+05  1.476547E+05  2.452844E+04  1.890784E+05  1.641379E+04  1.600480E+04
       393  24  2.786468E+05  1.733899E+05  5.124481E+04  1.730131E+05  2.785669E+04  2.199365E+04
       393  25  2.264116E+05  1.123653E+05  3.389826E+03  1.734585E+05  6.014356E+03  8.954879E+03
       393  26  2.093286E+05  1.291555E+05  1.301325E+04  1.713992E+05  1.487144E+04  1.484857E+04
       393  27  2.094397E+05  1.681137E+05  3.714560E+04  1.589164E+05  2.461304E+04  1.956261E+04
       394   1  6.495661E+05  1.090814E+05  1.071052E+05  7.921201E+04  3.074196E+04 -4.753883E+03
       394   2  5.655455E+05  7.660187E+04  7.026433E+04  6.470810E+04  1.265087E+04 -1.448877E+04
       394   3  4.865596E+05  5.477008E+04  4.785680E+04  7.112215E+04 -5.437081E+03 -1.398565E+04
       394   4  2.568940E+05  1.185617E+04  1.344658E+04  7.217478E+04  9.334840E+03 -4.755731E+03
       394   5  2.556674E+05  1.885337E+03  6.416232E+03  6.171635E+04  6.001031E+03 -1.449018E+04
       394   6  2.569115E+05  5.268780E+00  3.580104E+03  7.217589E+04  2.667829E+03 -1.398452E+04
       394   7 -1.356358E+05 -8.537981E+04 -8.022108E+04  6.514201E+04 -1.205882E+04 -4.757096E+03
       394   8 -5.411970E+04 -7.283719E+04 -5.743686E+04  5.872611E+04 -6.455503E+02 -1.449152E+04
       394   9  2.731426E+04 -5.476263E+04 -4.069879E+04  7.322923E+04  1.076981E+04 -1.398337E+04
       394  10  6.495651E+05  1.090812E+05  1.071033E+05  7.921212E+04  2.555137E-11 -4.112426E-11
       394  11  5.655453E+05  7.660160E+04  7.026363E+04  6.470825E+04 -1.605915E-10 -2.242208E-10
       394  12  4.865595E+05  5.476986E+04  4.785638E+04  7.112209E+04 -7.689579E-12 -8.714572E-11
       394  13  2.568939E+05  1.185613E+04  1.344638E+04  7.217482E+04 -2.655113E-11  2.665357E-12
       394  14  2.556673E+05  1.885102E+03  6.415770E+03  6.171642E+04  1.290441E-10 -1.656844E-10
       394  15  2.569114E+05  5.056834E+00  3.579723E+03  7.217592E+04 -1.914736E-10 -4.979784E-11
       394  16 -1.356360E+05 -8.537987E+04 -8.022140E+04  6.514197E+04 -1.121775E-11 -4.113012E-11
       394  17 -5.411976E+04 -7.283742E+04 -5.743726E+04  5.872611E+04 -1.459047E-11  4.056350E-11
       394  18  2.731408E+04 -5.476287E+04 -4.069938E+04  7.322935E+04 -1.522558E-10 -1.270829E-10
       394  19  6.495661E+05  1.090814E+05  1.071052E+05  7.921201E+04 -3.074196E+04  4.753883E+03
       394  20  5.655455E+05  7.660187E+04  7.026433E+04  6.470810E+04 -1.265087E+04  1.448877E+04
       394  21  4.865596E+05  5.477008E+04  4.785680E+04  7.112215E+04  5.437081E+03  1.398565E+04
       394  22  2.568940E+05  1.185617E+04  1.344658E+04  7.217478E+04 -9.334840E+03  4.755731E+03
       394  23  2.556674E+05  1.885337E+03  6.416232E+03  6.171635E+04 -6.001031E+03  1.449018E+04
       394  24  2.569115E+05  5.268780E+00  3.580104E+03  7.217589E+04 -2.667829E+03  1.398452E+04
       394  25 -1.356358E+05 -8.537981E+04 -8.022108E+04  6.514201E+04  1.205882E+04  4.757096E+03
       394  26 -5.411970E+04 -7.283719E+04 -5.743686E+04  5.872611E+04  6.455503E+02  1.449152E+04
       394  27  2.731426E+04 -5.476263E+04 -4.069879E+04  7.322923E+04 -1.076981E+04  1.398337E+04
       395   1  4.305212E+05  4.198244E+04  3.626408E+04  7.248279E+04 -4.102388E+03 -1.067177E+04
       395   2  3.489628E+05  2.209339E+04  1.908663E+04  6.159294E+04 -5.835089E+03 -5.964354E+03
       395   3  2.677670E+05  2.738015E+03  3.168795E+03  7.221762E+04 -7.567993E+03 -5.819679E+02
       395   4  2.564081E+05  4.720931E+02  2.756987E+03  7.230840E+04  2.193699E+03 -1.067065E+04
       395   5  2.563174E+05  5.812060E+01  1.523609E+03  6.155110E+04  1.433181E+03 -5.962767E+03
       395   6  2.564132E+05  9.196511E+00  8.748578E+02  7.230851E+04  6.722282E+02 -5.798529E+02
       395   7  8.232433E+04 -4.104003E+04 -3.075135E+04  7.213405E+04  8.488062E+03 -1.066953E+04
       395   8  1.636805E+05 -2.197762E+04 -1.603960E+04  6.150926E+04  8.700394E+03 -5.961181E+03
       395   9  2.450596E+05 -2.719593E+03 -1.418831E+03  7.239940E+04  8.912302E+03 -5.777355E+02
       395  10  4.305212E+05  4.198231E+04  3.626383E+04  7.248275E+04 -2.362456E-13 -1.343377E-10
       395  11  3.489627E+05  2.209334E+04  1.908650E+04  6.159292E+04  9.671408E-11  8.067173E-11
       395  12  2.677670E+05  2.737999E+03  3.168687E+03  7.221761E+04  1.013960E-10 -1.083974E-10
       395  13  2.564081E+05  4.719695E+02  2.756764E+03  7.230841E+04 -7.489657E-11 -7.454628E-11
       395  14  2.563174E+05  5.808187E+01  1.523539E+03  6.155111E+04 -2.638988E-10 -8.782815E-11
       395  15  2.564132E+05  9.196028E+00  8.748563E+02  7.230851E+04  9.430015E-11 -1.930937E-10
       395  16  8.232422E+04 -4.104017E+04 -3.075170E+04  7.213412E+04 -5.364647E-11 -1.079195E-11
       395  17  1.636804E+05 -2.197768E+04 -1.603981E+04  6.150930E+04 -1.429492E-10 -2.462348E-10
       395  18  2.450595E+05 -2.719615E+03 -1.418981E+03  7.239940E+04 -2.027241E-10  2.040293E-12
       395  19  4.305212E+05  4.198244E+04  3.626408E+04  7.248279E+04  4.102388E+03  1.067177E+04
       395  20  3.489628E+05  2.209339E+04  1.908663E+04  6.159294E+04  5.835089E+03  5.964354E+03
       395  21  2.677670E+05  2.738015E+03  3.168795E+03  7.221762E+04  7.567993E+03  5.819679E+02
       395  22  2.564081E+05  4.720931E+02  2.756987E+03  7.230840E+04 -2.193699E+03  1.067065E+04
       395  23  2.563174E+05  5.812060E+01  1.523609E+03  6.155110E+04 -1.433181E+03  5.962767E+03
       395  24  2.564132E+05  9.196511E+00  8.748578E+02  7.230851E+04 -6.722282E+02  5.798529E+02
       395  25  8.232433E+04 -4.104003E+04 -3.075135E+04  7.213405E+04 -8.488062E+03  1.066953E+04
       395  26  1.636805E+05 -2.197762E+04 -1.603960E+04  6.150926E+04 -8.700394E+03  5.961181E+03
       395  27  2.450596E+05 -2.719593E+03 -1.418831E+03  7.239940E+04 -8.912302E+03  5.777355E+02
       396   1  2.125866E+05 -1.038745E+04 -7.641933E+03  7.226786E+04 -7.714638E+03  2.809114E+03
       396   2  1.312923E+05 -2.972002E+04 -2.321461E+04  6.151099E+04 -6.846460E+03  8.169562E+03
       396   3  4.984819E+04 -4.921198E+04 -3.939397E+04  7.226629E+04 -5.977789E+03  1.279442E+04
       396   4  2.563778E+05  3.040610E+01  6.674992E+02  7.230787E+04  5.353835E+02  2.811200E+03
       396   5  2.563601E+05  8.154189E+00  3.851661E+02  6.155193E+04  3.437339E+02  8.171003E+03
       396   6  2.563713E+05  1.111904E+01  2.323157E+02  7.230788E+04  1.526702E+02  1.279530E+04
       396   7  3.001710E+05  1.044819E+04  8.977101E+03  7.234789E+04  8.785973E+03  2.813287E+03
       396   8  3.814431E+05  2.973545E+04  2.398445E+04  6.159287E+04  7.535340E+03  8.172444E+03
       396   9  4.629355E+05  4.923171E+04  3.985679E+04  7.234948E+04  6.285121E+03  1.279618E+04
       396  10  2.125865E+05 -1.038748E+04 -7.642060E+03  7.226787E+04  2.306663E-10  1.188414E-10
       396  11  1.312923E+05 -2.972011E+04 -2.321482E+04  6.151103E+04 -2.339819E-10  5.587024E-11
       396  12  4.984811E+04 -4.921216E+04 -3.939434E+04  7.226635E+04 -2.694808E-10  7.872557E-12
       396  13  2.563778E+05  3.039753E+01  6.674838E+02  7.230787E+04  1.935109E-10 -1.266083E-11
       396  14  2.563601E+05  8.082455E+00  3.850404E+02  6.155192E+04  1.238063E-10  3.253006E-11
       396  15  2.563712E+05  1.094320E+01  2.320079E+02  7.230788E+04 -8.930525E-11  8.423788E-11
       396  16  3.001709E+05  1.044816E+04  8.976942E+03  7.234787E+04 -3.249318E-10 -1.074041E-10
       396  17  3.814430E+05  2.973536E+04  2.398422E+04  6.159282E+04  3.225977E-10 -1.444341E-10
       396  18  4.629354E+05  4.923153E+04  3.985640E+04  7.234942E+04  1.309167E-10 -7.927011E-11
       396  19  2.125866E+05 -1.038745E+04 -7.641933E+03  7.226786E+04  7.714638E+03 -2.809114E+03
       396  20  1.312923E+05 -2.972002E+04 -2.321461E+04  6.151099E+04  6.846460E+03 -8.169562E+03
       396  21  4.984819E+04 -4.921198E+04 -3.939397E+04  7.226629E+04  5.977789E+03 -1.279442E+04
       396  22  2.563778E+05  3.040610E+01  6.674992E+02  7.230787E+04 -5.353835E+02 -2.811200E+03
       396  23  2.563601E+05  8.154189E+00  3.851661E+02  6.155193E+04 -3.437339E+02 -8.171003E+03
       396  24  2.563713E+05  1.111904E+01  2.323157E+02  7.230788E+04 -1.526702E+02 -1.279530E+04
       396  25  3.001710E+05  1.044819E+04  8.977101E+03  7.234789E+04 -8.785973E+03 -2.813287E+03
       396  26  3.814431E+05  2.973545E+04  2.398445E+04  6.159287E+04 -7.535340E+03 -8.172444E+03
       396  27  4.629355E+05  4.923171E+04  3.985679E+04  7.234948E+04 -6.285121E+03 -1.279618E+04
       397   1 -5.700685E+03 -6.248874E+04 -5.022735E+04  7.213830E+04 -7.965243E+03  1.610173E+04
       397   2 -8.583910E+04 -8.249892E+04 -7.022559E+04  6.167632E+04  7.862641E+03  1.619757E+04
       397   3 -1.686796E+05 -1.051731E+05 -1.011911E+05  7.208365E+04  2.368729E+04  5.256924E+03
       397   4  2.563710E+05  1.258787E+00  1.851864E+02  7.216496E+04  1.146707E+02  1.610256E+04
       397   5  2.563368E+05  1.181341E+00  1.267354E+02  6.173059E+04  5.289778E+01  1.619616E+04
       397   6  2.563533E+05  9.657071E+01  1.353989E+02  7.216495E+04 -9.941013E+00  5.256042E+03
       397   7  5.185089E+05  6.248723E+04  5.059480E+04  7.219162E+04  8.197917E+03  1.610339E+04
       397   8  5.986239E+05  8.249394E+04  7.047302E+04  6.178487E+04 -7.761073E+03  1.619475E+04
       397   9  6.815531E+05  1.053535E+05  1.014514E+05  7.224630E+04 -2.372332E+04  5.255156E+03
       397  10 -5.700823E+03 -6.248904E+04 -5.022795E+04  7.213841E+04  1.247989E-10  3.968016E-11
       397  11 -8.583924E+04 -8.249922E+04 -7.022620E+04  6.167622E+04 -2.186352E-10 -1.097508E-10
       397  12 -1.686803E+05 -1.051733E+05 -1.011922E+05  7.208355E+04 -1.085795E-10 -2.132466E-11
       397  13  2.563709E+05  9.803153E-01  1.846990E+02  7.216495E+04 -2.126599E-10 -8.760535E-11
       397  14  2.563367E+05  8.996257E-01  1.262424E+02  6.173059E+04  2.601318E-10 -7.065488E-11
       397  15  2.563533E+05  9.654104E+01  1.353469E+02  7.216495E+04  9.042393E-11 -4.243616E-11
       397  16  5.185087E+05  6.248693E+04  5.059418E+04  7.219151E+04 -3.762779E-11  1.504110E-10
       397  17  5.986237E+05  8.249365E+04  7.047241E+04  6.178497E+04 -7.934137E-11 -7.622074E-11
       397  18  6.815524E+05  1.053533E+05  1.014503E+05  7.224640E+04  5.354302E-10 -5.139166E-11
       397  19 -5.700685E+03 -6.248874E+04 -5.022735E+04  7.213830E+04  7.965243E+03 -1.610173E+04
       397  20 -8.583910E+04 -8.249892E+04 -7.022559E+04  6.167632E+04 -7.862641E+03 -1.619757E+04
       397  21 -1.686796E+05 -1.051731E+05 -1.011911E+05  7.208365E+04 -2.368729E+04 -5.256924E+03
       397  22  2.563710E+05  1.258787E+00  1.851864E+02  7.216496E+04 -1.146707E+02 -1.610256E+04
       397  23  2.563368E+05  1.181341E+00  1.267354E+02  6.173059E+04 -5.289778E+01 -1.619616E+04
       397  24  2.563533E+05  9.657071E+01  1.353989E+02  7.216495E+04  9.941013E+00 -5.256042E+03
       397  25  5.185089E+05  6.248723E+04  5.059480E+04  7.219162E+04 -8.197917E+03 -1.610339E+04
       397  26  5.986239E+05  8.249394E+04  7.047302E+04  6.178487E+04  7.761073E+03 -1.619475E+04
       397  27  6.815531E+05  1.053535E+05  1.014514E+05  7.224630E+04  2.372332E+04 -5.255156E+03
       398   1 -1.309573E+05 -4.472396E+05 -1.405351E+05  1.090423E+05 -2.064436E+03 -7.037350E+04
       398   2 -4.517203E+04 -3.689450E+05 -7.353107E+04  7.264238E+04 -5.532803E+03 -3.897301E+04
       398   3 -1.561878E+04 -3.088002E+05 -4.103882E+04  5.422133E+04 -3.499555E+03 -7.568914E+03
       398   4 -8.043741E+04 -2.436156E+05 -9.152900E+04  6.133936E+04 -2.057257E+03 -6.141758E+04
       398   5 -1.277550E+04 -2.352206E+05 -4.526718E+04  5.234080E+04 -5.531214E+03 -3.793185E+04
       398   6  3.436815E+01 -2.436007E+05 -2.801194E+04  6.132491E+04 -3.501323E+03 -1.444634E+04
       398   7 -2.991196E+04 -3.994866E+04 -4.252435E+04  1.362076E+04 -2.051457E+03 -5.245873E+04
       398   8  1.962142E+04 -1.014785E+05 -1.700408E+04  3.203477E+04 -5.529693E+03 -3.689048E+04
       398   9  1.568747E+04 -1.783969E+05 -1.498506E+04  6.842925E+04 -3.503248E+03 -2.132447E+04
       398  10 -1.309586E+05 -4.472449E+05 -1.405444E+05  1.090421E+05 -1.000363E-11 -4.097819E-11
       398  11 -4.517247E+04 -3.689466E+05 -7.353398E+04  7.264221E+04 -6.177680E-11 -8.637115E-11
       398  12 -1.561881E+04 -3.088002E+05 -4.103895E+04  5.422131E+04 -1.156632E-13  4.037792E-11
       398  13 -8.043842E+04 -2.436197E+05 -9.153610E+04  6.133926E+04 -1.063501E-10 -4.293958E-11
       398  14 -1.277592E+04 -2.352222E+05 -4.526994E+04  5.234063E+04  1.512324E-10  9.326974E-11
       398  15  3.429894E+01 -2.436009E+05 -2.801235E+04  6.132487E+04  3.894119E-11 -4.166053E-11
       398  16 -2.991271E+04 -3.995162E+04 -4.252953E+04  1.362067E+04 -1.095952E-11 -1.074290E-12
       398  17  1.962102E+04 -1.014800E+05 -1.700669E+04  3.203460E+04 -3.637359E-10 -4.202880E-11
       398  18  1.568733E+04 -1.783974E+05 -1.498594E+04  6.842919E+04 -1.898905E-10  2.321565E-11
       398  19 -1.309573E+05 -4.472396E+05 -1.405351E+05  1.090423E+05  2.064436E+03  7.037350E+04
       398  20 -4.517203E+04 -3.689450E+05 -7.353107E+04  7.264238E+04  5.532803E+03  3.897301E+04
       398  21 -1.561878E+04 -3.088002E+05 -4.103882E+04  5.422133E+04  3.499555E+03  7.568914E+03
       398  22 -8.043741E+04 -2.436156E+05 -9.152900E+04  6.133936E+04  2.057257E+03  6.141758E+04
       398  23 -1.277550E+04 -2.352206E+05 -4.526718E+04  5.234080E+04  5.531214E+03  3.793185E+04
       398  24  3.436815E+01 -2.436007E+05 -2.801194E+04  6.132491E+04  3.501323E+03  1.444634E+04
       398  25 -2.991196E+04 -3.994866E+04 -4.252435E+04  1.362076E+04  2.051457E+03  5.245873E+04
       398  26  1.962142E+04 -1.014785E+05 -1.700408E+04  3.203477E+04  5.529693E+03  3.689048E+04
       398  27  1.568747E+04 -1.783969E+05 -1.498506E+04  6.842925E+04  3.503248E+03  2.132447E+04
       399   1 -7.359939E+03 -2.585301E+05 -2.771932E+04  6.302565E+04 -6.564272E+02 -4.470832E+03
       399   2  1.162733E+04 -1.881505E+05 -1.001865E+04  5.227427E+04  3.421189E+03  5.036222E+03
       399   3  2.596349E+04 -1.201724E+05  3.264344E+02  5.980025E+04  7.320378E+03  1.454449E+04
       399   4 -2.954428E+03 -2.404178E+05 -2.380424E+04  6.139252E+04 -6.579370E+02 -1.046585E+04
       399   5 -4.952648E+02 -2.391936E+05 -1.957644E+04  5.225370E+04  3.419859E+03 -7.024736E+02
       399   6 -2.731638E+03 -2.404201E+05 -2.288224E+04  6.139250E+04  7.319259E+03  9.061111E+03
       399   7  1.451091E+03 -2.223052E+05 -1.988904E+04  5.975934E+04 -6.594153E+02 -1.646104E+04
       399   8 -1.261799E+04 -2.902341E+05 -2.913421E+04  5.223312E+04  3.418530E+03 -6.440709E+03
       399   9 -3.142760E+04 -3.606538E+05 -4.609147E+04  6.298444E+04  7.318112E+03  3.578765E+03
       399  10 -7.359945E+03 -2.585301E+05 -2.771936E+04  6.302565E+04 -3.916884E-11 -1.462350E-10
       399  11  1.162731E+04 -1.881505E+05 -1.001872E+04  5.227426E+04 -6.774569E-11  1.048707E-10
       399  12  2.596338E+04 -1.201726E+05  3.259362E+02  5.980016E+04  4.082578E-11  2.239766E-10
       399  13 -2.954458E+03 -2.404180E+05 -2.380445E+04  6.139252E+04  8.685857E-11 -1.186974E-10
       399  14 -4.952775E+02 -2.391936E+05 -1.957646E+04  5.225370E+04 -9.724671E-11  1.800926E-10
       399  15 -2.731717E+03 -2.404202E+05 -2.288250E+04  6.139245E+04 -8.679542E-11  9.531711E-11
       399  16  1.451018E+03 -2.223055E+05 -1.988955E+04  5.975933E+04 -1.173635E-10  6.569703E-11
       399  17 -1.261802E+04 -2.902341E+05 -2.913431E+04  5.223314E+04 -1.508492E-10 -1.463927E-10
       399  18 -3.142766E+04 -3.606538E+05 -4.609160E+04  6.298442E+04 -6.386624E-11 -1.525488E-10
       399  19 -7.359939E+03 -2.585301E+05 -2.771932E+04  6.302565E+04  6.564272E+02  4.470832E+03
       399  20  1.162733E+04 -1.881505E+05 -1.001865E+04  5.227427E+04 -3.421189E+03 -5.036222E+03
       399  21  2.596349E+04 -1.201724E+05  3.264344E+02  5.980025E+04 -7.320378E+03 -1.454449E+04
       399  22 -2.954428E+03 -2.404178E+05 -2.380424E+04  6.139252E+04  6.579370E+02  1.046585E+04
       399  23 -4.952648E+02 -2.391936E+05 -1.957644E+04  5.225370E+04 -3.419859E+03  7.024736E+02
       399  24 -2.731638E+03 -2.404201E+05 -2.288224E+04  6.139250E+04 -7.319259E+03 -9.061111E+03
       399  25  1.451091E+03 -2.223052E+05 -1.988904E+04  5.975934E+04  6.594153E+02  1.646104E+04
       399  26 -1.261799E+04 -2.902341E+05 -2.913421E+04  5.223312E+04 -3.418530E+03  6.440709E+03
       399  27 -3.142760E+04 -3.606538E+05 -4.609147E+04  6.298444E+04 -7.318112E+03 -3.578765E+03
       400   1  3.999029E+04 -7.590599E+04  5.778107E+03  6.786713E+04  1.014328E+04  1.971624E+04
       400   2  4.500612E+04  1.162611E+02  6.409023E+03  3.349849E+04  1.088719E+04  3.013513E+04
       400   3  1.073801E+03  6.255826E+04 -1.197811E+04  1.694406E+04  3.620019E+03  4.055551E+04
       400   4  2.168202E+01 -2.433425E+05 -2.658453E+04  6.128880E+04  1.014183E+04  1.287575E+04
       400   5 -1.187236E+04 -2.355547E+05 -4.231281E+04  5.238558E+04  1.088917E+04  3.482298E+04
       400   6 -7.472912E+04 -2.433613E+05 -8.507208E+04  6.129874E+04  3.624888E+03  5.677005E+04
       400   7 -3.994841E+04 -4.107519E+05 -5.894828E+04  5.471229E+04  1.014053E+04  6.037057E+03
       400   8 -6.875300E+04 -4.711722E+05 -9.103737E+04  7.126538E+04  1.089143E+04  3.950909E+04
       400   9 -1.505313E+05 -5.491903E+05 -1.581706E+05  1.056315E+05  3.632077E+03  7.297662E+04
       400  10  3.999008E+04 -7.590644E+04  5.777183E+03  6.786697E+04  1.588084E-10 -1.958911E-10
       400  11  4.500575E+04  1.152541E+02  6.407094E+03  3.349822E+04  1.757728E-10 -1.427258E-10
       400  12  1.073345E+03  6.255650E+04 -1.198122E+04  1.694394E+04  8.827502E-11 -1.846881E-12
       400  13  2.152707E+01 -2.433427E+05 -2.658504E+04  6.128870E+04  1.922857E-10 -6.443999E-11
       400  14 -1.187281E+04 -2.355560E+05 -4.231531E+04  5.238528E+04 -7.596250E-11  1.416885E-10
       400  15 -7.473000E+04 -2.433648E+05 -8.507817E+04  6.129858E+04 -1.263887E-10  3.375752E-11
       400  16 -3.994853E+04 -4.107520E+05 -5.894854E+04  5.471224E+04 -1.787074E-10  2.217182E-10
       400  17 -6.875355E+04 -4.711739E+05 -9.104053E+04  7.126503E+04 -4.149248E-10  2.600718E-11
       400  18 -1.505327E+05 -5.491960E+05 -1.581807E+05  1.056313E+05 -8.192123E-11 -8.616973E-12
       400  19  3.999029E+04 -7.590599E+04  5.778107E+03  6.786713E+04 -1.014328E+04 -1.971624E+04
       400  20  4.500612E+04  1.162611E+02  6.409023E+03  3.349849E+04 -1.088719E+04 -3.013513E+04
       400  21  1.073801E+03  6.255826E+04 -1.197811E+04  1.694406E+04 -3.620019E+03 -4.055551E+04
       400  22  2.168202E+01 -2.433425E+05 -2.658453E+04  6.128880E+04 -1.014183E+04 -1.287575E+04
       400  23 -1.187236E+04 -2.355547E+05 -4.231281E+04  5.238558E+04 -1.088917E+04 -3.482298E+04
       400  24 -7.472912E+04 -2.433613E+05 -8.507208E+04  6.129874E+04 -3.624888E+03 -5.677005E+04
       400  25 -3.994841E+04 -4.107519E+05 -5.894828E+04  5.471229E+04 -1.014053E+04 -6.037057E+03
       400  26 -6.875300E+04 -4.711722E+05 -9.103737E+04  7.126538E+04 -1.089143E+04 -3.950909E+04
       400  27 -1.505313E+05 -5.491903E+05 -1.581706E+05  1.056315E+05 -3.632077E+03 -7.297662E+04
       401   1  3.192882E+05  2.460169E+05  6.454855E+04  2.270302E+05  4.140383E+04  3.203737E+04
       401   2  3.259530E+05  1.920508E+05  2.784055E+04  2.513991E+05  2.648459E+04  2.281812E+04
       401   3  3.627783E+05  1.700887E+05  1.447751E+04  2.585033E+05  1.262034E+04  1.219097E+04
       401   4  4.085589E+05  2.404258E+05  8.056600E+04  2.394714E+05  4.424143E+04  3.416065E+04
       401   5  3.804742E+05  2.014558E+05  3.848925E+04  2.651693E+05  2.728956E+04  2.342043E+04
       401   6  3.829866E+05  1.949266E+05  2.151742E+04  2.736029E+05  1.139373E+04  1.127147E+04
       401   7  4.978415E+05  2.348371E+05  9.658415E+04  2.519122E+05  4.707962E+04  3.628378E+04
       401   8  4.349997E+05  2.108614E+05  4.913808E+04  2.789402E+05  2.809463E+04  2.402274E+04
       401   9  4.031958E+05  2.197659E+05  2.855744E+04  2.887035E+05  1.016706E+04  1.035188E+04
       401  10  3.192860E+05  2.460154E+05  6.454340E+04  2.270291E+05  8.387786E-11  1.119993E-10
       401  11  3.259521E+05  1.920500E+05  2.783825E+04  2.513986E+05 -1.804239E-10 -1.317822E-10
       401  12  3.627781E+05  1.700885E+05  1.447694E+04  2.585031E+05 -6.139664E-10 -1.767216E-10
       401  13  4.085565E+05  2.404240E+05  8.056014E+04  2.394702E+05  6.429959E-11 -6.066347E-11
       401  14  3.804732E+05  2.014551E+05  3.848682E+04  2.651688E+05  1.178775E-10 -1.269694E-10
       401  15  3.829864E+05  1.949265E+05  2.151694E+04  2.736028E+05  1.963992E-10  1.035304E-10
       401  16  4.978387E+05  2.348351E+05  9.657752E+04  2.519108E+05  3.973610E-11 -1.278336E-10
       401  17  4.349987E+05  2.108605E+05  4.913551E+04  2.789396E+05  2.212328E-10 -4.081067E-11
       401  18  4.031956E+05  2.197658E+05  2.855705E+04  2.887035E+05  4.211720E-10  3.298851E-10
       401  19  3.192882E+05  2.460169E+05  6.454855E+04  2.270302E+05 -4.140383E+04 -3.203737E+04
       401  20  3.259530E+05  1.920508E+05  2.784055E+04  2.513991E+05 -2.648459E+04 -2.281812E+04
       401  21  3.627783E+05  1.700887E+05  1.447751E+04  2.585033E+05 -1.262034E+04 -1.219097E+04
       401  22  4.085589E+05  2.404258E+05  8.056600E+04  2.394714E+05 -4.424143E+04 -3.416065E+04
       401  23  3.804742E+05  2.014558E+05  3.848925E+04  2.651693E+05 -2.728956E+04 -2.342043E+04
       401  24  3.829866E+05  1.949266E+05  2.151742E+04  2.736029E+05 -1.139373E+04 -1.127147E+04
       401  25  4.978415E+05  2.348371E+05  9.658415E+04  2.519122E+05 -4.707962E+04 -3.628378E+04
       401  26  4.349997E+05  2.108614E+05  4.913808E+04  2.789402E+05 -2.809463E+04 -2.402274E+04
       401  27  4.031958E+05  2.197659E+05  2.855744E+04  2.887035E+05 -1.016706E+04 -1.035188E+04
       402   1  3.623754E+05  1.831870E+05  1.160521E+04  2.616141E+05  1.046554E+04  9.793610E+03
       402   2  3.710037E+05  1.904933E+05  7.285848E+03  2.685109E+05  7.436288E+03  6.385240E+03
       402   3  3.849990E+05  1.956681E+05  6.404503E+03  2.737865E+05  4.481739E+03  2.877230E+03
       402   4  3.820732E+05  1.955872E+05  1.661975E+04  2.708270E+05  9.488779E+03  9.061202E+03
       402   5  3.788623E+05  1.957261E+05  9.319744E+03  2.723216E+05  6.315760E+03  5.545073E+03
       402   6  3.810495E+05  1.937647E+05  5.582380E+03  2.721950E+05  3.217511E+03  1.929339E+03
       402   7  4.017711E+05  2.079873E+05  2.163416E+04  2.800401E+05  8.511990E+03  8.328778E+03
       402   8  3.867208E+05  2.009588E+05  1.135362E+04  2.761323E+05  5.195221E+03  4.704899E+03
       402   9  3.770999E+05  1.918612E+05  4.760266E+03  2.706035E+05  1.953294E+03  9.814527E+02
       402  10  3.623753E+05  1.831869E+05  1.160482E+04  2.616140E+05  1.594499E-10  2.138064E-10
       402  11  3.710037E+05  1.904933E+05  7.285668E+03  2.685109E+05  1.446041E-10  1.419634E-10
       402  12  3.849990E+05  1.956681E+05  6.404450E+03  2.737865E+05 -1.941228E-10 -1.717395E-11
       402  13  3.820731E+05  1.955870E+05  1.661942E+04  2.708269E+05 -3.846539E-10  9.208087E-11
       402  14  3.788622E+05  1.957260E+05  9.319612E+03  2.723215E+05 -3.269447E-10 -2.671094E-11
       402  15  3.810495E+05  1.937646E+05  5.582354E+03  2.721950E+05  5.093257E-11  4.298256E-11
       402  16  4.017710E+05  2.079872E+05  2.163389E+04  2.800400E+05 -4.327048E-10  1.017232E-11
       402  17  3.867208E+05  2.009588E+05  1.135353E+04  2.761323E+05 -1.245601E-10 -3.119660E-11
       402  18  3.770999E+05  1.918612E+05  4.760257E+03  2.706034E+05 -9.245681E-11  1.224503E-10
       402  19  3.623754E+05  1.831870E+05  1.160521E+04  2.616141E+05 -1.046554E+04 -9.793610E+03
       402  20  3.710037E+05  1.904933E+05  7.285848E+03  2.685109E+05 -7.436288E+03 -6.385240E+03
       402  21  3.849990E+05  1.956681E+05  6.404503E+03  2.737865E+05 -4.481739E+03 -2.877230E+03
       402  22  3.820732E+05  1.955872E+05  1.661975E+04  2.708270E+05 -9.488779E+03 -9.061202E+03
       402  23  3.788623E+05  1.957261E+05  9.319744E+03  2.723216E+05 -6.315760E+03 -5.545073E+03
       402  24  3.810495E+05  1.937647E+05  5.582380E+03  2.721950E+05 -3.217511E+03 -1.929339E+03
       402  25  4.017711E+05  2.079873E+05  2.163416E+04  2.800401E+05 -8.511990E+03 -8.328778E+03
       402  26  3.867208E+05  2.009588E+05  1.135362E+04  2.761323E+05 -5.195221E+03 -4.704899E+03
       402  27  3.770999E+05  1.918612E+05  4.760266E+03  2.706035E+05 -1.953294E+03 -9.814527E+02
       403   1  3.920906E+05  2.013553E+05  7.269719E+03  2.775283E+05  4.141139E+03  1.822112E+03
       403   2  4.010879E+05  2.111170E+05  8.752684E+03  2.837188E+05  3.545486E+03  2.624906E+01
       403   3  4.141857E+05  2.171543E+05  1.128137E+04  2.888187E+05  2.945440E+03 -1.763807E+03
       403   4  3.809680E+05  1.937720E+05  4.454275E+03  2.720365E+05  2.892270E+03  8.857243E+02
       403   5  3.789131E+05  1.956252E+05  3.118778E+03  2.725893E+05  2.305034E+03 -9.038580E+02
       403   6  3.809566E+05  1.937519E+05  2.821632E+03  2.720513E+05  1.713448E+03 -2.687590E+03
       403   7  3.698453E+05  1.861886E+05  1.638773E+03  2.665447E+05  1.643412E+03 -5.065610E+01
       403   8  3.567388E+05  1.801336E+05 -2.515158E+03  2.614603E+05  1.064641E+03 -1.833921E+03
       403   9  3.477292E+05  1.703505E+05 -5.638010E+03  2.552853E+05  4.815615E+02 -3.611293E+03
       403  10  3.920906E+05  2.013553E+05  7.269681E+03  2.775283E+05 -2.947735E-11  8.293139E-11
       403  11  4.010879E+05  2.111170E+05  8.752660E+03  2.837188E+05 -6.267791E-11  7.701588E-12
       403  12  4.141857E+05  2.171543E+05  1.128135E+04  2.888187E+05 -4.233785E-10 -3.510459E-11
       403  13  3.809680E+05  1.937720E+05  4.454258E+03  2.720365E+05  1.306928E-10  1.419987E-10
       403  14  3.789131E+05  1.956252E+05  3.118766E+03  2.725893E+05  2.885105E-10  1.439635E-10
       403  15  3.809565E+05  1.937518E+05  2.821613E+03  2.720513E+05  9.720622E-12  1.889317E-10
       403  16  3.698453E+05  1.861886E+05  1.638768E+03  2.665447E+05 -2.888391E-10  1.996400E-12
       403  17  3.567388E+05  1.801336E+05 -2.515166E+03  2.614603E+05 -1.571740E-10  7.494582E-11
       403  18  3.477292E+05  1.703505E+05 -5.638035E+03  2.552853E+05  1.943863E-10  3.674802E-10
       403  19  3.920906E+05  2.013553E+05  7.269719E+03  2.775283E+05 -4.141139E+03 -1.822112E+03
       403  20  4.010879E+05  2.111170E+05  8.752684E+03  2.837188E+05 -3.545486E+03 -2.624906E+01
       403  21  4.141857E+05  2.171543E+05  1.128137E+04  2.888187E+05 -2.945440E+03  1.763807E+03
       403  22  3.809680E+05  1.937720E+05  4.454275E+03  2.720365E+05 -2.892270E+03 -8.857243E+02
       403  23  3.789131E+05  1.956252E+05  3.118778E+03  2.725893E+05 -2.305034E+03  9.038580E+02
       403  24  3.809566E+05  1.937519E+05  2.821632E+03  2.720513E+05 -1.713448E+03  2.687590E+03
       403  25  3.698453E+05  1.861886E+05  1.638773E+03  2.665447E+05 -1.643412E+03  5.065610E+01
       403  26  3.567388E+05  1.801336E+05 -2.515158E+03  2.614603E+05 -1.064641E+03  1.833921E+03
       403  27  3.477292E+05  1.703505E+05 -5.638010E+03  2.552853E+05 -4.815615E+02  3.611293E+03
       404   1  4.215840E+05  2.226345E+05  1.344901E+04  2.927119E+05  2.946903E+03 -2.561966E+03
       404   2  4.309083E+05  2.321786E+05  1.744714E+04  2.986312E+05  1.641792E+03 -4.766601E+03
       404   3  4.447877E+05  2.385996E+05  2.320976E+04  3.032403E+05  1.981117E+02 -6.786459E+03
       404   4  3.809734E+05  1.937455E+05  2.992662E+03  2.720982E+05  1.682818E+03 -3.509832E+03
       404   5  3.789256E+05  1.956934E+05  4.082170E+03  2.724849E+05  6.441985E+02 -5.514699E+03
       404   6  3.813749E+05  1.944603E+05  6.705158E+03  2.715614E+05 -5.329635E+02 -7.334755E+03
       404   7  3.403646E+05  1.648575E+05 -7.463821E+03  2.514859E+05  4.188442E+02 -4.457614E+03
       404   8  3.269454E+05  1.592094E+05 -9.283164E+03  2.463410E+05 -3.532912E+02 -6.262720E+03
       404   9  3.179656E+05  1.503226E+05 -9.800121E+03  2.398857E+05 -1.263950E+03 -7.882986E+03
       404  10  4.215840E+05  2.226345E+05  1.344898E+04  2.927119E+05  2.003424E-11  3.191991E-10
       404  11  4.309083E+05  2.321786E+05  1.744710E+04  2.986312E+05 -4.482437E-10  7.172740E-11
       404  12  4.447877E+05  2.385995E+05  2.320967E+04  3.032403E+05 -2.079672E-10  2.042783E-11
       404  13  3.809734E+05  1.937455E+05  2.992634E+03  2.720982E+05 -2.180075E-10  2.023350E-10
       404  14  3.789256E+05  1.956934E+05  4.082112E+03  2.724849E+05  5.500524E-11  5.548526E-11
       404  15  3.813748E+05  1.944602E+05  6.705056E+03  2.715614E+05  1.336367E-10 -7.323633E-12
       404  16  3.403646E+05  1.648575E+05 -7.463858E+03  2.514859E+05 -3.023070E-10  1.937703E-11
       404  17  3.269454E+05  1.592094E+05 -9.283238E+03  2.463410E+05 -4.498062E-11 -2.512604E-11
       404  18  3.179655E+05  1.503225E+05 -9.800241E+03  2.398857E+05  3.899320E-10 -1.491516E-10
       404  19  4.215840E+05  2.226345E+05  1.344901E+04  2.927119E+05 -2.946903E+03  2.561966E+03
       404  20  4.309083E+05  2.321786E+05  1.744714E+04  2.986312E+05 -1.641792E+03  4.766601E+03
       404  21  4.447877E+05  2.385996E+05  2.320976E+04  3.032403E+05 -1.981117E+02  6.786459E+03
       404  22  3.809734E+05  1.937455E+05  2.992662E+03  2.720982E+05 -1.682818E+03  3.509832E+03
       404  23  3.789256E+05  1.956934E+05  4.082170E+03  2.724849E+05 -6.441985E+02  5.514699E+03
       404  24  3.813749E+05  1.944603E+05  6.705158E+03  2.715614E+05  5.329635E+02  7.334755E+03
       404  25  3.403646E+05  1.648575E+05 -7.463821E+03  2.514859E+05 -4.188442E+02  4.457614E+03
       404  26  3.269454E+05  1.592094E+05 -9.283164E+03  2.463410E+05  3.532912E+02  6.262720E+03
       404  27  3.179656E+05  1.503226E+05 -9.800121E+03  2.398857E+05  1.263950E+03  7.882986E+03
       405   1  4.500130E+05  2.465283E+05  2.709678E+04  3.089764E+05  1.116070E+02 -7.618560E+03
       405   2  4.679348E+05  2.490313E+05  3.787917E+04  3.087485E+05 -1.023412E+04 -1.463872E+04
       405   3  5.007821E+05  2.626849E+05  6.167655E+04  3.011746E+05 -2.253116E+04 -1.905752E+04
       405   4  3.816941E+05  1.942329E+05  8.533769E+03  2.726436E+05 -1.081676E+03 -8.513469E+03
       405   5  3.795968E+05  1.978858E+05  1.501298E+04  2.696973E+05 -7.677308E+03 -1.272164E+04
       405   6  3.916130E+05  2.118777E+05  3.125572E+04  2.594048E+05 -1.622389E+04 -1.432838E+04
       405   7  3.133814E+05  1.419415E+05 -1.002934E+04  2.363160E+05 -2.274769E+03 -9.408220E+03
       405   8  2.912688E+05  1.467437E+05 -7.853435E+03  2.306523E+05 -5.121026E+03 -1.080487E+04
       405   9  2.824586E+05  1.610735E+05  8.345384E+02  2.176422E+05 -9.918240E+03 -9.599934E+03
       405  10  4.500130E+05  2.465282E+05  2.709667E+04  3.089764E+05 -4.334063E-11  6.645810E-11
       405  11  4.679346E+05  2.490311E+05  3.787857E+04  3.087484E+05  1.002226E-10 -1.185476E-10
       405  12  5.007815E+05  2.626844E+05  6.167491E+04  3.011742E+05 -4.231499E-11 -8.004954E-11
       405  13  3.816941E+05  1.942328E+05  8.533631E+03  2.726436E+05 -4.087127E-11 -8.224085E-11
       405  14  3.795967E+05  1.978856E+05  1.501257E+04  2.696972E+05  1.673109E-10 -1.342519E-10
       405  15  3.916127E+05  2.118774E+05  3.125484E+04  2.594046E+05  1.128390E-10  1.388904E-11
       405  16  3.133814E+05  1.419414E+05 -1.002951E+04  2.363160E+05  2.037450E-10 -2.266018E-10
       405  17  2.912687E+05  1.467436E+05 -7.853703E+03  2.306522E+05  1.888118E-10  2.145059E-11
       405  18  2.824585E+05  1.610733E+05  8.341806E+02  2.176421E+05  2.566812E-10  1.145531E-10
       405  19  4.500130E+05  2.465283E+05  2.709678E+04  3.089764E+05 -1.116070E+02  7.618560E+03
       405  20  4.679348E+05  2.490313E+05  3.787917E+04  3.087485E+05  1.023412E+04  1.463872E+04
       405  21  5.007821E+05  2.626849E+05  6.167655E+04  3.011746E+05  2.253116E+04  1.905752E+04
       405  22  3.816941E+05  1.942329E+05  8.533769E+03  2.726436E+05  1.081676E+03  8.513469E+03
       405  23  3.795968E+05  1.978858E+05  1.501298E+04  2.696973E+05  7.677308E+03  1.272164E+04
       405  24  3.916130E+05  2.118777E+05  3.125572E+04  2.594048E+05  1.622389E+04  1.432838E+04
       405  25  3.133814E+05  1.419415E+05 -1.002934E+04  2.363160E+05  2.274769E+03  9.408220E+03
       405  26  2.912688E+05  1.467437E+05 -7.853435E+03  2.306523E+05  5.121026E+03  1.080487E+04
       405  27  2.824586E+05  1.610735E+05  8.345384E+02  2.176422E+05  9.918240E+03  9.599934E+03
       406   1  1.982495E+05  7.602096E+03 -3.467179E+03  2.092217E+04 -3.475204E+04 -3.382717E+03
       406   2  1.377214E+05  4.307875E+04  1.102005E+04  3.413058E+04 -2.764758E+04 -1.013839E+04
       406   3  6.593074E+04  3.712782E+04  1.052954E+04  6.436479E+04 -2.054354E+04 -9.333187E+03
       406   4 -8.942172E+04 -6.368182E+04 -7.220807E+04  5.859888E+04 -4.991091E+04 -3.384881E+03
       406   5 -8.283371E+04 -1.015668E+04 -3.461292E+04  5.008428E+04 -3.192360E+04 -1.013954E+04
       406   6 -8.940990E+04  4.090869E+01 -1.955876E+04  5.859800E+04 -1.393583E+04 -9.332591E+03
       406   7 -3.770136E+05 -1.349663E+05 -1.409532E+05  9.625806E+04 -6.506278E+04 -3.388886E+03
       406   8 -3.033421E+05 -6.339422E+04 -8.024833E+04  6.603221E+04 -3.619812E+04 -1.014091E+04
       406   9 -2.447272E+05 -3.704729E+04 -4.964800E+04  5.283268E+04 -7.329735E+03 -9.332118E+03
       406  10  1.982482E+05  7.601760E+03 -3.469469E+03  2.092207E+04 -7.241820E-11 -9.851448E-12
       406  11  1.377206E+05  4.307844E+04  1.101843E+04  3.413036E+04 -1.107557E-10 -5.057712E-11
       406  12  6.593027E+04  3.712761E+04  1.052858E+04  6.436464E+04 -1.536801E-10  4.989980E-11
       406  13 -8.942440E+04 -6.368250E+04 -7.221277E+04  5.859874E+04 -2.830598E-11  3.707419E-11
       406  14 -8.283483E+04 -1.015706E+04 -3.461503E+04  5.008402E+04 -7.389283E-11 -2.660542E-11
       406  15 -8.941013E+04  4.076304E+01 -1.955929E+04  5.859789E+04  1.402650E-10  1.307880E-10
       406  16 -3.770181E+05 -1.349674E+05 -1.409611E+05  9.625788E+04  6.363048E-11 -1.598661E-11
       406  17 -3.033436E+05 -6.339468E+04 -8.025099E+04  6.603192E+04  2.296152E-10 -3.092545E-11
       406  18 -2.447273E+05 -3.704740E+04 -4.964827E+04  5.283262E+04  2.149823E-10  6.174396E-11
       406  19  1.982495E+05  7.602096E+03 -3.467179E+03  2.092217E+04  3.475204E+04  3.382717E+03
       406  20  1.377214E+05  4.307875E+04  1.102005E+04  3.413058E+04  2.764758E+04  1.013839E+04
       406  21  6.593074E+04  3.712782E+04  1.052954E+04  6.436479E+04  2.054354E+04  9.333187E+03
       406  22 -8.942172E+04 -6.368182E+04 -7.220807E+04  5.859888E+04  4.991091E+04  3.384881E+03
       406  23 -8.283371E+04 -1.015668E+04 -3.461292E+04  5.008428E+04  3.192360E+04  1.013954E+04
       406  24 -8.940990E+04  4.090869E+01 -1.955876E+04  5.859800E+04  1.393583E+04  9.332591E+03
       406  25 -3.770136E+05 -1.349663E+05 -1.409532E+05  9.625806E+04  6.506278E+04  3.388886E+03
       406  26 -3.033421E+05 -6.339422E+04 -8.024833E+04  6.603221E+04  3.619812E+04  1.014091E+04
       406  27 -2.447272E+05 -3.704729E+04 -4.964800E+04  5.283268E+04  7.329735E+03  9.332118E+03
       407   1  2.354552E+04  2.389686E+04  6.073937E+03  5.784749E+04 -1.659746E+04 -6.633265E+03
       407   2 -4.207347E+04  1.033879E+04 -5.772203E+02  4.974299E+04 -1.279237E+04 -2.726481E+03
       407   3 -1.086454E+05 -5.065430E+03 -1.016731E+04  5.912182E+04 -8.987735E+03  1.670533E+03
       407   4 -8.672233E+04 -2.427385E+03 -1.527731E+04  5.869888E+04 -1.132417E+04 -6.632821E+03
       407   5 -8.618174E+04 -1.780522E+02 -9.050545E+03  4.995700E+04 -6.814164E+03 -2.725848E+03
       407   6 -8.672023E+04  1.029266E+02 -6.252697E+03  5.869860E+04 -2.304213E+03  1.671375E+03
       407   7 -1.969784E+05 -2.875233E+04 -3.662902E+04  5.955012E+04 -6.051795E+03 -6.632362E+03
       407   8 -1.302881E+05 -1.069499E+04 -1.752382E+04  5.017100E+04 -8.363719E+02 -2.725210E+03
       407   9 -6.479448E+04  5.271281E+03 -2.337935E+03  5.827536E+04  4.379539E+03  1.672208E+03
       407  10  2.354521E+04  2.389673E+04  6.073336E+03  5.784741E+04  6.120259E-11  8.012297E-12
       407  11 -4.207365E+04  1.033874E+04 -5.775418E+02  4.974296E+04 -5.478434E-12  1.722213E-11
       407  12 -1.086455E+05 -5.065455E+03 -1.016747E+04  5.912184E+04  1.344577E-10 -4.185991E-12
       407  13 -8.672248E+04 -2.427467E+03 -1.527763E+04  5.869882E+04  3.933853E-11  1.395079E-10
       407  14 -8.618179E+04 -1.780726E+02 -9.050646E+03  4.995699E+04  4.167599E-10  1.486586E-10
       407  15 -8.672024E+04  1.029221E+02 -6.252712E+03  5.869860E+04  4.608072E-11 -6.845538E-11
       407  16 -1.969785E+05 -2.875239E+04 -3.662917E+04  5.955009E+04 -2.624654E-11  4.452453E-11
       407  17 -1.302881E+05 -1.069500E+04 -1.752384E+04  5.017100E+04  8.038316E-11  1.732327E-10
       407  18 -6.479450E+04  5.271273E+03 -2.337976E+03  5.827536E+04  2.685193E-11 -3.022015E-11
       407  19  2.354552E+04  2.389686E+04  6.073937E+03  5.784749E+04  1.659746E+04  6.633265E+03
       407  20 -4.207347E+04  1.033879E+04 -5.772203E+02  4.974299E+04  1.279237E+04  2.726481E+03
       407  21 -1.086454E+05 -5.065430E+03 -1.016731E+04  5.912182E+04  8.987735E+03 -1.670533E+03
       407  22 -8.672233E+04 -2.427385E+03 -1.527731E+04  5.869888E+04  1.132417E+04  6.632821E+03
       407  23 -8.618174E+04 -1.780522E+02 -9.050545E+03  4.995700E+04  6.814164E+03  2.725848E+03
       407  24 -8.672023E+04  1.029266E+02 -6.252697E+03  5.869860E+04  2.304213E+03 -1.671375E+03
       407  25 -1.969784E+05 -2.875233E+04 -3.662902E+04  5.955012E+04  6.051795E+03  6.632362E+03
       407  26 -1.302881E+05 -1.069499E+04 -1.752382E+04  5.017100E+04  8.363719E+02  2.725210E+03
       407  27 -6.479448E+04  5.271281E+03 -2.337935E+03  5.827536E+04 -4.379539E+03 -1.672208E+03
       408   1 -1.533379E+05 -1.581439E+04 -1.817339E+04  5.863821E+04 -7.968329E+03  4.426348E+03
       408   2 -2.190415E+05 -3.158842E+04 -3.067084E+04  5.015877E+04 -4.190930E+03  8.759952E+03
       408   3 -2.855121E+05 -4.849366E+04 -4.591052E+04  5.915299E+04 -4.134783E+02  1.243724E+04
       408   4 -8.661611E+04  3.825397E+01 -5.641277E+03  5.869639E+04 -1.257736E+03  4.427115E+03
       408   5 -8.631550E+04 -4.360477E+01 -5.696144E+03  4.995970E+04  1.574993E+03  8.760286E+03
       408   6 -8.662186E+04 -1.092277E+03 -7.836817E+03  5.869647E+04  4.408159E+03  1.243722E+04
       408   7 -1.988993E+04  1.589067E+04  6.890812E+03  5.875458E+04  5.453561E+03  4.427882E+03
       408   8  4.642759E+04  3.150020E+04  1.927791E+04  4.976060E+04  7.342118E+03  8.760616E+03
       408   9  1.123065E+05  4.630678E+04  3.023517E+04  5.823981E+04  9.231305E+03  1.243719E+04
       408  10 -1.533380E+05 -1.581443E+04 -1.817355E+04  5.863824E+04 -9.710286E-11  6.196710E-11
       408  11 -2.190415E+05 -3.158851E+04 -3.067102E+04  5.015880E+04 -2.076984E-10 -6.786390E-11
       408  12 -2.855121E+05 -4.849383E+04 -4.591082E+04  5.915299E+04 -1.677159E-10  1.562690E-11
       408  13 -8.661612E+04  3.823249E+01 -5.641317E+03  5.869639E+04  2.143106E-10 -6.654447E-11
       408  14 -8.631552E+04 -4.368784E+01 -5.696293E+03  4.995969E+04  1.904368E-10 -1.927168E-11
       408  15 -8.662192E+04 -1.092449E+03 -7.837144E+03  5.869643E+04  1.011716E-10 -1.592939E-11
       408  16 -1.988996E+04  1.589064E+04  6.890719E+03  5.875456E+04  2.023792E-10 -1.001689E-10
       408  17  4.642751E+04  3.150011E+04  1.927767E+04  4.976055E+04  3.342891E-10 -5.278347E-11
       408  18  1.123064E+05  4.630660E+04  3.023472E+04  5.823972E+04  2.812842E-10 -5.630811E-11
       408  19 -1.533379E+05 -1.581439E+04 -1.817339E+04  5.863821E+04  7.968329E+03 -4.426348E+03
       408  20 -2.190415E+05 -3.158842E+04 -3.067084E+04  5.015877E+04  4.190930E+03 -8.759952E+03
       408  21 -2.855121E+05 -4.849366E+04 -4.591052E+04  5.915299E+04  4.134783E+02 -1.243724E+04
       408  22 -8.661611E+04  3.825397E+01 -5.641277E+03  5.869639E+04  1.257736E+03 -4.427115E+03
       408  23 -8.631550E+04 -4.360477E+01 -5.696144E+03  4.995970E+04 -1.574993E+03 -8.760286E+03
       408  24 -8.662186E+04 -1.092277E+03 -7.836817E+03  5.869647E+04 -4.408159E+03 -1.243722E+04
       408  25 -1.988993E+04  1.589067E+04  6.890812E+03  5.875458E+04 -5.453561E+03 -4.427882E+03
       408  26  4.642759E+04  3.150020E+04  1.927791E+04  4.976060E+04 -7.342118E+03 -8.760616E+03
       408  27  1.123065E+05  4.630678E+04  3.023517E+04  5.823981E+04 -9.231305E+03 -1.243719E+04
       409   1 -3.318587E+05 -5.816571E+04 -5.640352E+04  5.599499E+04 -8.057506E+02  1.511780E+04
       409   2 -3.937900E+05 -7.912736E+04 -7.946808E+04  5.744381E+04  2.154228E+04  1.479687E+04
       409   3 -4.641558E+05 -1.222713E+05 -1.226293E+05  7.578296E+04  4.388536E+04  4.747479E+03
       409   4 -8.782503E+04  2.327467E+01 -9.552691E+03  5.856757E+04  5.734939E+03  1.511754E+04
       409   5 -8.483003E+04 -4.639066E+03 -1.607824E+04  5.012123E+04  1.408404E+04  1.479631E+04
       409   6 -8.783919E+04 -2.904680E+04 -3.297258E+04  5.856608E+04  2.243107E+04  4.748113E+03
       409   7  1.562661E+05  5.820878E+04  3.729557E+04  6.114118E+04  1.227814E+04  1.511733E+04
       409   8  2.242209E+05  6.984345E+04  4.730674E+04  4.279493E+04  6.622147E+03  1.479593E+04
       409   9  2.886091E+05  6.416885E+04  5.667614E+04  4.133870E+04  9.638278E+02  4.749938E+03
       409  10 -3.318587E+05 -5.816596E+04 -5.640395E+04  5.599500E+04 -2.390064E-10  3.469238E-11
       409  11 -3.937906E+05 -7.912772E+04 -7.946936E+04  5.744356E+04 -3.806939E-10 -4.248052E-11
       409  12 -4.641579E+05 -1.222719E+05 -1.226330E+05  7.578280E+04 -1.049618E-10 -7.263694E-11
       409  13 -8.782512E+04  2.302045E+01 -9.553183E+03  5.856750E+04  2.269355E-10  3.567333E-11
       409  14 -8.483031E+04 -4.639354E+03 -1.607903E+04  5.012106E+04  2.695207E-10  1.480424E-11
       409  15 -8.783974E+04 -2.904696E+04 -3.297356E+04  5.856599E+04 -7.363270E-11  5.486417E-11
       409  16  1.562658E+05  5.820850E+04  3.729485E+04  6.114103E+04  2.980452E-10 -9.753017E-12
       409  17  2.242208E+05  6.984320E+04  4.730625E+04  4.279485E+04  3.855024E-10  1.466855E-10
       409  18  2.886091E+05  6.416883E+04  5.667610E+04  4.133869E+04  1.760602E-10 -6.413749E-11
       409  19 -3.318587E+05 -5.816571E+04 -5.640352E+04  5.599499E+04  8.057506E+02 -1.511780E+04
       409  20 -3.937900E+05 -7.912736E+04 -7.946808E+04  5.744381E+04 -2.154228E+04 -1.479687E+04
       409  21 -4.641558E+05 -1.222713E+05 -1.226293E+05  7.578296E+04 -4.388536E+04 -4.747479E+03
       409  22 -8.782503E+04  2.327467E+01 -9.552691E+03  5.856757E+04 -5.734939E+03 -1.511754E+04
       409  23 -8.483003E+04 -4.639066E+03 -1.607824E+04  5.012123E+04 -1.408404E+04 -1.479631E+04
       409  24 -8.783919E+04 -2.904680E+04 -3.297258E+04  5.856608E+04 -2.243107E+04 -4.748113E+03
       409  25  1.562661E+05  5.820878E+04  3.729557E+04  6.114118E+04 -1.227814E+04 -1.511733E+04
       409  26  2.242209E+05  6.984345E+04  4.730674E+04  4.279493E+04 -6.622147E+03 -1.479593E+04
       409  27  2.886091E+05  6.416885E+04  5.667614E+04  4.133870E+04 -9.638278E+02 -4.749938E+03
       410   1 -1.755225E+05 -5.912906E+05 -1.872621E+05  1.500764E+05 -3.100372E+03 -8.893929E+04
       410   2 -6.443270E+04 -4.775353E+05 -9.964508E+04  1.026793E+05 -8.329673E+03 -4.743599E+04
       410   3 -2.376918E+04 -3.867949E+05 -5.667404E+04  8.183574E+04 -5.359277E+03 -5.926083E+03
       410   4 -1.001743E+05 -2.875894E+05 -1.141780E+05  9.060198E+04 -3.087957E+03 -7.550634E+04
       410   5 -1.587814E+04 -2.770927E+05 -5.730737E+04  7.730874E+04 -8.327010E+03 -4.579508E+04
       410   6  5.104682E+01 -2.875631E+05 -3.687708E+04  9.057557E+04 -5.363013E+03 -1.608458E+04
       410   7 -2.481945E+04  1.620418E+04 -4.109777E+04  3.109832E+04 -3.078121E+03 -6.206683E+04
       410   8  3.267625E+04 -7.661081E+04 -1.497156E+04  5.192982E+04 -8.324483E+03 -4.415364E+04
       410   9  2.387101E+04 -1.883216E+05 -1.708019E+04  9.931683E+04 -5.367034E+03 -2.624467E+04
       410  10 -1.755247E+05 -5.912991E+05 -1.872770E+05  1.500762E+05  7.488910E-12 -1.192703E-10
       410  11 -6.443338E+04 -4.775377E+05 -9.964945E+04  1.026790E+05 -1.445730E-10  1.104462E-10
       410  12 -2.376922E+04 -3.867950E+05 -5.667416E+04  8.183571E+04 -1.168390E-10 -1.510450E-10
       410  13 -1.001759E+05 -2.875956E+05 -1.141887E+05  9.060179E+04  1.257792E-10  1.854274E-10
       410  14 -1.587878E+04 -2.770950E+05 -5.731144E+04  7.730843E+04 -5.066457E-11 -1.243106E-10
       410  15  5.094646E+01 -2.875634E+05 -3.687762E+04  9.057550E+04 -1.979226E-10 -1.193480E-10
       410  16 -2.482049E+04  1.620004E+04 -4.110503E+04  3.109816E+04  6.150319E-12  1.182809E-10
       410  17  3.267566E+04 -7.661292E+04 -1.497536E+04  5.192952E+04 -5.443884E-11  6.203407E-12
       410  18  2.387080E+04 -1.883223E+05 -1.708154E+04  9.931672E+04 -5.612537E-11 -2.298166E-10
       410  19 -1.755225E+05 -5.912906E+05 -1.872621E+05  1.500764E+05  3.100372E+03  8.893929E+04
       410  20 -6.443270E+04 -4.775353E+05 -9.964508E+04  1.026793E+05  8.329673E+03  4.743599E+04
       410  21 -2.376918E+04 -3.867949E+05 -5.667404E+04  8.183574E+04  5.359277E+03  5.926083E+03
       410  22 -1.001743E+05 -2.875894E+05 -1.141780E+05  9.060198E+04  3.087957E+03  7.550634E+04
       410  23 -1.587814E+04 -2.770927E+05 -5.730737E+04  7.730874E+04  8.327010E+03  4.579508E+04
       410  24  5.104682E+01 -2.875631E+05 -3.687708E+04  9.057557E+04  5.363013E+03  1.608458E+04
       410  25 -2.481945E+04  1.620418E+04 -4.109777E+04  3.109832E+04  3.078121E+03  6.206683E+04
       410  26  3.267625E+04 -7.661081E+04 -1.497156E+04  5.192982E+04  8.324483E+03  4.415364E+04
       410  27  2.387101E+04 -1.883216E+05 -1.708019E+04  9.931683E+04  5.367034E+03  2.624467E+04
       411   1 -1.080067E+04 -3.133933E+05 -3.869725E+04  9.302551E+04 -1.159210E+03 -1.873831E+03
       411   2  1.648722E+04 -2.094044E+05 -1.571511E+04  7.711978E+04  4.861205E+03  1.236898E+04
       411   3  3.681647E+04 -1.090110E+05 -3.751332E+03  8.821385E+04  1.062827E+04  2.661441E+04
       411   4 -3.598872E+03 -2.837191E+05 -3.236227E+04  9.067713E+04 -1.162509E+03 -1.071513E+04
       411   5 -7.276993E+02 -2.818870E+05 -2.928795E+04  7.717718E+04  4.858303E+03  3.890992E+03
       411   6 -4.878207E+03 -2.837243E+05 -3.748475E+04  9.067765E+04  1.062583E+04  1.849750E+04
       411   7  3.602928E+03 -2.540439E+05 -2.602704E+04  8.832863E+04 -1.165742E+03 -1.955684E+04
       411   8 -1.794288E+04 -3.543644E+05 -4.286074E+04  7.723458E+04  4.855399E+03 -4.586028E+03
       411   9 -4.657465E+04 -4.584080E+05 -7.121934E+04  9.314074E+04  1.062333E+04  1.038282E+04
       411  10 -1.080067E+04 -3.133933E+05 -3.869726E+04  9.302551E+04 -9.359591E-11 -2.797098E-10
       411  11  1.648715E+04 -2.094046E+05 -1.571544E+04  7.711973E+04 -2.025431E-10  7.971102E-11
       411  12  3.681616E+04 -1.090118E+05 -3.752875E+03  8.821362E+04  3.427930E-10 -2.525669E-11
       411  13 -3.598904E+03 -2.837192E+05 -3.236249E+04  9.067712E+04 -2.262196E-11  2.263986E-10
       411  14 -7.277287E+02 -2.818870E+05 -2.928802E+04  7.717717E+04  3.400194E-10 -1.404210E-10
       411  15 -4.878421E+03 -2.837246E+05 -3.748561E+04  9.067749E+04 -1.300559E-10 -2.475757E-12
       411  16  3.602824E+03 -2.540443E+05 -2.602776E+04  8.832861E+04 -7.848145E-12  2.429017E-10
       411  17 -1.794291E+04 -3.543644E+05 -4.286083E+04  7.723460E+04  1.512484E-11  4.526409E-11
       411  18 -4.657480E+04 -4.584081E+05 -7.121976E+04  9.314065E+04  1.891995E-10 -3.283874E-10
       411  19 -1.080067E+04 -3.133933E+05 -3.869725E+04  9.302551E+04  1.159210E+03  1.873831E+03
       411  20  1.648722E+04 -2.094044E+05 -1.571511E+04  7.711978E+04 -4.861205E+03 -1.236898E+04
       411  21  3.681647E+04 -1.090110E+05 -3.751332E+03  8.821385E+04 -1.062827E+04 -2.661441E+04
       411  22 -3.598872E+03 -2.837191E+05 -3.236227E+04  9.067713E+04  1.162509E+03  1.071513E+04
       411  23 -7.276993E+02 -2.818870E+05 -2.928795E+04  7.717718E+04 -4.858303E+03 -3.890992E+03
       411  24 -4.878207E+03 -2.837243E+05 -3.748475E+04  9.067765E+04 -1.062583E+04 -1.849750E+04
       411  25  3.602928E+03 -2.540439E+05 -2.602704E+04  8.832863E+04  1.165742E+03  1.955684E+04
       411  26 -1.794288E+04 -3.543644E+05 -4.286074E+04  7.723458E+04 -4.855399E+03  4.586028E+03
       411  27 -4.657465E+04 -4.584080E+05 -7.121934E+04  9.314074E+04 -1.062333E+04 -1.038282E+04
       412   1  5.841227E+04 -4.459402E+04  2.451223E+03  1.022780E+05  1.480054E+04  3.489834E+04
       412   2  6.233050E+04  6.992785E+04 -2.335202E+03  4.414206E+04  1.593550E+04  5.623917E+04
       412   3 -2.071427E+04  1.599633E+05 -4.274879E+04  1.232160E+04  5.303763E+03  7.758448E+04
       412   4  6.065479E+01 -2.890140E+05 -4.480378E+04  9.052345E+04  1.479716E+04  2.478809E+04
       412   5 -2.098543E+04 -2.753052E+05 -7.372208E+04  7.737596E+04  1.594080E+04  6.305324E+04
       412   6 -1.319683E+05 -2.890539E+05 -1.500385E+05  9.054956E+04  5.317852E+03  1.013182E+05
       412   7 -5.829395E+04 -5.333760E+05 -9.206111E+04  7.877358E+04  1.479416E+04  1.468172E+04
       412   8 -1.043047E+05 -6.204227E+05 -1.451147E+05  1.105910E+05  1.594682E+04  6.986357E+04
       412   9 -2.432135E+05 -7.378718E+05 -2.573369E+05  1.687207E+05  5.337931E+03  1.250348E+05
       412  10  5.841171E+04 -4.459539E+04  2.448523E+03  1.022776E+05  1.381785E-10 -2.618240E-10
       412  11  6.232938E+04  6.992439E+04 -2.341622E+03  4.414134E+04  1.808254E-11 -6.712687E-11
       412  12 -2.071592E+04  1.599568E+05 -4.276015E+04  1.232127E+04 -6.764671E-11  6.284579E-12
       412  13  6.025472E+01 -2.890147E+05 -4.480534E+04  9.052315E+04  1.153804E-10  1.631285E-10
       412  14 -2.098677E+04 -2.753095E+05 -7.373004E+04  7.737515E+04 -3.339647E-11 -1.583645E-11
       412  15 -1.319710E+05 -2.890649E+05 -1.500578E+05  9.054912E+04 -3.955495E-12 -4.796152E-11
       412  16 -5.829425E+04 -5.333763E+05 -9.206193E+04  7.877341E+04 -5.194696E-11  3.096084E-10
       412  17 -1.043063E+05 -6.204280E+05 -1.451243E+05  1.105901E+05 -1.708538E-10  2.036992E-10
       412  18 -2.432178E+05 -7.378887E+05 -2.573664E+05  1.687201E+05  2.755999E-11 -8.424311E-11
       412  19  5.841227E+04 -4.459402E+04  2.451223E+03  1.022780E+05 -1.480054E+04 -3.489834E+04
       412  20  6.233050E+04  6.992785E+04 -2.335202E+03  4.414206E+04 -1.593550E+04 -5.623917E+04
       412  21 -2.071427E+04  1.599633E+05 -4.274879E+04  1.232160E+04 -5.303763E+03 -7.758448E+04
       412  22  6.065479E+01 -2.890140E+05 -4.480378E+04  9.052345E+04 -1.479716E+04 -2.478809E+04
       412  23 -2.098543E+04 -2.753052E+05 -7.372208E+04  7.737596E+04 -1.594080E+04 -6.305324E+04
       412  24 -1.319683E+05 -2.890539E+05 -1.500385E+05  9.054956E+04 -5.317852E+03 -1.013182E+05
       412  25 -5.829395E+04 -5.333760E+05 -9.206111E+04  7.877358E+04 -1.479416E+04 -1.468172E+04
       412  26 -1.043047E+05 -6.204227E+05 -1.451147E+05  1.105910E+05 -1.594682E+04 -6.986357E+04
       412  27 -2.432135E+05 -7.378718E+05 -2.573369E+05  1.687207E+05 -5.337931E+03 -1.250348E+05
       413   1  5.952904E+05  5.214779E+05  1.509227E+05  4.350629E+05  8.812742E+04  6.739612E+04
       413   2  5.901495E+05  3.893894E+05  6.641521E+04  4.732680E+05  5.532973E+04  4.589873E+04
       413   3  6.402569E+05  3.318903E+05  3.231423E+04  4.779565E+05  2.353060E+04  2.306804E+04
       413   4  7.288942E+05  4.732090E+05  1.670428E+05  4.353742E+05  9.197717E+04  7.026324E+04
       413   5  6.745732E+05  3.885566E+05  7.994468E+04  4.875155E+05  5.724066E+04  4.732616E+04
       413   6  6.759092E+05  3.788983E+05  4.492300E+04  5.061427E+05  2.350719E+04  2.305132E+04
       413   7  8.625326E+05  4.249556E+05  1.831671E+05  4.356792E+05  9.582821E+04  7.312965E+04
       413   8  7.590072E+05  3.877256E+05  9.347468E+04  5.017630E+05  5.915196E+04  4.875351E+04
       413   9  7.115627E+05  4.259089E+05  5.753140E+04  5.343309E+05  2.348377E+04  2.303459E+04
       413  10  5.952808E+05  5.214710E+05  1.508996E+05  4.350581E+05 -1.497303E-10 -1.010338E-10
       413  11  5.901457E+05  3.893864E+05  6.640551E+04  4.732660E+05  4.673981E-11 -4.880113E-11
       413  12  6.402561E+05  3.318896E+05  3.231220E+04  4.779561E+05 -6.507789E-11 -1.163858E-10
       413  13  7.288838E+05  4.732015E+05  1.670177E+05  4.353690E+05 -3.193635E-10  4.653763E-11
       413  14  6.745691E+05  3.885534E+05  7.993433E+04  4.875133E+05 -1.124387E-10  1.321538E-10
       413  15  6.759085E+05  3.788976E+05  4.492096E+04  5.061422E+05  4.000494E-10 -6.452229E-11
       413  16  8.625213E+05  4.249474E+05  1.831399E+05  4.356736E+05  2.656411E-10  2.359049E-10
       413  17  7.590028E+05  3.877221E+05  9.346366E+04  5.017606E+05 -3.934450E-10  1.179608E-10
       413  18  7.115620E+05  4.259082E+05  5.752937E+04  5.343305E+05  4.234056E-10 -2.704709E-11
       413  19  5.952904E+05  5.214779E+05  1.509227E+05  4.350629E+05 -8.812742E+04 -6.739612E+04
       413  20  5.901495E+05  3.893894E+05  6.641521E+04  4.732680E+05 -5.532973E+04 -4.589873E+04
       413  21  6.402569E+05  3.318903E+05  3.231423E+04  4.779565E+05 -2.353060E+04 -2.306804E+04
       413  22  7.288942E+05  4.732090E+05  1.670428E+05  4.353742E+05 -9.197717E+04 -7.026324E+04
       413  23  6.745732E+05  3.885566E+05  7.994468E+04  4.875155E+05 -5.724066E+04 -4.732616E+04
       413  24  6.759092E+05  3.788983E+05  4.492300E+04  5.061427E+05 -2.350719E+04 -2.305132E+04
       413  25  8.625326E+05  4.249556E+05  1.831671E+05  4.356792E+05 -9.582821E+04 -7.312965E+04
       413  26  7.590072E+05  3.877256E+05  9.347468E+04  5.017630E+05 -5.915196E+04 -4.875351E+04
       413  27  7.115627E+05  4.259089E+05  5.753140E+04  5.343309E+05 -2.348377E+04 -2.303459E+04
       414   1  6.241007E+05  3.482755E+05  2.240759E+04  4.767222E+05  1.851888E+04  1.928873E+04
       414   2  6.233647E+05  3.436111E+05  7.924876E+03  4.785242E+05  1.056844E+04  1.348493E+04
       414   3  6.259467E+05  3.424622E+05  9.539320E+02  4.792859E+05  2.689343E+03  7.586070E+03
       414   4  6.739910E+05  3.802927E+05  3.488223E+04  5.004025E+05  1.873410E+04  1.944994E+04
       414   5  6.712530E+05  3.766239E+05  2.008515E+04  5.023472E+05  1.064577E+04  1.354284E+04
       414   6  6.718625E+05  3.765002E+05  1.291887E+04  5.032514E+05  2.628752E+03  7.540608E+03
       414   7  7.238843E+05  4.123111E+05  4.735668E+04  5.240850E+05  1.894934E+04  1.961116E+04
       414   8  7.191442E+05  4.096383E+05  3.224538E+04  5.261724E+05  1.072310E+04  1.360075E+04
       414   9  7.177815E+05  4.105401E+05  2.488389E+04  5.272193E+05  2.568153E+03  7.495141E+03
       414  10  6.241002E+05  3.482750E+05  2.240625E+04  4.767219E+05 -4.410380E-10 -6.806084E-10
       414  11  6.233645E+05  3.436109E+05  7.924325E+03  4.785241E+05 -9.029607E-11 -4.486031E-10
       414  12  6.259467E+05  3.424622E+05  9.538104E+02  4.792858E+05 -8.542493E-11 -2.254596E-10
       414  13  6.739906E+05  3.802922E+05  3.488086E+04  5.004023E+05 -1.085468E-10 -2.620069E-10
       414  14  6.712528E+05  3.766237E+05  2.008460E+04  5.023470E+05 -3.317934E-10 -1.533509E-10
       414  15  6.718625E+05  3.765001E+05  1.291875E+04  5.032514E+05 -2.378986E-10 -6.185244E-11
       414  16  7.238838E+05  4.123106E+05  4.735528E+04  5.240847E+05  6.068456E-10  2.199776E-10
       414  17  7.191441E+05  4.096381E+05  3.224482E+04  5.261723E+05  3.120399E-10  2.591828E-10
       414  18  7.177814E+05  4.105400E+05  2.488377E+04  5.272193E+05  3.492364E-10  1.804659E-10
       414  19  6.241007E+05  3.482755E+05  2.240759E+04  4.767222E+05 -1.851888E+04 -1.928873E+04
       414  20  6.233647E+05  3.436111E+05  7.924876E+03  4.785242E+05 -1.056844E+04 -1.348493E+04
       414  21  6.259467E+05  3.424622E+05  9.539320E+02  4.792859E+05 -2.689343E+03 -7.586070E+03
       414  22  6.739910E+05  3.802927E+05  3.488223E+04  5.004025E+05 -1.873410E+04 -1.944994E+04
       414  23  6.712530E+05  3.766239E+05  2.008515E+04  5.023472E+05 -1.064577E+04 -1.354284E+04
       414  24  6.718625E+05  3.765002E+05  1.291887E+04  5.032514E+05 -2.628752E+03 -7.540608E+03
       414  25  7.238843E+05  4.123111E+05  4.735668E+04  5.240850E+05 -1.894934E+04 -1.961116E+04
       414  26  7.191442E+05  4.096383E+05  3.224538E+04  5.261724E+05 -1.072310E+04 -1.360075E+04
       414  27  7.177815E+05  4.105401E+05  2.488389E+04  5.272193E+05 -2.568153E+03 -7.495141E+03
       415   1  6.253866E+05  3.435387E+05 -8.527879E+02  4.794013E+05  9.915919E+02  6.275298E+03
       415   2  6.253086E+05  3.439509E+05 -2.160579E+03  4.796816E+05 -2.752152E+03  3.414095E+03
       415   3  6.260235E+05  3.447031E+05 -3.003229E+02  4.800530E+05 -6.487060E+03  5.412421E+02
       415   4  6.717113E+05  3.765278E+05  1.101162E+04  5.029491E+05  9.499790E+02  6.244054E+03
       415   5  6.713138E+05  3.763577E+05  9.562900E+03  5.029022E+05 -2.810975E+03  3.369950E+03
       415   6  6.717131E+05  3.765312E+05  1.129696E+04  5.029463E+05 -6.563118E+03  4.841815E+02
       415   7  7.180378E+05  4.095177E+05  2.287560E+04  5.264985E+05  9.083626E+02  6.212807E+03
       415   8  7.173211E+05  4.087655E+05  2.128608E+04  5.261245E+05 -2.869802E+03  3.325801E+03
       415   9  7.174050E+05  4.083604E+05  2.289407E+04  5.258415E+05 -6.639183E+03  4.271153E+02
       415  10  6.253866E+05  3.435386E+05 -8.528637E+02  4.794013E+05  1.037727E-10 -1.292566E-10
       415  11  6.253085E+05  3.439509E+05 -2.160615E+03  4.796816E+05 -1.191869E-10 -4.332899E-10
       415  12  6.260235E+05  3.447031E+05 -3.004025E+02  4.800530E+05 -2.307155E-10 -1.889880E-10
       415  13  6.717113E+05  3.765278E+05  1.101154E+04  5.029491E+05  8.890569E-11 -1.116283E-10
       415  14  6.713138E+05  3.763577E+05  9.562864E+03  5.029022E+05  1.089796E-09 -1.250579E-10
       415  15  6.717130E+05  3.765312E+05  1.129688E+04  5.029463E+05  1.741598E-10 -3.163160E-11
       415  16  7.180378E+05  4.095177E+05  2.287553E+04  5.264985E+05 -9.412345E-11 -1.445352E-10
       415  17  7.173211E+05  4.087655E+05  2.128605E+04  5.261246E+05  1.601614E-10  5.919605E-11
       415  18  7.174049E+05  4.083604E+05  2.289399E+04  5.258415E+05  4.979731E-10  3.556455E-11
       415  19  6.253866E+05  3.435387E+05 -8.527879E+02  4.794013E+05 -9.915919E+02 -6.275298E+03
       415  20  6.253086E+05  3.439509E+05 -2.160579E+03  4.796816E+05  2.752152E+03 -3.414095E+03
       415  21  6.260235E+05  3.447031E+05 -3.003229E+02  4.800530E+05  6.487060E+03 -5.412421E+02
       415  22  6.717113E+05  3.765278E+05  1.101162E+04  5.029491E+05 -9.499790E+02 -6.244054E+03
       415  23  6.713138E+05  3.763577E+05  9.562900E+03  5.029022E+05  2.810975E+03 -3.369950E+03
       415  24  6.717131E+05  3.765312E+05  1.129696E+04  5.029463E+05  6.563118E+03 -4.841815E+02
       415  25  7.180378E+05  4.095177E+05  2.287560E+04  5.264985E+05 -9.083626E+02 -6.212807E+03
       415  26  7.173211E+05  4.087655E+05  2.128608E+04  5.261245E+05  2.869802E+03 -3.325801E+03
       415  27  7.174050E+05  4.083604E+05  2.289407E+04  5.258415E+05  6.639183E+03 -4.271153E+02
       416   1  6.257075E+05  3.457373E+05  1.863562E+03  4.807871E+05 -8.234256E+03 -8.064230E+02
       416   2  6.270775E+05  3.447119E+05  9.570889E+03  4.796592E+05 -1.643345E+04 -7.080572E+03
       416   3  6.319191E+05  3.474039E+05  2.516143E+04  4.774392E+05 -2.457175E+04 -1.343644E+04
       416   4  6.718740E+05  3.765054E+05  1.337163E+04  5.032689E+05 -8.293656E+03 -8.509818E+02
       416   5  6.712440E+05  3.766271E+05  2.100064E+04  5.023180E+05 -1.661125E+04 -7.213920E+03
       416   6  6.741109E+05  3.804917E+05  3.661506E+04  5.002750E+05 -2.486780E+04 -1.365852E+04
       416   7  7.180437E+05  4.072750E+05  2.487977E+04  5.257528E+05 -8.353063E+03 -8.955454E+02
       416   8  7.154128E+05  4.085436E+05  3.243024E+04  5.249786E+05 -1.678907E+04 -7.347281E+03
       416   9  7.163041E+05  4.135804E+05  4.806831E+04  5.231123E+05 -2.516388E+04 -1.388061E+04
       416  10  6.257074E+05  3.457373E+05  1.863434E+03  4.807871E+05 -5.019218E-10  1.678358E-10
       416  11  6.270772E+05  3.447118E+05  9.570289E+03  4.796591E+05 -3.142938E-10  1.063046E-10
       416  12  6.319184E+05  3.474035E+05  2.515996E+04  4.774389E+05  1.302836E-10  2.845474E-10
       416  13  6.718740E+05  3.765054E+05  1.337150E+04  5.032688E+05 -1.362039E-10  1.094984E-10
       416  14  6.712437E+05  3.766270E+05  2.100003E+04  5.023179E+05  7.414186E-11  2.092881E-10
       416  15  6.741102E+05  3.804914E+05  3.661355E+04  5.002747E+05 -5.440459E-11 -9.795600E-11
       416  16  7.180436E+05  4.072750E+05  2.487964E+04  5.257528E+05  4.156581E-10  9.439932E-11
       416  17  7.154125E+05  4.085434E+05  3.242961E+04  5.249785E+05  2.171446E-10  1.361641E-10
       416  18  7.163034E+05  4.135801E+05  4.806676E+04  5.231121E+05  1.562901E-10 -4.144750E-10
       416  19  6.257075E+05  3.457373E+05  1.863562E+03  4.807871E+05  8.234256E+03  8.064230E+02
       416  20  6.270775E+05  3.447119E+05  9.570889E+03  4.796592E+05  1.643345E+04  7.080572E+03
       416  21  6.319191E+05  3.474039E+05  2.516143E+04  4.774392E+05  2.457175E+04  1.343644E+04
       416  22  6.718740E+05  3.765054E+05  1.337163E+04  5.032689E+05  8.293656E+03  8.509818E+02
       416  23  6.712440E+05  3.766271E+05  2.100064E+04  5.023180E+05  1.661125E+04  7.213920E+03
       416  24  6.741109E+05  3.804917E+05  3.661506E+04  5.002750E+05  2.486780E+04  1.365852E+04
       416  25  7.180437E+05  4.072750E+05  2.487977E+04  5.257528E+05  8.353063E+03  8.955454E+02
       416  26  7.154128E+05  4.085436E+05  3.243024E+04  5.249786E+05  1.678907E+04  7.347281E+03
       416  27  7.163041E+05  4.135804E+05  4.806831E+04  5.231123E+05  2.516388E+04  1.388061E+04
       417   1  6.188178E+05  3.615318E+05  3.579683E+04  4.881184E+05 -2.977398E+04 -1.738783E+04
       417   2  6.686282E+05  3.213393E+05  7.210832E+04  4.540828E+05 -6.259778E+04 -4.297882E+04
       417   3  7.767486E+05  3.595327E+05  1.617439E+05  3.847613E+05 -9.456539E+04 -6.971196E+04
       417   4  6.761644E+05  3.789895E+05  4.719210E+04  5.063013E+05 -2.986631E+04 -1.745611E+04
       417   5  6.746872E+05  3.892194E+05  8.404812E+04  4.867350E+05 -6.434408E+04 -4.429375E+04
       417   6  7.318658E+05  4.781843E+05  1.756607E+05  4.318867E+05 -9.796189E+04 -7.227948E+04
       417   7  7.335150E+05  3.964477E+05  5.858732E+04  5.244853E+05 -2.995865E+04 -1.752439E+04
       417   8  6.807488E+05  4.571097E+05  9.598869E+04  5.193892E+05 -6.609039E+04 -4.560902E+04
       417   9  6.869987E+05  5.968740E+05  1.895820E+05  4.790106E+05 -1.013580E+05 -7.484829E+04
       417  10  6.188168E+05  3.615312E+05  3.579460E+04  4.881180E+05 -4.852831E-10 -2.242217E-10
       417  11  6.686235E+05  3.213362E+05  7.209750E+04  4.540806E+05 -1.436634E-10  3.711347E-11
       417  12  7.767377E+05  3.595251E+05  1.617180E+05  3.847560E+05  3.435643E-10  4.154832E-11
       417  13  6.761633E+05  3.789889E+05  4.718985E+04  5.063008E+05  2.681319E-11 -2.548611E-10
       417  14  6.746822E+05  3.892162E+05  8.403667E+04  4.867327E+05  1.134016E-10  2.903996E-11
       417  15  7.318541E+05  4.781762E+05  1.756329E+05  4.318811E+05  6.732426E-11  1.348054E-10
       417  16  7.335140E+05  3.964471E+05  5.858506E+04  5.244849E+05  8.039289E-10 -1.068795E-10
       417  17  6.807436E+05  4.571063E+05  9.597659E+04  5.193868E+05  1.016131E-10 -9.720331E-11
       417  18  6.869862E+05  5.968652E+05  1.895523E+05  4.790045E+05 -6.937766E-11 -1.789771E-11
       417  19  6.188178E+05  3.615318E+05  3.579683E+04  4.881184E+05  2.977398E+04  1.738783E+04
       417  20  6.686282E+05  3.213393E+05  7.210832E+04  4.540828E+05  6.259778E+04  4.297882E+04
       417  21  7.767486E+05  3.595327E+05  1.617439E+05  3.847613E+05  9.456539E+04  6.971196E+04
       417  22  6.761644E+05  3.789895E+05  4.719210E+04  5.063013E+05  2.986631E+04  1.745611E+04
       417  23  6.746872E+05  3.892194E+05  8.404812E+04  4.867350E+05  6.434408E+04  4.429375E+04
       417  24  7.318658E+05  4.781843E+05  1.756607E+05  4.318867E+05  9.796189E+04  7.227948E+04
       417  25  7.335150E+05  3.964477E+05  5.858732E+04  5.244853E+05  2.995865E+04  1.752439E+04
       417  26  6.807488E+05  4.571097E+05  9.598869E+04  5.193892E+05  6.609039E+04  4.560902E+04
       417  27  6.869987E+05  5.968740E+05  1.895820E+05  4.790106E+05  1.013580E+05  7.484829E+04
       418   1  9.650333E+04  1.912003E+04  1.188152E+04 -3.983614E+03 -1.427184E+04 -3.140075E+03
       418   2  7.961165E+04  4.325822E+04  2.157839E+04  6.009256E+03 -1.212366E+04 -1.029767E+04
       418   3  5.659887E+04  4.399600E+04  2.402781E+04  2.091369E+04 -9.974414E+03 -1.180836E+04
       418   4 -1.281999E+05 -3.647792E+04 -4.135018E+04  1.761501E+04 -2.863829E+04 -3.138192E+03
       418   5 -1.244299E+05 -5.825163E+03 -1.977805E+04  1.516145E+04 -1.836051E+04 -1.029731E+04
       418   6 -1.281952E+05  1.090808E+01 -1.110135E+04  1.761952E+04 -8.081333E+03 -1.180876E+04
       418   7 -3.528554E+05 -9.207762E+04 -9.458435E+04  3.920578E+04 -4.299956E+04 -3.137309E+03
       418   8 -3.284315E+05 -5.491080E+04 -6.113646E+04  2.431058E+04 -2.459536E+04 -1.029713E+04
       418   9 -3.129563E+05 -4.397614E+04 -4.623202E+04  1.432636E+04 -6.188801E+03 -1.180918E+04
       418  10  9.650310E+04  1.911996E+04  1.188112E+04 -3.983650E+03 -3.380592E-10  1.943003E-10
       418  11  7.961146E+04  4.325807E+04  2.157791E+04  6.009156E+03  1.197847E-10  5.072232E-12
       418  12  5.659872E+04  4.399582E+04  2.402736E+04  2.091359E+04  6.490454E-10  1.044515E-10
       418  13 -1.282008E+05 -3.647815E+04 -4.135174E+04  1.761494E+04 -2.194517E-10 -1.321622E-10
       418  14 -1.244303E+05 -5.825368E+03 -1.977888E+04  1.516130E+04  1.750888E-10  1.398902E-11
       418  15 -1.281953E+05  1.074082E+01 -1.110173E+04  1.761944E+04  7.556256E-11  6.712996E-11
       418  16 -3.528573E+05 -9.207813E+04 -9.458785E+04  3.920567E+04  1.386782E-10 -1.422003E-10
       418  17 -3.284322E+05 -5.491108E+04 -6.113779E+04  2.431038E+04 -2.417100E-10 -8.296012E-11
       418  18 -3.129563E+05 -4.397630E+04 -4.623235E+04  1.432630E+04 -6.274144E-10 -3.028097E-10
       418  19  9.650333E+04  1.912003E+04  1.188152E+04 -3.983614E+03  1.427184E+04  3.140075E+03
       418  20  7.961165E+04  4.325822E+04  2.157839E+04  6.009256E+03  1.212366E+04  1.029767E+04
       418  21  5.659887E+04  4.399600E+04  2.402781E+04  2.091369E+04  9.974414E+03  1.180836E+04
       418  22 -1.281999E+05 -3.647792E+04 -4.135018E+04  1.761501E+04  2.863829E+04  3.138192E+03
       418  23 -1.244299E+05 -5.825163E+03 -1.977805E+04  1.516145E+04  1.836051E+04  1.029731E+04
       418  24 -1.281952E+05  1.090808E+01 -1.110135E+04  1.761952E+04  8.081333E+03  1.180876E+04
       418  25 -3.528554E+05 -9.207762E+04 -9.458435E+04  3.920578E+04  4.299956E+04  3.137309E+03
       418  26 -3.284315E+05 -5.491080E+04 -6.113646E+04  2.431058E+04  2.459536E+04  1.029713E+04
       418  27 -3.129563E+05 -4.397614E+04 -4.623202E+04  1.432636E+04  6.188801E+03  1.180918E+04
       419   1  4.441960E+04  3.929821E+04  2.382235E+04  1.720569E+04 -7.497662E+03 -1.102467E+04
       419   2  2.474330E+04  3.574518E+04  2.327566E+04  1.495511E+04 -5.621350E+03 -1.020435E+04
       419   3  4.573562E+03  3.117719E+04  2.125485E+04  1.795928E+04 -3.745214E+03 -8.978409E+03
       419   4 -1.266523E+05 -1.404337E+03 -8.611505E+03  1.769484E+04 -6.606996E+03 -1.102498E+04
       419   5 -1.263535E+05 -1.176304E+02 -4.933886E+03  1.506744E+04 -4.147167E+03 -1.020461E+04
       419   6 -1.266501E+05  5.262651E+01 -3.136000E+03  1.769486E+04 -1.687455E+03 -8.978563E+03
       419   7 -2.976959E+05 -4.210859E+04 -4.104666E+04  1.818386E+04 -5.716569E+03 -1.102530E+04
       419   8 -2.774282E+05 -3.598175E+04 -3.314441E+04  1.517973E+04 -2.673334E+03 -1.020487E+04
       419   9 -2.578571E+05 -3.107292E+04 -2.752757E+04  1.743050E+04  3.698809E+02 -8.978719E+03
       419  10  4.441950E+04  3.929806E+04  2.382201E+04  1.720562E+04 -1.254519E-10  6.729820E-11
       419  11  2.474324E+04  3.574506E+04  2.327541E+04  1.495507E+04 -2.218242E-10  1.812430E-11
       419  12  4.573525E+03  3.117710E+04  2.125468E+04  1.795926E+04  1.049420E-10  3.360003E-11
       419  13 -1.266523E+05 -1.404480E+03 -8.611815E+03  1.769478E+04  4.194160E-11 -1.147404E-10
       419  14 -1.263536E+05 -1.177468E+02 -4.934114E+03  1.506740E+04  3.041952E-11  1.320704E-11
       419  15 -1.266501E+05  5.253918E+01 -3.136156E+03  1.769485E+04  3.188959E-11  3.111735E-11
       419  16 -2.976959E+05 -4.210873E+04 -4.104695E+04  1.818380E+04  1.777545E-10 -1.499992E-10
       419  17 -2.774283E+05 -3.598187E+04 -3.314462E+04  1.517971E+04  9.896195E-11  8.828174E-11
       419  18 -2.578571E+05 -3.107301E+04 -2.752772E+04  1.743051E+04 -7.813204E-11  5.596934E-11
       419  19  4.441960E+04  3.929821E+04  2.382235E+04  1.720569E+04  7.497662E+03  1.102467E+04
       419  20  2.474330E+04  3.574518E+04  2.327566E+04  1.495511E+04  5.621350E+03  1.020435E+04
       419  21  4.573562E+03  3.117719E+04  2.125485E+04  1.795928E+04  3.745214E+03  8.978409E+03
       419  22 -1.266523E+05 -1.404337E+03 -8.611505E+03  1.769484E+04  6.606996E+03  1.102498E+04
       419  23 -1.263535E+05 -1.176304E+02 -4.933886E+03  1.506744E+04  4.147167E+03  1.020461E+04
       419  24 -1.266501E+05  5.262651E+01 -3.136000E+03  1.769486E+04  1.687455E+03  8.978563E+03
       419  25 -2.976959E+05 -4.210859E+04 -4.104666E+04  1.818386E+04  5.716569E+03  1.102530E+04
       419  26 -2.774282E+05 -3.598175E+04 -3.314441E+04  1.517973E+04  2.673334E+03  1.020487E+04
       419  27 -2.578571E+05 -3.107292E+04 -2.752757E+04  1.743050E+04 -3.698809E+02  8.978719E+03
       420   1 -8.849390E+03  2.790567E+04  1.914909E+04  1.773483E+04 -3.159657E+03 -8.147722E+03
       420   2 -2.867619E+04  2.318238E+04  1.589420E+04  1.515811E+04 -2.137050E+03 -6.742164E+03
       420   3 -4.870779E+04  1.816447E+04  1.190031E+04  1.786425E+04 -1.114606E+03 -5.276661E+03
       420   4 -1.265661E+05  2.054129E+00 -2.643854E+03  1.770109E+04 -1.178684E+03 -8.147818E+03
       420   5 -1.264553E+05 -3.094323E-01 -2.231963E+03  1.505963E+04 -6.997294E+01 -6.742178E+03
       420   6 -1.265649E+05 -3.123392E+02 -2.619060E+03  1.770109E+04  1.038605E+03 -5.276588E+03
       420   7 -2.442694E+05 -2.790236E+04 -2.443736E+04  1.766736E+04  8.019229E+02 -8.147914E+03
       420   8 -2.242251E+05 -2.318354E+04 -2.035851E+04  1.496117E+04  1.996787E+03 -6.742193E+03
       420   9 -2.044161E+05 -1.878949E+04 -1.713867E+04  1.753795E+04  3.191553E+03 -5.276516E+03
       420  10 -8.849418E+03  2.790560E+04  1.914894E+04  1.773481E+04 -1.091619E-10  2.366648E-11
       420  11 -2.867621E+04  2.318233E+04  1.589411E+04  1.515809E+04 -2.614587E-11 -2.369174E-11
       420  12 -4.870780E+04  1.816444E+04  1.190026E+04  1.786425E+04 -6.370140E-11  6.356765E-11
       420  13 -1.265661E+05  1.982473E+00 -2.643982E+03  1.770108E+04  3.384107E-11 -1.060375E-11
       420  14 -1.264553E+05 -3.582437E-01 -2.232049E+03  1.505963E+04 -4.086359E-10  1.816028E-11
       420  15 -1.265649E+05 -3.123694E+02 -2.619115E+03  1.770110E+04  2.781774E-10 -1.256438E-10
       420  16 -2.442694E+05 -2.790243E+04 -2.443749E+04  1.766736E+04  2.652058E-10  5.684419E-11
       420  17 -2.242251E+05 -2.318359E+04 -2.035861E+04  1.496118E+04  2.346315E-10  5.332781E-12
       420  18 -2.044161E+05 -1.878952E+04 -1.713875E+04  1.753797E+04 -1.810164E-12 -9.147979E-11
       420  19 -8.849390E+03  2.790567E+04  1.914909E+04  1.773483E+04  3.159657E+03  8.147722E+03
       420  20 -2.867619E+04  2.318238E+04  1.589420E+04  1.515811E+04  2.137050E+03  6.742164E+03
       420  21 -4.870779E+04  1.816447E+04  1.190031E+04  1.786425E+04  1.114606E+03  5.276661E+03
       420  22 -1.265661E+05  2.054129E+00 -2.643854E+03  1.770109E+04  1.178684E+03  8.147818E+03
       420  23 -1.264553E+05 -3.094323E-01 -2.231963E+03  1.505963E+04  6.997294E+01  6.742178E+03
       420  24 -1.265649E+05 -3.123392E+02 -2.619060E+03  1.770109E+04 -1.038605E+03  5.276588E+03
       420  25 -2.442694E+05 -2.790236E+04 -2.443736E+04  1.766736E+04 -8.019229E+02  8.147914E+03
       420  26 -2.242251E+05 -2.318354E+04 -2.035851E+04  1.496117E+04 -1.996787E+03  6.742193E+03
       420  27 -2.044161E+05 -1.878949E+04 -1.713867E+04  1.753795E+04 -3.191553E+03  5.276516E+03
       421   1 -6.253469E+04  1.528064E+04  8.891547E+03  1.696878E+04 -5.930922E+02 -4.438736E+03
       421   2 -8.162730E+04  9.220704E+03  3.641489E+03  1.722543E+04  1.294828E+03 -2.782224E+03
       421   3 -1.023968E+05 -2.562429E+03 -4.268798E+03  2.279508E+04  3.182654E+03 -6.901954E+02
       421   4 -1.269123E+05  1.691987E+01 -3.043280E+03  1.770771E+04  1.478273E+03 -4.438634E+03
       421   5 -1.260193E+05 -1.357298E+03 -4.849432E+03  1.505142E+04  3.993103E+03 -2.782041E+03
       421   6 -1.269122E+05 -8.563695E+03 -9.751209E+03  1.770822E+04  6.507896E+03 -6.899326E+02
       421   7 -1.912859E+05 -1.524703E+04 -1.497826E+04  1.844657E+04  3.549428E+03 -4.438527E+03
       421   8 -1.704094E+05 -1.193539E+04 -1.334041E+04  1.287757E+04  6.691189E+03 -2.781876E+03
       421   9 -1.514270E+05 -1.456490E+04 -1.523360E+04  1.262155E+04  9.833009E+03 -6.897243E+02
       421  10 -6.253470E+04  1.528062E+04  8.891509E+03  1.696877E+04 -9.877445E-12  2.391711E-11
       421  11 -8.162730E+04  9.220696E+03  3.641471E+03  1.722543E+04  9.573200E-11 -1.180660E-10
       421  12 -1.023968E+05 -2.562433E+03 -4.268818E+03  2.279509E+04 -1.486147E-10 -8.241297E-11
       421  13 -1.269123E+05  1.689812E+01 -3.043321E+03  1.770772E+04  1.532870E-10 -7.309745E-11
       421  14 -1.260193E+05 -1.357310E+03 -4.849477E+03  1.505143E+04 -2.052404E-10 -8.654279E-11
       421  15 -1.269123E+05 -8.563707E+03 -9.751289E+03  1.770822E+04  1.514332E-12  7.698450E-11
       421  16 -1.912859E+05 -1.524706E+04 -1.497833E+04  1.844659E+04  1.284110E-10 -6.682039E-11
       421  17 -1.704095E+05 -1.193541E+04 -1.334051E+04  1.287758E+04  1.031762E-10 -6.294375E-11
       421  18 -1.514271E+05 -1.456492E+04 -1.523378E+04  1.262156E+04  1.258466E-10  2.108462E-11
       421  19 -6.253469E+04  1.528064E+04  8.891547E+03  1.696878E+04  5.930922E+02  4.438736E+03
       421  20 -8.162730E+04  9.220704E+03  3.641489E+03  1.722543E+04 -1.294828E+03  2.782224E+03
       421  21 -1.023968E+05 -2.562429E+03 -4.268798E+03  2.279508E+04 -3.182654E+03  6.901954E+02
       421  22 -1.269123E+05  1.691987E+01 -3.043280E+03  1.770771E+04 -1.478273E+03  4.438634E+03
       421  23 -1.260193E+05 -1.357298E+03 -4.849432E+03  1.505142E+04 -3.993103E+03  2.782041E+03
       421  24 -1.269122E+05 -8.563695E+03 -9.751209E+03  1.770822E+04 -6.507896E+03  6.899326E+02
       421  25 -1.912859E+05 -1.524703E+04 -1.497826E+04  1.844657E+04 -3.549428E+03  4.438527E+03
       421  26 -1.704094E+05 -1.193539E+04 -1.334041E+04  1.287757E+04 -6.691189E+03  2.781876E+03
       421  27 -1.514270E+05 -1.456490E+04 -1.523360E+04  1.262155E+04 -9.833009E+03  6.897243E+02
       422   1 -2.249911E+05 -8.089384E+05 -2.138899E+05  2.152087E+05 -1.126806E+04 -3.318400E+04
       422   2 -1.736568E+05 -5.505280E+05 -1.411088E+05  1.893225E+05 -3.294707E+04 -1.297011E+03
       422   3 -1.142019E+05 -2.941554E+05 -8.707323E+04  2.299414E+05 -2.835432E+04  3.059632E+04
       422   4  2.150034E+04  1.850062E+05  2.414814E+04  2.282639E+05 -1.123527E+04  1.694967E+04
       422   5  3.560538E+03  1.828382E+05  1.138976E+04  1.950224E+05 -3.293454E+04  1.104272E+04
       422   6  3.028333E+02  1.851286E+05  6.145306E+03  2.282782E+05 -2.837694E+04  5.128306E+03
       422   7  2.679220E+05  1.179862E+06  2.621258E+05  2.413398E+05 -1.120040E+04  6.716333E+04
       422   8  1.807438E+05  9.167142E+05  1.638595E+05  2.007289E+05 -3.292179E+04  2.339678E+04
       422   9  1.147942E+05  6.646346E+05  9.935541E+04  2.266137E+05 -2.839941E+04 -2.035894E+04
       422  10 -2.249915E+05 -8.089396E+05 -2.138922E+05  2.152084E+05 -2.766694E-11 -4.294518E-10
       422  11 -1.736579E+05 -5.505283E+05 -1.411109E+05  1.893225E+05  1.667652E-10  1.510146E-10
       422  12 -1.142030E+05 -2.941566E+05 -8.707651E+04  2.299421E+05 -9.696944E-11  8.304973E-10
       422  13  2.150012E+04  1.850059E+05  2.414737E+04  2.282641E+05 -2.908096E-10 -3.667152E-11
       422  14  3.559341E+03  1.828377E+05  1.138749E+04  1.950226E+05  3.941713E-10 -4.229122E-10
       422  15  3.019614E+02  1.851284E+05  6.143743E+03  2.282784E+05 -1.385490E-11  7.259378E-11
       422  16  2.679207E+05  1.179858E+06  2.621171E+05  2.413404E+05 -2.648692E-10  1.163940E-10
       422  17  1.807425E+05  9.167133E+05  1.638564E+05  2.007295E+05 -8.305984E-10 -4.610351E-10
       422  18  1.147932E+05  6.646339E+05  9.935312E+04  2.266132E+05  2.739080E-10 -9.072276E-10
       422  19 -2.249911E+05 -8.089384E+05 -2.138899E+05  2.152087E+05  1.126806E+04  3.318400E+04
       422  20 -1.736568E+05 -5.505280E+05 -1.411088E+05  1.893225E+05  3.294707E+04  1.297011E+03
       422  21 -1.142019E+05 -2.941554E+05 -8.707323E+04  2.299414E+05  2.835432E+04 -3.059632E+04
       422  22  2.150034E+04  1.850062E+05  2.414814E+04  2.282639E+05  1.123527E+04 -1.694967E+04
       422  23  3.560538E+03  1.828382E+05  1.138976E+04  1.950224E+05  3.293454E+04 -1.104272E+04
       422  24  3.028333E+02  1.851286E+05  6.145306E+03  2.282782E+05  2.837694E+04 -5.128306E+03
       422  25  2.679220E+05  1.179862E+06  2.621258E+05  2.413398E+05  1.120040E+04 -6.716333E+04
       422  26  1.807438E+05  9.167142E+05  1.638595E+05  2.007289E+05  3.292179E+04 -2.339678E+04
       422  27  1.147942E+05  6.646346E+05  9.935541E+04  2.266137E+05  2.839941E+04  2.035894E+04
       423   1 -7.147179E+04 -1.198066E+05 -5.470021E+04  2.281825E+05 -1.784085E+04  2.542231E+04
       423   2 -1.073498E+04  1.373520E+05 -6.763893E+03  1.945325E+05 -3.107631E+03  2.465899E+04
       423   3  5.052072E+04  3.947101E+05  4.176882E+04  2.288349E+05  1.178917E+04  2.389466E+04
       423   4  1.179739E+03  1.842039E+05  4.549744E+03  2.285993E+05 -1.786131E+04  4.324821E+03
       423   5  3.677877E+02  1.841198E+05  1.988787E+03  1.946238E+05 -3.128658E+03  3.321162E+03
       423   6  1.193481E+02  1.842119E+05  1.903656E+02  2.286004E+05  1.176740E+04  2.316791E+03
       423   7  7.382597E+04  4.883041E+05  6.379697E+04  2.290163E+05 -1.788178E+04 -1.678277E+04
       423   8  1.147067E+04  2.308906E+05  1.074308E+04  1.947152E+05 -3.149690E+03 -1.801823E+04
       423   9 -5.028446E+04 -2.624280E+04 -4.138851E+04  2.283660E+05  1.174564E+04 -1.925392E+04
       423  10 -7.147231E+04 -1.198074E+05 -5.470202E+04  2.281829E+05 -2.108696E-11 -1.093511E-09
       423  11 -1.073515E+04  1.373513E+05 -6.765054E+03  1.945325E+05 -5.419755E-10  2.399269E-11
       423  12  5.052041E+04  3.947094E+05  4.176748E+04  2.288347E+05  2.101025E-10  1.161151E-09
       423  13  1.179391E+03  1.842038E+05  4.549109E+03  2.285994E+05  1.435741E-10  6.331768E-12
       423  14  3.677742E+02  1.841198E+05  1.988748E+03  1.946238E+05 -8.934627E-10 -7.697865E-10
       423  15  1.191979E+02  1.842119E+05  1.900953E+02  2.286004E+05 -6.099735E-10  3.617383E-12
       423  16  7.382555E+04  4.883037E+05  6.379584E+04  2.290161E+05  2.009469E-10  3.939083E-10
       423  17  1.147057E+04  2.308903E+05  1.074246E+04  1.947152E+05  1.784982E-10 -1.843717E-10
       423  18 -5.028471E+04 -2.624323E+04 -4.138947E+04  2.283662E+05  2.277911E-10 -1.400086E-09
       423  19 -7.147179E+04 -1.198066E+05 -5.470021E+04  2.281825E+05  1.784085E+04 -2.542231E+04
       423  20 -1.073498E+04  1.373520E+05 -6.763893E+03  1.945325E+05  3.107631E+03 -2.465899E+04
       423  21  5.052072E+04  3.947101E+05  4.176882E+04  2.288349E+05 -1.178917E+04 -2.389466E+04
       423  22  1.179739E+03  1.842039E+05  4.549744E+03  2.285993E+05  1.786131E+04 -4.324821E+03
       423  23  3.677877E+02  1.841198E+05  1.988787E+03  1.946238E+05  3.128658E+03 -3.321162E+03
       423  24  1.193481E+02  1.842119E+05  1.903656E+02  2.286004E+05 -1.176740E+04 -2.316791E+03
       423  25  7.382597E+04  4.883041E+05  6.379697E+04  2.290163E+05  1.788178E+04  1.678277E+04
       423  26  1.147067E+04  2.308906E+05  1.074308E+04  1.947152E+05  3.149690E+03  1.801823E+04
       423  27 -5.028446E+04 -2.624280E+04 -4.138851E+04  2.283660E+05 -1.174564E+04  1.925392E+04
       424   1  9.257749E+04  5.696984E+05  7.489836E+04  2.291410E+05  2.232664E+04  2.782260E+04
       424   2  1.540224E+05  8.248155E+05  1.311464E+05  1.939745E+05  2.802771E+04 -5.343160E+03
       424   3  2.177580E+05  1.084869E+06  2.095308E+05  2.254450E+05  9.777237E+03 -3.851383E+04
       424   4  3.513821E+02  1.839057E+05 -6.033613E+02  2.283086E+05  2.230257E+04  2.297915E+03
       424   5 -7.260835E+02  1.844079E+05 -2.580309E+03  1.949897E+05  2.803733E+04  3.657787E+03
       424   6 -5.497762E+03  1.838010E+05 -6.378442E+03  2.283127E+05  9.809097E+03  5.026126E+03
       424   7 -9.188333E+04 -2.017431E+05 -7.610978E+04  2.274766E+05  2.227855E+04 -2.321126E+04
       424   8 -1.555007E+05 -4.556120E+05 -1.363294E+05  1.960036E+05  2.804699E+04  1.264961E+04
       424   9 -2.288114E+05 -7.165206E+05 -2.223380E+05  2.311760E+05  9.841392E+03  4.850323E+04
       424  10  9.257675E+04  5.696974E+05  7.489597E+04  2.291405E+05  4.880060E-11 -7.660822E-10
       424  11  1.540215E+05  8.248152E+05  1.311448E+05  1.939746E+05 -9.084126E-11 -2.593718E-10
       424  12  2.177575E+05  1.084868E+06  2.095278E+05  2.254454E+05  1.123684E-10  3.063892E-10
       424  13  3.508466E+02  1.839055E+05 -6.043059E+02  2.283085E+05  6.727050E-10  3.906859E-12
       424  14 -7.269313E+02  1.844076E+05 -2.581811E+03  1.949896E+05 -3.250774E-10 -5.745655E-10
       424  15 -5.497872E+03  1.838010E+05 -6.378670E+03  2.283127E+05  8.846624E-11  6.480241E-11
       424  16 -9.188401E+04 -2.017438E+05 -7.611173E+04  2.274770E+05  1.124479E-11  6.486751E-11
       424  17 -1.555016E+05 -4.556124E+05 -1.363311E+05  1.960033E+05 -2.880762E-10  1.646481E-10
       424  18 -2.288121E+05 -7.165231E+05 -2.223426E+05  2.311756E+05  7.576521E-11 -3.803471E-10
       424  19  9.257749E+04  5.696984E+05  7.489836E+04  2.291410E+05 -2.232664E+04 -2.782260E+04
       424  20  1.540224E+05  8.248155E+05  1.311464E+05  1.939745E+05 -2.802771E+04  5.343160E+03
       424  21  2.177580E+05  1.084869E+06  2.095308E+05  2.254450E+05 -9.777237E+03  3.851383E+04
       424  22  3.513821E+02  1.839057E+05 -6.033613E+02  2.283086E+05 -2.230257E+04 -2.297915E+03
       424  23 -7.260835E+02  1.844079E+05 -2.580309E+03  1.949897E+05 -2.803733E+04 -3.657787E+03
       424  24 -5.497762E+03  1.838010E+05 -6.378442E+03  2.283127E+05 -9.809097E+03 -5.026126E+03
       424  25 -9.188333E+04 -2.017431E+05 -7.610978E+04  2.274766E+05 -2.227855E+04  2.321126E+04
       424  26 -1.555007E+05 -4.556120E+05 -1.363294E+05  1.960036E+05 -2.804699E+04 -1.264961E+04
       424  27 -2.288114E+05 -7.165206E+05 -2.223380E+05  2.311760E+05 -9.841392E+03 -4.850323E+04
       425   1  1.642828E+05  1.325137E+05  4.263358E+04  1.048170E+05  1.284755E+04  6.989217E+03
       425   2  1.561295E+05  1.184653E+05  3.142461E+04  1.020973E+05  9.934776E+03 -1.257037E+03
       425   3  1.485704E+05  1.113534E+05  2.626871E+04  9.874124E+04  4.777456E+03 -6.508699E+03
       425   4  5.889239E+04  5.141633E+04  7.245126E+03  4.974395E+04  5.100049E+03  1.180663E+03
       425   5  5.791654E+04  4.637542E+04  3.638352E+03  5.159275E+04  6.501012E+03 -3.831677E+03
       425   6  5.659938E+04  4.733577E+04  2.342001E+03  5.280492E+04  5.657024E+03 -5.849374E+03
       425   7 -4.648445E+04 -2.967243E+04 -2.814394E+04 -5.317312E+03 -2.645552E+03 -4.626316E+03
       425   8 -4.028484E+04 -2.570775E+04 -2.414853E+04  1.097855E+03  3.068006E+03 -6.405720E+03
       425   9 -3.536203E+04 -1.667700E+04 -2.158540E+04  6.876380E+03  6.536417E+03 -5.190178E+03
       425  10  1.642826E+05  1.325136E+05  4.263318E+04  1.048169E+05  2.961252E-11 -1.640882E-10
       425  11  1.561294E+05  1.184652E+05  3.142442E+04  1.020974E+05 -1.839328E-10 -1.264232E-10
       425  12  1.485704E+05  1.113533E+05  2.626859E+04  9.874127E+04 -2.716438E-10  8.888836E-11
       425  13  5.889237E+04  5.141632E+04  7.245075E+03  4.974394E+04 -2.634752E-10 -1.919131E-10
       425  14  5.791649E+04  4.637539E+04  3.638245E+03  5.159277E+04  2.230582E-11 -7.825019E-11
       425  15  5.659933E+04  4.733573E+04  2.341876E+03  5.280494E+04 -3.567621E-11  2.575291E-10
       425  16 -4.648447E+04 -2.967245E+04 -2.814399E+04 -5.317322E+03  1.825308E-10  2.200581E-10
       425  17 -4.028486E+04 -2.570779E+04 -2.414863E+04  1.097871E+03  1.778998E-10  2.254465E-10
       425  18 -3.536208E+04 -1.667704E+04 -2.158553E+04  6.876407E+03  1.838392E-10  1.581601E-10
       425  19  1.642828E+05  1.325137E+05  4.263358E+04  1.048170E+05 -1.284755E+04 -6.989217E+03
       425  20  1.561295E+05  1.184653E+05  3.142461E+04  1.020973E+05 -9.934776E+03  1.257037E+03
       425  21  1.485704E+05  1.113534E+05  2.626871E+04  9.874124E+04 -4.777456E+03  6.508699E+03
       425  22  5.889239E+04  5.141633E+04  7.245126E+03  4.974395E+04 -5.100049E+03 -1.180663E+03
       425  23  5.791654E+04  4.637542E+04  3.638352E+03  5.159275E+04 -6.501012E+03  3.831677E+03
       425  24  5.659938E+04  4.733577E+04  2.342001E+03  5.280492E+04 -5.657024E+03  5.849374E+03
       425  25 -4.648445E+04 -2.967243E+04 -2.814394E+04 -5.317312E+03  2.645552E+03  4.626316E+03
       425  26 -4.028484E+04 -2.570775E+04 -2.414853E+04  1.097855E+03 -3.068006E+03  6.405720E+03
       425  27 -3.536203E+04 -1.667700E+04 -2.158540E+04  6.876380E+03 -6.536417E+03  5.190178E+03
       426   1  1.419308E+05  1.079561E+05  2.439142E+04  9.574752E+04  4.758832E+03 -5.951278E+03
       426   2  1.347441E+05  1.002132E+05  2.166635E+04  9.111693E+04  3.451374E+03 -6.387242E+03
       426   3  1.248441E+05  9.569211E+04  1.986014E+04  8.733678E+04  1.983696E+03 -6.609626E+03
       426   4  5.647651E+04  4.744806E+04  2.058091E+03  5.257757E+04  5.106944E+03 -5.690407E+03
       426   5  5.781516E+04  4.577946E+04  1.860352E+03  5.222063E+04  4.107267E+03 -5.895545E+03
       426   6  5.637403E+04  4.726589E+04  2.314486E+03  5.271410E+04  2.947356E+03 -5.887089E+03
       426   7 -2.897085E+04 -1.305659E+04 -2.027630E+04  9.413800E+03  5.454997E+03 -5.429582E+03
       426   8 -1.910704E+04 -8.650719E+03 -1.794613E+04  1.332989E+04  4.763051E+03 -5.403929E+03
       426   9 -1.208963E+04 -1.156790E+03 -1.523118E+04  1.809634E+04  3.910859E+03 -5.164671E+03
       426  10  1.419308E+05  1.079561E+05  2.439131E+04  9.574755E+04 -1.213588E-10  3.059513E-10
       426  11  1.347441E+05  1.002131E+05  2.166625E+04  9.111694E+04  1.490540E-10 -5.605178E-11
       426  12  1.248441E+05  9.569206E+04  1.986005E+04  8.733679E+04  1.238980E-11 -8.963929E-12
       426  13  5.647647E+04  4.744802E+04  2.057982E+03  5.257759E+04 -5.459372E-11 -5.881519E-11
       426  14  5.781513E+04  4.577942E+04  1.860255E+03  5.222065E+04 -3.726396E-10  4.552648E-12
       426  15  5.637402E+04  4.726585E+04  2.314405E+03  5.271412E+04  3.547560E-11 -3.872460E-12
       426  16 -2.897089E+04 -1.305663E+04 -2.027641E+04  9.413824E+03 -1.721779E-10  8.143664E-12
       426  17 -1.910707E+04 -8.650756E+03 -1.794623E+04  1.332991E+04 -2.434944E-10  1.427339E-11
       426  18 -1.208966E+04 -1.156822E+03 -1.523126E+04  1.809636E+04  1.669498E-10  2.123425E-10
       426  19  1.419308E+05  1.079561E+05  2.439142E+04  9.574752E+04 -4.758832E+03  5.951278E+03
       426  20  1.347441E+05  1.002132E+05  2.166635E+04  9.111693E+04 -3.451374E+03  6.387242E+03
       426  21  1.248441E+05  9.569211E+04  1.986014E+04  8.733678E+04 -1.983696E+03  6.609626E+03
       426  22  5.647651E+04  4.744806E+04  2.058091E+03  5.257757E+04 -5.106944E+03  5.690407E+03
       426  23  5.781516E+04  4.577946E+04  1.860352E+03  5.222063E+04 -4.107267E+03  5.895545E+03
       426  24  5.637403E+04  4.726589E+04  2.314486E+03  5.271410E+04 -2.947356E+03  5.887089E+03
       426  25 -2.897085E+04 -1.305659E+04 -2.027630E+04  9.413800E+03 -5.454997E+03  5.429582E+03
       426  26 -1.910704E+04 -8.650719E+03 -1.794613E+04  1.332989E+04 -4.763051E+03  5.403929E+03
       426  27 -1.208963E+04 -1.156790E+03 -1.523118E+04  1.809634E+04 -3.910859E+03  5.164671E+03
       427   1  1.190217E+05  9.171745E+04  1.881655E+04  8.447843E+04  1.360565E+03 -6.467525E+03
       427   2  1.117935E+05  8.424336E+04  1.831977E+04  7.972893E+04 -9.159714E+02 -7.159309E+03
       427   3  1.018797E+05  7.999850E+04  1.932927E+04  7.591622E+04 -3.203593E+03 -7.836373E+03
       427   4  5.639381E+04  4.728059E+04  2.798037E+03  5.273445E+04  2.286192E+03 -5.773479E+03
       427   5  5.775567E+04  4.569769E+04  4.465818E+03  5.224422E+04  3.106623E+01 -6.449159E+03
       427   6  5.642722E+04  4.733947E+04  7.621367E+03  5.269078E+04 -2.235193E+03 -7.110148E+03
       427   7 -6.229662E+03  2.846071E+03 -1.322079E+04  2.099415E+04  3.211694E+03 -5.079527E+03
       427   8  3.720759E+03  7.153473E+03 -9.388518E+03  2.476207E+04  9.780009E+02 -5.739087E+03
       427   9  1.097635E+04  1.468119E+04 -4.086946E+03  2.946695E+04 -1.266873E+03 -6.383985E+03
       427  10  1.190217E+05  9.171740E+04  1.881647E+04  8.447844E+04  2.458991E-10  8.320359E-11
       427  11  1.117935E+05  8.424331E+04  1.831967E+04  7.972892E+04 -3.150710E-11 -3.776225E-11
       427  12  1.018797E+05  7.999843E+04  1.932914E+04  7.591620E+04 -1.753389E-11  1.171855E-11
       427  13  5.639379E+04  4.728055E+04  2.797965E+03  5.273446E+04  1.721060E-10  5.134901E-11
       427  14  5.775566E+04  4.569764E+04  4.465739E+03  5.224422E+04  1.643255E-11 -6.101470E-12
       427  15  5.642720E+04  4.733941E+04  7.621263E+03  5.269076E+04  3.660367E-12  2.476256E-11
       427  16 -6.229680E+03  2.846040E+03 -1.322086E+04  2.099416E+04 -2.432370E-10 -8.120791E-12
       427  17  3.720749E+03  7.153438E+03 -9.388581E+03  2.476207E+04  2.620071E-11  1.413979E-10
       427  18  1.097633E+04  1.468115E+04 -4.087026E+03  2.946694E+04 -2.332853E-11 -4.876993E-11
       427  19  1.190217E+05  9.171745E+04  1.881655E+04  8.447843E+04 -1.360565E+03  6.467525E+03
       427  20  1.117935E+05  8.424336E+04  1.831977E+04  7.972893E+04  9.159714E+02  7.159309E+03
       427  21  1.018797E+05  7.999850E+04  1.932927E+04  7.591622E+04  3.203593E+03  7.836373E+03
       427  22  5.639381E+04  4.728059E+04  2.798037E+03  5.273445E+04 -2.286192E+03  5.773479E+03
       427  23  5.775567E+04  4.569769E+04  4.465818E+03  5.224422E+04 -3.106623E+01  6.449159E+03
       427  24  5.642722E+04  4.733947E+04  7.621367E+03  5.269078E+04  2.235193E+03  7.110148E+03
       427  25 -6.229662E+03  2.846071E+03 -1.322079E+04  2.099415E+04 -3.211694E+03  5.079527E+03
       427  26  3.720759E+03  7.153473E+03 -9.388518E+03  2.476207E+04 -9.780009E+02  5.739087E+03
       427  27  1.097635E+04  1.468119E+04 -4.086946E+03  2.946695E+04  1.266873E+03  6.383985E+03
       428   1  9.562797E+04  7.659439E+04  2.015221E+04  7.352702E+04 -4.734550E+03 -8.372761E+03
       428   2  8.952136E+04  6.781437E+04  2.538100E+04  6.758422E+04 -1.214724E+04 -1.288700E+04
       428   3  8.328339E+04  6.539940E+04  3.725537E+04  6.157864E+04 -1.955682E+04 -1.740507E+04
       428   4  5.659555E+04  4.732564E+04  9.965544E+03  5.300225E+04 -3.768030E+03 -7.647911E+03
       428   5  5.763242E+04  4.587011E+04  1.733496E+04  5.173822E+04 -1.118605E+04 -1.216616E+04
       428   6  5.853890E+04  5.078064E+04  3.135470E+04  5.041120E+04 -1.860111E+04 -1.668840E+04
       428   7  1.756548E+04  1.805842E+04 -2.210248E+02  3.247932E+04 -2.801605E+03 -6.923137E+03
       428   8  2.574491E+04  2.392660E+04  9.288935E+03  3.589327E+04 -1.022494E+04 -1.144537E+04
       428   9  3.379514E+04  3.616213E+04  2.545400E+04  3.924424E+04 -1.764546E+04 -1.597176E+04
       428  10  9.562793E+04  7.659431E+04  2.015204E+04  7.352699E+04 -7.846048E-11 -5.871685E-11
       428  11  8.952115E+04  6.781416E+04  2.538041E+04  6.758409E+04 -1.904566E-10 -3.078445E-11
       428  12  8.328289E+04  6.539897E+04  3.725408E+04  6.157837E+04  1.074678E-11 -1.843308E-11
       428  13  5.659551E+04  4.732558E+04  9.965408E+03  5.300223E+04 -4.875735E-12  3.486938E-11
       428  14  5.763225E+04  4.586992E+04  1.733445E+04  5.173811E+04 -5.747566E-11 -3.194726E-12
       428  15  5.853846E+04  5.078025E+04  3.135353E+04  5.041095E+04  1.230353E-10 -3.917111E-11
       428  16  1.756546E+04  1.805837E+04 -2.211297E+02  3.247931E+04  1.618294E-10  3.355125E-11
       428  17  2.574476E+04  2.392643E+04  9.288493E+03  3.589318E+04  6.718848E-11  5.733280E-11
       428  18  3.379474E+04  3.616177E+04  2.545294E+04  3.924402E+04  1.670885E-10 -4.414619E-11
       428  19  9.562797E+04  7.659439E+04  2.015221E+04  7.352702E+04  4.734550E+03  8.372761E+03
       428  20  8.952136E+04  6.781437E+04  2.538100E+04  6.758422E+04  1.214724E+04  1.288700E+04
       428  21  8.328339E+04  6.539940E+04  3.725537E+04  6.157864E+04  1.955682E+04  1.740507E+04
       428  22  5.659555E+04  4.732564E+04  9.965544E+03  5.300225E+04  3.768030E+03  7.647911E+03
       428  23  5.763242E+04  4.587011E+04  1.733496E+04  5.173822E+04  1.118605E+04  1.216616E+04
       428  24  5.853890E+04  5.078064E+04  3.135470E+04  5.041120E+04  1.860111E+04  1.668840E+04
       428  25  1.756548E+04  1.805842E+04 -2.210248E+02  3.247932E+04  2.801605E+03  6.923137E+03
       428  26  2.574491E+04  2.392660E+04  9.288935E+03  3.589327E+04  1.022494E+04  1.144537E+04
       428  27  3.379514E+04  3.616213E+04  2.545400E+04  3.924424E+04  1.764546E+04  1.597176E+04
       429   1  6.586885E+04  7.348232E+04  4.508626E+04  6.786495E+04 -2.416355E+04 -2.025009E+04
       429   2  1.019113E+05  3.061556E+04  7.522120E+04  3.320430E+04 -5.490291E+04 -4.230331E+04
       429   3  1.858812E+05  5.951883E+04  1.529367E+05 -3.127812E+04 -8.559448E+04 -6.441962E+04
       429   4  6.031605E+04  4.948495E+04  4.070816E+04  5.567438E+04 -2.319653E+04 -1.952405E+04
       429   5  6.064324E+04  5.679105E+04  7.301676E+04  3.818301E+04 -5.403056E+04 -4.165375E+04
       429   6  1.089122E+05  1.358832E+05  1.529894E+05 -9.128725E+03 -8.481371E+04 -6.385124E+04
       429   7  5.476345E+04  2.548841E+04  3.633004E+04  4.348396E+04 -2.222951E+04 -1.879807E+04
       429   8  1.937882E+04  8.296967E+04  7.081291E+04  4.316075E+04 -5.315829E+04 -4.100410E+04
       429   9  3.196075E+04  2.122676E+05  1.530455E+05  1.301567E+04 -8.403310E+04 -6.328267E+04
       429  10  6.586812E+04  7.348172E+04  4.508440E+04  6.786456E+04 -7.104615E-11 -1.096483E-10
       429  11  1.019076E+05  3.061283E+04  7.521218E+04  3.320243E+04  9.195077E-11  5.825959E-11
       429  12  1.858723E+05  5.951241E+04  1.529152E+05 -3.128256E+04  1.077204E-10  1.695536E-10
       429  13  6.031537E+04  4.948440E+04  4.070643E+04  5.567402E+04 -4.862123E-11 -3.246447E-11
       429  14  6.063964E+04  5.678840E+04  7.300801E+04  3.818120E+04 -2.148871E-10  5.647875E-11
       429  15  1.089034E+05  1.358769E+05  1.529682E+05 -9.133086E+03  1.189423E-10  3.312051E-11
       429  16  5.476283E+04  2.548790E+04  3.632845E+04  4.348363E+04  3.245081E-10  1.189684E-10
       429  17  1.937533E+04  8.296711E+04  7.080444E+04  4.315899E+04 -1.778161E-10 -2.787190E-11
       429  18  3.195209E+04  2.122614E+05  1.530247E+05  1.301139E+04 -1.037109E-10 -4.312803E-11
       429  19  6.586885E+04  7.348232E+04  4.508626E+04  6.786495E+04  2.416355E+04  2.025009E+04
       429  20  1.019113E+05  3.061556E+04  7.522120E+04  3.320430E+04  5.490291E+04  4.230331E+04
       429  21  1.858812E+05  5.951883E+04  1.529367E+05 -3.127812E+04  8.559448E+04  6.441962E+04
       429  22  6.031605E+04  4.948495E+04  4.070816E+04  5.567438E+04  2.319653E+04  1.952405E+04
       429  23  6.064324E+04  5.679105E+04  7.301676E+04  3.818301E+04  5.403056E+04  4.165375E+04
       429  24  1.089122E+05  1.358832E+05  1.529894E+05 -9.128725E+03  8.481371E+04  6.385124E+04
       429  25  5.476345E+04  2.548841E+04  3.633004E+04  4.348396E+04  2.222951E+04  1.879807E+04
       429  26  1.937882E+04  8.296967E+04  7.081291E+04  4.316075E+04  5.315829E+04  4.100410E+04
       429  27  3.196075E+04  2.122676E+05  1.530455E+05  1.301567E+04  8.403310E+04  6.328267E+04
       430   1  7.572321E+04  4.254076E+04  3.844822E+04 -5.662397E+03  6.510074E+03 -3.346240E+03
       430   2  7.475151E+04  5.024244E+04  3.708850E+04 -1.728153E+03  2.150563E+03 -1.138826E+04
       430   3  7.271623E+04  5.139181E+04  3.693090E+04  2.248596E+03 -2.209103E+03 -1.407208E+04
       430   4 -1.433660E+05 -1.160456E+04 -1.318805E+04  1.200250E+03 -8.927337E+03 -3.347415E+03
       430   5 -1.421636E+05 -1.851727E+03 -6.465089E+03  1.178238E+03 -5.570714E+03 -1.138951E+04
       430   6 -1.433651E+05  7.796854E+00 -3.899137E+03  1.198614E+03 -2.214235E+03 -1.407249E+04
       430   7 -3.624105E+05 -6.575302E+04 -6.482672E+04  8.060461E+03 -2.435933E+04 -3.348932E+03
       430   8 -3.590338E+05 -5.394873E+04 -5.002085E+04  4.083592E+03 -1.328935E+04 -1.139083E+04
       430   9 -3.594014E+05 -5.137894E+04 -4.473124E+04  1.490036E+02 -2.219364E+03 -1.407290E+04
       430  10  7.572316E+04  4.254074E+04  3.844812E+04 -5.662380E+03 -2.678710E-10  3.574163E-11
       430  11  7.475147E+04  5.024230E+04  3.708825E+04 -1.728133E+03 -1.521475E-10  2.662277E-10
       430  12  7.271617E+04  5.139160E+04  3.693052E+04  2.248571E+03  2.363811E-10 -1.281032E-10
       430  13 -1.433661E+05 -1.160460E+04 -1.318822E+04  1.200226E+03 -1.986269E-10  2.037818E-10
       430  14 -1.421637E+05 -1.851874E+03 -6.465392E+03  1.178187E+03 -1.660692E-10  3.939746E-10
       430  15 -1.433652E+05  7.582896E+00 -3.899518E+03  1.198589E+03  2.119132E-10  8.334703E-11
       430  16 -3.624111E+05 -6.575319E+04 -6.482785E+04  8.060395E+03  1.721702E-10  1.244423E-10
       430  17 -3.590340E+05 -5.394892E+04 -5.002143E+04  4.083470E+03  1.845319E-10  6.206006E-11
       430  18 -3.594014E+05 -5.137915E+04 -4.473162E+04  1.489785E+02 -2.266350E-10  5.313883E-11
       430  19  7.572321E+04  4.254076E+04  3.844822E+04 -5.662397E+03 -6.510074E+03  3.346240E+03
       430  20  7.475151E+04  5.024244E+04  3.708850E+04 -1.728153E+03 -2.150563E+03  1.138826E+04
       430  21  7.271623E+04  5.139181E+04  3.693090E+04  2.248596E+03  2.209103E+03  1.407208E+04
       430  22 -1.433660E+05 -1.160456E+04 -1.318805E+04  1.200250E+03  8.927337E+03  3.347415E+03
       430  23 -1.421636E+05 -1.851727E+03 -6.465089E+03  1.178238E+03  5.570714E+03  1.138951E+04
       430  24 -1.433651E+05  7.796854E+00 -3.899137E+03  1.198614E+03  2.214235E+03  1.407249E+04
       430  25 -3.624105E+05 -6.575302E+04 -6.482672E+04  8.060461E+03  2.435933E+04  3.348932E+03
       430  26 -3.590338E+05 -5.394873E+04 -5.002085E+04  4.083592E+03  1.328935E+04  1.139083E+04
       430  27 -3.594014E+05 -5.137894E+04 -4.473124E+04  1.490036E+02  2.219364E+03  1.407290E+04
       431   1  7.197858E+04  5.064305E+04  3.729720E+04  1.110103E+03 -7.067367E+02 -1.405734E+04
       431   2  7.057511E+04  5.059205E+04  3.724905E+04  1.032058E+03 -6.379819E+01 -1.451977E+04
       431   3  6.902137E+04  5.024939E+04  3.671116E+04  1.320963E+03  5.790473E+02 -1.457397E+04
       431   4 -1.428870E+05 -4.392386E+02 -3.242362E+03  1.271012E+03 -1.666423E+03 -1.405793E+04
       431   5 -1.427607E+05 -2.113789E+01 -2.474460E+03  1.087474E+03 -4.359223E+02 -1.452028E+04
       431   6 -1.428868E+05  3.219529E+00 -2.604510E+03  1.270894E+03  7.944786E+02 -1.457433E+04
       431   7 -3.577080E+05 -5.152421E+04 -4.378395E+04  1.431863E+03 -2.625785E+03 -1.405853E+04
       431   8 -3.560524E+05 -5.063694E+04 -4.219991E+04  1.142868E+03 -8.079217E+02 -1.452079E+04
       431   9 -3.547514E+05 -5.024553E+04 -4.192207E+04  1.220840E+03  1.009838E+03 -1.457470E+04
       431  10  7.197852E+04  5.064283E+04  3.729683E+04  1.110095E+03 -2.503827E-10  6.329888E-11
       431  11  7.057506E+04  5.059182E+04  3.724866E+04  1.032058E+03 -2.964642E-11 -5.077883E-10
       431  12  6.902131E+04  5.024917E+04  3.671076E+04  1.320969E+03  2.395146E-10 -5.086785E-11
       431  13 -1.428871E+05 -4.394516E+02 -3.242738E+03  1.270994E+03  2.361610E-10  4.171364E-11
       431  14 -1.427608E+05 -2.136433E+01 -2.474857E+03  1.087469E+03  5.997647E-11 -1.214818E-10
       431  15 -1.428868E+05  2.991282E+00 -2.604910E+03  1.270904E+03  1.604934E-10 -1.633302E-10
       431  16 -3.577081E+05 -5.152443E+04 -4.378434E+04  1.431833E+03  5.240421E-10 -8.949665E-11
       431  17 -3.560525E+05 -5.063717E+04 -4.220031E+04  1.142859E+03  4.273427E-10 -8.291882E-13
       431  18 -3.547515E+05 -5.024576E+04 -4.192247E+04  1.220852E+03 -1.399343E-10  1.712393E-10
       431  19  7.197858E+04  5.064305E+04  3.729720E+04  1.110103E+03  7.067367E+02  1.405734E+04
       431  20  7.057511E+04  5.059205E+04  3.724905E+04  1.032058E+03  6.379819E+01  1.451977E+04
       431  21  6.902137E+04  5.024939E+04  3.671116E+04  1.320963E+03 -5.790473E+02  1.457397E+04
       431  22 -1.428870E+05 -4.392386E+02 -3.242362E+03  1.271012E+03  1.666423E+03  1.405793E+04
       431  23 -1.427607E+05 -2.113789E+01 -2.474460E+03  1.087474E+03  4.359223E+02  1.452028E+04
       431  24 -1.428868E+05  3.219529E+00 -2.604510E+03  1.270894E+03 -7.944786E+02  1.457433E+04
       431  25 -3.577080E+05 -5.152421E+04 -4.378395E+04  1.431863E+03  2.625785E+03  1.405853E+04
       431  26 -3.560524E+05 -5.063694E+04 -4.219991E+04  1.142868E+03  8.079217E+02  1.452079E+04
       431  27 -3.547514E+05 -5.024553E+04 -4.192207E+04  1.220840E+03 -1.009838E+03  1.457470E+04
       432   1  6.795401E+04  5.004634E+04  3.616204E+04  1.112835E+03  1.199279E+03 -1.451186E+04
       432   2  6.667649E+04  4.956622E+04  3.454671E+04  1.231783E+03  2.854635E+03 -1.426075E+04
       432   3  6.496926E+04  4.820566E+04  3.163517E+04  1.769508E+03  4.509825E+03 -1.362709E+04
       432   4 -1.429474E+05  4.040003E+01 -2.959973E+03  1.282344E+03  1.284422E+03 -1.451226E+04
       432   5 -1.426847E+05 -1.019232E+02 -4.425169E+03  1.073163E+03  3.490061E+03 -1.426093E+04
       432   6 -1.429474E+05 -1.220405E+03 -7.569061E+03  1.282763E+03  5.695543E+03 -1.362700E+04
       432   7 -3.538056E+05 -4.996809E+04 -4.208386E+04  1.451790E+03  1.369538E+03 -1.451265E+04
       432   8 -3.520034E+05 -4.977259E+04 -4.339891E+04  9.145940E+02  4.125278E+03 -1.426111E+04
       432   9 -3.508222E+05 -5.064899E+04 -4.677519E+04  7.961817E+02  6.880872E+03 -1.362691E+04
       432  10  6.795395E+04  5.004612E+04  3.616164E+04  1.112849E+03  1.940420E-10 -6.377845E-11
       432  11  6.667643E+04  4.956600E+04  3.454632E+04  1.231816E+03  4.474457E-10 -2.730685E-10
       432  12  6.496919E+04  4.820546E+04  3.163479E+04  1.769557E+03  4.440656E-10 -7.194882E-10
       432  13 -1.429474E+05  4.017344E+01 -2.960372E+03  1.282359E+03  3.056506E-10 -1.490455E-10
       432  14 -1.426847E+05 -1.021449E+02 -4.425574E+03  1.073203E+03 -1.234276E-10 -3.416449E-10
       432  15 -1.429474E+05 -1.220613E+03 -7.569471E+03  1.282826E+03 -1.226720E-10 -4.356488E-10
       432  16 -3.538057E+05 -4.996832E+04 -4.208426E+04  1.451806E+03 -3.118584E-11 -5.981131E-11
       432  17 -3.520034E+05 -4.977281E+04 -4.339933E+04  9.146413E+02 -4.363561E-10  5.337711E-10
       432  18 -3.508223E+05 -5.064920E+04 -4.677563E+04  7.962572E+02 -4.324606E-10  6.644418E-11
       432  19  6.795401E+04  5.004634E+04  3.616204E+04  1.112835E+03 -1.199279E+03  1.451186E+04
       432  20  6.667649E+04  4.956622E+04  3.454671E+04  1.231783E+03 -2.854635E+03  1.426075E+04
       432  21  6.496926E+04  4.820566E+04  3.163517E+04  1.769508E+03 -4.509825E+03  1.362709E+04
       432  22 -1.429474E+05  4.040003E+01 -2.959973E+03  1.282344E+03 -1.284422E+03  1.451226E+04
       432  23 -1.426847E+05 -1.019232E+02 -4.425169E+03  1.073163E+03 -3.490061E+03  1.426093E+04
       432  24 -1.429474E+05 -1.220405E+03 -7.569061E+03  1.282763E+03 -5.695543E+03  1.362700E+04
       432  25 -3.538056E+05 -4.996809E+04 -4.208386E+04  1.451790E+03 -1.369538E+03  1.451265E+04
       432  26 -3.520034E+05 -4.977259E+04 -4.339891E+04  9.145940E+02 -4.125278E+03  1.426111E+04
       432  27 -3.508222E+05 -5.064899E+04 -4.677519E+04  7.961817E+02 -6.880872E+03  1.362691E+04
       433   1  6.281945E+04  4.925290E+04  2.938370E+04 -1.459337E+03  6.690922E+03 -1.351981E+04
       433   2  6.399837E+04  4.416553E+04  2.385999E+04  9.016985E+03  8.494789E+03 -1.082442E+04
       433   3  5.985841E+04  1.872040E+04  1.207312E+04  2.022133E+04  1.029601E+04 -3.158300E+03
       433   4 -1.442888E+05  1.240176E+01 -9.717557E+03  1.348866E+03  6.990372E+03 -1.352002E+04
       433   5 -1.410081E+05 -5.067086E+03 -1.724370E+04  9.918733E+02  1.595059E+04 -1.082130E+04
       433   6 -1.442907E+05 -3.175091E+04 -3.600460E+04  1.363174E+03  2.490803E+04 -3.151166E+03
       433   7 -3.513556E+05 -4.923056E+04 -4.882071E+04  4.156104E+03  7.289724E+03 -1.352024E+04
       433   8 -3.459742E+05 -5.430202E+04 -5.834928E+04 -7.030540E+03  2.340398E+04 -1.081838E+04
       433   9 -3.484002E+05 -8.222375E+04 -8.408419E+04 -1.748875E+04  3.951527E+04 -3.144918E+03
       433  10  6.281935E+04  4.925269E+04  2.938328E+04 -1.459264E+03  9.404230E-11 -1.041924E-09
       433  11  6.399827E+04  4.416539E+04  2.385963E+04  9.017059E+03 -6.722462E-10 -1.504612E-09
       433  12  5.985829E+04  1.872036E+04  1.207290E+04  2.022136E+04 -1.048592E-09 -3.688000E-10
       433  13 -1.442889E+05  1.219236E+01 -9.717993E+03  1.348942E+03  2.417314E-10 -2.183698E-09
       433  14 -1.410084E+05 -5.067280E+03 -1.724440E+04  9.920124E+02 -6.043036E-10  8.783333E-10
       433  15 -1.442914E+05 -3.175109E+04 -3.600578E+04  1.363237E+03  2.799645E-10  8.204798E-12
       433  16 -3.513557E+05 -4.923077E+04 -4.882115E+04  4.156183E+03 -2.631224E-10 -2.688624E-10
       433  17 -3.459748E+05 -5.430230E+04 -5.835053E+04 -7.030337E+03  2.788574E-10  6.143913E-10
       433  18 -3.484019E+05 -8.222418E+04 -8.408715E+04 -1.748865E+04  8.920464E-10 -5.130595E-10
       433  19  6.281945E+04  4.925290E+04  2.938370E+04 -1.459337E+03 -6.690922E+03  1.351981E+04
       433  20  6.399837E+04  4.416553E+04  2.385999E+04  9.016985E+03 -8.494789E+03  1.082442E+04
       433  21  5.985841E+04  1.872040E+04  1.207312E+04  2.022133E+04 -1.029601E+04  3.158300E+03
       433  22 -1.442888E+05  1.240176E+01 -9.717557E+03  1.348866E+03 -6.990372E+03  1.352002E+04
       433  23 -1.410081E+05 -5.067086E+03 -1.724370E+04  9.918733E+02 -1.595059E+04  1.082130E+04
       433  24 -1.442907E+05 -3.175091E+04 -3.600460E+04  1.363174E+03 -2.490803E+04  3.151166E+03
       433  25 -3.513556E+05 -4.923056E+04 -4.882071E+04  4.156104E+03 -7.289724E+03  1.352024E+04
       433  26 -3.459742E+05 -5.430202E+04 -5.834928E+04 -7.030540E+03 -2.340398E+04  1.081838E+04
       433  27 -3.484002E+05 -8.222375E+04 -8.408419E+04 -1.748875E+04 -3.951527E+04  3.144918E+03
       434   1 -1.067007E+05 -5.063652E+05 -1.019854E+05  9.462904E+04 -5.103718E+03 -2.294915E+04
       434   2 -7.984924E+04 -3.961376E+05 -6.479907E+04  8.157926E+04 -1.510065E+04 -8.264095E+03
       434   3 -5.360136E+04 -2.879465E+05 -3.732822E+04  9.670828E+04 -1.342854E+04  6.424218E+03
       434   4  3.150902E+03 -6.328422E+04  4.039134E+03  9.677207E+04 -5.100734E+03 -1.624720E+02
       434   5  4.504608E+02 -6.370676E+04  4.175571E+03  8.268337E+04 -1.509894E+04 -2.269766E+03
       434   6  6.351681E+01 -6.326106E+04  6.263689E+03  9.677242E+04 -1.343100E+04 -4.376733E+03
       434   7  1.129886E+05  3.799779E+05  1.100517E+05  9.891662E+04 -5.097596E+03  2.264040E+04
       434   8  8.074316E+04  2.688289E+05  7.314432E+04  8.378808E+04 -1.509721E+04  3.727720E+03
       434   9  5.372544E+04  1.614731E+05  4.985366E+04  9.683659E+04 -1.343346E+04 -1.518151E+04
       434  10 -1.067009E+05 -5.063658E+05 -1.019864E+05  9.462894E+04  1.067905E-11 -8.357575E-11
       434  11 -7.984950E+04 -3.961377E+05 -6.479963E+04  8.157916E+04  3.503220E-10  4.595206E-11
       434  12 -5.360156E+04 -2.879466E+05 -3.732863E+04  9.670835E+04  1.292818E-10  2.711378E-10
       434  13  3.150874E+03 -6.328422E+04  4.039085E+03  9.677207E+04  5.951601E-11  1.004086E-10
       434  14  4.502146E+02 -6.370683E+04  4.175132E+03  8.268335E+04  6.961093E-12  5.082951E-11
       434  15  6.331798E+01 -6.326113E+04  6.263314E+03  9.677238E+04 -8.138280E-11 -1.443922E-10
       434  16  1.129884E+05  3.799774E+05  1.100507E+05  9.891672E+04 -1.575742E-10  7.626376E-11
       434  17  8.074292E+04  2.688288E+05  7.314386E+04  8.378812E+04 -1.109394E-10 -9.274277E-11
       434  18  5.372518E+04  1.614728E+05  4.985289E+04  9.683642E+04  1.361680E-10 -1.745550E-10
       434  19 -1.067007E+05 -5.063652E+05 -1.019854E+05  9.462904E+04  5.103718E+03  2.294915E+04
       434  20 -7.984924E+04 -3.961376E+05 -6.479907E+04  8.157926E+04  1.510065E+04  8.264095E+03
       434  21 -5.360136E+04 -2.879465E+05 -3.732822E+04  9.670828E+04  1.342854E+04 -6.424218E+03
       434  22  3.150902E+03 -6.328422E+04  4.039134E+03  9.677207E+04  5.100734E+03  1.624720E+02
       434  23  4.504608E+02 -6.370676E+04  4.175571E+03  8.268337E+04  1.509894E+04  2.269766E+03
       434  24  6.351681E+01 -6.326106E+04  6.263689E+03  9.677242E+04  1.343100E+04  4.376733E+03
       434  25  1.129886E+05  3.799779E+05  1.100517E+05  9.891662E+04  5.097596E+03 -2.264040E+04
       434  26  8.074316E+04  2.688289E+05  7.314432E+04  8.378808E+04  1.509721E+04 -3.727720E+03
       434  27  5.372544E+04  1.614731E+05  4.985366E+04  9.683659E+04  1.343346E+04  1.518151E+04
       435   1 -3.589469E+04 -2.133617E+05 -2.118508E+04  9.600644E+04 -8.970294E+03  3.238522E+03
       435   2 -9.377535E+03 -1.050454E+05  5.802788E+03  8.272518E+04 -2.756383E+03 -3.291395E+03
       435   3  2.035265E+04  4.928318E+03  3.784217E+04  9.827861E+04  3.600330E+03 -9.822711E+03
       435   4  1.660719E+00 -6.307459E+04  7.982183E+03  9.691843E+04 -8.972661E+03 -5.607835E+03
       435   5  3.894768E+02 -6.391416E+04  1.350349E+04  8.250067E+04 -2.758950E+03 -1.234436E+04
       435   6  4.026983E+03 -6.307119E+04  2.422047E+04  9.691728E+04  3.597551E+03 -1.908119E+04
       435   7  3.589671E+04  8.723439E+04  3.714868E+04  9.783065E+04 -8.975054E+03 -1.445629E+04
       435   8  1.015643E+04 -2.278113E+04  2.120443E+04  8.227614E+04 -2.761511E+03 -2.139791E+04
       435   9 -1.229892E+04 -1.310661E+05  1.059886E+04  9.555611E+04  3.594813E+03 -2.833868E+04
       435  10 -3.589478E+04 -2.133617E+05 -2.118525E+04  9.600647E+04 -4.053016E-11 -1.031439E-10
       435  11 -9.377546E+03 -1.050454E+05  5.802754E+03  8.272517E+04 -3.710962E-11 -1.018902E-10
       435  12  2.035261E+04  4.928211E+03  3.784196E+04  9.827864E+04  1.227587E-11  1.544617E-10
       435  13  1.565839E+00 -6.307465E+04  7.981972E+03  9.691839E+04  4.206680E-11 -2.332546E-10
       435  14  3.894277E+02 -6.391432E+04  1.350319E+04  8.250064E+04  3.020433E-10  1.048847E-10
       435  15  4.026871E+03 -6.307158E+04  2.421976E+04  9.691734E+04 -1.684397E-10 -2.122639E-10
       435  16  3.589657E+04  8.723414E+04  3.714813E+04  9.783054E+04  1.340602E-10  9.214005E-11
       435  17  1.015630E+04 -2.278163E+04  2.120356E+04  8.227610E+04  1.815886E-10 -5.520321E-11
       435  18 -1.229915E+04 -1.310670E+05  1.059733E+04  9.555619E+04  2.382584E-10 -1.152508E-10
       435  19 -3.589469E+04 -2.133617E+05 -2.118508E+04  9.600644E+04  8.970294E+03 -3.238522E+03
       435  20 -9.377535E+03 -1.050454E+05  5.802788E+03  8.272518E+04  2.756383E+03  3.291395E+03
       435  21  2.035265E+04  4.928318E+03  3.784217E+04  9.827861E+04 -3.600330E+03  9.822711E+03
       435  22  1.660719E+00 -6.307459E+04  7.982183E+03  9.691843E+04  8.972661E+03  5.607835E+03
       435  23  3.894768E+02 -6.391416E+04  1.350349E+04  8.250067E+04  2.758950E+03  1.234436E+04
       435  24  4.026983E+03 -6.307119E+04  2.422047E+04  9.691728E+04 -3.597551E+03  1.908119E+04
       435  25  3.589671E+04  8.723439E+04  3.714868E+04  9.783065E+04  8.975054E+03  1.445629E+04
       435  26  1.015643E+04 -2.278113E+04  2.120443E+04  8.227614E+04  2.761511E+03  2.139791E+04
       435  27 -1.229892E+04 -1.310661E+05  1.059886E+04  9.555611E+04 -3.594813E+03  2.833868E+04
       436   1  3.405693E+04  8.366963E+04  5.940547E+04  8.738733E+04  8.074301E+03 -1.240427E+04
       436   2  7.715697E+04  1.809409E+05  1.087019E+05  1.086655E+05  1.076261E+04 -5.551509E+04
       436   3  1.933566E+05  3.021090E+05  2.043361E+05  1.582565E+05  3.804767E+03 -9.863308E+04
       436   4 -7.525980E+00 -5.867334E+04  3.139522E+04  9.680246E+04  8.071094E+03 -2.323401E+04
       436   5  1.657736E+04 -6.942366E+04  5.621922E+04  8.263966E+04  1.076596E+04 -5.244792E+04
       436   6  1.038637E+05 -5.868707E+04  1.177425E+05  9.678378E+04  3.817830E+03 -8.166107E+04
       436   7 -3.407281E+04 -2.009965E+05  3.384478E+03  1.062154E+05  8.067558E+03 -3.406131E+04
       436   8 -4.400372E+04 -3.197275E+05  3.733473E+03  5.662448E+04  1.076906E+04 -4.938197E+04
       436   9  1.437571E+04 -4.193553E+05  3.114279E+04  3.534686E+04  3.827540E+03 -6.469888E+04
       436  10  3.405682E+04  8.366945E+04  5.940506E+04  8.738741E+04 -1.483700E-10 -1.233520E-10
       436  11  7.715602E+04  1.809375E+05  1.086959E+05  1.086660E+05 -1.351247E-10 -2.234736E-10
       436  12  1.933540E+05  3.020986E+05  2.043178E+05  1.582568E+05 -1.675120E-11 -7.016994E-11
       436  13 -7.740903E+00 -5.867393E+04  3.139409E+04  9.680261E+04  2.130662E-10 -3.289236E-10
       436  14  1.657650E+04 -6.942665E+04  5.621384E+04  8.264011E+04  1.864178E-10  6.666306E-11
       436  15  1.038619E+05 -5.869424E+04  1.177300E+05  9.678403E+04  4.253262E-11 -5.855464E-11
       436  16 -3.407319E+04 -2.009977E+05  3.382175E+03  1.062156E+05  6.069848E-11  1.731777E-10
       436  17 -4.400450E+04 -3.197301E+05  3.728670E+03  5.662491E+04  2.179303E-10  1.594454E-10
       436  18  1.437457E+04 -4.193598E+05  3.113489E+04  3.534706E+04  1.083678E-10  6.338370E-11
       436  19  3.405693E+04  8.366963E+04  5.940547E+04  8.738733E+04 -8.074301E+03  1.240427E+04
       436  20  7.715697E+04  1.809409E+05  1.087019E+05  1.086655E+05 -1.076261E+04  5.551509E+04
       436  21  1.933566E+05  3.021090E+05  2.043361E+05  1.582565E+05 -3.804767E+03  9.863308E+04
       436  22 -7.525980E+00 -5.867334E+04  3.139522E+04  9.680246E+04 -8.071094E+03  2.323401E+04
       436  23  1.657736E+04 -6.942366E+04  5.621922E+04  8.263966E+04 -1.076596E+04  5.244792E+04
       436  24  1.038637E+05 -5.868707E+04  1.177425E+05  9.678378E+04 -3.817830E+03  8.166107E+04
       436  25 -3.407281E+04 -2.009965E+05  3.384478E+03  1.062154E+05 -8.067558E+03  3.406131E+04
       436  26 -4.400372E+04 -3.197275E+05  3.733473E+03  5.662448E+04 -1.076906E+04  4.938197E+04
       436  27  1.437571E+04 -4.193553E+05  3.114279E+04  3.534686E+04 -3.827540E+03  6.469888E+04
       437   1  1.231158E+05  1.163367E+05  6.042292E+04  5.844767E+04  1.666419E+04  8.098402E+03
       437   2  1.138249E+05  1.042150E+05  4.774553E+04  5.451119E+04  1.398659E+04 -4.182491E+03
       437   3  1.041612E+05  9.795511E+04  4.210994E+04  5.080697E+04  7.699472E+03 -1.165064E+04
       437   4 -5.190128E+04 -1.082139E+04  3.160348E+03 -2.955633E+04  3.730621E+03 -1.603792E+03
       437   5 -5.146240E+04 -1.388909E+04  1.635367E+03 -2.900481E+04  7.985434E+03 -8.685112E+03
       437   6 -5.290040E+04 -1.259850E+04  1.135392E+03 -2.822114E+04  8.629936E+03 -1.095301E+04
       437   7 -2.268856E+05 -1.379619E+05 -5.410534E+04 -1.175321E+05 -9.197987E+03 -1.130216E+04
       437   8 -2.167205E+05 -1.319780E+05 -4.447774E+04 -1.124959E+05  1.986386E+03 -1.318613E+04
       437   9 -2.099366E+05 -1.231395E+05 -3.984208E+04 -1.072275E+05  9.560098E+03 -1.025562E+04
       437  10  1.231154E+05  1.163366E+05  6.042228E+04  5.844756E+04 -2.232590E-10 -1.353087E-10
       437  11  1.138247E+05  1.042149E+05  4.774513E+04  5.451124E+04  9.236020E-11  3.563024E-10
       437  12  1.041611E+05  9.795495E+04  4.210957E+04  5.080704E+04  3.763978E-10  3.008580E-10
       437  13 -5.190130E+04 -1.082140E+04  3.160317E+03 -2.955632E+04  2.261582E-11  6.762986E-11
       437  14 -5.146249E+04 -1.388919E+04  1.635105E+03 -2.900475E+04 -1.712664E-10 -2.004166E-11
       437  15 -5.290052E+04 -1.259865E+04  1.135027E+03 -2.822107E+04  8.232220E-11 -9.662318E-11
       437  16 -2.268857E+05 -1.379621E+05 -5.410574E+04 -1.175322E+05  1.234173E-11  1.608237E-10
       437  17 -2.167206E+05 -1.319781E+05 -4.447807E+04 -1.124959E+05 -2.638166E-11 -6.057343E-11
       437  18 -2.099367E+05 -1.231396E+05 -3.984245E+04 -1.072275E+05 -3.850367E-10 -3.540770E-10
       437  19  1.231158E+05  1.163367E+05  6.042292E+04  5.844767E+04 -1.666419E+04 -8.098402E+03
       437  20  1.138249E+05  1.042150E+05  4.774553E+04  5.451119E+04 -1.398659E+04  4.182491E+03
       437  21  1.041612E+05  9.795511E+04  4.210994E+04  5.080697E+04 -7.699472E+03  1.165064E+04
       437  22 -5.190128E+04 -1.082139E+04  3.160348E+03 -2.955633E+04 -3.730621E+03  1.603792E+03
       437  23 -5.146240E+04 -1.388909E+04  1.635367E+03 -2.900481E+04 -7.985434E+03  8.685112E+03
       437  24 -5.290040E+04 -1.259850E+04  1.135392E+03 -2.822114E+04 -8.629936E+03  1.095301E+04
       437  25 -2.268856E+05 -1.379619E+05 -5.410534E+04 -1.175321E+05  9.197987E+03  1.130216E+04
       437  26 -2.167205E+05 -1.319780E+05 -4.447774E+04 -1.124959E+05 -1.986386E+03  1.318613E+04
       437  27 -2.099366E+05 -1.231395E+05 -3.984208E+04 -1.072275E+05 -9.560098E+03  1.025562E+04
       438   1  9.719757E+04  9.369787E+04  4.022773E+04  4.750539E+04  8.118705E+03 -1.072249E+04
       438   2  8.924983E+04  8.521964E+04  3.726972E+04  4.233352E+04  7.019542E+03 -1.119532E+04
       438   3  7.822489E+04  8.022324E+04  3.511966E+04  3.812008E+04  5.662072E+03 -1.132401E+04
       438   4 -5.300932E+04 -1.249322E+04  1.054573E+03 -2.830362E+04  8.195343E+03 -1.066545E+04
       438   5 -5.143925E+04 -1.422146E+04  1.096304E+03 -2.875099E+04  7.592002E+03 -1.076618E+04
       438   6 -5.305447E+04 -1.257540E+04  1.515562E+03 -2.824002E+04  6.730283E+03 -1.052274E+04
       438   7 -2.031883E+05 -1.186693E+05 -3.811967E+04 -1.040904E+05  8.271954E+03 -1.060844E+04
       438   8 -1.921047E+05 -1.136500E+05 -3.507832E+04 -9.981637E+04  8.164283E+03 -1.033718E+04
       438   9 -1.843141E+05 -1.053637E+05 -3.208989E+04 -9.458391E+04  7.798191E+03 -9.721697E+03
       438  10  9.719746E+04  9.369773E+04  4.022739E+04  4.750546E+04 -2.180530E-10  1.151206E-10
       438  11  8.924974E+04  8.521949E+04  3.726939E+04  4.233358E+04 -5.093958E-10  4.528194E-10
       438  12  7.822482E+04  8.022310E+04  3.511936E+04  3.812013E+04 -3.385627E-10  3.077428E-10
       438  13 -5.300942E+04 -1.249336E+04  1.054233E+03 -2.830355E+04 -2.369760E-10 -1.870722E-10
       438  14 -5.143935E+04 -1.422160E+04  1.095978E+03 -2.875092E+04 -1.160081E-10 -1.509980E-10
       438  15 -5.305455E+04 -1.257553E+04  1.515269E+03 -2.823996E+04 -1.237361E-10 -6.417737E-10
       438  16 -2.031884E+05 -1.186694E+05 -3.812001E+04 -1.040903E+05  1.739496E-10 -3.875696E-11
       438  17 -1.921048E+05 -1.136501E+05 -3.507865E+04 -9.981630E+04 -3.769598E-10  7.765823E-10
       438  18 -1.843142E+05 -1.053638E+05 -3.209018E+04 -9.458385E+04 -3.131994E-10  3.954922E-10
       438  19  9.719757E+04  9.369787E+04  4.022773E+04  4.750539E+04 -8.118705E+03  1.072249E+04
       438  20  8.924983E+04  8.521964E+04  3.726972E+04  4.233352E+04 -7.019542E+03  1.119532E+04
       438  21  7.822489E+04  8.022324E+04  3.511966E+04  3.812008E+04 -5.662072E+03  1.132401E+04
       438  22 -5.300932E+04 -1.249322E+04  1.054573E+03 -2.830362E+04 -8.195343E+03  1.066545E+04
       438  23 -5.143925E+04 -1.422146E+04  1.096304E+03 -2.875099E+04 -7.592002E+03  1.076618E+04
       438  24 -5.305447E+04 -1.257540E+04  1.515562E+03 -2.824002E+04 -6.730283E+03  1.052274E+04
       438  25 -2.031883E+05 -1.186693E+05 -3.811967E+04 -1.040904E+05 -8.271954E+03  1.060844E+04
       438  26 -1.921047E+05 -1.136500E+05 -3.507832E+04 -9.981637E+04 -8.164283E+03  1.033718E+04
       438  27 -1.843141E+05 -1.053637E+05 -3.208989E+04 -9.458391E+04 -7.798191E+03  9.721697E+03
       439   1  7.178582E+04  7.576384E+04  3.379540E+04  3.492908E+04  5.154000E+03 -1.102967E+04
       439   2  6.384634E+04  6.745562E+04  3.260724E+04  2.966276E+04  3.338857E+03 -1.127535E+04
       439   3  5.280994E+04  6.264029E+04  3.249794E+04  2.540784E+04  1.499760E+03 -1.148931E+04
       439   4 -5.304165E+04 -1.256059E+04  1.889892E+03 -2.822029E+04  6.160175E+03 -1.027489E+04
       439   5 -5.147590E+04 -1.427988E+04  3.116367E+03 -2.874250E+04  4.391026E+03 -1.048594E+04
       439   6 -5.301672E+04 -1.251643E+04  5.381945E+03 -2.825339E+04  2.597916E+03 -1.066527E+04
       439   7 -1.778533E+05 -1.008771E+05 -3.001751E+04 -9.135596E+04  7.166093E+03 -9.520295E+03
       439   8 -1.667830E+05 -9.600739E+04 -2.637556E+04 -8.713524E+04  5.442932E+03 -9.696721E+03
       439   9 -1.588290E+05 -8.766523E+04 -2.173438E+04 -8.190326E+04  3.695806E+03 -9.841438E+03
       439  10  7.178576E+04  7.576370E+04  3.379512E+04  3.492912E+04 -5.010443E-10  2.816825E-10
       439  11  6.384629E+04  6.745548E+04  3.260698E+04  2.966279E+04 -1.042996E-09 -8.965666E-10
       439  12  5.280990E+04  6.264015E+04  3.249768E+04  2.540785E+04 -1.899039E-09 -3.293691E-10
       439  13 -5.304171E+04 -1.256072E+04  1.889622E+03 -2.822024E+04 -1.120246E-10  9.728608E-10
       439  14 -5.147595E+04 -1.428000E+04  3.116124E+03 -2.874247E+04 -3.674697E-10  1.102373E-09
       439  15 -5.301676E+04 -1.251655E+04  5.381718E+03 -2.825337E+04 -6.373999E-10  1.290044E-09
       439  16 -1.778533E+05 -1.008772E+05 -3.001778E+04 -9.135590E+04 -4.761661E-10  3.575151E-10
       439  17 -1.667830E+05 -9.600750E+04 -2.637579E+04 -8.713520E+04  5.210390E-11  3.882594E-10
       439  18 -1.588290E+05 -8.766534E+04 -2.173459E+04 -8.190323E+04  4.285855E-10  1.460793E-09
       439  19  7.178582E+04  7.576384E+04  3.379540E+04  3.492908E+04 -5.154000E+03  1.102967E+04
       439  20  6.384634E+04  6.745562E+04  3.260724E+04  2.966276E+04 -3.338857E+03  1.127535E+04
       439  21  5.280994E+04  6.264029E+04  3.249794E+04  2.540784E+04 -1.499760E+03  1.148931E+04
       439  22 -5.304165E+04 -1.256059E+04  1.889892E+03 -2.822029E+04 -6.160175E+03  1.027489E+04
       439  23 -5.147590E+04 -1.427988E+04  3.116367E+03 -2.874250E+04 -4.391026E+03  1.048594E+04
       439  24 -5.301672E+04 -1.251643E+04  5.381945E+03 -2.825339E+04 -2.597916E+03  1.066527E+04
       439  25 -1.778533E+05 -1.008771E+05 -3.001751E+04 -9.135596E+04 -7.166093E+03  9.520295E+03
       439  26 -1.667830E+05 -9.600739E+04 -2.637556E+04 -8.713524E+04 -5.442932E+03  9.696721E+03
       439  27 -1.588290E+05 -8.766523E+04 -2.173438E+04 -8.190326E+04 -3.695806E+03  9.841438E+03
       440   1  4.606333E+04  5.859537E+04  3.248135E+04  2.254983E+04  3.186531E+02 -1.169417E+04
       440   2  3.891618E+04  4.934907E+04  3.540606E+04  1.641982E+04 -5.334414E+03 -1.469007E+04
       440   3  3.050591E+04  4.586360E+04  4.318031E+04  1.059399E+04 -1.106435E+04 -1.758369E+04
       440   4 -5.289842E+04 -1.252255E+04  7.055202E+03 -2.803034E+04  1.394750E+03 -1.088663E+04
       440   5 -5.155873E+04 -1.415970E+04  1.230069E+04 -2.910301E+04 -4.110107E+03 -1.377120E+04
       440   6 -5.151434E+04 -1.006780E+04  2.226750E+04 -2.987159E+04 -9.691963E+03 -1.655359E+04
       440   7 -1.518490E+05 -8.363442E+04 -1.837175E+04 -7.860117E+04  2.470617E+03 -1.007927E+04
       440   8 -1.420251E+05 -7.766421E+04 -1.080558E+04 -7.461857E+04 -2.886030E+03 -1.285251E+04
       440   9 -1.335282E+05 -6.599643E+04  1.353734E+03 -7.033174E+04 -8.319800E+03 -1.552366E+04
       440  10  4.606329E+04  5.859522E+04  3.248110E+04  2.254983E+04  3.988995E-09  4.341186E-09
       440  11  3.891609E+04  4.934883E+04  3.540560E+04  1.641975E+04 -1.013072E-08 -6.870748E-09
       440  12  3.050570E+04  4.586324E+04  4.317950E+04  1.059383E+04 -2.077936E-08 -1.672290E-08
       440  13 -5.289845E+04 -1.252268E+04  7.054976E+03 -2.803033E+04 -3.730351E-10  4.472370E-10
       440  14 -5.155880E+04 -1.415991E+04  1.230030E+04 -2.910305E+04  1.159949E-10 -2.099053E-10
       440  15 -5.151451E+04 -1.006812E+04  2.226681E+04 -2.987172E+04  2.352465E-09 -1.325221E-11
       440  16 -1.518491E+05 -8.363454E+04 -1.837196E+04 -7.860115E+04 -5.387771E-09 -3.129406E-09
       440  17 -1.420251E+05 -7.766439E+04 -1.080591E+04 -7.461860E+04  1.040839E-08  6.128684E-09
       440  18 -1.335284E+05 -6.599671E+04  1.353151E+03 -7.033184E+04  2.545858E-08  1.717655E-08
       440  19  4.606333E+04  5.859537E+04  3.248135E+04  2.254983E+04 -3.186531E+02  1.169417E+04
       440  20  3.891618E+04  4.934907E+04  3.540606E+04  1.641982E+04  5.334414E+03  1.469007E+04
       440  21  3.050591E+04  4.586360E+04  4.318031E+04  1.059399E+04  1.106435E+04  1.758369E+04
       440  22 -5.289842E+04 -1.252255E+04  7.055202E+03 -2.803034E+04 -1.394750E+03  1.088663E+04
       440  23 -5.155873E+04 -1.415970E+04  1.230069E+04 -2.910301E+04  4.110107E+03  1.377120E+04
       440  24 -5.151434E+04 -1.006780E+04  2.226750E+04 -2.987159E+04  9.691963E+03  1.655359E+04
       440  25 -1.518490E+05 -8.363442E+04 -1.837175E+04 -7.860117E+04 -2.470617E+03  1.007927E+04
       440  26 -1.420251E+05 -7.766421E+04 -1.080558E+04 -7.461857E+04  2.886030E+03  1.285251E+04
       440  27 -1.335282E+05 -6.599643E+04  1.353734E+03 -7.033174E+04  8.319800E+03  1.552366E+04
       441   1  1.585100E+04  5.004391E+04  4.816816E+04  1.392135E+04 -1.420395E+04 -1.924073E+04
       441   2  3.863408E+04  1.650838E+04  6.955902E+04 -1.275217E+04 -3.890845E+04 -3.546578E+04
       441   3  9.463645E+04  3.571040E+04  1.265800E+05 -6.024045E+04 -6.467285E+04 -5.027799E+04
       441   4 -5.027947E+04 -1.096284E+04  2.891406E+04 -2.612465E+04 -1.308176E+04 -1.839796E+04
       441   5 -4.937974E+04 -6.437083E+03  5.187013E+04 -3.874283E+04 -3.575214E+04 -3.309873E+04
       441   6 -1.570258E+04  5.038428E+04  1.086925E+05 -7.217640E+04 -5.948091E+04 -4.638930E+04
       441   7 -1.164040E+05 -7.196384E+04  9.659892E+03 -6.616459E+04 -1.195974E+04 -1.755538E+04
       441   8 -1.373827E+05 -2.938132E+04  3.418150E+04 -6.473065E+04 -3.259650E+04 -3.073181E+04
       441   9 -1.260213E+05  6.506315E+04  9.080666E+04 -8.411382E+04 -5.429039E+04 -4.250019E+04
       441  10  1.585068E+04  5.004346E+04  4.816709E+04  1.392113E+04  2.503260E-08  1.727303E-08
       441  11  3.863212E+04  1.650662E+04  6.955381E+04 -1.275328E+04  9.643202E-09  6.168658E-09
       441  12  9.463128E+04  3.570656E+04  1.265674E+05 -6.024307E+04 -5.173883E-09 -4.113912E-09
       441  13 -5.027975E+04 -1.096325E+04  2.891311E+04 -2.612485E+04  2.631584E-09 -1.441707E-10
       441  14 -4.938141E+04 -6.438603E+03  5.186567E+04 -3.874378E+04 -5.158340E-10  1.997304E-09
       441  15 -1.570696E+04  5.038102E+04  1.086818E+05 -7.217862E+04 -7.101767E-10  4.640269E-10
       441  16 -1.164042E+05 -7.196421E+04  9.659044E+03 -6.616476E+04 -1.995135E-08 -1.659377E-08
       441  17 -1.373841E+05 -2.938262E+04  3.417773E+04 -6.473146E+04 -9.292964E-09 -6.788147E-09
       441  18 -1.260249E+05  6.506042E+04  9.079772E+04 -8.411568E+04  4.432310E-09  3.631962E-09
       441  19  1.585100E+04  5.004391E+04  4.816816E+04  1.392135E+04  1.420395E+04  1.924073E+04
       441  20  3.863408E+04  1.650838E+04  6.955902E+04 -1.275217E+04  3.890845E+04  3.546578E+04
       441  21  9.463645E+04  3.571040E+04  1.265800E+05 -6.024045E+04  6.467285E+04  5.027799E+04
       441  22 -5.027947E+04 -1.096284E+04  2.891406E+04 -2.612465E+04  1.308176E+04  1.839796E+04
       441  23 -4.937974E+04 -6.437083E+03  5.187013E+04 -3.874283E+04  3.575214E+04  3.309873E+04
       441  24 -1.570258E+04  5.038428E+04  1.086925E+05 -7.217640E+04  5.948091E+04  4.638930E+04
       441  25 -1.164040E+05 -7.196384E+04  9.659892E+03 -6.616459E+04  1.195974E+04  1.755538E+04
       441  26 -1.373827E+05 -2.938132E+04  3.418150E+04 -6.473065E+04  3.259650E+04  3.073181E+04
       441  27 -1.260213E+05  6.506315E+04  9.080666E+04 -8.411382E+04  5.429039E+04  4.250019E+04
       442   1  3.340961E+05  9.673625E+04  8.208147E+04  3.723227E+04 -9.069180E+03 -8.517264E+03
       442   2  2.554075E+05  1.234228E+05  7.923459E+04  4.760937E+04 -1.506611E+04 -2.728574E+04
       442   3  1.681460E+05  1.126034E+05  7.092563E+04  7.889814E+04 -2.107128E+04 -2.980636E+04
       442   4 -3.040201E+05 -6.113577E+04 -6.945101E+04  7.312841E+04 -4.777202E+04 -8.544789E+03
       442   5 -2.976741E+05 -9.705233E+03 -3.346230E+04  6.264683E+04 -3.037298E+04 -2.730014E+04
       442   6 -3.039822E+05  1.369713E+02 -1.919224E+04  7.308013E+04 -1.298276E+04 -2.980064E+04
       442   7 -9.417563E+05 -2.190314E+05 -2.210056E+05  1.089874E+05 -8.643527E+04 -8.576807E+03
       442   8 -8.504638E+05 -1.428514E+05 -1.461743E+05  7.767058E+04 -4.566646E+04 -2.731529E+04
       442   9 -7.758954E+05 -1.123425E+05 -1.093199E+05  6.726660E+04 -4.900238E+03 -2.979507E+04
       442  10  3.340960E+05  9.673615E+04  8.208118E+04  3.723221E+04  1.085609E-09 -3.077519E-10
       442  11  2.554070E+05  1.234219E+05  7.923277E+04  4.760904E+04  3.645599E-10 -1.774605E-09
       442  12  1.681453E+05  1.126024E+05  7.092312E+04  7.889763E+04  2.143026E-10 -1.744900E-09
       442  13 -3.040225E+05 -6.113646E+04 -6.945544E+04  7.312808E+04  1.920759E-10  3.900620E-10
       442  14 -2.976753E+05 -9.706281E+03 -3.346543E+04  6.264616E+04 -4.333283E-10 -1.262187E-09
       442  15 -3.039826E+05  1.359726E+02 -1.919422E+04  7.307982E+04 -1.499709E-10 -3.431716E-10
       442  16 -9.417644E+05 -2.190335E+05 -2.210198E+05  1.089868E+05 -1.313189E-09  8.177193E-11
       442  17 -8.504663E+05 -1.428527E+05 -1.461796E+05  7.766957E+04  1.163866E-10 -2.630457E-09
       442  18 -7.758957E+05 -1.123434E+05 -1.093216E+05  6.726648E+04  2.015964E-10 -2.645208E-09
       442  19  3.340961E+05  9.673625E+04  8.208147E+04  3.723227E+04  9.069180E+03  8.517264E+03
       442  20  2.554075E+05  1.234228E+05  7.923459E+04  4.760937E+04  1.506611E+04  2.728574E+04
       442  21  1.681460E+05  1.126034E+05  7.092563E+04  7.889814E+04  2.107128E+04  2.980636E+04
       442  22 -3.040201E+05 -6.113577E+04 -6.945101E+04  7.312841E+04  4.777202E+04  8.544789E+03
       442  23 -2.976741E+05 -9.705233E+03 -3.346230E+04  6.264683E+04  3.037298E+04  2.730014E+04
       442  24 -3.039822E+05  1.369713E+02 -1.919224E+04  7.308013E+04  1.298276E+04  2.980064E+04
       442  25 -9.417563E+05 -2.190314E+05 -2.210056E+05  1.089874E+05  8.643527E+04  8.576807E+03
       442  26 -8.504638E+05 -1.428514E+05 -1.461743E+05  7.767058E+04  4.566646E+04  2.731529E+04
       442  27 -7.758954E+05 -1.123425E+05 -1.093199E+05  6.726660E+04  4.900238E+03  2.979507E+04
       443   1  1.139346E+05  9.666082E+04  6.381654E+04  7.273238E+04 -1.560097E+04 -2.647678E+04
       443   2  3.147070E+04  7.885888E+04  5.253394E+04  6.233313E+04 -1.241974E+04 -2.229316E+04
       443   3 -5.183706E+04  5.944898E+04  3.877001E+04  7.382944E+04 -9.241289E+03 -1.697571E+04
       443   4 -3.014131E+05 -2.222159E+03 -1.522275E+04  7.330638E+04 -1.039200E+04 -2.647321E+04
       443   5 -3.008372E+05 -5.171984E+01 -9.667507E+03  6.235692E+04 -5.580957E+03 -2.228709E+04
       443   6 -3.013946E+05  2.276177E+02 -7.726849E+03  7.330380E+04 -7.722651E+02 -1.696684E+04
       443   7 -7.165944E+05 -1.011152E+05 -9.426971E+04  7.387995E+04 -5.186430E+03 -2.646963E+04
       443   8 -6.330382E+05 -7.896868E+04 -7.187354E+04  6.238067E+04  1.254254E+03 -2.228103E+04
       443   9 -5.508916E+05 -5.899729E+04 -5.422609E+04  7.277837E+04  7.693441E+03 -1.695799E+04
       443  10  1.139341E+05  9.666000E+04  6.381477E+04  7.273204E+04 -2.569634E-09 -2.080792E-09
       443  11  3.147040E+04  7.885830E+04  5.253271E+04  6.233291E+04 -1.046665E-09  5.918044E-10
       443  12 -5.183723E+04  5.944865E+04  3.876931E+04  7.382931E+04  2.553562E-10  1.177259E-09
       443  13 -3.014134E+05 -2.222940E+03 -1.522427E+04  7.330616E+04  3.146692E-10 -1.563826E-09
       443  14 -3.008374E+05 -5.226150E+01 -9.668499E+03  6.235682E+04 -6.296666E-10 -2.267872E-10
       443  15 -3.013946E+05  2.273085E+02 -7.727391E+03  7.330379E+04  3.633613E-10 -1.268998E-09
       443  16 -7.165947E+05 -1.011160E+05 -9.427107E+04  7.387984E+04  1.911098E-09 -1.198846E-10
       443  17 -6.330384E+05 -7.896921E+04 -7.187447E+04  6.238069E+04  1.088719E-09  8.790601E-10
       443  18 -5.508917E+05 -5.899762E+04 -5.422675E+04  7.277848E+04  6.034716E-11  1.323570E-10
       443  19  1.139346E+05  9.666082E+04  6.381654E+04  7.273238E+04  1.560097E+04  2.647678E+04
       443  20  3.147070E+04  7.885888E+04  5.253394E+04  6.233313E+04  1.241974E+04  2.229316E+04
       443  21 -5.183706E+04  5.944898E+04  3.877001E+04  7.382944E+04  9.241289E+03  1.697571E+04
       443  22 -3.014131E+05 -2.222159E+03 -1.522275E+04  7.330638E+04  1.039200E+04  2.647321E+04
       443  23 -3.008372E+05 -5.171984E+01 -9.667507E+03  6.235692E+04  5.580957E+03  2.228709E+04
       443  24 -3.013946E+05  2.276177E+02 -7.726849E+03  7.330380E+04  7.722651E+02  1.696684E+04
       443  25 -7.165944E+05 -1.011152E+05 -9.426971E+04  7.387995E+04  5.186430E+03  2.646963E+04
       443  26 -6.330382E+05 -7.896868E+04 -7.187354E+04  6.238067E+04 -1.254254E+03  2.228103E+04
       443  27 -5.508916E+05 -5.899729E+04 -5.422609E+04  7.277837E+04 -7.693441E+03  1.695799E+04
       444   1 -1.080296E+05  4.604598E+04  2.799802E+04  7.317903E+04 -7.752287E+03 -1.351767E+04
       444   2 -1.903461E+05  2.614317E+04  1.079854E+04  6.270554E+04 -2.614803E+03 -7.876534E+03
       444   3 -2.738553E+05  4.338854E+03 -1.023676E+04  7.418435E+04  2.521773E+03 -2.539798E+03
       444   4 -3.013873E+05  2.292337E+02 -7.687987E+03  7.331627E+04  5.804081E+02 -1.350852E+04
       444   5 -3.008232E+05 -8.299195E+00 -9.447202E+03  6.234128E+04  5.278292E+03 -7.867521E+03
       444   6 -3.013821E+05 -2.070815E+03 -1.473721E+04  7.331888E+04  9.975922E+03 -2.530947E+03
       444   7 -4.947087E+05 -4.558961E+04 -4.337528E+04  7.345346E+04  8.910575E+03 -1.349936E+04
       444   8 -4.112883E+05 -2.616042E+04 -2.969321E+04  6.197708E+04  1.317002E+04 -7.858517E+03
       444   9 -3.289080E+05 -8.480491E+03 -1.923747E+04  7.245345E+04  1.742975E+04 -2.522115E+03
       444  10 -1.080297E+05  4.604577E+04  2.799756E+04  7.317895E+04 -1.665487E-09  1.702278E-09
       444  11 -1.903461E+05  2.614310E+04  1.079842E+04  6.270553E+04 -1.501649E-10  1.190387E-09
       444  12 -2.738553E+05  4.338845E+03 -1.023678E+04  7.418435E+04  2.167787E-09 -4.821881E-10
       444  13 -3.013874E+05  2.290377E+02 -7.688331E+03  7.331628E+04  1.033440E-09 -1.387578E-09
       444  14 -3.008232E+05 -8.373145E+00 -9.447371E+03  6.234131E+04 -6.250559E-10  1.625082E-09
       444  15 -3.013822E+05 -2.070849E+03 -1.473741E+04  7.331890E+04 -2.564260E-10  2.487964E-09
       444  16 -4.947088E+05 -4.558983E+04 -4.337578E+04  7.345355E+04  1.289278E-09  8.740529E-10
       444  17 -4.112885E+05 -2.616054E+04 -2.969365E+04  6.197717E+04  3.733220E-10  2.180390E-09
       444  18 -3.289084E+05 -8.480579E+03 -1.923806E+04  7.245349E+04 -2.074190E-09  8.328993E-10
       444  19 -1.080296E+05  4.604598E+04  2.799802E+04  7.317903E+04  7.752287E+03  1.351767E+04
       444  20 -1.903461E+05  2.614317E+04  1.079854E+04  6.270554E+04  2.614803E+03  7.876534E+03
       444  21 -2.738553E+05  4.338854E+03 -1.023676E+04  7.418435E+04 -2.521773E+03  2.539798E+03
       444  22 -3.013873E+05  2.292337E+02 -7.687987E+03  7.331627E+04 -5.804081E+02  1.350852E+04
       444  23 -3.008232E+05 -8.299195E+00 -9.447202E+03  6.234128E+04 -5.278292E+03  7.867521E+03
       444  24 -3.013821E+05 -2.070815E+03 -1.473721E+04  7.331888E+04 -9.975922E+03  2.530947E+03
       444  25 -4.947087E+05 -4.558961E+04 -4.337528E+04  7.345346E+04 -8.910575E+03  1.349936E+04
       444  26 -4.112883E+05 -2.616042E+04 -2.969321E+04  6.197708E+04 -1.317002E+04  7.858517E+03
       444  27 -3.289080E+05 -8.480491E+03 -1.923747E+04  7.245345E+04 -1.742975E+04  2.522115E+03
       445   1 -3.326863E+05 -6.846588E+03 -2.492983E+04  6.791855E+04  4.077318E+03  8.850334E+02
       445   2 -4.088741E+05 -3.625472E+04 -5.628563E+04  7.714397E+04  2.864428E+04  4.036490E+03
       445   3 -4.986737E+05 -1.071068E+05 -1.140174E+05  1.080274E+05  5.321304E+04  1.756321E+03
       445   4 -3.038555E+05  2.140938E+02 -1.854161E+04  7.324249E+04  1.248214E+04  8.950602E+02
       445   5 -2.977339E+05 -9.251216E+03 -3.224926E+04  6.244478E+04  2.923149E+04  4.036433E+03
       445   6 -3.038700E+05 -5.879920E+04 -6.689874E+04  7.330814E+04  4.598612E+04  1.745040E+03
       445   7 -2.750236E+05  7.274864E+03 -1.215315E+04  7.856669E+04  2.088735E+04  9.052309E+02
       445   8 -1.865817E+05  1.775229E+04 -8.213512E+03  4.774293E+04  2.981880E+04  4.036348E+03
       445   9 -1.090288E+05 -1.048981E+04 -1.978196E+04  3.857792E+04  3.875695E+04  1.734569E+03
       445  10 -3.326863E+05 -6.846594E+03 -2.492986E+04  6.791854E+04  1.083779E-09 -2.204495E-10
       445  11 -4.088750E+05 -3.625495E+04 -5.628720E+04  7.714387E+04  1.720490E-10  2.621206E-09
       445  12 -4.986767E+05 -1.071076E+05 -1.140227E+05  1.080273E+05  4.053453E-11  1.113810E-09
       445  13 -3.038556E+05  2.140510E+02 -1.854190E+04  7.324248E+04  4.383398E-10  2.270370E-10
       445  14 -2.977349E+05 -9.251463E+03 -3.225090E+04  6.244469E+04 -1.107587E-09  2.660061E-09
       445  15 -3.038722E+05 -5.879977E+04 -6.690272E+04  7.330808E+04  8.426577E-11 -3.096224E-11
       445  16 -2.750241E+05  7.274746E+03 -1.215397E+04  7.856667E+04 -1.370878E-09  4.395426E-10
       445  17 -1.865827E+05  1.775203E+04 -8.215214E+03  4.774283E+04 -1.741655E-10 -2.338758E-10
       445  18 -1.090304E+05 -1.049021E+04 -1.978479E+04  3.857787E+04 -1.037378E-10 -8.292806E-10
       445  19 -3.326863E+05 -6.846588E+03 -2.492983E+04  6.791855E+04 -4.077318E+03 -8.850334E+02
       445  20 -4.088741E+05 -3.625472E+04 -5.628563E+04  7.714397E+04 -2.864428E+04 -4.036490E+03
       445  21 -4.986737E+05 -1.071068E+05 -1.140174E+05  1.080274E+05 -5.321304E+04 -1.756321E+03
       445  22 -3.038555E+05  2.140938E+02 -1.854161E+04  7.324249E+04 -1.248214E+04 -8.950602E+02
       445  23 -2.977339E+05 -9.251216E+03 -3.224926E+04  6.244478E+04 -2.923149E+04 -4.036433E+03
       445  24 -3.038700E+05 -5.879920E+04 -6.689874E+04  7.330814E+04 -4.598612E+04 -1.745040E+03
       445  25 -2.750236E+05  7.274864E+03 -1.215315E+04  7.856669E+04 -2.088735E+04 -9.052309E+02
       445  26 -1.865817E+05  1.775229E+04 -8.213512E+03  4.774293E+04 -2.981880E+04 -4.036348E+03
       445  27 -1.090288E+05 -1.048981E+04 -1.978196E+04  3.857792E+04 -3.875695E+04 -1.734569E+03
       446   1 -1.092269E+05 -4.030184E+05 -1.037747E+05  1.044145E+05 -5.247641E+03 -2.130197E+04
       446   2 -8.189979E+04 -2.799091E+05 -6.489576E+04  9.075488E+04 -1.534585E+04 -6.798192E+03
       446   3 -5.303125E+04 -1.582356E+05 -3.507261E+04  1.087224E+05 -1.310400E+04  7.714813E+03
       446   4  6.456813E+03  6.357440E+04  7.969843E+03  1.084520E+05 -5.255018E+03  2.107992E+03
       446   5  9.029307E+02  6.277132E+04  6.396879E+03  9.263808E+04 -1.534669E+04 -1.149097E+03
       446   6 -2.516242E+01  6.360129E+04  8.106047E+03  1.084498E+05 -1.310150E+04 -4.400169E+03
       446   7  1.221250E+05  5.303680E+05  1.197011E+05  1.124925E+05 -5.262088E+03  2.553548E+04
       446   8  8.369820E+04  4.055630E+05  7.768320E+04  9.452234E+04 -1.534749E+04  4.503064E+03
       446   9  5.297806E+04  2.854858E+05  5.128292E+04  1.081772E+05 -1.309899E+04 -1.651938E+04
       446  10 -1.092270E+05 -4.030189E+05 -1.037756E+05  1.044144E+05  5.464327E-11  4.031587E-11
       446  11 -8.190006E+04 -2.799092E+05 -6.489629E+04  9.075480E+04 -9.995844E-11 -7.422177E-10
       446  12 -5.303145E+04 -1.582357E+05 -3.507304E+04  1.087224E+05  6.400854E-11  8.583143E-10
       446  13  6.456782E+03  6.357439E+04  7.969783E+03  1.084520E+05  2.385762E-10 -5.871474E-10
       446  14  9.026774E+02  6.277125E+04  6.396434E+03  9.263807E+04 -6.638820E-10 -9.734284E-10
       446  15 -2.535193E+01  6.360122E+04  8.105688E+03  1.084498E+05  1.240798E-10 -5.798487E-11
       446  16  1.221248E+05  5.303673E+05  1.196998E+05  1.124926E+05 -8.073251E-11  4.685807E-10
       446  17  8.369795E+04  4.055629E+05  7.768272E+04  9.452240E+04 -1.036967E-10 -7.591330E-10
       446  18  5.297780E+04  2.854854E+05  5.128209E+04  1.081770E+05 -5.082226E-11 -5.379606E-10
       446  19 -1.092269E+05 -4.030184E+05 -1.037747E+05  1.044145E+05  5.247641E+03  2.130197E+04
       446  20 -8.189979E+04 -2.799091E+05 -6.489576E+04  9.075488E+04  1.534585E+04  6.798192E+03
       446  21 -5.303125E+04 -1.582356E+05 -3.507261E+04  1.087224E+05  1.310400E+04 -7.714813E+03
       446  22  6.456813E+03  6.357440E+04  7.969843E+03  1.084520E+05  5.255018E+03 -2.107992E+03
       446  23  9.029307E+02  6.277132E+04  6.396879E+03  9.263808E+04  1.534669E+04  1.149097E+03
       446  24 -2.516242E+01  6.360129E+04  8.106047E+03  1.084498E+05  1.310150E+04  4.400169E+03
       446  25  1.221250E+05  5.303680E+05  1.197011E+05  1.124925E+05  5.262088E+03 -2.553548E+04
       446  26  8.369820E+04  4.055630E+05  7.768320E+04  9.452234E+04  1.534749E+04 -4.503064E+03
       446  27  5.297806E+04  2.854858E+05  5.128292E+04  1.081772E+05  1.309899E+04  1.651938E+04
       447   1 -3.308870E+04 -7.480291E+04 -1.714383E+04  1.075658E+05 -8.101280E+03  4.128894E+03
       447   2 -3.468614E+03  4.650039E+04  1.292055E+04  9.271054E+04 -1.083637E+03 -3.744232E+03
       447   3  2.994375E+04  1.698205E+05  4.906393E+04  1.101655E+05  5.989636E+03 -1.161900E+04
       447   4  1.624693E+01  6.369263E+04  9.885769E+03  1.086021E+05 -8.099593E+03 -5.934522E+03
       447   5  3.739755E+02  6.268441E+04  1.595012E+04  9.244745E+04 -1.081991E+03 -1.388875E+04
       447   6  4.539146E+03  6.369373E+04  2.815077E+04  1.086028E+05  5.991235E+03 -2.184315E+04
       447   7  3.312010E+04  2.022068E+05  3.691483E+04  1.096385E+05 -8.097939E+03 -1.600013E+04
       447   8  4.216605E+03  7.886890E+04  1.898007E+04  9.218434E+04 -1.080337E+03 -2.403353E+04
       447   9 -2.086607E+04 -4.242202E+04  7.237463E+03  1.070403E+05  5.992885E+03 -3.206559E+04
       447  10 -3.308877E+04 -7.480295E+04 -1.714399E+04  1.075659E+05 -1.419682E-11  3.987292E-11
       447  11 -3.468619E+03  4.650037E+04  1.292052E+04  9.271054E+04 -3.052161E-11 -6.661385E-10
       447  12  2.994367E+04  1.698203E+05  4.906361E+04  1.101656E+05 -5.957073E-11  4.690994E-10
       447  13  1.616705E+01  6.369257E+04  9.885579E+03  1.086020E+05  2.956525E-10 -3.622529E-10
       447  14  3.739225E+02  6.268420E+04  1.594976E+04  9.244743E+04  5.896206E-11 -7.661139E-10
       447  15  4.538980E+03  6.369321E+04  2.814981E+04  1.086029E+05  3.012691E-10 -1.377241E-10
       447  16  3.311996E+04  2.022065E+05  3.691423E+04  1.096384E+05 -1.813360E-10  2.905473E-10
       447  17  4.216449E+03  7.886828E+04  1.897898E+04  9.218432E+04 -3.734341E-10 -3.490796E-10
       447  18 -2.086639E+04 -4.242313E+04  7.235463E+03  1.070405E+05 -1.544257E-10 -2.704880E-10
       447  19 -3.308870E+04 -7.480291E+04 -1.714383E+04  1.075658E+05  8.101280E+03 -4.128894E+03
       447  20 -3.468614E+03  4.650039E+04  1.292055E+04  9.271054E+04  1.083637E+03  3.744232E+03
       447  21  2.994375E+04  1.698205E+05  4.906393E+04  1.101655E+05 -5.989636E+03  1.161900E+04
       447  22  1.624693E+01  6.369263E+04  9.885769E+03  1.086021E+05  8.099593E+03  5.934522E+03
       447  23  3.739755E+02  6.268441E+04  1.595012E+04  9.244745E+04  1.081991E+03  1.388875E+04
       447  24  4.539146E+03  6.369373E+04  2.815077E+04  1.086028E+05 -5.991235E+03  2.184315E+04
       447  25  3.312010E+04  2.022068E+05  3.691483E+04  1.096385E+05  8.097939E+03  1.600013E+04
       447  26  4.216605E+03  7.886890E+04  1.898007E+04  9.218434E+04  1.080337E+03  2.403353E+04
       447  27 -2.086607E+04 -4.242202E+04  7.237463E+03  1.070403E+05 -5.992885E+03  3.206559E+04
       448   1  4.518745E+04  2.582128E+05  7.342155E+04  9.754319E+04  1.099758E+04 -1.454122E+04
       448   2  9.405527E+04  3.668049E+05  1.297359E+05  1.225586E+05  1.365743E+04 -6.491435E+04
       448   3  2.273361E+05  5.031090E+05  2.399467E+05  1.792854E+05  4.775995E+03 -1.153029E+05
       448   4 -1.109918E+02  6.875899E+04  3.637490E+04  1.084602E+05  1.099959E+04 -2.666439E+04
       448   5  1.903395E+04  5.633045E+04  6.493614E+04  9.262606E+04  1.365999E+04 -6.040515E+04
       448   6  1.197256E+05  6.873168E+04  1.358623E+05  1.084954E+05  4.783116E+03 -9.415078E+04
       448   7 -4.541106E+04 -1.206598E+05 -6.728447E+02  1.193738E+05  1.100117E+04 -3.878394E+04
       448   8 -5.599015E+04 -2.540508E+05  1.316088E+02  6.270869E+04  1.366212E+04 -5.589817E+04
       448   9  1.212043E+04 -3.654612E+05  3.176896E+04  3.775519E+04  4.785423E+03 -7.301340E+04
       448  10  4.518726E+04  2.582126E+05  7.342092E+04  9.754331E+04 -1.707204E-10  2.535680E-10
       448  11  9.405394E+04  3.668003E+05  1.297276E+05  1.225593E+05 -3.919343E-10 -7.156958E-10
       448  12  2.273325E+05  5.030947E+05  2.399217E+05  1.792858E+05 -1.005597E-10  4.091448E-10
       448  13 -1.113126E+02  6.875820E+04  3.637334E+04  1.084604E+05 -4.188962E-10 -3.289903E-10
       448  14  1.903277E+04  5.632649E+04  6.492894E+04  9.262672E+04 -7.864544E-12 -7.620817E-10
       448  15  1.197232E+05  6.872215E+04  1.358456E+05  1.084958E+05 -1.844889E-10 -7.971667E-11
       448  16 -4.541160E+04 -1.206615E+05 -6.758997E+02  1.193742E+05 -2.924388E-10  1.178221E-10
       448  17 -5.599119E+04 -2.540543E+05  1.253837E+02  6.270931E+04 -3.182554E-10 -3.742896E-10
       448  18  1.211897E+04 -3.654669E+05  3.175889E+04  3.775547E+04 -2.427804E-10 -1.069339E-10
       448  19  4.518745E+04  2.582128E+05  7.342155E+04  9.754319E+04 -1.099758E+04  1.454122E+04
       448  20  9.405527E+04  3.668049E+05  1.297359E+05  1.225586E+05 -1.365743E+04  6.491435E+04
       448  21  2.273361E+05  5.031090E+05  2.399467E+05  1.792854E+05 -4.775995E+03  1.153029E+05
       448  22 -1.109918E+02  6.875899E+04  3.637490E+04  1.084602E+05 -1.099959E+04  2.666439E+04
       448  23  1.903395E+04  5.633045E+04  6.493614E+04  9.262606E+04 -1.365999E+04  6.040515E+04
       448  24  1.197256E+05  6.873168E+04  1.358623E+05  1.084954E+05 -4.783116E+03  9.415078E+04
       448  25 -4.541106E+04 -1.206598E+05 -6.728447E+02  1.193738E+05 -1.100117E+04  3.878394E+04
       448  26 -5.599015E+04 -2.540508E+05  1.316088E+02  6.270869E+04 -1.366212E+04  5.589817E+04
       448  27  1.212043E+04 -3.654612E+05  3.176896E+04  3.775519E+04 -4.785423E+03  7.301340E+04
       449   1  3.932890E+05  3.596469E+05  1.347325E+05  2.473410E+05  4.561787E+04  2.724059E+04
       449   2  3.677210E+05  3.027608E+05  9.287416E+04  2.426329E+05  3.373785E+04  2.364206E+03
       449   3  3.491847E+05  2.747953E+05  7.347059E+04  2.325340E+05  1.579186E+04 -1.443029E+04
       449   4  1.199447E+05  1.311819E+05  3.945867E+04  9.617807E+04  2.508795E+04  1.182138E+04
       449   5  1.114157E+05  1.068579E+05  1.900008E+04  1.072334E+05  2.485733E+04 -4.307147E+03
       449   6  1.073976E+05  1.089323E+05  1.089040E+04  1.128957E+05  1.855842E+04 -1.235324E+04
       449   7 -1.533235E+05 -9.722543E+04 -5.582524E+04 -5.490630E+04  4.569938E+03 -3.586764E+03
       449   8 -1.448163E+05 -8.899931E+04 -5.488039E+04 -2.809998E+04  1.598173E+04 -1.097441E+04
       449   9 -1.343197E+05 -5.689611E+04 -5.169336E+04 -6.688078E+03  2.132348E+04 -1.027728E+04
       449  10  3.932866E+05  3.596456E+05  1.347272E+05  2.473400E+05  5.363131E-11  1.023491E-10
       449  11  3.677197E+05  3.027605E+05  9.287201E+04  2.426328E+05 -6.002413E-10 -1.601065E-09
       449  12  3.491844E+05  2.747950E+05  7.346973E+04  2.325341E+05 -3.229600E-10 -1.333187E-09
       449  13  1.199440E+05  1.311816E+05  3.945723E+04  9.617783E+04  3.224877E-10  1.185017E-09
       449  14  1.114151E+05  1.068577E+05  1.899889E+04  1.072335E+05  2.620102E-10 -1.696813E-09
       449  15  1.073971E+05  1.089320E+05  1.088946E+04  1.128959E+05  3.129028E-10 -1.079887E-09
       449  16 -1.533236E+05 -9.722545E+04 -5.582530E+04 -5.490629E+04  1.134217E-10 -2.363109E-10
       449  17 -1.448166E+05 -8.899951E+04 -5.488110E+04 -2.809984E+04  4.096144E-10 -1.153151E-09
       449  18 -1.343202E+05 -5.689635E+04 -5.169441E+04 -6.687901E+03  3.901428E-11  1.070506E-09
       449  19  3.932890E+05  3.596469E+05  1.347325E+05  2.473410E+05 -4.561787E+04 -2.724059E+04
       449  20  3.677210E+05  3.027608E+05  9.287416E+04  2.426329E+05 -3.373785E+04 -2.364206E+03
       449  21  3.491847E+05  2.747953E+05  7.347059E+04  2.325340E+05 -1.579186E+04  1.443029E+04
       449  22  1.199447E+05  1.311819E+05  3.945867E+04  9.617807E+04 -2.508795E+04 -1.182138E+04
       449  23  1.114157E+05  1.068579E+05  1.900008E+04  1.072334E+05 -2.485733E+04  4.307147E+03
       449  24  1.073976E+05  1.089323E+05  1.089040E+04  1.128957E+05 -1.855842E+04  1.235324E+04
       449  25 -1.533235E+05 -9.722543E+04 -5.582524E+04 -5.490630E+04 -4.569938E+03  3.586764E+03
       449  26 -1.448163E+05 -8.899931E+04 -5.488039E+04 -2.809998E+04 -1.598173E+04  1.097441E+04
       449  27 -1.343197E+05 -5.689611E+04 -5.169336E+04 -6.688078E+03 -2.132348E+04  1.027728E+04
       450   1  3.269384E+05  2.658638E+05  6.628680E+04  2.230670E+05  1.518846E+04 -1.309094E+04
       450   2  3.046917E+05  2.412505E+05  5.541608E+04  2.088106E+05  1.127804E+04 -1.413122E+04
       450   3  2.741982E+05  2.269432E+05  4.730087E+04  1.970179E+05  6.934951E+03 -1.459605E+04
       450   4  1.068256E+05  1.093966E+05  8.627474E+03  1.115804E+05  1.652036E+04 -1.209137E+04
       450   5  1.107881E+05  1.038852E+05  5.449234E+03  1.106883E+05  1.344019E+04 -1.250757E+04
       450   6  1.063228E+05  1.085002E+05  4.306424E+03  1.122595E+05  9.927061E+03 -1.234832E+04
       450   7 -1.132325E+05 -4.704164E+04 -4.903601E+04  1.392935E+02  1.785164E+04 -1.109228E+04
       450   8 -8.307439E+04 -3.345878E+04 -4.452120E+04  1.260047E+04  1.560145E+04 -1.088459E+04
       450   9 -6.152327E+04 -9.927969E+03 -3.869114E+04  2.752610E+04  1.291813E+04 -1.010138E+04
       450  10  3.269381E+05  2.658636E+05  6.628605E+04  2.230671E+05  9.192181E-10 -1.062720E-09
       450  11  3.046915E+05  2.412502E+05  5.541547E+04  2.088107E+05  9.473582E-10 -2.600649E-10
       450  12  2.741981E+05  2.269430E+05  4.730038E+04  1.970180E+05  2.179164E-10  4.770423E-10
       450  13  1.068253E+05  1.093964E+05  8.626686E+03  1.115806E+05 -8.850309E-11 -1.276156E-09
       450  14  1.107878E+05  1.038850E+05  5.448601E+03  1.106884E+05  8.340269E-10 -7.488240E-10
       450  15  1.063226E+05  1.085000E+05  4.305952E+03  1.122596E+05  3.913798E-10 -1.809542E-09
       450  16 -1.132328E+05 -4.704186E+04 -4.903684E+04  1.394530E+02 -3.143806E-10  4.795672E-10
       450  17 -8.307468E+04 -3.345897E+04 -4.452188E+04  1.260060E+04  8.614834E-11 -2.657252E-09
       450  18 -6.152348E+04 -9.928124E+03 -3.869165E+04  2.752621E+04 -1.349726E-10 -6.535608E-11
       450  19  3.269384E+05  2.658638E+05  6.628680E+04  2.230670E+05 -1.518846E+04  1.309094E+04
       450  20  3.046917E+05  2.412505E+05  5.541608E+04  2.088106E+05 -1.127804E+04  1.413122E+04
       450  21  2.741982E+05  2.269432E+05  4.730087E+04  1.970179E+05 -6.934951E+03  1.459605E+04
       450  22  1.068256E+05  1.093966E+05  8.627474E+03  1.115804E+05 -1.652036E+04  1.209137E+04
       450  23  1.107881E+05  1.038852E+05  5.449234E+03  1.106883E+05 -1.344019E+04  1.250757E+04
       450  24  1.063228E+05  1.085002E+05  4.306424E+03  1.122595E+05 -9.927061E+03  1.234832E+04
       450  25 -1.132325E+05 -4.704164E+04 -4.903601E+04  1.392935E+02 -1.785164E+04  1.109228E+04
       450  26 -8.307439E+04 -3.345878E+04 -4.452120E+04  1.260047E+04 -1.560145E+04  1.088459E+04
       450  27 -6.152327E+04 -9.927969E+03 -3.869114E+04  2.752610E+04 -1.291813E+04  1.010138E+04
       451   1  2.560841E+05  2.145379E+05  4.251717E+04  1.880189E+05  5.515749E+03 -1.376785E+04
       451   2  2.340972E+05  1.912888E+05  3.670137E+04  1.733310E+05  1.907482E+03 -1.331464E+04
       451   3  2.032066E+05  1.775850E+05  3.264595E+04  1.614026E+05 -1.725963E+03 -1.282818E+04
       451   4  1.063004E+05  1.085210E+05  4.260505E+03  1.122107E+05  8.406000E+03 -1.159642E+04
       451   5  1.107736E+05  1.037790E+05  5.157494E+03  1.108144E+05  4.846047E+03 -1.110661E+04
       451   6  1.063309E+05  1.085712E+05  7.772852E+03  1.121767E+05  1.260771E+03 -1.058363E+04
       451   7 -4.345521E+04  2.519272E+03 -3.399709E+04  3.642487E+04  1.129527E+04 -9.425726E+03
       451   8 -1.253170E+04  1.627907E+04 -2.638720E+04  4.831268E+04  7.783803E+03 -8.899185E+03
       451   9  9.465965E+03  3.956312E+04 -1.710093E+04  6.295975E+04  4.246877E+03 -8.339558E+03
       451  10  2.560840E+05  2.145377E+05  4.251676E+04  1.880189E+05  1.910943E-09  2.315136E-10
       451  11  2.340972E+05  1.912886E+05  3.670103E+04  1.733310E+05 -4.956963E-11 -1.371952E-09
       451  12  2.032066E+05  1.775848E+05  3.264563E+04  1.614026E+05 -2.304870E-09 -2.826036E-09
       451  13  1.063003E+05  1.085209E+05  4.260119E+03  1.122108E+05 -7.540035E-12 -5.903347E-10
       451  14  1.107735E+05  1.037789E+05  5.157218E+03  1.108145E+05  7.498798E-10  3.985495E-09
       451  15  1.063309E+05  1.085710E+05  7.772639E+03  1.121767E+05 -3.280456E-11 -3.180620E-10
       451  16 -4.345537E+04  2.519143E+03 -3.399749E+04  3.642496E+04 -8.527969E-10 -1.066596E-09
       451  17 -1.253179E+04  1.627897E+04 -2.638746E+04  4.831274E+04  7.362610E-10  1.382354E-09
       451  18  9.465927E+03  3.956304E+04 -1.710109E+04  6.295978E+04  2.271336E-09  2.250690E-09
       451  19  2.560841E+05  2.145379E+05  4.251717E+04  1.880189E+05 -5.515749E+03  1.376785E+04
       451  20  2.340972E+05  1.912888E+05  3.670137E+04  1.733310E+05 -1.907482E+03  1.331464E+04
       451  21  2.032066E+05  1.775850E+05  3.264595E+04  1.614026E+05  1.725963E+03  1.282818E+04
       451  22  1.063004E+05  1.085210E+05  4.260505E+03  1.122107E+05 -8.406000E+03  1.159642E+04
       451  23  1.107736E+05  1.037790E+05  5.157494E+03  1.108144E+05 -4.846047E+03  1.110661E+04
       451  24  1.063309E+05  1.085712E+05  7.772852E+03  1.121767E+05 -1.260771E+03  1.058363E+04
       451  25 -4.345521E+04  2.519272E+03 -3.399709E+04  3.642487E+04 -1.129527E+04  9.425726E+03
       451  26 -1.253170E+04  1.627907E+04 -2.638720E+04  4.831268E+04 -7.783803E+03  8.899185E+03
       451  27  9.465965E+03  3.956312E+04 -1.710093E+04  6.295975E+04 -4.246877E+03  8.339558E+03
       452   1  1.848710E+05  1.655877E+05  3.002385E+04  1.528770E+05 -3.893156E+03 -1.255733E+04
       452   2  1.640185E+05  1.411268E+05  3.017120E+04  1.370658E+05 -1.194128E+04 -1.542879E+04
       452   3  1.366157E+05  1.291054E+05  3.659435E+04  1.230505E+05 -1.991499E+04 -1.839912E+04
       452   4  1.064869E+05  1.085559E+05  9.876691E+03  1.124655E+05 -8.962627E+02 -1.030499E+04
       452   5  1.106757E+05  1.039653E+05  1.671738E+04  1.103319E+05 -9.086465E+03 -1.328312E+04
       452   6  1.083448E+05  1.118448E+05  2.995756E+04  1.099935E+05 -1.720248E+04 -1.636037E+04
       452   7  2.810864E+04  5.152724E+04 -1.027133E+04  7.205941E+04  2.100168E+03 -8.053004E+03
       452   8  5.733611E+04  6.680545E+04  3.263396E+03  8.360064E+04 -6.231980E+03 -1.113769E+04
       452   9  8.007519E+04  9.458479E+04  2.332091E+04  9.693735E+04 -1.449018E+04 -1.432176E+04
       452  10  1.848710E+05  1.655875E+05  3.002353E+04  1.528769E+05  1.137545E-10  2.144536E-09
       452  11  1.640183E+05  1.411265E+05  3.017048E+04  1.370657E+05  6.635484E-10 -1.682975E-09
       452  12  1.366152E+05  1.291049E+05  3.659296E+04  1.230502E+05  2.229282E-10 -1.877933E-09
       452  13  1.064869E+05  1.085558E+05  9.876490E+03  1.124655E+05  4.335213E-10  2.378081E-09
       452  14  1.106755E+05  1.039651E+05  1.671690E+04  1.103318E+05 -1.118405E-10 -1.279933E-09
       452  15  1.083444E+05  1.118444E+05  2.995650E+04  1.099933E+05  5.706848E-10 -1.357076E-10
       452  16  2.810862E+04  5.152717E+04 -1.027146E+04  7.205943E+04 -2.374233E-10  7.528069E-11
       452  17  5.733604E+04  6.680530E+04  3.263090E+03  8.360058E+04 -9.603114E-10 -8.229615E-10
       452  18  8.007491E+04  9.458451E+04  2.332013E+04  9.693718E+04 -5.364604E-10  9.946937E-11
       452  19  1.848710E+05  1.655877E+05  3.002385E+04  1.528770E+05  3.893156E+03  1.255733E+04
       452  20  1.640185E+05  1.411268E+05  3.017120E+04  1.370658E+05  1.194128E+04  1.542879E+04
       452  21  1.366157E+05  1.291054E+05  3.659435E+04  1.230505E+05  1.991499E+04  1.839912E+04
       452  22  1.064869E+05  1.085559E+05  9.876691E+03  1.124655E+05  8.962627E+02  1.030499E+04
       452  23  1.106757E+05  1.039653E+05  1.671738E+04  1.103319E+05  9.086465E+03  1.328312E+04
       452  24  1.083448E+05  1.118448E+05  2.995756E+04  1.099935E+05  1.720248E+04  1.636037E+04
       452  25  2.810864E+04  5.152724E+04 -1.027133E+04  7.205941E+04 -2.100168E+03  8.053004E+03
       452  26  5.733611E+04  6.680545E+04  3.263396E+03  8.360064E+04  6.231980E+03  1.113769E+04
       452  27  8.007519E+04  9.458479E+04  2.332091E+04  9.693735E+04  1.449018E+04  1.432176E+04
       453   1  1.076357E+05  1.279950E+05  4.070549E+04  1.227352E+05 -2.517483E+04 -2.047216E+04
       453   2  1.269853E+05  7.108049E+04  6.395085E+04  7.983069E+04 -5.302320E+04 -3.928992E+04
       453   3  1.852588E+05  8.828175E+04  1.307835E+05  1.035987E+04 -7.980659E+04 -5.952169E+04
       453   4  1.100456E+05  1.106010E+05  3.882347E+04  1.149962E+05 -2.221246E+04 -1.824473E+04
       453   5  1.135452E+05  1.143620E+05  6.951442E+04  9.743084E+04 -5.210293E+04 -3.860248E+04
       453   6  1.564044E+05  1.926730E+05  1.455651E+05  5.329906E+04 -8.092739E+04 -6.037936E+04
       453   7  1.124557E+05  9.320770E+04  3.694158E+04  1.072571E+05 -1.925007E+04 -1.601746E+04
       453   8  1.001069E+05  1.576485E+05  7.507856E+04  1.150310E+05 -5.118269E+04 -3.791492E+04
       453   9  1.275602E+05  2.970923E+05  1.603498E+05  9.623826E+04 -8.204810E+04 -6.123741E+04
       453  10  1.076349E+05  1.279944E+05  4.070351E+04  1.227348E+05  5.767975E-10 -1.042988E-09
       453  11  1.269819E+05  7.107808E+04  6.394267E+04  7.982902E+04  1.272801E-10  1.155142E-09
       453  12  1.852510E+05  8.827623E+04  1.307649E+05  1.035604E+04  5.930106E-10 -5.130965E-10
       453  13  1.100450E+05  1.106005E+05  3.882192E+04  1.149958E+05  9.724700E-10 -2.092917E-09
       453  14  1.135419E+05  1.143597E+05  6.950652E+04  9.742922E+04 -7.407228E-10  2.965834E-10
       453  15  1.563964E+05  1.926673E+05  1.455459E+05  5.329513E+04 -3.050308E-10 -3.569835E-10
       453  16  1.124553E+05  9.320733E+04  3.694040E+04  1.072569E+05 -1.136076E-11  1.944151E-09
       453  17  1.001037E+05  1.576463E+05  7.507094E+04  1.150294E+05 -9.925804E-10 -4.434829E-10
       453  18  1.275520E+05  2.970864E+05  1.603301E+05  9.623422E+04 -1.074351E-09  4.515354E-10
       453  19  1.076357E+05  1.279950E+05  4.070549E+04  1.227352E+05  2.517483E+04  2.047216E+04
       453  20  1.269853E+05  7.108049E+04  6.395085E+04  7.983069E+04  5.302320E+04  3.928992E+04
       453  21  1.852588E+05  8.828175E+04  1.307835E+05  1.035987E+04  7.980659E+04  5.952169E+04
       453  22  1.100456E+05  1.106010E+05  3.882347E+04  1.149962E+05  2.221246E+04  1.824473E+04
       453  23  1.135452E+05  1.143620E+05  6.951442E+04  9.743084E+04  5.210293E+04  3.860248E+04
       453  24  1.564044E+05  1.926730E+05  1.455651E+05  5.329906E+04  8.092739E+04  6.037936E+04
       453  25  1.124557E+05  9.320770E+04  3.694158E+04  1.072571E+05  1.925007E+04  1.601746E+04
       453  26  1.001069E+05  1.576485E+05  7.507856E+04  1.150310E+05  5.118269E+04  3.791492E+04
       453  27  1.275602E+05  2.970923E+05  1.603498E+05  9.623826E+04  8.204810E+04  6.123741E+04
       454   1  4.022175E+05  1.050878E+05  9.620469E+04  6.271514E+04  9.637129E+03 -6.802008E+03
       454   2  3.146510E+05  1.025668E+05  7.595837E+04  6.059268E+04 -2.446054E+03 -2.135941E+04
       454   3  2.248981E+05  8.510938E+04  5.984449E+04  8.106235E+04 -1.454192E+04 -2.217771E+04
       454   4 -1.313670E+05 -2.696391E+04 -3.077346E+04  7.829657E+04 -2.120032E+04 -6.838251E+03
       454   5 -1.285379E+05 -4.192252E+03 -1.480036E+04  6.698282E+04 -1.349218E+04 -2.137450E+04
       454   6 -1.313403E+05  2.016740E+02 -8.438496E+03  7.826295E+04 -5.798053E+03 -2.216682E+04
       454   7 -6.646876E+05 -1.590347E+05 -1.577678E+05  9.386447E+04 -5.201139E+04 -6.876058E+03
       454   8 -5.715399E+05 -1.109634E+05 -1.055691E+05  7.336825E+04 -2.453057E+04 -2.138982E+04
       454   9 -4.874563E+05 -8.471346E+04 -7.672700E+04  7.546516E+04  2.940917E+03 -2.215601E+04
       454  10  4.022174E+05  1.050877E+05  9.620443E+04  6.271519E+04  2.508483E-09 -1.384726E-09
       454  11  3.146509E+05  1.025663E+05  7.595751E+04  6.059263E+04  2.861276E-10 -1.868004E-09
       454  12  2.248977E+05  8.510879E+04  5.984317E+04  8.106209E+04 -1.306287E-09 -1.495891E-09
       454  13 -1.313674E+05 -2.696408E+04 -3.077439E+04  7.829645E+04  3.344141E-10  1.712192E-09
       454  14 -1.285382E+05 -4.192791E+03 -1.480156E+04  6.698258E+04 -9.893031E-10 -4.369078E-10
       454  15 -1.313405E+05  2.011373E+02 -8.439483E+03  7.826285E+04  1.482401E-11 -2.229428E-09
       454  16 -6.646905E+05 -1.590354E+05 -1.577730E+05  9.386418E+04 -3.096668E-09  2.172891E-10
       454  17 -5.715406E+05 -1.109641E+05 -1.055710E+05  7.336782E+04 -1.160391E-10 -1.960983E-09
       454  18 -4.874565E+05 -8.471399E+04 -7.672794E+04  7.546521E+04  1.497554E-09 -1.950499E-09
       454  19  4.022175E+05  1.050878E+05  9.620469E+04  6.271514E+04 -9.637129E+03  6.802008E+03
       454  20  3.146510E+05  1.025668E+05  7.595837E+04  6.059268E+04  2.446054E+03  2.135941E+04
       454  21  2.248981E+05  8.510938E+04  5.984449E+04  8.106235E+04  1.454192E+04  2.217771E+04
       454  22 -1.313670E+05 -2.696391E+04 -3.077346E+04  7.829657E+04  2.120032E+04  6.838251E+03
       454  23 -1.285379E+05 -4.192252E+03 -1.480036E+04  6.698282E+04  1.349218E+04  2.137450E+04
       454  24 -1.313403E+05  2.016740E+02 -8.438496E+03  7.826295E+04  5.798053E+03  2.216682E+04
       454  25 -6.646876E+05 -1.590347E+05 -1.577678E+05  9.386447E+04  5.201139E+04  6.876058E+03
       454  26 -5.715399E+05 -1.109634E+05 -1.055691E+05  7.336825E+04  2.453057E+04  2.138982E+04
       454  27 -4.874563E+05 -8.471346E+04 -7.672700E+04  7.546516E+04 -2.940917E+03  2.215601E+04
       455   1  1.655190E+05  6.960462E+04  4.985889E+04  7.837501E+04 -1.098055E+04 -1.858952E+04
       455   2  7.712476E+04  4.929425E+04  3.477564E+04  6.685384E+04 -1.027684E+04 -1.373985E+04
       455   3 -1.156164E+04  2.842967E+04  1.907791E+04  7.873504E+04 -9.575380E+03 -7.956640E+03
       455   4 -1.301998E+05 -8.392920E+02 -6.655516E+03  7.844859E+04 -4.668011E+03 -1.858142E+04
       455   5 -1.299271E+05  1.036396E+02 -4.121473E+03  6.674636E+04 -2.621069E+03 -1.372926E+04
       455   6 -1.301878E+05  2.592864E+02 -3.135238E+03  7.844702E+04 -5.762806E+02 -7.943376E+03
       455   7 -4.258343E+05 -7.128833E+04 -6.317375E+04  7.852210E+04  1.641589E+03 -1.857333E+04
       455   8 -3.369375E+05 -4.908943E+04 -4.302023E+04  6.663890E+04  5.032210E+03 -1.371867E+04
       455   9 -2.488001E+05 -2.791187E+04 -2.534869E+04  7.815905E+04  8.421143E+03 -7.930119E+03
       455  10  1.655188E+05  6.960421E+04  4.985802E+04  7.837485E+04 -5.648462E-09  6.202080E-10
       455  11  7.712459E+04  4.929402E+04  3.477509E+04  6.685373E+04  7.303172E-09  2.206595E-10
       455  12 -1.156175E+04  2.842958E+04  1.907762E+04  7.873498E+04  1.842641E-08  2.334140E-09
       455  13 -1.301999E+05 -8.396685E+02 -6.656206E+03  7.844852E+04  8.136168E-10 -9.324911E-10
       455  14 -1.299272E+05  1.034354E+02 -4.121840E+03  6.674633E+04 -8.414545E-10  3.912393E-10
       455  15 -1.301878E+05  2.592186E+02 -3.135357E+03  7.844701E+04 -1.315008E-10  1.687704E-09
       455  16 -4.258344E+05 -7.128870E+04 -6.317440E+04  7.852213E+04  5.188974E-09  4.327389E-10
       455  17 -3.369376E+05 -4.908964E+04 -4.302064E+04  6.663896E+04 -6.693163E-09 -3.643340E-09
       455  18 -2.488002E+05 -2.791195E+04 -2.534894E+04  7.815910E+04 -1.866865E-08  2.667062E-10
       455  19  1.655190E+05  6.960462E+04  4.985889E+04  7.837501E+04  1.098055E+04  1.858952E+04
       455  20  7.712476E+04  4.929425E+04  3.477564E+04  6.685384E+04  1.027684E+04  1.373985E+04
       455  21 -1.156164E+04  2.842967E+04  1.907791E+04  7.873504E+04  9.575380E+03  7.956640E+03
       455  22 -1.301998E+05 -8.392920E+02 -6.655516E+03  7.844859E+04  4.668011E+03  1.858142E+04
       455  23 -1.299271E+05  1.036396E+02 -4.121473E+03  6.674636E+04  2.621069E+03  1.372926E+04
       455  24 -1.301878E+05  2.592864E+02 -3.135238E+03  7.844702E+04  5.762806E+02  7.943376E+03
       455  25 -4.258343E+05 -7.128833E+04 -6.317375E+04  7.852210E+04 -1.641589E+03  1.857333E+04
       455  26 -3.369375E+05 -4.908943E+04 -4.302023E+04  6.663890E+04 -5.032210E+03  1.371867E+04
       455  27 -2.488001E+05 -2.791187E+04 -2.534869E+04  7.815905E+04 -8.421143E+03  7.930119E+03
       456   1 -7.155554E+04  1.410803E+04  7.643250E+03  7.842449E+04 -8.983673E+03 -4.264684E+03
       456   2 -1.597870E+05 -7.007979E+03 -9.427832E+03  6.681567E+04 -6.371865E+03  1.650003E+03
       456   3 -2.486184E+05 -2.888251E+04 -2.841049E+04  7.863009E+04 -3.759538E+03  6.962495E+03
       456   4 -1.301690E+05  2.503524E+02 -3.026355E+03  7.845159E+04 -3.963215E+01 -4.251314E+03
       456   5 -1.299408E+05  1.433157E+02 -3.520900E+03  6.674060E+04  1.704565E+03  1.661976E+03
       456   6 -1.301708E+05 -5.715344E+02 -5.324772E+03  7.845279E+04  3.449652E+03  6.973103E+03
       456   7 -1.887789E+05 -1.360747E+04 -1.369580E+04  7.847868E+04  8.903587E+03 -4.237942E+03
       456   8 -1.000936E+05  7.294591E+03  2.386233E+03  6.666553E+04  9.781376E+03  1.673947E+03
       456   9 -1.170960E+04  2.773863E+04  1.776047E+04  7.827545E+04  1.066019E+04  6.983705E+03
       456  10 -7.155563E+04  1.410798E+04  7.643064E+03  7.842446E+04 -2.305261E-08  4.470626E-09
       456  11 -1.597870E+05 -7.007992E+03 -9.427913E+03  6.681568E+04 -8.743976E-09  6.930400E-10
       456  12 -2.486184E+05 -2.888257E+04 -2.841061E+04  7.863011E+04  7.756523E-09  2.263694E-09
       456  13 -1.301690E+05  2.503330E+02 -3.026389E+03  7.845159E+04  3.448349E-10  2.786492E-09
       456  14 -1.299408E+05  1.433120E+02 -3.520911E+03  6.674060E+04 -4.661318E-10  1.499679E-09
       456  15 -1.301708E+05 -5.715898E+02 -5.324886E+03  7.845277E+04  2.676460E-10 -2.058235E-09
       456  16 -1.887790E+05 -1.360751E+04 -1.369598E+04  7.847871E+04  2.260628E-08  2.152426E-09
       456  17 -1.000937E+05  7.294562E+03  2.386048E+03  6.666552E+04  9.040914E-09  3.660241E-10
       456  18 -1.170974E+04  2.773854E+04  1.776017E+04  7.827539E+04 -7.629595E-09 -3.896566E-09
       456  19 -7.155554E+04  1.410803E+04  7.643250E+03  7.842449E+04  8.983673E+03  4.264684E+03
       456  20 -1.597870E+05 -7.007979E+03 -9.427832E+03  6.681567E+04  6.371865E+03 -1.650003E+03
       456  21 -2.486184E+05 -2.888251E+04 -2.841049E+04  7.863009E+04  3.759538E+03 -6.962495E+03
       456  22 -1.301690E+05  2.503524E+02 -3.026355E+03  7.845159E+04  3.963215E+01  4.251314E+03
       456  23 -1.299408E+05  1.433157E+02 -3.520900E+03  6.674060E+04 -1.704565E+03 -1.661976E+03
       456  24 -1.301708E+05 -5.715344E+02 -5.324772E+03  7.845279E+04 -3.449652E+03 -6.973103E+03
       456  25 -1.887789E+05 -1.360747E+04 -1.369580E+04  7.847868E+04 -8.903587E+03  4.237942E+03
       456  26 -1.000936E+05  7.294591E+03  2.386233E+03  6.666553E+04 -9.781376E+03 -1.673947E+03
       456  27 -1.170960E+04  2.773863E+04  1.776047E+04  7.827545E+04 -1.066019E+04 -6.983705E+03
       457   1 -3.098171E+05 -4.249172E+04 -4.142697E+04  7.625740E+04 -4.517078E+03  1.058400E+04
       457   2 -3.950555E+05 -6.745595E+04 -6.675839E+04  7.188340E+04  1.499473E+04  1.206477E+04
       457   3 -4.870264E+05 -1.089522E+05 -1.089456E+05  9.038171E+04  3.451545E+04  4.131544E+03
       457   4 -1.310462E+05  2.337992E+02 -6.650010E+03  7.832541E+04  4.349804E+03  1.059675E+04
       457   5 -1.288632E+05 -3.163351E+03 -1.148400E+04  6.690340E+04  1.031403E+04  1.205768E+04
       457   6 -1.310626E+05 -2.073504E+04 -2.375961E+04  7.835408E+04  1.628992E+04  4.106010E+03
       457   7  4.775551E+04  4.295746E+04  2.812573E+04  8.039401E+04  1.321918E+04  1.060955E+04
       457   8  1.373963E+05  6.112485E+04  4.378662E+04  6.192120E+04  5.631355E+03  1.205067E+04
       457   9  2.250183E+05  6.747367E+04  6.141881E+04  6.631947E+04 -1.946026E+03  4.081191E+03
       457  10 -3.098171E+05 -4.249184E+04 -4.142722E+04  7.625744E+04 -2.481526E-09  2.068142E-09
       457  11 -3.950557E+05 -6.745617E+04 -6.675908E+04  7.188326E+04 -1.143433E-09 -4.939563E-10
       457  12 -4.870276E+05 -1.089525E+05 -1.089479E+05  9.038160E+04  1.238986E-10 -1.084282E-11
       457  13 -1.310463E+05  2.336735E+02 -6.650257E+03  7.832537E+04  6.250091E-10  2.167074E-09
       457  14 -1.288634E+05 -3.163536E+03 -1.148447E+04  6.690330E+04 -3.948389E-10 -3.206459E-09
       457  15 -1.310629E+05 -2.073513E+04 -2.376014E+04  7.835402E+04  2.072196E-10  1.487321E-09
       457  16  4.775529E+04  4.295729E+04  2.812519E+04  8.039389E+04  1.822089E-09  4.614104E-11
       457  17  1.373962E+05  6.112469E+04  4.378628E+04  6.192115E+04  1.826780E-09  2.826863E-10
       457  18  2.250183E+05  6.747365E+04  6.141877E+04  6.631947E+04 -1.150420E-10 -3.491905E-10
       457  19 -3.098171E+05 -4.249172E+04 -4.142697E+04  7.625740E+04  4.517078E+03 -1.058400E+04
       457  20 -3.950555E+05 -6.745595E+04 -6.675839E+04  7.188340E+04 -1.499473E+04 -1.206477E+04
       457  21 -4.870264E+05 -1.089522E+05 -1.089456E+05  9.038171E+04 -3.451545E+04 -4.131544E+03
       457  22 -1.310462E+05  2.337992E+02 -6.650010E+03  7.832541E+04 -4.349804E+03 -1.059675E+04
       457  23 -1.288632E+05 -3.163351E+03 -1.148400E+04  6.690340E+04 -1.031403E+04 -1.205768E+04
       457  24 -1.310626E+05 -2.073504E+04 -2.375961E+04  7.835408E+04 -1.628992E+04 -4.106010E+03
       457  25  4.775551E+04  4.295746E+04  2.812573E+04  8.039401E+04 -1.321918E+04 -1.060955E+04
       457  26  1.373963E+05  6.112485E+04  4.378662E+04  6.192120E+04 -5.631355E+03 -1.205067E+04
       457  27  2.250183E+05  6.747367E+04  6.141881E+04  6.631947E+04  1.946026E+03 -4.081191E+03
       458   1 -2.065934E+05 -8.584281E+05 -2.042160E+05  1.861811E+05 -7.859889E+03 -6.111538E+04
       458   2 -1.297699E+05 -6.640791E+05 -1.226529E+05  1.510447E+05 -2.295568E+04 -2.619021E+04
       458   3 -7.871493E+04 -4.805471E+05 -7.027635E+04  1.647490E+05 -1.933077E+04  8.764694E+03
       458   4 -3.135453E+04 -1.521127E+05 -3.493236E+04  1.675905E+05 -7.881954E+03 -2.598226E+04
       458   5 -5.232339E+03 -1.489982E+05 -1.535294E+04  1.431802E+05 -2.295887E+04 -1.797598E+04
       458   6 -1.873794E+02 -1.520482E+05 -6.240599E+03  1.676116E+05 -1.932096E+04 -9.951560E+03
       458   7  1.438501E+05  5.546635E+05  1.343208E+05  1.489786E+05 -7.906118E+03  9.190709E+03
       458   8  1.192886E+05  3.663343E+05  9.193271E+04  1.353090E+05 -2.296226E+04 -9.755028E+03
       458   9  7.833391E+04  1.765551E+05  5.779134E+04  1.704758E+05 -1.931131E+04 -2.867750E+04
       458  10 -2.065945E+05 -8.584321E+05 -2.042232E+05  1.861807E+05 -2.573491E-10 -7.251819E-10
       458  11 -1.297707E+05 -6.640800E+05 -1.226552E+05  1.510442E+05 -2.879879E-10  1.533134E-09
       458  12 -7.871535E+04 -4.805473E+05 -7.027720E+04  1.647491E+05  7.070513E-10  7.402060E-10
       458  13 -3.135478E+04 -1.521135E+05 -3.493374E+04  1.675903E+05  3.325529E-10  2.136685E-11
       458  14 -5.232992E+03 -1.489987E+05 -1.535454E+04  1.431798E+05 -8.861179E-10  1.550079E-09
       458  15 -1.878067E+02 -1.520484E+05 -6.241486E+03  1.676115E+05  6.077101E-10 -6.297879E-11
       458  16  1.438500E+05  5.546634E+05  1.343205E+05  1.489786E+05 -1.238173E-10  1.132229E-09
       458  17  1.192880E+05  3.663340E+05  9.193154E+04  1.353088E+05 -4.236369E-10 -2.702785E-09
       458  18  7.833329E+04  1.765541E+05  5.778909E+04  1.704754E+05 -1.570267E-10 -1.676409E-09
       458  19 -2.065934E+05 -8.584281E+05 -2.042160E+05  1.861811E+05  7.859889E+03  6.111538E+04
       458  20 -1.297699E+05 -6.640791E+05 -1.226529E+05  1.510447E+05  2.295568E+04  2.619021E+04
       458  21 -7.871493E+04 -4.805471E+05 -7.027635E+04  1.647490E+05  1.933077E+04 -8.764694E+03
       458  22 -3.135453E+04 -1.521127E+05 -3.493236E+04  1.675905E+05  7.881954E+03  2.598226E+04
       458  23 -5.232339E+03 -1.489982E+05 -1.535294E+04  1.431802E+05  2.295887E+04  1.797598E+04
       458  24 -1.873794E+02 -1.520482E+05 -6.240599E+03  1.676116E+05  1.932096E+04  9.951560E+03
       458  25  1.438501E+05  5.546635E+05  1.343208E+05  1.489786E+05  7.906118E+03 -9.190709E+03
       458  26  1.192886E+05  3.663343E+05  9.193271E+04  1.353090E+05  2.296226E+04  9.755028E+03
       458  27  7.833391E+04  1.765551E+05  5.779134E+04  1.704758E+05  1.931131E+04  2.867750E+04
       459   1 -4.927949E+04 -3.503501E+05 -4.204772E+04  1.678346E+05 -1.159903E+04  6.249922E+03
       459   2 -2.666768E+03 -1.617426E+05  1.657037E+03  1.431063E+05 -7.345674E+02  4.464563E+03
       459   3  4.475099E+04  2.743051E+04  4.674526E+04  1.682827E+05  1.016715E+04  2.678592E+03
       459   4 -1.487916E+03 -1.505447E+05 -2.953184E+03  1.678430E+05 -1.159178E+04 -9.362551E+03
       459   5 -7.138196E+01 -1.508147E+05  3.703012E+03  1.428916E+05 -7.273259E+02 -1.120293E+04
       459   6  2.162122E+03 -1.505425E+05  1.178272E+04  1.678447E+05  1.017430E+04 -1.304340E+04
       459   7  4.630138E+04  4.929958E+04  3.614035E+04  1.678514E+05 -1.158454E+04 -2.497994E+04
       459   8  2.524129E+03 -1.398861E+05  5.749904E+03  1.426768E+05 -7.200735E+02 -2.687069E+04
       459   9 -4.042853E+04 -3.284847E+05 -2.318042E+04  1.674067E+05  1.018148E+04 -2.876098E+04
       459  10 -4.927964E+04 -3.503502E+05 -4.204805E+04  1.678347E+05  2.014736E-10 -5.585573E-10
       459  11 -2.666774E+03 -1.617426E+05  1.656999E+03  1.431063E+05  3.276822E-10  1.161522E-09
       459  12  4.475088E+04  2.743047E+04  4.674505E+04  1.682827E+05  2.016545E-10  9.847719E-10
       459  13 -1.488084E+03 -1.505448E+05 -2.953602E+03  1.678429E+05  4.867002E-10  2.324390E-12
       459  14 -7.141623E+01 -1.508148E+05  3.702775E+03  1.428916E+05 -7.685962E-10  6.865334E-10
       459  15  2.161965E+03 -1.505428E+05  1.178221E+04  1.678448E+05  7.972615E-10  1.462785E-10
       459  16  4.630107E+04  4.929888E+04  3.613893E+04  1.678512E+05 -1.141684E-10  7.377075E-10
       459  17  2.523935E+03 -1.398869E+05  5.748546E+03  1.426768E+05 -4.690721E-10 -1.284383E-09
       459  18 -4.042886E+04 -3.284856E+05 -2.318217E+04  1.674070E+05 -6.378613E-10 -1.319072E-09
       459  19 -4.927949E+04 -3.503501E+05 -4.204772E+04  1.678346E+05  1.159903E+04 -6.249922E+03
       459  20 -2.666768E+03 -1.617426E+05  1.657037E+03  1.431063E+05  7.345674E+02 -4.464563E+03
       459  21  4.475099E+04  2.743051E+04  4.674526E+04  1.682827E+05 -1.016715E+04 -2.678592E+03
       459  22 -1.487916E+03 -1.505447E+05 -2.953184E+03  1.678430E+05  1.159178E+04  9.362551E+03
       459  23 -7.138196E+01 -1.508147E+05  3.703012E+03  1.428916E+05  7.273259E+02  1.120293E+04
       459  24  2.162122E+03 -1.505425E+05  1.178272E+04  1.678447E+05 -1.017430E+04  1.304340E+04
       459  25  4.630138E+04  4.929958E+04  3.614035E+04  1.678514E+05  1.158454E+04  2.497994E+04
       459  26  2.524129E+03 -1.398861E+05  5.749904E+03  1.426768E+05  7.200735E+02  2.687069E+04
       459  27 -4.042853E+04 -3.284847E+05 -2.318042E+04  1.674067E+05 -1.018148E+04  2.876098E+04
       460   1  7.306595E+04  1.588074E+05  7.645684E+04  1.618974E+05  1.789891E+04  3.618294E+03
       460   2  1.286477E+05  3.393387E+05  1.347791E+05  1.579424E+05  2.184003E+04 -3.913797E+04
       460   3  2.297427E+05  5.369824E+05  2.323339E+05  2.029124E+05  7.613193E+03 -8.192459E+04
       460   4 -2.571069E+02 -1.478860E+05  1.656571E+04  1.676175E+05  1.790847E+04 -1.510536E+04
       460   5  9.395529E+03 -1.541902E+05  3.187354E+04  1.431771E+05  2.183788E+04 -3.168010E+04
       460   6  6.003937E+04 -1.479408E+05  6.824964E+04  1.676580E+05  7.595566E+03 -4.827177E+04
       460   7 -7.358551E+04 -4.544884E+05 -4.332859E+04  1.733346E+05  1.791768E+04 -3.381997E+04
       460   8 -1.098713E+05 -6.474880E+05 -7.104515E+04  1.284238E+05  2.183537E+04 -2.422806E+04
       460   9 -1.096927E+05 -8.324293E+05 -9.586288E+04  1.324426E+05  7.574114E+03 -1.465587E+04
       460  10  7.306560E+04  1.588073E+05  7.645621E+04  1.618974E+05  5.220890E-10 -9.044346E-10
       460  11  1.286467E+05  3.393369E+05  1.347754E+05  1.579431E+05 -3.305079E-10  9.037160E-10
       460  12  2.297408E+05  5.369751E+05  2.323212E+05  2.029129E+05 -3.249479E-10  7.567429E-10
       460  13 -2.575126E+02 -1.478864E+05  1.656467E+04  1.676177E+05 -1.050158E-10  2.395818E-10
       460  14  9.394748E+03 -1.541914E+05  3.187076E+04  1.431777E+05 -1.016216E-09  1.411673E-09
       460  15  6.003868E+04 -1.479433E+05  6.824516E+04  1.676583E+05 -5.348458E-10  4.055310E-10
       460  16 -7.358616E+04 -4.544897E+05 -4.333134E+04  1.733351E+05 -5.170047E-10  1.351438E-09
       460  17 -1.098720E+05 -6.474887E+05 -7.104715E+04  1.284242E+05 -5.256581E-10 -1.767093E-09
       460  18 -1.096928E+05 -8.324295E+05 -9.586339E+04  1.324427E+05 -1.516805E-10 -1.560409E-09
       460  19  7.306595E+04  1.588074E+05  7.645684E+04  1.618974E+05 -1.789891E+04 -3.618294E+03
       460  20  1.286477E+05  3.393387E+05  1.347791E+05  1.579424E+05 -2.184003E+04  3.913797E+04
       460  21  2.297427E+05  5.369824E+05  2.323339E+05  2.029124E+05 -7.613193E+03  8.192459E+04
       460  22 -2.571069E+02 -1.478860E+05  1.656571E+04  1.676175E+05 -1.790847E+04  1.510536E+04
       460  23  9.395529E+03 -1.541902E+05  3.187354E+04  1.431771E+05 -2.183788E+04  3.168010E+04
       460  24  6.003937E+04 -1.479408E+05  6.824964E+04  1.676580E+05 -7.595566E+03  4.827177E+04
       460  25 -7.358551E+04 -4.544884E+05 -4.332859E+04  1.733346E+05 -1.791768E+04  3.381997E+04
       460  26 -1.098713E+05 -6.474880E+05 -7.104515E+04  1.284238E+05 -2.183537E+04  2.422806E+04
       460  27 -1.096927E+05 -8.324293E+05 -9.586288E+04  1.324426E+05 -7.574114E+03  1.465587E+04
       461   1  3.407710E+05  3.180914E+05  1.167121E+05  2.248705E+05  5.091117E+04  3.491273E+04
       461   2  3.273481E+05  2.498489E+05  6.957060E+04  2.351249E+05  3.484199E+04  1.516308E+04
       461   3  3.350901E+05  2.187290E+05  4.952300E+04  2.321631E+05  1.589281E+04 -7.522523E+02
       461   4  2.372901E+05  1.830105E+05  7.143546E+04  1.453538E+05  4.108421E+04  2.752170E+04
       461   5  2.159321E+05  1.449153E+05  3.425248E+04  1.671012E+05  3.053951E+04  1.192753E+04
       461   6  2.145440E+05  1.427462E+05  1.936952E+04  1.756310E+05  1.711451E+04  1.660313E+02
       461   7  1.338243E+05  4.795785E+04  2.615835E+04  6.585806E+04  3.125954E+04  2.013422E+04
       461   8  1.045312E+05  3.999700E+04 -1.066615E+03  9.909388E+04  2.623809E+04  8.693120E+03
       461   9  9.401441E+04  6.676985E+04 -1.078504E+04  1.191108E+05  1.833590E+04  1.084107E+03
       461  10  3.407679E+05  3.180894E+05  1.167049E+05  2.248691E+05 -7.503237E-10 -1.030480E-09
       461  11  3.273468E+05  2.498483E+05  6.956789E+04  2.351245E+05 -5.817578E-10 -8.631142E-10
       461  12  3.350898E+05  2.187290E+05  4.952253E+04  2.321631E+05 -6.363387E-10 -4.336477E-10
       461  13  2.372881E+05  1.830093E+05  7.143086E+04  1.453529E+05  2.347337E-10 -2.079625E-09
       461  14  2.159311E+05  1.449149E+05  3.425046E+04  1.671009E+05 -3.690345E-10  3.019514E-09
       461  15  2.145436E+05  1.427461E+05  1.936897E+04  1.756310E+05  4.200079E-10  2.312670E-11
       461  16  1.338232E+05  4.795715E+04  2.615575E+04  6.585755E+04  9.113412E-10 -2.189962E-10
       461  17  1.045304E+05  3.999673E+04 -1.068050E+03  9.909369E+04  5.099697E-10  1.646833E-09
       461  18  9.401405E+04  6.676976E+04 -1.078567E+04  1.191108E+05  9.097560E-11  6.185428E-10
       461  19  3.407710E+05  3.180914E+05  1.167121E+05  2.248705E+05 -5.091117E+04 -3.491273E+04
       461  20  3.273481E+05  2.498489E+05  6.957060E+04  2.351249E+05 -3.484199E+04 -1.516308E+04
       461  21  3.350901E+05  2.187290E+05  4.952300E+04  2.321631E+05 -1.589281E+04  7.522523E+02
       461  22  2.372901E+05  1.830105E+05  7.143546E+04  1.453538E+05 -4.108421E+04 -2.752170E+04
       461  23  2.159321E+05  1.449153E+05  3.425248E+04  1.671012E+05 -3.053951E+04 -1.192753E+04
       461  24  2.145440E+05  1.427462E+05  1.936952E+04  1.756310E+05 -1.711451E+04 -1.660313E+02
       461  25  1.338243E+05  4.795785E+04  2.615835E+04  6.585806E+04 -3.125954E+04 -2.013422E+04
       461  26  1.045312E+05  3.999700E+04 -1.066615E+03  9.909388E+04 -2.623809E+04 -8.693120E+03
       461  27  9.401441E+04  6.676985E+04 -1.078504E+04  1.191108E+05 -1.833590E+04 -1.084107E+03
       462   1  3.198298E+05  2.199383E+05  4.309825E+04  2.274660E+05  1.412125E+04 -1.289683E+03
       462   2  3.095379E+05  2.073144E+05  3.350401E+04  2.216170E+05  9.758342E+03 -3.766498E+03
       462   3  2.966068E+05  2.004823E+05  2.764852E+04  2.165436E+05  5.190224E+03 -5.970407E+03
       462   4  2.136688E+05  1.434071E+05  1.513945E+04  1.731958E+05  1.466275E+04 -8.828539E+02
       462   5  2.145719E+05  1.397415E+05  8.996266E+03  1.734193E+05  1.069378E+04 -3.063416E+03
       462   6  2.127509E+05  1.417823E+05  6.250340E+03  1.744184E+05  6.519546E+03 -4.971088E+03
       462   7  1.075189E+05  6.688179E+04 -1.282086E+04  1.189356E+05  1.520412E+04 -4.761144E+02
       462   8  1.196162E+05  7.217412E+04 -1.551221E+04  1.252301E+05  1.162902E+04 -2.360480E+03
       462   9  1.289043E+05  8.308735E+04 -1.514795E+04  1.323002E+05  7.848606E+03 -3.971963E+03
       462  10  3.198296E+05  2.199382E+05  4.309787E+04  2.274660E+05  1.017254E-09  2.441033E-09
       462  11  3.095377E+05  2.073144E+05  3.350380E+04  2.216170E+05 -3.330076E-09 -2.542705E-09
       462  12  2.966068E+05  2.004823E+05  2.764840E+04  2.165437E+05 -2.799007E-09 -7.991514E-10
       462  13  2.136686E+05  1.434071E+05  1.513905E+04  1.731958E+05  4.081501E-10  2.556014E-09
       462  14  2.145718E+05  1.397415E+05  8.996033E+03  1.734193E+05 -1.108882E-10 -1.233874E-09
       462  15  2.127509E+05  1.417823E+05  6.250214E+03  1.744184E+05  3.959699E-09  2.229269E-09
       462  16  1.075186E+05  6.688172E+04 -1.282130E+04  1.189356E+05 -2.649275E-09 -5.278664E-10
       462  17  1.196160E+05  7.217407E+04 -1.551247E+04  1.252302E+05  3.072878E-09  2.928122E-09
       462  18  1.289042E+05  8.308731E+04 -1.514810E+04  1.323003E+05  9.610152E-09  8.804941E-09
       462  19  3.198298E+05  2.199383E+05  4.309825E+04  2.274660E+05 -1.412125E+04  1.289683E+03
       462  20  3.095379E+05  2.073144E+05  3.350401E+04  2.216170E+05 -9.758342E+03  3.766498E+03
       462  21  2.966068E+05  2.004823E+05  2.764852E+04  2.165436E+05 -5.190224E+03  5.970407E+03
       462  22  2.136688E+05  1.434071E+05  1.513945E+04  1.731958E+05 -1.466275E+04  8.828539E+02
       462  23  2.145719E+05  1.397415E+05  8.996266E+03  1.734193E+05 -1.069378E+04  3.063416E+03
       462  24  2.127509E+05  1.417823E+05  6.250340E+03  1.744184E+05 -6.519546E+03  4.971088E+03
       462  25  1.075189E+05  6.688179E+04 -1.282086E+04  1.189356E+05 -1.520412E+04  4.761144E+02
       462  26  1.196162E+05  7.217412E+04 -1.551221E+04  1.252301E+05 -1.162902E+04  2.360480E+03
       462  27  1.289043E+05  8.308735E+04 -1.514795E+04  1.323002E+05 -7.848606E+03  3.971963E+03
       463   1  2.882537E+05  1.952299E+05  2.496144E+04  2.125220E+05  3.987836E+03 -6.032354E+03
       463   2  2.783026E+05  1.848770E+05  2.207723E+04  2.059890E+05  1.006251E+03 -6.869526E+03
       463   3  2.646170E+05  1.789595E+05  2.113629E+04  2.007322E+05 -1.988192E+03 -7.689662E+03
       463   4  2.126965E+05  1.418011E+05  5.670268E+03  1.743031E+05  5.268379E+03 -5.069661E+03
       463   5  2.145744E+05  1.395995E+05  5.769959E+03  1.736552E+05  2.311654E+03 -5.888065E+03
       463   6  2.127122E+05  1.418282E+05  7.791502E+03  1.742834E+05 -6.580090E+02 -6.689484E+03
       463   7  1.371457E+05  8.837568E+04 -1.362137E+04  1.360895E+05  6.548713E+03 -4.107124E+03
       463   8  1.508503E+05  9.432420E+04 -1.053780E+04  1.413249E+05  3.616887E+03 -4.906733E+03
       463   9  1.608098E+05  1.046980E+05 -5.553772E+03  1.478367E+05  6.720455E+02 -5.689404E+03
       463  10  2.882537E+05  1.952299E+05  2.496134E+04  2.125220E+05  9.690665E-09  7.087284E-09
       463  11  2.783026E+05  1.848769E+05  2.207713E+04  2.059890E+05  3.047874E-09  2.592544E-09
       463  12  2.646169E+05  1.789595E+05  2.113617E+04  2.007322E+05 -3.831029E-09 -2.535652E-09
       463  13  2.126964E+05  1.418011E+05  5.670167E+03  1.743031E+05  3.770407E-09  6.743370E-10
       463  14  2.145744E+05  1.395995E+05  5.769884E+03  1.736552E+05 -1.022340E-09  1.545485E-09
       463  15  2.127122E+05  1.418282E+05  7.791418E+03  1.742834E+05 -9.184713E-10 -1.144339E-09
       463  16  1.371456E+05  8.837565E+04 -1.362148E+04  1.360895E+05 -1.724124E-09  1.173895E-09
       463  17  1.508503E+05  9.432417E+04 -1.053787E+04  1.413249E+05 -2.820526E-09 -6.382462E-09
       463  18  1.608098E+05  1.046980E+05 -5.553833E+03  1.478367E+05  2.125188E-09  2.006914E-09
       463  19  2.882537E+05  1.952299E+05  2.496144E+04  2.125220E+05 -3.987836E+03  6.032354E+03
       463  20  2.783026E+05  1.848770E+05  2.207723E+04  2.059890E+05 -1.006251E+03  6.869526E+03
       463  21  2.646170E+05  1.789595E+05  2.113629E+04  2.007322E+05  1.988192E+03  7.689662E+03
       463  22  2.126965E+05  1.418011E+05  5.670268E+03  1.743031E+05 -5.268379E+03  5.069661E+03
       463  23  2.145744E+05  1.395995E+05  5.769959E+03  1.736552E+05 -2.311654E+03  5.888065E+03
       463  24  2.127122E+05  1.418282E+05  7.791502E+03  1.742834E+05  6.580090E+02  6.689484E+03
       463  25  1.371457E+05  8.837568E+04 -1.362137E+04  1.360895E+05 -6.548713E+03  4.107124E+03
       463  26  1.508503E+05  9.432420E+04 -1.053780E+04  1.413249E+05 -3.616887E+03  4.906733E+03
       463  27  1.608098E+05  1.046980E+05 -5.553772E+03  1.478367E+05 -6.720455E+02  5.689404E+03
       464   1  2.562188E+05  1.739471E+05  2.086212E+04  1.971731E+05 -3.623956E+03 -8.075516E+03
       464   2  2.473533E+05  1.624824E+05  2.408572E+04  1.895808E+05 -1.056809E+04 -1.187184E+04
       464   3  2.369177E+05  1.581285E+05  3.331043E+04  1.823619E+05 -1.749201E+04 -1.569466E+04
       464   4  2.128487E+05  1.418113E+05  9.615023E+03  1.745445E+05 -2.292652E+03 -7.074451E+03
       464   5  2.144955E+05  1.397834E+05  1.580153E+04  1.732059E+05 -9.274839E+03 -1.089938E+04
       464   6  2.145802E+05  1.448743E+05  2.802224E+04  1.722403E+05 -1.623699E+04 -1.475099E+04
       464   7  1.694814E+05  1.096772E+05 -1.631979E+03  1.519181E+05 -9.614935E+02 -6.073501E+03
       464   8  1.816393E+05  1.170852E+05  7.517356E+03  1.568320E+05 -7.981691E+03 -9.927004E+03
       464   9  1.922433E+05  1.316204E+05  2.273403E+04  1.621191E+05 -1.498204E+04 -1.380735E+04
       464  10  2.562187E+05  1.739470E+05  2.086197E+04  1.971731E+05 -1.439920E-09  3.353285E-11
       464  11  2.473531E+05  1.624822E+05  2.408525E+04  1.895807E+05 -1.970691E-09 -2.247737E-09
       464  12  2.369173E+05  1.581281E+05  3.330939E+04  1.823617E+05 -2.630076E-09 -7.990022E-10
       464  13  2.128487E+05  1.418112E+05  9.614919E+03  1.745445E+05  5.968308E-10  3.679381E-10
       464  14  2.144954E+05  1.397833E+05  1.580115E+04  1.732058E+05 -1.678177E-09  7.933987E-10
       464  15  2.145798E+05  1.448740E+05  2.802134E+04  1.722401E+05 -2.557955E-10  8.499986E-10
       464  16  1.694814E+05  1.096772E+05 -1.632050E+03  1.519181E+05  6.207317E-10  8.292121E-10
       464  17  1.816392E+05  1.170851E+05  7.517051E+03  1.568320E+05  5.635672E-10  2.173102E-09
       464  18  1.922430E+05  1.316201E+05  2.273326E+04  1.621189E+05  3.214927E-11  1.663796E-09
       464  19  2.562188E+05  1.739471E+05  2.086212E+04  1.971731E+05  3.623956E+03  8.075516E+03
       464  20  2.473533E+05  1.624824E+05  2.408572E+04  1.895808E+05  1.056809E+04  1.187184E+04
       464  21  2.369177E+05  1.581285E+05  3.331043E+04  1.823619E+05  1.749201E+04  1.569466E+04
       464  22  2.128487E+05  1.418113E+05  9.615023E+03  1.745445E+05  2.292652E+03  7.074451E+03
       464  23  2.144955E+05  1.397834E+05  1.580153E+04  1.732059E+05  9.274839E+03  1.089938E+04
       464  24  2.145802E+05  1.448743E+05  2.802224E+04  1.722403E+05  1.623699E+04  1.475099E+04
       464  25  1.694814E+05  1.096772E+05 -1.631979E+03  1.519181E+05  9.614935E+02  6.073501E+03
       464  26  1.816393E+05  1.170852E+05  7.517356E+03  1.568320E+05  7.981691E+03  9.927004E+03
       464  27  1.922433E+05  1.316204E+05  2.273403E+04  1.621191E+05  1.498204E+04  1.380735E+04
       465   1  2.186360E+05  1.632851E+05  3.942319E+04  1.864620E+05 -2.180219E+04 -1.809773E+04
       465   2  2.472045E+05  1.215597E+05  6.477724E+04  1.535560E+05 -4.868941E+04 -3.717821E+04
       465   3  3.167416E+05  1.446713E+05  1.318859E+05  9.463083E+04 -7.528733E+04 -5.664244E+04
       465   4  2.161454E+05  1.437328E+05  3.624045E+04  1.769002E+05 -2.047932E+04 -1.710232E+04
       465   5  2.171932E+05  1.494440E+05  6.476018E+04  1.611853E+05 -4.792285E+04 -3.660546E+04
       465   6  2.593251E+05  2.201084E+05  1.355182E+05  1.194520E+05 -7.507494E+04 -5.649614E+04
       465   7  2.136550E+05  1.241811E+05  3.305772E+04  1.673385E+05 -1.915644E+04 -1.610698E+04
       465   8  1.871843E+05  1.773312E+05  6.474360E+04  1.688138E+05 -4.715635E+04 -3.603263E+04
       465   9  2.019209E+05  2.955629E+05  1.391531E+05  1.442698E+05 -7.486258E+04 -5.634979E+04
       465  10  2.186354E+05  1.632846E+05  3.942168E+04  1.864617E+05  6.661461E-10  1.428302E-09
       465  11  2.472015E+05  1.215576E+05  6.477019E+04  1.535546E+05 -4.197626E-10 -4.238738E-10
       465  12  3.167347E+05  1.446663E+05  1.318692E+05  9.462740E+04 -1.575334E-09 -3.937912E-09
       465  13  2.161449E+05  1.437324E+05  3.623912E+04  1.769000E+05 -4.816256E-10  2.879841E-10
       465  14  2.171904E+05  1.494420E+05  6.475335E+04  1.611839E+05  3.635809E-11 -3.269334E-09
       465  15  2.593182E+05  2.201035E+05  1.355016E+05  1.194486E+05 -2.689208E-10 -3.498711E-10
       465  16  2.136545E+05  1.241807E+05  3.305655E+04  1.673383E+05 -4.589994E-10  4.037310E-11
       465  17  1.871816E+05  1.773292E+05  6.473699E+04  1.688125E+05  9.157570E-11  1.805009E-10
       465  18  2.019141E+05  2.955580E+05  1.391366E+05  1.442664E+05  2.199282E-09  1.710245E-09
       465  19  2.186360E+05  1.632851E+05  3.942319E+04  1.864620E+05  2.180219E+04  1.809773E+04
       465  20  2.472045E+05  1.215597E+05  6.477724E+04  1.535560E+05  4.868941E+04  3.717821E+04
       465  21  3.167416E+05  1.446713E+05  1.318859E+05  9.463083E+04  7.528733E+04  5.664244E+04
       465  22  2.161454E+05  1.437328E+05  3.624045E+04  1.769002E+05  2.047932E+04  1.710232E+04
       465  23  2.171932E+05  1.494440E+05  6.476018E+04  1.611853E+05  4.792285E+04  3.660546E+04
       465  24  2.593251E+05  2.201084E+05  1.355182E+05  1.194520E+05  7.507494E+04  5.649614E+04
       465  25  2.136550E+05  1.241811E+05  3.305772E+04  1.673385E+05  1.915644E+04  1.610698E+04
       465  26  1.871843E+05  1.773312E+05  6.474360E+04  1.688138E+05  4.715635E+04  3.603263E+04
       465  27  2.019209E+05  2.955629E+05  1.391531E+05  1.442698E+05  7.486258E+04  5.634979E+04
       466   1  2.695007E+05  7.462416E+04  6.994894E+04  4.920896E+04  1.148274E+04 -4.260721E+03
       466   2  2.074245E+05  6.557489E+04  5.164253E+04  4.463905E+04  1.614189E+03 -1.326407E+04
       466   3  1.454595E+05  5.196748E+04  3.861896E+04  5.592328E+04 -8.264144E+03 -1.343356E+04
       466   4 -7.187626E+04 -9.889285E+03 -1.137299E+04  5.480301E+04 -7.827084E+03 -4.286169E+03
       466   5 -7.081971E+04 -1.484582E+03 -5.473858E+03  4.686883E+04 -4.970826E+03 -1.327354E+04
       466   6 -7.186494E+04  1.520823E+02 -3.127493E+03  5.478944E+04 -2.125340E+03 -1.342513E+04
       466   7 -4.131455E+05 -9.441082E+04 -9.270168E+04  6.039394E+04 -2.712634E+04 -4.311972E+03
       466   8 -3.489903E+05 -6.854888E+04 -6.259422E+04  4.909757E+04 -1.155294E+04 -1.328306E+04
       466   9 -2.891439E+05 -5.166609E+04 -4.487597E+04  5.365599E+04  4.011366E+03 -1.341673E+04
       466  10  2.695005E+05  7.462411E+04  6.994866E+04  4.920900E+04 -1.187006E-08  1.013571E-09
       466  11  2.074244E+05  6.557470E+04  5.164220E+04  4.463906E+04  1.652262E-08  4.889287E-09
       466  12  1.454594E+05  5.196727E+04  3.861849E+04  5.592319E+04  4.064409E-08  4.697432E-09
       466  13 -7.187633E+04 -9.889321E+03 -1.137314E+04  5.480299E+04  7.090520E-10 -1.616347E-09
       466  14 -7.081978E+04 -1.484778E+03 -5.474236E+03  4.686877E+04 -4.296629E-10 -3.689151E-09
       466  15 -7.186499E+04  1.518875E+02 -3.127840E+03  5.478942E+04  5.762127E-10  3.343769E-09
       466  16 -4.131462E+05 -9.441104E+04 -9.270310E+04  6.039385E+04  1.145343E-08  5.929809E-10
       466  17 -3.489905E+05 -6.854910E+04 -6.259480E+04  4.909744E+04 -1.596014E-08  3.766888E-09
       466  18 -2.891439E+05 -5.166629E+04 -4.487634E+04  5.365603E+04 -4.030512E-08  2.762328E-09
       466  19  2.695007E+05  7.462416E+04  6.994894E+04  4.920896E+04 -1.148274E+04  4.260721E+03
       466  20  2.074245E+05  6.557489E+04  5.164253E+04  4.463905E+04 -1.614189E+03  1.326407E+04
       466  21  1.454595E+05  5.196748E+04  3.861896E+04  5.592328E+04  8.264144E+03  1.343356E+04
       466  22 -7.187626E+04 -9.889285E+03 -1.137299E+04  5.480301E+04  7.827084E+03  4.286169E+03
       466  23 -7.081971E+04 -1.484582E+03 -5.473858E+03  4.686883E+04  4.970826E+03  1.327354E+04
       466  24 -7.186494E+04  1.520823E+02 -3.127493E+03  5.478944E+04  2.125340E+03  1.342513E+04
       466  25 -4.131455E+05 -9.441082E+04 -9.270168E+04  6.039394E+04  2.712634E+04  4.311972E+03
       466  26 -3.489903E+05 -6.854888E+04 -6.259422E+04  4.909757E+04  1.155294E+04  1.328306E+04
       466  27 -2.891439E+05 -5.166609E+04 -4.487597E+04  5.365599E+04 -4.011366E+03  1.341673E+04
       467   1  1.035730E+05  4.147600E+04  3.105519E+04  5.495655E+04 -6.284758E+03 -1.091684E+04
       467   2  4.166563E+04  2.696154E+04  1.973532E+04  4.680109E+04 -6.373792E+03 -7.442244E+03
       467   3 -2.031060E+04  1.232628E+04  8.429323E+03  5.502072E+04 -6.463995E+03 -3.374156E+03
       467   4 -7.144396E+04 -2.317862E+02 -2.472116E+03  5.490751E+04 -1.707616E+03 -1.091042E+04
       467   5 -7.133073E+04  1.056948E+02 -1.545945E+03  4.671957E+04 -9.423783E+02 -7.434344E+03
       467   6 -7.143939E+04  1.739585E+02 -1.199510E+03  5.490692E+04 -1.783298E+02 -3.364711E+03
       467   7 -2.464314E+05 -4.194137E+04 -3.600074E+04  5.485848E+04  2.868265E+03 -1.090400E+04
       467   8 -1.843147E+05 -2.675088E+04 -2.282766E+04  4.663807E+04  4.488071E+03 -7.426444E+03
       467   9 -1.225656E+05 -1.197849E+04 -1.082831E+04  5.479313E+04  6.106831E+03 -3.355268E+03
       467  10  1.035730E+05  4.147586E+04  3.105489E+04  5.495650E+04 -4.148715E-08  3.025228E-09
       467  11  4.166557E+04  2.696147E+04  1.973514E+04  4.680105E+04 -1.815104E-08  3.616038E-09
       467  12 -2.031065E+04  1.232626E+04  8.429224E+03  5.502070E+04  9.429291E-09  4.851327E-09
       467  13 -7.144399E+04 -2.319148E+02 -2.472346E+03  5.490750E+04  9.683904E-10  8.465973E-09
       467  14 -7.133074E+04  1.056352E+02 -1.546051E+03  4.671957E+04 -7.264171E-10 -5.378538E-09
       467  15 -7.143940E+04  1.739463E+02 -1.199531E+03  5.490692E+04 -1.889094E-10  4.485736E-09
       467  16 -2.464314E+05 -4.194149E+04 -3.600098E+04  5.485850E+04  4.122019E-08 -5.751965E-11
       467  17 -1.843147E+05 -2.675094E+04 -2.282780E+04  4.663810E+04  1.861979E-08 -4.303115E-11
       467  18 -1.225656E+05 -1.197852E+04 -1.082840E+04  5.479315E+04 -9.517196E-09  2.086592E-09
       467  19  1.035730E+05  4.147600E+04  3.105519E+04  5.495655E+04  6.284758E+03  1.091684E+04
       467  20  4.166563E+04  2.696154E+04  1.973532E+04  4.680109E+04  6.373792E+03  7.442244E+03
       467  21 -2.031060E+04  1.232628E+04  8.429323E+03  5.502072E+04  6.463995E+03  3.374156E+03
       467  22 -7.144396E+04 -2.317862E+02 -2.472116E+03  5.490751E+04  1.707616E+03  1.091042E+04
       467  23 -7.133073E+04  1.056948E+02 -1.545945E+03  4.671957E+04  9.423783E+02  7.434344E+03
       467  24 -7.143939E+04  1.739585E+02 -1.199510E+03  5.490692E+04  1.783298E+02  3.364711E+03
       467  25 -2.464314E+05 -4.194137E+04 -3.600074E+04  5.485848E+04 -2.868265E+03  1.090400E+04
       467  26 -1.843147E+05 -2.675088E+04 -2.282766E+04  4.663807E+04 -4.488071E+03  7.426444E+03
       467  27 -1.225656E+05 -1.197849E+04 -1.082831E+04  5.479313E+04 -6.106831E+03  3.355268E+03
       468   1 -6.228944E+04  2.311408E+03  3.808822E+02  5.487882E+04 -6.240369E+03 -7.915934E+02
       468   2 -1.240649E+05 -1.244435E+04 -1.145870E+04  4.670080E+04 -4.858678E+03  3.322523E+03
       468   3 -1.861609E+05 -2.754528E+04 -2.429986E+04  5.490511E+04 -3.476268E+03  6.955737E+03
       468   4 -7.143471E+04  1.717054E+02 -1.172363E+03  5.490848E+04  2.647574E+01 -7.821320E+02
       468   5 -7.133424E+04  1.154171E+02 -1.396248E+03  4.671761E+04  7.155822E+02  3.330818E+03
       468   6 -7.143685E+04 -1.653523E+02 -2.140409E+03  5.490898E+04  1.405530E+03  6.962894E+03
       468   7 -8.057981E+04 -1.967980E+03 -2.725463E+03  5.493814E+04  6.293231E+03 -7.726698E+02
       468   8 -1.860085E+04  1.267503E+04  8.666192E+03  4.673442E+04  6.290305E+03  3.339112E+03
       468   9  4.329992E+04  2.721381E+04  2.001851E+04  5.491284E+04  6.288210E+03  6.970050E+03
       468  10 -6.228949E+04  2.311397E+03  3.808078E+02  5.487881E+04  5.831298E-09 -2.414254E-09
       468  11 -1.240649E+05 -1.244437E+04 -1.145876E+04  4.670082E+04 -1.052873E-08 -2.952731E-09
       468  12 -1.861609E+05 -2.754534E+04 -2.429997E+04  5.490513E+04 -2.444241E-08 -3.599768E-09
       468  13 -7.143471E+04  1.717047E+02 -1.172364E+03  5.490848E+04  6.310379E-10 -5.243252E-11
       468  14 -7.133424E+04  1.154050E+02 -1.396270E+03  4.671761E+04 -9.970969E-10 -5.018551E-09
       468  15 -7.143686E+04 -1.654049E+02 -2.140504E+03  5.490897E+04 -5.603971E-11 -4.389000E-09
       468  16 -8.057985E+04 -1.967992E+03 -2.725539E+03  5.493814E+04 -5.953967E-09 -1.895026E-09
       468  17 -1.860089E+04  1.267501E+04  8.666097E+03  4.673440E+04  1.048654E-08  9.724465E-10
       468  18  4.329986E+04  2.721374E+04  2.001835E+04  5.491280E+04  2.441656E-08  2.091852E-09
       468  19 -6.228944E+04  2.311408E+03  3.808822E+02  5.487882E+04  6.240369E+03  7.915934E+02
       468  20 -1.240649E+05 -1.244435E+04 -1.145870E+04  4.670080E+04  4.858678E+03 -3.322523E+03
       468  21 -1.861609E+05 -2.754528E+04 -2.429986E+04  5.490511E+04  3.476268E+03 -6.955737E+03
       468  22 -7.143471E+04  1.717054E+02 -1.172363E+03  5.490848E+04 -2.647574E+01  7.821320E+02
       468  23 -7.133424E+04  1.154171E+02 -1.396248E+03  4.671761E+04 -7.155822E+02 -3.330818E+03
       468  24 -7.143685E+04 -1.653523E+02 -2.140409E+03  5.490898E+04 -1.405530E+03 -6.962894E+03
       468  25 -8.057981E+04 -1.967980E+03 -2.725463E+03  5.493814E+04 -6.293231E+03  7.726698E+02
       468  26 -1.860085E+04  1.267503E+04  8.666192E+03  4.673442E+04 -6.290305E+03 -3.339112E+03
       468  27  4.329992E+04  2.721381E+04  2.001851E+04  5.491284E+04 -6.288210E+03 -6.970050E+03
       469   1 -2.287505E+05 -3.731088E+04 -3.303374E+04  5.387873E+04 -4.414298E+03  9.481658E+03
       469   2 -2.889289E+05 -5.384634E+04 -4.969614E+04  4.873969E+04  8.599079E+03  1.011164E+04
       469   3 -3.527358E+05 -7.794425E+04 -7.673390E+04  5.955043E+04  2.162057E+04  3.377679E+03
       469   4 -7.179178E+04  1.597468E+02 -2.681667E+03  5.481076E+04  1.765919E+03  9.490543E+03
       469   5 -7.090111E+04 -1.228555E+03 -4.647182E+03  4.684181E+04  4.179934E+03  1.010507E+04
       469   6 -7.180070E+04 -8.337030E+03 -9.624636E+03  5.482262E+04  6.603434E+03  3.356710E+03
       469   7  8.519069E+04  3.762893E+04  2.766940E+04  5.574302E+04  7.947664E+03  9.499446E+03
       469   8  1.471718E+05  5.138625E+04  4.039928E+04  4.494324E+04 -2.407366E+02  1.009852E+04
       469   9  2.092073E+05  6.126469E+04  5.747993E+04  5.009264E+04 -8.420466E+03  3.335975E+03
       469  10 -2.287505E+05 -3.731098E+04 -3.303395E+04  5.387876E+04 -2.595343E-09 -5.334145E-09
       469  11 -2.889290E+05 -5.384647E+04 -4.969647E+04  4.873962E+04  7.375521E-09 -1.539811E-09
       469  12 -3.527363E+05 -7.794439E+04 -7.673480E+04  5.955037E+04  1.659640E-08 -1.319995E-09
       469  13 -7.179181E+04  1.596493E+02 -2.681842E+03  5.481075E+04  5.903669E-10 -1.692556E-09
       469  14 -7.090116E+04 -1.228669E+03 -4.647407E+03  4.684178E+04 -3.446139E-10 -7.293939E-09
       469  15 -7.180075E+04 -8.337053E+03 -9.624739E+03  5.482260E+04 -1.579995E-10 -3.760050E-09
       469  16  8.519060E+04  3.762882E+04  2.766911E+04  5.574296E+04  2.233229E-09 -1.557807E-09
       469  17  1.471718E+05  5.138614E+04  4.039908E+04  4.494324E+04 -6.984665E-09  7.169739E-10
       469  18  2.092073E+05  6.126466E+04  5.747978E+04  5.009266E+04 -1.648307E-08 -1.436856E-09
       469  19 -2.287505E+05 -3.731088E+04 -3.303374E+04  5.387873E+04  4.414298E+03 -9.481658E+03
       469  20 -2.889289E+05 -5.384634E+04 -4.969614E+04  4.873969E+04 -8.599079E+03 -1.011164E+04
       469  21 -3.527358E+05 -7.794425E+04 -7.673390E+04  5.955043E+04 -2.162057E+04 -3.377679E+03
       469  22 -7.179178E+04  1.597468E+02 -2.681667E+03  5.481076E+04 -1.765919E+03 -9.490543E+03
       469  23 -7.090111E+04 -1.228555E+03 -4.647182E+03  4.684181E+04 -4.179934E+03 -1.010507E+04
       469  24 -7.180070E+04 -8.337030E+03 -9.624636E+03  5.482262E+04 -6.603434E+03 -3.356710E+03
       469  25  8.519069E+04  3.762893E+04  2.766940E+04  5.574302E+04 -7.947664E+03 -9.499446E+03
       469  26  1.471718E+05  5.138625E+04  4.039928E+04  4.494324E+04  2.407366E+02 -1.009852E+04
       469  27  2.092073E+05  6.126469E+04  5.747993E+04  5.009264E+04  8.420466E+03 -3.335975E+03
       470   1 -1.644832E+05 -7.371858E+05 -1.657302E+05  1.508902E+05 -5.292896E+03 -5.703769E+04
       470   2 -9.134481E+04 -5.897835E+05 -9.549770E+04  1.181270E+05 -1.523442E+04 -2.645992E+04
       470   3 -5.019645E+04 -4.542283E+05 -5.317317E+04  1.219835E+05 -1.206686E+04  4.141011E+03
       470   4 -4.239260E+04 -2.453521E+05 -4.769994E+04  1.256557E+05 -5.313347E+03 -3.335808E+04
       470   5 -6.953116E+03 -2.410422E+05 -2.256850E+04  1.073651E+05 -1.523772E+04 -2.163223E+04
       470   6 -2.172530E+02 -2.453155E+05 -1.223480E+04  1.256967E+05 -1.205494E+04 -9.890873E+03
       470   7  7.968310E+04  2.467060E+05  7.031556E+04  1.004011E+05 -5.335717E+03 -9.659765E+03
       470   8  7.743123E+04  1.078146E+05  5.035412E+04  9.659710E+04 -1.524119E+04 -1.680188E+04
       470   9  4.975947E+04 -3.636038E+04  2.870223E+04  1.294111E+05 -1.204319E+04 -2.392738E+04
       470  10 -1.644841E+05 -7.371893E+05 -1.657363E+05  1.508900E+05 -3.595932E-11  1.008281E-09
       470  11 -9.134524E+04 -5.897843E+05 -9.549946E+04  1.181267E+05  1.073591E-10  9.275232E-10
       470  12 -5.019661E+04 -4.542283E+05 -5.317348E+04  1.219836E+05  1.052419E-09 -1.910683E-10
       470  13 -4.239293E+04 -2.453533E+05 -4.770208E+04  1.256555E+05  8.421125E-10  2.065809E-09
       470  14 -6.953490E+03 -2.410427E+05 -2.256981E+04  1.073648E+05 -4.162151E-10 -3.282273E-09
       470  15 -2.174353E+02 -2.453156E+05 -1.223525E+04  1.256966E+05  7.082188E-10 -7.307874E-11
       470  16  7.968304E+04  2.467059E+05  7.031533E+04  1.004010E+05  3.694340E-10 -6.359028E-10
       470  17  7.743090E+04  1.078142E+05  5.035315E+04  9.659689E+04  1.187799E-09 -1.109570E-09
       470  18  4.975916E+04 -3.636103E+04  2.870088E+04  1.294109E+05  1.890176E-10 -1.095621E-09
       470  19 -1.644832E+05 -7.371858E+05 -1.657302E+05  1.508902E+05  5.292896E+03  5.703769E+04
       470  20 -9.134481E+04 -5.897835E+05 -9.549770E+04  1.181270E+05  1.523442E+04  2.645992E+04
       470  21 -5.019645E+04 -4.542283E+05 -5.317317E+04  1.219835E+05  1.206686E+04 -4.141011E+03
       470  22 -4.239260E+04 -2.453521E+05 -4.769994E+04  1.256557E+05  5.313347E+03  3.335808E+04
       470  23 -6.953116E+03 -2.410422E+05 -2.256850E+04  1.073651E+05  1.523772E+04  2.163223E+04
       470  24 -2.172530E+02 -2.453155E+05 -1.223480E+04  1.256967E+05  1.205494E+04  9.890873E+03
       470  25  7.968310E+04  2.467060E+05  7.031556E+04  1.004011E+05  5.335717E+03  9.659765E+03
       470  26  7.743123E+04  1.078146E+05  5.035412E+04  9.659710E+04  1.524119E+04  1.680188E+04
       470  27  4.975947E+04 -3.636038E+04  2.870223E+04  1.294111E+05  1.204319E+04  2.392738E+04
       471   1 -2.883575E+04 -3.560565E+05 -3.142263E+04  1.264033E+05 -6.269126E+03  3.571443E+03
       471   2  6.550513E+03 -2.143927E+05  1.141207E+03  1.072648E+05  1.930533E+03  5.562508E+03
       471   3  4.085974E+04 -7.313797E+04  3.216167E+04  1.255005E+05  1.002899E+04  7.554115E+03
       471   4 -1.861605E+03 -2.435032E+05 -9.148786E+03  1.258557E+05 -6.259487E+03 -8.307349E+03
       471   5 -3.095518E+02 -2.432777E+05 -4.267697E+03  1.071693E+05  1.940221E+03 -6.171237E+03
       471   6  1.415366E+02 -2.435052E+05 -1.029779E+03  1.258574E+05  1.003867E+04 -4.035011E+03
       471   7  2.511185E+04 -1.309375E+05  1.312496E+04  1.253080E+05 -6.249828E+03 -2.018825E+04
       471   8 -7.169591E+03 -2.721616E+05 -9.676120E+03  1.070739E+05  1.949914E+03 -1.790445E+04
       471   9 -4.057833E+04 -4.138444E+05 -3.422211E+04  1.262142E+05  1.004835E+04 -1.562103E+04
       471  10 -2.883580E+04 -3.560565E+05 -3.142273E+04  1.264034E+05  5.653954E-10  1.757489E-09
       471  11  6.550501E+03 -2.143927E+05  1.141142E+03  1.072648E+05  2.406117E-10  1.151188E-09
       471  12  4.085961E+04 -7.313806E+04  3.216138E+04  1.255004E+05 -1.638983E-10  2.287768E-12
       471  13 -1.861666E+03 -2.435033E+05 -9.148989E+03  1.258557E+05  3.886305E-10  5.804266E-10
       471  14 -3.095661E+02 -2.432777E+05 -4.267776E+03  1.071693E+05  1.177897E-09 -2.674181E-09
       471  15  1.414240E+02 -2.435053E+05 -1.029999E+03  1.258574E+05  9.001073E-10  1.543174E-09
       471  16  2.511170E+04 -1.309380E+05  1.312413E+04  1.253079E+05  9.094578E-11 -1.209996E-09
       471  17 -7.169681E+03 -2.721620E+05 -9.676730E+03  1.070739E+05  3.343859E-10 -2.227291E-09
       471  18 -4.057851E+04 -4.138446E+05 -3.422276E+04  1.262143E+05 -3.958196E-10 -1.178764E-09
       471  19 -2.883575E+04 -3.560565E+05 -3.142263E+04  1.264033E+05  6.269126E+03 -3.571443E+03
       471  20  6.550513E+03 -2.143927E+05  1.141207E+03  1.072648E+05 -1.930533E+03 -5.562508E+03
       471  21  4.085974E+04 -7.313797E+04  3.216167E+04  1.255005E+05 -1.002899E+04 -7.554115E+03
       471  22 -1.861605E+03 -2.435032E+05 -9.148786E+03  1.258557E+05  6.259487E+03  8.307349E+03
       471  23 -3.095518E+02 -2.432777E+05 -4.267697E+03  1.071693E+05 -1.940221E+03  6.171237E+03
       471  24  1.415366E+02 -2.435052E+05 -1.029779E+03  1.258574E+05 -1.003867E+04  4.035011E+03
       471  25  2.511185E+04 -1.309375E+05  1.312496E+04  1.253080E+05  6.249828E+03  2.018825E+04
       471  26 -7.169591E+03 -2.721616E+05 -9.676120E+03  1.070739E+05 -1.949914E+03  1.790445E+04
       471  27 -4.057833E+04 -4.138444E+05 -3.422211E+04  1.262142E+05 -1.004835E+04  1.562103E+04
       472   1  6.347647E+04  2.377735E+04  5.220943E+04  1.246080E+05  1.581097E+04  1.009872E+04
       472   2  9.930125E+04  1.626574E+05  8.795032E+04  1.090414E+05  1.830042E+04 -1.262672E+04
       472   3  1.442567E+05  3.069260E+05  1.407930E+05  1.300336E+05  6.270950E+03 -3.537486E+04
       472   4 -2.677922E+02 -2.430254E+05  3.313010E+02  1.256743E+05  1.582336E+04 -3.911918E+03
       472   5  1.088716E+03 -2.439152E+05  3.450677E+03  1.073986E+05  1.829486E+04 -5.723865E+03
       472   6  7.949974E+03 -2.430610E+05  9.151655E+03  1.256825E+05  6.243314E+03 -7.553442E+03
       472   7 -6.401620E+04 -5.097595E+05 -5.154946E+04  1.267402E+05  1.583571E+04 -1.791667E+04
       472   8 -9.713430E+04 -6.503311E+05 -8.105784E+04  1.057569E+05  1.828927E+04  1.174546E+03
       472   9 -1.283782E+05 -7.927692E+05 -1.225082E+05  1.213353E+05  6.215278E+03  2.024345E+04
       472  10  6.347617E+04  2.377718E+04  5.220877E+04  1.246079E+05 -3.523911E-10  1.506603E-09
       472  11  9.930084E+04  1.626572E+05  8.794939E+04  1.090416E+05 -1.582569E-09  2.187173E-09
       472  12  1.442563E+05  3.069247E+05  1.407906E+05  1.300338E+05 -9.948274E-10  8.114002E-10
       472  13 -2.680652E+02 -2.430255E+05  3.308017E+02  1.256744E+05 -1.016671E-09  1.168230E-09
       472  14  1.088348E+03 -2.439153E+05  3.449987E+03  1.073987E+05 -4.615641E-10 -2.688891E-09
       472  15  7.949916E+03 -2.430611E+05  9.151475E+03  1.256826E+05 -5.032840E-10  1.823611E-09
       472  16 -6.401656E+04 -5.097599E+05 -5.155054E+04  1.267404E+05 -4.160741E-10 -4.824227E-10
       472  17 -9.713466E+04 -6.503312E+05 -8.105847E+04  1.057569E+05  7.868478E-10 -1.573717E-09
       472  18 -1.283783E+05 -7.927697E+05 -1.225090E+05  1.213352E+05 -1.724848E-10 -2.000439E-09
       472  19  6.347647E+04  2.377735E+04  5.220943E+04  1.246080E+05 -1.581097E+04 -1.009872E+04
       472  20  9.930125E+04  1.626574E+05  8.795032E+04  1.090414E+05 -1.830042E+04  1.262672E+04
       472  21  1.442567E+05  3.069260E+05  1.407930E+05  1.300336E+05 -6.270950E+03  3.537486E+04
       472  22 -2.677922E+02 -2.430254E+05  3.313010E+02  1.256743E+05 -1.582336E+04  3.911918E+03
       472  23  1.088716E+03 -2.439152E+05  3.450677E+03  1.073986E+05 -1.829486E+04  5.723865E+03
       472  24  7.949974E+03 -2.430610E+05  9.151655E+03  1.256825E+05 -6.243314E+03  7.553442E+03
       472  25 -6.401620E+04 -5.097595E+05 -5.154946E+04  1.267402E+05 -1.583571E+04  1.791667E+04
       472  26 -9.713430E+04 -6.503311E+05 -8.105784E+04  1.057569E+05 -1.828927E+04 -1.174546E+03
       472  27 -1.283782E+05 -7.927692E+05 -1.225082E+05  1.213353E+05 -6.215278E+03 -2.024345E+04
       473   1  2.186490E+05  2.130452E+05  8.079506E+04  1.461061E+05  3.827865E+04  2.720692E+04
       473   2  2.113197E+05  1.602822E+05  4.508564E+04  1.568195E+05  2.557513E+04  1.405321E+04
       473   3  2.225547E+05  1.366398E+05  3.019635E+04  1.561249E+05  1.151564E+04  2.703390E+03
       473   4  1.829842E+05  1.365264E+05  5.949987E+04  1.049670E+05  3.366551E+04  2.373532E+04
       473   5  1.645050E+05  1.054810E+05  2.849326E+04  1.232814E+05  2.355991E+04  1.253708E+04
       473   6  1.640274E+05  1.029931E+05  1.605112E+04  1.301875E+05  1.209853E+04  3.141745E+03
       473   7  1.473223E+05  6.001742E+04  3.820474E+04  6.383223E+04  2.905268E+04  2.026467E+04
       473   8  1.176926E+05  5.068374E+04  1.190049E+04  8.974673E+04  2.154487E+04  1.102121E+04
       473   9  1.055030E+05  6.934712E+04  1.905364E+03  1.042522E+05  1.268134E+04  3.580064E+03
       473  10  2.186472E+05  2.130440E+05  8.079091E+04  1.461052E+05  6.541607E-10  2.943895E-09
       473  11  2.113189E+05  1.602818E+05  4.508404E+04  1.568192E+05  1.267077E-10 -1.086483E-09
       473  12  2.225546E+05  1.366397E+05  3.019609E+04  1.561249E+05 -1.224195E-09 -1.418889E-09
       473  13  1.829829E+05  1.365255E+05  5.949668E+04  1.049663E+05  6.146460E-10 -1.802370E-10
       473  14  1.645044E+05  1.054807E+05  2.849193E+04  1.232812E+05 -2.880703E-11 -2.008937E-09
       473  15  1.640272E+05  1.029930E+05  1.605083E+04  1.301874E+05 -6.522881E-10 -2.007190E-09
       473  16  1.473213E+05  6.001676E+04  3.820238E+04  6.383176E+04 -1.101454E-09 -1.439039E-09
       473  17  1.176921E+05  5.068349E+04  1.189939E+04  8.974654E+04 -2.126939E-10 -1.221887E-09
       473  18  1.055028E+05  6.934706E+04  1.905037E+03  1.042521E+05  6.079470E-10  1.015352E-09
       473  19  2.186490E+05  2.130452E+05  8.079506E+04  1.461061E+05 -3.827865E+04 -2.720692E+04
       473  20  2.113197E+05  1.602822E+05  4.508564E+04  1.568195E+05 -2.557513E+04 -1.405321E+04
       473  21  2.225547E+05  1.366398E+05  3.019635E+04  1.561249E+05 -1.151564E+04 -2.703390E+03
       473  22  1.829842E+05  1.365264E+05  5.949987E+04  1.049670E+05 -3.366551E+04 -2.373532E+04
       473  23  1.645050E+05  1.054810E+05  2.849326E+04  1.232814E+05 -2.355991E+04 -1.253708E+04
       473  24  1.640274E+05  1.029931E+05  1.605112E+04  1.301875E+05 -1.209853E+04 -3.141745E+03
       473  25  1.473223E+05  6.001742E+04  3.820474E+04  6.383223E+04 -2.905268E+04 -2.026467E+04
       473  26  1.176926E+05  5.068374E+04  1.190049E+04  8.974673E+04 -2.154487E+04 -1.102121E+04
       473  27  1.055030E+05  6.934712E+04  1.905364E+03  1.042522E+05 -1.268134E+04 -3.580064E+03
       474   1  2.127565E+05  1.396695E+05  2.559737E+04  1.536582E+05  9.944005E+03  1.900522E+03
       474   2  2.076693E+05  1.328615E+05  1.874691E+04  1.511002E+05  6.669559E+03 -1.749964E+02
       474   3  2.018023E+05  1.293798E+05  1.482013E+04  1.487591E+05  3.298586E+03 -2.121957E+03
       474   4  1.633176E+05  1.035205E+05  1.249643E+04  1.281507E+05  1.020689E+04  2.098141E+03
       474   5  1.633460E+05  1.012022E+05  7.288175E+03  1.285505E+05  7.117810E+03  1.620423E+02
       474   6  1.625544E+05  1.021700E+05  4.842817E+03  1.291672E+05  3.932143E+03 -1.645545E+03
       474   7  1.138823E+05  6.737371E+04 -6.044442E+02  1.026459E+05  1.046974E+04  2.295735E+03
       474   8  1.190254E+05  6.954433E+04 -4.170590E+03  1.060029E+05  7.566015E+03  4.990455E+02
       474   9  1.233083E+05  7.496104E+04 -5.134604E+03  1.095768E+05  4.565645E+03 -1.169172E+03
       474  10  2.127564E+05  1.396694E+05  2.559718E+04  1.536582E+05  4.182141E-09  1.459007E-10
       474  11  2.076692E+05  1.328615E+05  1.874682E+04  1.511002E+05  1.553216E-09 -5.357034E-10
       474  12  2.018023E+05  1.293798E+05  1.482010E+04  1.487591E+05 -2.125059E-09 -1.553162E-09
       474  13  1.633175E+05  1.035205E+05  1.249623E+04  1.281506E+05  7.708132E-10 -3.620428E-09
       474  14  1.633460E+05  1.012022E+05  7.288080E+03  1.285505E+05  3.342841E-09  1.410976E-09
       474  15  1.625544E+05  1.021700E+05  4.842783E+03  1.291672E+05  1.338312E-09  7.195475E-10
       474  16  1.138822E+05  6.737367E+04 -6.046600E+02  1.026458E+05 -2.691656E-09 -7.339112E-10
       474  17  1.190253E+05  6.954432E+04 -4.170698E+03  1.060029E+05  2.268270E-09  3.110883E-09
       474  18  1.233083E+05  7.496103E+04 -5.134645E+03  1.095768E+05  4.065988E-09 -2.314309E-10
       474  19  2.127565E+05  1.396695E+05  2.559737E+04  1.536582E+05 -9.944005E+03 -1.900522E+03
       474  20  2.076693E+05  1.328615E+05  1.874691E+04  1.511002E+05 -6.669559E+03  1.749964E+02
       474  21  2.018023E+05  1.293798E+05  1.482013E+04  1.487591E+05 -3.298586E+03  2.121957E+03
       474  22  1.633176E+05  1.035205E+05  1.249643E+04  1.281507E+05 -1.020689E+04 -2.098141E+03
       474  23  1.633460E+05  1.012022E+05  7.288175E+03  1.285505E+05 -7.117810E+03 -1.620423E+02
       474  24  1.625544E+05  1.021700E+05  4.842817E+03  1.291672E+05 -3.932143E+03  1.645545E+03
       474  25  1.138823E+05  6.737371E+04 -6.044442E+02  1.026459E+05 -1.046974E+04 -2.295735E+03
       474  26  1.190254E+05  6.954433E+04 -4.170590E+03  1.060029E+05 -7.566015E+03 -4.990455E+02
       474  27  1.233083E+05  7.496104E+04 -5.134604E+03  1.095768E+05 -4.565645E+03  1.169172E+03
       475   1  1.976795E+05  1.269955E+05  1.321541E+04  1.468276E+05  2.484516E+03 -2.332639E+03
       475   2  1.928707E+05  1.220508E+05  1.151844E+04  1.437131E+05  5.818964E+02 -3.093495E+03
       475   3  1.863585E+05  1.192875E+05  1.115288E+04  1.412249E+05 -1.326739E+03 -3.846394E+03
       475   4  1.625038E+05  1.021822E+05  4.242636E+03  1.290642E+05  3.095220E+03 -1.873399E+03
       475   5  1.633592E+05  1.010975E+05  3.968062E+03  1.287474E+05  1.204161E+03 -2.625543E+03
       475   6  1.625091E+05  1.021917E+05  5.014934E+03  1.290569E+05 -6.929077E+02 -3.369729E+03
       475   7  1.273289E+05  7.736922E+04 -4.730413E+03  1.113017E+05  3.705886E+03 -1.414188E+03
       475   8  1.338488E+05  8.014471E+04 -3.582383E+03  1.137825E+05  1.826385E+03 -2.157621E+03
       475   9  1.386606E+05  8.509651E+04 -1.122932E+03  1.168896E+05 -5.911814E+01 -2.893095E+03
       475  10  1.976795E+05  1.269955E+05  1.321538E+04  1.468276E+05  4.705976E-09  2.597650E-09
       475  11  1.928707E+05  1.220508E+05  1.151842E+04  1.437131E+05 -5.271466E-09 -1.218481E-09
       475  12  1.863585E+05  1.192875E+05  1.115285E+04  1.412249E+05 -1.028312E-08 -1.019084E-08
       475  13  1.625038E+05  1.021822E+05  4.242612E+03  1.290642E+05 -1.444667E-09 -3.296288E-09
       475  14  1.633592E+05  1.010975E+05  3.968046E+03  1.287474E+05 -5.832554E-09 -5.211896E-09
       475  15  1.625091E+05  1.021917E+05  5.014911E+03  1.290569E+05 -2.101010E-09 -1.356625E-09
       475  16  1.273289E+05  7.736921E+04 -4.730443E+03  1.113017E+05 -8.124060E-09 -6.687172E-09
       475  17  1.338488E+05  8.014471E+04 -3.582398E+03  1.137825E+05 -3.665205E-09 -7.194891E-09
       475  18  1.386606E+05  8.509650E+04 -1.122948E+03  1.168896E+05  4.994172E-09  2.023061E-09
       475  19  1.976795E+05  1.269955E+05  1.321541E+04  1.468276E+05 -2.484516E+03  2.332639E+03
       475  20  1.928707E+05  1.220508E+05  1.151844E+04  1.437131E+05 -5.818964E+02  3.093495E+03
       475  21  1.863585E+05  1.192875E+05  1.115288E+04  1.412249E+05  1.326739E+03  3.846394E+03
       475  22  1.625038E+05  1.021822E+05  4.242636E+03  1.290642E+05 -3.095220E+03  1.873399E+03
       475  23  1.633592E+05  1.010975E+05  3.968062E+03  1.287474E+05 -1.204161E+03  2.625543E+03
       475  24  1.625091E+05  1.021917E+05  5.014934E+03  1.290569E+05  6.929077E+02  3.369729E+03
       475  25  1.273289E+05  7.736922E+04 -4.730413E+03  1.113017E+05 -3.705886E+03  1.414188E+03
       475  26  1.338488E+05  8.014471E+04 -3.582383E+03  1.137825E+05 -1.826385E+03  2.157621E+03
       475  27  1.386606E+05  8.509651E+04 -1.122932E+03  1.168896E+05  5.911814E+01  2.893095E+03
       476   1  1.822801E+05  1.169800E+05  1.120484E+04  1.395841E+05 -2.304364E+03 -4.179014E+03
       476   2  1.781494E+05  1.113613E+05  1.348875E+04  1.358172E+05 -6.501124E+03 -6.656723E+03
       476   3  1.736159E+05  1.095415E+05  1.947810E+04  1.321217E+05 -1.068707E+04 -9.148821E+03
       476   4  1.625893E+05  1.021808E+05  6.068000E+03  1.292135E+05 -1.669657E+03 -3.701681E+03
       476   5  1.633183E+05  1.012160E+05  9.766037E+03  1.284728E+05 -5.887014E+03 -6.194879E+03
       476   6  1.636489E+05  1.040547E+05  1.718744E+04  1.278036E+05 -1.009363E+04 -8.702530E+03
       476   7  1.428990E+05  8.738185E+04  9.311280E+02  1.188433E+05 -1.034977E+03 -3.224370E+03
       476   8  1.484874E+05  9.107082E+04  6.043272E+03  1.211286E+05 -5.272918E+03 -5.733045E+03
       476   9  1.536818E+05  9.856786E+04  1.489673E+04  1.234855E+05 -9.500184E+03 -8.256239E+03
       476  10  1.822801E+05  1.169800E+05  1.120480E+04  1.395841E+05 -2.338564E-09 -1.677106E-09
       476  11  1.781494E+05  1.113612E+05  1.348858E+04  1.358171E+05  8.060658E-10  2.846169E-09
       476  12  1.736157E+05  1.095413E+05  1.947773E+04  1.321216E+05  1.865328E-09 -2.621092E-09
       476  13  1.625893E+05  1.021808E+05  6.067969E+03  1.292135E+05  8.992774E-10  5.981228E-11
       476  14  1.633183E+05  1.012160E+05  9.765900E+03  1.284728E+05 -9.712081E-10 -5.037686E-09
       476  15  1.636487E+05  1.040546E+05  1.718711E+04  1.278035E+05  1.573706E-09  1.653586E-09
       476  16  1.428990E+05  8.738184E+04  9.311064E+02  1.188433E+05  1.863908E-09 -8.538313E-10
       476  17  1.484873E+05  9.107077E+04  6.043158E+03  1.211286E+05 -3.774934E-10 -3.235499E-09
       476  18  1.536817E+05  9.856776E+04  1.489643E+04  1.234854E+05  1.110251E-10 -2.063838E-09
       476  19  1.822801E+05  1.169800E+05  1.120484E+04  1.395841E+05  2.304364E+03  4.179014E+03
       476  20  1.781494E+05  1.113613E+05  1.348875E+04  1.358172E+05  6.501124E+03  6.656723E+03
       476  21  1.736159E+05  1.095415E+05  1.947810E+04  1.321217E+05  1.068707E+04  9.148821E+03
       476  22  1.625893E+05  1.021808E+05  6.068000E+03  1.292135E+05  1.669657E+03  3.701681E+03
       476  23  1.633183E+05  1.012160E+05  9.766037E+03  1.284728E+05  5.887014E+03  6.194879E+03
       476  24  1.636489E+05  1.040547E+05  1.718744E+04  1.278036E+05  1.009363E+04  8.702530E+03
       476  25  1.428990E+05  8.738185E+04  9.311280E+02  1.188433E+05  1.034977E+03  3.224370E+03
       476  26  1.484874E+05  9.107082E+04  6.043272E+03  1.211286E+05  5.272918E+03  5.733045E+03
       476  27  1.536818E+05  9.856786E+04  1.489673E+04  1.234855E+05  9.500184E+03  8.256239E+03
       477   1  1.635042E+05  1.134492E+05  2.348042E+04  1.351648E+05 -1.326966E+04 -1.069153E+04
       477   2  1.822575E+05  8.932797E+04  3.936364E+04  1.159250E+05 -2.966876E+04 -2.250165E+04
       477   3  2.266128E+05  1.042975E+05  8.081103E+04  8.062215E+04 -4.591148E+04 -3.451890E+04
       477   4  1.646036E+05  1.033569E+05  2.219401E+04  1.306516E+05 -1.263937E+04 -1.021726E+04
       477   5  1.649706E+05  1.071215E+05  3.960151E+04  1.211254E+05 -2.933847E+04 -2.225462E+04
       477   6  1.910028E+05  1.500394E+05  8.283384E+04  9.553680E+04 -4.588041E+04 -3.450053E+04
       477   7  1.657031E+05  9.326500E+04  2.090765E+04  1.261384E+05 -1.200908E+04 -9.743028E+03
       477   8  1.476849E+05  1.249158E+05  3.983955E+04  1.263256E+05 -2.900820E+04 -2.200757E+04
       477   9  1.553978E+05  1.957871E+05  8.485762E+04  1.104500E+05 -4.584934E+04 -3.448216E+04
       477  10  1.635039E+05  1.134490E+05  2.347987E+04  1.351647E+05 -2.869809E-09 -2.755732E-09
       477  11  1.822564E+05  8.932719E+04  3.936104E+04  1.159244E+05 -4.709604E-10 -2.341653E-10
       477  12  2.266102E+05  1.042957E+05  8.080483E+04  8.062088E+04  1.398108E-09  3.351752E-09
       477  13  1.646034E+05  1.033567E+05  2.219351E+04  1.306515E+05  3.461162E-10 -1.356832E-09
       477  14  1.649696E+05  1.071207E+05  3.959896E+04  1.211249E+05 -5.512527E-11  7.147034E-11
       477  15  1.910002E+05  1.500375E+05  8.282765E+04  9.553553E+04 -9.042630E-10  1.942308E-09
       477  16  1.657029E+05  9.326485E+04  2.090720E+04  1.261383E+05  4.520640E-09  3.621777E-09
       477  17  1.476839E+05  1.249151E+05  3.983706E+04  1.263251E+05 -2.545563E-09 -2.669444E-09
       477  18  1.553952E+05  1.957853E+05  8.485144E+04  1.104487E+05 -1.921686E-09 -2.487757E-09
       477  19  1.635042E+05  1.134492E+05  2.348042E+04  1.351648E+05  1.326966E+04  1.069153E+04
       477  20  1.822575E+05  8.932797E+04  3.936364E+04  1.159250E+05  2.966876E+04  2.250165E+04
       477  21  2.266128E+05  1.042975E+05  8.081103E+04  8.062215E+04  4.591148E+04  3.451890E+04
       477  22  1.646036E+05  1.033569E+05  2.219401E+04  1.306516E+05  1.263937E+04  1.021726E+04
       477  23  1.649706E+05  1.071215E+05  3.960151E+04  1.211254E+05  2.933847E+04  2.225462E+04
       477  24  1.910028E+05  1.500394E+05  8.283384E+04  9.553680E+04  4.588041E+04  3.450053E+04
       477  25  1.657031E+05  9.326500E+04  2.090765E+04  1.261384E+05  1.200908E+04  9.743028E+03
       477  26  1.476849E+05  1.249158E+05  3.983955E+04  1.263256E+05  2.900820E+04  2.200757E+04
       477  27  1.553978E+05  1.957871E+05  8.485762E+04  1.104500E+05  4.584934E+04  3.448216E+04
       478   1  1.145517E+05  3.624658E+04  3.415347E+04  2.792817E+04  5.564853E+03 -1.957985E+03
       478   2  8.027682E+04  3.028029E+04  2.418264E+04  2.491363E+04  6.010549E+02 -5.975915E+03
       478   3  4.619399E+04  2.259269E+04  1.701085E+04  3.067711E+04 -4.367836E+03 -5.745245E+03
       478   4 -4.815239E+04 -4.051403E+03 -4.676797E+03  3.020515E+04 -3.271139E+03 -1.969757E+03
       478   5 -4.771501E+04 -5.930256E+02 -2.210778E+03  2.581326E+04 -2.116025E+03 -5.979690E+03
       478   6 -4.814950E+04  8.150776E+01 -1.194799E+03  3.019959E+04 -9.663701E+02 -5.740603E+03
       478   7 -2.108320E+05 -4.435124E+04 -4.350863E+04  3.248151E+04 -1.210483E+04 -1.981594E+03
       478   8 -1.756913E+05 -3.146737E+04 -2.860505E+04  2.671270E+04 -4.832555E+03 -5.983473E+03
       478   9 -1.424844E+05 -2.243019E+04 -1.940082E+04  2.972215E+04  2.434591E+03 -5.735966E+03
       478  10  1.145517E+05  3.624657E+04  3.415341E+04  2.792818E+04 -3.841193E-09  6.713907E-10
       478  11  8.027681E+04  3.028026E+04  2.418257E+04  2.491363E+04  8.889284E-09 -4.342647E-10
       478  12  4.619396E+04  2.259265E+04  1.701076E+04  3.067709E+04  2.047197E-08 -5.257344E-10
       478  13 -4.815240E+04 -4.051410E+03 -4.676824E+03  3.020514E+04  6.508677E-10  3.009709E-09
       478  14 -4.771502E+04 -5.930652E+02 -2.210854E+03  2.581325E+04 -6.366925E-10 -1.759982E-10
       478  15 -4.814951E+04  8.147212E+01 -1.194862E+03  3.019959E+04  1.123837E-10 -4.766922E-10
       478  16 -2.108322E+05 -4.435128E+04 -4.350892E+04  3.248149E+04  3.299057E-09  7.723583E-10
       478  17 -1.756913E+05 -3.146742E+04 -2.860516E+04  2.671268E+04 -8.704049E-09 -6.247665E-09
       478  18 -1.424844E+05 -2.243023E+04 -1.940090E+04  2.972216E+04 -2.001165E-08 -2.154682E-09
       478  19  1.145517E+05  3.624658E+04  3.415347E+04  2.792817E+04 -5.564853E+03  1.957985E+03
       478  20  8.027682E+04  3.028029E+04  2.418264E+04  2.491363E+04 -6.010549E+02  5.975915E+03
       478  21  4.619399E+04  2.259269E+04  1.701085E+04  3.067711E+04  4.367836E+03  5.745245E+03
       478  22 -4.815239E+04 -4.051403E+03 -4.676797E+03  3.020515E+04  3.271139E+03  1.969757E+03
       478  23 -4.771501E+04 -5.930256E+02 -2.210778E+03  2.581326E+04  2.116025E+03  5.979690E+03
       478  24 -4.814950E+04  8.150776E+01 -1.194799E+03  3.019959E+04  9.663701E+02  5.740603E+03
       478  25 -2.108320E+05 -4.435124E+04 -4.350863E+04  3.248151E+04  1.210483E+04  1.981594E+03
       478  26 -1.756913E+05 -3.146737E+04 -2.860505E+04  2.671270E+04  4.832555E+03  5.983473E+03
       478  27 -1.424844E+05 -2.243019E+04 -1.940082E+04  2.972215E+04 -2.434591E+03  5.735966E+03
       479   1  2.307724E+04  1.686921E+04  1.279637E+04  3.028317E+04 -3.466308E+03 -4.352832E+03
       479   2 -1.105870E+04  8.829141E+03  6.593746E+03  2.577839E+04 -3.668563E+03 -2.371999E+03
       479   3 -4.520445E+04  7.636374E+02  5.085000E+02  3.030284E+04 -3.871249E+03 -1.115602E+02
       479   4 -4.797285E+04 -7.823003E+01 -8.901298E+02  3.025639E+04 -8.147385E+02 -4.349173E+03
       479   5 -4.793228E+04  5.418116E+01 -4.060438E+02  2.574164E+04 -6.144364E+02 -2.367736E+03
       479   6 -4.797203E+04  9.144284E+01 -8.401822E+01  3.025615E+04 -4.145708E+02 -1.066820E+02
       479   7 -1.190181E+05 -1.702596E+04 -1.457684E+04  3.022961E+04  1.836535E+03 -4.345515E+03
       479   8 -8.480452E+04 -8.720853E+03 -7.405859E+03  2.570488E+04  2.439513E+03 -2.363473E+03
       479   9 -5.073957E+04 -5.807458E+02 -6.764920E+02  3.020946E+04  3.042092E+03 -1.018043E+02
       479  10  2.307723E+04  1.686918E+04  1.279631E+04  3.028316E+04 -2.380761E-08 -1.094299E-10
       479  11 -1.105872E+04  8.829131E+03  6.593710E+03  2.577838E+04 -9.221904E-09 -2.436903E-09
       479  12 -4.520447E+04  7.636334E+02  5.084718E+02  3.030284E+04  7.079354E-09 -8.100662E-10
       479  13 -4.797286E+04 -7.825052E+01 -8.901666E+02  3.025638E+04  8.732211E-10  2.073752E-09
       479  14 -4.793228E+04  5.417504E+01 -4.060551E+02  2.574163E+04 -5.942598E-10  7.649918E-11
       479  15 -4.797203E+04  9.144279E+01 -8.401857E+01  3.025615E+04  1.415775E-10  3.101063E-10
       479  16 -1.190181E+05 -1.702598E+04 -1.457688E+04  3.022961E+04  2.340381E-08  2.652795E-09
       479  17 -8.480452E+04 -8.720861E+03 -7.405881E+03  2.570489E+04  9.602760E-09 -3.828001E-09
       479  18 -5.073958E+04 -5.807483E+02 -6.765094E+02  3.020946E+04 -6.832823E-09 -5.905479E-10
       479  19  2.307724E+04  1.686921E+04  1.279637E+04  3.028317E+04  3.466308E+03  4.352832E+03
       479  20 -1.105870E+04  8.829141E+03  6.593746E+03  2.577839E+04  3.668563E+03  2.371999E+03
       479  21 -4.520445E+04  7.636374E+02  5.085000E+02  3.030284E+04  3.871249E+03  1.115602E+02
       479  22 -4.797285E+04 -7.823003E+01 -8.901298E+02  3.025639E+04  8.147385E+02  4.349173E+03
       479  23 -4.793228E+04  5.418116E+01 -4.060438E+02  2.574164E+04  6.144364E+02  2.367736E+03
       479  24 -4.797203E+04  9.144284E+01 -8.401822E+01  3.025615E+04  4.145708E+02  1.066820E+02
       479  25 -1.190181E+05 -1.702596E+04 -1.457684E+04  3.022961E+04 -1.836535E+03  4.345515E+03
       479  26 -8.480452E+04 -8.720853E+03 -7.405859E+03  2.570488E+04 -2.439513E+03  2.363473E+03
       479  27 -5.073957E+04 -5.807458E+02 -6.764920E+02  3.020946E+04 -3.042092E+03  1.018043E+02
       480   1 -6.831995E+04 -4.769747E+03 -3.800456E+03  3.027650E+04 -3.876352E+03  1.311732E+03
       480   2 -1.024347E+05 -1.286461E+04 -9.903399E+03  2.568407E+04 -3.615974E+03  3.560289E+03
       480   3 -1.365975E+05 -2.090017E+04 -1.616907E+04  3.011876E+04 -3.355095E+03  5.496283E+03
       480   4 -4.794783E+04  7.653861E+01  5.799640E+01  3.025575E+04 -4.143174E+02  1.316611E+03
       480   5 -4.796289E+04  8.612626E+01  3.732327E+02  2.574211E+04 -6.040735E+02  3.564464E+03
       480   6 -4.794902E+04  2.332172E+02  8.383378E+02  3.025553E+04 -7.933151E+02  5.499770E+03
       480   7 -2.757528E+04  4.922806E+03  3.916475E+03  3.023500E+04  3.047828E+03  1.321489E+03
       480   8  6.511780E+03  1.303669E+04  1.064977E+04  2.580015E+04  2.408085E+03  3.568639E+03
       480   9  4.070700E+04  2.136614E+04  1.784541E+04  3.039232E+04  1.768823E+03  5.503259E+03
       480  10 -6.831997E+04 -4.769752E+03 -3.800487E+03  3.027650E+04  2.447688E-09 -8.319525E-10
       480  11 -1.024347E+05 -1.286463E+04 -9.903448E+03  2.568408E+04 -1.291967E-10  2.067534E-09
       480  12 -1.365975E+05 -2.090020E+04 -1.616915E+04  3.011877E+04 -1.602579E-09 -2.737525E-09
       480  13 -4.794783E+04  7.653670E+01  5.799282E+01  3.025575E+04  1.036077E-09 -4.602375E-09
       480  14 -4.796289E+04  8.611252E+01  3.732081E+02  2.574211E+04 -5.091284E-10  4.156337E-09
       480  15 -4.794903E+04  2.331846E+02  8.382798E+02  3.025553E+04  1.074841E-10  1.879488E-09
       480  16 -2.757529E+04  4.922802E+03  3.916455E+03  3.023500E+04 -2.477089E-09 -3.931390E-09
       480  17  6.511771E+03  1.303668E+04  1.064973E+04  2.580014E+04  2.826569E-10 -5.599698E-09
       480  18  4.070699E+04  2.136611E+04  1.784535E+04  3.039231E+04  1.974083E-09  1.095464E-09
       480  19 -6.831995E+04 -4.769747E+03 -3.800456E+03  3.027650E+04  3.876352E+03 -1.311732E+03
       480  20 -1.024347E+05 -1.286461E+04 -9.903399E+03  2.568407E+04  3.615974E+03 -3.560289E+03
       480  21 -1.365975E+05 -2.090017E+04 -1.616907E+04  3.011876E+04  3.355095E+03 -5.496283E+03
       480  22 -4.794783E+04  7.653861E+01  5.799640E+01  3.025575E+04  4.143174E+02 -1.316611E+03
       480  23 -4.796289E+04  8.612626E+01  3.732327E+02  2.574211E+04  6.040735E+02 -3.564464E+03
       480  24 -4.794902E+04  2.332172E+02  8.383378E+02  3.025553E+04  7.933151E+02 -5.499770E+03
       480  25 -2.757528E+04  4.922806E+03  3.916475E+03  3.023500E+04 -3.047828E+03 -1.321489E+03
       480  26  6.511780E+03  1.303669E+04  1.064977E+04  2.580015E+04 -2.408085E+03 -3.568639E+03
       480  27  4.070700E+04  2.136614E+04  1.784541E+04  3.039232E+04 -1.768823E+03 -5.503259E+03
       481   1 -1.597377E+05 -2.662101E+04 -2.040490E+04  3.043947E+04 -4.328238E+03  6.882433E+03
       481   2 -1.937174E+05 -3.440890E+04 -2.782494E+04  2.469396E+04  1.319560E+03  6.903848E+03
       481   3 -2.280750E+05 -4.067282E+04 -3.854659E+04  2.769584E+04  6.972857E+03  2.245697E+03
       481   4 -4.778079E+04  7.901912E+01  1.129632E+03  3.019428E+04 -9.401590E+02  6.886989E+03
       481   5 -4.817740E+04  6.906156E+02  2.095175E+03  2.581808E+04 -2.029357E+03  6.899236E+03
       481   6 -4.778385E+04  3.995666E+03  4.438095E+03  3.018906E+04 -3.112640E+03  2.232442E+03
       481   7  6.418822E+04  2.677832E+04  2.266363E+04  2.994904E+04  2.448517E+03  6.891542E+03
       481   8  9.738270E+04  3.578881E+04  3.201420E+04  2.694245E+04 -5.379044E+03  6.894613E+03
       481   9  1.325373E+05  4.866188E+04  4.742088E+04  3.268301E+04 -1.320105E+04  2.219109E+03
       481  10 -1.597377E+05 -2.662107E+04 -2.040502E+04  3.043949E+04  1.381550E-09 -2.507664E-09
       481  11 -1.937174E+05 -3.440895E+04 -2.782503E+04  2.469395E+04  2.142132E-09  3.873174E-10
       481  12 -2.280751E+05 -4.067284E+04 -3.854669E+04  2.769582E+04  2.271822E-09  3.262604E-09
       481  13 -4.778080E+04  7.896795E+01  1.129541E+03  3.019428E+04  7.107046E-10  9.935784E-10
       481  14 -4.817741E+04  6.905634E+02  2.095078E+03  2.581809E+04 -6.301423E-10 -4.188089E-10
       481  15 -4.778386E+04  3.995658E+03  4.438068E+03  3.018907E+04 -1.048631E-10  2.996100E-09
       481  16  6.418820E+04  2.677826E+04  2.266353E+04  2.994903E+04 -1.703165E-09  1.188153E-09
       481  17  9.738266E+04  3.578875E+04  3.201405E+04  2.694248E+04 -1.869589E-09  1.633469E-09
       481  18  1.325372E+05  4.866183E+04  4.742055E+04  3.268303E+04 -2.529494E-09 -2.433874E-09
       481  19 -1.597377E+05 -2.662101E+04 -2.040490E+04  3.043947E+04  4.328238E+03 -6.882433E+03
       481  20 -1.937174E+05 -3.440890E+04 -2.782494E+04  2.469396E+04 -1.319560E+03 -6.903848E+03
       481  21 -2.280750E+05 -4.067282E+04 -3.854659E+04  2.769584E+04 -6.972857E+03 -2.245697E+03
       481  22 -4.778079E+04  7.901912E+01  1.129632E+03  3.019428E+04  9.401590E+02 -6.886989E+03
       481  23 -4.817740E+04  6.906156E+02  2.095175E+03  2.581808E+04  2.029357E+03 -6.899236E+03
       481  24 -4.778385E+04  3.995666E+03  4.438095E+03  3.018906E+04  3.112640E+03 -2.232442E+03
       481  25  6.418822E+04  2.677832E+04  2.266363E+04  2.994904E+04 -2.448517E+03 -6.891542E+03
       481  26  9.738270E+04  3.578881E+04  3.201420E+04  2.694245E+04  5.379044E+03 -6.894613E+03
       481  27  1.325373E+05  4.866188E+04  4.742088E+04  3.268301E+04  1.320105E+04 -2.219109E+03
       482   1 -1.012849E+05 -4.734705E+05 -1.026890E+05  9.418418E+04 -3.057908E+03 -3.647305E+04
       482   2 -5.376504E+04 -3.833037E+05 -5.842637E+04  7.298744E+04 -8.735922E+03 -1.701282E+04
       482   3 -2.815511E+04 -3.010701E+05 -3.230827E+04  7.411513E+04 -6.681675E+03  2.460204E+03
       482   4 -2.944658E+04 -1.841064E+05 -3.321440E+04  7.661604E+04 -3.072277E+03 -2.277325E+04
       482   5 -4.817545E+03 -1.810969E+05 -1.606068E+04  6.546985E+04 -8.738325E+03 -1.443784E+04
       482   6 -1.618456E+02 -1.840927E+05 -9.318715E+03  7.664924E+04 -6.672629E+03 -6.092630E+03
       482   7  4.238688E+04  1.053354E+05  3.625511E+04  5.903969E+04 -3.087419E+03 -9.067082E+03
       482   8  4.412754E+04  2.114876E+04  2.630279E+04  5.794977E+04 -8.740789E+03 -1.186202E+04
       482   9  2.783065E+04 -6.710198E+04  1.367045E+04  7.918385E+04 -6.663655E+03 -1.464704E+04
       482  10 -1.012852E+05 -4.734720E+05 -1.026915E+05  9.418409E+04 -4.936378E-10  5.179809E-10
       482  11 -5.376520E+04 -3.833041E+05 -5.842705E+04  7.298732E+04 -1.013181E-09  8.828161E-10
       482  12 -2.815516E+04 -3.010701E+05 -3.230836E+04  7.411515E+04  5.935924E-10  2.699740E-09
       482  13 -2.944673E+04 -1.841070E+05 -3.321539E+04  7.661599E+04  6.011214E-10  2.197496E-09
       482  14 -4.817683E+03 -1.810971E+05 -1.606121E+04  6.546974E+04 -6.599925E-10 -6.032507E-10
       482  15 -1.619034E+02 -1.840927E+05 -9.318869E+03  7.664921E+04  1.488216E-09  1.226619E-09
       482  16  4.238685E+04  1.053354E+05  3.625494E+04  5.903967E+04  2.459015E-10 -2.132999E-09
       482  17  4.412742E+04  2.114858E+04  2.630238E+04  5.794969E+04  1.231197E-09 -2.080911E-09
       482  18  2.783055E+04 -6.710222E+04  1.366997E+04  7.918377E+04  1.110070E-09 -5.138226E-09
       482  19 -1.012849E+05 -4.734705E+05 -1.026890E+05  9.418418E+04  3.057908E+03  3.647305E+04
       482  20 -5.376504E+04 -3.833037E+05 -5.842637E+04  7.298744E+04  8.735922E+03  1.701282E+04
       482  21 -2.815511E+04 -3.010701E+05 -3.230827E+04  7.411513E+04  6.681675E+03 -2.460204E+03
       482  22 -2.944658E+04 -1.841064E+05 -3.321440E+04  7.661604E+04  3.072277E+03  2.277325E+04
       482  23 -4.817545E+03 -1.810969E+05 -1.606068E+04  6.546985E+04  8.738325E+03  1.443784E+04
       482  24 -1.618456E+02 -1.840927E+05 -9.318715E+03  7.664924E+04  6.672629E+03  6.092630E+03
       482  25  4.238688E+04  1.053354E+05  3.625511E+04  5.903969E+04  3.087419E+03  9.067082E+03
       482  26  4.412754E+04  2.114876E+04  2.630279E+04  5.794977E+04  8.740789E+03  1.186202E+04
       482  27  2.783065E+04 -6.710198E+04  1.367045E+04  7.918385E+04  6.663655E+03  1.464704E+04
       483   1 -1.526155E+04 -2.411572E+05 -1.909543E+04  7.724679E+04 -3.148051E+03  2.467130E+03
       483   2  6.348881E+03 -1.547055E+05  2.445650E+02  6.537769E+04  1.863688E+03  4.815729E+03
       483   3  2.673475E+04 -6.878988E+04  1.776551E+04  7.627757E+04  6.777970E+03  7.164651E+03
       483   4 -1.277855E+03 -1.828825E+05 -7.471779E+03  7.674158E+04 -3.140497E+03 -4.821734E+03
       483   5 -2.754657E+02 -1.825995E+05 -4.978346E+03  6.535743E+04  1.871190E+03 -2.333124E+03
       483   6 -5.215326E+02 -1.828839E+05 -4.400953E+03  7.674238E+04  6.785403E+03  1.554986E+02
       483   7  1.270566E+04 -1.246045E+05  4.151905E+03  7.623633E+04 -3.132932E+03 -1.211127E+04
       483   8 -6.899830E+03 -2.104926E+05 -1.020110E+04  6.533717E+04  1.878693E+03 -9.481664E+03
       483   9 -2.777857E+04 -2.969653E+05 -2.656785E+04  7.720711E+04  6.792827E+03 -6.852394E+03
       483  10 -1.526156E+04 -2.411572E+05 -1.909546E+04  7.724680E+04  4.799797E-10  7.828840E-10
       483  11  6.348871E+03 -1.547055E+05  2.445149E+02  6.537769E+04 -3.586340E-10 -1.422434E-09
       483  12  2.673469E+04 -6.878995E+04  1.776533E+04  7.627753E+04 -1.303690E-09  1.542189E-09
       483  13 -1.277872E+03 -1.828826E+05 -7.471841E+03  7.674157E+04  1.455442E-09  2.501021E-09
       483  14 -2.754710E+02 -1.825995E+05 -4.978363E+03  6.535744E+04  4.194510E-10  4.953956E-11
       483  15 -5.215820E+02 -1.828839E+05 -4.401040E+03  7.674238E+04  9.827885E-10  2.430938E-09
       483  16  1.270561E+04 -1.246046E+05  4.151611E+03  7.623630E+04  8.763972E-10 -1.246692E-09
       483  17 -6.899858E+03 -2.104927E+05 -1.020127E+04  6.533719E+04 -4.564177E-10  8.363329E-10
       483  18 -2.777863E+04 -2.969654E+05 -2.656803E+04  7.720715E+04  6.748472E-10 -3.654539E-09
       483  19 -1.526155E+04 -2.411572E+05 -1.909543E+04  7.724679E+04  3.148051E+03 -2.467130E+03
       483  20  6.348881E+03 -1.547055E+05  2.445650E+02  6.537769E+04 -1.863688E+03 -4.815729E+03
       483  21  2.673475E+04 -6.878988E+04  1.776551E+04  7.627757E+04 -6.777970E+03 -7.164651E+03
       483  22 -1.277855E+03 -1.828825E+05 -7.471779E+03  7.674158E+04  3.140497E+03  4.821734E+03
       483  23 -2.754657E+02 -1.825995E+05 -4.978346E+03  6.535743E+04 -1.871190E+03  2.333124E+03
       483  24 -5.215326E+02 -1.828839E+05 -4.400953E+03  7.674238E+04 -6.785403E+03 -1.554986E+02
       483  25  1.270566E+04 -1.246045E+05  4.151905E+03  7.623633E+04  3.132932E+03  1.211127E+04
       483  26 -6.899830E+03 -2.104926E+05 -1.020110E+04  6.533717E+04 -1.878693E+03  9.481664E+03
       483  27 -2.777857E+04 -2.969653E+05 -2.656785E+04  7.720711E+04 -6.792827E+03  6.852394E+03
       484   1  4.110096E+04 -1.037092E+04  2.898929E+04  7.732266E+04  1.029749E+04  9.406475E+03
       484   2  6.053307E+04  7.577862E+04  4.732405E+04  6.263823E+04  1.168317E+04 -4.787244E+02
       484   3  7.520686E+04  1.621121E+05  7.092096E+04  7.020138E+04  3.969618E+03 -1.037693E+04
       484   4 -1.827903E+02 -1.832272E+05 -4.565757E+03  7.662868E+04  1.030678E+04  8.739728E+02
       484   5 -1.778654E+03 -1.821859E+05 -6.219656E+03  6.549848E+04  1.167839E+04  4.092520E+03
       484   6 -1.040845E+04 -1.832422E+05 -1.171174E+04  7.661682E+04  3.948932E+03  7.299237E+03
       484   7 -4.146829E+04 -3.560545E+05 -3.812194E+04  7.593490E+04  1.031610E+04 -7.656206E+03
       484   8 -6.409457E+04 -4.400873E+05 -5.976692E+04  6.835754E+04  1.167365E+04  8.661897E+03
       484   9 -9.603209E+04 -5.284865E+05 -9.435167E+04  8.302869E+04  3.928606E+03  2.496561E+04
       484  10  4.110083E+04 -1.037104E+04  2.898893E+04  7.732258E+04 -1.049176E-09  8.152151E-11
       484  11  6.053293E+04  7.577858E+04  4.732379E+04  6.263823E+04 -1.172152E-09 -1.182923E-09
       484  12  7.520682E+04  1.621120E+05  7.092073E+04  7.020142E+04 -8.134832E-10  2.053786E-09
       484  13 -1.829046E+02 -1.832272E+05 -4.565958E+03  7.662867E+04 -1.701777E-09  2.540899E-09
       484  14 -1.778805E+03 -1.821860E+05 -6.219944E+03  6.549844E+04 -9.391945E-10  5.701620E-10
       484  15 -1.040848E+04 -1.832423E+05 -1.171187E+04  7.661679E+04 -3.875752E-10  3.103648E-09
       484  16 -4.146842E+04 -3.560546E+05 -3.812225E+04  7.593496E+04  6.914312E-10 -5.236351E-10
       484  17 -6.409474E+04 -4.400874E+05 -5.976731E+04  6.835745E+04 -1.165330E-09  6.989429E-10
       484  18 -9.603228E+04 -5.284872E+05 -9.435288E+04  8.302861E+04 -6.096966E-10 -4.463549E-09
       484  19  4.110096E+04 -1.037092E+04  2.898929E+04  7.732266E+04 -1.029749E+04 -9.406475E+03
       484  20  6.053307E+04  7.577862E+04  4.732405E+04  6.263823E+04 -1.168317E+04  4.787244E+02
       484  21  7.520686E+04  1.621121E+05  7.092096E+04  7.020138E+04 -3.969618E+03  1.037693E+04
       484  22 -1.827903E+02 -1.832272E+05 -4.565757E+03  7.662868E+04 -1.030678E+04 -8.739728E+02
       484  23 -1.778654E+03 -1.821859E+05 -6.219656E+03  6.549848E+04 -1.167839E+04 -4.092520E+03
       484  24 -1.040845E+04 -1.832422E+05 -1.171174E+04  7.661682E+04 -3.948932E+03 -7.299237E+03
       484  25 -4.146829E+04 -3.560545E+05 -3.812194E+04  7.593490E+04 -1.031610E+04  7.656206E+03
       484  26 -6.409457E+04 -4.400873E+05 -5.976692E+04  6.835754E+04 -1.167365E+04 -8.661897E+03
       484  27 -9.603209E+04 -5.284865E+05 -9.435167E+04  8.302869E+04 -3.928606E+03 -2.496561E+04
       485   1  1.053853E+05  1.100353E+05  4.287654E+04  7.275185E+04  2.242453E+04  1.658294E+04
       485   2  1.023782E+05  7.749807E+04  2.155140E+04  8.067817E+04  1.450285E+04  1.001242E+04
       485   3  1.118133E+05  6.310245E+04  1.276735E+04  8.099169E+04  6.317470E+03  3.792396E+03
       485   4  1.123513E+05  8.168453E+04  3.880272E+04  6.093723E+04  2.160891E+04  1.596845E+04
       485   5  1.000019E+05  6.173372E+04  1.856698E+04  7.296756E+04  1.419141E+04  9.777917E+03
       485   6  9.998505E+04  5.981479E+04  1.043399E+04  7.738507E+04  6.510535E+03  3.937625E+03
       485   7  1.193181E+05  5.333525E+04  3.472904E+04  4.912241E+04  2.079325E+04  1.535403E+04
       485   8  9.762577E+04  4.596986E+04  1.558258E+04  6.525706E+04  1.387998E+04  9.543426E+03
       485   9  8.815718E+04  5.652719E+04  8.100667E+03  7.377855E+04  6.703591E+03  4.082852E+03
       485  10  1.053847E+05  1.100349E+05  4.287508E+04  7.275155E+04  3.659026E-10 -2.151490E-09
       485  11  1.023779E+05  7.749790E+04  2.155082E+04  8.067805E+04 -1.112114E-09 -9.314796E-10
       485  12  1.118132E+05  6.310243E+04  1.276725E+04  8.099167E+04 -5.696127E-10 -3.938134E-09
       485  13  1.123507E+05  8.168413E+04  3.880137E+04  6.093695E+04  9.172119E-10 -1.231459E-09
       485  14  1.000017E+05  6.173356E+04  1.856642E+04  7.296745E+04  7.347242E-10 -7.258186E-10
       485  15  9.998500E+04  5.981476E+04  1.043388E+04  7.738505E+04  4.181681E-10  1.601577E-09
       485  16  1.193176E+05  5.333488E+04  3.472779E+04  4.912216E+04 -2.191196E-10  1.851054E-09
       485  17  9.762554E+04  4.596971E+04  1.558205E+04  6.525695E+04  1.127487E-09  1.853463E-09
       485  18  8.815713E+04  5.652716E+04  8.100551E+03  7.377853E+04  1.940375E-10  5.057081E-10
       485  19  1.053853E+05  1.100353E+05  4.287654E+04  7.275185E+04 -2.242453E+04 -1.658294E+04
       485  20  1.023782E+05  7.749807E+04  2.155140E+04  8.067817E+04 -1.450285E+04 -1.001242E+04
       485  21  1.118133E+05  6.310245E+04  1.276735E+04  8.099169E+04 -6.317470E+03 -3.792396E+03
       485  22  1.123513E+05  8.168453E+04  3.880272E+04  6.093723E+04 -2.160891E+04 -1.596845E+04
       485  23  1.000019E+05  6.173372E+04  1.856698E+04  7.296756E+04 -1.419141E+04 -9.777917E+03
       485  24  9.998505E+04  5.981479E+04  1.043399E+04  7.738507E+04 -6.510535E+03 -3.937625E+03
       485  25  1.193181E+05  5.333525E+04  3.472904E+04  4.912241E+04 -2.079325E+04 -1.535403E+04
       485  26  9.762577E+04  4.596986E+04  1.558258E+04  6.525706E+04 -1.387998E+04 -9.543426E+03
       485  27  8.815718E+04  5.652719E+04  8.100667E+03  7.377855E+04 -6.703591E+03 -4.082852E+03
       486   1  1.067276E+05  6.598015E+04  1.010810E+04  8.002885E+04  5.210942E+03  3.084432E+03
       486   2  1.049642E+05  6.319525E+04  6.178775E+03  7.938831E+04  3.237161E+03  1.762000E+03
       486   3  1.033184E+05  6.191047E+04  4.055447E+03  7.869948E+04  1.244668E+03  4.644544E+02
       486   4  9.953467E+04  6.014621E+04  8.103197E+03  7.605277E+04  5.341881E+03  3.182892E+03
       486   5  9.923109E+04  5.896022E+04  4.669097E+03  7.640776E+04  3.403982E+03  1.887449E+03
       486   6  9.903735E+04  5.926659E+04  3.009859E+03  7.671447E+04  1.447351E+03  6.168759E+02
       486   7  9.234181E+04  5.431232E+04  6.098290E+03  7.207675E+04  5.472818E+03  3.281351E+03
       486   8  9.349798E+04  5.472518E+04  3.159400E+03  7.342722E+04  3.570803E+03  2.012898E+03
       486   9  9.475624E+04  5.662267E+04  1.964248E+03  7.472944E+04  1.650035E+03  7.692986E+02
       486  10  1.067276E+05  6.598013E+04  1.010803E+04  8.002883E+04 -2.056343E-09 -1.610581E-09
       486  11  1.049642E+05  6.319525E+04  6.178749E+03  7.938830E+04 -2.253125E-09  2.244866E-09
       486  12  1.033184E+05  6.191047E+04  4.055444E+03  7.869948E+04 -6.914824E-10  1.713096E-09
       486  13  9.953464E+04  6.014619E+04  8.103124E+03  7.605276E+04 -4.871525E-10  4.088518E-09
       486  14  9.923107E+04  5.896021E+04  4.669068E+03  7.640776E+04  1.015967E-10 -3.341679E-09
       486  15  9.903735E+04  5.926659E+04  3.009855E+03  7.671447E+04 -5.889739E-10  2.501348E-09
       486  16  9.234178E+04  5.431230E+04  6.098213E+03  7.207674E+04  1.741822E-09 -5.833598E-10
       486  17  9.349796E+04  5.472517E+04  3.159368E+03  7.342721E+04 -2.889098E-10 -2.361735E-09
       486  18  9.475624E+04  5.662267E+04  1.964242E+03  7.472944E+04 -1.588561E-09 -3.874332E-09
       486  19  1.067276E+05  6.598015E+04  1.010810E+04  8.002885E+04 -5.210942E+03 -3.084432E+03
       486  20  1.049642E+05  6.319525E+04  6.178775E+03  7.938831E+04 -3.237161E+03 -1.762000E+03
       486  21  1.033184E+05  6.191047E+04  4.055447E+03  7.869948E+04 -1.244668E+03 -4.644544E+02
       486  22  9.953467E+04  6.014621E+04  8.103197E+03  7.605277E+04 -5.341881E+03 -3.182892E+03
       486  23  9.923109E+04  5.896022E+04  4.669097E+03  7.640776E+04 -3.403982E+03 -1.887449E+03
       486  24  9.903735E+04  5.926659E+04  3.009859E+03  7.671447E+04 -1.447351E+03 -6.168759E+02
       486  25  9.234181E+04  5.431232E+04  6.098290E+03  7.207675E+04 -5.472818E+03 -3.281351E+03
       486  26  9.349798E+04  5.472518E+04  3.159400E+03  7.342722E+04 -3.570803E+03 -2.012898E+03
       486  27  9.475624E+04  5.662267E+04  1.964248E+03  7.472944E+04 -1.650035E+03 -7.692986E+02
       487   1  1.018926E+05  6.124311E+04  3.295854E+03  7.807209E+04  7.920859E+02  2.526303E+02
       487   2  1.003022E+05  5.965561E+04  2.517239E+03  7.707573E+04 -2.001320E+02 -2.775369E+02
       487   3  9.822906E+04  5.881891E+04  2.486861E+03  7.629443E+04 -1.192552E+03 -8.073900E+02
       487   4  9.900237E+04  5.927289E+04  2.570658E+03  7.664427E+04  9.905843E+02  4.019048E+02
       487   5  9.924419E+04  5.889814E+04  2.245566E+03  7.653632E+04 -1.201978E+00 -1.279390E+02
       487   6  9.900305E+04  5.927407E+04  2.668332E+03  7.664340E+04 -9.932012E+02 -6.574755E+02
       487   7  9.611221E+04  5.730272E+04  1.845477E+03  7.521648E+04  1.189078E+03  5.511762E+02
       487   8  9.818615E+04  5.814069E+04  1.973897E+03  7.599691E+04  1.977260E+02  2.165736E+01
       487   9  9.977704E+04  5.972923E+04  2.849803E+03  7.699237E+04 -7.938500E+02 -5.075609E+02
       487  10  1.018926E+05  6.124311E+04  3.295853E+03  7.807209E+04  4.923499E-09  5.536755E-09
       487  11  1.003022E+05  5.965561E+04  2.517238E+03  7.707573E+04 -3.910267E-09 -6.061515E-09
       487  12  9.822905E+04  5.881891E+04  2.486857E+03  7.629443E+04 -1.789879E-08 -1.285288E-08
       487  13  9.900237E+04  5.927289E+04  2.570656E+03  7.664427E+04  1.641306E-09 -3.897026E-09
       487  14  9.924419E+04  5.889814E+04  2.245566E+03  7.653632E+04 -1.423972E-09  1.214175E-09
       487  15  9.900305E+04  5.927407E+04  2.668329E+03  7.664340E+04 -4.932078E-09 -6.785356E-09
       487  16  9.611221E+04  5.730272E+04  1.845474E+03  7.521648E+04 -3.057117E-09 -5.004901E-09
       487  17  9.818615E+04  5.814069E+04  1.973897E+03  7.599691E+04  4.438606E-09  1.045110E-09
       487  18  9.977704E+04  5.972923E+04  2.849801E+03  7.699237E+04  7.971045E-09  4.998169E-09
       487  19  1.018926E+05  6.124311E+04  3.295854E+03  7.807209E+04 -7.920859E+02 -2.526303E+02
       487  20  1.003022E+05  5.965561E+04  2.517239E+03  7.707573E+04  2.001320E+02  2.775369E+02
       487  21  9.822906E+04  5.881891E+04  2.486861E+03  7.629443E+04  1.192552E+03  8.073900E+02
       487  22  9.900237E+04  5.927289E+04  2.570658E+03  7.664427E+04 -9.905843E+02 -4.019048E+02
       487  23  9.924419E+04  5.889814E+04  2.245566E+03  7.653632E+04  1.201978E+00  1.279390E+02
       487  24  9.900305E+04  5.927407E+04  2.668332E+03  7.664340E+04  9.932012E+02  6.574755E+02
       487  25  9.611221E+04  5.730272E+04  1.845477E+03  7.521648E+04 -1.189078E+03 -5.511762E+02
       487  26  9.818615E+04  5.814069E+04  1.973897E+03  7.599691E+04 -1.977260E+02 -2.165736E+01
       487  27  9.977704E+04  5.972923E+04  2.849803E+03  7.699237E+04  7.938500E+02  5.075609E+02
       488   1  9.686425E+04  5.815028E+04  2.662694E+03  7.581718E+04 -1.670374E+03 -1.038137E+03
       488   2  9.562486E+04  5.622720E+04  4.018801E+03  7.449153E+04 -3.723566E+03 -2.378068E+03
       488   3  9.454266E+04  5.585465E+04  7.245139E+03  7.309901E+04 -5.761160E+03 -3.738800E+03
       488   4  9.904181E+04  5.926772E+04  3.164783E+03  7.672028E+04 -1.467633E+03 -8.856722E+02
       488   5  9.922732E+04  5.896206E+04  4.982451E+03  7.639800E+04 -3.550788E+03 -2.248137E+03
       488   6  9.957654E+04  6.021346E+04  8.696385E+03  7.600889E+04 -5.618318E+03 -3.631389E+03
       488   7  1.012194E+05  6.038518E+04  3.666882E+03  7.762339E+04 -1.264889E+03 -7.332050E+02
       488   8  1.028298E+05  6.169693E+04  5.946100E+03  7.830450E+04 -3.378008E+03 -2.118205E+03
       488   9  1.046104E+05  6.457222E+04  1.014760E+04  7.891875E+04 -5.475478E+03 -3.523978E+03
       488  10  9.686425E+04  5.815028E+04  2.662687E+03  7.581717E+04  7.378724E-09  5.515185E-09
       488  11  9.562484E+04  5.622719E+04  4.018765E+03  7.449152E+04  4.733560E-09  9.878829E-09
       488  12  9.454262E+04  5.585463E+04  7.245050E+03  7.309900E+04 -5.032580E-09  4.011450E-09
       488  13  9.904181E+04  5.926772E+04  3.164778E+03  7.672028E+04 -4.490932E-09 -6.418970E-09
       488  14  9.922731E+04  5.896205E+04  4.982418E+03  7.639800E+04 -1.129376E-09 -1.003365E-09
       488  15  9.957650E+04  6.021344E+04  8.696301E+03  7.600887E+04 -2.826113E-10  7.627817E-10
       488  16  1.012194E+05  6.038518E+04  3.666878E+03  7.762339E+04 -1.875962E-08 -1.369233E-08
       488  17  1.028298E+05  6.169692E+04  5.946070E+03  7.830449E+04 -5.992116E-09 -5.839784E-09
       488  18  1.046103E+05  6.457220E+04  1.014752E+04  7.891873E+04  3.990013E-09  9.345620E-10
       488  19  9.686425E+04  5.815028E+04  2.662694E+03  7.581718E+04  1.670374E+03  1.038137E+03
       488  20  9.562486E+04  5.622720E+04  4.018801E+03  7.449153E+04  3.723566E+03  2.378068E+03
       488  21  9.454266E+04  5.585465E+04  7.245139E+03  7.309901E+04  5.761160E+03  3.738800E+03
       488  22  9.904181E+04  5.926772E+04  3.164783E+03  7.672028E+04  1.467633E+03  8.856722E+02
       488  23  9.922732E+04  5.896206E+04  4.982451E+03  7.639800E+04  3.550788E+03  2.248137E+03
       488  24  9.957654E+04  6.021346E+04  8.696385E+03  7.600889E+04  5.618318E+03  3.631389E+03
       488  25  1.012194E+05  6.038518E+04  3.666882E+03  7.762339E+04  1.264889E+03  7.332050E+02
       488  26  1.028298E+05  6.169693E+04  5.946100E+03  7.830450E+04  3.378008E+03  2.118205E+03
       488  27  1.046104E+05  6.457222E+04  1.014760E+04  7.891875E+04  5.475478E+03  3.523978E+03
       489   1  9.013416E+04  5.830706E+04  9.432503E+03  7.497892E+04 -7.063491E+03 -4.593377E+03
       489   2  1.004339E+05  4.706303E+04  1.757534E+04  6.587467E+04 -1.492850E+04 -1.052506E+04
       489   3  1.239544E+05  5.508986E+04  3.837273E+04  4.856600E+04 -2.257340E+04 -1.674941E+04
       489   4  1.000601E+05  5.985839E+04  1.121082E+04  7.744325E+04 -6.868788E+03 -4.446903E+03
       489   5  1.000578E+05  6.194382E+04  1.997174E+04  7.269579E+04 -1.515565E+04 -1.069622E+04
       489   6  1.133673E+05  8.339131E+04  4.175364E+04  5.974400E+04 -2.322228E+04 -1.723861E+04
       489   7  1.099862E+05  6.140974E+04  1.298914E+04  7.990761E+04 -6.674081E+03 -4.300430E+03
       489   8  9.968186E+04  7.682522E+04  2.236820E+04  7.951701E+04 -1.538281E+04 -1.086740E+04
       489   9  1.027810E+05  1.116952E+05  4.513483E+04  7.092204E+04 -2.387115E+04 -1.772787E+04
       489  10  9.013410E+04  5.830702E+04  9.432370E+03  7.497890E+04 -9.649064E-09 -2.703361E-09
       489  11  1.004336E+05  4.706285E+04  1.757472E+04  6.587454E+04  1.061699E-08  9.199938E-09
       489  12  1.239537E+05  5.508942E+04  3.837125E+04  4.856570E+04  1.626513E-08  1.112813E-08
       489  13  1.000600E+05  5.985836E+04  1.121069E+04  7.744323E+04  3.305422E-09  3.484316E-09
       489  14  1.000575E+05  6.194364E+04  1.997110E+04  7.269566E+04  9.823709E-09  5.703541E-09
       489  15  1.133666E+05  8.339085E+04  4.175206E+04  5.974368E+04  3.377592E-09  3.984722E-09
       489  16  1.099861E+05  6.140971E+04  1.298902E+04  7.990758E+04  1.764158E-08  8.247475E-09
       489  17  9.968158E+04  7.682503E+04  2.236754E+04  7.951688E+04  8.506035E-09  1.035381E-08
       489  18  1.027803E+05  1.116948E+05  4.513317E+04  7.092170E+04 -8.794138E-09 -6.168710E-09
       489  19  9.013416E+04  5.830706E+04  9.432503E+03  7.497892E+04  7.063491E+03  4.593377E+03
       489  20  1.004339E+05  4.706303E+04  1.757534E+04  6.587467E+04  1.492850E+04  1.052506E+04
       489  21  1.239544E+05  5.508986E+04  3.837273E+04  4.856600E+04  2.257340E+04  1.674941E+04
       489  22  1.000601E+05  5.985839E+04  1.121082E+04  7.744325E+04  6.868788E+03  4.446903E+03
       489  23  1.000578E+05  6.194382E+04  1.997174E+04  7.269579E+04  1.515565E+04  1.069622E+04
       489  24  1.133673E+05  8.339131E+04  4.175364E+04  5.974400E+04  2.322228E+04  1.723861E+04
       489  25  1.099862E+05  6.140974E+04  1.298914E+04  7.990761E+04  6.674081E+03  4.300430E+03
       489  26  9.968186E+04  7.682522E+04  2.236820E+04  7.951701E+04  1.538281E+04  1.086740E+04
       489  27  1.027810E+05  1.116952E+05  4.513483E+04  7.092204E+04  2.387115E+04  1.772787E+04
       490   1 -4.320352E+04 -2.555276E+05 -4.331851E+04  4.203249E+04 -1.438425E+03 -1.337262E+04
       490   2 -2.452702E+04 -2.132274E+05 -2.527163E+04  3.354032E+04 -4.094081E+03 -5.347423E+03
       490   3 -1.313156E+04 -1.737573E+05 -1.426682E+04  3.563977E+04 -3.107262E+03  2.682965E+03
       490   4 -9.383503E+03 -1.192535E+05 -1.060251E+04  3.638114E+04 -1.445907E+03 -6.942210E+03
       490   5 -1.550192E+03 -1.182913E+05 -5.375635E+03  3.109076E+04 -4.095401E+03 -4.159977E+03
       490   6 -8.683908E+01 -1.192505E+05 -3.548444E+03  3.639218E+04 -3.102592E+03 -1.373178E+03
       490   7  2.443530E+04  1.703787E+04  2.211235E+04  3.072854E+04 -1.453505E+03 -5.103983E+02
       490   8  2.142608E+04 -2.334672E+04  1.451987E+04  2.864083E+04 -4.096730E+03 -2.972354E+03
       490   9  1.295771E+04 -6.474072E+04  7.169850E+03  3.714466E+04 -3.097931E+03 -5.429669E+03
       490  10 -4.320357E+04 -2.555278E+05 -4.331885E+04  4.203248E+04  3.788652E-11 -9.493959E-10
       490  11 -2.452704E+04 -2.132274E+05 -2.527172E+04  3.354030E+04 -4.361954E-10 -4.246271E-09
       490  12 -1.313157E+04 -1.737573E+05 -1.426685E+04  3.563977E+04 -5.835989E-10  1.412794E-09
       490  13 -9.383518E+03 -1.192535E+05 -1.060260E+04  3.638113E+04  9.407147E-10 -2.663363E-09
       490  14 -1.550215E+03 -1.182913E+05 -5.375699E+03  3.109075E+04 -1.106879E-09 -4.301134E-09
       490  15 -8.684992E+01 -1.192505E+05 -3.548466E+03  3.639218E+04 -1.268238E-10 -6.551019E-09
       490  16  2.443530E+04  1.703787E+04  2.211235E+04  3.072854E+04  6.130440E-10  9.539631E-10
       490  17  2.142606E+04 -2.334674E+04  1.451982E+04  2.864082E+04 -4.256944E-10  3.447789E-09
       490  18  1.295769E+04 -6.474076E+04  7.169777E+03  3.714465E+04 -4.178916E-10  2.067375E-09
       490  19 -4.320352E+04 -2.555276E+05 -4.331851E+04  4.203249E+04  1.438425E+03  1.337262E+04
       490  20 -2.452702E+04 -2.132274E+05 -2.527163E+04  3.354032E+04  4.094081E+03  5.347423E+03
       490  21 -1.313156E+04 -1.737573E+05 -1.426682E+04  3.563977E+04  3.107262E+03 -2.682965E+03
       490  22 -9.383503E+03 -1.192535E+05 -1.060251E+04  3.638114E+04  1.445907E+03  6.942210E+03
       490  23 -1.550192E+03 -1.182913E+05 -5.375635E+03  3.109076E+04  4.095401E+03  4.159977E+03
       490  24 -8.683908E+01 -1.192505E+05 -3.548444E+03  3.639218E+04  3.102592E+03  1.373178E+03
       490  25  2.443530E+04  1.703787E+04  2.211235E+04  3.072854E+04  1.453505E+03  5.103983E+02
       490  26  2.142608E+04 -2.334672E+04  1.451987E+04  2.864083E+04  4.096730E+03  2.972354E+03
       490  27  1.295771E+04 -6.474072E+04  7.169850E+03  3.714466E+04  3.097931E+03  5.429669E+03
       491   1 -6.821666E+03 -1.455711E+05 -8.505688E+03  3.669844E+04 -1.431467E+03  2.614870E+03
       491   2  3.218090E+03 -1.045318E+05 -3.745894E+02  3.101201E+04  9.461932E+02  4.058815E+03
       491   3  1.251618E+04 -6.383116E+04  6.639169E+03  3.612263E+04  3.274333E+03  5.502818E+03
       491   4 -4.203688E+02 -1.189015E+05 -3.176326E+03  3.643589E+04 -1.427518E+03 -8.464580E+02
       491   5 -1.525089E+02 -1.187254E+05 -3.032040E+03  3.103722E+04  9.500848E+02  6.686826E+02
       491   6 -6.386100E+02 -1.189019E+05 -4.054548E+03  3.643564E+04  3.278163E+03  2.183792E+03
       491   7  5.980892E+03 -9.223111E+04  2.153044E+03  3.617332E+04 -1.423565E+03 -4.307932E+03
       491   8 -3.523114E+03 -1.329187E+05 -5.689457E+03  3.106243E+04  9.539762E+02 -2.721374E+03
       491   9 -1.379357E+04 -1.739697E+05 -1.474837E+04  3.674863E+04  3.281989E+03 -1.134946E+03
       491  10 -6.821670E+03 -1.455711E+05 -8.505704E+03  3.669844E+04 -8.032879E-10  1.842559E-09
       491  11  3.218085E+03 -1.045319E+05 -3.746221E+02  3.101200E+04  2.119836E-10 -6.195826E-09
       491  12  1.251616E+04 -6.383120E+04  6.639092E+03  3.612261E+04  1.337312E-10 -4.998658E-10
       491  13 -4.203712E+02 -1.189015E+05 -3.176332E+03  3.643589E+04 -3.243391E-10 -2.591075E-09
       491  14 -1.525100E+02 -1.187254E+05 -3.032043E+03  3.103722E+04 -1.593105E-09 -3.186873E-09
       491  15 -6.386229E+02 -1.189019E+05 -4.054577E+03  3.643563E+04  6.497312E-10 -6.516270E-09
       491  16  5.980884E+03 -9.223113E+04  2.153005E+03  3.617332E+04 -4.000384E-11 -2.370349E-10
       491  17 -3.523117E+03 -1.329187E+05 -5.689472E+03  3.106244E+04 -5.905454E-10  6.514084E-09
       491  18 -1.379358E+04 -1.739697E+05 -1.474839E+04  3.674863E+04 -1.006546E-09  2.740856E-09
       491  19 -6.821666E+03 -1.455711E+05 -8.505688E+03  3.669844E+04  1.431467E+03 -2.614870E+03
       491  20  3.218090E+03 -1.045318E+05 -3.745894E+02  3.101201E+04 -9.461932E+02 -4.058815E+03
       491  21  1.251618E+04 -6.383116E+04  6.639169E+03  3.612263E+04 -3.274333E+03 -5.502818E+03
       491  22 -4.203688E+02 -1.189015E+05 -3.176326E+03  3.643589E+04  1.427518E+03  8.464580E+02
       491  23 -1.525089E+02 -1.187254E+05 -3.032040E+03  3.103722E+04 -9.500848E+02 -6.686826E+02
       491  24 -6.386100E+02 -1.189019E+05 -4.054548E+03  3.643564E+04 -3.278163E+03 -2.183792E+03
       491  25  5.980892E+03 -9.223111E+04  2.153044E+03  3.617332E+04  1.423565E+03  4.307932E+03
       491  26 -3.523114E+03 -1.329187E+05 -5.689457E+03  3.106243E+04 -9.539762E+02  2.721374E+03
       491  27 -1.379357E+04 -1.739697E+05 -1.474837E+04  3.674863E+04 -3.281989E+03  1.134946E+03
       492   1  1.972075E+04 -3.656023E+04  1.118699E+04  3.762123E+04  4.942637E+03  6.914388E+03
       492   2  2.736296E+04  5.303718E+03  1.739452E+04  2.727721E+04  5.584770E+03  4.919301E+03
       492   3  2.602258E+04  4.521844E+04  2.266271E+04  2.747650E+04  1.887896E+03  2.918652E+03
       492   4 -8.369583E+01 -1.194988E+05 -4.907571E+03  3.638254E+04  4.947349E+03  2.868490E+03
       492   5 -2.423563E+03 -1.179830E+05 -8.190138E+03  3.110185E+04  5.582276E+03  7.121100E+03
       492   6 -1.483169E+04 -1.195029E+05 -1.675141E+04  3.636483E+04  1.877772E+03  1.136816E+04
       492   7 -1.988854E+04 -2.024307E+05 -2.100239E+04  3.514401E+04  4.952077E+03 -1.176879E+03
       492   8 -3.221100E+04 -2.412552E+05 -3.377560E+04  3.492573E+04  5.579809E+03  9.322470E+03
       492   9 -5.568759E+04 -2.841990E+05 -5.616713E+04  4.525081E+04  1.867888E+03  1.981543E+04
       492  10  1.972071E+04 -3.656029E+04  1.118685E+04  3.762121E+04  3.057251E-10 -2.650132E-08
       492  11  2.736292E+04  5.303683E+03  1.739442E+04  2.727718E+04  2.870748E-10 -7.110323E-09
       492  12  2.602257E+04  4.521843E+04  2.266268E+04  2.747650E+04 -4.528855E-10  2.743872E-08
       492  13 -8.372432E+01 -1.194988E+05 -4.907633E+03  3.638253E+04 -1.253581E-09 -2.650647E-09
       492  14 -2.423610E+03 -1.179830E+05 -8.190291E+03  3.110182E+04  5.788995E-10 -3.748608E-09
       492  15 -1.483173E+04 -1.195030E+05 -1.675166E+04  3.636482E+04 -1.074274E-09 -7.994268E-09
       492  16 -1.988856E+04 -2.024307E+05 -2.100244E+04  3.514402E+04 -4.299336E-10  2.758694E-08
       492  17 -3.221105E+04 -2.412553E+05 -3.377582E+04  3.492568E+04  4.366705E-10  2.537204E-09
       492  18 -5.568770E+04 -2.841994E+05 -5.616787E+04  4.525078E+04 -1.034960E-10 -2.499910E-08
       492  19  1.972075E+04 -3.656023E+04  1.118699E+04  3.762123E+04 -4.942637E+03 -6.914388E+03
       492  20  2.736296E+04  5.303718E+03  1.739452E+04  2.727721E+04 -5.584770E+03 -4.919301E+03
       492  21  2.602258E+04  4.521844E+04  2.266271E+04  2.747650E+04 -1.887896E+03 -2.918652E+03
       492  22 -8.369583E+01 -1.194988E+05 -4.907571E+03  3.638254E+04 -4.947349E+03 -2.868490E+03
       492  23 -2.423563E+03 -1.179830E+05 -8.190138E+03  3.110185E+04 -5.582276E+03 -7.121100E+03
       492  24 -1.483169E+04 -1.195029E+05 -1.675141E+04  3.636483E+04 -1.877772E+03 -1.136816E+04
       492  25 -1.988854E+04 -2.024307E+05 -2.100239E+04  3.514401E+04 -4.952077E+03  1.176879E+03
       492  26 -3.221100E+04 -2.412552E+05 -3.377560E+04  3.492573E+04 -5.579809E+03 -9.322470E+03
       492  27 -5.568759E+04 -2.841990E+05 -5.616713E+04  4.525081E+04 -1.867888E+03 -1.981543E+04
       493   1 -2.704299E+05  6.953872E+04  6.069835E+04  3.329381E+04 -1.798738E+03 -5.529224E+03
       493   2 -3.289750E+05  8.098020E+04  5.412433E+04  3.747642E+04 -7.331732E+03 -1.756780E+04
       493   3 -3.920051E+05  7.144830E+04  4.591427E+04  5.705562E+04 -1.285894E+04 -1.881869E+04
       493   4 -6.917876E+05 -3.484202E+04 -3.951654E+04  5.402258E+04 -2.688442E+04 -5.519382E+03
       493   5 -6.881802E+05 -5.584715E+03 -1.925716E+04  4.632965E+04 -1.689215E+04 -1.756551E+04
       493   6 -6.917622E+05 -4.866622E+00 -1.142478E+04  5.403446E+04 -6.894214E+03 -1.882089E+04
       493   7 -1.112980E+06 -1.392336E+05 -1.397413E+05  7.473720E+04 -5.195315E+04 -5.511212E+03
       493   8 -1.047262E+06 -9.215738E+04 -9.264509E+04  5.517766E+04 -2.644714E+04 -1.756348E+04
       493   9 -9.914325E+05 -7.146328E+04 -6.876777E+04  5.101479E+04 -9.323005E+02 -1.882314E+04
       493  10 -2.704299E+05  6.953868E+04  6.069829E+04  3.329380E+04  3.410328E-10  5.585575E-11
       493  11 -3.289752E+05  8.097986E+04  5.412365E+04  3.747632E+04  3.120366E-11  3.498503E-11
       493  12 -3.920054E+05  7.144787E+04  4.591329E+04  5.705543E+04  2.489754E-10 -6.641029E-11
       493  13 -6.917884E+05 -3.484225E+04 -3.951795E+04  5.402246E+04 -3.152649E-11  1.558644E-11
       493  14 -6.881806E+05 -5.585123E+03 -1.925828E+04  4.632941E+04  2.176073E-10  5.169904E-11
       493  15 -6.917623E+05 -5.259639E+00 -1.142553E+04  5.403435E+04 -2.722054E-10 -1.449675E-10
       493  16 -1.112983E+06 -1.392344E+05 -1.397464E+05  7.473697E+04 -2.068967E-11 -1.648802E-11
       493  17 -1.047263E+06 -9.215790E+04 -9.264698E+04  5.517728E+04  2.177425E-10  1.957406E-11
       493  18 -9.914326E+05 -7.146366E+04 -6.876843E+04  5.101478E+04 -3.326454E-11 -7.058512E-11
       493  19 -2.704299E+05  6.953872E+04  6.069835E+04  3.329381E+04  1.798738E+03  5.529224E+03
       493  20 -3.289750E+05  8.098020E+04  5.412433E+04  3.747642E+04  7.331732E+03  1.756780E+04
       493  21 -3.920051E+05  7.144830E+04  4.591427E+04  5.705562E+04  1.285894E+04  1.881869E+04
       493  22 -6.917876E+05 -3.484202E+04 -3.951654E+04  5.402258E+04  2.688442E+04  5.519382E+03
       493  23 -6.881802E+05 -5.584715E+03 -1.925716E+04  4.632965E+04  1.689215E+04  1.756551E+04
       493  24 -6.917622E+05 -4.866622E+00 -1.142478E+04  5.403446E+04  6.894214E+03  1.882089E+04
       493  25 -1.112980E+06 -1.392336E+05 -1.397413E+05  7.473720E+04  5.195315E+04  5.511212E+03
       493  26 -1.047262E+06 -9.215738E+04 -9.264509E+04  5.517766E+04  2.644714E+04  1.756348E+04
       493  27 -9.914325E+05 -7.146328E+04 -6.876777E+04  5.101479E+04  9.323005E+02  1.882314E+04
       494   1 -4.321820E+05  6.016204E+04  3.986698E+04  5.358487E+04 -9.366497E+03 -1.636882E+04
       494   2 -4.927518E+05  4.678109E+04  3.020703E+04  4.587066E+04 -7.069989E+03 -1.317832E+04
       494   3 -5.538444E+05  3.242241E+04  1.881089E+04  5.423551E+04 -4.774107E+03 -9.241935E+03
       494   4 -6.903197E+05 -1.343533E+03 -9.360634E+03  5.418351E+04 -5.309161E+03 -1.637028E+04
       494   5 -6.899589E+05 -8.229727E+01 -6.771853E+03  4.614393E+04 -1.940508E+03 -1.317961E+04
       494   6 -6.903112E+05  1.483314E+01 -6.664955E+03  5.418375E+04  1.427736E+03 -9.242930E+03
       494   7 -9.483930E+05 -6.285302E+04 -5.859120E+04  5.478189E+04 -1.253474E+03 -1.637173E+04
       494   8 -8.871283E+05 -4.694792E+04 -4.375232E+04  4.641711E+04  3.187383E+03 -1.318089E+04
       494   9 -8.267598E+05 -3.239379E+04 -3.214146E+04  5.413201E+04  7.628248E+03 -9.243927E+03
       494  10 -4.321822E+05  6.016173E+04  3.986631E+04  5.358475E+04  2.349513E-10 -8.517280E-11
       494  11 -4.927519E+05  4.678089E+04  3.020661E+04  4.587058E+04  3.474348E-11  2.283047E-11
       494  12 -5.538444E+05  3.242231E+04  1.881069E+04  5.423547E+04  1.807766E-10 -3.086844E-11
       494  13 -6.903198E+05 -1.343828E+03 -9.361191E+03  5.418344E+04  1.551971E-11 -7.774948E-11
       494  14 -6.899589E+05 -8.248475E+01 -6.772187E+03  4.614391E+04  1.275962E-10  3.234167E-11
       494  15 -6.903112E+05  1.474088E+01 -6.665120E+03  5.418376E+04 -2.013456E-10 -1.545848E-10
       494  16 -9.483931E+05 -6.285330E+04 -5.859170E+04  5.478188E+04 -8.997716E-11 -1.352429E-10
       494  17 -8.871283E+05 -4.694811E+04 -4.375267E+04  4.641714E+04  1.490689E-10 -2.918768E-11
       494  18 -8.267599E+05 -3.239390E+04 -3.214173E+04  5.413207E+04 -3.886298E-11 -6.064344E-11
       494  19 -4.321820E+05  6.016204E+04  3.986698E+04  5.358487E+04  9.366497E+03  1.636882E+04
       494  20 -4.927518E+05  4.678109E+04  3.020703E+04  4.587066E+04  7.069989E+03  1.317832E+04
       494  21 -5.538444E+05  3.242241E+04  1.881089E+04  5.423551E+04  4.774107E+03  9.241935E+03
       494  22 -6.903197E+05 -1.343533E+03 -9.360634E+03  5.418351E+04  5.309161E+03  1.637028E+04
       494  23 -6.899589E+05 -8.229727E+01 -6.771853E+03  4.614393E+04  1.940508E+03  1.317961E+04
       494  24 -6.903112E+05  1.483314E+01 -6.664955E+03  5.418375E+04 -1.427736E+03  9.242930E+03
       494  25 -9.483930E+05 -6.285302E+04 -5.859120E+04  5.478189E+04  1.253474E+03  1.637173E+04
       494  26 -8.871283E+05 -4.694792E+04 -4.375232E+04  4.641711E+04 -3.187383E+03  1.318089E+04
       494  27 -8.267598E+05 -3.239379E+04 -3.214146E+04  5.413201E+04 -7.628248E+03  9.243927E+03
       495   1 -5.952284E+05  2.265154E+04  1.016538E+04  5.368574E+04 -3.469114E+03 -6.703228E+03
       495   2 -6.554372E+05  7.880549E+03 -4.466045E+03  4.638416E+04  2.274788E+03 -2.598071E+03
       495   3 -7.169798E+05 -9.284187E+03 -2.343617E+04  5.519962E+04  8.017838E+03  1.196204E+03
       495   4 -6.904309E+05  9.040095E+01 -7.368036E+03  5.419219E+04  2.662549E+03 -6.704045E+03
       495   5 -6.898012E+05 -2.298556E+02 -1.062812E+04  4.613342E+04  7.958531E+03 -2.598752E+03
       495   6 -6.904319E+05 -2.866081E+03 -1.791580E+04  5.419182E+04  1.325420E+04  1.195644E+03
       495   7 -7.856245E+05 -2.247123E+04 -2.490168E+04  5.469856E+04  8.793296E+03 -6.704852E+03
       495   8 -7.241641E+05 -8.340309E+03 -1.679012E+04  4.588270E+04  1.364197E+04 -2.599438E+03
       495   9 -6.638833E+05  3.552000E+03 -1.239537E+04  5.318398E+04  1.849079E+04  1.195067E+03
       495  10 -5.952284E+05  2.265149E+04  1.016527E+04  5.368572E+04  3.045878E-10  5.262519E-11
       495  11 -6.554372E+05  7.880541E+03 -4.466068E+03  4.638417E+04  8.036526E-13  2.118399E-11
       495  12 -7.169799E+05 -9.284206E+03 -2.343629E+04  5.519961E+04  1.280259E-10 -2.549476E-11
       495  13 -6.904309E+05  9.035080E+01 -7.368134E+03  5.419220E+04  7.112092E-12 -2.141038E-11
       495  14 -6.898013E+05 -2.298799E+02 -1.062825E+04  4.613344E+04  1.426757E-10  5.323523E-11
       495  15 -6.904321E+05 -2.866129E+03 -1.791613E+04  5.419181E+04 -9.085030E-11 -5.490847E-11
       495  16 -7.856246E+05 -2.247130E+04 -2.490191E+04  5.469861E+04 -6.873103E-11 -7.544904E-11
       495  17 -7.241643E+05 -8.340366E+03 -1.679049E+04  4.588273E+04  8.056790E-11  4.884923E-11
       495  18 -6.638837E+05  3.551906E+03 -1.239601E+04  5.318397E+04 -7.157491E-13 -9.551290E-12
       495  19 -5.952284E+05  2.265154E+04  1.016538E+04  5.368574E+04  3.469114E+03  6.703228E+03
       495  20 -6.554372E+05  7.880549E+03 -4.466045E+03  4.638416E+04 -2.274788E+03  2.598071E+03
       495  21 -7.169798E+05 -9.284187E+03 -2.343617E+04  5.519962E+04 -8.017838E+03 -1.196204E+03
       495  22 -6.904309E+05  9.040095E+01 -7.368036E+03  5.419219E+04 -2.662549E+03  6.704045E+03
       495  23 -6.898012E+05 -2.298556E+02 -1.062812E+04  4.613342E+04 -7.958531E+03  2.598752E+03
       495  24 -6.904319E+05 -2.866081E+03 -1.791580E+04  5.419182E+04 -1.325420E+04 -1.195644E+03
       495  25 -7.856245E+05 -2.247123E+04 -2.490168E+04  5.469856E+04 -8.793296E+03  6.704852E+03
       495  26 -7.241641E+05 -8.340309E+03 -1.679012E+04  4.588270E+04 -1.364197E+04  2.599438E+03
       495  27 -6.638833E+05  3.552000E+03 -1.239537E+04  5.318398E+04 -1.849079E+04 -1.195067E+03
       496   1 -7.615726E+05 -1.628304E+04 -3.647174E+04  4.738039E+04  1.017734E+04  3.700424E+03
       496   2 -8.141039E+05 -4.298666E+04 -6.759392E+04  6.492068E+04  3.864068E+04  5.395858E+03
       496   3 -8.833621E+05 -1.217910E+05 -1.302869E+05  9.825730E+04  6.710019E+04  1.957938E+03
       496   4 -6.935814E+05  3.247973E+01 -2.293042E+04  5.412382E+04  1.631566E+04  3.699829E+03
       496   5 -6.858756E+05 -1.190796E+04 -4.056984E+04  4.621804E+04  3.739471E+04  5.394787E+03
       496   6 -6.936115E+05 -7.466131E+04 -8.464318E+04  5.411102E+04  5.847280E+04  1.954539E+03
       496   7 -6.255857E+05  1.634791E+04 -9.389160E+03  6.086800E+04  2.245463E+04  3.699368E+03
       496   8 -5.576310E+05  1.917100E+04 -1.354650E+04  2.751146E+04  3.614848E+04  5.393791E+03
       496   9 -5.038235E+05 -2.752687E+04 -3.900074E+04  9.951172E+03  4.984278E+04  1.952369E+03
       496  10 -7.615727E+05 -1.628308E+04 -3.647196E+04  4.738036E+04  1.549282E-10  5.758274E-11
       496  11 -8.141055E+05 -4.298709E+04 -6.759678E+04  6.492051E+04 -5.367048E-11 -8.143654E-12
       496  12 -8.833670E+05 -1.217922E+05 -1.302953E+05  9.825720E+04  2.374075E-10  9.194551E-11
       496  13 -6.935817E+05  3.239348E+01 -2.293094E+04  5.412377E+04  7.042292E-11 -3.239517E-12
       496  14 -6.858771E+05 -1.190837E+04 -4.057253E+04  4.621787E+04  1.870067E-10  9.829121E-11
       496  15 -6.936151E+05 -7.466223E+04 -8.464962E+04  5.411093E+04 -2.605433E-10  3.084970E-12
       496  16 -6.255862E+05  1.634776E+04 -9.390134E+03  6.086793E+04 -4.781389E-11  2.564424E-11
       496  17 -5.576324E+05  1.917061E+04 -1.354901E+04  2.751130E+04  4.923538E-11  1.428828E-10
       496  18 -5.038261E+05 -2.752754E+04 -3.900542E+04  9.951094E+03  1.129093E-11  6.739179E-11
       496  19 -7.615726E+05 -1.628304E+04 -3.647174E+04  4.738039E+04 -1.017734E+04 -3.700424E+03
       496  20 -8.141039E+05 -4.298666E+04 -6.759392E+04  6.492068E+04 -3.864068E+04 -5.395858E+03
       496  21 -8.833621E+05 -1.217910E+05 -1.302869E+05  9.825730E+04 -6.710019E+04 -1.957938E+03
       496  22 -6.935814E+05  3.247973E+01 -2.293042E+04  5.412382E+04 -1.631566E+04 -3.699829E+03
       496  23 -6.858756E+05 -1.190796E+04 -4.056984E+04  4.621804E+04 -3.739471E+04 -5.394787E+03
       496  24 -6.936115E+05 -7.466131E+04 -8.464318E+04  5.411102E+04 -5.847280E+04 -1.954539E+03
       496  25 -6.255857E+05  1.634791E+04 -9.389160E+03  6.086800E+04 -2.245463E+04 -3.699368E+03
       496  26 -5.576310E+05  1.917100E+04 -1.354650E+04  2.751146E+04 -3.614848E+04 -5.393791E+03
       496  27 -5.038235E+05 -2.752687E+04 -3.900074E+04  9.951172E+03 -4.984278E+04 -1.952369E+03
       497   1 -2.464821E+05  2.396464E+04  1.619619E+04  1.120099E+04 -1.537644E+04 -3.306874E+03
       497   2 -2.820292E+05  4.560145E+04  2.247183E+04  1.961804E+04 -1.361147E+04 -1.046512E+04
       497   3 -3.240391E+05  4.225198E+04  2.135331E+04  3.787865E+04 -1.184510E+04 -1.108615E+04
       497   4 -5.011980E+05 -3.913291E+04 -4.440784E+04  3.439457E+04 -3.037744E+04 -3.304658E+03
       497   5 -4.971396E+05 -6.240823E+03 -2.151697E+04  2.947545E+04 -1.920521E+04 -1.046478E+04
       497   6 -5.011832E+05  2.542521E+01 -1.255895E+04  3.440067E+04 -8.031303E+03 -1.108673E+04
       497   7 -7.558525E+05 -1.022330E+05 -1.050153E+05  5.757859E+04 -4.537231E+04 -3.303562E+03
       497   8 -7.122057E+05 -5.808561E+04 -6.550805E+04  3.932938E+04 -2.479704E+04 -1.046461E+04
       497   9 -6.782970E+05 -4.220293E+04 -4.647257E+04  3.092371E+04 -4.218566E+03 -1.108735E+04
       497  10 -2.464824E+05  2.396457E+04  1.619573E+04  1.120095E+04  2.981729E-10  3.401026E-11
       497  11 -2.820294E+05  4.560128E+04  2.247128E+04  1.961793E+04 -9.166221E-11 -3.288009E-11
       497  12 -3.240393E+05  4.225181E+04  2.135281E+04  3.787855E+04 -1.601286E-11 -7.393801E-11
       497  13 -5.011989E+05 -3.913317E+04 -4.440959E+04  3.439449E+04  3.600808E-11  2.089148E-11
       497  14 -4.971400E+05 -6.241040E+03 -2.151787E+04  2.947529E+04  1.153597E-10 -1.887293E-10
       497  15 -5.011833E+05  2.527592E+01 -1.255930E+04  3.440060E+04 -4.062286E-11 -1.882582E-10
       497  16 -7.558547E+05 -1.022336E+05 -1.050192E+05  5.757847E+04 -1.940778E-10 -7.388763E-12
       497  17 -7.122064E+05 -5.808590E+04 -6.550941E+04  3.932917E+04  1.652057E-10  3.328220E-11
       497  18 -6.782970E+05 -4.220306E+04 -4.647283E+04  3.092367E+04 -2.075913E-11 -1.235473E-10
       497  19 -2.464821E+05  2.396464E+04  1.619619E+04  1.120099E+04  1.537644E+04  3.306874E+03
       497  20 -2.820292E+05  4.560145E+04  2.247183E+04  1.961804E+04  1.361147E+04  1.046512E+04
       497  21 -3.240391E+05  4.225198E+04  2.135331E+04  3.787865E+04  1.184510E+04  1.108615E+04
       497  22 -5.011980E+05 -3.913291E+04 -4.440784E+04  3.439457E+04  3.037744E+04  3.304658E+03
       497  23 -4.971396E+05 -6.240823E+03 -2.151697E+04  2.947545E+04  1.920521E+04  1.046478E+04
       497  24 -5.011832E+05  2.542521E+01 -1.255895E+04  3.440067E+04  8.031303E+03  1.108673E+04
       497  25 -7.558525E+05 -1.022330E+05 -1.050153E+05  5.757859E+04  4.537231E+04  3.303562E+03
       497  26 -7.122057E+05 -5.808561E+04 -6.550805E+04  3.932938E+04  2.479704E+04  1.046461E+04
       497  27 -6.782970E+05 -4.220293E+04 -4.647257E+04  3.092371E+04  4.218566E+03  1.108735E+04
       498   1 -3.489313E+05  3.440102E+04  1.861620E+04  3.389231E+04 -8.968578E+03 -9.520802E+03
       498   2 -3.873911E+05  2.647485E+04  1.407079E+04  2.913446E+04 -6.179338E+03 -7.450652E+03
       498   3 -4.264968E+05  1.738981E+04  7.420394E+03  3.462780E+04 -3.390470E+03 -4.931425E+03
       498   4 -4.995511E+05 -1.486625E+03 -1.013047E+04  3.448982E+04 -6.310684E+03 -9.521216E+03
       498   5 -4.991691E+05 -8.652904E+01 -6.902468E+03  2.936419E+04 -2.875867E+03 -7.450967E+03
       498   6 -4.995475E+05  4.228298E+01 -6.228588E+03  3.448991E+04  5.587356E+02 -4.931601E+03
       498   7 -6.501489E+05 -3.737560E+04 -3.887814E+04  3.508718E+04 -3.653420E+03 -9.521625E+03
       498   8 -6.109350E+05 -2.664863E+04 -2.787622E+04  2.959389E+04  4.270238E+02 -7.451280E+03
       498   9 -5.725930E+05 -1.730555E+04 -1.987774E+04  3.435204E+04  4.507488E+03 -4.931779E+03
       498  10 -3.489315E+05  3.440090E+04  1.861588E+04  3.389225E+04  4.053851E-11 -8.136163E-11
       498  11 -3.873912E+05  2.647478E+04  1.407061E+04  2.913442E+04  1.180587E-10 -4.107865E-11
       498  12 -4.264968E+05  1.738978E+04  7.420327E+03  3.462778E+04  3.544228E-10  8.267897E-12
       498  13 -4.995511E+05 -1.486733E+03 -1.013071E+04  3.448977E+04 -4.078438E-11 -1.302008E-10
       498  14 -4.991691E+05 -8.659086E+01 -6.902587E+03  2.936418E+04 -5.061158E-11  2.746841E-11
       498  15 -4.995475E+05  4.225679E+01 -6.228634E+03  3.448991E+04 -1.341161E-10 -1.155887E-10
       498  16 -6.501489E+05 -3.737570E+04 -3.887834E+04  3.508715E+04 -6.425259E-11 -1.344324E-10
       498  17 -6.109350E+05 -2.664869E+04 -2.787633E+04  2.959389E+04 -6.392636E-11  5.840727E-11
       498  18 -5.725931E+05 -1.730558E+04 -1.987782E+04  3.435205E+04 -1.715670E-10  3.756082E-11
       498  19 -3.489313E+05  3.440102E+04  1.861620E+04  3.389231E+04  8.968578E+03  9.520802E+03
       498  20 -3.873911E+05  2.647485E+04  1.407079E+04  2.913446E+04  6.179338E+03  7.450652E+03
       498  21 -4.264968E+05  1.738981E+04  7.420394E+03  3.462780E+04  3.390470E+03  4.931425E+03
       498  22 -4.995511E+05 -1.486625E+03 -1.013047E+04  3.448982E+04  6.310684E+03  9.521216E+03
       498  23 -4.991691E+05 -8.652904E+01 -6.902468E+03  2.936419E+04  2.875867E+03  7.450967E+03
       498  24 -4.995475E+05  4.228298E+01 -6.228588E+03  3.448991E+04 -5.587356E+02  4.931601E+03
       498  25 -6.501489E+05 -3.737560E+04 -3.887814E+04  3.508718E+04  3.653420E+03  9.521625E+03
       498  26 -6.109350E+05 -2.664863E+04 -2.787622E+04  2.959389E+04 -4.270238E+02  7.451280E+03
       498  27 -5.725930E+05 -1.730555E+04 -1.987774E+04  3.435204E+04 -4.507488E+03  4.931779E+03
       499   1 -4.528636E+05  1.115578E+04  1.972753E+03  3.411735E+04 -2.223758E+03 -3.313356E+03
       499   2 -4.911055E+05  1.692751E+03 -7.687752E+03  2.958935E+04  2.592935E+03 -7.070023E+02
       499   3 -5.304620E+05 -9.730597E+03 -2.097567E+04  3.533108E+04  7.409349E+03  1.674954E+03
       499   4 -4.996133E+05  8.329602E+01 -6.614710E+03  3.449400E+04  1.688908E+03 -3.313477E+03
       499   5 -4.990843E+05 -1.705066E+02 -9.020785E+03  2.935909E+04  6.182504E+03 -7.071024E+02
       499   6 -4.996145E+05 -2.328243E+03 -1.482953E+04  3.449393E+04  1.067610E+04  1.674867E+03
       499   7 -5.463608E+05 -1.098931E+04 -1.520220E+04  3.487063E+04  5.601288E+03 -3.313593E+03
       499   8 -5.070630E+05 -2.033761E+03 -1.035377E+04  2.912882E+04  9.772029E+03 -7.072051E+02
       499   9 -4.687661E+05  5.074061E+03 -8.683390E+03  3.365673E+04  1.394302E+04  1.674772E+03
       499  10 -4.528636E+05  1.115577E+04  1.972723E+03  3.411734E+04  3.022678E-10 -2.672397E-11
       499  11 -4.911055E+05  1.692749E+03 -7.687766E+03  2.958936E+04  4.190482E-11 -1.282663E-10
       499  12 -5.304620E+05 -9.730615E+03 -2.097578E+04  3.533107E+04 -9.513904E-11  8.876760E-11
       499  13 -4.996133E+05  8.328347E+01 -6.614736E+03  3.449401E+04 -9.753385E-12 -2.446556E-11
       499  14 -4.990843E+05 -1.705174E+02 -9.020858E+03  2.935909E+04  2.143259E-11  1.379089E-12
       499  15 -4.996146E+05 -2.328277E+03 -1.482975E+04  3.449391E+04 -3.904071E-12 -4.223796E-11
       499  16 -5.463609E+05 -1.098933E+04 -1.520228E+04  3.487064E+04 -1.775229E-10  2.091183E-11
       499  17 -5.070631E+05 -2.033787E+03 -1.035395E+04  2.912883E+04  1.958958E-10  3.938789E-11
       499  18 -4.687663E+05  5.074006E+03 -8.683761E+03  3.365671E+04  1.544633E-10  1.123134E-11
       499  19 -4.528636E+05  1.115578E+04  1.972753E+03  3.411735E+04  2.223758E+03  3.313356E+03
       499  20 -4.911055E+05  1.692751E+03 -7.687752E+03  2.958935E+04 -2.592935E+03  7.070023E+02
       499  21 -5.304620E+05 -9.730597E+03 -2.097567E+04  3.533108E+04 -7.409349E+03 -1.674954E+03
       499  22 -4.996133E+05  8.329602E+01 -6.614710E+03  3.449400E+04 -1.688908E+03  3.313477E+03
       499  23 -4.990843E+05 -1.705066E+02 -9.020785E+03  2.935909E+04 -6.182504E+03  7.071024E+02
       499  24 -4.996145E+05 -2.328243E+03 -1.482953E+04  3.449393E+04 -1.067610E+04 -1.674867E+03
       499  25 -5.463608E+05 -1.098931E+04 -1.520220E+04  3.487063E+04 -5.601288E+03  3.313593E+03
       499  26 -5.070630E+05 -2.033761E+03 -1.035377E+04  2.912882E+04 -9.772029E+03  7.072051E+02
       499  27 -4.687661E+05  5.074061E+03 -8.683390E+03  3.365673E+04 -1.394302E+04 -1.674772E+03
       500   1 -5.594551E+05 -1.367381E+04 -3.014102E+04  2.894122E+04  9.305595E+03  3.267643E+03
       500   2 -5.915059E+05 -3.286314E+04 -5.323338E+04  4.470870E+04  3.176282E+04  4.172210E+03
       500   3 -6.370886E+05 -9.448307E+04 -1.015628E+05  7.052335E+04  5.421809E+04  1.465571E+03
       500   4 -5.021842E+05  3.920795E+01 -1.887834E+04  3.444579E+04  1.320770E+04  3.267595E+03
       500   5 -4.958787E+05 -9.722048E+03 -3.322311E+04  2.941935E+04  3.046868E+04  4.171444E+03
       500   6 -5.022014E+05 -6.100877E+04 -6.919177E+04  3.444164E+04  4.772924E+04  1.462835E+03
       500   7 -4.449101E+05  1.375215E+04 -7.615745E+03  3.995088E+04  1.711015E+04  3.267617E+03
       500   8 -4.002423E+05  1.341933E+04 -1.321321E+04  1.412760E+04  2.917434E+04  4.170742E+03
       500   9 -3.672946E+05 -2.753087E+04 -3.682120E+04 -1.647959E+03  4.123898E+04  1.460855E+03
       500  10 -5.594552E+05 -1.367384E+04 -3.014120E+04  2.894120E+04  1.972910E-10  1.339261E-10
       500  11 -5.915070E+05 -3.286343E+04 -5.323532E+04  4.470859E+04  8.269596E-12  3.713413E-11
       500  12 -6.370917E+05 -9.448386E+04 -1.015683E+05  7.052329E+04 -2.406530E-11 -4.019330E-11
       500  13 -5.021844E+05  3.914961E+01 -1.887869E+04  3.444575E+04 -4.199882E-12  4.820426E-11
       500  14 -4.958797E+05 -9.722317E+03 -3.322489E+04  2.941924E+04  1.718853E-10  4.788053E-11
       500  15 -5.022038E+05 -6.100938E+04 -6.919606E+04  3.444158E+04 -7.771635E-11  2.261579E-11
       500  16 -4.449104E+05  1.375206E+04 -7.616316E+03  3.995083E+04 -2.395986E-10 -2.072217E-11
       500  17 -4.002433E+05  1.341909E+04 -1.321485E+04  1.412750E+04  5.655699E-11 -5.422263E-11
       500  18 -3.672964E+05 -2.753133E+04 -3.682440E+04 -1.648007E+03  2.818469E-11 -1.052591E-10
       500  19 -5.594551E+05 -1.367381E+04 -3.014102E+04  2.894122E+04 -9.305595E+03 -3.267643E+03
       500  20 -5.915059E+05 -3.286314E+04 -5.323338E+04  4.470870E+04 -3.176282E+04 -4.172210E+03
       500  21 -6.370886E+05 -9.448307E+04 -1.015628E+05  7.052335E+04 -5.421809E+04 -1.465571E+03
       500  22 -5.021842E+05  3.920795E+01 -1.887834E+04  3.444579E+04 -1.320770E+04 -3.267595E+03
       500  23 -4.958787E+05 -9.722048E+03 -3.322311E+04  2.941935E+04 -3.046868E+04 -4.171444E+03
       500  24 -5.022014E+05 -6.100877E+04 -6.919177E+04  3.444164E+04 -4.772924E+04 -1.462835E+03
       500  25 -4.449101E+05  1.375215E+04 -7.615745E+03  3.995088E+04 -1.711015E+04 -3.267617E+03
       500  26 -4.002423E+05  1.341933E+04 -1.321321E+04  1.412760E+04 -2.917434E+04 -4.170742E+03
       500  27 -3.672946E+05 -2.753087E+04 -3.682120E+04 -1.647959E+03 -4.123898E+04 -1.460855E+03
       501   1 -2.138449E+04  4.307444E+04  3.840225E+04  2.508493E+04  8.910003E+02 -3.116356E+03
       501   2 -6.023123E+04  4.609580E+04  3.194919E+04  2.586145E+04 -3.171511E+03 -9.782774E+03
       501   3 -1.010657E+05  3.900884E+04  2.561542E+04  3.678088E+04 -7.232968E+03 -1.018669E+04
       501   4 -2.646424E+05 -1.716707E+04 -1.950044E+04  3.526552E+04 -1.321440E+04 -3.115581E+03
       501   5 -2.628604E+05 -2.736382E+03 -9.545746E+03  3.019403E+04 -8.260022E+03 -9.782941E+03
       501   6 -2.646351E+05  1.820634E+01 -5.735488E+03  3.526600E+04 -3.304932E+03 -1.018679E+04
       501   7 -5.078453E+05 -7.741235E+04 -7.740647E+04  4.544210E+04 -2.731431E+04 -3.115269E+03
       501   8 -4.654504E+05 -5.157105E+04 -5.104275E+04  3.452516E+04 -1.334690E+04 -9.783179E+03
       501   9 -4.281787E+05 -3.897399E+04 -3.708756E+04  3.375153E+04  6.220933E+02 -1.018691E+04
       501  10 -2.138449E+04  4.307443E+04  3.840224E+04  2.508493E+04  2.523065E-10 -5.804637E-11
       501  11 -6.023126E+04  4.609569E+04  3.194899E+04  2.586143E+04 -2.970733E-11 -1.587012E-10
       501  12 -1.010657E+05  3.900871E+04  2.561513E+04  3.678082E+04 -1.056048E-10  7.942355E-11
       501  13 -2.646426E+05 -1.716712E+04 -1.950078E+04  3.526549E+04  6.700375E-12 -2.541237E-11
       501  14 -2.628605E+05 -2.736503E+03 -9.546054E+03  3.019396E+04  1.083116E-10 -5.729236E-11
       501  15 -2.646351E+05  1.809199E+01 -5.735703E+03  3.526598E+04 -1.140056E-10 -2.390368E-10
       501  16 -5.078461E+05 -7.741256E+04 -7.740789E+04  4.544203E+04 -1.787442E-10  3.350250E-11
       501  17 -4.654506E+05 -5.157120E+04 -5.104327E+04  3.452506E+04  8.581324E-11 -1.454489E-10
       501  18 -4.281787E+05 -3.897410E+04 -3.708776E+04  3.375154E+04  2.454462E-11 -1.828461E-10
       501  19 -2.138449E+04  4.307444E+04  3.840225E+04  2.508493E+04 -8.910003E+02  3.116356E+03
       501  20 -6.023123E+04  4.609580E+04  3.194919E+04  2.586145E+04  3.171511E+03  9.782774E+03
       501  21 -1.010657E+05  3.900884E+04  2.561542E+04  3.678088E+04  7.232968E+03  1.018669E+04
       501  22 -2.646424E+05 -1.716707E+04 -1.950044E+04  3.526552E+04  1.321440E+04  3.115581E+03
       501  23 -2.628604E+05 -2.736382E+03 -9.545746E+03  3.019403E+04  8.260022E+03  9.782941E+03
       501  24 -2.646351E+05  1.820634E+01 -5.735488E+03  3.526600E+04  3.304932E+03  1.018679E+04
       501  25 -5.078453E+05 -7.741235E+04 -7.740647E+04  4.544210E+04  2.731431E+04  3.115269E+03
       501  26 -4.654504E+05 -5.157105E+04 -5.104275E+04  3.452516E+04  1.334690E+04  9.783179E+03
       501  27 -4.281787E+05 -3.897399E+04 -3.708756E+04  3.375153E+04 -6.220933E+02  1.018691E+04
       502   1 -1.275732E+05  3.184625E+04  2.130281E+04  3.507122E+04 -5.322424E+03 -8.575721E+03
       502   2 -1.672520E+05  2.290622E+04  1.453952E+04  2.995597E+04 -4.153689E+03 -6.403524E+03
       502   3 -2.071992E+05  1.349151E+04  6.896686E+03  3.536577E+04 -2.985206E+03 -3.804952E+03
       502   4 -2.639269E+05 -6.416097E+02 -4.753593E+03  3.535066E+04 -2.501630E+03 -8.575753E+03
       502   5 -2.637376E+05 -2.033532E+01 -3.584689E+03  3.008806E+04 -7.193984E+02 -6.403398E+03
       502   6 -2.639243E+05  1.988379E+01 -3.721467E+03  3.535062E+04  1.062662E+03 -3.804632E+03
       502   7 -4.002626E+05 -3.313056E+04 -3.081081E+04  3.563003E+04  3.185585E+02 -8.575782E+03
       502   8 -3.602141E+05 -2.294742E+04 -2.170925E+04  3.022012E+04  2.714372E+03 -6.403270E+03
       502   9 -3.206461E+05 -1.345192E+04 -1.433970E+04  3.533547E+04  5.110171E+03 -3.804312E+03
       502  10 -1.275732E+05  3.184616E+04  2.130262E+04  3.507118E+04 -1.124828E-12  1.527918E-10
       502  11 -1.672520E+05  2.290617E+04  1.453941E+04  2.995594E+04 -3.006201E-11  9.172584E-11
       502  12 -2.071993E+05  1.349149E+04  6.896642E+03  3.536577E+04  1.285712E-11  1.098092E-11
       502  13 -2.639269E+05 -6.416904E+02 -4.753743E+03  3.535064E+04  1.064204E-10 -2.467048E-11
       502  14 -2.637376E+05 -2.037948E+01 -3.584767E+03  3.008805E+04 -1.655553E-10 -6.379752E-11
       502  15 -2.639243E+05  1.986795E+01 -3.721496E+03  3.535063E+04  1.650587E-11  5.358465E-11
       502  16 -4.002626E+05 -3.313064E+04 -3.081095E+04  3.563004E+04 -3.094880E-11 -7.252780E-11
       502  17 -3.602141E+05 -2.294747E+04 -2.170934E+04  3.022014E+04 -5.131693E-11  1.493760E-10
       502  18 -3.206462E+05 -1.345194E+04 -1.433977E+04  3.533549E+04  1.200025E-10  1.938150E-10
       502  19 -1.275732E+05  3.184625E+04  2.130281E+04  3.507122E+04  5.322424E+03  8.575721E+03
       502  20 -1.672520E+05  2.290622E+04  1.453952E+04  2.995597E+04  4.153689E+03  6.403524E+03
       502  21 -2.071992E+05  1.349151E+04  6.896686E+03  3.536577E+04  2.985206E+03  3.804952E+03
       502  22 -2.639269E+05 -6.416097E+02 -4.753593E+03  3.535066E+04  2.501630E+03  8.575753E+03
       502  23 -2.637376E+05 -2.033532E+01 -3.584689E+03  3.008806E+04  7.193984E+02  6.403398E+03
       502  24 -2.639243E+05  1.988379E+01 -3.721467E+03  3.535062E+04 -1.062662E+03  3.804632E+03
       502  25 -4.002626E+05 -3.313056E+04 -3.081081E+04  3.563003E+04 -3.185585E+02  8.575782E+03
       502  26 -3.602141E+05 -2.294742E+04 -2.170925E+04  3.022012E+04 -2.714372E+03  6.403270E+03
       502  27 -3.206461E+05 -1.345192E+04 -1.433970E+04  3.533547E+04 -5.110171E+03  3.804312E+03
       503   1 -2.342723E+05  7.104577E+03  1.219268E+03  3.504829E+04 -2.261103E+03 -2.144585E+03
       503   2 -2.736824E+05 -2.544352E+03 -8.272810E+03  3.022965E+04  1.231336E+03  5.168776E+02
       503   3 -3.139069E+05 -1.363469E+04 -2.040003E+04  3.594674E+04  4.723570E+03  2.913845E+03
       503   4 -2.640068E+05  7.097815E+01 -4.206128E+03  3.535296E+04  1.760171E+03 -2.144226E+03
       503   5 -2.636324E+05 -1.280200E+02 -6.243989E+03  3.008516E+04  4.871792E+03  5.171871E+02
       503   6 -2.640076E+05 -1.702166E+03 -1.065234E+04  3.535311E+04  7.983423E+03  2.914106E+03
       503   7 -2.937405E+05 -6.962662E+03 -9.631498E+03  3.565762E+04  5.781257E+03 -2.143863E+03
       503   8 -2.535823E+05  2.288313E+03 -4.215122E+03  2.994068E+04  8.512306E+03  5.174950E+02
       503   9 -2.141060E+05  1.023022E+04 -9.047221E+02  3.475943E+04  1.124353E+04  2.914361E+03
       503  10 -2.342723E+05  7.104571E+03  1.219249E+03  3.504828E+04  3.238008E-10 -8.767373E-12
       503  11 -2.736824E+05 -2.544352E+03 -8.272814E+03  3.022965E+04  1.125882E-10 -1.024484E-10
       503  12 -3.139069E+05 -1.363471E+04 -2.040009E+04  3.594673E+04 -1.778929E-10  2.343225E-11
       503  13 -2.640068E+05  7.097238E+01 -4.206142E+03  3.535296E+04  1.934961E-10 -2.116921E-12
       503  14 -2.636325E+05 -1.280266E+02 -6.244034E+03  3.008516E+04 -1.303280E-10 -9.150806E-13
       503  15 -2.640077E+05 -1.702192E+03 -1.065247E+04  3.535309E+04  1.113153E-10 -2.078860E-10
       503  16 -2.937405E+05 -6.962676E+03 -9.631570E+03  3.565763E+04 -2.364866E-10  9.405173E-11
       503  17 -2.535824E+05  2.288293E+03 -4.215259E+03  2.994067E+04 -4.236695E-11 -1.643684E-10
       503  18 -2.141061E+05  1.023018E+04 -9.049757E+02  3.475941E+04  1.212409E-10 -1.112526E-10
       503  19 -2.342723E+05  7.104577E+03  1.219268E+03  3.504829E+04  2.261103E+03  2.144585E+03
       503  20 -2.736824E+05 -2.544352E+03 -8.272810E+03  3.022965E+04 -1.231336E+03 -5.168776E+02
       503  21 -3.139069E+05 -1.363469E+04 -2.040003E+04  3.594674E+04 -4.723570E+03 -2.913845E+03
       503  22 -2.640068E+05  7.097815E+01 -4.206128E+03  3.535296E+04 -1.760171E+03  2.144226E+03
       503  23 -2.636324E+05 -1.280200E+02 -6.243989E+03  3.008516E+04 -4.871792E+03 -5.171871E+02
       503  24 -2.640076E+05 -1.702166E+03 -1.065234E+04  3.535311E+04 -7.983423E+03 -2.914106E+03
       503  25 -2.937405E+05 -6.962662E+03 -9.631498E+03  3.565762E+04 -5.781257E+03  2.143863E+03
       503  26 -2.535823E+05  2.288313E+03 -4.215122E+03  2.994068E+04 -8.512306E+03 -5.174950E+02
       503  27 -2.141060E+05  1.023022E+04 -9.047221E+02  3.475943E+04 -1.124353E+04 -2.914361E+03
       504   1 -3.429233E+05 -1.838297E+04 -2.867299E+04  3.125402E+04  5.813788E+03  4.544083E+03
       504   2 -3.776299E+05 -3.522696E+04 -4.842576E+04  4.132774E+04  2.438477E+04  5.241812E+03
       504   3 -4.226071E+05 -8.348485E+04 -8.812698E+04  6.168707E+04  4.295405E+04  1.788226E+03
       504   4 -2.658928E+05  3.004630E+01 -1.366809E+04  3.529769E+04  9.804944E+03  4.544392E+03
       504   5 -2.612808E+05 -7.112890E+03 -2.424035E+04  3.015504E+04  2.240152E+04  5.241196E+03
       504   6 -2.659015E+05 -4.462955E+04 -5.060870E+04  3.529927E+04  3.499780E+04  1.786130E+03
       504   7 -1.888566E+05  1.844277E+04  1.336610E+03  3.934188E+04  1.379658E+04  4.544752E+03
       504   8 -1.449186E+05  2.100078E+04 -5.558855E+01  1.898021E+04  2.041790E+04  5.240652E+03
       504   9 -1.091718E+05 -5.773375E+03 -1.309154E+04  8.904766E+03  2.703955E+04  1.784711E+03
       504  10 -3.429233E+05 -1.838300E+04 -2.867310E+04  3.125400E+04  9.405082E-11  3.395027E-11
       504  11 -3.776305E+05 -3.522715E+04 -4.842693E+04  4.132764E+04 -2.298163E-11 -1.287728E-10
       504  12 -4.226090E+05 -8.348535E+04 -8.813046E+04  6.168701E+04 -1.638188E-10 -3.031803E-11
       504  13 -2.658929E+05  2.999831E+01 -1.366831E+04  3.529766E+04 -3.977752E-11 -1.629989E-10
       504  14 -2.612813E+05 -7.113055E+03 -2.424134E+04  3.015494E+04 -5.223944E-11 -1.319158E-10
       504  15 -2.659028E+05 -4.462988E+04 -5.061101E+04  3.529922E+04 -2.051093E-10 -1.006196E-10
       504  16 -1.888568E+05  1.844270E+04  1.336214E+03  3.934183E+04 -1.585478E-10 -2.392393E-10
       504  17 -1.449190E+05  2.100064E+04 -5.642375E+01  1.898012E+04  1.767595E-10 -1.762708E-10
       504  18 -1.091725E+05 -5.773575E+03 -1.309292E+04  8.904727E+03  1.863656E-10 -6.622223E-11
       504  19 -3.429233E+05 -1.838297E+04 -2.867299E+04  3.125402E+04 -5.813788E+03 -4.544083E+03
       504  20 -3.776299E+05 -3.522696E+04 -4.842576E+04  4.132774E+04 -2.438477E+04 -5.241812E+03
       504  21 -4.226071E+05 -8.348485E+04 -8.812698E+04  6.168707E+04 -4.295405E+04 -1.788226E+03
       504  22 -2.658928E+05  3.004630E+01 -1.366809E+04  3.529769E+04 -9.804944E+03 -4.544392E+03
       504  23 -2.612808E+05 -7.112890E+03 -2.424035E+04  3.015504E+04 -2.240152E+04 -5.241196E+03
       504  24 -2.659015E+05 -4.462955E+04 -5.060870E+04  3.529927E+04 -3.499780E+04 -1.786130E+03
       504  25 -1.888566E+05  1.844277E+04  1.336610E+03  3.934188E+04 -1.379658E+04 -4.544752E+03
       504  26 -1.449186E+05  2.100078E+04 -5.558855E+01  1.898021E+04 -2.041790E+04 -5.240652E+03
       504  27 -1.091718E+05 -5.773375E+03 -1.309154E+04  8.904766E+03 -2.703955E+04 -1.784711E+03
       505   1  2.526417E+05  6.402442E+04  6.381718E+04  4.075734E+04  2.207654E+04 -2.576748E+03
       505   2  2.133159E+05  4.252235E+04  4.138403E+04  3.152108E+04  1.079264E+04 -7.998666E+03
       505   3  1.780224E+05  3.125780E+04  2.885514E+04  3.182155E+04 -4.905283E+02 -8.097657E+03
       505   4  4.690674E+04  1.308286E+04  1.480885E+04  3.302503E+04  1.043190E+04 -2.577422E+03
       505   5  4.555800E+04  2.088761E+03  6.950382E+03  2.825705E+04  6.816554E+03 -7.999134E+03
       505   6  4.691101E+04  2.865663E+00  3.673249E+03  3.302571E+04  3.201306E+03 -8.097428E+03
       505   7 -1.587890E+05 -3.786146E+04 -3.420191E+04  2.529529E+04 -1.208903E+03 -2.577805E+03
       505   8 -1.221731E+05 -3.834655E+04 -2.748470E+04  2.499392E+04  2.841525E+03 -7.999561E+03
       505   9 -8.418381E+04 -3.125308E+04 -2.150938E+04  3.422961E+04  6.892379E+03 -8.097185E+03
       505  10  2.526412E+05  6.402428E+04  6.381625E+04  4.075738E+04  6.350140E-11 -8.284691E-11
       505  11  2.133157E+05  4.252225E+04  4.138369E+04  3.152115E+04 -3.029908E-10 -2.301008E-10
       505  12  1.780224E+05  3.125773E+04  2.885502E+04  3.182155E+04 -1.031714E-10 -1.238877E-10
       505  13  4.690662E+04  1.308282E+04  1.480863E+04  3.302505E+04 -1.354151E-10 -2.143696E-11
       505  14  4.555793E+04  2.088680E+03  6.950175E+03  2.825710E+04 -1.588190E-10 -2.545070E-10
       505  15  4.691098E+04  2.792499E+00  3.673107E+03  3.302573E+04  5.976112E-11 -1.506008E-10
       505  16 -1.587890E+05 -3.786147E+04 -3.420193E+04  2.529529E+04 -1.293391E-10 -8.155531E-11
       505  17 -1.221731E+05 -3.834662E+04 -2.748484E+04  2.499394E+04  1.346245E-10 -2.435628E-10
       505  18 -8.418388E+04 -3.125316E+04 -2.150959E+04  3.422966E+04  1.272443E-10 -6.853777E-11
       505  19  2.526417E+05  6.402442E+04  6.381718E+04  4.075734E+04 -2.207654E+04  2.576748E+03
       505  20  2.133159E+05  4.252235E+04  4.138403E+04  3.152108E+04 -1.079264E+04  7.998666E+03
       505  21  1.780224E+05  3.125780E+04  2.885514E+04  3.182155E+04  4.905283E+02  8.097657E+03
       505  22  4.690674E+04  1.308286E+04  1.480885E+04  3.302503E+04 -1.043190E+04  2.577422E+03
       505  23  4.555800E+04  2.088761E+03  6.950382E+03  2.825705E+04 -6.816554E+03  7.999134E+03
       505  24  4.691101E+04  2.865663E+00  3.673249E+03  3.302571E+04 -3.201306E+03  8.097428E+03
       505  25 -1.587890E+05 -3.786146E+04 -3.420191E+04  2.529529E+04  1.208903E+03  2.577805E+03
       505  26 -1.221731E+05 -3.834655E+04 -2.748470E+04  2.499392E+04 -2.841525E+03  7.999561E+03
       505  27 -8.418381E+04 -3.125308E+04 -2.150938E+04  3.422961E+04 -6.892379E+03  8.097185E+03
       506   1  1.520054E+05  2.569224E+04  2.290267E+04  3.324098E+04 -1.255294E+01 -6.585535E+03
       506   2  1.146203E+05  1.630736E+04  1.387644E+04  2.816294E+04 -1.032016E+03 -4.496573E+03
       506   3  7.748273E+04  7.380109E+03  5.627832E+03  3.293527E+04 -2.051574E+03 -2.049960E+03
       506   4  4.634663E+04  5.153619E+02  2.665024E+03  3.309537E+04  2.738425E+03 -6.585311E+03
       506   5  4.626905E+04  6.423138E+01  1.005655E+03  2.817020E+04  2.234093E+03 -4.496203E+03
       506   6  4.634832E+04 -1.857375E+01 -2.336530E+02  3.309545E+04  1.729606E+03 -2.049423E+03
       506   7 -5.930142E+04 -2.466217E+04 -1.757311E+04  3.294979E+04  5.488945E+03 -6.585088E+03
       506   8 -2.207768E+04 -1.617916E+04 -1.186529E+04  2.817746E+04  5.499851E+03 -4.495833E+03
       506   9  1.521487E+04 -7.417305E+03 -6.095127E+03  3.325563E+04  5.510602E+03 -2.048884E+03
       506  10  1.520054E+05  2.569219E+04  2.290259E+04  3.324098E+04 -4.496112E-11 -1.069686E-10
       506  11  1.146203E+05  1.630734E+04  1.387640E+04  2.816293E+04  2.319876E-10  9.523810E-11
       506  12  7.748273E+04  7.380103E+03  5.627816E+03  3.293526E+04  1.950862E-10  9.661261E-11
       506  13  4.634661E+04  5.153133E+02  2.664928E+03  3.309539E+04 -1.042357E-11 -1.039174E-10
       506  14  4.626904E+04  6.420833E+01  1.005608E+03  2.817021E+04  3.633021E-11 -3.219537E-11
       506  15  4.634831E+04 -1.857906E+01 -2.336665E+02  3.309545E+04  2.592788E-10  1.238363E-10
       506  16 -5.930146E+04 -2.466222E+04 -1.757324E+04  3.294982E+04  6.363829E-11 -1.541173E-10
       506  17 -2.207772E+04 -1.617919E+04 -1.186539E+04  2.817748E+04 -1.310029E-10 -8.462643E-11
       506  18  1.521483E+04 -7.417318E+03 -6.095192E+03  3.325564E+04 -1.132042E-10 -4.927405E-11
       506  19  1.520054E+05  2.569224E+04  2.290267E+04  3.324098E+04  1.255294E+01  6.585535E+03
       506  20  1.146203E+05  1.630736E+04  1.387644E+04  2.816294E+04  1.032016E+03  4.496573E+03
       506  21  7.748273E+04  7.380109E+03  5.627832E+03  3.293527E+04  2.051574E+03  2.049960E+03
       506  22  4.634663E+04  5.153619E+02  2.665024E+03  3.309537E+04 -2.738425E+03  6.585311E+03
       506  23  4.626905E+04  6.423138E+01  1.005655E+03  2.817020E+04 -2.234093E+03  4.496203E+03
       506  24  4.634832E+04 -1.857375E+01 -2.336530E+02  3.309545E+04 -1.729606E+03  2.049423E+03
       506  25 -5.930142E+04 -2.466217E+04 -1.757311E+04  3.294979E+04 -5.488945E+03  6.585088E+03
       506  26 -2.207768E+04 -1.617916E+04 -1.186529E+04  2.817746E+04 -5.499851E+03  4.495833E+03
       506  27  1.521487E+04 -7.417305E+03 -6.095127E+03  3.325563E+04 -5.510602E+03  2.048884E+03
       507   1  5.212580E+04  1.422346E+03  1.610989E+02  3.289004E+04 -1.945501E+03 -4.968278E+02
       507   2  1.505895E+04 -7.538420E+03 -8.323435E+03  2.819197E+04 -3.607625E+02  1.976851E+03
       507   3 -2.238990E+04 -1.720230E+04 -1.801599E+04  3.334818E+04  1.223939E+03  4.162077E+03
       507   4  4.624438E+04  4.524673E+01 -8.436558E+02  3.309628E+04  1.824182E+03 -4.962756E+02
       507   5  4.639989E+04 -7.412402E+01 -2.341783E+03  2.816921E+04  2.993488E+03  1.977299E+03
       507   6  4.624369E+04 -8.245162E+02 -4.759515E+03  3.309640E+04  4.162855E+03  4.162431E+03
       507   7  4.036303E+04 -1.331847E+03 -1.848358E+03  3.330251E+04  5.593830E+03 -4.957209E+02
       507   8  7.774180E+04  7.390120E+03  3.639866E+03  2.814645E+04  6.347904E+03  1.977748E+03
       507   9  1.148818E+05  1.555299E+04  8.496775E+03  3.284460E+04  7.102088E+03  4.162782E+03
       507  10  5.212580E+04  1.422345E+03  1.610913E+02  3.289004E+04  5.633599E-11  2.068951E-11
       507  11  1.505895E+04 -7.538424E+03 -8.323443E+03  2.819197E+04 -1.056841E-11  8.025472E-11
       507  12 -2.238990E+04 -1.720231E+04 -1.801603E+04  3.334817E+04 -9.189091E-11  6.913899E-11
       507  13  4.624438E+04  4.524557E+01 -8.436625E+02  3.309628E+04  2.014142E-10 -5.739116E-11
       507  14  4.639988E+04 -7.413063E+01 -2.341808E+03  2.816920E+04 -6.330814E-11 -2.796903E-10
       507  15  4.624367E+04 -8.245395E+02 -4.759580E+03  3.309639E+04 -6.872023E-12 -8.706871E-11
       507  16  4.036300E+04 -1.331856E+03 -1.848417E+03  3.330251E+04  7.703543E-11  7.165754E-12
       507  17  7.774176E+04  7.390105E+03  3.639783E+03  2.814644E+04  9.167121E-11 -1.492307E-10
       507  18  1.148818E+05  1.555296E+04  8.496648E+03  3.284458E+04  1.191703E-11 -1.191095E-10
       507  19  5.212580E+04  1.422346E+03  1.610989E+02  3.289004E+04  1.945501E+03  4.968278E+02
       507  20  1.505895E+04 -7.538420E+03 -8.323435E+03  2.819197E+04  3.607625E+02 -1.976851E+03
       507  21 -2.238990E+04 -1.720230E+04 -1.801599E+04  3.334818E+04 -1.223939E+03 -4.162077E+03
       507  22  4.624438E+04  4.524673E+01 -8.436558E+02  3.309628E+04 -1.824182E+03  4.962756E+02
       507  23  4.639989E+04 -7.412402E+01 -2.341783E+03  2.816921E+04 -2.993488E+03 -1.977299E+03
       507  24  4.624369E+04 -8.245162E+02 -4.759515E+03  3.309640E+04 -4.162855E+03 -4.162431E+03
       507  25  4.036303E+04 -1.331847E+03 -1.848358E+03  3.330251E+04 -5.593830E+03  4.957209E+02
       507  26  7.774180E+04  7.390120E+03  3.639866E+03  2.814645E+04 -6.347904E+03 -1.977748E+03
       507  27  1.148818E+05  1.555299E+04  8.496775E+03  3.284460E+04 -7.102088E+03 -4.162782E+03
       508   1 -4.871633E+04 -2.243532E+04 -2.449526E+04  3.106381E+04  1.263582E+03  5.682252E+03
       508   2 -8.324262E+04 -3.498913E+04 -3.856619E+04  3.360019E+04  1.362979E+04  6.055979E+03
       508   3 -1.233080E+05 -6.326623E+04 -6.461924E+04  4.572844E+04  2.599542E+04  2.009998E+03
       508   4  4.532680E+04  1.074982E+01 -6.311120E+03  3.303792E+04  4.982223E+03  5.682644E+03
       508   5  4.754245E+04 -3.428384E+03 -1.154534E+04  2.824271E+04  1.098552E+04  6.055519E+03
       508   6  4.532420E+04 -2.148416E+04 -2.434154E+04  3.303962E+04  1.698896E+04  2.008820E+03
       508   7  1.393785E+05  2.245631E+04  1.187266E+04  3.501233E+04  8.701414E+03  5.683059E+03
       508   8  1.783438E+05  2.813139E+04  1.547463E+04  2.288408E+04  8.340696E+03  6.055106E+03
       508   9  2.139830E+05  2.029649E+04  1.593454E+04  2.034735E+04  7.980065E+03  2.008010E+03
       508  10 -4.871634E+04 -2.243535E+04 -2.449532E+04  3.106380E+04  1.623431E-11  1.046030E-10
       508  11 -8.324283E+04 -3.498922E+04 -3.856661E+04  3.360013E+04 -3.942005E-11 -6.046145E-11
       508  12 -1.233088E+05 -6.326641E+04 -6.462051E+04  4.572840E+04  2.677070E-11 -4.603114E-11
       508  13  4.532676E+04  1.070848E+01 -6.311227E+03  3.303789E+04 -4.483880E-11  1.460014E-10
       508  14  4.754231E+04 -3.428456E+03 -1.154563E+04  2.824266E+04  8.115618E-12  1.399445E-10
       508  15  4.532389E+04 -2.148425E+04 -2.434209E+04  3.303960E+04  3.658526E-11  4.125160E-11
       508  16  1.393784E+05  2.245626E+04  1.187246E+04  3.501229E+04  1.080983E-10 -7.797088E-11
       508  17  1.783437E+05  2.813133E+04  1.547443E+04  2.288404E+04 -1.904679E-11  2.889444E-11
       508  18  2.139830E+05  2.029647E+04  1.593441E+04  2.034733E+04 -3.692001E-11 -1.114715E-12
       508  19 -4.871633E+04 -2.243532E+04 -2.449526E+04  3.106381E+04 -1.263582E+03 -5.682252E+03
       508  20 -8.324262E+04 -3.498913E+04 -3.856619E+04  3.360019E+04 -1.362979E+04 -6.055979E+03
       508  21 -1.233080E+05 -6.326623E+04 -6.461924E+04  4.572844E+04 -2.599542E+04 -2.009998E+03
       508  22  4.532680E+04  1.074982E+01 -6.311120E+03  3.303792E+04 -4.982223E+03 -5.682644E+03
       508  23  4.754245E+04 -3.428384E+03 -1.154534E+04  2.824271E+04 -1.098552E+04 -6.055519E+03
       508  24  4.532420E+04 -2.148416E+04 -2.434154E+04  3.303962E+04 -1.698896E+04 -2.008820E+03
       508  25  1.393785E+05  2.245631E+04  1.187266E+04  3.501233E+04 -8.701414E+03 -5.683059E+03
       508  26  1.783438E+05  2.813139E+04  1.547463E+04  2.288408E+04 -8.340696E+03 -6.055106E+03
       508  27  2.139830E+05  2.029649E+04  1.593454E+04  2.034735E+04 -7.980065E+03 -2.008010E+03
       509   1  6.262995E+05  9.800314E+04  1.028381E+05  6.391415E+04  4.983861E+04 -2.384955E+03
       509   2  5.815594E+05  4.546754E+04  5.890294E+04  4.198069E+04  2.855640E+04 -7.323375E+03
       509   3  5.483494E+05  2.797366E+04  3.757462E+04  3.004081E+04  7.275662E+03 -7.180673E+03
       509   4  4.309163E+05  4.962986E+04  5.626215E+04  3.453885E+04  3.905893E+04 -2.388134E+03
       509   5  4.257928E+05  7.918992E+03  2.685237E+04  2.954486E+04  2.510171E+04 -7.324437E+03
       509   6  4.309305E+05 -1.673834E+01  1.496960E+04  3.454330E+04  1.114442E+04 -7.180199E+03
       509   7  2.355702E+05  1.257132E+03  9.684467E+03  5.172831E+03  2.828262E+04 -2.390294E+03
       509   8  2.700496E+05 -2.963050E+04 -5.199371E+03  1.711220E+04  2.164787E+04 -7.325361E+03
       509   9  3.135250E+05 -2.800787E+04 -7.635983E+03  3.904492E+04  1.501247E+04 -7.179669E+03
       509  10  6.262969E+05  9.800247E+04  1.028334E+05  6.391424E+04  1.741146E-10 -3.462068E-11
       509  11  5.815585E+05  4.546726E+04  5.890131E+04  4.198085E+04 -3.143526E-11 -9.952134E-11
       509  12  5.483493E+05  2.797359E+04  3.757443E+04  3.004086E+04  1.035671E-10 -1.220732E-10
       509  13  4.309147E+05  4.962945E+04  5.625928E+04  3.453892E+04  7.784412E-11 -5.181720E-11
       509  14  4.257921E+05  7.918765E+03  2.685109E+04  2.954500E+04 -3.194219E-10 -1.088191E-10
       509  15  4.309304E+05 -1.682703E+01  1.496927E+04  3.454337E+04  1.359102E-10 -1.120777E-10
       509  16  2.355693E+05  1.256911E+03  9.682954E+03  5.172885E+03 -1.771366E-10  4.470877E-12
       509  17  2.700491E+05 -2.963068E+04 -5.200352E+03  1.711233E+04 -1.670249E-10 -1.249597E-10
       509  18  3.135247E+05 -2.800799E+04 -7.636503E+03  3.904501E+04 -2.379476E-10 -1.452322E-10
       509  19  6.262995E+05  9.800314E+04  1.028381E+05  6.391415E+04 -4.983861E+04  2.384955E+03
       509  20  5.815594E+05  4.546754E+04  5.890294E+04  4.198069E+04 -2.855640E+04  7.323375E+03
       509  21  5.483494E+05  2.797366E+04  3.757462E+04  3.004081E+04 -7.275662E+03  7.180673E+03
       509  22  4.309163E+05  4.962986E+04  5.626215E+04  3.453885E+04 -3.905893E+04  2.388134E+03
       509  23  4.257928E+05  7.918992E+03  2.685237E+04  2.954486E+04 -2.510171E+04  7.324437E+03
       509  24  4.309305E+05 -1.673834E+01  1.496960E+04  3.454330E+04 -1.114442E+04  7.180199E+03
       509  25  2.355702E+05  1.257132E+03  9.684467E+03  5.172831E+03 -2.828262E+04  2.390294E+03
       509  26  2.700496E+05 -2.963050E+04 -5.199371E+03  1.711220E+04 -2.164787E+04  7.325361E+03
       509  27  3.135250E+05 -2.800787E+04 -7.635983E+03  3.904492E+04 -1.501247E+04  7.179669E+03
       510   1  5.196819E+05  2.356433E+04  2.898020E+04  3.525395E+04  6.195232E+03 -5.598142E+03
       510   2  4.803349E+05  1.250576E+04  1.617744E+04  2.959303E+04  2.533780E+03 -3.367724E+03
       510   3  4.418617E+05  3.037562E+03  6.153903E+03  3.421749E+04 -1.127519E+03 -8.004530E+02
       510   4  4.288253E+05  1.912053E+03  1.152763E+04  3.460780E+04  9.166410E+03 -5.597768E+03
       510   5  4.284327E+05  1.683670E+02  6.366277E+03  2.946526E+04  5.990657E+03 -3.367203E+03
       510   6  4.288277E+05 -6.911652E+01  3.647301E+03  3.460812E+04  2.814830E+03 -7.997735E+02
       510   7  3.379767E+05 -1.974071E+04 -5.925289E+03  3.396174E+04  1.213716E+04 -5.597400E+03
       510   8  3.765330E+05 -1.216917E+04 -3.444959E+03  2.933750E+04  9.447253E+03 -3.366683E+03
       510   9  4.157940E+05 -3.175796E+03  1.140751E+03  3.499875E+04  6.757098E+03 -7.990889E+02
       510  10  5.196819E+05  2.356429E+04  2.898007E+04  3.525398E+04  3.929793E-11 -2.231136E-10
       510  11  4.803349E+05  1.250574E+04  1.617741E+04  2.959303E+04  1.654864E-10  4.064465E-12
       510  12  4.418617E+05  3.037560E+03  6.153899E+03  3.421749E+04 -3.643091E-10 -4.452447E-11
       510  13  4.288252E+05  1.911996E+03  1.152741E+04  3.460784E+04  1.304439E-10 -1.385044E-10
       510  14  4.284326E+05  1.683452E+02  6.366188E+03  2.946528E+04  7.893372E-11 -1.451131E-10
       510  15  4.288277E+05 -6.911934E+01  3.647285E+03  3.460813E+04  4.583284E-11 -1.234077E-10
       510  16  3.379765E+05 -1.974078E+04 -5.925625E+03  3.396180E+04 -1.600925E-10  2.392455E-13
       510  17  3.765329E+05 -1.216921E+04 -3.445148E+03  2.933753E+04 -1.624336E-10 -3.019364E-10
       510  18  4.157939E+05 -3.175809E+03  1.140664E+03  3.499875E+04  2.491924E-10  5.592732E-11
       510  19  5.196819E+05  2.356433E+04  2.898020E+04  3.525395E+04 -6.195232E+03  5.598142E+03
       510  20  4.803349E+05  1.250576E+04  1.617744E+04  2.959303E+04 -2.533780E+03  3.367724E+03
       510  21  4.418617E+05  3.037562E+03  6.153903E+03  3.421749E+04  1.127519E+03  8.004530E+02
       510  22  4.288253E+05  1.912053E+03  1.152763E+04  3.460780E+04 -9.166410E+03  5.597768E+03
       510  23  4.284327E+05  1.683670E+02  6.366277E+03  2.946526E+04 -5.990657E+03  3.367203E+03
       510  24  4.288277E+05 -6.911652E+01  3.647301E+03  3.460812E+04 -2.814830E+03  7.997735E+02
       510  25  3.379767E+05 -1.974071E+04 -5.925289E+03  3.396174E+04 -1.213716E+04  5.597400E+03
       510  26  3.765330E+05 -1.216917E+04 -3.444959E+03  2.933750E+04 -9.447253E+03  3.366683E+03
       510  27  4.157940E+05 -3.175796E+03  1.140751E+03  3.499875E+04 -6.757098E+03  7.990889E+02
       511   1  4.153480E+05 -3.156062E+03  2.166164E+02  3.447169E+04 -1.693811E+03  8.205323E+02
       511   2  3.764206E+05 -1.243884E+04 -8.268456E+03  2.935587E+04 -1.999205E+03  3.388258E+03
       511   3  3.375314E+05 -2.172300E+04 -1.655603E+04  3.452558E+04 -2.304448E+03  5.618639E+03
       511   4  4.286797E+05  2.142509E+01  2.778436E+03  3.460809E+04  2.248612E+03  8.212121E+02
       511   5  4.286183E+05 -3.064305E+01  1.598259E+03  2.946537E+04  1.457138E+03  3.388779E+03
       511   6  4.286786E+05  4.850944E-01  9.531703E+02  3.460811E+04  6.657892E+02  5.619019E+03
       511   7  4.420116E+05  3.198910E+03  5.340306E+03  3.474450E+04  6.191117E+03  8.218936E+02
       511   8  4.808187E+05  1.237740E+04  1.146490E+04  2.957487E+04  4.913763E+03  3.389300E+03
       511   9  5.198338E+05  2.172349E+04  1.846202E+04  3.469065E+04  3.636452E+03  5.619398E+03
       511  10  4.153480E+05 -3.156064E+03  2.166097E+02  3.447169E+04  3.970745E-10  1.162343E-10
       511  11  3.764206E+05 -1.243885E+04 -8.268485E+03  2.935588E+04  1.683765E-11  1.757714E-13
       511  12  3.375314E+05 -2.172304E+04 -1.655610E+04  3.452559E+04 -4.940939E-10 -7.568666E-11
       511  13  4.286797E+05  2.142301E+01  2.778425E+03  3.460809E+04  5.469334E-11  2.278018E-12
       511  14  4.286183E+05 -3.065595E+01  1.598233E+03  2.946536E+04  8.903217E-11 -1.911038E-10
       511  15  4.286786E+05  4.510647E-01  9.531102E+02  3.460810E+04  1.362632E-10  5.435020E-11
       511  16  4.420116E+05  3.198899E+03  5.340233E+03  3.474449E+04 -2.953249E-10 -1.732148E-11
       511  17  4.808186E+05  1.237738E+04  1.146483E+04  2.957486E+04  1.051477E-10 -1.391260E-10
       511  18  5.198338E+05  2.172345E+04  1.846194E+04  3.469063E+04  2.958235E-10 -2.155812E-11
       511  19  4.153480E+05 -3.156062E+03  2.166164E+02  3.447169E+04  1.693811E+03 -8.205323E+02
       511  20  3.764206E+05 -1.243884E+04 -8.268456E+03  2.935587E+04  1.999205E+03 -3.388258E+03
       511  21  3.375314E+05 -2.172300E+04 -1.655603E+04  3.452558E+04  2.304448E+03 -5.618639E+03
       511  22  4.286797E+05  2.142509E+01  2.778436E+03  3.460809E+04 -2.248612E+03 -8.212121E+02
       511  23  4.286183E+05 -3.064305E+01  1.598259E+03  2.946537E+04 -1.457138E+03 -3.388779E+03
       511  24  4.286786E+05  4.850944E-01  9.531703E+02  3.460811E+04 -6.657892E+02 -5.619019E+03
       511  25  4.420116E+05  3.198910E+03  5.340306E+03  3.474450E+04 -6.191117E+03 -8.218936E+02
       511  26  4.808187E+05  1.237740E+04  1.146490E+04  2.957487E+04 -4.913763E+03 -3.389300E+03
       511  27  5.198338E+05  2.172349E+04  1.846202E+04  3.469065E+04 -3.636452E+03 -5.619398E+03
       512   1  3.109700E+05 -2.807449E+04 -2.191276E+04  3.451827E+04 -3.354860E+03  7.201319E+03
       512   2  2.725751E+05 -3.756437E+04 -3.160125E+04  2.939687E+04  3.719198E+03  7.343701E+03
       512   3  2.330158E+05 -4.804483E+04 -4.614080E+04  3.426742E+04  1.079286E+04  2.396442E+03
       512   4  4.286742E+05 -1.095055E+01  7.494053E+02  3.454286E+04  5.147384E+02  7.201739E+03
       512   5  4.286190E+05  5.464178E+01  5.101981E+02  2.954693E+04  2.575263E+02  7.343210E+03
       512   6  4.286703E+05  4.021080E+02  5.091598E+02  3.454282E+04  3.810433E-01  2.395625E+03
       512   7  5.463916E+05  2.805178E+04  2.341099E+04  3.456745E+04  4.385053E+03  7.202159E+03
       512   8  5.846860E+05  3.767212E+04  3.262038E+04  2.969703E+04 -3.205000E+03  7.342718E+03
       512   9  6.243601E+05  4.884635E+04  4.715687E+04  3.481831E+04 -1.079548E+04  2.394799E+03
       512  10  3.109700E+05 -2.807455E+04 -2.191288E+04  3.451829E+04 -1.382727E-10 -1.398460E-11
       512  11  2.725751E+05 -3.756443E+04 -3.160138E+04  2.939684E+04 -7.478248E-11 -1.463418E-10
       512  12  2.330156E+05 -4.804487E+04 -4.614103E+04  3.426740E+04 -1.972175E-10 -8.109131E-11
       512  13  4.286741E+05 -1.100632E+01  7.493073E+02  3.454285E+04 -7.911399E-11 -1.284930E-10
       512  14  4.286190E+05  5.458385E+01  5.100967E+02  2.954693E+04  2.207974E-10 -4.974617E-11
       512  15  4.286703E+05  4.021018E+02  5.091490E+02  3.454282E+04  1.773310E-10  2.476126E-11
       512  16  5.463916E+05  2.805172E+04  2.341085E+04  3.456742E+04  1.348567E-10  1.708925E-10
       512  17  5.846860E+05  3.767206E+04  3.262026E+04  2.969705E+04 -1.554999E-10 -1.072547E-10
       512  18  6.243600E+05  4.884631E+04  4.715664E+04  3.481833E+04  2.174639E-10  1.223685E-11
       512  19  3.109700E+05 -2.807449E+04 -2.191276E+04  3.451827E+04  3.354860E+03 -7.201319E+03
       512  20  2.725751E+05 -3.756437E+04 -3.160125E+04  2.939687E+04 -3.719198E+03 -7.343701E+03
       512  21  2.330158E+05 -4.804483E+04 -4.614080E+04  3.426742E+04 -1.079286E+04 -2.396442E+03
       512  22  4.286742E+05 -1.095055E+01  7.494053E+02  3.454286E+04 -5.147384E+02 -7.201739E+03
       512  23  4.286190E+05  5.464178E+01  5.101981E+02  2.954693E+04 -2.575263E+02 -7.343210E+03
       512  24  4.286703E+05  4.021080E+02  5.091598E+02  3.454282E+04 -3.810433E-01 -2.395625E+03
       512  25  5.463916E+05  2.805178E+04  2.341099E+04  3.456745E+04 -4.385053E+03 -7.202159E+03
       512  26  5.846860E+05  3.767212E+04  3.262038E+04  2.969703E+04  3.205000E+03 -7.342718E+03
       512  27  6.243601E+05  4.884635E+04  4.715687E+04  3.481831E+04  1.079548E+04 -2.394799E+03
       513   1  1.359392E+06  1.956479E+05  2.064329E+05  1.509201E+05  9.874868E+04 -4.126881E+03
       513   2  1.246286E+06  8.197165E+04  1.131134E+05  1.026897E+05  5.501279E+04 -1.200083E+04
       513   3  1.157017E+06  4.089157E+04  6.637256E+04  8.061540E+04  1.128495E+04 -9.942928E+03
       513   4  9.854770E+05  1.030471E+05  1.169695E+05  8.979093E+04  8.022567E+04 -4.139920E+03
       513   5  9.748329E+05  1.643324E+04  5.659956E+04  7.672528E+04  5.082531E+04 -1.200444E+04
       513   6  9.855434E+05 -5.409924E+01  3.288261E+04  8.980922E+04  2.142506E+04 -9.940078E+03
       513   7  6.116986E+05  1.045043E+04  2.749956E+04  2.869861E+04  6.171374E+04 -4.149325E+03
       513   8  7.034507E+05 -4.910733E+04  8.206660E+01  5.077236E+04  4.663964E+04 -1.200770E+04
       513   9  8.140983E+05 -4.100116E+04 -6.083280E+02  9.900044E+04  3.156243E+04 -9.936929E+03
       513  10  1.359381E+06  1.956452E+05  2.064146E+05  1.509205E+05  2.918963E-10 -1.332926E-10
       513  11  1.246283E+06  8.197069E+04  1.131075E+05  1.026902E+05  2.386260E-10 -4.999979E-13
       513  12  1.157017E+06  4.089143E+04  6.637214E+04  8.061550E+04 -5.312260E-10  3.867796E-10
       513  13  9.854701E+05  1.030454E+05  1.169574E+05  8.979120E+04 -2.249033E-10 -1.649734E-10
       513  14  9.748301E+05  1.643239E+04  5.659444E+04  7.672577E+04 -3.131123E-10 -2.775292E-10
       513  15  9.855428E+05 -5.432842E+01  3.288156E+04  8.980939E+04  6.977946E-10  6.927661E-10
       513  16  6.116945E+05  1.044939E+04  2.749238E+04  2.869881E+04 -3.535822E-10 -8.079868E-11
       513  17  7.034484E+05 -4.910807E+04  7.771228E+01  5.077281E+04 -3.024568E-10 -2.376091E-10
       513  18  8.140972E+05 -4.100154E+04 -6.103835E+02  9.900069E+04  6.079826E-10  2.717146E-10
       513  19  1.359392E+06  1.956479E+05  2.064329E+05  1.509201E+05 -9.874868E+04  4.126881E+03
       513  20  1.246286E+06  8.197165E+04  1.131134E+05  1.026897E+05 -5.501279E+04  1.200083E+04
       513  21  1.157017E+06  4.089157E+04  6.637256E+04  8.061540E+04 -1.128495E+04  9.942928E+03
       513  22  9.854770E+05  1.030471E+05  1.169695E+05  8.979093E+04 -8.022567E+04  4.139920E+03
       513  23  9.748329E+05  1.643324E+04  5.659956E+04  7.672528E+04 -5.082531E+04  1.200444E+04
       513  24  9.855434E+05 -5.409924E+01  3.288261E+04  8.980922E+04 -2.142506E+04  9.940078E+03
       513  25  6.116986E+05  1.045043E+04  2.749956E+04  2.869861E+04 -6.171374E+04  4.149325E+03
       513  26  7.034507E+05 -4.910733E+04  8.206660E+01  5.077236E+04 -4.663964E+04  1.200770E+04
       513  27  8.140983E+05 -4.100116E+04 -6.083280E+02  9.900044E+04 -3.156243E+04  9.936929E+03
       514   1  1.083878E+06  2.847536E+04  4.657874E+04  9.147035E+04  8.536891E+03 -5.808703E+03
       514   2  9.817725E+05  6.980134E+02  1.832105E+04  7.712552E+04 -1.150819E+03  3.224977E+02
       514   3  8.817966E+05 -2.359736E+04 -2.770663E+03  8.949485E+04 -1.083717E+04  7.080227E+03
       514   4  9.812330E+05  3.932772E+03  2.639625E+04  8.993229E+04  1.692834E+04 -5.806254E+03
       514   5  9.802524E+05  2.574903E+02  1.763883E+04  7.657581E+04  8.144436E+03  3.252243E+02
       514   6  9.812369E+05 -9.128068E+01  1.542208E+04  8.993338E+04 -6.395936E+02  7.083225E+03
       514   7  8.785986E+05 -2.061041E+04  6.213507E+03  8.839450E+04  2.531843E+04 -5.803845E+03
       514   8  9.787326E+05 -1.829858E+02  1.695692E+04  7.602611E+04  1.743967E+04  3.279344E+02
       514   9  1.080687E+06  2.341430E+04  3.361481E+04  9.037198E+04  9.559568E+03  7.086238E+03
       514  10  1.083878E+06  2.847531E+04  4.657854E+04  9.147039E+04  1.453809E-10  1.137722E-10
       514  11  9.817725E+05  6.980130E+02  1.832105E+04  7.712552E+04  4.320740E-10  1.464965E-10
       514  12  8.817965E+05 -2.359745E+04 -2.770978E+03  8.949491E+04 -2.921190E-10  9.610003E-11
       514  13  9.812327E+05  3.932659E+03  2.639564E+04  8.993237E+04  3.528760E-10  5.411849E-10
       514  14  9.802524E+05  2.574724E+02  1.763870E+04  7.657581E+04  4.809114E-10  3.407009E-10
       514  15  9.812369E+05 -9.133469E+01  1.542199E+04  8.993339E+04 -1.970767E-11 -1.528041E-11
       514  16  8.785979E+05 -2.061062E+04  6.212241E+03  8.839461E+04 -7.442907E-10  1.214858E-10
       514  17  9.787323E+05 -1.830674E+02  1.695635E+04  7.602611E+04  1.535484E-10  2.381543E-10
       514  18  1.080687E+06  2.341422E+04  3.361455E+04  9.037193E+04  4.122215E-10 -8.578367E-12
       514  19  1.083878E+06  2.847536E+04  4.657874E+04  9.147035E+04 -8.536891E+03  5.808703E+03
       514  20  9.817725E+05  6.980134E+02  1.832105E+04  7.712552E+04  1.150819E+03 -3.224977E+02
       514  21  8.817966E+05 -2.359736E+04 -2.770663E+03  8.949485E+04  1.083717E+04 -7.080227E+03
       514  22  9.812330E+05  3.932772E+03  2.639625E+04  8.993229E+04 -1.692834E+04  5.806254E+03
       514  23  9.802524E+05  2.574903E+02  1.763883E+04  7.657581E+04 -8.144436E+03 -3.252243E+02
       514  24  9.812369E+05 -9.128068E+01  1.542208E+04  8.993338E+04  6.395936E+02 -7.083225E+03
       514  25  8.785986E+05 -2.061041E+04  6.213507E+03  8.839450E+04 -2.531843E+04  5.803845E+03
       514  26  9.787326E+05 -1.829858E+02  1.695692E+04  7.602611E+04 -1.743967E+04 -3.279344E+02
       514  27  1.080687E+06  2.341430E+04  3.361481E+04  9.037198E+04 -9.559568E+03 -7.086238E+03
       515   1  8.134501E+05 -3.998386E+04 -1.522958E+04  9.074438E+04 -1.370186E+04  1.128795E+04
       515   2  7.112106E+05 -6.341496E+04 -2.895843E+04  7.598159E+04 -2.276801E+04  1.785867E+04
       515   3  6.112135E+05 -8.266371E+04 -3.574304E+04  8.792948E+04 -3.183137E+04  2.330659E+04
       515   4  9.813548E+05 -1.677986E+02  1.611730E+04  8.993241E+04 -3.419808E+03  1.129067E+04
       515   5  9.800870E+05  3.914156E+02  2.144853E+04  7.657687E+04 -1.410893E+04  1.785991E+04
       515   6  9.813311E+05  5.413411E+03  3.484702E+04  8.993106E+04 -2.479669E+04  2.330656E+04
       515   7  1.149287E+06  3.964670E+04  4.746338E+04  8.912021E+04  6.864949E+03  1.129336E+04
       515   8  1.249033E+06  6.419366E+04  7.185263E+04  7.717242E+04 -5.446208E+03  1.786115E+04
       515   9  1.351581E+06  9.348253E+04  1.054311E+05  9.193385E+04 -1.775792E+04  2.330657E+04
       515  10  8.134499E+05 -3.998405E+04 -1.523018E+04  9.074450E+04  4.945365E-10  2.817003E-10
       515  11  7.112100E+05 -6.341544E+04 -2.896000E+04  7.598191E+04 -6.322358E-11 -2.405658E-10
       515  12  6.112123E+05 -8.266457E+04 -3.574597E+04  8.793007E+04 -3.636216E-10 -3.905968E-10
       515  13  9.813547E+05 -1.679387E+02  1.611704E+04  8.993244E+04 -8.419088E-12 -2.077987E-11
       515  14  9.800867E+05  3.910195E+02  2.144755E+04  7.657708E+04  9.172399E-11 -2.206986E-10
       515  15  9.813303E+05  5.412663E+03  3.484485E+04  8.993152E+04 -1.596553E-10 -3.512131E-10
       515  16  1.149287E+06  3.964655E+04  4.746305E+04  8.912015E+04 -1.227822E-10 -1.592168E-10
       515  17  1.249033E+06  6.419330E+04  7.185197E+04  7.717249E+04  8.855664E-11 -3.214043E-10
       515  18  1.351580E+06  9.348186E+04  1.054295E+05  9.193418E+04  5.065381E-10 -3.577594E-10
       515  19  8.134501E+05 -3.998386E+04 -1.522958E+04  9.074438E+04  1.370186E+04 -1.128795E+04
       515  20  7.112106E+05 -6.341496E+04 -2.895843E+04  7.598159E+04  2.276801E+04 -1.785867E+04
       515  21  6.112135E+05 -8.266371E+04 -3.574304E+04  8.792948E+04  3.183137E+04 -2.330659E+04
       515  22  9.813548E+05 -1.677986E+02  1.611730E+04  8.993241E+04  3.419808E+03 -1.129067E+04
       515  23  9.800870E+05  3.914156E+02  2.144853E+04  7.657687E+04  1.410893E+04 -1.785991E+04
       515  24  9.813311E+05  5.413411E+03  3.484702E+04  8.993106E+04  2.479669E+04 -2.330656E+04
       515  25  1.149287E+06  3.964670E+04  4.746338E+04  8.912021E+04 -6.864949E+03 -1.129336E+04
       515  26  1.249033E+06  6.419366E+04  7.185263E+04  7.717242E+04  5.446208E+03 -1.786115E+04
       515  27  1.351581E+06  9.348253E+04  1.054311E+05  9.193385E+04  1.775792E+04 -2.330657E+04
       516   1  5.480346E+05 -1.047043E+05 -3.979459E+04  1.025477E+05 -4.070311E+04  2.738914E+04
       516   2  4.337987E+05 -1.070325E+05 -3.248118E+04  4.110529E+04 -5.729026E+04  2.607476E+04
       516   3  3.450032E+05 -1.652083E+04  8.851459E+03  5.494869E+03 -7.387731E+04  8.292206E+03
       516   4  9.873284E+05 -1.139224E+02  4.424878E+04  8.973221E+04 -3.075375E+04  2.738960E+04
       516   5  9.725194E+05  2.265056E+04  7.764911E+04  7.682111E+04 -7.109728E+04  2.606972E+04
       516   6  9.872262E+05  1.423211E+05  1.615266E+05  8.973479E+04 -1.114447E+05  8.285568E+03
       516   7  1.426808E+06  1.044658E+05  1.282838E+05  7.690738E+04 -2.079752E+04  2.738965E+04
       516   8  1.511519E+06  1.523204E+05  1.877655E+05  1.125685E+05 -8.491602E+04  2.606310E+04
       516   9  1.629846E+06  3.011609E+05  3.141821E+05  1.740622E+05 -1.490506E+05  8.268754E+03
       516  10  5.480327E+05 -1.047056E+05 -3.979911E+04  1.025486E+05  1.601095E-10 -5.175982E-10
       516  11  4.337950E+05 -1.070341E+05 -3.248862E+04  4.110650E+04  5.677128E-11 -5.069421E-10
       516  12  3.449973E+05 -1.652237E+04  8.841079E+03  5.495362E+03 -3.887895E-10 -2.981074E-10
       516  13  9.873272E+05 -1.149819E+02  4.424559E+04  8.973289E+04 -6.967787E-10 -5.650290E-10
       516  14  9.725137E+05  2.264848E+04  7.763835E+04  7.682261E+04  5.990588E-11 -5.153576E-10
       516  15  9.872129E+05  1.423177E+05  1.615032E+05  8.973554E+04 -3.539806E-10 -6.522169E-11
       516  16  1.426808E+06  1.044648E+05  1.282816E+05  7.690784E+04 -2.158735E-10 -4.456256E-10
       516  17  1.511511E+06  1.523177E+05  1.877507E+05  1.125702E+05 -3.078291E-10 -4.532479E-10
       516  18  1.629822E+06  3.011548E+05  3.141403E+05  1.740632E+05  1.046184E-09 -2.281809E-10
       516  19  5.480346E+05 -1.047043E+05 -3.979459E+04  1.025477E+05  4.070311E+04 -2.738914E+04
       516  20  4.337987E+05 -1.070325E+05 -3.248118E+04  4.110529E+04  5.729026E+04 -2.607476E+04
       516  21  3.450032E+05 -1.652083E+04  8.851459E+03  5.494869E+03  7.387731E+04 -8.292206E+03
       516  22  9.873284E+05 -1.139224E+02  4.424878E+04  8.973221E+04  3.075375E+04 -2.738960E+04
       516  23  9.725194E+05  2.265056E+04  7.764911E+04  7.682111E+04  7.109728E+04 -2.606972E+04
       516  24  9.872262E+05  1.423211E+05  1.615266E+05  8.973479E+04  1.114447E+05 -8.285568E+03
       516  25  1.426808E+06  1.044658E+05  1.282838E+05  7.690738E+04  2.079752E+04 -2.738965E+04
       516  26  1.511519E+06  1.523204E+05  1.877655E+05  1.125685E+05  8.491602E+04 -2.606310E+04
       516  27  1.629846E+06  3.011609E+05  3.141821E+05  1.740622E+05  1.490506E+05 -8.268754E+03
       517   1 -1.120939E+06 -2.310257E+05 -2.727429E+05 -1.519619E+05 -2.129213E+05 -3.293917E+03
       517   2 -1.114350E+06  6.741931E+03 -1.136899E+05 -5.535079E+04 -1.394173E+05 -1.108406E+04
       517   3 -1.166590E+06  4.750203E+04 -5.178529E+04  4.690046E+04 -6.591490E+04 -1.267729E+04
       517   4 -1.365273E+06 -2.917167E+05 -3.307389E+05  2.047649E+04 -2.284169E+05 -3.349477E+03
       517   5 -1.334971E+06 -4.644881E+04 -1.584977E+05  1.768770E+04 -1.460633E+05 -1.109948E+04
       517   6 -1.365080E+06  1.961810E+02 -8.958787E+04  2.053257E+04 -6.370684E+04 -1.267515E+04
       517   7 -1.609488E+06 -3.523000E+05 -3.887221E+05  1.928466E+05 -2.439065E+05 -3.413680E+03
       517   8 -1.555533E+06 -9.962250E+04 -2.033049E+05  9.069972E+04 -1.527070E+05 -1.111648E+04
       517   9 -1.563531E+06 -4.710936E+04 -1.273918E+05 -5.826667E+03 -6.149946E+04 -1.267320E+04
       517  10 -1.120988E+06 -2.310379E+05 -2.728283E+05 -1.519625E+05 -2.196941E-10  3.842601E-10
       517  11 -1.114371E+06  6.736569E+03 -1.137268E+05 -5.535204E+04 -2.594329E-10 -1.265386E-10
       517  12 -1.166595E+06  4.750069E+04 -5.179377E+04  4.689978E+04  1.682260E-09 -1.590753E-10
       517  13 -1.365329E+06 -2.917308E+05 -3.308372E+05  2.047587E+04 -5.007703E-10 -1.189921E-10
       517  14 -1.334994E+06 -4.645469E+04 -1.585381E+05  1.768640E+04 -3.431206E-10  6.357727E-11
       517  15 -1.365085E+06  1.949161E+02 -8.959581E+04  2.053192E+04  3.575118E-10 -3.140333E-10
       517  16 -1.609552E+06 -3.523161E+05 -3.888342E+05  1.928459E+05 -3.945050E-12  2.602672E-11
       517  17 -1.555558E+06 -9.962891E+04 -2.033491E+05  9.069835E+04 -7.125497E-10  5.124745E-11
       517  18 -1.563535E+06 -4.711055E+04 -1.273993E+05 -5.827295E+03 -2.130296E-09 -8.212604E-10
       517  19 -1.120939E+06 -2.310257E+05 -2.727429E+05 -1.519619E+05  2.129213E+05  3.293917E+03
       517  20 -1.114350E+06  6.741931E+03 -1.136899E+05 -5.535079E+04  1.394173E+05  1.108406E+04
       517  21 -1.166590E+06  4.750203E+04 -5.178529E+04  4.690046E+04  6.591490E+04  1.267729E+04
       517  22 -1.365273E+06 -2.917167E+05 -3.307389E+05  2.047649E+04  2.284169E+05  3.349477E+03
       517  23 -1.334971E+06 -4.644881E+04 -1.584977E+05  1.768770E+04  1.460633E+05  1.109948E+04
       517  24 -1.365080E+06  1.961810E+02 -8.958787E+04  2.053257E+04  6.370684E+04  1.267515E+04
       517  25 -1.609488E+06 -3.523000E+05 -3.887221E+05  1.928466E+05  2.439065E+05  3.413680E+03
       517  26 -1.555533E+06 -9.962250E+04 -2.033049E+05  9.069972E+04  1.527070E+05  1.111648E+04
       517  27 -1.563531E+06 -4.710936E+04 -1.273918E+05 -5.826667E+03  6.149946E+04  1.267320E+04
       518   1 -1.170121E+06  3.237413E+04 -3.530373E+04  1.667803E+04 -5.287074E+04 -1.176612E+04
       518   2 -1.190744E+06  3.707480E+04 -1.168432E+04  1.656972E+04 -3.282083E+04 -1.077896E+04
       518   3 -1.216206E+06  3.285955E+04 -3.362014E+03  2.254738E+04 -1.277132E+04 -9.347396E+03
       518   4 -1.352776E+06 -1.114863E+04 -6.999757E+04  2.062180E+04 -5.175646E+04 -1.176689E+04
       518   5 -1.350290E+06 -8.476500E+02 -4.152124E+04  1.757913E+04 -3.107331E+04 -1.077941E+04
       518   6 -1.352756E+06  4.255188E+02 -2.878593E+04  2.062267E+04 -1.038984E+04 -9.347665E+03
       518   7 -1.535399E+06 -5.467329E+04 -1.046929E+05  2.456438E+04 -5.064249E+04 -1.176764E+04
       518   8 -1.509812E+06 -3.877157E+04 -7.135925E+04  1.858827E+04 -2.932623E+04 -1.077986E+04
       518   9 -1.489288E+06 -3.200957E+04 -5.421061E+04  1.869840E+04 -8.008862E+03 -9.347949E+03
       518  10 -1.170124E+06  3.237323E+04 -3.530925E+04  1.667753E+04 -6.375221E-11 -3.175558E-10
       518  11 -1.190745E+06  3.707438E+04 -1.168656E+04  1.656943E+04 -4.244401E-10 -2.109586E-10
       518  12 -1.216206E+06  3.285941E+04 -3.362486E+03  2.254728E+04  9.949778E-11  4.793007E-10
       518  13 -1.352779E+06 -1.114950E+04 -7.000288E+04  2.062131E+04 -4.347036E-10 -6.613020E-10
       518  14 -1.350291E+06 -8.480346E+02 -4.152328E+04  1.757886E+04 -6.519370E-10 -5.618278E-11
       518  15 -1.352756E+06  4.253960E+02 -2.878629E+04  2.062260E+04  3.867118E-10  2.809062E-10
       518  16 -1.535402E+06 -5.467413E+04 -1.046980E+05  2.456390E+04  4.324184E-10 -6.466899E-10
       518  17 -1.509813E+06 -3.877192E+04 -7.136109E+04  1.858802E+04 -2.431824E-10  1.666291E-10
       518  18 -1.489288E+06 -3.200968E+04 -5.421089E+04  1.869834E+04  1.384467E-10  1.109737E-10
       518  19 -1.170121E+06  3.237413E+04 -3.530373E+04  1.667803E+04  5.287074E+04  1.176612E+04
       518  20 -1.190744E+06  3.707480E+04 -1.168432E+04  1.656972E+04  3.282083E+04  1.077896E+04
       518  21 -1.216206E+06  3.285955E+04 -3.362014E+03  2.254738E+04  1.277132E+04  9.347396E+03
       518  22 -1.352776E+06 -1.114863E+04 -6.999757E+04  2.062180E+04  5.175646E+04  1.176689E+04
       518  23 -1.350290E+06 -8.476500E+02 -4.152124E+04  1.757913E+04  3.107331E+04  1.077941E+04
       518  24 -1.352756E+06  4.255188E+02 -2.878593E+04  2.062267E+04  1.038984E+04  9.347665E+03
       518  25 -1.535399E+06 -5.467329E+04 -1.046929E+05  2.456438E+04  5.064249E+04  1.176764E+04
       518  26 -1.509812E+06 -3.877157E+04 -7.135925E+04  1.858827E+04  2.932623E+04  1.077986E+04
       518  27 -1.489288E+06 -3.200957E+04 -5.421061E+04  1.869840E+04  8.008862E+03  9.347949E+03
       519   1 -1.231412E+06  2.883074E+04 -3.637906E+03  2.036095E+04 -7.873951E+03 -8.382670E+03
       519   2 -1.253159E+06  2.298051E+04 -8.334170E+03  1.849791E+04  5.222847E+03 -6.759834E+03
       519   3 -1.277741E+06  1.261507E+04 -2.269729E+04  2.277848E+04  1.831879E+04 -5.095044E+03
       519   4 -1.352287E+06  1.396370E+02 -2.604230E+04  2.063525E+04 -5.569127E+03 -8.382906E+03
       519   5 -1.350866E+06 -2.147180E+02 -2.646000E+04  1.756327E+04  7.585874E+03 -6.759984E+03
       519   6 -1.352291E+06 -5.094939E+03 -3.658615E+04  2.063502E+04  2.074049E+04 -5.095155E+03
       519   7 -1.473148E+06 -2.855230E+04 -4.844729E+04  2.090949E+04 -3.264740E+03 -8.383139E+03
       519   8 -1.448564E+06 -2.341048E+04 -4.458621E+04  1.662878E+04  9.948538E+03 -6.760141E+03
       519   9 -1.426836E+06 -2.280525E+04 -5.047522E+04  1.849183E+04  2.316189E+04 -5.095283E+03
       519  10 -1.231412E+06  2.883064E+04 -3.638155E+03  2.036090E+04  6.068608E-10  6.854427E-10
       519  11 -1.253159E+06  2.298045E+04 -8.334307E+03  1.849794E+04  1.282135E-09  4.677980E-10
       519  12 -1.277741E+06  1.261495E+04 -2.269797E+04  2.277855E+04  2.124687E-10  2.620616E-10
       519  13 -1.352287E+06  1.395532E+02 -2.604249E+04  2.063521E+04  5.873504E-10  2.979788E-10
       519  14 -1.350866E+06 -2.147825E+02 -2.646019E+04  1.756331E+04  7.955275E-11  1.175907E-10
       519  15 -1.352292E+06 -5.095083E+03 -3.658701E+04  2.063511E+04  9.690425E-10 -5.490977E-11
       519  16 -1.473148E+06 -2.855238E+04 -4.844744E+04  2.090947E+04  1.037296E-10 -6.703054E-11
       519  17 -1.448564E+06 -2.341056E+04 -4.458648E+04  1.662884E+04  3.450229E-10 -6.215854E-11
       519  18 -1.426837E+06 -2.280542E+04 -5.047628E+04  1.849192E+04  2.514753E-11 -2.201840E-10
       519  19 -1.231412E+06  2.883074E+04 -3.637906E+03  2.036095E+04  7.873951E+03  8.382670E+03
       519  20 -1.253159E+06  2.298051E+04 -8.334170E+03  1.849791E+04 -5.222847E+03  6.759834E+03
       519  21 -1.277741E+06  1.261507E+04 -2.269729E+04  2.277848E+04 -1.831879E+04  5.095044E+03
       519  22 -1.352287E+06  1.396370E+02 -2.604230E+04  2.063525E+04  5.569127E+03  8.382906E+03
       519  23 -1.350866E+06 -2.147180E+02 -2.646000E+04  1.756327E+04 -7.585874E+03  6.759984E+03
       519  24 -1.352291E+06 -5.094939E+03 -3.658615E+04  2.063502E+04 -2.074049E+04  5.095155E+03
       519  25 -1.473148E+06 -2.855230E+04 -4.844729E+04  2.090949E+04  3.264740E+03  8.383139E+03
       519  26 -1.448564E+06 -2.341048E+04 -4.458621E+04  1.662878E+04 -9.948538E+03  6.760141E+03
       519  27 -1.426836E+06 -2.280525E+04 -5.047522E+04  1.849183E+04 -2.316189E+04  5.095283E+03
       520   1 -1.299092E+06  1.412864E+04 -3.379226E+04  8.568832E+03  2.453309E+04 -4.122429E+03
       520   2 -1.308234E+06 -1.313892E+04 -6.859983E+04  5.177149E+04  6.343581E+04 -2.391814E+03
       520   3 -1.345611E+06 -1.330080E+05 -1.519210E+05  1.011396E+05  1.023379E+05 -5.407404E+02
       520   4 -1.357930E+06  1.697980E+02 -4.465968E+04  2.064078E+04  2.693124E+04 -4.121961E+03
       520   5 -1.343840E+06 -2.160727E+04 -7.526782E+04  1.755630E+04  6.599709E+04 -2.395290E+03
       520   6 -1.358018E+06 -1.360244E+05 -1.545045E+05  2.064030E+04  1.050635E+05 -5.539691E+02
       520   7 -1.416764E+06 -1.378869E+04 -5.552715E+04  3.271154E+04  2.932918E+04 -4.121398E+03
       520   8 -1.379443E+06 -3.007128E+04 -8.193520E+04 -1.665687E+04  6.855822E+04 -2.399048E+03
       520   9 -1.370411E+06 -1.390164E+05 -1.570846E+05 -5.985738E+04  1.077892E+05 -5.679064E+02
       520  10 -1.299093E+06  1.412846E+04 -3.379343E+04  8.568914E+03 -3.577735E-10  2.517655E-10
       520  11 -1.308239E+06 -1.314001E+04 -6.860742E+04  5.177161E+04  5.214277E-11  5.012096E-11
       520  12 -1.345623E+06 -1.330108E+05 -1.519407E+05  1.011397E+05  5.412118E-10 -4.295395E-11
       520  13 -1.357931E+06  1.695845E+02 -4.466108E+04  2.064087E+04 -6.727022E-11  3.526597E-11
       520  14 -1.343845E+06 -2.160845E+04 -7.527603E+04  1.755643E+04  1.477917E-10  1.952089E-10
       520  15 -1.358030E+06 -1.360274E+05 -1.545253E+05  2.064034E+04 -4.461981E-10  6.695341E-11
       520  16 -1.416765E+06 -1.378894E+04 -5.552880E+04  3.271164E+04  1.216628E-10 -6.524637E-11
       520  17 -1.379448E+06 -3.007256E+04 -8.194406E+04 -1.665674E+04  4.636785E-10  2.634854E-10
       520  18 -1.370423E+06 -1.390195E+05 -1.571064E+05 -5.985734E+04 -3.991087E-10  1.309947E-10
       520  19 -1.299092E+06  1.412864E+04 -3.379226E+04  8.568832E+03 -2.453309E+04  4.122429E+03
       520  20 -1.308234E+06 -1.313892E+04 -6.859983E+04  5.177149E+04 -6.343581E+04  2.391814E+03
       520  21 -1.345611E+06 -1.330080E+05 -1.519210E+05  1.011396E+05 -1.023379E+05  5.407404E+02
       520  22 -1.357930E+06  1.697980E+02 -4.465968E+04  2.064078E+04 -2.693124E+04  4.121961E+03
       520  23 -1.343840E+06 -2.160727E+04 -7.526782E+04  1.755630E+04 -6.599709E+04  2.395290E+03
       520  24 -1.358018E+06 -1.360244E+05 -1.545045E+05  2.064030E+04 -1.050635E+05  5.539691E+02
       520  25 -1.416764E+06 -1.378869E+04 -5.552715E+04  3.271154E+04 -2.932918E+04  4.121398E+03
       520  26 -1.379443E+06 -3.007128E+04 -8.193520E+04 -1.665687E+04 -6.855822E+04  2.399048E+03
       520  27 -1.370411E+06 -1.390164E+05 -1.570846E+05 -5.985738E+04 -1.077892E+05  5.679064E+02
       521   1 -8.007277E+05 -8.662014E+03 -2.689471E+04 -3.445022E+04 -5.661058E+04 -5.485347E+03
       521   2 -8.224290E+05  6.894038E+04  1.475773E+04 -2.575394E+03 -4.084541E+04 -1.805803E+04
       521   3 -8.633905E+05  7.765856E+04  2.892184E+04  3.696345E+04 -2.508167E+04 -2.087730E+04
       521   4 -1.189007E+06 -1.048106E+05 -1.189241E+05  2.751355E+04 -8.167419E+04 -5.492767E+03
       521   5 -1.178117E+06 -1.668865E+04 -5.733694E+04  2.367360E+04 -5.189494E+04 -1.806206E+04
       521   6 -1.188940E+06  8.624115E+01 -3.299457E+04  2.749823E+04 -2.211547E+04 -2.087721E+04
       521   7 -1.577137E+06 -2.009553E+05 -2.109595E+05  8.943830E+04 -1.067222E+05 -5.505201E+03
       521   8 -1.533682E+06 -1.023229E+05 -1.294374E+05  4.990725E+04 -6.293825E+04 -1.806702E+04
       521   9 -1.514386E+06 -7.749197E+04 -9.491566E+04  1.803810E+04 -1.915078E+04 -2.087720E+04
       521  10 -8.007312E+05 -8.662908E+03 -2.690080E+04 -3.445047E+04 -1.731266E-10  1.594465E-10
       521  11 -8.224309E+05  6.893959E+04  1.475398E+04 -2.575988E+03 -7.088583E-10  3.913500E-10
       521  12 -8.633913E+05  7.765793E+04  2.891983E+04  3.696302E+04  1.600991E-10  7.598985E-11
       521  13 -1.189014E+06 -1.048125E+05 -1.189367E+05  2.751318E+04 -1.068065E-09  1.663356E-10
       521  14 -1.178120E+06 -1.668973E+04 -5.734262E+04  2.367285E+04 -8.223022E-10  5.263116E-10
       521  15 -1.188940E+06  8.564178E+01 -3.299631E+04  2.749786E+04  7.139014E-11  1.816468E-10
       521  16 -1.577150E+06 -2.009584E+05 -2.109810E+05  8.943782E+04 -3.212449E-10  1.686265E-10
       521  17 -1.533686E+06 -1.023243E+05 -1.294454E+05  4.990634E+04  3.993809E-10  1.787767E-10
       521  18 -1.514387E+06 -7.749254E+04 -9.491717E+04  1.803778E+04  3.058981E-11  1.650350E-10
       521  19 -8.007277E+05 -8.662014E+03 -2.689471E+04 -3.445022E+04  5.661058E+04  5.485347E+03
       521  20 -8.224290E+05  6.894038E+04  1.475773E+04 -2.575394E+03  4.084541E+04  1.805803E+04
       521  21 -8.633905E+05  7.765856E+04  2.892184E+04  3.696345E+04  2.508167E+04  2.087730E+04
       521  22 -1.189007E+06 -1.048106E+05 -1.189241E+05  2.751355E+04  8.167419E+04  5.492767E+03
       521  23 -1.178117E+06 -1.668865E+04 -5.733694E+04  2.367360E+04  5.189494E+04  1.806206E+04
       521  24 -1.188940E+06  8.624115E+01 -3.299457E+04  2.749823E+04  2.211547E+04  2.087721E+04
       521  25 -1.577137E+06 -2.009553E+05 -2.109595E+05  8.943830E+04  1.067222E+05  5.505201E+03
       521  26 -1.533682E+06 -1.023229E+05 -1.294374E+05  4.990725E+04  6.293825E+04  1.806702E+04
       521  27 -1.514386E+06 -7.749197E+04 -9.491566E+04  1.803810E+04  1.915078E+04  2.087720E+04
       522   1 -8.806657E+05  6.839705E+04  3.139600E+04  2.620046E+04 -1.888860E+04 -1.964454E+04
       522   2 -9.112987E+05  6.444210E+04  3.397856E+04  2.305780E+04 -1.149344E+04 -1.843072E+04
       522   3 -9.436758E+05  5.734084E+04  3.095684E+04  2.822576E+04 -4.099304E+03 -1.650869E+04
       522   4 -1.184546E+06 -3.977622E+03 -2.625070E+04  2.764409E+04 -1.764862E+04 -1.964508E+04
       522   5 -1.183579E+06 -2.525965E+02 -1.689685E+04  2.348794E+04 -9.238394E+03 -1.843073E+04
       522   6 -1.184535E+06  1.485294E+02 -1.385527E+04  2.764271E+04 -8.288409E+02 -1.650802E+04
       522   7 -1.488336E+06 -7.635769E+04 -8.390151E+04  2.908698E+04 -1.640923E+04 -1.964561E+04
       522   8 -1.455787E+06 -6.495158E+04 -6.777542E+04  2.391789E+04 -6.984313E+03 -1.843073E+04
       522   9 -1.425338E+06 -5.704712E+04 -5.866981E+04  2.705989E+04  2.440384E+03 -1.650737E+04
       522  10 -8.806662E+05  6.839653E+04  3.139460E+04  2.620016E+04 -6.019297E-10  4.206420E-10
       522  11 -9.112990E+05  6.444170E+04  3.397767E+04  2.305763E+04  7.664165E-10 -6.173563E-10
       522  12 -9.436759E+05  5.734054E+04  3.095630E+04  2.822571E+04  2.974826E-10 -3.428280E-10
       522  13 -1.184546E+06 -3.978120E+03 -2.625201E+04  2.764381E+04 -2.749000E-14  1.678875E-10
       522  14 -1.183579E+06 -2.529840E+02 -1.689765E+04  2.348781E+04  1.674002E-10 -1.511350E-10
       522  15 -1.184535E+06  1.482368E+02 -1.385579E+04  2.764270E+04  5.277713E-10 -4.605658E-10
       522  16 -1.488337E+06 -7.635818E+04 -8.390275E+04  2.908672E+04  1.020753E-09 -1.721582E-10
       522  17 -1.455787E+06 -6.495196E+04 -6.777615E+04  2.391778E+04  3.600463E-10 -2.550317E-11
       522  18 -1.425338E+06 -5.704741E+04 -5.867033E+04  2.705993E+04 -6.218809E-10  1.586341E-10
       522  19 -8.806657E+05  6.839705E+04  3.139600E+04  2.620046E+04  1.888860E+04  1.964454E+04
       522  20 -9.112987E+05  6.444210E+04  3.397856E+04  2.305780E+04  1.149344E+04  1.843072E+04
       522  21 -9.436758E+05  5.734084E+04  3.095684E+04  2.822576E+04  4.099304E+03  1.650869E+04
       522  22 -1.184546E+06 -3.977622E+03 -2.625070E+04  2.764409E+04  1.764862E+04  1.964508E+04
       522  23 -1.183579E+06 -2.525965E+02 -1.689685E+04  2.348794E+04  9.238394E+03  1.843073E+04
       522  24 -1.184535E+06  1.485294E+02 -1.385527E+04  2.764271E+04  8.288409E+02  1.650802E+04
       522  25 -1.488336E+06 -7.635769E+04 -8.390151E+04  2.908698E+04  1.640923E+04  1.964561E+04
       522  26 -1.455787E+06 -6.495158E+04 -6.777542E+04  2.391789E+04  6.984313E+03  1.843073E+04
       522  27 -1.425338E+06 -5.704712E+04 -5.866981E+04  2.705989E+04 -2.440384E+03  1.650737E+04
       523   1 -9.651285E+05  5.224012E+04  2.669602E+04  2.712828E+04 -1.513873E+03 -1.518887E+04
       523   2 -9.958139E+05  4.429623E+04  1.723931E+04  2.401205E+04  7.035008E+03 -1.292730E+04
       523   3 -1.028493E+06  3.284968E+04  1.333791E+03  2.930544E+04  1.558312E+04 -1.050671E+04
       523   4 -1.184558E+06  1.647698E+02 -1.398910E+04  2.766458E+04  1.619506E+03 -1.518809E+04
       523   5 -1.183542E+06 -2.695063E+02 -1.762865E+04  2.346057E+04  1.039460E+04 -1.292618E+04
       523   6 -1.184559E+06 -4.246224E+03 -2.787532E+04  2.766637E+04  1.916934E+04 -1.050526E+04
       523   7 -1.403940E+06 -5.191334E+04 -5.467621E+04  2.820067E+04  4.751805E+03 -1.518730E+04
       523   8 -1.371235E+06 -4.483726E+04 -5.249804E+04  2.290926E+04  1.375320E+04 -1.292507E+04
       523   9 -1.340602E+06 -4.134352E+04 -5.708543E+04  2.602773E+04  2.275467E+04 -1.050383E+04
       523  10 -9.651286E+05  5.223987E+04  2.669558E+04  2.712826E+04 -1.593386E-10 -3.027531E-10
       523  11 -9.958140E+05  4.429603E+04  1.723890E+04  2.401212E+04  7.818634E-11 -3.006482E-10
       523  12 -1.028493E+06  3.284950E+04  1.333126E+03  2.930557E+04  1.348639E-10 -7.416713E-10
       523  13 -1.184558E+06  1.645216E+02 -1.398954E+04  2.766460E+04 -1.668825E-11 -4.262878E-10
       523  14 -1.183542E+06 -2.697147E+02 -1.762916E+04  2.346068E+04 -7.703359E-12 -5.692249E-10
       523  15 -1.184560E+06 -4.246441E+03 -2.787622E+04  2.766654E+04  3.646646E-10 -5.971556E-10
       523  16 -1.403940E+06 -5.191359E+04 -5.467668E+04  2.820073E+04 -1.897106E-10 -3.004860E-10
       523  17 -1.371235E+06 -4.483749E+04 -5.249871E+04  2.290940E+04 -1.382461E-09  2.276632E-10
       523  18 -1.340603E+06 -4.134378E+04 -5.708661E+04  2.602792E+04 -1.168260E-09  4.874303E-11
       523  19 -9.651285E+05  5.224012E+04  2.669602E+04  2.712828E+04  1.513873E+03  1.518887E+04
       523  20 -9.958139E+05  4.429623E+04  1.723931E+04  2.401205E+04 -7.035008E+03  1.292730E+04
       523  21 -1.028493E+06  3.284968E+04  1.333791E+03  2.930544E+04 -1.558312E+04  1.050671E+04
       523  22 -1.184558E+06  1.647698E+02 -1.398910E+04  2.766458E+04 -1.619506E+03  1.518809E+04
       523  23 -1.183542E+06 -2.695063E+02 -1.762865E+04  2.346057E+04 -1.039460E+04  1.292618E+04
       523  24 -1.184559E+06 -4.246224E+03 -2.787532E+04  2.766637E+04 -1.916934E+04  1.050526E+04
       523  25 -1.403940E+06 -5.191334E+04 -5.467621E+04  2.820067E+04 -4.751805E+03  1.518730E+04
       523  26 -1.371235E+06 -4.483726E+04 -5.249804E+04  2.290926E+04 -1.375320E+04  1.292507E+04
       523  27 -1.340602E+06 -4.134352E+04 -5.708543E+04  2.602773E+04 -2.275467E+04  1.050383E+04
       524   1 -1.054644E+06  3.208799E+04 -1.007955E+04  1.762492E+04  2.059728E+04 -9.162089E+03
       524   2 -1.075024E+06  6.720927E+03 -4.142575E+04  5.164328E+04  5.035231E+04 -6.094645E+03
       524   3 -1.118332E+06 -9.477808E+04 -1.112029E+05  9.421413E+04  8.010530E+04 -1.543296E+03
       524   4 -1.189278E+06  1.187043E+02 -3.518022E+04  2.768903E+04  2.391617E+04 -9.160277E+03
       524   5 -1.177657E+06 -1.785914E+04 -6.138319E+04  2.343825E+04  5.579585E+04 -6.094218E+03
       524   6 -1.189340E+06 -1.123498E+05 -1.274975E+05  2.774339E+04  8.767465E+04 -1.547813E+03
       524   7 -1.323894E+06 -3.185124E+04 -6.028157E+04  3.775089E+04  2.723437E+04 -9.158357E+03
       524   8 -1.280279E+06 -4.243684E+04 -8.134059E+04 -4.762000E+03  6.123852E+04 -6.094286E+03
       524   9 -1.260334E+06 -1.299053E+05 -1.437900E+05 -3.871967E+04  9.524313E+04 -1.553954E+03
       524  10 -1.054644E+06  3.208778E+04 -1.008051E+04  1.762507E+04  3.777857E-10 -1.126310E-09
       524  11 -1.075026E+06  6.720205E+03 -4.143059E+04  5.164353E+04  3.601618E-10 -1.717497E-09
       524  12 -1.118339E+06 -9.477981E+04 -1.112149E+05  9.421423E+04 -9.703984E-10 -4.204854E-10
       524  13 -1.189278E+06  1.184603E+02 -3.518145E+04  2.768920E+04  1.277345E-09 -2.255205E-09
       524  14 -1.177661E+06 -1.786002E+04 -6.138912E+04  2.343853E+04 -1.378245E-09  9.700954E-10
       524  15 -1.189349E+06 -1.123519E+05 -1.275120E+05  2.774350E+04  6.424868E-10 -6.907358E-11
       524  16 -1.323895E+06 -3.185153E+04 -6.028312E+04  3.775109E+04 -4.667497E-10 -1.280890E-10
       524  17 -1.280283E+06 -4.243788E+04 -8.134772E+04 -4.761699E+03 -9.535898E-10  9.506496E-10
       524  18 -1.260344E+06 -1.299077E+05 -1.438070E+05 -3.871955E+04  9.432196E-10 -3.764909E-10
       524  19 -1.054644E+06  3.208799E+04 -1.007955E+04  1.762492E+04 -2.059728E+04  9.162089E+03
       524  20 -1.075024E+06  6.720927E+03 -4.142575E+04  5.164328E+04 -5.035231E+04  6.094645E+03
       524  21 -1.118332E+06 -9.477808E+04 -1.112029E+05  9.421413E+04 -8.010530E+04  1.543296E+03
       524  22 -1.189278E+06  1.187043E+02 -3.518022E+04  2.768903E+04 -2.391617E+04  9.160277E+03
       524  23 -1.177657E+06 -1.785914E+04 -6.138319E+04  2.343825E+04 -5.579585E+04  6.094218E+03
       524  24 -1.189340E+06 -1.123498E+05 -1.274975E+05  2.774339E+04 -8.767465E+04  1.547813E+03
       524  25 -1.323894E+06 -3.185124E+04 -6.028157E+04  3.775089E+04 -2.723437E+04  9.158357E+03
       524  26 -1.280279E+06 -4.243684E+04 -8.134059E+04 -4.762000E+03 -6.123852E+04  6.094286E+03
       524  27 -1.260334E+06 -1.299053E+05 -1.437900E+05 -3.871967E+04 -9.524313E+04  1.553954E+03
       525   1 -5.621813E+05  4.026124E+04  2.027269E+04  7.879262E+02 -4.553624E+04 -7.901894E+03
       525   2 -6.245744E+05  1.065275E+05  4.690534E+04  2.736364E+04 -3.717624E+04 -2.538061E+04
       525   3 -7.048692E+05  1.054674E+05  5.127240E+04  7.188060E+04 -2.882582E+04 -2.799015E+04
       525   4 -1.146600E+06 -1.044184E+05 -1.185647E+05  6.230987E+04 -8.134015E+04 -7.929693E+03
       525   5 -1.135737E+06 -1.658803E+04 -5.723239E+04  5.329882E+04 -5.160505E+04 -2.539447E+04
       525   6 -1.146519E+06  1.647184E+02 -3.304297E+04  6.223276E+04 -2.187778E+04 -2.798544E+04
       525   7 -1.730693E+06 -2.491077E+05 -2.574191E+05  1.237735E+05 -1.171105E+05 -7.964613E+03
       525   8 -1.646649E+06 -1.397172E+05 -1.613827E+05  7.921218E+04 -6.602217E+04 -2.540955E+04
       525   9 -1.587980E+06 -1.051491E+05 -1.173670E+05  5.259191E+04 -1.493457E+04 -2.798095E+04
       525  10 -5.621836E+05  4.026062E+04  2.026868E+04  7.876364E+02  5.986835E-10 -1.630729E-10
       525  11 -6.245760E+05  1.065264E+05  4.690153E+04  2.736288E+04  1.562081E-09 -1.724247E-09
       525  12 -7.048703E+05  1.054663E+05  5.126937E+04  7.187995E+04  1.212640E-09 -1.877738E-09
       525  13 -1.146607E+06 -1.044203E+05 -1.185773E+05  6.230935E+04 -5.818617E-10  3.254992E-10
       525  14 -1.135740E+06 -1.658944E+04 -5.723862E+04  5.329777E+04 -3.428384E-10 -1.076840E-09
       525  15 -1.146520E+06  1.637492E+02 -3.304534E+04  6.223227E+04  7.141125E-11 -6.329002E-10
       525  16 -1.730708E+06 -2.491115E+05 -2.574450E+05  1.237727E+05 -1.177773E-09  7.284304E-11
       525  17 -1.646654E+06 -1.397191E+05 -1.613921E+05  7.921082E+04 -2.842653E-10 -2.709338E-09
       525  18 -1.587981E+06 -1.051500E+05 -1.173688E+05  5.259158E+04 -7.350381E-10 -3.069165E-09
       525  19 -5.621813E+05  4.026124E+04  2.027269E+04  7.879262E+02  4.553624E+04  7.901894E+03
       525  20 -6.245744E+05  1.065275E+05  4.690534E+04  2.736364E+04  3.717624E+04  2.538061E+04
       525  21 -7.048692E+05  1.054674E+05  5.127240E+04  7.188060E+04  2.882582E+04  2.799015E+04
       525  22 -1.146600E+06 -1.044184E+05 -1.185647E+05  6.230987E+04  8.134015E+04  7.929693E+03
       525  23 -1.135737E+06 -1.658803E+04 -5.723239E+04  5.329882E+04  5.160505E+04  2.539447E+04
       525  24 -1.146519E+06  1.647184E+02 -3.304297E+04  6.223276E+04  2.187778E+04  2.798544E+04
       525  25 -1.730693E+06 -2.491077E+05 -2.574191E+05  1.237735E+05  1.171105E+05  7.964613E+03
       525  26 -1.646649E+06 -1.397172E+05 -1.613827E+05  7.921218E+04  6.602217E+04  2.540955E+04
       525  27 -1.587980E+06 -1.051491E+05 -1.173670E+05  5.259191E+04  1.493457E+04  2.798095E+04
       526   1 -7.494426E+05  8.969220E+04  4.836851E+04  6.120559E+04 -2.171300E+04 -2.512326E+04
       526   2 -8.200837E+05  7.614406E+04  4.290242E+04  5.271942E+04 -1.464644E+04 -2.159695E+04
       526   3 -8.924270E+05  5.955731E+04  3.206570E+04  6.312793E+04 -7.582585E+03 -1.702401E+04
       526   4 -1.142145E+06 -3.877043E+03 -2.637721E+04  6.245704E+04 -1.739443E+04 -2.512073E+04
       526   5 -1.141151E+06 -1.631481E+02 -1.721961E+04  5.300731E+04 -8.827059E+03 -2.159229E+04
       526   6 -1.142125E+06  2.504249E+02 -1.447861E+04  6.245297E+04 -2.615829E+02 -1.701695E+04
       526   7 -1.534698E+06 -9.745534E+04 -1.011298E+05  6.370764E+04 -1.307852E+04 -2.511819E+04
       526   8 -1.462118E+06 -7.647631E+04 -7.734596E+04  5.329503E+04 -3.010614E+03 -2.158761E+04
       526   9 -1.391762E+06 -5.906002E+04 -6.102538E+04  6.177828E+04  7.056546E+03 -1.700991E+04
       526  10 -7.494433E+05  8.969140E+04  4.836644E+04  6.120516E+04 -7.303783E-09 -1.891408E-09
       526  11 -8.200841E+05  7.614351E+04  4.290114E+04  5.271916E+04  7.589687E-09  1.194810E-09
       526  12 -8.924271E+05  5.955698E+04  3.206505E+04  6.312783E+04  1.970396E-08  2.415969E-09
       526  13 -1.142145E+06 -3.877802E+03 -2.637896E+04  6.245669E+04 -1.345568E-10 -1.437375E-09
       526  14 -1.141151E+06 -1.636695E+02 -1.722063E+04  5.300716E+04 -3.325537E-10  7.713509E-10
       526  15 -1.142125E+06  2.501141E+02 -1.447915E+04  6.245297E+04  1.359306E-09  7.643188E-12
       526  16 -1.534698E+06 -9.745606E+04 -1.011313E+05  6.370738E+04  6.197465E-09 -5.696829E-10
       526  17 -1.462118E+06 -7.647682E+04 -7.734685E+04  5.329497E+04 -8.743498E-09  1.178809E-09
       526  18 -1.391763E+06 -5.906035E+04 -6.102602E+04  6.177837E+04 -2.039249E-08  1.428191E-09
       526  19 -7.494426E+05  8.969220E+04  4.836851E+04  6.120559E+04  2.171300E+04  2.512326E+04
       526  20 -8.200837E+05  7.614406E+04  4.290242E+04  5.271942E+04  1.464644E+04  2.159695E+04
       526  21 -8.924270E+05  5.955731E+04  3.206570E+04  6.312793E+04  7.582585E+03  1.702401E+04
       526  22 -1.142145E+06 -3.877043E+03 -2.637721E+04  6.245704E+04  1.739443E+04  2.512073E+04
       526  23 -1.141151E+06 -1.631481E+02 -1.721961E+04  5.300731E+04  8.827059E+03  2.159229E+04
       526  24 -1.142125E+06  2.504249E+02 -1.447861E+04  6.245297E+04  2.615829E+02  1.701695E+04
       526  25 -1.534698E+06 -9.745534E+04 -1.011298E+05  6.370764E+04  1.307852E+04  2.511819E+04
       526  26 -1.462118E+06 -7.647631E+04 -7.734596E+04  5.329503E+04  3.010614E+03  2.158761E+04
       526  27 -1.391762E+06 -5.906002E+04 -6.102538E+04  6.177828E+04 -7.056546E+03  1.700991E+04
       527   1 -9.410306E+05  4.800708E+04  2.237049E+04  6.193683E+04 -4.874003E+03 -1.403363E+04
       527   2 -1.011536E+06  3.049732E+04  4.742966E+03  5.360573E+04  4.925576E+03 -9.125438E+03
       527   3 -1.084338E+06  9.070884E+03 -2.026341E+04  6.426088E+04  1.472364E+04 -4.414604E+03
       527   4 -1.142184E+06  2.916804E+02 -1.482546E+04  6.247299E+04  2.312277E+03 -1.402633E+04
       527   5 -1.141058E+06 -2.120916E+02 -1.911731E+04  5.298229E+04  1.182570E+04 -9.118076E+03
       527   6 -1.142184E+06 -4.582930E+03 -3.058970E+04  6.247819E+04  2.133869E+04 -4.407229E+03
       527   7 -1.343297E+06 -4.742600E+04 -5.202290E+04  6.300896E+04  9.496287E+03 -1.401901E+04
       527   8 -1.270563E+06 -3.092243E+04 -4.297809E+04  5.235897E+04  1.872443E+04 -9.110727E+03
       527   9 -1.200026E+06 -1.823689E+04 -4.091595E+04  6.069567E+04  2.795314E+04 -4.399892E+03
       527  10 -9.410306E+05  4.800686E+04  2.237007E+04  6.193677E+04 -2.223750E-08  3.146683E-09
       527  11 -1.011536E+06  3.049722E+04  4.742764E+03  5.360577E+04 -8.454266E-09  1.375599E-09
       527  12 -1.084338E+06  9.070805E+03 -2.026385E+04  6.426093E+04  5.973394E-09 -1.042400E-09
       527  13 -1.142184E+06  2.914678E+02 -1.482584E+04  6.247302E+04  6.963726E-10 -2.319764E-10
       527  14 -1.141058E+06 -2.122185E+02 -1.911772E+04  5.298237E+04 -9.385962E-10  1.895748E-09
       527  15 -1.142184E+06 -4.583074E+03 -3.059059E+04  6.247827E+04  8.311825E-10  1.345108E-09
       527  16 -1.343298E+06 -4.742624E+04 -5.202344E+04  6.300907E+04  2.175359E-08  2.038380E-09
       527  17 -1.270564E+06 -3.092262E+04 -4.297891E+04  5.235911E+04  8.194190E-09  1.823224E-09
       527  18 -1.200027E+06 -1.823713E+04 -4.091746E+04  6.069577E+04 -6.013770E-09  3.684432E-10
       527  19 -9.410306E+05  4.800708E+04  2.237049E+04  6.193683E+04  4.874003E+03  1.403363E+04
       527  20 -1.011536E+06  3.049732E+04  4.742966E+03  5.360573E+04 -4.925576E+03  9.125438E+03
       527  21 -1.084338E+06  9.070884E+03 -2.026341E+04  6.426088E+04 -1.472364E+04  4.414604E+03
       527  22 -1.142184E+06  2.916804E+02 -1.482546E+04  6.247299E+04 -2.312277E+03  1.402633E+04
       527  23 -1.141058E+06 -2.120916E+02 -1.911731E+04  5.298229E+04 -1.182570E+04  9.118076E+03
       527  24 -1.142184E+06 -4.582930E+03 -3.058970E+04  6.247819E+04 -2.133869E+04  4.407229E+03
       527  25 -1.343297E+06 -4.742600E+04 -5.202290E+04  6.300896E+04 -9.496287E+03  1.401901E+04
       527  26 -1.270563E+06 -3.092243E+04 -4.297809E+04  5.235897E+04 -1.872443E+04  9.110727E+03
       527  27 -1.200026E+06 -1.823689E+04 -4.091595E+04  6.069567E+04 -2.795314E+04  4.399892E+03
       528   1 -1.138241E+06  2.225317E+03 -3.779352E+04  5.124646E+04  1.925669E+04 -1.440250E+03
       528   2 -1.196700E+06 -3.479259E+04 -8.169570E+04  8.411770E+04  5.999162E+04  1.743504E+03
       528   3 -1.281883E+06 -1.572439E+05 -1.735239E+05  1.358057E+05  1.007250E+05  1.063331E+03
       528   4 -1.147400E+06  2.375409E+02 -3.870966E+04  6.241838E+04  2.654767E+04 -1.431661E+03
       528   5 -1.134555E+06 -1.963640E+04 -6.772369E+04  5.307289E+04  6.172158E+04  1.742402E+03
       528   6 -1.147471E+06 -1.239773E+05 -1.407928E+05  6.255103E+04  9.689882E+04  1.047165E+03
       528   7 -1.156558E+06 -1.749740E+03 -3.962553E+04  7.359013E+04  3.383855E+04 -1.422810E+03
       528   8 -1.072405E+06 -4.476832E+03 -5.375140E+04  2.202494E+04  6.345172E+04  1.741126E+03
       528   9 -1.013031E+06 -9.069185E+04 -1.080601E+05 -1.071953E+04  9.307178E+04  1.031907E+03
       528  10 -1.138242E+06  2.225215E+03 -3.779423E+04  5.124648E+04 -3.693707E-10 -9.794111E-10
       528  11 -1.196704E+06 -3.479356E+04 -8.170248E+04  8.411762E+04 -9.338060E-10  1.499844E-09
       528  12 -1.281894E+06 -1.572467E+05 -1.735430E+05  1.358056E+05 -1.018277E-09  8.258310E-10
       528  13 -1.147400E+06  2.373490E+02 -3.871099E+04  6.241841E+04 -1.650218E-11 -3.170888E-10
       528  14 -1.134560E+06 -1.963742E+04 -6.773087E+04  5.307280E+04 -1.486401E-09  1.346418E-09
       528  15 -1.147481E+06 -1.239799E+05 -1.408105E+05  6.255095E+04  8.720561E-10 -7.143429E-10
       528  16 -1.156559E+06 -1.750050E+03 -3.962769E+04  7.359017E+04  3.639007E-10 -8.195605E-11
       528  17 -1.072410E+06 -4.477919E+03 -5.375898E+04  2.202485E+04 -5.910757E-10  1.208279E-10
       528  18 -1.013041E+06 -9.069418E+04 -1.080764E+05 -1.071960E+04  6.909291E-10 -6.727150E-10
       528  19 -1.138241E+06  2.225317E+03 -3.779352E+04  5.124646E+04 -1.925669E+04  1.440250E+03
       528  20 -1.196700E+06 -3.479259E+04 -8.169570E+04  8.411770E+04 -5.999162E+04 -1.743504E+03
       528  21 -1.281883E+06 -1.572439E+05 -1.735239E+05  1.358057E+05 -1.007250E+05 -1.063331E+03
       528  22 -1.147400E+06  2.375409E+02 -3.870966E+04  6.241838E+04 -2.654767E+04  1.431661E+03
       528  23 -1.134555E+06 -1.963640E+04 -6.772369E+04  5.307289E+04 -6.172158E+04 -1.742402E+03
       528  24 -1.147471E+06 -1.239773E+05 -1.407928E+05  6.255103E+04 -9.689882E+04 -1.047165E+03
       528  25 -1.156558E+06 -1.749740E+03 -3.962553E+04  7.359013E+04 -3.383855E+04  1.422810E+03
       528  26 -1.072405E+06 -4.476832E+03 -5.375140E+04  2.202494E+04 -6.345172E+04 -1.741126E+03
       528  27 -1.013031E+06 -9.069185E+04 -1.080601E+05 -1.071953E+04 -9.307178E+04 -1.031907E+03
       529   1 -3.422201E+05  5.566786E+04  4.184434E+04  2.606220E+04 -2.246374E+04 -6.432407E+03
       529   2 -4.113288E+05  8.985009E+04  4.866349E+04  3.911230E+04 -2.168642E+04 -2.030339E+04
       529   3 -4.910345E+05  8.212507E+04  4.450502E+04  7.107215E+04 -2.092238E+04 -2.154104E+04
       529   4 -8.345382E+05 -6.618519E+04 -7.528514E+04  6.489392E+04 -5.149516E+04 -6.466964E+03
       529   5 -8.276299E+05 -1.044557E+04 -3.646396E+04  5.539807E+04 -3.254437E+04 -2.031819E+04
       529   6 -8.344918E+05  2.117131E+02 -2.125884E+04  6.481429E+04 -1.360598E+04 -2.153227E+04
       529   7 -1.326628E+06 -1.880496E+05 -1.924276E+05  1.036946E+05 -8.050365E+04 -6.505172E+03
       529   8 -1.243765E+06 -1.107510E+05 -1.216000E+05  7.167265E+04 -4.339516E+04 -2.033356E+04
       529   9 -1.177835E+06 -8.170845E+04 -8.702786E+04  5.855993E+04 -6.293531E+03 -2.152364E+04
       529  10 -3.422206E+05  5.566768E+04  4.184331E+04  2.606209E+04  1.883822E-09 -8.117888E-10
       529  11 -4.113295E+05  8.984952E+04  4.866184E+04  3.911194E+04  1.236452E-10 -1.124498E-09
       529  12 -4.910351E+05  8.212445E+04  4.450333E+04  7.107179E+04 -2.616512E-09 -1.417734E-09
       529  13 -8.345410E+05 -6.618595E+04 -7.529021E+04  6.489366E+04 -8.696648E-10  1.868764E-09
       529  14 -8.276312E+05 -1.044630E+04 -3.646672E+04  5.539753E+04 -6.213169E-10  8.204299E-11
       529  15 -8.344921E+05  2.111657E+02 -2.126006E+04  6.481405E+04  1.188528E-09 -1.906456E-09
       529  16 -1.326635E+06 -1.880513E+05 -1.924399E+05  1.036942E+05 -3.056070E-09  3.528301E-10
       529  17 -1.243767E+06 -1.107520E+05 -1.216043E+05  7.167194E+04 -1.066823E-09 -1.452398E-09
       529  18 -1.177835E+06 -8.170895E+04 -8.702881E+04  5.855982E+04  1.931161E-09 -2.312450E-09
       529  19 -3.422201E+05  5.566786E+04  4.184434E+04  2.606220E+04  2.246374E+04  6.432407E+03
       529  20 -4.113288E+05  8.985009E+04  4.866349E+04  3.911230E+04  2.168642E+04  2.030339E+04
       529  21 -4.910345E+05  8.212507E+04  4.450502E+04  7.107215E+04  2.092238E+04  2.154104E+04
       529  22 -8.345382E+05 -6.618519E+04 -7.528514E+04  6.489392E+04  5.149516E+04  6.466964E+03
       529  23 -8.276299E+05 -1.044557E+04 -3.646396E+04  5.539807E+04  3.254437E+04  2.031819E+04
       529  24 -8.344918E+05  2.117131E+02 -2.125884E+04  6.481429E+04  1.360598E+04  2.153227E+04
       529  25 -1.326628E+06 -1.880496E+05 -1.924276E+05  1.036946E+05  8.050365E+04  6.505172E+03
       529  26 -1.243765E+06 -1.107510E+05 -1.216000E+05  7.167265E+04  4.339516E+04  2.033356E+04
       529  27 -1.177835E+06 -8.170845E+04 -8.702786E+04  5.855993E+04  6.293531E+03  2.152364E+04
       530   1 -5.391421E+05  6.738012E+04  3.871763E+04  6.429900E+04 -1.578443E+04 -1.853050E+04
       530   2 -6.130103E+05  5.183032E+04  2.929190E+04  5.500781E+04 -1.125228E+04 -1.455965E+04
       530   3 -6.879891E+05  3.440117E+04  1.642979E+04  6.539345E+04 -6.722584E+03 -9.719403E+03
       530   4 -8.317247E+05 -2.348154E+03 -1.713190E+04  6.499828E+04 -1.070123E+04 -1.852441E+04
       530   5 -8.310515E+05  3.808860E+00 -1.162788E+04  5.515781E+04 -4.920625E+03 -1.455132E+04
       530   6 -8.317121E+05  2.591126E+02 -1.042939E+04  6.499467E+04  8.580569E+02 -9.708677E+03
       530   7 -1.124225E+06 -7.208146E+04 -7.298520E+04  6.569720E+04 -5.620371E+03 -1.851831E+04
       530   8 -1.049047E+06 -5.182544E+04 -5.254958E+04  5.530775E+04  1.408864E+03 -1.454299E+04
       530   9 -9.754150E+05 -3.388411E+04 -3.728923E+04  6.459598E+04  8.436986E+03 -9.697959E+03
       530  10 -5.391425E+05  6.737968E+04  3.871652E+04  6.429877E+04 -6.564432E-09  9.482313E-10
       530  11 -6.130105E+05  5.183006E+04  2.929126E+04  5.500768E+04  7.745362E-09  1.121206E-09
       530  12 -6.879892E+05  3.440106E+04  1.642953E+04  6.539340E+04  1.773006E-08  3.000992E-09
       530  13 -8.317249E+05 -2.348553E+03 -1.713276E+04  6.499813E+04  2.092023E-10 -4.873880E-10
       530  14 -8.310516E+05  3.575072E+00 -1.162833E+04  5.515776E+04 -1.094465E-09  1.079902E-09
       530  15 -8.317121E+05  2.590112E+02 -1.042956E+04  6.499468E+04  1.441146E-09  2.683028E-09
       530  16 -1.124225E+06 -7.208183E+04 -7.298591E+04  6.569712E+04  5.218909E-09  4.146079E-10
       530  17 -1.049047E+06 -5.182567E+04 -5.254998E+04  5.530776E+04 -7.021613E-09 -3.438653E-09
       530  18 -9.754151E+05 -3.388423E+04 -3.728954E+04  6.459605E+04 -1.835912E-08  4.355001E-10
       530  19 -5.391421E+05  6.738012E+04  3.871763E+04  6.429900E+04  1.578443E+04  1.853050E+04
       530  20 -6.130103E+05  5.183032E+04  2.929190E+04  5.500781E+04  1.125228E+04  1.455965E+04
       530  21 -6.879891E+05  3.440117E+04  1.642979E+04  6.539345E+04  6.722584E+03  9.719403E+03
       530  22 -8.317247E+05 -2.348154E+03 -1.713190E+04  6.499828E+04  1.070123E+04  1.852441E+04
       530  23 -8.310515E+05  3.808860E+00 -1.162788E+04  5.515781E+04  4.920625E+03  1.455132E+04
       530  24 -8.317121E+05  2.591126E+02 -1.042939E+04  6.499467E+04 -8.580569E+02  9.708677E+03
       530  25 -1.124225E+06 -7.208146E+04 -7.298520E+04  6.569720E+04  5.620371E+03  1.851831E+04
       530  26 -1.049047E+06 -5.182544E+04 -5.254958E+04  5.530775E+04 -1.408864E+03  1.454299E+04
       530  27 -9.754150E+05 -3.388411E+04 -3.728923E+04  6.459598E+04 -8.436986E+03  9.697959E+03
       531   1 -7.385790E+05  2.241606E+04  6.095706E+03  6.448604E+04 -4.766717E+03 -6.609847E+03
       531   2 -8.121009E+05  4.288901E+03 -1.178669E+04  5.555195E+04  3.306873E+03 -1.590674E+03
       531   3 -8.875380E+05 -1.704769E+04 -3.575049E+04  6.633757E+04  1.137983E+04  3.004578E+03
       531   4 -8.318167E+05  3.260347E+02 -1.104399E+04  6.500370E+04  2.742333E+03 -6.599015E+03
       531   5 -8.309105E+05 -1.201807E+02 -1.499792E+04  5.514665E+04  1.020534E+04 -1.580673E+03
       531   6 -8.318196E+05 -3.669659E+03 -2.460895E+04  6.500946E+04  1.766864E+04  3.013728E+03
       531   7 -9.250458E+05 -2.176446E+04 -2.818383E+04  6.552128E+04  1.025028E+04 -6.588169E+03
       531   8 -8.497198E+05 -4.529256E+03 -1.820898E+04  5.474136E+04  1.710360E+04 -1.570682E+03
       531   9 -7.760981E+05  9.708212E+03 -1.346741E+04  6.368122E+04  2.395800E+04  3.022852E+03
       531  10 -7.385790E+05  2.241601E+04  6.095581E+03  6.448601E+04 -2.285500E-08  4.648650E-09
       531  11 -8.121009E+05  4.288896E+03 -1.178671E+04  5.555195E+04 -8.695256E-09  1.809434E-09
       531  12 -8.875381E+05 -1.704774E+04 -3.575075E+04  6.633755E+04  5.217042E-09  2.986246E-09
       531  13 -8.318167E+05  3.259859E+02 -1.104409E+04  6.500371E+04 -6.778076E-12  3.735211E-09
       531  14 -8.309106E+05 -1.202114E+02 -1.499812E+04  5.514666E+04 -1.889555E-10  2.369932E-09
       531  15 -8.318199E+05 -3.669753E+03 -2.460955E+04  6.500942E+04  1.556858E-09 -4.650794E-10
       531  16 -9.250460E+05 -2.176453E+04 -2.818411E+04  6.552133E+04  2.236384E-08  2.123012E-09
       531  17 -8.497201E+05 -4.529337E+03 -1.820954E+04  5.474138E+04  7.758447E-09  6.377640E-10
       531  18 -7.760987E+05  9.708048E+03 -1.346851E+04  6.368116E+04 -5.303359E-09 -4.026267E-09
       531  19 -7.385790E+05  2.241606E+04  6.095706E+03  6.448604E+04  4.766717E+03  6.609847E+03
       531  20 -8.121009E+05  4.288901E+03 -1.178669E+04  5.555195E+04 -3.306873E+03  1.590674E+03
       531  21 -8.875380E+05 -1.704769E+04 -3.575049E+04  6.633757E+04 -1.137983E+04 -3.004578E+03
       531  22 -8.318167E+05  3.260347E+02 -1.104399E+04  6.500370E+04 -2.742333E+03  6.599015E+03
       531  23 -8.309105E+05 -1.201807E+02 -1.499792E+04  5.514665E+04 -1.020534E+04  1.580673E+03
       531  24 -8.318196E+05 -3.669659E+03 -2.460895E+04  6.500946E+04 -1.766864E+04 -3.013728E+03
       531  25 -9.250458E+05 -2.176446E+04 -2.818383E+04  6.552128E+04 -1.025028E+04  6.588169E+03
       531  26 -8.497198E+05 -4.529256E+03 -1.820898E+04  5.474136E+04 -1.710360E+04  1.570682E+03
       531  27 -7.760981E+05  9.708212E+03 -1.346741E+04  6.368122E+04 -2.395800E+04 -3.022852E+03
       532   1 -9.424882E+05 -2.527181E+04 -5.228144E+04  5.566178E+04  1.436980E+04  6.068393E+03
       532   2 -1.005729E+06 -5.947933E+04 -9.281082E+04  8.044009E+04  5.283712E+04  7.906826E+03
       532   3 -1.091679E+06 -1.642119E+05 -1.760567E+05  1.245744E+05  9.130875E+04  2.896036E+03
       532   4 -8.360789E+05  2.561589E+02 -3.131488E+04  6.490479E+04  2.186350E+04  6.079404E+03
       532   5 -8.256063E+05 -1.595865E+04 -5.509030E+04  5.529417E+04  5.048111E+04  7.901177E+03
       532   6 -8.361284E+05 -1.009780E+05 -1.147271E+05  6.504382E+04  7.910789E+04  2.870364E+03
       532   7 -7.296583E+05  2.578378E+04 -1.034862E+04  7.414942E+04  2.935846E+04  6.090637E+03
       532   8 -6.454519E+05  2.756236E+04 -1.737122E+04  3.014081E+04  4.812443E+04  7.895721E+03
       532   9 -5.805095E+05 -3.773541E+04 -5.339955E+04  5.488543E+03  6.690202E+04  2.847043E+03
       532  10 -9.424885E+05 -2.527190E+04 -5.228189E+04  5.566171E+04 -2.982571E-09  1.181095E-09
       532  11 -1.005732E+06 -5.948015E+04 -9.281619E+04  8.043976E+04 -4.830053E-10 -2.103572E-09
       532  12 -1.091688E+06 -1.642142E+05 -1.760724E+05  1.245742E+05 -6.764290E-10 -5.233314E-10
       532  13 -8.360794E+05  2.559907E+02 -3.131585E+04  6.490468E+04 -1.142755E-09  1.884784E-09
       532  14 -8.256091E+05 -1.595940E+04 -5.509521E+04  5.529385E+04 -6.507729E-10 -3.185041E-09
       532  15 -8.361351E+05 -1.009797E+05 -1.147388E+05  6.504364E+04  3.429937E-10  1.819609E-09
       532  16 -7.296592E+05  2.578351E+04 -1.035032E+04  7.414928E+04  1.417505E-09 -1.058357E-11
       532  17 -6.454544E+05  2.756167E+04 -1.737569E+04  3.014050E+04  5.862338E-10  3.254623E-10
       532  18 -5.805143E+05 -3.773662E+04 -5.340798E+04  5.488389E+03 -5.134377E-11  6.391101E-11
       532  19 -9.424882E+05 -2.527181E+04 -5.228144E+04  5.566178E+04 -1.436980E+04 -6.068393E+03
       532  20 -1.005729E+06 -5.947933E+04 -9.281082E+04  8.044009E+04 -5.283712E+04 -7.906826E+03
       532  21 -1.091679E+06 -1.642119E+05 -1.760567E+05  1.245744E+05 -9.130875E+04 -2.896036E+03
       532  22 -8.360789E+05  2.561589E+02 -3.131488E+04  6.490479E+04 -2.186350E+04 -6.079404E+03
       532  23 -8.256063E+05 -1.595865E+04 -5.509030E+04  5.529417E+04 -5.048111E+04 -7.901177E+03
       532  24 -8.361284E+05 -1.009780E+05 -1.147271E+05  6.504382E+04 -7.910789E+04 -2.870364E+03
       532  25 -7.296583E+05  2.578378E+04 -1.034862E+04  7.414942E+04 -2.935846E+04 -6.090637E+03
       532  26 -6.454519E+05  2.756236E+04 -1.737122E+04  3.014081E+04 -4.812443E+04 -7.895721E+03
       532  27 -5.805095E+05 -3.773541E+04 -5.339955E+04  5.488543E+03 -6.690202E+04 -2.847043E+03
       533   1 -1.595883E+05  4.149077E+04  3.496772E+04  2.736339E+04 -5.739677E+03 -3.535939E+03
       533   2 -2.075773E+05  5.094476E+04  3.159706E+04  3.045257E+04 -8.121759E+03 -1.098328E+04
       533   3 -2.595911E+05  4.317815E+04  2.547209E+04  4.632577E+04 -1.051292E+04 -1.117783E+04
       533   4 -4.399790E+05 -2.791434E+04 -3.183425E+04  4.368118E+04 -2.167167E+04 -3.557579E+03
       533   5 -4.370509E+05 -4.362971E+03 -1.550091E+04  3.726946E+04 -1.361411E+04 -1.099130E+04
       533   6 -4.399658E+05  1.507562E+02 -9.176274E+03  4.364264E+04 -5.565709E+03 -1.117093E+04
       533   7 -7.202965E+05 -9.732397E+04 -9.864063E+04  5.999154E+04 -3.759651E+04 -3.580063E+03
       533   8 -6.664743E+05 -5.967382E+04 -6.260155E+04  4.408376E+04 -1.910446E+04 -1.099944E+04
       533   9 -6.203090E+05 -4.287853E+04 -4.382604E+04  4.096029E+04 -6.198988E+02 -1.116408E+04
       533  10 -1.595883E+05  4.149074E+04  3.496763E+04  2.736337E+04 -4.212266E-09  5.284643E-10
       533  11 -2.075774E+05  5.094461E+04  3.159671E+04  3.045249E+04 -1.245119E-09  4.846559E-09
       533  12 -2.595912E+05  4.317799E+04  2.547165E+04  4.632567E+04  8.160661E-10  3.271188E-09
       533  13 -4.399795E+05 -2.791448E+04 -3.183516E+04  4.368112E+04  8.312249E-10 -3.237226E-09
       533  14 -4.370511E+05 -4.363150E+03 -1.550149E+04  3.726933E+04  2.102569E-10 -5.290259E-09
       533  15 -4.399658E+05  1.506139E+02 -9.176567E+03  4.364259E+04  2.484351E-09 -5.868058E-10
       533  16 -7.202980E+05 -9.732436E+04 -9.864331E+04  5.999143E+04  3.732319E-09 -7.230190E-10
       533  17 -6.664747E+05 -5.967404E+04 -6.260246E+04  4.408359E+04  1.484470E-10  1.575802E-09
       533  18 -6.203091E+05 -4.287866E+04 -4.382627E+04  4.096029E+04 -7.706235E-10 -1.620190E-09
       533  19 -1.595883E+05  4.149077E+04  3.496772E+04  2.736339E+04  5.739677E+03  3.535939E+03
       533  20 -2.075773E+05  5.094476E+04  3.159706E+04  3.045257E+04  8.121759E+03  1.098328E+04
       533  21 -2.595911E+05  4.317815E+04  2.547209E+04  4.632577E+04  1.051292E+04  1.117783E+04
       533  22 -4.399790E+05 -2.791434E+04 -3.183425E+04  4.368118E+04  2.167167E+04  3.557579E+03
       533  23 -4.370509E+05 -4.362971E+03 -1.550091E+04  3.726946E+04  1.361411E+04  1.099130E+04
       533  24 -4.399658E+05  1.507562E+02 -9.176274E+03  4.364264E+04  5.565709E+03  1.117093E+04
       533  25 -7.202965E+05 -9.732397E+04 -9.864063E+04  5.999154E+04  3.759651E+04  3.580063E+03
       533  26 -6.664743E+05 -5.967382E+04 -6.260155E+04  4.408376E+04  1.910446E+04  1.099944E+04
       533  27 -6.203090E+05 -4.287853E+04 -4.382604E+04  4.096029E+04  6.198988E+02  1.116408E+04
       534   1 -2.925450E+05  3.393586E+04  2.051291E+04  4.346438E+04 -7.963820E+03 -9.146962E+03
       534   2 -3.422601E+05  2.293925E+04  1.273684E+04  3.705506E+04 -5.992931E+03 -6.353415E+03
       534   3 -3.924662E+05  1.117345E+04  3.473556E+03  4.385679E+04 -4.023151E+03 -3.071074E+03
       534   4 -4.388027E+05 -9.293165E+02 -7.502051E+03  4.374424E+04 -4.297852E+03 -9.141794E+03
       534   5 -4.384928E+05  6.064063E+01 -5.383884E+03  3.713784E+04 -1.624048E+03 -6.347055E+03
       534   6 -4.387992E+05  1.591191E+02 -5.241803E+03  4.374265E+04  1.048787E+03 -3.063479E+03
       534   7 -5.850398E+05 -3.579575E+04 -3.551793E+04  4.402402E+04 -6.327271E+02 -9.136623E+03
       534   8 -5.347165E+05 -2.281849E+04 -2.350494E+04  3.722060E+04  2.744173E+03 -6.340693E+03
       534   9 -4.851302E+05 -1.085532E+04 -1.395716E+04  4.362851E+04  6.120356E+03 -3.055887E+03
       534  10 -2.925451E+05  3.393575E+04  2.051263E+04  4.346433E+04 -2.792216E-09  1.188812E-09
       534  11 -3.422601E+05  2.293919E+04  1.273669E+04  3.705503E+04  9.374329E-10  3.939736E-09
       534  12 -3.924662E+05  1.117344E+04  3.473508E+03  4.385678E+04  3.055917E-09  4.199106E-09
       534  13 -4.388028E+05 -9.294112E+02 -7.502242E+03  4.374421E+04 -5.190555E-11  5.770159E-09
       534  14 -4.384928E+05  6.059667E+01 -5.383965E+03  3.713783E+04  1.904952E-10 -6.029798E-09
       534  15 -4.387992E+05  1.591087E+02 -5.241823E+03  4.374265E+04  1.199514E-09  3.707930E-09
       534  16 -5.850399E+05 -3.579584E+04 -3.551809E+04  4.402402E+04  3.558751E-09 -3.645819E-09
       534  17 -5.347165E+05 -2.281854E+04 -2.350503E+04  3.722062E+04 -1.173321E-09  2.590731E-10
       534  18 -4.851302E+05 -1.085534E+04 -1.395725E+04  4.362852E+04 -4.088229E-09  1.616124E-09
       534  19 -2.925450E+05  3.393586E+04  2.051291E+04  4.346438E+04  7.963820E+03  9.146962E+03
       534  20 -3.422601E+05  2.293925E+04  1.273684E+04  3.705506E+04  5.992931E+03  6.353415E+03
       534  21 -3.924662E+05  1.117345E+04  3.473556E+03  4.385679E+04  4.023151E+03  3.071074E+03
       534  22 -4.388027E+05 -9.293165E+02 -7.502051E+03  4.374424E+04  4.297852E+03  9.141794E+03
       534  23 -4.384928E+05  6.064063E+01 -5.383884E+03  3.713784E+04  1.624048E+03  6.347055E+03
       534  24 -4.387992E+05  1.591191E+02 -5.241803E+03  4.374265E+04 -1.048787E+03  3.063479E+03
       534  25 -5.850398E+05 -3.579575E+04 -3.551793E+04  4.402402E+04  6.327271E+02  9.136623E+03
       534  26 -5.347165E+05 -2.281849E+04 -2.350494E+04  3.722060E+04 -2.744173E+03  6.340693E+03
       534  27 -4.851302E+05 -1.085532E+04 -1.395716E+04  4.362851E+04 -6.120356E+03  3.055887E+03
       535   1 -4.264278E+05  3.145804E+03 -3.570089E+03  4.337800E+04 -3.039550E+03 -9.856115E+02
       535   2 -4.758365E+05 -8.986228E+03 -1.543937E+04  3.729388E+04  1.618438E+03  2.343644E+03
       535   3 -5.263593E+05 -2.296528E+04 -3.081744E+04  4.443036E+04  6.276745E+03  5.294336E+03
       535   4 -4.388887E+05  2.143724E+02 -5.766887E+03  4.374437E+04  2.014361E+03 -9.780107E+02
       535   5 -4.383795E+05 -5.675940E+01 -8.265186E+03  3.713579E+04  6.127602E+03  2.350356E+03
       535   6 -4.388911E+05 -2.079835E+03 -1.389329E+04  4.374780E+04  1.024151E+04  5.300169E+03
       535   7 -4.513495E+05 -2.717054E+03 -7.963594E+03  4.411074E+04  7.068174E+03 -9.704038E+02
       535   8 -4.009210E+05  8.872637E+03 -1.090989E+03  3.697769E+04  1.063703E+04  2.357066E+03
       535   9 -3.514155E+05  1.880516E+04  3.030565E+03  4.306513E+04  1.420683E+04  5.305992E+03
       535  10 -4.264278E+05  3.145801E+03 -3.570109E+03  4.337800E+04  5.129167E-09 -2.650952E-09
       535  11 -4.758365E+05 -8.986234E+03 -1.543939E+04  3.729388E+04 -8.755813E-09 -2.708215E-09
       535  12 -5.263594E+05 -2.296532E+04 -3.081756E+04  4.443034E+04 -2.200673E-08 -3.727043E-09
       535  13 -4.388887E+05  2.143703E+02 -5.766896E+03  4.374438E+04  2.673123E-10 -5.581119E-10
       535  14 -4.383795E+05 -5.677542E+01 -8.265267E+03  3.713578E+04 -7.392684E-10 -3.691626E-09
       535  15 -4.388912E+05 -2.079894E+03 -1.389354E+04  4.374775E+04  1.124475E-09 -3.518291E-09
       535  16 -4.513495E+05 -2.717068E+03 -7.963690E+03  4.411074E+04 -4.735112E-09 -1.867929E-09
       535  17 -4.009212E+05  8.872601E+03 -1.091212E+03  3.697767E+04  8.306780E-09  1.789281E-09
       535  18 -3.514157E+05  1.880508E+04  3.030133E+03  4.306506E+04  2.142473E-08  2.063512E-09
       535  19 -4.264278E+05  3.145804E+03 -3.570089E+03  4.337800E+04  3.039550E+03  9.856115E+02
       535  20 -4.758365E+05 -8.986228E+03 -1.543937E+04  3.729388E+04 -1.618438E+03 -2.343644E+03
       535  21 -5.263593E+05 -2.296528E+04 -3.081744E+04  4.443036E+04 -6.276745E+03 -5.294336E+03
       535  22 -4.388887E+05  2.143724E+02 -5.766887E+03  4.374437E+04 -2.014361E+03  9.780107E+02
       535  23 -4.383795E+05 -5.675940E+01 -8.265186E+03  3.713579E+04 -6.127602E+03 -2.350356E+03
       535  24 -4.388911E+05 -2.079835E+03 -1.389329E+04  4.374780E+04 -1.024151E+04 -5.300169E+03
       535  25 -4.513495E+05 -2.717054E+03 -7.963594E+03  4.411074E+04 -7.068174E+03  9.704038E+02
       535  26 -4.009210E+05  8.872637E+03 -1.090989E+03  3.697769E+04 -1.063703E+04 -2.357066E+03
       535  27 -3.514155E+05  1.880516E+04  3.030565E+03  4.306513E+04 -1.420683E+04 -5.305992E+03
       536   1 -5.628487E+05 -2.888059E+04 -4.130466E+04  3.830288E+04  7.621906E+03  7.336944E+03
       536   2 -6.061653E+05 -5.030829E+04 -6.675354E+04  5.154166E+04  3.231874E+04  7.930766E+03
       536   3 -6.629307E+05 -1.124935E+05 -1.184897E+05  7.768179E+04  5.702109E+04  2.706542E+03
       536   4 -4.413294E+05  1.623326E+02 -1.777114E+04  4.366252E+04  1.261247E+04  7.344254E+03
       536   5 -4.353419E+05 -9.106624E+03 -3.142284E+04  3.725197E+04  2.893930E+04  7.924996E+03
       536   6 -4.413472E+05 -5.767380E+04 -6.554181E+04  4.374446E+04  4.527387E+04  2.686856E+03
       536   7 -3.197958E+05  2.920450E+04  5.761799E+03  4.902323E+04  1.760400E+04  7.351650E+03
       536   8 -2.644903E+05  3.209397E+04  3.906434E+03  2.295827E+04  2.555894E+04  7.919383E+03
       536   9 -2.197159E+05 -2.853218E+03 -1.259628E+04  9.794938E+03  3.352247E+04  2.668459E+03
       536  10 -5.628488E+05 -2.888067E+04 -4.130487E+04  3.830283E+04  2.382068E-08 -6.409437E-09
       536  11 -6.061665E+05 -5.030864E+04 -6.675562E+04  5.154145E+04  8.538821E-09 -3.624717E-09
       536  12 -6.629342E+05 -1.124944E+05 -1.184958E+05  7.768166E+04 -8.967265E-09 -1.719766E-09
       536  13 -4.413296E+05  1.622320E+02 -1.777154E+04  4.366244E+04  5.270490E-10 -3.318461E-09
       536  14 -4.353428E+05 -9.106917E+03 -3.142453E+04  3.725179E+04 -8.237042E-10 -7.057110E-09
       536  15 -4.413494E+05 -5.767435E+04 -6.554568E+04  4.374436E+04  1.582247E-09 -4.047646E-09
       536  16 -3.197961E+05  2.920435E+04  5.761115E+03  4.902312E+04 -2.363300E-08 -2.444205E-09
       536  17 -2.644910E+05  3.209373E+04  3.905088E+03  2.295811E+04 -9.332333E-09  4.959032E-10
       536  18 -2.197171E+05 -2.853527E+03 -1.259841E+04  9.794866E+03  8.285784E-09 -3.955234E-10
       536  19 -5.628487E+05 -2.888059E+04 -4.130466E+04  3.830288E+04 -7.621906E+03 -7.336944E+03
       536  20 -6.061653E+05 -5.030829E+04 -6.675354E+04  5.154166E+04 -3.231874E+04 -7.930766E+03
       536  21 -6.629307E+05 -1.124935E+05 -1.184897E+05  7.768179E+04 -5.702109E+04 -2.706542E+03
       536  22 -4.413294E+05  1.623326E+02 -1.777114E+04  4.366252E+04 -1.261247E+04 -7.344254E+03
       536  23 -4.353419E+05 -9.106624E+03 -3.142284E+04  3.725197E+04 -2.893930E+04 -7.924996E+03
       536  24 -4.413472E+05 -5.767380E+04 -6.554181E+04  4.374446E+04 -4.527387E+04 -2.686856E+03
       536  25 -3.197958E+05  2.920450E+04  5.761799E+03  4.902323E+04 -1.760400E+04 -7.351650E+03
       536  26 -2.644903E+05  3.209397E+04  3.906434E+03  2.295827E+04 -2.555894E+04 -7.919383E+03
       536  27 -2.197159E+05 -2.853218E+03 -1.259628E+04  9.794938E+03 -3.352247E+04 -2.668459E+03
       537   1 -4.333643E+04  2.305545E+04  2.117748E+04  2.034881E+04  1.686063E+03 -1.362104E+03
       537   2 -7.007362E+04  2.058993E+04  1.512903E+04  1.881976E+04 -1.014528E+03 -4.081211E+03
       537   3 -9.727168E+04  1.495612E+04  1.004478E+04  2.423818E+04 -3.719017E+03 -3.743361E+03
       537   4 -1.595850E+05 -5.742603E+03 -6.606469E+03  2.367524E+04 -4.424345E+03 -1.370444E+03
       537   5 -1.589708E+05 -8.673065E+02 -3.272293E+03  2.019744E+04 -2.723237E+03 -4.083616E+03
       537   6 -1.595830E+05  7.508552E+01 -2.031178E+03  2.366727E+04 -1.026205E+03 -3.739615E+03
       537   7 -2.758211E+05 -3.454157E+04 -3.439123E+04  2.700104E+04 -1.053361E+04 -1.378849E+03
       537   8 -2.478605E+05 -2.232503E+04 -2.167403E+04  2.157492E+04 -4.431706E+03 -4.086029E+03
       537   9 -2.218907E+05 -1.480618E+04 -1.410730E+04  2.309643E+04  1.666343E+03 -3.735875E+03
       537  10 -4.333643E+04  2.305544E+04  2.117747E+04  2.034881E+04 -1.976617E-09  6.324869E-10
       537  11 -7.007363E+04  2.058991E+04  1.512900E+04  1.881976E+04 -4.892579E-10 -8.939505E-10
       537  12 -9.727169E+04  1.495610E+04  1.004473E+04  2.423816E+04 -2.164343E-09 -3.787367E-10
       537  13 -1.595850E+05 -5.742610E+03 -6.606509E+03  2.367524E+04 -6.526324E-10  4.634036E-09
       537  14 -1.589708E+05 -8.673264E+02 -3.272338E+03  2.019743E+04 -3.191353E-10 -1.378316E-09
       537  15 -1.595830E+05  7.507022E+01 -2.031207E+03  2.366727E+04  9.188496E-10 -1.713323E-10
       537  16 -2.758213E+05 -3.454160E+04 -3.439144E+04  2.700103E+04  9.040041E-10  1.820858E-09
       537  17 -2.478606E+05 -2.232506E+04 -2.167410E+04  2.157490E+04  1.422262E-10 -2.506265E-09
       537  18 -2.218907E+05 -1.480619E+04 -1.410733E+04  2.309643E+04  1.296573E-09 -1.844676E-09
       537  19 -4.333643E+04  2.305545E+04  2.117748E+04  2.034881E+04 -1.686063E+03  1.362104E+03
       537  20 -7.007362E+04  2.058993E+04  1.512903E+04  1.881976E+04  1.014528E+03  4.081211E+03
       537  21 -9.727168E+04  1.495612E+04  1.004478E+04  2.423818E+04  3.719017E+03  3.743361E+03
       537  22 -1.595850E+05 -5.742603E+03 -6.606469E+03  2.367524E+04  4.424345E+03  1.370444E+03
       537  23 -1.589708E+05 -8.673065E+02 -3.272293E+03  2.019744E+04  2.723237E+03  4.083616E+03
       537  24 -1.595830E+05  7.508552E+01 -2.031178E+03  2.366727E+04  1.026205E+03  3.739615E+03
       537  25 -2.758211E+05 -3.454157E+04 -3.439123E+04  2.700104E+04  1.053361E+04  1.378849E+03
       537  26 -2.478605E+05 -2.232503E+04 -2.167403E+04  2.157492E+04  4.431706E+03  4.086029E+03
       537  27 -2.218907E+05 -1.480618E+04 -1.410730E+04  2.309643E+04 -1.666343E+03  3.735875E+03
       538   1 -1.154035E+05  1.034520E+04  6.782497E+03  2.364993E+04 -2.890424E+03 -2.641618E+03
       538   2 -1.422880E+05  4.104118E+03  1.831876E+03  2.010242E+04 -2.464505E+03 -1.046019E+03
       538   3 -1.692866E+05 -2.274735E+03 -3.436937E+03  2.368208E+04 -2.038890E+03  7.476108E+02
       538   4 -1.593466E+05 -1.474356E+02 -1.732235E+03  2.370860E+04 -7.365162E+02 -2.638601E+03
       538   5 -1.592645E+05  5.493585E+01 -1.435554E+03  2.014486E+04 -2.553923E+01 -1.042586E+03
       538   6 -1.593463E+05  7.017297E+01 -1.654963E+03  2.370830E+04  6.851560E+02  7.514647E+02
       538   7 -2.032878E+05 -1.064019E+04 -1.024704E+04  2.376727E+04  1.417242E+03 -2.635584E+03
       538   8 -1.762407E+05 -3.994260E+03 -4.702976E+03  2.018730E+04  2.413362E+03 -1.039153E+03
       538   9 -1.494058E+05  2.415079E+03  1.270345E+02  2.373453E+04  3.409245E+03  7.553187E+02
       538  10 -1.154035E+05  1.034519E+04  6.782468E+03  2.364993E+04 -6.712494E-09  5.669589E-10
       538  11 -1.422880E+05  4.104115E+03  1.831863E+03  2.010242E+04 -1.041756E-09 -3.523425E-09
       538  12 -1.692866E+05 -2.274736E+03 -3.436946E+03  2.368208E+04  1.574178E-09 -8.216711E-10
       538  13 -1.593466E+05 -1.474433E+02 -1.732250E+03  2.370860E+04  2.659983E-10  8.328640E-10
       538  14 -1.592645E+05  5.493468E+01 -1.435557E+03  2.014486E+04 -6.064863E-10  4.271002E-09
       538  15 -1.593463E+05  7.017224E+01 -1.654965E+03  2.370830E+04  1.737102E-09  5.741507E-10
       538  16 -2.032879E+05 -1.064019E+04 -1.024706E+04  2.376727E+04  5.714022E-09  4.094580E-09
       538  17 -1.762407E+05 -3.994263E+03 -4.702989E+03  2.018730E+04  9.618003E-10 -3.459692E-10
       538  18 -1.494058E+05  2.415075E+03  1.270116E+02  2.373452E+04 -2.656606E-09  3.196144E-09
       538  19 -1.154035E+05  1.034520E+04  6.782497E+03  2.364993E+04  2.890424E+03  2.641618E+03
       538  20 -1.422880E+05  4.104118E+03  1.831876E+03  2.010242E+04  2.464505E+03  1.046019E+03
       538  21 -1.692866E+05 -2.274735E+03 -3.436937E+03  2.368208E+04  2.038890E+03 -7.476108E+02
       538  22 -1.593466E+05 -1.474356E+02 -1.732235E+03  2.370860E+04  7.365162E+02  2.638601E+03
       538  23 -1.592645E+05  5.493585E+01 -1.435554E+03  2.014486E+04  2.553923E+01  1.042586E+03
       538  24 -1.593463E+05  7.017297E+01 -1.654963E+03  2.370830E+04 -6.851560E+02 -7.514647E+02
       538  25 -2.032878E+05 -1.064019E+04 -1.024704E+04  2.376727E+04 -1.417242E+03  2.635584E+03
       538  26 -1.762407E+05 -3.994260E+03 -4.702976E+03  2.018730E+04 -2.413362E+03  1.039153E+03
       538  27 -1.494058E+05  2.415079E+03  1.270345E+02  2.373453E+04 -3.409245E+03 -7.553187E+02
       539   1 -1.875968E+05 -6.600650E+03 -7.240083E+03  2.351686E+04 -1.735348E+03  1.871376E+03
       539   2 -2.143101E+05 -1.310953E+04 -1.339536E+04  2.015487E+04  1.591759E+02  3.639623E+03
       539   3 -2.414761E+05 -2.034837E+04 -2.097323E+04  2.391591E+04  2.054060E+03  5.138480E+03
       539   4 -1.593958E+05  1.002685E+02 -1.945023E+03  2.370719E+04  1.000407E+03  1.875233E+03
       539   5 -1.592034E+05 -1.242018E+01 -3.027656E+03  2.014631E+04  2.507185E+03  3.642879E+03
       539   6 -1.593969E+05 -7.876464E+02 -5.263452E+03  2.370843E+04  4.014402E+03  5.141146E+03
       539   7 -1.311940E+05  6.801145E+03  3.350031E+03  2.389751E+04  3.736283E+03  1.879092E+03
       539   8 -1.040937E+05  1.308451E+04  7.339933E+03  2.013774E+04  4.855397E+03  3.646134E+03
       539   9 -7.731122E+04  1.877268E+04  1.044603E+04  2.350092E+04  5.974998E+03  5.143810E+03
       539  10 -1.875968E+05 -6.600655E+03 -7.240095E+03  2.351687E+04  8.730369E-09  3.813870E-10
       539  11 -2.143101E+05 -1.310954E+04 -1.339538E+04  2.015487E+04 -1.755201E-08  2.049808E-09
       539  12 -2.414761E+05 -2.034840E+04 -2.097328E+04  2.391590E+04 -4.172890E-08 -4.211011E-09
       539  13 -1.593958E+05  1.002645E+02 -1.945031E+03  2.370718E+04  3.970655E-10 -2.886950E-09
       539  14 -1.592034E+05 -1.243611E+01 -3.027693E+03  2.014630E+04 -6.373416E-10  2.141480E-09
       539  15 -1.593969E+05 -7.876791E+02 -5.263532E+03  2.370841E+04  9.546061E-10 -1.811892E-09
       539  16 -1.311940E+05  6.801138E+03  3.349998E+03  2.389751E+04 -9.823623E-09 -1.149208E-09
       539  17 -1.040937E+05  1.308449E+04  7.339863E+03  2.013773E+04  1.700190E-08 -4.276382E-09
       539  18 -7.731126E+04  1.877264E+04  1.044591E+04  2.350089E+04  4.118108E-08 -3.528858E-10
       539  19 -1.875968E+05 -6.600650E+03 -7.240083E+03  2.351686E+04  1.735348E+03 -1.871376E+03
       539  20 -2.143101E+05 -1.310953E+04 -1.339536E+04  2.015487E+04 -1.591759E+02 -3.639623E+03
       539  21 -2.414761E+05 -2.034837E+04 -2.097323E+04  2.391591E+04 -2.054060E+03 -5.138480E+03
       539  22 -1.593958E+05  1.002685E+02 -1.945023E+03  2.370719E+04 -1.000407E+03 -1.875233E+03
       539  23 -1.592034E+05 -1.242018E+01 -3.027656E+03  2.014631E+04 -2.507185E+03 -3.642879E+03
       539  24 -1.593969E+05 -7.876464E+02 -5.263452E+03  2.370843E+04 -4.014402E+03 -5.141146E+03
       539  25 -1.311940E+05  6.801145E+03  3.350031E+03  2.389751E+04 -3.736283E+03 -1.879092E+03
       539  26 -1.040937E+05  1.308451E+04  7.339933E+03  2.013774E+04 -4.855397E+03 -3.646134E+03
       539  27 -7.731122E+04  1.877268E+04  1.044603E+04  2.350092E+04 -5.974998E+03 -5.143810E+03
       540   1 -2.608141E+05 -2.388896E+04 -2.606766E+04  2.153169E+04  2.248423E+03  6.231110E+03
       540   2 -2.849891E+05 -3.408351E+04 -3.810921E+04  2.566001E+04  1.426322E+04  6.103917E+03
       540   3 -3.147794E+05 -6.039908E+04 -6.200936E+04  3.668520E+04  2.628235E+04  1.987218E+03
       540   4 -1.603378E+05  7.551301E+01 -6.779758E+03  2.365286E+04  4.913775E+03  6.234706E+03
       540   5 -1.580308E+05 -3.495182E+03 -1.206938E+04  2.021917E+04  1.118646E+04  6.099543E+03
       540   6 -1.603418E+05 -2.218813E+04 -2.522797E+04  2.368274E+04  1.746417E+04  1.974953E+03
       540   7 -5.985180E+04  2.403941E+04  1.250771E+04  2.577439E+04  7.579549E+03  6.238321E+03
       540   8 -3.105708E+04  2.709225E+04  1.396965E+04  1.477718E+04  8.109086E+03  6.095224E+03
       540   9 -5.881628E+03  1.602178E+04  1.155213E+04  1.067703E+04  8.643804E+03  1.963060E+03
       540  10 -2.608141E+05 -2.388901E+04 -2.606774E+04  2.153168E+04  4.069541E-08 -4.238069E-09
       540  11 -2.849894E+05 -3.408361E+04 -3.810966E+04  2.565994E+04  1.980448E-08  5.740580E-10
       540  12 -3.147802E+05 -6.039927E+04 -6.201067E+04  3.668515E+04 -6.307301E-09  2.415532E-09
       540  13 -1.603379E+05  7.546479E+01 -6.779876E+03  2.365284E+04  5.121295E-10  2.701371E-10
       540  14 -1.580310E+05 -3.495256E+03 -1.206968E+04  2.021911E+04 -4.371626E-10  2.168484E-09
       540  15 -1.603421E+05 -2.218822E+04 -2.522856E+04  2.368272E+04  9.834205E-10  1.022657E-09
       540  16 -5.985187E+04  2.403935E+04  1.250753E+04  2.577435E+04 -4.145803E-08  1.301184E-10
       540  17 -3.105716E+04  2.709220E+04  1.396946E+04  1.477714E+04 -2.099402E-08  2.056965E-09
       540  18 -5.881709E+03  1.602175E+04  1.155198E+04  1.067702E+04  5.962819E-09  3.341503E-10
       540  19 -2.608141E+05 -2.388896E+04 -2.606766E+04  2.153169E+04 -2.248423E+03 -6.231110E+03
       540  20 -2.849891E+05 -3.408351E+04 -3.810921E+04  2.566001E+04 -1.426322E+04 -6.103917E+03
       540  21 -3.147794E+05 -6.039908E+04 -6.200936E+04  3.668520E+04 -2.628235E+04 -1.987218E+03
       540  22 -1.603378E+05  7.551301E+01 -6.779758E+03  2.365286E+04 -4.913775E+03 -6.234706E+03
       540  23 -1.580308E+05 -3.495182E+03 -1.206938E+04  2.021917E+04 -1.118646E+04 -6.099543E+03
       540  24 -1.603418E+05 -2.218813E+04 -2.522797E+04  2.368274E+04 -1.746417E+04 -1.974953E+03
       540  25 -5.985180E+04  2.403941E+04  1.250771E+04  2.577439E+04 -7.579549E+03 -6.238321E+03
       540  26 -3.105708E+04  2.709225E+04  1.396965E+04  1.477718E+04 -8.109086E+03 -6.095224E+03
       540  27 -5.881628E+03  1.602178E+04  1.155213E+04  1.067703E+04 -8.643804E+03 -1.963060E+03
