
 stresses (elem, integ.pnt.,sxx,syy,szz,sxy,sxz,syz) for set ELALL and time  0.1000000E+01

         1   1  3.165884E+06  2.268257E+05  2.574357E+05  1.346595E+05  1.772282E+05  3.825531E+01
         1   2  3.142604E+06  3.623936E+04  1.243573E+05  5.715040E+04  1.125854E+05  1.031406E+01
         1   3  3.166213E+06 -1.417706E+02  7.177126E+04 -2.035473E+04  4.794149E+04 -1.564180E+00
         1   4  3.165865E+06  2.267918E+05  2.574309E+05 -2.557525E-09  1.772282E+05  4.115033E-11
         1   5  3.142600E+06  3.623325E+04  1.243565E+05 -1.492764E-09  1.125854E+05  2.659129E-10
         1   6  3.166212E+06 -1.425453E+02  7.177115E+04 -9.859509E-09  4.794149E+04  8.827275E-10
         1   7  3.165884E+06  2.268257E+05  2.574357E+05 -1.346595E+05  1.772282E+05 -3.825531E+01
         1   8  3.142604E+06  3.623936E+04  1.243573E+05 -5.715040E+04  1.125854E+05 -1.031406E+01
         1   9  3.166213E+06 -1.417706E+02  7.177126E+04  2.035473E+04  4.794149E+04  1.564180E+00
         1  10  3.165850E+06  2.268173E+05  2.573770E+05  1.346595E+05  1.046648E-09 -3.778841E-11
         1  11  3.142590E+06  3.623598E+04  1.243336E+05  5.715040E+04 -1.013092E-09  1.695027E-10
         1  12  3.166210E+06 -1.423838E+02  7.176696E+04 -2.035473E+04 -2.633405E-09  9.884336E-10
         1  13  3.165831E+06  2.267834E+05  2.573721E+05 -5.398520E-10  2.258164E-09 -1.427046E-10
         1  14  3.142587E+06  3.622987E+04  1.243328E+05 -6.635522E-09 -1.060873E-09 -4.604672E-11
         1  15  3.166210E+06 -1.431585E+02  7.176685E+04 -9.496493E-09 -1.816705E-09  9.707566E-10
         1  16  3.165850E+06  2.268173E+05  2.573770E+05 -1.346595E+05 -2.770353E-09 -2.835188E-10
         1  17  3.142590E+06  3.623598E+04  1.243336E+05 -5.715040E+04 -8.894939E-10 -2.821280E-10
         1  18  3.166210E+06 -1.423838E+02  7.176696E+04  2.035473E+04  3.325968E-10  9.060510E-10
         1  19  3.165884E+06  2.268257E+05  2.574357E+05  1.346595E+05 -1.772282E+05 -3.825531E+01
         1  20  3.142604E+06  3.623936E+04  1.243573E+05  5.715040E+04 -1.125854E+05 -1.031406E+01
         1  21  3.166213E+06 -1.417706E+02  7.177126E+04 -2.035473E+04 -4.794149E+04  1.564180E+00
         1  22  3.165865E+06  2.267918E+05  2.574309E+05 -4.992711E-09 -1.772282E+05 -2.898379E-10
         1  23  3.142600E+06  3.623325E+04  1.243565E+05 -9.617384E-09 -1.125854E+05 -3.205501E-10
         1  24  3.166212E+06 -1.425453E+02  7.177115E+04 -1.497986E-08 -4.794149E+04  1.045064E-09
         1  25  3.165884E+06  2.268257E+05  2.574357E+05 -1.346595E+05 -1.772282E+05  3.825531E+01
         1  26  3.142604E+06  3.623936E+04  1.243573E+05 -5.715040E+04 -1.125854E+05  1.031406E+01
         1  27  3.166213E+06 -1.417706E+02  7.177126E+04  2.035473E+04 -4.794149E+04 -1.564180E+00
         2   1  3.156694E+06  8.598599E+03  5.723489E+04  3.279238E+03  3.816239E+04  2.005971E-01
         2   2  3.154604E+06  5.364743E+02  3.721070E+04  1.100180E+03  1.961588E+04  3.459299E-02
         2   3  3.156723E+06 -2.978655E+02  3.102385E+04 -1.078892E+03  1.069607E+03 -1.849769E-03
         2   4  3.156694E+06  8.598579E+03  5.723488E+04 -3.802836E-09  3.816239E+04  4.309510E-10
         2   5  3.154604E+06  5.364720E+02  3.721070E+04  7.577712E-10  1.961588E+04 -1.241586E-09
         2   6  3.156723E+06 -2.978677E+02  3.102385E+04  1.594921E-09  1.069607E+03 -2.077221E-09
         2   7  3.156694E+06  8.598599E+03  5.723489E+04 -3.279238E+03  3.816239E+04 -2.005971E-01
         2   8  3.154604E+06  5.364743E+02  3.721070E+04 -1.100180E+03  1.961588E+04 -3.459299E-02
         2   9  3.156723E+06 -2.978655E+02  3.102385E+04  1.078892E+03  1.069607E+03  1.849765E-03
         2  10  3.156692E+06  8.598210E+03  5.723216E+04  3.279238E+03  1.123640E-09  8.663604E-10
         2  11  3.154604E+06  5.363716E+02  3.720998E+04  1.100180E+03  2.505769E-09 -1.822383E-10
         2  12  3.156723E+06 -2.978658E+02  3.102385E+04 -1.078892E+03  9.837799E-11 -6.789211E-10
         2  13  3.156692E+06  8.598190E+03  5.723216E+04  8.211775E-10  2.186963E-09  9.437636E-10
         2  14  3.154604E+06  5.363694E+02  3.720998E+04 -2.949547E-09 -1.775859E-10 -3.184016E-10
         2  15  3.156723E+06 -2.978680E+02  3.102385E+04  2.445501E-09  3.024451E-10 -1.056128E-09
         2  16  3.156692E+06  8.598210E+03  5.723216E+04 -3.279238E+03 -1.460385E-09  1.049297E-09
         2  17  3.154604E+06  5.363716E+02  3.720998E+04 -1.100180E+03 -3.023022E-10 -4.281535E-10
         2  18  3.156723E+06 -2.978658E+02  3.102385E+04  1.078892E+03 -8.529065E-10 -1.460435E-09
         2  19  3.156694E+06  8.598599E+03  5.723489E+04  3.279238E+03 -3.816239E+04 -2.005971E-01
         2  20  3.154604E+06  5.364743E+02  3.721070E+04  1.100180E+03 -1.961588E+04 -3.459299E-02
         2  21  3.156723E+06 -2.978655E+02  3.102385E+04 -1.078892E+03 -1.069607E+03  1.849768E-03
         2  22  3.156694E+06  8.598579E+03  5.723488E+04 -8.665830E-09 -3.816239E+04  1.409222E-09
         2  23  3.154604E+06  5.364720E+02  3.721070E+04 -2.318291E-09 -1.961588E+04  5.483729E-10
         2  24  3.156723E+06 -2.978677E+02  3.102385E+04  1.451354E-09 -1.069607E+03 -8.602031E-11
         2  25  3.156694E+06  8.598599E+03  5.723489E+04 -3.279238E+03 -3.816239E+04  2.005971E-01
         2  26  3.154604E+06  5.364743E+02  3.721070E+04 -1.100180E+03 -1.961588E+04  3.459299E-02
         2  27  3.156723E+06 -2.978655E+02  3.102385E+04  1.078892E+03 -1.069607E+03 -1.849768E-03
         3   1  3.156821E+06 -3.580114E+02  3.160366E+04  1.431196E+03 -4.458751E+03 -1.022887E-02
         3   2  3.154478E+06  6.696081E+02  4.039109E+04 -1.112073E+03 -2.459681E+04  4.384588E-02
         3   3  3.156786E+06  9.872185E+03  6.428541E+04 -3.655282E+03 -4.473490E+04  2.621100E-01
         3   4  3.156821E+06 -3.580152E+02  3.160366E+04  5.401443E-09 -4.458751E+03 -1.251055E-09
         3   5  3.154478E+06  6.696058E+02  4.039109E+04  1.648926E-09 -2.459681E+04  7.950875E-10
         3   6  3.156786E+06  9.872160E+03  6.428541E+04  1.729583E-09 -4.473490E+04  9.327331E-10
         3   7  3.156821E+06 -3.580114E+02  3.160366E+04 -1.431196E+03 -4.458751E+03  1.022886E-02
         3   8  3.154478E+06  6.696081E+02  4.039109E+04  1.112073E+03 -2.459681E+04 -4.384588E-02
         3   9  3.156786E+06  9.872185E+03  6.428541E+04  3.655282E+03 -4.473490E+04 -2.621100E-01
         3  10  3.156821E+06 -3.580167E+02  3.160362E+04  1.431196E+03  6.959885E-10 -1.972708E-10
         3  11  3.154478E+06  6.694467E+02  4.038996E+04 -1.112073E+03  2.913348E-09  8.717749E-10
         3  12  3.156784E+06  9.871651E+03  6.428167E+04 -3.655282E+03  7.073071E-10  7.098495E-10
         3  13  3.156821E+06 -3.580205E+02  3.160362E+04  2.176261E-09  3.130347E-09 -5.025845E-10
         3  14  3.154478E+06  6.694443E+02  4.038996E+04 -1.223318E-09  5.729287E-10  8.409974E-10
         3  15  3.156784E+06  9.871626E+03  6.428166E+04  1.358474E-09  2.797206E-09  9.647680E-10
         3  16  3.156821E+06 -3.580167E+02  3.160362E+04 -1.431196E+03  2.447696E-09 -7.539682E-10
         3  17  3.154478E+06  6.694467E+02  4.038996E+04  1.112073E+03 -6.509573E-10  9.251126E-10
         3  18  3.156784E+06  9.871651E+03  6.428167E+04  3.655282E+03 -1.032608E-09  1.293215E-09
         3  19  3.156821E+06 -3.580114E+02  3.160366E+04  1.431196E+03  4.458751E+03  1.022886E-02
         3  20  3.154478E+06  6.696081E+02  4.039109E+04 -1.112073E+03  2.459681E+04 -4.384588E-02
         3  21  3.156786E+06  9.872185E+03  6.428541E+04 -3.655282E+03  4.473490E+04 -2.621100E-01
         3  22  3.156821E+06 -3.580152E+02  3.160366E+04  2.008928E-09  4.458751E+03  1.903578E-10
         3  23  3.154478E+06  6.696058E+02  4.039109E+04 -6.269077E-09  2.459681E+04  9.102364E-10
         3  24  3.156786E+06  9.872160E+03  6.428541E+04  9.537999E-10  4.473490E+04  1.032730E-09
         3  25  3.156821E+06 -3.580114E+02  3.160366E+04 -1.431196E+03  4.458751E+03 -1.022886E-02
         3  26  3.154478E+06  6.696081E+02  4.039109E+04  1.112073E+03  2.459681E+04  4.384588E-02
         3  27  3.156786E+06  9.872185E+03  6.428541E+04  3.655282E+03  4.473490E+04  2.621100E-01
         4   1  3.167711E+06 -1.387585E+02  8.125315E+04  2.336794E+04 -5.573687E+04 -2.087720E+00
         4   2  3.140705E+06  4.149346E+04  1.419195E+05 -6.535398E+04 -1.295156E+05  1.356826E+01
         4   3  3.167338E+06  2.596168E+05  2.945778E+05 -1.540839E+05 -2.032952E+05  5.021198E+01
         4   4  3.167711E+06 -1.397795E+02  8.125300E+04 -4.933368E-11 -5.573687E+04 -2.142248E-11
         4   5  3.140700E+06  4.148547E+04  1.419183E+05  4.473599E-09 -1.295156E+05 -1.007356E-09
         4   6  3.167312E+06  2.595724E+05  2.945715E+05 -1.816020E-09 -2.032952E+05 -3.960910E-10
         4   7  3.167711E+06 -1.387585E+02  8.125315E+04 -2.336794E+04 -5.573687E+04  2.087720E+00
         4   8  3.140705E+06  4.149346E+04  1.419195E+05  6.535398E+04 -1.295156E+05 -1.356826E+01
         4   9  3.167338E+06  2.596168E+05  2.945778E+05  1.540839E+05 -2.032952E+05 -5.021198E+01
         4  10  3.167708E+06 -1.395873E+02  8.124734E+04  2.336794E+04  1.551779E-09  1.857079E-11
         4  11  3.140687E+06  4.148898E+04  1.418881E+05 -6.535398E+04  1.386626E-09 -8.363862E-10
         4  12  3.167293E+06  2.596058E+05  2.945005E+05 -1.540839E+05 -1.365456E-10 -3.513389E-10
         4  13  3.167707E+06 -1.406083E+02  8.124720E+04 -7.367893E-10  2.263226E-09  2.281769E-10
         4  14  3.140682E+06  4.148100E+04  1.418870E+05 -9.496418E-28  1.477519E-09 -7.227153E-10
         4  15  3.167268E+06  2.595614E+05  2.944942E+05  3.989453E-09  2.437486E-09 -3.656041E-10
         4  16  3.167708E+06 -1.395873E+02  8.124734E+04 -2.336794E+04 -1.361037E-09  3.969067E-10
         4  17  3.140687E+06  4.148898E+04  1.418881E+05  6.535398E+04 -2.670796E-09 -6.566921E-10
         4  18  3.167293E+06  2.596058E+05  2.945005E+05  1.540839E+05  1.808927E-09 -3.893890E-10
         4  19  3.167711E+06 -1.387585E+02  8.125315E+04  2.336794E+04  5.573687E+04  2.087720E+00
         4  20  3.140705E+06  4.149346E+04  1.419195E+05 -6.535398E+04  1.295156E+05 -1.356826E+01
         4  21  3.167338E+06  2.596168E+05  2.945778E+05 -1.540839E+05  2.032952E+05 -5.021198E+01
         4  22  3.167711E+06 -1.397795E+02  8.125300E+04 -1.500137E-09  5.573687E+04  5.025283E-10
         4  23  3.140700E+06  4.148547E+04  1.419183E+05  9.517352E-10  1.295156E+05 -4.939617E-10
         4  24  3.167312E+06  2.595724E+05  2.945715E+05 -1.941406E-09  2.032952E+05 -3.301617E-10
         4  25  3.167711E+06 -1.387585E+02  8.125315E+04 -2.336794E+04  5.573687E+04 -2.087720E+00
         4  26  3.140705E+06  4.149346E+04  1.419195E+05  6.535398E+04  1.295156E+05  1.356826E+01
         4  27  3.167338E+06  2.596168E+05  2.945778E+05  1.540839E+05  2.032952E+05  5.021198E+01
         5   1 -1.737416E+06 -5.388382E+06 -1.713430E+06  1.207091E+06 -7.576817E+04 -5.144099E+05
         5   2 -1.206493E+06 -4.129974E+06 -1.122600E+06  9.728550E+05 -2.293337E+05 -2.233055E+05
         5   3 -8.663879E+05 -2.953773E+06 -7.696719E+05  1.051319E+06 -2.240646E+05  6.837521E+04
         5   4 -2.277155E+05  6.904990E+05 -2.594241E+05  1.082345E+06 -7.489714E+04 -1.809694E+05
         5   5 -3.611966E+04  7.140682E+05 -1.233854E+05  9.256697E+05 -2.288488E+05 -1.162753E+05
         5   6  5.069519E+03  6.941810E+05 -6.665092E+04  1.081729E+06 -2.244552E+05 -5.162715E+04
         5   7  1.279429E+06  6.803696E+06  1.192408E+06  9.563183E+05 -7.416766E+04  1.557497E+05
         5   8  1.132787E+06  5.580483E+06  8.746112E+05  8.780761E+05 -2.283829E+05 -8.417907E+03
         5   9  8.757466E+05  4.354998E+06  6.358088E+05  1.112300E+06 -2.248560E+05 -1.723202E+05
         5  10 -1.737494E+06 -5.388669E+06 -1.713942E+06  1.207060E+06  8.463619E-10 -6.806109E-10
         5  11 -1.206563E+06 -4.130042E+06 -1.122793E+06  9.728137E+05  5.741362E-10  8.621306E-10
         5  12 -8.664431E+05 -2.953792E+06 -7.697753E+05  1.051331E+06  2.951615E-09  2.411205E-09
         5  13 -2.277303E+05  6.904623E+05 -2.594960E+05  1.082334E+06 -1.853713E-10 -1.692087E-11
         5  14 -3.617948E+04  7.140397E+05 -1.235091E+05  9.256483E+05  2.061456E-09 -2.773727E-11
         5  15  5.014716E+03  6.941646E+05 -6.675053E+04  1.081720E+06  1.447955E-09 -8.445289E-12
         5  16  1.279417E+06  6.803669E+06  1.192352E+06  9.563276E+05 -2.871203E-09  5.981481E-10
         5  17  1.132731E+06  5.580468E+06  8.745130E+05  8.780745E+05 -9.470752E-11 -8.052646E-10
         5  18  8.756845E+05  4.354953E+06  6.356587E+05  1.112269E+06 -2.755164E-09 -2.254761E-09
         5  19 -1.737416E+06 -5.388382E+06 -1.713430E+06  1.207091E+06  7.576817E+04  5.144099E+05
         5  20 -1.206493E+06 -4.129974E+06 -1.122600E+06  9.728550E+05  2.293337E+05  2.233055E+05
         5  21 -8.663879E+05 -2.953773E+06 -7.696719E+05  1.051319E+06  2.240646E+05 -6.837521E+04
         5  22 -2.277155E+05  6.904990E+05 -2.594241E+05  1.082345E+06  7.489714E+04  1.809694E+05
         5  23 -3.611966E+04  7.140682E+05 -1.233854E+05  9.256697E+05  2.288488E+05  1.162753E+05
         5  24  5.069519E+03  6.941810E+05 -6.665092E+04  1.081729E+06  2.244552E+05  5.162715E+04
         5  25  1.279429E+06  6.803696E+06  1.192408E+06  9.563183E+05  7.416766E+04 -1.557497E+05
         5  26  1.132787E+06  5.580483E+06  8.746112E+05  8.780761E+05  2.283829E+05  8.417907E+03
         5  27  8.757466E+05  4.354998E+06  6.358088E+05  1.112300E+06  2.248560E+05  1.723202E+05
         6   1 -6.751421E+05 -2.115405E+06 -5.918652E+05  1.078178E+06 -1.745722E+05  4.955799E+04
         6   2 -3.746865E+05 -8.969726E+05 -3.246409E+05  9.186871E+05 -1.071292E+05  6.957801E+04
         6   3 -7.946139E+04  3.170947E+05 -7.240860E+04  1.080704E+06 -3.410139E+04  8.951958E+04
         6   4 -2.432313E+03  7.039356E+05 -5.024566E+04  1.083748E+06 -1.749326E+05 -4.330637E+04
         6   5  6.175159E+03  7.067405E+05 -2.438994E+04  9.229902E+05 -1.075900E+05 -3.133943E+04
         6   6  1.105076E+04  7.051874E+05 -7.860420E+03  1.083689E+06 -3.467344E+04 -1.948873E+04
         6   7  6.698116E+05  3.530957E+06  4.910412E+05  1.089330E+06 -1.752935E+05 -1.365834E+05
         6   8  3.868936E+05  2.312964E+06  2.757884E+05  9.273001E+05 -1.080515E+05 -1.325112E+05
         6   9  1.015615E+05  1.093454E+06  5.672782E+04  1.086675E+06 -3.524628E+04 -1.285629E+05
         6  10 -6.751755E+05 -2.115416E+06 -5.919272E+05  1.078185E+06  2.883373E-09 -1.087723E-09
         6  11 -3.747001E+05 -8.969809E+05 -3.246717E+05  9.186931E+05  2.154234E-10 -2.880355E-10
         6  12 -7.946480E+04  3.170858E+05 -7.242587E+04  1.080707E+06  1.167377E-09  4.968906E-10
         6  13 -2.465668E+03  7.039254E+05 -5.030664E+04  1.083742E+06 -1.132241E-10 -1.085616E-11
         6  14  6.162469E+03  7.067364E+05 -2.441352E+04  9.229875E+05 -2.651653E-09 -2.668651E-11
         6  15  1.104937E+04  7.051866E+05 -7.863387E+03  1.083688E+06 -7.122001E-10 -7.497866E-11
         6  16  6.697737E+05  3.530929E+06  4.909488E+05  1.089311E+06  1.244180E-09  1.216633E-09
         6  17  3.868764E+05  2.312942E+06  2.757337E+05  9.272886E+05  1.396349E-09  8.973975E-11
         6  18  1.015557E+05  1.093436E+06  5.669452E+04  1.086672E+06  6.347461E-10 -7.374703E-10
         6  19 -6.751421E+05 -2.115405E+06 -5.918652E+05  1.078178E+06  1.745722E+05 -4.955799E+04
         6  20 -3.746865E+05 -8.969726E+05 -3.246409E+05  9.186871E+05  1.071292E+05 -6.957801E+04
         6  21 -7.946139E+04  3.170947E+05 -7.240860E+04  1.080704E+06  3.410139E+04 -8.951958E+04
         6  22 -2.432313E+03  7.039356E+05 -5.024566E+04  1.083748E+06  1.749326E+05  4.330637E+04
         6  23  6.175159E+03  7.067405E+05 -2.438994E+04  9.229902E+05  1.075900E+05  3.133943E+04
         6  24  1.105076E+04  7.051874E+05 -7.860420E+03  1.083689E+06  3.467344E+04  1.948873E+04
         6  25  6.698116E+05  3.530957E+06  4.910412E+05  1.089330E+06  1.752935E+05  1.365834E+05
         6  26  3.868936E+05  2.312964E+06  2.757884E+05  9.273001E+05  1.080515E+05  1.325112E+05
         6  27  1.015615E+05  1.093454E+06  5.672782E+04  1.086675E+06  3.524628E+04  1.285629E+05
         7   1  1.161107E+05  1.146935E+06  9.392874E+04  1.080747E+06  1.605813E+04  1.024951E+05
         7   2  4.127610E+05  2.352810E+06  3.677960E+05  9.371755E+05  5.986739E+04 -1.865301E+04
         7   3  7.542606E+05  3.585147E+06  7.309174E+05  1.110882E+06  2.441368E+04 -1.398207E+05
         7   4  9.273799E+03  7.073370E+05 -1.316220E+03  1.082797E+06  1.542129E+04 -1.878293E+04
         7   5  1.242810E+04  7.040185E+05  1.252835E+04  9.240720E+05  5.984659E+04 -2.550570E+04
         7   6  4.075898E+04  7.060425E+05  3.639061E+04  1.082659E+06  2.491750E+04 -3.201138E+04
         7   7 -9.756791E+04  2.679520E+05 -9.651747E+04  1.084846E+06  1.478335E+04 -1.399764E+05
         7   8 -3.880828E+05 -9.422271E+05 -3.428991E+05  9.109988E+05  5.982606E+04 -3.234042E+04
         7   9 -6.733385E+05 -2.165490E+06 -6.586852E+05  1.054552E+06  2.541308E+04  7.530221E+04
         7  10  1.161076E+05  1.146923E+06  9.390857E+04  1.080746E+06  9.427246E-10 -4.800889E-09
         7  11  4.127570E+05  2.352809E+06  3.677886E+05  9.371764E+05 -1.705646E-09  1.840965E-10
         7  12  7.542548E+05  3.585126E+06  7.308798E+05  1.110885E+06 -6.414351E-10  4.368530E-09
         7  13  9.273448E+03  7.073365E+05 -1.317331E+03  1.082798E+06  5.479404E-10 -5.616224E-12
         7  14  1.242407E+04  7.040169E+05  1.252038E+04  9.240732E+05 -5.780170E-10  9.098339E-11
         7  15  4.075804E+04  7.060412E+05  3.638752E+04  1.082660E+06 -1.225506E-09  3.319683E-11
         7  16 -9.757341E+04  2.679309E+05 -9.655471E+04  1.084848E+06 -1.439215E-09  4.845936E-09
         7  17 -3.880870E+05 -9.422292E+05 -3.429078E+05  9.110004E+05 -1.519085E-09  2.015470E-11
         7  18 -6.733407E+05 -2.165496E+06 -6.586971E+05  1.054551E+06 -5.333980E-10 -4.184185E-09
         7  19  1.161107E+05  1.146935E+06  9.392874E+04  1.080747E+06 -1.605813E+04 -1.024951E+05
         7  20  4.127610E+05  2.352810E+06  3.677960E+05  9.371755E+05 -5.986739E+04  1.865301E+04
         7  21  7.542606E+05  3.585147E+06  7.309174E+05  1.110882E+06 -2.441368E+04  1.398207E+05
         7  22  9.273799E+03  7.073370E+05 -1.316220E+03  1.082797E+06 -1.542129E+04  1.878293E+04
         7  23  1.242810E+04  7.040185E+05  1.252835E+04  9.240720E+05 -5.984659E+04  2.550570E+04
         7  24  4.075898E+04  7.060425E+05  3.639061E+04  1.082659E+06 -2.491750E+04  3.201138E+04
         7  25 -9.756791E+04  2.679520E+05 -9.651747E+04  1.084846E+06 -1.478335E+04  1.399764E+05
         7  26 -3.880828E+05 -9.422271E+05 -3.428991E+05  9.109988E+05 -5.982606E+04  3.234042E+04
         7  27 -6.733385E+05 -2.165490E+06 -6.586852E+05  1.054552E+06 -2.541308E+04 -7.530221E+04
         8   1  2.364348E+06  1.119079E+05  1.270740E+05  6.642733E+04  8.699468E+04  9.274476E+00
         8   2  2.352824E+06  1.785256E+04  6.170618E+04  2.822322E+04  5.493121E+04  2.488162E+00
         8   3  2.364471E+06 -9.651794E+01  3.618395E+04 -9.979628E+03  2.286768E+04 -3.662523E-01
         8   4  2.364343E+06  1.118997E+05  1.270728E+05  2.359797E-08  8.699468E+04 -2.994051E-10
         8   5  2.352823E+06  1.785107E+04  6.170597E+04 -2.944914E-08  5.493121E+04 -1.965090E-10
         8   6  2.364471E+06 -9.670439E+01  3.618393E+04 -1.075139E-07  2.286768E+04  1.468264E-09
         8   7  2.364348E+06  1.119079E+05  1.270740E+05 -6.642733E+04  8.699468E+04 -9.274476E+00
         8   8  2.352824E+06  1.785256E+04  6.170618E+04 -2.822322E+04  5.493121E+04 -2.488162E+00
         8   9  2.364471E+06 -9.651794E+01  3.618395E+04  9.979628E+03  2.286768E+04  3.662523E-01
         8  10  2.364340E+06  1.119059E+05  1.270598E+05  6.642733E+04 -6.598240E-09 -1.048117E-10
         8  11  2.352821E+06  1.785176E+04  6.170053E+04  2.822322E+04  1.885742E-08  8.220111E-10
         8  12  2.364471E+06 -9.665768E+01  3.618298E+04 -9.979628E+03  3.749764E-08  3.555138E-09
         8  13  2.364335E+06  1.118976E+05  1.270587E+05  3.017875E-09 -1.255381E-09 -2.498220E-10
         8  14  2.352820E+06  1.785027E+04  6.170032E+04  7.205689E-10  9.725209E-10  2.082299E-10
         8  15  2.364471E+06 -9.684413E+01  3.618295E+04 -1.593451E-09  7.790250E-10  2.649831E-09
         8  16  2.364340E+06  1.119059E+05  1.270598E+05 -6.642733E+04  6.549856E-09 -3.824399E-10
         8  17  2.352821E+06  1.785176E+04  6.170053E+04 -2.822322E+04 -1.833632E-08 -4.375600E-10
         8  18  2.364471E+06 -9.665768E+01  3.618298E+04  9.979628E+03 -3.709352E-08  1.783915E-09
         8  19  2.364348E+06  1.119079E+05  1.270740E+05  6.642733E+04 -8.699468E+04 -9.274476E+00
         8  20  2.352824E+06  1.785256E+04  6.170618E+04  2.822322E+04 -5.493121E+04 -2.488162E+00
         8  21  2.364471E+06 -9.651794E+01  3.618395E+04 -9.979628E+03 -2.286768E+04  3.662523E-01
         8  22  2.364343E+06  1.118997E+05  1.270728E+05 -3.053664E-08 -8.699468E+04 -2.098821E-10
         8  23  2.352823E+06  1.785107E+04  6.170597E+04  3.733706E-08 -5.493121E+04  6.506252E-10
         8  24  2.364471E+06 -9.670439E+01  3.618393E+04  1.088874E-07 -2.286768E+04  3.836007E-09
         8  25  2.364348E+06  1.119079E+05  1.270740E+05 -6.642733E+04 -8.699468E+04  9.274476E+00
         8  26  2.352824E+06  1.785256E+04  6.170618E+04 -2.822322E+04 -5.493121E+04  2.488162E+00
         8  27  2.364471E+06 -9.651794E+01  3.618395E+04  9.979628E+03 -2.286768E+04 -3.662523E-01
         9   1  2.359803E+06  4.214747E+03  2.930431E+04  1.702790E+03  1.787984E+04  4.886204E-02
         9   2  2.358697E+06  2.152051E+02  2.028598E+04  6.718811E+02  7.777564E+03  8.386550E-03
         9   3  2.359813E+06 -1.318053E+02  1.873947E+04 -3.590147E+02 -2.324508E+03  1.339336E-03
         9   4  2.359803E+06  4.214741E+03  2.930431E+04  9.950981E-08  1.787984E+04  1.727833E-09
         9   5  2.358697E+06  2.152043E+02  2.028598E+04  3.022722E-08  7.777564E+03  3.481257E-10
         9   6  2.359813E+06 -1.318056E+02  1.873947E+04 -2.830935E-08 -2.324508E+03 -5.725079E-10
         9   7  2.359803E+06  4.214747E+03  2.930431E+04 -1.702790E+03  1.787984E+04 -4.886203E-02
         9   8  2.358697E+06  2.152051E+02  2.028598E+04 -6.718811E+02  7.777564E+03 -8.386549E-03
         9   9  2.359813E+06 -1.318053E+02  1.873947E+04  3.590147E+02 -2.324508E+03 -1.339337E-03
         9  10  2.359803E+06  4.214661E+03  2.930371E+04  1.702790E+03 -3.843636E-08  3.343502E-09
         9  11  2.358697E+06  2.151890E+02  2.028586E+04  6.718811E+02 -1.814285E-08 -1.759155E-10
         9  12  2.359813E+06 -1.318068E+02  1.873946E+04 -3.590147E+02  8.295373E-09 -1.136188E-09
         9  13  2.359803E+06  4.214656E+03  2.930371E+04 -6.141205E-09  2.469827E-09  2.681050E-09
         9  14  2.358697E+06  2.151881E+02  2.028586E+04 -2.259177E-09  2.126249E-10  1.101582E-10
         9  15  2.359813E+06 -1.318070E+02  1.873946E+04 -2.141674E-09  6.647541E-10 -8.287255E-10
         9  16  2.359803E+06  4.214661E+03  2.930371E+04 -1.702790E+03  4.005012E-08  2.056892E-09
         9  17  2.358697E+06  2.151890E+02  2.028586E+04 -6.718811E+02  1.727746E-08  3.538039E-10
         9  18  2.359813E+06 -1.318068E+02  1.873946E+04  3.590147E+02 -7.925552E-09 -5.230402E-10
         9  19  2.359803E+06  4.214747E+03  2.930431E+04  1.702790E+03 -1.787984E+04 -4.886203E-02
         9  20  2.358697E+06  2.152051E+02  2.028598E+04  6.718811E+02 -7.777564E+03 -8.386550E-03
         9  21  2.359813E+06 -1.318053E+02  1.873947E+04 -3.590147E+02  2.324508E+03 -1.339338E-03
         9  22  2.359803E+06  4.214741E+03  2.930431E+04 -1.043433E-07 -1.787984E+04  3.642144E-09
         9  23  2.358697E+06  2.152043E+02  2.028598E+04 -2.930506E-08 -7.777564E+03 -1.367001E-10
         9  24  2.359813E+06 -1.318056E+02  1.873947E+04  2.524730E-08  2.324508E+03 -1.109546E-09
         9  25  2.359803E+06  4.214747E+03  2.930431E+04 -1.702790E+03 -1.787984E+04  4.886204E-02
         9  26  2.358697E+06  2.152051E+02  2.028598E+04 -6.718811E+02 -7.777564E+03  8.386550E-03
         9  27  2.359813E+06 -1.318053E+02  1.873947E+04  3.590147E+02  2.324508E+03  1.339336E-03
        10   1  2.360048E+06 -2.754816E+02  2.012254E+04  1.198942E+03 -5.752834E+03 -1.106946E-02
        10   2  2.358397E+06  5.325750E+02  2.787339E+04 -7.004882E+02 -1.965137E+04  2.209232E-02
        10   3  2.360027E+06  7.254250E+03  4.612650E+04 -2.599933E+03 -3.355030E+04  1.399929E-01
        10   4  2.360048E+06 -2.754843E+02  2.012254E+04 -1.838831E-09 -5.752834E+03 -9.353921E-10
        10   5  2.358397E+06  5.325740E+02  2.787339E+04  3.451281E-10 -1.965137E+04 -1.268675E-09
        10   6  2.360027E+06  7.254238E+03  4.612650E+04 -8.396280E-10 -3.355030E+04 -7.594806E-10
        10   7  2.360048E+06 -2.754816E+02  2.012254E+04 -1.198942E+03 -5.752834E+03  1.106946E-02
        10   8  2.358397E+06  5.325750E+02  2.787339E+04  7.004882E+02 -1.965137E+04 -2.209232E-02
        10   9  2.360027E+06  7.254250E+03  4.612650E+04  2.599933E+03 -3.355030E+04 -1.399929E-01
        10  10  2.360048E+06 -2.754905E+02  2.012248E+04  1.198942E+03 -3.158146E-10 -1.291558E-09
        10  11  2.358397E+06  5.324718E+02  2.787267E+04 -7.004882E+02 -2.896433E-10 -1.754128E-09
        10  12  2.360026E+06  7.253949E+03  4.612440E+04 -2.599933E+03 -1.612540E-10 -4.434979E-10
        10  13  2.360048E+06 -2.754932E+02  2.012248E+04  1.365623E-09  9.329992E-10 -8.634616E-10
        10  14  2.358397E+06  5.324708E+02  2.787267E+04 -2.307703E-09 -2.049811E-09 -9.014279E-10
        10  15  2.360026E+06  7.253937E+03  4.612439E+04  3.670253E-09 -3.175385E-11 -6.590255E-10
        10  16  2.360048E+06 -2.754905E+02  2.012248E+04 -1.198942E+03 -3.243522E-10 -3.381431E-10
        10  17  2.358397E+06  5.324718E+02  2.787267E+04  7.004882E+02  1.371598E-09 -1.164221E-10
        10  18  2.360026E+06  7.253949E+03  4.612440E+04  2.599933E+03  1.474790E-09 -9.404188E-10
        10  19  2.360048E+06 -2.754816E+02  2.012254E+04  1.198942E+03  5.752834E+03  1.106945E-02
        10  20  2.358397E+06  5.325750E+02  2.787339E+04 -7.004882E+02  1.965137E+04 -2.209232E-02
        10  21  2.360027E+06  7.254250E+03  4.612650E+04 -2.599933E+03  3.355030E+04 -1.399929E-01
        10  22  2.360048E+06 -2.754843E+02  2.012254E+04  1.822600E-10  5.752834E+03 -7.352356E-10
        10  23  2.358397E+06  5.325740E+02  2.787339E+04  6.901517E-09  1.965137E+04 -4.883853E-10
        10  24  2.360027E+06  7.254238E+03  4.612650E+04  1.628200E-09  3.355030E+04 -5.822740E-10
        10  25  2.360048E+06 -2.754816E+02  2.012254E+04 -1.198942E+03  5.752834E+03 -1.106946E-02
        10  26  2.358397E+06  5.325750E+02  2.787339E+04  7.004882E+02  1.965137E+04  2.209232E-02
        10  27  2.360027E+06  7.254250E+03  4.612650E+04  2.599933E+03  3.355030E+04  1.399929E-01
        11   1  2.368051E+06 -9.478015E+01  5.880615E+04  1.717436E+04 -4.145068E+04 -1.142495E+00
        11   2  2.348302E+06  3.037914E+04  1.036060E+05 -4.778819E+04 -9.531159E+04  7.310109E+00
        11   3  2.367846E+06  1.901665E+05  2.157105E+05 -1.127543E+05 -1.491724E+05  2.699442E+01
        11   4  2.368051E+06 -9.533236E+01  5.880607E+04 -3.209634E-09 -4.145068E+04 -7.757702E-10
        11   5  2.348300E+06  3.037487E+04  1.036054E+05  2.115593E-09 -9.531159E+04 -1.208866E-09
        11   6  2.367832E+06  1.901427E+05  2.157071E+05 -5.785834E-09 -1.491724E+05 -4.018807E-10
        11   7  2.368051E+06 -9.478015E+01  5.880615E+04 -1.717436E+04 -4.145068E+04  1.142495E+00
        11   8  2.348302E+06  3.037914E+04  1.036060E+05  4.778819E+04 -9.531159E+04 -7.310109E+00
        11   9  2.367846E+06  1.901665E+05  2.157105E+05  1.127543E+05 -1.491724E+05 -2.699442E+01
        11  10  2.368049E+06 -9.523925E+01  5.880293E+04  1.717436E+04 -6.337562E-11 -2.311016E-10
        11  11  2.348292E+06  3.037671E+04  1.035890E+05 -4.778819E+04 -9.655952E-10 -8.935220E-10
        11  12  2.367822E+06  1.901606E+05  2.156689E+05 -1.127543E+05 -1.787440E-10 -4.250760E-10
        11  13  2.368049E+06 -9.579146E+01  5.880285E+04  1.211823E-09  1.111771E-09 -5.134061E-10
        11  14  2.348290E+06  3.037244E+04  1.035884E+05 -2.630008E-09 -3.339031E-09 -3.539090E-10
        11  15  2.367808E+06  1.901368E+05  2.156655E+05  5.521188E-10  1.542321E-09 -9.235491E-11
        11  16  2.368049E+06 -9.523925E+01  5.880293E+04 -1.717436E+04 -2.828512E-10 -8.854900E-10
        11  17  2.348292E+06  3.037671E+04  1.035890E+05  4.778819E+04  1.010605E-09  3.241337E-10
        11  18  2.367822E+06  1.901606E+05  2.156689E+05  1.127543E+05 -7.056801E-10  1.793004E-10
        11  19  2.368051E+06 -9.478015E+01  5.880615E+04  1.717436E+04  4.145068E+04  1.142495E+00
        11  20  2.348302E+06  3.037914E+04  1.036060E+05 -4.778819E+04  9.531159E+04 -7.310109E+00
        11  21  2.367846E+06  1.901665E+05  2.157105E+05 -1.127543E+05  1.491724E+05 -2.699442E+01
        11  22  2.368051E+06 -9.533236E+01  5.880607E+04 -2.034753E-09  4.145068E+04 -2.516067E-10
        11  23  2.348300E+06  3.037487E+04  1.036054E+05  2.322063E-09  9.531159E+04  5.141931E-10
        11  24  2.367832E+06  1.901427E+05  2.157071E+05 -5.747685E-09  1.491724E+05  2.279355E-10
        11  25  2.368051E+06 -9.478015E+01  5.880615E+04 -1.717436E+04  4.145068E+04 -1.142495E+00
        11  26  2.348302E+06  3.037914E+04  1.036060E+05  4.778819E+04  9.531159E+04  7.310109E+00
        11  27  2.367846E+06  1.901665E+05  2.157105E+05  1.127543E+05  1.491724E+05  2.699442E+01
        12   1 -1.458929E+06 -4.644894E+06 -1.471456E+06  1.066742E+06 -5.337050E+04 -5.245586E+05
        12   2 -8.805376E+05 -3.633166E+06 -9.082925E+05  8.160755E+05 -1.588248E+05 -2.540589E+05
        12   3 -5.836272E+05 -2.725463E+06 -5.923392E+05  8.123765E+05 -1.494536E+05  1.687369E+04
        12   4 -3.732955E+05 -2.733595E+05 -4.245458E+05  8.514588E+05 -5.277315E+04 -2.915865E+05
        12   5 -5.901133E+04 -2.344521E+05 -2.049757E+05  7.275398E+05 -1.585608E+05 -1.848132E+05
        12   6  3.246777E+03 -2.712335E+05 -1.177600E+05  8.507263E+05 -1.496976E+05 -7.806752E+04
        12   7  7.111589E+05  4.115995E+06  6.212456E+05  6.346256E+05 -5.234157E+04 -5.696600E+04
        12   8  7.618160E+05  3.175285E+06  4.977375E+05  6.384968E+05 -1.583177E+05 -1.151913E+05
        12   9  5.897712E+05  2.188825E+06  3.565727E+05  8.892236E+05 -1.499526E+05 -1.733763E+05
        12  10 -1.459007E+06 -4.645192E+06 -1.471982E+06  1.066719E+06 -1.676686E-09 -2.592948E-09
        12  11 -8.805820E+05 -3.633243E+06 -9.084616E+05  8.160429E+05 -1.982501E-09 -1.671071E-10
        12  12 -5.836513E+05 -2.725470E+06 -5.923817E+05  8.123786E+05 -5.576306E-10  1.943890E-09
        12  13 -3.733213E+05 -2.734515E+05 -4.247108E+05  8.514464E+05 -1.663716E-09 -1.780387E-11
        12  14 -5.904745E+04 -2.344955E+05 -2.050870E+05  7.275162E+05 -2.952740E-09  2.420312E-10
        12  15  3.221102E+03 -2.712461E+05 -1.178135E+05  8.507168E+05 -2.523678E-09  5.372261E-11
        12  16  7.111551E+05  4.115991E+06  6.212344E+05  6.346232E+05 -5.352524E-10  2.575178E-09
        12  17  7.617856E+05  3.175264E+06  4.976657E+05  6.384821E+05 -1.377244E-09  2.824495E-10
        12  18  5.897390E+05  2.188787E+06  3.564744E+05  8.892027E+05 -2.023938E-09 -2.050686E-09
        12  19 -1.458929E+06 -4.644894E+06 -1.471456E+06  1.066742E+06  5.337050E+04  5.245586E+05
        12  20 -8.805376E+05 -3.633166E+06 -9.082925E+05  8.160755E+05  1.588248E+05  2.540589E+05
        12  21 -5.836272E+05 -2.725463E+06 -5.923392E+05  8.123765E+05  1.494536E+05 -1.687369E+04
        12  22 -3.732955E+05 -2.733595E+05 -4.245458E+05  8.514588E+05  5.277315E+04  2.915865E+05
        12  23 -5.901133E+04 -2.344521E+05 -2.049757E+05  7.275398E+05  1.585608E+05  1.848132E+05
        12  24  3.246777E+03 -2.712335E+05 -1.177600E+05  8.507263E+05  1.496976E+05  7.806752E+04
        12  25  7.111589E+05  4.115995E+06  6.212456E+05  6.346256E+05  5.234157E+04  5.696600E+04
        12  26  7.618160E+05  3.175285E+06  4.977375E+05  6.384968E+05  1.583177E+05  1.151913E+05
        12  27  5.897712E+05  2.188825E+06  3.565727E+05  8.892236E+05  1.499526E+05  1.733763E+05
        13   1 -4.403728E+05 -2.056194E+06 -4.411819E+05  8.541917E+05 -1.102564E+05  1.313180E+04
        13   2 -1.975048E+05 -1.092152E+06 -2.182822E+05  7.241995E+05 -5.622312E+04  4.751021E+04
        13   3  3.107542E+04 -1.363566E+05 -2.175616E+04  8.479910E+05  7.460643E+02  8.189299E+04
        13   4 -1.034856E+04 -2.557318E+05 -9.382771E+04  8.523011E+05 -1.104836E+05 -6.232985E+04
        13   5  2.307144E+03 -2.512836E+05 -6.075489E+04  7.253964E+05 -5.649055E+04 -3.215123E+04
        13   6  1.477694E+03 -2.552068E+05 -5.106666E+04  8.522604E+05  4.346341E+02 -2.019167E+03
        13   7  4.194859E+05  1.547867E+06  2.533974E+05  8.504004E+05 -1.107099E+05 -1.380057E+05
        13   8  2.020816E+05  5.902833E+05  9.676577E+04  7.265941E+05 -5.675804E+04 -1.119180E+05
        13   9 -2.811723E+04 -3.740290E+05 -8.035173E+04  8.565291E+05  1.220113E+02 -8.591528E+04
        13  10 -4.403859E+05 -2.056197E+06 -4.412050E+05  8.541929E+05  2.438138E-10 -1.748262E-09
        13  11 -1.975088E+05 -1.092155E+06 -2.182924E+05  7.242016E+05 -4.074156E-09 -2.457845E-09
        13  12  3.107362E+04 -1.363638E+05 -2.176877E+04  8.479909E+05 -2.253740E-10 -3.517668E-09
        13  13 -1.036269E+04 -2.557392E+05 -9.385791E+04  8.522956E+05  5.573393E-11  4.930424E-11
        13  14  2.303443E+03 -2.512856E+05 -6.076282E+04  7.253950E+05 -1.485420E-09  4.066653E-10
        13  15  1.477692E+03 -2.552068E+05 -5.106667E+04  8.522604E+05  7.525133E-10  9.443371E-11
        13  16  4.194677E+05  1.547843E+06  2.533388E+05  8.503882E+05 -2.445033E-09  2.125408E-09
        13  17  2.020748E+05  5.902690E+05  9.673624E+04  7.265890E+05  5.873961E-10  2.603000E-09
        13  18 -2.811921E+04 -3.740369E+05 -8.036561E+04  8.565291E+05  8.197721E-10  3.254576E-09
        13  19 -4.403728E+05 -2.056194E+06 -4.411819E+05  8.541917E+05  1.102564E+05 -1.313180E+04
        13  20 -1.975048E+05 -1.092152E+06 -2.182822E+05  7.241995E+05  5.622312E+04 -4.751021E+04
        13  21  3.107542E+04 -1.363566E+05 -2.175616E+04  8.479910E+05 -7.460643E+02 -8.189299E+04
        13  22 -1.034856E+04 -2.557318E+05 -9.382771E+04  8.523011E+05  1.104836E+05  6.232985E+04
        13  23  2.307144E+03 -2.512836E+05 -6.075489E+04  7.253964E+05  5.649055E+04  3.215123E+04
        13  24  1.477694E+03 -2.552068E+05 -5.106666E+04  8.522604E+05 -4.346341E+02  2.019167E+03
        13  25  4.194859E+05  1.547867E+06  2.533974E+05  8.504004E+05  1.107099E+05  1.380057E+05
        13  26  2.020816E+05  5.902833E+05  9.676577E+04  7.265941E+05  5.675804E+04  1.119180E+05
        13  27 -2.811723E+04 -3.740290E+05 -8.035173E+04  8.565291E+05 -1.220113E+02  8.591528E+04
        14   1  1.905958E+05  5.140780E+05  1.040551E+05  8.620604E+05  4.030568E+04  1.016358E+05
        14   2  4.039418E+05  1.478262E+06  2.978094E+05  7.019129E+05  6.980731E+04  3.140712E+04
        14   3  5.625566E+05  2.438227E+06  5.232931E+05  7.915650E+05  2.623963E+04 -3.881391E+04
        14   4  4.850620E+03 -2.586642E+05 -5.169338E+04  8.513632E+05  3.995816E+04  6.036427E+03
        14   5 -1.390059E+04 -2.474896E+05 -6.793290E+04  7.265610E+05  6.985455E+04  4.113744E+04
        14   6 -1.057069E+05 -2.597371E+05 -1.255698E+05  8.516586E+05  2.658056E+04  7.635188E+04
        14   7 -1.809262E+05 -1.030818E+06 -2.074381E+05  8.406787E+05  3.961364E+04 -8.944636E+04
        14   8 -4.319331E+05 -1.970434E+06 -4.338442E+05  7.511359E+05  6.990265E+04  5.084106E+04
        14   9 -7.744781E+05 -2.951018E+06 -7.748990E+05  9.114819E+05  2.694475E+04  1.910200E+05
        14  10  1.905913E+05  5.140665E+05  1.040326E+05  8.620571E+05  1.246218E-09 -2.775713E-08
        14  11  4.039363E+05  1.478259E+06  2.977984E+05  7.019111E+05  1.008912E-09 -1.544078E-09
        14  12  5.625554E+05  2.438225E+06  5.232890E+05  7.915658E+05 -5.119636E-10  2.380289E-08
        14  13  4.848896E+03 -2.586647E+05 -5.169644E+04  8.513630E+05 -1.927732E-10  8.917289E-11
        14  14 -1.390628E+04 -2.474928E+05 -6.794524E+04  7.265587E+05  1.696483E-09  3.501201E-10
        14  15 -1.057092E+05 -2.597435E+05 -1.255820E+05  8.516569E+05 -7.090886E-11  1.834462E-11
        14  16 -1.809301E+05 -1.030827E+06 -2.074561E+05  8.406816E+05 -1.718051E-11  2.818634E-08
        14  17 -4.319391E+05 -1.970439E+06 -4.338582E+05  7.511331E+05  9.743673E-10  1.825125E-09
        14  18 -7.744887E+05 -2.951058E+06 -7.749692E+05  9.114777E+05 -2.056512E-10 -2.384075E-08
        14  19  1.905958E+05  5.140780E+05  1.040551E+05  8.620604E+05 -4.030568E+04 -1.016358E+05
        14  20  4.039418E+05  1.478262E+06  2.978094E+05  7.019129E+05 -6.980731E+04 -3.140712E+04
        14  21  5.625566E+05  2.438227E+06  5.232931E+05  7.915650E+05 -2.623963E+04  3.881391E+04
        14  22  4.850620E+03 -2.586642E+05 -5.169338E+04  8.513632E+05 -3.995816E+04 -6.036427E+03
        14  23 -1.390059E+04 -2.474896E+05 -6.793290E+04  7.265610E+05 -6.985455E+04 -4.113744E+04
        14  24 -1.057069E+05 -2.597371E+05 -1.255698E+05  8.516586E+05 -2.658056E+04 -7.635188E+04
        14  25 -1.809262E+05 -1.030818E+06 -2.074381E+05  8.406787E+05 -3.961364E+04  8.944636E+04
        14  26 -4.319331E+05 -1.970434E+06 -4.338442E+05  7.511359E+05 -6.990265E+04 -5.084106E+04
        14  27 -7.744781E+05 -2.951018E+06 -7.748990E+05  9.114819E+05 -2.694475E+04 -1.910200E+05
        15   1  1.804279E+06  8.642533E+04  9.813330E+04  5.127290E+04  6.718101E+04  5.532952E+00
        15   2  1.795365E+06  1.378064E+04  4.762495E+04  2.178034E+04  4.243751E+04  1.484702E+00
        15   3  1.804352E+06 -7.646991E+01  2.788934E+04 -7.711036E+03  1.769434E+04 -2.191619E-01
        15   4  1.804276E+06  8.642040E+04  9.813260E+04  1.996975E-09  6.718101E+04  6.624396E-11
        15   5  1.795365E+06  1.377975E+04  4.762482E+04  1.529303E-09  4.243751E+04  4.231971E-11
        15   6  1.804352E+06 -7.658133E+01  2.788932E+04  3.339237E-09  1.769434E+04 -2.287438E-10
        15   7  1.804279E+06  8.642533E+04  9.813330E+04 -5.127290E+04  6.718101E+04 -5.532952E+00
        15   8  1.795365E+06  1.378064E+04  4.762495E+04 -2.178034E+04  4.243751E+04 -1.484702E+00
        15   9  1.804352E+06 -7.646991E+01  2.788934E+04  7.711036E+03  1.769434E+04  2.191619E-01
        15  10  1.804274E+06  8.642412E+04  9.812485E+04  5.127290E+04  4.782724E-11  1.509768E-10
        15  11  1.795363E+06  1.378016E+04  4.762158E+04  2.178034E+04  4.479520E-10  3.121244E-10
        15  12  1.804351E+06 -7.655366E+01  2.788875E+04 -7.711036E+03  1.425513E-09 -1.262018E-10
        15  13  1.804271E+06  8.641919E+04  9.812414E+04  2.055954E-09 -1.104882E-10  2.652273E-12
        15  14  1.795363E+06  1.377927E+04  4.762145E+04 -5.798425E-10 -1.616681E-09  9.325874E-11
        15  15  1.804351E+06 -7.666508E+01  2.788874E+04 -1.590555E-09  2.344486E-09  2.479985E-10
        15  16  1.804274E+06  8.642412E+04  9.812485E+04 -5.127290E+04  1.335228E-09 -1.873627E-10
        15  17  1.795363E+06  1.378016E+04  4.762158E+04 -2.178034E+04  5.453733E-10 -1.430560E-10
        15  18  1.804351E+06 -7.655366E+01  2.788875E+04  7.711036E+03  9.260457E-10  6.963024E-10
        15  19  1.804279E+06  8.642533E+04  9.813330E+04  5.127290E+04 -6.718101E+04 -5.532952E+00
        15  20  1.795365E+06  1.378064E+04  4.762495E+04  2.178034E+04 -4.243751E+04 -1.484702E+00
        15  21  1.804352E+06 -7.646991E+01  2.788934E+04 -7.711036E+03 -1.769434E+04  2.191619E-01
        15  22  1.804276E+06  8.642040E+04  9.813260E+04 -9.540775E-11 -6.718101E+04 -3.836610E-11
        15  23  1.795365E+06  1.377975E+04  4.762482E+04 -2.145907E-09 -4.243751E+04  1.368238E-10
        15  24  1.804352E+06 -7.658133E+01  2.788932E+04  2.164784E-09 -1.769434E+04  7.035041E-10
        15  25  1.804279E+06  8.642533E+04  9.813330E+04 -5.127290E+04 -6.718101E+04  5.532952E+00
        15  26  1.795365E+06  1.378064E+04  4.762495E+04 -2.178034E+04 -4.243751E+04  1.484702E+00
        15  27  1.804352E+06 -7.646991E+01  2.788934E+04  7.711036E+03 -1.769434E+04 -2.191619E-01
        16   1  1.800746E+06  3.256321E+03  2.255926E+04  1.308959E+03  1.385550E+04  2.913189E-02
        16   2  1.799894E+06  1.688964E+02  1.554253E+04  5.106383E+02  6.116705E+03  5.017086E-03
        16   3  1.800751E+06 -1.026786E+02  1.425746E+04 -2.876959E+02 -1.622177E+03  7.496392E-04
        16   4  1.800746E+06  3.256318E+03  2.255926E+04 -3.734270E-09  1.385550E+04  2.447062E-10
        16   5  1.799894E+06  1.688959E+02  1.554253E+04 -3.638464E-09  6.116705E+03  1.240980E-09
        16   6  1.800751E+06 -1.026787E+02  1.425746E+04 -7.466354E-09 -1.622177E+03  6.889136E-10
        16   7  1.800746E+06  3.256321E+03  2.255926E+04 -1.308959E+03  1.385550E+04 -2.913189E-02
        16   8  1.799894E+06  1.688964E+02  1.554253E+04 -5.106383E+02  6.116705E+03 -5.017083E-03
        16   9  1.800751E+06 -1.026786E+02  1.425746E+04  2.876959E+02 -1.622177E+03 -7.496380E-04
        16  10  1.800746E+06  3.256270E+03  2.255890E+04  1.308959E+03 -1.466188E-10  2.571836E-12
        16  11  1.799894E+06  1.688864E+02  1.554246E+04  5.106383E+02 -3.148102E-09  9.134120E-10
        16  12  1.800751E+06 -1.026793E+02  1.425745E+04 -2.876959E+02 -2.507174E-09  1.263464E-09
        16  13  1.800746E+06  3.256267E+03  2.255890E+04 -5.434764E-09  3.919140E-09  6.011600E-10
        16  14  1.799894E+06  1.688859E+02  1.554246E+04  2.945978E-09  2.787766E-09  1.173287E-09
        16  15  1.800751E+06 -1.026794E+02  1.425745E+04 -3.778592E-09 -4.447305E-10  1.081504E-09
        16  16  1.800746E+06  3.256270E+03  2.255890E+04 -1.308959E+03  2.276884E-09  1.208336E-09
        16  17  1.799894E+06  1.688864E+02  1.554246E+04 -5.106383E+02  3.342515E-09  1.391966E-09
        16  18  1.800751E+06 -1.026793E+02  1.425745E+04  2.876959E+02  2.840544E-09  9.702107E-10
        16  19  1.800746E+06  3.256321E+03  2.255926E+04  1.308959E+03 -1.385550E+04 -2.913189E-02
        16  20  1.799894E+06  1.688964E+02  1.554253E+04  5.106383E+02 -6.116705E+03 -5.017084E-03
        16  21  1.800751E+06 -1.026786E+02  1.425746E+04 -2.876959E+02  1.622177E+03 -7.496370E-04
        16  22  1.800746E+06  3.256318E+03  2.255926E+04 -1.788659E-09 -1.385550E+04  9.472692E-10
        16  23  1.799894E+06  1.688959E+02  1.554253E+04  5.741453E-09 -6.116705E+03  1.073988E-09
        16  24  1.800751E+06 -1.026787E+02  1.425746E+04  2.788815E-09  1.622177E+03  1.493468E-09
        16  25  1.800746E+06  3.256321E+03  2.255926E+04 -1.308959E+03 -1.385550E+04  2.913189E-02
        16  26  1.799894E+06  1.688964E+02  1.554253E+04 -5.106383E+02 -6.116705E+03  5.017086E-03
        16  27  1.800751E+06 -1.026786E+02  1.425746E+04  2.876959E+02  1.622177E+03  7.496400E-04
        17   1  1.800922E+06 -2.068411E+02  1.525920E+04  8.958387E+02 -4.224611E+03 -6.079059E-03
        17   2  1.799678E+06  3.986325E+02  2.103860E+04 -5.314607E+02 -1.471308E+04  1.256017E-02
        17   3  1.800910E+06  5.458542E+03  3.474585E+04 -1.958753E+03 -2.520166E+04  7.929197E-02
        17   4  1.800922E+06 -2.068426E+02  1.525920E+04 -1.225047E-08 -4.224611E+03  6.006089E-10
        17   5  1.799678E+06  3.986320E+02  2.103860E+04 -6.659892E-09 -1.471308E+04  1.158313E-09
        17   6  1.800910E+06  5.458535E+03  3.474585E+04 -1.611140E-08 -2.520166E+04  3.785363E-10
        17   7  1.800922E+06 -2.068411E+02  1.525920E+04 -8.958387E+02 -4.224611E+03  6.079060E-03
        17   8  1.799678E+06  3.986325E+02  2.103860E+04  5.314607E+02 -1.471308E+04 -1.256017E-02
        17   9  1.800910E+06  5.458542E+03  3.474585E+04  1.958753E+03 -2.520166E+04 -7.929197E-02
        17  10  1.800922E+06 -2.068459E+02  1.525917E+04  8.958387E+02 -2.263635E-09  1.147701E-09
        17  11  1.799678E+06  3.985746E+02  2.103819E+04 -5.314607E+02 -4.886899E-09  8.629516E-10
        17  12  1.800909E+06  5.458372E+03  3.474466E+04 -1.958753E+03 -4.965040E-09  5.969491E-10
        17  13  1.800922E+06 -2.068474E+02  1.525917E+04 -3.325148E-09 -1.685222E-11  1.138390E-09
        17  14  1.799678E+06  3.985741E+02  2.103819E+04  2.443534E-10 -3.164024E-09  1.358543E-09
        17  15  1.800909E+06  5.458365E+03  3.474466E+04 -1.939916E-10 -1.881049E-09  7.723642E-10
        17  16  1.800922E+06 -2.068459E+02  1.525917E+04 -8.958387E+02  2.412118E-09  1.197169E-09
        17  17  1.799678E+06  3.985746E+02  2.103819E+04  5.314607E+02  3.809128E-09  1.767822E-09
        17  18  1.800909E+06  5.458372E+03  3.474466E+04  1.958753E+03  1.585685E-09  9.091702E-10
        17  19  1.800922E+06 -2.068411E+02  1.525920E+04  8.958387E+02  4.224611E+03  6.079061E-03
        17  20  1.799678E+06  3.986325E+02  2.103860E+04 -5.314607E+02  1.471308E+04 -1.256017E-02
        17  21  1.800910E+06  5.458542E+03  3.474585E+04 -1.958753E+03  2.520166E+04 -7.929197E-02
        17  22  1.800922E+06 -2.068426E+02  1.525920E+04  4.492936E-09  4.224611E+03  1.680750E-09
        17  23  1.799678E+06  3.986320E+02  2.103860E+04  1.041554E-08  1.471308E+04  1.535439E-09
        17  24  1.800910E+06  5.458535E+03  3.474585E+04  1.096627E-08  2.520166E+04  1.185876E-09
        17  25  1.800922E+06 -2.068411E+02  1.525920E+04 -8.958387E+02  4.224611E+03 -6.079058E-03
        17  26  1.799678E+06  3.986325E+02  2.103860E+04  5.314607E+02  1.471308E+04  1.256018E-02
        17  27  1.800910E+06  5.458542E+03  3.474585E+04  1.958753E+03  2.520166E+04  7.929198E-02
        18   1  1.806947E+06 -7.758268E+01  4.427748E+04  1.292484E+04 -3.114875E+04 -6.466698E-01
        18   2  1.792094E+06  2.285165E+04  7.797934E+04 -3.594906E+04 -7.168238E+04  4.139312E+00
        18   3  1.806829E+06  1.431301E+05  1.623563E+05 -8.482426E+04 -1.122154E+05  1.528962E+01
        18   4  1.806947E+06 -7.789570E+01  4.427744E+04  1.140467E-07 -3.114875E+04 -8.792689E-10
        18   5  1.792093E+06  2.284923E+04  7.797900E+04 -1.116483E-08 -7.168238E+04 -2.058802E-09
        18   6  1.806821E+06  1.431166E+05  1.623544E+05 -1.411187E-07 -1.122154E+05 -6.864726E-10
        18   7  1.806947E+06 -7.758268E+01  4.427748E+04 -1.292484E+04 -3.114875E+04  6.466698E-01
        18   8  1.792094E+06  2.285165E+04  7.797934E+04  3.594906E+04 -7.168238E+04 -4.139312E+00
        18   9  1.806829E+06  1.431301E+05  1.623563E+05  8.482426E+04 -1.122154E+05 -1.528962E+01
        18  10  1.806946E+06 -7.784222E+01  4.427567E+04  1.292484E+04 -5.404434E-08 -6.013782E-10
        18  11  1.792089E+06  2.285028E+04  7.796971E+04 -3.594906E+04 -4.697566E-09 -2.404775E-09
        18  12  1.806816E+06  1.431267E+05  1.623327E+05 -8.482426E+04  4.659070E-08 -1.018677E-09
        18  13  1.806946E+06 -7.815524E+01  4.427562E+04 -6.235201E-10 -6.229003E-10 -3.260142E-10
        18  14  1.792088E+06  2.284786E+04  7.796937E+04  6.143170E-10  2.374444E-09 -1.652618E-09
        18  15  1.806808E+06  1.431133E+05  1.623308E+05  2.660642E-09  1.501030E-09 -6.944297E-10
        18  16  1.806946E+06 -7.784222E+01  4.427567E+04 -1.292484E+04  5.208229E-08 -9.399857E-11
        18  17  1.792089E+06  2.285028E+04  7.796971E+04  3.594906E+04  4.108081E-09 -8.886973E-10
        18  18  1.806816E+06  1.431267E+05  1.623327E+05  8.482426E+04 -4.631369E-08 -3.444069E-10
        18  19  1.806947E+06 -7.758268E+01  4.427748E+04  1.292484E+04  3.114875E+04  6.466698E-01
        18  20  1.792094E+06  2.285165E+04  7.797934E+04 -3.594906E+04  7.168238E+04 -4.139312E+00
        18  21  1.806829E+06  1.431301E+05  1.623563E+05 -8.482426E+04  1.122154E+05 -1.528962E+01
        18  22  1.806947E+06 -7.789570E+01  4.427744E+04 -1.229095E-07  3.114875E+04  2.068542E-10
        18  23  1.792093E+06  2.284923E+04  7.797900E+04  1.347125E-08  7.168238E+04 -1.196096E-09
        18  24  1.806821E+06  1.431166E+05  1.623544E+05  1.330011E-07  1.122154E+05 -6.429248E-10
        18  25  1.806947E+06 -7.758268E+01  4.427748E+04 -1.292484E+04  3.114875E+04 -6.466698E-01
        18  26  1.792094E+06  2.285165E+04  7.797934E+04  3.594906E+04  7.168238E+04  4.139312E+00
        18  27  1.806829E+06  1.431301E+05  1.623563E+05  8.482426E+04  1.122154E+05  1.528962E+01
        19   1 -1.061237E+06 -3.331747E+06 -1.071052E+06  7.593337E+05 -3.857601E+04 -3.864711E+05
        19   2 -6.411665E+05 -2.619284E+06 -6.638958E+05  5.778739E+05 -1.158133E+05 -1.886155E+05
        19   3 -4.305266E+05 -1.984134E+06 -4.382830E+05  5.696231E+05 -1.104411E+05  9.464395E+03
        19   4 -2.782806E+05 -1.766354E+05 -3.163424E+05  5.974997E+05 -3.826243E+04 -2.166005E+05
        19   5 -4.414006E+04 -1.476805E+05 -1.532453E+05  5.106625E+05 -1.156722E+05 -1.368525E+05
        19   6  1.622051E+03 -1.755534E+05 -8.906599E+04  5.971083E+05 -1.105615E+05 -5.711785E+04
        19   7  5.040698E+05  2.987754E+06  4.377881E+05  4.348294E+05 -3.803901E+04 -4.586472E+04
        19   8  5.525187E+05  2.329748E+06  3.570876E+05  4.431734E+05 -1.155428E+05 -8.488552E+04
        19   9  4.335809E+05  1.636190E+06  2.600159E+05  6.246727E+05 -1.106874E+05 -1.238899E+05
        19  10 -1.061279E+06 -3.331909E+06 -1.071337E+06  7.593217E+05  2.406618E-10 -1.188640E-09
        19  11 -6.411905E+05 -2.619326E+06 -6.639881E+05  5.778563E+05 -1.622121E-09  9.883014E-10
        19  12 -4.305397E+05 -1.984137E+06 -4.383061E+05  5.696239E+05  1.190687E-09  2.343679E-09
        19  13 -2.782947E+05 -1.766862E+05 -3.164333E+05  5.974930E+05 -1.380996E-09 -5.015304E-11
        19  14 -4.415944E+04 -1.477041E+05 -1.533056E+05  5.106497E+05  5.813238E-10  1.685652E-11
        19  15  1.608058E+03 -1.755601E+05 -8.909506E+04  5.971033E+05 -1.087208E-09 -2.933484E-10
        19  16  5.040677E+05  2.987751E+06  4.377814E+05  4.348280E+05 -1.859470E-09  1.248929E-09
        19  17  5.525024E+05  2.329737E+06  3.570491E+05  4.431656E+05 -1.309158E-09 -9.012161E-10
        19  18  4.335637E+05  1.636170E+06  2.599641E+05  6.246616E+05 -1.065572E-09 -2.308249E-09
        19  19 -1.061237E+06 -3.331747E+06 -1.071052E+06  7.593337E+05  3.857601E+04  3.864711E+05
        19  20 -6.411665E+05 -2.619284E+06 -6.638958E+05  5.778739E+05  1.158133E+05  1.886155E+05
        19  21 -4.305266E+05 -1.984134E+06 -4.382830E+05  5.696231E+05  1.104411E+05 -9.464395E+03
        19  22 -2.782806E+05 -1.766354E+05 -3.163424E+05  5.974997E+05  3.826243E+04  2.166005E+05
        19  23 -4.414006E+04 -1.476805E+05 -1.532453E+05  5.106625E+05  1.156722E+05  1.368525E+05
        19  24  1.622051E+03 -1.755534E+05 -8.906599E+04  5.971083E+05  1.105615E+05  5.711785E+04
        19  25  5.040698E+05  2.987754E+06  4.377881E+05  4.348294E+05  3.803901E+04  4.586472E+04
        19  26  5.525187E+05  2.329748E+06  3.570876E+05  4.431734E+05  1.155428E+05  8.488552E+04
        19  27  4.335809E+05  1.636190E+06  2.600159E+05  6.246727E+05  1.106874E+05  1.238899E+05
        20   1 -3.307550E+05 -1.513551E+06 -3.316098E+05  6.005991E+05 -8.296306E+04  7.449979E+03
        20   2 -1.598731E+05 -8.365787E+05 -1.750343E+05  5.085215E+05 -4.522244E+04  3.492874E+04
        20   3 -6.733332E+02 -1.662182E+05 -3.948159E+04  5.945149E+05 -5.120506E+03  6.240958E+04
        20   4 -8.625715E+03 -1.640748E+05 -7.168356E+04  5.982209E+05 -8.307475E+04 -4.507005E+04
        20   5  6.999147E+02 -1.607044E+05 -4.843965E+04  5.091798E+05 -4.535707E+04 -2.097046E+04
        20   6 -1.031969E+03 -1.637792E+05 -4.383254E+04  5.982015E+05 -5.280142E+03  3.102694E+03
        20   7  3.133970E+05  1.187163E+06  1.881688E+05  5.958356E+05 -8.318587E+04 -9.770176E+04
        20   8  1.612482E+05  5.156189E+05  7.814707E+04  5.098384E+05 -4.549172E+04 -7.692903E+04
        20   9 -1.388662E+03 -1.613326E+05 -4.817023E+04  6.018882E+05 -5.440481E+03 -5.620424E+04
        20  10 -3.307624E+05 -1.513553E+06 -3.316228E+05  6.005996E+05  1.947169E-11 -8.594429E-10
        20  11 -1.598756E+05 -8.365806E+05 -1.750405E+05  5.085228E+05 -1.465157E-09  2.727503E-09
        20  12 -6.744079E+02 -1.662224E+05 -3.948896E+04  5.945151E+05  5.475349E-11  2.877295E-09
        20  13 -8.633665E+03 -1.640788E+05 -7.170033E+04  5.982178E+05 -1.745955E-09 -3.681079E-10
        20  14  6.975888E+02 -1.607054E+05 -4.844433E+04  5.091790E+05 -1.821956E-09  2.882664E-11
        20  15 -1.032002E+03 -1.637792E+05 -4.383261E+04  5.982015E+05 -2.320660E-10 -4.294025E-10
        20  16  3.133870E+05  1.187151E+06  1.881380E+05  5.958290E+05  5.339847E-10  1.069357E-09
        20  17  1.612443E+05  5.156120E+05  7.813208E+04  5.098356E+05 -1.677262E-09 -2.403333E-09
        20  18 -1.389541E+03 -1.613360E+05 -4.817622E+04  6.018880E+05  2.970775E-10 -2.856875E-09
        20  19 -3.307550E+05 -1.513551E+06 -3.316098E+05  6.005991E+05  8.296306E+04 -7.449979E+03
        20  20 -1.598731E+05 -8.365787E+05 -1.750343E+05  5.085215E+05  4.522244E+04 -3.492874E+04
        20  21 -6.733332E+02 -1.662182E+05 -3.948159E+04  5.945149E+05  5.120506E+03 -6.240958E+04
        20  22 -8.625715E+03 -1.640748E+05 -7.168356E+04  5.982209E+05  8.307475E+04  4.507005E+04
        20  23  6.999147E+02 -1.607044E+05 -4.843965E+04  5.091798E+05  4.535707E+04  2.097046E+04
        20  24 -1.031969E+03 -1.637792E+05 -4.383254E+04  5.982015E+05  5.280142E+03 -3.102694E+03
        20  25  3.133970E+05  1.187163E+06  1.881688E+05  5.958356E+05  8.318587E+04  9.770176E+04
        20  26  1.612482E+05  5.156189E+05  7.814707E+04  5.098384E+05  4.549172E+04  7.692903E+04
        20  27 -1.388662E+03 -1.613326E+05 -4.817023E+04  6.018882E+05  5.440481E+03  5.620424E+04
        21   1  1.124036E+05  2.888104E+05  4.700526E+04  6.072397E+05  2.264438E+04  7.724416E+04
        21   2  2.576380E+05  9.686125E+05  1.754692E+05  4.844413E+05  4.449915E+04  3.948224E+04
        21   3  3.434972E+05  1.638579E+06  3.135158E+05  5.370815E+05  1.717086E+04  1.741174E+03
        21   4  2.508594E+03 -1.674107E+05 -4.602539E+04  5.976023E+05  2.246550E+04  1.014552E+04
        21   5 -1.499189E+04 -1.563529E+05 -6.398583E+04  5.099605E+05  4.451585E+04  4.323868E+04
        21   6 -1.042103E+05 -1.679037E+05 -1.215766E+05  5.978156E+05  1.733801E+04  7.639140E+04
        21   7 -1.073967E+05 -6.234240E+05 -1.390501E+05  5.879720E+05  2.228862E+04 -5.690475E+04
        21   8 -2.877014E+05 -1.280126E+06 -3.035132E+05  5.354317E+05  4.453287E+04  4.698837E+04
        21   9 -5.521382E+05 -1.971386E+06 -5.568787E+05  6.583697E+05  1.752007E+04  1.508254E+05
        21  10  1.124014E+05  2.888038E+05  4.699310E+04  6.072383E+05  1.453888E-09 -6.852778E-10
        21  11  2.576354E+05  9.686103E+05  1.754626E+05  4.844399E+05 -3.608572E-10  1.000637E-09
        21  12  3.434969E+05  1.638579E+06  3.135153E+05  5.370815E+05  2.326802E-10 -3.028664E-10
        21  13  2.508025E+03 -1.674109E+05 -4.602653E+04  5.976021E+05  1.250800E-09 -5.407743E-10
        21  14 -1.499451E+04 -1.563554E+05 -6.399306E+04  5.099590E+05 -4.708845E-10 -4.108718E-11
        21  15 -1.042122E+05 -1.679100E+05 -1.215881E+05  5.978145E+05 -4.458581E-10 -2.411835E-10
        21  16 -1.073981E+05 -6.234276E+05 -1.390571E+05  5.879730E+05  7.823105E-10  8.274508E-10
        21  17 -2.877041E+05 -1.280128E+06 -3.035210E+05  5.354300E+05 -1.474927E-09 -8.846921E-10
        21  18 -5.521447E+05 -1.971410E+06 -5.569222E+05  6.583676E+05  3.198040E-10  3.063300E-10
        21  19  1.124036E+05  2.888104E+05  4.700526E+04  6.072397E+05 -2.264438E+04 -7.724416E+04
        21  20  2.576380E+05  9.686125E+05  1.754692E+05  4.844413E+05 -4.449915E+04 -3.948224E+04
        21  21  3.434972E+05  1.638579E+06  3.135158E+05  5.370815E+05 -1.717086E+04 -1.741174E+03
        21  22  2.508594E+03 -1.674107E+05 -4.602539E+04  5.976023E+05 -2.246550E+04 -1.014552E+04
        21  23 -1.499189E+04 -1.563529E+05 -6.398583E+04  5.099605E+05 -4.451585E+04 -4.323868E+04
        21  24 -1.042103E+05 -1.679037E+05 -1.215766E+05  5.978156E+05 -1.733801E+04 -7.639140E+04
        21  25 -1.073967E+05 -6.234240E+05 -1.390501E+05  5.879720E+05 -2.228862E+04  5.690475E+04
        21  26 -2.877014E+05 -1.280126E+06 -3.035132E+05  5.354317E+05 -4.453287E+04 -4.698837E+04
        21  27 -5.521382E+05 -1.971386E+06 -5.568787E+05  6.583697E+05 -1.752007E+04 -1.508254E+05
        22   1  1.383814E+06  6.522217E+04  7.405871E+04  3.867918E+04  5.067587E+04  3.150510E+00
        22   2  1.377078E+06  1.039482E+04  3.594256E+04  1.643028E+04  3.200431E+04  8.451962E-01
        22   3  1.383856E+06 -5.999721E+01  2.105675E+04 -5.818524E+03  1.333244E+04 -1.246871E-01
        22   4  1.383813E+06  6.521936E+04  7.405831E+04  4.643299E-09  5.067587E+04  2.039386E-10
        22   5  1.377078E+06  1.039431E+04  3.594249E+04  1.942427E-09  3.200431E+04  5.329790E-10
        22   6  1.383856E+06 -6.006069E+01  2.105675E+04 -2.517854E-09  1.333244E+04  1.519482E-10
        22   7  1.383814E+06  6.522217E+04  7.405871E+04 -3.867918E+04  5.067587E+04 -3.150510E+00
        22   8  1.377078E+06  1.039482E+04  3.594256E+04 -1.643028E+04  3.200431E+04 -8.451962E-01
        22   9  1.383856E+06 -5.999721E+01  2.105675E+04  5.818524E+03  1.333244E+04  1.246871E-01
        22  10  1.383811E+06  6.522148E+04  7.405390E+04  3.867918E+04 -1.492967E-09 -1.682046E-11
        22  11  1.377077E+06  1.039455E+04  3.594064E+04  1.643028E+04 -1.816975E-09 -2.120258E-10
        22  12  1.383856E+06 -6.004480E+01  2.105642E+04 -5.818524E+03 -1.381460E-10 -3.762474E-10
        22  13  1.383810E+06  6.521868E+04  7.405349E+04  4.716994E-09  5.053958E-11  6.007716E-11
        22  14  1.377077E+06  1.039404E+04  3.594057E+04  2.363272E-09 -1.245758E-09  2.026035E-11
        22  15  1.383856E+06 -6.010828E+01  2.105641E+04 -2.128660E-09  2.909951E-09 -4.029407E-10
        22  16  1.383811E+06  6.522148E+04  7.405390E+04 -3.867918E+04  1.675171E-09  1.450475E-10
        22  17  1.377077E+06  1.039455E+04  3.594064E+04 -1.643028E+04  1.300478E-09  1.968024E-10
        22  18  1.383856E+06 -6.004480E+01  2.105642E+04  5.818524E+03 -5.170206E-10 -4.920650E-10
        22  19  1.383814E+06  6.522217E+04  7.405871E+04  3.867918E+04 -5.067587E+04 -3.150510E+00
        22  20  1.377078E+06  1.039482E+04  3.594256E+04  1.643028E+04 -3.200431E+04 -8.451962E-01
        22  21  1.383856E+06 -5.999721E+01  2.105675E+04 -5.818524E+03 -1.333244E+04  1.246871E-01
        22  22  1.383813E+06  6.521936E+04  7.405831E+04  3.679409E-09 -5.067587E+04 -8.472348E-11
        22  23  1.377078E+06  1.039431E+04  3.594249E+04  3.872237E-09 -3.200431E+04 -4.839058E-10
        22  24  1.383856E+06 -6.006069E+01  2.105675E+04 -2.924338E-09 -1.333244E+04 -9.658816E-10
        22  25  1.383814E+06  6.522217E+04  7.405871E+04 -3.867918E+04 -5.067587E+04  3.150510E+00
        22  26  1.377078E+06  1.039482E+04  3.594256E+04 -1.643028E+04 -3.200431E+04  8.451962E-01
        22  27  1.383856E+06 -5.999721E+01  2.105675E+04  5.818524E+03 -1.333244E+04 -1.246871E-01
        23   1  1.381136E+06  2.456778E+03  1.703997E+04  9.888906E+02  1.043455E+04  1.658527E-02
        23   2  1.380492E+06  1.264450E+02  1.176012E+04  3.874445E+02  4.579936E+03  2.852133E-03
        23   3  1.381139E+06 -7.720034E+01  1.081736E+04 -2.140024E+02 -1.274659E+03  4.384441E-04
        23   4  1.381136E+06  2.456776E+03  1.703997E+04 -9.199035E-09  1.043455E+04 -1.259062E-10
        23   5  1.380492E+06  1.264447E+02  1.176012E+04 -6.004500E-10  4.579936E+03  4.974844E-11
        23   6  1.381139E+06 -7.720043E+01  1.081736E+04 -7.491903E-09 -1.274659E+03  6.439155E-10
        23   7  1.381136E+06  2.456778E+03  1.703997E+04 -9.888906E+02  1.043455E+04 -1.658527E-02
        23   8  1.380492E+06  1.264450E+02  1.176012E+04 -3.874445E+02  4.579936E+03 -2.852133E-03
        23   9  1.381139E+06 -7.720034E+01  1.081736E+04  2.140024E+02 -1.274659E+03 -4.384430E-04
        23  10  1.381136E+06  2.456749E+03  1.703977E+04  9.888906E+02 -1.392484E-09 -2.651835E-10
        23  11  1.380492E+06  1.264394E+02  1.176008E+04  3.874445E+02 -1.553625E-09  3.762182E-10
        23  12  1.381139E+06 -7.720077E+01  1.081736E+04 -2.140024E+02 -1.129077E-09  1.217103E-09
        23  13  1.381136E+06  2.456747E+03  1.703977E+04 -1.194894E-09 -2.657955E-10 -3.314242E-10
        23  14  1.380492E+06  1.264391E+02  1.176008E+04 -2.004116E-09 -1.384272E-09  3.207657E-10
        23  15  1.381139E+06 -7.720086E+01  1.081736E+04  7.140237E-10 -1.295991E-09  5.205442E-10
        23  16  1.381136E+06  2.456749E+03  1.703977E+04 -9.888906E+02  1.417754E-09 -4.170728E-10
        23  17  1.380492E+06  1.264394E+02  1.176008E+04 -3.874445E+02  7.863333E-10  2.921926E-10
        23  18  1.381139E+06 -7.720077E+01  1.081736E+04  2.140024E+02  5.290460E-10 -1.071244E-10
        23  19  1.381136E+06  2.456778E+03  1.703997E+04  9.888906E+02 -1.043455E+04 -1.658527E-02
        23  20  1.380492E+06  1.264450E+02  1.176012E+04  3.874445E+02 -4.579936E+03 -2.852133E-03
        23  21  1.381139E+06 -7.720034E+01  1.081736E+04 -2.140024E+02  1.274659E+03 -4.384419E-04
        23  22  1.381136E+06  2.456776E+03  1.703997E+04 -6.169991E-09 -1.043455E+04 -5.380282E-10
        23  23  1.380492E+06  1.264447E+02  1.176012E+04  1.430740E-09 -4.579936E+03  5.732267E-10
        23  24  1.381139E+06 -7.720043E+01  1.081736E+04 -1.030706E-09  1.274659E+03  3.770685E-10
        23  25  1.381136E+06  2.456778E+03  1.703997E+04 -9.888906E+02 -1.043455E+04  1.658527E-02
        23  26  1.380492E+06  1.264450E+02  1.176012E+04 -3.874445E+02 -4.579936E+03  2.852134E-03
        23  27  1.381139E+06 -7.720034E+01  1.081736E+04  2.140024E+02  1.274659E+03  4.384427E-04
        24   1  1.381271E+06 -1.578937E+02  1.159291E+04  6.847045E+02 -3.249798E+03 -3.576512E-03
        24   2  1.380325E+06  3.042271E+02  1.601541E+04 -4.036268E+02 -1.123302E+04  7.287487E-03
        24   3  1.381264E+06  4.162113E+03  2.647599E+04 -1.491938E+03 -1.921619E+04  4.608068E-02
        24   4  1.381271E+06 -1.578946E+02  1.159291E+04 -3.415309E-09 -3.249798E+03  2.794482E-10
        24   5  1.380325E+06  3.042268E+02  1.601541E+04 -1.383494E-09 -1.123302E+04 -9.913909E-10
        24   6  1.381264E+06  4.162109E+03  2.647599E+04 -4.305945E-09 -1.921619E+04 -7.697941E-10
        24   7  1.381271E+06 -1.578937E+02  1.159291E+04 -6.847045E+02 -3.249798E+03  3.576513E-03
        24   8  1.380325E+06  3.042271E+02  1.601541E+04  4.036268E+02 -1.123302E+04 -7.287489E-03
        24   9  1.381264E+06  4.162113E+03  2.647599E+04  1.491938E+03 -1.921619E+04 -4.608069E-02
        24  10  1.381271E+06 -1.578965E+02  1.159289E+04  6.847045E+02 -4.852954E-10  5.777512E-10
        24  11  1.380325E+06  3.041933E+02  1.601517E+04 -4.036268E+02 -8.392733E-10 -1.069900E-09
        24  12  1.381264E+06  4.162014E+03  2.647530E+04 -1.491938E+03 -1.659811E-09 -1.469908E-10
        24  13  1.381271E+06 -1.578974E+02  1.159289E+04  2.180405E-09 -2.188859E-09 -1.220077E-10
        24  14  1.380325E+06  3.041930E+02  1.601517E+04  7.147715E-10 -1.558257E-09 -1.125496E-09
        24  15  1.381264E+06  4.162010E+03  2.647530E+04 -6.938429E-09  8.898300E-10 -3.360472E-10
        24  16  1.381271E+06 -1.578965E+02  1.159289E+04 -6.847045E+02 -1.939265E-09 -7.886196E-10
        24  17  1.380325E+06  3.041933E+02  1.601517E+04  4.036268E+02  1.970151E-10 -1.172878E-09
        24  18  1.381264E+06  4.162014E+03  2.647530E+04  1.491938E+03  1.547801E-09 -5.248763E-10
        24  19  1.381271E+06 -1.578937E+02  1.159291E+04  6.847045E+02  3.249798E+03  3.576513E-03
        24  20  1.380325E+06  3.042271E+02  1.601541E+04 -4.036268E+02  1.123302E+04 -7.287489E-03
        24  21  1.381264E+06  4.162113E+03  2.647599E+04 -1.491938E+03  1.921619E+04 -4.608068E-02
        24  22  1.381271E+06 -1.578946E+02  1.159291E+04  1.994501E-10  3.249798E+03 -5.168102E-10
        24  23  1.380325E+06  3.042268E+02  1.601541E+04 -1.486698E-09  1.123302E+04 -1.212186E-09
        24  24  1.381264E+06  4.162109E+03  2.647599E+04 -6.434995E-09  1.921619E+04  1.329420E-10
        24  25  1.381271E+06 -1.578937E+02  1.159291E+04 -6.847045E+02  3.249798E+03 -3.576514E-03
        24  26  1.380325E+06  3.042271E+02  1.601541E+04  4.036268E+02  1.123302E+04  7.287486E-03
        24  27  1.381264E+06  4.162113E+03  2.647599E+04  1.491938E+03  1.921619E+04  4.608068E-02
        25   1  1.385867E+06 -6.199413E+01  3.374621E+04  9.855670E+03 -2.374647E+04 -3.761692E-01
        25   2  1.374549E+06  1.741744E+04  5.944745E+04 -2.739828E+04 -5.464387E+04  2.406421E+00
        25   3  1.385798E+06  1.091356E+05  1.237935E+05 -6.465396E+04 -8.554170E+04  8.889489E+00
        25   4  1.385867E+06 -6.217626E+01  3.374618E+04 -1.234893E-09 -2.374647E+04  2.300986E-12
        25   5  1.374549E+06  1.741603E+04  5.944725E+04  4.360158E-11 -5.464387E+04  7.017152E-10
        25   6  1.385793E+06  1.091278E+05  1.237924E+05 -4.739282E-09 -8.554170E+04  3.908707E-10
        25   7  1.385867E+06 -6.199413E+01  3.374621E+04 -9.855670E+03 -2.374647E+04  3.761692E-01
        25   8  1.374549E+06  1.741744E+04  5.944745E+04  2.739828E+04 -5.464387E+04 -2.406421E+00
        25   9  1.385798E+06  1.091356E+05  1.237935E+05  6.465396E+04 -8.554170E+04 -8.889489E+00
        25  10  1.385866E+06 -6.214510E+01  3.374515E+04  9.855670E+03 -3.065126E-10  6.125112E-10
        25  11  1.374546E+06  1.741664E+04  5.944185E+04 -2.739828E+04 -2.167908E-09  6.982128E-10
        25  12  1.385790E+06  1.091337E+05  1.237798E+05 -6.465396E+04  4.187158E-10  2.388271E-10
        25  13  1.385866E+06 -6.232723E+01  3.374512E+04  1.297162E-09  1.568672E-09  4.737464E-10
        25  14  1.374545E+06  1.741523E+04  5.944165E+04  5.378784E-09  1.809606E-10  7.988232E-10
        25  15  1.385786E+06  1.091258E+05  1.237787E+05 -1.306703E-09  2.080225E-10  2.992069E-10
        25  16  1.385866E+06 -6.214510E+01  3.374515E+04 -9.855670E+03  1.171501E-09  3.235101E-10
        25  17  1.374546E+06  1.741664E+04  5.944185E+04  2.739828E+04  1.151683E-09  9.062305E-10
        25  18  1.385790E+06  1.091337E+05  1.237798E+05  6.465396E+04  4.590911E-11  3.514656E-10
        25  19  1.385867E+06 -6.199413E+01  3.374621E+04  9.855670E+03  2.374647E+04  3.761692E-01
        25  20  1.374549E+06  1.741744E+04  5.944745E+04 -2.739828E+04  5.464387E+04 -2.406421E+00
        25  21  1.385798E+06  1.091356E+05  1.237935E+05 -6.465396E+04  8.554170E+04 -8.889489E+00
        25  22  1.385867E+06 -6.217626E+01  3.374618E+04 -2.674029E-09  2.374647E+04  9.432832E-10
        25  23  1.374549E+06  1.741603E+04  5.944725E+04  9.114483E-09  5.464387E+04  8.933397E-10
        25  24  1.385793E+06  1.091278E+05  1.237924E+05 -2.407675E-09  8.554170E+04  2.093233E-10
        25  25  1.385867E+06 -6.199413E+01  3.374621E+04 -9.855670E+03  2.374647E+04 -3.761692E-01
        25  26  1.374549E+06  1.741744E+04  5.944745E+04  2.739828E+04  5.464387E+04  2.406421E+00
        25  27  1.385798E+06  1.091356E+05  1.237935E+05  6.465396E+04  8.554170E+04  8.889489E+00
        26   1 -8.114260E+05 -2.534705E+06 -8.181912E+05  5.709465E+05 -2.972644E+04 -2.944938E+05
        26   2 -4.950433E+05 -1.999475E+06 -5.104565E+05  4.344708E+05 -8.983391E+04 -1.435058E+05
        26   3 -3.369180E+05 -1.522991E+06 -3.407956E+05  4.279251E+05 -8.657866E+04  7.611520E+03
        26   4 -2.097492E+05 -1.089918E+05 -2.384202E+05  4.484309E+05 -2.954425E+04 -1.628077E+05
        26   5 -3.332064E+04 -8.718009E+04 -1.158305E+05  3.833322E+05 -8.974973E+04 -1.025649E+05
        26   6  9.227333E+02 -1.083665E+05 -6.794650E+04  4.482054E+05 -8.664641E+04 -4.232947E+04
        26   7  3.915680E+05  2.322201E+06  3.410098E+05  3.254299E+05 -2.941474E+04 -3.060672E+04
        26   8  4.281818E+05  1.828601E+06  2.786061E+05  3.320309E+05 -8.967249E+04 -6.149936E+04
        26   9  3.386472E+05  1.308192E+06  2.048193E+05  4.685316E+05 -8.671731E+04 -9.238177E+04
        26  10 -8.114504E+05 -2.534799E+06 -8.183564E+05  5.709395E+05 -3.944200E-10 -1.808551E-09
        26  11 -4.950575E+05 -1.999500E+06 -5.105105E+05  4.344604E+05 -6.050415E-10 -6.920843E-10
        26  12 -3.369260E+05 -1.522993E+06 -3.408098E+05  4.279256E+05 -1.086272E-09  7.733192E-10
        26  13 -2.097572E+05 -1.090205E+05 -2.384716E+05  4.484271E+05 -3.789021E-10  2.095347E-11
        26  14 -3.333211E+04 -8.719355E+04 -1.158653E+05  3.833248E+05 -5.515352E-10 -3.242223E-10
        26  15  9.141943E+02 -1.083705E+05 -6.796396E+04  4.482024E+05  2.877899E-10  7.258339E-11
        26  16  3.915668E+05  2.322200E+06  3.410065E+05  3.254292E+05 -1.951490E-09  1.937498E-09
        26  17  4.281722E+05  1.828594E+06  2.785839E+05  3.320265E+05 -8.234825E-10  6.526736E-10
        26  18  3.386368E+05  1.308181E+06  2.047892E+05  4.685252E+05 -2.225745E-09 -1.233465E-09
        26  19 -8.114260E+05 -2.534705E+06 -8.181912E+05  5.709465E+05  2.972644E+04  2.944938E+05
        26  20 -4.950433E+05 -1.999475E+06 -5.104565E+05  4.344708E+05  8.983391E+04  1.435058E+05
        26  21 -3.369180E+05 -1.522991E+06 -3.407956E+05  4.279251E+05  8.657866E+04 -7.611520E+03
        26  22 -2.097492E+05 -1.089918E+05 -2.384202E+05  4.484309E+05  2.954425E+04  1.628077E+05
        26  23 -3.332064E+04 -8.718009E+04 -1.158305E+05  3.833322E+05  8.974973E+04  1.025649E+05
        26  24  9.227333E+02 -1.083665E+05 -6.794650E+04  4.482054E+05  8.664641E+04  4.232947E+04
        26  25  3.915680E+05  2.322201E+06  3.410098E+05  3.254299E+05  2.941474E+04  3.060672E+04
        26  26  4.281818E+05  1.828601E+06  2.786061E+05  3.320309E+05  8.967249E+04  6.149936E+04
        26  27  3.386472E+05  1.308192E+06  2.048193E+05  4.685316E+05  8.671731E+04  9.238177E+04
        27   1 -2.621232E+05 -1.169652E+06 -2.609604E+05  4.512615E+05 -6.597366E+04  6.066620E+03
        27   2 -1.339072E+05 -6.613815E+05 -1.441836E+05  3.818086E+05 -3.776358E+04  2.806678E+04
        27   3 -1.511254E+04 -1.584017E+05 -4.420632E+04  4.459910E+05 -7.582043E+03  5.006739E+04
        27   4 -6.831839E+03 -9.976360E+04 -5.513777E+04  4.490473E+05 -6.603639E+04 -3.306060E+04
        27   5  1.229589E+02 -9.715280E+04 -3.851410E+04  3.822272E+05 -3.784081E+04 -1.388461E+04
        27   6 -1.831228E+03 -9.957872E+04 -3.670567E+04  4.490373E+05 -7.675073E+03  5.274688E+03
        27   7  2.483924E+05  9.712309E+05  1.506379E+05  4.468283E+05 -6.609878E+04 -7.225375E+04
        27   8  1.341356E+05  4.673878E+05  6.714826E+04  3.826460E+05 -3.791805E+04 -5.587319E+04
        27   9  1.145106E+04 -4.074789E+04 -2.919749E+04  4.520839E+05 -7.768537E+03 -3.952205E+04
        27  10 -2.621278E+05 -1.169653E+06 -2.609687E+05  4.512619E+05 -9.443755E-10  1.706497E-09
        27  11 -1.339089E+05 -6.613827E+05 -1.441877E+05  3.818095E+05  1.877961E-09  5.140427E-10
        27  12 -1.511328E+04 -1.584044E+05 -4.421115E+04  4.459913E+05  1.404027E-09  6.760111E-11
        27  13 -6.836813E+03 -9.976595E+04 -5.514801E+04  4.490456E+05 -3.159978E-10  4.590582E-12
        27  14  1.213700E+02 -9.715339E+04 -3.851715E+04  3.822268E+05  4.621589E-10 -6.201140E-10
        27  15 -1.831299E+03 -9.957877E+04 -3.670584E+04  4.490374E+05 -7.955593E-10  1.392727E-10
        27  16  2.483864E+05  9.712242E+05  1.506199E+05  4.468245E+05 -1.240324E-09 -8.075932E-10
        27  17  1.341332E+05  4.673841E+05  6.713970E+04  3.826443E+05 -2.177133E-09 -6.743023E-10
        27  18  1.145057E+04 -4.074959E+04 -2.920054E+04  4.520837E+05  9.900762E-10 -5.146995E-10
        27  19 -2.621232E+05 -1.169652E+06 -2.609604E+05  4.512615E+05  6.597366E+04 -6.066620E+03
        27  20 -1.339072E+05 -6.613815E+05 -1.441836E+05  3.818086E+05  3.776358E+04 -2.806678E+04
        27  21 -1.511254E+04 -1.584017E+05 -4.420632E+04  4.459910E+05  7.582043E+03 -5.006739E+04
        27  22 -6.831839E+03 -9.976360E+04 -5.513777E+04  4.490473E+05  6.603639E+04  3.306060E+04
        27  23  1.229589E+02 -9.715280E+04 -3.851410E+04  3.822272E+05  3.784081E+04  1.388461E+04
        27  24 -1.831228E+03 -9.957872E+04 -3.670567E+04  4.490373E+05  7.675073E+03 -5.274688E+03
        27  25  2.483924E+05  9.712309E+05  1.506379E+05  4.468283E+05  6.609878E+04  7.225375E+04
        27  26  1.341356E+05  4.673878E+05  6.714826E+04  3.826460E+05  3.791805E+04  5.587319E+04
        27  27  1.145106E+04 -4.074789E+04 -2.919749E+04  4.520839E+05  7.768537E+03  3.952205E+04
        28   1  7.037366E+04  1.823179E+05  1.956519E+04  4.570920E+05  1.325990E+04  6.160078E+04
        28   2  1.768672E+05  6.942926E+05  1.115364E+05  3.592415E+05  3.040653E+04  3.981918E+04
        28   3  2.273139E+05  1.195110E+06  2.035836E+05  3.931527E+05  1.203537E+04  1.805651E+04
        28   4  1.473763E+03 -1.029877E+05 -3.945924E+04  4.486088E+05  1.315534E+04  1.123061E+04
        28   5 -1.408330E+04 -9.296129E+04 -5.675585E+04  3.827856E+05  3.041245E+04  4.060371E+04
        28   6 -9.459963E+04 -1.032468E+05 -1.095110E+05  4.487603E+05  1.212888E+04  7.001185E+04
        28   7 -6.742968E+04 -3.882105E+05 -9.847851E+04  4.401295E+05  1.305213E+04 -3.911681E+04
        28   8 -2.050721E+05 -8.796310E+05 -2.250836E+05  4.062989E+05  3.041844E+04  4.138725E+04
        28   9 -4.166228E+05 -1.400051E+06 -4.227143E+05  5.042502E+05  1.223181E+04  1.218590E+05
        28  10  7.037246E+04  1.823137E+05  1.955773E+04  4.570913E+05  7.937392E-10  1.642307E-09
        28  11  1.768658E+05  6.942907E+05  1.115316E+05  3.592406E+05  2.604304E-09 -6.653136E-10
        28  12  2.273136E+05  1.195109E+06  2.035827E+05  3.931525E+05  2.914444E-10 -1.962594E-09
        28  13  1.473543E+03 -1.029879E+05 -3.945980E+04  4.486087E+05  5.790056E-10  3.162109E-11
        28  14 -1.408473E+04 -9.296331E+04 -5.676068E+04  3.827846E+05 -2.203099E-09 -6.190399E-10
        28  15 -9.460111E+04 -1.032521E+05 -1.095205E+05  4.487596E+05 -6.153999E-10  7.129644E-11
        28  16 -6.743027E+04 -3.882122E+05 -9.848171E+04  4.401299E+05  1.960183E-10 -4.887516E-10
        28  17 -2.050735E+05 -8.796331E+05 -2.250886E+05  4.062979E+05  1.758547E-09  5.462371E-10
        28  18 -4.166269E+05 -1.400067E+06 -4.227426E+05  5.042490E+05 -1.713283E-10  1.537891E-09
        28  19  7.037366E+04  1.823179E+05  1.956519E+04  4.570920E+05 -1.325990E+04 -6.160078E+04
        28  20  1.768672E+05  6.942926E+05  1.115364E+05  3.592415E+05 -3.040653E+04 -3.981918E+04
        28  21  2.273139E+05  1.195110E+06  2.035836E+05  3.931527E+05 -1.203537E+04 -1.805651E+04
        28  22  1.473763E+03 -1.029877E+05 -3.945924E+04  4.486088E+05 -1.315534E+04 -1.123061E+04
        28  23 -1.408330E+04 -9.296129E+04 -5.675585E+04  3.827856E+05 -3.041245E+04 -4.060371E+04
        28  24 -9.459963E+04 -1.032468E+05 -1.095110E+05  4.487603E+05 -1.212888E+04 -7.001185E+04
        28  25 -6.742968E+04 -3.882105E+05 -9.847851E+04  4.401295E+05 -1.305213E+04  3.911681E+04
        28  26 -2.050721E+05 -8.796310E+05 -2.250836E+05  4.062989E+05 -3.041844E+04 -4.138725E+04
        28  27 -4.166228E+05 -1.400051E+06 -4.227143E+05  5.042502E+05 -1.223181E+04 -1.218590E+05
        29   1  1.044614E+06  4.627391E+04  5.254944E+04  2.743693E+04  3.590802E+04  1.584364E+00
        29   2  1.039829E+06  7.371264E+03  2.553193E+04  1.165721E+04  2.264645E+04  4.245453E-01
        29   3  1.044637E+06 -4.550273E+01  1.500950E+04 -4.122303E+03  9.384877E+03 -6.221487E-02
        29   4  1.044613E+06  4.627250E+04  5.254924E+04 -7.492041E-11  3.590802E+04  7.014904E-11
        29   5  1.039829E+06  7.371009E+03  2.553189E+04  1.502452E-09  2.264645E+04  1.897156E-10
        29   6  1.044637E+06 -4.553461E+01  1.500950E+04 -4.184388E-09  9.384877E+03 -3.470398E-11
        29   7  1.044614E+06  4.627391E+04  5.254944E+04 -2.743693E+04  3.590802E+04 -1.584364E+00
        29   8  1.039829E+06  7.371264E+03  2.553193E+04 -1.165721E+04  2.264645E+04 -4.245453E-01
        29   9  1.044637E+06 -4.550273E+01  1.500950E+04  4.122303E+03  9.384877E+03  6.221487E-02
        29  10  1.044613E+06  4.627356E+04  5.254702E+04  2.743693E+04 -9.549608E-10  1.167634E-10
        29  11  1.039828E+06  7.371127E+03  2.553097E+04  1.165721E+04  1.821278E-10  1.416664E-10
        29  12  1.044636E+06 -4.552633E+01  1.500934E+04 -4.122303E+03  1.296264E-10 -2.244948E-10
        29  13  1.044612E+06  4.627215E+04  5.254682E+04  2.269437E-09 -5.052575E-11  1.052287E-10
        29  14  1.039828E+06  7.370872E+03  2.553093E+04  4.158106E-09 -4.437989E-12  2.260629E-10
        29  15  1.044636E+06 -4.555821E+01  1.500933E+04  6.554701E-10 -2.123427E-10 -6.258982E-11
        29  16  1.044613E+06  4.627356E+04  5.254702E+04 -2.743693E+04  3.951825E-10  1.049795E-10
        29  17  1.039828E+06  7.371127E+03  2.553097E+04 -1.165721E+04 -3.327695E-10  2.723455E-10
        29  18  1.044636E+06 -4.552633E+01  1.500934E+04  4.122303E+03 -8.808608E-10  6.184590E-11
        29  19  1.044614E+06  4.627391E+04  5.254944E+04  2.743693E+04 -3.590802E+04 -1.584364E+00
        29  20  1.039829E+06  7.371264E+03  2.553193E+04  1.165721E+04 -2.264645E+04 -4.245453E-01
        29  21  1.044637E+06 -4.550273E+01  1.500950E+04 -4.122303E+03 -9.384877E+03  6.221487E-02
        29  22  1.044613E+06  4.627250E+04  5.254924E+04  2.703310E-10 -3.590802E+04  1.425356E-10
        29  23  1.039829E+06  7.371009E+03  2.553189E+04  1.954841E-09 -2.264645E+04  2.580202E-10
        29  24  1.044637E+06 -4.553461E+01  1.500950E+04 -3.608009E-09 -9.384877E+03 -9.360083E-11
        29  25  1.044614E+06  4.627391E+04  5.254944E+04 -2.743693E+04 -3.590802E+04  1.584364E+00
        29  26  1.039829E+06  7.371264E+03  2.553193E+04 -1.165721E+04 -2.264645E+04  4.245453E-01
        29  27  1.044637E+06 -4.550273E+01  1.500950E+04  4.122303E+03 -9.384877E+03 -6.221487E-02
        30   1  1.042709E+06  1.740429E+03  1.218671E+04  7.092807E+02  7.314351E+03  8.342974E-03
        30   2  1.042245E+06  8.511121E+01  8.520298E+03  2.867066E+02  3.073634E+03  1.417154E-03
        30   3  1.042711E+06 -5.335329E+01  7.990548E+03 -1.358615E+02 -1.167013E+03  2.549754E-04
        30   4  1.042709E+06  1.740428E+03  1.218671E+04 -4.666678E-09  7.314351E+03 -6.242040E-10
        30   5  1.042245E+06  8.511105E+01  8.520298E+03 -1.656380E-10  3.073634E+03 -1.321300E-09
        30   6  1.042711E+06 -5.335332E+01  7.990548E+03  6.992505E-11 -1.167013E+03 -5.259525E-10
        30   7  1.042709E+06  1.740429E+03  1.218671E+04 -7.092807E+02  7.314351E+03 -8.342975E-03
        30   8  1.042245E+06  8.511121E+01  8.520298E+03 -2.867066E+02  3.073634E+03 -1.417156E-03
        30   9  1.042711E+06 -5.335329E+01  7.990548E+03  1.358615E+02 -1.167013E+03 -2.549765E-04
        30  10  1.042709E+06  1.740414E+03  1.218661E+04  7.092807E+02  2.101540E-09 -2.297011E-10
        30  11  1.042245E+06  8.510868E+01  8.520280E+03  2.867066E+02 -9.786296E-10  2.515097E-10
        30  12  1.042711E+06 -5.335365E+01  7.990545E+03 -1.358615E+02 -1.476329E-09  4.196082E-10
        30  13  1.042709E+06  1.740414E+03  1.218661E+04  1.275765E-09 -3.368384E-11 -5.917938E-10
        30  14  1.042245E+06  8.510852E+01  8.520280E+03  5.435994E-10  1.094275E-09 -9.317540E-10
        30  15  1.042711E+06 -5.335369E+01  7.990545E+03  4.916560E-09  1.919895E-09  1.163110E-10
        30  16  1.042709E+06  1.740414E+03  1.218661E+04 -7.092807E+02  4.672077E-10 -9.550640E-10
        30  17  1.042245E+06  8.510868E+01  8.520280E+03 -2.867066E+02  3.039507E-09 -2.100907E-09
        30  18  1.042711E+06 -5.335365E+01  7.990545E+03  1.358615E+02  2.963965E-09 -1.145598E-10
        30  19  1.042709E+06  1.740429E+03  1.218671E+04  7.092807E+02 -7.314351E+03 -8.342975E-03
        30  20  1.042245E+06  8.511121E+01  8.520298E+03  2.867066E+02 -3.073634E+03 -1.417153E-03
        30  21  1.042711E+06 -5.335329E+01  7.990548E+03 -1.358615E+02  1.167013E+03 -2.549747E-04
        30  22  1.042709E+06  1.740428E+03  1.218671E+04 -3.448018E-10 -7.314351E+03 -5.527446E-10
        30  23  1.042245E+06  8.511105E+01  8.520298E+03  4.491418E-09 -3.073634E+03 -5.685915E-10
        30  24  1.042711E+06 -5.335332E+01  7.990548E+03  1.604690E-09  1.167013E+03  7.512033E-10
        30  25  1.042709E+06  1.740429E+03  1.218671E+04 -7.092807E+02 -7.314351E+03  8.342973E-03
        30  26  1.042245E+06  8.511121E+01  8.520298E+03 -2.867066E+02 -3.073634E+03  1.417152E-03
        30  27  1.042711E+06 -5.335329E+01  7.990548E+03  1.358615E+02  1.167013E+03  2.549762E-04
        31   1  1.042822E+06 -1.211831E+02  8.642102E+03  5.312093E+02 -2.632608E+03 -2.248944E-03
        31   2  1.042105E+06  2.344288E+02  1.209543E+04 -3.003465E+02 -8.661412E+03  4.183489E-03
        31   3  1.042818E+06  3.173382E+03  2.011485E+04 -1.131912E+03 -1.469034E+04  2.674064E-02
        31   4  1.042822E+06 -1.211836E+02  8.642102E+03 -8.088585E-10 -2.632608E+03  1.781349E-10
        31   5  1.042105E+06  2.344287E+02  1.209543E+04 -5.410454E-10 -8.661412E+03  5.635029E-10
        31   6  1.042818E+06  3.173379E+03  2.011485E+04 -1.350652E-09 -1.469034E+04  3.580351E-10
        31   7  1.042822E+06 -1.211831E+02  8.642102E+03 -5.312093E+02 -2.632608E+03  2.248944E-03
        31   8  1.042105E+06  2.344288E+02  1.209543E+04  3.003465E+02 -8.661412E+03 -4.183488E-03
        31   9  1.042818E+06  3.173382E+03  2.011485E+04  1.131912E+03 -1.469034E+04 -2.674064E-02
        31  10  1.042822E+06 -1.211849E+02  8.642089E+03  5.312093E+02  2.352331E-09  2.595883E-10
        31  11  1.042105E+06  2.344087E+02  1.209529E+04 -3.003465E+02 -4.408753E-10  5.168620E-13
        31  12  1.042817E+06  3.173324E+03  2.011444E+04 -1.131912E+03 -3.028144E-10  4.596116E-10
        31  13  1.042822E+06 -1.211854E+02  8.642089E+03 -2.050488E-09  3.249143E-09  5.589193E-10
        31  14  1.042105E+06  2.344086E+02  1.209529E+04  2.651222E-09  1.248414E-09  3.108236E-10
        31  15  1.042817E+06  3.173322E+03  2.011444E+04  1.187230E-09  6.831580E-10  3.954384E-10
        31  16  1.042822E+06 -1.211849E+02  8.642089E+03 -5.312093E+02  7.773762E-10  8.708825E-10
        31  17  1.042105E+06  2.344087E+02  1.209529E+04  3.003465E+02  1.342862E-09  6.088253E-10
        31  18  1.042817E+06  3.173324E+03  2.011444E+04  1.131912E+03  7.463370E-10  3.612578E-10
        31  19  1.042822E+06 -1.211831E+02  8.642102E+03  5.312093E+02  2.632608E+03  2.248944E-03
        31  20  1.042105E+06  2.344288E+02  1.209543E+04 -3.003465E+02  8.661412E+03 -4.183489E-03
        31  21  1.042818E+06  3.173382E+03  2.011485E+04 -1.131912E+03  1.469034E+04 -2.674064E-02
        31  22  1.042822E+06 -1.211836E+02  8.642102E+03 -1.251107E-10  2.632608E+03  9.337161E-10
        31  23  1.042105E+06  2.344287E+02  1.209543E+04  3.152038E-09  8.661412E+03  4.837750E-11
        31  24  1.042818E+06  3.173379E+03  2.011485E+04 -2.691181E-11  1.469034E+04  4.397205E-10
        31  25  1.042822E+06 -1.211831E+02  8.642102E+03 -5.312093E+02  2.632608E+03 -2.248943E-03
        31  26  1.042105E+06  2.344288E+02  1.209543E+04  3.003465E+02  8.661412E+03  4.183489E-03
        31  27  1.042818E+06  3.173382E+03  2.011485E+04  1.131912E+03  1.469034E+04  2.674064E-02
        32   1  1.046327E+06 -4.819428E+01  2.567104E+04  7.515163E+03 -1.813154E+04 -2.191281E-01
        32   2  1.037706E+06  1.327000E+04  4.528088E+04 -2.087061E+04 -4.166509E+04  1.398425E+00
        32   3  1.046287E+06  8.317471E+04  9.434139E+04 -4.925707E+04 -6.519862E+04  5.164596E+00
        32   4  1.046327E+06 -4.830023E+01  2.567103E+04  8.184744E-10 -1.813154E+04  4.555025E-11
        32   5  1.037706E+06  1.326918E+04  4.528076E+04  1.895679E-09 -4.166509E+04 -2.643809E-10
        32   6  1.046284E+06  8.317016E+04  9.434074E+04 -2.700486E-09 -6.519862E+04  1.735040E-11
        32   7  1.046327E+06 -4.819428E+01  2.567104E+04 -7.515163E+03 -1.813154E+04  2.191281E-01
        32   8  1.037706E+06  1.327000E+04  4.528088E+04  2.087061E+04 -4.166509E+04 -1.398425E+00
        32   9  1.046287E+06  8.317471E+04  9.434139E+04  4.925707E+04 -6.519862E+04 -5.164596E+00
        32  10  1.046326E+06 -4.828235E+01  2.567043E+04  7.515163E+03  5.562494E-10  8.562032E-11
        32  11  1.037704E+06  1.326953E+04  4.527762E+04 -2.087061E+04 -1.691607E-09 -8.640657E-10
        32  12  1.046283E+06  8.317357E+04  9.433342E+04 -4.925707E+04 -1.912854E-09 -3.886406E-10
        32  13  1.046326E+06 -4.838831E+01  2.567041E+04 -5.810394E-10 -1.456589E-09  2.563066E-10
        32  14  1.037704E+06  1.326872E+04  4.527751E+04  1.270650E-09  1.271239E-09 -2.183006E-10
        32  15  1.046280E+06  8.316902E+04  9.433277E+04  3.652796E-09  2.106262E-10 -1.284254E-10
        32  16  1.046326E+06 -4.828235E+01  2.567043E+04 -7.515163E+03 -3.497917E-10  4.625217E-10
        32  17  1.037704E+06  1.326953E+04  4.527762E+04  2.087061E+04 -2.952777E-10  4.639944E-10
        32  18  1.046283E+06  8.317357E+04  9.433342E+04  4.925707E+04 -3.745464E-10  1.914010E-10
        32  19  1.046327E+06 -4.819428E+01  2.567104E+04  7.515163E+03  1.813154E+04  2.191281E-01
        32  20  1.037706E+06  1.327000E+04  4.528088E+04 -2.087061E+04  4.166509E+04 -1.398425E+00
        32  21  1.046287E+06  8.317471E+04  9.434139E+04 -4.925707E+04  6.519862E+04 -5.164596E+00
        32  22  1.046327E+06 -4.830023E+01  2.567103E+04  1.427078E-10  1.813154E+04  4.712857E-10
        32  23  1.037706E+06  1.326918E+04  4.528076E+04  7.103802E-09  4.166509E+04 -1.638193E-10
        32  24  1.046284E+06  8.317016E+04  9.434074E+04 -1.292519E-09  6.519862E+04 -2.701895E-10
        32  25  1.046327E+06 -4.819428E+01  2.567104E+04 -7.515163E+03  1.813154E+04 -2.191281E-01
        32  26  1.037706E+06  1.327000E+04  4.528088E+04  2.087061E+04  4.166509E+04  1.398425E+00
        32  27  1.046287E+06  8.317471E+04  9.434139E+04  4.925707E+04  6.519862E+04  5.164596E+00
        33   1 -6.504376E+05 -2.047962E+06 -6.537622E+05  4.532746E+05 -2.445025E+04 -2.300269E+05
        33   2 -4.056285E+05 -1.617395E+06 -4.119317E+05  3.475148E+05 -7.423605E+04 -1.104818E+05
        33   3 -2.801430E+05 -1.231895E+06 -2.778906E+05  3.465017E+05 -7.208288E+04  9.146015E+03
        33   4 -1.565720E+05 -5.635436E+04 -1.779989E+05  3.616483E+05 -2.433352E+04 -1.212572E+05
        33   5 -2.488791E+04 -4.007294E+04 -8.669686E+04  3.091941E+05 -7.417995E+04 -7.618054E+04
        33   6  6.004980E+02 -5.594145E+04 -5.124789E+04  3.615106E+05 -7.212686E+04 -3.110863E+04
        33   7  3.370446E+05  1.938942E+06  2.975344E+05  2.697245E+05 -2.424926E+04 -1.213871E+04
        33   8  3.557018E+05  1.539619E+06  2.384093E+05  2.707731E+05 -7.412820E+04 -4.179330E+04
        33   9  2.812635E+05  1.121348E+06  1.753370E+05  3.765478E+05 -7.217272E+04 -7.143785E+04
        33  10 -6.504525E+05 -2.048019E+06 -6.538630E+05  4.532700E+05  2.088762E-10  4.778593E-08
        33  11 -4.056377E+05 -1.617409E+06 -4.119651E+05  3.475081E+05 -1.734091E-09 -2.260060E-09
        33  12 -2.801486E+05 -1.231897E+06 -2.779006E+05  3.465023E+05 -7.173929E-10 -5.304942E-08
        33  13 -1.565766E+05 -5.637031E+04 -1.780276E+05  3.616460E+05 -6.823924E-10 -9.194472E-11
        33  14 -2.489538E+04 -4.008065E+04 -8.671810E+04  3.091896E+05 -2.246164E-09  5.098979E-10
        33  15  5.946537E+02 -5.594388E+04 -5.125948E+04  3.615088E+05 -2.504036E-09 -2.674277E-10
        33  16  3.370440E+05  1.938941E+06  2.975330E+05  2.697242E+05 -1.243318E-09 -4.794316E-08
        33  17  3.556954E+05  1.539616E+06  2.383957E+05  2.707706E+05 -1.483515E-09  2.270880E-09
        33  18  2.812565E+05  1.121341E+06  1.753177E+05  3.765437E+05 -2.882841E-10  5.348356E-08
        33  19 -6.504376E+05 -2.047962E+06 -6.537622E+05  4.532746E+05  2.445025E+04  2.300269E+05
        33  20 -4.056285E+05 -1.617395E+06 -4.119317E+05  3.475148E+05  7.423605E+04  1.104818E+05
        33  21 -2.801430E+05 -1.231895E+06 -2.778906E+05  3.465017E+05  7.208288E+04 -9.146015E+03
        33  22 -1.565720E+05 -5.635436E+04 -1.779989E+05  3.616483E+05  2.433352E+04  1.212572E+05
        33  23 -2.488791E+04 -4.007294E+04 -8.669686E+04  3.091941E+05  7.417995E+04  7.618054E+04
        33  24  6.004980E+02 -5.594145E+04 -5.124789E+04  3.615106E+05  7.212686E+04  3.110863E+04
        33  25  3.370446E+05  1.938942E+06  2.975344E+05  2.697245E+05  2.424926E+04  1.213871E+04
        33  26  3.557018E+05  1.539619E+06  2.384093E+05  2.707731E+05  7.412820E+04  4.179330E+04
        33  27  2.812635E+05  1.121348E+06  1.753370E+05  3.765478E+05  7.217272E+04  7.143785E+04
        34   1 -2.193676E+05 -9.473922E+05 -2.144572E+05  3.640011E+05 -5.547684E+04  7.300947E+03
        34   2 -1.164223E+05 -5.375193E+05 -1.218045E+05  3.079935E+05 -3.279743E+04  2.472195E+04
        34   3 -2.090407E+04 -1.318201E+05 -4.242892E+04  3.597529E+05 -8.406204E+03  4.214211E+04
        34   4 -5.184441E+03 -4.955114E+04 -4.187749E+04  3.621933E+05 -5.551753E+04 -2.407456E+04
        34   5 -4.016384E+01 -4.753570E+04 -3.004836E+04  3.083089E+05 -3.284833E+04 -9.108931E+03
        34   6 -1.882495E+03 -4.942182E+04 -2.977669E+04  3.621878E+05 -8.468251E+03  5.844923E+03
        34   7  2.089515E+05  8.490685E+05  1.306688E+05  3.603823E+05 -5.555800E+04 -5.549443E+04
        34   8  1.163287E+05  4.426827E+05  6.170176E+04  3.086245E+05 -3.289923E+04 -4.296586E+04
        34   9  1.713948E+04  3.298610E+04 -1.711966E+04  3.646230E+05 -8.530578E+03 -3.045690E+04
        34  10 -2.193709E+05 -9.473931E+05 -2.144631E+05  3.640014E+05 -3.212357E-10 -5.584741E-09
        34  11 -1.164236E+05 -5.375203E+05 -1.218077E+05  3.079941E+05  2.235412E-10  9.445004E-09
        34  12 -2.090462E+04 -1.318220E+05 -4.243239E+04  3.597531E+05  1.942478E-09  2.070049E-08
        34  13 -5.187906E+03 -4.955259E+04 -4.188437E+04  3.621922E+05  3.506638E-11 -5.169553E-10
        34  14 -4.134456E+01 -4.753608E+04 -3.005054E+04  3.083087E+05  6.856615E-10  1.157948E-09
        34  15 -1.882581E+03 -4.942187E+04 -2.977689E+04  3.621878E+05  1.317344E-09 -3.944420E-10
        34  16  2.089473E+05  8.490644E+05  1.306573E+05  3.603798E+05  2.181854E-10  5.579336E-09
        34  17  1.163270E+05  4.426805E+05  6.169626E+04  3.086233E+05 -6.671234E-10 -9.402688E-09
        34  18  1.713915E+04  3.298509E+04 -1.712154E+04  3.646228E+05  1.248693E-09 -2.015824E-08
        34  19 -2.193676E+05 -9.473922E+05 -2.144572E+05  3.640011E+05  5.547684E+04 -7.300947E+03
        34  20 -1.164223E+05 -5.375193E+05 -1.218045E+05  3.079935E+05  3.279743E+04 -2.472195E+04
        34  21 -2.090407E+04 -1.318201E+05 -4.242892E+04  3.597529E+05  8.406204E+03 -4.214211E+04
        34  22 -5.184441E+03 -4.955114E+04 -4.187749E+04  3.621933E+05  5.551753E+04  2.407456E+04
        34  23 -4.016384E+01 -4.753570E+04 -3.004836E+04  3.083089E+05  3.284833E+04  9.108931E+03
        34  24 -1.882495E+03 -4.942182E+04 -2.977669E+04  3.621878E+05  8.468251E+03 -5.844923E+03
        34  25  2.089515E+05  8.490685E+05  1.306688E+05  3.603823E+05  5.555800E+04  5.549443E+04
        34  26  1.163287E+05  4.426827E+05  6.170176E+04  3.086245E+05  3.289923E+04  4.296586E+04
        34  27  1.713948E+04  3.298610E+04 -1.711966E+04  3.646230E+05  8.530578E+03  3.045690E+04
        35   1  4.822600E+04  1.426740E+05  8.431682E+03  3.690509E+05  8.404194E+03  5.133351E+04
        35   2  1.334014E+05  5.560864E+05  8.080222E+04  2.884906E+05  2.268113E+04  3.612478E+04
        35   3  1.700280E+05  9.593352E+05  1.508735E+05  3.142459E+05  9.171957E+03  2.093063E+04
        35   4  9.908294E+02 -5.240248E+04 -3.254729E+04  3.618558E+05  8.334373E+03  1.070386E+04
        35   5 -1.221707E+04 -4.383712E+04 -4.791185E+04  3.087400E+05  2.268304E+04  3.551120E+04
        35   6 -8.094220E+04 -5.256084E+04 -9.337217E+04  3.619639E+05  9.231938E+03  6.034191E+04
        35   7 -4.624572E+04 -2.474393E+05 -7.352217E+04  3.546631E+05  8.265480E+03 -2.991323E+04
        35   8 -1.578575E+05 -6.434214E+05 -1.766467E+05  3.289693E+05  2.268491E+04  3.489819E+04
        35   9 -3.319776E+05 -1.063513E+06 -3.376840E+05  4.096032E+05  9.298037E+03  9.968919E+04
        35  10  4.822522E+04  1.426711E+05  8.426600E+03  3.690505E+05  2.678221E-09 -2.267418E-08
        35  11  1.334005E+05  5.560849E+05  8.079881E+04  2.884900E+05  2.255633E-09 -1.054925E-08
        35  12  1.700277E+05  9.593347E+05  1.508725E+05  3.142458E+05  1.639793E-10  3.255011E-09
        35  13  9.907241E+02 -5.240262E+04 -3.254764E+04  3.618558E+05  1.676370E-09 -6.385177E-10
        35  14 -1.221796E+04 -4.383861E+04 -4.791519E+04  3.087393E+05  1.058489E-09  1.088339E-09
        35  15 -8.094327E+04 -5.256477E+04 -9.337917E+04  3.619634E+05  6.704863E-10 -2.698208E-10
        35  16 -4.624603E+04 -2.474403E+05 -7.352398E+04  3.546633E+05  2.241775E-10  2.262851E-08
        35  17 -1.578584E+05 -6.434229E+05 -1.766499E+05  3.289686E+05 -3.158413E-10  1.048013E-08
        35  18 -3.319803E+05 -1.063524E+06 -3.377029E+05  4.096025E+05  5.467350E-10 -2.817017E-09
        35  19  4.822600E+04  1.426740E+05  8.431682E+03  3.690509E+05 -8.404194E+03 -5.133351E+04
        35  20  1.334014E+05  5.560864E+05  8.080222E+04  2.884906E+05 -2.268113E+04 -3.612478E+04
        35  21  1.700280E+05  9.593352E+05  1.508735E+05  3.142459E+05 -9.171957E+03 -2.093063E+04
        35  22  9.908294E+02 -5.240248E+04 -3.254729E+04  3.618558E+05 -8.334373E+03 -1.070386E+04
        35  23 -1.221707E+04 -4.383712E+04 -4.791185E+04  3.087400E+05 -2.268304E+04 -3.551120E+04
        35  24 -8.094220E+04 -5.256084E+04 -9.337217E+04  3.619639E+05 -9.231938E+03 -6.034191E+04
        35  25 -4.624572E+04 -2.474393E+05 -7.352217E+04  3.546631E+05 -8.265480E+03  2.991323E+04
        35  26 -1.578575E+05 -6.434214E+05 -1.766467E+05  3.289693E+05 -2.268491E+04 -3.489819E+04
        35  27 -3.319776E+05 -1.063513E+06 -3.376840E+05  4.096032E+05 -9.298037E+03 -9.968919E+04
        36   1  7.503536E+05  2.863247E+04  3.253041E+04  1.698000E+04  2.212747E+04  6.044959E-01
        36   2  7.473876E+05  4.557105E+03  1.587700E+04  7.221474E+03  1.388340E+04  1.613045E-01
        36   3  7.503637E+05 -3.307681E+01  9.457372E+03 -2.536822E+03  5.639443E+03 -2.301700E-02
        36   4  7.503533E+05  2.863192E+04  3.253034E+04  1.585912E-09  2.212747E+04 -2.230985E-10
        36   5  7.473876E+05  4.557007E+03  1.587699E+04  3.634774E-09  1.388340E+04 -4.614499E-10
        36   6  7.503637E+05 -3.308889E+01  9.457370E+03  3.525896E-09  5.639443E+03 -2.369674E-10
        36   7  7.503536E+05  2.863247E+04  3.253041E+04 -1.698000E+04  2.212747E+04 -6.044959E-01
        36   8  7.473876E+05  4.557105E+03  1.587700E+04 -7.221474E+03  1.388340E+04 -1.613045E-01
        36   9  7.503637E+05 -3.307681E+01  9.457372E+03  2.536822E+03  5.639443E+03  2.301700E-02
        36  10  7.503531E+05  2.863233E+04  3.252950E+04  1.698000E+04  9.579811E-10 -1.569319E-10
        36  11  7.473874E+05  4.557053E+03  1.587664E+04  7.221474E+03  2.485349E-09 -3.400068E-10
        36  12  7.503636E+05 -3.308533E+01  9.457312E+03 -2.536822E+03  1.575935E-09  2.725421E-10
        36  13  7.503528E+05  2.863179E+04  3.252942E+04  1.317563E-09  1.843946E-09 -1.959131E-10
        36  14  7.473873E+05  4.556955E+03  1.587663E+04 -1.325974E-10  2.424689E-09 -4.981576E-10
        36  15  7.503636E+05 -3.309741E+01  9.457310E+03 -2.382308E-09  1.471764E-09 -1.853204E-10
        36  16  7.503531E+05  2.863233E+04  3.252950E+04 -1.698000E+04 -3.898561E-10 -2.326861E-10
        36  17  7.473874E+05  4.557053E+03  1.587664E+04 -7.221474E+03 -8.690116E-10 -6.385314E-10
        36  18  7.503636E+05 -3.308533E+01  9.457312E+03  2.536822E+03 -2.356185E-11 -6.474549E-10
        36  19  7.503536E+05  2.863247E+04  3.253041E+04  1.698000E+04 -2.212747E+04 -6.044959E-01
        36  20  7.473876E+05  4.557105E+03  1.587700E+04  7.221474E+03 -1.388340E+04 -1.613045E-01
        36  21  7.503637E+05 -3.307681E+01  9.457372E+03 -2.536822E+03 -5.639443E+03  2.301700E-02
        36  22  7.503533E+05  2.863192E+04  3.253034E+04 -1.133822E-09 -2.212747E+04 -1.675106E-10
        36  23  7.473876E+05  4.557007E+03  1.587699E+04 -2.286130E-09 -1.388340E+04 -5.245477E-10
        36  24  7.503637E+05 -3.308889E+01  9.457370E+03 -5.593065E-09 -5.639443E+03 -1.500776E-10
        36  25  7.503536E+05  2.863247E+04  3.253041E+04 -1.698000E+04 -2.212747E+04  6.044959E-01
        36  26  7.473876E+05  4.557105E+03  1.587700E+04 -7.221474E+03 -1.388340E+04  1.613045E-01
        36  27  7.503637E+05 -3.307681E+01  9.457372E+03  2.536822E+03 -5.639443E+03 -2.301700E-02
        37   1  7.491772E+05  1.070934E+03  7.774047E+03  4.574467E+02  4.322001E+03  3.180891E-03
        37   2  7.488737E+05  4.193702E+01  5.692776E+03  2.054985E+02  1.490081E+03  4.926545E-04
        37   3  7.491778E+05 -2.968821E+01  5.692936E+03 -4.645350E+01 -1.341878E+03  1.002903E-04
        37   4  7.491772E+05  1.070934E+03  7.774047E+03 -4.787463E-10  4.322001E+03  7.079258E-11
        37   5  7.488737E+05  4.193694E+01  5.692776E+03 -2.121566E-09  1.490081E+03  6.613290E-10
        37   6  7.491778E+05 -2.968821E+01  5.692936E+03 -3.072135E-09 -1.341878E+03  1.461860E-09
        37   7  7.491772E+05  1.070934E+03  7.774047E+03 -4.574467E+02  4.322001E+03 -3.180890E-03
        37   8  7.488737E+05  4.193702E+01  5.692776E+03 -2.054985E+02  1.490081E+03 -4.926531E-04
        37   9  7.491778E+05 -2.968821E+01  5.692936E+03  4.645350E+01 -1.341878E+03 -1.002875E-04
        37  10  7.491772E+05  1.070929E+03  7.774012E+03  4.574467E+02  5.784854E-10  3.066538E-10
        37  11  7.488737E+05  4.193642E+01  5.692772E+03  2.054985E+02 -1.015416E-09 -1.989971E-10
        37  12  7.491778E+05 -2.968869E+01  5.692932E+03 -4.645350E+01 -1.466550E-09 -1.711622E-11
        37  13  7.491772E+05  1.070929E+03  7.774011E+03 -3.712741E-09  2.441630E-09  4.980855E-12
        37  14  7.488737E+05  4.193634E+01  5.692772E+03  1.181883E-09  1.482578E-09  8.680971E-11
        37  15  7.491778E+05 -2.968870E+01  5.692932E+03 -1.195242E-09  5.635766E-10  3.364450E-10
        37  16  7.491772E+05  1.070929E+03  7.774012E+03 -4.574467E+02 -2.008416E-10 -2.986263E-10
        37  17  7.488737E+05  4.193642E+01  5.692772E+03 -2.054985E+02  1.488236E-09  3.815001E-10
        37  18  7.491778E+05 -2.968869E+01  5.692932E+03  4.645350E+01  1.008132E-09  6.766813E-10
        37  19  7.491772E+05  1.070934E+03  7.774047E+03  4.574467E+02 -4.322001E+03 -3.180890E-03
        37  20  7.488737E+05  4.193702E+01  5.692776E+03  2.054985E+02 -1.490081E+03 -4.926550E-04
        37  21  7.491778E+05 -2.968821E+01  5.692936E+03 -4.645350E+01  1.341878E+03 -1.002905E-04
        37  22  7.491772E+05  1.070934E+03  7.774047E+03 -2.644915E-09 -4.322001E+03 -5.349685E-11
        37  23  7.488737E+05  4.193694E+01  5.692776E+03  3.956157E-09 -1.490081E+03 -4.890907E-10
        37  24  7.491778E+05 -2.968821E+01  5.692936E+03 -6.134076E-10  1.341878E+03 -8.016189E-10
        37  25  7.491772E+05  1.070934E+03  7.774047E+03 -4.574467E+02 -4.322001E+03  3.180890E-03
        37  26  7.488737E+05  4.193702E+01  5.692776E+03 -2.054985E+02 -1.490081E+03  4.926540E-04
        37  27  7.491778E+05 -2.968821E+01  5.692936E+03  4.645350E+01  1.341878E+03  1.002889E-04
        38   1  7.492871E+05 -9.656702E+01  6.335028E+03  4.359933E+02 -2.401381E+03 -1.684471E-03
        38   2  7.487362E+05  1.890388E+02  9.216196E+03 -2.189736E+02 -6.995495E+03  2.464529E-03
        38   3  7.492848E+05  2.483333E+03  1.558792E+04 -8.739388E+02 -1.158963E+04  1.629574E-02
        38   4  7.492871E+05 -9.656737E+01  6.335028E+03  4.703270E-10 -2.401381E+03  1.235359E-09
        38   5  7.487362E+05  1.890387E+02  9.216196E+03  3.097505E-09 -6.995495E+03  3.031367E-10
        38   6  7.492848E+05  2.483332E+03  1.558792E+04 -7.081872E-09 -1.158963E+04  5.557511E-10
        38   7  7.492871E+05 -9.656702E+01  6.335028E+03 -4.359933E+02 -2.401381E+03  1.684474E-03
        38   8  7.487362E+05  1.890388E+02  9.216196E+03  2.189736E+02 -6.995495E+03 -2.464528E-03
        38   9  7.492848E+05  2.483333E+03  1.558792E+04  8.739388E+02 -1.158963E+04 -1.629574E-02
        38  10  7.492871E+05 -9.656856E+01  6.335017E+03  4.359933E+02  3.490982E-10  1.491857E-10
        38  11  7.487361E+05  1.890257E+02  9.216104E+03 -2.189736E+02 -6.489712E-10  3.162524E-10
        38  12  7.492847E+05  2.483297E+03  1.558767E+04 -8.739388E+02 -8.950797E-11  8.203669E-10
        38  13  7.492871E+05 -9.656892E+01  6.335017E+03  3.565410E-09 -1.119399E-09  3.153569E-10
        38  14  7.487361E+05  1.890256E+02  9.216104E+03  3.139601E-09  1.349345E-10  1.918814E-10
        38  15  7.492847E+05  2.483296E+03  1.558767E+04  2.983040E-10 -9.007659E-10  4.908938E-10
        38  16  7.492871E+05 -9.656856E+01  6.335017E+03 -4.359933E+02 -3.292555E-11  4.899542E-10
        38  17  7.487361E+05  1.890257E+02  9.216104E+03  2.189736E+02 -4.283355E-10  2.700961E-11
        38  18  7.492847E+05  2.483297E+03  1.558767E+04  8.739388E+02  3.336372E-10  1.691937E-10
        38  19  7.492871E+05 -9.656702E+01  6.335028E+03  4.359933E+02  2.401381E+03  1.684472E-03
        38  20  7.487362E+05  1.890388E+02  9.216196E+03 -2.189736E+02  6.995495E+03 -2.464528E-03
        38  21  7.492848E+05  2.483333E+03  1.558792E+04 -8.739388E+02  1.158963E+04 -1.629574E-02
        38  22  7.492871E+05 -9.656737E+01  6.335028E+03  2.298688E-09  2.401381E+03 -6.059407E-10
        38  23  7.487362E+05  1.890387E+02  9.216196E+03 -5.018842E-11  6.995495E+03  7.080117E-11
        38  24  7.492848E+05  2.483332E+03  1.558792E+04 -6.563048E-09  1.158963E+04  4.393991E-10
        38  25  7.492871E+05 -9.656702E+01  6.335028E+03 -4.359933E+02  2.401381E+03 -1.684473E-03
        38  26  7.487362E+05  1.890388E+02  9.216196E+03  2.189736E+02  6.995495E+03  2.464529E-03
        38  27  7.492848E+05  2.483333E+03  1.558792E+04  8.739388E+02  1.158963E+04  1.629574E-02
        39   1  7.520303E+05 -3.652194E+01  1.996521E+04  5.881358E+03 -1.425742E+04 -1.349088E-01
        39   2  7.452972E+05  1.036957E+04  3.534157E+04 -1.630046E+04 -3.262518E+04  8.556179E-01
        39   3  7.520082E+05  6.500532E+04  7.372398E+04 -3.848237E+04 -5.099267E+04  3.157146E+00
        39   4  7.520303E+05 -3.658686E+01  1.996520E+04 -1.639238E-10 -1.425742E+04  6.652552E-10
        39   5  7.452970E+05  1.036908E+04  3.534149E+04 -8.380937E-10 -3.262518E+04  2.149197E-10
        39   6  7.520066E+05  6.500254E+04  7.372358E+04 -2.730556E-09 -5.099267E+04  4.234703E-11
        39   7  7.520303E+05 -3.652194E+01  1.996521E+04 -5.881358E+03 -1.425742E+04  1.349088E-01
        39   8  7.452972E+05  1.036957E+04  3.534157E+04  1.630046E+04 -3.262518E+04 -8.556179E-01
        39   9  7.520082E+05  6.500532E+04  7.372398E+04  3.848237E+04 -5.099267E+04 -3.157146E+00
        39  10  7.520301E+05 -3.657643E+01  1.996483E+04  5.881358E+03 -9.830255E-10  8.130023E-10
        39  11  7.452961E+05  1.036929E+04  3.533957E+04 -1.630046E+04 -5.504695E-10  2.649404E-10
        39  12  7.520054E+05  6.500462E+04  7.371910E+04 -3.848237E+04  4.918125E-11 -6.313340E-12
        39  13  7.520301E+05 -3.664135E+01  1.996482E+04  1.798085E-09 -5.151813E-10  5.343572E-10
        39  14  7.452958E+05  1.036879E+04  3.533950E+04  1.191264E-09  1.929750E-28  2.011949E-10
        39  15  7.520038E+05  6.500184E+04  7.371870E+04 -3.181907E-09 -9.133486E-11  2.258498E-11
        39  16  7.520301E+05 -3.657643E+01  1.996483E+04 -5.881358E+03 -4.839950E-10  2.446759E-10
        39  17  7.452961E+05  1.036929E+04  3.533957E+04  1.630046E+04  1.293619E-09  1.219341E-10
        39  18  7.520054E+05  6.500462E+04  7.371910E+04  3.848237E+04  9.437729E-11  6.699990E-11
        39  19  7.520303E+05 -3.652194E+01  1.996521E+04  5.881358E+03  1.425742E+04  1.349088E-01
        39  20  7.452972E+05  1.036957E+04  3.534157E+04 -1.630046E+04  3.262518E+04 -8.556179E-01
        39  21  7.520082E+05  6.500532E+04  7.372398E+04 -3.848237E+04  5.099267E+04 -3.157146E+00
        39  22  7.520303E+05 -3.658686E+01  1.996520E+04  1.569727E-09  1.425742E+04  4.160337E-10
        39  23  7.452970E+05  1.036908E+04  3.534149E+04  3.226934E-09  3.262518E+04  1.803476E-10
        39  24  7.520066E+05  6.500254E+04  7.372358E+04 -6.464134E-10  5.099267E+04 -5.456968E-12
        39  25  7.520303E+05 -3.652194E+01  1.996521E+04 -5.881358E+03  1.425742E+04 -1.349088E-01
        39  26  7.452972E+05  1.036957E+04  3.534157E+04  1.630046E+04  3.262518E+04  8.556179E-01
        39  27  7.520082E+05  6.500532E+04  7.372398E+04  3.848237E+04  5.099267E+04  3.157146E+00
        40   1 -5.466834E+05 -1.767164E+06 -5.461764E+05  3.796366E+05 -2.151274E+04 -1.831248E+05
        40   2 -3.535589E+05 -1.395999E+06 -3.492336E+05  2.957698E+05 -6.553833E+04 -8.514215E+04
        40   3 -2.483948E+05 -1.059319E+06 -2.381594E+05  3.027280E+05 -6.397387E+04  1.289906E+04
        40   4 -1.127706E+05 -1.706847E+04 -1.282486E+05  3.136588E+05 -2.142984E+04 -8.712983E+04
        40   5 -1.792695E+04 -5.337168E+03 -6.264504E+04  2.681963E+05 -6.549622E+04 -5.456188E+04
        40   6  4.461519E+02 -1.675479E+04 -3.732923E+04  3.135718E+05 -6.400686E+04 -2.199747E+04
        40   7  3.209422E+05  1.735869E+06  2.895007E+05  2.474926E+05 -2.136756E+04  9.135420E+03
        40   8  3.175863E+05  1.387166E+06  2.238435E+05  2.405591E+05 -6.545691E+04 -2.391410E+04
        40   9  2.492236E+05  1.026859E+06  1.634553E+05  3.244337E+05 -6.404104E+04 -5.695131E+04
        40  10 -5.466930E+05 -1.767200E+06 -5.462404E+05  3.796334E+05 -1.470533E-10 -1.589660E-09
        40  11 -3.535655E+05 -1.396008E+06 -3.492554E+05  2.957653E+05  5.139421E-10  8.027003E-10
        40  12 -2.483992E+05 -1.059320E+06 -2.381674E+05  3.027287E+05  1.798634E-11  1.528527E-09
        40  13 -1.127731E+05 -1.707675E+04 -1.282638E+05  3.136573E+05  7.196547E-10  1.306215E-10
        40  14 -1.793235E+04 -5.341514E+03 -6.265869E+04  2.681934E+05 -1.401820E-09 -8.526233E-12
        40  15  4.416236E+02 -1.675641E+04 -3.733784E+04  3.135707E+05 -2.719793E-10 -3.982085E-10
        40  16  3.209416E+05  1.735869E+06  2.894996E+05  2.474927E+05 -1.720884E-09  1.579316E-09
        40  17  3.175815E+05  1.387164E+06  2.238344E+05  2.405578E+05 -2.976310E-09 -4.351943E-10
        40  18  2.492184E+05  1.026854E+06  1.634415E+05  3.244307E+05 -7.630114E-10 -2.829862E-09
        40  19 -5.466834E+05 -1.767164E+06 -5.461764E+05  3.796366E+05  2.151274E+04  1.831248E+05
        40  20 -3.535589E+05 -1.395999E+06 -3.492336E+05  2.957698E+05  6.553833E+04  8.514215E+04
        40  21 -2.483948E+05 -1.059319E+06 -2.381594E+05  3.027280E+05  6.397387E+04 -1.289906E+04
        40  22 -1.127706E+05 -1.706847E+04 -1.282486E+05  3.136588E+05  2.142984E+04  8.712983E+04
        40  23 -1.792695E+04 -5.337168E+03 -6.264504E+04  2.681963E+05  6.549622E+04  5.456188E+04
        40  24  4.461519E+02 -1.675479E+04 -3.732923E+04  3.135718E+05  6.400686E+04  2.199747E+04
        40  25  3.209422E+05  1.735869E+06  2.895007E+05  2.474926E+05  2.136756E+04 -9.135420E+03
        40  26  3.175863E+05  1.387166E+06  2.238435E+05  2.405591E+05  6.545691E+04  2.391410E+04
        40  27  2.492236E+05  1.026859E+06  1.634553E+05  3.244337E+05  6.404104E+04  5.695131E+04
        41   1 -1.948192E+05 -8.134808E+05 -1.846686E+05  3.154795E+05 -4.957915E+04  1.024924E+04
        41   2 -1.063193E+05 -4.581916E+05 -1.064758E+05  2.671468E+05 -2.995585E+04  2.378724E+04
        41   3 -2.348710E+04 -1.061193E+05 -3.857159E+04  3.122769E+05 -8.769283E+03  3.732322E+04
        41   4 -3.697104E+03 -1.217737E+04 -3.073322E+04  3.141655E+05 -4.960968E+04 -1.684545E+04
        41   5 -2.597880E+01 -1.065417E+04 -2.267354E+04  2.674341E+05 -2.999449E+04 -5.552715E+03
        41   6 -1.622706E+03 -1.207498E+04 -2.333378E+04  3.141624E+05 -8.816828E+03  5.730633E+03
        41   7  1.873874E+05  7.897461E+05  1.231755E+05  3.128494E+05 -4.964008E+04 -4.397432E+04
        41   8  1.062562E+05  4.370789E+05  6.112333E+04  2.677216E+05 -3.003315E+04 -3.491330E+04
        41   9  2.024178E+04  8.198026E+04 -8.092469E+03  3.160483E+05 -8.864561E+03 -2.586657E+04
        41  10 -1.948219E+05 -8.134816E+05 -1.846735E+05  3.154799E+05 -3.682425E-10 -1.509242E-09
        41  11 -1.063204E+05 -4.581924E+05 -1.064786E+05  2.671473E+05 -7.244513E-10  3.936740E-10
        41  12 -2.348755E+04 -1.061208E+05 -3.857435E+04  3.122772E+05  4.986845E-10 -7.694597E-10
        41  13 -3.699822E+03 -1.217834E+04 -3.073837E+04  3.141649E+05  3.575359E-10  8.676091E-10
        41  14 -2.695307E+01 -1.065444E+04 -2.267529E+04  2.674340E+05 -1.320647E-09  2.489962E-11
        41  15 -1.622799E+03 -1.207504E+04 -2.333399E+04  3.141625E+05 -1.618667E-09 -5.347723E-10
        41  16  1.873843E+05  7.897434E+05  1.231672E+05  3.128477E+05 -1.085685E-10  1.520422E-09
        41  17  1.062549E+05  4.370774E+05  6.111935E+04  2.677207E+05 -2.183498E-09  4.693674E-10
        41  18  2.024152E+04  8.197952E+04 -8.093873E+03  3.160481E+05 -8.820769E-10 -1.135743E-09
        41  19 -1.948192E+05 -8.134808E+05 -1.846686E+05  3.154795E+05  4.957915E+04 -1.024924E+04
        41  20 -1.063193E+05 -4.581916E+05 -1.064758E+05  2.671468E+05  2.995585E+04 -2.378724E+04
        41  21 -2.348710E+04 -1.061193E+05 -3.857159E+04  3.122769E+05  8.769283E+03 -3.732322E+04
        41  22 -3.697104E+03 -1.217737E+04 -3.073322E+04  3.141655E+05  4.960968E+04  1.684545E+04
        41  23 -2.597880E+01 -1.065417E+04 -2.267354E+04  2.674341E+05  2.999449E+04  5.552715E+03
        41  24 -1.622706E+03 -1.207498E+04 -2.333378E+04  3.141624E+05  8.816828E+03 -5.730633E+03
        41  25  1.873874E+05  7.897461E+05  1.231755E+05  3.128494E+05  4.964008E+04  4.397432E+04
        41  26  1.062562E+05  4.370789E+05  6.112333E+04  2.677216E+05  3.003315E+04  3.491330E+04
        41  27  2.024178E+04  8.198026E+04 -8.092469E+03  3.160483E+05  8.864561E+03  2.586657E+04
        42   1  3.635226E+04  1.320104E+05  5.365164E+03  3.197983E+05  5.811436E+03  4.479608E+04
        42   2  1.108278E+05  4.901875E+05  6.818074E+04  2.511764E+05  1.847910E+04  3.105150E+04
        42   3  1.456677E+05  8.402283E+05  1.299848E+05  2.747952E+05  7.602989E+03  1.731790E+04
        42   4  7.665387E+02 -1.456846E+04 -2.589894E+04  3.138839E+05  5.757955E+03  9.552744E+03
        42   5 -1.005943E+04 -7.547615E+03 -3.892602E+04  2.677942E+05  1.847923E+04  2.971518E+04
        42   6 -6.642103E+04 -1.468142E+04 -7.651521E+04  3.139627E+05  7.647074E+03  4.989549E+04
        42   7 -3.481979E+04 -1.611244E+05 -5.715959E+04  3.079708E+05  5.705138E+03 -2.568240E+04
        42   8 -1.309619E+05 -5.050494E+05 -1.460471E+05  2.843984E+05  1.847930E+04  2.837991E+04
        42   9 -2.785567E+05 -8.689179E+05 -2.830628E+05  3.530757E+05  7.695306E+03  8.242838E+04
        42  10  3.635168E+04  1.320083E+05  5.361331E+03  3.197981E+05  4.062424E-10 -1.368668E-09
        42  11  1.108272E+05  4.901864E+05  6.817829E+04  2.511759E+05 -1.470100E-09  2.244766E-10
        42  12  1.456675E+05  8.402279E+05  1.299842E+05  2.747951E+05  1.577916E-10 -7.329770E-10
        42  13  7.664787E+02 -1.456857E+04 -2.589917E+04  3.138838E+05 -1.975261E-09  1.094153E-09
        42  14 -1.006003E+04 -7.548654E+03 -3.892832E+04  2.677937E+05 -2.741671E-09  2.594449E-11
        42  15 -6.642177E+04 -1.468411E+04 -7.652000E+04  3.139624E+05  1.239650E-12 -4.121994E-10
        42  16 -3.482000E+04 -1.611251E+05 -5.716089E+04  3.079710E+05  4.853092E-10  1.341566E-09
        42  17 -1.309624E+05 -5.050504E+05 -1.460493E+05  2.843980E+05  2.738376E-10  5.156501E-10
        42  18 -2.785586E+05 -8.689252E+05 -2.830757E+05  3.530752E+05  4.271034E-10 -7.233817E-10
        42  19  3.635226E+04  1.320104E+05  5.365164E+03  3.197983E+05 -5.811436E+03 -4.479608E+04
        42  20  1.108278E+05  4.901875E+05  6.818074E+04  2.511764E+05 -1.847910E+04 -3.105150E+04
        42  21  1.456677E+05  8.402283E+05  1.299848E+05  2.747952E+05 -7.602989E+03 -1.731790E+04
        42  22  7.665387E+02 -1.456846E+04 -2.589894E+04  3.138839E+05 -5.757955E+03 -9.552744E+03
        42  23 -1.005943E+04 -7.547615E+03 -3.892602E+04  2.677942E+05 -1.847923E+04 -2.971518E+04
        42  24 -6.642103E+04 -1.468142E+04 -7.651521E+04  3.139627E+05 -7.647074E+03 -4.989549E+04
        42  25 -3.481979E+04 -1.611244E+05 -5.715959E+04  3.079708E+05 -5.705138E+03  2.568240E+04
        42  26 -1.309619E+05 -5.050494E+05 -1.460471E+05  2.843984E+05 -1.847930E+04 -2.837991E+04
        42  27 -2.785567E+05 -8.689179E+05 -2.830628E+05  3.530757E+05 -7.695306E+03 -8.242838E+04
        43   1  4.759459E+05  1.411025E+04  1.605018E+04  8.375201E+03  1.079314E+04  1.454956E-01
        43   2  4.744795E+05  2.241658E+03  7.925080E+03  3.571283E+03  6.680931E+03  3.840330E-02
        43   3  4.759490E+05 -2.213210E+01  4.876974E+03 -1.232685E+03  2.568664E+03 -5.096426E-03
        43   4  4.759458E+05  1.411012E+04  1.605016E+04 -1.039620E-10  1.079314E+04 -1.087859E-10
        43   5  4.744795E+05  2.241634E+03  7.925076E+03  4.955528E-10  6.680931E+03 -2.602500E-10
        43   6  4.759490E+05 -2.213496E+01  4.876973E+03 -5.133383E-10  2.568664E+03 -1.717062E-10
        43   7  4.759459E+05  1.411025E+04  1.605018E+04 -8.375201E+03  1.079314E+04 -1.454956E-01
        43   8  4.744795E+05  2.241658E+03  7.925080E+03 -3.571283E+03  6.680931E+03 -3.840330E-02
        43   9  4.759490E+05 -2.213210E+01  4.876974E+03  1.232685E+03  2.568664E+03  5.096426E-03
        43  10  4.759457E+05  1.411022E+04  1.604996E+04  8.375201E+03 -3.589133E-10  6.027001E-11
        43  11  4.744794E+05  2.241646E+03  7.924996E+03  3.571283E+03 -1.212466E-09  3.287918E-10
        43  12  4.759490E+05 -2.213387E+01  4.876961E+03 -1.232685E+03  1.088979E-10  7.099322E-10
        43  13  4.759457E+05  1.411009E+04  1.604994E+04 -1.083298E-09  1.707238E-10  6.289002E-11
        43  14  4.744794E+05  2.241623E+03  7.924993E+03  1.670581E-09  1.707246E-10  2.657760E-10
        43  15  4.759490E+05 -2.213673E+01  4.876961E+03  1.735711E-09  8.682841E-10  4.663293E-10
        43  16  4.759457E+05  1.411022E+04  1.604996E+04 -8.375201E+03  1.243749E-09  5.505202E-11
        43  17  4.744794E+05  2.241646E+03  7.924996E+03 -3.571283E+03  2.851112E-09  2.164035E-10
        43  18  4.759490E+05 -2.213387E+01  4.876961E+03  1.232685E+03  2.460093E-09  2.364721E-10
        43  19  4.759459E+05  1.411025E+04  1.605018E+04  8.375201E+03 -1.079314E+04 -1.454956E-01
        43  20  4.744795E+05  2.241658E+03  7.925080E+03  3.571283E+03 -6.680931E+03 -3.840330E-02
        43  21  4.759490E+05 -2.213210E+01  4.876974E+03 -1.232685E+03 -2.568664E+03  5.096427E-03
        43  22  4.759458E+05  1.411012E+04  1.605016E+04  1.159451E-09 -1.079314E+04  2.285838E-10
        43  23  4.744795E+05  2.241634E+03  7.925076E+03  3.920677E-09 -6.680931E+03  7.975661E-10
        43  24  4.759490E+05 -2.213496E+01  4.876973E+03  3.060112E-09 -2.568664E+03  1.103604E-09
        43  25  4.759459E+05  1.411025E+04  1.605018E+04 -8.375201E+03 -1.079314E+04  1.454956E-01
        43  26  4.744795E+05  2.241658E+03  7.925080E+03 -3.571283E+03 -6.680931E+03  3.840330E-02
        43  27  4.759490E+05 -2.213210E+01  4.876974E+03  1.232685E+03 -2.568664E+03 -5.096425E-03
        44   1  4.753718E+05  5.202452E+02  4.127534E+03  2.490675E+02  1.873233E+03  7.509574E-04
        44   2  4.752019E+05  7.127492E+00  3.339135E+03  1.368925E+02  2.136507E+02  4.707382E-05
        44   3  4.753719E+05 -1.041854E+01  3.754482E+03  2.471739E+01 -1.445931E+03 -5.752754E-05
        44   4  4.753718E+05  5.202450E+02  4.127534E+03 -1.824171E-08  1.873233E+03 -5.560926E-11
        44   5  4.752019E+05  7.127457E+00  3.339135E+03  1.757535E-08  2.136507E+02 -6.676294E-10
        44   6  4.753719E+05 -1.041854E+01  3.754482E+03  5.016194E-08 -1.445931E+03 -2.335195E-09
        44   7  4.753718E+05  5.202452E+02  4.127534E+03 -2.490675E+02  1.873233E+03 -7.509575E-04
        44   8  4.752019E+05  7.127492E+00  3.339135E+03 -1.368925E+02  2.136507E+02 -4.707508E-05
        44   9  4.753719E+05 -1.041854E+01  3.754482E+03 -2.471739E+01 -1.445931E+03  5.752279E-05
        44  10  4.753718E+05  5.202442E+02  4.127528E+03  2.490675E+02  5.184345E-09  1.627117E-10
        44  11  4.752019E+05  7.127479E+00  3.339135E+03  1.368925E+02 -6.923198E-09 -1.421426E-09
        44  12  4.753719E+05 -1.041910E+01  3.754478E+03  2.471739E+01 -1.991749E-08 -1.883723E-09
        44  13  4.753718E+05  5.202441E+02  4.127528E+03 -5.260668E-10  1.420182E-10  1.993035E-10
        44  14  4.752019E+05  7.127444E+00  3.339135E+03  5.235504E-10  7.958084E-10 -8.416728E-10
        44  15  4.753719E+05 -1.041910E+01  3.754478E+03 -1.654160E-09  3.745938E-09 -1.718623E-09
        44  16  4.753718E+05  5.202442E+02  4.127528E+03 -2.490675E+02 -3.637474E-09  2.317746E-10
        44  17  4.752019E+05  7.127479E+00  3.339135E+03 -1.368925E+02  9.202238E-09 -3.042109E-10
        44  18  4.753719E+05 -1.041910E+01  3.754478E+03 -2.471739E+01  1.953380E-08 -1.559284E-09
        44  19  4.753718E+05  5.202452E+02  4.127534E+03  2.490675E+02 -1.873233E+03 -7.509571E-04
        44  20  4.752019E+05  7.127492E+00  3.339135E+03  1.368925E+02 -2.136507E+02 -4.707662E-05
        44  21  4.753719E+05 -1.041854E+01  3.754482E+03  2.471739E+01  1.445931E+03  5.752374E-05
        44  22  4.753718E+05  5.202450E+02  4.127534E+03  1.392858E-08 -1.873233E+03  4.491579E-10
        44  23  4.752019E+05  7.127457E+00  3.339135E+03 -1.274340E-08 -2.136507E+02 -1.013584E-09
        44  24  4.753719E+05 -1.041854E+01  3.754482E+03 -5.342712E-08  1.445931E+03 -1.104651E-09
        44  25  4.753718E+05  5.202452E+02  4.127534E+03 -2.490675E+02 -1.873233E+03  7.509580E-04
        44  26  4.752019E+05  7.127492E+00  3.339135E+03 -1.368925E+02 -2.136507E+02  4.707456E-05
        44  27  4.753719E+05 -1.041854E+01  3.754482E+03 -2.471739E+01  1.445931E+03 -5.752595E-05
        45   1  4.754773E+05 -7.492093E+01  4.373502E+03  3.507615E+02 -2.161721E+03 -1.220447E-03
        45   2  4.750696E+05  1.489026E+02  6.736089E+03 -1.499149E+02 -5.520087E+03  1.331979E-03
        45   3  4.754762E+05  1.882092E+03  1.166128E+04 -6.505828E+02 -8.878417E+03  9.297045E-03
        45   4  4.754773E+05 -7.492116E+01  4.373502E+03 -5.264896E-08 -2.161721E+03 -2.502960E-09
        45   5  4.750696E+05  1.489026E+02  6.736089E+03 -1.453854E-08 -5.520087E+03 -4.201821E-10
        45   6  4.754762E+05  1.882091E+03  1.166128E+04  1.052153E-08 -8.878417E+03  2.073623E-09
        45   7  4.754773E+05 -7.492093E+01  4.373502E+03 -3.507615E+02 -2.161721E+03  1.220442E-03
        45   8  4.750696E+05  1.489026E+02  6.736089E+03  1.499149E+02 -5.520087E+03 -1.331980E-03
        45   9  4.754762E+05  1.882092E+03  1.166128E+04  6.505828E+02 -8.878417E+03 -9.297041E-03
        45  10  4.754773E+05 -7.492218E+01  4.373493E+03  3.507615E+02  2.048028E-08 -1.486539E-09
        45  11  4.750696E+05  1.488945E+02  6.736032E+03 -1.499149E+02  8.585247E-09 -2.674939E-10
        45  12  4.754761E+05  1.882071E+03  1.166113E+04 -6.505828E+02 -4.960823E-09  9.279658E-10
        45  13  4.754773E+05 -7.492241E+01  4.373493E+03  1.494029E-09  9.186339E-10 -1.608249E-09
        45  14  4.750696E+05  1.488944E+02  6.736032E+03 -1.015948E-09  1.619987E-09 -2.747161E-10
        45  15  4.754761E+05  1.882070E+03  1.166113E+04 -2.192076E-09  3.266865E-10  1.316471E-09
        45  16  4.754773E+05 -7.492218E+01  4.373493E+03 -3.507615E+02 -1.885618E-08 -1.733652E-09
        45  17  4.750696E+05  1.488945E+02  6.736032E+03  1.499149E+02 -7.660435E-09 -2.704068E-10
        45  18  4.754761E+05  1.882071E+03  1.166113E+04  6.505828E+02  6.222438E-09  1.698329E-09
        45  19  4.754773E+05 -7.492093E+01  4.373502E+03  3.507615E+02  2.161721E+03  1.220444E-03
        45  20  4.750696E+05  1.489026E+02  6.736089E+03 -1.499149E+02  5.520087E+03 -1.331980E-03
        45  21  4.754762E+05  1.882092E+03  1.166128E+04 -6.505828E+02  8.878417E+03 -9.297043E-03
        45  22  4.754773E+05 -7.492116E+01  4.373502E+03  5.563702E-08  2.161721E+03 -7.110739E-10
        45  23  4.750696E+05  1.489026E+02  6.736089E+03  1.841219E-08  5.520087E+03 -1.246733E-10
        45  24  4.754762E+05  1.882091E+03  1.166128E+04 -1.368124E-08  8.878417E+03  5.607573E-10
        45  25  4.754773E+05 -7.492093E+01  4.373502E+03 -3.507615E+02  2.161721E+03 -1.220445E-03
        45  26  4.750696E+05  1.489026E+02  6.736089E+03  1.499149E+02  5.520087E+03  1.331980E-03
        45  27  4.754762E+05  1.882092E+03  1.166128E+04  6.505828E+02  8.878417E+03  9.297044E-03
        46   1  4.775564E+05 -2.605521E+01  1.500819E+04  4.457421E+03 -1.087571E+04 -7.802732E-02
        46   2  4.724660E+05  7.845149E+03  2.669267E+04 -1.232330E+04 -2.474836E+04  4.908885E-01
        46   3  4.775459E+05  4.918293E+04  5.577088E+04 -2.910451E+04 -3.862122E+04  1.809232E+00
        46   4  4.775564E+05 -2.609252E+01  1.500818E+04  4.681785E-10 -1.087571E+04  2.240915E-09
        46   5  4.724658E+05  7.844864E+03  2.669263E+04  2.367156E-10 -2.474836E+04  6.253127E-10
        46   6  4.775450E+05  4.918134E+04  5.577065E+04 -2.159661E-09 -3.862122E+04  3.666995E-11
        46   7  4.775564E+05 -2.605521E+01  1.500819E+04 -4.457421E+03 -1.087571E+04  7.802733E-02
        46   8  4.724660E+05  7.845149E+03  2.669267E+04  1.232330E+04 -2.474836E+04 -4.908885E-01
        46   9  4.775459E+05  4.918293E+04  5.577088E+04  2.910451E+04 -3.862122E+04 -1.809232E+00
        46  10  4.775563E+05 -2.608694E+01  1.500796E+04  4.457421E+03  2.344316E-09  8.507551E-10
        46  11  4.724653E+05  7.844985E+03  2.669152E+04 -1.232330E+04  4.969318E-10 -8.230300E-11
        46  12  4.775443E+05  4.918253E+04  5.576808E+04 -2.910451E+04 -3.511395E-10 -1.289185E-10
        46  13  4.775563E+05 -2.612424E+01  1.500796E+04 -4.611712E-09  5.596400E-10  1.302306E-09
        46  14  4.724651E+05  7.844700E+03  2.669148E+04 -9.889972E-11 -8.832787E-11  1.169275E-10
        46  15  4.775434E+05  4.918094E+04  5.576785E+04 -4.291779E-10  1.409548E-09 -1.113380E-10
        46  16  4.775563E+05 -2.608694E+01  1.500796E+04 -4.457421E+03 -9.326467E-10  1.742548E-09
        46  17  4.724653E+05  7.844985E+03  2.669152E+04  1.232330E+04 -7.998161E-10  3.408412E-10
        46  18  4.775443E+05  4.918253E+04  5.576808E+04  2.910451E+04  3.174986E-10 -5.357888E-11
        46  19  4.775564E+05 -2.605521E+01  1.500819E+04  4.457421E+03  1.087571E+04  7.802732E-02
        46  20  4.724660E+05  7.845149E+03  2.669267E+04 -1.232330E+04  2.474836E+04 -4.908885E-01
        46  21  4.775459E+05  4.918293E+04  5.577088E+04 -2.910451E+04  3.862122E+04 -1.809232E+00
        46  22  4.775564E+05 -2.609252E+01  1.500818E+04  2.128894E-09  1.087571E+04  3.667282E-10
        46  23  4.724658E+05  7.844864E+03  2.669263E+04  2.798040E-09  2.474836E+04 -3.888512E-10
        46  24  4.775450E+05  4.918134E+04  5.577065E+04  2.156795E-10  3.862122E+04 -2.572282E-10
        46  25  4.775564E+05 -2.605521E+01  1.500819E+04 -4.457421E+03  1.087571E+04 -7.802732E-02
        46  26  4.724660E+05  7.845149E+03  2.669267E+04  1.232330E+04  2.474836E+04  4.908885E-01
        46  27  4.775459E+05  4.918293E+04  5.577088E+04  2.910451E+04  3.862122E+04  1.809232E+00
        47   1 -4.890039E+05 -1.684498E+06 -4.849200E+05  3.392736E+05 -2.030570E+04 -1.523784E+05
        47   2 -3.299017E+05 -1.340791E+06 -3.154264E+05  2.696360E+05 -6.201217E+04 -6.751269E+04
        47   3 -2.357917E+05 -1.024139E+06 -2.175012E+05  2.847130E+05 -6.077512E+04  1.739979E+04
        47   4 -7.999864E+04 -3.484190E+04 -9.104112E+04  2.925820E+05 -2.023819E+04 -6.158816E+04
        47   5 -1.271293E+04 -2.651059E+04 -4.466985E+04  2.501925E+05 -6.197581E+04 -3.836399E+04
        47   6  3.800329E+02 -3.456455E+04 -2.693857E+04  2.925239E+05 -6.080380E+04 -1.514295E+04
        47   7  3.288224E+05  1.617336E+06  3.026786E+05  2.457645E+05 -2.018451E+04  2.944291E+04
        47   8  3.043687E+05  1.289413E+06  2.259972E+05  2.307064E+05 -6.194133E+04 -9.154497E+03
        47   9  2.364944E+05  9.559557E+05  1.635828E+05  3.003471E+05 -6.083326E+04 -4.773643E+04
        47  10 -4.890106E+05 -1.684523E+06 -4.849645E+05  3.392711E+05 -2.171738E-10 -8.164217E-10
        47  11 -3.299070E+05 -1.340796E+06 -3.154422E+05  2.696326E+05 -1.001673E-09  4.091974E-10
        47  12 -2.357958E+05 -1.024141E+06 -2.175087E+05  2.847139E+05  1.251245E-09  1.625945E-09
        47  13 -8.000010E+04 -3.484608E+04 -9.104901E+04  2.925810E+05 -2.121601E-10 -4.234641E-12
        47  14 -1.271745E+04 -2.651320E+04 -4.467983E+04  2.501906E+05  6.797559E-10 -4.554183E-10
        47  15  3.760020E+02 -3.456578E+04 -2.694595E+04  2.925232E+05 -7.037908E-10  8.597252E-11
        47  16  3.288218E+05  1.617335E+06  3.026762E+05  2.457650E+05  5.882994E-10  7.080366E-10
        47  17  3.043645E+05  1.289412E+06  2.259898E+05  2.307059E+05 -4.257297E-10 -5.378804E-10
        47  18  2.364899E+05  9.559523E+05  1.635716E+05  3.003448E+05 -8.235226E-10 -1.846064E-09
        47  19 -4.890039E+05 -1.684498E+06 -4.849200E+05  3.392736E+05  2.030570E+04  1.523784E+05
        47  20 -3.299017E+05 -1.340791E+06 -3.154264E+05  2.696360E+05  6.201217E+04  6.751269E+04
        47  21 -2.357917E+05 -1.024139E+06 -2.175012E+05  2.847130E+05  6.077512E+04 -1.739979E+04
        47  22 -7.999864E+04 -3.484190E+04 -9.104112E+04  2.925820E+05  2.023819E+04  6.158816E+04
        47  23 -1.271293E+04 -2.651059E+04 -4.466985E+04  2.501925E+05  6.197581E+04  3.836399E+04
        47  24  3.800329E+02 -3.456455E+04 -2.693857E+04  2.925239E+05  6.080380E+04  1.514295E+04
        47  25  3.288224E+05  1.617336E+06  3.026786E+05  2.457645E+05  2.018451E+04 -2.944291E+04
        47  26  3.043687E+05  1.289413E+06  2.259972E+05  2.307064E+05  6.194133E+04  9.154497E+03
        47  27  2.364944E+05  9.559557E+05  1.635828E+05  3.003471E+05  6.083326E+04  4.773643E+04
        48   1 -1.848480E+05 -7.958088E+05 -1.692337E+05  2.939589E+05 -4.735075E+04  1.379176E+04
        48   2 -1.031279E+05 -4.645784E+05 -9.856067E+04  2.491769E+05 -2.907630E+04  2.454622E+04
        48   3 -2.577225E+04 -1.358721E+05 -3.602977E+04  2.915921E+05 -9.284400E+03  3.529761E+04
        48   4 -2.521730E+03 -3.134527E+04 -2.242843E+04  2.930809E+05 -4.737727E+04 -1.139769E+04
        48   5  4.772512E+01 -3.017485E+04 -1.721633E+04  2.494830E+05 -2.911019E+04 -2.824954E+03
        48   6 -1.360239E+03 -3.125247E+04 -1.862455E+04  2.930792E+05 -9.326399E+03  5.739241E+03
        48   7  1.797702E+05  7.336826E+05  1.243524E+05  2.922014E+05 -4.740369E+04 -3.661747E+04
        48   8  1.032129E+05  4.044129E+05  6.412268E+04  2.497892E+05 -2.914408E+04 -3.021481E+04
        48   9  2.305168E+04  7.337990E+04 -1.216376E+03  2.945666E+05 -9.368535E+03 -2.382394E+04
        48  10 -1.848504E+05 -7.958096E+05 -1.692383E+05  2.939594E+05  6.732126E-10 -1.613652E-09
        48  11 -1.031290E+05 -4.645793E+05 -9.856340E+04  2.491775E+05 -9.733355E-10  2.886241E-10
        48  12 -2.577268E+04 -1.358735E+05 -3.603228E+04  2.915923E+05  4.181966E-10  2.102083E-09
        48  13 -2.524174E+03 -3.134601E+04 -2.243289E+04  2.930804E+05 -4.807073E-10 -4.315633E-12
        48  14  4.681307E+01 -3.017509E+04 -1.721794E+04  2.494829E+05  5.935115E-10 -9.150838E-10
        48  15 -1.360342E+03 -3.125253E+04 -1.862478E+04  2.930793E+05 -3.903074E-10  8.692474E-11
        48  16  1.797675E+05  7.336805E+05  1.243457E+05  2.922000E+05 -4.027063E-10  7.879446E-10
        48  17  1.032117E+05  4.044117E+05  6.411937E+04  2.497885E+05 -1.209949E-10 -6.030771E-10
        48  18  2.305143E+04  7.337926E+04 -1.217607E+03  2.945664E+05  2.790556E-10 -2.453961E-09
        48  19 -1.848480E+05 -7.958088E+05 -1.692337E+05  2.939589E+05  4.735075E+04 -1.379176E+04
        48  20 -1.031279E+05 -4.645784E+05 -9.856067E+04  2.491769E+05  2.907630E+04 -2.454622E+04
        48  21 -2.577225E+04 -1.358721E+05 -3.602977E+04  2.915921E+05  9.284400E+03 -3.529761E+04
        48  22 -2.521730E+03 -3.134527E+04 -2.242843E+04  2.930809E+05  4.737727E+04  1.139769E+04
        48  23  4.772512E+01 -3.017485E+04 -1.721633E+04  2.494830E+05  2.911019E+04  2.824954E+03
        48  24 -1.360239E+03 -3.125247E+04 -1.862455E+04  2.930792E+05  9.326399E+03 -5.739241E+03
        48  25  1.797702E+05  7.336826E+05  1.243524E+05  2.922014E+05  4.740369E+04  3.661747E+04
        48  26  1.032129E+05  4.044129E+05  6.412268E+04  2.497892E+05  2.914408E+04  3.021481E+04
        48  27  2.305168E+04  7.337990E+04 -1.216376E+03  2.945666E+05  9.368535E+03  2.382394E+04
        49   1  2.986494E+04  8.645239E+04  4.902351E+03  2.978514E+05  4.320857E+03  4.168654E+04
        49   2  1.002822E+05  4.200067E+05  6.407384E+04  2.358394E+05  1.635085E+04  2.747625E+04
        49   3  1.377164E+05  7.471418E+05  1.242047E+05  2.599108E+05  6.829276E+03  1.327496E+04
        49   4  6.847218E+02 -3.340225E+04 -2.107090E+04  2.928261E+05  4.273660E+03  8.801272E+03
        49   5 -8.463306E+03 -2.748978E+04 -3.247290E+04  2.498090E+05  1.634997E+04  2.562824E+04
        49   6 -5.599199E+04 -3.349752E+04 -6.447225E+04  2.928894E+05  6.866694E+03  4.247097E+04
        49   7 -2.849577E+04 -1.532410E+05 -4.704093E+04  2.878017E+05  4.226989E+03 -2.407773E+04
        49   8 -1.172213E+05 -4.747978E+05 -1.290313E+05  2.637683E+05  1.634900E+04  2.378155E+04
        49   9 -2.497403E+05 -8.135760E+05 -2.531891E+05  3.258260E+05  6.907242E+03  7.163040E+04
        49  10  2.986445E+04  8.645052E+04  4.899051E+03  2.978513E+05 -1.444277E-10 -1.481607E-09
        49  11  1.002817E+05  4.200058E+05  6.407192E+04  2.358391E+05 -1.623923E-09 -1.937132E-11
        49  12  1.377163E+05  7.471416E+05  1.242043E+05  2.599108E+05 -4.289033E-10  1.182359E-09
        49  13  6.846815E+02 -3.340234E+04 -2.107108E+04  2.928260E+05  1.628550E-10 -1.129255E-11
        49  14 -8.463769E+03 -2.749056E+04 -3.247464E+04  2.498087E+05 -1.420103E-09 -9.787470E-10
        49  15 -5.599252E+04 -3.349947E+04 -6.447573E+04  2.928891E+05 -7.152070E-10  8.629626E-11
        49  16 -2.849594E+04 -1.532417E+05 -4.704205E+04  2.878018E+05  7.412877E-10  4.175906E-10
        49  17 -1.172217E+05 -4.747985E+05 -1.290329E+05  2.637680E+05  2.418490E-10 -1.678420E-10
        49  18 -2.497417E+05 -8.135815E+05 -2.531989E+05  3.258256E+05 -1.941992E-10 -1.428026E-09
        49  19  2.986494E+04  8.645239E+04  4.902351E+03  2.978514E+05 -4.320857E+03 -4.168654E+04
        49  20  1.002822E+05  4.200067E+05  6.407384E+04  2.358394E+05 -1.635085E+04 -2.747625E+04
        49  21  1.377164E+05  7.471418E+05  1.242047E+05  2.599108E+05 -6.829276E+03 -1.327496E+04
        49  22  6.847218E+02 -3.340225E+04 -2.107090E+04  2.928261E+05 -4.273660E+03 -8.801272E+03
        49  23 -8.463306E+03 -2.748978E+04 -3.247290E+04  2.498090E+05 -1.634997E+04 -2.562824E+04
        49  24 -5.599199E+04 -3.349752E+04 -6.447225E+04  2.928894E+05 -6.866694E+03 -4.247097E+04
        49  25 -2.849577E+04 -1.532410E+05 -4.704093E+04  2.878017E+05 -4.226989E+03  2.407773E+04
        49  26 -1.172213E+05 -4.747978E+05 -1.290313E+05  2.637683E+05 -1.634900E+04 -2.378155E+04
        49  27 -2.497403E+05 -8.135760E+05 -2.531891E+05  3.258260E+05 -6.907242E+03 -7.163040E+04
        50   1  1.910556E+05 -3.649425E+03 -4.123087E+03 -2.151525E+03 -2.951661E+03  1.022609E-02
        50   2  1.914301E+05 -5.846471E+02 -1.899968E+03 -9.034216E+02 -1.962163E+03  2.854448E-03
        50   3  1.910553E+05 -2.386596E+00 -9.415315E+02  3.446834E+02 -9.726654E+02 -5.398616E-04
        50   4  1.910556E+05 -3.649433E+03 -4.123088E+03 -3.512253E-08 -2.951661E+03 -1.123633E-10
        50   5  1.914301E+05 -5.846486E+02 -1.899968E+03  3.405024E-08 -1.962163E+03 -9.274040E-10
        50   6  1.910553E+05 -2.386819E+00 -9.415316E+02  1.100871E-07 -9.726654E+02 -2.344803E-09
        50   7  1.910556E+05 -3.649425E+03 -4.123087E+03  2.151525E+03 -2.951661E+03 -1.022609E-02
        50   8  1.914301E+05 -5.846471E+02 -1.899968E+03  9.034216E+02 -1.962163E+03 -2.854449E-03
        50   9  1.910553E+05 -2.386596E+00 -9.415315E+02 -3.446834E+02 -9.726654E+02  5.398569E-04
        50  10  1.910556E+05 -3.649427E+03 -4.123103E+03 -2.151525E+03  6.748801E-09 -5.171334E-11
        50  11  1.914301E+05 -5.846481E+02 -1.899975E+03 -9.034216E+02 -1.926496E-08 -7.873026E-10
        50  12  1.910553E+05 -2.386850E+00 -9.415333E+02  3.446834E+02 -3.965153E-08 -2.423564E-09
        50  13  1.910556E+05 -3.649436E+03 -4.123105E+03 -2.033312E-09  6.709347E-10 -5.129555E-11
        50  14  1.914301E+05 -5.846497E+02 -1.899975E+03  1.346509E-09  1.387187E-10 -8.612068E-10
        50  15  1.910553E+05 -2.387073E+00 -9.415333E+02  3.383163E-09  1.502754E-09 -2.645731E-09
        50  16  1.910556E+05 -3.649427E+03 -4.123103E+03  2.151525E+03 -6.698343E-09 -5.461752E-11
        50  17  1.914301E+05 -5.846481E+02 -1.899975E+03  9.034216E+02  1.929964E-08 -9.243006E-10
        50  18  1.910553E+05 -2.386850E+00 -9.415333E+02 -3.446834E+02  4.133526E-08 -2.873914E-09
        50  19  1.910556E+05 -3.649425E+03 -4.123087E+03 -2.151525E+03  2.951661E+03 -1.022609E-02
        50  20  1.914301E+05 -5.846471E+02 -1.899968E+03 -9.034216E+02  1.962163E+03 -2.854449E-03
        50  21  1.910553E+05 -2.386596E+00 -9.415315E+02  3.446834E+02  9.726654E+02  5.398567E-04
        50  22  1.910556E+05 -3.649433E+03 -4.123088E+03  2.135293E-08  2.951661E+03  9.570050E-12
        50  23  1.914301E+05 -5.846486E+02 -1.899968E+03 -3.351186E-08  1.962163E+03 -7.947459E-10
        50  24  1.910553E+05 -2.386819E+00 -9.415316E+02 -9.726446E-08  9.726654E+02 -2.944118E-09
        50  25  1.910556E+05 -3.649425E+03 -4.123087E+03  2.151525E+03  2.951661E+03  1.022609E-02
        50  26  1.914301E+05 -5.846471E+02 -1.899968E+03  9.034216E+02  1.962163E+03  2.854448E-03
        50  27  1.910553E+05 -2.386596E+00 -9.415315E+02 -3.446834E+02  9.726654E+02 -5.398626E-04
        51   1  1.912155E+05 -1.455917E+02 -6.297739E+02 -2.948120E+01 -8.614042E+02  4.089054E-05
        51   2  1.912297E+05 -2.175972E+01 -7.628125E+01  1.713324E+01 -8.218114E+02 -2.267454E-05
        51   3  1.912154E+05  8.899192E+00  4.281524E+02  6.374697E+01 -7.822192E+02 -8.029442E-05
        51   4  1.912155E+05 -1.455917E+02 -6.297739E+02 -3.893212E-08 -8.614042E+02 -2.793532E-09
        51   5  1.912297E+05 -2.175972E+01 -7.628125E+01 -3.453494E-08 -8.218114E+02 -1.867140E-09
        51   6  1.912154E+05  8.899185E+00  4.281524E+02 -3.701005E-08 -7.822192E+02  7.116151E-11
        51   7  1.912155E+05 -1.455917E+02 -6.297739E+02  2.948120E+01 -8.614042E+02 -4.089611E-05
        51   8  1.912297E+05 -2.175972E+01 -7.628125E+01 -1.713324E+01 -8.218114E+02  2.267082E-05
        51   9  1.912154E+05  8.899192E+00  4.281524E+02 -6.374697E+01 -7.822192E+02  8.029454E-05
        51  10  1.912155E+05 -1.455919E+02 -6.297753E+02 -2.948120E+01  1.583548E-08 -2.847071E-09
        51  11  1.912297E+05 -2.175990E+01 -7.628252E+01  1.713324E+01  1.685962E-08 -1.797496E-09
        51  12  1.912154E+05  8.899028E+00  4.281512E+02  6.374697E+01  1.703841E-08 -1.813805E-10
        51  13  1.912155E+05 -1.455919E+02 -6.297753E+02  1.003840E-09  1.070745E-09 -3.203679E-09
        51  14  1.912297E+05 -2.175990E+01 -7.628252E+01 -7.969517E-11  2.621424E-09 -2.088740E-09
        51  15  1.912154E+05  8.899021E+00  4.281512E+02 -3.321551E-09  1.707246E-09 -3.275093E-11
        51  16  1.912155E+05 -1.455919E+02 -6.297753E+02  2.948120E+01 -1.454686E-08 -3.550376E-09
        51  17  1.912297E+05 -2.175990E+01 -7.628252E+01 -1.713324E+01 -1.679770E-08 -2.393498E-09
        51  18  1.912154E+05  8.899028E+00  4.281512E+02 -6.374697E+01 -1.649582E-08  1.160633E-10
        51  19  1.912155E+05 -1.455917E+02 -6.297739E+02 -2.948120E+01  8.614042E+02 -4.089626E-05
        51  20  1.912297E+05 -2.175972E+01 -7.628125E+01  1.713324E+01  8.218114E+02  2.267093E-05
        51  21  1.912154E+05  8.899192E+00  4.281524E+02  6.374697E+01  7.822192E+02  8.029403E-05
        51  22  1.912155E+05 -1.455917E+02 -6.297739E+02  4.847315E-08  8.614042E+02 -3.612316E-09
        51  23  1.912297E+05 -2.175972E+01 -7.628125E+01  3.222275E-08  8.218114E+02 -2.321675E-09
        51  24  1.912154E+05  8.899185E+00  4.281524E+02  3.455317E-08  7.822192E+02 -1.337821E-10
        51  25  1.912155E+05 -1.455917E+02 -6.297739E+02  2.948120E+01  8.614042E+02  4.088904E-05
        51  26  1.912297E+05 -2.175972E+01 -7.628125E+01 -1.713324E+01  8.218114E+02 -2.267557E-05
        51  27  1.912154E+05  8.899192E+00  4.281524E+02 -6.374697E+01  7.822192E+02 -8.029428E-05
        52   1  1.912641E+05 -2.089340E+01  7.139338E+02  1.095638E+02 -8.827790E+02 -1.557451E-04
        52   2  1.911687E+05  4.367874E+01  1.492041E+03 -2.316300E+01 -1.627408E+03  6.070050E-05
        52   3  1.912640E+05  4.832294E+02  2.848564E+03 -1.558917E+02 -2.372049E+03  5.954480E-04
        52   4  1.912641E+05 -2.089342E+01  7.139338E+02  4.324282E-09 -8.827790E+02  9.492136E-10
        52   5  1.911687E+05  4.367874E+01  1.492041E+03  2.826771E-09 -1.627408E+03  1.015831E-09
        52   6  1.912640E+05  4.832294E+02  2.848564E+03  2.946424E-09 -2.372049E+03  5.187862E-10
        52   7  1.912641E+05 -2.089340E+01  7.139338E+02 -1.095638E+02 -8.827790E+02  1.557470E-04
        52   8  1.911687E+05  4.367874E+01  1.492041E+03  2.316300E+01 -1.627408E+03 -6.069846E-05
        52   9  1.912640E+05  4.832294E+02  2.848564E+03  1.558917E+02 -2.372049E+03 -5.954470E-04
        52  10  1.912641E+05 -2.089360E+01  7.139324E+02  1.095638E+02  3.177196E-09  2.812489E-10
        52  11  1.911687E+05  4.367803E+01  1.492036E+03 -2.316300E+01  1.417914E-09  2.038150E-10
        52  12  1.912640E+05  4.832279E+02  2.848553E+03 -1.558917E+02  8.315243E-10  5.705125E-10
        52  13  1.912641E+05 -2.089363E+01  7.139324E+02 -3.273495E-09  1.615587E-09  7.008787E-10
        52  14  1.911687E+05  4.367803E+01  1.492036E+03 -9.479222E-10  5.385292E-10  6.287649E-10
        52  15  1.912640E+05  4.832278E+02  2.848553E+03  2.989026E-09  5.057010E-10  6.711806E-10
        52  16  1.912641E+05 -2.089360E+01  7.139324E+02 -1.095638E+02 -2.330708E-09  1.121771E-09
        52  17  1.911687E+05  4.367803E+01  1.492036E+03  2.316300E+01 -9.762135E-10  1.062977E-09
        52  18  1.912640E+05  4.832279E+02  2.848553E+03  1.558917E+02  4.729045E-10  7.715847E-10
        52  19  1.912641E+05 -2.089340E+01  7.139338E+02  1.095638E+02  8.827790E+02  1.557457E-04
        52  20  1.911687E+05  4.367874E+01  1.492041E+03 -2.316300E+01  1.627408E+03 -6.070018E-05
        52  21  1.912640E+05  4.832294E+02  2.848564E+03 -1.558917E+02  2.372049E+03 -5.954469E-04
        52  22  1.912641E+05 -2.089342E+01  7.139338E+02 -1.087732E-08  8.827790E+02  4.558876E-10
        52  23  1.911687E+05  4.367874E+01  1.492041E+03 -2.571396E-09  1.627408E+03  2.357599E-10
        52  24  1.912640E+05  4.832294E+02  2.848564E+03 -2.348392E-09  2.372049E+03  8.232880E-10
        52  25  1.912641E+05 -2.089340E+01  7.139338E+02 -1.095638E+02  8.827790E+02 -1.557448E-04
        52  26  1.911687E+05  4.367874E+01  1.492041E+03  2.316300E+01  1.627408E+03  6.070061E-05
        52  27  1.912640E+05  4.832294E+02  2.848564E+03  1.558917E+02  2.372049E+03  5.954485E-04
        53   1  1.917977E+05 -4.570467E+00  3.736016E+03  1.144471E+03 -2.861584E+03 -5.273607E-03
        53   2  1.905012E+05  2.001922E+03  6.765077E+03 -3.136746E+03 -6.378515E+03  3.221784E-02
        53   3  1.917966E+05  1.254535E+04  1.421756E+04 -7.417977E+03 -9.895446E+03  1.182002E-01
        53   4  1.917977E+05 -4.572928E+00  3.736016E+03  9.146479E-10 -2.861584E+03  1.491773E-10
        53   5  1.905012E+05  2.001903E+03  6.765074E+03  3.582032E-09 -6.378515E+03 -9.496206E-11
        53   6  1.917965E+05  1.254525E+04  1.421755E+04  1.875490E-10 -9.895446E+03 -3.343026E-11
        53   7  1.917977E+05 -4.570467E+00  3.736016E+03 -1.144471E+03 -2.861584E+03  5.273607E-03
        53   8  1.905012E+05  2.001922E+03  6.765077E+03  3.136746E+03 -6.378515E+03 -3.221784E-02
        53   9  1.917966E+05  1.254535E+04  1.421756E+04  7.417977E+03 -9.895446E+03 -1.182002E-01
        53  10  1.917977E+05 -4.572665E+00  3.736001E+03  1.144471E+03  1.147785E-09  8.181840E-10
        53  11  1.905012E+05  2.001911E+03  6.765000E+03 -3.136746E+03  3.946355E-10  7.351942E-10
        53  12  1.917965E+05  1.254533E+04  1.421738E+04 -7.417977E+03  9.414452E-10  2.300865E-10
        53  13  1.917977E+05 -4.575125E+00  3.736001E+03  8.883509E-10  3.360014E-10  6.981947E-10
        53  14  1.905012E+05  2.001893E+03  6.764998E+03  7.220502E-09  1.820226E-09  5.318864E-10
        53  15  1.917964E+05  1.254522E+04  1.421736E+04 -9.865603E-10  4.252707E-10  1.504345E-10
        53  16  1.917977E+05 -4.572665E+00  3.736001E+03 -1.144471E+03 -3.111432E-10  5.693455E-10
        53  17  1.905012E+05  2.001911E+03  6.765000E+03  3.136746E+03 -7.303236E-10  3.467855E-10
        53  18  1.917965E+05  1.254533E+04  1.421738E+04  7.417977E+03 -7.928700E-10  7.391350E-11
        53  19  1.917977E+05 -4.570467E+00  3.736016E+03  1.144471E+03  2.861584E+03  5.273608E-03
        53  20  1.905012E+05  2.001922E+03  6.765077E+03 -3.136746E+03  6.378515E+03 -3.221784E-02
        53  21  1.917966E+05  1.254535E+04  1.421756E+04 -7.417977E+03  9.895446E+03 -1.182002E-01
        53  22  1.917977E+05 -4.572928E+00  3.736016E+03 -3.457737E-09  2.861584E+03  1.248791E-09
        53  23  1.905012E+05  2.001903E+03  6.765074E+03  2.783692E-09  6.378515E+03  1.153099E-09
        53  24  1.917965E+05  1.254525E+04  1.421755E+04  2.289841E-09  9.895446E+03  3.457780E-10
        53  25  1.917977E+05 -4.570467E+00  3.736016E+03 -1.144471E+03  2.861584E+03 -5.273606E-03
        53  26  1.905012E+05  2.001922E+03  6.765077E+03  3.136746E+03  6.378515E+03  3.221784E-02
        53  27  1.917966E+05  1.254535E+04  1.421756E+04  7.417977E+03  9.895446E+03  1.182002E-01
        54   1 -4.634446E+05 -1.723040E+06 -4.545536E+05  3.303624E+05 -2.059358E+04 -1.276691E+05
        54   2 -3.294095E+05 -1.370283E+06 -3.010935E+05  2.705796E+05 -6.277734E+04 -5.117564E+04
        54   3 -2.376132E+05 -1.037779E+06 -2.080548E+05  2.987707E+05 -6.112731E+04  2.536038E+04
        54   4 -4.632175E+04 -4.084372E+04 -5.280424E+04  3.036298E+05 -2.052935E+04 -3.552933E+04
        54   5 -7.340741E+03 -3.600572E+04 -2.605560E+04  2.596259E+05 -6.274122E+04 -2.197025E+04
        54   6  4.004680E+02 -4.055167E+04 -1.591765E+04  3.035954E+05 -6.115827E+04 -8.414692E+03
        54   7  3.706036E+05  1.643972E+06  3.487783E+05  2.768232E+05 -2.047320E+04  5.685964E+04
        54   8  3.146165E+05  1.299965E+06  2.488897E+05  2.486476E+05 -6.270618E+04  7.296946E+03
        54   9  2.383558E+05  9.576358E+05  1.761778E+05  3.084275E+05 -6.118972E+04 -4.224283E+04
        54  10 -4.634495E+05 -1.723058E+06 -4.545851E+05  3.303603E+05  1.551268E-11 -8.635415E-10
        54  11 -3.294145E+05 -1.370287E+06 -3.011058E+05  2.705770E+05  6.559260E-10  6.943451E-10
        54  12 -2.376174E+05 -1.037781E+06 -2.080630E+05  2.987720E+05  1.016527E-09  2.687899E-09
        54  13 -4.632254E+04 -4.084519E+04 -5.280741E+04  3.036292E+05 -1.355754E-09 -2.367709E-10
        54  14 -7.345096E+03 -3.600729E+04 -2.606390E+04  2.596248E+05 -4.201086E-10  4.470669E-10
        54  15  3.964329E+02 -4.055274E+04 -1.592481E+04  3.035950E+05  1.789078E-09 -1.026023E-09
        54  16  3.706023E+05  1.643969E+06  3.487714E+05  2.768241E+05 -1.321823E-09  8.909955E-10
        54  17  3.146123E+05  1.299964E+06  2.488822E+05  2.486480E+05  1.500250E-09 -1.140776E-09
        54  18  2.383513E+05  9.576329E+05  1.761674E+05  3.084254E+05  3.861470E-10 -2.500576E-09
        54  19 -4.634446E+05 -1.723040E+06 -4.545536E+05  3.303624E+05  2.059358E+04  1.276691E+05
        54  20 -3.294095E+05 -1.370283E+06 -3.010935E+05  2.705796E+05  6.277734E+04  5.117564E+04
        54  21 -2.376132E+05 -1.037779E+06 -2.080548E+05  2.987707E+05  6.112731E+04 -2.536038E+04
        54  22 -4.632175E+04 -4.084372E+04 -5.280424E+04  3.036298E+05  2.052935E+04  3.552933E+04
        54  23 -7.340741E+03 -3.600572E+04 -2.605560E+04  2.596259E+05  6.274122E+04  2.197025E+04
        54  24  4.004680E+02 -4.055167E+04 -1.591765E+04  3.035954E+05  6.115827E+04  8.414692E+03
        54  25  3.706036E+05  1.643972E+06  3.487783E+05  2.768232E+05  2.047320E+04 -5.685964E+04
        54  26  3.146165E+05  1.299965E+06  2.488897E+05  2.486476E+05  6.270618E+04 -7.296946E+03
        54  27  2.383558E+05  9.576358E+05  1.761778E+05  3.084275E+05  6.118972E+04  4.224283E+04
        55   1 -1.833688E+05 -8.023343E+05 -1.601639E+05  3.044547E+05 -4.719167E+04  2.009507E+04
        55   2 -9.976652E+04 -4.590307E+05 -8.961306E+04  2.585754E+05 -2.817916E+04  2.756491E+04
        55   3 -1.896060E+04 -1.174311E+05 -2.467523E+04  3.031916E+05 -7.695841E+03  3.503011E+04
        55   4 -1.220496E+03 -3.870711E+04 -1.342621E+04  3.041594E+05 -4.722033E+04 -6.191598E+03
        55   5  2.483903E+02 -3.793626E+04 -1.076084E+04  2.589130E+05 -2.821519E+04 -8.400902E+02
        55   6 -7.038181E+02 -3.861374E+04 -1.223289E+04  3.041587E+05 -7.740012E+03  4.502842E+03
        55   7  1.808937E+05  7.254832E+05  1.332872E+05  3.038634E+05 -4.724894E+04 -3.250988E+04
        55   8  1.002535E+05  3.833315E+05  6.808676E+04  2.592507E+05 -2.825124E+04 -2.926388E+04
        55   9  1.755316E+04  4.021183E+04  2.127924E+02  3.051259E+05 -7.784274E+03 -2.602816E+04
        55  10 -1.833713E+05 -8.023353E+05 -1.601688E+05  3.044554E+05  2.120435E-09 -1.041729E-09
        55  11 -9.976758E+04 -4.590317E+05 -8.961598E+04  2.585760E+05  1.747671E-09 -4.903293E-10
        55  12 -1.896099E+04 -1.174325E+05 -2.467765E+04  3.031918E+05  8.900269E-10  1.198135E-09
        55  13 -1.222900E+03 -3.870775E+04 -1.343047E+04  3.041591E+05  7.092866E-10 -1.692503E-09
        55  14  2.475353E+02 -3.793648E+04 -1.076234E+04  2.589130E+05  1.562662E-09  9.446912E-10
        55  15 -7.038879E+02 -3.861378E+04 -1.223304E+04  3.041587E+05  7.907572E-10 -1.411186E-09
        55  16  1.808910E+05  7.254815E+05  1.332810E+05  3.038622E+05 -2.984790E-10  1.029778E-09
        55  17  1.002524E+05  3.833303E+05  6.808365E+04  2.592501E+05 -3.821902E-10 -5.385053E-10
        55  18  1.755291E+04  4.021109E+04  2.114060E+02  3.051257E+05 -9.969665E-10 -9.047688E-10
        55  19 -1.833688E+05 -8.023343E+05 -1.601639E+05  3.044547E+05  4.719167E+04 -2.009507E+04
        55  20 -9.976652E+04 -4.590307E+05 -8.961306E+04  2.585754E+05  2.817916E+04 -2.756491E+04
        55  21 -1.896060E+04 -1.174311E+05 -2.467523E+04  3.031916E+05  7.695841E+03 -3.503011E+04
        55  22 -1.220496E+03 -3.870711E+04 -1.342621E+04  3.041594E+05  4.722033E+04  6.191598E+03
        55  23  2.483903E+02 -3.793626E+04 -1.076084E+04  2.589130E+05  2.821519E+04  8.400902E+02
        55  24 -7.038181E+02 -3.861374E+04 -1.223289E+04  3.041587E+05  7.740012E+03 -4.502842E+03
        55  25  1.808937E+05  7.254832E+05  1.332872E+05  3.038634E+05  4.724894E+04  3.250988E+04
        55  26  1.002535E+05  3.833315E+05  6.808676E+04  2.592507E+05  2.825124E+04  2.926388E+04
        55  27  1.755316E+04  4.021183E+04  2.127924E+02  3.051259E+05  7.784274E+03  2.602816E+04
        56   1  3.808526E+04  1.140628E+05  1.849961E+04  3.074592E+05  6.416159E+03  4.063013E+04
        56   2  1.143267E+05  4.580766E+05  8.393703E+04  2.497959E+05  1.851888E+04  1.888446E+04
        56   3  1.699212E+05  7.997428E+05  1.583197E+05  2.814224E+05  7.526129E+03 -2.855783E+03
        56   4  7.202139E+02 -4.012569E+04 -1.409036E+04  3.038876E+05  6.366704E+03  6.512338E+03
        56   5 -5.678923E+03 -3.606147E+04 -2.222403E+04  2.592587E+05  1.851917E+04  1.803248E+04
        56   6 -3.850308E+04 -4.023468E+04 -4.451229E+04  3.039315E+05  7.566810E+03  2.956929E+04
        56   7 -3.664570E+04 -1.942892E+05 -4.667729E+04  3.003169E+05  6.317634E+03 -2.759712E+04
        56   8 -1.257002E+05 -5.299699E+05 -1.283993E+05  2.687138E+05  1.851944E+04  1.718117E+04
        56   9 -2.469764E+05 -8.795642E+05 -2.473906E+05  3.264098E+05  7.609877E+03  6.195066E+04
        56  10  3.808477E+04  1.140610E+05  1.849643E+04  3.074589E+05  3.834688E-10 -1.162407E-09
        56  11  1.143262E+05  4.580761E+05  8.393572E+04  2.497956E+05 -7.370749E-10 -3.807276E-10
        56  12  1.699211E+05  7.997428E+05  1.583196E+05  2.814224E+05 -9.809698E-10  1.524530E-09
        56  13  7.201590E+02 -4.012575E+04 -1.409051E+04  3.038875E+05  4.260473E-10 -2.030790E-09
        56  14 -5.679378E+03 -3.606191E+04 -2.222528E+04  2.592585E+05 -1.722943E-09  9.570429E-10
        56  15 -3.850338E+04 -4.023563E+04 -4.451404E+04  3.039313E+05  3.695894E-10 -1.115290E-09
        56  16 -3.664594E+04 -1.942900E+05 -4.667879E+04  3.003170E+05  1.929839E-10  1.195665E-09
        56  17 -1.257006E+05 -5.299703E+05 -1.284005E+05  2.687135E+05  7.262328E-10 -6.081246E-10
        56  18 -2.469775E+05 -8.795684E+05 -2.473980E+05  3.264094E+05 -3.297517E-10 -1.374123E-09
        56  19  3.808526E+04  1.140628E+05  1.849961E+04  3.074592E+05 -6.416159E+03 -4.063013E+04
        56  20  1.143267E+05  4.580766E+05  8.393703E+04  2.497959E+05 -1.851888E+04 -1.888446E+04
        56  21  1.699212E+05  7.997428E+05  1.583197E+05  2.814224E+05 -7.526129E+03  2.855783E+03
        56  22  7.202139E+02 -4.012569E+04 -1.409036E+04  3.038876E+05 -6.366704E+03 -6.512338E+03
        56  23 -5.678923E+03 -3.606147E+04 -2.222403E+04  2.592587E+05 -1.851917E+04 -1.803248E+04
        56  24 -3.850308E+04 -4.023468E+04 -4.451229E+04  3.039315E+05 -7.566810E+03 -2.956929E+04
        56  25 -3.664570E+04 -1.942892E+05 -4.667729E+04  3.003169E+05 -6.317634E+03  2.759712E+04
        56  26 -1.257002E+05 -5.299699E+05 -1.283993E+05  2.687138E+05 -1.851944E+04 -1.718117E+04
        56  27 -2.469764E+05 -8.795642E+05 -2.473906E+05  3.264098E+05 -7.609877E+03 -6.195066E+04
        57   1 -4.063905E+05 -1.535135E+06 -3.927686E+05  2.116835E+05 -2.083105E+04 -1.038686E+05
        57   2 -3.276666E+05 -1.298102E+06 -2.841340E+05  1.777764E+05 -6.603742E+04 -4.122089E+04
        57   3 -2.679844E+05 -1.073745E+06 -2.210634E+05  2.023766E+05 -7.061122E+04  2.145212E+04
        57   4 -1.346591E+04  5.074055E+04 -1.544324E+04  2.042273E+05 -2.078582E+04 -9.659109E+03
        57   5 -2.236048E+03  5.212030E+04 -8.207667E+03  1.749708E+05 -6.600111E+04 -5.377670E+03
        57   6  1.212845E+02  5.093758E+04 -5.935337E+03  2.042184E+05 -7.062313E+04 -1.097087E+03
        57   7  3.792822E+05  1.638947E+06  3.617396E+05  1.967514E+05 -2.074294E+04  8.479031E+04
        57   8  3.230809E+05  1.404081E+06  2.676272E+05  1.721585E+05 -6.596519E+04  3.054221E+04
        57   9  2.681527E+05  1.176841E+06  2.091371E+05  2.060631E+05 -7.063516E+04 -2.368624E+04
        57  10 -4.063938E+05 -1.535147E+06 -3.927898E+05  2.116817E+05 -1.112866E-10 -2.664123E-10
        57  11 -3.276717E+05 -1.298105E+06 -2.841454E+05  1.777742E+05 -9.357603E-11  1.428884E-09
        57  12 -2.679899E+05 -1.073746E+06 -2.210737E+05  2.023778E+05 -5.000847E-10  2.497224E-10
        57  13 -1.346640E+04  5.074034E+04 -1.544423E+04  2.042272E+05 -8.710109E-11  9.619092E-11
        57  14 -2.240734E+03  5.211910E+04 -8.215907E+03  1.749705E+05  2.519894E-09  8.815620E-10
        57  15  1.159282E+02  5.093624E+04 -5.944712E+03  2.042183E+05  1.140039E-10  7.747524E-11
        57  16  3.792798E+05  1.638939E+06  3.617253E+05  1.967528E+05  4.458804E-10  1.642618E-10
        57  17  3.230760E+05  1.404079E+06  2.676172E+05  1.721601E+05  4.594639E-10 -1.168429E-10
        57  18  2.681471E+05  1.176839E+06  2.091267E+05  2.060618E+05  1.130890E-09 -8.130984E-10
        57  19 -4.063905E+05 -1.535135E+06 -3.927686E+05  2.116835E+05  2.083105E+04  1.038686E+05
        57  20 -3.276666E+05 -1.298102E+06 -2.841340E+05  1.777764E+05  6.603742E+04  4.122089E+04
        57  21 -2.679844E+05 -1.073745E+06 -2.210634E+05  2.023766E+05  7.061122E+04 -2.145212E+04
        57  22 -1.346591E+04  5.074055E+04 -1.544324E+04  2.042273E+05  2.078582E+04  9.659109E+03
        57  23 -2.236048E+03  5.212030E+04 -8.207667E+03  1.749708E+05  6.600111E+04  5.377670E+03
        57  24  1.212845E+02  5.093758E+04 -5.935337E+03  2.042184E+05  7.062313E+04  1.097087E+03
        57  25  3.792822E+05  1.638947E+06  3.617396E+05  1.967514E+05  2.074294E+04 -8.479031E+04
        57  26  3.230809E+05  1.404081E+06  2.676272E+05  1.721585E+05  6.596519E+04 -3.054221E+04
        57  27  2.681527E+05  1.176841E+06  2.091371E+05  2.060631E+05  7.063516E+04  2.368624E+04
        58   1 -2.306373E+05 -9.156838E+05 -1.900877E+05  2.044905E+05 -6.132698E+04  1.522289E+04
        58   2 -1.748173E+05 -6.845862E+05 -1.443059E+05  1.736242E+05 -4.932152E+04  2.210303E+04
        58   3 -1.210388E+05 -4.549005E+05 -1.035336E+05  2.036511E+05 -3.474398E+04  2.897455E+04
        58   4 -2.436931E+02  5.138979E+04 -5.701872E+03  2.047493E+05 -6.133648E+04 -1.846768E+02
        58   5  1.122378E+02  5.185475E+04 -6.389570E+03  1.743052E+05 -4.934074E+04  2.996694E+03
        58   6 -9.267248E+02  5.149974E+04 -9.514131E+03  2.047502E+05 -3.477454E+04  6.167003E+03
        58   7  2.300950E+05  1.019366E+06  1.786426E+05  2.050081E+05 -6.134597E+04 -1.561570E+04
        58   8  1.750106E+05  7.888213E+05  1.315047E+05  1.749869E+05 -4.935999E+04 -1.613176E+04
        58   9  1.191709E+05  5.581496E+05  8.449651E+04  2.058500E+05 -3.480515E+04 -1.665868E+04
        58  10 -2.306414E+05 -9.156851E+05 -1.900952E+05  2.044913E+05 -7.148484E-10 -3.891178E-10
        58  11 -1.748201E+05 -6.845874E+05 -1.443114E+05  1.736251E+05  4.859815E-10  2.046902E-09
        58  12 -1.210403E+05 -4.549018E+05 -1.035375E+05  2.036520E+05  2.053297E-10 -1.287436E-09
        58  13 -2.477331E+02  5.138878E+04 -5.708943E+03  2.047493E+05 -5.191739E-10  8.685983E-10
        58  14  1.096210E+02  5.185409E+04 -6.394163E+03  1.743053E+05  1.527946E-09  2.107496E-09
        58  15 -9.280337E+02  5.149937E+04 -9.516475E+03  2.047503E+05 -8.781480E-10  1.173792E-10
        58  16  2.300909E+05  1.019365E+06  1.786351E+05  2.050073E+05  9.001067E-10 -5.079366E-10
        58  17  1.750079E+05  7.888204E+05  1.314997E+05  1.749862E+05 -9.460876E-10  1.169362E-09
        58  18  1.191695E+05  5.581490E+05  8.449372E+04  2.058495E+05 -7.747235E-10  4.141353E-10
        58  19 -2.306373E+05 -9.156838E+05 -1.900877E+05  2.044905E+05  6.132698E+04 -1.522289E+04
        58  20 -1.748173E+05 -6.845862E+05 -1.443059E+05  1.736242E+05  4.932152E+04 -2.210303E+04
        58  21 -1.210388E+05 -4.549005E+05 -1.035336E+05  2.036511E+05  3.474398E+04 -2.897455E+04
        58  22 -2.436931E+02  5.138979E+04 -5.701872E+03  2.047493E+05  6.133648E+04  1.846768E+02
        58  23  1.122378E+02  5.185475E+04 -6.389570E+03  1.743052E+05  4.934074E+04 -2.996694E+03
        58  24 -9.267248E+02  5.149974E+04 -9.514131E+03  2.047502E+05  3.477454E+04 -6.167003E+03
        58  25  2.300950E+05  1.019366E+06  1.786426E+05  2.050081E+05  6.134597E+04  1.561570E+04
        58  26  1.750106E+05  7.888213E+05  1.315047E+05  1.749869E+05  4.935999E+04  1.613176E+04
        58  27  1.191709E+05  5.581496E+05  8.449651E+04  2.058500E+05  3.480515E+04  1.665868E+04
        59   1 -8.228467E+04 -3.001640E+05 -7.577177E+04  2.077078E+05 -2.515903E+04  3.088197E+04
        59   2 -3.341375E+04 -6.630716E+04 -3.982731E+04  1.648881E+05 -1.130176E+04  3.511866E+04
        59   3 -8.620022E+03  1.608629E+05 -1.270651E+04  1.828662E+05 -1.857267E+03  3.935950E+04
        59   4  5.239327E+02  4.996598E+04 -1.185853E+04  2.047223E+05 -2.519264E+04  7.766504E+03
        59   5 -5.457606E+03  5.389629E+04 -2.041580E+04  1.743463E+05 -1.132619E+04  1.835398E+04
        59   6 -3.661520E+04  4.998496E+04 -4.220796E+04  2.047720E+05 -1.872046E+03  2.894413E+04
        59   7  8.332593E+04  4.002163E+05  5.205176E+04  2.017350E+05 -2.522601E+04 -1.536165E+04
        59   8  2.249829E+04  1.741149E+05 -1.003576E+03  1.838064E+05 -1.135113E+04  1.586167E+03
        59   9 -6.460949E+04 -6.088080E+04 -7.170974E+04  2.266739E+05 -1.887562E+03  1.853064E+04
        59  10 -8.228561E+04 -3.001652E+05 -7.577475E+04  2.077084E+05 -5.314017E-10  1.277038E-10
        59  11 -3.341422E+04 -6.630852E+04 -3.982986E+04  1.648885E+05 -3.575779E-11  3.214124E-09
        59  12 -8.620442E+03  1.608613E+05 -1.270943E+04  1.828663E+05 -5.127901E-10 -9.901576E-10
        59  13  5.232349E+02  4.996574E+04 -1.185984E+04  2.047225E+05 -1.288382E-09  1.244268E-09
        59  14 -5.457835E+03  5.389589E+04 -2.041667E+04  1.743465E+05  8.464126E-10  2.578129E-09
        59  15 -3.661543E+04  4.998406E+04 -4.220954E+04  2.047721E+05 -7.952927E-10  1.414364E-10
        59  16  8.332519E+04  4.002159E+05  5.205012E+04  2.017347E+05  6.331775E-10 -1.472431E-09
        59  17  2.249815E+04  1.741148E+05 -1.003823E+03  1.838064E+05  7.079738E-11  7.277162E-10
        59  18 -6.460958E+04 -6.088117E+04 -7.171040E+04  2.266739E+05 -4.376505E-10 -4.330872E-11
        59  19 -8.228467E+04 -3.001640E+05 -7.577177E+04  2.077078E+05  2.515903E+04 -3.088197E+04
        59  20 -3.341375E+04 -6.630716E+04 -3.982731E+04  1.648881E+05  1.130176E+04 -3.511866E+04
        59  21 -8.620022E+03  1.608629E+05 -1.270651E+04  1.828662E+05  1.857267E+03 -3.935950E+04
        59  22  5.239327E+02  4.996598E+04 -1.185853E+04  2.047223E+05  2.519264E+04 -7.766504E+03
        59  23 -5.457606E+03  5.389629E+04 -2.041580E+04  1.743463E+05  1.132619E+04 -1.835398E+04
        59  24 -3.661520E+04  4.998496E+04 -4.220796E+04  2.047720E+05  1.872046E+03 -2.894413E+04
        59  25  8.332593E+04  4.002163E+05  5.205176E+04  2.017350E+05  2.522601E+04  1.536165E+04
        59  26  2.249829E+04  1.741149E+05 -1.003576E+03  1.838064E+05  1.135113E+04 -1.586167E+03
        59  27 -6.460949E+04 -6.088080E+04 -7.170974E+04  2.266739E+05  1.887562E+03 -1.853064E+04
        60   1  4.717620E+06  1.017920E+06  9.874491E+05  6.189821E+05  2.555150E+05 -5.101015E+04
        60   2  4.015621E+06  7.965310E+05  6.935746E+05  5.222053E+05  9.720147E+04 -1.583823E+05
        60   3  3.349134E+06  6.243868E+05  5.148476E+05  5.995634E+05 -6.067129E+04 -1.630642E+05
        60   4  7.143624E+05  2.988611E+04  3.725568E+04  6.034174E+05  2.530301E+04 -5.071327E+04
        60   5  7.103463E+05  2.215604E+03  1.796727E+04  5.163182E+05  1.591668E+04 -1.583850E+05
        60   6  7.158018E+05 -1.796127E+03  1.095979E+04  6.033860E+05  6.788726E+03 -1.631229E+05
        60   7 -3.274149E+06 -9.592678E+05 -9.138567E+05  5.879514E+05 -2.034409E+05 -5.040451E+04
        60   8 -2.584584E+06 -7.927790E+05 -6.581939E+05  5.104609E+05 -6.494552E+04 -1.583864E+05
        60   9 -1.910871E+06 -6.283847E+05 -4.932274E+05  6.071891E+05  7.397043E+04 -1.631810E+05
        60  10  4.717550E+06  1.017899E+06  9.873224E+05  6.189925E+05  7.069287E-10 -1.142661E-10
        60  11  4.015604E+06  7.965015E+05  6.935097E+05  5.222177E+05  2.898694E-10 -1.920622E-10
        60  12  3.349123E+06  6.243573E+05  5.147908E+05  5.995554E+05 -3.536892E-10 -1.280975E-10
        60  13  7.143610E+05  2.988317E+04  3.724964E+04  6.034184E+05  1.093996E-09 -4.969927E-11
        60  14  7.103393E+05  2.188587E+03  1.791962E+04  5.163202E+05 -1.065228E-09 -1.978176E-10
        60  15  7.157946E+05 -1.824724E+03  1.090968E+04  6.033869E+05  8.606592E-10 -1.999173E-10
        60  16 -3.274194E+06 -9.592817E+05 -9.139396E+05  5.879431E+05  4.800621E-10 -7.478937E-11
        60  17 -2.584595E+06 -7.928070E+05 -6.582490E+05  5.104526E+05  1.962451E-10 -1.157053E-10
        60  18 -1.910884E+06 -6.284148E+05 -4.932878E+05  6.071989E+05  3.344505E-10 -2.189239E-10
        60  19  4.717620E+06  1.017920E+06  9.874491E+05  6.189821E+05 -2.555150E+05  5.101015E+04
        60  20  4.015621E+06  7.965310E+05  6.935746E+05  5.222053E+05 -9.720147E+04  1.583823E+05
        60  21  3.349134E+06  6.243868E+05  5.148476E+05  5.995634E+05  6.067129E+04  1.630642E+05
        60  22  7.143624E+05  2.988611E+04  3.725568E+04  6.034174E+05 -2.530301E+04  5.071327E+04
        60  23  7.103463E+05  2.215604E+03  1.796727E+04  5.163182E+05 -1.591668E+04  1.583850E+05
        60  24  7.158018E+05 -1.796127E+03  1.095979E+04  6.033860E+05 -6.788726E+03  1.631229E+05
        60  25 -3.274149E+06 -9.592678E+05 -9.138567E+05  5.879514E+05  2.034409E+05  5.040451E+04
        60  26 -2.584584E+06 -7.927790E+05 -6.581939E+05  5.104609E+05  6.494552E+04  1.583864E+05
        60  27 -1.910871E+06 -6.283847E+05 -4.932274E+05  6.071891E+05 -7.397043E+04  1.631810E+05
        61   1  2.881147E+06  5.151945E+05  4.224412E+05  6.049731E+05 -4.395322E+04 -1.355229E+05
        61   2  2.197792E+06  3.516024E+05  2.849219E+05  5.150372E+05 -5.716519E+04 -9.801068E+04
        61   3  1.517892E+06  1.907704E+05  1.567878E+05  6.049945E+05 -7.041152E+04 -5.355046E+04
        61   4  7.144180E+05  6.592270E+01  8.942986E+03  6.046731E+05  5.223374E+03 -1.355483E+05
        61   5  7.141073E+05 -3.153428E+02  6.484947E+03  5.147130E+05  2.033250E+03 -9.799943E+04
        61   6  7.150710E+05  3.536087E+02  6.478290E+03  6.046735E+05 -1.205184E+03 -5.349330E+04
        61   7 -1.447799E+06 -5.153370E+05 -4.047589E+05  6.043718E+05  5.423299E+04 -1.355738E+05
        61   8 -7.674480E+05 -3.523585E+05 -2.720346E+05  5.143886E+05  6.109413E+04 -9.798820E+04
        61   9 -8.711772E+04 -1.900978E+05 -1.438411E+05  6.043525E+05  6.791408E+04 -5.343615E+04
        61  10  2.881140E+06  5.151743E+05  4.224031E+05  6.049683E+05 -3.622939E-10 -6.711196E-11
        61  11  2.197786E+06  3.515912E+05  2.848978E+05  5.150327E+05  8.554244E-10  9.695786E-11
        61  12  1.517886E+06  1.907660E+05  1.567731E+05  6.049914E+05  1.946200E-09  7.599437E-10
        61  13  7.144130E+05  4.617809E+01  8.908393E+03  6.046736E+05  2.096365E-09 -2.042233E-11
        61  14  7.141047E+05 -3.256604E+02  6.466885E+03  5.147132E+05  1.575771E-09  6.537109E-11
        61  15  7.150702E+05  3.505346E+02  6.472908E+03  6.046734E+05  1.922869E-09  1.843455E-10
        61  16 -1.447807E+06 -5.153576E+05 -4.047990E+05  6.043777E+05  9.117349E-10 -6.479695E-11
        61  17 -7.674546E+05 -3.523699E+05 -2.720596E+05  5.143935E+05 -6.424232E-10  1.159467E-10
        61  18 -8.712344E+04 -1.901021E+05 -1.438551E+05  6.043554E+05 -8.939907E-12 -4.370260E-10
        61  19  2.881147E+06  5.151945E+05  4.224412E+05  6.049731E+05  4.395322E+04  1.355229E+05
        61  20  2.197792E+06  3.516024E+05  2.849219E+05  5.150372E+05  5.716519E+04  9.801068E+04
        61  21  1.517892E+06  1.907704E+05  1.567878E+05  6.049945E+05  7.041152E+04  5.355046E+04
        61  22  7.144180E+05  6.592270E+01  8.942986E+03  6.046731E+05 -5.223374E+03  1.355483E+05
        61  23  7.141073E+05 -3.153428E+02  6.484947E+03  5.147130E+05 -2.033250E+03  9.799943E+04
        61  24  7.150710E+05  3.536087E+02  6.478290E+03  6.046735E+05  1.205184E+03  5.349330E+04
        61  25 -1.447799E+06 -5.153370E+05 -4.047589E+05  6.043718E+05 -5.423299E+04  1.355738E+05
        61  26 -7.674480E+05 -3.523585E+05 -2.720346E+05  5.143886E+05 -6.109413E+04  9.798820E+04
        61  27 -8.711772E+04 -1.900978E+05 -1.438411E+05  6.043525E+05 -6.791408E+04  5.343615E+04
        62   1  1.056511E+06  8.093700E+04  6.880154E+04  6.052274E+05 -7.125839E+04 -2.520675E+04
        62   2  3.756638E+05 -8.029734E+04 -5.557808E+04  5.143450E+05 -6.932812E+04  2.012484E+04
        62   3 -3.045832E+05 -2.406183E+05 -1.809868E+05  6.034376E+05 -6.739051E+04  6.062245E+04
        62   4  7.151923E+05  4.064374E+02  7.116494E+03  6.046840E+05 -2.439985E+03 -2.514038E+04
        62   5  7.144425E+05  5.624919E+02  1.013604E+04  5.146991E+05 -7.511112E+03  2.017567E+04
        62   6  7.150411E+05  2.863245E+03  1.697451E+04  6.046817E+05 -1.257281E+04  6.066014E+04
        62   7  3.739966E+05 -8.012811E+04 -5.455536E+04  6.041408E+05  6.634169E+04 -2.507409E+04
        62   8  1.053340E+06  8.141753E+04  7.585911E+04  5.150534E+05  5.433886E+04  2.022655E+04
        62   9  1.735670E+06  2.462843E+05  2.148981E+05  6.059272E+05  4.233294E+04  6.069800E+04
        62  10  1.056506E+06  8.093496E+04  6.879083E+04  6.052260E+05  5.367436E-10  6.362955E-10
        62  11  3.756586E+05 -8.029907E+04 -5.558788E+04  5.143462E+05  8.205015E-10  2.037583E-10
        62  12 -3.045891E+05 -2.406235E+05 -1.810023E+05  6.034409E+05  1.269094E-09  2.772667E-10
        62  13  7.151921E+05  4.057570E+02  7.115295E+03  6.046839E+05  3.182208E-09  2.002994E-10
        62  14  7.144424E+05  5.620393E+02  1.013516E+04  5.146993E+05  5.303188E-10  2.247567E-10
        62  15  7.150400E+05  2.859249E+03  1.696729E+04  6.046823E+05  1.330533E-09 -1.943005E-10
        62  16  3.739917E+05 -8.012996E+04 -5.456481E+04  6.041421E+05  4.944695E-10 -2.247289E-10
        62  17  1.053336E+06  8.141630E+04  7.585280E+04  5.150525E+05 -8.022455E-10  3.218964E-10
        62  18  1.735667E+06  2.462799E+05  2.148879E+05  6.059252E+05 -2.028539E-09 -6.238417E-10
        62  19  1.056511E+06  8.093700E+04  6.880154E+04  6.052274E+05  7.125839E+04  2.520675E+04
        62  20  3.756638E+05 -8.029734E+04 -5.557808E+04  5.143450E+05  6.932812E+04 -2.012484E+04
        62  21 -3.045832E+05 -2.406183E+05 -1.809868E+05  6.034376E+05  6.739051E+04 -6.062245E+04
        62  22  7.151923E+05  4.064374E+02  7.116494E+03  6.046840E+05  2.439985E+03  2.514038E+04
        62  23  7.144425E+05  5.624919E+02  1.013604E+04  5.146991E+05  7.511112E+03 -2.017567E+04
        62  24  7.150411E+05  2.863245E+03  1.697451E+04  6.046817E+05  1.257281E+04 -6.066014E+04
        62  25  3.739966E+05 -8.012811E+04 -5.455536E+04  6.041408E+05 -6.634169E+04  2.507409E+04
        62  26  1.053340E+06  8.141753E+04  7.585911E+04  5.150534E+05 -5.433886E+04 -2.022655E+04
        62  27  1.735670E+06  2.462843E+05  2.148981E+05  6.059272E+05 -4.233294E+04 -6.069800E+04
        63   1 -7.650556E+05 -3.543662E+05 -2.661191E+05  6.097425E+05 -8.353183E+04  8.842701E+04
        63   2 -1.444788E+06 -5.102921E+05 -4.087047E+05  4.984464E+05  4.724683E+03  9.826575E+04
        63   3 -2.127075E+06 -6.365584E+05 -6.012135E+05  5.629307E+05  9.279549E+04  3.303404E+04
        63   4  7.180112E+05 -1.659160E+02  2.170991E+04  6.037324E+05 -1.553415E+04  8.845693E+04
        63   5  7.096650E+05  1.016637E+04  3.804290E+04  5.158746E+05 -3.520188E+04  9.823333E+04
        63   6  7.170509E+05  6.886479E+04  7.942347E+04  6.037390E+05 -5.495996E+04  3.306442E+04
        63   7  2.203201E+06  3.539057E+05  3.094528E+05  5.977064E+05  5.262250E+04  8.848543E+04
        63   8  2.868524E+06  5.303321E+05  4.845438E+05  5.333626E+05 -7.526471E+04  9.819877E+04
        63   9  3.568653E+06  7.737197E+05  7.595726E+05  6.447326E+05 -2.033906E+05  3.307553E+04
        63  10 -7.650652E+05 -3.543765E+05 -2.661470E+05  6.097484E+05  2.661857E-11  2.471102E-11
        63  11 -1.444791E+06 -5.103024E+05 -4.087229E+05  4.984460E+05 -1.217575E-11 -7.457093E-10
        63  12 -2.127085E+06 -6.365619E+05 -6.012318E+05  5.629283E+05 -8.277936E-10 -3.736942E-10
        63  13  7.180089E+05 -1.743878E+02  2.169475E+04  6.037335E+05  1.117053E-09 -3.301676E-10
        63  14  7.096611E+05  1.015567E+04  3.802242E+04  5.158774E+05 -5.704149E-10 -1.562257E-10
        63  15  7.170474E+05  6.886281E+04  7.941573E+04  6.037405E+05  1.509003E-09  5.750500E-11
        63  16  2.203196E+06  3.538965E+05  3.094329E+05  5.977026E+05  1.394311E-09 -7.146794E-10
        63  17  2.868515E+06  5.303203E+05  4.845150E+05  5.333686E+05  4.668655E-11  2.313303E-10
        63  18  3.568608E+06  7.737074E+05  7.594932E+05  6.447380E+05  1.113224E-09  1.949548E-10
        63  19 -7.650556E+05 -3.543662E+05 -2.661191E+05  6.097425E+05  8.353183E+04 -8.842701E+04
        63  20 -1.444788E+06 -5.102921E+05 -4.087047E+05  4.984464E+05 -4.724683E+03 -9.826575E+04
        63  21 -2.127075E+06 -6.365584E+05 -6.012135E+05  5.629307E+05 -9.279549E+04 -3.303404E+04
        63  22  7.180112E+05 -1.659160E+02  2.170991E+04  6.037324E+05  1.553415E+04 -8.845693E+04
        63  23  7.096650E+05  1.016637E+04  3.804290E+04  5.158746E+05  3.520188E+04 -9.823333E+04
        63  24  7.170509E+05  6.886479E+04  7.942347E+04  6.037390E+05  5.495996E+04 -3.306442E+04
        63  25  2.203201E+06  3.539057E+05  3.094528E+05  5.977064E+05 -5.262250E+04 -8.848543E+04
        63  26  2.868524E+06  5.303321E+05  4.845438E+05  5.333626E+05  7.526471E+04 -9.819877E+04
        63  27  3.568653E+06  7.737197E+05  7.595726E+05  6.447326E+05  2.033906E+05 -3.307553E+04
        64   1 -2.731147E+05 -6.773098E+05 -2.795091E+05  3.589380E+05 -7.237742E+03 -8.700306E+04
        64   2 -1.209569E+05 -3.086254E+05 -1.373014E+05  2.883317E+05 -1.631849E+04 -3.444136E+04
        64   3 -2.288239E+04  3.920764E+04 -4.298546E+04  3.112149E+05 -2.712419E+03  1.809151E+04
        64   4 -7.018647E+04  1.406218E+05 -8.153182E+04  3.183337E+05 -7.136245E+03 -5.740147E+04
        64   5 -9.886870E+03  1.483125E+05 -3.826889E+04  2.714733E+05 -1.632647E+04 -3.746309E+04
        64   6  2.029280E+03  1.407216E+05 -2.019978E+04  3.181120E+05 -2.833481E+03 -1.758476E+04
        64   7  1.326997E+05  9.591707E+05  1.164016E+05  2.776751E+05 -7.038700E+03 -2.776094E+04
        64   8  1.011704E+05  6.054470E+05  6.075141E+04  2.546022E+05 -1.633428E+04 -4.048700E+04
        64   9  2.694110E+04  2.422481E+05  2.590045E+03  3.250103E+05 -2.955324E+03 -5.326680E+04
        64  10 -2.731168E+05 -6.773179E+05 -2.795234E+05  3.589375E+05  6.142292E-10 -4.287249E-10
        64  11 -1.209575E+05 -3.086267E+05 -1.373041E+05  2.883313E+05 -5.717780E-11  5.522887E-10
        64  12 -2.288249E+04  3.920729E+04 -4.298609E+04  3.112149E+05  6.963572E-10  1.327332E-09
        64  13 -7.018740E+04  1.406183E+05 -8.153811E+04  3.183334E+05  2.942333E-10  8.270859E-11
        64  14 -9.887533E+03  1.483109E+05 -3.827203E+04  2.714728E+05 -1.066189E-09  6.081886E-11
        64  15  2.029189E+03  1.407213E+05 -2.020038E+04  3.181120E+05 -3.620203E-10  9.621351E-11
        64  16  1.326994E+05  9.591699E+05  1.164001E+05  2.776749E+05 -1.921489E-10  6.317237E-10
        64  17  1.011697E+05  6.054452E+05  6.074783E+04  2.546016E+05 -1.868517E-09 -3.367737E-10
        64  18  2.694033E+04  2.422450E+05  2.584699E+03  3.250101E+05 -5.290282E-10 -1.132512E-09
        64  19 -2.731147E+05 -6.773098E+05 -2.795091E+05  3.589380E+05  7.237742E+03  8.700306E+04
        64  20 -1.209569E+05 -3.086254E+05 -1.373014E+05  2.883317E+05  1.631849E+04  3.444136E+04
        64  21 -2.288239E+04  3.920764E+04 -4.298546E+04  3.112149E+05  2.712419E+03 -1.809151E+04
        64  22 -7.018647E+04  1.406218E+05 -8.153182E+04  3.183337E+05  7.136245E+03  5.740147E+04
        64  23 -9.886870E+03  1.483125E+05 -3.826889E+04  2.714733E+05  1.632647E+04  3.746309E+04
        64  24  2.029280E+03  1.407216E+05 -2.019978E+04  3.181120E+05  2.833481E+03  1.758476E+04
        64  25  1.326997E+05  9.591707E+05  1.164016E+05  2.776751E+05  7.038700E+03  2.776094E+04
        64  26  1.011704E+05  6.054470E+05  6.075141E+04  2.546022E+05  1.633428E+04  4.048700E+04
        64  27  2.694110E+04  2.422481E+05  2.590045E+03  3.250103E+05  2.955324E+03  5.326680E+04
        65   1  3.241392E+04  2.857757E+05  9.585157E+03  3.194444E+05  1.203457E+04  1.712245E+04
        65   2  1.200732E+05  6.442344E+05  8.798738E+04  2.724777E+05  3.352265E+04  1.731578E+04
        65   3  2.073620E+05  1.002098E+06  1.659974E+05  3.200820E+05  5.326696E+04  1.752313E+04
        65   4 -8.177238E+02  1.438600E+05 -1.465876E+04  3.183903E+05  1.192536E+04 -1.508823E+04
        65   5  1.436169E+03  1.443771E+05 -5.545939E+03  2.710963E+05  3.342830E+04 -1.238896E+04
        65   6  2.891774E+03  1.437434E+05  1.438937E+03  3.183779E+05  5.318644E+04 -9.675769E+03
        65   7 -3.404988E+04  1.966305E+03 -3.889945E+04  3.173365E+05  1.181625E+04 -4.729178E+04
        65   8 -1.172149E+05 -3.552368E+05 -9.908671E+04  2.697157E+05  3.333403E+04 -4.207040E+04
        65   9 -2.016215E+05 -7.139015E+05 -1.631505E+05  3.166754E+05  5.310601E+04 -3.683798E+04
        65  10  3.241368E+04  2.857754E+05  9.584334E+03  3.194442E+05  6.657283E-10 -6.623432E-10
        65  11  1.200720E+05  6.442338E+05  8.798471E+04  2.724772E+05  2.768652E-10 -3.485112E-10
        65  12  2.073588E+05  1.002097E+06  1.659915E+05  3.200812E+05 -8.742215E-10  5.577437E-11
        65  13 -8.179378E+02  1.438597E+05 -1.465945E+04  3.183905E+05 -1.549595E-10  7.273876E-13
        65  14  1.434927E+03  1.443767E+05 -5.548329E+03  2.710966E+05 -1.206710E-09 -4.283265E-11
        65  15  2.888710E+03  1.437426E+05  1.433444E+03  3.183783E+05 -1.152990E-09  4.516350E-11
        65  16 -3.405063E+04  1.963866E+03 -3.890391E+04  3.173370E+05  1.404589E-09  8.940644E-10
        65  17 -1.172165E+05 -3.552390E+05 -9.909213E+04  2.697169E+05 -2.106756E-09  4.087971E-10
        65  18 -2.016249E+05 -7.139037E+05 -1.631583E+05  3.166770E+05 -4.630185E-10 -9.234023E-11
        65  19  3.241392E+04  2.857757E+05  9.585157E+03  3.194444E+05 -1.203457E+04 -1.712245E+04
        65  20  1.200732E+05  6.442344E+05  8.798738E+04  2.724777E+05 -3.352265E+04 -1.731578E+04
        65  21  2.073620E+05  1.002098E+06  1.659974E+05  3.200820E+05 -5.326696E+04 -1.752313E+04
        65  22 -8.177238E+02  1.438600E+05 -1.465876E+04  3.183903E+05 -1.192536E+04  1.508823E+04
        65  23  1.436169E+03  1.443771E+05 -5.545939E+03  2.710963E+05 -3.342830E+04  1.238896E+04
        65  24  2.891774E+03  1.437434E+05  1.438937E+03  3.183779E+05 -5.318644E+04  9.675769E+03
        65  25 -3.404988E+04  1.966305E+03 -3.889945E+04  3.173365E+05 -1.181625E+04  4.729178E+04
        65  26 -1.172149E+05 -3.552368E+05 -9.908671E+04  2.697157E+05 -3.333403E+04  4.207040E+04
        65  27 -2.016215E+05 -7.139015E+05 -1.631505E+05  3.166754E+05 -5.310601E+04  3.683798E+04
        66   1  2.643612E+05  1.248206E+06  2.167485E+05  3.174187E+05  6.783411E+04  2.524103E+04
        66   2  3.563097E+05  1.598211E+06  3.125884E+05  2.814954E+05  6.851766E+04 -4.976157E+04
        66   3  4.796855E+05  1.965731E+06  4.649909E+05  3.374277E+05  2.203551E+04 -1.247193E+05
        66   4  1.544766E+03  1.451558E+05  4.738748E+03  3.177888E+05  6.773603E+04 -1.007689E+04
        66   5  5.498277E+03  1.421745E+05  1.330910E+04  2.718218E+05  6.861972E+04 -1.699724E+04
        66   6  2.911985E+04  1.448222E+05  3.124802E+04  3.177156E+05  2.228975E+04 -2.382758E+04
        66   7 -2.613430E+05 -9.567226E+05 -2.073224E+05  3.181571E+05  6.763781E+04 -4.533359E+04
        66   8 -3.454457E+05 -1.311851E+06 -2.860797E+05  2.621694E+05  6.872090E+04  1.569178E+04
        66   9 -4.216782E+05 -1.673029E+06 -4.026890E+05  2.980589E+05  2.253803E+04  7.677041E+04
        66  10  2.643561E+05  1.248204E+06  2.167387E+05  3.174173E+05  6.992059E-10  5.022990E-10
        66  11  3.563040E+05  1.598207E+06  3.125750E+05  2.814982E+05 -4.576098E-10  1.870682E-10
        66  12  4.796808E+05  1.965715E+06  4.649608E+05  3.374299E+05 -3.719136E-10 -1.437626E-10
        66  13  1.539811E+03  1.451544E+05  4.729933E+03  3.177893E+05  6.695938E-10  3.565861E-12
        66  14  5.493142E+03  1.421730E+05  1.329971E+04  2.718227E+05  9.862845E-10 -1.963766E-11
        66  15  2.911916E+04  1.448215E+05  3.124602E+04  3.177160E+05 -3.490725E-10  1.033835E-10
        66  16 -2.613485E+05 -9.567261E+05 -2.073348E+05  3.181596E+05  9.710928E-10 -4.712676E-10
        66  17 -3.454509E+05 -1.311853E+06 -2.860891E+05  2.621686E+05 -3.969478E-10 -9.988550E-11
        66  18 -4.216804E+05 -1.673036E+06 -4.027011E+05  2.980575E+05 -4.020076E-12  1.905968E-10
        66  19  2.643612E+05  1.248206E+06  2.167485E+05  3.174187E+05 -6.783411E+04 -2.524103E+04
        66  20  3.563097E+05  1.598211E+06  3.125884E+05  2.814954E+05 -6.851766E+04  4.976157E+04
        66  21  4.796855E+05  1.965731E+06  4.649909E+05  3.374277E+05 -2.203551E+04  1.247193E+05
        66  22  1.544766E+03  1.451558E+05  4.738748E+03  3.177888E+05 -6.773603E+04  1.007689E+04
        66  23  5.498277E+03  1.421745E+05  1.330910E+04  2.718218E+05 -6.861972E+04  1.699724E+04
        66  24  2.911985E+04  1.448222E+05  3.124802E+04  3.177156E+05 -2.228975E+04  2.382758E+04
        66  25 -2.613430E+05 -9.567226E+05 -2.073224E+05  3.181571E+05 -6.763781E+04  4.533359E+04
        66  26 -3.454457E+05 -1.311851E+06 -2.860797E+05  2.621694E+05 -6.872090E+04 -1.569178E+04
        66  27 -4.216782E+05 -1.673029E+06 -4.026890E+05  2.980589E+05 -2.253803E+04 -7.677041E+04
        67   1  3.496804E+06  7.426382E+05  7.345362E+05  4.946996E+05  2.288258E+05 -3.188963E+04
        67   2  2.988425E+06  5.153711E+05  4.847096E+05  3.956709E+05  1.018477E+05 -9.810370E+04
        67   3  2.520264E+06  3.789698E+05  3.400587E+05  4.215082E+05 -2.493778E+04 -9.788479E+04
        67   4  9.251019E+05  1.074547E+05  1.230673E+05  4.312585E+05  8.479090E+04 -3.184575E+04
        67   5  9.137057E+05  1.628343E+04  5.918508E+04  3.688150E+05  5.403817E+04 -9.812689E+04
        67   6  9.257915E+05 -4.916671E+02  3.400481E+04  4.312294E+05  2.337006E+04 -9.788904E+04
        67   7 -1.640504E+06 -5.281781E+05 -4.887840E+05  3.680791E+05 -5.865344E+04 -3.177265E+04
        67   8 -1.156936E+06 -4.830703E+05 -3.665600E+05  3.420493E+05  6.384753E+03 -9.814604E+04
        67   9 -6.662377E+05 -3.801016E+05 -2.721571E+05  4.409241E+05  7.155705E+04 -9.789177E+04
        67  10  3.496748E+06  7.426232E+05  7.344364E+05  4.947055E+05 -3.632457E-09  6.695082E-10
        67  11  2.988411E+06  5.153580E+05  4.846720E+05  3.956789E+05 -1.921035E-09  1.422078E-09
        67  12  2.520261E+06  3.789593E+05  3.400395E+05  4.215063E+05 -1.239850E-09 -5.434455E-10
        67  13  9.250939E+05  1.074516E+05  1.230519E+05  4.312607E+05 -1.182743E-09  9.498225E-10
        67  14  9.136999E+05  1.627229E+04  5.916148E+04  3.688193E+05  1.568535E-09  1.516197E-09
        67  15  9.257883E+05 -5.021098E+02  3.398576E+04  4.312312E+05  1.024600E-09 -1.700166E-10
        67  16 -1.640508E+06 -5.281801E+05 -4.887924E+05  3.680775E+05  4.183214E-09  5.957258E-10
        67  17 -1.156938E+06 -4.830806E+05 -3.665782E+05  3.420498E+05  2.196806E-09  1.671291E-09
        67  18 -6.662457E+05 -3.801133E+05 -2.721847E+05  4.409297E+05  1.579505E-09  3.381368E-10
        67  19  3.496804E+06  7.426382E+05  7.345362E+05  4.946996E+05 -2.288258E+05  3.188963E+04
        67  20  2.988425E+06  5.153711E+05  4.847096E+05  3.956709E+05 -1.018477E+05  9.810370E+04
        67  21  2.520264E+06  3.789698E+05  3.400587E+05  4.215082E+05  2.493778E+04  9.788479E+04
        67  22  9.251019E+05  1.074547E+05  1.230673E+05  4.312585E+05 -8.479090E+04  3.184575E+04
        67  23  9.137057E+05  1.628343E+04  5.918508E+04  3.688150E+05 -5.403817E+04  9.812689E+04
        67  24  9.257915E+05 -4.916671E+02  3.400481E+04  4.312294E+05 -2.337006E+04  9.788904E+04
        67  25 -1.640504E+06 -5.281781E+05 -4.887840E+05  3.680791E+05  5.865344E+04  3.177265E+04
        67  26 -1.156936E+06 -4.830703E+05 -3.665600E+05  3.420493E+05 -6.384753E+03  9.814604E+04
        67  27 -6.662377E+05 -3.801016E+05 -2.721571E+05  4.409241E+05 -7.155705E+04  9.789177E+04
        68   1  2.183109E+06  3.042134E+05  2.685344E+05  4.337923E+05 -1.777324E+04 -7.815105E+04
        68   2  1.694841E+06  1.842451E+05  1.628100E+05  3.684624E+05 -3.259610E+04 -5.062844E+04
        68   3  1.210009E+06  6.881414E+04  6.786425E+04  4.316167E+05 -4.742629E+04 -1.867117E+04
        68   4  9.212208E+05  3.960103E+03  2.689262E+04  4.320484E+05  1.874816E+04 -7.814489E+04
        68   5  9.202954E+05  3.891312E+02  1.691039E+04  3.678030E+05  1.032788E+04 -5.060624E+04
        68   6  9.214682E+05  2.608133E+02  1.327990E+04  4.320512E+05  1.889050E+03 -1.862971E+04
        68   7 -3.391365E+05 -2.963863E+05 -2.148169E+05  4.303075E+05  5.519725E+04 -7.813890E+04
        68   8  1.463320E+05 -1.835007E+05 -1.290086E+05  3.671442E+05  5.319974E+04 -5.058411E+04
        68   9  6.330127E+05 -6.829606E+04 -4.129902E+04  4.324854E+05  5.118206E+04 -1.858817E+04
        68  10  2.183107E+06  3.042068E+05  2.685224E+05  4.337912E+05 -4.986958E-08 -2.433108E-09
        68  11  1.694839E+06  1.842421E+05  1.628032E+05  3.684611E+05  7.693642E-11 -3.771618E-09
        68  12  1.210007E+06  6.881316E+04  6.785938E+04  4.316160E+05  5.199410E-08 -2.930939E-09
        68  13  9.212187E+05  3.953447E+03  2.688047E+04  4.320496E+05  1.144288E-09 -2.045932E-09
        68  14  9.202946E+05  3.863509E+02  1.690537E+04  3.678034E+05  8.047329E-11 -3.715662E-09
        68  15  9.214681E+05  2.604394E+02  1.327924E+04  4.320512E+05 -2.328541E-10 -2.450658E-09
        68  16 -3.391414E+05 -2.963937E+05 -2.148341E+05  4.303110E+05  5.118015E-08 -1.701500E-09
        68  17  1.463283E+05 -1.835042E+05 -1.290188E+05  3.671463E+05 -5.691128E-10 -3.769487E-09
        68  18  6.330098E+05 -6.829714E+04 -4.130459E+04  4.324861E+05 -5.031529E-08 -2.311797E-09
        68  19  2.183109E+06  3.042134E+05  2.685344E+05  4.337923E+05  1.777324E+04  7.815105E+04
        68  20  1.694841E+06  1.842451E+05  1.628100E+05  3.684624E+05  3.259610E+04  5.062844E+04
        68  21  1.210009E+06  6.881414E+04  6.786425E+04  4.316167E+05  4.742629E+04  1.867117E+04
        68  22  9.212208E+05  3.960103E+03  2.689262E+04  4.320484E+05 -1.874816E+04  7.814489E+04
        68  23  9.202954E+05  3.891312E+02  1.691039E+04  3.678030E+05 -1.032788E+04  5.060624E+04
        68  24  9.214682E+05  2.608133E+02  1.327990E+04  4.320512E+05 -1.889050E+03  1.862971E+04
        68  25 -3.391365E+05 -2.963863E+05 -2.148169E+05  4.303075E+05 -5.519725E+04  7.813890E+04
        68  26  1.463320E+05 -1.835007E+05 -1.290086E+05  3.671442E+05 -5.319974E+04  5.058411E+04
        68  27  6.330127E+05 -6.829606E+04 -4.129902E+04  4.324854E+05 -5.118206E+04  1.858817E+04
        69   1  8.805262E+05 -9.607293E+03  4.338091E+03  4.324485E+05 -4.967694E+04  1.570718E+03
        69   2  3.939155E+05 -1.247531E+05 -8.426725E+04  3.671805E+05 -5.170340E+04  3.373688E+04
        69   3 -9.161937E+04 -2.378566E+05 -1.710510E+05  4.304208E+05 -5.371577E+04  6.192274E+04
        69   4  9.214286E+05  3.046265E+02  1.303614E+04  4.320527E+05 -4.529433E+02  1.613654E+03
        69   5  9.204206E+05  4.463493E+02  1.559588E+04  3.678012E+05 -8.235417E+03  3.376524E+04
        69   6  9.212598E+05  3.639383E+03  2.396740E+04  4.320503E+05 -1.600542E+04  6.193874E+04
        69   7  9.623378E+05  1.021774E+04  2.174320E+04  4.316569E+05  4.877424E+04  1.656524E+03
        69   8  1.447197E+06  1.256306E+05  1.154537E+05  3.684224E+05  3.526852E+04  3.379368E+04
        69   9  1.935128E+06  2.450754E+05  2.189437E+05  4.336821E+05  2.176507E+04  6.195492E+04
        69  10  8.805235E+05 -9.607957E+03  4.333456E+03  4.324486E+05  1.046751E-09 -9.401586E-10
        69  11  3.939123E+05 -1.247550E+05 -8.427442E+04  3.671819E+05 -3.651020E-10  2.119502E-09
        69  12 -9.162350E+04 -2.378615E+05 -1.710637E+05  4.304234E+05  5.935458E-10  2.156297E-09
        69  13  9.214286E+05  3.046236E+02  1.303614E+04  4.320527E+05 -1.168842E-09 -8.817692E-10
        69  14  9.204202E+05  4.451061E+02  1.559360E+04  3.678015E+05  1.649362E-09  1.423843E-09
        69  15  9.212585E+05  3.635192E+03  2.395970E+04  4.320511E+05  1.190311E-09  1.632188E-09
        69  16  9.623353E+05  1.021710E+04  2.173873E+04  4.316568E+05 -1.627780E-09 -5.207868E-10
        69  17  1.447195E+06  1.256290E+05  1.154493E+05  3.684214E+05 -1.013114E-09  4.615130E-10
        69  18  1.935127E+06  2.450711E+05  2.189356E+05  4.336810E+05 -1.210238E-09  1.192753E-09
        69  19  8.805262E+05 -9.607293E+03  4.338091E+03  4.324485E+05  4.967694E+04 -1.570718E+03
        69  20  3.939155E+05 -1.247531E+05 -8.426725E+04  3.671805E+05  5.170340E+04 -3.373688E+04
        69  21 -9.161937E+04 -2.378566E+05 -1.710510E+05  4.304208E+05  5.371577E+04 -6.192274E+04
        69  22  9.214286E+05  3.046265E+02  1.303614E+04  4.320527E+05  4.529433E+02 -1.613654E+03
        69  23  9.204206E+05  4.463493E+02  1.559588E+04  3.678012E+05  8.235417E+03 -3.376524E+04
        69  24  9.212598E+05  3.639383E+03  2.396740E+04  4.320503E+05  1.600542E+04 -6.193874E+04
        69  25  9.623378E+05  1.021774E+04  2.174320E+04  4.316569E+05 -4.877424E+04 -1.656524E+03
        69  26  1.447197E+06  1.256306E+05  1.154537E+05  3.684224E+05 -3.526852E+04 -3.379368E+04
        69  27  1.935128E+06  2.450754E+05  2.189437E+05  4.336821E+05 -2.176507E+04 -6.195492E+04
        70   1 -4.190375E+05 -3.208939E+05 -2.292714E+05  4.395941E+05 -6.849383E+04  8.171983E+04
        70   2 -9.087507E+05 -4.255206E+05 -3.241726E+05  3.450349E+05 -8.263584E+03  8.512458E+04
        70   3 -1.392864E+06 -4.801723E+05 -4.456823E+05  3.756817E+05  5.186098E+04  2.797388E+04
        70   4  9.252444E+05 -2.379888E+02  3.006319E+04  4.313024E+05 -2.012281E+04  8.173046E+04
        70   5  9.147155E+05  1.441300E+04  5.190847E+04  3.687248E+05 -4.702257E+04  8.510234E+04
        70   6  9.246370E+05  9.408690E+04  1.076191E+05  4.313107E+05 -7.398207E+04  2.800583E+04
        70   7  2.271268E+06  3.203122E+05  2.893227E+05  4.229915E+05  2.835064E+04  8.173976E+04
        70   8  2.741341E+06  4.541395E+05  4.278164E+05  3.924847E+05 -8.589336E+04  8.507721E+04
        70   9  3.247107E+06  6.679780E+05  6.606041E+05  4.871473E+05 -2.002931E+05  2.801528E+04
        70  10 -4.190443E+05 -3.209024E+05 -2.292928E+05  4.395987E+05  1.009138E-09  1.311937E-09
        70  11 -9.087527E+05 -4.255284E+05 -3.241863E+05  3.450355E+05  2.096902E-10  4.195706E-10
        70  12 -1.392868E+06 -4.801739E+05 -4.456888E+05  3.756806E+05  1.142609E-09  1.177052E-10
        70  13  9.252422E+05 -2.452750E+02  3.004987E+04  4.313037E+05  9.061942E-12  1.240983E-09
        70  14  9.147112E+05  1.440462E+04  5.189070E+04  3.687280E+05  5.069383E-10  6.858666E-10
        70  15  9.246309E+05  9.408459E+04  1.076074E+05  4.313124E+05  5.911491E-10  1.118414E-10
        70  16  2.271266E+06  3.203048E+05  2.893086E+05  4.229897E+05  4.571684E-10  1.205271E-09
        70  17  2.741331E+06  4.541298E+05  4.277889E+05  3.924905E+05  3.628279E-10  8.196743E-10
        70  18  3.247064E+06  6.679665E+05  6.605276E+05  4.871518E+05 -4.173431E-11  2.406176E-10
        70  19 -4.190375E+05 -3.208939E+05 -2.292714E+05  4.395941E+05  6.849383E+04 -8.171983E+04
        70  20 -9.087507E+05 -4.255206E+05 -3.241726E+05  3.450349E+05  8.263584E+03 -8.512458E+04
        70  21 -1.392864E+06 -4.801723E+05 -4.456823E+05  3.756817E+05 -5.186098E+04 -2.797388E+04
        70  22  9.252444E+05 -2.379888E+02  3.006319E+04  4.313024E+05  2.012281E+04 -8.173046E+04
        70  23  9.147155E+05  1.441300E+04  5.190847E+04  3.687248E+05  4.702257E+04 -8.510234E+04
        70  24  9.246370E+05  9.408690E+04  1.076191E+05  4.313107E+05  7.398207E+04 -2.800583E+04
        70  25  2.271268E+06  3.203122E+05  2.893227E+05  4.229915E+05 -2.835064E+04 -8.173976E+04
        70  26  2.741341E+06  4.541395E+05  4.278164E+05  3.924847E+05  8.589336E+04 -8.507721E+04
        70  27  3.247107E+06  6.679780E+05  6.606041E+05  4.871473E+05  2.002931E+05 -2.801528E+04
        71   1 -7.097233E+05 -2.645255E+06 -7.019234E+05  6.729889E+05 -2.856456E+04 -1.860098E+05
        71   2 -4.532293E+05 -1.917534E+06 -4.257132E+05  5.548812E+05 -8.097222E+04 -6.594053E+04
        71   3 -2.663612E+05 -1.222771E+06 -2.453854E+05  6.209985E+05 -6.549407E+04  5.416711E+04
        71   4 -7.699527E+04 -9.650279E+04 -9.006456E+04  6.308645E+05 -2.822394E+04 -6.171200E+04
        71   5 -1.053439E+04 -8.788772E+04 -4.349509E+04  5.386502E+05 -8.087404E+04 -3.896893E+04
        71   6  3.387886E+03 -9.566679E+04 -2.494721E+04  6.306592E+05 -6.571926E+04 -1.633172E+04
        71   7  5.552758E+05  2.458253E+06  5.213927E+05  5.885592E+05 -2.790115E+04  6.309610E+04
        71   8  4.319480E+05  1.744934E+06  3.385408E+05  5.223669E+05 -8.077747E+04 -1.191884E+04
        71   9  2.730634E+05  1.032669E+06  1.954488E+05  6.403364E+05 -6.594638E+04 -8.695592E+04
        71  10 -7.097335E+05 -2.645293E+06 -7.019902E+05  6.729846E+05  3.490732E-10 -2.204196E-08
        71  11 -4.532375E+05 -1.917540E+06 -4.257337E+05  5.548769E+05  2.812405E-09  1.326360E-09
        71  12 -2.663666E+05 -1.222776E+06 -2.453990E+05  6.210014E+05  1.282316E-09  2.512840E-08
        71  13 -7.699715E+04 -9.650710E+04 -9.007321E+04  6.308631E+05  5.666704E-10  1.711043E-11
        71  14 -1.054182E+04 -8.789110E+04 -4.351022E+04  5.386476E+05  3.829302E-10  3.844588E-10
        71  15  3.383179E+03 -9.566824E+04 -2.495582E+04  6.306584E+05  1.336684E-09  3.320680E-11
        71  16  5.552739E+05  2.458248E+06  5.213838E+05  5.885606E+05  7.241081E-10  2.237248E-08
        71  17  4.319409E+05  1.744932E+06  3.385282E+05  5.223661E+05  1.031804E-09 -1.172806E-09
        71  18  2.730567E+05  1.032659E+06  1.954265E+05  6.403318E+05  1.533256E-09 -2.542835E-08
        71  19 -7.097233E+05 -2.645255E+06 -7.019234E+05  6.729889E+05  2.856456E+04  1.860098E+05
        71  20 -4.532293E+05 -1.917534E+06 -4.257132E+05  5.548812E+05  8.097222E+04  6.594053E+04
        71  21 -2.663612E+05 -1.222771E+06 -2.453854E+05  6.209985E+05  6.549407E+04 -5.416711E+04
        71  22 -7.699527E+04 -9.650279E+04 -9.006456E+04  6.308645E+05  2.822394E+04  6.171200E+04
        71  23 -1.053439E+04 -8.788772E+04 -4.349509E+04  5.386502E+05  8.087404E+04  3.896893E+04
        71  24  3.387886E+03 -9.566679E+04 -2.494721E+04  6.306592E+05  6.571926E+04  1.633172E+04
        71  25  5.552758E+05  2.458253E+06  5.213927E+05  5.885592E+05  2.790115E+04 -6.309610E+04
        71  26  4.319480E+05  1.744934E+06  3.385408E+05  5.223669E+05  8.077747E+04  1.191884E+04
        71  27  2.730634E+05  1.032669E+06  1.954488E+05  6.403364E+05  6.594638E+04  8.695592E+04
        72   1 -1.533548E+05 -7.352711E+05 -1.464475E+05  6.312940E+05 -3.637392E+04  4.624684E+04
        72   2  1.897045E+04 -2.291137E+04 -1.956597E+02  5.378192E+05  4.749346E+03  5.228675E+04
        72   3  1.891028E+05  6.875756E+05  1.412528E+05  6.322839E+05  4.563333E+04  5.833638E+04
        72   4  5.892214E+02 -9.239149E+04 -1.990094E+04  6.315166E+05 -3.657577E+04 -1.308525E+04
        72   5  2.753383E+03 -9.119966E+04 -1.298576E+04  5.375425E+05  4.551010E+03 -6.726791E+03
        72   6  2.696030E+03 -9.242273E+04 -1.108744E+04  6.315093E+05  4.543721E+04 -3.652659E+02
        72   7  1.545101E+05  5.508919E+05  1.066388E+05  6.317388E+05 -3.677752E+04 -7.247751E+04
        72   8 -1.346208E+04 -1.594760E+05 -2.576298E+04  5.372659E+05  4.352712E+03 -6.573400E+04
        72   9 -1.837454E+05 -8.718304E+05 -1.634439E+05  6.307349E+05  4.524107E+04 -5.899483E+04
        72  10 -1.533568E+05 -7.352738E+05 -1.464540E+05  6.312954E+05  6.421227E-10  6.813210E-10
        72  11  1.896969E+04 -2.291431E+04 -2.008388E+02  5.378190E+05 -1.262658E-09  6.043612E-10
        72  12  1.890996E+05  6.875713E+05  1.412425E+05  6.322817E+05 -1.598198E-09  1.127266E-09
        72  13  5.877397E+02 -9.239203E+04 -1.990377E+04  6.315162E+05  3.990019E-10 -2.461293E-12
        72  14  2.753349E+03 -9.119972E+04 -1.298589E+04  5.375426E+05 -2.603287E-09  4.436029E-10
        72  15  2.693813E+03 -9.242329E+04 -1.109132E+04  6.315093E+05 -4.891517E-10 -9.435004E-11
        72  16  1.545072E+05  5.508859E+05  1.066264E+05  6.317367E+05  1.386770E-09 -3.036171E-10
        72  17 -1.346326E+04 -1.594806E+05 -2.577114E+04  5.372661E+05 -1.089473E-09 -5.170038E-10
        72  18 -1.837486E+05 -8.718347E+05 -1.634543E+05  6.307371E+05 -1.950363E-11 -1.593396E-09
        72  19 -1.533548E+05 -7.352711E+05 -1.464475E+05  6.312940E+05  3.637392E+04 -4.624684E+04
        72  20  1.897045E+04 -2.291137E+04 -1.956597E+02  5.378192E+05 -4.749346E+03 -5.228675E+04
        72  21  1.891028E+05  6.875756E+05  1.412528E+05  6.322839E+05 -4.563333E+04 -5.833638E+04
        72  22  5.892214E+02 -9.239149E+04 -1.990094E+04  6.315166E+05  3.657577E+04  1.308525E+04
        72  23  2.753383E+03 -9.119966E+04 -1.298576E+04  5.375425E+05 -4.551010E+03  6.726791E+03
        72  24  2.696030E+03 -9.242273E+04 -1.108744E+04  6.315093E+05 -4.543721E+04  3.652659E+02
        72  25  1.545101E+05  5.508919E+05  1.066388E+05  6.317388E+05  3.677752E+04  7.247751E+04
        72  26 -1.346208E+04 -1.594760E+05 -2.576298E+04  5.372659E+05 -4.352712E+03  6.573400E+04
        72  27 -1.837454E+05 -8.718304E+05 -1.634439E+05  6.307349E+05 -4.524107E+04  5.899483E+04
        73   1  3.053903E+05  1.172054E+06  2.349494E+05  6.354056E+05  7.476662E+04  7.185281E+04
        73   2  4.733402E+05  1.878229E+06  3.941389E+05  5.360990E+05  8.784025E+04 -2.274636E+04
        73   3  6.437006E+05  2.597565E+06  6.153041E+05  6.207251E+05  2.987423E+04 -1.173506E+05
        73   4  3.233732E+03 -9.320869E+04 -1.130027E+04  6.306207E+05  7.454644E+04  1.295418E+03
        73   5 -1.949555E+03 -9.112013E+04 -1.525405E+04  5.386639E+05  8.795112E+04  9.233935E+03
        73   6 -2.247596E+04 -9.410368E+04 -2.833658E+04  6.306828E+05  3.021110E+04  1.727613E+04
        73   7 -2.990159E+05 -1.356925E+06 -2.576073E+05  6.258437E+05  7.432704E+04 -6.912156E+04
        73   8 -4.774853E+05 -2.056802E+06 -4.248558E+05  5.412165E+05  8.806248E+04  4.111469E+04
        73   9 -6.891666E+05 -2.779111E+06 -6.724205E+05  6.405901E+05  3.055324E+04  1.513234E+05
        73  10  3.053829E+05  1.172047E+06  2.349293E+05  6.354013E+05 -2.199579E-10 -4.160580E-10
        73  11  4.733318E+05  1.878227E+06  3.941234E+05  5.361007E+05 -1.164957E-09 -1.975494E-10
        73  12  6.436959E+05  2.597550E+06  6.152767E+05  6.207279E+05  4.289450E-10  1.466690E-10
        73  13  3.227765E+03 -9.321018E+04 -1.131071E+04  6.306206E+05  1.065564E-09 -9.914537E-11
        73  14 -1.957883E+03 -9.112229E+04 -1.526875E+04  5.386632E+05 -4.234926E-10  2.946091E-10
        73  15 -2.247702E+04 -9.410425E+04 -2.833885E+04  6.306823E+05 -6.292554E-10  4.218965E-11
        73  16 -2.990232E+05 -1.356932E+06 -2.576267E+05  6.258479E+05  1.125110E-09  4.809956E-10
        73  17 -4.774941E+05 -2.056806E+06 -4.248735E+05  5.412136E+05  6.295519E-10  1.319882E-10
        73  18 -6.891738E+05 -2.779136E+06 -6.724654E+05  6.405864E+05  1.554161E-10 -3.330417E-10
        73  19  3.053903E+05  1.172054E+06  2.349494E+05  6.354056E+05 -7.476662E+04 -7.185281E+04
        73  20  4.733402E+05  1.878229E+06  3.941389E+05  5.360990E+05 -8.784025E+04  2.274636E+04
        73  21  6.437006E+05  2.597565E+06  6.153041E+05  6.207251E+05 -2.987423E+04  1.173506E+05
        73  22  3.233732E+03 -9.320869E+04 -1.130027E+04  6.306207E+05 -7.454644E+04 -1.295418E+03
        73  23 -1.949555E+03 -9.112013E+04 -1.525405E+04  5.386639E+05 -8.795112E+04 -9.233935E+03
        73  24 -2.247596E+04 -9.410368E+04 -2.833658E+04  6.306828E+05 -3.021110E+04 -1.727613E+04
        73  25 -2.990159E+05 -1.356925E+06 -2.576073E+05  6.258437E+05 -7.432704E+04  6.912156E+04
        73  26 -4.774853E+05 -2.056802E+06 -4.248558E+05  5.412165E+05 -8.806248E+04 -4.111469E+04
        73  27 -6.891666E+05 -2.779111E+06 -6.724205E+05  6.405901E+05 -3.055324E+04 -1.513234E+05
        74   1  3.013078E+06  6.095888E+05  6.041188E+05  4.083156E+05  1.916214E+05 -2.571606E+04
        74   2  2.598039E+06  4.175150E+05  3.962812E+05  3.247035E+05  8.638128E+04 -7.907425E+04
        74   3  2.217205E+06  3.049297E+05  2.766736E+05  3.428905E+05 -1.872923E+04 -7.867803E+04
        74   4  9.343188E+05  9.598735E+04  1.096686E+05  3.515646E+05  7.548656E+04 -2.569102E+04
        74   5  9.242115E+05  1.475300E+04  5.281650E+04  3.006590E+05  4.804456E+04 -7.909022E+04
        74   6  9.347842E+05 -3.341927E+02  3.041458E+04  3.515444E+05  2.065786E+04 -7.868018E+04
        74   7 -1.140455E+06 -4.179056E+05 -3.850314E+05  2.950032E+05 -4.026310E+04 -2.564489E+04
        74   8 -7.469610E+05 -3.881819E+05 -2.907919E+05  2.766797E+05  9.808898E+03 -7.910328E+04
        74   9 -3.460552E+05 -3.056941E+05 -2.159142E+05  3.601795E+05  5.996567E+04 -7.868122E+04
        74  10  3.013038E+06  6.095783E+05  6.040488E+05  4.083195E+05 -6.983932E-10 -1.816152E-11
        74  11  2.598030E+06  4.175063E+05  3.962555E+05  3.247090E+05 -2.987819E-09  2.968998E-10
        74  12  2.217203E+06  3.049230E+05  2.766613E+05  3.428894E+05 -1.222025E-10 -9.369260E-11
        74  13  9.343125E+05  9.598511E+04  1.096567E+05  3.515662E+05 -1.125850E-09  2.517598E-10
        74  14  9.242074E+05  1.474566E+04  5.280040E+04  3.006620E+05  5.471761E-10  9.167204E-11
        74  15  9.347821E+05 -3.409588E+02  3.040213E+04  3.515457E+05  2.545389E-09 -3.073193E-10
        74  16 -1.140457E+06 -4.179067E+05 -3.850357E+05  2.950023E+05  4.671347E-10 -2.750320E-10
        74  17 -7.469628E+05 -3.881886E+05 -2.908038E+05  2.766803E+05  1.427053E-09  7.118892E-11
        74  18 -3.460608E+05 -3.057017E+05 -2.159326E+05  3.601833E+05 -7.214886E-10 -5.608146E-10
        74  19  3.013078E+06  6.095888E+05  6.041188E+05  4.083156E+05 -1.916214E+05  2.571606E+04
        74  20  2.598039E+06  4.175150E+05  3.962812E+05  3.247035E+05 -8.638128E+04  7.907425E+04
        74  21  2.217205E+06  3.049297E+05  2.766736E+05  3.428905E+05  1.872923E+04  7.867803E+04
        74  22  9.343188E+05  9.598735E+04  1.096686E+05  3.515646E+05 -7.548656E+04  2.569102E+04
        74  23  9.242115E+05  1.475300E+04  5.281650E+04  3.006590E+05 -4.804456E+04  7.909022E+04
        74  24  9.347842E+05 -3.341927E+02  3.041458E+04  3.515444E+05 -2.065786E+04  7.868018E+04
        74  25 -1.140455E+06 -4.179056E+05 -3.850314E+05  2.950032E+05  4.026310E+04  2.564489E+04
        74  26 -7.469610E+05 -3.881819E+05 -2.907919E+05  2.766797E+05 -9.808898E+03  7.910328E+04
        74  27 -3.460552E+05 -3.056941E+05 -2.159142E+05  3.601795E+05 -5.996567E+04  7.868122E+04
        75   1  1.942100E+06  2.442636E+05  2.178875E+05  3.537316E+05 -1.333678E+04 -6.258567E+04
        75   2  1.544058E+06  1.461309E+05  1.311341E+05  3.003971E+05 -2.617296E+04 -4.010188E+04
        75   3  1.148911E+06  5.195794E+04  5.371774E+04  3.518127E+05 -3.901354E+04 -1.403464E+04
        75   4  9.307187E+05  3.571196E+03  2.413400E+04  3.522112E+05  1.651934E+04 -6.258107E+04
        75   5  9.298709E+05  3.184397E+02  1.538847E+04  2.998341E+05  8.856555E+03 -4.008685E+04
        75   6  9.308796E+05  1.416954E+02  1.240443E+04  3.522132E+05  1.181599E+03 -1.400709E+04
        75   7 -7.967854E+04 -2.371810E+05 -1.696629E+05  3.506929E+05  4.632806E+04 -6.257660E+04
        75   8  3.160495E+05 -1.455153E+05 -1.003691E+05  2.992715E+05  4.385234E+04 -4.007186E+04
        75   9  7.128975E+05 -5.167646E+04 -2.890494E+04  3.526135E+05  4.136298E+04 -1.397949E+04
        75  10  1.942099E+06  2.442593E+05  2.178798E+05  3.537309E+05 -1.723029E-10 -2.615076E-10
        75  11  1.544057E+06  1.461290E+05  1.311298E+05  3.003962E+05 -1.377855E-09 -2.143589E-10
        75  12  1.148909E+06  5.195732E+04  5.371452E+04  3.518122E+05  6.577559E-10 -5.628954E-10
        75  13  9.307173E+05  3.566914E+03  2.412612E+04  3.522120E+05  1.945137E-09 -3.604625E-10
        75  14  9.298704E+05  3.166921E+02  1.538530E+04  2.998344E+05  2.489693E-09  3.365970E-10
        75  15  9.308795E+05  1.414843E+02  1.240406E+04  3.522132E+05  1.850913E-09 -1.340420E-10
        75  16 -7.968190E+04 -2.371857E+05 -1.696743E+05  3.506953E+05 -6.404649E-10 -4.045351E-10
        75  17  3.160470E+05 -1.455175E+05 -1.003757E+05  2.992729E+05  2.706050E-09  2.932543E-10
        75  18  7.128956E+05 -5.167713E+04 -2.890852E+04  3.526140E+05  5.932888E-10  3.565726E-10
        75  19  1.942100E+06  2.442636E+05  2.178875E+05  3.537316E+05  1.333678E+04  6.258567E+04
        75  20  1.544058E+06  1.461309E+05  1.311341E+05  3.003971E+05  2.617296E+04  4.010188E+04
        75  21  1.148911E+06  5.195794E+04  5.371774E+04  3.518127E+05  3.901354E+04  1.403464E+04
        75  22  9.307187E+05  3.571196E+03  2.413400E+04  3.522112E+05 -1.651934E+04  6.258107E+04
        75  23  9.298709E+05  3.184397E+02  1.538847E+04  2.998341E+05 -8.856555E+03  4.008685E+04
        75  24  9.308796E+05  1.416954E+02  1.240443E+04  3.522132E+05 -1.181599E+03  1.400709E+04
        75  25 -7.967854E+04 -2.371810E+05 -1.696629E+05  3.506929E+05 -4.632806E+04  6.257660E+04
        75  26  3.160495E+05 -1.455153E+05 -1.003691E+05  2.992715E+05 -4.385234E+04  4.007186E+04
        75  27  7.128975E+05 -5.167646E+04 -2.890494E+04  3.526135E+05 -4.136298E+04  1.397949E+04
        76   1  8.803610E+05 -1.199259E+04  2.104626E+03  3.526575E+05 -4.115046E+04  2.466976E+03
        76   2  4.835143E+05 -1.057581E+05 -6.934883E+04  2.992896E+05 -4.402255E+04  2.867510E+04
        76   3  8.780323E+04 -1.973140E+05 -1.383838E+05  3.506844E+05 -4.688419E+04  5.160689E+04
        76   4  9.308761E+05  1.546467E+02  1.237764E+04  3.522134E+05 -1.017223E+03  2.495354E+03
        76   5  9.299168E+05  3.746569E+02  1.525416E+04  2.998338E+05 -8.625568E+03  2.869352E+04
        76   6  9.307582E+05  3.631048E+03  2.383057E+04  3.522114E+05 -1.622522E+04  5.161687E+04
        76   7  9.813970E+05  1.230259E+04  2.265656E+04  3.517693E+05  3.911921E+04  2.523672E+03
        76   8  1.376514E+06  1.064964E+05  9.985299E+04  3.003783E+05  2.679623E+04  2.871199E+04
        76   9  1.774398E+06  2.045345E+05  1.860157E+05  3.537402E+05  1.447442E+04  5.162698E+04
        76  10  8.803592E+05 -1.199305E+04  2.101437E+03  3.526576E+05 -8.345168E-10 -2.165739E-10
        76  11  4.835120E+05 -1.057595E+05 -6.935402E+04  2.992906E+05  2.878512E-10  2.681857E-10
        76  12  8.780015E+04 -1.973175E+05 -1.383930E+05  3.506864E+05  6.276659E-10  7.510427E-10
        76  13  9.308761E+05  1.546398E+02  1.237762E+04  3.522134E+05  8.405870E-12 -8.369281E-11
        76  14  9.299165E+05  3.737523E+02  1.525247E+04  2.998340E+05  2.791064E-10 -6.474477E-11
        76  15  9.307572E+05  3.628115E+03  2.382507E+04  3.522120E+05  3.421796E-10 -1.143889E-10
        76  16  9.813954E+05  1.230217E+04  2.265368E+04  3.517692E+05  3.445409E-10  8.903642E-11
        76  17  1.376513E+06  1.064953E+05  9.985010E+04  3.003776E+05  6.550409E-10  1.337532E-10
        76  18  1.774397E+06  2.045316E+05  1.860103E+05  3.537396E+05 -9.135349E-10 -4.907335E-10
        76  19  8.803610E+05 -1.199259E+04  2.104626E+03  3.526575E+05  4.115046E+04 -2.466976E+03
        76  20  4.835143E+05 -1.057581E+05 -6.934883E+04  2.992896E+05  4.402255E+04 -2.867510E+04
        76  21  8.780323E+04 -1.973140E+05 -1.383838E+05  3.506844E+05  4.688419E+04 -5.160689E+04
        76  22  9.308761E+05  1.546467E+02  1.237764E+04  3.522134E+05  1.017223E+03 -2.495354E+03
        76  23  9.299168E+05  3.746569E+02  1.525416E+04  2.998338E+05  8.625568E+03 -2.869352E+04
        76  24  9.307582E+05  3.631048E+03  2.383057E+04  3.522114E+05  1.622522E+04 -5.161687E+04
        76  25  9.813970E+05  1.230259E+04  2.265656E+04  3.517693E+05 -3.911921E+04 -2.523672E+03
        76  26  1.376514E+06  1.064964E+05  9.985299E+04  3.003783E+05 -2.679623E+04 -2.871199E+04
        76  27  1.774398E+06  2.045345E+05  1.860157E+05  3.537402E+05 -1.447442E+04 -5.162698E+04
        77   1 -1.784342E+05 -2.656755E+05 -1.846503E+05  3.600192E+05 -5.973973E+04  6.774148E+04
        77   2 -5.794887E+05 -3.480461E+05 -2.579490E+05  2.767882E+05 -1.509496E+04  7.029412E+04
        77   3 -9.725114E+05 -3.776551E+05 -3.470367E+05  2.956108E+05  2.948095E+04  2.307354E+04
        77   4  9.347620E+05 -1.949014E+02  3.000210E+04  3.515979E+05 -2.031154E+04  6.774789E+04
        77   5  9.244177E+05  1.469534E+04  5.206598E+04  3.005914E+05 -4.731727E+04  7.027917E+04
        77   6  9.343392E+05  9.471106E+04  1.080541E+05  3.516062E+05 -7.436374E+04  2.309667E+04
        77   7  2.049153E+06  2.652133E+05  2.446029E+05  3.431607E+05  1.918576E+04  6.775321E+04
        77   8  2.430473E+06  3.772967E+05  3.619635E+05  3.244528E+05 -7.961621E+04  7.026179E+04
        77   9  2.844555E+06  5.668321E+05  5.629316E+05  4.077738E+05 -1.785260E+05  2.310109E+04
        77  10 -1.784392E+05 -2.656814E+05 -1.846657E+05  3.600225E+05  1.559366E-09  4.543214E-10
        77  11 -5.794903E+05 -3.480515E+05 -2.579588E+05  2.767890E+05  1.097283E-09 -1.228743E-10
        77  12 -9.725124E+05 -3.776559E+05 -3.470393E+05  2.956103E+05 -7.819973E-10 -2.654799E-10
        77  13  9.347603E+05 -1.999438E+02  2.999270E+04  3.515990E+05  1.645358E-10  1.907325E-11
        77  14  9.244139E+05  1.468943E+04  5.205249E+04  3.005940E+05 -1.241995E-09  5.907024E-12
        77  15  9.343331E+05  9.470900E+04  1.080427E+05  3.516075E+05 -1.907574E-10 -1.547280E-10
        77  16  2.049151E+06  2.652082E+05  2.445936E+05  3.431597E+05 -1.172811E-10 -6.451635E-10
        77  17  2.430464E+06  3.772897E+05  3.619423E+05  3.244573E+05 -7.135853E-10 -1.164792E-11
        77  18  2.844521E+06  5.668230E+05  5.628710E+05  4.077771E+05 -1.497587E-10 -6.884231E-11
        77  19 -1.784342E+05 -2.656755E+05 -1.846503E+05  3.600192E+05  5.973973E+04 -6.774148E+04
        77  20 -5.794887E+05 -3.480461E+05 -2.579490E+05  2.767882E+05  1.509496E+04 -7.029412E+04
        77  21 -9.725114E+05 -3.776551E+05 -3.470367E+05  2.956108E+05 -2.948095E+04 -2.307354E+04
        77  22  9.347620E+05 -1.949014E+02  3.000210E+04  3.515979E+05  2.031154E+04 -6.774789E+04
        77  23  9.244177E+05  1.469534E+04  5.206598E+04  3.005914E+05  4.731727E+04 -7.027917E+04
        77  24  9.343392E+05  9.471106E+04  1.080541E+05  3.516062E+05  7.436374E+04 -2.309667E+04
        77  25  2.049153E+06  2.652133E+05  2.446029E+05  3.431607E+05 -1.918576E+04 -6.775321E+04
        77  26  2.430473E+06  3.772967E+05  3.619635E+05  3.244528E+05  7.961621E+04 -7.026179E+04
        77  27  2.844555E+06  5.668321E+05  5.629316E+05  4.077738E+05  1.785260E+05 -2.310109E+04
        78   1 -6.952652E+05 -2.529377E+06 -6.894684E+05  6.381823E+05 -2.754765E+04 -1.918773E+05
        78   2 -4.403095E+05 -1.849566E+06 -4.193241E+05  5.217640E+05 -7.869313E+04 -7.249253E+04
        78   3 -2.633386E+05 -1.204641E+06 -2.466684E+05  5.767924E+05 -6.508666E+04  4.694383E+04
        78   4 -9.060264E+04 -9.324046E+04 -1.049442E+05  5.874804E+05 -2.725733E+04 -7.170222E+04
        78   5 -1.308869E+04 -8.334663E+04 -5.087012E+04  5.016504E+05 -7.860420E+04 -4.515358E+04
        78   6  2.749753E+03 -9.248849E+04 -2.955175E+04  5.872722E+05 -6.527107E+04 -1.868763E+04
        78   7  5.136465E+05  2.348384E+06  4.792153E+05  5.365728E+05 -2.698745E+04  4.894436E+04
        78   8  4.139350E+05  1.685834E+06  3.174149E+05  4.814756E+05 -7.851721E+04 -1.773783E+04
        78   9  2.687664E+05  1.020862E+06  1.875221E+05  5.977698E+05 -6.545748E+04 -8.443424E+04
        78  10 -6.952759E+05 -2.529417E+06 -6.895392E+05  6.381780E+05 -3.780135E-10 -2.078855E-09
        78  11 -4.403175E+05 -1.849574E+06 -4.193456E+05  5.217594E+05 -2.073621E-09  2.053045E-09
        78  12 -2.633438E+05 -1.204645E+06 -2.466805E+05  5.767949E+05  1.576952E-09  3.370484E-09
        78  13 -9.060481E+04 -9.324618E+04 -1.049552E+05  5.874788E+05 -2.386261E-10 -3.487249E-10
        78  14 -1.309587E+04 -8.335048E+04 -5.088555E+04  5.016475E+05 -6.378630E-10 -1.637290E-11
        78  15  2.745087E+03 -9.249001E+04 -2.956040E+04  5.872712E+05  2.068898E-09 -4.299339E-10
        78  16  5.136450E+05  2.348381E+06  4.792094E+05  5.365738E+05 -6.283437E-10  2.194431E-09
        78  17  4.139283E+05  1.685832E+06  3.174027E+05  4.814745E+05 -8.790215E-10 -1.898108E-09
        78  18  2.687599E+05  1.020853E+06  1.875007E+05  5.977654E+05  2.948193E-10 -3.370144E-09
        78  19 -6.952652E+05 -2.529377E+06 -6.894684E+05  6.381823E+05  2.754765E+04  1.918773E+05
        78  20 -4.403095E+05 -1.849566E+06 -4.193241E+05  5.217640E+05  7.869313E+04  7.249253E+04
        78  21 -2.633386E+05 -1.204641E+06 -2.466684E+05  5.767924E+05  6.508666E+04 -4.694383E+04
        78  22 -9.060264E+04 -9.324046E+04 -1.049442E+05  5.874804E+05  2.725733E+04  7.170222E+04
        78  23 -1.308869E+04 -8.334663E+04 -5.087012E+04  5.016504E+05  7.860420E+04  4.515358E+04
        78  24  2.749753E+03 -9.248849E+04 -2.955175E+04  5.872722E+05  6.527107E+04  1.868763E+04
        78  25  5.136465E+05  2.348384E+06  4.792153E+05  5.365728E+05  2.698745E+04 -4.894436E+04
        78  26  4.139350E+05  1.685834E+06  3.174149E+05  4.814756E+05  7.851721E+04  1.773783E+04
        78  27  2.687664E+05  1.020862E+06  1.875221E+05  5.977698E+05  6.545748E+04  8.443424E+04
        79   1 -1.587789E+05 -7.498779E+05 -1.534885E+05  5.882672E+05 -3.797722E+04  4.017523E+04
        79   2  2.385810E+03 -8.629267E+04 -1.605086E+04  5.007137E+05  2.152531E+02  4.820021E+04
        79   3  1.603549E+05  5.750365E+05  1.150967E+05  5.881723E+05  3.840309E+04  5.623348E+04
        79   4 -5.513760E+02 -8.869541E+04 -2.383104E+04  5.880948E+05 -3.814301E+04 -1.476321E+04
        79   5  2.131738E+03 -8.735804E+04 -1.625503E+04  5.005851E+05  5.011143E+01 -6.752195E+03
        79   6  1.645329E+03 -8.869570E+04 -1.495127E+04  5.880881E+05  3.823750E+04  1.258901E+03
        79   7  1.576514E+05  5.729129E+05  1.058167E+05  5.879217E+05 -3.830865E+04 -6.975894E+04
        79   8  1.879287E+03 -8.841692E+04 -1.644786E+04  5.004565E+05 -1.150077E+02 -6.170451E+04
        79   9 -1.570892E+05 -7.519993E+05 -1.450091E+05  5.880035E+05  3.807180E+04 -5.365821E+04
        79  10 -1.587809E+05 -7.498800E+05 -1.534943E+05  5.882684E+05  2.362616E-09 -2.792476E-09
        79  11  2.385186E+03 -8.629517E+04 -1.605522E+04  5.007137E+05  1.341299E-09  7.415767E-10
        79  12  1.603525E+05  5.750327E+05  1.150880E+05  5.881706E+05 -3.014035E-10  3.848538E-12
        79  13 -5.529959E+02 -8.869603E+04 -2.383418E+04  5.880943E+05  2.207353E-09 -5.710294E-10
        79  14  2.131726E+03 -8.735809E+04 -1.625512E+04  5.005851E+05  2.478367E-09 -7.768656E-12
        79  15  1.643759E+03 -8.869609E+04 -1.495402E+04  5.880880E+05  3.685555E-10 -4.449375E-10
        79  16  1.576485E+05  5.729073E+05  1.058048E+05  5.879195E+05  9.412524E-10  3.143063E-09
        79  17  1.878265E+03 -8.842100E+04 -1.645502E+04  5.004564E+05 -7.538277E-10 -5.028455E-10
        79  18 -1.570915E+05 -7.520028E+05 -1.450173E+05  5.880051E+05 -4.079033E-10 -6.366800E-11
        79  19 -1.587789E+05 -7.498779E+05 -1.534885E+05  5.882672E+05  3.797722E+04 -4.017523E+04
        79  20  2.385810E+03 -8.629267E+04 -1.605086E+04  5.007137E+05 -2.152531E+02 -4.820021E+04
        79  21  1.603549E+05  5.750365E+05  1.150967E+05  5.881723E+05 -3.840309E+04 -5.623348E+04
        79  22 -5.513760E+02 -8.869541E+04 -2.383104E+04  5.880948E+05  3.814301E+04  1.476321E+04
        79  23  2.131738E+03 -8.735804E+04 -1.625503E+04  5.005851E+05 -5.011143E+01  6.752195E+03
        79  24  1.645329E+03 -8.869570E+04 -1.495127E+04  5.880881E+05 -3.823750E+04 -1.258901E+03
        79  25  1.576514E+05  5.729129E+05  1.058167E+05  5.879217E+05  3.830865E+04  6.975894E+04
        79  26  1.879287E+03 -8.841692E+04 -1.644786E+04  5.004565E+05  1.150077E+02  6.170451E+04
        79  27 -1.570892E+05 -7.519993E+05 -1.450091E+05  5.880035E+05 -3.807180E+04  5.365821E+04
        80   1  2.691936E+05  1.025512E+06  2.016645E+05  5.925966E+05  6.554447E+04  6.930985E+04
        80   2  4.233185E+05  1.684759E+06  3.462958E+05  4.950852E+05  7.854721E+04 -1.230401E+04
        80   3  5.693396E+05  2.352831E+06  5.418607E+05  5.689552E+05  2.691870E+04 -9.392164E+04
        80   4  2.703398E+03 -8.998223E+04 -1.580879E+04  5.872794E+05  6.535898E+04  3.585991E+03
        80   5 -4.279495E+03 -8.648125E+04 -2.241473E+04  5.016099E+05  7.863362E+04  1.522695E+04
        80   6 -3.553310E+04 -9.073272E+04 -4.277426E+04  5.873633E+05  2.718978E+04  2.695075E+04
        80   7 -2.638591E+05 -1.204274E+06 -2.333251E+05  5.819706E+05  6.517439E+04 -6.202253E+04
        80   8 -4.320766E+05 -1.854755E+06 -3.912949E+05  5.081127E+05  7.872077E+04  4.268078E+04
        80   9 -6.408288E+05 -2.528806E+06 -6.277758E+05  6.056935E+05  2.746873E+04  1.473506E+05
        80  10  2.691877E+05  1.025505E+06  2.016474E+05  5.925930E+05  9.310859E-10 -6.654904E-10
        80  11  4.233119E+05  1.684757E+06  3.462840E+05  4.950860E+05  3.023611E-10  1.219551E-09
        80  12  5.693365E+05  2.352822E+06  5.418428E+05  5.689572E+05  1.973028E-10 -1.498267E-10
        80  13  2.698808E+03 -8.998339E+04 -1.581684E+04  5.872792E+05  2.441076E-09 -5.780625E-10
        80  14 -4.286195E+03 -8.648316E+04 -2.242678E+04  5.016089E+05  1.005130E-09 -9.140394E-13
        80  15 -3.553409E+04 -9.073370E+04 -4.277701E+04  5.873627E+05  1.339905E-09 -2.531405E-10
        80  16 -2.638647E+05 -1.204279E+06 -2.333404E+05  5.819739E+05  1.313633E-10  8.638809E-10
        80  17 -4.320838E+05 -1.854758E+06 -3.913100E+05  5.081100E+05  7.314152E-10 -1.077416E-09
        80  18 -6.408355E+05 -2.528830E+06 -6.278182E+05  6.056903E+05 -8.448949E-10  3.161348E-10
        80  19  2.691936E+05  1.025512E+06  2.016645E+05  5.925966E+05 -6.554447E+04 -6.930985E+04
        80  20  4.233185E+05  1.684759E+06  3.462958E+05  4.950852E+05 -7.854721E+04  1.230401E+04
        80  21  5.693396E+05  2.352831E+06  5.418607E+05  5.689552E+05 -2.691870E+04  9.392164E+04
        80  22  2.703398E+03 -8.998223E+04 -1.580879E+04  5.872794E+05 -6.535898E+04 -3.585991E+03
        80  23 -4.279495E+03 -8.648125E+04 -2.241473E+04  5.016099E+05 -7.863362E+04 -1.522695E+04
        80  24 -3.553310E+04 -9.073272E+04 -4.277426E+04  5.873633E+05 -2.718978E+04 -2.695075E+04
        80  25 -2.638591E+05 -1.204274E+06 -2.333251E+05  5.819706E+05 -6.517439E+04  6.202253E+04
        80  26 -4.320766E+05 -1.854755E+06 -3.912949E+05  5.081127E+05 -7.872077E+04 -4.268078E+04
        80  27 -6.408288E+05 -2.528806E+06 -6.277758E+05  6.056935E+05 -2.746873E+04 -1.473506E+05
        81   1  2.610508E+06  5.135973E+05  5.090089E+05  3.465686E+05  1.613567E+05 -2.158218E+04
        81   2  2.258459E+06  3.507898E+05  3.332584E+05  2.756006E+05  7.262148E+04 -6.631517E+04
        81   3  1.935210E+06  2.552254E+05  2.319710E+05  2.910576E+05 -1.602421E+04 -6.578420E+04
        81   4  8.619212E+05  8.143020E+04  9.293466E+04  2.983964E+05  6.392346E+04 -2.156578E+04
        81   5  8.533726E+05  1.259488E+04  4.479504E+04  2.551796E+05  4.065072E+04 -6.632679E+04
        81   6  8.622559E+05 -2.416599E+02  2.583920E+04  2.983827E+05  1.741610E+04 -6.578519E+04
        81   7 -8.838444E+05 -3.509432E+05 -3.233166E+05  2.503596E+05 -3.323772E+04 -2.153435E+04
        81   8 -5.498420E+05 -3.257219E+05 -2.437697E+05  2.348051E+05  8.750749E+03 -6.633635E+04
        81   9 -2.095910E+05 -2.557760E+05 -1.803414E+05  3.056945E+05  5.080008E+04 -6.578539E+04
        81  10  2.610480E+06  5.135899E+05  5.089593E+05  3.465714E+05  8.871422E-10  3.769367E-10
        81  11  2.258452E+06  3.507836E+05  3.332403E+05  2.756045E+05 -1.587017E-09  6.984258E-10
        81  12  1.935209E+06  2.552207E+05  2.319624E+05  2.910568E+05  1.626366E-09 -1.495149E-10
        81  13  8.619167E+05  8.142860E+04  9.292612E+04  2.983975E+05  8.475961E-12  4.978237E-11
        81  14  8.533696E+05  1.258971E+04  4.478367E+04  2.551817E+05 -1.926658E-09 -6.696989E-11
        81  15  8.622545E+05 -2.463910E+02  2.583049E+04  2.983836E+05 -3.644758E-10  9.294574E-11
        81  16 -8.838457E+05 -3.509440E+05 -3.233196E+05  2.503591E+05  1.643106E-09  5.651152E-11
        81  17 -5.498432E+05 -3.257266E+05 -2.437781E+05  2.348056E+05 -4.703702E-10 -2.977320E-10
        81  18 -2.095949E+05 -2.557813E+05 -1.803544E+05  3.056972E+05  9.102560E-10  2.766909E-10
        81  19  2.610508E+06  5.135973E+05  5.090089E+05  3.465686E+05 -1.613567E+05  2.158218E+04
        81  20  2.258459E+06  3.507898E+05  3.332584E+05  2.756006E+05 -7.262148E+04  6.631517E+04
        81  21  1.935210E+06  2.552254E+05  2.319710E+05  2.910576E+05  1.602421E+04  6.578420E+04
        81  22  8.619212E+05  8.143020E+04  9.293466E+04  2.983964E+05 -6.392346E+04  2.156578E+04
        81  23  8.533726E+05  1.259488E+04  4.479504E+04  2.551796E+05 -4.065072E+04  6.632679E+04
        81  24  8.622559E+05 -2.416599E+02  2.583920E+04  2.983827E+05 -1.741610E+04  6.578519E+04
        81  25 -8.838444E+05 -3.509432E+05 -3.233166E+05  2.503596E+05  3.323772E+04  2.153435E+04
        81  26 -5.498420E+05 -3.257219E+05 -2.437697E+05  2.348051E+05 -8.750749E+03  6.633635E+04
        81  27 -2.095910E+05 -2.557760E+05 -1.803414E+05  3.056945E+05 -5.080008E+04  6.578539E+04
        82   1  1.701786E+06  2.037047E+05  1.821188E+05  3.002231E+05 -1.152102E+04 -5.211997E+04
        82   2  1.363972E+06  1.203861E+05  1.086098E+05  2.549567E+05 -2.245396E+04 -3.299280E+04
        82   3  1.028589E+06  4.042584E+04  4.305071E+04  2.986047E+05 -3.338964E+04 -1.085167E+04
        82   4  8.588144E+05  3.044464E+03  2.054812E+04  2.989434E+05  1.389716E+04 -5.211624E+04
        82   5  8.580849E+05  2.596646E+02  1.322090E+04  2.544848E+05  7.313739E+03 -3.298172E+04
        82   6  8.589272E+05  8.742601E+01  1.083430E+04  2.989449E+05  7.218945E+02 -1.083178E+04
        82   7  1.652643E+04 -1.976573E+05 -1.410526E+05  2.976653E+05  3.928170E+04 -5.211262E+04
        82   8  3.524467E+05 -1.198811E+05 -8.217588E+04  2.540133E+05  3.705781E+04 -3.297068E+04
        82   9  6.892958E+05 -4.025205E+04 -2.137904E+04  2.992849E+05  3.482435E+04 -1.081186E+04
        82  10  1.701785E+06  2.037018E+05  1.821134E+05  3.002226E+05 -5.157824E-10 -1.844419E-10
        82  11  1.363971E+06  1.203848E+05  1.086068E+05  2.549561E+05 -1.097853E-09  4.030980E-11
        82  12  1.028588E+06  4.042541E+04  4.304840E+04  2.986044E+05  4.575078E-10 -1.042918E-10
        82  13  8.588135E+05  3.041494E+03  2.054265E+04  2.989440E+05 -1.545156E-10  3.574710E-11
        82  14  8.580845E+05  2.584816E+02  1.321875E+04  2.544850E+05  1.231928E-09  2.026983E-10
        82  15  8.589272E+05  8.729982E+01  1.083408E+04  2.989449E+05 -4.349639E-10  9.396713E-11
        82  16  1.652405E+04 -1.976607E+05 -1.410606E+05  2.976670E+05 -1.253551E-10  3.790486E-10
        82  17  3.524449E+05 -1.198827E+05 -8.218050E+04  2.540143E+05  9.929899E-10 -1.514691E-10
        82  18  6.892945E+05 -4.025250E+04 -2.138153E+04  2.992852E+05  3.391225E-10 -1.431045E-10
        82  19  1.701786E+06  2.037047E+05  1.821188E+05  3.002231E+05  1.152102E+04  5.211997E+04
        82  20  1.363972E+06  1.203861E+05  1.086098E+05  2.549567E+05  2.245396E+04  3.299280E+04
        82  21  1.028589E+06  4.042584E+04  4.305071E+04  2.986047E+05  3.338964E+04  1.085167E+04
        82  22  8.588144E+05  3.044464E+03  2.054812E+04  2.989434E+05 -1.389716E+04  5.211624E+04
        82  23  8.580849E+05  2.596646E+02  1.322090E+04  2.544848E+05 -7.313739E+03  3.298172E+04
        82  24  8.589272E+05  8.742601E+01  1.083430E+04  2.989449E+05 -7.218945E+02  1.083178E+04
        82  25  1.652643E+04 -1.976573E+05 -1.410526E+05  2.976653E+05 -3.928170E+04  5.211262E+04
        82  26  3.524467E+05 -1.198811E+05 -8.217588E+04  2.540133E+05 -3.705781E+04  3.297068E+04
        82  27  6.892958E+05 -4.025205E+04 -2.137904E+04  2.992849E+05 -3.482435E+04  1.081186E+04
        83   1  8.006598E+05 -1.387617E+04 -6.577400E+02  2.993705E+05 -3.527562E+04  3.156579E+03
        83   2  4.637711E+05 -9.342940E+04 -6.099450E+04  2.540202E+05 -3.804111E+04  2.539236E+04
        83   3  1.279124E+05 -1.709372E+05 -1.190205E+05  2.975971E+05 -4.079860E+04  4.481843E+04
        83   4  8.589421E+05  8.444614E+01  1.091804E+04  2.989459E+05 -1.205540E+03  3.176946E+03
        83   5  8.580896E+05  3.140423E+02  1.368756E+04  2.544835E+05 -8.031134E+03  2.540534E+04
        83   6  8.588532E+05  3.295675E+03  2.157987E+04  2.989443E+05 -1.485011E+04  4.482516E+04
        83   7  9.172301E+05  1.404547E+04  2.249800E+04  2.985212E+05  3.286767E+04  3.197264E+03
        83   8  1.252560E+06  9.404889E+04  8.836610E+04  2.549471E+05  2.199743E+04  2.541836E+04
        83   9  1.590309E+06  1.774973E+05  1.621581E+05  3.002929E+05  1.112823E+04  4.483200E+04
        83  10  8.006585E+05 -1.387651E+04 -6.600944E+02  2.993706E+05 -4.981765E-10 -1.257322E-10
        83  11  4.637694E+05 -9.343048E+04 -6.099843E+04  2.540210E+05 -1.230047E-09  9.251059E-10
        83  12  1.279101E+05 -1.709398E+05 -1.190274E+05  2.975985E+05  8.646659E-10  8.030454E-10
        83  13  8.589421E+05  8.443490E+01  1.091801E+04  2.989459E+05 -1.077389E-09 -2.453124E-10
        83  14  8.580894E+05  3.133315E+02  1.368623E+04  2.544837E+05 -8.477513E-10 -1.945543E-10
        83  15  8.588525E+05  3.293457E+03  2.157568E+04  2.989448E+05 -1.030386E-10  4.204489E-10
        83  16  9.172289E+05  1.404517E+04  2.249596E+04  2.985211E+05  7.757770E-12 -3.643365E-10
        83  17  1.252559E+06  9.404807E+04  8.836398E+04  2.549466E+05  1.827993E-09 -4.406923E-10
        83  18  1.590308E+06  1.774951E+05  1.621541E+05  3.002925E+05  5.864097E-10 -1.153602E-11
        83  19  8.006598E+05 -1.387617E+04 -6.577400E+02  2.993705E+05  3.527562E+04 -3.156579E+03
        83  20  4.637711E+05 -9.342940E+04 -6.099450E+04  2.540202E+05  3.804111E+04 -2.539236E+04
        83  21  1.279124E+05 -1.709372E+05 -1.190205E+05  2.975971E+05  4.079860E+04 -4.481843E+04
        83  22  8.589421E+05  8.444614E+01  1.091804E+04  2.989459E+05  1.205540E+03 -3.176946E+03
        83  23  8.580896E+05  3.140423E+02  1.368756E+04  2.544835E+05  8.031134E+03 -2.540534E+04
        83  24  8.588532E+05  3.295675E+03  2.157987E+04  2.989443E+05  1.485011E+04 -4.482516E+04
        83  25  9.172301E+05  1.404547E+04  2.249800E+04  2.985212E+05 -3.286767E+04 -3.197264E+03
        83  26  1.252560E+06  9.404889E+04  8.836610E+04  2.549471E+05 -2.199743E+04 -2.541836E+04
        83  27  1.590309E+06  1.774973E+05  1.621581E+05  3.002929E+05 -1.112823E+04 -4.483200E+04
        84   1 -9.787450E+04 -2.291840E+05 -1.578967E+05  3.061177E+05 -5.200857E+04  5.851121E+04
        84   2 -4.388235E+05 -2.981370E+05 -2.188631E+05  2.334693E+05 -1.522164E+04  6.047888E+04
        84   3 -7.719308E+05 -3.184550E+05 -2.915565E+05  2.473959E+05  2.151640E+04  1.982479E+04
        84   4  8.624997E+05 -1.633702E+02  2.722435E+04  2.984128E+05 -1.854812E+04  5.851528E+04
        84   5  8.531673E+05  1.345786E+04  4.736897E+04  2.551408E+05 -4.312579E+04  6.046811E+04
        84   6  8.621867E+05  8.630917E+04  9.836567E+04  2.984202E+05 -6.773453E+04  1.984299E+04
        84   7  1.823763E+06  2.288034E+05  2.123069E+05  2.906954E+05  1.496292E+04  5.851851E+04
        84   8  2.146744E+06  3.249496E+05  3.135145E+05  2.768579E+05 -7.108694E+04  6.045542E+04
        84   9  2.498776E+06  4.908945E+05  4.881316E+05  3.495792E+05 -1.572193E+05  1.984654E+04
        84  10 -9.787833E+04 -2.291884E+05 -1.579083E+05  3.061202E+05  8.037343E-10  4.820698E-10
        84  11 -4.388247E+05 -2.981410E+05 -2.188705E+05  2.334701E+05  1.082165E-09 -2.277278E-10
        84  12 -7.719314E+05 -3.184555E+05 -2.915581E+05  2.473955E+05 -3.519854E-10 -3.468804E-11
        84  13  8.624984E+05 -1.671414E+02  2.721727E+04  2.984137E+05  8.510480E-10  4.414130E-10
        84  14  8.531643E+05  1.345343E+04  4.735860E+04  2.551429E+05  2.610404E-09 -2.788488E-10
        84  15  8.621816E+05  8.630751E+04  9.835632E+04  2.984213E+05  6.889423E-10  2.620524E-11
        84  16  1.823762E+06  2.287996E+05  2.123001E+05  2.906947E+05 -8.071070E-10  3.068422E-10
        84  17  2.146737E+06  3.249443E+05  3.134981E+05  2.768614E+05  1.106804E-09  2.507339E-10
        84  18  2.498749E+06  4.908875E+05  4.880846E+05  3.495817E+05 -1.484317E-10  2.368487E-10
        84  19 -9.787450E+04 -2.291840E+05 -1.578967E+05  3.061177E+05  5.200857E+04 -5.851121E+04
        84  20 -4.388235E+05 -2.981370E+05 -2.188631E+05  2.334693E+05  1.522164E+04 -6.047888E+04
        84  21 -7.719308E+05 -3.184550E+05 -2.915565E+05  2.473959E+05 -2.151640E+04 -1.982479E+04
        84  22  8.624997E+05 -1.633702E+02  2.722435E+04  2.984128E+05  1.854812E+04 -5.851528E+04
        84  23  8.531673E+05  1.345786E+04  4.736897E+04  2.551408E+05  4.312579E+04 -6.046811E+04
        84  24  8.621867E+05  8.630917E+04  9.836567E+04  2.984202E+05  6.773453E+04 -1.984299E+04
        84  25  1.823763E+06  2.288034E+05  2.123069E+05  2.906954E+05 -1.496292E+04 -5.851851E+04
        84  26  2.146744E+06  3.249496E+05  3.135145E+05  2.768579E+05  7.108694E+04 -6.045542E+04
        84  27  2.498776E+06  4.908945E+05  4.881316E+05  3.495792E+05  1.572193E+05 -1.984654E+04
        85   1 -6.393600E+05 -2.286592E+06 -6.338609E+05  5.735632E+05 -2.542518E+04 -1.784235E+05
        85   2 -4.075316E+05 -1.677989E+06 -3.881322E+05  4.680095E+05 -7.318416E+04 -6.852993E+04
        85   3 -2.486246E+05 -1.101759E+06 -2.323905E+05  5.156909E+05 -6.172108E+04  4.141088E+04
        85   4 -8.529806E+04 -5.388052E+04 -9.844607E+04  5.254302E+05 -2.519084E+04 -6.710965E+04
        85   5 -1.257184E+04 -4.465236E+04 -4.785119E+04  4.487249E+05 -7.310877E+04 -4.215524E+04
        85   6  2.141290E+03 -5.326009E+04 -2.803860E+04  5.252597E+05 -6.186522E+04 -1.726461E+04
        85   7  4.684175E+05  2.183440E+06  4.366637E+05  4.771189E+05 -2.497438E+04  4.460437E+04
        85   8  3.822197E+05  1.591216E+06  2.922859E+05  4.293864E+05 -7.303514E+04 -1.571207E+04
        85   9  2.528433E+05  9.963031E+05  1.762740E+05  5.348440E+05 -6.201102E+04 -7.603712E+04
        85  10 -6.393693E+05 -2.286627E+06 -6.339221E+05  5.735596E+05  1.350667E-09 -5.977562E-10
        85  11 -4.075386E+05 -1.677995E+06 -3.881511E+05  4.680055E+05  9.537454E-10 -6.546006E-10
        85  12 -2.486292E+05 -1.101762E+06 -2.324009E+05  5.156930E+05  5.981965E-10  6.718000E-10
        85  13 -8.529995E+04 -5.388552E+04 -9.845572E+04  5.254289E+05  1.186996E-09 -1.359450E-11
        85  14 -1.257805E+04 -4.465570E+04 -4.786456E+04  4.487224E+05 -1.012562E-09 -7.902065E-10
        85  15  2.137102E+03 -5.326143E+04 -2.804634E+04  5.252588E+05  8.371231E-11  4.577507E-11
        85  16  4.684163E+05  2.183438E+06  4.366588E+05  4.771198E+05  1.951220E-11  1.445618E-09
        85  17  3.822139E+05  1.591215E+06  2.922754E+05  4.293855E+05 -1.050926E-09  4.043923E-10
        85  18  2.528377E+05  9.962958E+05  1.762559E+05  5.348402E+05 -1.417132E-10 -1.407768E-09
        85  19 -6.393600E+05 -2.286592E+06 -6.338609E+05  5.735632E+05  2.542518E+04  1.784235E+05
        85  20 -4.075316E+05 -1.677989E+06 -3.881322E+05  4.680095E+05  7.318416E+04  6.852993E+04
        85  21 -2.486246E+05 -1.101759E+06 -2.323905E+05  5.156909E+05  6.172108E+04 -4.141088E+04
        85  22 -8.529806E+04 -5.388052E+04 -9.844607E+04  5.254302E+05  2.519084E+04  6.710965E+04
        85  23 -1.257184E+04 -4.465236E+04 -4.785119E+04  4.487249E+05  7.310877E+04  4.215524E+04
        85  24  2.141290E+03 -5.326009E+04 -2.803860E+04  5.252597E+05  6.186522E+04  1.726461E+04
        85  25  4.684175E+05  2.183440E+06  4.366637E+05  4.771189E+05  2.497438E+04 -4.460437E+04
        85  26  3.822197E+05  1.591216E+06  2.922859E+05  4.293864E+05  7.303514E+04  1.571207E+04
        85  27  2.528433E+05  9.963031E+05  1.762740E+05  5.348440E+05  6.201102E+04  7.603712E+04
        86   1 -1.552650E+05 -6.948522E+05 -1.489025E+05  5.263195E+05 -3.748775E+04  3.535951E+04
        86   2 -1.094970E+04 -1.013311E+05 -2.590406E+04  4.477677E+05 -3.426934E+03  4.354933E+04
        86   3  1.300340E+05  4.899704E+05  9.071912E+04  5.257245E+05  3.081789E+04  5.174473E+04
        86   4 -9.629890E+02 -4.971932E+04 -2.278295E+04  5.260114E+05 -3.761742E+04 -1.350166E+04
        86   5  1.605669E+03 -4.845520E+04 -1.600846E+04  4.477546E+05 -3.557894E+03 -5.592357E+03
        86   6  9.105353E+02 -4.969900E+04 -1.540747E+04  5.260064E+05  3.068476E+04  2.315045E+03
        86   7  1.533153E+05  5.958182E+05  1.033257E+05  5.257026E+05 -3.774695E+04 -6.241253E+04
        86   8  1.416218E+04  4.428593E+03 -6.103895E+03  4.477416E+05 -3.688845E+03 -5.473813E+04
        86   9 -1.282293E+05 -5.890843E+05 -1.215390E+05  5.262877E+05  3.055151E+04 -4.707262E+04
        86  10 -1.552669E+05 -6.948540E+05 -1.489075E+05  5.263206E+05 -3.640304E-11  7.200544E-10
        86  11 -1.095023E+04 -1.013331E+05 -2.590765E+04  4.477678E+05 -3.119466E-10 -1.435442E-10
        86  12  1.300323E+05  4.899673E+05  9.071231E+04  5.257232E+05  1.663614E-10  1.147095E-10
        86  13 -9.645568E+02 -4.971989E+04 -2.278595E+04  5.260110E+05 -1.213413E-10 -7.943038E-11
        86  14  1.605647E+03 -4.845524E+04 -1.600854E+04  4.477546E+05 -8.906922E-10 -1.039603E-09
        86  15  9.095229E+02 -4.969926E+04 -1.540925E+04  5.260063E+05  4.297465E-10  4.967975E-11
        86  16  1.533127E+05  5.958136E+05  1.033157E+05  5.257007E+05  1.460507E-09  6.874432E-10
        86  17  1.416136E+04  4.425372E+03 -6.109550E+03  4.477414E+05  2.166707E-09 -1.883042E-10
        86  18 -1.282309E+05 -5.890869E+05 -1.215450E+05  5.262889E+05  7.838780E-10 -1.034293E-09
        86  19 -1.552650E+05 -6.948522E+05 -1.489025E+05  5.263195E+05  3.748775E+04 -3.535951E+04
        86  20 -1.094970E+04 -1.013311E+05 -2.590406E+04  4.477677E+05  3.426934E+03 -4.354933E+04
        86  21  1.300340E+05  4.899704E+05  9.071912E+04  5.257245E+05 -3.081789E+04 -5.174473E+04
        86  22 -9.629890E+02 -4.971932E+04 -2.278295E+04  5.260114E+05  3.761742E+04  1.350166E+04
        86  23  1.605669E+03 -4.845520E+04 -1.600846E+04  4.477546E+05  3.557894E+03  5.592357E+03
        86  24  9.105353E+02 -4.969900E+04 -1.540747E+04  5.260064E+05 -3.068476E+04 -2.315045E+03
        86  25  1.533153E+05  5.958182E+05  1.033257E+05  5.257026E+05  3.774695E+04  6.241253E+04
        86  26  1.416218E+04  4.428593E+03 -6.103895E+03  4.477416E+05  3.688845E+03  5.473813E+04
        86  27 -1.282293E+05 -5.890843E+05 -1.215390E+05  5.262877E+05 -3.055151E+04  4.707262E+04
        87   1  2.276714E+05  8.924062E+05  1.676581E+05  5.304285E+05  5.509840E+04  6.354165E+04
        87   2  3.643380E+05  1.482887E+06  2.947348E+05  4.405453E+05  6.743320E+04 -5.369919E+03
        87   3  4.881472E+05  2.079283E+06  4.633202E+05  5.040166E+05  2.328113E+04 -7.428058E+04
        87   4  2.174986E+03 -5.115881E+04 -1.662809E+04  5.253021E+05  5.494930E+04  4.751433E+03
        87   5 -5.149137E+03 -4.717547E+04 -2.421470E+04  4.486485E+05  6.749718E+04  1.731835E+04
        87   6 -3.946567E+04 -5.173848E+04 -4.682263E+04  5.253845E+05  2.349174E+04  2.995111E+04
        87   7 -2.233730E+05 -9.938631E+05 -2.009439E+05  5.201829E+05  5.480102E+04 -5.395148E+04
        87   8 -3.747849E+05 -1.575024E+06 -3.432913E+05  4.567295E+05  6.756185E+04  3.995170E+04
        87   9 -5.673998E+05 -2.178583E+06 -5.572454E+05  5.466752E+05  2.370998E+04  1.338273E+05
        87  10  2.276670E+05  8.924011E+05  1.676448E+05  5.304257E+05  9.715754E-10 -3.612023E-10
        87  11  3.643331E+05  1.482886E+06  2.947262E+05  4.405456E+05 -2.052966E-10 -5.117234E-10
        87  12  4.881451E+05  2.079277E+06  4.633088E+05  5.040180E+05 -4.804175E-10  2.049347E-10
        87  13  2.171738E+03 -5.115964E+04 -1.663380E+04  5.253019E+05 -7.674241E-10 -6.293213E-11
        87  14 -5.154109E+03 -4.717701E+04 -2.422382E+04  4.486476E+05 -9.262832E-11 -9.071245E-10
        87  15 -3.946650E+04 -5.173960E+04 -4.682535E+04  5.253839E+05 -4.107187E-10  5.544868E-11
        87  16 -2.233770E+05 -9.938671E+05 -2.009550E+05  5.201853E+05  9.813697E-10  1.751803E-09
        87  17 -3.747903E+05 -1.575027E+06 -3.433029E+05  4.567273E+05  3.229547E-10  1.636789E-10
        87  18 -5.674052E+05 -2.178603E+06 -5.572802E+05  5.466727E+05  2.586526E-10 -6.984601E-10
        87  19  2.276714E+05  8.924062E+05  1.676581E+05  5.304285E+05 -5.509840E+04 -6.354165E+04
        87  20  3.643380E+05  1.482887E+06  2.947348E+05  4.405453E+05 -6.743320E+04  5.369919E+03
        87  21  4.881472E+05  2.079283E+06  4.633202E+05  5.040166E+05 -2.328113E+04  7.428058E+04
        87  22  2.174986E+03 -5.115881E+04 -1.662809E+04  5.253021E+05 -5.494930E+04 -4.751433E+03
        87  23 -5.149137E+03 -4.717547E+04 -2.421470E+04  4.486485E+05 -6.749718E+04 -1.731835E+04
        87  24 -3.946567E+04 -5.173848E+04 -4.682263E+04  5.253845E+05 -2.349174E+04 -2.995111E+04
        87  25 -2.233730E+05 -9.938631E+05 -2.009439E+05  5.201829E+05 -5.480102E+04  5.395148E+04
        87  26 -3.747849E+05 -1.575024E+06 -3.432913E+05  4.567295E+05 -6.756185E+04 -3.995170E+04
        87  27 -5.673998E+05 -2.178583E+06 -5.572454E+05  5.466752E+05 -2.370998E+04 -1.338273E+05
        88   1  2.288217E+06  4.456431E+05  4.409401E+05  3.040871E+05  1.373746E+05 -1.887015E+04
        88   2  1.976693E+06  3.061419E+05  2.890308E+05  2.430600E+05  6.090721E+04 -5.791161E+04
        88   3  1.689377E+06  2.222873E+05  2.007280E+05  2.586983E+05 -1.549111E+04 -5.721880E+04
        88   4  7.549923E+05  6.658829E+04  7.597079E+04  2.646856E+05  5.222465E+04 -1.885780E+04
        88   5  7.480073E+05  1.032038E+04  3.664021E+04  2.263500E+05  3.318967E+04 -5.792064E+04
        88   6  7.552500E+05 -1.835826E+02  2.116833E+04  2.646764E+05  1.418391E+04 -5.721903E+04
        88   7 -7.760635E+05 -3.126261E+05 -2.891351E+05  2.253813E+05 -3.271677E+04 -1.883469E+04
        88   8 -4.792466E+05 -2.855946E+05 -2.158281E+05  2.096734E+05  5.525816E+03 -5.792820E+04
        88   9 -1.780378E+05 -2.227055E+05 -1.584282E+05  2.706451E+05  4.381539E+04 -5.721869E+04
        88  10  2.288197E+06  4.456376E+05  4.409041E+05  3.040892E+05 -3.756912E-10 -1.898344E-10
        88  11  1.976688E+06  3.061373E+05  2.890175E+05  2.430628E+05 -1.034874E-09 -1.279200E-10
        88  12  1.689376E+06  2.222837E+05  2.007214E+05  2.586976E+05  6.429539E-10 -2.207485E-10
        88  13  7.549893E+05  6.658717E+04  7.596500E+04  2.646864E+05 -5.092458E-10 -4.921354E-11
        88  14  7.480052E+05  1.031648E+04  3.663184E+04  2.263516E+05  1.300613E-10  2.718345E-10
        88  15  7.552489E+05 -1.871540E+02  2.116179E+04  2.646770E+05 -3.135548E-10  6.267707E-11
        88  16 -7.760647E+05 -3.126267E+05 -2.891377E+05  2.253808E+05 -1.336379E-10  4.094628E-11
        88  17 -4.792475E+05 -2.855982E+05 -2.158344E+05  2.096737E+05 -2.109456E-09  2.052596E-10
        88  18 -1.780407E+05 -2.227095E+05 -1.584380E+05  2.706471E+05 -1.285837E-09  2.906390E-10
        88  19  2.288217E+06  4.456431E+05  4.409401E+05  3.040871E+05 -1.373746E+05  1.887015E+04
        88  20  1.976693E+06  3.061419E+05  2.890308E+05  2.430600E+05 -6.090721E+04  5.791161E+04
        88  21  1.689377E+06  2.222873E+05  2.007280E+05  2.586983E+05  1.549111E+04  5.721880E+04
        88  22  7.549923E+05  6.658829E+04  7.597079E+04  2.646856E+05 -5.222465E+04  1.885780E+04
        88  23  7.480073E+05  1.032038E+04  3.664021E+04  2.263500E+05 -3.318967E+04  5.792064E+04
        88  24  7.552500E+05 -1.835826E+02  2.116833E+04  2.646764E+05 -1.418391E+04  5.721903E+04
        88  25 -7.760635E+05 -3.126261E+05 -2.891351E+05  2.253813E+05  3.271677E+04  1.883469E+04
        88  26 -4.792466E+05 -2.855946E+05 -2.158281E+05  2.096734E+05 -5.525816E+03  5.792820E+04
        88  27 -1.780378E+05 -2.227055E+05 -1.584282E+05  2.706451E+05 -4.381539E+04  5.721869E+04
        89   1  1.482609E+06  1.763506E+05  1.568976E+05  2.662228E+05 -1.133858E+04 -4.509211E+04
        89   2  1.183021E+06  1.026255E+05  9.228959E+04  2.261226E+05 -2.059037E+04 -2.807634E+04
        89   3  8.854713E+05  3.169654E+04  3.439898E+04  2.649003E+05 -2.984413E+04 -8.418613E+03
        89   4  7.524389E+05  2.497124E+03  1.686229E+04  2.651734E+05  1.129786E+04 -4.508878E+04
        89   5  7.518369E+05  2.116324E+02  1.092704E+04  2.257333E+05  5.856904E+03 -2.806738E+04
        89   6  7.525240E+05  6.655140E+01  9.069671E+03  2.651744E+05  4.096606E+02 -8.402942E+03
        89   7  2.278156E+04 -1.713875E+05 -1.231955E+05  2.641250E+05  3.390835E+04 -4.508551E+04
        89   8  3.208331E+05 -1.022127E+05 -7.044108E+04  2.253443E+05  3.228629E+04 -2.805845E+04
        89   9  6.195958E+05 -3.156398E+04 -1.625700E+04  2.654484E+05  3.065713E+04 -8.387242E+03
        89  10  1.482609E+06  1.763483E+05  1.568935E+05  2.662224E+05  1.401109E-09 -1.716320E-10
        89  11  1.183021E+06  1.026245E+05  9.228731E+04  2.261222E+05  1.228090E-09 -9.027814E-11
        89  12  8.854703E+05  3.169623E+04  3.439717E+04  2.649001E+05  3.848681E-10 -3.953784E-10
        89  13  7.524382E+05  2.494906E+03  1.685822E+04  2.651738E+05 -4.965358E-10  9.159163E-11
        89  14  7.518366E+05  2.107769E+02  1.092549E+04  2.257335E+05  8.411052E-12 -5.694211E-11
        89  15  7.525240E+05  6.647551E+01  9.069537E+03  2.651744E+05 -1.326775E-11 -5.018984E-10
        89  16  2.277978E+04 -1.713900E+05 -1.232015E+05  2.641262E+05 -3.663731E-10  4.181396E-10
        89  17  3.208318E+05 -1.022138E+05 -7.044452E+04  2.253450E+05 -1.046063E-09 -6.303271E-11
        89  18  6.195947E+05 -3.156431E+04 -1.625890E+04  2.654486E+05 -3.364737E-10 -2.648424E-10
        89  19  1.482609E+06  1.763506E+05  1.568976E+05  2.662228E+05  1.133858E+04  4.509211E+04
        89  20  1.183021E+06  1.026255E+05  9.228959E+04  2.261226E+05  2.059037E+04  2.807634E+04
        89  21  8.854713E+05  3.169654E+04  3.439898E+04  2.649003E+05  2.984413E+04  8.418613E+03
        89  22  7.524389E+05  2.497124E+03  1.686229E+04  2.651734E+05 -1.129786E+04  4.508878E+04
        89  23  7.518369E+05  2.116324E+02  1.092704E+04  2.257333E+05 -5.856904E+03  2.806738E+04
        89  24  7.525240E+05  6.655140E+01  9.069671E+03  2.651744E+05 -4.096606E+02  8.402942E+03
        89  25  2.278156E+04 -1.713875E+05 -1.231955E+05  2.641250E+05 -3.390835E+04  4.508551E+04
        89  26  3.208331E+05 -1.022127E+05 -7.044108E+04  2.253443E+05 -3.228629E+04  2.805845E+04
        89  27  6.195958E+05 -3.156398E+04 -1.625700E+04  2.654484E+05 -3.065713E+04  8.387242E+03
        90   1  6.832761E+05 -1.649337E+04 -4.319989E+03  2.655495E+05 -3.143791E+04  4.010107E+03
        90   2  3.844556E+05 -8.707131E+04 -5.783949E+04  2.253455E+05 -3.361684E+04  2.372554E+04
        90   3  8.647117E+04 -1.559193E+05 -1.095098E+05  2.640287E+05 -3.578941E+04  4.091519E+04
        90   4  7.525478E+05  5.513738E+01  9.207214E+03  2.651750E+05 -1.209175E+03  4.026034E+03
        90   5  7.518189E+05  2.609955E+02  1.168542E+04  2.257325E+05 -7.035864E+03  2.373545E+04
        90   6  7.524745E+05  2.833665E+03  1.854255E+04  2.651738E+05 -1.285725E+04  4.092002E+04
        90   7  8.218260E+05  1.660385E+04  2.273762E+04  2.648005E+05  2.902286E+04  4.041922E+03
        90   8  1.119314E+06  8.758580E+04  8.120700E+04  2.261197E+05  1.956045E+04  2.374539E+04
        90   9  1.418905E+06  1.615607E+05  1.465764E+05  2.663200E+05  1.009895E+04  4.092493E+04
        90  10  6.832750E+05 -1.649365E+04 -4.321875E+03  2.655496E+05 -5.097167E-09  2.487527E-10
        90  11  3.844542E+05 -8.707221E+04 -5.784267E+04  2.253461E+05  7.983449E-09  8.799831E-10
        90  12  8.646935E+04 -1.559215E+05 -1.095153E+05  2.640298E+05  1.959013E-08  1.284348E-09
        90  13  7.525478E+05  5.511957E+01  9.207181E+03  2.651750E+05 -1.060614E-09 -1.334903E-10
        90  14  7.518187E+05  2.603770E+02  1.168427E+04  2.257326E+05 -1.480466E-09  7.461697E-10
        90  15  7.524739E+05  2.831822E+03  1.853909E+04  2.651742E+05  6.268536E-10  1.283932E-09
        90  16  8.218251E+05  1.660360E+04  2.273601E+04  2.648004E+05  4.646157E-09 -3.022233E-10
        90  17  1.119313E+06  8.758510E+04  8.120523E+04  2.261193E+05 -7.077295E-09  4.406054E-10
        90  18  1.418905E+06  1.615588E+05  1.465731E+05  2.663197E+05 -1.918706E-08  9.983290E-10
        90  19  6.832761E+05 -1.649337E+04 -4.319989E+03  2.655495E+05  3.143791E+04 -4.010107E+03
        90  20  3.844556E+05 -8.707131E+04 -5.783949E+04  2.253455E+05  3.361684E+04 -2.372554E+04
        90  21  8.647117E+04 -1.559193E+05 -1.095098E+05  2.640287E+05  3.578941E+04 -4.091519E+04
        90  22  7.525478E+05  5.513738E+01  9.207214E+03  2.651750E+05  1.209175E+03 -4.026034E+03
        90  23  7.518189E+05  2.609955E+02  1.168542E+04  2.257325E+05  7.035864E+03 -2.373545E+04
        90  24  7.524745E+05  2.833665E+03  1.854255E+04  2.651738E+05  1.285725E+04 -4.092002E+04
        90  25  8.218260E+05  1.660385E+04  2.273762E+04  2.648005E+05 -2.902286E+04 -4.041922E+03
        90  26  1.119314E+06  8.758580E+04  8.120700E+04  2.261197E+05 -1.956045E+04 -2.374539E+04
        90  27  1.418905E+06  1.615607E+05  1.465764E+05  2.663200E+05 -1.009895E+04 -4.092493E+04
        91   1 -1.139392E+05 -2.075089E+05 -1.441304E+05  2.713590E+05 -4.570829E+04  5.305993E+04
        91   2 -4.160816E+05 -2.690218E+05 -1.988756E+05  2.076469E+05 -1.183814E+04  5.457988E+04
        91   3 -7.118615E+05 -2.889806E+05 -2.652308E+05  2.207034E+05  2.199134E+04  1.785832E+04
        91   4  7.556205E+05 -1.444492E+02  2.342668E+04  2.646960E+05 -1.603389E+04  5.306247E+04
        91   5  7.475935E+05  1.161842E+04  4.082763E+04  2.263244E+05 -3.721991E+04  5.457161E+04
        91   6  7.553720E+05  7.444812E+04  8.482492E+04  2.647028E+05 -5.843121E+04  1.787460E+04
        91   7  1.625909E+06  2.071758E+05  1.909521E+05  2.580232E+05  1.368113E+04  5.306438E+04
        91   8  1.912555E+06  2.921749E+05  2.804607E+05  2.450373E+05 -6.264839E+04  5.456184E+04
        91   9  2.224598E+06  4.377321E+05  4.347548E+05  3.088063E+05 -1.390430E+05  1.787949E+04
        91  10 -1.139422E+05 -2.075124E+05 -1.441396E+05  2.713609E+05 -1.868062E-08  9.433257E-10
        91  11 -4.160826E+05 -2.690251E+05 -1.988815E+05  2.076475E+05 -9.584020E-09 -9.340876E-11
        91  12 -7.118621E+05 -2.889811E+05 -2.652323E+05  2.207031E+05  4.070032E-09  8.784507E-12
        91  13  7.556195E+05 -1.475432E+02  2.342090E+04  2.646967E+05 -7.640385E-10  8.165785E-10
        91  14  7.475912E+05  1.161485E+04  4.081943E+04  2.263260E+05  1.414309E-10 -3.041442E-10
        91  15  7.553682E+05  7.444686E+04  8.481791E+04  2.647036E+05 -7.837715E-10 -4.456151E-10
        91  16  1.625908E+06  2.071727E+05  1.909464E+05  2.580227E+05  1.994649E-08  8.453366E-10
        91  17  1.912550E+06  2.921707E+05  2.804477E+05  2.450401E+05  7.447055E-09 -1.428231E-10
        91  18  2.224577E+06  4.377266E+05  4.347179E+05  3.088083E+05 -2.357747E-09 -5.208598E-10
        91  19 -1.139392E+05 -2.075089E+05 -1.441304E+05  2.713590E+05  4.570829E+04 -5.305993E+04
        91  20 -4.160816E+05 -2.690218E+05 -1.988756E+05  2.076469E+05  1.183814E+04 -5.457988E+04
        91  21 -7.118615E+05 -2.889806E+05 -2.652308E+05  2.207034E+05 -2.199134E+04 -1.785832E+04
        91  22  7.556205E+05 -1.444492E+02  2.342668E+04  2.646960E+05  1.603389E+04 -5.306247E+04
        91  23  7.475935E+05  1.161842E+04  4.082763E+04  2.263244E+05  3.721991E+04 -5.457161E+04
        91  24  7.553720E+05  7.444812E+04  8.482492E+04  2.647028E+05  5.843121E+04 -1.787460E+04
        91  25  1.625909E+06  2.071758E+05  1.909521E+05  2.580232E+05 -1.368113E+04 -5.306438E+04
        91  26  1.912555E+06  2.921749E+05  2.804607E+05  2.450373E+05  6.264839E+04 -5.456184E+04
        91  27  2.224598E+06  4.377321E+05  4.347548E+05  3.088063E+05  1.390430E+05 -1.787949E+04
        92   1 -5.835656E+05 -2.071506E+06 -5.777810E+05  5.179161E+05 -2.342208E+04 -1.615236E+05
        92   2 -3.755672E+05 -1.520891E+06 -3.559351E+05  4.231801E+05 -6.774627E+04 -6.164129E+04
        92   3 -2.321733E+05 -9.992754E+05 -2.154365E+05  4.670563E+05 -5.776670E+04  3.828129E+04
        92   4 -7.493041E+04 -2.157359E+04 -8.637903E+04  4.754859E+05 -2.323004E+04 -5.868617E+04
        92   5 -1.113022E+04 -1.349347E+04 -4.214136E+04  4.061115E+05 -6.768261E+04 -3.671879E+04
        92   6  1.724417E+03 -2.105668E+04 -2.496396E+04  4.753524E+05 -5.788319E+04 -1.480252E+04
        92   7  4.334123E+05  2.032243E+06  4.047663E+05  4.329116E+05 -2.305253E+04  4.449048E+04
        92   8  3.531635E+05  1.496061E+06  2.715301E+05  3.889989E+05 -6.762043E+04 -1.173660E+04
        92   9  2.355665E+05  9.580876E+05  1.654738E+05  4.836610E+05 -5.800099E+04 -6.796821E+04
        92  10 -5.835732E+05 -2.071534E+06 -5.778312E+05  5.179131E+05  9.402967E-11 -4.807508E-08
        92  11 -3.755732E+05 -1.520897E+06 -3.559509E+05  4.231768E+05  9.778689E-11  2.740022E-09
        92  12 -2.321773E+05 -9.992779E+05 -2.154455E+05  4.670580E+05  1.437091E-09  5.466444E-08
        92  13 -7.493192E+04 -2.157743E+04 -8.638651E+04  4.754848E+05  1.882789E-09 -4.925009E-10
        92  14 -1.113550E+04 -1.349614E+04 -4.215250E+04  4.061095E+05  1.314301E-09  1.469075E-09
        92  15  1.720761E+03 -2.105781E+04 -2.497066E+04  4.753517E+05  9.374351E-10 -4.967745E-10
        92  16  4.334112E+05  2.032241E+06  4.047616E+05  4.329124E+05  1.329319E-09  4.828283E-08
        92  17  3.531585E+05  1.496060E+06  2.715213E+05  3.889983E+05  1.324051E-09 -2.699242E-09
        92  18  2.355617E+05  9.580818E+05  1.654588E+05  4.836579E+05  6.258146E-10 -5.390481E-08
        92  19 -5.835656E+05 -2.071506E+06 -5.777810E+05  5.179161E+05  2.342208E+04  1.615236E+05
        92  20 -3.755672E+05 -1.520891E+06 -3.559351E+05  4.231801E+05  6.774627E+04  6.164129E+04
        92  21 -2.321733E+05 -9.992754E+05 -2.154365E+05  4.670563E+05  5.776670E+04 -3.828129E+04
        92  22 -7.493041E+04 -2.157359E+04 -8.637903E+04  4.754859E+05  2.323004E+04  5.868617E+04
        92  23 -1.113022E+04 -1.349347E+04 -4.214136E+04  4.061115E+05  6.768261E+04  3.671879E+04
        92  24  1.724417E+03 -2.105668E+04 -2.496396E+04  4.753524E+05  5.788319E+04  1.480252E+04
        92  25  4.334123E+05  2.032243E+06  4.047663E+05  4.329116E+05  2.305253E+04 -4.449048E+04
        92  26  3.531635E+05  1.496061E+06  2.715301E+05  3.889989E+05  6.762043E+04  1.173660E+04
        92  27  2.355665E+05  9.580876E+05  1.654738E+05  4.836610E+05  5.800099E+04  6.796821E+04
        93   1 -1.476018E+05 -6.311424E+05 -1.401594E+05  4.763929E+05 -3.584479E+04  3.264650E+04
        93   2 -1.708047E+04 -9.404894E+04 -2.940040E+04  4.051831E+05 -5.077040E+03  4.044035E+04
        93   3  1.102398E+05  4.409716E+05  7.531352E+04  4.755929E+05  2.596009E+04  4.823812E+04
        93   4 -9.904907E+02 -1.797244E+04 -2.048687E+04  4.760396E+05 -3.594961E+04 -1.141968E+04
        93   5  1.257910E+03 -1.681922E+04 -1.494495E+04  4.052283E+05 -5.183800E+03 -4.026236E+03
        93   6  3.903234E+02 -1.794567E+04 -1.516451E+04  4.760363E+05  2.585066E+04  3.364676E+03
        93   7  1.455993E+05  5.955626E+05  9.917498E+04  4.756856E+05 -3.605430E+04 -5.552845E+04
        93   8  1.959701E+04  6.042052E+04 -4.823324E+02  4.052736E+05 -5.290558E+03 -4.849822E+04
        93   9 -1.094708E+05 -4.766570E+05 -1.056453E+05  4.764791E+05  2.574111E+04 -4.147631E+04
        93  10 -1.476035E+05 -6.311439E+05 -1.401638E+05  4.763939E+05  1.457351E-10  2.371297E-09
        93  11 -1.708094E+04 -9.405070E+04 -2.940352E+04  4.051833E+05 -2.512052E-09  3.825281E-09
        93  12  1.102384E+05  4.409689E+05  7.530789E+04  4.755919E+05 -1.782787E-09  5.587603E-09
        93  13 -9.919131E+02 -1.797292E+04 -2.048954E+04  4.760393E+05 -1.754049E-09 -9.102281E-10
        93  14  1.257876E+03 -1.681924E+04 -1.494503E+04  4.052283E+05 -2.654057E-09  1.826706E-09
        93  15  3.896028E+02 -1.794586E+04 -1.516578E+04  4.760362E+05  1.024996E-10 -6.093101E-10
        93  16  1.455971E+05  5.955590E+05  9.916676E+04  4.756840E+05 -7.839715E-10 -2.359257E-09
        93  17  1.959634E+04  6.041799E+04 -4.868039E+02  4.052734E+05 -3.518967E-09 -3.789336E-09
        93  18 -1.094720E+05 -4.766590E+05 -1.056497E+05  4.764800E+05 -5.037184E-10 -4.740515E-09
        93  19 -1.476018E+05 -6.311424E+05 -1.401594E+05  4.763929E+05  3.584479E+04 -3.264650E+04
        93  20 -1.708047E+04 -9.404894E+04 -2.940040E+04  4.051831E+05  5.077040E+03 -4.044035E+04
        93  21  1.102398E+05  4.409716E+05  7.531352E+04  4.755929E+05 -2.596009E+04 -4.823812E+04
        93  22 -9.904907E+02 -1.797244E+04 -2.048687E+04  4.760396E+05  3.594961E+04  1.141968E+04
        93  23  1.257910E+03 -1.681922E+04 -1.494495E+04  4.052283E+05  5.183800E+03  4.026236E+03
        93  24  3.903234E+02 -1.794567E+04 -1.516451E+04  4.760363E+05 -2.585066E+04 -3.364676E+03
        93  25  1.455993E+05  5.955626E+05  9.917498E+04  4.756856E+05  3.605430E+04  5.552845E+04
        93  26  1.959701E+04  6.042052E+04 -4.823324E+02  4.052736E+05  5.290558E+03  4.849822E+04
        93  27 -1.094708E+05 -4.766570E+05 -1.056453E+05  4.764791E+05 -2.574111E+04  4.147631E+04
        94   1  1.988382E+05  8.048027E+05  1.444573E+05  4.804110E+05  4.793488E+04  5.899576E+04
        94   2  3.215836E+05  1.339807E+06  2.576410E+05  3.969609E+05  5.948558E+04 -6.675574E+02
        94   3  4.283556E+05  1.878703E+06  4.055581E+05  4.523283E+05  2.063820E+04 -6.032764E+04
        94   4  1.791257E+03 -1.952878E+04 -1.673233E+04  4.754095E+05  4.781230E+04  5.790325E+03
        94   5 -5.711462E+03 -1.526679E+04 -2.508356E+04  4.060249E+05  5.953550E+04  1.880754E+04
        94   6 -4.180234E+04 -1.999299E+04 -4.913442E+04  4.754879E+05  2.080774E+04  3.187850E+04
        94   7 -1.952950E+05 -8.432030E+05 -1.779440E+05  4.704141E+05  4.769047E+04 -4.734608E+04
        94   8 -3.331232E+05 -1.368604E+06 -3.079081E+05  4.150674E+05  5.958607E+04  3.824086E+04
        94   9 -5.122148E+05 -1.915373E+06 -5.040496E+05  4.985739E+05  2.098450E+04  1.238044E+05
        94  10  1.988348E+05  8.047983E+05  1.444465E+05  4.804087E+05 -5.073776E-11  1.063732E-09
        94  11  3.215798E+05  1.339806E+06  2.576344E+05  3.969609E+05 -9.389997E-13  1.232874E-09
        94  12  4.283541E+05  1.878699E+06  4.055504E+05  4.523293E+05 -4.261275E-10  1.023884E-09
        94  13  1.788793E+03 -1.952943E+04 -1.673669E+04  4.754092E+05  3.668634E-10 -8.956706E-10
        94  14 -5.715362E+03 -1.526812E+04 -2.509088E+04  4.060240E+05  7.432254E-10  1.463526E-09
        94  15 -4.180307E+04 -1.999420E+04 -4.913714E+04  4.754874E+05 -8.275914E-10 -3.747836E-10
        94  16 -1.952980E+05 -8.432061E+05 -1.779525E+05  4.704159E+05  2.161129E-10 -1.100888E-09
        94  17 -3.331274E+05 -1.368607E+06 -3.079175E+05  4.150655E+05  7.838179E-11 -1.378131E-09
        94  18 -5.122194E+05 -1.915390E+06 -5.040793E+05  4.985718E+05 -5.888930E-11 -4.949489E-10
        94  19  1.988382E+05  8.048027E+05  1.444573E+05  4.804110E+05 -4.793488E+04 -5.899576E+04
        94  20  3.215836E+05  1.339807E+06  2.576410E+05  3.969609E+05 -5.948558E+04  6.675574E+02
        94  21  4.283556E+05  1.878703E+06  4.055581E+05  4.523283E+05 -2.063820E+04  6.032764E+04
        94  22  1.791257E+03 -1.952878E+04 -1.673233E+04  4.754095E+05 -4.781230E+04 -5.790325E+03
        94  23 -5.711462E+03 -1.526679E+04 -2.508356E+04  4.060249E+05 -5.953550E+04 -1.880754E+04
        94  24 -4.180234E+04 -1.999299E+04 -4.913442E+04  4.754879E+05 -2.080774E+04 -3.187850E+04
        94  25 -1.952950E+05 -8.432030E+05 -1.779440E+05  4.704141E+05 -4.769047E+04  4.734608E+04
        94  26 -3.331232E+05 -1.368604E+06 -3.079081E+05  4.150674E+05 -5.958607E+04 -3.824086E+04
        94  27 -5.122148E+05 -1.915373E+06 -5.040496E+05  4.985739E+05 -2.098450E+04 -1.238044E+05
        95   1  2.031365E+06  3.975648E+05  3.921813E+05  2.753643E+05  1.182414E+05 -1.712173E+04
        95   2  1.744821E+06  2.765927E+05  2.580218E+05  2.221262E+05  5.091592E+04 -5.245444E+04
        95   3  1.478595E+06  2.006507E+05  1.788840E+05  2.396821E+05 -1.635205E+04 -5.156724E+04
        95   4  6.354624E+05  5.236602E+04  5.977264E+04  2.443818E+05  4.103030E+04 -1.711048E+04
        95   5  6.299619E+05  8.101818E+03  2.886956E+04  2.089824E+05  2.603377E+04 -5.246165E+04
        95   6  6.356741E+05 -1.511187E+02  1.675462E+04  2.443751E+05  1.106173E+04 -5.156719E+04
        95   7 -7.586426E+05 -2.929663E+05 -2.727497E+05  2.134688E+05 -3.600852E+04 -1.709156E+04
        95   8 -4.837191E+05 -2.604663E+05 -2.003469E+05  1.958624E+05  1.195381E+03 -5.246782E+04
        95   9 -2.065629E+05 -2.009945E+05 -1.454047E+05  2.490615E+05  3.843920E+04 -5.156673E+04
        95  10  2.031350E+06  3.975607E+05  3.921546E+05  2.753659E+05  1.341101E-09 -3.015863E-10
        95  11  1.744818E+06  2.765891E+05  2.580118E+05  2.221284E+05  1.504270E-11 -8.128392E-10
        95  12  1.478594E+06  2.006478E+05  1.788785E+05  2.396814E+05  5.318195E-10  1.468557E-10
        95  13  6.354605E+05  5.236526E+04  5.976893E+04  2.443823E+05  1.395252E-09  3.753507E-10
        95  14  6.299604E+05  8.098680E+03  2.886311E+04  2.089835E+05  3.136409E-10 -6.504913E-11
        95  15  6.356732E+05 -1.540082E+02  1.674939E+04  2.443756E+05  2.173439E-09 -1.522740E-10
        95  16 -7.586440E+05 -2.929670E+05 -2.727527E+05  2.134684E+05 -1.206826E-09  4.416910E-11
        95  17 -4.837199E+05 -2.604693E+05 -2.003520E+05  1.958625E+05  4.805212E-12  3.368106E-10
        95  18 -2.065652E+05 -2.009978E+05 -1.454125E+05  2.490631E+05 -5.378547E-10 -4.224826E-10
        95  19  2.031365E+06  3.975648E+05  3.921813E+05  2.753643E+05 -1.182414E+05  1.712173E+04
        95  20  1.744821E+06  2.765927E+05  2.580218E+05  2.221262E+05 -5.091592E+04  5.245444E+04
        95  21  1.478595E+06  2.006507E+05  1.788840E+05  2.396821E+05  1.635205E+04  5.156724E+04
        95  22  6.354624E+05  5.236602E+04  5.977264E+04  2.443818E+05 -4.103030E+04  1.711048E+04
        95  23  6.299619E+05  8.101818E+03  2.886956E+04  2.089824E+05 -2.603377E+04  5.246165E+04
        95  24  6.356741E+05 -1.511187E+02  1.675462E+04  2.443751E+05 -1.106173E+04  5.156719E+04
        95  25 -7.586426E+05 -2.929663E+05 -2.727497E+05  2.134688E+05  3.600852E+04  1.709156E+04
        95  26 -4.837191E+05 -2.604663E+05 -2.003469E+05  1.958624E+05 -1.195381E+03  5.246782E+04
        95  27 -2.065629E+05 -2.009945E+05 -1.454047E+05  2.490615E+05 -3.843920E+04  5.156673E+04
        96   1  1.288100E+06  1.578705E+05  1.390417E+05  2.456726E+05 -1.223175E+04 -4.036422E+04
        96   2  1.011572E+06  9.011051E+04  8.034857E+04  2.087334E+05 -2.010102E+04 -2.459880E+04
        96   3  7.367487E+05  2.463911E+04  2.734602E+04  2.446395E+05 -2.797219E+04 -6.429622E+03
        96   4  6.334661E+05  1.961192E+03  1.340398E+04  2.448348E+05  8.769014E+03 -4.036120E+04
        96   5  6.329829E+05  1.632747E+02  8.844985E+03  2.084111E+05  4.365709E+03 -2.459120E+04
        96   6  6.335348E+05  5.900240E+01  7.576905E+03  2.448355E+05 -4.279153E+01 -6.416558E+03
        96   7 -2.075490E+04 -1.539732E+05 -1.122518E+05  2.439977E+05  2.974818E+04 -4.035824E+04
        96   8  2.545329E+05 -8.979199E+04 -6.266268E+04  2.080891E+05  2.881790E+04 -2.458363E+04
        96   9  5.303328E+05 -2.452131E+04 -1.218977E+04  2.450314E+05  2.788207E+04 -6.403474E+03
        96  10  1.288099E+06  1.578687E+05  1.390384E+05  2.456722E+05  4.727818E-11  5.077210E-10
        96  11  1.011572E+06  9.010976E+04  8.034667E+04  2.087330E+05  5.317730E-10  3.943118E-10
        96  12  7.367479E+05  2.463885E+04  2.734448E+04  2.446393E+05  3.763731E-10 -5.221609E-11
        96  13  6.334656E+05  1.959421E+03  1.340077E+04  2.448351E+05  1.877688E-09  2.588679E-10
        96  14  6.329827E+05  1.626200E+02  8.843812E+03  2.084112E+05  1.411053E-09  7.411081E-10
        96  15  6.335348E+05  5.895817E+01  7.576828E+03  2.448355E+05 -3.493395E-10  8.724673E-11
        96  16 -2.075629E+04 -1.539752E+05 -1.122565E+05  2.439987E+05  6.815949E-10 -4.126201E-10
        96  17  2.545318E+05 -8.979286E+04 -6.266537E+04  2.080896E+05 -4.954140E-10  8.343023E-10
        96  18  5.303320E+05 -2.452156E+04 -1.219131E+04  2.450316E+05 -7.022344E-11  5.520219E-10
        96  19  1.288100E+06  1.578705E+05  1.390417E+05  2.456726E+05  1.223175E+04  4.036422E+04
        96  20  1.011572E+06  9.011051E+04  8.034857E+04  2.087334E+05  2.010102E+04  2.459880E+04
        96  21  7.367487E+05  2.463911E+04  2.734602E+04  2.446395E+05  2.797219E+04  6.429622E+03
        96  22  6.334661E+05  1.961192E+03  1.340398E+04  2.448348E+05 -8.769014E+03  4.036120E+04
        96  23  6.329829E+05  1.632747E+02  8.844985E+03  2.084111E+05 -4.365709E+03  2.459120E+04
        96  24  6.335348E+05  5.900240E+01  7.576905E+03  2.448355E+05  4.279153E+01  6.416558E+03
        96  25 -2.075490E+04 -1.539732E+05 -1.122518E+05  2.439977E+05 -2.974818E+04  4.035824E+04
        96  26  2.545329E+05 -8.979199E+04 -6.266268E+04  2.080891E+05 -2.881790E+04  2.458363E+04
        96  27  5.303328E+05 -2.452131E+04 -1.218977E+04  2.450314E+05 -2.788207E+04  6.403474E+03
        97   1  5.500630E+05 -1.988114E+04 -8.291200E+03  2.451869E+05 -2.932562E+04  5.048829E+03
        97   2  2.741660E+05 -8.506172E+04 -5.763299E+04  2.080851E+05 -3.099688E+04  2.324270E+04
        97   3 -1.025757E+03 -1.487369E+05 -1.055096E+05  2.438337E+05 -3.266258E+04  3.906741E+04
        97   4  6.335773E+05  3.391549E+01  7.825693E+03  2.448354E+05 -1.406742E+03  5.061984E+03
        97   5  6.329329E+05  2.253644E+02  1.021126E+04  2.084112E+05 -6.498554E+03  2.325055E+04
        97   6  6.335115E+05  2.518185E+03  1.643357E+04  2.448344E+05 -1.158552E+04  3.907081E+04
        97   7  7.170999E+05  1.994898E+04  2.394519E+04  2.444838E+05  2.651581E+04  5.075106E+03
        97   8  9.918253E+05  8.550527E+04  7.805207E+04  2.087374E+05  1.801358E+04  2.325843E+04
        97   9  1.268437E+06  1.537497E+05  1.383598E+05  2.458360E+05  9.512591E+03  3.907427E+04
        97  10  5.500621E+05 -1.988140E+04 -8.292863E+03  2.451870E+05  3.559289E-10  1.844073E-10
        97  11  2.741648E+05 -8.506256E+04 -5.763581E+04  2.080857E+05 -4.223311E-10 -2.740360E-10
        97  12 -1.027314E+03 -1.487388E+05 -1.055144E+05  2.438347E+05 -1.329510E-09 -5.840307E-10
        97  13  6.335773E+05  3.388743E+01  7.825641E+03  2.448354E+05  5.049513E-10 -2.877130E-11
        97  14  6.329327E+05  2.247723E+02  1.021016E+04  2.084113E+05  1.223711E-10 -1.630886E-10
        97  15  6.335110E+05  2.516509E+03  1.643044E+04  2.448347E+05 -2.117591E-09 -5.585740E-10
        97  16  7.170991E+05  1.994876E+04  2.394382E+04  2.444837E+05 -9.275190E-10  6.908049E-11
        97  17  9.918248E+05  8.550460E+04  7.805044E+04  2.087371E+05 -4.018588E-10 -2.517010E-10
        97  18  1.268436E+06  1.537480E+05  1.383568E+05  2.458357E+05  3.780173E-10 -4.348116E-10
        97  19  5.500630E+05 -1.988114E+04 -8.291200E+03  2.451869E+05  2.932562E+04 -5.048829E+03
        97  20  2.741660E+05 -8.506172E+04 -5.763299E+04  2.080851E+05  3.099688E+04 -2.324270E+04
        97  21 -1.025757E+03 -1.487369E+05 -1.055096E+05  2.438337E+05  3.266258E+04 -3.906741E+04
        97  22  6.335773E+05  3.391549E+01  7.825693E+03  2.448354E+05  1.406742E+03 -5.061984E+03
        97  23  6.329329E+05  2.253644E+02  1.021126E+04  2.084112E+05  6.498554E+03 -2.325055E+04
        97  24  6.335115E+05  2.518185E+03  1.643357E+04  2.448344E+05  1.158552E+04 -3.907081E+04
        97  25  7.170999E+05  1.994898E+04  2.394519E+04  2.444838E+05 -2.651581E+04 -5.075106E+03
        97  26  9.918253E+05  8.550527E+04  7.805207E+04  2.087374E+05 -1.801358E+04 -2.325843E+04
        97  27  1.268437E+06  1.537497E+05  1.383598E+05  2.458360E+05 -9.512591E+03 -3.907427E+04
        98   1 -1.862014E+05 -1.962957E+05 -1.376067E+05  2.503596E+05 -4.179019E+04  5.027923E+04
        98   2 -4.648594E+05 -2.534753E+05 -1.888523E+05  1.923184E+05 -9.162347E+03  5.143210E+04
        98   3 -7.382506E+05 -2.739616E+05 -2.521209E+05  2.051301E+05  2.342810E+04  1.679199E+04
        98   4  6.363239E+05 -1.412338E+02  2.082832E+04  2.443843E+05 -1.440162E+04  5.028042E+04
        98   5  6.291618E+05  1.036866E+04  3.641685E+04  2.089695E+05 -3.329981E+04  5.142556E+04
        98   6  6.361113E+05  6.647922E+04  7.574386E+04  2.443917E+05 -5.222084E+04  1.680878E+04
        98   7  1.459501E+06  1.959736E+05  1.792348E+05  2.384007E+05  1.302242E+04  5.028108E+04
        98   8  1.724320E+06  2.741385E+05  2.616241E+05  2.256504E+05 -5.747903E+04  5.141773E+04
        98   9  2.012222E+06  4.067925E+05  4.034982E+05  2.837406E+05 -1.280365E+05  1.681600E+04
        98  10 -1.862040E+05 -1.962988E+05 -1.376147E+05  2.503613E+05 -1.154950E-09 -5.667124E-10
        98  11 -4.648602E+05 -2.534781E+05 -1.888574E+05  1.923188E+05 -5.244885E-10 -2.252853E-10
        98  12 -7.382513E+05 -2.739620E+05 -2.521224E+05  2.051298E+05 -7.148651E-10 -2.546603E-10
        98  13  6.363230E+05 -1.440053E+02  2.082317E+04  2.443849E+05  9.906799E-11 -6.299759E-10
        98  14  6.291599E+05  1.036552E+04  3.640979E+04  2.089709E+05  1.354823E-09 -3.872521E-10
        98  15  6.361083E+05  6.647818E+04  7.573821E+04  2.443924E+05  4.200197E-10  7.402475E-11
        98  16  1.459501E+06  1.959708E+05  1.792298E+05  2.384002E+05  7.163771E-10 -5.643958E-10
        98  17  1.724316E+06  2.741348E+05  2.616129E+05  2.256528E+05 -4.747151E-12 -3.652231E-10
        98  18  2.012204E+06  4.067878E+05  4.034670E+05  2.837423E+05  9.382741E-10 -4.768297E-10
        98  19 -1.862014E+05 -1.962957E+05 -1.376067E+05  2.503596E+05  4.179019E+04 -5.027923E+04
        98  20 -4.648594E+05 -2.534753E+05 -1.888523E+05  1.923184E+05  9.162347E+03 -5.143210E+04
        98  21 -7.382506E+05 -2.739616E+05 -2.521209E+05  2.051301E+05 -2.342810E+04 -1.679199E+04
        98  22  6.363239E+05 -1.412338E+02  2.082832E+04  2.443843E+05  1.440162E+04 -5.028042E+04
        98  23  6.291618E+05  1.036866E+04  3.641685E+04  2.089695E+05  3.329981E+04 -5.142556E+04
        98  24  6.361113E+05  6.647922E+04  7.574386E+04  2.443917E+05  5.222084E+04 -1.680878E+04
        98  25  1.459501E+06  1.959736E+05  1.792348E+05  2.384007E+05 -1.302242E+04 -5.028108E+04
        98  26  1.724320E+06  2.741385E+05  2.616241E+05  2.256504E+05  5.747903E+04 -5.141773E+04
        98  27  2.012222E+06  4.067925E+05  4.034982E+05  2.837406E+05  1.280365E+05 -1.681600E+04
        99   1 -5.374802E+05 -1.909880E+06 -5.309786E+05  4.764506E+05 -2.188168E+04 -1.451532E+05
        99   2 -3.502480E+05 -1.399900E+06 -3.289952E+05  3.909119E+05 -6.345948E+04 -5.393670E+04
        99   3 -2.183855E+05 -9.154928E+05 -2.003797E+05  4.338951E+05 -5.437884E+04  3.731355E+04
        99   4 -6.271406E+04  3.696167E+03 -7.235727E+04  4.409624E+05 -2.171732E+04 -4.888066E+04
        99   5 -9.302146E+03  1.047107E+04 -3.551228E+04  3.766495E+05 -6.340412E+04 -3.037249E+04
        99   6  1.470731E+03  4.143850E+03 -2.139412E+04  4.408592E+05 -5.447858E+04 -1.190800E+04
        99   7  4.117961E+05  1.920657E+06  3.860405E+05  4.053617E+05 -2.156434E+04  4.768828E+04
        99   8  3.315181E+05  1.422730E+06  2.578637E+05  3.623527E+05 -6.334994E+04 -6.755502E+03
        99   9  2.212777E+05  9.245984E+05  1.575605E+05  4.478332E+05 -5.457933E+04 -6.120092E+04
        99  10 -5.374864E+05 -1.909903E+06 -5.310192E+05  4.764480E+05 -1.139605E-10 -9.970717E-10
        99  11 -3.502531E+05 -1.399905E+06 -3.290082E+05  3.909091E+05 -3.049058E-10  1.317337E-09
        99  12 -2.183890E+05 -9.154951E+05 -2.003879E+05  4.338967E+05  6.196380E-10 -6.945658E-11
        99  13 -6.271521E+04  3.693475E+03 -7.236264E+04  4.409615E+05  1.119077E-11  9.330813E-10
        99  14 -9.306709E+03  1.046900E+04 -3.552156E+04  3.766479E+05  5.300698E-10 -3.562900E-11
        99  15  1.467506E+03  4.142902E+03 -2.139996E+04  4.408587E+05 -3.516215E-10 -7.784115E-10
        99  16  4.117950E+05  1.920654E+06  3.860354E+05  4.053625E+05 -3.789498E-10  9.806185E-10
        99  17  3.315137E+05  1.422729E+06  2.578560E+05  3.623524E+05 -1.076578E-09 -4.272113E-10
        99  18  2.212735E+05  9.245936E+05  1.575479E+05  4.478305E+05  4.363806E-10 -2.653024E-09
        99  19 -5.374802E+05 -1.909880E+06 -5.309786E+05  4.764506E+05  2.188168E+04  1.451532E+05
        99  20 -3.502480E+05 -1.399900E+06 -3.289952E+05  3.909119E+05  6.345948E+04  5.393670E+04
        99  21 -2.183855E+05 -9.154928E+05 -2.003797E+05  4.338951E+05  5.437884E+04 -3.731355E+04
        99  22 -6.271406E+04  3.696167E+03 -7.235727E+04  4.409624E+05  2.171732E+04  4.888066E+04
        99  23 -9.302146E+03  1.047107E+04 -3.551228E+04  3.766495E+05  6.340412E+04  3.037249E+04
        99  24  1.470731E+03  4.143850E+03 -2.139412E+04  4.408592E+05  5.447858E+04  1.190800E+04
        99  25  4.117961E+05  1.920657E+06  3.860405E+05  4.053617E+05  2.156434E+04 -4.768828E+04
        99  26  3.315181E+05  1.422730E+06  2.578637E+05  3.623527E+05  6.334994E+04  6.755502E+03
        99  27  2.212777E+05  9.245984E+05  1.575605E+05  4.478332E+05  5.457933E+04  6.120092E+04
       100   1 -1.396951E+05 -5.743837E+05 -1.311550E+05  4.418336E+05 -3.405307E+04  3.182723E+04
       100   2 -1.890341E+04 -7.631891E+04 -2.947172E+04  3.757517E+05 -5.544640E+03  3.906077E+04
       100   3  9.890752E+04  4.198383E+05  6.661128E+04  4.409987E+05  2.325737E+04  4.629729E+04
       100   4 -7.781179E+02  6.695616E+03 -1.782827E+04  4.414978E+05 -3.414279E+04 -8.974513E+03
       100   5  1.057390E+03  7.744309E+03 -1.373693E+04  3.758327E+05 -5.636386E+03 -2.174781E+03
       100   6  7.169338E-01  6.722627E+03 -1.494050E+04  4.414960E+05  2.316297E+04  4.622389E+03
       100   7  1.381194E+05  5.881027E+05  9.548861E+04  4.411613E+05 -3.423242E+04 -4.981363E+04
       100   8  2.101869E+04  9.181801E+04  2.003940E+03  3.759138E+05 -5.728135E+03 -4.341578E+04
       100   9 -9.891551E+04 -4.062261E+05 -9.649412E+04  4.419929E+05  2.306847E+04 -3.702538E+04
       100  10 -1.396966E+05 -5.743851E+05 -1.311591E+05  4.418345E+05  8.255416E-10 -9.167082E-10
       100  11 -1.890385E+04 -7.632055E+04 -2.947464E+04  3.757519E+05 -7.003564E-10  1.038383E-09
       100  12  9.890637E+04  4.198359E+05  6.660624E+04  4.409978E+05  6.492409E-10 -1.466513E-09
       100  13 -7.793910E+02  6.695217E+03 -1.783061E+04  4.414975E+05 -1.306116E-09  1.663431E-09
       100  14  1.057354E+03  7.744296E+03 -1.373700E+04  3.758327E+05 -2.161534E-11  2.500842E-11
       100  15  1.351762E-01  6.722460E+03 -1.494155E+04  4.414960E+05  8.381879E-10 -8.530594E-10
       100  16  1.381175E+05  5.880997E+05  9.548175E+04  4.411599E+05  9.533885E-10  9.732956E-10
       100  17  2.101815E+04  9.181598E+04  2.000337E+03  3.759136E+05  4.409274E-10  2.284682E-10
       100  18 -9.891645E+04 -4.062277E+05 -9.649770E+04  4.419936E+05  1.193064E-09 -1.473451E-09
       100  19 -1.396951E+05 -5.743837E+05 -1.311550E+05  4.418336E+05  3.405307E+04 -3.182723E+04
       100  20 -1.890341E+04 -7.631891E+04 -2.947172E+04  3.757517E+05  5.544640E+03 -3.906077E+04
       100  21  9.890752E+04  4.198383E+05  6.661128E+04  4.409987E+05 -2.325737E+04 -4.629729E+04
       100  22 -7.781179E+02  6.695616E+03 -1.782827E+04  4.414978E+05  3.414279E+04  8.974513E+03
       100  23  1.057390E+03  7.744309E+03 -1.373693E+04  3.758327E+05  5.636386E+03  2.174781E+03
       100  24  7.169338E-01  6.722627E+03 -1.494050E+04  4.414960E+05 -2.316297E+04 -4.622389E+03
       100  25  1.381194E+05  5.881027E+05  9.548861E+04  4.411613E+05  3.423242E+04  4.981363E+04
       100  26  2.101869E+04  9.181801E+04  2.003940E+03  3.759138E+05  5.728135E+03  4.341578E+04
       100  27 -9.891551E+04 -4.062261E+05 -9.649412E+04  4.419929E+05 -2.306847E+04  3.702538E+04
       101   1  1.813162E+05  7.569346E+05  1.301892E+05  4.460052E+05  4.363677E+04  5.637963E+04
       101   2  2.942311E+05  1.253698E+06  2.334339E+05  3.665764E+05  5.451708E+04  3.054767E+03
       101   3  3.882348E+05  1.752774E+06  3.665673E+05  4.159017E+05  1.896338E+04 -5.026541E+04
       101   4  1.550677E+03  4.984748E+03 -1.693047E+04  4.409190E+05  4.353098E+04  7.036651E+03
       101   5 -6.298070E+03  9.557796E+03 -2.625614E+04  3.765671E+05  5.455915E+04  2.066669E+04
       101   6 -4.468383E+04  4.589950E+03 -5.215781E+04  4.409966E+05  1.910826E+04  3.434300E+04
       101   7 -1.782475E+05 -7.464181E+05 -1.640682E+05  4.358386E+05  4.342591E+04 -4.224793E+04
       101   8 -3.069255E+05 -1.233119E+06 -2.860305E+05  3.865363E+05  5.460183E+04  3.824392E+04
       101   9 -4.778177E+05 -1.740783E+06 -4.710719E+05  4.660185E+05  1.926024E+04  1.187146E+05
       101  10  1.813133E+05  7.569307E+05  1.301797E+05  4.460032E+05  1.297702E-09 -3.246741E-09
       101  11  2.942279E+05  1.253697E+06  2.334283E+05  3.665763E+05  1.808379E-10  6.543209E-11
       101  12  3.882338E+05  1.752772E+06  3.665619E+05  4.159025E+05 -1.194750E-09 -2.658939E-10
       101  13  1.548630E+03  4.984186E+03 -1.693413E+04  4.409187E+05  1.631177E-09  1.630254E-09
       101  14 -6.301380E+03  9.556539E+03 -2.626253E+04  3.765662E+05  1.586956E-09 -5.423333E-11
       101  15 -4.468454E+04  4.588586E+03 -5.216071E+04  4.409960E+05  2.227127E-10 -5.629694E-10
       101  16 -1.782500E+05 -7.464205E+05 -1.640751E+05  4.358400E+05  2.315221E-10  3.224527E-09
       101  17 -3.069291E+05 -1.233122E+06 -2.860389E+05  3.865346E+05 -7.892442E-10  9.821427E-10
       101  18 -4.778219E+05 -1.740798E+06 -4.710991E+05  4.660167E+05 -1.605100E-10 -1.837063E-09
       101  19  1.813162E+05  7.569346E+05  1.301892E+05  4.460052E+05 -4.363677E+04 -5.637963E+04
       101  20  2.942311E+05  1.253698E+06  2.334339E+05  3.665764E+05 -5.451708E+04 -3.054767E+03
       101  21  3.882348E+05  1.752774E+06  3.665673E+05  4.159017E+05 -1.896338E+04  5.026541E+04
       101  22  1.550677E+03  4.984748E+03 -1.693047E+04  4.409190E+05 -4.353098E+04 -7.036651E+03
       101  23 -6.298070E+03  9.557796E+03 -2.625614E+04  3.765671E+05 -5.455915E+04 -2.066669E+04
       101  24 -4.468383E+04  4.589950E+03 -5.215781E+04  4.409966E+05 -1.910826E+04 -3.434300E+04
       101  25 -1.782475E+05 -7.464181E+05 -1.640682E+05  4.358386E+05 -4.342591E+04  4.224793E+04
       101  26 -3.069255E+05 -1.233119E+06 -2.860305E+05  3.865363E+05 -5.460183E+04 -3.824392E+04
       101  27 -4.778177E+05 -1.740783E+06 -4.710719E+05  4.660185E+05 -1.926024E+04 -1.187146E+05
       102   1  1.863517E+06  3.783753E+05  3.719321E+05  2.628565E+05  1.082142E+05 -1.667641E+04
       102   2  1.585526E+06  2.680026E+05  2.465086E+05  2.140366E+05  4.515215E+04 -5.109680E+04
       102   3  1.325484E+06  1.954790E+05  1.715483E+05  2.341356E+05 -1.785867E+04 -5.023873E+04
       102   4  5.042606E+05  4.217734E+04  4.819717E+04  2.379110E+05  3.302777E+04 -1.666466E+04
       102   5  4.998149E+05  6.488996E+03  2.331551E+04  2.034490E+05  2.091809E+04 -5.110344E+04
       102   6  5.044563E+05 -1.388523E+02  1.360612E+04  2.379059E+05  8.831163E+03 -5.023863E+04
       102   7 -8.532910E+05 -2.941484E+05 -2.756457E+05  2.130201E+05 -4.199529E+04 -1.664690E+04
       102   8 -5.847779E+05 -2.550980E+05 -1.999384E+05  1.928800E+05 -3.274452E+03 -5.110928E+04
       102   9 -3.159227E+05 -1.957962E+05 -1.443645E+05  2.416709E+05  3.548656E+04 -5.023819E+04
       102  10  1.863504E+06  3.783718E+05  3.719097E+05  2.628579E+05 -4.321502E-10  7.590933E-11
       102  11  1.585523E+06  2.679993E+05  2.464998E+05  2.140385E+05  9.666231E-10 -6.036073E-10
       102  12  1.325483E+06  1.954762E+05  1.715429E+05  2.341349E+05  4.225922E-10  1.622726E-10
       102  13  5.042594E+05  4.217675E+04  4.819460E+04  2.379115E+05  7.252287E-10 -5.920321E-10
       102  14  4.998137E+05  6.486073E+03  2.330978E+04  2.034498E+05  1.524737E-09 -4.677283E-10
       102  15  5.044555E+05 -1.415843E+02  1.360122E+04  2.379063E+05 -1.188426E-09  3.788888E-12
       102  16 -8.532930E+05 -2.941492E+05 -2.756496E+05  2.130196E+05 -8.069498E-10 -5.690714E-10
       102  17 -5.847786E+05 -2.551009E+05 -1.999433E+05  1.928799E+05  7.326540E-10 -4.137375E-10
       102  18 -3.159247E+05 -1.957992E+05 -1.443716E+05  2.416724E+05 -4.198301E-10 -9.282833E-12
       102  19  1.863517E+06  3.783753E+05  3.719321E+05  2.628565E+05 -1.082142E+05  1.667641E+04
       102  20  1.585526E+06  2.680026E+05  2.465086E+05  2.140366E+05 -4.515215E+04  5.109680E+04
       102  21  1.325484E+06  1.954790E+05  1.715483E+05  2.341356E+05  1.785867E+04  5.023873E+04
       102  22  5.042606E+05  4.217734E+04  4.819717E+04  2.379110E+05 -3.302777E+04  1.666466E+04
       102  23  4.998149E+05  6.488996E+03  2.331551E+04  2.034490E+05 -2.091809E+04  5.110344E+04
       102  24  5.044563E+05 -1.388523E+02  1.360612E+04  2.379059E+05 -8.831163E+03  5.023863E+04
       102  25 -8.532910E+05 -2.941484E+05 -2.756457E+05  2.130201E+05  4.199529E+04  1.664690E+04
       102  26 -5.847779E+05 -2.550980E+05 -1.999384E+05  1.928800E+05  3.274452E+03  5.110928E+04
       102  27 -3.159227E+05 -1.957962E+05 -1.443645E+05  2.416709E+05 -3.548656E+04  5.023819E+04
       103   1  1.140409E+06  1.534815E+05  1.333505E+05  2.390513E+05 -1.348330E+04 -3.933029E+04
       103   2  8.712631E+05  8.781043E+04  7.706566E+04  2.031746E+05 -2.052540E+04 -2.397981E+04
       103   3  6.036290E+05  2.409735E+04  2.585259E+04  2.382233E+05 -2.756947E+04 -6.287562E+03
       103   4  5.026791E+05  1.574402E+03  1.093891E+04  2.383545E+05  6.960992E+03 -3.932739E+04
       103   5  5.022825E+05  1.329591E+02  7.367435E+03  2.028908E+05  3.294134E+03 -2.397255E+04
       103   6  5.027439E+05  6.860603E+01  6.528718E+03  2.383550E+05 -3.776025E+02 -6.275103E+03
       103   7 -1.346590E+05 -1.503565E+05 -1.114898E+05  2.376583E+05  2.738480E+04 -3.932453E+04
       103   8  1.334344E+05 -8.755214E+04 -6.233467E+04  2.026071E+05  2.709988E+04 -2.396531E+04
       103   9  4.018701E+05 -2.396034E+04 -1.279285E+04  2.384867E+05  2.680995E+04 -6.262630E+03
       103  10  1.140408E+06  1.534798E+05  1.333472E+05  2.390509E+05  8.713666E-10  1.699996E-10
       103  11  8.712625E+05  8.780970E+04  7.706379E+04  2.031742E+05 -4.439833E-10  1.159003E-11
       103  12  6.036282E+05  2.409710E+04  2.585109E+04  2.382232E+05  9.393299E-10 -2.549339E-10
       103  13  5.026786E+05  1.572727E+03  1.093591E+04  2.383547E+05  7.616879E-10  2.128174E-10
       103  14  5.022823E+05  1.323389E+02  7.366334E+03  2.028909E+05  1.348664E-09  2.009068E-10
       103  15  5.027438E+05  6.856370E+01  6.528644E+03  2.383550E+05 -1.067628E-09 -2.987176E-10
       103  16 -1.346603E+05 -1.503583E+05 -1.114941E+05  2.376592E+05 -1.812831E-09 -3.492149E-11
       103  17  1.334335E+05 -8.755295E+04 -6.233713E+04  2.026076E+05 -5.700801E-10  6.389713E-11
       103  18  4.018693E+05 -2.396058E+04 -1.279427E+04  2.384868E+05 -8.891589E-10  1.958153E-10
       103  19  1.140409E+06  1.534815E+05  1.333505E+05  2.390513E+05  1.348330E+04  3.933029E+04
       103  20  8.712631E+05  8.781043E+04  7.706566E+04  2.031746E+05  2.052540E+04  2.397981E+04
       103  21  6.036290E+05  2.409735E+04  2.585259E+04  2.382233E+05  2.756947E+04  6.287562E+03
       103  22  5.026791E+05  1.574402E+03  1.093891E+04  2.383545E+05 -6.960992E+03  3.932739E+04
       103  23  5.022825E+05  1.329591E+02  7.367435E+03  2.028908E+05 -3.294134E+03  2.397255E+04
       103  24  5.027439E+05  6.860603E+01  6.528718E+03  2.383550E+05  3.776025E+02  6.275103E+03
       103  25 -1.346590E+05 -1.503565E+05 -1.114898E+05  2.376583E+05 -2.738480E+04  3.932453E+04
       103  26  1.334344E+05 -8.755214E+04 -6.233467E+04  2.026071E+05 -2.709988E+04  2.396531E+04
       103  27  4.018701E+05 -2.396034E+04 -1.279285E+04  2.384867E+05 -2.680995E+04  6.262630E+03
       104   1  4.218776E+05 -1.926593E+04 -8.760393E+03  2.386940E+05 -2.874548E+04  4.889635E+03
       104   2  1.533105E+05 -8.274012E+04 -5.679270E+04  2.026005E+05 -3.000290E+04  2.260593E+04
       104   3 -1.146480E+05 -1.448703E+05 -1.036686E+05  2.374402E+05 -3.125519E+04  3.801582E+04
       104   4  5.028007E+05  3.470775E+01  6.861946E+03  2.383556E+05 -1.563858E+03  4.902179E+03
       104   5  5.022145E+05  2.143110E+02  9.197088E+03  2.028899E+05 -6.150639E+03  2.261345E+04
       104   6  5.027388E+05  2.317061E+03  1.499624E+04  2.383547E+05 -1.073276E+04  3.801910E+04
       104   7  5.837317E+05  1.933536E+04  2.248675E+04  2.380171E+05  2.562122E+04  4.914693E+03
       104   8  8.512372E+05  8.316195E+04  7.518362E+04  2.031795E+05  1.771470E+04  2.262098E+04
       104   9  1.120493E+06  1.494820E+05  1.336451E+05  2.392701E+05  9.809623E+03  3.802245E+04
       104  10  4.218767E+05 -1.926618E+04 -8.761990E+03  2.386942E+05  3.028705E-10 -2.416072E-10
       104  11  1.533094E+05 -8.274091E+04 -5.679535E+04  2.026010E+05 -4.182326E-10 -3.542858E-11
       104  12 -1.146494E+05 -1.448721E+05 -1.036732E+05  2.374411E+05 -3.514657E-10  3.807444E-10
       104  13  5.028007E+05  3.468127E+01  6.861896E+03  2.383556E+05 -7.152138E-10 -9.029146E-11
       104  14  5.022143E+05  2.137516E+02  9.196055E+03  2.028901E+05  1.346561E-09  4.591906E-10
       104  15  5.027383E+05  2.315478E+03  1.499330E+04  2.383550E+05 -1.051338E-09  2.192038E-10
       104  16  5.837310E+05  1.933515E+04  2.248548E+04  2.380170E+05 -6.107084E-10  2.175671E-10
       104  17  8.512367E+05  8.316131E+04  7.518207E+04  2.031792E+05 -1.215684E-09  2.755158E-10
       104  18  1.120493E+06  1.494805E+05  1.336422E+05  2.392698E+05 -4.374610E-10  5.265253E-10
       104  19  4.218776E+05 -1.926593E+04 -8.760393E+03  2.386940E+05  2.874548E+04 -4.889635E+03
       104  20  1.533105E+05 -8.274012E+04 -5.679270E+04  2.026005E+05  3.000290E+04 -2.260593E+04
       104  21 -1.146480E+05 -1.448703E+05 -1.036686E+05  2.374402E+05  3.125519E+04 -3.801582E+04
       104  22  5.028007E+05  3.470775E+01  6.861946E+03  2.383556E+05  1.563858E+03 -4.902179E+03
       104  23  5.022145E+05  2.143110E+02  9.197088E+03  2.028899E+05  6.150639E+03 -2.261345E+04
       104  24  5.027388E+05  2.317061E+03  1.499624E+04  2.383547E+05  1.073276E+04 -3.801910E+04
       104  25  5.837317E+05  1.933536E+04  2.248675E+04  2.380171E+05 -2.562122E+04 -4.914693E+03
       104  26  8.512372E+05  8.316195E+04  7.518362E+04  2.031795E+05 -1.771470E+04 -2.262098E+04
       104  27  1.120493E+06  1.494820E+05  1.336451E+05  2.392701E+05 -9.809623E+03 -3.802245E+04
       105   1 -2.950837E+05 -1.910359E+05 -1.351353E+05  2.434032E+05 -3.996870E+04  4.893271E+04
       105   2 -5.659332E+05 -2.472795E+05 -1.858309E+05  1.881496E+05 -7.164436E+03  5.005916E+04
       105   3 -8.324323E+05 -2.702938E+05 -2.495380E+05  2.018519E+05  2.560490E+04  1.634386E+04
       105   4  5.053253E+05 -1.296581E+02  1.906205E+04  2.379099E+05 -1.330428E+04  4.893388E+04
       105   5  4.987405E+05  9.520385E+03  3.342373E+04  2.034422E+05 -3.064841E+04  5.005294E+04
       105   6  5.051284E+05  6.107567E+04  6.958805E+04  2.379164E+05 -4.801461E+04  1.635963E+04
       105   7  1.306352E+06  1.907391E+05  1.732325E+05  2.324092E+05  1.339374E+04  4.893459E+04
       105   8  1.564492E+06  2.662499E+05  2.526196E+05  2.187613E+05 -5.417194E+04  5.004559E+04
       105   9  1.844345E+06  3.923237E+05  3.886094E+05  2.740587E+05 -1.217921E+05  1.636686E+04
       105  10 -2.950861E+05 -1.910389E+05 -1.351429E+05  2.434048E+05  6.542277E-10  2.330809E-10
       105  11 -5.659339E+05 -2.472822E+05 -1.858357E+05  1.881499E+05  1.689637E-09  2.157135E-10
       105  12 -8.324331E+05 -2.702943E+05 -2.495397E+05  2.018516E+05  6.008816E-10  4.242487E-10
       105  13  5.053244E+05 -1.322778E+02  1.905721E+04  2.379104E+05 -5.384912E-10  3.484722E-10
       105  14  4.987389E+05  9.517442E+03  3.341725E+04  2.034434E+05  1.808411E-10  1.948917E-10
       105  15  5.051258E+05  6.107477E+04  6.958322E+04  2.379170E+05  2.896902E-10 -5.026431E-10
       105  16  1.306351E+06  1.907365E+05  1.732276E+05  2.324086E+05 -9.086060E-10  4.599891E-10
       105  17  1.564488E+06  2.662464E+05  2.526094E+05  2.187635E+05 -7.522545E-10  1.935760E-10
       105  18  1.844329E+06  3.923194E+05  3.885811E+05  2.740603E+05  8.893665E-10 -2.327931E-10
       105  19 -2.950837E+05 -1.910359E+05 -1.351353E+05  2.434032E+05  3.996870E+04 -4.893271E+04
       105  20 -5.659332E+05 -2.472795E+05 -1.858309E+05  1.881496E+05  7.164436E+03 -5.005916E+04
       105  21 -8.324323E+05 -2.702938E+05 -2.495380E+05  2.018519E+05 -2.560490E+04 -1.634386E+04
       105  22  5.053253E+05 -1.296581E+02  1.906205E+04  2.379099E+05  1.330428E+04 -4.893388E+04
       105  23  4.987405E+05  9.520385E+03  3.342373E+04  2.034422E+05  3.064841E+04 -5.005294E+04
       105  24  5.051284E+05  6.107567E+04  6.958805E+04  2.379164E+05  4.801461E+04 -1.635963E+04
       105  25  1.306352E+06  1.907391E+05  1.732325E+05  2.324092E+05 -1.339374E+04 -4.893459E+04
       105  26  1.564492E+06  2.662499E+05  2.526196E+05  2.187613E+05  5.417194E+04 -5.004559E+04
       105  27  1.844345E+06  3.923237E+05  3.886094E+05  2.740587E+05  1.217921E+05 -1.636686E+04
       106   1 -5.159763E+05 -1.887434E+06 -5.089072E+05  4.633877E+05 -2.117208E+04 -1.353980E+05
       106   2 -3.382116E+05 -1.387899E+06 -3.157203E+05  3.818085E+05 -6.130081E+04 -4.833415E+04
       106   3 -2.100028E+05 -9.119472E+05 -1.917377E+05  4.263388E+05 -5.217513E+04  3.876066E+04
       106   4 -5.465798E+04 -2.817991E+04 -6.323269E+04  4.325342E+05 -2.101806E+04 -4.221642E+04
       106   5 -8.037070E+03 -2.223608E+04 -3.140783E+04  3.694363E+05 -6.124951E+04 -2.585364E+04
       106   6  1.399164E+03 -2.775370E+04 -1.955077E+04  4.324467E+05 -5.227064E+04 -9.532133E+03
       106   7  4.064177E+05  1.834268E+06  3.822304E+05  4.015855E+05 -2.087364E+04  5.124381E+04
       106   8  3.220195E+05  1.345196E+06  2.528042E+05  3.570351E+05 -6.119918E+04 -3.324366E+03
       106   9  2.127556E+05  8.571959E+05  1.526078E+05  4.385629E+05 -5.236700E+04 -5.789225E+04
       106  10 -5.159818E+05 -1.887454E+06 -5.089426E+05  4.633854E+05 -6.076795E-10 -1.715719E-09
       106  11 -3.382163E+05 -1.387902E+06 -3.157318E+05  3.818061E+05 -1.098324E-09  1.890839E-09
       106  12 -2.100061E+05 -9.119495E+05 -1.917456E+05  4.263404E+05  1.200821E-09  5.125426E-09
       106  13 -5.465894E+04 -2.818194E+04 -6.323687E+04  4.325335E+05 -7.711804E-10 -3.809455E-12
       106  14 -8.041276E+03 -2.223781E+04 -3.141613E+04  3.694350E+05  1.234504E-09 -1.183956E-09
       106  15  1.396207E+03 -2.775453E+04 -1.955607E+04  4.324463E+05 -6.375002E-10  1.924333E-10
       106  16  4.064166E+05  1.834265E+06  3.822246E+05  4.015864E+05 -6.122621E-10  8.353244E-10
       106  17  3.220155E+05  1.345195E+06  2.527972E+05  3.570349E+05 -1.319937E-09 -2.267129E-09
       106  18  2.127518E+05  8.571916E+05  1.525964E+05  4.385605E+05  3.391007E-10 -5.584489E-09
       106  19 -5.159763E+05 -1.887434E+06 -5.089072E+05  4.633877E+05  2.117208E+04  1.353980E+05
       106  20 -3.382116E+05 -1.387899E+06 -3.157203E+05  3.818085E+05  6.130081E+04  4.833415E+04
       106  21 -2.100028E+05 -9.119472E+05 -1.917377E+05  4.263388E+05  5.217513E+04 -3.876066E+04
       106  22 -5.465798E+04 -2.817991E+04 -6.323269E+04  4.325342E+05  2.101806E+04  4.221642E+04
       106  23 -8.037070E+03 -2.223608E+04 -3.140783E+04  3.694363E+05  6.124951E+04  2.585364E+04
       106  24  1.399164E+03 -2.775370E+04 -1.955077E+04  4.324467E+05  5.227064E+04  9.532133E+03
       106  25  4.064177E+05  1.834268E+06  3.822304E+05  4.015855E+05  2.087364E+04 -5.124381E+04
       106  26  3.220195E+05  1.345196E+06  2.528042E+05  3.570351E+05  6.119918E+04  3.324366E+03
       106  27  2.127556E+05  8.571959E+05  1.526078E+05  4.385629E+05  5.236700E+04  5.789225E+04
       107   1 -1.325267E+05 -5.776439E+05 -1.245419E+05  4.334590E+05 -3.223096E+04  3.332316E+04
       107   2 -1.433328E+04 -8.899154E+04 -2.623599E+04  3.685517E+05 -4.231314E+03  4.067662E+04
       107   3  1.007725E+05  3.977269E+05  6.637273E+04  4.324843E+05  2.399407E+04  4.803366E+04
       107   4 -5.222756E+02 -2.558057E+04 -1.676246E+04  4.330662E+05 -3.231694E+04 -6.794235E+03
       107   5  9.766306E+02 -2.451756E+04 -1.416821E+04  3.686464E+05 -4.318727E+03  2.228597E+02
       107   6 -5.414105E+02 -2.556022E+04 -1.703469E+04  4.330663E+05  2.390462E+04  7.238021E+03
       107   7  1.314647E+05  5.267788E+05  9.100848E+04  4.326728E+05 -3.240282E+04 -4.694654E+04
       107   8  1.628718E+04  3.996396E+04 -2.094453E+03  3.687411E+05 -4.406146E+03 -4.023499E+04
       107   9 -1.018653E+05 -4.486722E+05 -1.004446E+05  4.336477E+05  2.381507E+04 -3.353041E+04
       107  10 -1.325281E+05 -5.776454E+05 -1.245460E+05  4.334599E+05  1.158668E-09 -2.065846E-09
       107  11 -1.433375E+04 -8.899333E+04 -2.623913E+04  3.685518E+05  1.034536E-09  2.986901E-10
       107  12  1.007713E+05  3.977242E+05  6.636732E+04  4.324834E+05  4.147597E-10  2.683312E-09
       107  13 -5.234092E+02 -2.558090E+04 -1.676451E+04  4.330660E+05  6.240881E-10  2.678104E-12
       107  14  9.766106E+02 -2.451757E+04 -1.416824E+04  3.686464E+05 -5.618518E-10 -1.642056E-09
       107  15 -5.420380E+02 -2.556043E+04 -1.703586E+04  4.330661E+05  9.504918E-10  1.741140E-10
       107  16  1.314630E+05  5.267761E+05  9.100237E+04  4.326716E+05 -3.265277E-11  4.863045E-10
       107  17  1.628673E+04  3.996221E+04 -2.097531E+03  3.687409E+05  8.404807E-10 -7.154311E-10
       107  18 -1.018662E+05 -4.486736E+05 -1.004478E+05  4.336483E+05  8.054516E-11 -3.251350E-09
       107  19 -1.325267E+05 -5.776439E+05 -1.245419E+05  4.334590E+05  3.223096E+04 -3.332316E+04
       107  20 -1.433328E+04 -8.899154E+04 -2.623599E+04  3.685517E+05  4.231314E+03 -4.067662E+04
       107  21  1.007725E+05  3.977269E+05  6.637273E+04  4.324843E+05 -2.399407E+04 -4.803366E+04
       107  22 -5.222756E+02 -2.558057E+04 -1.676246E+04  4.330662E+05  3.231694E+04  6.794235E+03
       107  23  9.766306E+02 -2.451756E+04 -1.416821E+04  3.686464E+05  4.318727E+03 -2.228597E+02
       107  24 -5.414105E+02 -2.556022E+04 -1.703469E+04  4.330663E+05 -2.390462E+04 -7.238021E+03
       107  25  1.314647E+05  5.267788E+05  9.100848E+04  4.326728E+05  3.240282E+04  4.694654E+04
       107  26  1.628718E+04  3.996396E+04 -2.094453E+03  3.687411E+05  4.406146E+03  4.023499E+04
       107  27 -1.018653E+05 -4.486722E+05 -1.004446E+05  4.336477E+05 -2.381507E+04  3.353041E+04
       108   1  1.821232E+05  7.279009E+05  1.277657E+05  4.386161E+05  4.398469E+04  5.842845E+04
       108   2  2.909377E+05  1.216451E+06  2.260973E+05  3.564657E+05  5.444104E+04  8.875674E+03
       108   3  3.729013E+05  1.704855E+06  3.498887E+05  4.005986E+05  1.889923E+04 -4.067137E+04
       108   4  1.471549E+03 -2.781115E+04 -1.997635E+04  4.324911E+05  4.388435E+04  1.002512E+04
       108   5 -8.203138E+03 -2.206036E+04 -3.227856E+04  3.693814E+05  5.448256E+04  2.679127E+04
       108   6 -5.625512E+04 -2.819750E+04 -6.515230E+04  4.325846E+05  1.903772E+04  4.360067E+04
       108   7 -1.792131E+05 -7.829709E+05 -1.677369E+05  4.263732E+05  4.378490E+04 -3.832063E+04
       108   8 -3.074410E+05 -1.259121E+06 -2.907378E+05  3.822700E+05  5.452488E+04  4.467173E+04
       108   9 -4.856214E+05 -1.758486E+06 -4.803785E+05  4.644792E+05  1.918513E+04  1.276388E+05
       108  10  1.821202E+05  7.278968E+05  1.277556E+05  4.386141E+05  8.868310E-10 -2.057293E-09
       108  11  2.909345E+05  1.216450E+06  2.260915E+05  3.564653E+05 -1.962185E-10 -2.725308E-10
       108  12  3.729005E+05  1.704853E+06  3.498850E+05  4.005993E+05 -7.920173E-10  1.424043E-09
       108  13  1.469455E+03 -2.781177E+04 -1.998015E+04  4.324907E+05  8.080171E-10 -2.385454E-11
       108  14 -8.206517E+03 -2.206193E+04 -3.228549E+04  3.693803E+05  2.329721E-10 -1.281966E-09
       108  15 -5.625602E+04 -2.819963E+04 -6.515655E+04  4.325840E+05  6.579339E-11  1.260537E-10
       108  16 -1.792155E+05 -7.829730E+05 -1.677433E+05  4.263746E+05  2.295487E-10  4.417276E-10
       108  17 -3.074447E+05 -1.259124E+06 -2.907471E+05  3.822680E+05 -7.947268E-10 -1.880819E-10
       108  18 -4.856262E+05 -1.758503E+06 -4.804099E+05  4.644772E+05 -4.043114E-10 -1.728378E-09
       108  19  1.821232E+05  7.279009E+05  1.277657E+05  4.386161E+05 -4.398469E+04 -5.842845E+04
       108  20  2.909377E+05  1.216451E+06  2.260973E+05  3.564657E+05 -5.444104E+04 -8.875674E+03
       108  21  3.729013E+05  1.704855E+06  3.498887E+05  4.005986E+05 -1.889923E+04  4.067137E+04
       108  22  1.471549E+03 -2.781115E+04 -1.997635E+04  4.324911E+05 -4.388435E+04 -1.002512E+04
       108  23 -8.203138E+03 -2.206036E+04 -3.227856E+04  3.693814E+05 -5.448256E+04 -2.679127E+04
       108  24 -5.625512E+04 -2.819750E+04 -6.515230E+04  4.325846E+05 -1.903772E+04 -4.360067E+04
       108  25 -1.792131E+05 -7.829709E+05 -1.677369E+05  4.263732E+05 -4.378490E+04  3.832063E+04
       108  26 -3.074410E+05 -1.259121E+06 -2.907378E+05  3.822700E+05 -5.452488E+04 -4.467173E+04
       108  27 -4.856214E+05 -1.758486E+06 -4.803785E+05  4.644792E+05 -1.918513E+04 -1.276388E+05
       109   1  1.972885E+06  4.349279E+05  4.248039E+05  3.483607E+05  1.101375E+05 -1.929757E+04
       109   2  1.590494E+06  3.079717E+05  2.763377E+05  2.902091E+05  3.970296E+04 -5.786436E+04
       109   3  1.225525E+06  2.123407E+05  1.814954E+05  3.281711E+05 -3.066186E+04 -5.351066E+04
       109   4  3.348727E+05  2.961062E+04  3.393793E+04  3.307060E+05  2.346738E+04 -1.929909E+04
       109   5  3.317335E+05  4.487950E+03  1.625971E+04  2.826474E+05  1.502604E+04 -5.787813E+04
       109   6  3.351766E+05 -9.379683E+00  9.264378E+03  3.307072E+05  6.610193E+03 -5.349936E+04
       109   7 -1.300668E+06 -3.758952E+05 -3.570884E+05  3.130973E+05 -6.297577E+04 -1.929574E+04
       109   8 -9.255260E+05 -2.990955E+05 -2.439017E+05  2.751009E+05 -9.601831E+03 -5.789132E+04
       109   9 -5.544086E+05 -2.124059E+05 -1.629985E+05  3.332393E+05  4.383007E+04 -5.348774E+04
       109  10  1.972872E+06  4.349242E+05  4.247805E+05  3.483624E+05 -1.796031E-09  6.051549E-10
       109  11  1.590491E+06  3.079677E+05  2.763285E+05  2.902109E+05 -9.141143E-11  5.599339E-10
       109  12  1.225524E+06  2.123374E+05  1.814883E+05  3.281698E+05 -4.799898E-10 -1.850347E-10
       109  13  3.348720E+05  2.961007E+04  3.393619E+04  3.307063E+05 -8.552680E-10 -5.195544E-10
       109  14  3.317324E+05  4.484292E+03  1.625298E+04  2.826481E+05  7.711532E-10  2.649306E-10
       109  15  3.351758E+05 -1.246564E+01  9.258916E+03  3.307075E+05 -1.492430E-10 -1.466670E-11
       109  16 -1.300672E+06 -3.758967E+05 -3.570966E+05  3.130964E+05  7.918688E-10 -4.485763E-10
       109  17 -9.255270E+05 -2.990991E+05 -2.439082E+05  2.751005E+05  1.763555E-09  1.576620E-10
       109  18 -5.544114E+05 -2.124095E+05 -1.630075E+05  3.332412E+05 -3.839295E-10 -1.679672E-10
       109  19  1.972885E+06  4.349279E+05  4.248039E+05  3.483607E+05 -1.101375E+05  1.929757E+04
       109  20  1.590494E+06  3.079717E+05  2.763377E+05  2.902091E+05 -3.970296E+04  5.786436E+04
       109  21  1.225525E+06  2.123407E+05  1.814954E+05  3.281711E+05  3.066186E+04  5.351066E+04
       109  22  3.348727E+05  2.961062E+04  3.393793E+04  3.307060E+05 -2.346738E+04  1.929909E+04
       109  23  3.317335E+05  4.487950E+03  1.625971E+04  2.826474E+05 -1.502604E+04  5.787813E+04
       109  24  3.351766E+05 -9.379683E+00  9.264378E+03  3.307072E+05 -6.610193E+03  5.349936E+04
       109  25 -1.300668E+06 -3.758952E+05 -3.570884E+05  3.130973E+05  6.297577E+04  1.929574E+04
       109  26 -9.255260E+05 -2.990955E+05 -2.439017E+05  2.751009E+05  9.601831E+03  5.789132E+04
       109  27 -5.544086E+05 -2.124059E+05 -1.629985E+05  3.332393E+05 -4.383007E+04  5.348774E+04
       110   1  9.698038E+05  1.529314E+05  1.302127E+05  3.318250E+05 -2.433141E+04 -3.829447E+04
       110   2  5.961629E+05  6.279289E+04  5.465478E+04  2.821355E+05 -3.051297E+04 -1.630927E+04
       110   3  2.238961E+05 -2.570713E+04 -1.648002E+04  3.310482E+05 -3.669558E+04  8.465907E+03
       110   4  3.339094E+05  1.256037E+03  7.247761E+03  3.312607E+05  5.351709E+03 -3.828072E+04
       110   5  3.336722E+05  2.598833E+02  4.339065E+03  2.819586E+05  3.184629E+03 -1.629004E+04
       110   6  3.339731E+05  2.117243E+02  3.068134E+03  3.312613E+05  1.012867E+03  8.491527E+03
       110   7 -3.015950E+05 -1.504429E+05 -1.157328E+05  3.306968E+05  3.500515E+04 -3.826701E+04
       110   8  7.125031E+04 -6.227658E+04 -4.597553E+04  2.817817E+05  3.686832E+04 -1.627082E+04
       110   9  4.440650E+05  2.613067E+04  2.262118E+04  3.314745E+05  3.872781E+04  8.517169E+03
       110  10  9.698028E+05  1.529296E+05  1.302088E+05  3.318242E+05 -1.679197E-09 -5.214567E-11
       110  11  5.961618E+05  6.279235E+04  5.465253E+04  2.821351E+05 -9.228660E-11 -9.073033E-10
       110  12  2.238946E+05 -2.570757E+04 -1.648268E+04  3.310485E+05  1.839523E-09 -2.565426E-10
       110  13  3.339090E+05  1.254455E+03  7.244953E+03  3.312608E+05 -5.386211E-10 -2.517148E-10
       110  14  3.336722E+05  2.595955E+02  4.338547E+03  2.819586E+05 -9.239566E-10 -5.211086E-10
       110  15  3.339731E+05  2.116466E+02  3.067997E+03  3.312613E+05 -4.619734E-10 -7.157352E-10
       110  16 -3.015967E+05 -1.504448E+05 -1.157378E+05  3.306979E+05  1.211448E-09 -6.053214E-10
       110  17  7.124878E+04 -6.227723E+04 -4.597859E+04  2.817822E+05  2.311796E-10 -5.182185E-10
       110  18  4.440634E+05  2.613019E+04  2.261822E+04  3.314742E+05  5.441544E-11 -5.214017E-10
       110  19  9.698038E+05  1.529314E+05  1.302127E+05  3.318250E+05  2.433141E+04  3.829447E+04
       110  20  5.961629E+05  6.279289E+04  5.465478E+04  2.821355E+05  3.051297E+04  1.630927E+04
       110  21  2.238961E+05 -2.570713E+04 -1.648002E+04  3.310482E+05  3.669558E+04 -8.465907E+03
       110  22  3.339094E+05  1.256037E+03  7.247761E+03  3.312607E+05 -5.351709E+03  3.828072E+04
       110  23  3.336722E+05  2.598833E+02  4.339065E+03  2.819586E+05 -3.184629E+03  1.629004E+04
       110  24  3.339731E+05  2.117243E+02  3.068134E+03  3.312613E+05 -1.012867E+03 -8.491527E+03
       110  25 -3.015950E+05 -1.504429E+05 -1.157328E+05  3.306968E+05 -3.500515E+04  3.826701E+04
       110  26  7.125031E+04 -6.227658E+04 -4.597553E+04  2.817817E+05 -3.686832E+04  1.627082E+04
       110  27  4.440650E+05  2.613067E+04  2.262118E+04  3.314745E+05 -3.872781E+04 -8.517169E+03
       111   1 -2.880468E+04 -8.595070E+04 -6.532888E+04  3.311459E+05 -3.736729E+04  2.400657E+04
       111   2 -4.014029E+05 -1.746441E+05 -1.354395E+05  2.817476E+05 -3.350722E+04  4.846399E+04
       111   3 -7.743586E+05 -2.637550E+05 -2.081572E+05  3.309236E+05 -2.963564E+04  6.924674E+04
       111   4  3.339259E+05  2.117919E+02  2.807871E+03  3.312529E+05  4.817350E+02  2.403014E+04
       111   5  3.336208E+05  3.446942E+01  2.877066E+03  2.819693E+05 -9.573761E+02  4.847406E+04
       111   6  3.337484E+05  3.676709E+02  4.020172E+03  3.312527E+05 -2.382838E+03  6.924577E+04
       111   7  6.967867E+05  8.636742E+04  7.094428E+04  3.313599E+05  3.835232E+04  2.405372E+04
       111   8  1.069169E+06  1.746822E+05  1.411741E+05  2.821911E+05  3.163007E+04  4.848414E+04
       111   9  1.443040E+06  2.644182E+05  2.161443E+05  3.315820E+05  2.491752E+04  6.924481E+04
       111  10 -2.880633E+04 -8.595169E+04 -6.533259E+04  3.311467E+05 -6.744062E-10 -1.175591E-10
       111  11 -4.014047E+05 -1.746469E+05 -1.354461E+05  2.817489E+05 -3.327357E-10  7.998550E-11
       111  12 -7.743609E+05 -2.637604E+05 -2.081679E+05  3.309253E+05  1.490918E-09 -4.070579E-10
       111  13  3.339257E+05  2.111716E+02  2.806786E+03  3.312529E+05  1.064426E-09 -4.441445E-10
       111  14  3.336202E+05  3.194554E+01  2.872647E+03  2.819693E+05 -1.077149E-09 -1.253402E-10
       111  15  3.337471E+05  3.625195E+02  4.011149E+03  3.312528E+05  1.333292E-09 -4.160493E-10
       111  16  6.967850E+05  8.636641E+04  7.094044E+04  3.313591E+05 -4.744424E-10 -6.057185E-10
       111  17  1.069167E+06  1.746794E+05  1.411678E+05  2.821899E+05  1.276937E-09  2.887599E-10
       111  18  1.443038E+06  2.644129E+05  2.161342E+05  3.315807E+05 -4.451705E-11 -4.727201E-10
       111  19 -2.880468E+04 -8.595070E+04 -6.532888E+04  3.311459E+05  3.736729E+04 -2.400657E+04
       111  20 -4.014029E+05 -1.746441E+05 -1.354395E+05  2.817476E+05  3.350722E+04 -4.846399E+04
       111  21 -7.743586E+05 -2.637550E+05 -2.081572E+05  3.309236E+05  2.963564E+04 -6.924674E+04
       111  22  3.339259E+05  2.117919E+02  2.807871E+03  3.312529E+05 -4.817350E+02 -2.403014E+04
       111  23  3.336208E+05  3.446942E+01  2.877066E+03  2.819693E+05  9.573761E+02 -4.847406E+04
       111  24  3.337484E+05  3.676709E+02  4.020172E+03  3.312527E+05  2.382838E+03 -6.924577E+04
       111  25  6.967867E+05  8.636742E+04  7.094428E+04  3.313599E+05 -3.835232E+04 -2.405372E+04
       111  26  1.069169E+06  1.746822E+05  1.411741E+05  2.821911E+05 -3.163007E+04 -4.848414E+04
       111  27  1.443040E+06  2.644182E+05  2.161443E+05  3.315820E+05 -2.491752E+04 -6.924481E+04
       112   1 -1.028250E+06 -3.253645E+05 -2.567598E+05  3.319268E+05 -3.996237E+04  8.437599E+04
       112   2 -1.396694E+06 -4.153706E+05 -3.467376E+05  2.795015E+05  3.429038E+04  8.274789E+04
       112   3 -1.774839E+06 -5.084509E+05 -4.857635E+05  3.225079E+05  1.084346E+05  2.652791E+04
       112   4  3.343752E+05 -3.777148E+02  4.935460E+03  3.305512E+05 -3.081969E+03  8.436763E+04
       112   5  3.322637E+05  1.640170E+03  8.203943E+03  2.828451E+05 -7.284977E+03  8.273916E+04
       112   6  3.339626E+05  1.422376E+04  1.695969E+04  3.305558E+05 -1.154990E+04  2.658912E+04
       112   7  1.698792E+06  3.244999E+05  2.665506E+05  3.291719E+05  3.387760E+04  8.435910E+04
       112   8  2.064067E+06  4.184638E+05  3.629925E+05  2.861978E+05 -4.897422E+04  8.273002E+04
       112   9  2.446881E+06  5.365851E+05  5.194251E+05  3.386308E+05 -1.319408E+05  2.664719E+04
       112  10 -1.028254E+06 -3.253726E+05 -2.567762E+05  3.319295E+05 -5.909144E-10 -2.368599E-10
       112  11 -1.396697E+06 -4.153783E+05 -3.467527E+05  2.794992E+05 -7.240488E-11  1.017400E-09
       112  12 -1.774852E+06 -5.084548E+05 -4.857870E+05  3.225056E+05  3.201827E-10  4.066068E-10
       112  13  3.343733E+05 -3.853622E+02  4.922064E+03  3.305514E+05 -3.490191E-10 -8.368570E-11
       112  14  3.322618E+05  1.632803E+03  8.190976E+03  2.828456E+05  3.614130E-10 -1.125949E-09
       112  15  3.339622E+05  1.422296E+04  1.695811E+04  3.305561E+05  1.177766E-09 -1.319746E-10
       112  16  1.698789E+06  3.244920E+05  2.665350E+05  3.291696E+05  6.442890E-10 -5.460490E-10
       112  17  2.064062E+06  4.184558E+05  3.629752E+05  2.862011E+05  2.052355E-09 -8.660021E-10
       112  18  2.446862E+06  5.365797E+05  5.193911E+05  3.386336E+05 -9.705743E-11  7.190036E-10
       112  19 -1.028250E+06 -3.253645E+05 -2.567598E+05  3.319268E+05  3.996237E+04 -8.437599E+04
       112  20 -1.396694E+06 -4.153706E+05 -3.467376E+05  2.795015E+05 -3.429038E+04 -8.274789E+04
       112  21 -1.774839E+06 -5.084509E+05 -4.857635E+05  3.225079E+05 -1.084346E+05 -2.652791E+04
       112  22  3.343752E+05 -3.777148E+02  4.935460E+03  3.305512E+05  3.081969E+03 -8.436763E+04
       112  23  3.322637E+05  1.640170E+03  8.203943E+03  2.828451E+05  7.284977E+03 -8.273916E+04
       112  24  3.339626E+05  1.422376E+04  1.695969E+04  3.305558E+05  1.154990E+04 -2.658912E+04
       112  25  1.698792E+06  3.244999E+05  2.665506E+05  3.291719E+05 -3.387760E+04 -8.435910E+04
       112  26  2.064067E+06  4.184638E+05  3.629925E+05  2.861978E+05  4.897422E+04 -8.273002E+04
       112  27  2.446881E+06  5.365851E+05  5.194251E+05  3.386308E+05  1.319408E+05 -2.664719E+04
       113   1 -5.631433E+05 -2.178746E+06 -5.547705E+05  5.146491E+05 -2.322183E+04 -1.435026E+05
       113   2 -3.700519E+05 -1.620301E+06 -3.439616E+05  4.256396E+05 -6.698758E+04 -4.884695E+04
       113   3 -2.275867E+05 -1.086631E+06 -2.075998E+05  4.778894E+05 -5.636455E+04  4.585114E+04
       113   4 -5.434435E+04 -1.287265E+05 -6.313458E+04  4.841694E+05 -2.304535E+04 -4.141781E+04
       113   5 -7.872955E+03 -1.227526E+05 -3.190298E+04  4.134960E+05 -6.692914E+04 -2.480278E+04
       113   6  1.635038E+03 -1.282005E+05 -2.075275E+04  4.840785E+05 -5.647822E+04 -8.232954E+03
       113   7  4.541585E+05  1.925177E+06  4.282433E+05  4.535855E+05 -2.287932E+04  6.100379E+04
       113   8  3.541639E+05  1.376924E+06  2.800344E+05  4.013209E+05 -6.687172E+04 -7.014144E+02
       113   9  2.308033E+05  8.311190E+05  1.660616E+05  4.902765E+05 -5.659284E+04 -6.239880E+04
       113  10 -5.631494E+05 -2.178769E+06 -5.548103E+05  5.146464E+05  1.371670E-10 -8.043023E-09
       113  11 -3.700574E+05 -1.620305E+06 -3.439745E+05  4.256370E+05  8.493974E-10  1.773374E-08
       113  12 -2.275907E+05 -1.086634E+06 -2.076097E+05  4.778915E+05 -1.207105E-09  4.128595E-08
       113  13 -5.434538E+04 -1.287285E+05 -6.313880E+04  4.841686E+05  2.297531E-10 -1.781857E-09
       113  14 -7.877928E+03 -1.227545E+05 -3.191255E+04  4.134947E+05 -1.184731E-09  1.318450E-09
       113  15  1.631595E+03 -1.282014E+05 -2.075887E+04  4.840781E+05 -2.020054E-09 -2.139477E-09
       113  16  4.541569E+05  1.925173E+06  4.282354E+05  4.535866E+05 -3.733052E-10  8.101969E-09
       113  17  3.541591E+05  1.376923E+06  2.800260E+05  4.013209E+05 -9.302062E-10 -1.915015E-08
       113  18  2.307988E+05  8.311140E+05  1.660483E+05  4.902737E+05 -2.164271E-09 -4.096008E-08
       113  19 -5.631433E+05 -2.178746E+06 -5.547705E+05  5.146491E+05  2.322183E+04  1.435026E+05
       113  20 -3.700519E+05 -1.620301E+06 -3.439616E+05  4.256396E+05  6.698758E+04  4.884695E+04
       113  21 -2.275867E+05 -1.086631E+06 -2.075998E+05  4.778894E+05  5.636455E+04 -4.585114E+04
       113  22 -5.434435E+04 -1.287265E+05 -6.313458E+04  4.841694E+05  2.304535E+04  4.141781E+04
       113  23 -7.872955E+03 -1.227526E+05 -3.190298E+04  4.134960E+05  6.692914E+04  2.480278E+04
       113  24  1.635038E+03 -1.282005E+05 -2.075275E+04  4.840785E+05  5.647822E+04  8.232954E+03
       113  25  4.541585E+05  1.925177E+06  4.282433E+05  4.535855E+05  2.287932E+04 -6.100379E+04
       113  26  3.541639E+05  1.376924E+06  2.800344E+05  4.013209E+05  6.687172E+04  7.014144E+02
       113  27  2.308033E+05  8.311190E+05  1.660616E+05  4.902765E+05  5.659284E+04  6.239880E+04
       114   1 -1.405175E+05 -7.126780E+05 -1.331755E+05  4.852678E+05 -3.402249E+04  3.982661E+04
       114   2 -8.512738E+03 -1.654275E+05 -2.488149E+04  4.125019E+05 -2.608206E+03  4.861056E+04
       114   3  1.197321E+05  3.795320E+05  7.659357E+04  4.840178E+05  2.894941E+04  5.740053E+04
       114   4 -2.059194E+02 -1.261143E+05 -1.844691E+04  4.847634E+05 -3.412529E+04 -5.252441E+03
       114   5  1.127419E+03 -1.248359E+05 -1.728494E+04  4.126236E+05 -2.711798E+03  3.309935E+03
       114   6 -1.245854E+03 -1.261000E+05 -2.278596E+04  4.847658E+05  2.884430E+04  1.187095E+04
       114   7  1.400860E+05  4.607841E+05  9.627280E+04  4.842582E+05 -3.422796E+04 -5.037319E+04
       114   8  1.076858E+04 -8.423826E+04 -9.680745E+03  4.127453E+05 -2.815402E+03 -4.199358E+04
       114   9 -1.222382E+05 -6.314828E+05 -1.221701E+05  4.855131E+05  2.873903E+04 -3.362237E+04
       114  10 -1.405192E+05 -7.126800E+05 -1.331806E+05  4.852689E+05 -1.364089E-09 -3.945252E-08
       114  11 -8.513380E+03 -1.654300E+05 -2.488594E+04  4.125020E+05 -7.314275E-11 -1.869166E-08
       114  12  1.197303E+05  3.795283E+05  7.658581E+04  4.840164E+05  9.735036E-10  7.693772E-09
       114  13 -2.071770E+02 -1.261146E+05 -1.844915E+04  4.847633E+05 -2.858101E-09 -3.315485E-09
       114  14  1.127408E+03 -1.248359E+05 -1.728497E+04  4.126236E+05 -7.186001E-10  1.758892E-09
       114  15 -1.246785E+03 -1.261004E+05 -2.278779E+04  4.847656E+05  1.328618E-09 -2.326627E-09
       114  16  1.400841E+05  4.607811E+05  9.626584E+04  4.842568E+05 -1.583348E-09  3.950625E-08
       114  17  1.076810E+04 -8.424016E+04 -9.684074E+03  4.127453E+05 -4.742897E-10  1.694147E-08
       114  18 -1.222393E+05 -6.314842E+05 -1.221738E+05  4.855138E+05  1.190662E-09 -7.379339E-09
       114  19 -1.405175E+05 -7.126780E+05 -1.331755E+05  4.852678E+05  3.402249E+04 -3.982661E+04
       114  20 -8.512738E+03 -1.654275E+05 -2.488149E+04  4.125019E+05  2.608206E+03 -4.861056E+04
       114  21  1.197321E+05  3.795320E+05  7.659357E+04  4.840178E+05 -2.894941E+04 -5.740053E+04
       114  22 -2.059194E+02 -1.261143E+05 -1.844691E+04  4.847634E+05  3.412529E+04  5.252441E+03
       114  23  1.127419E+03 -1.248359E+05 -1.728494E+04  4.126236E+05  2.711798E+03 -3.309935E+03
       114  24 -1.245854E+03 -1.261000E+05 -2.278596E+04  4.847658E+05 -2.884430E+04 -1.187095E+04
       114  25  1.400860E+05  4.607841E+05  9.627280E+04  4.842582E+05  3.422796E+04  5.037319E+04
       114  26  1.076858E+04 -8.423826E+04 -9.680745E+03  4.127453E+05  2.815402E+03  4.199358E+04
       114  27 -1.222382E+05 -6.314828E+05 -1.221701E+05  4.855131E+05 -2.873903E+04  3.362237E+04
       115   1  2.115542E+05  7.485305E+05  1.439708E+05  4.927371E+05  5.133372E+04  6.983344E+04
       115   2  3.304447E+05  1.297361E+06  2.498652E+05  3.945743E+05  6.264572E+04  1.825810E+04
       115   3  4.071851E+05  1.842591E+06  3.787129E+05  4.377631E+05  2.167102E+04 -3.331365E+04
       115   4  1.707064E+03 -1.294118E+05 -2.747112E+04  4.841038E+05  5.121596E+04  1.563212E+04
       115   5 -1.210520E+04 -1.211658E+05 -4.580641E+04  4.134761E+05  6.269779E+04  3.943939E+04
       115   6 -8.119102E+04 -1.299113E+05 -9.352334E+04  4.842423E+05  2.183387E+04  6.329342E+04
       115   7 -2.081845E+05 -1.006609E+06 -1.989388E+05  4.754824E+05  5.109959E+04 -3.849432E+04
       115   8 -3.547817E+05 -1.537789E+06 -3.415870E+05  4.323326E+05  6.275123E+04  6.057307E+04
       115   9 -5.698356E+05 -2.098831E+06 -5.659984E+05  5.305708E+05  2.201152E+04  1.595953E+05
       115  10  2.115500E+05  7.485246E+05  1.439567E+05  4.927342E+05  6.646558E-10 -2.272402E-09
       115  11  3.304404E+05  1.297360E+06  2.498572E+05  3.945734E+05 -5.099843E-10 -1.578643E-09
       115  12  4.071843E+05  1.842590E+06  3.787100E+05  4.377637E+05 -6.443849E-10  3.645501E-10
       115  13  1.704183E+03 -1.294127E+05 -2.747650E+04  4.841032E+05  1.273323E-09 -3.178152E-09
       115  14 -1.210984E+04 -1.211685E+05 -4.581672E+04  4.134741E+05  1.842345E-09  1.292083E-09
       115  15 -8.119260E+04 -1.299157E+05 -9.353176E+04  4.842412E+05 -5.291767E-10 -1.345234E-09
       115  16 -2.081878E+05 -1.006611E+06 -1.989465E+05  4.754840E+05  1.488846E-09  2.300415E-09
       115  17 -3.547869E+05 -1.537794E+06 -3.416013E+05  4.323295E+05  7.847424E-10  9.822682E-11
       115  18 -5.698430E+05 -2.098858E+06 -5.660473E+05  5.305680E+05 -3.056725E-10 -2.678703E-10
       115  19  2.115542E+05  7.485305E+05  1.439708E+05  4.927371E+05 -5.133372E+04 -6.983344E+04
       115  20  3.304447E+05  1.297361E+06  2.498652E+05  3.945743E+05 -6.264572E+04 -1.825810E+04
       115  21  4.071851E+05  1.842591E+06  3.787129E+05  4.377631E+05 -2.167102E+04  3.331365E+04
       115  22  1.707064E+03 -1.294118E+05 -2.747112E+04  4.841038E+05 -5.121596E+04 -1.563212E+04
       115  23 -1.210520E+04 -1.211658E+05 -4.580641E+04  4.134761E+05 -6.269779E+04 -3.943939E+04
       115  24 -8.119102E+04 -1.299113E+05 -9.352334E+04  4.842423E+05 -2.183387E+04 -6.329342E+04
       115  25 -2.081845E+05 -1.006609E+06 -1.989388E+05  4.754824E+05 -5.109959E+04  3.849432E+04
       115  26 -3.547817E+05 -1.537789E+06 -3.415870E+05  4.323326E+05 -6.275123E+04 -6.057307E+04
       115  27 -5.698356E+05 -2.098831E+06 -5.659984E+05  5.305708E+05 -2.201152E+04 -1.595953E+05
       116   1 -4.329685E+05 -1.472021E+06 -4.186255E+05  5.468415E+05 -1.840430E+04 -6.252681E+04
       116   2 -2.846135E+05 -8.357347E+05 -2.430941E+05  4.725347E+05 -4.901017E+04  3.794584E+03
       116   3 -1.340156E+05 -2.075023E+05 -1.103414E+05  5.625995E+05 -2.998771E+04  7.011834E+04
       116   4  2.216948E+04  3.606801E+05  2.274820E+04  5.616009E+05 -1.822336E+04  1.739570E+04
       116   5  4.992718E+03  3.589433E+05  9.718558E+03  4.794509E+05 -4.898218E+04  1.238122E+04
       116   6  2.473895E+03  3.611670E+05  3.513516E+03  5.616439E+05 -3.015787E+04  7.300574E+03
       116   7  4.770666E+05  2.196472E+06  4.639065E+05  5.764012E+05 -1.803896E+04  9.755364E+04
       116   8  2.945068E+05  1.554969E+06  2.624505E+05  4.863794E+05 -4.895405E+04  2.098412E+04
       116   9  1.389457E+05  9.301533E+05  1.173669E+05  5.606871E+05 -3.032774E+04 -5.557360E+04
       116  10 -4.329699E+05 -1.472025E+06 -4.186335E+05  5.468405E+05 -6.910777E-11 -3.808197E-10
       116  11 -2.846161E+05 -8.357353E+05 -2.430987E+05  4.725349E+05  1.692556E-11  3.908805E-09
       116  12 -1.340179E+05 -2.075078E+05 -1.103523E+05  5.626012E+05 -6.092178E-10 -1.533391E-09
       116  13  2.216904E+04  3.606797E+05  2.274700E+04  5.616012E+05 -1.824005E-10  1.477133E-09
       116  14  4.990099E+03  3.589425E+05  9.713758E+03  4.794514E+05 -1.260071E-10  3.645642E-09
       116  15  2.472904E+03  3.611667E+05  3.511705E+03  5.616441E+05 -2.328460E-10  2.515146E-10
       116  16  4.770637E+05  2.196462E+06  4.638881E+05  5.764026E+05  7.210340E-10 -9.928135E-10
       116  17  2.945041E+05  1.554967E+06  2.624452E+05  4.863802E+05  1.334824E-09  1.576952E-09
       116  18  1.389438E+05  9.301498E+05  1.173593E+05  5.606858E+05 -3.720619E-11  5.538225E-11
       116  19 -4.329685E+05 -1.472021E+06 -4.186255E+05  5.468415E+05  1.840430E+04  6.252681E+04
       116  20 -2.846135E+05 -8.357347E+05 -2.430941E+05  4.725347E+05  4.901017E+04 -3.794584E+03
       116  21 -1.340156E+05 -2.075023E+05 -1.103414E+05  5.625995E+05  2.998771E+04 -7.011834E+04
       116  22  2.216948E+04  3.606801E+05  2.274820E+04  5.616009E+05  1.822336E+04 -1.739570E+04
       116  23  4.992718E+03  3.589433E+05  9.718558E+03  4.794509E+05  4.898218E+04 -1.238122E+04
       116  24  2.473895E+03  3.611670E+05  3.513516E+03  5.616439E+05  3.015787E+04 -7.300574E+03
       116  25  4.770666E+05  2.196472E+06  4.639065E+05  5.764012E+05  1.803896E+04 -9.755364E+04
       116  26  2.945068E+05  1.554969E+06  2.624505E+05  4.863794E+05  4.895405E+04 -2.098412E+04
       116  27  1.389457E+05  9.301533E+05  1.173669E+05  5.606871E+05  3.032774E+04  5.557360E+04
       117   1 -3.037236E+04  2.216181E+05 -2.955147E+04  5.621910E+05 -4.044682E+03  6.185996E+04
       117   2  1.190723E+05  8.541948E+05  8.831229E+04  4.793947E+05  3.320644E+04  6.134742E+04
       117   3  2.685456E+05  1.486619E+06  2.063150E+05  5.635797E+05  6.874200E+04  6.085322E+04
       117   4  3.453360E+03  3.601310E+05  1.106089E+03  5.622242E+05 -4.197566E+03  6.944320E+03
       117   5  1.934903E+03  3.605153E+05 -4.046025E+03  4.787338E+05  3.307162E+04  8.875908E+03
       117   6  3.841403E+01  3.599307E+05 -1.075990E+04  5.622326E+05  6.862356E+04  1.082631E+04
       117   7  3.727940E+04  4.986684E+05  3.177379E+04  5.622573E+05 -4.350434E+03 -4.798343E+04
       117   8 -1.152151E+05 -1.329228E+05 -9.640450E+04  4.780732E+05  3.293685E+04 -4.355498E+04
       117   9 -2.685427E+05 -7.655336E+05 -2.278843E+05  5.608868E+05  6.850519E+04 -3.911207E+04
       117  10 -3.037340E+04  2.216140E+05 -2.955869E+04  5.621912E+05 -6.787358E-10  6.646305E-11
       117  11  1.190701E+05  8.541905E+05  8.830316E+04  4.793930E+05  6.149432E-10  4.103153E-09
       117  12  2.685395E+05  1.486614E+06  2.062992E+05  5.635763E+05  3.170662E-10 -2.874803E-09
       117  13  3.453328E+03  3.601310E+05  1.105965E+03  5.622242E+05  1.644799E-10  2.023525E-09
       117  14  1.933707E+03  3.605150E+05 -4.048228E+03  4.787336E+05 -8.298821E-11  3.967475E-09
       117  15  3.332589E+01  3.599293E+05 -1.076897E+04  5.622320E+05  1.187264E-09  1.949845E-10
       117  16  3.727877E+04  4.986659E+05  3.176943E+04  5.622572E+05 -2.904056E-10 -2.131358E-09
       117  17 -1.152167E+05 -1.329251E+05 -9.641011E+04  4.780744E+05  1.044567E-09  1.829639E-09
       117  18 -2.685482E+05 -7.655365E+05 -2.278960E+05  5.608890E+05  2.211964E-10  1.360716E-09
       117  19 -3.037236E+04  2.216181E+05 -2.955147E+04  5.621910E+05  4.044682E+03 -6.185996E+04
       117  20  1.190723E+05  8.541948E+05  8.831229E+04  4.793947E+05 -3.320644E+04 -6.134742E+04
       117  21  2.685456E+05  1.486619E+06  2.063150E+05  5.635797E+05 -6.874200E+04 -6.085322E+04
       117  22  3.453360E+03  3.601310E+05  1.106089E+03  5.622242E+05  4.197566E+03 -6.944320E+03
       117  23  1.934903E+03  3.605153E+05 -4.046025E+03  4.787338E+05 -3.307162E+04 -8.875908E+03
       117  24  3.841403E+01  3.599307E+05 -1.075990E+04  5.622326E+05 -6.862356E+04 -1.082631E+04
       117  25  3.727940E+04  4.986684E+05  3.177379E+04  5.622573E+05  4.350434E+03  4.798343E+04
       117  26 -1.152151E+05 -1.329228E+05 -9.640450E+04  4.780732E+05 -3.293685E+04  4.355498E+04
       117  27 -2.685427E+05 -7.655336E+05 -2.278843E+05  5.608868E+05 -6.850519E+04  3.911207E+04
       118   1  3.732844E+05  1.916184E+06  2.858724E+05  5.686204E+05  9.452915E+04  7.519414E+04
       118   2  5.182067E+05  2.546016E+06  4.221486E+05  4.694211E+05  1.007747E+05 -1.646402E+04
       118   3  6.467499E+05  3.184368E+06  6.138896E+05  5.330627E+05  3.330361E+04 -1.081733E+05
       118   4  1.827285E+03  3.576264E+05 -1.480926E+04  5.613088E+05  9.439748E+04  1.260340E+04
       118   5 -7.817939E+03  3.623456E+05 -2.832359E+04  4.799086E+05  1.008842E+05  2.742983E+04
       118   6 -5.231433E+04  3.567568E+05 -6.018631E+04  5.613978E+05  3.353116E+04  4.229784E+04
       118   7 -3.697718E+05 -1.198593E+06 -3.155892E+05  5.540136E+05  9.426705E+04 -4.983419E+04
       118   8 -5.341419E+05 -1.816811E+06 -4.790458E+05  4.903551E+05  1.009955E+05  7.117233E+04
       118   9 -7.519396E+05 -2.463497E+06 -7.347382E+05  5.895982E+05  3.377316E+04  1.920892E+05
       118  10  3.732733E+05  1.916176E+06  2.858451E+05  5.686147E+05  4.173642E-10 -3.379383E-10
       118  11  5.181957E+05  2.546013E+06  4.221290E+05  4.694224E+05 -1.377817E-10  2.703836E-09
       118  12  6.467455E+05  3.184355E+06  6.138657E+05  5.330656E+05  1.553213E-10 -1.021849E-09
       118  13  1.817674E+03  3.576239E+05 -1.482631E+04  5.613079E+05  1.422529E-09  1.573116E-09
       118  14 -7.829068E+03  3.623420E+05 -2.834412E+04  4.799064E+05  2.892028E-10  2.375483E-09
       118  15 -5.231602E+04  3.567546E+05 -6.019178E+04  5.613967E+05 -1.971549E-10  9.464723E-11
       118  16 -3.697820E+05 -1.198598E+06 -3.156106E+05  5.540174E+05 -5.412049E-10 -1.468707E-09
       118  17 -5.341542E+05 -1.816819E+06 -4.790745E+05  4.903493E+05  6.145742E-10  7.698945E-10
       118  18 -7.519508E+05 -2.463537E+06 -7.348099E+05  5.895929E+05  1.117733E-10  5.167203E-10
       118  19  3.732844E+05  1.916184E+06  2.858724E+05  5.686204E+05 -9.452915E+04 -7.519414E+04
       118  20  5.182067E+05  2.546016E+06  4.221486E+05  4.694211E+05 -1.007747E+05  1.646402E+04
       118  21  6.467499E+05  3.184368E+06  6.138896E+05  5.330627E+05 -3.330361E+04  1.081733E+05
       118  22  1.827285E+03  3.576264E+05 -1.480926E+04  5.613088E+05 -9.439748E+04 -1.260340E+04
       118  23 -7.817939E+03  3.623456E+05 -2.832359E+04  4.799086E+05 -1.008842E+05 -2.742983E+04
       118  24 -5.231433E+04  3.567568E+05 -6.018631E+04  5.613978E+05 -3.353116E+04 -4.229784E+04
       118  25 -3.697718E+05 -1.198593E+06 -3.155892E+05  5.540136E+05 -9.426705E+04  4.983419E+04
       118  26 -5.341419E+05 -1.816811E+06 -4.790458E+05  4.903551E+05 -1.009955E+05 -7.117233E+04
       118  27 -7.519396E+05 -2.463497E+06 -7.347382E+05  5.895982E+05 -3.377316E+04 -1.920892E+05
       119   1  2.746346E+06  6.729392E+05  6.515193E+05  4.329245E+05  1.635175E+05 -3.349955E+04
       119   2  2.254312E+06  5.241905E+05  4.540052E+05  3.667329E+05  5.967124E+04 -1.035597E+05
       119   3  1.784157E+06  4.040410E+05  3.311801E+05  4.233411E+05 -4.397380E+04 -1.049239E+05
       119   4  8.345721E+04  1.462615E+04  1.815536E+04  4.252514E+05  1.252404E+04 -3.336551E+04
       119   5  8.153039E+04  1.174494E+03  8.625765E+03  3.638376E+05  8.013919E+03 -1.035596E+05
       119   6  8.412011E+04 -8.183276E+02  5.012419E+03  4.252405E+05  3.621759E+03 -1.049499E+05
       119   7 -2.572894E+06 -6.441849E+05 -6.156193E+05  4.176107E+05 -1.378272E+05 -3.322763E+04
       119   8 -2.086773E+06 -5.221363E+05 -4.369951E+05  3.609520E+05 -4.346640E+04 -1.035590E+05
       119   9 -1.613136E+06 -4.058472E+05 -3.212794E+05  4.271337E+05  5.109029E+04 -1.049757E+05
       119  10  2.746317E+06  6.729308E+05  6.514672E+05  4.329289E+05  2.006288E-10 -3.517787E-11
       119  11  2.254305E+06  5.241780E+05  4.539784E+05  3.667379E+05 -1.801757E-09  6.182725E-11
       119  12  1.784152E+06  4.040287E+05  3.311558E+05  4.233374E+05  3.985658E-10  1.467646E-10
       119  13  8.345674E+04  1.462491E+04  1.815297E+04  4.252517E+05 -1.146151E-11  1.158209E-10
       119  14  8.152744E+04  1.162959E+03  8.605488E+03  3.638383E+05 -4.366136E-10  1.900599E-10
       119  15  8.411714E+04 -8.301596E+02  4.991694E+03  4.252408E+05 -9.637225E-11  4.189907E-11
       119  16 -2.572915E+06 -6.441913E+05 -6.156572E+05  4.176070E+05  4.932806E-10  1.598047E-10
       119  17 -2.086778E+06 -5.221484E+05 -4.370188E+05  3.609484E+05  1.424946E-09  3.191177E-10
       119  18 -1.613141E+06 -4.058597E+05 -3.213050E+05  4.271380E+05  7.376185E-10 -1.051200E-10
       119  19  2.746346E+06  6.729392E+05  6.515193E+05  4.329245E+05 -1.635175E+05  3.349955E+04
       119  20  2.254312E+06  5.241905E+05  4.540052E+05  3.667329E+05 -5.967124E+04  1.035597E+05
       119  21  1.784157E+06  4.040410E+05  3.311801E+05  4.233411E+05  4.397380E+04  1.049239E+05
       119  22  8.345721E+04  1.462615E+04  1.815536E+04  4.252514E+05 -1.252404E+04  3.336551E+04
       119  23  8.153039E+04  1.174494E+03  8.625765E+03  3.638376E+05 -8.013919E+03  1.035596E+05
       119  24  8.412011E+04 -8.183276E+02  5.012419E+03  4.252405E+05 -3.621759E+03  1.049499E+05
       119  25 -2.572894E+06 -6.441849E+05 -6.156193E+05  4.176107E+05  1.378272E+05  3.322763E+04
       119  26 -2.086773E+06 -5.221363E+05 -4.369951E+05  3.609520E+05  4.346640E+04  1.035590E+05
       119  27 -1.613136E+06 -4.058472E+05 -3.212794E+05  4.271337E+05 -5.109029E+04  1.049757E+05
       120   1  1.455229E+06  3.266793E+05  2.664185E+05  4.262026E+05 -3.247967E+04 -8.546824E+04
       120   2  9.741590E+05  2.114474E+05  1.699839E+05  3.627548E+05 -4.028348E+04 -5.860693E+04
       120   3  4.950056E+05  9.779893E+04  7.907250E+04  4.261470E+05 -4.810132E+04 -2.712494E+04
       120   4  8.343481E+04  7.202172E+01  3.907000E+03  4.261400E+05  2.931064E+03 -8.547872E+04
       120   5  8.330267E+04 -1.388668E+02  2.341499E+03  3.627144E+05  1.780836E+03 -5.860203E+04
       120   6  8.371136E+04  9.201263E+01  1.686534E+03  4.261403E+05  6.107607E+02 -2.710086E+04
       120   7 -1.286548E+06 -3.266455E+05 -2.586856E+05  4.260770E+05  3.826552E+04 -8.548921E+04
       120   8 -8.067839E+05 -2.117703E+05 -1.653290E+05  3.626737E+05  4.378635E+04 -5.859712E+04
       120   9 -3.274144E+05 -9.762345E+04 -7.569792E+04  4.261335E+05  4.929139E+04 -2.707676E+04
       120  10  1.455226E+06  3.266712E+05  2.664028E+05  4.262004E+05  5.974842E-11  2.340252E-12
       120  11  9.741563E+05  2.114433E+05  1.699744E+05  3.627529E+05 -1.725320E-09 -2.241929E-10
       120  12  4.950029E+05  9.779752E+04  7.906678E+04  4.261460E+05 -1.581408E-09  2.711902E-10
       120  13  8.343284E+04  6.417284E+01  3.893252E+03  4.261403E+05  5.428512E-10 -1.133251E-10
       120  14  8.330175E+04 -1.425556E+02  2.335039E+03  3.627145E+05 -5.908292E-10 -1.860305E-10
       120  15  8.371117E+04  9.122381E+01  1.685153E+03  4.261403E+05  1.361548E-10  4.275742E-11
       120  16 -1.286551E+06 -3.266538E+05 -2.587021E+05  4.260796E+05  3.723461E-10 -2.743985E-10
       120  17 -8.067869E+05 -2.117745E+05 -1.653391E+05  3.626758E+05  1.543741E-09 -1.370863E-10
       120  18 -3.274172E+05 -9.762489E+04 -7.570387E+04  4.261345E+05  5.899019E-10 -2.221202E-10
       120  19  1.455229E+06  3.266793E+05  2.664185E+05  4.262026E+05  3.247967E+04  8.546824E+04
       120  20  9.741590E+05  2.114474E+05  1.699839E+05  3.627548E+05  4.028348E+04  5.860693E+04
       120  21  4.950056E+05  9.779893E+04  7.907250E+04  4.261470E+05  4.810132E+04  2.712494E+04
       120  22  8.343481E+04  7.202172E+01  3.907000E+03  4.261400E+05 -2.931064E+03  8.547872E+04
       120  23  8.330267E+04 -1.388668E+02  2.341499E+03  3.627144E+05 -1.780836E+03  5.860203E+04
       120  24  8.371136E+04  9.201263E+01  1.686534E+03  4.261403E+05 -6.107607E+02  2.710086E+04
       120  25 -1.286548E+06 -3.266455E+05 -2.586856E+05  4.260770E+05 -3.826552E+04  8.548921E+04
       120  26 -8.067839E+05 -2.117703E+05 -1.653290E+05  3.626737E+05 -4.378635E+04  5.859712E+04
       120  27 -3.274144E+05 -9.762345E+04 -7.569792E+04  4.261335E+05 -4.929139E+04  2.707676E+04
       121   1  1.697073E+05  2.031481E+04  1.637965E+04  4.261488E+05 -4.823460E+04 -7.127696E+03
       121   2 -3.097887E+05 -9.363908E+04 -7.358035E+04  3.626107E+05 -4.366467E+04  2.474039E+04
       121   3 -7.896850E+05 -2.083259E+05 -1.666850E+05  4.259784E+05 -3.909013E+04  5.291117E+04
       121   4  8.368886E+04  1.448070E+02  1.531523E+03  4.261512E+05  3.110612E+02 -7.100767E+03
       121   5  8.348048E+04  5.009145E+01  1.536472E+03  3.627009E+05 -4.584949E+02  2.475731E+04
       121   6  8.356680E+04  1.582548E+02  2.101364E+03  4.261511E+05 -1.220007E+03  5.291978E+04
       121   7 -2.317273E+03 -2.002433E+04 -1.330800E+04  4.261535E+05  4.885021E+04 -7.073834E+03
       121   8  4.769027E+05  9.373115E+04  7.665330E+04  3.627911E+05  4.277441E+04  2.477424E+04
       121   9  9.575552E+05  2.085978E+05  1.708576E+05  4.263238E+05  3.670223E+04  5.292839E+04
       121  10  1.697048E+05  2.031414E+04  1.637518E+04  4.261486E+05 -7.087118E-10  5.988341E-10
       121  11 -3.097909E+05 -9.364025E+04 -7.358509E+04  3.626115E+05 -1.389637E-09  5.839991E-10
       121  12 -7.896874E+05 -2.083293E+05 -1.666932E+05  4.259800E+05  5.742417E-10  1.511681E-10
       121  13  8.368885E+04  1.447528E+02  1.531428E+03  4.261512E+05  2.483938E-12  3.296360E-10
       121  14  8.348031E+04  4.943319E+01  1.535320E+03  3.627009E+05 -1.648597E-09  5.801486E-10
       121  15  8.356604E+04  1.552470E+02  2.096098E+03  4.261512E+05  9.354935E-10  8.989760E-11
       121  16 -2.319849E+03 -2.002503E+04 -1.331258E+04  4.261538E+05  7.516084E-10  6.439604E-11
       121  17  4.769006E+05  9.373001E+04  7.664871E+04  3.627902E+05  3.798561E-10  5.692448E-10
       121  18  9.575530E+05  2.085944E+05  1.708498E+05  4.263222E+05 -7.614420E-10  3.021697E-11
       121  19  1.697073E+05  2.031481E+04  1.637965E+04  4.261488E+05  4.823460E+04  7.127696E+03
       121  20 -3.097887E+05 -9.363908E+04 -7.358035E+04  3.626107E+05  4.366467E+04 -2.474039E+04
       121  21 -7.896850E+05 -2.083259E+05 -1.666850E+05  4.259784E+05  3.909013E+04 -5.291117E+04
       121  22  8.368886E+04  1.448070E+02  1.531523E+03  4.261512E+05 -3.110612E+02  7.100767E+03
       121  23  8.348048E+04  5.009145E+01  1.536472E+03  3.627009E+05  4.584949E+02 -2.475731E+04
       121  24  8.356680E+04  1.582548E+02  2.101364E+03  4.261511E+05  1.220007E+03 -5.291978E+04
       121  25 -2.317273E+03 -2.002433E+04 -1.330800E+04  4.261535E+05 -4.885021E+04  7.073834E+03
       121  26  4.769027E+05  9.373115E+04  7.665330E+04  3.627911E+05 -4.277441E+04 -2.477424E+04
       121  27  9.575552E+05  2.085978E+05  1.708576E+05  4.263238E+05 -3.670223E+04 -5.292839E+04
       122   1 -1.116280E+06 -2.869522E+05 -2.296813E+05  4.261028E+05 -4.944566E+04  7.249554E+04
       122   2 -1.590327E+06 -4.036236E+05 -3.418303E+05  3.621011E+05  2.996681E+04  7.743565E+04
       122   3 -2.076010E+06 -5.289686E+05 -5.078035E+05  4.216719E+05  1.092522E+05  2.565097E+04
       122   4  8.388706E+04 -3.162296E+02  2.568777E+03  4.254064E+05 -1.601280E+03  7.249649E+04
       122   5  8.246169E+04  4.374998E+02  4.148332E+03  3.636311E+05 -3.694400E+03  7.742439E+04
       122   6  8.337467E+04  6.706551E+03  8.580249E+03  4.254088E+05 -5.852430E+03  2.569767E+04
       122   7  1.285444E+06  2.862351E+05  2.347601E+05  4.247080E+05  4.633363E+04  7.249730E+04
       122   8  1.757910E+06  4.043218E+05  3.499796E+05  3.651646E+05 -3.744490E+04  7.741301E+04
       122   9  2.247071E+06  5.420509E+05  5.246850E+05  4.291578E+05 -1.213567E+05  2.574301E+04
       122  10 -1.116284E+06 -2.869585E+05 -2.296958E+05  4.261057E+05 -1.425795E-10 -6.891259E-11
       122  11 -1.590330E+06 -4.036302E+05 -3.418433E+05  3.620992E+05 -2.695268E-09 -2.041371E-10
       122  12 -2.076023E+06 -5.289726E+05 -5.078273E+05  4.216696E+05  4.226018E-11 -8.633966E-11
       122  13  8.388565E+04 -3.218743E+02  2.558895E+03  4.254065E+05  1.606436E-09 -1.508049E-10
       122  14  8.246007E+04  4.310586E+02  4.137040E+03  3.636313E+05  1.559684E-10  1.456519E-11
       122  15  8.337446E+04  6.705833E+03  8.578943E+03  4.254089E+05  1.040961E-09  1.155098E-10
       122  16  1.285441E+06  2.862289E+05  2.347462E+05  4.247053E+05  1.074525E-09 -2.113480E-10
       122  17  1.757907E+06  4.043150E+05  3.499657E+05  3.651669E+05  1.546247E-09 -3.268632E-11
       122  18  2.247055E+06  5.420463E+05  5.246562E+05  4.291604E+05 -1.181830E-10  3.888219E-11
       122  19 -1.116280E+06 -2.869522E+05 -2.296813E+05  4.261028E+05  4.944566E+04 -7.249554E+04
       122  20 -1.590327E+06 -4.036236E+05 -3.418303E+05  3.621011E+05 -2.996681E+04 -7.743565E+04
       122  21 -2.076010E+06 -5.289686E+05 -5.078035E+05  4.216719E+05 -1.092522E+05 -2.565097E+04
       122  22  8.388706E+04 -3.162296E+02  2.568777E+03  4.254064E+05  1.601280E+03 -7.249649E+04
       122  23  8.246169E+04  4.374998E+02  4.148332E+03  3.636311E+05  3.694400E+03 -7.742439E+04
       122  24  8.337467E+04  6.706551E+03  8.580249E+03  4.254088E+05  5.852430E+03 -2.569767E+04
       122  25  1.285444E+06  2.862351E+05  2.347601E+05  4.247080E+05 -4.633363E+04 -7.249730E+04
       122  26  1.757910E+06  4.043218E+05  3.499796E+05  3.651646E+05  3.744490E+04 -7.741301E+04
       122  27  2.247071E+06  5.420509E+05  5.246850E+05  4.291578E+05  1.213567E+05 -2.574301E+04
       123   1 -2.420840E+05 -1.049377E+06 -2.431155E+05  2.547144E+05 -8.316808E+03 -7.230391E+04
       123   2 -1.355046E+05 -7.833004E+05 -1.369147E+05  2.057747E+05 -2.243773E+04 -2.870421E+04
       123   3 -6.530775E+04 -5.322234E+05 -6.827739E+04  2.239946E+05 -1.518041E+04  1.487485E+04
       123   4 -4.517995E+04 -2.556866E+05 -5.221076E+04  2.288097E+05 -8.232772E+03 -3.650068E+04
       123   5 -6.552665E+03 -2.507862E+05 -2.468807E+04  1.951775E+05 -2.242393E+04 -2.363096E+04
       123   6  1.054857E+03 -2.555927E+05 -1.334906E+04  2.287080E+05 -1.524305E+04 -1.080111E+04
       123   7  1.516816E+05  5.385849E+05  1.386543E+05  2.028713E+05 -8.151788E+03 -6.517651E+02
       123   8  1.223815E+05  2.819962E+05  8.752274E+04  1.845708E+05 -2.241032E+04 -1.855342E+04
       123   9  6.741322E+04  2.111276E+04  4.157797E+04  2.334234E+05 -1.530607E+04 -3.648828E+04
       123  10 -2.420855E+05 -1.049382E+06 -2.431255E+05  2.547139E+05 -2.968017E-10 -8.324319E-11
       123  11 -1.355054E+05 -7.833014E+05 -1.369172E+05  2.057742E+05  1.590496E-09 -1.924775E-10
       123  12 -6.530805E+04 -5.322237E+05 -6.827824E+04  2.239948E+05  1.087219E-11 -1.884670E-10
       123  13 -4.518038E+04 -2.556881E+05 -5.221339E+04  2.288095E+05 -7.262897E-11  1.985274E-11
       123  14 -6.553355E+03 -2.507870E+05 -2.469006E+04  1.951770E+05  9.957334E-10  7.619654E-11
       123  15  1.054577E+03 -2.555929E+05 -1.334971E+04  2.287078E+05 -5.054284E-11  9.044939E-11
       123  16  1.516815E+05  5.385849E+05  1.386542E+05  2.028713E+05 -5.660909E-10 -8.734915E-13
       123  17  1.223809E+05  2.819957E+05  8.752115E+04  1.845705E+05 -2.250397E-09  9.792483E-11
       123  18  6.741261E+04  2.111127E+04  4.157503E+04  2.334230E+05 -6.389080E-10  3.856266E-10
       123  19 -2.420840E+05 -1.049377E+06 -2.431155E+05  2.547144E+05  8.316808E+03  7.230391E+04
       123  20 -1.355046E+05 -7.833004E+05 -1.369147E+05  2.057747E+05  2.243773E+04  2.870421E+04
       123  21 -6.530775E+04 -5.322234E+05 -6.827739E+04  2.239946E+05  1.518041E+04 -1.487485E+04
       123  22 -4.517995E+04 -2.556866E+05 -5.221076E+04  2.288097E+05  8.232772E+03  3.650068E+04
       123  23 -6.552665E+03 -2.507862E+05 -2.468807E+04  1.951775E+05  2.242393E+04  2.363096E+04
       123  24  1.054857E+03 -2.555927E+05 -1.334906E+04  2.287080E+05  1.524305E+04  1.080111E+04
       123  25  1.516816E+05  5.385849E+05  1.386543E+05  2.028713E+05  8.151788E+03  6.517651E+02
       123  26  1.223815E+05  2.819962E+05  8.752274E+04  1.845708E+05  2.241032E+04  1.855342E+04
       123  27  6.741322E+04  2.111276E+04  4.157797E+04  2.334234E+05  1.530607E+04  3.648828E+04
       124   1 -2.505499E+04 -3.543187E+05 -3.083047E+04  2.293142E+05 -4.570989E+03  1.311998E+04
       124   2  3.820290E+04 -9.551800E+04  2.493571E+04  1.952286E+05  1.059933E+04  1.458426E+04
       124   3  1.007762E+05  1.626440E+05  7.948093E+04  2.294305E+05  2.521850E+04  1.605235E+04
       124   4 -7.348357E+02 -2.536097E+05 -9.960919E+03  2.289758E+05 -4.626267E+03 -9.110212E+03
       124   5  7.534030E+02 -2.532028E+05 -4.590031E+03  1.948289E+05  1.054751E+04 -6.855730E+03
       124   6  1.423553E+03 -2.536353E+05 -9.872142E+02  2.289705E+05  2.516990E+04 -4.598026E+03
       124   7  2.358494E+04 -1.528901E+05  1.090994E+04  2.286375E+05 -4.681516E+03 -3.134395E+04
       124   8 -3.669729E+04 -4.108626E+05 -3.411511E+04  1.944293E+05  1.049571E+04 -2.829041E+04
       124   9 -9.793917E+04 -6.697472E+05 -8.146184E+04  2.285108E+05  2.512131E+04 -2.523487E+04
       124  10 -2.505506E+04 -3.543188E+05 -3.083084E+04  2.293142E+05  3.714622E-10  3.828474E-09
       124  11  3.820272E+04 -9.551825E+04  2.493510E+04  1.952285E+05  3.550977E-10 -8.807023E-09
       124  12  1.007754E+05  1.626436E+05  7.947925E+04  2.294301E+05  3.206314E-10 -1.996190E-08
       124  13 -7.348810E+02 -2.536098E+05 -9.961115E+03  2.289758E+05  5.076042E-11 -3.813473E-11
       124  14  7.532709E+02 -2.532029E+05 -4.590329E+03  1.948290E+05 -1.487250E-09 -1.066569E-10
       124  15  1.422867E+03 -2.536355E+05 -9.884445E+02  2.289706E+05  1.333160E-09 -1.163604E-10
       124  16  2.358465E+04 -1.528911E+05  1.090806E+04  2.286374E+05  4.830940E-10 -3.888108E-09
       124  17 -3.669762E+04 -4.108635E+05 -3.411683E+04  1.944296E+05  1.156628E-09  8.571035E-09
       124  18 -9.794002E+04 -6.697481E+05 -8.146423E+04  2.285113E+05  3.176542E-10  1.995070E-08
       124  19 -2.505499E+04 -3.543187E+05 -3.083047E+04  2.293142E+05  4.570989E+03 -1.311998E+04
       124  20  3.820290E+04 -9.551800E+04  2.493571E+04  1.952286E+05 -1.059933E+04 -1.458426E+04
       124  21  1.007762E+05  1.626440E+05  7.948093E+04  2.294305E+05 -2.521850E+04 -1.605235E+04
       124  22 -7.348357E+02 -2.536097E+05 -9.960919E+03  2.289758E+05  4.626267E+03  9.110212E+03
       124  23  7.534030E+02 -2.532028E+05 -4.590031E+03  1.948289E+05 -1.054751E+04  6.855730E+03
       124  24  1.423553E+03 -2.536353E+05 -9.872142E+02  2.289705E+05 -2.516990E+04  4.598026E+03
       124  25  2.358494E+04 -1.528901E+05  1.090994E+04  2.286375E+05  4.681516E+03  3.134395E+04
       124  26 -3.669729E+04 -4.108626E+05 -3.411511E+04  1.944293E+05 -1.049571E+04  2.829041E+04
       124  27 -9.793917E+04 -6.697472E+05 -8.146184E+04  2.285108E+05 -2.512131E+04  2.523487E+04
       125   1  1.423599E+05  3.395396E+05  1.151968E+05  2.285851E+05  3.577573E+04  2.104220E+04
       125   2  2.068210E+05  5.936887E+05  1.794710E+05  1.988887E+05  3.887092E+04 -2.302249E+04
       125   3  2.853869E+05  8.569672E+05  2.758971E+05  2.358022E+05  1.287327E+04 -6.705828E+04
       125   4  9.167324E+02 -2.530836E+05  5.447924E+02  2.286026E+05  3.571828E+04 -4.521435E+03
       125   5  2.216095E+03 -2.540538E+05  4.068276E+03  1.952859E+05  3.891034E+04 -6.654050E+03
       125   6  1.035690E+04 -2.532219E+05  1.064157E+04  2.285827E+05  1.299196E+04 -8.739244E+03
       125   7 -1.405470E+05 -8.453678E+05 -1.141212E+05  2.286197E+05  3.566081E+04 -3.006123E+04
       125   8 -2.024342E+05 -1.101115E+06 -1.713725E+05  1.916876E+05  3.894960E+04  9.692444E+03
       125   9 -2.647603E+05 -1.362274E+06 -2.546881E+05  2.213755E+05  1.310941E+04  4.947608E+04
       125  10  1.423584E+05  3.395388E+05  1.151935E+05  2.285845E+05  8.975786E-10  1.926300E-08
       125  11  2.068193E+05  5.936877E+05  1.794672E+05  1.988894E+05 -1.302945E-09  8.929490E-09
       125  12  2.853855E+05  8.569623E+05  2.758884E+05  2.358029E+05 -3.044125E-10 -2.974259E-09
       125  13  9.153570E+02 -2.530839E+05  5.423565E+02  2.286027E+05 -4.946215E-10 -2.521180E-11
       125  14  2.214458E+03 -2.540542E+05  4.065347E+03  1.952861E+05  2.285662E-10 -3.304711E-11
       125  15  1.035670E+04 -2.532220E+05  1.064111E+04  2.285828E+05 -3.598174E-10  9.831672E-11
       125  16 -1.405486E+05 -8.453691E+05 -1.141253E+05  2.286206E+05  1.345403E-09 -1.938306E-08
       125  17 -2.024359E+05 -1.101115E+06 -1.713755E+05  1.916873E+05 -5.900955E-10 -8.883711E-09
       125  18 -2.647612E+05 -1.362277E+06 -2.546930E+05  2.213750E+05 -3.078189E-10  3.128146E-09
       125  19  1.423599E+05  3.395396E+05  1.151968E+05  2.285851E+05 -3.577573E+04 -2.104220E+04
       125  20  2.068210E+05  5.936887E+05  1.794710E+05  1.988887E+05 -3.887092E+04  2.302249E+04
       125  21  2.853869E+05  8.569672E+05  2.758971E+05  2.358022E+05 -1.287327E+04  6.705828E+04
       125  22  9.167324E+02 -2.530836E+05  5.447924E+02  2.286026E+05 -3.571828E+04  4.521435E+03
       125  23  2.216095E+03 -2.540538E+05  4.068276E+03  1.952859E+05 -3.891034E+04  6.654050E+03
       125  24  1.035690E+04 -2.532219E+05  1.064157E+04  2.285827E+05 -1.299196E+04  8.739244E+03
       125  25 -1.405470E+05 -8.453678E+05 -1.141212E+05  2.286197E+05 -3.566081E+04  3.006123E+04
       125  26 -2.024342E+05 -1.101115E+06 -1.713725E+05  1.916876E+05 -3.894960E+04 -9.692444E+03
       125  27 -2.647603E+05 -1.362274E+06 -2.546881E+05  2.213755E+05 -1.310941E+04 -4.947608E+04
       126   1  2.648878E+06  6.313948E+05  6.148248E+05  4.326724E+05  1.623829E+05 -2.980023E+04
       126   2  2.170567E+06  4.715291E+05  4.174782E+05  3.612316E+05  6.194247E+04 -9.152162E+04
       126   3  1.716352E+06  3.520911E+05  2.955395E+05  4.090869E+05 -3.834555E+04 -9.075578E+04
       126   4  2.361980E+05  3.487244E+04  4.054269E+04  4.122403E+05  2.798436E+04 -2.975194E+04
       126   5  2.323342E+05  4.828731E+03  1.941101E+04  3.525833E+05  1.790010E+04 -9.154056E+04
       126   6  2.367752E+05 -3.573961E+02  1.114438E+04  4.122323E+05  7.888544E+03 -9.075700E+04
       126   7 -2.171117E+06 -5.620580E+05 -5.340792E+05  3.918867E+05 -1.058963E+05 -2.969487E+04
       126   8 -1.702337E+06 -4.621065E+05 -3.788498E+05  3.439616E+05 -2.600765E+04 -9.155834E+04
       126   9 -1.240695E+06 -3.529342E+05 -2.733436E+05  4.153693E+05  5.401521E+04 -9.075774E+04
       126  10  2.648850E+06  6.313868E+05  6.147738E+05  4.326763E+05  4.803372E-10  3.913718E-11
       126  11  2.170561E+06  4.715190E+05  4.174553E+05  3.612362E+05 -1.007125E-09 -6.268153E-11
       126  12  1.716349E+06  3.520819E+05  2.955213E+05  4.090841E+05 -9.748985E-10  4.564668E-10
       126  13  2.361969E+05  3.487128E+04  4.053955E+04  4.122410E+05 -5.468372E-10  2.385525E-10
       126  14  2.323316E+05  4.819644E+03  1.939465E+04  3.525846E+05  6.909396E-10  1.771251E-10
       126  15  2.367729E+05 -3.662593E+02  1.112878E+04  4.122329E+05  1.115873E-09  5.001095E-10
       126  16 -2.171130E+06 -5.620620E+05 -5.341020E+05  3.918841E+05  2.343227E-10  5.024210E-11
       126  17 -1.702340E+06 -4.621156E+05 -3.788668E+05  3.439597E+05  2.159970E-09  4.879518E-10
       126  18 -1.240701E+06 -3.529439E+05 -2.733646E+05  4.153732E+05  1.174384E-09  4.870527E-10
       126  19  2.648878E+06  6.313948E+05  6.148248E+05  4.326724E+05 -1.623829E+05  2.980023E+04
       126  20  2.170567E+06  4.715291E+05  4.174782E+05  3.612316E+05 -6.194247E+04  9.152162E+04
       126  21  1.716352E+06  3.520911E+05  2.955395E+05  4.090869E+05  3.834555E+04  9.075578E+04
       126  22  2.361980E+05  3.487244E+04  4.054269E+04  4.122403E+05 -2.798436E+04  2.975194E+04
       126  23  2.323342E+05  4.828731E+03  1.941101E+04  3.525833E+05 -1.790010E+04  9.154056E+04
       126  24  2.367752E+05 -3.573961E+02  1.114438E+04  4.122323E+05 -7.888544E+03  9.075700E+04
       126  25 -2.171117E+06 -5.620580E+05 -5.340792E+05  3.918867E+05  1.058963E+05  2.969487E+04
       126  26 -1.702337E+06 -4.621065E+05 -3.788498E+05  3.439616E+05  2.600765E+04  9.155834E+04
       126  27 -1.240695E+06 -3.529342E+05 -2.733436E+05  4.153693E+05 -5.401521E+04  9.075774E+04
       127   1  1.396956E+06  2.779251E+05  2.315316E+05  4.137457E+05 -2.879311E+04 -7.186203E+04
       127   2  9.307257E+05  1.655288E+05  1.366064E+05  3.518862E+05 -3.744510E+04 -4.540198E+04
       127   3  4.664969E+05  5.530096E+04  4.786145E+04  4.129527E+05 -4.610685E+04 -1.477719E+04
       127   4  2.352603E+05  1.253299E+03  8.744807E+03  4.130420E+05  6.366461E+03 -7.185453E+04
       127   5  2.349917E+05  2.231347E+02  5.332772E+03  3.515751E+05  3.712147E+03 -4.538041E+04
       127   6  2.354699E+05  3.315455E+02  3.942801E+03  4.130428E+05  1.041762E+03 -1.473874E+04
       127   7 -9.251358E+05 -2.754975E+05 -2.140992E+05  4.123390E+05  4.146188E+04 -7.184709E+04
       127   8 -4.602717E+05 -1.651098E+05 -1.259558E+05  3.512641E+05  4.482445E+04 -4.535885E+04
       127   9  4.499040E+03 -5.463981E+04 -3.996990E+04  4.131329E+05  4.817326E+04 -1.470027E+04
       127  10  1.396954E+06  2.779193E+05  2.315203E+05  4.137441E+05  4.608518E-10  5.377334E-10
       127  11  9.307236E+05  1.655263E+05  1.365999E+05  3.518848E+05 -1.361890E-09 -4.604633E-11
       127  12  4.664946E+05  5.530016E+04  4.785705E+04  4.129521E+05  1.711769E-10 -4.091423E-10
       127  13  2.352589E+05  1.247743E+03  8.735026E+03  4.130423E+05  1.083663E-09  4.212371E-10
       127  14  2.349912E+05  2.209192E+02  5.328875E+03  3.515752E+05  2.855018E-10 -5.871683E-11
       127  15  2.354698E+05  3.313119E+02  3.942391E+03  4.130428E+05  9.604222E-10 -3.476295E-10
       127  16 -9.251390E+05 -2.755035E+05 -2.141121E+05  4.123414E+05 -1.658805E-10  3.018047E-10
       127  17 -4.602744E+05 -1.651126E+05 -1.259634E+05  3.512658E+05 -1.234652E-10 -1.535015E-10
       127  18  4.496489E+03 -5.464066E+04 -3.997466E+04  4.131335E+05  3.598811E-10 -4.693134E-10
       127  19  1.396956E+06  2.779251E+05  2.315316E+05  4.137457E+05  2.879311E+04  7.186203E+04
       127  20  9.307257E+05  1.655288E+05  1.366064E+05  3.518862E+05  3.744510E+04  4.540198E+04
       127  21  4.664969E+05  5.530096E+04  4.786145E+04  4.129527E+05  4.610685E+04  1.477719E+04
       127  22  2.352603E+05  1.253299E+03  8.744807E+03  4.130420E+05 -6.366461E+03  7.185453E+04
       127  23  2.349917E+05  2.231347E+02  5.332772E+03  3.515751E+05 -3.712147E+03  4.538041E+04
       127  24  2.354699E+05  3.315455E+02  3.942801E+03  4.130428E+05 -1.041762E+03  1.473874E+04
       127  25 -9.251358E+05 -2.754975E+05 -2.140992E+05  4.123390E+05 -4.146188E+04  7.184709E+04
       127  26 -4.602717E+05 -1.651098E+05 -1.259558E+05  3.512641E+05 -4.482445E+04  4.535885E+04
       127  27  4.499040E+03 -5.463981E+04 -3.996990E+04  4.131329E+05 -4.817326E+04  1.470027E+04
       128   1  1.512961E+05 -1.979245E+04 -1.297020E+04  4.130546E+05 -4.674460E+04  4.600352E+03
       128   2 -3.134301E+05 -1.302689E+05 -9.990954E+04  3.512848E+05 -4.314845E+04  3.536163E+04
       128   3 -7.783996E+05 -2.409783E+05 -1.892552E+05  4.124698E+05 -3.954216E+04  6.222739E+04
       128   4  2.354306E+05  3.667179E+02  3.705938E+03  4.130457E+05  3.467598E+02  4.639614E+03
       128   5  2.350837E+05  2.331206E+02  4.045979E+03  3.515716E+05 -1.680790E+03  3.538674E+04
       128   6  2.352655E+05  8.544336E+02  5.885117E+03  4.130453E+05 -3.695719E+03  6.224054E+04
       128   7  3.195767E+05  2.052664E+04  2.039005E+04  4.130368E+05  4.744437E+04  4.678871E+03
       128   8  7.838915E+05  1.307185E+05  1.079946E+05  3.518586E+05  3.982263E+04  3.541186E+04
       128   9  1.249922E+06  2.426269E+05  2.009828E+05  4.136212E+05  3.220796E+04  6.225372E+04
       128  10  1.512938E+05 -1.979306E+04 -1.297434E+04  4.130548E+05  9.455284E-10 -4.603867E-10
       128  11 -3.134324E+05 -1.302707E+05 -9.991539E+04  3.512860E+05 -1.120487E-09  1.474639E-11
       128  12 -7.784023E+05 -2.409829E+05 -1.892654E+05  4.124718E+05 -2.900690E-10  2.131554E-10
       128  13  2.354306E+05  3.666948E+02  3.705898E+03  4.130457E+05  5.214682E-10 -5.630088E-10
       128  14  2.350834E+05  2.317749E+02  4.043620E+03  3.515717E+05 -2.581353E-10 -6.123119E-11
       128  15  2.352644E+05  8.502694E+02  5.877810E+03  4.130454E+05  7.282090E-10 -1.386560E-11
       128  16  3.195743E+05  2.052602E+04  2.038579E+04  4.130366E+05  3.428286E-10 -3.340087E-10
       128  17  7.838895E+05  1.307167E+05  1.079892E+05  3.518575E+05 -6.074363E-10 -4.401713E-10
       128  18  1.249920E+06  2.426225E+05  2.009736E+05  4.136196E+05 -6.457857E-11 -1.093776E-10
       128  19  1.512961E+05 -1.979245E+04 -1.297020E+04  4.130546E+05  4.674460E+04 -4.600352E+03
       128  20 -3.134301E+05 -1.302689E+05 -9.990954E+04  3.512848E+05  4.314845E+04 -3.536163E+04
       128  21 -7.783996E+05 -2.409783E+05 -1.892552E+05  4.124698E+05  3.954216E+04 -6.222739E+04
       128  22  2.354306E+05  3.667179E+02  3.705938E+03  4.130457E+05 -3.467598E+02 -4.639614E+03
       128  23  2.350837E+05  2.331206E+02  4.045979E+03  3.515716E+05  1.680790E+03 -3.538674E+04
       128  24  2.352655E+05  8.544336E+02  5.885117E+03  4.130453E+05  3.695719E+03 -6.224054E+04
       128  25  3.195767E+05  2.052664E+04  2.039005E+04  4.130368E+05 -4.744437E+04 -4.678871E+03
       128  26  7.838915E+05  1.307185E+05  1.079946E+05  3.518586E+05 -3.982263E+04 -3.541186E+04
       128  27  1.249922E+06  2.426269E+05  2.009828E+05  4.136212E+05 -3.220796E+04 -6.225372E+04
       129   1 -1.094413E+06 -3.178223E+05 -2.494184E+05  4.141082E+05 -5.096610E+04  8.116720E+04
       129   2 -1.555036E+06 -4.288352E+05 -3.565330E+05  3.470413E+05  2.759188E+04  8.384129E+04
       129   3 -2.024781E+06 -5.388683E+05 -5.144949E+05  3.995136E+05  1.060306E+05  2.744938E+04
       129   4  2.362084E+05 -2.122689E+02  7.294308E+03  4.122812E+05 -4.724513E+03  8.117405E+04
       129   5  2.332267E+05  2.875518E+03  1.229288E+04  3.525243E+05 -1.104334E+04  8.382167E+04
       129   6  2.356757E+05  2.169818E+04  2.544845E+04  4.122838E+05 -1.742078E+04  2.748256E+04
       129   7  1.568539E+06  3.172937E+05  2.639328E+05  4.104494E+05  4.161405E+04  8.118059E+04
       129   8  2.024530E+06  4.343851E+05  3.809521E+05  3.580226E+05 -4.978807E+04  8.380142E+04
       129   9  2.500860E+06  5.819036E+05  5.650896E+05  4.250997E+05 -1.413207E+05  2.751071E+04
       129  10 -1.094418E+06 -3.178301E+05 -2.494357E+05  4.141115E+05 -2.836434E-11  1.675340E-10
       129  11 -1.555038E+06 -4.288430E+05 -3.565476E+05  3.470394E+05 -5.798772E-10 -1.386794E-10
       129  12 -2.024794E+06 -5.388721E+05 -5.145175E+05  3.995112E+05  4.228615E-10 -1.455593E-10
       129  13  2.362066E+05 -2.193517E+02  7.281881E+03  4.122815E+05  5.554397E-10  1.308137E-10
       129  14  2.332247E+05  2.867939E+03  1.227944E+04  3.525251E+05 -9.804739E-11  2.645497E-10
       129  15  2.356752E+05  2.169728E+04  2.544646E+04  4.122842E+05  4.318136E-10  7.507144E-11
       129  16  1.568535E+06  3.172862E+05  2.639172E+05  4.104467E+05 -1.885042E-10  1.155418E-10
       129  17  2.024526E+06  4.343769E+05  3.809342E+05  3.580260E+05  1.086998E-09  4.860290E-10
       129  18  2.500838E+06  5.818974E+05  5.650508E+05  4.251028E+05  9.867229E-11  2.484884E-10
       129  19 -1.094413E+06 -3.178223E+05 -2.494184E+05  4.141082E+05  5.096610E+04 -8.116720E+04
       129  20 -1.555036E+06 -4.288352E+05 -3.565330E+05  3.470413E+05 -2.759188E+04 -8.384129E+04
       129  21 -2.024781E+06 -5.388683E+05 -5.144949E+05  3.995136E+05 -1.060306E+05 -2.744938E+04
       129  22  2.362084E+05 -2.122689E+02  7.294308E+03  4.122812E+05  4.724513E+03 -8.117405E+04
       129  23  2.332267E+05  2.875518E+03  1.229288E+04  3.525243E+05  1.104334E+04 -8.382167E+04
       129  24  2.356757E+05  2.169818E+04  2.544845E+04  4.122838E+05  1.742078E+04 -2.748256E+04
       129  25  1.568539E+06  3.172937E+05  2.639328E+05  4.104494E+05 -4.161405E+04 -8.118059E+04
       129  26  2.024530E+06  4.343851E+05  3.809521E+05  3.580226E+05  4.978807E+04 -8.380142E+04
       129  27  2.500860E+06  5.819036E+05  5.650896E+05  4.250997E+05  1.413207E+05 -2.751071E+04
       130   1 -4.631107E+05 -1.862620E+06 -4.533212E+05  4.787970E+05 -1.935361E+04 -1.019270E+05
       130   2 -3.043080E+05 -1.326206E+06 -2.736361E+05  4.034380E+05 -5.420998E+04 -2.713588E+04
       130   3 -1.717618E+05 -8.061402E+05 -1.493691E+05  4.650425E+05 -4.141252E+04  4.765480E+04
       130   4 -2.071356E+04 -8.054058E+04 -2.523861E+04  4.684223E+05 -1.916674E+04 -1.739108E+04
       130   5 -2.168113E+03 -7.798740E+04 -1.208349E+04  3.999222E+05 -5.416350E+04 -1.103207E+04
       130   6  2.067477E+03 -8.011798E+04 -6.711365E+03  4.683748E+05 -4.154837E+04 -4.739637E+03
       130   7  4.214567E+05  1.704468E+06  4.026453E+05  4.580150E+05 -1.898305E+04  6.738718E+04
       130   8  2.998721E+05  1.171707E+06  2.493834E+05  3.963979E+05 -5.411726E+04  5.103658E+03
       130   9  1.758664E+05  6.464156E+05  1.359312E+05  4.717107E+05 -4.168469E+04 -5.719410E+04
       130  10 -4.631139E+05 -1.862631E+06 -4.533414E+05  4.787954E+05 -8.727090E-10 -1.641578E-09
       130  11 -3.043114E+05 -1.326208E+06 -2.736430E+05  4.034368E+05 -8.509389E-10 -7.510367E-10
       130  12 -1.717643E+05 -8.061431E+05 -1.493766E+05  4.650441E+05  5.958029E-10  7.558811E-10
       130  13 -2.071404E+04 -8.054101E+04 -2.523987E+04  4.684220E+05 -8.782462E-10  6.267248E-12
       130  14 -2.171295E+03 -7.798831E+04 -1.208923E+04  3.999217E+05 -5.122654E-11  3.004648E-10
       130  15  2.065617E+03 -8.011846E+04 -6.714650E+03  4.683747E+05 -6.614952E-10  9.694107E-12
       130  16  4.214551E+05  1.704463E+06  4.026361E+05  4.580160E+05 -5.966937E-10  1.843985E-09
       130  17  2.998689E+05  1.171706E+06  2.493778E+05  3.963982E+05 -1.699909E-09  2.717166E-10
       130  18  1.758636E+05  6.464116E+05  1.359218E+05  4.717087E+05  4.290634E-11 -8.971229E-10
       130  19 -4.631107E+05 -1.862620E+06 -4.533212E+05  4.787970E+05  1.935361E+04  1.019270E+05
       130  20 -3.043080E+05 -1.326206E+06 -2.736361E+05  4.034380E+05  5.420998E+04  2.713588E+04
       130  21 -1.717618E+05 -8.061402E+05 -1.493691E+05  4.650425E+05  4.141252E+04 -4.765480E+04
       130  22 -2.071356E+04 -8.054058E+04 -2.523861E+04  4.684223E+05  1.916674E+04  1.739108E+04
       130  23 -2.168113E+03 -7.798740E+04 -1.208349E+04  3.999222E+05  5.416350E+04  1.103207E+04
       130  24  2.067477E+03 -8.011798E+04 -6.711365E+03  4.683748E+05  4.154837E+04  4.739637E+03
       130  25  4.214567E+05  1.704468E+06  4.026453E+05  4.580150E+05  1.898305E+04 -6.738718E+04
       130  26  2.998721E+05  1.171707E+06  2.493834E+05  3.963979E+05  5.411726E+04 -5.103658E+03
       130  27  1.758664E+05  6.464156E+05  1.359312E+05  4.717107E+05  4.168469E+04  5.719410E+04
       131   1 -8.658547E+04 -4.456054E+05 -7.820167E+04  4.686147E+05 -1.977127E+04  4.069355E+04
       131   2  4.014554E+04  8.293521E+04  2.726088E+04  3.995116E+05  1.094193E+04  4.133105E+04
       131   3  1.668141E+05  6.110308E+05  1.321028E+05  4.699647E+05  4.109102E+04  4.197451E+04
       131   4  1.318752E+03 -7.918920E+04 -5.211711E+03  4.689612E+05 -1.989260E+04 -3.925509E+03
       131   5  1.744572E+03 -7.879036E+04 -3.017735E+03  3.991811E+05  1.082609E+04 -2.492164E+03
       131   6  1.983771E+03 -7.924441E+04 -1.995023E+03  4.689592E+05  4.097988E+04 -1.053395E+03
       131   7  8.921583E+04  2.873596E+05  6.777902E+04  4.693077E+05 -2.001393E+04 -4.857038E+04
       131   8 -3.665688E+04 -2.404865E+05 -3.329027E+04  3.988507E+05  1.071027E+04 -4.630425E+04
       131   9 -1.628740E+05 -7.690584E+05 -1.361085E+05  4.679545E+05  4.086879E+04 -4.403456E+04
       131  10 -8.658634E+04 -4.456073E+05 -7.820553E+04  4.686153E+05  1.681541E-09 -2.485505E-08
       131  11  4.014496E+04  8.293334E+04  2.725745E+04  3.995112E+05  2.248862E-09  1.155267E-10
       131  12  1.668118E+05  6.110284E+05  1.320964E+05  4.699633E+05  1.068457E-09  2.521832E-08
       131  13  1.318323E+03 -7.918933E+04 -5.212483E+03  4.689611E+05  1.030124E-09 -1.253149E-11
       131  14  1.744445E+03 -7.879040E+04 -3.017967E+03  3.991811E+05  2.133794E-09  2.609262E-10
       131  15  1.981967E+03 -7.924486E+04 -1.998181E+03  4.689592E+05  1.496581E-09  4.165300E-11
       131  16  8.921476E+04  2.873569E+05  6.777384E+04  4.693069E+05  1.405430E-09  2.506228E-08
       131  17 -3.665758E+04 -2.404889E+05 -3.329451E+04  3.988511E+05  2.511396E-09 -1.240300E-10
       131  18 -1.628764E+05 -7.690609E+05 -1.361152E+05  4.679559E+05  6.507640E-11 -2.545643E-08
       131  19 -8.658547E+04 -4.456054E+05 -7.820167E+04  4.686147E+05  1.977127E+04 -4.069355E+04
       131  20  4.014554E+04  8.293521E+04  2.726088E+04  3.995116E+05 -1.094193E+04 -4.133105E+04
       131  21  1.668141E+05  6.110308E+05  1.321028E+05  4.699647E+05 -4.109102E+04 -4.197451E+04
       131  22  1.318752E+03 -7.918920E+04 -5.211711E+03  4.689612E+05  1.989260E+04  3.925509E+03
       131  23  1.744572E+03 -7.879036E+04 -3.017735E+03  3.991811E+05 -1.082609E+04  2.492164E+03
       131  24  1.983771E+03 -7.924441E+04 -1.995023E+03  4.689592E+05 -4.097988E+04  1.053395E+03
       131  25  8.921583E+04  2.873596E+05  6.777902E+04  4.693077E+05  2.001393E+04  4.857038E+04
       131  26 -3.665688E+04 -2.404865E+05 -3.329027E+04  3.988507E+05 -1.071027E+04  4.630425E+04
       131  27 -1.628740E+05 -7.690584E+05 -1.361085E+05  4.679545E+05 -4.086879E+04  4.403456E+04
       132   1  2.526602E+05  9.714199E+05  2.021595E+05  4.702060E+05  6.269415E+04  5.151995E+04
       132   2  3.803313E+05  1.493695E+06  3.244846E+05  4.018082E+05  7.104219E+04 -2.758997E+04
       132   3  5.212199E+05  2.029712E+06  5.014918E+05  4.698249E+05  2.390470E+04 -1.067041E+05
       132   4  1.858288E+03 -7.926248E+04 -1.721373E+03  4.682651E+05  6.256878E+04 -8.185599E+02
       132   5  7.410400E+02 -7.933869E+04 -1.779303E+03  4.000500E+05  7.111630E+04  1.318954E+02
       132   6 -1.012363E+03 -7.979256E+04 -2.679002E+03  4.682696E+05  2.411416E+04  1.146044E+03
       132   7 -2.490081E+05 -1.128880E+06 -2.056439E+05  4.663265E+05  6.244361E+04 -5.307057E+04
       132   8 -3.790058E+05 -1.650030E+06 -3.281753E+05  3.982944E+05  7.119039E+04  2.778484E+04
       132   9 -5.235604E+05 -2.185201E+06 -5.071199E+05  4.667163E+05  2.432354E+04  1.086322E+05
       132  10  2.526553E+05  9.714160E+05  2.021471E+05  4.702034E+05  4.587766E-10  1.094365E-09
       132  11  3.803256E+05  1.493693E+06  3.244737E+05  4.018097E+05 -1.806693E-09  6.457209E-10
       132  12  5.212162E+05  2.029699E+06  5.014694E+05  4.698269E+05 -2.420895E-10  1.442744E-09
       132  13  1.854084E+03 -7.926353E+04 -1.728731E+03  4.682651E+05 -5.503240E-10  3.785860E-11
       132  14  7.356093E+02 -7.934004E+04 -1.788807E+03  4.000500E+05 -7.088106E-10  3.204976E-10
       132  15 -1.012987E+03 -7.979272E+04 -2.680097E+03  4.682696E+05 -1.100217E-09  1.383376E-11
       132  16 -2.490131E+05 -1.128884E+06 -2.056566E+05  4.663292E+05  5.574102E-10 -9.751199E-10
       132  17 -3.790115E+05 -1.650032E+06 -3.281863E+05  3.982928E+05 -7.429542E-10 -6.286433E-10
       132  18 -5.235642E+05 -2.185214E+06 -5.071433E+05  4.667142E+05 -6.487696E-10 -1.341630E-09
       132  19  2.526602E+05  9.714199E+05  2.021595E+05  4.702060E+05 -6.269415E+04 -5.151995E+04
       132  20  3.803313E+05  1.493695E+06  3.244846E+05  4.018082E+05 -7.104219E+04  2.758997E+04
       132  21  5.212199E+05  2.029712E+06  5.014918E+05  4.698249E+05 -2.390470E+04  1.067041E+05
       132  22  1.858288E+03 -7.926248E+04 -1.721373E+03  4.682651E+05 -6.256878E+04  8.185599E+02
       132  23  7.410400E+02 -7.933869E+04 -1.779303E+03  4.000500E+05 -7.111630E+04 -1.318954E+02
       132  24 -1.012363E+03 -7.979256E+04 -2.679002E+03  4.682696E+05 -2.411416E+04 -1.146044E+03
       132  25 -2.490081E+05 -1.128880E+06 -2.056439E+05  4.663265E+05 -6.244361E+04  5.307057E+04
       132  26 -3.790058E+05 -1.650030E+06 -3.281753E+05  3.982944E+05 -7.119039E+04 -2.778484E+04
       132  27 -5.235604E+05 -2.185201E+06 -5.071199E+05  4.667163E+05 -2.432354E+04 -1.086322E+05
       133   1  2.475238E+06  5.691531E+05  5.556952E+05  3.930604E+05  1.509233E+05 -2.633282E+04
       133   2  2.046020E+06  4.184856E+05  3.743987E+05  3.258924E+05  5.917705E+04 -8.078248E+04
       133   3  1.640013E+06  3.100259E+05  2.632993E+05  3.656123E+05 -3.244624E+04 -7.981104E+04
       133   4  3.369768E+05  4.044173E+04  4.664337E+04  3.692457E+05  3.216702E+04 -2.629931E+04
       133   5  3.325971E+05  5.883907E+03  2.237889E+04  3.157953E+05  2.054166E+04 -8.079837E+04
       133   6  3.374373E+05 -2.730948E+02  1.284805E+04  3.692383E+05  8.972586E+03 -7.981082E+04
       133   7 -1.797070E+06 -4.885893E+05 -4.626756E+05  3.455124E+05 -8.618356E+04 -2.625675E+04
       133   8 -1.378043E+06 -4.069012E+05 -3.297924E+05  3.057260E+05 -1.798932E+04 -8.081307E+04
       133   9 -9.635060E+05 -3.106715E+05 -2.376750E+05  3.728560E+05  5.030668E+04 -7.981010E+04
       133  10  2.475213E+06  5.691462E+05  5.556513E+05  3.930636E+05 -1.086424E-10  7.888758E-11
       133  11  2.046015E+06  4.184776E+05  3.743799E+05  3.258962E+05 -4.978216E-10  4.510296E-10
       133  12  1.640011E+06  3.100187E+05  2.632853E+05  3.656102E+05  7.218407E-10  2.199080E-12
       133  13  3.369755E+05  4.044071E+04  4.664012E+04  3.692464E+05  5.092355E-10  2.626675E-10
       133  14  3.325949E+05  5.876781E+03  2.236582E+04  3.157967E+05  9.897064E-10  1.658474E-10
       133  15  3.374355E+05 -2.799581E+02  1.283593E+04  3.692389E+05  1.574744E-09  5.519018E-11
       133  16 -1.797078E+06 -4.885921E+05 -4.626909E+05  3.455106E+05  5.585062E-10 -2.843948E-10
       133  17 -1.378045E+06 -4.069083E+05 -3.298052E+05  3.057248E+05  5.677752E-10  1.386245E-10
       133  18 -9.635104E+05 -3.106790E+05 -2.376917E+05  3.728593E+05 -8.044583E-10  9.624766E-11
       133  19  2.475238E+06  5.691531E+05  5.556952E+05  3.930604E+05 -1.509233E+05  2.633282E+04
       133  20  2.046020E+06  4.184856E+05  3.743987E+05  3.258924E+05 -5.917705E+04  8.078248E+04
       133  21  1.640013E+06  3.100259E+05  2.632993E+05  3.656123E+05  3.244624E+04  7.981104E+04
       133  22  3.369768E+05  4.044173E+04  4.664337E+04  3.692457E+05 -3.216702E+04  2.629931E+04
       133  23  3.325971E+05  5.883907E+03  2.237889E+04  3.157953E+05 -2.054166E+04  8.079837E+04
       133  24  3.374373E+05 -2.730948E+02  1.284805E+04  3.692383E+05 -8.972586E+03  7.981082E+04
       133  25 -1.797070E+06 -4.885893E+05 -4.626756E+05  3.455124E+05  8.618356E+04  2.625675E+04
       133  26 -1.378043E+06 -4.069012E+05 -3.297924E+05  3.057260E+05  1.798932E+04  8.081307E+04
       133  27 -9.635060E+05 -3.106715E+05 -2.376750E+05  3.728560E+05 -5.030668E+04  7.981010E+04
       134   1  1.353621E+06  2.439361E+05  2.054011E+05  3.707041E+05 -2.437803E+04 -6.288497E+04
       134   2  9.360205E+05  1.429390E+05  1.196411E+05  3.152082E+05 -3.280511E+04 -3.912971E+04
       134   3  5.203203E+05  4.415982E+04  3.992052E+04  3.698118E+05 -4.123934E+04 -1.168701E+04
       134   4  3.356997E+05  1.497249E+03  1.011759E+04  3.699555E+05  7.222093E+03 -6.287804E+04
       134   5  3.353712E+05  2.213527E+02  6.255542E+03  3.149029E+05  4.107205E+03 -3.911176E+04
       134   6  3.358620E+05  2.537856E+02  4.753809E+03  3.699564E+05  9.798080E+02 -1.165589E+04
       134   7 -6.812237E+05 -2.410023E+05 -1.852097E+05  3.692078E+05  3.877169E+04 -6.287117E+04
       134   8 -2.649272E+05 -1.425166E+05 -1.071408E+05  3.145978E+05  4.098472E+04 -3.909383E+04
       134   9  1.514403E+05 -4.365330E+04 -3.040775E+04  3.701009E+05  4.318672E+04 -1.162474E+04
       134  10  1.353619E+06  2.439317E+05  2.053926E+05  3.707028E+05  6.237498E-11 -4.535493E-11
       134  11  9.360189E+05  1.429371E+05  1.196362E+05  3.152071E+05 -9.724236E-10  2.769924E-10
       134  12  5.203185E+05  4.415922E+04  3.991707E+04  3.698114E+05  2.962484E-10 -1.071849E-10
       134  13  3.356986E+05  1.492988E+03  1.011006E+04  3.699559E+05  1.555350E-09  1.858136E-12
       134  14  3.353708E+05  2.197051E+02  6.252635E+03  3.149030E+05  9.275353E-10  6.122781E-10
       134  15  3.358620E+05  2.536394E+02  4.753552E+03  3.699564E+05 -7.608885E-10 -2.800148E-11
       134  16 -6.812264E+05 -2.410069E+05 -1.852200E+05  3.692097E+05  1.043429E-09  2.327727E-10
       134  17 -2.649294E+05 -1.425187E+05 -1.071469E+05  3.145991E+05  8.430386E-11  2.668404E-10
       134  18  1.514383E+05 -4.365394E+04 -3.041150E+04  3.701013E+05 -6.822723E-10  7.894545E-11
       134  19  1.353621E+06  2.439361E+05  2.054011E+05  3.707041E+05  2.437803E+04  6.288497E+04
       134  20  9.360205E+05  1.429390E+05  1.196411E+05  3.152082E+05  3.280511E+04  3.912971E+04
       134  21  5.203203E+05  4.415982E+04  3.992052E+04  3.698118E+05  4.123934E+04  1.168701E+04
       134  22  3.356997E+05  1.497249E+03  1.011759E+04  3.699555E+05 -7.222093E+03  6.287804E+04
       134  23  3.353712E+05  2.213527E+02  6.255542E+03  3.149029E+05 -4.107205E+03  3.911176E+04
       134  24  3.358620E+05  2.537856E+02  4.753809E+03  3.699564E+05 -9.798080E+02  1.165589E+04
       134  25 -6.812237E+05 -2.410023E+05 -1.852097E+05  3.692078E+05 -3.877169E+04  6.287117E+04
       134  26 -2.649272E+05 -1.425166E+05 -1.071408E+05  3.145978E+05 -4.098472E+04  3.909383E+04
       134  27  1.514403E+05 -4.365330E+04 -3.040775E+04  3.701009E+05 -4.318672E+04  1.162474E+04
       135   1  2.380512E+05 -2.308914E+04 -1.453055E+04  3.700187E+05 -4.204054E+04  5.665919E+03
       135   2 -1.782649E+05 -1.219761E+05 -9.205964E+04  3.146112E+05 -3.954966E+04  3.319591E+04
       135   3 -5.946425E+05 -2.207588E+05 -1.711872E+05  3.693198E+05 -3.704975E+04  5.719604E+04
       135   4  3.358300E+05  2.793088E+02  4.562033E+03  3.699573E+05  1.421854E+02  5.697485E+03
       135   5  3.354341E+05  2.113710E+02  5.210026E+03  3.149019E+05 -2.462700E+03  3.321571E+04
       135   6  3.356912E+05  1.139931E+03  7.795750E+03  3.699567E+05 -5.056951E+03  5.720593E+04
       135   7  4.336217E+05  2.364814E+04  2.366085E+04  3.698958E+05  4.233140E+04  5.729038E+03
       135   8  8.493906E+05  1.223842E+05  1.024732E+05  3.151928E+05  3.465421E+04  3.323554E+04
       135   9  1.266860E+06  2.229879E+05  1.867427E+05  3.705942E+05  2.698272E+04  5.721587E+04
       135  10  2.380493E+05 -2.308965E+04 -1.453393E+04  3.700189E+05 -1.579537E-10 -1.705713E-10
       135  11 -1.782668E+05 -1.219777E+05 -9.206466E+04  3.146122E+05 -4.148509E-10 -3.139364E-10
       135  12 -5.946448E+05 -2.207626E+05 -1.711960E+05  3.693215E+05 -3.954430E-10  3.502329E-10
       135  13  3.358299E+05  2.792739E+02  4.561972E+03  3.699573E+05  5.427505E-10 -1.165940E-10
       135  14  3.354338E+05  2.101844E+02  5.207941E+03  3.149020E+05  7.234407E-10 -2.881986E-10
       135  15  3.356903E+05  1.136409E+03  7.789550E+03  3.699569E+05  4.380864E-10 -1.057651E-10
       135  16  4.336198E+05  2.364762E+04  2.365742E+04  3.698956E+05  3.727920E-10 -1.450654E-11
       135  17  8.493890E+05  1.223827E+05  1.024688E+05  3.151919E+05  4.130740E-10  2.821304E-10
       135  18  1.266858E+06  2.229842E+05  1.867351E+05  3.705930E+05  7.123557E-10 -5.940953E-11
       135  19  2.380512E+05 -2.308914E+04 -1.453055E+04  3.700187E+05  4.204054E+04 -5.665919E+03
       135  20 -1.782649E+05 -1.219761E+05 -9.205964E+04  3.146112E+05  3.954966E+04 -3.319591E+04
       135  21 -5.946425E+05 -2.207588E+05 -1.711872E+05  3.693198E+05  3.704975E+04 -5.719604E+04
       135  22  3.358300E+05  2.793088E+02  4.562033E+03  3.699573E+05 -1.421854E+02 -5.697485E+03
       135  23  3.354341E+05  2.113710E+02  5.210026E+03  3.149019E+05  2.462700E+03 -3.321571E+04
       135  24  3.356912E+05  1.139931E+03  7.795750E+03  3.699567E+05  5.056951E+03 -5.720593E+04
       135  25  4.336217E+05  2.364814E+04  2.366085E+04  3.698958E+05 -4.233140E+04 -5.729038E+03
       135  26  8.493906E+05  1.223842E+05  1.024732E+05  3.151928E+05 -3.465421E+04 -3.323554E+04
       135  27  1.266860E+06  2.229879E+05  1.867427E+05  3.705942E+05 -2.698272E+04 -5.721587E+04
       136   1 -8.773061E+05 -2.899625E+05 -2.244107E+05  3.718500E+05 -4.780947E+04  7.415227E+04
       136   2 -1.290932E+06 -3.877517E+05 -3.182042E+05  3.082863E+05  2.044330E+04  7.625962E+04
       136   3 -1.710810E+06 -4.778666E+05 -4.544597E+05  3.517761E+05  8.859955E+04  2.492950E+04
       136   4  3.369649E+05 -1.960339E+02  9.723317E+03  3.692708E+05 -6.406533E+03  7.415696E+04
       136   5  3.332853E+05  4.248659E+03  1.659774E+04  3.157562E+05 -1.497412E+04  7.624398E+04
       136   6  3.365289E+05  2.970623E+04  3.439286E+04  3.692743E+05 -2.359023E+04  2.495935E+04
       136   7  1.552658E+06  2.894838E+05  2.437954E+05  3.666859E+05  3.507562E+04  7.416130E+04
       136   8  1.960011E+06  3.960833E+05  3.512624E+05  3.232455E+05 -5.048267E+04  7.622753E+04
       136   9  2.387745E+06  5.369837E+05  5.229981E+05  3.868299E+05 -1.361490E+05  2.498289E+04
       136  10 -8.773100E+05 -2.899690E+05 -2.244254E+05  3.718529E+05  2.496765E-10  4.646106E-10
       136  11 -1.290934E+06 -3.877581E+05 -3.182159E+05  3.082850E+05 -5.604580E-10  1.768330E-10
       136  12 -1.710819E+06 -4.778693E+05 -4.544756E+05  3.517743E+05  5.168557E-10 -1.390933E-10
       136  13  3.369634E+05 -2.019515E+02  9.712903E+03  3.692712E+05  6.788120E-11  1.753250E-10
       136  14  3.332835E+05  4.242355E+03  1.658639E+04  3.157571E+05 -1.320148E-10  1.801884E-10
       136  15  3.365281E+05  2.970541E+04  3.439065E+04  3.692748E+05 -4.756330E-10 -1.205692E-10
       136  16  1.552656E+06  2.894775E+05  2.437828E+05  3.666838E+05 -2.473193E-10 -2.496693E-10
       136  17  1.960006E+06  3.960764E+05  3.512467E+05  3.232486E+05 -2.864614E-10  4.162243E-11
       136  18  2.387725E+06  5.369780E+05  5.229622E+05  3.868326E+05  1.853079E-10 -9.940253E-11
       136  19 -8.773061E+05 -2.899625E+05 -2.244107E+05  3.718500E+05  4.780947E+04 -7.415227E+04
       136  20 -1.290932E+06 -3.877517E+05 -3.182042E+05  3.082863E+05 -2.044330E+04 -7.625962E+04
       136  21 -1.710810E+06 -4.778666E+05 -4.544597E+05  3.517761E+05 -8.859955E+04 -2.492950E+04
       136  22  3.369649E+05 -1.960339E+02  9.723317E+03  3.692708E+05  6.406533E+03 -7.415696E+04
       136  23  3.332853E+05  4.248659E+03  1.659774E+04  3.157562E+05  1.497412E+04 -7.624398E+04
       136  24  3.365289E+05  2.970623E+04  3.439286E+04  3.692743E+05  2.359023E+04 -2.495935E+04
       136  25  1.552658E+06  2.894838E+05  2.437954E+05  3.666859E+05 -3.507562E+04 -7.416130E+04
       136  26  1.960011E+06  3.960833E+05  3.512624E+05  3.232455E+05  5.048267E+04 -7.622753E+04
       136  27  2.387745E+06  5.369837E+05  5.229981E+05  3.868299E+05  1.361490E+05 -2.498289E+04
       137   1 -4.870154E+05 -1.897086E+06 -4.775484E+05  4.949951E+05 -2.016444E+04 -1.113645E+05
       137   2 -3.182324E+05 -1.346652E+06 -2.885903E+05  4.153466E+05 -5.668818E+04 -3.196508E+04
       137   3 -1.812729E+05 -8.144903E+05 -1.594429E+05  4.760117E+05 -4.384910E+04  4.744523E+04
       137   4 -2.835549E+04 -4.937656E+04 -3.379444E+04  4.800751E+05 -1.998075E+04 -2.321893E+04
       137   5 -3.460292E+03 -4.605624E+04 -1.625103E+04  4.098933E+05 -5.664029E+04 -1.469669E+04
       137   6  1.992541E+03 -4.892562E+04 -9.174265E+03  4.800156E+05 -4.398163E+04 -6.235653E+03
       137   7  4.300611E+05  1.801483E+06  4.097465E+05  4.651077E+05 -1.980166E+04  6.518866E+04
       137   8  3.112037E+05  1.256142E+06  2.559954E+05  4.044271E+05 -5.659276E+04  2.607377E+03
       137   9  1.852242E+05  7.172074E+05  1.410769E+05  4.840241E+05 -4.411476E+04 -5.998137E+04
       137  10 -4.870192E+05 -1.897100E+06 -4.775725E+05  4.949932E+05 -5.975257E-10 -1.259705E-09
       137  11 -3.182362E+05 -1.346654E+06 -2.885983E+05  4.153452E+05 -1.058833E-09  1.284705E-09
       137  12 -1.812756E+05 -8.144932E+05 -1.594508E+05  4.760134E+05  1.815052E-11  1.556026E-09
       137  13 -2.835607E+04 -4.937725E+04 -3.379620E+04  4.800747E+05 -8.357967E-10 -3.439763E-10
       137  14 -3.463795E+03 -4.605734E+04 -1.625746E+04  4.098927E+05 -7.560128E-10 -2.745564E-11
       137  15  1.990454E+03 -4.892618E+04 -9.177972E+03  4.800154E+05 -1.281968E-09 -3.571847E-10
       137  16  4.300596E+05  1.801478E+06  4.097378E+05  4.651088E+05 -5.041383E-11  1.344685E-09
       137  17  3.112003E+05  1.256141E+06  2.559894E+05  4.044272E+05 -1.731858E-09 -1.717410E-09
       137  18  1.852211E+05  7.172030E+05  1.410665E+05  4.840220E+05 -9.865138E-10 -1.583590E-09
       137  19 -4.870154E+05 -1.897086E+06 -4.775484E+05  4.949951E+05  2.016444E+04  1.113645E+05
       137  20 -3.182324E+05 -1.346652E+06 -2.885903E+05  4.153466E+05  5.668818E+04  3.196508E+04
       137  21 -1.812729E+05 -8.144903E+05 -1.594429E+05  4.760117E+05  4.384910E+04 -4.744523E+04
       137  22 -2.835549E+04 -4.937656E+04 -3.379444E+04  4.800751E+05  1.998075E+04  2.321893E+04
       137  23 -3.460292E+03 -4.605624E+04 -1.625103E+04  4.098933E+05  5.664029E+04  1.469669E+04
       137  24  1.992541E+03 -4.892562E+04 -9.174265E+03  4.800156E+05  4.398163E+04  6.235653E+03
       137  25  4.300611E+05  1.801483E+06  4.097465E+05  4.651077E+05  1.980166E+04 -6.518866E+04
       137  26  3.112037E+05  1.256142E+06  2.559954E+05  4.044271E+05  5.659276E+04 -2.607377E+03
       137  27  1.852242E+05  7.172074E+05  1.410769E+05  4.840241E+05  4.411476E+04  5.998137E+04
       138   1 -9.424368E+04 -4.447607E+05 -8.609810E+04  4.803869E+05 -2.167633E+04  4.053107E+04
       138   2  3.587503E+04  9.690603E+04  2.251711E+04  4.094165E+05  9.759332E+03  4.198133E+04
       138   3  1.655443E+05  6.379700E+05  1.298921E+05  4.814474E+05  4.069224E+04  4.343768E+04
       138   4  9.679152E+02 -4.768973E+04 -7.225029E+03  4.806245E+05 -2.179511E+04 -5.081506E+03
       138   5  1.656049E+03 -4.721073E+04 -4.464509E+03  4.091218E+05  9.645491E+03 -2.924250E+03
       138   6  1.786797E+03 -4.774017E+04 -3.432696E+03  4.806223E+05  4.058253E+04 -7.621274E+02
       138   7  9.617100E+04  3.495365E+05  7.164803E+04  4.808621E+05 -2.191386E+04 -5.072267E+04
       138   8 -3.256305E+04 -1.913031E+05 -3.143945E+04  4.088272E+05  9.531675E+03 -4.781967E+04
       138   9 -1.619978E+05 -7.329951E+05 -1.367724E+05  4.797976E+05  4.047285E+04 -4.491423E+04
       138  10 -9.424463E+04 -4.447626E+05 -8.610207E+04  4.803877E+05 -1.003943E-10  5.963368E-11
       138  11  3.587446E+04  9.690411E+04  2.251362E+04  4.094162E+05 -6.502225E-10  2.385284E-09
       138  12  1.655420E+05  6.379676E+05  1.298855E+05  4.814460E+05  7.751971E-10  8.698265E-10
       138  13  9.673983E+02 -4.768989E+04 -7.225970E+03  4.806244E+05 -2.637734E-10 -5.104199E-10
       138  14  1.655946E+03 -4.721076E+04 -4.464700E+03  4.091218E+05  5.739829E-10 -2.858628E-11
       138  15  1.785028E+03 -4.774061E+04 -3.435792E+03  4.806223E+05  1.788911E-09 -4.034225E-10
       138  16  9.616980E+04  3.495336E+05  7.164230E+04  4.808612E+05  3.013410E-10  1.654205E-10
       138  17 -3.256377E+04 -1.913056E+05 -3.144392E+04  4.088275E+05  2.208853E-09 -2.153470E-09
       138  18 -1.620001E+05 -7.329977E+05 -1.367793E+05  4.797991E+05  2.606344E-10 -8.933179E-10
       138  19 -9.424368E+04 -4.447607E+05 -8.609810E+04  4.803869E+05  2.167633E+04 -4.053107E+04
       138  20  3.587503E+04  9.690603E+04  2.251711E+04  4.094165E+05 -9.759332E+03 -4.198133E+04
       138  21  1.655443E+05  6.379700E+05  1.298921E+05  4.814474E+05 -4.069224E+04 -4.343768E+04
       138  22  9.679152E+02 -4.768973E+04 -7.225029E+03  4.806245E+05  2.179511E+04  5.081506E+03
       138  23  1.656049E+03 -4.721073E+04 -4.464509E+03  4.091218E+05 -9.645491E+03  2.924250E+03
       138  24  1.786797E+03 -4.774017E+04 -3.432696E+03  4.806223E+05 -4.058253E+04  7.621274E+02
       138  25  9.617100E+04  3.495365E+05  7.164803E+04  4.808621E+05  2.191386E+04  5.072267E+04
       138  26 -3.256305E+04 -1.913031E+05 -3.143945E+04  4.088272E+05 -9.531675E+03  4.781967E+04
       138  27 -1.619978E+05 -7.329951E+05 -1.367724E+05  4.797976E+05 -4.047285E+04  4.491423E+04
       139   1  2.536433E+05  1.007096E+06  2.015256E+05  4.821160E+05  6.283213E+04  5.335049E+04
       139   2  3.838194E+05  1.542754E+06  3.258860E+05  4.106363E+05  7.166948E+04 -2.576821E+04
       139   3  5.247070E+05  2.091585E+06  5.043121E+05  4.789765E+05  2.418222E+04 -1.048990E+05
       139   4  1.797321E+03 -4.790312E+04 -3.294364E+03  4.799188E+05  6.270905E+04 -2.908097E+02
       139   5  4.468407E+01 -4.759192E+04 -4.101786E+03  4.100035E+05  7.174061E+04  1.864079E+03
       139   6 -5.062910E+03 -4.845238E+04 -7.208030E+03  4.799304E+05  2.438138E+04  4.076326E+03
       139   7 -2.501136E+05 -1.101828E+06 -2.081561E+05  4.777244E+05  6.258621E+04 -5.384310E+04
       139   8 -3.838903E+05 -1.635544E+06 -3.342249E+05  4.093705E+05  7.181180E+04  2.942691E+04
       139   9 -5.351578E+05 -2.184275E+06 -5.190066E+05  4.808777E+05  2.458133E+04  1.126786E+05
       139  10  2.536383E+05  1.007092E+06  2.015129E+05  4.821133E+05  1.129518E-09 -9.568299E-10
       139  11  3.838137E+05  1.542752E+06  3.258751E+05  4.106377E+05 -9.358100E-10  8.536424E-10
       139  12  5.247034E+05  2.091573E+06  5.042904E+05  4.789786E+05 -1.216448E-10  5.395041E-10
       139  13  1.793098E+03 -4.790418E+04 -3.301754E+03  4.799188E+05  5.680105E-10 -4.906658E-10
       139  14  3.915670E+01 -4.759330E+04 -4.111463E+03  4.100034E+05  7.171740E-10 -8.312697E-12
       139  15 -5.063553E+03 -4.845256E+04 -7.209178E+03  4.799303E+05  3.726261E-10 -1.914683E-10
       139  16 -2.501186E+05 -1.101833E+06 -2.081689E+05  4.777271E+05  9.310669E-10  1.001653E-09
       139  17 -3.838960E+05 -1.635547E+06 -3.342362E+05  4.093687E+05 -3.478775E-10 -7.246043E-10
       139  18 -5.351619E+05 -2.184289E+06 -5.190316E+05  4.808754E+05 -6.568564E-10 -2.788700E-10
       139  19  2.536433E+05  1.007096E+06  2.015256E+05  4.821160E+05 -6.283213E+04 -5.335049E+04
       139  20  3.838194E+05  1.542754E+06  3.258860E+05  4.106363E+05 -7.166948E+04  2.576821E+04
       139  21  5.247070E+05  2.091585E+06  5.043121E+05  4.789765E+05 -2.418222E+04  1.048990E+05
       139  22  1.797321E+03 -4.790312E+04 -3.294364E+03  4.799188E+05 -6.270905E+04  2.908097E+02
       139  23  4.468407E+01 -4.759192E+04 -4.101786E+03  4.100035E+05 -7.174061E+04 -1.864079E+03
       139  24 -5.062910E+03 -4.845238E+04 -7.208030E+03  4.799304E+05 -2.438138E+04 -4.076326E+03
       139  25 -2.501136E+05 -1.101828E+06 -2.081561E+05  4.777244E+05 -6.258621E+04  5.384310E+04
       139  26 -3.838903E+05 -1.635544E+06 -3.342249E+05  4.093705E+05 -7.181180E+04 -2.942691E+04
       139  27 -5.351578E+05 -2.184275E+06 -5.190066E+05  4.808777E+05 -2.458133E+04 -1.126786E+05
       140   1  2.355309E+06  5.246757E+05  5.130642E+05  3.622224E+05  1.417859E+05 -2.401683E+04
       140   2  1.962725E+06  3.826418E+05  3.444542E+05  2.990331E+05  5.656480E+04 -7.367621E+04
       140   3  1.592338E+06  2.826864E+05  2.417655E+05  3.335135E+05 -2.855511E+04 -7.275973E+04
       140   4  4.042990E+05  4.224634E+04  4.856847E+04  3.373119E+05  3.347232E+04 -2.398964E+04
       140   5  3.997656E+05  6.264578E+03  2.332992E+04  2.884716E+05  2.135270E+04 -7.368954E+04
       140   6  4.046856E+05 -2.351320E+02  1.340544E+04  3.373049E+05  9.279712E+03 -7.275959E+04
       140   7 -1.543201E+06 -4.404487E+05 -4.161496E+05  3.124793E+05 -7.450364E+04 -2.395382E+04
       140   8 -1.160878E+06 -3.702652E+05 -2.979204E+05  2.779367E+05 -1.377259E+04 -7.370171E+04
       140   9 -7.816094E+05 -2.832393E+05 -2.150143E+05  3.410884E+05  4.704395E+04 -7.275898E+04
       140  10  2.355287E+06  5.246697E+05  5.130254E+05  3.622252E+05  3.227451E-09  1.759853E-10
       140  11  1.962720E+06  3.826351E+05  3.444380E+05  2.990364E+05 -9.513050E-09 -4.551484E-11
       140  12  1.592336E+06  2.826805E+05  2.417540E+05  3.335118E+05 -2.013237E-08 -1.328015E-09
       140  13  4.042977E+05  4.224542E+04  4.856528E+04  3.373126E+05 -1.166068E-11 -1.983619E-11
       140  14  3.997637E+05  6.258623E+03  2.331885E+04  2.884729E+05  5.656302E-10 -6.216826E-10
       140  15  4.046841E+05 -2.408414E+02  1.339533E+04  3.373054E+05 -8.571813E-10 -1.285931E-09
       140  16 -1.543208E+06 -4.404508E+05 -4.161611E+05  3.124778E+05 -3.536452E-09  1.298060E-10
       140  17 -1.160879E+06 -3.702711E+05 -2.979310E+05  2.779359E+05  7.734225E-09 -6.276027E-10
       140  18 -7.816132E+05 -2.832456E+05 -2.150284E+05  3.410912E+05  1.968421E-08 -1.318893E-09
       140  19  2.355309E+06  5.246757E+05  5.130642E+05  3.622224E+05 -1.417859E+05  2.401683E+04
       140  20  1.962725E+06  3.826418E+05  3.444542E+05  2.990331E+05 -5.656480E+04  7.367621E+04
       140  21  1.592338E+06  2.826864E+05  2.417655E+05  3.335135E+05  2.855511E+04  7.275973E+04
       140  22  4.042990E+05  4.224634E+04  4.856847E+04  3.373119E+05 -3.347232E+04  2.398964E+04
       140  23  3.997656E+05  6.264578E+03  2.332992E+04  2.884716E+05 -2.135270E+04  7.368954E+04
       140  24  4.046856E+05 -2.351320E+02  1.340544E+04  3.373049E+05 -9.279712E+03  7.275959E+04
       140  25 -1.543201E+06 -4.404487E+05 -4.161496E+05  3.124793E+05  7.450364E+04  2.395382E+04
       140  26 -1.160878E+06 -3.702652E+05 -2.979204E+05  2.779367E+05  1.377259E+04  7.370171E+04
       140  27 -7.816094E+05 -2.832393E+05 -2.150143E+05  3.410884E+05 -4.704395E+04  7.275898E+04
       141   1  1.330536E+06  2.225082E+05  1.885522E+05  3.386970E+05 -2.142031E+04 -5.729812E+04
       141   2  9.490387E+05  1.300537E+05  1.097739E+05  2.879603E+05 -2.955726E+04 -3.559357E+04
       141   3  5.693612E+05  3.979308E+04  3.684045E+04  3.377902E+05 -3.769976E+04 -1.052489E+04
       141   4  4.028791E+05  1.570741E+03  1.058191E+04  3.379520E+05  7.454559E+03 -5.729236E+04
       141   5  4.025260E+05  2.036701E+02  6.606686E+03  2.876664E+05  4.164730E+03 -3.557866E+04
       141   6  4.030142E+05  1.984036E+02  5.117871E+03  3.379529E+05  8.645579E+02 -1.049904E+04
       141   7 -5.239495E+05 -2.194171E+05 -1.674247E+05  3.372079E+05  3.628735E+04 -5.728665E+04
       141   8 -1.436963E+05 -1.296632E+05 -9.656942E+04  2.873727E+05  3.785779E+04 -3.556377E+04
       141   9  2.366971E+05 -3.939710E+04 -2.660038E+04  3.381155E+05  3.941880E+04 -1.047317E+04
       141  10  1.330535E+06  2.225046E+05  1.885452E+05  3.386960E+05  2.047016E-08 -1.372957E-09
       141  11  9.490374E+05  1.300521E+05  1.097699E+05  2.879595E+05  8.076298E-09 -4.331562E-10
       141  12  5.693596E+05  3.979258E+04  3.683758E+04  3.377899E+05 -3.887121E-09  5.282921E-10
       141  13  4.028781E+05  1.567201E+03  1.057564E+04  3.379524E+05  4.497160E-10 -1.538767E-09
       141  14  4.025256E+05  2.023058E+02  6.604274E+03  2.876665E+05 -7.368896E-10 -4.294558E-10
       141  15  4.030142E+05  1.982850E+02  5.117662E+03  3.379529E+05 -1.939360E-10  6.042702E-10
       141  16 -5.239518E+05 -2.194210E+05 -1.674334E+05  3.372096E+05 -2.072373E-08 -1.550762E-09
       141  17 -1.436981E+05 -1.296649E+05 -9.657449E+04  2.873738E+05 -9.063364E-09 -1.099600E-09
       141  18  2.366954E+05 -3.939763E+04 -2.660350E+04  3.381158E+05  4.085069E-09  1.871718E-10
       141  19  1.330536E+06  2.225082E+05  1.885522E+05  3.386970E+05  2.142031E+04  5.729812E+04
       141  20  9.490387E+05  1.300537E+05  1.097739E+05  2.879603E+05  2.955726E+04  3.559357E+04
       141  21  5.693612E+05  3.979308E+04  3.684045E+04  3.377902E+05  3.769976E+04  1.052489E+04
       141  22  4.028791E+05  1.570741E+03  1.058191E+04  3.379520E+05 -7.454559E+03  5.729236E+04
       141  23  4.025260E+05  2.036701E+02  6.606686E+03  2.876664E+05 -4.164730E+03  3.557866E+04
       141  24  4.030142E+05  1.984036E+02  5.117871E+03  3.379529E+05 -8.645579E+02  1.049904E+04
       141  25 -5.239495E+05 -2.194171E+05 -1.674247E+05  3.372079E+05 -3.628735E+04  5.728665E+04
       141  26 -1.436963E+05 -1.296632E+05 -9.656942E+04  2.873727E+05 -3.785779E+04  3.556377E+04
       141  27  2.366971E+05 -3.939710E+04 -2.660038E+04  3.381155E+05 -3.941880E+04  1.047317E+04
       142   1  3.115345E+05 -2.163385E+04 -1.285876E+04  3.380575E+05 -3.857202E+04  5.325063E+03
       142   2 -6.882263E+04 -1.119146E+05 -8.340616E+04  2.873818E+05 -3.682826E+04  3.046791E+04
       142   3 -4.491226E+05 -2.018762E+05 -1.550096E+05  3.372902E+05 -3.507663E+04  5.238307E+04
       142   4  4.029907E+05  2.174784E+02  4.976772E+03  3.379544E+05 -3.877153E+01  5.351264E+03
       142   5  4.025734E+05  1.981339E+02  5.837819E+03  2.876646E+05 -2.954719E+03  3.048428E+04
       142   6  4.028741E+05  1.311307E+03  8.874304E+03  3.379537E+05 -5.861722E+03  5.239115E+04
       142   7  4.944580E+05  2.206911E+04  2.281748E+04  3.378513E+05  3.850003E+04  5.377449E+03
       142   8  8.741863E+05  1.122985E+05  9.507625E+04  2.879475E+05  3.094391E+04  3.050067E+04
       142   9  1.255571E+06  2.044563E+05  1.727280E+05  3.386180E+05  2.339238E+04  5.239928E+04
       142  10  3.115329E+05 -2.163428E+04 -1.286160E+04  3.380576E+05  9.391889E-10  5.906566E-10
       142  11 -6.882434E+04 -1.119159E+05 -8.341046E+04  2.873827E+05 -6.841829E-10  1.027381E-09
       142  12 -4.491247E+05 -2.018795E+05 -1.550171E+05  3.372917E+05  2.183718E-10  8.145595E-10
       142  13  4.029906E+05  2.174477E+02  4.976718E+03  3.379544E+05  5.260314E-10  5.323186E-10
       142  14  4.025731E+05  1.971334E+02  5.836056E+03  2.876647E+05  1.256424E-10  3.048513E-10
       142  15  4.028734E+05  1.308349E+03  8.869079E+03  3.379540E+05  1.365345E-09  7.861846E-10
       142  16  4.944564E+05  2.206868E+04  2.281464E+04  3.378512E+05 -6.258484E-10  4.728026E-10
       142  17  8.741850E+05  1.122972E+05  9.507271E+04  2.879468E+05  3.076101E-10  5.379457E-10
       142  18  1.255570E+06  2.044532E+05  1.727218E+05  3.386170E+05  3.189485E-10  7.135892E-10
       142  19  3.115345E+05 -2.163385E+04 -1.285876E+04  3.380575E+05  3.857202E+04 -5.325063E+03
       142  20 -6.882263E+04 -1.119146E+05 -8.340616E+04  2.873818E+05  3.682826E+04 -3.046791E+04
       142  21 -4.491226E+05 -2.018762E+05 -1.550096E+05  3.372902E+05  3.507663E+04 -5.238307E+04
       142  22  4.029907E+05  2.174784E+02  4.976772E+03  3.379544E+05  3.877153E+01 -5.351264E+03
       142  23  4.025734E+05  1.981339E+02  5.837819E+03  2.876646E+05  2.954719E+03 -3.048428E+04
       142  24  4.028741E+05  1.311307E+03  8.874304E+03  3.379537E+05  5.861722E+03 -5.239115E+04
       142  25  4.944580E+05  2.206911E+04  2.281748E+04  3.378513E+05 -3.850003E+04 -5.377449E+03
       142  26  8.741863E+05  1.122985E+05  9.507625E+04  2.879475E+05 -3.094391E+04 -3.050067E+04
       142  27  1.255571E+06  2.044563E+05  1.727280E+05  3.386180E+05 -2.339238E+04 -5.239928E+04
       143   1 -7.070604E+05 -2.653537E+05 -2.031539E+05  3.403421E+05 -4.521297E+04  6.787007E+04
       143   2 -1.085675E+06 -3.535036E+05 -2.871639E+05  2.798189E+05  1.517766E+04  6.976641E+04
       143   3 -1.468596E+06 -4.297998E+05 -4.074773E+05  3.170743E+05  7.549060E+04  2.280606E+04
       143   4  4.043393E+05 -1.743589E+02  1.110729E+04  3.373252E+05 -7.392285E+03  6.787382E+04
       143   5  4.002757E+05  5.067113E+03  1.907866E+04  2.884471E+05 -1.725792E+04  6.975350E+04
       143   6  4.039722E+05  3.435518E+04  3.955866E+04  3.373291E+05 -2.716463E+04  2.283195E+04
       143   7  1.516930E+06  2.649325E+05  2.253166E+05  3.343024E+05  3.049462E+04  6.787720E+04
       143   8  1.888325E+06  3.634992E+05  3.252064E+05  2.970959E+05 -4.976983E+04  6.973971E+04
       143   9  2.279783E+06  4.982638E+05  4.863879E+05  3.576447E+05 -1.301285E+05  2.285115E+04
       143  10 -7.070638E+05 -2.653592E+05 -2.031664E+05  3.403446E+05  1.827956E-09  6.314652E-10
       143  11 -1.085676E+06 -3.535088E+05 -2.871734E+05  2.798181E+05 -6.062860E-10  1.860182E-10
       143  12 -1.468602E+06 -4.298019E+05 -4.074891E+05  3.170729E+05 -6.392388E-10  1.431288E-10
       143  13  4.043380E+05 -1.793218E+02  1.109853E+04  3.373256E+05  1.211791E-09  6.723809E-10
       143  14  4.002741E+05  5.061807E+03  1.906896E+04  2.884481E+05 -1.203242E-09 -2.447831E-10
       143  15  4.039713E+05  3.435442E+04  3.955630E+04  3.373296E+05 -1.177304E-10  5.355826E-11
       143  16  1.516928E+06  2.649273E+05  2.253062E+05  3.343007E+05  3.615358E-10  6.335465E-10
       143  17  1.888321E+06  3.634933E+05  3.251926E+05  2.970987E+05  1.207445E-09  1.858345E-11
       143  18  2.279765E+06  4.982587E+05  4.863552E+05  3.576471E+05 -1.975094E-10  1.509526E-10
       143  19 -7.070604E+05 -2.653537E+05 -2.031539E+05  3.403421E+05  4.521297E+04 -6.787007E+04
       143  20 -1.085675E+06 -3.535036E+05 -2.871639E+05  2.798189E+05 -1.517766E+04 -6.976641E+04
       143  21 -1.468596E+06 -4.297998E+05 -4.074773E+05  3.170743E+05 -7.549060E+04 -2.280606E+04
       143  22  4.043393E+05 -1.743589E+02  1.110729E+04  3.373252E+05  7.392285E+03 -6.787382E+04
       143  23  4.002757E+05  5.067113E+03  1.907866E+04  2.884471E+05  1.725792E+04 -6.975350E+04
       143  24  4.039722E+05  3.435518E+04  3.955866E+04  3.373291E+05  2.716463E+04 -2.283195E+04
       143  25  1.516930E+06  2.649325E+05  2.253166E+05  3.343024E+05 -3.049462E+04 -6.787720E+04
       143  26  1.888325E+06  3.634992E+05  3.252064E+05  2.970959E+05  4.976983E+04 -6.973971E+04
       143  27  2.279783E+06  4.982638E+05  4.863879E+05  3.576447E+05  1.301285E+05 -2.285115E+04
       144   1 -4.720556E+05 -1.785678E+06 -4.637895E+05  4.721276E+05 -1.933767E+04 -1.120712E+05
       144   2 -3.063860E+05 -1.264813E+06 -2.804501E+05  3.943842E+05 -5.454537E+04 -3.429784E+04
       144   3 -1.758593E+05 -7.628290E+05 -1.566754E+05  4.491709E+05 -4.265867E+04  4.348881E+04
       144   4 -3.410725E+04 -2.114719E+04 -4.012903E+04  4.536038E+05 -1.917290E+04 -2.746126E+04
       144   5 -4.512950E+03 -1.727661E+04 -1.939824E+04  3.873091E+05 -5.450128E+04 -1.731427E+04
       144   6  1.753528E+03 -2.073891E+04 -1.115373E+04  4.535382E+05 -4.277544E+04 -7.220892E+03
       144   7  4.036199E+05  1.746256E+06  3.833376E+05  4.350247E+05 -1.901349E+04  5.738881E+04
       144   8  2.972608E+05  1.231734E+06  2.415683E+05  3.802184E+05 -5.445763E+04 -2.970559E+02
       144   9  1.793346E+05  7.218850E+05  1.343510E+05  4.579103E+05 -4.289283E+04 -5.798996E+04
       144  10 -4.720594E+05 -1.785691E+06 -4.638138E+05  4.721259E+05 -3.817329E-10 -3.834906E-10
       144  11 -3.063895E+05 -1.264815E+06 -2.804579E+05  3.943827E+05  1.633371E-10 -8.622270E-10
       144  12 -1.758618E+05 -7.628316E+05 -1.566824E+05  4.491724E+05  1.425649E-10 -4.342336E-10
       144  13 -3.410784E+04 -2.114810E+04 -4.013114E+04  4.536033E+05 -5.156434E-11  1.415251E-11
       144  14 -4.516219E+03 -1.727773E+04 -1.940439E+04  3.873083E+05 -9.740559E-10 -7.547839E-10
       144  15  1.751550E+03 -2.073946E+04 -1.115727E+04  4.535379E+05 -1.641461E-09  1.008184E-10
       144  16  4.036186E+05  1.746252E+06  3.833307E+05  4.350255E+05 -6.541341E-10  1.260019E-09
       144  17  2.972576E+05  1.231734E+06  2.415628E+05  3.802184E+05 -1.810108E-09  2.015830E-10
       144  18  1.793317E+05  7.218809E+05  1.343413E+05  4.579083E+05 -1.772024E-10 -2.768564E-10
       144  19 -4.720556E+05 -1.785678E+06 -4.637895E+05  4.721276E+05  1.933767E+04  1.120712E+05
       144  20 -3.063860E+05 -1.264813E+06 -2.804501E+05  3.943842E+05  5.454537E+04  3.429784E+04
       144  21 -1.758593E+05 -7.628290E+05 -1.566754E+05  4.491709E+05  4.265867E+04 -4.348881E+04
       144  22 -3.410725E+04 -2.114719E+04 -4.012903E+04  4.536038E+05  1.917290E+04  2.746126E+04
       144  23 -4.512950E+03 -1.727661E+04 -1.939824E+04  3.873091E+05  5.450128E+04  1.731427E+04
       144  24  1.753528E+03 -2.073891E+04 -1.115373E+04  4.535382E+05  4.277544E+04  7.220892E+03
       144  25  4.036199E+05  1.746256E+06  3.833376E+05  4.350247E+05  1.901349E+04 -5.738881E+04
       144  26  2.972608E+05  1.231734E+06  2.415683E+05  3.802184E+05  5.445763E+04  2.970559E+02
       144  27  1.793346E+05  7.218850E+05  1.343510E+05  4.579103E+05  4.289283E+04  5.798996E+04
       145   1 -9.390690E+04 -4.132242E+05 -8.699006E+04  4.540477E+05 -2.171387E+04  3.722385E+04
       145   2  2.927646E+04  9.860992E+04  1.606671E+04  3.868070E+05  7.953606E+03  3.953207E+04
       145   3  1.515833E+05  6.096608E+05  1.172391E+05  4.546635E+05  3.721168E+04  4.184586E+04
       145   4  5.135556E+02 -1.928370E+04 -8.923975E+03  4.541204E+05 -2.181858E+04 -5.774467E+03
       145   5  1.414549E+03 -1.873536E+04 -5.902601E+03  3.865699E+05  7.852732E+03 -2.891554E+03
       145   6  1.352488E+03 -1.932252E+04 -5.162255E+03  4.541182E+05  3.711394E+04 -4.902121E+00
       145   7  9.492555E+04  3.748093E+05  6.914139E+04  4.541929E+05 -2.192325E+04 -4.879951E+04
       145   8 -2.644719E+04 -1.360635E+05 -2.786575E+04  3.863329E+05  7.751879E+03 -4.530736E+04
       145   9 -1.489010E+05 -6.479225E+05 -1.275758E+05  4.535732E+05  3.701621E+04 -4.181423E+04
       145  10 -9.390778E+04 -4.132258E+05 -8.699356E+04  4.540484E+05 -1.418526E-10  4.464682E-09
       145  11  2.927598E+04  9.860823E+04  1.606366E+04  3.868068E+05 -4.446453E-10 -8.706524E-09
       145  12  1.515813E+05  6.096585E+05  1.172332E+05  4.546622E+05  7.358284E-10 -1.920202E-08
       145  13  5.130356E+02 -1.928386E+04 -8.924932E+03  4.541203E+05 -2.995335E-10 -3.090149E-11
       145  14  1.414481E+03 -1.873538E+04 -5.902732E+03  3.865699E+05  2.343212E-09 -9.691592E-10
       145  15  1.351009E+03 -1.932289E+04 -5.164843E+03  4.541182E+05  1.053300E-09  8.957186E-11
       145  16  9.492440E+04  3.748066E+05  6.913602E+04  4.541920E+05 -5.679676E-10 -3.042547E-09
       145  17 -2.644781E+04 -1.360657E+05 -2.786972E+04  3.863332E+05  4.536811E-10  8.466310E-09
       145  18 -1.489030E+05 -6.479248E+05 -1.275816E+05  4.535745E+05  2.587090E-10  1.848631E-08
       145  19 -9.390690E+04 -4.132242E+05 -8.699006E+04  4.540477E+05  2.171387E+04 -3.722385E+04
       145  20  2.927646E+04  9.860992E+04  1.606671E+04  3.868070E+05 -7.953606E+03 -3.953207E+04
       145  21  1.515833E+05  6.096608E+05  1.172391E+05  4.546635E+05 -3.721168E+04 -4.184586E+04
       145  22  5.135556E+02 -1.928370E+04 -8.923975E+03  4.541204E+05  2.181858E+04  5.774467E+03
       145  23  1.414549E+03 -1.873536E+04 -5.902601E+03  3.865699E+05 -7.852732E+03  2.891554E+03
       145  24  1.352488E+03 -1.932252E+04 -5.162255E+03  4.541182E+05 -3.711394E+04  4.902121E+00
       145  25  9.492555E+04  3.748093E+05  6.914139E+04  4.541929E+05  2.192325E+04  4.879951E+04
       145  26 -2.644719E+04 -1.360635E+05 -2.786575E+04  3.863329E+05 -7.751879E+03  4.530736E+04
       145  27 -1.489010E+05 -6.479225E+05 -1.275758E+05  4.535732E+05 -3.701621E+04  4.181423E+04
       146   1  2.350470E+05  9.581092E+05  1.846129E+05  4.559427E+05  5.813136E+04  5.144735E+04
       146   2  3.570720E+05  1.464864E+06  3.006367E+05  3.862914E+05  6.673121E+04 -2.083074E+04
       146   3  4.848818E+05  1.982645E+06  4.650544E+05  4.487661E+05  2.257668E+04 -9.311791E+04
       146   4  1.599173E+03 -1.971400E+04 -5.323653E+03  4.534599E+05  5.802174E+04  7.643150E+02
       146   5 -9.786758E+02 -1.875602E+04 -7.346279E+03  3.873967E+05  6.679279E+04  4.596747E+03
       146   6 -1.095244E+04 -2.019813E+04 -1.376525E+04  4.534808E+05  2.275114E+04  8.479739E+03
       146   7 -2.319044E+05 -9.966145E+05 -1.952957E+05  4.509802E+05  5.791241E+04 -4.984076E+04
       146   8 -3.591689E+05 -1.500293E+06 -3.154471E+05  3.884977E+05  6.685455E+04  2.996459E+04
       146   9 -5.070713E+05 -2.019350E+06 -4.928291E+05  4.581775E+05  2.292752E+04  1.097518E+05
       146  10  2.350426E+05  9.581054E+05  1.846016E+05  4.559403E+05  1.066161E-09  2.042113E-08
       146  11  3.570671E+05  1.464862E+06  3.006275E+05  3.862925E+05  5.831966E-10  8.342884E-09
       146  12  4.848789E+05  1.982636E+06  4.650372E+05  4.487678E+05 -7.763496E-11 -4.203786E-09
       146  13  1.595558E+03 -1.971491E+04 -5.329980E+03  4.534598E+05  5.676608E-10 -1.673200E-11
       146  14 -9.834718E+02 -1.875724E+04 -7.354701E+03  3.873964E+05 -6.291859E-10 -7.232491E-10
       146  15 -1.095301E+04 -2.019835E+04 -1.376636E+04  4.534806E+05  1.213781E-10  7.435894E-11
       146  16 -2.319087E+05 -9.966180E+05 -1.953067E+05  4.509825E+05  8.789711E-10 -1.919824E-08
       146  17 -3.591739E+05 -1.500295E+06 -3.154572E+05  3.884961E+05 -1.483199E-10 -8.456005E-09
       146  18 -5.070751E+05 -2.019363E+06 -4.928528E+05  4.581755E+05  5.706763E-12  3.666451E-09
       146  19  2.350470E+05  9.581092E+05  1.846129E+05  4.559427E+05 -5.813136E+04 -5.144735E+04
       146  20  3.570720E+05  1.464864E+06  3.006367E+05  3.862914E+05 -6.673121E+04  2.083074E+04
       146  21  4.848818E+05  1.982645E+06  4.650544E+05  4.487661E+05 -2.257668E+04  9.311791E+04
       146  22  1.599173E+03 -1.971400E+04 -5.323653E+03  4.534599E+05 -5.802174E+04 -7.643150E+02
       146  23 -9.786758E+02 -1.875602E+04 -7.346279E+03  3.873967E+05 -6.679279E+04 -4.596747E+03
       146  24 -1.095244E+04 -2.019813E+04 -1.376525E+04  4.534808E+05 -2.275114E+04 -8.479739E+03
       146  25 -2.319044E+05 -9.966145E+05 -1.952957E+05  4.509802E+05 -5.791241E+04  4.984076E+04
       146  26 -3.591689E+05 -1.500293E+06 -3.154471E+05  3.884977E+05 -6.685455E+04 -2.996459E+04
       146  27 -5.070713E+05 -2.019350E+06 -4.928291E+05  4.581775E+05 -2.292752E+04 -1.097518E+05
       147   1  2.248271E+06  4.873508E+05  4.772596E+05  3.373881E+05  1.338876E+05 -2.206883E+04
       147   2  1.885070E+06  3.524560E+05  3.191409E+05  2.774663E+05  5.416735E+04 -6.766855E+04
       147   3  1.543194E+06  2.593633E+05  2.232985E+05  3.078138E+05 -2.546507E+04 -6.672047E+04
       147   4  4.532817E+05  4.347920E+04  4.987060E+04  3.117232E+05  3.436483E+04 -2.204689E+04
       147   5  4.486473E+05  6.534436E+03  2.396743E+04  2.665842E+05  2.191360E+04 -6.768003E+04
       147   6  4.536126E+05 -2.024786E+02  1.376624E+04  3.117166E+05  9.501909E+03 -6.672017E+04
       147   7 -1.338737E+06 -4.006167E+05 -3.777067E+05  2.861322E+05 -6.487242E+04 -2.201677E+04
       147   8 -9.858195E+05 -3.395159E+05 -2.713126E+05  2.557273E+05 -1.026708E+04 -6.769041E+04
       147   9 -6.348259E+05 -2.598378E+05 -1.958162E+05  3.156122E+05  4.440905E+04 -6.671942E+04
       147  10  2.248252E+06  4.873455E+05  4.772252E+05  3.373905E+05  1.944487E-09 -7.070313E-10
       147  11  1.885066E+06  3.524503E+05  3.191268E+05  2.774693E+05 -3.742421E-10 -1.397596E-09
       147  12  1.543192E+06  2.593583E+05  2.232889E+05  3.078124E+05  3.712246E-09 -6.019503E-10
       147  13  4.532803E+05  4.347836E+04  4.986746E+04  3.117238E+05 -8.892924E-12 -4.921366E-10
       147  14  4.486456E+05  6.529387E+03  2.395791E+04  2.665854E+05  7.682622E-10 -6.861654E-10
       147  15  4.536113E+05 -2.072845E+02  1.375770E+04  3.117171E+05 -8.816479E-10 -1.027905E-10
       147  16 -1.338741E+06 -4.006184E+05 -3.777155E+05  2.861310E+05 -2.524958E-09 -2.750869E-10
       147  17 -9.858208E+05 -3.395209E+05 -2.713214E+05  2.557268E+05 -9.836068E-10 -5.658073E-10
       147  18 -6.348293E+05 -2.598431E+05 -1.958283E+05  3.156145E+05 -2.230852E-09  4.206049E-10
       147  19  2.248271E+06  4.873508E+05  4.772596E+05  3.373881E+05 -1.338876E+05  2.206883E+04
       147  20  1.885070E+06  3.524560E+05  3.191409E+05  2.774663E+05 -5.416735E+04  6.766855E+04
       147  21  1.543194E+06  2.593633E+05  2.232985E+05  3.078138E+05  2.546507E+04  6.672047E+04
       147  22  4.532817E+05  4.347920E+04  4.987060E+04  3.117232E+05 -3.436483E+04  2.204689E+04
       147  23  4.486473E+05  6.534436E+03  2.396743E+04  2.665842E+05 -2.191360E+04  6.768003E+04
       147  24  4.536126E+05 -2.024786E+02  1.376624E+04  3.117166E+05 -9.501909E+03  6.672017E+04
       147  25 -1.338737E+06 -4.006167E+05 -3.777067E+05  2.861322E+05  6.487242E+04  2.201677E+04
       147  26 -9.858195E+05 -3.395159E+05 -2.713126E+05  2.557273E+05  1.026708E+04  6.769041E+04
       147  27 -6.348259E+05 -2.598378E+05 -1.958162E+05  3.156122E+05 -4.440905E+04  6.671942E+04
       148   1  1.301102E+06  2.039146E+05  1.738456E+05  3.130508E+05 -1.909249E+04 -5.243070E+04
       148   2  9.485346E+05  1.183149E+05  1.006716E+05  2.661261E+05 -2.693962E+04 -3.235337E+04
       148   3  5.977145E+05  3.487831E+04  3.314635E+04  3.121307E+05 -3.479105E+04 -9.181994E+03
       148   4  4.517591E+05  1.625081E+03  1.087406E+04  3.123112E+05  7.629752E+03 -5.242564E+04
       148   5  4.513904E+05  1.933585E+02  6.804842E+03  2.658446E+05  4.240952E+03 -3.234060E+04
       148   6  4.518729E+05  1.576198E+02  5.293809E+03  3.123120E+05  8.435238E+02 -9.160014E+03
       148   7 -3.968896E+05 -2.007067E+05 -1.521279E+05  3.115723E+05  3.431634E+04 -5.242063E+04
       148   8 -4.551347E+04 -1.179421E+05 -8.706921E+04  2.655633E+05  3.539719E+04 -3.232785E+04
       148   9  3.060546E+05 -3.456365E+04 -2.255492E+04  3.124932E+05  3.646993E+04 -9.138009E+03
       148  10  1.301101E+06  2.039116E+05  1.738397E+05  3.130500E+05  5.001527E-08  1.142986E-09
       148  11  9.485336E+05  1.183136E+05  1.006683E+05  2.661254E+05 -7.124365E-10  3.330822E-09
       148  12  5.977131E+05  3.487790E+04  3.314392E+04  3.121305E+05 -5.185425E-08  2.257090E-09
       148  13  4.517583E+05  1.622113E+03  1.086878E+04  3.123115E+05  5.169828E-10  1.503954E-09
       148  14  4.513901E+05  1.922302E+02  6.802842E+03  2.658447E+05 -2.687897E-10  3.188466E-09
       148  15  4.518729E+05  1.575295E+02  5.293650E+03  3.123120E+05  1.094086E-10  2.111266E-09
       148  16 -3.968916E+05 -2.007099E+05 -1.521353E+05  3.115738E+05 -5.002808E-08  1.890056E-09
       148  17 -4.551510E+04 -1.179435E+05 -8.707353E+04  2.655642E+05  1.234917E-09  3.014309E-09
       148  18  3.060531E+05 -3.456409E+04 -2.255758E+04  3.124934E+05  5.165183E-08  2.376674E-09
       148  19  1.301102E+06  2.039146E+05  1.738456E+05  3.130508E+05  1.909249E+04  5.243070E+04
       148  20  9.485346E+05  1.183149E+05  1.006716E+05  2.661261E+05  2.693962E+04  3.235337E+04
       148  21  5.977145E+05  3.487831E+04  3.314635E+04  3.121307E+05  3.479105E+04  9.181994E+03
       148  22  4.517591E+05  1.625081E+03  1.087406E+04  3.123112E+05 -7.629752E+03  5.242564E+04
       148  23  4.513904E+05  1.933585E+02  6.804842E+03  2.658446E+05 -4.240952E+03  3.234060E+04
       148  24  4.518729E+05  1.576198E+02  5.293809E+03  3.123120E+05 -8.435238E+02  9.160014E+03
       148  25 -3.968896E+05 -2.007067E+05 -1.521279E+05  3.115723E+05 -3.431634E+04  5.242063E+04
       148  26 -4.551347E+04 -1.179421E+05 -8.706921E+04  2.655633E+05 -3.539719E+04  3.232785E+04
       148  27  3.060546E+05 -3.456365E+04 -2.255492E+04  3.124932E+05 -3.646993E+04  9.138009E+03
       149   1  3.594560E+05 -2.188543E+04 -1.277750E+04  3.124328E+05 -3.570102E+04  5.464391E+03
       149   2  7.926700E+03 -1.052846E+05 -7.783114E+04  2.655702E+05 -3.442035E+04  2.869169E+04
       149   3 -3.434948E+05 -1.882552E+05 -1.436134E+05  3.116496E+05 -3.313263E+04  4.892174E+04
       149   4  4.518513E+05  1.739360E+02  5.164875E+03  3.123128E+05 -8.981378E+01  5.486611E+03
       149   5  4.514293E+05  1.814862E+02  6.100897E+03  2.658437E+05 -3.135387E+03  2.870542E+04
       149   6  4.517498E+05  1.375056E+03  9.311279E+03  3.123121E+05 -6.173275E+03  4.892832E+04
       149   7  5.442574E+05  2.223348E+04  2.311161E+04  3.121928E+05  3.552658E+04  5.508814E+03
       149   8  8.951238E+05  1.056367E+05  9.002790E+04  2.661173E+05  2.817139E+04  2.871917E+04
       149   9  1.247604E+06  1.909682E+05  1.622096E+05  3.129754E+05  2.081983E+04  4.893494E+04
       149  10  3.594546E+05 -2.188581E+04 -1.277995E+04  3.124330E+05 -1.420958E-10  1.014481E-09
       149  11  7.925206E+03 -1.052858E+05 -7.783492E+04  2.655710E+05 -1.945815E-09 -1.136960E-09
       149  12 -3.434967E+05 -1.882581E+05 -1.436200E+05  3.116509E+05 -2.737146E-09 -1.014676E-09
       149  13  4.518513E+05  1.739037E+02  5.164819E+03  3.123128E+05  5.218448E-10  6.374451E-10
       149  14  4.514291E+05  1.805985E+02  6.099329E+03  2.658437E+05  6.202095E-10 -1.198362E-09
       149  15  4.517491E+05  1.372474E+03  9.306707E+03  3.123124E+05 -7.748390E-10 -1.115274E-09
       149  16  5.442561E+05  2.223311E+04  2.310918E+04  3.121926E+05  9.358842E-10  4.626688E-10
       149  17  8.951228E+05  1.056356E+05  9.002486E+04  2.661166E+05  1.344661E-09 -1.529786E-09
       149  18  1.247603E+06  1.909655E+05  1.622043E+05  3.129746E+05  3.483336E-09 -1.583168E-09
       149  19  3.594560E+05 -2.188543E+04 -1.277750E+04  3.124328E+05  3.570102E+04 -5.464391E+03
       149  20  7.926700E+03 -1.052846E+05 -7.783114E+04  2.655702E+05  3.442035E+04 -2.869169E+04
       149  21 -3.434948E+05 -1.882552E+05 -1.436134E+05  3.116496E+05  3.313263E+04 -4.892174E+04
       149  22  4.518513E+05  1.739360E+02  5.164875E+03  3.123128E+05  8.981378E+01 -5.486611E+03
       149  23  4.514293E+05  1.814862E+02  6.100897E+03  2.658437E+05  3.135387E+03 -2.870542E+04
       149  24  4.517498E+05  1.375056E+03  9.311279E+03  3.123121E+05  6.173275E+03 -4.892832E+04
       149  25  5.442574E+05  2.223348E+04  2.311161E+04  3.121928E+05 -3.552658E+04 -5.508814E+03
       149  26  8.951238E+05  1.056367E+05  9.002790E+04  2.661173E+05 -2.817139E+04 -2.871917E+04
       149  27  1.247604E+06  1.909682E+05  1.622096E+05  3.129754E+05 -2.081983E+04 -4.893494E+04
       150   1 -5.816916E+05 -2.470773E+05 -1.878149E+05  3.149368E+05 -4.272376E+04  6.323107E+04
       150   2 -9.320533E+05 -3.278145E+05 -2.644938E+05  2.574708E+05  1.209434E+04  6.488224E+04
       150   3 -1.285552E+06 -3.946221E+05 -3.733306E+05  2.903658E+05  6.684530E+04  2.119694E+04
       150   4  4.532911E+05 -1.622068E+02  1.166343E+04  3.117337E+05 -7.775605E+03  6.323388E+04
       150   5  4.491004E+05  5.419855E+03  2.007594E+04  2.665637E+05 -1.816595E+04  6.487138E+04
       150   6  4.529737E+05  3.624249E+04  4.162664E+04  3.117378E+05 -2.859195E+04  2.122046E+04
       150   7  1.489307E+06  2.466900E+05  2.110967E+05  3.085248E+05  2.722953E+04  6.323632E+04
       150   8  1.832067E+06  3.385346E+05  3.045466E+05  2.756767E+05 -4.849240E+04  6.485965E+04
       150   9  2.194294E+06  4.668952E+05  4.564059E+05  3.331695E+05 -1.242956E+05  2.123742E+04
       150  10 -5.816947E+05 -2.470821E+05 -1.878258E+05  3.149390E+05 -1.460606E-09 -4.306912E-10
       150  11 -9.320546E+05 -3.278190E+05 -2.645020E+05  2.574702E+05 -2.090406E-09 -3.208873E-10
       150  12 -1.285557E+06 -3.946238E+05 -3.733398E+05  2.903647E+05 -1.425827E-09  8.926862E-11
       150  13  4.532900E+05 -1.665180E+02  1.165580E+04  3.117341E+05 -1.212601E-09 -8.658787E-10
       150  14  4.490989E+05  5.415246E+03  2.006741E+04  2.665646E+05  1.359281E-09 -8.288480E-10
       150  15  4.529727E+05  3.624178E+04  4.162426E+04  3.117383E+05  5.540241E-10 -5.007960E-10
       150  16  1.489305E+06  2.466855E+05  2.110878E+05  3.085234E+05  1.622005E-09 -1.058650E-09
       150  17  1.832063E+06  3.385295E+05  3.045343E+05  2.756793E+05  1.122947E-09 -8.709749E-10
       150  18  2.194277E+06  4.668906E+05  4.563761E+05  3.331716E+05  1.625470E-09 -7.006714E-10
       150  19 -5.816916E+05 -2.470773E+05 -1.878149E+05  3.149368E+05  4.272376E+04 -6.323107E+04
       150  20 -9.320533E+05 -3.278145E+05 -2.644938E+05  2.574708E+05 -1.209434E+04 -6.488224E+04
       150  21 -1.285552E+06 -3.946221E+05 -3.733306E+05  2.903658E+05 -6.684530E+04 -2.119694E+04
       150  22  4.532911E+05 -1.622068E+02  1.166343E+04  3.117337E+05  7.775605E+03 -6.323388E+04
       150  23  4.491004E+05  5.419855E+03  2.007594E+04  2.665637E+05  1.816595E+04 -6.487138E+04
       150  24  4.529737E+05  3.624249E+04  4.162664E+04  3.117378E+05  2.859195E+04 -2.122046E+04
       150  25  1.489307E+06  2.466900E+05  2.110967E+05  3.085248E+05 -2.722953E+04 -6.323632E+04
       150  26  1.832067E+06  3.385346E+05  3.045466E+05  2.756767E+05  4.849240E+04 -6.485965E+04
       150  27  2.194294E+06  4.668952E+05  4.564059E+05  3.331695E+05  1.242956E+05 -2.123742E+04
       151   1 -4.530150E+05 -1.670000E+06 -4.456624E+05  4.439639E+05 -1.846982E+04 -1.108162E+05
       151   2 -2.935347E+05 -1.183336E+06 -2.704090E+05  3.695035E+05 -5.236206E+04 -3.563381E+04
       151   3 -1.708580E+05 -7.156260E+05 -1.534303E+05  4.186478E+05 -4.163009E+04  3.956232E+04
       151   4 -3.749481E+04  4.423930E+03 -4.378967E+04  4.232469E+05 -1.832302E+04 -2.988456E+04
       151   5 -5.183222E+03  8.601320E+03 -2.124182E+04  3.614133E+05 -5.232133E+04 -1.878899E+04
       151   6  1.521190E+03  4.787378E+03 -1.235832E+04  4.231803E+05 -4.173133E+04 -7.740229E+03
       151   7  3.778268E+05  1.681435E+06  3.579091E+05  4.024717E+05 -1.818190E+04  5.126499E+04
       151   8  2.830778E+05  1.201885E+06  2.278478E+05  3.533064E+05 -5.228108E+04 -1.912294E+03
       151   9  1.738703E+05  7.257035E+05  1.286971E+05  4.277178E+05 -4.183319E+04 -5.509652E+04
       151  10 -4.530187E+05 -1.670014E+06 -4.456862E+05  4.439623E+05  1.966094E-10 -9.841051E-11
       151  11 -2.935379E+05 -1.183339E+06 -2.704166E+05  3.695020E+05  6.572690E-10  9.227385E-10
       151  12 -1.708603E+05 -7.156281E+05 -1.534365E+05  4.186492E+05  6.563414E-10  1.991486E-09
       151  13 -3.749541E+04  4.422881E+03 -4.379198E+04  4.232464E+05 -1.064709E-09 -5.564720E-10
       151  14 -5.186256E+03  8.600207E+03 -2.124762E+04  3.614126E+05 -2.702300E-11  1.434721E-09
       151  15  1.519304E+03  4.786846E+03 -1.236170E+04  4.231801E+05  1.944476E-10 -5.561390E-10
       151  16  3.778257E+05  1.681432E+06  3.579035E+05  4.024725E+05 -8.321485E-11  1.232652E-10
       151  17  2.830748E+05  1.201885E+06  2.278427E+05  3.533063E+05 -1.704792E-09 -1.381728E-09
       151  18  1.738676E+05  7.256998E+05  1.286882E+05  4.277159E+05  9.080632E-10 -1.363528E-09
       151  19 -4.530150E+05 -1.670000E+06 -4.456624E+05  4.439639E+05  1.846982E+04  1.108162E+05
       151  20 -2.935347E+05 -1.183336E+06 -2.704090E+05  3.695035E+05  5.236206E+04  3.563381E+04
       151  21 -1.708580E+05 -7.156260E+05 -1.534303E+05  4.186478E+05  4.163009E+04 -3.956232E+04
       151  22 -3.749481E+04  4.423930E+03 -4.378967E+04  4.232469E+05  1.832302E+04  2.988456E+04
       151  23 -5.183222E+03  8.601320E+03 -2.124182E+04  3.614133E+05  5.232133E+04  1.878899E+04
       151  24  1.521190E+03  4.787378E+03 -1.235832E+04  4.231803E+05  4.173133E+04  7.740229E+03
       151  25  3.778268E+05  1.681435E+06  3.579091E+05  4.024717E+05  1.818190E+04 -5.126499E+04
       151  26  2.830778E+05  1.201885E+06  2.278478E+05  3.533064E+05  5.228108E+04  1.912294E+03
       151  27  1.738703E+05  7.257035E+05  1.286971E+05  4.277178E+05  4.183319E+04  5.509652E+04
       152   1 -9.460063E+04 -3.892011E+05 -8.811446E+04  4.237740E+05 -2.209380E+04  3.386773E+04
       152   2  2.053445E+04  8.841768E+04  8.374264E+03  3.608809E+05  5.538057E+03  3.684812E+04
       152   3  1.344730E+05  5.651163E+05  1.024812E+05  4.240299E+05  3.288570E+04  3.983313E+04
       152   4  1.548419E+02  6.366161E+03 -9.987242E+03  4.237333E+05 -2.218458E+04 -6.108758E+03
       152   5  1.193150E+03  6.957955E+03 -6.876958E+03  3.607107E+05  5.449850E+03 -2.731709E+03
       152   6  9.777154E+02  6.340989E+03 -6.421487E+03  4.237313E+05  3.279947E+04  6.477679E+02
       152   7  9.490167E+04  4.020867E+05  6.813830E+04  4.236923E+05 -2.227531E+04 -4.611019E+04
       152   8 -1.814770E+04 -7.449199E+04 -2.212258E+04  3.605405E+05  5.361658E+03 -4.230647E+04
       152   9 -1.325355E+05 -5.521315E+05 -1.153333E+05  4.234329E+05  3.271322E+04 -3.850313E+04
       152  10 -9.460146E+04 -3.892025E+05 -8.811753E+04  4.237746E+05  3.282852E-10 -5.049759E-09
       152  11  2.053406E+04  8.841621E+04  8.371656E+03  3.608807E+05 -3.754777E-10  9.106127E-09
       152  12  1.344715E+05  5.651143E+05  1.024762E+05  4.240288E+05 -1.173950E-09  2.053357E-08
       152  13  1.543036E+02  6.365989E+03 -9.988237E+03  4.237331E+05  4.857161E-10 -8.811862E-10
       152  14  1.193116E+03  6.957939E+03 -6.877028E+03  3.607107E+05  2.370817E-09  1.797720E-09
       152  15  9.765600E+02  6.340700E+03 -6.423509E+03  4.237313E+05 -4.945227E-10 -5.634859E-10
       152  16  9.490057E+04  4.020843E+05  6.813338E+04  4.236915E+05  1.165621E-09  5.056163E-09
       152  17 -1.814821E+04 -7.449392E+04 -2.212600E+04  3.605407E+05  2.843051E-10 -8.956146E-09
       152  18 -1.325371E+05 -5.521334E+05 -1.153381E+05  4.234339E+05 -1.683615E-09 -1.986676E-08
       152  19 -9.460063E+04 -3.892011E+05 -8.811446E+04  4.237740E+05  2.209380E+04 -3.386773E+04
       152  20  2.053445E+04  8.841768E+04  8.374264E+03  3.608809E+05 -5.538057E+03 -3.684812E+04
       152  21  1.344730E+05  5.651163E+05  1.024812E+05  4.240299E+05 -3.288570E+04 -3.983313E+04
       152  22  1.548419E+02  6.366161E+03 -9.987242E+03  4.237333E+05  2.218458E+04  6.108758E+03
       152  23  1.193150E+03  6.957955E+03 -6.876958E+03  3.607107E+05 -5.449850E+03  2.731709E+03
       152  24  9.777154E+02  6.340989E+03 -6.421487E+03  4.237313E+05 -3.279947E+04 -6.477679E+02
       152  25  9.490167E+04  4.020867E+05  6.813830E+04  4.236923E+05  2.227531E+04  4.611019E+04
       152  26 -1.814770E+04 -7.449199E+04 -2.212258E+04  3.605405E+05 -5.361658E+03  4.230647E+04
       152  27 -1.325355E+05 -5.521315E+05 -1.153333E+05  4.234329E+05 -3.271322E+04  3.850313E+04
       153   1  2.125448E+05  8.899537E+05  1.650650E+05  4.257826E+05  5.240857E+04  4.893245E+04
       153   2  3.255601E+05  1.363378E+06  2.719120E+05  3.589768E+05  6.079662E+04 -1.597114E+04
       153   3  4.401745E+05  1.845785E+06  4.213173E+05  4.154893E+05  2.064900E+04 -8.087955E+04
       153   4  1.415608E+03  5.769966E+03 -6.834395E+03  4.231266E+05  5.231180E+04  1.637426E+03
       153   5 -1.773356E+03  7.244506E+03 -9.816837E+03  3.614713E+05  6.084845E+04  6.745599E+03
       153   6 -1.549413E+04  5.357157E+03 -1.880749E+04  4.231537E+05  2.080004E+04  1.189867E+04
       153   7 -2.097591E+05 -8.776591E+05 -1.787624E+05  4.204739E+05  5.221535E+04 -4.559181E+04
       153   8 -3.292234E+05 -1.347149E+06 -2.916445E+05  3.639589E+05  6.090055E+04  2.941363E+04
       153   9 -4.714031E+05 -1.831954E+06 -4.591389E+05  4.307932E+05  2.095366E+04  1.044036E+05
       153  10  2.125412E+05  8.899504E+05  1.650554E+05  4.257805E+05 -1.668966E-09 -2.114118E-08
       153  11  3.255561E+05  1.363377E+06  2.719046E+05  3.589776E+05 -1.032724E-09 -8.589599E-09
       153  12  4.401723E+05  1.845778E+06  4.213042E+05  4.154906E+05  4.088170E-10  5.509287E-09
       153  13  1.412668E+03  5.769229E+03 -6.839542E+03  4.231266E+05 -1.416182E-09 -8.751586E-10
       153  14 -1.777343E+03  7.243464E+03 -9.823879E+03  3.614709E+05 -5.036020E-10  1.313658E-09
       153  15 -1.549463E+04  5.356889E+03 -1.880857E+04  4.231535E+05 -7.260199E-12 -3.115537E-10
       153  16 -2.097626E+05 -8.776621E+05 -1.787715E+05  4.204758E+05 -1.838711E-09  2.091016E-08
       153  17 -3.292276E+05 -1.347151E+06 -2.916531E+05  3.639575E+05 -1.382061E-09  8.503011E-09
       153  18 -4.714065E+05 -1.831966E+06 -4.591603E+05  4.307914E+05 -1.199324E-10 -5.166863E-09
       153  19  2.125448E+05  8.899537E+05  1.650650E+05  4.257826E+05 -5.240857E+04 -4.893245E+04
       153  20  3.255601E+05  1.363378E+06  2.719120E+05  3.589768E+05 -6.079662E+04  1.597114E+04
       153  21  4.401745E+05  1.845785E+06  4.213173E+05  4.154893E+05 -2.064900E+04  8.087955E+04
       153  22  1.415608E+03  5.769966E+03 -6.834395E+03  4.231266E+05 -5.231180E+04 -1.637426E+03
       153  23 -1.773356E+03  7.244506E+03 -9.816837E+03  3.614713E+05 -6.084845E+04 -6.745599E+03
       153  24 -1.549413E+04  5.357157E+03 -1.880749E+04  4.231537E+05 -2.080004E+04 -1.189867E+04
       153  25 -2.097591E+05 -8.776591E+05 -1.787624E+05  4.204739E+05 -5.221535E+04  4.559181E+04
       153  26 -3.292234E+05 -1.347149E+06 -2.916445E+05  3.639589E+05 -6.090055E+04 -2.941363E+04
       153  27 -4.714031E+05 -1.831954E+06 -4.591389E+05  4.307932E+05 -2.095366E+04 -1.044036E+05
       154   1  2.142354E+06  4.503364E+05  4.421771E+05  3.109393E+05  1.275640E+05 -2.004706E+04
       154   2  1.811716E+06  3.214021E+05  2.940803E+05  2.538981E+05  5.298225E+04 -6.146883E+04
       154   3  1.501983E+06  2.355995E+05  2.052511E+05  2.788408E+05 -2.152344E+04 -6.060806E+04
       154   4  5.119216E+05  4.714750E+04  5.395825E+04  2.831039E+05  3.716516E+04 -2.002768E+04
       154   5  5.069289E+05  7.177917E+03  2.595340E+04  2.421079E+05  2.368085E+04 -6.147774E+04
       154   6  5.121984E+05 -1.908997E+02  1.491228E+04  2.830961E+05  1.023050E+04 -6.060869E+04
       154   7 -1.116059E+06 -3.562256E+05 -3.344158E+05  2.553414E+05 -5.299809E+04 -2.000023E+04
       154   8 -7.962436E+05 -3.071523E+05 -2.422613E+05  2.303427E+05 -5.560245E+03 -6.148555E+04
       154   9 -4.766435E+05 -2.360387E+05 -1.754680E+05  2.873442E+05  4.193507E+04 -6.060887E+04
       154  10  2.142336E+06  4.503316E+05  4.421459E+05  3.109413E+05 -2.227526E-10 -8.052386E-11
       154  11  1.811712E+06  3.213973E+05  2.940679E+05  2.539007E+05 -1.410441E-09 -4.061657E-10
       154  12  1.501982E+06  2.355955E+05  2.052434E+05  2.788398E+05  6.110688E-10 -1.507334E-10
       154  13  5.119200E+05  4.714670E+04  5.395490E+04  2.831045E+05 -1.847097E-10  6.216458E-10
       154  14  5.069273E+05  7.173707E+03  2.594524E+04  2.421091E+05 -1.058245E-09  3.884335E-10
       154  15  5.121973E+05 -1.948737E+02  1.490518E+04  2.830966E+05  3.133897E-10  1.108418E-10
       154  16 -1.116062E+06 -3.562268E+05 -3.344219E+05  2.553405E+05  1.671689E-10  1.088365E-10
       154  17 -7.962446E+05 -3.071564E+05 -2.422685E+05  2.303424E+05 -2.434231E-11  7.255833E-10
       154  18 -4.766463E+05 -2.360431E+05 -1.754782E+05  2.873463E+05  2.545057E-10  3.408480E-10
       154  19  2.142354E+06  4.503364E+05  4.421771E+05  3.109393E+05 -1.275640E+05  2.004706E+04
       154  20  1.811716E+06  3.214021E+05  2.940803E+05  2.538981E+05 -5.298225E+04  6.146883E+04
       154  21  1.501983E+06  2.355995E+05  2.052511E+05  2.788408E+05  2.152344E+04  6.060806E+04
       154  22  5.119216E+05  4.714750E+04  5.395825E+04  2.831039E+05 -3.716516E+04  2.002768E+04
       154  23  5.069289E+05  7.177917E+03  2.595340E+04  2.421079E+05 -2.368085E+04  6.147774E+04
       154  24  5.121984E+05 -1.908997E+02  1.491228E+04  2.830961E+05 -1.023050E+04  6.060869E+04
       154  25 -1.116059E+06 -3.562256E+05 -3.344158E+05  2.553414E+05  5.299809E+04  2.000023E+04
       154  26 -7.962436E+05 -3.071523E+05 -2.422613E+05  2.303427E+05  5.560245E+03  6.148555E+04
       154  27 -4.766435E+05 -2.360387E+05 -1.754680E+05  2.873442E+05 -4.193507E+04  6.060887E+04
       155   1  1.281803E+06  1.855252E+05  1.598494E+05  2.843928E+05 -1.606199E+04 -4.763063E+04
       155   2  9.615483E+05  1.075086E+05  9.272281E+04  2.417104E+05 -2.381134E+04 -2.939742E+04
       155   3  6.430018E+05  3.169245E+04  3.118909E+04  2.834290E+05 -3.156407E+04 -8.354150E+03
       155   4  5.101954E+05  1.753769E+03  1.179776E+04  2.836371E+05  8.204129E+03 -4.762711E+04
       155   5  5.097855E+05  1.739096E+02  7.428560E+03  2.414351E+05  4.505150E+03 -2.938765E+04
       155   6  5.102896E+05  9.967384E+01  5.847446E+03  2.836378E+05  7.990324E+02 -8.336893E+03
       155   7 -2.608392E+05 -1.820525E+05 -1.362790E+05  2.828821E+05  3.244083E+04 -4.762364E+04
       155   8  5.822113E+04 -1.071722E+05 -7.787168E+04  2.411600E+05  3.280157E+04 -2.937789E+04
       155   9  3.775966E+05 -3.149357E+04 -1.949106E+04  2.838467E+05  3.315539E+04 -8.319610E+03
       155  10  1.281802E+06  1.855227E+05  1.598446E+05  2.843922E+05 -5.018691E-10  1.676222E-10
       155  11  9.615475E+05  1.075075E+05  9.272012E+04  2.417098E+05  2.130102E-10  5.434598E-10
       155  12  6.430007E+05  3.169210E+04  3.118708E+04  2.834288E+05  5.857267E-10 -1.695225E-10
       155  13  5.101947E+05  1.751314E+03  1.179337E+04  2.836374E+05  1.795524E-10  3.770090E-10
       155  14  5.097852E+05  1.729765E+02  7.426899E+03  2.414352E+05  5.399310E-10  7.535249E-10
       155  15  5.102896E+05  9.959901E+01  5.847314E+03  2.836378E+05 -4.540333E-10 -1.920647E-10
       155  16 -2.608410E+05 -1.820553E+05 -1.362852E+05  2.828834E+05  3.083062E-10  1.332218E-10
       155  17  5.821974E+04 -1.071735E+05 -7.787532E+04  2.411607E+05 -2.604030E-10  6.207178E-10
       155  18  3.775954E+05 -3.149394E+04 -1.949326E+04  2.838469E+05 -9.945041E-10  1.496256E-10
       155  19  1.281803E+06  1.855252E+05  1.598494E+05  2.843928E+05  1.606199E+04  4.763063E+04
       155  20  9.615483E+05  1.075086E+05  9.272281E+04  2.417104E+05  2.381134E+04  2.939742E+04
       155  21  6.430018E+05  3.169245E+04  3.118909E+04  2.834290E+05  3.156407E+04  8.354150E+03
       155  22  5.101954E+05  1.753769E+03  1.179776E+04  2.836371E+05 -8.204129E+03  4.762711E+04
       155  23  5.097855E+05  1.739096E+02  7.428560E+03  2.414351E+05 -4.505150E+03  2.938765E+04
       155  24  5.102896E+05  9.967384E+01  5.847446E+03  2.836378E+05 -7.990324E+02  8.336893E+03
       155  25 -2.608392E+05 -1.820525E+05 -1.362790E+05  2.828821E+05 -3.244083E+04  4.762364E+04
       155  26  5.822113E+04 -1.071722E+05 -7.787168E+04  2.411600E+05 -3.280157E+04  2.937789E+04
       155  27  3.775966E+05 -3.149357E+04 -1.949106E+04  2.838467E+05 -3.315539E+04  8.319610E+03
       156   1  4.266320E+05 -1.985617E+04 -1.049309E+04  2.838013E+05 -3.257426E+04  4.946597E+03
       156   2  1.072861E+05 -9.554772E+04 -6.927263E+04  2.411650E+05 -3.208810E+04  2.603942E+04
       156   3 -2.118096E+05 -1.705771E+05 -1.282023E+05  2.829382E+05 -3.159588E+04  4.441115E+04
       156   4  5.102734E+05  1.121763E+02  5.750490E+03  2.836381E+05 -2.321149E+02  4.964060E+03
       156   5  5.098157E+05  1.664269E+02  6.899508E+03  2.414348E+05 -3.673785E+03  2.604998E+04
       156   6  5.101894E+05  1.568514E+03  1.062312E+04  2.836374E+05 -7.109160E+03  4.441592E+04
       156   7  5.939236E+05  2.008066E+04  2.199767E+04  2.834748E+05  3.211429E+04  4.981504E+03
       156   8  9.125034E+05  9.587155E+04  8.306750E+04  2.417048E+05  2.475850E+04  2.606056E+04
       156   9  1.232691E+06  1.736836E+05  1.494267E+05  2.843373E+05  1.740539E+04  4.442073E+04
       156  10  4.266309E+05 -1.985648E+04 -1.049513E+04  2.838014E+05  5.600149E-10 -4.777707E-11
       156  11  1.072848E+05 -9.554873E+04 -6.927584E+04  2.411657E+05 -4.353745E-10 -1.482609E-10
       156  12 -2.118112E+05 -1.705795E+05 -1.282078E+05  2.829394E+05  8.187542E-11  1.470475E-10
       156  13  5.102733E+05  1.121498E+02  5.750444E+03  2.836381E+05  8.358700E-12 -3.812650E-10
       156  14  5.098155E+05  1.656944E+02  6.898207E+03  2.414349E+05  8.881186E-10 -2.963236E-10
       156  15  5.101888E+05  1.566381E+03  1.061931E+04  2.836377E+05  4.154808E-10 -2.168426E-10
       156  16  5.939225E+05  2.008036E+04  2.199568E+04  2.834747E+05 -3.952628E-10 -3.755522E-10
       156  17  9.125025E+05  9.587066E+04  8.306507E+04  2.417043E+05 -2.332368E-10 -7.507154E-10
       156  18  1.232690E+06  1.736814E+05  1.494224E+05  2.843367E+05  4.276588E-10 -4.893173E-10
       156  19  4.266320E+05 -1.985617E+04 -1.049309E+04  2.838013E+05  3.257426E+04 -4.946597E+03
       156  20  1.072861E+05 -9.554772E+04 -6.927263E+04  2.411650E+05  3.208810E+04 -2.603942E+04
       156  21 -2.118096E+05 -1.705771E+05 -1.282023E+05  2.829382E+05  3.159588E+04 -4.441115E+04
       156  22  5.102734E+05  1.121763E+02  5.750490E+03  2.836381E+05  2.321149E+02 -4.964060E+03
       156  23  5.098157E+05  1.664269E+02  6.899508E+03  2.414348E+05  3.673785E+03 -2.604998E+04
       156  24  5.101894E+05  1.568514E+03  1.062312E+04  2.836374E+05  7.109160E+03 -4.441592E+04
       156  25  5.939236E+05  2.008066E+04  2.199767E+04  2.834748E+05 -3.211429E+04 -4.981504E+03
       156  26  9.125034E+05  9.587155E+04  8.306750E+04  2.417048E+05 -2.475850E+04 -2.606056E+04
       156  27  1.232691E+06  1.736836E+05  1.494267E+05  2.843373E+05 -1.740539E+04 -4.442073E+04
       157   1 -4.277931E+05 -2.243256E+05 -1.677710E+05  2.868398E+05 -4.067473E+04  5.740602E+04
       157   2 -7.469387E+05 -2.962192E+05 -2.353523E+05  2.316407E+05  6.614371E+03  5.890708E+04
       157   3 -1.067150E+06 -3.495099E+05 -3.290223E+05  2.585225E+05  5.384786E+04  1.924708E+04
       157   4  5.119578E+05 -1.574656E+02  1.333158E+04  2.831149E+05 -8.932535E+03  5.740756E+04
       157   5  5.072723E+05  6.343832E+03  2.302834E+04  2.420849E+05 -2.086398E+04  5.889883E+04
       157   6  5.116923E+05  4.171139E+04  4.776152E+04  2.831203E+05 -3.282574E+04  1.926901E+04
       157   7  1.452560E+06  2.239589E+05  1.943971E+05  2.793840E+05  2.285664E+04  5.740871E+04
       157   8  1.762978E+06  3.088084E+05  2.813274E+05  2.525504E+05 -4.839688E+04  5.888966E+04
       157   9  2.092839E+06  4.327588E+05  4.243987E+05  3.077807E+05 -1.197190E+05  1.928407E+04
       157  10 -4.277958E+05 -2.243296E+05 -1.677803E+05  2.868417E+05  5.107229E-10 -3.662355E-11
       157  11 -7.469397E+05 -2.962229E+05 -2.353589E+05  2.316404E+05 -6.276226E-10 -6.188168E-10
       157  12 -1.067153E+06 -3.495110E+05 -3.290284E+05  2.585216E+05 -1.310690E-09 -5.212705E-10
       157  13  5.119569E+05 -1.610271E+02  1.332523E+04  2.831153E+05  7.107249E-10 -3.333187E-10
       157  14  5.072709E+05  6.339988E+03  2.302100E+04  2.420859E+05  4.781669E-10 -5.381936E-10
       157  15  5.116910E+05  4.171070E+04  4.775880E+04  2.831208E+05 -9.010000E-10 -1.027794E-11
       157  16  1.452559E+06  2.239552E+05  1.943899E+05  2.793830E+05 -6.733078E-11 -4.499376E-10
       157  17  1.762975E+06  3.088041E+05  2.813164E+05  2.525527E+05  1.056337E-09 -2.952360E-10
       157  18  2.092824E+06  4.327545E+05  4.243712E+05  3.077825E+05  1.772575E-09 -4.972772E-10
       157  19 -4.277931E+05 -2.243256E+05 -1.677710E+05  2.868398E+05  4.067473E+04 -5.740602E+04
       157  20 -7.469387E+05 -2.962192E+05 -2.353523E+05  2.316407E+05 -6.614371E+03 -5.890708E+04
       157  21 -1.067150E+06 -3.495099E+05 -3.290223E+05  2.585225E+05 -5.384786E+04 -1.924708E+04
       157  22  5.119578E+05 -1.574656E+02  1.333158E+04  2.831149E+05  8.932535E+03 -5.740756E+04
       157  23  5.072723E+05  6.343832E+03  2.302834E+04  2.420849E+05  2.086398E+04 -5.889883E+04
       157  24  5.116923E+05  4.171139E+04  4.776152E+04  2.831203E+05  3.282574E+04 -1.926901E+04
       157  25  1.452560E+06  2.239589E+05  1.943971E+05  2.793840E+05 -2.285664E+04 -5.740871E+04
       157  26  1.762978E+06  3.088084E+05  2.813274E+05  2.525504E+05  4.839688E+04 -5.888966E+04
       157  27  2.092839E+06  4.327588E+05  4.243987E+05  3.077807E+05  1.197190E+05 -1.928407E+04
       158   1 -4.209366E+05 -1.504045E+06 -4.146906E+05  4.008713E+05 -1.710571E+04 -1.067580E+05
       158   2 -2.727524E+05 -1.068015E+06 -2.528974E+05  3.321319E+05 -4.884004E+04 -3.639892E+04
       158   3 -1.620221E+05 -6.504849E+05 -1.463780E+05  3.738696E+05 -3.972985E+04  3.397113E+04
       158   4 -3.987616E+04  3.184416E+04 -4.627079E+04  3.785360E+05 -1.697987E+04 -3.165579E+04
       158   5 -5.706759E+03  3.621481E+04 -2.239790E+04  3.232660E+05 -4.880362E+04 -1.996683E+04
       158   6  1.256757E+03  3.214460E+04 -1.296578E+04  3.784709E+05 -3.981282E+04 -8.317857E+03
       158   7  3.410179E+05  1.569910E+06  3.220034E+05  3.561438E+05 -1.685965E+04  4.363189E+04
       158   8  2.612615E+05  1.141600E+06  2.080353E+05  3.143833E+05 -4.876770E+04 -3.505933E+03
       158   9  1.645086E+05  7.152252E+05  1.204308E+05  3.830771E+05 -3.989637E+04 -5.065236E+04
       158  10 -4.209400E+05 -1.504057E+06 -4.147126E+05  4.008698E+05  2.281499E-12 -5.890313E-10
       158  11 -2.727554E+05 -1.068017E+06 -2.529043E+05  3.321305E+05  7.948293E-10  1.300474E-09
       158  12 -1.620241E+05 -6.504866E+05 -1.463831E+05  3.738707E+05  1.517876E-09 -1.464942E-10
       158  13 -3.987674E+04  3.184301E+04 -4.627321E+04  3.785356E+05 -1.047399E-09  1.036534E-09
       158  14 -5.709423E+03  3.621375E+04 -2.240312E+04  3.232652E+05  6.732639E-10 -2.687987E-11
       158  15  1.255037E+03  3.214410E+04 -1.296888E+04  3.784707E+05 -1.130376E-10 -8.118481E-10
       158  16  3.410171E+05  1.569908E+06  3.219993E+05  3.561444E+05 -1.138787E-10  6.047683E-10
       158  17  2.612589E+05  1.141600E+06  2.080308E+05  3.143832E+05 -1.822903E-09 -8.231860E-10
       158  18  1.645062E+05  7.152221E+05  1.204230E+05  3.830755E+05  5.579958E-10 -2.527605E-09
       158  19 -4.209366E+05 -1.504045E+06 -4.146906E+05  4.008713E+05  1.710571E+04  1.067580E+05
       158  20 -2.727524E+05 -1.068015E+06 -2.528974E+05  3.321319E+05  4.884004E+04  3.639892E+04
       158  21 -1.620221E+05 -6.504849E+05 -1.463780E+05  3.738696E+05  3.972985E+04 -3.397113E+04
       158  22 -3.987616E+04  3.184416E+04 -4.627079E+04  3.785360E+05  1.697987E+04  3.165579E+04
       158  23 -5.706759E+03  3.621481E+04 -2.239790E+04  3.232660E+05  4.880362E+04  1.996683E+04
       158  24  1.256757E+03  3.214460E+04 -1.296578E+04  3.784709E+05  3.981282E+04  8.317857E+03
       158  25  3.410179E+05  1.569910E+06  3.220034E+05  3.561438E+05  1.685965E+04 -4.363189E+04
       158  26  2.612615E+05  1.141600E+06  2.080353E+05  3.143833E+05  4.876770E+04  3.505933E+03
       158  27  1.645086E+05  7.152252E+05  1.204308E+05  3.830771E+05  3.989637E+04  5.065236E+04
       159   1 -9.406501E+04 -3.582668E+05 -8.752442E+04  3.790817E+05 -2.226640E+04  2.895758E+04
       159   2  9.156274E+03  6.891402E+04 -5.356664E+02  3.227262E+05  2.377896E+03  3.224043E+04
       159   3  1.110502E+05  4.951280E+05  8.386485E+04  3.790852E+05  2.690164E+04  3.552637E+04
       159   4 -2.118996E+02  3.382187E+04 -1.041614E+04  3.789787E+05 -2.234063E+04 -6.600342E+03
       159   5  9.618698E+02  3.440240E+04 -6.997979E+03  3.226202E+05  2.304784E+03 -3.153498E+03
       159   6  7.892832E+02  3.381228E+04 -6.279541E+03  3.789766E+05  2.682918E+04  2.942786E+02
       159   7  9.363259E+04  4.260605E+05  6.668943E+04  3.788755E+05 -2.241481E+04 -4.218025E+04
       159   8 -7.231930E+03 -1.053830E+02 -1.345564E+04  3.225141E+05  2.231683E+03 -3.854551E+04
       159   9 -1.094838E+05 -4.272968E+05 -9.642946E+04  3.788679E+05  2.675670E+04 -3.491223E+04
       159  10 -9.406577E+04 -3.582678E+05 -8.752693E+04  3.790822E+05  1.049170E-09 -1.896984E-09
       159  11  9.155989E+03  6.891290E+04 -5.376299E+02  3.227262E+05  1.621230E-11  8.499970E-10
       159  12  1.110491E+05  4.951265E+05  8.386112E+04  3.790844E+05 -9.713998E-10 -8.384112E-10
       159  13 -2.124471E+02  3.382169E+04 -1.041716E+04  3.789786E+05  6.811735E-10  1.607838E-09
       159  14  9.618614E+02  3.440239E+04 -6.998008E+03  3.226202E+05 -5.994364E-10 -7.298415E-11
       159  15  7.885103E+02  3.381209E+04 -6.280894E+03  3.789766E+05  6.143264E-11 -8.305330E-10
       159  16  9.363157E+04  4.260585E+05  6.668515E+04  3.788747E+05  3.890509E-10  1.887799E-09
       159  17 -7.232335E+03 -1.069799E+02 -1.345844E+04  3.225142E+05  6.042587E-10  4.466721E-10
       159  18 -1.094849E+05 -4.272983E+05 -9.643310E+04  3.788687E+05  1.348605E-10 -2.031849E-09
       159  19 -9.406501E+04 -3.582668E+05 -8.752442E+04  3.790817E+05  2.226640E+04 -2.895758E+04
       159  20  9.156274E+03  6.891402E+04 -5.356664E+02  3.227262E+05 -2.377896E+03 -3.224043E+04
       159  21  1.110502E+05  4.951280E+05  8.386485E+04  3.790852E+05 -2.690164E+04 -3.552637E+04
       159  22 -2.118996E+02  3.382187E+04 -1.041614E+04  3.789787E+05  2.234063E+04  6.600342E+03
       159  23  9.618698E+02  3.440240E+04 -6.997979E+03  3.226202E+05 -2.304784E+03  3.153498E+03
       159  24  7.892832E+02  3.381228E+04 -6.279541E+03  3.789766E+05 -2.682918E+04 -2.942786E+02
       159  25  9.363259E+04  4.260605E+05  6.668943E+04  3.788755E+05  2.241481E+04  4.218025E+04
       159  26 -7.231930E+03 -1.053830E+02 -1.345564E+04  3.225141E+05 -2.231683E+03  3.854551E+04
       159  27 -1.094838E+05 -4.272968E+05 -9.642946E+04  3.788679E+05 -2.675670E+04  3.491223E+04
       160   1  1.808783E+05  7.855527E+05  1.399020E+05  3.807214E+05  4.436712E+04  4.357186E+04
       160   2  2.818850E+05  1.209077E+06  2.351194E+05  3.208092E+05  5.235975E+04 -1.292661E+04
       160   3  3.837442E+05  1.640238E+06  3.672477E+05  3.712396E+05  1.788447E+04 -6.942417E+04
       160   4  1.202895E+03  3.330317E+04 -6.561640E+03  3.784498E+05  4.428565E+04  1.267430E+03
       160   5 -1.650441E+03  3.471757E+04 -9.142359E+03  3.232825E+05  5.240016E+04  6.015097E+03
       160   6 -1.426559E+04  3.298361E+04 -1.730272E+04  3.784734E+05  1.800926E+04  1.080222E+04
       160   7 -1.785054E+05 -7.183998E+05 -1.530454E+05  3.761806E+05  4.420442E+04 -4.098693E+04
       160   8 -2.852734E+05 -1.138337E+06 -2.534784E+05  3.257503E+05  5.244076E+04  2.492162E+04
       160   9 -4.124588E+05 -1.571893E+06 -4.020114E+05  3.856868E+05  1.813614E+04  9.082220E+04
       160  10  1.808756E+05  7.855501E+05  1.398947E+05  3.807198E+05 -1.884998E-10  2.463560E-10
       160  11  2.818820E+05  1.209076E+06  2.351139E+05  3.208097E+05 -4.244899E-10  8.501435E-10
       160  12  3.837425E+05  1.640232E+06  3.672381E+05  3.712406E+05  5.780981E-11 -1.167559E-09
       160  13  1.200788E+03  3.330264E+04 -6.565329E+03  3.784498E+05 -1.178132E-09  1.512131E-09
       160  14 -1.653399E+03  3.471679E+04 -9.147587E+03  3.232823E+05  7.273335E-11 -3.582856E-11
       160  15 -1.426597E+04  3.298339E+04 -1.730355E+04  3.784732E+05  2.951137E-10 -5.020402E-10
       160  16 -1.785079E+05 -7.184021E+05 -1.530522E+05  3.761821E+05  4.972508E-10 -1.932478E-10
       160  17 -2.852765E+05 -1.138339E+06 -2.534848E+05  3.257492E+05 -1.951662E-10  4.530868E-11
       160  18 -4.124613E+05 -1.571902E+06 -4.020275E+05  3.856855E+05  8.151544E-10 -6.839136E-10
       160  19  1.808783E+05  7.855527E+05  1.399020E+05  3.807214E+05 -4.436712E+04 -4.357186E+04
       160  20  2.818850E+05  1.209077E+06  2.351194E+05  3.208092E+05 -5.235975E+04  1.292661E+04
       160  21  3.837442E+05  1.640238E+06  3.672477E+05  3.712396E+05 -1.788447E+04  6.942417E+04
       160  22  1.202895E+03  3.330317E+04 -6.561640E+03  3.784498E+05 -4.428565E+04 -1.267430E+03
       160  23 -1.650441E+03  3.471757E+04 -9.142359E+03  3.232825E+05 -5.240016E+04 -6.015097E+03
       160  24 -1.426559E+04  3.298361E+04 -1.730272E+04  3.784734E+05 -1.800926E+04 -1.080222E+04
       160  25 -1.785054E+05 -7.183998E+05 -1.530454E+05  3.761806E+05 -4.420442E+04  4.098693E+04
       160  26 -2.852734E+05 -1.138337E+06 -2.534784E+05  3.257503E+05 -5.244076E+04 -2.492162E+04
       160  27 -4.124588E+05 -1.571893E+06 -4.020114E+05  3.856868E+05 -1.813614E+04 -9.082220E+04
       161   1  2.139660E+06  4.359811E+05  4.315379E+05  2.978810E+05  1.349280E+05 -1.841132E+04
       161   2  1.834964E+06  2.988009E+05  2.824710E+05  2.378781E+05  6.003666E+04 -5.647700E+04
       161   3  1.554107E+06  2.166474E+05  1.958387E+05  2.528579E+05 -1.478849E+04 -5.575597E+04
       161   4  6.435302E+05  6.604461E+04  7.533953E+04  2.588379E+05  5.188568E+04 -1.839700E+04
       161   5  6.366023E+05  1.023719E+04  3.625973E+04  2.213425E+05  3.304581E+04 -5.648473E+04
       161   6  6.437734E+05 -1.899405E+02  2.081639E+04  2.588267E+05  1.423480E+04 -5.575713E+04
       161   7 -8.505331E+05 -3.040437E+05 -2.809890E+05  2.198888E+05 -3.095816E+04 -1.837229E+04
       161   8 -5.603978E+05 -2.784154E+05 -2.100254E+05  2.048392E+05  6.105961E+03 -5.649105E+04
       161   9 -2.657623E+05 -2.170757E+05 -1.542409E+05  2.647865E+05  4.321658E+04 -5.575773E+04
       161  10  2.139640E+06  4.359759E+05  4.315032E+05  2.978830E+05 -8.424330E-10  4.554838E-10
       161  11  1.834960E+06  2.987965E+05  2.824582E+05  2.378808E+05  1.035400E-09  1.716197E-10
       161  12  1.554105E+06  2.166440E+05  1.958324E+05  2.528572E+05  7.032758E-10  4.508279E-10
       161  13  6.435272E+05  6.604352E+04  7.533384E+04  2.588386E+05  2.265294E-10 -4.664689E-10
       161  14  6.366002E+05  1.023347E+04  3.625168E+04  2.213440E+05  4.295564E-10  5.083854E-11
       161  15  6.437723E+05 -1.933347E+02  2.081016E+04  2.588274E+05 -5.489600E-10  3.682514E-10
       161  16 -8.505342E+05 -3.040443E+05 -2.809914E+05  2.198884E+05 -2.036660E-10 -6.019156E-10
       161  17 -5.603987E+05 -2.784189E+05 -2.100315E+05  2.048395E+05  3.958433E-10 -2.243276E-10
       161  18 -2.657652E+05 -2.170796E+05 -1.542503E+05  2.647884E+05 -4.911532E-10  2.683060E-10
       161  19  2.139660E+06  4.359811E+05  4.315379E+05  2.978810E+05 -1.349280E+05  1.841132E+04
       161  20  1.834964E+06  2.988009E+05  2.824710E+05  2.378781E+05 -6.003666E+04  5.647700E+04
       161  21  1.554107E+06  2.166474E+05  1.958387E+05  2.528579E+05  1.478849E+04  5.575597E+04
       161  22  6.435302E+05  6.604461E+04  7.533953E+04  2.588379E+05 -5.188568E+04  1.839700E+04
       161  23  6.366023E+05  1.023719E+04  3.625973E+04  2.213425E+05 -3.304581E+04  5.648473E+04
       161  24  6.437734E+05 -1.899405E+02  2.081639E+04  2.588267E+05 -1.423480E+04  5.575713E+04
       161  25 -8.505331E+05 -3.040437E+05 -2.809890E+05  2.198888E+05  3.095816E+04  1.837229E+04
       161  26 -5.603978E+05 -2.784154E+05 -2.100254E+05  2.048392E+05 -6.105961E+03  5.649105E+04
       161  27 -2.657623E+05 -2.170757E+05 -1.542409E+05  2.647865E+05 -4.321658E+04  5.575773E+04
       162   1  1.351850E+06  1.717511E+05  1.528438E+05  2.603142E+05 -1.074285E+04 -4.389397E+04
       162   2  1.058855E+06  9.961093E+04  8.937933E+04  2.210792E+05 -1.964007E+04 -2.724088E+04
       162   3  7.678345E+05  3.020748E+04  3.238827E+04  2.589989E+05 -2.853922E+04 -8.009183E+03
       162   4  6.409792E+05  2.467482E+03  1.648005E+04  2.593149E+05  1.141181E+04 -4.389149E+04
       162   5  6.403950E+05  2.042030E+02  1.039823E+04  2.207365E+05  6.233554E+03 -2.723319E+04
       162   6  6.410599E+05  3.871255E+01  8.214729E+03  2.593158E+05  1.049351E+03 -7.995239E+03
       162   7 -6.940541E+04 -1.668457E+05 -1.199050E+05  2.583166E+05  3.354173E+04 -4.388909E+04
       162   8  2.221049E+05 -9.921236E+04 -6.858808E+04  2.203940E+05  3.209018E+04 -2.722553E+04
       162   9  5.143026E+05 -3.013053E+04 -1.595626E+04  2.596327E+05  3.063203E+04 -7.981263E+03
       162  10  1.351850E+06  1.717490E+05  1.528399E+05  2.603138E+05  1.043752E-09  2.506661E-10
       162  11  1.058855E+06  9.961003E+04  8.937722E+04  2.210788E+05 -6.915239E-10  4.095418E-10
       162  12  7.678337E+05  3.020719E+04  3.238663E+04  2.589987E+05 -8.499197E-11  1.562250E-10
       162  13  6.409785E+05  2.465377E+03  1.647619E+04  2.593153E+05  1.299583E-09  3.730058E-10
       162  14  6.403948E+05  2.033958E+02  1.039676E+04  2.207366E+05  6.001006E-10  4.411110E-10
       162  15  6.410599E+05  3.864359E+01  8.214607E+03  2.593158E+05 -2.209436E-10 -8.067174E-11
       162  16 -6.940713E+04 -1.668481E+05 -1.199107E+05  2.583178E+05 -4.176116E-10  2.289724E-10
       162  17  2.221036E+05 -9.921343E+04 -6.859141E+04  2.203947E+05  1.254609E-09  1.226821E-10
       162  18  5.143016E+05 -3.013085E+04 -1.595814E+04  2.596329E+05  3.684925E-10  1.969704E-10
       162  19  1.351850E+06  1.717511E+05  1.528438E+05  2.603142E+05  1.074285E+04  4.389397E+04
       162  20  1.058855E+06  9.961093E+04  8.937933E+04  2.210792E+05  1.964007E+04  2.724088E+04
       162  21  7.678345E+05  3.020748E+04  3.238827E+04  2.589989E+05  2.853922E+04  8.009183E+03
       162  22  6.409792E+05  2.467482E+03  1.648005E+04  2.593149E+05 -1.141181E+04  4.389149E+04
       162  23  6.403950E+05  2.042030E+02  1.039823E+04  2.207365E+05 -6.233554E+03  2.723319E+04
       162  24  6.410599E+05  3.871255E+01  8.214729E+03  2.593158E+05 -1.049351E+03  7.995239E+03
       162  25 -6.940541E+04 -1.668457E+05 -1.199050E+05  2.583166E+05 -3.354173E+04  4.388909E+04
       162  26  2.221049E+05 -9.921236E+04 -6.858808E+04  2.203940E+05 -3.209018E+04  2.722553E+04
       162  27  5.143026E+05 -3.013053E+04 -1.595626E+04  2.596327E+05 -3.063203E+04  7.981263E+03
       163   1  5.700310E+05 -1.690678E+04 -5.733264E+03  2.595788E+05 -2.996235E+04  4.148511E+03
       163   2  2.778691E+05 -8.600490E+04 -5.882616E+04  2.203980E+05 -3.126534E+04  2.343165E+04
       163   3 -1.366953E+04 -1.538096E+05 -1.107452E+05  2.583820E+05 -3.256259E+04  4.023812E+04
       163   4  6.410411E+05  5.285460E+01  8.102932E+03  2.593167E+05 -3.958320E+02  4.162674E+03
       163   5  6.404288E+05  1.938861E+02  9.787846E+03  2.207354E+05 -5.274940E+03  2.344016E+04
       163   6  6.409712E+05  2.250678E+03  1.512501E+04  2.593159E+05 -1.014885E+04  4.024187E+04
       163   7  7.120580E+05  1.701266E+04  2.194217E+04  2.590546E+05  2.917399E+04  4.176810E+03
       163   8  1.003117E+06  8.638537E+04  7.839856E+04  2.210731E+05  2.073026E+04  2.344868E+04
       163   9  1.296025E+06  1.582859E+05  1.409774E+05  2.602506E+05  1.228799E+04  4.024569E+04
       163  10  5.700300E+05 -1.690704E+04 -5.734982E+03  2.595789E+05 -6.225739E-10 -3.895465E-11
       163  11  2.778679E+05 -8.600576E+04 -5.882903E+04  2.203986E+05 -1.590942E-10 -3.917207E-10
       163  12 -1.367110E+04 -1.538117E+05 -1.107503E+05  2.583831E+05  7.442004E-10 -2.992418E-10
       163  13  6.410411E+05  5.283594E+01  8.102899E+03  2.593167E+05 -7.945871E-10  5.220838E-12
       163  14  6.404286E+05  1.932884E+02  9.786761E+03  2.207355E+05  2.646038E-10  2.541686E-10
       163  15  6.409706E+05  2.248910E+03  1.512178E+04  2.593162E+05  3.343212E-10 -2.425596E-10
       163  16  7.120571E+05  1.701241E+04  2.194054E+04  2.590545E+05 -1.354650E-10  2.222120E-10
       163  17  1.003116E+06  8.638466E+04  7.839672E+04  2.210727E+05  5.219003E-10  2.010590E-10
       163  18  1.296024E+06  1.582841E+05  1.409741E+05  2.602502E+05 -4.232085E-10  2.728403E-10
       163  19  5.700310E+05 -1.690678E+04 -5.733264E+03  2.595788E+05  2.996235E+04 -4.148511E+03
       163  20  2.778691E+05 -8.600490E+04 -5.882616E+04  2.203980E+05  3.126534E+04 -2.343165E+04
       163  21 -1.366953E+04 -1.538096E+05 -1.107452E+05  2.583820E+05  3.256259E+04 -4.023812E+04
       163  22  6.410411E+05  5.285460E+01  8.102932E+03  2.593167E+05  3.958320E+02 -4.162674E+03
       163  23  6.404288E+05  1.938861E+02  9.787846E+03  2.207354E+05  5.274940E+03 -2.344016E+04
       163  24  6.409712E+05  2.250678E+03  1.512501E+04  2.593159E+05  1.014885E+04 -4.024187E+04
       163  25  7.120580E+05  1.701266E+04  2.194217E+04  2.590546E+05 -2.917399E+04 -4.176810E+03
       163  26  1.003117E+06  8.638537E+04  7.839856E+04  2.210731E+05 -2.073026E+04 -2.344868E+04
       163  27  1.296025E+06  1.582859E+05  1.409774E+05  2.602506E+05 -1.228799E+04 -4.024569E+04
       164   1 -2.102410E+05 -2.037682E+05 -1.455216E+05  2.641987E+05 -4.176058E+04  5.211744E+04
       164   2 -5.043372E+05 -2.660071E+05 -2.022217E+05  2.063497E+05 -4.860483E+03  5.355949E+04
       164   3 -7.949359E+05 -2.965087E+05 -2.749644E+05  2.235562E+05  3.199759E+04  1.751468E+04
       164   4  6.434946E+05 -1.550798E+02  1.899318E+04  2.588411E+05 -1.273807E+04  5.211862E+04
       164   5  6.369954E+05  9.270948E+03  3.288587E+04  2.213250E+05 -2.979621E+04  5.355272E+04
       164   6  6.432636E+05  5.977059E+04  6.819196E+04  2.588487E+05 -4.688032E+04  1.753372E+04
       164   7  1.497933E+06  2.034154E+05  1.834774E+05  2.534758E+05  1.632345E+04  5.211929E+04
       164   8  1.779566E+06  2.844680E+05  2.679259E+05  2.363282E+05 -5.477696E+04  5.354476E+04
       164   9  2.083377E+06  4.159085E+05  4.112271E+05  2.942232E+05 -1.259402E+05  1.754380E+04
       164  10 -2.102436E+05 -2.037716E+05 -1.455300E+05  2.642004E+05  2.732136E-10 -1.883570E-10
       164  11 -5.043380E+05 -2.660102E+05 -2.022272E+05  2.063499E+05 -3.942628E-10  3.996263E-10
       164  12 -7.949371E+05 -2.965093E+05 -2.749669E+05  2.235558E+05  3.853025E-10  5.628096E-10
       164  13  6.434936E+05 -1.580415E+02  1.898777E+04  2.588416E+05  5.639072E-10  4.644416E-11
       164  14  6.369937E+05  9.267628E+03  3.287881E+04  2.213263E+05  9.569874E-11  4.139229E-10
       164  15  6.432612E+05  5.976967E+04  6.818725E+04  2.588494E+05 -7.921031E-11 -4.303112E-10
       164  16  1.497932E+06  2.034124E+05  1.834718E+05  2.534751E+05  1.306664E-09  3.018901E-10
       164  17  1.779562E+06  2.844641E+05  2.679149E+05  2.363305E+05  2.743332E-10  4.040190E-10
       164  18  2.083360E+06  4.159039E+05  4.111968E+05  2.942250E+05 -1.071388E-10 -1.344473E-10
       164  19 -2.102410E+05 -2.037682E+05 -1.455216E+05  2.641987E+05  4.176058E+04 -5.211744E+04
       164  20 -5.043372E+05 -2.660071E+05 -2.022217E+05  2.063497E+05  4.860483E+03 -5.355949E+04
       164  21 -7.949359E+05 -2.965087E+05 -2.749644E+05  2.235562E+05 -3.199759E+04 -1.751468E+04
       164  22  6.434946E+05 -1.550798E+02  1.899318E+04  2.588411E+05  1.273807E+04 -5.211862E+04
       164  23  6.369954E+05  9.270948E+03  3.288587E+04  2.213250E+05  2.979621E+04 -5.355272E+04
       164  24  6.432636E+05  5.977059E+04  6.819196E+04  2.588487E+05  4.688032E+04 -1.753372E+04
       164  25  1.497933E+06  2.034154E+05  1.834774E+05  2.534758E+05 -1.632345E+04 -5.211929E+04
       164  26  1.779566E+06  2.844680E+05  2.679259E+05  2.363282E+05  5.477696E+04 -5.354476E+04
       164  27  2.083377E+06  4.159085E+05  4.112271E+05  2.942232E+05  1.259402E+05 -1.754380E+04
       165   1 -3.680967E+05 -1.277858E+06 -3.650970E+05  3.228325E+05 -1.455326E+04 -1.055196E+05
       165   2 -2.347808E+05 -9.379745E+05 -2.241789E+05  2.623442E+05 -4.224156E+04 -4.207660E+04
       165   3 -1.456111E+05 -6.173945E+05 -1.356747E+05  2.871960E+05 -3.625482E+04  2.137218E+04
       165   4 -5.238284E+04 -4.813898E+03 -6.011360E+04  2.927951E+05 -1.445786E+04 -4.141006E+04
       165   5 -7.916153E+03  7.690471E+02 -2.890576E+04  2.500866E+05 -4.221152E+04 -2.634836E+04
       165   6  8.576553E+02 -4.615962E+03 -1.644254E+04  2.927204E+05 -3.630965E+04 -1.131702E+04
       165   7  2.632191E+05  1.269728E+06  2.447712E+05  2.626950E+05 -1.436881E+04  2.283066E+04
       165   8  2.188931E+05  9.403487E+05  1.663201E+05  2.378095E+05 -4.218213E+04 -1.059669E+04
       165   9  1.473046E+05  6.085256E+05  1.027759E+05  2.982501E+05 -3.636503E+04 -4.403778E+04
       165  10 -3.680999E+05 -1.277870E+06 -3.651184E+05  3.228313E+05 -3.024303E-10 -1.421448E-09
       165  11 -2.347832E+05 -9.379769E+05 -2.241856E+05  2.623428E+05 -1.937927E-09  8.101131E-10
       165  12 -1.456127E+05 -6.173954E+05 -1.356781E+05  2.871966E+05 -3.518536E-10  3.075805E-09
       165  13 -5.238352E+04 -4.815795E+03 -6.011722E+04  2.927946E+05 -6.557972E-10 -2.568623E-11
       165  14 -7.918252E+03  7.678240E+02 -2.891041E+04  2.500857E+05  4.228707E-10 -1.207923E-09
       165  15  8.562055E+02 -4.616453E+03 -1.644525E+04  2.927200E+05  2.053099E-10  1.646684E-10
       165  16  2.632188E+05  1.269728E+06  2.447698E+05  2.626952E+05 -3.835184E-11  4.217222E-10
       165  17  2.188912E+05  9.403481E+05  1.663165E+05  2.378092E+05 -1.085543E-09 -1.552330E-09
       165  18  1.473027E+05  6.085232E+05  1.027698E+05  2.982488E+05  1.486067E-09 -3.586214E-09
       165  19 -3.680967E+05 -1.277858E+06 -3.650970E+05  3.228325E+05  1.455326E+04  1.055196E+05
       165  20 -2.347808E+05 -9.379745E+05 -2.241789E+05  2.623442E+05  4.224156E+04  4.207660E+04
       165  21 -1.456111E+05 -6.173945E+05 -1.356747E+05  2.871960E+05  3.625482E+04 -2.137218E+04
       165  22 -5.238284E+04 -4.813898E+03 -6.011360E+04  2.927951E+05  1.445786E+04  4.141006E+04
       165  23 -7.916153E+03  7.690471E+02 -2.890576E+04  2.500866E+05  4.221152E+04  2.634836E+04
       165  24  8.576553E+02 -4.615962E+03 -1.644254E+04  2.927204E+05  3.630965E+04  1.131702E+04
       165  25  2.632191E+05  1.269728E+06  2.447712E+05  2.626950E+05  1.436881E+04 -2.283066E+04
       165  26  2.188931E+05  9.403487E+05  1.663201E+05  2.378095E+05  4.218213E+04  1.059669E+04
       165  27  1.473046E+05  6.085256E+05  1.027759E+05  2.982501E+05  3.636503E+04  4.403778E+04
       166   1 -9.384678E+04 -3.903240E+05 -8.859246E+04  2.934336E+05 -2.275899E+04  1.794501E+04
       166   2 -1.315773E+04 -5.965447E+04 -1.883462E+04  2.495693E+05 -3.836218E+03  2.220210E+04
       166   3  6.578976E+04  2.698537E+05  4.763241E+04  2.929081E+05  1.528799E+04  2.646012E+04
       166   4 -1.119685E+03 -2.404136E+03 -1.295704E+04  2.931456E+05 -2.280755E+04 -9.141062E+03
       166   5  5.815891E+02 -1.790830E+03 -8.003083E+03  2.495427E+05 -3.885809E+03 -5.178428E+03
       166   6  5.986147E+02 -2.391806E+03 -6.132627E+03  2.931425E+05  1.523709E+04 -1.217022E+03
       166   7  9.159877E+04  3.856617E+05  6.267398E+04  2.928573E+05 -2.285607E+04 -3.624370E+04
       166   8  1.432111E+04  5.607766E+04  2.831131E+03  2.495160E+05 -3.935395E+03 -3.256144E+04
       166   9 -6.459662E+04 -2.745647E+05 -5.989843E+04  2.933767E+05  1.518615E+04 -2.888228E+04
       166  10 -9.384742E+04 -3.903245E+05 -8.859404E+04  2.934339E+05  4.036281E-11 -2.271591E-09
       166  11 -1.315788E+04 -5.965501E+04 -1.883558E+04  2.495694E+05 -4.019774E-10  6.560937E-10
       166  12  6.578932E+04  2.698529E+05  4.763066E+04  2.929078E+05  2.797473E-10  3.307513E-09
       166  13 -1.120265E+03 -2.404365E+03 -1.295817E+04  2.931454E+05  1.178302E-09 -1.389920E-11
       166  14  5.815657E+02 -1.790863E+03 -8.003162E+03  2.495426E+05  1.051162E-09 -1.521105E-09
       166  15  5.983650E+02 -2.391870E+03 -6.133066E+03  2.931425E+05  1.103892E-09  1.969968E-10
       166  16  9.159786E+04  3.856602E+05  6.267053E+04  2.928567E+05  1.400126E-09  8.045816E-10
       166  17  1.432081E+04  5.607652E+04  2.829110E+03  2.495159E+05 -1.238715E-09 -1.129156E-09
       166  18 -6.459709E+04 -2.745657E+05 -5.990043E+04  2.933771E+05  2.598882E-10 -3.790155E-09
       166  19 -9.384678E+04 -3.903240E+05 -8.859246E+04  2.934336E+05  2.275899E+04 -1.794501E+04
       166  20 -1.315773E+04 -5.965447E+04 -1.883462E+04  2.495693E+05  3.836218E+03 -2.220210E+04
       166  21  6.578976E+04  2.698537E+05  4.763241E+04  2.929081E+05 -1.528799E+04 -2.646012E+04
       166  22 -1.119685E+03 -2.404136E+03 -1.295704E+04  2.931456E+05  2.280755E+04  9.141062E+03
       166  23  5.815891E+02 -1.790830E+03 -8.003083E+03  2.495427E+05  3.885809E+03  5.178428E+03
       166  24  5.986147E+02 -2.391806E+03 -6.132627E+03  2.931425E+05 -1.523709E+04  1.217022E+03
       166  25  9.159877E+04  3.856617E+05  6.267398E+04  2.928573E+05  2.285607E+04  3.624370E+04
       166  26  1.432111E+04  5.607766E+04  2.831131E+03  2.495160E+05  3.935395E+03  3.256144E+04
       166  27 -6.459662E+04 -2.745647E+05 -5.989843E+04  2.933767E+05 -1.518615E+04  2.888228E+04
       167   1  1.197406E+05  4.945163E+05  9.142044E+04  2.941899E+05  2.881711E+04  3.248382E+04
       167   2  1.980137E+05  8.222985E+05  1.650014E+05  2.481331E+05  3.607548E+04 -8.265188E+03
       167   3  2.770042E+05  1.155529E+06  2.652266E+05  2.875753E+05  1.254488E+04 -4.900477E+04
       167   4  8.667179E+02 -2.677791E+03 -5.883131E+03  2.927639E+05  2.875963E+04 -2.687337E+02
       167   5 -1.080751E+03 -1.590816E+03 -7.035030E+03  2.500179E+05  3.609775E+04  3.362762E+03
       167   6 -1.000499E+04 -2.851505E+03 -1.234169E+04  2.927794E+05  1.262783E+04  7.024991E+03
       167   7 -1.180215E+05 -4.996326E+05 -1.031946E+05  2.913390E+05  2.870226E+04 -3.299564E+04
       167   8 -2.002185E+05 -8.248382E+05 -1.791085E+05  2.518997E+05  3.612011E+04  1.497555E+04
       167   9 -2.971097E+05 -1.159997E+06 -2.899931E+05  2.979731E+05  1.271182E+04  6.295078E+04
       167  10  1.197394E+05  4.945149E+05  9.141690E+04  2.941891E+05 -4.152504E-10 -2.629966E-09
       167  11  1.980123E+05  8.222980E+05  1.649989E+05  2.481333E+05 -1.960629E-09 -2.163276E-10
       167  12  2.770034E+05  1.155526E+06  2.652218E+05  2.875758E+05 -6.005343E-10  2.119960E-09
       167  13  8.658297E+02 -2.678013E+03 -5.884685E+03  2.927639E+05  1.818382E-10  2.219822E-11
       167  14 -1.082153E+03 -1.591178E+03 -7.037500E+03  2.500178E+05 -8.244247E-11 -1.259682E-09
       167  15 -1.000517E+04 -2.851601E+03 -1.234208E+04  2.927794E+05 -9.666421E-10  1.412714E-10
       167  16 -1.180227E+05 -4.996340E+05 -1.031981E+05  2.913398E+05  5.071291E-10  1.139330E-09
       167  17 -2.002199E+05 -8.248388E+05 -1.791114E+05  2.518993E+05 -5.216691E-10 -1.169214E-10
       167  18 -2.971110E+05 -1.160001E+06 -2.900009E+05  2.979725E+05  1.238205E-10 -2.512857E-09
       167  19  1.197406E+05  4.945163E+05  9.142044E+04  2.941899E+05 -2.881711E+04 -3.248382E+04
       167  20  1.980137E+05  8.222985E+05  1.650014E+05  2.481331E+05 -3.607548E+04  8.265188E+03
       167  21  2.770042E+05  1.155529E+06  2.652266E+05  2.875753E+05 -1.254488E+04  4.900477E+04
       167  22  8.667179E+02 -2.677791E+03 -5.883131E+03  2.927639E+05 -2.875963E+04  2.687337E+02
       167  23 -1.080751E+03 -1.590816E+03 -7.035030E+03  2.500179E+05 -3.609775E+04 -3.362762E+03
       167  24 -1.000499E+04 -2.851505E+03 -1.234169E+04  2.927794E+05 -1.262783E+04 -7.024991E+03
       167  25 -1.180215E+05 -4.996326E+05 -1.031946E+05  2.913390E+05 -2.870226E+04  3.299564E+04
       167  26 -2.002185E+05 -8.248382E+05 -1.791085E+05  2.518997E+05 -3.612011E+04 -1.497555E+04
       167  27 -2.971097E+05 -1.159997E+06 -2.899931E+05  2.979731E+05 -1.271182E+04 -6.295078E+04
       168   1  2.415135E+06  4.839864E+05  4.831797E+05  3.042051E+05  1.670739E+05 -1.953366E+04
       168   2  2.122260E+06  3.216481E+05  3.149468E+05  2.347270E+05  8.086949E+04 -6.064984E+04
       168   3  1.860507E+06  2.376683E+05  2.223165E+05  2.360546E+05 -5.264055E+03 -6.171437E+04
       168   4  8.609600E+05  9.989520E+04  1.136584E+05  2.450697E+05  7.865065E+04 -1.952913E+04
       168   5  8.505485E+05  1.564642E+04  5.443302E+04  2.096667E+05  5.036312E+04 -6.066195E+04
       168   6  8.612250E+05 -1.832946E+02  3.074983E+04  2.450606E+05  2.210372E+04 -6.171525E+04
       168   7 -6.909814E+05 -2.843523E+05 -2.560004E+05  1.860823E+05 -9.553228E+03 -1.950785E+04
       168   8 -4.196279E+05 -2.904537E+05 -2.061630E+05  1.846583E+05  1.991786E+04 -6.067162E+04
       168   9 -1.370967E+05 -2.380931E+05 -1.608597E+05  2.540516E+05  4.942855E+04 -6.171532E+04
       168  10  2.415105E+06  4.839785E+05  4.831267E+05  3.042077E+05 -5.584407E-10  3.191936E-10
       168  11  2.122252E+06  3.216424E+05  3.149277E+05  2.347310E+05 -9.237179E-10 -6.102327E-10
       168  12  1.860506E+06  2.376642E+05  2.223093E+05  2.360543E+05 -6.815366E-10 -1.047566E-09
       168  13  8.609533E+05  9.989314E+04  1.136461E+05  2.450710E+05  5.999900E-10 -1.017007E-09
       168  14  8.505448E+05  1.564179E+04  5.442134E+04  2.096692E+05  1.001037E-11 -5.945596E-10
       168  15  8.612235E+05 -1.875179E+02  3.074175E+04  2.450617E+05  1.093099E-09 -6.120779E-10
       168  16 -6.909816E+05 -2.843528E+05 -2.560013E+05  1.860822E+05 -3.459746E-11 -7.152731E-10
       168  17 -4.196293E+05 -2.904578E+05 -2.061706E+05  1.846593E+05  1.453899E-09  9.184877E-11
       168  18 -1.371004E+05 -2.380978E+05 -1.608714E+05  2.540540E+05  8.751526E-10 -3.476919E-10
       168  19  2.415135E+06  4.839864E+05  4.831797E+05  3.042051E+05 -1.670739E+05  1.953366E+04
       168  20  2.122260E+06  3.216481E+05  3.149468E+05  2.347270E+05 -8.086949E+04  6.064984E+04
       168  21  1.860507E+06  2.376683E+05  2.223165E+05  2.360546E+05  5.264055E+03  6.171437E+04
       168  22  8.609600E+05  9.989520E+04  1.136584E+05  2.450697E+05 -7.865065E+04  1.952913E+04
       168  23  8.505485E+05  1.564642E+04  5.443302E+04  2.096667E+05 -5.036312E+04  6.066195E+04
       168  24  8.612250E+05 -1.832946E+02  3.074983E+04  2.450606E+05 -2.210372E+04  6.171525E+04
       168  25 -6.909814E+05 -2.843523E+05 -2.560004E+05  1.860823E+05  9.553228E+03  1.950785E+04
       168  26 -4.196279E+05 -2.904537E+05 -2.061630E+05  1.846583E+05 -1.991786E+04  6.067162E+04
       168  27 -1.370967E+05 -2.380931E+05 -1.608597E+05  2.540516E+05 -4.942855E+04  6.171532E+04
       169   1  1.667290E+06  1.966027E+05  1.788854E+05  2.470290E+05 -2.278950E+03 -5.051835E+04
       169   2  1.389653E+06  1.269722E+05  1.143539E+05  2.095023E+05 -1.318555E+04 -3.511859E+04
       169   3  1.114495E+06  6.112775E+04  5.786026E+04  2.449705E+05 -2.409496E+04 -1.702456E+04
       169   4  8.569862E+05  3.793032E+03  2.396756E+04  2.455546E+05  1.798906E+04 -5.051604E+04
       169   5  8.561702E+05  3.568292E+02  1.407412E+04  2.090564E+05  1.097366E+04 -3.510983E+04
       169   6  8.570855E+05  3.789677E+01  9.526477E+03  2.455567E+05  3.950733E+03 -1.700807E+04
       169   7  4.731383E+04 -1.890550E+05 -1.309786E+05  2.440821E+05  3.823129E+04 -5.051381E+04
       169   8  3.229630E+05 -1.262747E+05 -8.621592E+04  2.086109E+05  3.511266E+04 -3.510109E+04
       169   9  5.997413E+05 -6.105537E+04 -3.880724E+04  2.461426E+05  3.198510E+04 -1.699152E+04
       169  10  1.667290E+06  1.965999E+05  1.788806E+05  2.470289E+05 -1.589655E-09 -6.095599E-10
       169  11  1.389652E+06  1.269708E+05  1.143513E+05  2.095019E+05 -2.124192E-09 -7.283982E-10
       169  12  1.114495E+06  6.112728E+04  5.785863E+04  2.449702E+05  5.420814E-10 -1.848650E-10
       169  13  8.569852E+05  3.790203E+03  2.396215E+04  2.455554E+05  1.110912E-09 -6.342248E-10
       169  14  8.561697E+05  3.554725E+02  1.407158E+04  2.090567E+05 -3.636224E-11 -4.614049E-10
       169  15  8.570854E+05  3.758180E+01  9.525904E+03  2.455567E+05  1.048976E-10 -4.472900E-10
       169  16  4.731157E+04 -1.890582E+05 -1.309861E+05  2.440836E+05  2.413063E-09 -7.555874E-10
       169  17  3.229614E+05 -1.262764E+05 -8.622055E+04  2.086119E+05  1.088745E-09 -6.041293E-10
       169  18  5.997401E+05 -6.105595E+04 -3.880970E+04  2.461430E+05 -3.268107E-10 -4.095343E-12
       169  19  1.667290E+06  1.966027E+05  1.788854E+05  2.470290E+05  2.278950E+03  5.051835E+04
       169  20  1.389653E+06  1.269722E+05  1.143539E+05  2.095023E+05  1.318555E+04  3.511859E+04
       169  21  1.114495E+06  6.112775E+04  5.786026E+04  2.449705E+05  2.409496E+04  1.702456E+04
       169  22  8.569862E+05  3.793032E+03  2.396756E+04  2.455546E+05 -1.798906E+04  5.051604E+04
       169  23  8.561702E+05  3.568292E+02  1.407412E+04  2.090564E+05 -1.097366E+04  3.510983E+04
       169  24  8.570855E+05  3.789677E+01  9.526477E+03  2.455567E+05 -3.950733E+03  1.700807E+04
       169  25  4.731383E+04 -1.890550E+05 -1.309786E+05  2.440821E+05 -3.823129E+04  5.051381E+04
       169  26  3.229630E+05 -1.262747E+05 -8.621592E+04  2.086109E+05 -3.511266E+04  3.510109E+04
       169  27  5.997413E+05 -6.105537E+04 -3.880724E+04  2.461426E+05 -3.198510E+04  1.699152E+04
       170   1  9.271375E+05  1.667229E+04  2.082506E+04  2.456047E+05 -2.557962E+04 -5.523787E+03
       170   2  6.507614E+05 -4.878076E+04 -3.118421E+04  2.086881E+05 -2.663571E+04  1.281493E+04
       170   3  3.747895E+05 -1.134053E+05 -8.231150E+04  2.447831E+05 -2.768837E+04  2.906687E+04
       170   4  8.569032E+05  1.641892E+02  8.446794E+03  2.455591E+05  2.358307E+03 -5.506228E+03
       170   5  8.564564E+05  1.944523E+02  8.166917E+03  2.090539E+05 -1.711080E+03  1.282846E+04
       170   6  8.568656E+05  1.580212E+03  1.085987E+04  2.455584E+05 -5.777519E+03  2.907689E+04
       170   7  7.866754E+05 -1.634376E+04 -3.928723E+03  2.455135E+05  3.029317E+04 -5.488672E+03
       170   8  1.062193E+06  4.916751E+04  4.751845E+04  2.094198E+05  2.322161E+04  1.284202E+04
       170   9  1.339166E+06  1.165521E+05  1.040222E+05  2.463343E+05  1.614995E+04  2.908696E+04
       170  10  9.271368E+05  1.667208E+04  2.082377E+04  2.456045E+05  6.928997E-10 -3.307985E-10
       170  11  6.507605E+05 -4.878113E+04 -3.118585E+04  2.086884E+05 -6.358590E-10 -3.829210E-10
       170  12  3.747884E+05 -1.134064E+05 -8.231453E+04  2.447837E+05  1.359995E-10 -4.573705E-10
       170  13  8.569032E+05  1.641551E+02  8.446727E+03  2.455591E+05  3.030208E-10 -3.467464E-10
       170  14  8.564563E+05  1.942747E+02  8.166603E+03  2.090539E+05  5.619045E-10 -3.300029E-10
       170  15  8.568654E+05  1.579294E+03  1.085822E+04  2.455586E+05  6.721953E-10 -6.289894E-11
       170  16  7.866744E+05 -1.634404E+04 -3.930502E+03  2.455136E+05 -5.001177E-10 -1.905474E-10
       170  17  1.062193E+06  4.916719E+04  4.751713E+04  2.094196E+05  7.563904E-10  7.277038E-10
       170  18  1.339165E+06  1.165511E+05  1.040201E+05  2.463340E+05  5.982895E-10  4.540086E-10
       170  19  9.271375E+05  1.667229E+04  2.082506E+04  2.456047E+05  2.557962E+04  5.523787E+03
       170  20  6.507614E+05 -4.878076E+04 -3.118421E+04  2.086881E+05  2.663571E+04 -1.281493E+04
       170  21  3.747895E+05 -1.134053E+05 -8.231150E+04  2.447831E+05  2.768837E+04 -2.906687E+04
       170  22  8.569032E+05  1.641892E+02  8.446794E+03  2.455591E+05 -2.358307E+03  5.506228E+03
       170  23  8.564564E+05  1.944523E+02  8.166917E+03  2.090539E+05  1.711080E+03 -1.282846E+04
       170  24  8.568656E+05  1.580212E+03  1.085987E+04  2.455584E+05  5.777519E+03 -2.907689E+04
       170  25  7.866754E+05 -1.634376E+04 -3.928723E+03  2.455135E+05 -3.029317E+04  5.488672E+03
       170  26  1.062193E+06  4.916751E+04  4.751845E+04  2.094198E+05 -2.322161E+04 -1.284202E+04
       170  27  1.339166E+06  1.165521E+05  1.040222E+05  2.463343E+05 -1.614995E+04 -2.908696E+04
       171   1  1.881548E+05 -1.599082E+05 -1.165419E+05  2.484603E+05 -3.519663E+04  4.033116E+04
       171   2 -8.868311E+04 -2.213671E+05 -1.731118E+05  1.995526E+05 -2.651784E+02  4.344797E+04
       171   3 -3.651207E+05 -2.640006E+05 -2.476852E+05  2.218618E+05  3.464038E+04  1.446347E+04
       171   4  8.584874E+05  1.192654E+01  1.311705E+04  2.451575E+05 -7.627329E+03  4.034077E+04
       171   5  8.542270E+05  6.125697E+03  2.178868E+04  2.095518E+05 -1.892118E+04  4.343833E+04
       171   6  8.583051E+05  3.907258E+04  4.453763E+04  2.451517E+05 -3.022551E+04  1.445822E+04
       171   7  1.529253E+06  1.599057E+05  1.427579E+05  2.418509E+05  1.997106E+04  4.035008E+04
       171   8  1.797980E+06  2.335628E+05  2.166424E+05  2.195664E+05 -3.760501E+04  4.342809E+04
       171   9  2.083113E+06  3.420418E+05  3.366712E+05  2.684874E+05 -9.521865E+04  1.444813E+04
       171  10  1.881531E+05 -1.599102E+05 -1.165473E+05  2.484614E+05 -3.366303E-11 -4.095703E-10
       171  11 -8.868361E+04 -2.213691E+05 -1.731153E+05  1.995526E+05 -1.153449E-09 -1.196786E-10
       171  12 -3.651221E+05 -2.640011E+05 -2.476878E+05  2.218614E+05 -9.091166E-11  4.043190E-11
       171  13  8.584869E+05  1.016256E+01  1.311388E+04  2.451577E+05 -9.200918E-10 -1.108708E-09
       171  14  8.542261E+05  6.123574E+03  2.178446E+04  2.095525E+05  8.923110E-10  6.858249E-11
       171  15  8.583041E+05  3.907211E+04  4.453552E+04  2.451520E+05  1.029288E-09 -1.456751E-10
       171  16  1.529252E+06  1.599039E+05  1.427541E+05  2.418502E+05  3.434769E-10  6.370795E-11
       171  17  1.797978E+06  2.335604E+05  2.166362E+05  2.195677E+05  1.440448E-09 -2.166168E-10
       171  18  2.083103E+06  3.420391E+05  3.366538E+05  2.684885E+05 -3.185271E-10 -6.884589E-11
       171  19  1.881548E+05 -1.599082E+05 -1.165419E+05  2.484603E+05  3.519663E+04 -4.033116E+04
       171  20 -8.868311E+04 -2.213671E+05 -1.731118E+05  1.995526E+05  2.651784E+02 -4.344797E+04
       171  21 -3.651207E+05 -2.640006E+05 -2.476852E+05  2.218618E+05 -3.464038E+04 -1.446347E+04
       171  22  8.584874E+05  1.192654E+01  1.311705E+04  2.451575E+05  7.627329E+03 -4.034077E+04
       171  23  8.542270E+05  6.125697E+03  2.178868E+04  2.095518E+05  1.892118E+04 -4.343833E+04
       171  24  8.583051E+05  3.907258E+04  4.453763E+04  2.451517E+05  3.022551E+04 -1.445822E+04
       171  25  1.529253E+06  1.599057E+05  1.427579E+05  2.418509E+05 -1.997106E+04 -4.035008E+04
       171  26  1.797980E+06  2.335628E+05  2.166424E+05  2.195664E+05  3.760501E+04 -4.342809E+04
       171  27  2.083113E+06  3.420418E+05  3.366712E+05  2.684874E+05  9.521865E+04 -1.444813E+04
       172   1 -3.105636E+05 -1.048334E+06 -3.144619E+05  2.996721E+05 -9.994739E+03 -1.059932E+05
       172   2 -1.679944E+05 -7.511653E+05 -1.784229E+05  2.355967E+05 -2.767717E+04 -4.753954E+04
       172   3 -8.577522E+04 -4.767420E+05 -9.559565E+04  2.456411E+05 -2.038058E+04  1.092252E+04
       172   4 -7.930415E+04 -1.160276E+05 -9.048711E+04  2.533358E+05 -9.932312E+03 -6.253480E+04
       172   5 -1.228286E+04 -1.076892E+05 -4.336573E+04  2.162235E+05 -2.766334E+04 -3.997598E+04
       172   6  6.670005E+02 -1.159059E+05 -2.447159E+04  2.532394E+05 -2.042206E+04 -1.743748E+04
       172   7  1.519013E+05  8.170842E+05  1.334342E+05  2.069292E+05 -9.876440E+03 -1.901123E+04
       172   8  1.434035E+05  5.361794E+05  9.166872E+04  1.968296E+05 -2.765000E+04 -3.240468E+04
       172   9  8.710197E+04  2.450568E+05  4.664917E+04  2.608422E+05 -2.046422E+04 -4.581363E+04
       172  10 -3.105667E+05 -1.048346E+06 -3.144833E+05  2.996712E+05 -1.542947E-10 -3.272813E-10
       172  11 -1.679958E+05 -7.511680E+05 -1.784286E+05  2.355957E+05  5.052255E-10  2.404587E-10
       172  12 -8.577570E+04 -4.767422E+05 -9.559666E+04  2.456413E+05  5.844872E-10  2.008198E-09
       172  13 -7.930531E+04 -1.160319E+05 -9.049465E+04  2.533353E+05 -1.043529E-09 -1.739293E-09
       172  14 -1.228411E+04 -1.076912E+05 -4.337017E+04  2.162226E+05 -3.452279E-10  1.054609E-09
       172  15  6.664713E+02 -1.159063E+05 -2.447294E+04  2.532392E+05 -5.795824E-10 -1.634047E-09
       172  16  1.519011E+05  8.170838E+05  1.334334E+05  2.069290E+05 -5.566616E-10  3.280604E-10
       172  17  1.434024E+05  5.361781E+05  9.166531E+04  1.968289E+05 -2.974837E-10 -1.594407E-09
       172  18  8.710096E+04  2.450544E+05  4.664444E+04  2.608415E+05  4.017206E-10 -1.818181E-09
       172  19 -3.105636E+05 -1.048334E+06 -3.144619E+05  2.996721E+05  9.994739E+03  1.059932E+05
       172  20 -1.679944E+05 -7.511653E+05 -1.784229E+05  2.355967E+05  2.767717E+04  4.753954E+04
       172  21 -8.577522E+04 -4.767420E+05 -9.559565E+04  2.456411E+05  2.038058E+04 -1.092252E+04
       172  22 -7.930415E+04 -1.160276E+05 -9.048711E+04  2.533358E+05  9.932312E+03  6.253480E+04
       172  23 -1.228286E+04 -1.076892E+05 -4.336573E+04  2.162235E+05  2.766334E+04  3.997598E+04
       172  24  6.670005E+02 -1.159059E+05 -2.447159E+04  2.532394E+05  2.042206E+04  1.743748E+04
       172  25  1.519013E+05  8.170842E+05  1.334342E+05  2.069292E+05  9.876440E+03  1.901123E+04
       172  26  1.434035E+05  5.361794E+05  9.166872E+04  1.968296E+05  2.765000E+04  3.240468E+04
       172  27  8.710197E+04  2.450568E+05  4.664917E+04  2.608422E+05  2.046422E+04  4.581363E+04
       173   1 -4.235620E+04 -2.789165E+05 -5.256536E+04  2.544870E+05 -8.663080E+03  1.009676E+04
       173   2  2.857040E+04  7.457079E+03  1.103180E+04  2.160942E+05  8.009795E+03  1.511043E+04
       173   3  9.704908E+04  2.924552E+05  7.069287E+04  2.531704E+05  2.426547E+04  2.012851E+04
       173   4 -2.386886E+03 -1.125532E+05 -1.910128E+04  2.535531E+05 -8.700183E+03 -1.419757E+04
       173   5  2.549530E+02 -1.117859E+05 -1.129290E+04  2.158160E+05  7.974891E+03 -8.586740E+03
       173   6  3.498513E+02 -1.125750E+05 -7.832625E+03  2.535491E+05  2.423253E+04 -2.973689E+03
       173   7  3.758104E+04  5.383767E+04  1.436361E+04  2.526190E+05 -8.737207E+03 -3.849829E+04
       173   8 -2.806101E+04 -2.310139E+05 -3.361610E+04  2.155378E+05  7.940004E+03 -3.227947E+04
       173   9 -9.635889E+04 -5.174464E+05 -8.636382E+04  2.539274E+05  2.419955E+04 -2.606116E+04
       173  10 -4.235631E+04 -2.789166E+05 -5.256570E+04  2.544871E+05  8.817738E-10 -4.622187E-10
       173  11  2.857027E+04  7.456816E+03  1.103125E+04  2.160941E+05 -2.930086E-10 -4.462218E-10
       173  12  9.704834E+04  2.924546E+05  7.069100E+04  2.531700E+05 -8.257717E-10  7.993969E-10
       173  13 -2.387022E+03 -1.125535E+05 -1.910180E+04  2.535530E+05 -8.475917E-11 -2.429517E-09
       173  14  2.548649E+02 -1.117860E+05 -1.129316E+04  2.158160E+05 -1.395919E-11  1.181657E-09
       173  15  3.492183E+02 -1.125751E+05 -7.833745E+03  2.535491E+05  5.944741E-10 -1.555233E-09
       173  16  3.758056E+04  5.383605E+04  1.436069E+04  2.526188E+05 -5.638983E-11  4.159401E-10
       173  17 -2.806136E+04 -2.310150E+05 -3.361818E+04  2.155380E+05  1.500648E-09 -8.490320E-10
       173  18 -9.635970E+04 -5.174473E+05 -8.636620E+04  2.539279E+05 -3.295504E-10 -5.268201E-10
       173  19 -4.235620E+04 -2.789165E+05 -5.256536E+04  2.544870E+05  8.663080E+03 -1.009676E+04
       173  20  2.857040E+04  7.457079E+03  1.103180E+04  2.160942E+05 -8.009795E+03 -1.511043E+04
       173  21  9.704908E+04  2.924552E+05  7.069287E+04  2.531704E+05 -2.426547E+04 -2.012851E+04
       173  22 -2.386886E+03 -1.125532E+05 -1.910128E+04  2.535531E+05  8.700183E+03  1.419757E+04
       173  23  2.549530E+02 -1.117859E+05 -1.129290E+04  2.158160E+05 -7.974891E+03  8.586740E+03
       173  24  3.498513E+02 -1.125750E+05 -7.832625E+03  2.535491E+05 -2.423253E+04  2.973689E+03
       173  25  3.758104E+04  5.383767E+04  1.436361E+04  2.526190E+05  8.737207E+03  3.849829E+04
       173  26 -2.806101E+04 -2.310139E+05 -3.361610E+04  2.155378E+05 -7.940004E+03  3.227947E+04
       173  27 -9.635889E+04 -5.174464E+05 -8.636382E+04  2.539274E+05 -2.419955E+04  2.606116E+04
       174   1  1.437394E+05  4.871360E+05  1.092521E+05  2.543902E+05  3.593994E+04  2.651900E+04
       174   2  2.116909E+05  7.703461E+05  1.755634E+05  2.143548E+05  4.010606E+04 -1.414261E+04
       174   3  2.807864E+05  1.059179E+06  2.685987E+05  2.480407E+05  1.347059E+04 -5.480306E+04
       174   4  5.331429E+02 -1.127456E+05 -7.026847E+03  2.531611E+05  3.590260E+04 -1.761111E+03
       174   5 -1.213799E+03 -1.117508E+05 -7.255865E+03  2.163021E+05  4.012981E+04  1.975806E+03
       174   6 -9.515832E+03 -1.129067E+05 -1.157474E+04  2.531718E+05  1.353506E+04  5.732402E+03
       174   7 -1.426942E+05 -7.122798E+05 -1.233198E+05  2.519331E+05  3.586534E+04 -3.001453E+04
       174   8 -2.141677E+05 -9.931104E+05 -1.901165E+05  2.182464E+05  4.015368E+04  1.807173E+04
       174   9 -2.999155E+05 -1.283727E+06 -2.918313E+05  2.582927E+05  1.360062E+04  6.615422E+04
       174  10  1.437379E+05  4.871349E+05  1.092484E+05  2.543895E+05 -5.988983E-10  6.284638E-10
       174  11  2.116891E+05  7.703454E+05  1.755600E+05  2.143552E+05 -1.123527E-09 -8.683476E-12
       174  12  2.807854E+05  1.059176E+06  2.685927E+05  2.480413E+05  3.262615E-11  6.330345E-10
       174  13  5.317579E+02 -1.127459E+05 -7.029275E+03  2.531612E+05 -8.686568E-10 -2.174721E-09
       174  14 -1.215529E+03 -1.117513E+05 -7.258899E+03  2.163021E+05  1.532905E-10  9.517322E-10
       174  15 -9.516037E+03 -1.129068E+05 -1.157514E+04  2.531717E+05 -9.935429E-11 -9.137504E-10
       174  16 -1.426958E+05 -7.122811E+05 -1.233239E+05  2.519339E+05 -3.400575E-10 -5.361824E-10
       174  17 -2.141695E+05 -9.931112E+05 -1.901202E+05  2.182458E+05 -2.576501E-10 -8.835235E-10
       174  18 -2.999168E+05 -1.283732E+06 -2.918398E+05  2.582919E+05 -2.620419E-11 -5.462181E-10
       174  19  1.437394E+05  4.871360E+05  1.092521E+05  2.543902E+05 -3.593994E+04 -2.651900E+04
       174  20  2.116909E+05  7.703461E+05  1.755634E+05  2.143548E+05 -4.010606E+04  1.414261E+04
       174  21  2.807864E+05  1.059179E+06  2.685987E+05  2.480407E+05 -1.347059E+04  5.480306E+04
       174  22  5.331429E+02 -1.127456E+05 -7.026847E+03  2.531611E+05 -3.590260E+04  1.761111E+03
       174  23 -1.213799E+03 -1.117508E+05 -7.255865E+03  2.163021E+05 -4.012981E+04 -1.975806E+03
       174  24 -9.515832E+03 -1.129067E+05 -1.157474E+04  2.531718E+05 -1.353506E+04 -5.732402E+03
       174  25 -1.426942E+05 -7.122798E+05 -1.233198E+05  2.519331E+05 -3.586534E+04  3.001453E+04
       174  26 -2.141677E+05 -9.931104E+05 -1.901165E+05  2.182464E+05 -4.015368E+04 -1.807173E+04
       174  27 -2.999155E+05 -1.283727E+06 -2.918313E+05  2.582927E+05 -1.360062E+04 -6.615422E+04
       175   1  3.754159E+06  7.379256E+05  7.240898E+05  4.046866E+05  2.231358E+05 -3.417310E+04
       175   2  3.337524E+06  5.500897E+05  5.025148E+05  3.251054E+05  1.011653E+05 -1.083648E+05
       175   3  2.956481E+06  4.383242E+05  3.791648E+05  3.465826E+05 -2.069251E+04 -1.151705E+05
       175   4  1.112029E+06  8.567143E+04  9.750377E+04  3.528062E+05  6.700496E+04 -3.425285E+04
       175   5  1.103000E+06  1.320076E+04  4.699034E+04  3.023095E+05  4.266255E+04 -1.084434E+05
       175   6  1.112637E+06  6.491623E+01  2.725148E+04  3.528672E+05  1.834426E+04 -1.151492E+05
       175   7 -1.523664E+06 -5.670603E+05 -5.294755E+05  3.011444E+05 -8.846841E+04 -3.430697E+04
       175   8 -1.126789E+06 -5.239958E+05 -4.087839E+05  2.795948E+05 -1.563463E+04 -1.085180E+05
       175   9 -7.279417E+05 -4.383930E+05 -3.248102E+05  3.591309E+05  5.726821E+04 -1.151270E+05
       175  10  3.754105E+06  7.379111E+05  7.239946E+05  4.046927E+05  9.859602E-10 -4.409916E-10
       175  11  3.337510E+06  5.500743E+05  5.024735E+05  3.251142E+05 -1.125138E-09 -2.070170E-09
       175  12  2.956477E+06  4.383099E+05  3.791391E+05  3.465807E+05  6.847750E-11 -2.235598E-09
       175  13  1.112024E+06  8.566897E+04  9.749314E+04  3.528080E+05  8.822624E-10 -1.699469E-10
       175  14  1.102995E+06  1.318763E+04  4.696481E+04  3.023132E+05  2.838890E-11 -1.098694E-09
       175  15  1.112633E+06  5.057895E+01  2.722591E+04  3.528689E+05  1.321356E-09 -4.640195E-10
       175  16 -1.523673E+06 -5.670637E+05 -5.294925E+05  3.011419E+05 -7.994830E-10 -5.275881E-11
       175  17 -1.126793E+06 -5.240085E+05 -4.088065E+05  2.795935E+05  1.441114E-10 -1.687827E-09
       175  18 -7.279488E+05 -4.384081E+05 -3.248413E+05  3.591362E+05  5.685261E-10 -3.292332E-09
       175  19  3.754159E+06  7.379256E+05  7.240898E+05  4.046866E+05 -2.231358E+05  3.417310E+04
       175  20  3.337524E+06  5.500897E+05  5.025148E+05  3.251054E+05 -1.011653E+05  1.083648E+05
       175  21  2.956481E+06  4.383242E+05  3.791648E+05  3.465826E+05  2.069251E+04  1.151705E+05
       175  22  1.112029E+06  8.567143E+04  9.750377E+04  3.528062E+05 -6.700496E+04  3.425285E+04
       175  23  1.103000E+06  1.320076E+04  4.699034E+04  3.023095E+05 -4.266255E+04  1.084434E+05
       175  24  1.112637E+06  6.491623E+01  2.725148E+04  3.528672E+05 -1.834426E+04  1.151492E+05
       175  25 -1.523664E+06 -5.670603E+05 -5.294755E+05  3.011444E+05  8.846841E+04  3.430697E+04
       175  26 -1.126789E+06 -5.239958E+05 -4.087839E+05  2.795948E+05  1.563463E+04  1.085180E+05
       175  27 -7.279417E+05 -4.383930E+05 -3.248102E+05  3.591309E+05 -5.726821E+04  1.151270E+05
       176   1  2.680814E+06  3.771330E+05  3.208463E+05  3.564244E+05 -1.244382E+04 -9.918154E+04
       176   2  2.282445E+06  2.790895E+05  2.338826E+05  3.030262E+05 -2.618883E+04 -7.815827E+04
       176   3  1.886975E+06  1.852329E+05  1.568585E+05  3.543498E+05 -3.995456E+04 -5.251894E+04
       176   4  1.109023E+06  3.636848E+03  2.173129E+04  3.536777E+05  1.460062E+04 -9.916205E+04
       176   5  1.108373E+06  7.898582E+02  1.417226E+04  3.013135E+05  7.531904E+03 -7.811346E+04
       176   6  1.109327E+06  9.880470E+02  1.194208E+04  3.536830E+05  4.341455E+02 -5.244421E+04
       176   7 -4.603945E+05 -3.700035E+05 -2.774921E+05  3.509365E+05  4.157841E+04 -9.914277E+04
       176   8 -6.436851E+04 -2.775887E+05 -2.055932E+05  2.996033E+05  4.119065E+04 -7.806878E+04
       176   9  3.322654E+05 -1.832907E+05 -1.329940E+05  3.530165E+05  4.077367E+04 -5.236950E+04
       176  10  2.680811E+06  3.771224E+05  3.208275E+05  3.564234E+05 -4.712858E-09 -2.463067E-09
       176  11  2.282442E+06  2.790828E+05  2.338698E+05  3.030245E+05 -1.071316E-09  1.582995E-09
       176  12  1.886973E+06  1.852295E+05  1.568503E+05  3.543482E+05 -8.924026E-10  1.773754E-09
       176  13  1.109020E+06  3.626225E+03  2.171240E+04  3.536788E+05  2.366458E-10 -1.800598E-09
       176  14  1.108371E+06  7.832870E+02  1.416068E+04  3.013140E+05  8.272701E-10  1.688022E-10
       176  15  1.109326E+06  9.850919E+02  1.193691E+04  3.536830E+05  4.402256E-10 -1.325537E-09
       176  16 -4.603990E+05 -3.700145E+05 -2.775139E+05  3.509399E+05  3.922283E-09 -5.225934E-10
       176  17 -6.437197E+04 -2.775957E+05 -2.056079E+05  2.996059E+05  1.363787E-09  1.018201E-09
       176  18  3.322628E+05 -1.832940E+05 -1.330023E+05  3.530182E+05  1.569504E-09  9.626904E-10
       176  19  2.680814E+06  3.771330E+05  3.208463E+05  3.564244E+05  1.244382E+04  9.918154E+04
       176  20  2.282445E+06  2.790895E+05  2.338826E+05  3.030262E+05  2.618883E+04  7.815827E+04
       176  21  1.886975E+06  1.852329E+05  1.568585E+05  3.543498E+05  3.995456E+04  5.251894E+04
       176  22  1.109023E+06  3.636848E+03  2.173129E+04  3.536777E+05 -1.460062E+04  9.916205E+04
       176  23  1.108373E+06  7.898582E+02  1.417226E+04  3.013135E+05 -7.531904E+03  7.811346E+04
       176  24  1.109327E+06  9.880470E+02  1.194208E+04  3.536830E+05 -4.341455E+02  5.244421E+04
       176  25 -4.603945E+05 -3.700035E+05 -2.774921E+05  3.509365E+05 -4.157841E+04  9.914277E+04
       176  26 -6.436851E+04 -2.775887E+05 -2.055932E+05  2.996033E+05 -4.119065E+04  7.806878E+04
       176  27  3.322654E+05 -1.832907E+05 -1.329940E+05  3.530165E+05 -4.077367E+04  5.236950E+04
       177   1  1.618385E+06  1.213572E+05  1.055530E+05  3.549337E+05 -4.169617E+04 -3.603006E+04
       177   2  1.221657E+06  2.779010E+04  3.510718E+04  3.010354E+05 -4.630622E+04 -9.452129E+03
       177   3  8.260500E+05 -6.285301E+04 -3.171809E+04  3.518718E+05 -5.091358E+04  1.488913E+04
       177   4  1.109378E+06  1.039737E+03  1.219488E+04  3.536836E+05 -1.728628E+03 -3.594990E+04
       177   5  1.108627E+06  1.326439E+03  1.565690E+04  3.013122E+05 -9.574644E+03 -9.377012E+03
       177   6  1.109402E+06  5.104608E+03  2.498076E+04  3.536756E+05 -1.742074E+04  1.495936E+04
       177   7  6.006253E+05 -1.192915E+05 -8.116783E+04  3.524343E+05  3.820709E+04 -3.586985E+04
       177   8  9.956125E+05 -2.513719E+04 -3.788748E+03  3.015890E+05  2.715047E+04 -9.301853E+03
       177   9  1.392833E+06  7.305791E+04  8.167975E+04  3.554801E+05  1.608706E+04  1.502976E+04
       177  10  1.618383E+06  1.213553E+05  1.055473E+05  3.549325E+05 -1.023163E-09  2.686188E-09
       177  11  1.221655E+06  2.778943E+04  3.510299E+04  3.010350E+05  6.867973E-10  1.911154E-09
       177  12  8.260472E+05 -6.285394E+04 -3.172337E+04  3.518724E+05  2.481855E-09 -3.086429E-10
       177  13  1.109378E+06  1.038347E+03  1.219244E+04  3.536835E+05 -2.267877E-10 -2.487232E-09
       177  14  1.108627E+06  1.326320E+03  1.565656E+04  3.013122E+05  1.993170E-10  2.488724E-09
       177  15  1.109402E+06  5.104286E+03  2.497976E+04  3.536758E+05 -4.435692E-10  3.399000E-09
       177  16  6.006234E+05 -1.192933E+05 -8.117299E+04  3.524354E+05  1.508313E-09  1.953300E-09
       177  17  9.956117E+05 -2.513748E+04 -3.790294E+03  3.015892E+05 -1.592322E-09  2.891008E-09
       177  18  1.392833E+06  7.305760E+04  8.167884E+04  3.554799E+05 -3.027938E-09  3.651804E-10
       177  19  1.618385E+06  1.213572E+05  1.055530E+05  3.549337E+05  4.169617E+04  3.603006E+04
       177  20  1.221657E+06  2.779010E+04  3.510718E+04  3.010354E+05  4.630622E+04  9.452129E+03
       177  21  8.260500E+05 -6.285301E+04 -3.171809E+04  3.518718E+05  5.091358E+04 -1.488913E+04
       177  22  1.109378E+06  1.039737E+03  1.219488E+04  3.536836E+05  1.728628E+03  3.594990E+04
       177  23  1.108627E+06  1.326439E+03  1.565690E+04  3.013122E+05  9.574644E+03  9.377012E+03
       177  24  1.109402E+06  5.104608E+03  2.498076E+04  3.536756E+05  1.742074E+04 -1.495936E+04
       177  25  6.006253E+05 -1.192915E+05 -8.116783E+04  3.524343E+05 -3.820709E+04  3.586985E+04
       177  26  9.956125E+05 -2.513719E+04 -3.788748E+03  3.015890E+05 -2.715047E+04  9.301853E+03
       177  27  1.392833E+06  7.305791E+04  8.167975E+04  3.554801E+05 -1.608706E+04 -1.502976E+04
       178   1  5.607455E+05 -1.310669E+05 -7.721777E+04  3.615465E+05 -6.154812E+04  3.110326E+04
       178   2  1.583354E+05 -2.115699E+05 -1.426125E+05  2.752900E+05 -3.824643E+04  4.078762E+04
       178   3 -2.320550E+05 -2.318774E+05 -2.081702E+05  2.917131E+05 -1.491851E+04  1.442915E+04
       178   4  1.113653E+06  1.134077E+03  3.158811E+04  3.532389E+05 -2.173118E+04  3.118410E+04
       178   5  1.103092E+06  1.691058E+04  5.512935E+04  3.018312E+05 -5.037204E+04  4.075921E+04
       178   6  1.113360E+06  1.018396E+05  1.145194E+05  3.530722E+05 -7.897247E+04  1.431905E+04
       178   7  1.666857E+06  1.333177E+05  1.403851E+05  3.449235E+05  1.812044E+04  3.126384E+04
       178   8  2.048693E+06  2.453366E+05  2.528225E+05  3.284130E+05 -6.251574E+04  4.072979E+04
       178   9  2.460449E+06  4.354412E+05  4.370980E+05  4.145637E+05 -1.431646E+05  1.419645E+04
       178  10  5.607412E+05 -1.310690E+05 -7.722670E+04  3.615480E+05  7.454448E-10 -2.418974E-10
       178  11  1.583334E+05 -2.115721E+05 -1.426184E+05  2.752912E+05  1.227970E-09  3.530719E-09
       178  12 -2.320553E+05 -2.318777E+05 -2.081710E+05  2.917132E+05 -2.045902E-10  1.653305E-09
       178  13  1.113653E+06  1.132906E+03  3.158540E+04  3.532394E+05  2.521525E-10  6.410152E-10
       178  14  1.103089E+06  1.690811E+04  5.512146E+04  3.018329E+05  1.343718E-09  3.322059E-09
       178  15  1.113354E+06  1.018377E+05  1.145073E+05  3.530731E+05  5.101851E-10 -6.271444E-10
       178  16  1.666856E+06  1.333166E+05  1.403827E+05  3.449231E+05 -1.441164E-09  3.612512E-10
       178  17  2.048689E+06  2.453337E+05  2.528121E+05  3.284150E+05 -1.506771E-09  6.176686E-10
       178  18  2.460427E+06  4.354355E+05  4.370593E+05  4.145654E+05 -5.384792E-10 -1.266798E-09
       178  19  5.607455E+05 -1.310669E+05 -7.721777E+04  3.615465E+05  6.154812E+04 -3.110326E+04
       178  20  1.583354E+05 -2.115699E+05 -1.426125E+05  2.752900E+05  3.824643E+04 -4.078762E+04
       178  21 -2.320550E+05 -2.318774E+05 -2.081702E+05  2.917131E+05  1.491851E+04 -1.442915E+04
       178  22  1.113653E+06  1.134077E+03  3.158811E+04  3.532389E+05  2.173118E+04 -3.118410E+04
       178  23  1.103092E+06  1.691058E+04  5.512935E+04  3.018312E+05  5.037204E+04 -4.075921E+04
       178  24  1.113360E+06  1.018396E+05  1.145194E+05  3.530722E+05  7.897247E+04 -1.431905E+04
       178  25  1.666857E+06  1.333177E+05  1.403851E+05  3.449235E+05 -1.812044E+04 -3.126384E+04
       178  26  2.048693E+06  2.453366E+05  2.528225E+05  3.284130E+05  6.251574E+04 -4.072979E+04
       178  27  2.460449E+06  4.354412E+05  4.370980E+05  4.145637E+05  1.431646E+05 -1.419645E+04
       179   1 -3.049900E+05 -6.852480E+05 -3.078239E+05  3.330106E+05 -9.429203E+03 -9.818169E+04
       179   2 -1.590276E+05 -3.464582E+05 -1.670531E+05  2.660668E+05 -2.498084E+04 -4.181728E+04
       179   3 -6.797364E+04 -2.869920E+04 -7.675587E+04  2.844366E+05 -1.502082E+04  1.456701E+04
       179   4 -7.128288E+04  2.566482E+05 -8.104346E+04  2.913621E+05 -9.383653E+03 -5.741108E+04
       179   5 -1.110066E+04  2.640743E+05 -3.779047E+04  2.486700E+05 -2.497358E+04 -3.772729E+04
       179   6  5.832219E+02  2.567668E+05 -1.949245E+04  2.912998E+05 -1.505888E+04 -1.805497E+04
       179   7  1.623671E+05  1.199364E+06  1.456810E+05  2.496497E+05 -9.343627E+03 -1.657875E+04
       179   8  1.368033E+05  8.749592E+05  9.145118E+04  2.312558E+05 -2.496655E+04 -3.363333E+04
       179   9  6.913581E+04  5.423128E+05  3.777085E+04  2.981661E+05 -1.509765E+04 -5.069164E+04
       179  10 -3.049927E+05 -6.852584E+05 -3.078422E+05  3.330099E+05  2.426192E-11  2.350830E-10
       179  11 -1.590287E+05 -3.464602E+05 -1.670575E+05  2.660659E+05  5.356447E-10  2.444537E-09
       179  12 -6.797394E+04 -2.869949E+04 -7.675670E+04  2.844368E+05  4.008163E-10  1.141799E-09
       179  13 -7.128386E+04  2.566446E+05 -8.104981E+04  2.913616E+05  6.857857E-10  5.145124E-10
       179  14 -1.110171E+04  2.640726E+05 -3.779432E+04  2.486693E+05 -2.848424E-11  1.385900E-09
       179  15  5.828911E+02  2.567664E+05 -1.949349E+04  2.912996E+05 -7.163122E-10  8.045816E-11
       179  16  1.623670E+05  1.199364E+06  1.456803E+05  2.496496E+05  4.611234E-10 -7.957427E-10
       179  17  1.368024E+05  8.749578E+05  9.144789E+04  2.312551E+05  1.762254E-10 -7.255359E-10
       179  18  6.913487E+04  5.423100E+05  3.776560E+04  2.981655E+05  1.267193E-10 -1.786688E-09
       179  19 -3.049900E+05 -6.852480E+05 -3.078239E+05  3.330106E+05  9.429203E+03  9.818169E+04
       179  20 -1.590276E+05 -3.464582E+05 -1.670531E+05  2.660668E+05  2.498084E+04  4.181728E+04
       179  21 -6.797364E+04 -2.869920E+04 -7.675587E+04  2.844366E+05  1.502082E+04 -1.456701E+04
       179  22 -7.128288E+04  2.566482E+05 -8.104346E+04  2.913621E+05  9.383653E+03  5.741108E+04
       179  23 -1.110066E+04  2.640743E+05 -3.779047E+04  2.486700E+05  2.497358E+04  3.772729E+04
       179  24  5.832219E+02  2.567668E+05 -1.949245E+04  2.912998E+05  1.505888E+04  1.805497E+04
       179  25  1.623671E+05  1.199364E+06  1.456810E+05  2.496497E+05  9.343627E+03  1.657875E+04
       179  26  1.368033E+05  8.749592E+05  9.145118E+04  2.312558E+05  2.496655E+04  3.363333E+04
       179  27  6.913581E+04  5.423128E+05  3.777085E+04  2.981661E+05  1.509765E+04  5.069164E+04
       180   1 -1.750363E+04  1.977199E+05 -2.784950E+04  2.921639E+05 -1.543866E+03  1.289011E+04
       180   2  6.341962E+04  5.260354E+05  4.571890E+04  2.487118E+05  1.781358E+04  1.354730E+04
       180   3  1.437200E+05  8.540970E+05  1.186580E+05  2.919238E+05  3.624289E+04  1.420987E+04
       180   4 -2.249869E+03  2.599267E+05 -1.376372E+04  2.916082E+05 -1.578426E+03 -1.566219E+04
       180   5  3.251156E+02  2.601907E+05 -4.026279E+03  2.482725E+05  1.778376E+04 -1.367240E+04
       180   6  2.052464E+03  2.598687E+05  4.161031E+03  2.916032E+05  3.621735E+04 -1.167755E+04
       180   7  1.300406E+04  3.221389E+05  3.248635E+02  2.910524E+05 -1.612932E+03 -4.421733E+04
       180   8 -6.277308E+04 -5.584000E+03 -5.377172E+04  2.478333E+05  1.775398E+04 -4.088075E+04
       180   9 -1.396356E+05 -3.340189E+05 -1.103497E+05  2.912828E+05  3.619183E+04 -3.754078E+04
       180  10 -1.750367E+04  1.977197E+05 -2.784981E+04  2.921639E+05 -3.227981E-10  2.466731E-08
       180  11  6.341923E+04  5.260351E+05  4.571796E+04  2.487116E+05 -9.594124E-10  1.739764E-09
       180  12  1.437185E+05  8.540964E+05  1.186551E+05  2.919234E+05 -8.735137E-10 -2.560187E-08
       180  13 -2.249938E+03  2.599265E+05 -1.376419E+04  2.916082E+05 -8.477954E-10  8.071072E-10
       180  14  3.247257E+02  2.601905E+05 -4.027225E+03  2.482727E+05 -9.654289E-10  1.487083E-09
       180  15  2.051018E+03  2.598682E+05  4.158309E+03  2.916036E+05 -1.049057E-09  6.415000E-11
       180  16  1.300353E+04  3.221368E+05  3.211864E+02  2.910523E+05 -1.456914E-09 -2.543364E-08
       180  17 -6.277386E+04 -5.585880E+03 -5.377545E+04  2.478339E+05 -1.988503E-09  6.098748E-10
       180  18 -1.396374E+05 -3.340208E+05 -1.103548E+05  2.912839E+05 -9.404653E-10  2.500848E-08
       180  19 -1.750363E+04  1.977199E+05 -2.784950E+04  2.921639E+05  1.543866E+03 -1.289011E+04
       180  20  6.341962E+04  5.260354E+05  4.571890E+04  2.487118E+05 -1.781358E+04 -1.354730E+04
       180  21  1.437200E+05  8.540970E+05  1.186580E+05  2.919238E+05 -3.624289E+04 -1.420987E+04
       180  22 -2.249869E+03  2.599267E+05 -1.376372E+04  2.916082E+05  1.578426E+03  1.566219E+04
       180  23  3.251156E+02  2.601907E+05 -4.026279E+03  2.482725E+05 -1.778376E+04  1.367240E+04
       180  24  2.052464E+03  2.598687E+05  4.161031E+03  2.916032E+05 -3.621735E+04  1.167755E+04
       180  25  1.300406E+04  3.221389E+05  3.248635E+02  2.910524E+05  1.612932E+03  4.421733E+04
       180  26 -6.277308E+04 -5.584000E+03 -5.377172E+04  2.478333E+05 -1.775398E+04  4.088075E+04
       180  27 -1.396356E+05 -3.340189E+05 -1.103497E+05  2.912828E+05 -3.619183E+04  3.754078E+04
       181   1  1.953863E+05  1.079997E+06  1.661594E+05  2.878152E+05  4.961516E+04  1.992119E+04
       181   2  2.817940E+05  1.399768E+06  2.554064E+05  2.591153E+05  5.279173E+04 -4.588875E+04
       181   3  4.049098E+05  1.737495E+06  3.966324E+05  3.149244E+05  1.745265E+04 -1.117328E+05
       181   4  2.989524E+02  2.617712E+05  8.261539E+03  2.911278E+05  4.958795E+04 -1.251133E+04
       181   5  6.401354E+03  2.575226E+05  1.964727E+04  2.488601E+05  5.281694E+04 -2.274055E+04
       181   6  3.961698E+04  2.615273E+05  4.448413E+04  2.911030E+05  1.750089E+04 -3.296775E+04
       181   7 -1.948275E+05 -5.558093E+05 -1.496635E+05  2.944356E+05  4.956037E+04 -4.490213E+04
       181   8 -2.690730E+05 -8.834864E+05 -2.161803E+05  2.386237E+05  5.284141E+04  3.659068E+02
       181   9 -3.258278E+05 -1.212433E+06 -3.077938E+05  2.673376E+05  1.754318E+04  4.561134E+04
       181  10  1.953835E+05  1.079996E+06  1.661541E+05  2.878144E+05 -2.073817E-10 -9.488346E-10
       181  11  2.817904E+05  1.399765E+06  2.553972E+05  2.591172E+05 -1.392843E-10 -1.316010E-10
       181  12  4.049061E+05  1.737482E+06  3.966085E+05  3.149260E+05 -3.140680E-10 -1.340344E-09
       181  13  2.962691E+02  2.617704E+05  8.256622E+03  2.911283E+05 -5.084746E-10  5.640952E-10
       181  14  6.398219E+03  2.575213E+05  1.964105E+04  2.488611E+05  9.829967E-10  7.805960E-10
       181  15  3.961636E+04  2.615260E+05  4.448151E+04  2.911034E+05  6.103827E-11 -6.160144E-11
       181  16 -1.948307E+05 -5.558122E+05 -1.496719E+05  2.944374E+05 -1.924710E-10  1.861142E-10
       181  17 -2.690760E+05 -8.834872E+05 -2.161855E+05  2.386237E+05  7.597463E-10  1.150225E-09
       181  18 -3.258287E+05 -1.212435E+06 -3.077983E+05  2.673370E+05  1.771594E-10  1.231690E-09
       181  19  1.953863E+05  1.079997E+06  1.661594E+05  2.878152E+05 -4.961516E+04 -1.992119E+04
       181  20  2.817940E+05  1.399768E+06  2.554064E+05  2.591153E+05 -5.279173E+04  4.588875E+04
       181  21  4.049098E+05  1.737495E+06  3.966324E+05  3.149244E+05 -1.745265E+04  1.117328E+05
       181  22  2.989524E+02  2.617712E+05  8.261539E+03  2.911278E+05 -4.958795E+04  1.251133E+04
       181  23  6.401354E+03  2.575226E+05  1.964727E+04  2.488601E+05 -5.281694E+04  2.274055E+04
       181  24  3.961698E+04  2.615273E+05  4.448413E+04  2.911030E+05 -1.750089E+04  3.296775E+04
       181  25 -1.948275E+05 -5.558093E+05 -1.496635E+05  2.944356E+05 -4.956037E+04  4.490213E+04
       181  26 -2.690730E+05 -8.834864E+05 -2.161803E+05  2.386237E+05 -5.284141E+04 -3.659068E+02
       181  27 -3.258278E+05 -1.212433E+06 -3.077938E+05  2.673376E+05 -1.754318E+04 -4.561134E+04
       182   1  1.650318E+06  2.639044E+05  2.562430E+05  1.939176E+05  6.569101E+04 -1.214121E+04
       182   2  1.438008E+06  1.947315E+05  1.721424E+05  1.623965E+05  2.371696E+04 -3.728094E+04
       182   3  1.235197E+06  1.418698E+05  1.193960E+05  1.841010E+05 -1.827091E+04 -3.617392E+04
       182   4  6.417982E+05  1.437321E+04  1.590367E+04  1.845631E+05  1.056109E+04 -1.221903E+04
       182   5  6.403990E+05  2.551250E+03  7.961700E+03  1.579595E+05  6.472023E+03 -3.731100E+04
       182   6  6.419075E+05  4.884690E+02  5.118551E+03  1.845835E+05  2.354928E+03 -3.614154E+04
       182   7 -3.657845E+05 -2.352295E+05 -2.244955E+05  1.752235E+05 -4.447989E+04 -1.229527E+04
       182   8 -1.566069E+05 -1.896688E+05 -1.562520E+05  1.535281E+05 -1.075119E+04 -3.734083E+04
       182   9  4.895688E+04 -1.409135E+05 -1.091736E+05  1.850653E+05  2.296154E+04 -3.610911E+04
       182  10  1.650314E+06  2.639031E+05  2.562346E+05  1.939182E+05  2.369277E-09 -1.100910E-09
       182  11  1.438007E+06  1.947298E+05  1.721387E+05  1.623972E+05  1.063059E-09 -2.265655E-10
       182  12  1.235196E+06  1.418683E+05  1.193930E+05  1.841005E+05 -2.512942E-09 -1.727816E-09
       182  13  6.417980E+05  1.437302E+04  1.590318E+04  1.845632E+05  1.996573E-10  2.403596E-09
       182  14  6.403985E+05  2.549743E+03  7.959004E+03  1.579597E+05  3.976189E-10  2.701966E-10
       182  15  6.419072E+05  4.870644E+02  5.116085E+03  1.845836E+05  4.371261E-10 -1.443032E-09
       182  16 -3.657867E+05 -2.352301E+05 -2.244996E+05  1.752231E+05 -3.483403E-09  6.355660E-10
       182  17 -1.566074E+05 -1.896704E+05 -1.562549E+05  1.535277E+05 -1.670744E-09 -1.910587E-09
       182  18  4.895596E+04 -1.409150E+05 -1.091771E+05  1.850660E+05  2.636162E-09 -2.138284E-09
       182  19  1.650318E+06  2.639044E+05  2.562430E+05  1.939176E+05 -6.569101E+04  1.214121E+04
       182  20  1.438008E+06  1.947315E+05  1.721424E+05  1.623965E+05 -2.371696E+04  3.728094E+04
       182  21  1.235197E+06  1.418698E+05  1.193960E+05  1.841010E+05  1.827091E+04  3.617392E+04
       182  22  6.417982E+05  1.437321E+04  1.590367E+04  1.845631E+05 -1.056109E+04  1.221903E+04
       182  23  6.403990E+05  2.551250E+03  7.961700E+03  1.579595E+05 -6.472023E+03  3.731100E+04
       182  24  6.419075E+05  4.884690E+02  5.118551E+03  1.845835E+05 -2.354928E+03  3.614154E+04
       182  25 -3.657845E+05 -2.352295E+05 -2.244955E+05  1.752235E+05  4.447989E+04  1.229527E+04
       182  26 -1.566069E+05 -1.896688E+05 -1.562520E+05  1.535281E+05  1.075119E+04  3.734083E+04
       182  27  4.895688E+04 -1.409135E+05 -1.091736E+05  1.850653E+05 -2.296154E+04  3.610911E+04
       183   1  1.093257E+06  1.087343E+05  9.135691E+04  1.857566E+05 -1.439295E+04 -2.774212E+04
       183   2  8.858190E+05  5.863742E+04  5.030802E+04  1.580430E+05 -1.889161E+04 -1.580049E+04
       183   3  6.790948E+05  9.661743E+03  1.241238E+04  1.850565E+05 -2.339396E+04 -2.127006E+03
       183   4  6.413433E+05  1.063110E+03  4.474832E+03  1.849136E+05  1.586938E+03 -2.771542E+04
       183   5  6.412396E+05  5.007366E+02  3.996820E+03  1.575498E+05 -4.164641E+02 -1.576765E+04
       183   6  6.413760E+05  6.291335E+02  4.941636E+03  1.849144E+05 -2.424989E+03 -2.087612E+03
       183   7  1.896260E+05 -1.066201E+05 -8.241570E+04  1.840711E+05  1.755548E+04 -2.768875E+04
       183   8  3.967187E+05 -5.763926E+04 -4.231575E+04  1.570567E+05  1.805159E+04 -1.573484E+04
       183   9  6.036596E+05 -8.403327E+03 -2.527523E+03  1.847722E+05  1.854274E+04 -2.048227E+03
       183  10  1.093257E+06  1.087335E+05  9.135507E+04  1.857563E+05 -1.550407E-09  1.060476E-09
       183  11  8.858185E+05  5.863706E+04  5.030688E+04  1.580428E+05 -7.329739E-10  1.811107E-09
       183  12  6.790942E+05  9.661591E+03  1.241134E+04  1.850565E+05 -2.394480E-09  1.670885E-09
       183  13  6.413431E+05  1.062284E+03  4.473384E+03  1.849136E+05  5.474830E-10 -6.275229E-10
       183  14  6.412396E+05  5.004695E+02  3.996353E+03  1.575497E+05  7.418693E-10  1.683795E-09
       183  15  6.413760E+05  6.291273E+02  4.941617E+03  1.849144E+05 -8.440269E-11  1.506842E-09
       183  16  1.896254E+05 -1.066210E+05 -8.241772E+04  1.840715E+05  1.477889E-09  9.270662E-10
       183  17  3.967182E+05 -5.763961E+04 -4.231683E+04  1.570569E+05 -7.186332E-10 -4.691303E-09
       183  18  6.036592E+05 -8.403423E+03 -2.528177E+03  1.847722E+05  2.301764E-09  1.752430E-10
       183  19  1.093257E+06  1.087343E+05  9.135691E+04  1.857566E+05  1.439295E+04  2.774212E+04
       183  20  8.858190E+05  5.863742E+04  5.030802E+04  1.580430E+05  1.889161E+04  1.580049E+04
       183  21  6.790948E+05  9.661743E+03  1.241238E+04  1.850565E+05  2.339396E+04  2.127006E+03
       183  22  6.413433E+05  1.063110E+03  4.474832E+03  1.849136E+05 -1.586938E+03  2.771542E+04
       183  23  6.412396E+05  5.007366E+02  3.996820E+03  1.575498E+05  4.164641E+02  1.576765E+04
       183  24  6.413760E+05  6.291335E+02  4.941636E+03  1.849144E+05  2.424989E+03  2.087612E+03
       183  25  1.896260E+05 -1.066201E+05 -8.241570E+04  1.840711E+05 -1.755548E+04  2.768875E+04
       183  26  3.967187E+05 -5.763926E+04 -4.231575E+04  1.570567E+05 -1.805159E+04  1.573484E+04
       183  27  6.036596E+05 -8.403327E+03 -2.527523E+03  1.847722E+05 -1.854274E+04  2.048227E+03
       184   1  5.389869E+05 -2.387111E+04 -1.354954E+04  1.852907E+05 -2.438747E+04  6.495226E+03
       184   2  3.316698E+05 -7.279680E+04 -4.890580E+04  1.569569E+05 -2.645718E+04  2.013175E+04
       184   3  1.249470E+05 -1.198629E+05 -8.250249E+04  1.833504E+05 -2.852024E+04  3.191432E+04
       184   4  6.415458E+05  5.231133E+02  5.939607E+03  1.849144E+05 -3.400643E+03  6.534506E+03
       184   5  6.410179E+05  7.167228E+02  9.470603E+03  1.575492E+05 -8.146497E+03  2.016362E+04
       184   6  6.415021E+05  3.234404E+03  1.661536E+04  1.849094E+05 -1.288632E+04  3.193934E+04
       184   7  7.441156E+05  2.491696E+04  2.542994E+04  1.845380E+05  1.758957E+04  6.573757E+03
       184   8  9.504591E+05  7.422486E+04  6.784406E+04  1.581418E+05  1.017308E+04  2.019552E+04
       184   9  1.158314E+06  1.263161E+05  1.157219E+05  1.864695E+05  2.760305E+03  3.196442E+04
       184  10  5.389863E+05 -2.387131E+04 -1.355074E+04  1.852909E+05 -3.084062E-09  3.664323E-09
       184  11  3.316690E+05 -7.279742E+04 -4.890788E+04  1.569573E+05  7.600424E-10  2.385767E-09
       184  12  1.249459E+05 -1.198642E+05 -8.250594E+04  1.833511E+05  4.260836E-09  3.302757E-09
       184  13  6.415457E+05  5.230643E+02  5.939505E+03  1.849144E+05  5.519525E-10  3.049127E-09
       184  14  6.410178E+05  7.162682E+02  9.469714E+03  1.575494E+05  4.672663E-10  3.009411E-09
       184  15  6.415017E+05  3.233264E+03  1.661313E+04  1.849097E+05  4.709798E-10 -3.175644E-10
       184  16  7.441153E+05  2.491683E+04  2.542928E+04  1.845379E+05  3.132235E-09  2.239371E-09
       184  17  9.504589E+05  7.422439E+04  6.784310E+04  1.581416E+05 -1.698834E-09  6.033052E-10
       184  18  1.158314E+06  1.263150E+05  1.157200E+05  1.864694E+05 -5.001670E-09 -2.441443E-09
       184  19  5.389869E+05 -2.387111E+04 -1.354954E+04  1.852907E+05  2.438747E+04 -6.495226E+03
       184  20  3.316698E+05 -7.279680E+04 -4.890580E+04  1.569569E+05  2.645718E+04 -2.013175E+04
       184  21  1.249470E+05 -1.198629E+05 -8.250249E+04  1.833504E+05  2.852024E+04 -3.191432E+04
       184  22  6.415458E+05  5.231133E+02  5.939607E+03  1.849144E+05  3.400643E+03 -6.534506E+03
       184  23  6.410179E+05  7.167228E+02  9.470603E+03  1.575492E+05  8.146497E+03 -2.016362E+04
       184  24  6.415021E+05  3.234404E+03  1.661536E+04  1.849094E+05  1.288632E+04 -3.193934E+04
       184  25  7.441156E+05  2.491696E+04  2.542994E+04  1.845380E+05 -1.758957E+04 -6.573757E+03
       184  26  9.504591E+05  7.422486E+04  6.784406E+04  1.581418E+05 -1.017308E+04 -2.019552E+04
       184  27  1.158314E+06  1.263161E+05  1.157219E+05  1.864695E+05 -2.760305E+03 -3.196442E+04
       185   1 -1.339237E+04 -1.563662E+05 -1.051075E+05  1.901836E+05 -3.630236E+04  4.031727E+04
       185   2 -2.246003E+05 -1.962680E+05 -1.390096E+05  1.393981E+05 -1.602587E+04  4.070739E+04
       185   3 -4.281237E+05 -1.948829E+05 -1.758002E+05  1.417275E+05  4.272577E+03  1.323882E+04
       185   4  6.444887E+05  4.545033E+02  2.144574E+04  1.845658E+05 -1.575244E+04  4.034843E+04
       185   5  6.371268E+05  1.154751E+04  3.820374E+04  1.579639E+05 -3.559485E+04  4.067384E+04
       185   6  6.443532E+05  7.085800E+04  7.991201E+04  1.844664E+05 -5.540997E+04  1.315972E+04
       185   7  1.302787E+06  1.572500E+05  1.479806E+05  1.789417E+05  4.818767E+03  4.037921E+04
       185   8  1.499560E+06  2.193177E+05  2.153789E+05  1.765556E+05 -5.519048E+04  4.063915E+04
       185   9  1.717896E+06  3.365245E+05  3.355578E+05  2.272789E+05 -1.151951E+05  1.307249E+04
       185  10 -1.339422E+04 -1.563683E+05 -1.051130E+05  1.901848E+05 -1.147758E-09  2.341773E-09
       185  11 -2.246010E+05 -1.962698E+05 -1.390132E+05  1.393986E+05  4.434968E-10  1.278170E-09
       185  12 -4.281238E+05 -1.948831E+05 -1.758006E+05  1.417275E+05  9.632709E-10 -9.663261E-12
       185  13  6.444880E+05  4.526878E+02  2.144221E+04  1.845663E+05  7.382610E-10  2.879398E-09
       185  14  6.371250E+05  1.154540E+04  3.819825E+04  1.579651E+05 -4.286794E-10 -2.109107E-09
       185  15  6.443499E+05  7.085700E+04  7.990592E+04  1.844670E+05  5.767541E-10  2.038942E-09
       185  16  1.302786E+06  1.572482E+05  1.479775E+05  1.789416E+05  1.115128E-09  1.838675E-09
       185  17  1.499556E+06  2.193151E+05  2.153701E+05  1.765574E+05 -9.498240E-10  1.469398E-10
       185  18  1.717882E+06  3.365208E+05  3.355326E+05  2.272801E+05 -1.101306E-09 -5.847903E-10
       185  19 -1.339237E+04 -1.563662E+05 -1.051075E+05  1.901836E+05  3.630236E+04 -4.031727E+04
       185  20 -2.246003E+05 -1.962680E+05 -1.390096E+05  1.393981E+05  1.602587E+04 -4.070739E+04
       185  21 -4.281237E+05 -1.948829E+05 -1.758002E+05  1.417275E+05 -4.272577E+03 -1.323882E+04
       185  22  6.444887E+05  4.545033E+02  2.144574E+04  1.845658E+05  1.575244E+04 -4.034843E+04
       185  23  6.371268E+05  1.154751E+04  3.820374E+04  1.579639E+05  3.559485E+04 -4.067384E+04
       185  24  6.443532E+05  7.085800E+04  7.991201E+04  1.844664E+05  5.540997E+04 -1.315972E+04
       185  25  1.302787E+06  1.572500E+05  1.479806E+05  1.789417E+05 -4.818767E+03 -4.037921E+04
       185  26  1.499560E+06  2.193177E+05  2.153789E+05  1.765556E+05  5.519048E+04 -4.063915E+04
       185  27  1.717896E+06  3.365245E+05  3.355578E+05  2.272789E+05  1.151951E+05 -1.307249E+04
       186   1 -7.028820E+05 -2.421996E+06 -6.968547E+05  5.683194E+05 -2.756973E+04 -2.135278E+05
       186   2 -4.524932E+05 -1.838763E+06 -4.342492E+05  4.561346E+05 -8.213825E+04 -9.185132E+04
       186   3 -2.956342E+05 -1.293868E+06 -2.743841E+05  4.894017E+05 -7.441852E+04  2.999857E+04
       186   4 -1.158095E+05 -5.679796E+04 -1.305074E+05  5.002268E+05 -2.754614E+04 -9.061681E+04
       186   5 -1.894182E+04 -4.498405E+04 -6.226127E+04  4.274902E+05 -8.210658E+04 -5.823417E+04
       186   6  1.037042E+02 -5.614945E+04 -3.448470E+04  5.002195E+05 -7.444515E+04 -2.579741E+04
       186   7  4.708826E+05  2.313582E+06  4.355040E+05  4.318709E+05 -2.754980E+04  3.276237E+04
       186   8  4.144089E+05  1.751854E+06  3.095560E+05  3.987603E+05 -8.207810E+04 -2.452115E+04
       186   9  2.957522E+05  1.183049E+06  2.053546E+05  5.110587E+05 -7.447367E+04 -8.170227E+04
       186  10 -7.028951E+05 -2.422046E+06 -6.969421E+05  5.683147E+05  5.009643E-10  7.748884E-10
       186  11 -4.525027E+05 -1.838774E+06 -4.342778E+05  4.561285E+05  5.576578E-12  1.043454E-09
       186  12 -2.956404E+05 -1.293870E+06 -2.743963E+05  4.894035E+05  1.870221E-10 -6.534459E-10
       186  13 -1.158125E+05 -5.680698E+04 -1.305242E+05  5.002248E+05 -2.361584E-11  1.964235E-11
       186  14 -1.894996E+04 -4.498949E+04 -6.228029E+04  4.274864E+05  6.920816E-10  9.863205E-10
       186  15  9.757669E+01 -5.615165E+04 -3.449636E+04  5.002180E+05 -7.453513E-10  4.597439E-10
       186  16  4.708815E+05  2.313581E+06  4.355005E+05  4.318716E+05 -9.168757E-11 -2.873011E-10
       186  17  4.144015E+05  1.751851E+06  3.095423E+05  3.987587E+05  5.224967E-10 -1.283022E-09
       186  18  2.957445E+05  1.183041E+06  2.053317E+05  5.110538E+05  5.057244E-10  4.179934E-10
       186  19 -7.028820E+05 -2.421996E+06 -6.968547E+05  5.683194E+05  2.756973E+04  2.135278E+05
       186  20 -4.524932E+05 -1.838763E+06 -4.342492E+05  4.561346E+05  8.213825E+04  9.185132E+04
       186  21 -2.956342E+05 -1.293868E+06 -2.743841E+05  4.894017E+05  7.441852E+04 -2.999857E+04
       186  22 -1.158095E+05 -5.679796E+04 -1.305074E+05  5.002268E+05  2.754614E+04  9.061681E+04
       186  23 -1.894182E+04 -4.498405E+04 -6.226127E+04  4.274902E+05  8.210658E+04  5.823417E+04
       186  24  1.037042E+02 -5.614945E+04 -3.448470E+04  5.002195E+05  7.444515E+04  2.579741E+04
       186  25  4.708826E+05  2.313582E+06  4.355040E+05  4.318709E+05  2.754980E+04 -3.276237E+04
       186  26  4.144089E+05  1.751854E+06  3.095560E+05  3.987603E+05  8.207810E+04  2.452115E+04
       186  27  2.957522E+05  1.183049E+06  2.053546E+05  5.110587E+05  7.447367E+04  8.170227E+04
       187   1 -2.079881E+05 -9.046657E+05 -1.917705E+05  5.021711E+05 -5.137487E+04  2.403647E+04
       187   2 -6.873576E+04 -3.397441E+05 -6.856683E+04  4.266468E+05 -1.936411E+04  3.265994E+04
       187   3  6.681250E+04  2.234868E+05  4.806774E+04  5.001691E+05  1.365457E+04  4.128259E+04
       187   4 -4.155486E+03 -5.127100E+04 -2.647939E+04  5.010094E+05 -5.140702E+04 -2.129739E+04
       187   5 -6.561919E+00 -5.034906E+04 -1.438161E+04  4.264856E+05 -1.940256E+04 -1.413333E+04
       187   6  7.116672E+02 -5.116519E+04 -7.826631E+03  5.010052E+05  1.360882E+04 -6.977543E+03
       187   7  1.996347E+05  8.028286E+05  1.387853E+05  4.998458E+05 -5.143896E+04 -6.669222E+04
       187   8  6.871897E+04  2.391317E+05  3.980824E+04  4.263242E+05 -1.944097E+04 -6.094787E+04
       187   9 -6.539262E+04 -3.257405E+05 -6.371621E+04  5.018408E+05  1.356292E+04 -5.521673E+04
       187  10 -2.079910E+05 -9.046670E+05 -1.917766E+05  5.021721E+05  4.639352E-11  5.769179E-11
       187  11 -6.873645E+04 -3.397453E+05 -6.856954E+04  4.266473E+05  1.274843E-10 -2.268634E-11
       187  12  6.681184E+04  2.234850E+05  4.806420E+04  5.001687E+05 -5.059092E-10  4.436282E-10
       187  13 -4.158444E+03 -5.127219E+04 -2.648521E+04  5.010085E+05 -5.642033E-10 -2.694673E-10
       187  14 -7.019496E+00 -5.034938E+04 -1.438269E+04  4.264853E+05 -9.797997E-10  2.755985E-11
       187  15  7.114551E+02 -5.116530E+04 -7.827071E+03  5.010053E+05 -1.746804E-10 -6.448371E-11
       187  16  1.996307E+05  8.028231E+05  1.387720E+05  4.998430E+05  3.127483E-10  8.513062E-11
       187  17  6.871757E+04  2.391276E+05  3.980055E+04  4.263233E+05  1.814672E-10  4.908298E-11
       187  18 -6.539363E+04 -3.257438E+05 -6.372229E+04  5.018414E+05 -2.765582E-10  1.322513E-10
       187  19 -2.079881E+05 -9.046657E+05 -1.917705E+05  5.021711E+05  5.137487E+04 -2.403647E+04
       187  20 -6.873576E+04 -3.397441E+05 -6.856683E+04  4.266468E+05  1.936411E+04 -3.265994E+04
       187  21  6.681250E+04  2.234868E+05  4.806774E+04  5.001691E+05 -1.365457E+04 -4.128259E+04
       187  22 -4.155486E+03 -5.127100E+04 -2.647939E+04  5.010094E+05  5.140702E+04  2.129739E+04
       187  23 -6.561919E+00 -5.034906E+04 -1.438161E+04  4.264856E+05  1.940256E+04  1.413333E+04
       187  24  7.116672E+02 -5.116519E+04 -7.826631E+03  5.010052E+05 -1.360882E+04  6.977543E+03
       187  25  1.996347E+05  8.028286E+05  1.387853E+05  4.998458E+05  5.143896E+04  6.669222E+04
       187  26  6.871897E+04  2.391317E+05  3.980824E+04  4.263242E+05  1.944097E+04  6.094787E+04
       187  27 -6.539262E+04 -3.257405E+05 -6.371621E+04  5.018408E+05 -1.356292E+04  5.521673E+04
       188   1  1.581726E+05  6.081934E+05  1.245911E+05  5.003336E+05  3.680541E+04  5.022244E+04
       188   2  2.947113E+05  1.166840E+06  2.533658E+05  4.273729E+05  5.166742E+04 -1.764762E+04
       188   3  4.437135E+05  1.738053E+06  4.294247E+05  5.008270E+05  1.859421E+04 -8.559896E+04
       188   4  3.780912E+02 -5.078260E+04 -5.638598E+03  5.004254E+05  3.675813E+04 -5.831681E+03
       188   5  1.094903E+02 -5.115298E+04 -2.479152E+03  4.272085E+05  5.168278E+04 -4.575705E+03
       188   6  3.446731E+02 -5.122159E+04  1.418914E+01  5.004247E+05  1.862932E+04 -3.339415E+03
       188   7 -1.574411E+05 -7.093366E+05 -1.358779E+05  5.005168E+05  3.671079E+04 -6.182759E+04
       188   8 -2.945875E+05 -1.267745E+06 -2.584065E+05  4.270438E+05  5.169815E+04  8.471019E+03
       188   9 -4.432531E+05 -1.837556E+06 -4.295981E+05  5.000222E+05  1.866444E+04  7.868450E+04
       188  10  1.581705E+05  6.081903E+05  1.245838E+05  5.003321E+05 -3.362514E-10  3.399287E-10
       188  11  2.947084E+05  1.166839E+06  2.533602E+05  4.273736E+05  1.052261E-10  4.878722E-10
       188  12  4.437112E+05  1.738045E+06  4.294103E+05  5.008283E+05  1.452315E-10 -5.280643E-10
       188  13  3.766309E+02 -5.078300E+04 -5.641202E+03  5.004255E+05 -9.697279E-10  2.794933E-10
       188  14  1.066162E+02 -5.115372E+04 -2.484211E+03  4.272087E+05 -6.119224E-10  7.060273E-10
       188  15  3.442974E+02 -5.122170E+04  1.351578E+01  5.004247E+05  3.824090E-10 -3.088714E-10
       188  16 -1.574436E+05 -7.093410E+05 -1.358876E+05  5.005186E+05 -1.267729E-10 -3.993448E-10
       188  17 -2.945904E+05 -1.267746E+06 -2.584117E+05  4.270434E+05 -4.905825E-10 -4.097313E-10
       188  18 -4.432551E+05 -1.837562E+06 -4.296105E+05  5.000210E+05 -2.093153E-10 -5.509818E-10
       188  19  1.581726E+05  6.081934E+05  1.245911E+05  5.003336E+05 -3.680541E+04 -5.022244E+04
       188  20  2.947113E+05  1.166840E+06  2.533658E+05  4.273729E+05 -5.166742E+04  1.764762E+04
       188  21  4.437135E+05  1.738053E+06  4.294247E+05  5.008270E+05 -1.859421E+04  8.559896E+04
       188  22  3.780912E+02 -5.078260E+04 -5.638598E+03  5.004254E+05 -3.675813E+04  5.831681E+03
       188  23  1.094903E+02 -5.115298E+04 -2.479152E+03  4.272085E+05 -5.168278E+04  4.575705E+03
       188  24  3.446731E+02 -5.122159E+04  1.418914E+01  5.004247E+05 -1.862932E+04  3.339415E+03
       188  25 -1.574411E+05 -7.093366E+05 -1.358779E+05  5.005168E+05 -3.671079E+04  6.182759E+04
       188  26 -2.945875E+05 -1.267745E+06 -2.584065E+05  4.270438E+05 -5.169815E+04 -8.471019E+03
       188  27 -4.432531E+05 -1.837556E+06 -4.295981E+05  5.000222E+05 -1.866444E+04 -7.868450E+04
       189   1  9.279650E+05  1.628147E+05  1.579174E+05  1.314425E+05  3.836885E+04 -7.382654E+03
       189   2  7.822995E+05  1.181166E+05  1.039735E+05  1.106730E+05  1.258547E+04 -2.228313E+04
       189   3  6.421493E+05  8.223945E+04  6.899864E+04  1.266679E+05 -1.320791E+04 -2.067932E+04
       189   4  2.986219E+05  6.971900E+03  7.653707E+03  1.268874E+05  5.035058E+03 -7.422895E+03
       189   5  2.979581E+05  1.282415E+03  3.868563E+03  1.085088E+05  3.049469E+03 -2.229665E+04
       189   6  2.986669E+05  2.909689E+02  2.544538E+03  1.268956E+05  1.047708E+03 -2.066045E+04
       189   7 -3.303561E+05 -1.488989E+05 -1.426337E+05  1.223368E+05 -2.826514E+04 -7.462671E+03
       189   8 -1.861609E+05 -1.155665E+05 -9.624878E+04  1.063463E+05 -6.479227E+03 -2.231011E+04
       189   9 -4.470187E+04 -8.166443E+04 -6.391433E+04  1.271232E+05  1.529562E+04 -2.064157E+04
       189  10  9.279634E+05  1.628143E+05  1.579145E+05  1.314427E+05 -5.057207E-09  9.152861E-10
       189  11  7.822992E+05  1.181160E+05  1.039723E+05  1.106732E+05 -6.398783E-11  4.389182E-09
       189  12  6.421490E+05  8.223894E+04  6.899751E+04  1.266677E+05  2.231086E-09  2.679354E-09
       189  13  2.986218E+05  6.971834E+03  7.653556E+03  1.268874E+05 -2.229037E-10 -8.994714E-10
       189  14  2.979580E+05  1.281878E+03  3.867611E+03  1.085089E+05  1.151716E-11 -3.537340E-09
       189  15  2.986668E+05  2.905102E+02  2.543733E+03  1.268956E+05 -1.496278E-10  4.460537E-10
       189  16 -3.303569E+05 -1.488992E+05 -1.426353E+05  1.223367E+05  4.802491E-09  3.507995E-11
       189  17 -1.861611E+05 -1.155671E+05 -9.624980E+04  1.063461E+05 -1.075842E-09  4.048976E-09
       189  18 -4.470224E+04 -8.166495E+04 -6.391557E+04  1.271234E+05 -2.636565E-09 -5.830535E-10
       189  19  9.279650E+05  1.628147E+05  1.579174E+05  1.314425E+05 -3.836885E+04  7.382654E+03
       189  20  7.822995E+05  1.181166E+05  1.039735E+05  1.106730E+05 -1.258547E+04  2.228313E+04
       189  21  6.421493E+05  8.223945E+04  6.899864E+04  1.266679E+05  1.320791E+04  2.067932E+04
       189  22  2.986219E+05  6.971900E+03  7.653707E+03  1.268874E+05 -5.035058E+03  7.422895E+03
       189  23  2.979581E+05  1.282415E+03  3.868563E+03  1.085088E+05 -3.049469E+03  2.229665E+04
       189  24  2.986669E+05  2.909689E+02  2.544538E+03  1.268956E+05 -1.047708E+03  2.066045E+04
       189  25 -3.303561E+05 -1.488989E+05 -1.426337E+05  1.223368E+05  2.826514E+04  7.462671E+03
       189  26 -1.861609E+05 -1.155665E+05 -9.624878E+04  1.063463E+05  6.479227E+03  2.231011E+04
       189  27 -4.470187E+04 -8.166443E+04 -6.391433E+04  1.271232E+05 -1.529562E+04  2.064157E+04
       190   1  5.445574E+05  5.929160E+04  4.986578E+04  1.275009E+05 -1.068129E+04 -1.485357E+04
       190   2  4.016654E+05  2.489085E+04  2.191990E+04  1.084506E+05 -1.329388E+04 -6.449944E+03
       190   3  2.591783E+05 -8.888461E+03 -4.200649E+03  1.271298E+05 -1.590788E+04  3.026662E+03
       190   4  2.983986E+05  5.631141E+02  2.266634E+03  1.271085E+05  6.595512E+02 -1.483787E+04
       190   5  2.983459E+05  2.765751E+02  2.128952E+03  1.082438E+05 -4.081845E+02 -6.431555E+03
       190   6  2.984081E+05  3.438585E+02  2.743829E+03  1.271088E+05 -1.477916E+03  3.047874E+03
       190   7  5.229830E+04 -5.816891E+04 -4.533486E+04  1.267163E+05  1.199600E+04 -1.482218E+04
       190   8  1.950371E+05 -2.433824E+04 -1.766186E+04  1.080370E+05  1.247542E+04 -6.413172E+03
       190   9  3.376399E+05  9.576205E+03  9.689031E+03  1.270879E+05  1.295293E+04  3.069083E+03
       190  10  5.445572E+05  5.929133E+04  4.986515E+04  1.275007E+05 -1.343002E-09  6.358847E-12
       190  11  4.016652E+05  2.489076E+04  2.191949E+04  1.084505E+05  8.350888E-10  3.521325E-09
       190  12  2.591780E+05 -8.888539E+03 -4.201142E+03  1.271298E+05  1.161799E-09  4.791051E-09
       190  13  2.983986E+05  5.628776E+02  2.266220E+03  1.271085E+05 -4.873923E-11  4.457352E-09
       190  14  2.983459E+05  2.765307E+02  2.128874E+03  1.082438E+05 -8.810363E-10 -7.064095E-09
       190  15  2.984081E+05  3.438480E+02  2.743807E+03  1.271088E+05  4.495461E-10  4.682687E-09
       190  16  5.229809E+04 -5.816918E+04 -4.533554E+04  1.267165E+05  9.923988E-10 -2.887910E-09
       190  17  1.950369E+05 -2.433833E+04 -1.766223E+04  1.080370E+05 -1.174708E-09 -1.850144E-09
       190  18  3.376397E+05  9.576150E+03  9.688699E+03  1.270879E+05 -7.390647E-10  1.938636E-09
       190  19  5.445574E+05  5.929160E+04  4.986578E+04  1.275009E+05  1.068129E+04  1.485357E+04
       190  20  4.016654E+05  2.489085E+04  2.191990E+04  1.084506E+05  1.329388E+04  6.449944E+03
       190  21  2.591783E+05 -8.888461E+03 -4.200649E+03  1.271298E+05  1.590788E+04 -3.026662E+03
       190  22  2.983986E+05  5.631141E+02  2.266634E+03  1.271085E+05 -6.595512E+02  1.483787E+04
       190  23  2.983459E+05  2.765751E+02  2.128952E+03  1.082438E+05  4.081845E+02  6.431555E+03
       190  24  2.984081E+05  3.438585E+02  2.743829E+03  1.271088E+05  1.477916E+03 -3.047874E+03
       190  25  5.229830E+04 -5.816891E+04 -4.533486E+04  1.267163E+05 -1.199600E+04  1.482218E+04
       190  26  1.950371E+05 -2.433824E+04 -1.766186E+04  1.080370E+05 -1.247542E+04  6.413172E+03
       190  27  3.376399E+05  9.576205E+03  9.689031E+03  1.270879E+05 -1.295293E+04 -3.069083E+03
       191   1  1.625910E+05 -3.200565E+04 -2.219481E+04  1.272627E+05 -1.650641E+04  8.972018E+03
       191   2  1.978998E+04 -6.576133E+04 -4.698110E+04  1.078592E+05 -1.719492E+04  1.832836E+04
       191   3 -1.227566E+05 -9.853713E+04 -7.110271E+04  1.261716E+05 -1.787962E+04  2.628438E+04
       191   4  2.985095E+05  2.777076E+02  3.341622E+03  1.271058E+05 -2.022986E+03  8.993009E+03
       191   5  2.982031E+05  3.899783E+02  5.404715E+03  1.082474E+05 -4.730386E+03  1.834493E+04
       191   6  2.984833E+05  1.833614E+03  9.533847E+03  1.271035E+05 -7.434161E+03  2.629690E+04
       191   7  4.344464E+05  3.256010E+04  2.887804E+04  1.269488E+05  1.246353E+04  9.013989E+03
       191   8  5.766915E+05  6.653687E+04  5.778773E+04  1.086356E+05  7.739600E+03  1.836152E+04
       191   9  7.198941E+05  1.021940E+05  9.016273E+04  1.280361E+05  3.018224E+03  2.630944E+04
       191  10  1.625907E+05 -3.200581E+04 -2.219547E+04  1.272628E+05  3.760369E-09 -2.205690E-09
       191  11  1.978957E+04 -6.576177E+04 -4.698229E+04  1.078595E+05  6.579559E-10  1.296420E-09
       191  12 -1.227571E+05 -9.853796E+04 -7.110461E+04  1.261720E+05 -2.719284E-09  7.498136E-10
       191  13  2.985095E+05  2.776197E+02  3.341462E+03  1.271058E+05  5.169416E-10  1.081745E-09
       191  14  2.982030E+05  3.896108E+02  5.404040E+03  1.082474E+05  1.885408E-10 -6.638622E-10
       191  15  2.984830E+05  1.832856E+03  9.532444E+03  1.271037E+05  7.237187E-11 -1.559056E-09
       191  16  4.344462E+05  3.255997E+04  2.887759E+04  1.269487E+05 -4.257895E-09 -1.954928E-09
       191  17  5.766913E+05  6.653649E+04  5.778698E+04  1.086355E+05 -1.207153E-09  8.839384E-10
       191  18  7.198940E+05  1.021932E+05  9.016141E+04  1.280360E+05  2.932197E-09  2.985447E-09
       191  19  1.625910E+05 -3.200565E+04 -2.219481E+04  1.272627E+05  1.650641E+04 -8.972018E+03
       191  20  1.978998E+04 -6.576133E+04 -4.698110E+04  1.078592E+05  1.719492E+04 -1.832836E+04
       191  21 -1.227566E+05 -9.853713E+04 -7.110271E+04  1.261716E+05  1.787962E+04 -2.628438E+04
       191  22  2.985095E+05  2.777076E+02  3.341622E+03  1.271058E+05  2.022986E+03 -8.993009E+03
       191  23  2.982031E+05  3.899783E+02  5.404715E+03  1.082474E+05  4.730386E+03 -1.834493E+04
       191  24  2.984833E+05  1.833614E+03  9.533847E+03  1.271035E+05  7.434161E+03 -2.629690E+04
       191  25  4.344464E+05  3.256010E+04  2.887804E+04  1.269488E+05 -1.246353E+04 -9.013989E+03
       191  26  5.766915E+05  6.653687E+04  5.778773E+04  1.086356E+05 -7.739600E+03 -1.836152E+04
       191  27  7.198941E+05  1.021940E+05  9.016273E+04  1.280361E+05 -3.018224E+03 -2.630944E+04
       192   1 -2.184982E+05 -1.234091E+05 -8.725996E+04  1.300472E+05 -2.319591E+04  3.206535E+04
       192   2 -3.629891E+05 -1.522472E+05 -1.132451E+05  9.787536E+04 -4.663376E+03  3.150294E+04
       192   3 -5.042515E+05 -1.585291E+05 -1.456630E+05  1.022023E+05  1.388138E+04  1.014113E+04
       192   4  3.002021E+05  2.340664E+02  1.231889E+04  1.268398E+05 -9.077420E+03  3.208138E+04
       192   5  2.959694E+05  6.623424E+03  2.197019E+04  1.085706E+05 -2.048714E+04  3.148240E+04
       192   6  3.001364E+05  4.075388E+04  4.597726E+04  1.267953E+05 -3.188067E+04  1.009488E+04
       192   7  8.191617E+05  1.238615E+05  1.118862E+05  1.236296E+05  5.052601E+03  3.209726E+04
       192   8  9.553412E+05  1.654673E+05  1.571634E+05  1.192772E+05 -3.632739E+04  3.146132E+04
       192   9  1.105124E+06  2.399935E+05  2.375803E+05  1.514202E+05 -7.770174E+04  1.004504E+04
       192  10 -2.184991E+05 -1.234104E+05 -8.726291E+04  1.300478E+05  4.496367E-09 -2.411028E-09
       192  11 -3.629894E+05 -1.522483E+05 -1.132471E+05  9.787548E+04  1.352095E-09 -9.215325E-10
       192  12 -5.042517E+05 -1.585293E+05 -1.456635E+05  1.022022E+05 -2.747149E-09 -1.287168E-10
       192  13  3.002017E+05  2.329389E+02  1.231680E+04  1.268400E+05  2.647076E-10 -2.230990E-10
       192  14  2.959687E+05  6.622247E+03  2.196754E+04  1.085711E+05  4.557950E-10 -3.492345E-09
       192  15  3.001353E+05  4.075350E+04  4.597516E+04  1.267956E+05 -3.476032E-10 -1.266691E-09
       192  16  8.191614E+05  1.238604E+05  1.118842E+05  1.236294E+05 -4.660859E-09  7.915851E-10
       192  17  9.553395E+05  1.654659E+05  1.571590E+05  1.192781E+05 -1.150831E-09  3.661278E-09
       192  18  1.105117E+06  2.399918E+05  2.375688E+05  1.514209E+05  2.390217E-09  7.988192E-10
       192  19 -2.184982E+05 -1.234091E+05 -8.725996E+04  1.300472E+05  2.319591E+04 -3.206535E+04
       192  20 -3.629891E+05 -1.522472E+05 -1.132451E+05  9.787536E+04  4.663376E+03 -3.150294E+04
       192  21 -5.042515E+05 -1.585291E+05 -1.456630E+05  1.022023E+05 -1.388138E+04 -1.014113E+04
       192  22  3.002021E+05  2.340664E+02  1.231889E+04  1.268398E+05  9.077420E+03 -3.208138E+04
       192  23  2.959694E+05  6.623424E+03  2.197019E+04  1.085706E+05  2.048714E+04 -3.148240E+04
       192  24  3.001364E+05  4.075388E+04  4.597726E+04  1.267953E+05  3.188067E+04 -1.009488E+04
       192  25  8.191617E+05  1.238615E+05  1.118862E+05  1.236296E+05 -5.052601E+03 -3.209726E+04
       192  26  9.553412E+05  1.654673E+05  1.571634E+05  1.192772E+05  3.632739E+04 -3.146132E+04
       192  27  1.105124E+06  2.399935E+05  2.375803E+05  1.514202E+05  7.770174E+04 -1.004504E+04
       193   1 -4.950092E+05 -1.837635E+06 -4.903964E+05  4.129921E+05 -1.933307E+04 -1.470460E+05
       193   2 -3.175048E+05 -1.410781E+06 -3.041349E+05  3.329793E+05 -5.731470E+04 -6.142420E+04
       193   3 -2.038441E+05 -1.010520E+06 -1.896509E+05  3.596865E+05 -5.099811E+04  2.429613E+04
       193   4 -7.822903E+04 -1.582022E+05 -8.818071E+04  3.667223E+05 -1.933969E+04 -6.074756E+04
       193   5 -1.280886E+04 -1.502137E+05 -4.242338E+04  3.133659E+05 -5.730417E+04 -3.870595E+04
       193   6 -9.242077E+01 -1.578636E+05 -2.415456E+04  3.667359E+05 -5.100401E+04 -1.662724E+04
       193   7  3.383585E+05  1.523841E+06  3.138647E+05  3.203260E+05 -1.935926E+04  2.578404E+04
       193   8  2.917877E+05  1.111863E+06  2.192035E+05  2.937117E+05 -5.729509E+04 -1.594222E+04
       193   9  2.036168E+05  6.954952E+05  1.413138E+05  3.737949E+05 -5.101081E+04 -5.760562E+04
       193  10 -4.950155E+05 -1.837658E+06 -4.904378E+05  4.129898E+05  1.487325E-10  9.206206E-10
       193  11 -3.175093E+05 -1.410786E+06 -3.041482E+05  3.329764E+05  1.582462E-10  7.471378E-10
       193  12 -2.038470E+05 -1.010521E+06 -1.896569E+05  3.596875E+05  5.967709E-10 -3.347863E-10
       193  13 -7.823042E+04 -1.582062E+05 -8.818835E+04  3.667214E+05  1.843885E-10  1.868177E-09
       193  14 -1.281279E+04 -1.502161E+05 -4.243236E+04  3.133641E+05  8.432767E-10 -1.015734E-09
       193  15 -9.528754E+01 -1.578646E+05 -2.415997E+04  3.667352E+05  3.501307E-10 -5.472878E-11
       193  16  3.383579E+05  1.523840E+06  3.138627E+05  3.203264E+05  1.325533E-10 -4.593233E-10
       193  17  2.917841E+05  1.111862E+06  2.191969E+05  2.937109E+05  1.171150E-09 -1.360439E-09
       193  18  2.036132E+05  6.954910E+05  1.413027E+05  3.737926E+05  4.160216E-10 -1.520409E-10
       193  19 -4.950092E+05 -1.837635E+06 -4.903964E+05  4.129921E+05  1.933307E+04  1.470460E+05
       193  20 -3.175048E+05 -1.410781E+06 -3.041349E+05  3.329793E+05  5.731470E+04  6.142420E+04
       193  21 -2.038441E+05 -1.010520E+06 -1.896509E+05  3.596865E+05  5.099811E+04 -2.429613E+04
       193  22 -7.822903E+04 -1.582022E+05 -8.818071E+04  3.667223E+05  1.933969E+04  6.074756E+04
       193  23 -1.280886E+04 -1.502137E+05 -4.242338E+04  3.133659E+05  5.730417E+04  3.870595E+04
       193  24 -9.242077E+01 -1.578636E+05 -2.415456E+04  3.667359E+05  5.100401E+04  1.662724E+04
       193  25  3.383585E+05  1.523841E+06  3.138647E+05  3.203260E+05  1.935926E+04 -2.578404E+04
       193  26  2.917877E+05  1.111863E+06  2.192035E+05  2.937117E+05  5.729509E+04  1.594222E+04
       193  27  2.036168E+05  6.954952E+05  1.413138E+05  3.737949E+05  5.101081E+04  5.760562E+04
       194   1 -1.393737E+05 -7.254962E+05 -1.298837E+05  3.683750E+05 -3.409423E+04  2.011024E+04
       194   2 -3.763437E+04 -3.112633E+05 -4.130436E+04  3.127888E+05 -1.053451E+04  2.681055E+04
       194   3  6.107169E+04  1.015965E+05  4.215539E+04  3.664721E+05  1.357388E+04  3.351195E+04
       194   4 -2.975246E+03 -1.546205E+05 -1.905984E+04  3.672952E+05 -3.410444E+04 -1.339915E+04
       194   5 -2.601989E+02 -1.539003E+05 -1.183920E+04  3.126604E+05 -1.054698E+04 -7.494044E+03
       194   6 -4.301137E+02 -1.545779E+05 -9.180156E+03  3.672942E+05  1.355866E+04 -1.592100E+03
       194   7  1.334043E+05  4.165709E+05  9.175284E+04  3.662142E+05 -3.411453E+04 -4.693869E+04
       194   8  3.711317E+04  3.489127E+03  1.762932E+04  3.125320E+05 -1.055944E+04 -4.180712E+04
       194   9 -6.193529E+04 -4.106870E+05 -6.051439E+04  3.681159E+05  1.354335E+04 -3.668196E+04
       194  10 -1.393751E+05 -7.254969E+05 -1.298866E+05  3.683756E+05  1.902611E-10 -5.206665E-10
       194  11 -3.763468E+04 -3.112641E+05 -4.130592E+04  3.127890E+05  3.443477E-10  7.852280E-10
       194  12  6.107119E+04  1.015952E+05  4.215293E+04  3.664717E+05  4.700667E-10  1.344537E-09
       194  13 -2.976543E+03 -1.546210E+05 -1.906236E+04  3.672948E+05  2.002524E-10  5.184201E-10
       194  14 -2.603333E+02 -1.539004E+05 -1.183951E+04  3.126604E+05 -1.411133E-10 -7.088744E-10
       194  15 -4.303118E+02 -1.545779E+05 -9.180507E+03  3.672942E+05  6.601208E-10 -5.985836E-11
       194  16  1.334025E+05  4.165683E+05  9.174652E+04  3.662130E+05  6.466224E-11  3.707956E-10
       194  17  3.711258E+04  3.487220E+03  1.762583E+04  3.125317E+05  3.113897E-10 -9.232017E-11
       194  18 -6.193585E+04 -4.106885E+05 -6.051727E+04  3.681163E+05  1.078430E-10 -9.251290E-10
       194  19 -1.393737E+05 -7.254962E+05 -1.298837E+05  3.683750E+05  3.409423E+04 -2.011024E+04
       194  20 -3.763437E+04 -3.112633E+05 -4.130436E+04  3.127888E+05  1.053451E+04 -2.681055E+04
       194  21  6.107169E+04  1.015965E+05  4.215539E+04  3.664721E+05 -1.357388E+04 -3.351195E+04
       194  22 -2.975246E+03 -1.546205E+05 -1.905984E+04  3.672952E+05  3.410444E+04  1.339915E+04
       194  23 -2.601989E+02 -1.539003E+05 -1.183920E+04  3.126604E+05  1.054698E+04  7.494044E+03
       194  24 -4.301137E+02 -1.545779E+05 -9.180156E+03  3.672942E+05 -1.355866E+04  1.592100E+03
       194  25  1.334043E+05  4.165709E+05  9.175284E+04  3.662142E+05  3.411453E+04  4.693869E+04
       194  26  3.711317E+04  3.489127E+03  1.762932E+04  3.125320E+05  1.055944E+04  4.180712E+04
       194  27 -6.193529E+04 -4.106870E+05 -6.051439E+04  3.681159E+05 -1.354335E+04  3.668196E+04
       195   1  1.287521E+05  3.829241E+05  9.698885E+04  3.681824E+05  3.053450E+04  4.093045E+04
       195   2  2.263459E+05  7.939659E+05  1.878022E+05  3.088910E+05  4.076782E+04 -6.104443E+03
       195   3  3.218777E+05  1.211039E+06  3.087370E+05  3.568420E+05  1.450316E+04 -5.319159E+04
       195   4  4.243154E+00 -1.550338E+05 -8.872963E+03  3.668476E+05  3.052024E+04 -1.405987E+02
       195   5 -2.789748E+03 -1.535340E+05 -1.075948E+04  3.132192E+05  4.077431E+04  5.429596E+03
       195   6 -1.676692E+04 -1.552853E+05 -1.903567E+04  3.668469E+05  1.450414E+04  1.097836E+04
       195   7 -1.287603E+05 -6.927109E+05 -1.147425E+05  3.655140E+05  3.050614E+04 -4.117683E+04
       195   8 -2.319828E+05 -1.100186E+06 -2.093707E+05  3.175404E+05  4.078097E+04  1.694633E+04
       195   9 -3.555446E+05 -1.519893E+06 -3.469252E+05  3.768292E+05  1.450721E+04  7.500784E+04
       195  10  1.287507E+05  3.829221E+05  9.698396E+04  3.681814E+05 -1.059192E-10 -1.256141E-09
       195  11  2.263441E+05  7.939654E+05  1.877991E+05  3.088912E+05 -9.783608E-10  8.822875E-11
       195  12  3.218767E+05  1.211036E+06  3.087313E+05  3.568426E+05 -5.482274E-10  1.009876E-09
       195  13  3.242955E+00 -1.550340E+05 -8.874713E+03  3.668476E+05 -3.671980E-10  1.026256E-09
       195  14 -2.791541E+03 -1.535345E+05 -1.076266E+04  3.132190E+05 -6.947395E-10 -3.729523E-10
       195  15 -1.676717E+04 -1.552855E+05 -1.903629E+04  3.668468E+05 -1.658467E-10  8.869596E-10
       195  16 -1.287617E+05 -6.927130E+05 -1.147475E+05  3.655150E+05  1.433349E-10  1.321926E-09
       195  17 -2.319847E+05 -1.100186E+06 -2.093744E+05  3.175398E+05  2.895978E-10  5.799313E-11
       195  18 -3.555463E+05 -1.519899E+06 -3.469362E+05  3.768284E+05 -2.904895E-11 -1.790054E-09
       195  19  1.287521E+05  3.829241E+05  9.698885E+04  3.681824E+05 -3.053450E+04 -4.093045E+04
       195  20  2.263459E+05  7.939659E+05  1.878022E+05  3.088910E+05 -4.076782E+04  6.104443E+03
       195  21  3.218777E+05  1.211039E+06  3.087370E+05  3.568420E+05 -1.450316E+04  5.319159E+04
       195  22  4.243154E+00 -1.550338E+05 -8.872963E+03  3.668476E+05 -3.052024E+04  1.405987E+02
       195  23 -2.789748E+03 -1.535340E+05 -1.075948E+04  3.132192E+05 -4.077431E+04 -5.429596E+03
       195  24 -1.676692E+04 -1.552853E+05 -1.903567E+04  3.668469E+05 -1.450414E+04 -1.097836E+04
       195  25 -1.287603E+05 -6.927109E+05 -1.147425E+05  3.655140E+05 -3.050614E+04  4.117683E+04
       195  26 -2.319828E+05 -1.100186E+06 -2.093707E+05  3.175404E+05 -4.078097E+04 -1.694633E+04
       195  27 -3.555446E+05 -1.519893E+06 -3.469252E+05  3.768292E+05 -1.450721E+04 -7.500784E+04
       196   1  3.251495E+05  6.025767E+04  5.848164E+04  6.280126E+04  1.233415E+04 -2.531758E+03
       196   2  2.546376E+05  4.048571E+04  3.573111E+04  5.323028E+04  2.713807E+03 -7.187738E+03
       196   3  1.860203E+05  2.338455E+04  1.990486E+04  6.167427E+04 -6.910151E+03 -5.509224E+03
       196   4  8.872953E+04  1.641581E+03  1.773860E+03  6.172435E+04  1.076256E+03 -2.541559E+03
       196   5  8.858044E+04  3.268671E+02  9.657040E+02  5.271741E+04  5.817644E+02 -7.189788E+03
       196   6  8.873697E+04  9.954571E+01  7.467005E+02  6.172568E+04  8.242707E+01 -5.502766E+03
       196   7 -1.476390E+05 -5.697850E+04 -5.493741E+04  6.064783E+04 -1.017737E+04 -2.551323E+03
       196   8 -7.745069E+04 -3.983373E+04 -3.380122E+04  5.220468E+04 -1.549717E+03 -7.191834E+03
       196   9 -8.537222E+03 -2.318600E+04 -1.841173E+04  6.177707E+04  7.073933E+03 -5.496307E+03
       196  10  3.251493E+05  6.025762E+04  5.848134E+04  6.280129E+04  1.704070E-09 -1.940819E-10
       196  11  2.546376E+05  4.048565E+04  3.573100E+04  5.323030E+04 -3.933755E-10 -5.338938E-10
       196  12  1.860203E+05  2.338450E+04  1.990471E+04  6.167424E+04 -2.360010E-09 -9.882902E-10
       196  13  8.872953E+04  1.641574E+03  1.773846E+03  6.172435E+04 -2.056683E-10  1.903911E-09
       196  14  8.858042E+04  3.268115E+02  9.656063E+02  5.271742E+04  9.155598E-10 -2.257176E-09
       196  15  8.873696E+04  9.951319E+01  7.466436E+02  6.172568E+04  2.471337E-10 -6.024137E-11
       196  16 -1.476391E+05 -5.697853E+04 -5.493761E+04  6.064781E+04 -2.471122E-09  7.162646E-10
       196  17 -7.745070E+04 -3.983379E+04 -3.380132E+04  5.220467E+04 -5.193204E-10 -4.441672E-09
       196  18 -8.537283E+03 -2.318605E+04 -1.841188E+04  6.177711E+04  2.514002E-09 -3.286549E-10
       196  19  3.251495E+05  6.025767E+04  5.848164E+04  6.280126E+04 -1.233415E+04  2.531758E+03
       196  20  2.546376E+05  4.048571E+04  3.573111E+04  5.323028E+04 -2.713807E+03  7.187738E+03
       196  21  1.860203E+05  2.338455E+04  1.990486E+04  6.167427E+04  6.910151E+03  5.509224E+03
       196  22  8.872953E+04  1.641581E+03  1.773860E+03  6.172435E+04 -1.076256E+03  2.541559E+03
       196  23  8.858044E+04  3.268671E+02  9.657040E+02  5.271741E+04 -5.817644E+02  7.189788E+03
       196  24  8.873697E+04  9.954571E+01  7.467005E+02  6.172568E+04 -8.242707E+01  5.502766E+03
       196  25 -1.476390E+05 -5.697850E+04 -5.493741E+04  6.064783E+04  1.017737E+04  2.551323E+03
       196  26 -7.745069E+04 -3.983373E+04 -3.380122E+04  5.220468E+04  1.549717E+03  7.191834E+03
       196  27 -8.537222E+03 -2.318600E+04 -1.841173E+04  6.177707E+04 -7.073933E+03  5.496307E+03
       197   1  1.386378E+05  1.214986E+04  1.074540E+04  6.189272E+04 -5.920480E+03 -2.656276E+03
       197   2  6.906193E+04 -4.512740E+03 -2.485015E+03  5.265050E+04 -6.929086E+03  1.620526E+03
       197   3 -3.652803E+02 -2.096969E+04 -1.501789E+04  6.179785E+04 -7.937824E+03  6.289606E+03
       197   4  8.868085E+04  1.591050E+02  7.427333E+02  6.180864E+04 -4.223414E+01 -2.650750E+03
       197   5  8.865693E+04  8.041401E+01  8.879049E+02  5.261389E+04 -4.861837E+02  1.626522E+03
       197   6  8.867995E+04  1.098398E+02  1.338786E+03  6.180867E+04 -9.303640E+02  6.296078E+03
       197   7  3.872636E+04 -1.183179E+04 -9.259928E+03  6.172456E+04  5.835548E+03 -2.645225E+03
       197   8  1.082524E+05  4.673569E+03  4.260968E+03  5.257727E+04  5.956916E+03  1.632518E+03
       197   9  1.777330E+05  2.118895E+04  1.769532E+04  6.181949E+04  6.078075E+03  6.302550E+03
       197  10  1.386378E+05  1.214984E+04  1.074532E+04  6.189271E+04 -8.760098E-10 -1.612396E-09
       197  11  6.906188E+04 -4.512755E+03 -2.485111E+03  5.265051E+04  6.497718E-10 -2.870196E-09
       197  12 -3.653586E+02 -2.096975E+04 -1.501809E+04  6.179789E+04  1.132732E-09 -9.280128E-10
       197  13  8.868085E+04  1.590975E+02  7.427201E+02  6.180864E+04  5.437609E-10  5.945233E-12
       197  14  8.865692E+04  8.041110E+01  8.878995E+02  5.261389E+04  1.121309E-10 -8.831870E-10
       197  15  8.867994E+04  1.097970E+02  1.338710E+03  6.180867E+04  2.929281E-10  7.638107E-11
       197  16  3.872632E+04 -1.183180E+04 -9.260005E+03  6.172457E+04  8.536499E-10  2.726546E-09
       197  17  1.082523E+05  4.673557E+03  4.260897E+03  5.257726E+04 -6.099340E-10 -1.050210E-09
       197  18  1.777329E+05  2.118889E+04  1.769518E+04  6.181946E+04 -1.205694E-09  1.612551E-09
       197  19  1.386378E+05  1.214986E+04  1.074540E+04  6.189272E+04  5.920480E+03  2.656276E+03
       197  20  6.906193E+04 -4.512740E+03 -2.485015E+03  5.265050E+04  6.929086E+03 -1.620526E+03
       197  21 -3.652803E+02 -2.096969E+04 -1.501789E+04  6.179785E+04  7.937824E+03 -6.289606E+03
       197  22  8.868085E+04  1.591050E+02  7.427333E+02  6.180864E+04  4.223414E+01  2.650750E+03
       197  23  8.865693E+04  8.041401E+01  8.879049E+02  5.261389E+04  4.861837E+02 -1.626522E+03
       197  24  8.867995E+04  1.098398E+02  1.338786E+03  6.180867E+04  9.303640E+02 -6.296078E+03
       197  25  3.872636E+04 -1.183179E+04 -9.259928E+03  6.172456E+04 -5.835548E+03  2.645225E+03
       197  26  1.082524E+05  4.673569E+03  4.260968E+03  5.257727E+04 -5.956916E+03 -1.632518E+03
       197  27  1.777330E+05  2.118895E+04  1.769532E+04  6.181949E+04 -6.078075E+03 -6.302550E+03
       198   1 -4.740632E+04 -3.224261E+04 -2.371435E+04  6.188281E+04 -8.277833E+03  9.186686E+03
       198   2 -1.169771E+05 -4.867012E+04 -3.566247E+04  5.243301E+04 -8.546034E+03  1.369528E+04
       198   3 -1.864123E+05 -6.459864E+04 -4.731940E+04  6.135156E+04 -8.812851E+03  1.739082E+04
       198   4  8.874162E+04  6.954067E+01  1.702157E+03  6.180401E+04 -1.200839E+03  9.193032E+03
       198   5  8.856996E+04  1.488902E+02  2.879087E+03  5.261965E+04 -2.640392E+03  1.370003E+04
       198   6  8.873228E+04  9.306518E+02  5.160356E+03  6.180323E+04 -4.078591E+03  1.739412E+04
       198   7  2.249076E+05  3.238065E+04  2.711806E+04  6.172518E+04  5.877668E+03  9.199376E+03
       198   8  2.941579E+05  4.896547E+04  4.141894E+04  5.280634E+04  3.267157E+03  1.370478E+04
       198   9  3.639499E+05  6.645550E+04  5.763677E+04  6.225509E+04  6.577178E+02  1.739742E+04
       198  10 -4.740642E+04 -3.224272E+04 -2.371464E+04  6.188287E+04  2.999719E-09 -1.447907E-09
       198  11 -1.169772E+05 -4.867034E+04 -3.566296E+04  5.243310E+04  6.645520E-10 -9.709267E-11
       198  12 -1.864125E+05 -6.459898E+04 -4.732011E+04  6.135168E+04 -1.780458E-09 -6.974201E-10
       198  13  8.874160E+04  6.944953E+01  1.701996E+03  6.180402E+04  2.055385E-10 -1.076459E-09
       198  14  8.856990E+04  1.486868E+02  2.878721E+03  5.261968E+04  1.006677E-09  2.643495E-09
       198  15  8.873218E+04  9.303224E+02  5.159756E+03  6.180329E+04 -3.813488E-11  1.579937E-10
       198  16  2.249075E+05  3.238055E+04  2.711783E+04  6.172514E+04 -2.378030E-09  7.956722E-11
       198  17  2.941579E+05  4.896526E+04  4.141857E+04  5.280630E+04 -1.278927E-09 -1.181533E-09
       198  18  3.639498E+05  6.645518E+04  5.763620E+04  6.225508E+04  1.520800E-09  2.466047E-09
       198  19 -4.740632E+04 -3.224261E+04 -2.371435E+04  6.188281E+04  8.277833E+03 -9.186686E+03
       198  20 -1.169771E+05 -4.867012E+04 -3.566247E+04  5.243301E+04  8.546034E+03 -1.369528E+04
       198  21 -1.864123E+05 -6.459864E+04 -4.731940E+04  6.135156E+04  8.812851E+03 -1.739082E+04
       198  22  8.874162E+04  6.954067E+01  1.702157E+03  6.180401E+04  1.200839E+03 -9.193032E+03
       198  23  8.856996E+04  1.488902E+02  2.879087E+03  5.261965E+04  2.640392E+03 -1.370003E+04
       198  24  8.873228E+04  9.306518E+02  5.160356E+03  6.180323E+04  4.078591E+03 -1.739412E+04
       198  25  2.249076E+05  3.238065E+04  2.711806E+04  6.172518E+04 -5.877668E+03 -9.199376E+03
       198  26  2.941579E+05  4.896547E+04  4.141894E+04  5.280634E+04 -3.267157E+03 -1.370478E+04
       198  27  3.639499E+05  6.645550E+04  5.763677E+04  6.225509E+04 -6.577178E+02 -1.739742E+04
       199   1 -2.330243E+05 -7.682588E+04 -5.505173E+04  6.347420E+04 -1.179447E+04  2.019311E+04
       199   2 -3.034379E+05 -9.058579E+04 -6.791003E+04  4.707073E+04 -9.648530E+02  1.902614E+04
       199   3 -3.722241E+05 -9.220342E+04 -8.478483E+04  4.833490E+04  9.869516E+03  6.017450E+03
       199   4  8.967022E+04  6.364305E+01  6.688397E+03  6.164995E+04 -4.965997E+03  2.019771E+04
       199   5  8.737143E+04  3.572060E+03  1.196950E+04  5.280909E+04 -1.118345E+04  1.901798E+04
       199   6  8.965206E+04  2.217803E+04  2.507189E+04  6.163454E+04 -1.739476E+04  6.000191E+03
       199   7  4.124652E+05  7.694706E+04  6.842397E+04  5.982471E+04  1.865948E+03  2.020226E+04
       199   8  4.783262E+05  9.772051E+04  9.184137E+04  5.855110E+04 -2.140836E+04  1.900964E+04
       199   9  5.517260E+05  1.365452E+05  1.349166E+05  7.494410E+04 -4.467923E+04  5.981772E+03
       199  10 -2.330246E+05 -7.682635E+04 -5.505276E+04  6.347439E+04  2.626633E-09 -1.562671E-09
       199  11 -3.034380E+05 -9.058618E+04 -6.791071E+04  4.707074E+04  2.029080E-09  5.917495E-10
       199  12 -3.722242E+05 -9.220349E+04 -8.478508E+04  4.833485E+04  8.578369E-10  1.649921E-09
       199  13  8.967009E+04  6.319834E+01  6.687584E+03  6.165003E+04  2.662461E-10  1.399071E-09
       199  14  8.737120E+04  3.571638E+03  1.196859E+04  5.280926E+04  2.171554E-10  1.394777E-09
       199  15  8.965172E+04  2.217791E+04  2.507125E+04  6.163463E+04  8.697036E-11  5.634089E-10
       199  16  4.124650E+05  7.694662E+04  6.842319E+04  5.982468E+04 -2.502412E-09  1.486372E-09
       199  17  4.783256E+05  9.772000E+04  9.183983E+04  5.855142E+04 -2.586746E-09  1.483365E-09
       199  18  5.517239E+05  1.365446E+05  1.349127E+05  7.494431E+04 -1.324507E-09 -7.424467E-11
       199  19 -2.330243E+05 -7.682588E+04 -5.505173E+04  6.347420E+04  1.179447E+04 -2.019311E+04
       199  20 -3.034379E+05 -9.058579E+04 -6.791003E+04  4.707073E+04  9.648530E+02 -1.902614E+04
       199  21 -3.722241E+05 -9.220342E+04 -8.478483E+04  4.833490E+04 -9.869516E+03 -6.017450E+03
       199  22  8.967022E+04  6.364305E+01  6.688397E+03  6.164995E+04  4.965997E+03 -2.019771E+04
       199  23  8.737143E+04  3.572060E+03  1.196950E+04  5.280909E+04  1.118345E+04 -1.901798E+04
       199  24  8.965206E+04  2.217803E+04  2.507189E+04  6.163454E+04  1.739476E+04 -6.000191E+03
       199  25  4.124652E+05  7.694706E+04  6.842397E+04  5.982471E+04 -1.865948E+03 -2.020226E+04
       199  26  4.783262E+05  9.772051E+04  9.184137E+04  5.855110E+04  2.140836E+04 -1.900964E+04
       199  27  5.517260E+05  1.365452E+05  1.349166E+05  7.494410E+04  4.467923E+04 -5.981772E+03
       200   1 -2.974541E+05 -1.176237E+06 -2.940382E+05  2.496775E+05 -1.180542E+04 -8.577622E+04
       200   2 -1.931965E+05 -9.155871E+05 -1.832995E+05  2.024776E+05 -3.501445E+04 -3.475251E+04
       200   3 -1.245884E+05 -6.702699E+05 -1.147167E+05  2.205537E+05 -3.115683E+04  1.631236E+04
       200   4 -4.272402E+04 -1.493659E+05 -4.820504E+04  2.242954E+05 -1.181767E+04 -3.298827E+04
       200   5 -6.986516E+03 -1.449949E+05 -2.335819E+04  1.916626E+05 -3.501305E+04 -2.086131E+04
       200   6 -1.100204E+02 -1.492385E+05 -1.360533E+04  2.243073E+05 -3.115470E+04 -8.715730E+03
       200   7  2.119335E+05  8.784806E+05  1.975644E+05  1.988710E+05 -1.183423E+04  1.988678E+04
       200   8  1.791862E+05  6.261610E+05  1.365515E+05  1.808338E+05 -3.501214E+04 -6.953127E+03
       200   9  1.243525E+05  3.720553E+05  8.749566E+04  2.280641E+05 -3.115286E+04 -3.376437E+04
       200  10 -2.974562E+05 -1.176245E+06 -2.940523E+05  2.496767E+05  1.555036E-11  1.411186E-10
       200  11 -1.931981E+05 -9.155887E+05 -1.833041E+05  2.024766E+05 -5.039864E-10  2.048192E-09
       200  12 -1.245895E+05 -6.702704E+05 -1.147191E+05  2.205541E+05  2.556787E-10  2.047623E-09
       200  13 -4.272446E+04 -1.493671E+05 -4.820735E+04  2.242951E+05 -3.752465E-10  2.062593E-09
       200  14 -6.987949E+03 -1.449957E+05 -2.336132E+04  1.916620E+05  7.545858E-10 -5.465314E-10
       200  15 -1.110829E+02 -1.492388E+05 -1.360730E+04  2.243071E+05 -5.838396E-12  7.636068E-11
       200  16  2.119332E+05  8.784801E+05  1.975634E+05  1.988712E+05  2.175865E-10 -1.703516E-09
       200  17  1.791849E+05  6.261606E+05  1.365491E+05  1.808336E+05  6.075495E-10 -2.107509E-09
       200  18  1.243512E+05  3.720538E+05  8.749170E+04  2.280633E+05  1.174500E-09 -1.473659E-09
       200  19 -2.974541E+05 -1.176237E+06 -2.940382E+05  2.496775E+05  1.180542E+04  8.577622E+04
       200  20 -1.931965E+05 -9.155871E+05 -1.832995E+05  2.024776E+05  3.501445E+04  3.475251E+04
       200  21 -1.245884E+05 -6.702699E+05 -1.147167E+05  2.205537E+05  3.115683E+04 -1.631236E+04
       200  22 -4.272402E+04 -1.493659E+05 -4.820504E+04  2.242954E+05  1.181767E+04  3.298827E+04
       200  23 -6.986516E+03 -1.449949E+05 -2.335819E+04  1.916626E+05  3.501305E+04  2.086131E+04
       200  24 -1.100204E+02 -1.492385E+05 -1.360533E+04  2.243073E+05  3.115470E+04  8.715730E+03
       200  25  2.119335E+05  8.784806E+05  1.975644E+05  1.988710E+05  1.183423E+04 -1.988678E+04
       200  26  1.791862E+05  6.261610E+05  1.365515E+05  1.808338E+05  3.501214E+04  6.953127E+03
       200  27  1.243525E+05  3.720553E+05  8.749566E+04  2.280641E+05  3.115286E+04  3.376437E+04
       201   1 -8.498353E+04 -4.961518E+05 -7.864531E+04  2.253554E+05 -2.082035E+04  1.363356E+04
       201   2 -2.298125E+04 -2.427835E+05 -2.538862E+04  1.913028E+05 -6.413756E+03  1.784122E+04
       201   3  3.710267E+04  9.683320E+03  2.465700E+04  2.240742E+05  8.326935E+03  2.204939E+04
       201   4 -1.689081E+03 -1.474902E+05 -1.096644E+04  2.246477E+05 -2.082062E+04 -6.862698E+03
       201   5 -2.434713E+02 -1.470428E+05 -7.462249E+03  1.912358E+05 -6.414778E+03 -3.138181E+03
       201   6 -6.285987E+02 -1.474743E+05 -6.831760E+03  2.246476E+05  8.324980E+03  5.852129E+02
       201   7  8.159832E+04  2.012892E+05  5.670828E+04  2.239396E+05 -2.082084E+04 -2.737021E+04
       201   8  2.249401E+04 -5.129238E+04  1.046538E+04  1.911688E+05 -6.415795E+03 -2.412074E+04
       201   9 -3.836114E+04 -3.046074E+05 -3.832004E+04  2.252208E+05  8.322984E+03 -2.087364E+04
       201  10 -8.498404E+04 -4.961521E+05 -7.864648E+04  2.253556E+05  8.255675E-11  1.223019E-09
       201  11 -2.298138E+04 -2.427838E+05 -2.538930E+04  1.913029E+05 -3.456276E-10  2.180537E-09
       201  12  3.710247E+04  9.682779E+03  2.465595E+04  2.240741E+05 -3.812743E-10  1.241802E-09
       201  13 -1.689559E+03 -1.474903E+05 -1.096734E+04  2.246476E+05  6.551869E-10  6.984698E-10
       201  14 -2.435181E+02 -1.470429E+05 -7.462344E+03  1.912358E+05 -1.987323E-10  1.083432E-09
       201  15 -6.286732E+02 -1.474743E+05 -6.831891E+03  2.246476E+05 -5.677237E-10 -1.698314E-09
       201  16  8.159766E+04  2.012883E+05  5.670606E+04  2.239391E+05  7.422501E-10 -4.999433E-10
       201  17  2.249381E+04 -5.129302E+04  1.046421E+04  1.911687E+05  1.369875E-10 -1.019349E-09
       201  18 -3.836133E+04 -3.046078E+05 -3.832099E+04  2.252210E+05 -7.938896E-10 -2.508821E-09
       201  19 -8.498353E+04 -4.961518E+05 -7.864531E+04  2.253554E+05  2.082035E+04 -1.363356E+04
       201  20 -2.298125E+04 -2.427835E+05 -2.538862E+04  1.913028E+05  6.413756E+03 -1.784122E+04
       201  21  3.710267E+04  9.683320E+03  2.465700E+04  2.240742E+05 -8.326935E+03 -2.204939E+04
       201  22 -1.689081E+03 -1.474902E+05 -1.096644E+04  2.246477E+05  2.082062E+04  6.862698E+03
       201  23 -2.434713E+02 -1.470428E+05 -7.462249E+03  1.912358E+05  6.414778E+03  3.138181E+03
       201  24 -6.285987E+02 -1.474743E+05 -6.831760E+03  2.246476E+05 -8.324980E+03 -5.852129E+02
       201  25  8.159832E+04  2.012892E+05  5.670828E+04  2.239396E+05  2.082084E+04  2.737021E+04
       201  26  2.249401E+04 -5.129238E+04  1.046538E+04  1.911688E+05  6.415795E+03  2.412074E+04
       201  27 -3.836114E+04 -3.046074E+05 -3.832004E+04  2.252208E+05 -8.322984E+03  2.087364E+04
       202   1  7.878043E+04  1.814043E+05  5.762629E+04  2.257598E+05  1.869842E+04  2.680813E+04
       202   2  1.374538E+05  4.334580E+05  1.114309E+05  1.871785E+05  2.495959E+04 -1.361906E+02
       202   3  1.902323E+05  6.877334E+05  1.813174E+05  2.141823E+05  8.882201E+03 -2.710298E+04
       202   4 -7.636987E+01 -1.480560E+05 -7.209494E+03  2.243746E+05  1.869742E+04  1.694689E+03
       202   5 -2.803533E+03 -1.463921E+05 -1.010663E+04  1.915773E+05  2.496081E+04  6.932675E+03
       202   6 -1.701108E+04 -1.481509E+05 -1.926571E+04  2.243713E+05  8.875615E+03  1.215871E+04
       202   7 -7.893940E+04 -4.774110E+05 -7.204819E+04  2.229901E+05  1.869654E+04 -2.340571E+04
       202   8 -1.430823E+05 -7.259244E+05 -1.316627E+05  1.959720E+05  2.496213E+04  1.399505E+04
       202   9 -2.243040E+05 -9.833921E+05 -2.198926E+05  2.345464E+05  8.870321E+03  5.136778E+04
       202  10  7.877987E+04  1.814035E+05  5.762428E+04  2.257594E+05 -4.065525E-10  1.676213E-09
       202  11  1.374531E+05  4.334578E+05  1.114297E+05  1.871785E+05 -3.616402E-10  1.686789E-11
       202  12  1.902320E+05  6.877326E+05  1.813159E+05  2.141825E+05 -1.339759E-10  4.949601E-10
       202  13 -7.674600E+01 -1.480561E+05 -7.210157E+03  2.243746E+05 -8.249441E-10  1.476076E-10
       202  14 -2.804215E+03 -1.463924E+05 -1.010789E+04  1.915772E+05  3.723869E-11 -1.614492E-09
       202  15 -1.701120E+04 -1.481510E+05 -1.926614E+04  2.243712E+05 -1.385974E-10  2.177345E-09
       202  16 -7.893992E+04 -4.774117E+05 -7.204988E+04  2.229905E+05 -1.008540E-09 -1.822700E-09
       202  17 -1.430830E+05 -7.259247E+05 -1.316642E+05  1.959717E+05  3.915536E-11 -3.315094E-10
       202  18 -2.243048E+05 -9.833950E+05 -2.198977E+05  2.345461E+05 -4.779376E-10 -6.224125E-10
       202  19  7.878043E+04  1.814043E+05  5.762629E+04  2.257598E+05 -1.869842E+04 -2.680813E+04
       202  20  1.374538E+05  4.334580E+05  1.114309E+05  1.871785E+05 -2.495959E+04  1.361906E+02
       202  21  1.902323E+05  6.877334E+05  1.813174E+05  2.141823E+05 -8.882201E+03  2.710298E+04
       202  22 -7.636987E+01 -1.480560E+05 -7.209494E+03  2.243746E+05 -1.869742E+04 -1.694689E+03
       202  23 -2.803533E+03 -1.463921E+05 -1.010663E+04  1.915773E+05 -2.496081E+04 -6.932675E+03
       202  24 -1.701108E+04 -1.481509E+05 -1.926571E+04  2.243713E+05 -8.875615E+03 -1.215871E+04
       202  25 -7.893940E+04 -4.774110E+05 -7.204819E+04  2.229901E+05 -1.869654E+04  2.340571E+04
       202  26 -1.430823E+05 -7.259244E+05 -1.316627E+05  1.959720E+05 -2.496213E+04 -1.399505E+04
       202  27 -2.243040E+05 -9.833921E+05 -2.198926E+05  2.345464E+05 -8.870321E+03 -5.136778E+04
       203   1 -1.338982E+05 -6.008790E+05 -1.329441E+05  1.082376E+05 -5.219478E+03 -4.066500E+04
       203   2 -8.595268E+04 -4.901248E+05 -8.309950E+04  8.677944E+04 -1.558672E+04 -1.720480E+04
       203   3 -5.624500E+04 -3.869318E+05 -5.309338E+04  9.289375E+04 -1.414743E+04  6.265625E+03
       203   4 -2.250866E+04 -1.516446E+05 -2.548861E+04  9.483862E+04 -5.225852E+03 -1.726859E+04
       203   5 -3.639555E+03 -1.493231E+05 -1.248244E+04  8.105541E+04 -1.558756E+04 -1.079220E+04
       203   6 -5.197261E+01 -1.516198E+05 -7.509175E+03  9.484531E+04 -1.414511E+04 -4.310118E+03
       203   7  8.886718E+04  2.977764E+05  8.195477E+04  8.142989E+04 -5.233235E+03  6.144680E+03
       203   8  7.866634E+04  1.915890E+05  5.812848E+04  7.532819E+04 -1.558852E+04 -4.376129E+03
       203   9  5.613783E+04  8.374581E+04  3.807286E+04  9.679762E+04 -1.414286E+04 -1.488978E+04
       203  10 -1.338986E+05 -6.008808E+05 -1.329473E+05  1.082374E+05  3.158133E-11  6.121135E-10
       203  11 -8.595302E+04 -4.901252E+05 -8.310051E+04  8.677922E+04 -3.710503E-10 -2.491858E-09
       203  12 -5.624523E+04 -3.869319E+05 -5.309383E+04  9.289382E+04  6.635183E-10  7.967927E-10
       203  13 -2.250877E+04 -1.516450E+05 -2.548923E+04  9.483855E+04 -5.617785E-10 -1.021862E-09
       203  14 -3.639847E+03 -1.493232E+05 -1.248311E+04  8.105528E+04 -5.966744E-10 -3.039793E-09
       203  15 -5.219243E+01 -1.516198E+05 -7.509586E+03  9.484526E+04 -8.085699E-10 -2.028227E-09
       203  16  8.886714E+04  2.977764E+05  8.195465E+04  8.142992E+04 -5.725292E-10 -8.407859E-11
       203  17  7.866607E+04  1.915889E+05  5.812798E+04  7.532814E+04 -9.268798E-10  5.896806E-10
       203  18  5.613755E+04  8.374552E+04  3.807207E+04  9.679745E+04 -9.597649E-10 -5.860214E-10
       203  19 -1.338982E+05 -6.008790E+05 -1.329441E+05  1.082376E+05  5.219478E+03  4.066500E+04
       203  20 -8.595268E+04 -4.901248E+05 -8.309950E+04  8.677944E+04  1.558672E+04  1.720480E+04
       203  21 -5.624500E+04 -3.869318E+05 -5.309338E+04  9.289375E+04  1.414743E+04 -6.265625E+03
       203  22 -2.250866E+04 -1.516446E+05 -2.548861E+04  9.483862E+04  5.225852E+03  1.726859E+04
       203  23 -3.639555E+03 -1.493231E+05 -1.248244E+04  8.105541E+04  1.558756E+04  1.079220E+04
       203  24 -5.197261E+01 -1.516198E+05 -7.509175E+03  9.484531E+04  1.414511E+04  4.310118E+03
       203  25  8.886718E+04  2.977764E+05  8.195477E+04  8.142989E+04  5.233235E+03 -6.144680E+03
       203  26  7.866634E+04  1.915890E+05  5.812848E+04  7.532819E+04  1.558852E+04  4.376129E+03
       203  27  5.613783E+04  8.374581E+04  3.807286E+04  9.679762E+04  1.414286E+04  1.488978E+04
       204   1 -3.966894E+04 -3.131287E+05 -3.767440E+04  9.543016E+04 -9.781274E+03  5.327691E+03
       204   2 -1.333571E+04 -2.059030E+05 -1.511210E+04  8.089579E+04 -3.717917E+03  7.964939E+03
       204   3  1.179726E+04 -9.928588E+04  5.437519E+03  9.461066E+04  2.539092E+03  1.060238E+04
       204   4 -8.881978E+02 -1.507148E+05 -6.229051E+03  9.499412E+04 -9.779771E+03 -3.262218E+03
       204   5 -1.608407E+02 -1.504274E+05 -4.724837E+03  8.086955E+04 -3.716555E+03 -9.040059E+02
       204   6 -5.845948E+02 -1.507109E+05 -5.039119E+03  9.499415E+04  2.540279E+03  1.453964E+03
       204   7  3.789101E+04  1.172458E+04  2.521534E+04  9.455796E+04 -9.778257E+03 -1.185432E+04
       204   8  1.301389E+04 -9.494858E+04  5.662584E+03  8.084332E+04 -3.715193E+03 -9.773724E+03
       204   9 -1.296657E+04 -2.021332E+05 -1.551558E+04  9.537761E+04  2.541454E+03 -7.693707E+03
       204  10 -3.966905E+04 -3.131287E+05 -3.767464E+04  9.543020E+04  4.717399E-10  6.015133E-09
       204  11 -1.333574E+04 -2.059031E+05 -1.511224E+04  8.089581E+04  1.048785E-09 -1.013377E-08
       204  12  1.179723E+04 -9.928600E+04  5.437295E+03  9.461064E+04  5.511179E-10 -2.102108E-08
       204  13 -8.883034E+02 -1.507148E+05 -6.229250E+03  9.499409E+04  2.734307E-10 -1.759747E-09
       204  14 -1.608557E+02 -1.504274E+05 -4.724865E+03  8.086955E+04  7.471459E-10 -2.307558E-09
       204  15 -5.846022E+02 -1.507109E+05 -5.039135E+03  9.499415E+04  1.060813E-09 -2.902340E-10
       204  16  3.789087E+04  1.172440E+04  2.521490E+04  9.455787E+04  2.023669E-10 -5.214590E-09
       204  17  1.301385E+04 -9.494869E+04  5.662379E+03  8.084329E+04  1.498061E-09  1.011010E-08
       204  18 -1.296660E+04 -2.021333E+05 -1.551570E+04  9.537763E+04  9.940408E-10  2.246697E-08
       204  19 -3.966894E+04 -3.131287E+05 -3.767440E+04  9.543016E+04  9.781274E+03 -5.327691E+03
       204  20 -1.333571E+04 -2.059030E+05 -1.511210E+04  8.089579E+04  3.717917E+03 -7.964939E+03
       204  21  1.179726E+04 -9.928588E+04  5.437519E+03  9.461066E+04 -2.539092E+03 -1.060238E+04
       204  22 -8.881978E+02 -1.507148E+05 -6.229051E+03  9.499412E+04  9.779771E+03  3.262218E+03
       204  23 -1.608407E+02 -1.504274E+05 -4.724837E+03  8.086955E+04  3.716555E+03  9.040059E+02
       204  24 -5.845948E+02 -1.507109E+05 -5.039119E+03  9.499415E+04 -2.540279E+03 -1.453964E+03
       204  25  3.789101E+04  1.172458E+04  2.521534E+04  9.455796E+04  9.778257E+03  1.185432E+04
       204  26  1.301389E+04 -9.494858E+04  5.662584E+03  8.084332E+04  3.715193E+03  9.773724E+03
       204  27 -1.296657E+04 -2.021332E+05 -1.551558E+04  9.537761E+04 -2.541454E+03  7.693707E+03
       205   1  2.971885E+04 -2.703965E+04  1.889971E+04  9.616698E+04  6.926450E+03  1.290838E+04
       205   2  5.326038E+04  8.037801E+04  3.970621E+04  7.714070E+04  9.763404E+03  4.331081E+03
       205   3  6.879433E+04  1.869545E+05  6.410078E+04  8.586394E+04  3.522814E+03 -4.251040E+03
       205   4 -4.463716E+01 -1.512801E+05 -5.668352E+03  9.488421E+04  6.928003E+03  2.287865E+03
       205   5 -2.439163E+03 -1.497278E+05 -8.668730E+03  8.100687E+04  9.763221E+03  6.782477E+03
       205   6 -1.511172E+04 -1.512969E+05 -1.715949E+04  9.488048E+04  3.519218E+03  1.127351E+04
       205   7 -2.980900E+04 -2.755055E+05 -3.023674E+04  9.360171E+04  6.929601E+03 -8.330570E+03
       205   8 -5.814205E+04 -3.797835E+05 -5.704661E+04  8.487159E+04  9.763069E+03  9.232978E+03
       205   9 -9.902566E+04 -4.894428E+05 -9.842696E+04  1.038921E+05  3.516073E+03  2.678964E+04
       205  10  2.971876E+04 -2.703984E+04  1.889930E+04  9.616690E+04  4.111788E-10  2.179716E-08
       205  11  5.326027E+04  8.037797E+04  3.970599E+04  7.714067E+04  6.224972E-10  7.806994E-09
       205  12  6.879432E+04  1.869544E+05  6.410073E+04  8.586395E+04  2.902412E-10 -4.687905E-09
       205  13 -4.469010E+01 -1.512801E+05 -5.668452E+03  9.488420E+04  6.308798E-10  4.445574E-10
       205  14 -2.439277E+03 -1.497279E+05 -8.668996E+03  8.100682E+04  7.427304E-10  3.311029E-10
       205  15 -1.511177E+04 -1.512970E+05 -1.715976E+04  9.488044E+04  3.607168E-10 -2.364522E-09
       205  16 -2.980907E+04 -2.755056E+05 -3.023697E+04  9.360176E+04  7.526580E-10 -2.043200E-08
       205  17 -5.814218E+04 -3.797836E+05 -5.704695E+04  8.487151E+04  4.008924E-11 -5.730458E-09
       205  18 -9.902587E+04 -4.894435E+05 -9.842833E+04  1.038920E+05 -4.432678E-10  4.496856E-09
       205  19  2.971885E+04 -2.703965E+04  1.889971E+04  9.616698E+04 -6.926450E+03 -1.290838E+04
       205  20  5.326038E+04  8.037801E+04  3.970621E+04  7.714070E+04 -9.763404E+03 -4.331081E+03
       205  21  6.879433E+04  1.869545E+05  6.410078E+04  8.586394E+04 -3.522814E+03  4.251040E+03
       205  22 -4.463716E+01 -1.512801E+05 -5.668352E+03  9.488421E+04 -6.928003E+03 -2.287865E+03
       205  23 -2.439163E+03 -1.497278E+05 -8.668730E+03  8.100687E+04 -9.763221E+03 -6.782477E+03
       205  24 -1.511172E+04 -1.512969E+05 -1.715949E+04  9.488048E+04 -3.519218E+03 -1.127351E+04
       205  25 -2.980900E+04 -2.755055E+05 -3.023674E+04  9.360171E+04 -6.929601E+03  8.330570E+03
       205  26 -5.814205E+04 -3.797835E+05 -5.704661E+04  8.487159E+04 -9.763069E+03 -9.232978E+03
       205  27 -9.902566E+04 -4.894428E+05 -9.842696E+04  1.038921E+05 -3.516073E+03 -2.678964E+04
       206   1  2.162010E+06  5.947278E+05  5.800737E+05  3.738570E+05  1.600710E+05 -2.837049E+04
       206   2  1.753210E+06  4.483753E+05  3.989734E+05  3.097314E+05  6.499630E+04 -8.793090E+04
       206   3  1.368291E+06  3.446535E+05  2.903779E+05  3.468872E+05 -2.992908E+04 -8.964366E+04
       206   4 -8.161456E+04  3.988913E+04  4.633751E+04  3.509927E+05  3.216055E+04 -2.827430E+04
       206   5 -8.603888E+04  5.525925E+03  2.203573E+04  3.003368E+05  2.068601E+04 -8.792993E+04
       206   6 -8.115371E+04 -6.166089E+02  1.234347E+04  3.509683E+05  9.296852E+03 -8.966404E+04
       206   7 -2.320593E+06 -5.153014E+05 -4.876894E+05  3.282109E+05 -9.529119E+04 -2.816865E+04
       206   8 -1.922076E+06 -4.375345E+05 -3.550746E+05  2.909703E+05 -2.349571E+04 -8.792767E+04
       206   9 -1.528576E+06 -3.460099E+05 -2.657815E+05  3.550391E+05  4.843346E+04 -8.968392E+04
       206  10  2.161982E+06  5.947201E+05  5.800242E+05  3.738606E+05 -5.682827E-12  1.778312E-11
       206  11  1.753203E+06  4.483659E+05  3.989509E+05  3.097360E+05 -3.853879E-10  1.748211E-10
       206  12  1.368288E+06  3.446446E+05  2.903611E+05  3.468851E+05  5.943552E-10  3.487447E-10
       206  13 -8.161588E+04  3.988799E+04  4.633406E+04  3.509934E+05 -7.831812E-10  1.981701E-11
       206  14 -8.604142E+04  5.517506E+03  2.202039E+04  3.003383E+05  5.639332E-10  1.685547E-10
       206  15 -8.115596E+04 -6.252656E+02  1.232820E+04  3.509689E+05 -1.593655E-10  2.312830E-10
       206  16 -2.320603E+06 -5.153047E+05 -4.877080E+05  3.282087E+05 -2.496186E-11  5.541224E-11
       206  17 -1.922078E+06 -4.375429E+05 -3.550901E+05  2.909686E+05  4.321139E-10  1.437181E-10
       206  18 -1.528580E+06 -3.460192E+05 -2.658010E+05  3.550426E+05  4.080964E-10  1.586100E-10
       206  19  2.162010E+06  5.947278E+05  5.800737E+05  3.738570E+05 -1.600710E+05  2.837049E+04
       206  20  1.753210E+06  4.483753E+05  3.989734E+05  3.097314E+05 -6.499630E+04  8.793090E+04
       206  21  1.368291E+06  3.446535E+05  2.903779E+05  3.468872E+05  2.992908E+04  8.964366E+04
       206  22 -8.161456E+04  3.988913E+04  4.633751E+04  3.509927E+05 -3.216055E+04  2.827430E+04
       206  23 -8.603888E+04  5.525925E+03  2.203573E+04  3.003368E+05 -2.068601E+04  8.792993E+04
       206  24 -8.115371E+04 -6.166089E+02  1.234347E+04  3.509683E+05 -9.296852E+03  8.966404E+04
       206  25 -2.320593E+06 -5.153014E+05 -4.876894E+05  3.282109E+05  9.529119E+04  2.816865E+04
       206  26 -1.922076E+06 -4.375345E+05 -3.550746E+05  2.909703E+05  2.349571E+04  8.792767E+04
       206  27 -1.528576E+06 -3.460099E+05 -2.657815E+05  3.550391E+05 -4.843346E+04  8.968392E+04
       207   1  1.095677E+06  2.818249E+05  2.349393E+05  3.521192E+05 -2.132083E+04 -7.359347E+04
       207   2  6.984722E+05  1.856693E+05  1.522047E+05  2.994536E+05 -2.950834E+04 -5.153895E+04
       207   3  3.032317E+05  9.167575E+04  7.537528E+04  3.514822E+05 -3.770520E+04 -2.558167E+04
       207   4 -8.289571E+04  1.162649E+03  9.470960E+03  3.517335E+05  7.656921E+03 -7.360241E+04
       207   5 -8.321547E+04 -1.611935E+01  5.167659E+03  2.993826E+05  5.091970E+03 -5.153695E+04
       207   6 -8.269559E+04  1.279607E+00  2.872620E+03  3.517341E+05  2.512648E+03 -2.556597E+04
       207   7 -1.260131E+06 -2.795810E+05 -2.160575E+05  3.513482E+05  3.658101E+04 -7.361139E+04
       207   8 -8.643106E+05 -1.857364E+05 -1.418916E+05  2.993115E+05  3.964983E+04 -5.153496E+04
       207   9 -4.684755E+05 -9.168096E+04 -6.963044E+04  3.519857E+05  4.270612E+04 -2.555023E+04
       207  10  1.095675E+06  2.818189E+05  2.349283E+05  3.521180E+05  1.655587E-10  3.352068E-10
       207  11  6.984706E+05  1.856663E+05  1.521981E+05  2.994524E+05 -2.861523E-10  1.532140E-10
       207  12  3.032300E+05  9.167467E+04  7.537138E+04  3.514814E+05 -1.888849E-10  2.104951E-10
       207  13 -8.289723E+04  1.156816E+03  9.460669E+03  3.517340E+05 -1.253407E-11  2.058647E-10
       207  14 -8.321621E+04 -1.897853E+01  5.162619E+03  2.993828E+05  3.167131E-10  9.735581E-11
       207  15 -8.269577E+04  5.760101E-01  2.871380E+03  3.517341E+05  1.192888E-10  8.570570E-11
       207  16 -1.260134E+06 -2.795872E+05 -2.160702E+05  3.513504E+05 -4.043079E-11  5.763385E-11
       207  17 -8.643130E+05 -1.857397E+05 -1.418996E+05  2.993132E+05  2.856911E-10  1.223125E-13
       207  18 -4.684776E+05 -9.168215E+04 -6.963510E+04  3.519866E+05 -3.378610E-11 -3.961873E-11
       207  19  1.095677E+06  2.818249E+05  2.349393E+05  3.521192E+05  2.132083E+04  7.359347E+04
       207  20  6.984722E+05  1.856693E+05  1.522047E+05  2.994536E+05  2.950834E+04  5.153895E+04
       207  21  3.032317E+05  9.167575E+04  7.537528E+04  3.514822E+05  3.770520E+04  2.558167E+04
       207  22 -8.289571E+04  1.162649E+03  9.470960E+03  3.517335E+05 -7.656921E+03  7.360241E+04
       207  23 -8.321547E+04 -1.611935E+01  5.167659E+03  2.993826E+05 -5.091970E+03  5.153695E+04
       207  24 -8.269559E+04  1.279607E+00  2.872620E+03  3.517341E+05 -2.512648E+03  2.556597E+04
       207  25 -1.260131E+06 -2.795810E+05 -2.160575E+05  3.513482E+05 -3.658101E+04  7.361139E+04
       207  26 -8.643106E+05 -1.857364E+05 -1.418916E+05  2.993115E+05 -3.964983E+04  5.153496E+04
       207  27 -4.684755E+05 -9.168096E+04 -6.963044E+04  3.519857E+05 -4.270612E+04  2.555023E+04
       208   1  3.460447E+04  2.777370E+04  2.295992E+04  3.516030E+05 -3.798999E+04 -9.073266E+03
       208   2 -3.611308E+05 -6.633718E+04 -5.246141E+04  2.992661E+05 -3.416158E+04  1.726638E+04
       208   3 -7.573180E+05 -1.612718E+05 -1.305735E+05  3.516908E+05 -3.033104E+04  4.064108E+04
       208   4 -8.282583E+04  1.135891E+02  2.089345E+03  3.517466E+05  2.064899E+03 -9.055182E+03
       208   5 -8.292774E+04 -7.847524E+00  9.070764E+02  2.993674E+05  1.614159E+03  1.727840E+04
       208   6 -8.289715E+04 -2.039921E+02  4.177528E+00  3.517468E+05  1.167942E+03  4.064806E+04
       208   7 -2.002392E+05 -2.754642E+04 -1.877571E+04  3.518902E+05  4.211244E+04 -9.037076E+03
       208   8  1.953526E+05  6.631760E+04  5.427683E+04  2.994687E+05  3.740556E+04  1.729043E+04
       208   9  5.919633E+05  1.608372E+05  1.305643E+05  3.518027E+05  3.270040E+04  4.065505E+04
       208  10  3.460289E+04  2.777322E+04  2.295705E+04  3.516028E+05  5.370031E-10  1.620943E-10
       208  11 -3.611321E+05 -6.633781E+04 -5.246417E+04  2.992665E+05  2.549872E-10 -5.453430E-11
       208  12 -7.573194E+05 -1.612738E+05 -1.305783E+05  3.516918E+05 -2.537684E-10 -1.551075E-10
       208  13 -8.282585E+04  1.134998E+02  2.089183E+03  3.517466E+05 -7.620696E-11  8.203828E-11
       208  14 -8.292782E+04 -8.168773E+00  9.065105E+02  2.993674E+05  3.761182E-10  2.172716E-11
       208  15 -8.289759E+04 -2.057666E+02  1.070285E+00  3.517468E+05  1.919149E-10 -4.863192E-11
       208  16 -2.002411E+05 -2.754698E+04 -1.877920E+04  3.518905E+05 -2.096331E-10 -3.040713E-12
       208  17  1.953510E+05  6.631690E+04  5.427364E+04  2.994682E+05  1.738773E-10  1.022181E-10
       208  18  5.919617E+05  1.608352E+05  1.305592E+05  3.518017E+05  1.699463E-10  5.894359E-11
       208  19  3.460447E+04  2.777370E+04  2.295992E+04  3.516030E+05  3.798999E+04  9.073266E+03
       208  20 -3.611308E+05 -6.633718E+04 -5.246141E+04  2.992661E+05  3.416158E+04 -1.726638E+04
       208  21 -7.573180E+05 -1.612718E+05 -1.305735E+05  3.516908E+05  3.033104E+04 -4.064108E+04
       208  22 -8.282583E+04  1.135891E+02  2.089345E+03  3.517466E+05 -2.064899E+03  9.055182E+03
       208  23 -8.292774E+04 -7.847524E+00  9.070764E+02  2.993674E+05 -1.614159E+03 -1.727840E+04
       208  24 -8.289715E+04 -2.039921E+02  4.177528E+00  3.517468E+05 -1.167942E+03 -4.064806E+04
       208  25 -2.002392E+05 -2.754642E+04 -1.877571E+04  3.518902E+05 -4.211244E+04  9.037076E+03
       208  26  1.953526E+05  6.631760E+04  5.427683E+04  2.994687E+05 -3.740556E+04 -1.729043E+04
       208  27  5.919633E+05  1.608372E+05  1.305643E+05  3.518027E+05 -3.270040E+04 -4.065505E+04
       209   1 -1.027309E+06 -2.257590E+05 -1.833455E+05  3.508059E+05 -3.837180E+04  5.681702E+04
       209   2 -1.417639E+06 -3.234046E+05 -2.778129E+05  3.011165E+05  2.812162E+04  6.148417E+04
       209   3 -1.819413E+06 -4.344467E+05 -4.189020E+05  3.534721E+05  9.453100E+04  2.046978E+04
       209   4 -8.304795E+04 -1.913529E+02 -4.001621E+02  3.511416E+05  1.160717E+03  5.681922E+04
       209   5 -8.313778E+04 -1.006565E+03 -1.531517E+03  3.001243E+05  2.002079E+03  6.147618E+04
       209   6 -8.338538E+04 -3.784494E+03 -3.631048E+03  3.511409E+05  2.802371E+03  2.049602E+04
       209   7  8.620738E+05  2.253239E+05  1.825093E+05  3.514775E+05  4.075208E+04  5.682144E+04
       209   8  1.253055E+06  3.212789E+05  2.746557E+05  2.991296E+05 -2.417275E+04  6.146829E+04
       209   9  1.655428E+06  4.266637E+05  4.114589E+05  3.488026E+05 -8.918223E+04  2.052297E+04
       209  10 -1.027311E+06 -2.257629E+05 -1.833544E+05  3.508077E+05 -3.775584E-10 -1.392337E-10
       209  11 -1.417641E+06 -3.234089E+05 -2.778215E+05  3.011151E+05  1.422384E-10 -1.535923E-10
       209  12 -1.819423E+06 -4.344496E+05 -4.189196E+05  3.534705E+05 -4.015736E-10 -5.891206E-11
       209  13 -8.304882E+04 -1.948198E+02 -4.062311E+02  3.511415E+05  6.455283E-11 -7.515285E-11
       209  14 -8.313880E+04 -1.010624E+03 -1.538626E+03  3.001242E+05  3.476909E-10 -3.023831E-11
       209  15 -8.338550E+04 -3.784947E+03 -3.631852E+03  3.511409E+05 -3.903005E-10  8.257275E-11
       209  16  8.620711E+05  2.253200E+05  1.825001E+05  3.514756E+05  2.014962E-10  2.824849E-12
       209  17  1.253054E+06  3.212747E+05  2.746475E+05  2.991308E+05  1.626088E-10 -7.712735E-11
       209  18  1.655419E+06  4.266611E+05  4.114432E+05  3.488041E+05  3.488318E-10 -4.400279E-11
       209  19 -1.027309E+06 -2.257590E+05 -1.833455E+05  3.508059E+05  3.837180E+04 -5.681702E+04
       209  20 -1.417639E+06 -3.234046E+05 -2.778129E+05  3.011165E+05 -2.812162E+04 -6.148417E+04
       209  21 -1.819413E+06 -4.344467E+05 -4.189020E+05  3.534721E+05 -9.453100E+04 -2.046978E+04
       209  22 -8.304795E+04 -1.913529E+02 -4.001621E+02  3.511416E+05 -1.160717E+03 -5.681922E+04
       209  23 -8.313778E+04 -1.006565E+03 -1.531517E+03  3.001243E+05 -2.002079E+03 -6.147618E+04
       209  24 -8.338538E+04 -3.784494E+03 -3.631048E+03  3.511409E+05 -2.802371E+03 -2.049602E+04
       209  25  8.620738E+05  2.253239E+05  1.825093E+05  3.514775E+05 -4.075208E+04 -5.682144E+04
       209  26  1.253055E+06  3.212789E+05  2.746557E+05  2.991296E+05  2.417275E+04 -6.146829E+04
       209  27  1.655428E+06  4.266637E+05  4.114589E+05  3.488026E+05  8.918223E+04 -2.052297E+04
       210   1 -3.126359E+05 -1.640776E+06 -3.127011E+05  3.462514E+05 -1.080964E+04 -8.771508E+04
       210   2 -1.753375E+05 -1.272638E+06 -1.738454E+05  2.824611E+05 -2.873622E+04 -3.249297E+04
       210   3 -7.979124E+04 -9.223485E+05 -8.151236E+04  3.120628E+05 -1.807937E+04  2.271626E+04
       210   4 -5.038287E+04 -5.845745E+05 -5.829193E+04  3.175281E+05 -1.070471E+04 -4.126957E+04
       210   5 -7.203837E+03 -5.790839E+05 -2.715183E+04  2.707766E+05 -2.872097E+04 -2.710240E+04
       210   6  1.398020E+03 -5.844000E+05 -1.394837E+04  3.174207E+05 -1.816533E+04 -1.298158E+04
       210   7  2.117932E+05  4.726565E+05  1.960462E+05  2.887548E+05 -1.060420E+04  5.254878E+03
       210   8  1.608993E+05  1.149248E+05  1.195147E+05  2.590785E+05 -2.870594E+04 -2.170587E+04
       210   9  8.258104E+04 -2.463395E+05  5.361467E+04  3.227814E+05 -1.825187E+04 -4.869848E+04
       210  10 -3.126381E+05 -1.640784E+06 -3.127158E+05  3.462506E+05 -4.099409E-11  4.415997E-10
       210  11 -1.753387E+05 -1.272639E+06 -1.738489E+05  2.824604E+05  5.217610E-13 -2.804936E-10
       210  12 -7.979173E+04 -9.223492E+05 -8.151394E+04  3.120632E+05 -1.693528E-09 -8.743440E-10
       210  13 -5.038345E+04 -5.845764E+05 -5.829535E+04  3.175277E+05 -7.356618E-10  1.207885E-10
       210  14 -7.204920E+03 -5.790849E+05 -2.715476E+04  2.707760E+05  1.574745E-09 -2.420193E-10
       210  15  1.397621E+03 -5.844003E+05 -1.394930E+04  3.174205E+05 -1.163888E-09  5.994254E-11
       210  16  2.117930E+05  4.726565E+05  1.960459E+05  2.887549E+05  2.182191E-10 -4.471833E-10
       210  17  1.608983E+05  1.149241E+05  1.195122E+05  2.590780E+05 -2.090122E-10  1.569519E-10
       210  18  8.258005E+04 -2.463421E+05  5.360959E+04  3.227807E+05 -3.895124E-10  9.438007E-10
       210  19 -3.126359E+05 -1.640776E+06 -3.127011E+05  3.462514E+05  1.080964E+04  8.771508E+04
       210  20 -1.753375E+05 -1.272638E+06 -1.738454E+05  2.824611E+05  2.873622E+04  3.249297E+04
       210  21 -7.979124E+04 -9.223485E+05 -8.151236E+04  3.120628E+05  1.807937E+04 -2.271626E+04
       210  22 -5.038287E+04 -5.845745E+05 -5.829193E+04  3.175281E+05  1.070471E+04  4.126957E+04
       210  23 -7.203837E+03 -5.790839E+05 -2.715183E+04  2.707766E+05  2.872097E+04  2.710240E+04
       210  24  1.398020E+03 -5.844000E+05 -1.394837E+04  3.174207E+05  1.816533E+04  1.298158E+04
       210  25  2.117932E+05  4.726565E+05  1.960462E+05  2.887548E+05  1.060420E+04 -5.254878E+03
       210  26  1.608993E+05  1.149248E+05  1.195147E+05  2.590785E+05  2.870594E+04  2.170587E+04
       210  27  8.258104E+04 -2.463395E+05  5.361467E+04  3.227814E+05  1.825187E+04  4.869848E+04
       211   1 -2.338518E+04 -6.756228E+05 -3.004169E+04  3.180488E+05 -3.321343E+03  1.982190E+04
       211   2  6.415339E+04 -3.162624E+05  4.698434E+04  2.709339E+05  1.784290E+04  1.981890E+04
       211   3  1.516124E+05  4.278847E+04  1.238685E+05  3.187312E+05  3.807788E+04  1.982250E+04
       211   4 -6.285777E+02 -5.821266E+05 -9.811262E+03  3.177767E+05 -3.397955E+03 -1.130346E+04
       211   5  1.064374E+03 -5.818246E+05 -2.756574E+03  2.703157E+05  1.777301E+04 -9.975315E+03
       211   6  2.453849E+03 -5.821859E+05  3.234808E+03  3.177692E+05  3.801420E+04 -8.640572E+03
       211   7  2.212796E+04 -4.886202E+05  1.042229E+04  3.175046E+05 -3.474534E+03 -4.243345E+04
       211   8 -6.202825E+04 -8.473167E+05 -5.249719E+04  2.696977E+05  1.770316E+04 -3.975710E+04
       211   9 -1.467275E+05 -1.206783E+06 -1.174140E+05  3.168080E+05  3.795056E+04 -3.707564E+04
       211  10 -2.338529E+04 -6.756232E+05 -3.004245E+04  3.180488E+05 -4.362172E-10  1.691932E-09
       211  11  6.415295E+04 -3.162629E+05  4.698300E+04  2.709336E+05 -1.184671E-10  7.881437E-10
       211  12  1.516107E+05  4.278766E+04  1.238651E+05  3.187306E+05  5.782585E-10 -1.956897E-11
       211  13 -6.286244E+02 -5.821268E+05 -9.811524E+03  3.177767E+05 -1.072551E-09 -7.906995E-12
       211  14  1.064008E+03 -5.818248E+05 -2.757355E+03  2.703158E+05 -1.483738E-09  1.917292E-10
       211  15  2.452277E+03 -5.821863E+05  3.231952E+03  3.177695E+05 -1.507112E-09  1.717249E-10
       211  16  2.212747E+04 -4.886221E+05  1.041888E+04  3.175045E+05 -5.990235E-10 -1.760800E-09
       211  17 -6.202901E+04 -8.473185E+05 -5.250076E+04  2.696983E+05  8.633301E-10 -8.576565E-10
       211  18 -1.467294E+05 -1.206785E+06 -1.174193E+05  3.168091E+05  9.113640E-10 -3.101616E-11
       211  19 -2.338518E+04 -6.756228E+05 -3.004169E+04  3.180488E+05  3.321343E+03 -1.982190E+04
       211  20  6.415339E+04 -3.162624E+05  4.698434E+04  2.709339E+05 -1.784290E+04 -1.981890E+04
       211  21  1.516124E+05  4.278847E+04  1.238685E+05  3.187312E+05 -3.807788E+04 -1.982250E+04
       211  22 -6.285777E+02 -5.821266E+05 -9.811262E+03  3.177767E+05  3.397955E+03  1.130346E+04
       211  23  1.064374E+03 -5.818246E+05 -2.756574E+03  2.703157E+05 -1.777301E+04  9.975315E+03
       211  24  2.453849E+03 -5.821859E+05  3.234808E+03  3.177692E+05 -3.801420E+04  8.640572E+03
       211  25  2.212796E+04 -4.886202E+05  1.042229E+04  3.175046E+05  3.474534E+03  4.243345E+04
       211  26 -6.202825E+04 -8.473167E+05 -5.249719E+04  2.696977E+05 -1.770316E+04  3.975710E+04
       211  27 -1.467275E+05 -1.206783E+06 -1.174140E+05  3.168080E+05 -3.795056E+04  3.707564E+04
       212   1  2.087817E+05  2.893444E+05  1.744236E+05  3.157503E+05  5.273931E+04  2.619476E+04
       212   2  3.009366E+05  6.404972E+05  2.677366E+05  2.799123E+05  5.645486E+04 -4.135121E+04
       212   3  4.239845E+05  1.008164E+06  4.126905E+05  3.365359E+05  1.860410E+04 -1.088867E+05
       212   4  1.113779E+03 -5.807731E+05  6.255336E+03  3.172349E+05  5.266546E+04 -9.308854E+03
       212   5  5.421337E+03 -5.839205E+05  1.465400E+04  2.709749E+05  5.651180E+04 -1.692949E+04
       212   6  3.026060E+04 -5.810444E+05  3.311010E+04  3.171807E+05  1.875671E+04 -2.449939E+04
       212   7 -2.065985E+05 -1.450160E+06 -1.619435E+05  3.187167E+05  5.259138E+04 -4.476384E+04
       212   8 -2.901883E+05 -1.806916E+06 -2.385075E+05  2.620545E+05  5.656811E+04  7.444968E+03
       212   9 -3.636410E+05 -2.167923E+06 -3.466214E+05  2.978738E+05  1.890430E+04  5.967321E+04
       212  10  2.087785E+05  2.893429E+05  1.744171E+05  3.157492E+05 -2.334193E-10 -4.637165E-10
       212  11  3.009327E+05  6.404945E+05  2.677274E+05  2.799141E+05 -3.532013E-10 -3.486650E-10
       212  12  4.239809E+05  1.008152E+06  4.126676E+05  3.365375E+05  2.495538E-10  3.939152E-11
       212  13  1.110778E+03 -5.807739E+05  6.249961E+03  3.172353E+05  1.590200E-09 -1.406786E-10
       212  14  5.417830E+03 -5.839217E+05  1.464746E+04  2.709757E+05 -9.022093E-10  9.402175E-11
       212  15  3.026006E+04 -5.810452E+05  3.310831E+04  3.171811E+05  2.743229E-10 -5.365992E-11
       212  16 -2.066020E+05 -1.450163E+06 -1.619525E+05  3.187186E+05 -2.613712E-10  5.235606E-10
       212  17 -2.901918E+05 -1.806917E+06 -2.385137E+05  2.620541E+05 -4.378782E-10  5.296425E-10
       212  18 -3.636424E+05 -2.167927E+06 -3.466288E+05  2.978729E+05  3.634060E-10 -1.407251E-10
       212  19  2.087817E+05  2.893444E+05  1.744236E+05  3.157503E+05 -5.273931E+04 -2.619476E+04
       212  20  3.009366E+05  6.404972E+05  2.677366E+05  2.799123E+05 -5.645486E+04  4.135121E+04
       212  21  4.239845E+05  1.008164E+06  4.126905E+05  3.365359E+05 -1.860410E+04  1.088867E+05
       212  22  1.113779E+03 -5.807731E+05  6.255336E+03  3.172349E+05 -5.266546E+04  9.308854E+03
       212  23  5.421337E+03 -5.839205E+05  1.465400E+04  2.709749E+05 -5.651180E+04  1.692949E+04
       212  24  3.026060E+04 -5.810444E+05  3.311010E+04  3.171807E+05 -1.875671E+04  2.449939E+04
       212  25 -2.065985E+05 -1.450160E+06 -1.619435E+05  3.187167E+05 -5.259138E+04  4.476384E+04
       212  26 -2.901883E+05 -1.806916E+06 -2.385075E+05  2.620545E+05 -5.656811E+04 -7.444968E+03
       212  27 -3.636410E+05 -2.167923E+06 -3.466214E+05  2.978738E+05 -1.890430E+04 -5.967321E+04
       213   1  1.884426E+06  4.806923E+05  4.638965E+05  3.313354E+05  1.104722E+05 -2.384624E+04
       213   2  1.504847E+06  3.737091E+05  3.206384E+05  2.826583E+05  3.720502E+04 -7.329419E+04
       213   3  1.139246E+06  2.821023E+05  2.288918E+05  3.293247E+05 -3.597022E+04 -7.270315E+04
       213   4 -4.566229E+04  3.174147E+03  4.212934E+03  3.296046E+05  2.967639E+03 -2.381343E+04
       213   5 -4.615202E+04  4.522644E+01  1.940845E+03  2.819269E+05  1.959640E+03 -7.330625E+04
       213   6 -4.529554E+04 -2.060647E+02  1.099891E+03  3.296040E+05  9.976265E+02 -7.270342E+04
       213   7 -1.972315E+06 -4.746065E+05 -4.556885E+05  3.278787E+05 -1.042050E+05 -2.378004E+04
       213   8 -1.594868E+06 -3.737694E+05 -3.168808E+05  2.811970E+05 -3.319942E+04 -7.331827E+04
       213   9 -1.228486E+06 -2.825968E+05 -2.267516E+05  3.298823E+05  3.789666E+04 -7.270364E+04
       213  10  1.884413E+06  4.806884E+05  4.638726E+05  3.313375E+05  2.802600E-12  2.022734E-11
       213  11  1.504844E+06  3.737029E+05  3.206257E+05  2.826604E+05 -4.847281E-10  4.419135E-11
       213  12  1.139244E+06  2.820963E+05  2.288795E+05  3.293226E+05  6.435545E-10 -9.823395E-11
       213  13 -4.566245E+04  3.173536E+03  4.211851E+03  3.296047E+05 -2.116232E-10  1.894920E-10
       213  14 -4.615346E+04  3.945491E+01  1.930740E+03  2.819270E+05 -8.840265E-11  2.156633E-11
       213  15 -4.529696E+04 -2.117409E+02  1.089956E+03  3.296040E+05  6.514606E-10 -2.998148E-10
       213  16 -1.972327E+06 -4.746100E+05 -4.557100E+05  3.278767E+05  8.840184E-10  1.332529E-11
       213  17 -1.594871E+06 -3.737754E+05 -3.168930E+05  2.811950E+05  3.173128E-10 -9.295628E-11
       213  18 -1.228489E+06 -2.826029E+05 -2.267643E+05  3.298845E+05 -2.761050E-10 -4.998760E-10
       213  19  1.884426E+06  4.806923E+05  4.638965E+05  3.313354E+05 -1.104722E+05  2.384624E+04
       213  20  1.504847E+06  3.737091E+05  3.206384E+05  2.826583E+05 -3.720502E+04  7.329419E+04
       213  21  1.139246E+06  2.821023E+05  2.288918E+05  3.293247E+05  3.597022E+04  7.270315E+04
       213  22 -4.566229E+04  3.174147E+03  4.212934E+03  3.296046E+05 -2.967639E+03  2.381343E+04
       213  23 -4.615202E+04  4.522644E+01  1.940845E+03  2.819269E+05 -1.959640E+03  7.330625E+04
       213  24 -4.529554E+04 -2.060647E+02  1.099891E+03  3.296040E+05 -9.976265E+02  7.270342E+04
       213  25 -1.972315E+06 -4.746065E+05 -4.556885E+05  3.278787E+05  1.042050E+05  2.378004E+04
       213  26 -1.594868E+06 -3.737694E+05 -3.168808E+05  2.811970E+05  3.319942E+04  7.331827E+04
       213  27 -1.228486E+06 -2.825968E+05 -2.267516E+05  3.298823E+05 -3.789666E+04  7.270364E+04
       214   1  8.849584E+05  2.217737E+05  1.793072E+05  3.304502E+05 -2.726643E+04 -5.758843E+04
       214   2  5.124082E+05  1.327034E+05  1.056232E+05  2.812163E+05 -3.222831E+04 -3.642232E+04
       214   3  1.409541E+05  4.458328E+04  3.541310E+04  3.303049E+05 -3.719764E+04 -1.192013E+04
       214   4 -4.546144E+04  8.336063E+01  7.977988E+02  3.302650E+05  8.412503E+02 -5.758333E+04
       214   5 -4.545604E+04  1.033441E+02  3.256643E+02  2.811009E+05  6.796384E+02 -3.640812E+04
       214   6 -4.532721E+04  2.461635E+02 -4.971251E+00  3.302650E+05  5.076437E+02 -1.189503E+04
       214   7 -9.750470E+05 -2.216577E+05 -1.777483E+05  3.300798E+05  2.890783E+04 -5.757824E+04
       214   8 -6.030176E+05 -1.325142E+05 -1.049815E+05  2.809856E+05  3.355876E+04 -3.639392E+04
       214   9 -2.315720E+05 -4.409222E+04 -3.541925E+04  3.302252E+05  3.820188E+04 -1.186994E+04
       214  10  8.849567E+05  2.217699E+05  1.792995E+05  3.304489E+05 -8.031778E-11 -7.032952E-11
       214  11  5.124067E+05  1.327017E+05  1.056188E+05  2.812153E+05 -3.181115E-10  1.364587E-10
       214  12  1.409526E+05  4.458275E+04  3.541023E+04  3.303045E+05  4.313844E-10  2.347140E-10
       214  13 -4.546233E+04  7.979984E+01  7.915664E+02  3.302650E+05  7.426090E-10 -3.262307E-10
       214  14 -4.545640E+04  1.019206E+02  3.231725E+02  2.811010E+05 -1.388040E-10  3.759250E-11
       214  15 -4.532725E+04  2.460115E+02 -5.237636E+00  3.302650E+05 -1.304379E-10  2.398214E-10
       214  16 -9.750488E+05 -2.216615E+05 -1.777561E+05  3.300811E+05  5.212143E-10 -4.665696E-10
       214  17 -6.030192E+05 -1.325160E+05 -1.049861E+05  2.809866E+05  7.609950E-10 -6.484396E-11
       214  18 -2.315736E+05 -4.409276E+04 -3.542226E+04  3.302256E+05 -1.069435E-10 -5.532621E-11
       214  19  8.849584E+05  2.217737E+05  1.793072E+05  3.304502E+05  2.726643E+04  5.758843E+04
       214  20  5.124082E+05  1.327034E+05  1.056232E+05  2.812163E+05  3.222831E+04  3.642232E+04
       214  21  1.409541E+05  4.458328E+04  3.541310E+04  3.303049E+05  3.719764E+04  1.192013E+04
       214  22 -4.546144E+04  8.336063E+01  7.977988E+02  3.302650E+05 -8.412503E+02  5.758333E+04
       214  23 -4.545604E+04  1.033441E+02  3.256643E+02  2.811009E+05 -6.796384E+02  3.640812E+04
       214  24 -4.532721E+04  2.461635E+02 -4.971251E+00  3.302650E+05 -5.076437E+02  1.189503E+04
       214  25 -9.750470E+05 -2.216577E+05 -1.777483E+05  3.300798E+05 -2.890783E+04  5.757824E+04
       214  26 -6.030176E+05 -1.325142E+05 -1.049815E+05  2.809856E+05 -3.355876E+04  3.639392E+04
       214  27 -2.315720E+05 -4.409222E+04 -3.541925E+04  3.302252E+05 -3.820188E+04  1.186994E+04
       215   1 -1.111476E+05 -1.550185E+04 -1.324344E+04  3.301651E+05 -3.715086E+04  3.582594E+03
       215   2 -4.825716E+05 -1.039345E+05 -8.350054E+04  2.809993E+05 -3.236015E+04  2.819170E+04
       215   3 -8.546805E+05 -1.933142E+05 -1.571203E+05  3.301798E+05 -2.756401E+04  4.968688E+04
       215   4 -4.535608E+04  2.711632E+02 -1.786862E+02  3.302681E+05  5.098435E+02  3.608207E+03
       215   5 -4.539186E+04  1.057302E+02 -6.191180E+02  2.810973E+05  8.098381E+02  2.820823E+04
       215   6 -4.546133E+04 -2.186654E+02 -1.301471E+03  3.302683E+05  1.117946E+03  4.969572E+04
       215   7  2.044260E+04  1.604467E+04  1.289119E+04  3.303711E+05  3.817446E+04  3.633830E+03
       215   8  3.919748E+05  1.041354E+05  8.225793E+04  2.811952E+05  3.400264E+04  2.822476E+04
       215   9  7.643901E+05  1.928384E+05  1.544902E+05  3.303566E+05  2.983647E+04  4.970456E+04
       215  10 -1.111491E+05 -1.550223E+04 -1.324606E+04  3.301652E+05  2.507678E-11  2.060121E-10
       215  11 -4.825729E+05 -1.039356E+05 -8.350401E+04  2.810001E+05 -3.636222E-10  1.286664E-10
       215  12 -8.546820E+05 -1.933170E+05 -1.571264E+05  3.301809E+05 -7.656166E-10  3.624626E-11
       215  13 -4.535608E+04  2.711492E+02 -1.787111E+02  3.302681E+05  6.588653E-11 -2.622952E-11
       215  14 -4.539207E+04  1.048756E+02 -6.206145E+02  2.810972E+05 -2.876389E-10  6.650412E-12
       215  15 -4.546199E+04 -2.213176E+02 -1.306114E+03  3.302682E+05 -4.539208E-11 -4.871263E-11
       215  16  2.044103E+04  1.604427E+04  1.288843E+04  3.303710E+05  6.971797E-11 -4.759863E-11
       215  17  3.919733E+05  1.041342E+05  8.225427E+04  2.811944E+05  8.766187E-10 -2.823427E-10
       215  18  7.643885E+05  1.928355E+05  1.544839E+05  3.303554E+05  7.751506E-10 -1.156645E-11
       215  19 -1.111476E+05 -1.550185E+04 -1.324344E+04  3.301651E+05  3.715086E+04 -3.582594E+03
       215  20 -4.825716E+05 -1.039345E+05 -8.350054E+04  2.809993E+05  3.236015E+04 -2.819170E+04
       215  21 -8.546805E+05 -1.933142E+05 -1.571203E+05  3.301798E+05  2.756401E+04 -4.968688E+04
       215  22 -4.535608E+04  2.711632E+02 -1.786862E+02  3.302681E+05 -5.098435E+02 -3.608207E+03
       215  23 -4.539186E+04  1.057302E+02 -6.191180E+02  2.810973E+05 -8.098381E+02 -2.820823E+04
       215  24 -4.546133E+04 -2.186654E+02 -1.301471E+03  3.302683E+05 -1.117946E+03 -4.969572E+04
       215  25  2.044260E+04  1.604467E+04  1.289119E+04  3.303711E+05 -3.817446E+04 -3.633830E+03
       215  26  3.919748E+05  1.041354E+05  8.225793E+04  2.811952E+05 -3.400264E+04 -2.822476E+04
       215  27  7.643901E+05  1.928384E+05  1.544902E+05  3.303566E+05 -2.983647E+04 -4.970456E+04
       216   1 -1.108450E+06 -2.538199E+05 -2.067948E+05  3.289701E+05 -3.566880E+04  6.483727E+04
       216   2 -1.474153E+06 -3.463309E+05 -2.979712E+05  2.834659E+05  3.390988E+04  6.698943E+04
       216   3 -1.852290E+06 -4.544715E+05 -4.383398E+05  3.335117E+05  1.034082E+05  2.193838E+04
       216   4 -4.571518E+04 -1.104960E+02 -1.726047E+03  3.296460E+05  1.323620E+03  6.484205E+04
       216   5 -4.550745E+04 -1.401933E+03 -3.285023E+03  2.818757E+05  3.073330E+03  6.697621E+04
       216   6 -4.605397E+04 -6.509278E+03 -6.867332E+03  3.296456E+05  4.786274E+03  2.195612E+04
       216   7  1.018109E+06  2.535324E+05  2.032953E+05  3.303227E+05  3.837800E+04  6.484689E+04
       216   8  1.385080E+06  3.433986E+05  2.912947E+05  2.802814E+05 -2.783307E+04  6.696319E+04
       216   9  1.763201E+06  4.412220E+05  4.244120E+05  3.257676E+05 -9.412197E+04  2.197512E+04
       216  10 -1.108452E+06 -2.538247E+05 -2.068051E+05  3.289720E+05 -3.360419E-10  1.240902E-11
       216  11 -1.474156E+06 -3.463361E+05 -2.979818E+05  2.834640E+05 -6.089087E-10  1.420985E-11
       216  12 -1.852302E+06 -4.544749E+05 -4.383608E+05  3.335098E+05 -1.807080E-10  7.223120E-11
       216  13 -4.571631E+04 -1.150112E+02 -1.733951E+03  3.296459E+05  1.701267E-10  2.085788E-11
       216  14 -4.550866E+04 -1.406752E+03 -3.293470E+03  2.818755E+05  3.802489E-10 -1.458881E-10
       216  15 -4.605412E+04 -6.509801E+03 -6.868281E+03  3.296455E+05  9.331376E-11 -2.163616E-12
       216  16  1.018107E+06  2.535275E+05  2.032847E+05  3.303207E+05  2.401581E-10  6.267364E-11
       216  17  1.385078E+06  3.433935E+05  2.912848E+05  2.802829E+05  1.061819E-09 -2.752927E-11
       216  18  1.763191E+06  4.412191E+05  4.243944E+05  3.257693E+05 -7.669094E-12  7.904686E-12
       216  19 -1.108450E+06 -2.538199E+05 -2.067948E+05  3.289701E+05  3.566880E+04 -6.483727E+04
       216  20 -1.474153E+06 -3.463309E+05 -2.979712E+05  2.834659E+05 -3.390988E+04 -6.698943E+04
       216  21 -1.852290E+06 -4.544715E+05 -4.383398E+05  3.335117E+05 -1.034082E+05 -2.193838E+04
       216  22 -4.571518E+04 -1.104960E+02 -1.726047E+03  3.296460E+05 -1.323620E+03 -6.484205E+04
       216  23 -4.550745E+04 -1.401933E+03 -3.285023E+03  2.818757E+05 -3.073330E+03 -6.697621E+04
       216  24 -4.605397E+04 -6.509278E+03 -6.867332E+03  3.296456E+05 -4.786274E+03 -2.195612E+04
       216  25  1.018109E+06  2.535324E+05  2.032953E+05  3.303227E+05 -3.837800E+04 -6.484689E+04
       216  26  1.385080E+06  3.433986E+05  2.912947E+05  2.802814E+05  2.783307E+04 -6.696319E+04
       216  27  1.763201E+06  4.412220E+05  4.244120E+05  3.257676E+05  9.412197E+04 -2.197512E+04
       217   1 -3.635552E+05 -1.533910E+06 -3.528014E+05  4.252345E+05 -1.523508E+04 -6.714574E+04
       217   2 -2.379930E+05 -1.046394E+06 -2.054473E+05  3.635883E+05 -4.142543E+04 -1.133929E+04
       217   3 -1.206244E+05 -5.682031E+05 -9.659213E+04  4.273653E+05 -2.785347E+04  4.446789E+04
       217   4  2.713626E+03 -5.894216E+04  2.116775E+03  4.282261E+05 -1.511392E+04 -7.705486E+02
       217   5  1.264858E+03 -5.898743E+04  2.752767E+03  3.655224E+05 -4.140240E+04 -2.106016E+03
       217   6  1.576015E+03 -5.863711E+04  4.639077E+03  4.282283E+05 -2.795760E+04 -3.485545E+03
       217   7  3.688262E+05  1.418029E+06  3.568966E+05  4.312233E+05 -1.499230E+04  6.576204E+04
       217   8  2.404599E+05  9.293410E+05  2.108982E+05  3.674588E+05 -4.137935E+04  7.141732E+03
       217   9  1.237618E+05  4.511822E+05  1.058660E+05  4.290917E+05 -2.806180E+04 -5.147756E+04
       217  10 -3.635566E+05 -1.533915E+06 -3.528104E+05  4.252337E+05  3.140955E-11  6.682066E-10
       217  11 -2.379949E+05 -1.046395E+06 -2.054507E+05  3.635879E+05  2.686279E-10 -3.534221E-10
       217  12 -1.206258E+05 -5.682054E+05 -9.659731E+04  4.273663E+05 -9.222969E-10 -1.359230E-09
       217  13  2.713380E+03 -5.894222E+04  2.116344E+03  4.282261E+05 -7.281759E-10 -1.435320E-11
       217  14  1.263016E+03 -5.898789E+04  2.749538E+03  3.655223E+05  1.114060E-09  2.154576E-10
       217  15  1.575173E+03 -5.863733E+04  4.637586E+03  4.282282E+05 -4.208411E-10  4.357594E-11
       217  16  3.688248E+05  1.418024E+06  3.568880E+05  4.312241E+05 -1.081383E-10 -5.271593E-10
       217  17  2.404580E+05  9.293405E+05  2.108948E+05  3.674591E+05  3.638634E-10  3.904398E-10
       217  18  1.237603E+05  4.511791E+05  1.058596E+05  4.290906E+05  2.012461E-10  1.279266E-09
       217  19 -3.635552E+05 -1.533910E+06 -3.528014E+05  4.252345E+05  1.523508E+04  6.714574E+04
       217  20 -2.379930E+05 -1.046394E+06 -2.054473E+05  3.635883E+05  4.142543E+04  1.133929E+04
       217  21 -1.206244E+05 -5.682031E+05 -9.659213E+04  4.273653E+05  2.785347E+04 -4.446789E+04
       217  22  2.713626E+03 -5.894216E+04  2.116775E+03  4.282261E+05  1.511392E+04  7.705486E+02
       217  23  1.264858E+03 -5.898743E+04  2.752767E+03  3.655224E+05  4.140240E+04  2.106016E+03
       217  24  1.576015E+03 -5.863711E+04  4.639077E+03  4.282283E+05  2.795760E+04  3.485545E+03
       217  25  3.688262E+05  1.418029E+06  3.568966E+05  4.312233E+05  1.499230E+04 -6.576204E+04
       217  26  2.404599E+05  9.293410E+05  2.108982E+05  3.674588E+05  4.137935E+04 -7.141732E+03
       217  27  1.237618E+05  4.511822E+05  1.058660E+05  4.290917E+05  2.806180E+04  5.147756E+04
       218   1 -4.216811E+04 -2.394064E+05 -3.159974E+04  4.277883E+05 -8.044650E+03  3.709217E+04
       218   2  7.323032E+04  2.428065E+05  6.685059E+04  3.655243E+05  2.027658E+04  3.036772E+04
       218   3  1.917429E+05  7.264825E+05  1.703209E+05  4.308154E+05  4.754433E+04  2.364720E+04
       218   4  1.555732E+03 -5.846257E+04  6.022205E+03  4.287062E+05 -8.138084E+03 -4.468665E+03
       218   5  1.575564E+03 -5.899936E+04  1.035514E+04  3.649239E+05  2.019179E+04 -9.687664E+03
       218   6  4.461440E+03 -5.855651E+04  1.866724E+04  4.286996E+05  4.746735E+04 -1.489775E+04
       218   7  4.527842E+04  1.225160E+05  4.364885E+04  4.296244E+05 -8.231623E+03 -4.604142E+04
       218   8 -7.008360E+04 -3.607137E+05 -4.613821E+04  3.643237E+05  2.010704E+04 -4.972407E+04
       218   9 -1.828558E+05 -8.430003E+05 -1.330096E+05  4.265859E+05  4.739057E+04 -5.339510E+04
       218  10 -4.216855E+04 -2.394079E+05 -3.160245E+04  4.277885E+05 -5.254763E-10  9.699645E-10
       218  11  7.322963E+04  2.428054E+05  6.684809E+04  3.655238E+05 -4.727154E-10  4.280547E-10
       218  12  1.917403E+05  7.264813E+05  1.703156E+05  4.308145E+05  7.319690E-10  8.254311E-11
       218  13  1.555655E+03 -5.846260E+04  6.022043E+03  4.287062E+05 -6.425457E-10 -1.541428E-11
       218  14  1.575101E+03 -5.899957E+04  1.035420E+04  3.649240E+05 -1.563248E-09  2.118524E-10
       218  15  4.458961E+03 -5.855736E+04  1.866259E+04  4.287001E+05 -1.247298E-09  3.682481E-11
       218  16  4.527778E+04  1.225137E+05  4.364474E+04  4.296241E+05 -3.770801E-10 -8.939887E-10
       218  17 -7.008470E+04 -3.607164E+05 -4.614362E+04  3.643245E+05  9.375699E-10 -3.844606E-10
       218  18 -1.828590E+05 -8.430040E+05 -1.330192E+05  4.265880E+05  7.005648E-10 -2.345871E-10
       218  19 -4.216811E+04 -2.394064E+05 -3.159974E+04  4.277883E+05  8.044650E+03 -3.709217E+04
       218  20  7.323032E+04  2.428065E+05  6.685059E+04  3.655243E+05 -2.027658E+04 -3.036772E+04
       218  21  1.917429E+05  7.264825E+05  1.703209E+05  4.308154E+05 -4.754433E+04 -2.364720E+04
       218  22  1.555732E+03 -5.846257E+04  6.022205E+03  4.287062E+05  8.138084E+03  4.468665E+03
       218  23  1.575564E+03 -5.899936E+04  1.035514E+04  3.649239E+05 -2.019179E+04  9.687664E+03
       218  24  4.461440E+03 -5.855651E+04  1.866724E+04  4.286996E+05 -4.746735E+04  1.489775E+04
       218  25  4.527842E+04  1.225160E+05  4.364885E+04  4.296244E+05  8.231623E+03  4.604142E+04
       218  26 -7.008360E+04 -3.607137E+05 -4.613821E+04  3.643237E+05 -2.010704E+04  4.972407E+04
       218  27 -1.828558E+05 -8.430003E+05 -1.330096E+05  4.265859E+05 -4.739057E+04  5.339510E+04
       219   1  2.670480E+05  1.059497E+06  2.397282E+05  4.222013E+05  6.724543E+04  2.959929E+04
       219   2  3.972575E+05  1.527798E+06  3.723361E+05  3.875608E+05  7.294218E+04 -7.149410E+04
       219   3  5.962305E+05  2.026706E+06  5.878491E+05  4.773762E+05  2.416078E+04 -1.726346E+05
       219   4  1.183694E+03 -5.515675E+04  2.422961E+04  4.280270E+05  6.715992E+04 -1.815709E+04
       219   5  1.332941E+04 -6.381736E+04  4.327169E+04  3.657428E+05  7.300895E+04 -4.059916E+04
       219   6  8.070846E+04 -5.564380E+04  9.072299E+04  4.279111E+05  2.432516E+04 -6.300610E+04
       219   7 -2.647532E+05 -1.168613E+06 -1.913185E+05  4.338411E+05  6.707342E+04 -6.582975E+04
       219   8 -3.707568E+05 -1.653032E+06 -2.859262E+05  3.439801E+05  7.307366E+04 -9.781810E+03
       219   9 -4.351118E+05 -2.133996E+06 -4.066621E+05  3.786096E+05  2.447249E+04  4.625752E+04
       219  10  2.670429E+05  1.059495E+06  2.397181E+05  4.221997E+05 -1.401863E-10 -3.028827E-10
       219  11  3.972504E+05  1.527791E+06  3.723165E+05  3.875650E+05 -2.370653E-10 -5.235999E-10
       219  12  5.962219E+05  2.026674E+06  5.877922E+05  4.773796E+05  2.105413E-10 -1.791325E-10
       219  13  1.178761E+03 -5.515832E+04  2.422051E+04  4.280280E+05  1.032676E-09  7.810746E-13
       219  14  1.332324E+04 -6.382056E+04  4.325857E+04  3.657452E+05 -4.109940E-10  1.850199E-10
       219  15  8.070676E+04 -5.564822E+04  9.071442E+04  4.279123E+05  2.505491E-10 -4.539405E-11
       219  16 -2.647592E+05 -1.168619E+06 -1.913351E+05  4.338446E+05 -1.393922E-10  5.047416E-10
       219  17 -3.707626E+05 -1.653033E+06 -2.859364E+05  3.439806E+05 -2.870525E-10  7.218889E-10
       219  18 -4.351130E+05 -2.133998E+06 -4.066673E+05  3.786087E+05  3.097286E-10  9.358073E-11
       219  19  2.670480E+05  1.059497E+06  2.397282E+05  4.222013E+05 -6.724543E+04 -2.959929E+04
       219  20  3.972575E+05  1.527798E+06  3.723361E+05  3.875608E+05 -7.294218E+04  7.149410E+04
       219  21  5.962305E+05  2.026706E+06  5.878491E+05  4.773762E+05 -2.416078E+04  1.726346E+05
       219  22  1.183694E+03 -5.515675E+04  2.422961E+04  4.280270E+05 -6.715992E+04  1.815709E+04
       219  23  1.332941E+04 -6.381736E+04  4.327169E+04  3.657428E+05 -7.300895E+04  4.059916E+04
       219  24  8.070846E+04 -5.564380E+04  9.072299E+04  4.279111E+05 -2.432516E+04  6.300610E+04
       219  25 -2.647532E+05 -1.168613E+06 -1.913185E+05  4.338411E+05 -6.707342E+04  6.582975E+04
       219  26 -3.707568E+05 -1.653032E+06 -2.859262E+05  3.439801E+05 -7.307366E+04  9.781810E+03
       219  27 -4.351118E+05 -2.133996E+06 -4.066621E+05  3.786096E+05 -2.447249E+04 -4.625752E+04
       220   1  1.768726E+06  4.364265E+05  4.226390E+05  3.054168E+05  1.045175E+05 -2.111998E+04
       220   2  1.423974E+06  3.325816E+05  2.889298E+05  2.583384E+05  3.682351E+04 -6.476959E+04
       220   3  1.093376E+06  2.482141E+05  2.041269E+05  2.977216E+05 -3.079553E+04 -6.383572E+04
       220   4  5.103338E+04  1.143536E+04  1.344532E+04  2.987306E+05  9.328501E+03 -2.109789E+04
       220   5  4.972712E+04  1.469440E+03  6.392288E+03  2.554953E+05  6.008538E+03 -6.478004E+04
       220   6  5.132831E+04 -1.504522E+02  3.630261E+03  2.987291E+05  2.723983E+03 -6.383465E+04
       220   7 -1.663939E+06 -4.137635E+05 -3.959212E+05  2.920625E+05 -8.559899E+04 -2.107377E+04
       220   8 -1.322728E+06 -3.297611E+05 -2.762428E+05  2.526582E+05 -2.473956E+04 -6.479024E+04
       220   9 -9.896737E+05 -2.485787E+05 -1.969123E+05  2.997345E+05  3.618860E+04 -6.383345E+04
       220  10  1.768715E+06  4.364231E+05  4.226176E+05  3.054186E+05 -2.407560E-10 -9.574642E-11
       220  11  1.423971E+06  3.325767E+05  2.889193E+05  2.583404E+05 -4.107073E-10  1.686808E-10
       220  12  1.093374E+06  2.482095E+05  2.041175E+05  2.977200E+05  4.620237E-10  4.530876E-10
       220  13  5.103317E+04  1.143486E+04  1.344432E+04  2.987307E+05 -4.294817E-10  1.734452E-10
       220  14  4.972596E+04  1.464924E+03  6.384333E+03  2.554956E+05  1.073764E-09  1.494393E-10
       220  15  5.132721E+04 -1.548301E+02  3.622589E+03  2.987292E+05  1.652682E-11  3.001664E-10
       220  16 -1.663947E+06 -4.137660E+05 -3.959359E+05  2.920610E+05  8.649349E-11 -1.485502E-10
       220  17 -1.322730E+06 -3.297657E+05 -2.762518E+05  2.526570E+05  2.045914E-10  2.615144E-10
       220  18 -9.896762E+05 -2.485835E+05 -1.969225E+05  2.997364E+05  1.152287E-10  1.295682E-10
       220  19  1.768726E+06  4.364265E+05  4.226390E+05  3.054168E+05 -1.045175E+05  2.111998E+04
       220  20  1.423974E+06  3.325816E+05  2.889298E+05  2.583384E+05 -3.682351E+04  6.476959E+04
       220  21  1.093376E+06  2.482141E+05  2.041269E+05  2.977216E+05  3.079553E+04  6.383572E+04
       220  22  5.103338E+04  1.143536E+04  1.344532E+04  2.987306E+05 -9.328501E+03  2.109789E+04
       220  23  4.972712E+04  1.469440E+03  6.392288E+03  2.554953E+05 -6.008538E+03  6.478004E+04
       220  24  5.132831E+04 -1.504522E+02  3.630261E+03  2.987291E+05 -2.723983E+03  6.383465E+04
       220  25 -1.663939E+06 -4.137635E+05 -3.959212E+05  2.920625E+05  8.559899E+04  2.107377E+04
       220  26 -1.322728E+06 -3.297611E+05 -2.762428E+05  2.526582E+05  2.473956E+04  6.479024E+04
       220  27 -9.896737E+05 -2.485787E+05 -1.969123E+05  2.997345E+05 -3.618860E+04  6.383345E+04
       221   1  8.626193E+05  1.938650E+05  1.586483E+05  2.995969E+05 -2.339910E+04 -5.013196E+04
       221   2  5.249653E+05  1.128487E+05  9.116140E+04  2.548880E+05 -2.845064E+04 -3.087044E+04
       221   3  1.884043E+05  3.294165E+04  2.724073E+04  2.992871E+05 -3.350762E+04 -8.644777E+03
       221   4  5.082134E+04  4.247583E+02  2.798978E+03  2.993172E+05  2.229187E+03 -5.012678E+04
       221   5  5.074904E+04  1.210602E+02  1.575156E+03  2.547611E+05  1.444254E+03 -3.085811E+04
       221   6  5.092476E+04  1.937191E+02  9.590308E+02  2.993174E+05  6.513045E+02 -8.623909E+03
       221   7 -7.603415E+05 -1.930541E+05 -1.530782E+05  2.990377E+05  2.782477E+04 -5.012162E+04
       221   8 -4.232483E+05 -1.126192E+05 -8.801766E+04  2.546343E+05  3.131688E+04 -3.084578E+04
       221   9 -8.653408E+04 -3.255470E+04 -2.531914E+04  2.993477E+05  3.480284E+04 -8.603033E+03
       221  10  8.626180E+05  1.938622E+05  1.586426E+05  2.995960E+05  3.599990E-10  4.894212E-10
       221  11  5.249642E+05  1.128474E+05  9.115809E+04  2.548873E+05 -1.127498E-10  3.154732E-10
       221  12  1.884031E+05  3.294127E+04  2.723848E+04  2.992869E+05  7.385350E-10 -2.110885E-10
       221  13  5.082066E+04  4.220586E+02  2.794246E+03  2.993173E+05 -3.232715E-10  2.491239E-10
       221  14  5.074878E+04  1.200371E+02  1.573363E+03  2.547612E+05  4.195933E-10  5.348855E-10
       221  15  5.092474E+04  1.936392E+02  9.588902E+02  2.993174E+05  4.106293E-10 -1.085405E-10
       221  16 -7.603430E+05 -1.930570E+05 -1.530843E+05  2.990388E+05  8.506138E-11  2.044390E-10
       221  17 -4.232497E+05 -1.126204E+05 -8.802129E+04  2.546351E+05 -6.063442E-12  3.090712E-10
       221  18 -8.653540E+04 -3.255510E+04 -2.532156E+04  2.993480E+05 -1.040542E-10  7.416958E-11
       221  19  8.626193E+05  1.938650E+05  1.586483E+05  2.995969E+05  2.339910E+04  5.013196E+04
       221  20  5.249653E+05  1.128487E+05  9.116140E+04  2.548880E+05  2.845064E+04  3.087044E+04
       221  21  1.884043E+05  3.294165E+04  2.724073E+04  2.992871E+05  3.350762E+04  8.644777E+03
       221  22  5.082134E+04  4.247583E+02  2.798978E+03  2.993172E+05 -2.229187E+03  5.012678E+04
       221  23  5.074904E+04  1.210602E+02  1.575156E+03  2.547611E+05 -1.444254E+03  3.085811E+04
       221  24  5.092476E+04  1.937191E+02  9.590308E+02  2.993174E+05 -6.513045E+02  8.623909E+03
       221  25 -7.603415E+05 -1.930541E+05 -1.530782E+05  2.990377E+05 -2.782477E+04  5.012162E+04
       221  26 -4.232483E+05 -1.126192E+05 -8.801766E+04  2.546343E+05 -3.131688E+04  3.084578E+04
       221  27 -8.653408E+04 -3.255470E+04 -2.531914E+04  2.993477E+05 -3.480284E+04  8.603033E+03
       222   1 -4.004060E+04 -2.149969E+04 -1.688285E+04  2.992448E+05 -3.365028E+04  5.402731E+03
       222   2 -3.766947E+05 -1.016117E+05 -8.042470E+04  2.546427E+05 -2.975601E+04  2.767865E+04
       222   3 -7.138696E+05 -1.823928E+05 -1.466725E+05  2.991597E+05 -2.585655E+04  4.707477E+04
       222   4  5.089174E+04  2.164872E+02  7.637731E+02  2.993180E+05  4.881170E+02  5.423784E+03
       222   5  5.080017E+04  9.111158E+01  5.065800E+02  2.547605E+05  2.293417E+02  2.769179E+04
       222   6  5.079851E+04  2.317481E+01  4.276131E+02  2.993181E+05 -2.222553E+01  4.708125E+04
       222   7  1.418345E+05  2.193280E+04  1.841439E+04  2.993913E+05  3.463140E+04  5.444841E+03
       222   8  4.784734E+05  1.017837E+05  8.143313E+04  2.548783E+05  3.023485E+04  2.770494E+04
       222   9  8.160310E+05  1.824049E+05  1.475032E+05  2.994765E+05  2.584321E+04  4.708774E+04
       222  10 -4.004183E+04 -2.150003E+04 -1.688503E+04  2.992450E+05 -4.079277E-10 -7.913185E-11
       222  11 -3.766959E+05 -1.016128E+05 -8.042780E+04  2.546434E+05 -1.248691E-10 -9.447528E-11
       222  12 -7.138709E+05 -1.823954E+05 -1.466779E+05  2.991607E+05  2.419152E-10 -3.486306E-10
       222  13  5.089173E+04  2.164555E+02  7.637173E+02  2.993180E+05  6.115802E-11 -1.077265E-10
       222  14  5.079996E+04  9.028810E+01  5.051388E+02  2.547605E+05 -5.638492E-10 -2.641323E-10
       222  15  5.079791E+04  2.079446E+01  4.234475E+02  2.993181E+05  1.400539E-10 -6.221645E-10
       222  16  1.418332E+05  2.193245E+04  1.841208E+04  2.993911E+05  9.081504E-10 -7.607110E-11
       222  17  4.784722E+05  1.017827E+05  8.142997E+04  2.548776E+05  6.030985E-10  2.493090E-11
       222  18  8.160297E+05  1.824023E+05  1.474978E+05  2.994755E+05 -6.124429E-10 -4.720879E-10
       222  19 -4.004060E+04 -2.149969E+04 -1.688285E+04  2.992448E+05  3.365028E+04 -5.402731E+03
       222  20 -3.766947E+05 -1.016117E+05 -8.042470E+04  2.546427E+05  2.975601E+04 -2.767865E+04
       222  21 -7.138696E+05 -1.823928E+05 -1.466725E+05  2.991597E+05  2.585655E+04 -4.707477E+04
       222  22  5.089174E+04  2.164872E+02  7.637731E+02  2.993180E+05 -4.881170E+02 -5.423784E+03
       222  23  5.080017E+04  9.111158E+01  5.065800E+02  2.547605E+05 -2.293417E+02 -2.769179E+04
       222  24  5.079851E+04  2.317481E+01  4.276131E+02  2.993181E+05  2.222553E+01 -4.708125E+04
       222  25  1.418345E+05  2.193280E+04  1.841439E+04  2.993913E+05 -3.463140E+04 -5.444841E+03
       222  26  4.784734E+05  1.017837E+05  8.143313E+04  2.548783E+05 -3.023485E+04 -2.770494E+04
       222  27  8.160310E+05  1.824049E+05  1.475032E+05  2.994765E+05 -2.584321E+04 -4.708774E+04
       223   1 -9.436327E+05 -2.374663E+05 -1.913022E+05  2.987199E+05 -3.361090E+04  6.079650E+04
       223   2 -1.275673E+06 -3.203273E+05 -2.728258E+05  2.553465E+05  2.875171E+04  6.234638E+04
       223   3 -1.617889E+06 -4.132584E+05 -3.974472E+05  2.985340E+05  9.104595E+04  2.036087E+04
       223   4  5.083206E+04 -1.159380E+02  4.402951E+02  2.987483E+05 -1.076041E+02  6.079940E+04
       223   5  5.038963E+04 -2.540435E+02  4.860592E+02  2.554726E+05 -3.227958E+02  6.233571E+04
       223   6  5.054727E+04  4.260337E+02  9.372421E+02  2.987485E+05 -5.701197E+02  2.037896E+04
       223   7  1.046251E+06  2.371762E+05  1.921411E+05  2.987766E+05  3.344819E+04  6.080230E+04
       223   8  1.378125E+06  3.197086E+05  2.737064E+05  2.555988E+05 -2.945841E+04  6.232504E+04
       223   9  1.721558E+06  4.139135E+05  3.991573E+05  2.989631E+05 -9.243177E+04  2.039701E+04
       223  10 -9.436349E+05 -2.374705E+05 -1.913113E+05  2.987215E+05 -6.660839E-10 -4.865114E-10
       223  11 -1.275675E+06 -3.203317E+05 -2.728346E+05  2.553450E+05  1.659554E-10 -1.816975E-10
       223  12 -1.617898E+06 -4.132611E+05 -3.974635E+05  2.985325E+05  4.591002E-10 -1.435984E-10
       223  13  5.083107E+04 -1.199076E+02  4.333484E+02  2.987483E+05 -8.489865E-11 -3.980587E-10
       223  14  5.038859E+04 -2.582162E+02  4.787568E+02  2.554726E+05  2.384755E-10  9.707349E-11
       223  15  5.054716E+04  4.255876E+02  9.364611E+02  2.987485E+05 -1.190459E-10 -4.517794E-11
       223  16  1.046249E+06  2.371720E+05  1.921321E+05  2.987750E+05  1.704585E-10 -4.461046E-10
       223  17  1.378123E+06  3.197042E+05  2.736975E+05  2.556002E+05 -7.159105E-10  2.739799E-10
       223  18  1.721549E+06  4.139108E+05  3.991405E+05  2.989646E+05  9.845563E-11  4.852152E-11
       223  19 -9.436327E+05 -2.374663E+05 -1.913022E+05  2.987199E+05  3.361090E+04 -6.079650E+04
       223  20 -1.275673E+06 -3.203273E+05 -2.728258E+05  2.553465E+05 -2.875171E+04 -6.234638E+04
       223  21 -1.617889E+06 -4.132584E+05 -3.974472E+05  2.985340E+05 -9.104595E+04 -2.036087E+04
       223  22  5.083206E+04 -1.159380E+02  4.402951E+02  2.987483E+05  1.076041E+02 -6.079940E+04
       223  23  5.038963E+04 -2.540435E+02  4.860592E+02  2.554726E+05  3.227958E+02 -6.233571E+04
       223  24  5.054727E+04  4.260337E+02  9.372421E+02  2.987485E+05  5.701197E+02 -2.037896E+04
       223  25  1.046251E+06  2.371762E+05  1.921411E+05  2.987766E+05 -3.344819E+04 -6.080230E+04
       223  26  1.378125E+06  3.197086E+05  2.737064E+05  2.555988E+05  2.945841E+04 -6.232504E+04
       223  27  1.721558E+06  4.139135E+05  3.991573E+05  2.989631E+05  9.243177E+04 -2.039701E+04
       224   1 -3.221579E+05 -1.316634E+06 -3.129996E+05  3.760736E+05 -1.338997E+04 -5.992674E+04
       224   2 -2.097970E+05 -8.870169E+05 -1.826413E+05  3.210134E+05 -3.642903E+04 -9.840613E+03
       224   3 -1.061907E+05 -4.661141E+05 -8.717017E+04  3.764051E+05 -2.447811E+04  4.024726E+04
       224   4  1.481325E+02 -1.848778E+04 -6.724802E+02  3.771756E+05 -1.329669E+04 -1.529802E+03
       224   5  6.748721E+02 -1.830073E+04  5.197554E+02  3.219540E+05 -3.641133E+04 -1.740286E+03
       224   6  1.205368E+03 -1.825146E+04  1.804500E+03  3.771742E+05 -2.455833E+04 -1.984473E+03
       224   7  3.223332E+05  1.281210E+06  3.115475E+05  3.782789E+05 -1.320333E+04  5.698898E+04
       224   8  2.110981E+05  8.511287E+05  1.836385E+05  3.228954E+05 -3.639362E+04  6.371212E+03
       224   9  1.085901E+05  4.298069E+05  9.077591E+04  3.779437E+05 -2.463861E+04 -4.424606E+04
       224  10 -3.221591E+05 -1.316637E+06 -3.130067E+05  3.760730E+05 -2.332491E-10  3.810250E-10
       224  11 -2.097984E+05 -8.870174E+05 -1.826440E+05  3.210131E+05 -8.384764E-10  9.832540E-10
       224  12 -1.061917E+05 -4.661160E+05 -8.717435E+04  3.764059E+05 -8.270137E-10 -5.110503E-10
       224  13  1.479420E+02 -1.848783E+04 -6.728168E+02  3.771756E+05 -4.722218E-10 -2.315140E-10
       224  14  6.734477E+02 -1.830108E+04  5.172585E+02  3.219539E+05  1.974608E-09 -3.170205E-11
       224  15  1.204719E+03 -1.825163E+04  1.803360E+03  3.771742E+05 -4.031644E-10 -2.656758E-10
       224  16  3.223321E+05  1.281206E+06  3.115410E+05  3.782795E+05 -9.757892E-11 -2.311566E-10
       224  17  2.110967E+05  8.511283E+05  1.836359E+05  3.228956E+05  7.507350E-11 -8.898779E-10
       224  18  1.085889E+05  4.298046E+05  9.077109E+04  3.779429E+05  1.460584E-11  7.192279E-10
       224  19 -3.221579E+05 -1.316634E+06 -3.129996E+05  3.760736E+05  1.338997E+04  5.992674E+04
       224  20 -2.097970E+05 -8.870169E+05 -1.826413E+05  3.210134E+05  3.642903E+04  9.840613E+03
       224  21 -1.061907E+05 -4.661141E+05 -8.717017E+04  3.764051E+05  2.447811E+04 -4.024726E+04
       224  22  1.481325E+02 -1.848778E+04 -6.724802E+02  3.771756E+05  1.329669E+04  1.529802E+03
       224  23  6.748721E+02 -1.830073E+04  5.197554E+02  3.219540E+05  3.641133E+04  1.740286E+03
       224  24  1.205368E+03 -1.825146E+04  1.804500E+03  3.771742E+05  2.455833E+04  1.984473E+03
       224  25  3.223332E+05  1.281210E+06  3.115475E+05  3.782789E+05  1.320333E+04 -5.698898E+04
       224  26  2.110981E+05  8.511287E+05  1.836385E+05  3.228954E+05  3.639362E+04 -6.371212E+03
       224  27  1.085901E+05  4.298069E+05  9.077591E+04  3.779437E+05  2.463861E+04  4.424606E+04
       225   1 -3.713272E+04 -1.765661E+05 -3.039014E+04  3.771027E+05 -7.031938E+03  3.418654E+04
       225   2  6.443867E+04  2.483443E+05  5.472261E+04  3.218422E+05  1.791562E+04  3.041803E+04
       225   3  1.676769E+05  6.740190E+05  1.426016E+05  3.789095E+05  4.193303E+04  2.665401E+04
       225   4  1.157417E+03 -1.810631E+04  2.572112E+03  3.775944E+05 -7.103957E+03 -2.418649E+03
       225   5  1.128833E+03 -1.832282E+04  4.806343E+03  3.214278E+05  1.785032E+04 -4.857603E+03
       225   6  2.545962E+03 -1.817961E+04  8.885764E+03  3.775916E+05  4.187380E+04 -7.289616E+03
       225   7  3.944667E+04  1.403802E+05  3.553802E+04  3.780863E+05 -7.176022E+03 -3.903303E+04
       225   8 -6.218445E+04 -2.849185E+05 -4.510832E+04  3.210136E+05  1.778504E+04 -4.011847E+04
       225   9 -1.626129E+05 -7.099154E+05 -1.248481E+05  3.762748E+05  4.181467E+04 -4.119628E+04
       225  10 -3.713309E+04 -1.765674E+05 -3.039243E+04  3.771029E+05 -4.865360E-10  5.499651E-10
       225  11  6.443808E+04  2.483432E+05  5.472027E+04  3.218417E+05 -7.151440E-10  1.535176E-09
       225  12  1.676749E+05  6.740177E+05  1.425970E+05  3.789086E+05  5.429966E-10  2.259199E-10
       225  13  1.157362E+03 -1.810633E+04  2.572006E+03  3.775944E+05 -2.318521E-10 -3.792202E-10
       225  14  1.128484E+03 -1.832293E+04  4.805700E+03  3.214279E+05 -1.311625E-09 -1.129059E-11
       225  15  2.544065E+03 -1.818014E+04  8.882368E+03  3.775918E+05 -8.709045E-10 -2.501953E-10
       225  16  3.944621E+04  1.403785E+05  3.553506E+04  3.780861E+05 -2.307387E-10 -3.014163E-10
       225  17 -6.218522E+04 -2.849203E+05 -4.511194E+04  3.210142E+05  6.302355E-10 -1.424934E-09
       225  18 -1.626152E+05 -7.099177E+05 -1.248546E+05  3.762762E+05  6.484883E-10 -1.672426E-10
       225  19 -3.713272E+04 -1.765661E+05 -3.039014E+04  3.771027E+05  7.031938E+03 -3.418654E+04
       225  20  6.443867E+04  2.483443E+05  5.472261E+04  3.218422E+05 -1.791562E+04 -3.041803E+04
       225  21  1.676769E+05  6.740190E+05  1.426016E+05  3.789095E+05 -4.193303E+04 -2.665401E+04
       225  22  1.157417E+03 -1.810631E+04  2.572112E+03  3.775944E+05  7.103957E+03  2.418649E+03
       225  23  1.128833E+03 -1.832282E+04  4.806343E+03  3.214278E+05 -1.785032E+04  4.857603E+03
       225  24  2.545962E+03 -1.817961E+04  8.885764E+03  3.775916E+05 -4.187380E+04  7.289616E+03
       225  25  3.944667E+04  1.403802E+05  3.553802E+04  3.780863E+05  7.176022E+03  3.903303E+04
       225  26 -6.218445E+04 -2.849185E+05 -4.510832E+04  3.210136E+05 -1.778504E+04  4.011847E+04
       225  27 -1.626129E+05 -7.099154E+05 -1.248481E+05  3.762748E+05 -4.181467E+04  4.119628E+04
       226   1  2.352672E+05  9.658941E+05  2.015319E+05  3.746110E+05  5.928471E+04  3.320365E+04
       226   2  3.448490E+05  1.381638E+06  3.107122E+05  3.331542E+05  6.432236E+04 -4.682283E+04
       226   3  4.931502E+05  1.817694E+06  4.816008E+05  4.012985E+05  2.135325E+04 -1.268793E+05
       226   4  9.178129E+02 -1.653895E+04  1.159150E+04  3.769935E+05  5.921888E+04 -8.860607E+03
       226   5  6.564569E+03 -2.081562E+04  2.074810E+04  3.221664E+05  6.437275E+04 -1.960914E+04
       226   6  3.897327E+04 -1.691858E+04  4.358433E+04  3.769450E+05  2.147390E+04 -3.033117E+04
       226   7 -2.334880E+05 -9.980414E+05 -1.783874E+05  3.793716E+05  5.915265E+04 -5.085988E+04
       226   8 -3.318435E+05 -1.421405E+06 -2.693198E+05  3.112026E+05  6.442225E+04  7.544281E+03
       226   9 -4.154399E+05 -1.848429E+06 -3.946338E+05  3.526620E+05  2.158724E+04  6.593367E+04
       226  10  2.352631E+05  9.658919E+05  2.015232E+05  3.746094E+05  9.652808E-11 -3.166348E-10
       226  11  3.448439E+05  1.381635E+06  3.107003E+05  3.331567E+05 -1.197341E-10  4.396714E-10
       226  12  4.931454E+05  1.817676E+06  4.815698E+05  4.013006E+05  2.697132E-10 -1.892548E-10
       226  13  9.140256E+02 -1.653998E+04  1.158476E+04  3.769940E+05  1.166837E-09 -2.857012E-10
       226  14  6.560015E+03 -2.081715E+04  2.073959E+04  3.221674E+05 -2.652084E-10  5.302922E-11
       226  15  3.897252E+04 -1.691969E+04  4.358174E+04  3.769456E+05  1.450390E-10 -9.355667E-11
       226  16 -2.334925E+05 -9.980452E+05 -1.783988E+05  3.793740E+05 -1.722164E-10  5.015234E-10
       226  17 -3.318480E+05 -1.421407E+06 -2.693277E+05  3.112022E+05 -4.075381E-10 -1.777779E-10
       226  18 -4.154416E+05 -1.848434E+06 -3.946429E+05  3.526608E+05  2.434043E-10  2.490479E-10
       226  19  2.352672E+05  9.658941E+05  2.015319E+05  3.746110E+05 -5.928471E+04 -3.320365E+04
       226  20  3.448490E+05  1.381638E+06  3.107122E+05  3.331542E+05 -6.432236E+04  4.682283E+04
       226  21  4.931502E+05  1.817694E+06  4.816008E+05  4.012985E+05 -2.135325E+04  1.268793E+05
       226  22  9.178129E+02 -1.653895E+04  1.159150E+04  3.769935E+05 -5.921888E+04  8.860607E+03
       226  23  6.564569E+03 -2.081562E+04  2.074810E+04  3.221664E+05 -6.437275E+04  1.960914E+04
       226  24  3.897327E+04 -1.691858E+04  4.358433E+04  3.769450E+05 -2.147390E+04  3.033117E+04
       226  25 -2.334880E+05 -9.980414E+05 -1.783874E+05  3.793716E+05 -5.915265E+04  5.085988E+04
       226  26 -3.318435E+05 -1.421405E+06 -2.693198E+05  3.112026E+05 -6.442225E+04 -7.544281E+03
       226  27 -4.154399E+05 -1.848429E+06 -3.946338E+05  3.526620E+05 -2.158724E+04 -6.593367E+04
       227   1  1.769133E+06  4.195212E+05  4.075319E+05  2.948359E+05  1.043578E+05 -1.989747E+04
       227   2  1.440624E+06  3.146137E+05  2.764483E+05  2.474942E+05  3.828564E+04 -6.096282E+04
       227   3  1.127003E+06  2.332065E+05  1.942157E+05  2.823986E+05 -2.772015E+04 -5.992674E+04
       227   4  1.476765E+05  1.835838E+04  2.125055E+04  2.840306E+05  1.468518E+04 -1.987912E+04
       227   5  1.456678E+05  2.612630E+03  1.016745E+04  2.429038E+05  9.404146E+03 -6.097236E+04
       227   6  1.479418E+05 -1.372634E+02  5.809393E+03  2.840285E+05  4.154414E+03 -5.992552E+04
       227   7 -1.471355E+06 -3.829893E+05 -3.651849E+05  2.732533E+05 -7.475489E+04 -1.985768E+04
       227   8 -1.147698E+06 -3.094935E+05 -2.562001E+05  2.383227E+05 -1.941829E+04 -6.098149E+04
       227   9 -8.301960E+05 -2.335372E+05 -1.826374E+05  2.856556E+05  3.597994E+04 -5.992413E+04
       227  10  1.769121E+06  4.195178E+05  4.075107E+05  2.948376E+05  5.060053E-08  7.912655E-10
       227  11  1.440622E+06  3.146093E+05  2.764385E+05  2.474961E+05 -1.126249E-08  1.728024E-09
       227  12  1.127001E+06  2.332024E+05  1.942075E+05  2.823972E+05 -7.258842E-08 -1.033679E-10
       227  13  1.476762E+05  1.835789E+04  2.124940E+04  2.840309E+05 -1.406536E-10  6.875738E-10
       227  14  1.456667E+05  2.608614E+03  1.016030E+04  2.429042E+05  2.825314E-10  1.218779E-09
       227  15  1.479408E+05 -1.411246E+02  5.802611E+03  2.840287E+05  7.296795E-11 -2.986924E-10
       227  16 -1.471361E+06 -3.829912E+05 -3.651962E+05  2.732521E+05 -5.028431E-08  8.026186E-10
       227  17 -1.147699E+06 -3.094975E+05 -2.562078E+05  2.383218E+05  1.160818E-08  1.193593E-09
       227  18 -8.301984E+05 -2.335414E+05 -1.826466E+05  2.856573E+05  7.201907E-08 -4.693495E-10
       227  19  1.769133E+06  4.195212E+05  4.075319E+05  2.948359E+05 -1.043578E+05  1.989747E+04
       227  20  1.440624E+06  3.146137E+05  2.764483E+05  2.474942E+05 -3.828564E+04  6.096282E+04
       227  21  1.127003E+06  2.332065E+05  1.942157E+05  2.823986E+05  2.772015E+04  5.992674E+04
       227  22  1.476765E+05  1.835838E+04  2.125055E+04  2.840306E+05 -1.468518E+04  1.987912E+04
       227  23  1.456678E+05  2.612630E+03  1.016745E+04  2.429038E+05 -9.404146E+03  6.097236E+04
       227  24  1.479418E+05 -1.372634E+02  5.809393E+03  2.840285E+05 -4.154414E+03  5.992552E+04
       227  25 -1.471355E+06 -3.829893E+05 -3.651849E+05  2.732533E+05  7.475489E+04  1.985768E+04
       227  26 -1.147698E+06 -3.094935E+05 -2.562001E+05  2.383227E+05  1.941829E+04  6.098149E+04
       227  27 -8.301960E+05 -2.335372E+05 -1.826374E+05  2.856556E+05 -3.597994E+04  5.992413E+04
       228   1  9.073313E+05  1.818272E+05  1.505123E+05  2.849432E+05 -2.105818E+04 -4.689691E+04
       228   2  5.862608E+05  1.045436E+05  8.573012E+04  2.423699E+05 -2.644063E+04 -2.855663E+04
       228   3  2.663585E+05  2.854731E+04  2.477384E+04  2.845066E+05 -3.182746E+04 -7.420343E+03
       228   4  1.471473E+05  6.916925E+02  4.542988E+03  2.845767E+05  3.364204E+03 -4.689203E+04
       228   5  1.470075E+05  1.298115E+02  2.723819E+03  2.422200E+05  2.007204E+03 -2.854542E+04
       228   6  1.472385E+05  1.623912E+02  1.938586E+03  2.845770E+05  6.431721E+02 -7.401593E+03
       228   7 -6.124798E+05 -1.804777E+05 -1.414507E+05  2.842105E+05  2.775741E+04 -4.688717E+04
       228   8 -2.920580E+05 -1.042948E+05 -8.028796E+04  2.420701E+05  3.043542E+04 -2.853421E+04
       228   9  2.813442E+04 -2.822280E+04 -2.089335E+04  2.846474E+05  3.310772E+04 -7.382833E+03
       228  10  9.073302E+05  1.818247E+05  1.505074E+05  2.849424E+05  1.727835E-08 -1.324730E-09
       228  11  5.862598E+05  1.045426E+05  8.572727E+04  2.423693E+05  7.019936E-09 -1.880197E-09
       228  12  2.663574E+05  2.854698E+04  2.477183E+04  2.845064E+05 -6.141750E-09 -9.888436E-10
       228  13  1.471467E+05  6.893280E+02  4.538834E+03  2.845768E+05 -3.339206E-10 -1.637805E-09
       228  14  1.470073E+05  1.289354E+02  2.722280E+03  2.422200E+05  1.551512E-10 -1.675185E-09
       228  15  1.472385E+05  1.623322E+02  1.938482E+03  2.845770E+05  2.496867E-10 -6.507547E-10
       228  16 -6.124812E+05 -1.804802E+05 -1.414563E+05  2.842115E+05 -1.721707E-08 -1.774491E-09
       228  17 -2.920592E+05 -1.042959E+05 -8.029124E+04  2.420708E+05 -6.482333E-09 -2.056574E-09
       228  18  2.813323E+04 -2.822316E+04 -2.089552E+04  2.846476E+05  6.246294E-09 -7.605220E-10
       228  19  9.073313E+05  1.818272E+05  1.505123E+05  2.849432E+05  2.105818E+04  4.689691E+04
       228  20  5.862608E+05  1.045436E+05  8.573012E+04  2.423699E+05  2.644063E+04  2.855663E+04
       228  21  2.663585E+05  2.854731E+04  2.477384E+04  2.845066E+05  3.182746E+04  7.420343E+03
       228  22  1.471473E+05  6.916925E+02  4.542988E+03  2.845767E+05 -3.364204E+03  4.689203E+04
       228  23  1.470075E+05  1.298115E+02  2.723819E+03  2.422200E+05 -2.007204E+03  2.854542E+04
       228  24  1.472385E+05  1.623912E+02  1.938586E+03  2.845770E+05 -6.431721E+02  7.401593E+03
       228  25 -6.124798E+05 -1.804777E+05 -1.414507E+05  2.842105E+05 -2.775741E+04  4.688717E+04
       228  26 -2.920580E+05 -1.042948E+05 -8.028796E+04  2.420701E+05 -3.043542E+04  2.853421E+04
       228  27  2.813442E+04 -2.822280E+04 -2.089335E+04  2.846474E+05 -3.310772E+04  7.382833E+03
       229   1  4.919286E+04 -2.320553E+04 -1.714460E+04  2.845558E+05 -3.215291E+04  5.932989E+03
       229   2 -2.709440E+05 -9.932420E+04 -7.725506E+04  2.420747E+05 -2.909189E+04  2.709922E+04
       229   3 -5.914242E+05 -1.758089E+05 -1.394506E+05  2.843145E+05 -2.602573E+04  4.550672E+04
       229   4  1.472109E+05  1.803964E+02  1.775842E+03  2.845778E+05  3.058015E+02  5.951822E+03
       229   5  1.470463E+05  9.890499E+01  1.831986E+03  2.422191E+05 -6.123451E+02  2.711078E+04
       229   6  1.471242E+05  3.456919E+02  2.564413E+03  2.845776E+05 -1.523789E+03  4.551215E+04
       229   7  2.452404E+05  2.356632E+04  2.069980E+04  2.845997E+05  3.276952E+04  5.970656E+03
       229   8  5.652070E+05  9.951224E+04  8.091434E+04  2.423635E+05  2.788591E+04  2.712234E+04
       229   9  8.861990E+05  1.764683E+05  1.445566E+05  2.848409E+05  2.300665E+04  4.551759E+04
       229  10  4.919174E+04 -2.320585E+04 -1.714661E+04  2.845560E+05 -8.241183E-10 -6.327213E-10
       229  11 -2.709451E+05 -9.932522E+04 -7.725803E+04  2.420754E+05 -5.345610E-10 -4.622286E-11
       229  12 -5.914255E+05 -1.758113E+05 -1.394558E+05  2.843155E+05 -8.700066E-11  1.024468E-10
       229  13  1.472109E+05  1.803583E+02  1.775775E+03  2.845778E+05  5.886356E-11 -4.251404E-10
       229  14  1.470461E+05  9.811557E+01  1.830604E+03  2.422191E+05  7.483204E-11 -4.887494E-10
       229  15  1.471236E+05  3.434668E+02  2.560516E+03  2.845777E+05 -2.332390E-10  2.795725E-12
       229  16  2.452392E+05  2.356599E+04  2.069772E+04  2.845995E+05  8.600581E-10 -2.289362E-10
       229  17  5.652060E+05  9.951125E+04  8.091149E+04  2.423629E+05  1.170631E-09 -1.177087E-10
       229  18  8.861978E+05  1.764660E+05  1.445517E+05  2.848401E+05  6.019718E-11 -1.009887E-10
       229  19  4.919286E+04 -2.320553E+04 -1.714460E+04  2.845558E+05  3.215291E+04 -5.932989E+03
       229  20 -2.709440E+05 -9.932420E+04 -7.725506E+04  2.420747E+05  2.909189E+04 -2.709922E+04
       229  21 -5.914242E+05 -1.758089E+05 -1.394506E+05  2.843145E+05  2.602573E+04 -4.550672E+04
       229  22  1.472109E+05  1.803964E+02  1.775842E+03  2.845778E+05 -3.058015E+02 -5.951822E+03
       229  23  1.470463E+05  9.890499E+01  1.831986E+03  2.422191E+05  6.123451E+02 -2.711078E+04
       229  24  1.471242E+05  3.456919E+02  2.564413E+03  2.845776E+05  1.523789E+03 -4.551215E+04
       229  25  2.452404E+05  2.356632E+04  2.069980E+04  2.845997E+05 -3.276952E+04 -5.970656E+03
       229  26  5.652070E+05  9.951224E+04  8.091434E+04  2.423635E+05 -2.788591E+04 -2.712234E+04
       229  27  8.861990E+05  1.764683E+05  1.445566E+05  2.848409E+05 -2.300665E+04 -4.551759E+04
       230   1 -8.095232E+05 -2.285023E+05 -1.813114E+05  2.848044E+05 -3.381533E+04  5.854816E+04
       230   2 -1.126125E+06 -3.058906E+05 -2.569027E+05  2.405973E+05  2.340184E+04  5.987378E+04
       230   3 -1.450680E+06 -3.869740E+05 -3.706448E+05  2.786654E+05  8.055927E+04  1.953365E+04
       230   4  1.475237E+05 -1.218030E+02  3.148239E+03  2.840322E+05 -1.972373E+03  5.855027E+04
       230   5  1.462089E+05  1.158582E+03  5.239099E+03  2.429001E+05 -4.659945E+03  5.986443E+04
       230   6  1.472633E+05  9.160142E+03  1.081608E+04  2.840332E+05 -7.377548E+03  1.955227E+04
       230   7  1.105454E+06  2.282048E+05  1.875692E+05  2.832586E+05  2.991860E+04  5.855228E+04
       230   8  1.420082E+06  3.081060E+05  2.672968E+05  2.452075E+05 -3.277830E+04  5.985489E+04
       230   9  1.747568E+06  4.051138E+05  3.921264E+05  2.894145E+05 -9.554006E+04  1.956938E+04
       230  10 -8.095254E+05 -2.285063E+05 -1.813200E+05  2.848060E+05 -3.707622E-10  2.270879E-10
       230  11 -1.126126E+06 -3.058946E+05 -2.569105E+05  2.405962E+05 -7.346935E-10  2.091690E-10
       230  12 -1.450687E+06 -3.869761E+05 -3.706577E+05  2.786642E+05 -3.997639E-11  1.887315E-10
       230  13  1.475228E+05 -1.254856E+02  3.141789E+03  2.840323E+05 -3.102704E-10  1.373614E-10
       230  14  1.462079E+05  1.154727E+03  5.232322E+03  2.429004E+05  4.581158E-10 -2.644333E-10
       230  15  1.472632E+05  9.159717E+03  1.081526E+04  2.840333E+05  7.746827E-11  8.288944E-11
       230  16  1.105453E+06  2.282009E+05  1.875611E+05  2.832572E+05  5.755327E-10 -6.918952E-11
       230  17  1.420080E+06  3.081019E+05  2.672881E+05  2.452091E+05  8.456088E-10 -8.838932E-11
       230  18  1.747558E+06  4.051109E+05  3.921086E+05  2.894160E+05 -2.877840E-10  1.449055E-10
       230  19 -8.095232E+05 -2.285023E+05 -1.813114E+05  2.848044E+05  3.381533E+04 -5.854816E+04
       230  20 -1.126125E+06 -3.058906E+05 -2.569027E+05  2.405973E+05 -2.340184E+04 -5.987378E+04
       230  21 -1.450680E+06 -3.869740E+05 -3.706448E+05  2.786654E+05 -8.055927E+04 -1.953365E+04
       230  22  1.475237E+05 -1.218030E+02  3.148239E+03  2.840322E+05  1.972373E+03 -5.855027E+04
       230  23  1.462089E+05  1.158582E+03  5.239099E+03  2.429001E+05  4.659945E+03 -5.986443E+04
       230  24  1.472633E+05  9.160142E+03  1.081608E+04  2.840332E+05  7.377548E+03 -1.955227E+04
       230  25  1.105454E+06  2.282048E+05  1.875692E+05  2.832586E+05 -2.991860E+04 -5.855228E+04
       230  26  1.420082E+06  3.081060E+05  2.672968E+05  2.452075E+05  3.277830E+04 -5.985489E+04
       230  27  1.747568E+06  4.051138E+05  3.921264E+05  2.894145E+05  9.554006E+04 -1.956938E+04
       231   1 -3.074444E+05 -1.209568E+06 -3.002531E+05  3.549055E+05 -1.240638E+04 -6.134804E+04
       231   2 -1.957379E+05 -8.092496E+05 -1.747822E+05  3.007565E+05 -3.371815E+04 -1.201557E+04
       231   3 -9.811848E+04 -4.188852E+05 -8.503129E+04  3.492865E+05 -2.257464E+04  3.732008E+04
       231   4 -8.556150E+03 -5.598672E+03 -1.059306E+04  3.506469E+05 -1.232500E+04 -7.265089E+03
       231   5 -7.783649E+02 -4.504313E+03 -5.090589E+03  2.993041E+05 -3.370293E+04 -4.588316E+03
       231   6  1.039612E+03 -5.395161E+03 -2.860610E+03  3.506337E+05 -2.264430E+04 -1.940891E+03
       231   7  2.902281E+05  1.199705E+06  2.789748E+05  3.463793E+05 -1.224447E+04  4.692251E+04
       231   8  1.941394E+05  8.008530E+05  1.645647E+05  2.978495E+05 -3.368776E+04  2.848432E+03
       231   9  1.001881E+05  4.082617E+05  7.930736E+04  3.519817E+05 -2.271410E+04 -4.122748E+04
       231  10 -3.074456E+05 -1.209572E+06 -3.002605E+05  3.549049E+05  6.878729E-11  4.269451E-10
       231  11 -1.957392E+05 -8.092501E+05 -1.747846E+05  3.007561E+05  3.449486E-10 -3.884122E-10
       231  12 -9.811940E+04 -4.188869E+05 -8.503487E+04  3.492872E+05 -8.269104E-10 -6.141795E-10
       231  13 -8.556327E+03 -5.598769E+03 -1.059345E+04  3.506469E+05 -3.909373E-10  2.654041E-11
       231  14 -7.795902E+02 -4.504640E+03 -5.092763E+03  2.993040E+05  1.862496E-09 -6.096973E-10
       231  15  1.039061E+03 -5.395303E+03 -2.861580E+03  3.506337E+05  3.731115E-10  8.619345E-11
       231  16  2.902274E+05  1.199702E+06  2.789703E+05  3.463797E+05  6.995218E-11  3.233842E-10
       231  17  1.941382E+05  8.008527E+05  1.645626E+05  2.978496E+05 -2.704388E-10  1.941023E-10
       231  18  1.001871E+05  4.082598E+05  7.930320E+04  3.519810E+05  1.071940E-09  2.651922E-10
       231  19 -3.074444E+05 -1.209568E+06 -3.002531E+05  3.549055E+05  1.240638E+04  6.134804E+04
       231  20 -1.957379E+05 -8.092496E+05 -1.747822E+05  3.007565E+05  3.371815E+04  1.201557E+04
       231  21 -9.811848E+04 -4.188852E+05 -8.503129E+04  3.492865E+05  2.257464E+04 -3.732008E+04
       231  22 -8.556150E+03 -5.598672E+03 -1.059306E+04  3.506469E+05  1.232500E+04  7.265089E+03
       231  23 -7.783649E+02 -4.504313E+03 -5.090589E+03  2.993041E+05  3.370293E+04  4.588316E+03
       231  24  1.039612E+03 -5.395161E+03 -2.860610E+03  3.506337E+05  2.264430E+04  1.940891E+03
       231  25  2.902281E+05  1.199705E+06  2.789748E+05  3.463793E+05  1.224447E+04 -4.692251E+04
       231  26  1.941394E+05  8.008530E+05  1.645647E+05  2.978495E+05  3.368776E+04 -2.848432E+03
       231  27  1.001881E+05  4.082617E+05  7.930736E+04  3.519817E+05  2.271410E+04  4.122748E+04
       232   1 -3.419155E+04 -1.494755E+05 -3.235577E+04  3.510007E+05 -6.354367E+03  3.244622E+04
       232   2  6.035859E+04  2.458766E+05  4.553389E+04  2.991153E+05  1.684736E+04  3.185812E+04
       232   3  1.550362E+05  6.412124E+05  1.237490E+05  3.516482E+05  3.917496E+04  3.127574E+04
       232   4  7.252189E+02 -5.009836E+03 -2.250954E+03  3.510242E+05 -6.416952E+03 -1.596474E+03
       232   5  8.341266E+02 -4.849704E+03 -1.398052E+03  2.988137E+05  1.679068E+04 -9.352245E+02
       232   6  8.613584E+02 -5.073958E+03 -1.086611E+03  3.510239E+05  3.912361E+04 -2.678932E+02
       232   7  3.564128E+04  1.394781E+05  2.785707E+04  3.510478E+05 -6.479530E+03 -3.564696E+04
       232   8 -5.869339E+04 -2.555129E+05 -4.832866E+04  2.985121E+05  1.673401E+04 -3.371566E+04
       232   9 -1.533378E+05 -6.509569E+05 -1.259379E+05  3.503999E+05  3.907229E+04 -3.177946E+04
       232  10 -3.419188E+04 -1.494766E+05 -3.235783E+04  3.510009E+05 -5.019407E-10  9.462515E-10
       232  11  6.035801E+04  2.458754E+05  4.553145E+04  2.991149E+05 -1.976204E-10 -7.004516E-11
       232  12  1.550343E+05  6.412109E+05  1.237443E+05  3.516472E+05  4.042467E-10 -3.500697E-11
       232  13  7.251740E+02 -5.009850E+03 -2.251037E+03  3.510242E+05  2.353306E-10  2.607660E-12
       232  14  8.338236E+02 -4.849781E+03 -1.398583E+03  2.988137E+05 -1.282296E-09 -6.787017E-10
       232  15  8.597147E+02 -5.074369E+03 -1.089487E+03  3.510239E+05 -9.303095E-10  8.601542E-11
       232  16  3.564089E+04  1.394767E+05  2.785460E+04  3.510476E+05  4.372891E-10  9.566593E-11
       232  17 -5.869400E+04 -2.555142E+05 -4.833132E+04  2.985126E+05  6.388773E-10 -9.798144E-11
       232  18 -1.533398E+05 -6.509584E+05 -1.259427E+05  3.504009E+05  9.323575E-10 -3.720885E-10
       232  19 -3.419155E+04 -1.494755E+05 -3.235577E+04  3.510007E+05  6.354367E+03 -3.244622E+04
       232  20  6.035859E+04  2.458766E+05  4.553389E+04  2.991153E+05 -1.684736E+04 -3.185812E+04
       232  21  1.550362E+05  6.412124E+05  1.237490E+05  3.516482E+05 -3.917496E+04 -3.127574E+04
       232  22  7.252189E+02 -5.009836E+03 -2.250954E+03  3.510242E+05  6.416952E+03  1.596474E+03
       232  23  8.341266E+02 -4.849704E+03 -1.398052E+03  2.988137E+05 -1.679068E+04  9.352245E+02
       232  24  8.613584E+02 -5.073958E+03 -1.086611E+03  3.510239E+05 -3.912361E+04  2.678932E+02
       232  25  3.564128E+04  1.394781E+05  2.785707E+04  3.510478E+05  6.479530E+03  3.564696E+04
       232  26 -5.869339E+04 -2.555129E+05 -4.832866E+04  2.985121E+05 -1.673401E+04  3.371566E+04
       232  27 -1.533378E+05 -6.509569E+05 -1.259379E+05  3.503999E+05 -3.907229E+04  3.177946E+04
       233   1  2.193447E+05  9.109384E+05  1.760580E+05  3.515989E+05  5.530752E+04  3.897667E+04
       233   2  3.151689E+05  1.301343E+06  2.687513E+05  3.001564E+05  5.997520E+04 -2.477696E+04
       233   3  4.212487E+05  1.702809E+06  4.054616E+05  3.505920E+05  1.993926E+04 -8.854842E+04
       233   4  8.100081E+02 -5.127595E+03 -1.045132E+03  3.504614E+05  5.525021E+04 -1.336878E+02
       233   5  4.906519E+01 -5.166195E+03 -1.364311E+03  2.995175E+05  6.001843E+04  6.009512E+02
       233   6 -1.622648E+03 -5.456758E+03 -2.397603E+03  3.504638E+05  2.004006E+04  1.358634E+03
       233   7 -2.177738E+05 -9.203845E+05 -1.781817E+05  3.493250E+05  5.519299E+04 -3.918771E+04
       233   8 -3.151785E+05 -1.310058E+06 -2.715700E+05  2.988791E+05  6.006166E+04  2.592646E+04
       233   9 -4.247007E+05 -1.711035E+06 -4.104319E+05  3.503347E+05  2.014103E+04  9.101992E+04
       233  10  2.193410E+05  9.109359E+05  1.760494E+05  3.515972E+05 -1.109040E-10  6.383089E-10
       233  11  3.151649E+05  1.301342E+06  2.687434E+05  3.001576E+05  2.451570E-10 -3.717606E-10
       233  12  4.212462E+05  1.702801E+06  4.054461E+05  3.505934E+05  2.371262E-10 -4.598612E-10
       233  13  8.067301E+02 -5.128414E+03 -1.050868E+03  3.504614E+05  9.599671E-10  8.660288E-12
       233  14  4.519698E+01 -5.167162E+03 -1.371081E+03  2.995175E+05 -4.949700E-10 -4.337745E-10
       233  15 -1.623080E+03 -5.456868E+03 -2.398361E+03  3.504638E+05  1.184178E-10  9.641066E-12
       233  16 -2.177775E+05 -9.203870E+05 -1.781903E+05  3.493267E+05 -4.629404E-11  2.529648E-10
       233  17 -3.151825E+05 -1.310060E+06 -2.715781E+05  2.988778E+05 -2.466467E-10  3.538522E-10
       233  18 -4.247033E+05 -1.711044E+06 -4.104482E+05  3.503332E+05  1.764584E-10  1.996635E-10
       233  19  2.193447E+05  9.109384E+05  1.760580E+05  3.515989E+05 -5.530752E+04 -3.897667E+04
       233  20  3.151689E+05  1.301343E+06  2.687513E+05  3.001564E+05 -5.997520E+04  2.477696E+04
       233  21  4.212487E+05  1.702809E+06  4.054616E+05  3.505920E+05 -1.993926E+04  8.854842E+04
       233  22  8.100081E+02 -5.127595E+03 -1.045132E+03  3.504614E+05 -5.525021E+04  1.336878E+02
       233  23  4.906519E+01 -5.166195E+03 -1.364311E+03  2.995175E+05 -6.001843E+04 -6.009512E+02
       233  24 -1.622648E+03 -5.456758E+03 -2.397603E+03  3.504638E+05 -2.004006E+04 -1.358634E+03
       233  25 -2.177738E+05 -9.203845E+05 -1.781817E+05  3.493250E+05 -5.519299E+04  3.918771E+04
       233  26 -3.151785E+05 -1.310058E+06 -2.715700E+05  2.988791E+05 -6.006166E+04 -2.592646E+04
       233  27 -4.247007E+05 -1.711035E+06 -4.104319E+05  3.503347E+05 -2.014103E+04 -9.101992E+04
       234   1  1.795406E+06  4.131957E+05  4.017676E+05  2.935122E+05  1.035541E+05 -1.943687E+04
       234   2  1.469489E+06  3.077509E+05  2.713888E+05  2.459106E+05  3.815721E+04 -5.945541E+04
       234   3  1.158594E+06  2.267490E+05  1.896548E+05  2.798971E+05 -2.717458E+04 -5.818760E+04
       234   4  2.064187E+05  2.007367E+04  2.318345E+04  2.816732E+05  1.597755E+04 -1.942060E+04
       234   5  2.042380E+05  2.901797E+03  1.113000E+04  2.408756E+05  1.019736E+04 -5.946484E+04
       234   6  2.066765E+05 -1.280803E+02  6.410877E+03  2.816710E+05  4.446979E+03 -5.818587E+04
       234   7 -1.380240E+06 -3.732259E+05 -3.555490E+05  2.698642E+05 -7.137647E+04 -1.940102E+04
       234   8 -1.059494E+06 -3.020476E+05 -2.492117E+05  2.358508E+05 -1.770664E+04 -5.947383E+04
       234   9 -7.443680E+05 -2.270583E+05 -1.768712E+05  2.834420E+05  3.602123E+04 -5.818395E+04
       234  10  1.795394E+06  4.131925E+05  4.017468E+05  2.935138E+05 -9.283894E-11 -1.027847E-10
       234  11  1.469486E+06  3.077467E+05  2.713794E+05  2.459125E+05 -7.201855E-10  4.697318E-11
       234  12  1.158592E+06  2.267451E+05  1.896470E+05  2.798958E+05  1.596205E-10  1.880100E-11
       234  13  2.064183E+05  2.007319E+04  2.318226E+04  2.816734E+05 -3.887439E-10  8.520307E-12
       234  14  2.042369E+05  2.897972E+03  1.112316E+04  2.408761E+05 -4.011151E-10  3.653212E-10
       234  15  2.066756E+05 -1.317217E+02  6.404476E+03  2.816713E+05 -2.119818E-10  1.891043E-11
       234  16 -1.380246E+06 -3.732277E+05 -3.555593E+05  2.698631E+05 -4.238515E-12  1.317228E-10
       234  17 -1.059496E+06 -3.020514E+05 -2.492190E+05  2.358499E+05  4.163888E-11  2.492072E-10
       234  18 -7.443703E+05 -2.270623E+05 -1.768800E+05  2.834437E+05  2.023780E-10 -2.959255E-11
       234  19  1.795406E+06  4.131957E+05  4.017676E+05  2.935122E+05 -1.035541E+05  1.943687E+04
       234  20  1.469489E+06  3.077509E+05  2.713888E+05  2.459106E+05 -3.815721E+04  5.945541E+04
       234  21  1.158594E+06  2.267490E+05  1.896548E+05  2.798971E+05  2.717458E+04  5.818760E+04
       234  22  2.064187E+05  2.007367E+04  2.318345E+04  2.816732E+05 -1.597755E+04  1.942060E+04
       234  23  2.042380E+05  2.901797E+03  1.113000E+04  2.408756E+05 -1.019736E+04  5.946484E+04
       234  24  2.066765E+05 -1.280803E+02  6.410877E+03  2.816710E+05 -4.446979E+03  5.818587E+04
       234  25 -1.380240E+06 -3.732259E+05 -3.555490E+05  2.698642E+05  7.137647E+04  1.940102E+04
       234  26 -1.059494E+06 -3.020476E+05 -2.492117E+05  2.358508E+05  1.770664E+04  5.947383E+04
       234  27 -7.443680E+05 -2.270583E+05 -1.768712E+05  2.834420E+05 -3.602123E+04  5.818395E+04
       235   1  9.407052E+05  1.758755E+05  1.462328E+05  2.826031E+05 -2.074413E+04 -4.526312E+04
       235   2  6.223030E+05  9.917902E+04  8.194880E+04  2.403710E+05 -2.626036E+04 -2.702823E+04
       235   3  3.050977E+05  2.381680E+04  2.158954E+04  2.821368E+05 -3.178040E+04 -6.056269E+03
       235   4  2.058133E+05  7.620805E+02  5.060368E+03  2.822073E+05  3.570032E+03 -4.525792E+04
       235   5  2.056506E+05  1.319141E+02  3.163077E+03  2.402068E+05  1.994505E+03 -2.701702E+04
       235   6  2.058990E+05  1.566532E+02  2.456233E+03  2.822077E+05  4.124070E+02 -6.037908E+03
       235   7 -5.285583E+05 -1.743830E+05 -1.361347E+05  2.818119E+05  2.785611E+04 -4.525275E+04
       235   8 -2.108327E+05 -9.892489E+04 -7.562733E+04  2.400427E+05  3.023089E+04 -2.700582E+04
       235   9  1.067121E+05 -2.350353E+04 -1.667364E+04  2.822786E+05  3.260019E+04 -6.019537E+03
       235  10  9.407042E+05  1.758732E+05  1.462282E+05  2.826024E+05 -1.453336E-10  5.924589E-11
       235  11  6.223021E+05  9.917805E+04  8.194613E+04  2.403705E+05 -2.342700E-10  1.840711E-10
       235  12  3.050966E+05  2.381649E+04  2.158757E+04  2.821366E+05 -3.087756E-10 -5.435042E-11
       235  13  2.058127E+05  7.598773E+02  5.056494E+03  2.822075E+05  2.253968E-10 -2.826301E-11
       235  14  2.056504E+05  1.311291E+02  3.161698E+03  2.402069E+05 -1.385882E-10 -9.861223E-11
       235  15  2.058990E+05  1.566140E+02  2.456164E+03  2.822077E+05  3.871662E-10 -2.039844E-10
       235  16 -5.285597E+05 -1.743854E+05 -1.361400E+05  2.818129E+05 -4.589905E-10 -9.921383E-11
       235  17 -2.108339E+05 -9.892592E+04 -7.563042E+04  2.400433E+05  3.906673E-10 -4.306921E-10
       235  18  1.067109E+05 -2.350385E+04 -1.667570E+04  2.822787E+05  4.546007E-10  2.707310E-11
       235  19  9.407052E+05  1.758755E+05  1.462328E+05  2.826031E+05  2.074413E+04  4.526312E+04
       235  20  6.223030E+05  9.917902E+04  8.194880E+04  2.403710E+05  2.626036E+04  2.702823E+04
       235  21  3.050977E+05  2.381680E+04  2.158954E+04  2.821368E+05  3.178040E+04  6.056269E+03
       235  22  2.058133E+05  7.620805E+02  5.060368E+03  2.822073E+05 -3.570032E+03  4.525792E+04
       235  23  2.056506E+05  1.319141E+02  3.163077E+03  2.402068E+05 -1.994505E+03  2.701702E+04
       235  24  2.058990E+05  1.566532E+02  2.456233E+03  2.822077E+05 -4.124070E+02  6.037908E+03
       235  25 -5.285583E+05 -1.743830E+05 -1.361347E+05  2.818119E+05 -2.785611E+04  4.525275E+04
       235  26 -2.108327E+05 -9.892489E+04 -7.562733E+04  2.400427E+05 -3.023089E+04  2.700582E+04
       235  27  1.067121E+05 -2.350353E+04 -1.667364E+04  2.822786E+05 -3.260019E+04  6.019537E+03
       236   1  8.976695E+04 -2.751202E+04 -1.988130E+04  2.822328E+05 -3.221705E+04  7.184672E+03
       236   2 -2.277478E+05 -1.029618E+05 -7.914642E+04  2.400430E+05 -2.961888E+04  2.815910E+04
       236   3 -5.454995E+05 -1.785658E+05 -1.401432E+05  2.818568E+05 -2.701506E+04  4.636259E+04
       236   4  2.058876E+05  1.627820E+02  2.389517E+03  2.822073E+05 -2.438345E+01  7.202978E+03
       236   5  2.056615E+05  1.115771E+02  2.795923E+03  2.402073E+05 -1.422844E+03  2.817002E+04
       236   6  2.057984E+05  6.056500E+02  4.246522E+03  2.822071E+05 -2.814456E+03  4.636732E+04
       236   7  3.220234E+05  2.783734E+04  2.466361E+04  2.821819E+05  3.217417E+04  7.221278E+03
       236   8  6.392539E+05  1.031744E+05  8.473295E+04  2.403717E+05  2.679240E+04  2.818095E+04
       236   9  9.576409E+05  1.797440E+05  1.486124E+05  2.825576E+05  2.141478E+04  4.637206E+04
       236  10  8.976582E+04 -2.751235E+04 -1.988334E+04  2.822329E+05  6.012594E-10  2.308722E-10
       236  11 -2.277489E+05 -1.029628E+05 -7.914956E+04  2.400436E+05  5.266272E-11 -3.134165E-10
       236  12 -5.455009E+05 -1.785683E+05 -1.401486E+05  2.818578E+05 -3.590142E-10 -4.737913E-10
       236  13  2.058876E+05  1.627263E+02  2.389420E+03  2.822073E+05  3.225461E-10 -1.601445E-11
       236  14  2.056613E+05  1.107243E+02  2.794428E+03  2.402073E+05  1.681327E-10 -1.570267E-10
       236  15  2.057978E+05  6.033389E+02  4.242467E+03  2.822072E+05 -1.874430E-10 -2.770352E-10
       236  16  3.220223E+05  2.783701E+04  2.466157E+04  2.821817E+05 -5.457990E-10 -7.890940E-11
       236  17  6.392529E+05  1.031733E+05  8.473011E+04  2.403711E+05  2.081334E-12 -2.164297E-10
       236  18  9.576398E+05  1.797416E+05  1.486075E+05  2.825568E+05  4.110620E-11 -3.555012E-10
       236  19  8.976695E+04 -2.751202E+04 -1.988130E+04  2.822328E+05  3.221705E+04 -7.184672E+03
       236  20 -2.277478E+05 -1.029618E+05 -7.914642E+04  2.400430E+05  2.961888E+04 -2.815910E+04
       236  21 -5.454995E+05 -1.785658E+05 -1.401432E+05  2.818568E+05  2.701506E+04 -4.636259E+04
       236  22  2.058876E+05  1.627820E+02  2.389517E+03  2.822073E+05  2.438345E+01 -7.202978E+03
       236  23  2.056615E+05  1.115771E+02  2.795923E+03  2.402073E+05  1.422844E+03 -2.817002E+04
       236  24  2.057984E+05  6.056500E+02  4.246522E+03  2.822071E+05  2.814456E+03 -4.636732E+04
       236  25  3.220234E+05  2.783734E+04  2.466361E+04  2.821819E+05 -3.217417E+04 -7.221278E+03
       236  26  6.392539E+05  1.031744E+05  8.473295E+04  2.403717E+05 -2.679240E+04 -2.818095E+04
       236  27  9.576409E+05  1.797440E+05  1.486124E+05  2.825576E+05 -2.141478E+04 -4.637206E+04
       237   1 -7.614872E+05 -2.311014E+05 -1.811681E+05  2.830949E+05 -3.511373E+04  5.929054E+04
       237   2 -1.076179E+06 -3.067281E+05 -2.546333E+05  2.368167E+05  2.026369E+04  6.036426E+04
       237   3 -1.397368E+06 -3.812235E+05 -3.638389E+05  2.721155E+05  7.558097E+04  1.965986E+04
       237   4  2.064994E+05 -1.388721E+02  5.316791E+03  2.816653E+05 -3.550772E+03  5.929183E+04
       237   5  2.044452E+05  2.282956E+03  9.102092E+03  2.408833E+05 -8.245823E+03  6.035538E+04
       237   6  2.062385E+05  1.627356E+04  1.889334E+04  2.816672E+05 -1.297179E+04  1.968102E+04
       237   7  1.175390E+06  2.307686E+05  1.917621E+05  2.802331E+05  2.806032E+04  5.929297E+04
       237   8  1.486629E+06  3.111910E+05  2.727525E+05  2.449582E+05 -3.681317E+04  6.034615E+04
       237   9  1.812224E+06  4.135892E+05  4.014743E+05  2.912434E+05 -1.017526E+05  1.969946E+04
       237  10 -7.614894E+05 -2.311055E+05 -1.811771E+05  2.830966E+05  5.463244E-11 -2.736338E-10
       237  11 -1.076181E+06 -3.067321E+05 -2.546410E+05  2.368157E+05  2.697616E-10 -5.144876E-11
       237  12 -1.397374E+06 -3.812254E+05 -3.638504E+05  2.721143E+05  1.562802E-10  1.870747E-10
       237  13  2.064984E+05 -1.426511E+02  5.310160E+03  2.816654E+05 -4.498598E-10 -3.855155E-10
       237  14  2.044441E+05  2.279026E+03  9.095118E+03  2.408837E+05  2.838505E-10 -4.671380E-10
       237  15  2.062382E+05  1.627310E+04  1.889229E+04  2.816674E+05  7.438583E-10 -3.776929E-10
       237  16  1.175388E+06  2.307646E+05  1.917540E+05  2.802318E+05  4.934252E-11 -3.299595E-10
       237  17  1.486627E+06  3.111867E+05  2.727431E+05  2.449600E+05 -2.346892E-10 -4.164429E-10
       237  18  1.812212E+06  4.135860E+05  4.014542E+05  2.912450E+05  1.093957E-09 -5.760313E-10
       237  19 -7.614872E+05 -2.311014E+05 -1.811681E+05  2.830949E+05  3.511373E+04 -5.929054E+04
       237  20 -1.076179E+06 -3.067281E+05 -2.546333E+05  2.368167E+05 -2.026369E+04 -6.036426E+04
       237  21 -1.397368E+06 -3.812235E+05 -3.638389E+05  2.721155E+05 -7.558097E+04 -1.965986E+04
       237  22  2.064994E+05 -1.388721E+02  5.316791E+03  2.816653E+05  3.550772E+03 -5.929183E+04
       237  23  2.044452E+05  2.282956E+03  9.102092E+03  2.408833E+05  8.245823E+03 -6.035538E+04
       237  24  2.062385E+05  1.627356E+04  1.889334E+04  2.816672E+05  1.297179E+04 -1.968102E+04
       237  25  1.175390E+06  2.307686E+05  1.917621E+05  2.802331E+05 -2.806032E+04 -5.929297E+04
       237  26  1.486629E+06  3.111910E+05  2.727525E+05  2.449582E+05  3.681317E+04 -6.034615E+04
       237  27  1.812224E+06  4.135892E+05  4.014743E+05  2.912434E+05  1.017526E+05 -1.969946E+04
       238   1 -3.290016E+05 -1.256266E+06 -3.223263E+05  3.687406E+05 -1.317190E+04 -6.893973E+04
       238   2 -2.085864E+05 -8.438987E+05 -1.893749E+05  3.109271E+05 -3.606009E+04 -1.503768E+04
       238   3 -1.071858E+05 -4.432980E+05 -9.635481E+04  3.586455E+05 -2.492784E+04  3.887080E+04
       238   4 -1.515824E+04  8.067401E+03 -1.826635E+04  3.605457E+05 -1.308505E+04 -1.146245E+04
       238   5 -1.803023E+03  9.884801E+03 -9.606329E+03  3.077714E+05 -3.604247E+04 -6.459052E+03
       238   6  1.060199E+03  8.289292E+03 -6.865488E+03  3.605232E+05 -2.499989E+04 -1.485788E+03
       238   7  2.985708E+05  1.273873E+06  2.856922E+05  3.523330E+05 -1.299984E+04  4.613164E+04
       238   8  2.049335E+05  8.643575E+05  1.701216E+05  3.046108E+05 -3.602496E+04  2.131208E+03
       238   9  1.092947E+05  4.600753E+05  8.261988E+04  3.624021E+05 -2.507216E+04 -4.187114E+04
       238  10 -3.290031E+05 -1.256271E+06 -3.223355E+05  3.687399E+05  3.300780E-10 -1.801482E-10
       238  11 -2.085878E+05 -8.438993E+05 -1.893778E+05  3.109267E+05  3.035698E-10  3.479384E-10
       238  12 -1.071869E+05 -4.432998E+05 -9.635882E+04  3.586463E+05 -7.201580E-10  6.096173E-10
       238  13 -1.515846E+04  8.067215E+03 -1.826692E+04  3.605455E+05 -2.643470E-10 -4.778142E-10
       238  14 -1.804429E+03  9.884408E+03 -9.608848E+03  3.077712E+05  1.149385E-09  1.148938E-09
       238  15  1.059528E+03  8.289122E+03 -6.866666E+03  3.605232E+05 -1.441208E-10 -4.197853E-10
       238  16  2.985700E+05  1.273871E+06  2.856879E+05  3.523335E+05 -2.087653E-10  1.876230E-10
       238  17  2.049321E+05  8.643571E+05  1.701191E+05  3.046109E+05 -1.331437E-09 -4.615240E-10
       238  18  1.092935E+05  4.600732E+05  8.261541E+04  3.624013E+05  4.013230E-10  9.392482E-11
       238  19 -3.290016E+05 -1.256266E+06 -3.223263E+05  3.687406E+05  1.317190E+04  6.893973E+04
       238  20 -2.085864E+05 -8.438987E+05 -1.893749E+05  3.109271E+05  3.606009E+04  1.503768E+04
       238  21 -1.071858E+05 -4.432980E+05 -9.635481E+04  3.586455E+05  2.492784E+04 -3.887080E+04
       238  22 -1.515824E+04  8.067401E+03 -1.826635E+04  3.605457E+05  1.308505E+04  1.146245E+04
       238  23 -1.803023E+03  9.884801E+03 -9.606329E+03  3.077714E+05  3.604247E+04  6.459052E+03
       238  24  1.060199E+03  8.289292E+03 -6.865488E+03  3.605232E+05  2.499989E+04  1.485788E+03
       238  25  2.985708E+05  1.273873E+06  2.856922E+05  3.523330E+05  1.299984E+04 -4.613164E+04
       238  26  2.049335E+05  8.643575E+05  1.701216E+05  3.046108E+05  3.602496E+04 -2.131208E+03
       238  27  1.092947E+05  4.600753E+05  8.261988E+04  3.624021E+05  2.507216E+04  4.187114E+04
       239   1 -4.161679E+04 -1.661368E+05 -4.247886E+04  3.612786E+05 -8.254549E+03  3.440669E+04
       239   2  5.564478E+04  2.407232E+05  3.609579E+04  3.074611E+05  1.556048E+04  3.681661E+04
       239   3  1.516299E+05  6.468246E+05  1.126907E+05  3.610039E+05  3.856945E+04  3.923377E+04
       239   4  5.680607E+02  8.833116E+03 -6.533026E+03  3.609344E+05 -8.319365E+03 -4.619948E+02
       239   5  7.185075E+02  9.362464E+03 -7.211296E+03  3.072540E+05  1.550127E+04  3.097774E+03
       239   6 -5.996515E+02  8.772311E+03 -1.066846E+04  3.609364E+05  3.851528E+04  6.663285E+03
       239   7  4.275164E+04  1.838347E+05  2.941574E+04  3.605901E+05 -8.384131E+03 -3.534034E+04
       239   8 -5.421024E+04 -2.219440E+05 -5.051642E+04  3.070468E+05  1.544207E+04 -3.060881E+04
       239   9 -1.528529E+05 -6.288867E+05 -1.340427E+05  3.608688E+05  3.846109E+04 -2.587452E+04
       239  10 -4.161719E+04 -1.661381E+05 -4.248122E+04  3.612789E+05 -3.605101E-10 -2.490337E-10
       239  11  5.564415E+04  2.407217E+05  3.609279E+04  3.074607E+05 -2.464186E-10  2.493541E-10
       239  12  1.516279E+05  6.468226E+05  1.126850E+05  3.610027E+05  2.176388E-10  4.488881E-10
       239  13  5.679863E+02  8.833097E+03 -6.533157E+03  3.609344E+05 -2.309996E-10 -7.342502E-10
       239  14  7.182470E+02  9.362389E+03 -7.211765E+03  3.072539E+05 -8.753516E-10  1.331615E-09
       239  15 -6.012562E+02  8.771865E+03 -1.067133E+04  3.609362E+05 -1.345864E-09 -4.239517E-10
       239  16  4.275123E+04  1.838334E+05  2.941327E+04  3.605898E+05  6.451920E-10  1.317099E-10
       239  17 -5.421075E+04 -2.219451E+05 -5.051863E+04  3.070472E+05  4.535447E-10 -3.464741E-10
       239  18 -1.528547E+05 -6.288878E+05 -1.340467E+05  3.608696E+05  4.004277E-10  9.403671E-11
       239  19 -4.161679E+04 -1.661368E+05 -4.247886E+04  3.612786E+05  8.254549E+03 -3.440669E+04
       239  20  5.564478E+04  2.407232E+05  3.609579E+04  3.074611E+05 -1.556048E+04 -3.681661E+04
       239  21  1.516299E+05  6.468246E+05  1.126907E+05  3.610039E+05 -3.856945E+04 -3.923377E+04
       239  22  5.680607E+02  8.833116E+03 -6.533026E+03  3.609344E+05  8.319365E+03  4.619948E+02
       239  23  7.185075E+02  9.362464E+03 -7.211296E+03  3.072540E+05 -1.550127E+04 -3.097774E+03
       239  24 -5.996515E+02  8.772311E+03 -1.066846E+04  3.609364E+05 -3.851528E+04 -6.663285E+03
       239  25  4.275164E+04  1.838347E+05  2.941574E+04  3.605901E+05  8.384131E+03  3.534034E+04
       239  26 -5.421024E+04 -2.219440E+05 -5.051642E+04  3.070468E+05 -1.544207E+04  3.060881E+04
       239  27 -1.528529E+05 -6.288867E+05 -1.340427E+05  3.608688E+05 -3.846109E+04  2.587452E+04
       240   1  2.192778E+05  9.224649E+05  1.638352E+05  3.650909E+05  5.516560E+04  4.866383E+04
       240   2  3.114168E+05  1.328066E+06  2.495645E+05  2.987476E+05  6.030803E+04 -4.791932E+03
       240   3  3.871347E+05  1.736739E+06  3.659451E+05  3.371923E+05  2.013048E+04 -5.825807E+04
       240   4  8.685308E+02  7.063935E+03 -1.325307E+04  3.603617E+05  5.510492E+04  8.430420E+03
       240   5 -6.218027E+03  1.110607E+04 -2.286380E+04  3.079822E+05  6.035168E+04  2.033706E+04
       240   6 -4.107703E+04  6.722957E+03 -4.717914E+04  3.604117E+05  2.023227E+04  3.226744E+04
       240   7 -2.175897E+05 -9.075290E+05 -1.903744E+05  3.556391E+05  5.504480E+04 -3.174508E+04
       240   8 -3.239620E+05 -1.304211E+06 -2.953838E+05  3.171960E+05  6.039613E+04  4.541371E+04
       240   9 -4.694986E+05 -1.720535E+06 -4.604830E+05  3.835647E+05  2.034102E+04  1.225423E+05
       240  10  2.192739E+05  9.224615E+05  1.638250E+05  3.650887E+05 -1.798679E-10  1.716175E-10
       240  11  3.114129E+05  1.328065E+06  2.495576E+05  2.987478E+05  4.563303E-11  2.039969E-10
       240  12  3.871334E+05  1.736735E+06  3.659380E+05  3.371933E+05  2.678459E-10 -3.202940E-13
       240  13  8.652514E+02  7.063044E+03 -1.325891E+04  3.603613E+05  6.346531E-10 -5.620010E-10
       240  14 -6.222048E+03  1.110465E+04 -2.287142E+04  3.079812E+05 -4.246189E-10  9.110400E-10
       240  15 -4.107775E+04  6.721730E+03 -4.718186E+04  3.604112E+05  8.224477E-12 -1.924632E-10
       240  16 -2.175933E+05 -9.075309E+05 -1.903820E+05  3.556405E+05 -1.843317E-10 -1.421169E-10
       240  17 -3.239665E+05 -1.304214E+06 -2.953946E+05  3.171938E+05 -6.368961E-11 -9.938200E-11
       240  18 -4.695031E+05 -1.720552E+06 -4.605121E+05  3.835627E+05  3.039486E-10  2.355937E-10
       240  19  2.192778E+05  9.224649E+05  1.638352E+05  3.650909E+05 -5.516560E+04 -4.866383E+04
       240  20  3.114168E+05  1.328066E+06  2.495645E+05  2.987476E+05 -6.030803E+04  4.791932E+03
       240  21  3.871347E+05  1.736739E+06  3.659451E+05  3.371923E+05 -2.013048E+04  5.825807E+04
       240  22  8.685308E+02  7.063935E+03 -1.325307E+04  3.603617E+05 -5.510492E+04 -8.430420E+03
       240  23 -6.218027E+03  1.110607E+04 -2.286380E+04  3.079822E+05 -6.035168E+04 -2.033706E+04
       240  24 -4.107703E+04  6.722957E+03 -4.717914E+04  3.604117E+05 -2.023227E+04 -3.226744E+04
       240  25 -2.175897E+05 -9.075290E+05 -1.903744E+05  3.556391E+05 -5.504480E+04  3.174508E+04
       240  26 -3.239620E+05 -1.304211E+06 -2.953838E+05  3.171960E+05 -6.039613E+04 -4.541371E+04
       240  27 -4.694986E+05 -1.720535E+06 -4.604830E+05  3.835647E+05 -2.034102E+04 -1.225423E+05
       241   1  1.756927E+06  4.018275E+05  3.893400E+05  2.928994E+05  9.517616E+04 -1.921843E+04
       241   2  1.426489E+06  3.029127E+05  2.637078E+05  2.477350E+05  3.260593E+04 -5.859330E+04
       241   3  1.109134E+06  2.221020E+05  1.833007E+05  2.856124E+05 -2.989895E+04 -5.684457E+04
       241   4  1.766025E+05  1.080661E+04  1.269771E+04  2.865552E+05  8.658975E+03 -1.920040E+04
       241   5  1.753774E+05  1.419787E+03  6.157954E+03  2.450302E+05  5.463173E+03 -5.860192E+04
       241   6  1.768608E+05 -1.309377E+02  3.693353E+03  2.865538E+05  2.297746E+03 -5.684287E+04
       241   7 -1.401420E+06 -3.803903E+05 -3.640917E+05  2.802268E+05 -7.763950E+04 -1.918062E+04
       241   8 -1.074250E+06 -3.001713E+05 -2.514732E+05  2.423307E+05 -2.162596E+04 -5.861033E+04
       241   9 -7.545749E+05 -2.224148E+05 -1.759504E+05  2.874934E+05  3.444726E+04 -5.684107E+04
       241  10  1.756918E+06  4.018247E+05  3.893223E+05  2.929009E+05  1.237362E-10 -1.078627E-10
       241  11  1.426487E+06  3.029087E+05  2.636994E+05  2.477366E+05 -5.580201E-10 -3.663019E-10
       241  12  1.109132E+06  2.220982E+05  1.832930E+05  2.856111E+05 -1.180948E-09  3.534068E-10
       241  13  1.766023E+05  1.080619E+04  1.269688E+04  2.865553E+05 -9.993792E-10  4.480752E-10
       241  14  1.753765E+05  1.416091E+03  6.151443E+03  2.450305E+05 -7.561024E-11  1.491032E-10
       241  15  1.768599E+05 -1.344091E+02  3.687270E+03  2.865539E+05  3.124909E-10  3.997242E-10
       241  16 -1.401427E+06 -3.803924E+05 -3.641038E+05  2.802256E+05 -1.174288E-10 -6.369737E-11
       241  17 -1.074251E+06 -3.001751E+05 -2.514805E+05  2.423297E+05  9.689078E-10  3.251897E-10
       241  18 -7.545771E+05 -2.224186E+05 -1.759587E+05  2.874950E+05  9.423754E-10  3.590845E-10
       241  19  1.756927E+06  4.018275E+05  3.893400E+05  2.928994E+05 -9.517616E+04  1.921843E+04
       241  20  1.426489E+06  3.029127E+05  2.637078E+05  2.477350E+05 -3.260593E+04  5.859330E+04
       241  21  1.109134E+06  2.221020E+05  1.833007E+05  2.856124E+05  2.989895E+04  5.684457E+04
       241  22  1.766025E+05  1.080661E+04  1.269771E+04  2.865552E+05 -8.658975E+03  1.920040E+04
       241  23  1.753774E+05  1.419787E+03  6.157954E+03  2.450302E+05 -5.463173E+03  5.860192E+04
       241  24  1.768608E+05 -1.309377E+02  3.693353E+03  2.865538E+05 -2.297746E+03  5.684287E+04
       241  25 -1.401420E+06 -3.803903E+05 -3.640917E+05  2.802268E+05  7.763950E+04  1.918062E+04
       241  26 -1.074250E+06 -3.001713E+05 -2.514732E+05  2.423307E+05  2.162596E+04  5.861033E+04
       241  27 -7.545749E+05 -2.224148E+05 -1.759504E+05  2.874934E+05 -3.444726E+04  5.684107E+04
       242   1  8.879146E+05  1.699769E+05  1.398316E+05  2.873601E+05 -2.314596E+04 -4.368781E+04
       242   2  5.640803E+05  9.230063E+04  7.559647E+04  2.444973E+05 -2.812950E+04 -2.504194E+04
       242   3  2.413012E+05  1.567184E+04  1.486716E+04  2.870990E+05 -3.311673E+04 -3.678931E+03
       242   4  1.763927E+05  3.982146E+02  3.011598E+03  2.870921E+05  1.773656E+03 -4.368258E+04
       242   5  1.762929E+05  8.895823E+01  2.156161E+03  2.443582E+05  7.012185E+02 -2.503103E+04
       242   6  1.764738E+05  1.552896E+02  2.094620E+03  2.870922E+05 -3.773481E+02 -3.661256E+03
       242   7 -5.346414E+05 -1.692101E+05 -1.338295E+05  2.868242E+05  2.666540E+04 -4.367737E+04
       242   8 -2.113476E+05 -9.213105E+04 -7.128771E+04  2.442191E+05  2.951438E+04 -2.502012E+04
       242   9  1.116526E+05 -1.536094E+04 -1.067410E+04  2.870854E+05  3.235869E+04 -3.643580E+03
       242  10  8.879135E+05  1.699747E+05  1.398271E+05  2.873593E+05 -6.575870E-10  4.961754E-10
       242  11  5.640792E+05  9.229974E+04  7.559381E+04  2.444967E+05 -1.663864E-10  3.513781E-10
       242  12  2.413001E+05  1.567153E+04  1.486508E+04  2.870989E+05 -9.765969E-11 -1.386061E-10
       242  13  1.763921E+05  3.961645E+02  3.008006E+03  2.870921E+05  2.613484E-10  6.497132E-10
       242  14  1.762928E+05  8.828523E+01  2.154982E+03  2.443582E+05  1.099352E-10  6.025322E-10
       242  15  1.764738E+05  1.552752E+02  2.094595E+03  2.870922E+05 -4.871198E-10 -1.775877E-10
       242  16 -5.346427E+05 -1.692124E+05 -1.338344E+05  2.868251E+05 -2.171839E-10  2.798490E-10
       242  17 -2.113487E+05 -9.213195E+04 -7.129053E+04  2.442197E+05  9.828126E-10  5.589525E-10
       242  18  1.116515E+05 -1.536124E+04 -1.067609E+04  2.870855E+05 -3.566843E-11  1.406253E-10
       242  19  8.879146E+05  1.699769E+05  1.398316E+05  2.873601E+05  2.314596E+04  4.368781E+04
       242  20  5.640803E+05  9.230063E+04  7.559647E+04  2.444973E+05  2.812950E+04  2.504194E+04
       242  21  2.413012E+05  1.567184E+04  1.486716E+04  2.870990E+05  3.311673E+04  3.678931E+03
       242  22  1.763927E+05  3.982146E+02  3.011598E+03  2.870921E+05 -1.773656E+03  4.368258E+04
       242  23  1.762929E+05  8.895823E+01  2.156161E+03  2.443582E+05 -7.012185E+02  2.503103E+04
       242  24  1.764738E+05  1.552896E+02  2.094620E+03  2.870922E+05  3.773481E+02  3.661256E+03
       242  25 -5.346414E+05 -1.692101E+05 -1.338295E+05  2.868242E+05 -2.666540E+04  4.367737E+04
       242  26 -2.113476E+05 -9.213105E+04 -7.128771E+04  2.442191E+05 -2.951438E+04  2.502012E+04
       242  27  1.116526E+05 -1.536094E+04 -1.067410E+04  2.870854E+05 -3.235869E+04  3.643580E+03
       243   1  2.229042E+04 -3.658011E+04 -2.705933E+04  2.871790E+05 -3.353474E+04  9.792430E+03
       243   2 -3.007594E+05 -1.133174E+05 -8.685207E+04  2.442120E+05 -3.098706E+04  3.110603E+04
       243   3 -6.239827E+05 -1.900857E+05 -1.483075E+05  2.867079E+05 -2.843308E+04  4.953294E+04
       243   4  1.765069E+05  1.303209E+02  2.291561E+03  2.870901E+05 -7.733864E+02  9.809774E+03
       243   5  1.762334E+05  1.068694E+02  3.231426E+03  2.443606E+05 -2.389370E+03  3.111544E+04
       243   6  1.764069E+05  7.798017E+02  5.398864E+03  2.870898E+05 -3.997783E+03  4.953575E+04
       243   7  3.307485E+05  3.683993E+04  3.164542E+04  2.870013E+05  3.199591E+04  9.827104E+03
       243   8  6.534476E+05  1.135183E+05  9.330796E+04  2.445094E+05  2.622977E+04  3.112486E+04
       243   9  9.774146E+05  1.916077E+05  1.590781E+05  2.874720E+05  2.046831E+04  4.953860E+04
       243  10  2.228919E+04 -3.658051E+04 -2.706163E+04  2.871792E+05 -3.935840E-10  1.381232E-10
       243  11 -3.007607E+05 -1.133187E+05 -8.685570E+04  2.442127E+05  2.064146E-11 -1.496465E-10
       243  12 -6.239842E+05 -1.900885E+05 -1.483137E+05  2.867090E+05 -8.970278E-11 -2.248347E-10
       243  13  1.765068E+05  1.302174E+02  2.291379E+03  2.870901E+05  3.115303E-11 -1.962804E-10
       243  14  1.762331E+05  1.058281E+02  3.229595E+03  2.443607E+05 -7.728190E-11 -2.121911E-10
       243  15  1.764062E+05  7.771621E+02  5.394222E+03  2.870899E+05  7.842867E-12 -3.694636E-10
       243  16  3.307474E+05  3.683955E+04  3.164332E+04  2.870010E+05  1.606181E-10 -2.078251E-10
       243  17  6.534466E+05  1.135171E+05  9.330485E+04  2.445087E+05  3.968791E-10 -4.994651E-10
       243  18  9.774135E+05  1.916049E+05  1.590727E+05  2.874712E+05  1.070764E-09 -4.626927E-10
       243  19  2.229042E+04 -3.658011E+04 -2.705933E+04  2.871790E+05  3.353474E+04 -9.792430E+03
       243  20 -3.007594E+05 -1.133174E+05 -8.685207E+04  2.442120E+05  3.098706E+04 -3.110603E+04
       243  21 -6.239827E+05 -1.900857E+05 -1.483075E+05  2.867079E+05  2.843308E+04 -4.953294E+04
       243  22  1.765069E+05  1.303209E+02  2.291561E+03  2.870901E+05  7.733864E+02 -9.809774E+03
       243  23  1.762334E+05  1.068694E+02  3.231426E+03  2.443606E+05  2.389370E+03 -3.111544E+04
       243  24  1.764069E+05  7.798017E+02  5.398864E+03  2.870898E+05  3.997783E+03 -4.953575E+04
       243  25  3.307485E+05  3.683993E+04  3.164542E+04  2.870013E+05 -3.199591E+04 -9.827104E+03
       243  26  6.534476E+05  1.135183E+05  9.330796E+04  2.445094E+05 -2.622977E+04 -3.112486E+04
       243  27  9.774146E+05  1.916077E+05  1.590781E+05  2.874720E+05 -2.046831E+04 -4.953860E+04
       244   1 -8.435118E+05 -2.437614E+05 -1.896450E+05  2.885275E+05 -3.701525E+04  6.267846E+04
       244   2 -1.164111E+06 -3.199095E+05 -2.634443E+05  2.396710E+05  1.911343E+04  6.330851E+04
       244   3 -1.490390E+06 -3.914654E+05 -3.726016E+05  2.737604E+05  7.517484E+04  2.055099E+04
       244   4  1.773520E+05 -1.931291E+02  6.905538E+03  2.865270E+05 -4.933868E+03  6.267707E+04
       244   5  1.746855E+05  3.121558E+03  1.210249E+04  2.450625E+05 -1.118707E+04  6.330103E+04
       244   6  1.770745E+05  2.186225E+04  2.529207E+04  2.865312E+05 -1.747656E+04  2.058133E+04
       244   7  1.199221E+06  2.433139E+05  2.034118E+05  2.845229E+05  2.719911E+04  6.267547E+04
       244   8  1.515186E+06  3.260402E+05  2.875566E+05  2.504656E+05 -4.155182E+04  6.329305E+04
       244   9  1.847111E+06  4.349941E+05  4.230227E+05  2.993363E+05 -1.103761E+05  2.060786E+04
       244  10 -8.435143E+05 -2.437660E+05 -1.896550E+05  2.885293E+05 -3.524356E-10 -4.187512E-10
       244  11 -1.164112E+06 -3.199139E+05 -2.634526E+05  2.396701E+05 -7.728424E-10 -5.557873E-10
       244  12 -1.490396E+06 -3.914674E+05 -3.726131E+05  2.737591E+05 -5.558160E-10 -4.624858E-10
       244  13  1.773509E+05 -1.973546E+02  6.898109E+03  2.865272E+05 -8.075675E-10 -3.318427E-10
       244  14  1.746843E+05  3.117221E+03  1.209472E+04  2.450631E+05  6.976461E-10 -3.477621E-10
       244  15  1.770740E+05  2.186171E+04  2.529070E+04  2.865315E+05 -3.760175E-10  1.198571E-10
       244  16  1.199219E+06  2.433095E+05  2.034030E+05  2.845215E+05  3.203796E-10 -3.618666E-10
       244  17  1.515184E+06  3.260354E+05  2.875458E+05  2.504677E+05  1.673569E-10  5.778576E-11
       244  18  1.847098E+06  4.349904E+05  4.229991E+05  2.993381E+05  1.454105E-09 -4.595661E-10
       244  19 -8.435118E+05 -2.437614E+05 -1.896450E+05  2.885275E+05  3.701525E+04 -6.267846E+04
       244  20 -1.164111E+06 -3.199095E+05 -2.634443E+05  2.396710E+05 -1.911343E+04 -6.330851E+04
       244  21 -1.490390E+06 -3.914654E+05 -3.726016E+05  2.737604E+05 -7.517484E+04 -2.055099E+04
       244  22  1.773520E+05 -1.931291E+02  6.905538E+03  2.865270E+05  4.933868E+03 -6.267707E+04
       244  23  1.746855E+05  3.121558E+03  1.210249E+04  2.450625E+05  1.118707E+04 -6.330103E+04
       244  24  1.770745E+05  2.186225E+04  2.529207E+04  2.865312E+05  1.747656E+04 -2.058133E+04
       244  25  1.199221E+06  2.433139E+05  2.034118E+05  2.845229E+05 -2.719911E+04 -6.267547E+04
       244  26  1.515186E+06  3.260402E+05  2.875566E+05  2.504656E+05  4.155182E+04 -6.329305E+04
       244  27  1.847111E+06  4.349941E+05  4.230227E+05  2.993363E+05  1.103761E+05 -2.060786E+04
       245   1 -3.855873E+05 -1.464616E+06 -3.772659E+05  4.179166E+05 -1.584261E+04 -7.964840E+04
       245   2 -2.500638E+05 -9.957767E+05 -2.261155E+05  3.530095E+05 -4.391502E+04 -1.659701E+04
       245   3 -1.349834E+05 -5.402132E+05 -1.212294E+05  4.080226E+05 -3.193583E+04  4.646600E+04
       245   4 -1.497923E+04  2.842077E+04 -1.842655E+04  4.100039E+05 -1.572977E+04 -1.036665E+04
       245   5 -1.637023E+03  3.030179E+04 -1.058984E+04  3.500359E+05 -4.388889E+04 -4.864604E+03
       245   6  1.296816E+03  2.872386E+04 -8.979825E+03  4.099796E+05 -3.202554E+04  6.005148E+02
       245   7  3.554694E+05  1.523512E+06  3.402724E+05  4.020705E+05 -1.561888E+04  5.908138E+04
       245   8  2.467222E+05  1.057376E+06  2.048774E+05  3.470566E+05 -4.386290E+04  6.886907E+03
       245   9  1.375586E+05  5.979755E+05  1.032618E+05  4.119382E+05 -3.211549E+04 -4.530614E+04
       245  10 -3.855892E+05 -1.464623E+06 -3.772783E+05  4.179156E+05  2.670613E-10 -8.372454E-11
       245  11 -2.500659E+05 -9.957775E+05 -2.261196E+05  3.530089E+05  8.949736E-10  8.709275E-10
       245  12 -1.349851E+05 -5.402158E+05 -1.212353E+05  4.080238E+05 -5.896128E-10 -1.700256E-09
       245  13 -1.497952E+04  2.842059E+04 -1.842721E+04  4.100037E+05 -2.414981E-10  9.914495E-10
       245  14 -1.639097E+03  3.030125E+04 -1.059351E+04  3.500357E+05  1.831603E-09  1.684576E-11
       245  15  1.295714E+03  2.872358E+04 -8.981753E+03  4.099797E+05 -5.492378E-10 -7.765479E-10
       245  16  3.554682E+05  1.523508E+06  3.402654E+05  4.020713E+05  1.364626E-10  9.082483E-11
       245  17  2.467201E+05  1.057376E+06  2.048737E+05  3.470569E+05 -4.197525E-10  8.501348E-11
       245  18  1.375569E+05  5.979730E+05  1.032560E+05  4.119371E+05  2.917100E-10 -7.342238E-10
       245  19 -3.855873E+05 -1.464616E+06 -3.772659E+05  4.179166E+05  1.584261E+04  7.964840E+04
       245  20 -2.500638E+05 -9.957767E+05 -2.261155E+05  3.530095E+05  4.391502E+04  1.659701E+04
       245  21 -1.349834E+05 -5.402132E+05 -1.212294E+05  4.080226E+05  3.193583E+04 -4.646600E+04
       245  22 -1.497923E+04  2.842077E+04 -1.842655E+04  4.100039E+05  1.572977E+04  1.036665E+04
       245  23 -1.637023E+03  3.030179E+04 -1.058984E+04  3.500359E+05  4.388889E+04  4.864604E+03
       245  24  1.296816E+03  2.872386E+04 -8.979825E+03  4.099796E+05  3.202554E+04 -6.005148E+02
       245  25  3.554694E+05  1.523512E+06  3.402724E+05  4.020705E+05  1.561888E+04 -5.908138E+04
       245  26  2.467222E+05  1.057376E+06  2.048774E+05  3.470566E+05  4.386290E+04 -6.886907E+03
       245  27  1.375586E+05  5.979755E+05  1.032618E+05  4.119382E+05  3.211549E+04  4.530614E+04
       246   1 -6.023659E+04 -2.252256E+05 -6.077144E+04  4.110251E+05 -1.298707E+04  4.142384E+04
       246   2  5.012749E+04  2.377206E+05  2.640799E+04  3.495345E+05  1.400275E+04  4.657256E+04
       246   3  1.579942E+05  6.992215E+05  1.094973E+05  4.101276E+05  4.027013E+04  5.173073E+04
       246   4  9.067550E+02  2.913618E+04 -9.431775E+03  4.104656E+05 -1.306787E+04  2.053909E+03
       246   5  8.197337E+02  3.002199E+04 -1.247044E+04  3.494252E+05  1.392770E+04  8.228049E+03
       246   6 -1.933747E+03  2.907428E+04 -2.031377E+04  4.104713E+05  4.020019E+04  1.440799E+04
       246   7  6.204693E+04  2.835630E+05  4.191039E+04  4.099060E+05 -1.314857E+04 -3.733185E+04
       246   8 -4.848973E+04 -1.776317E+05 -5.134521E+04  3.493158E+05  1.385265E+04 -3.010396E+04
       246   9 -1.618877E+05 -6.406389E+05 -1.501407E+05  4.108142E+05  4.013015E+04 -2.287542E+04
       246  10 -6.023723E+04 -2.252275E+05 -6.077499E+04  4.110255E+05 -3.115673E-10 -8.188694E-10
       246  11  5.012670E+04  2.377182E+05  2.640355E+04  3.495340E+05 -5.435565E-10  1.270974E-09
       246  12  1.579917E+05  6.992182E+05  1.094893E+05  4.101259E+05  1.081555E-09 -2.142032E-10
       246  13  9.065705E+02  2.913613E+04 -9.432104E+03  4.104657E+05 -3.975161E-10  1.467538E-09
       246  14  8.195074E+02  3.002186E+04 -1.247093E+04  3.494251E+05  2.194802E-09  6.445752E-11
       246  15 -1.935538E+03  2.907362E+04 -2.031719E+04  4.104708E+05 -8.814094E-10 -7.372499E-10
       246  16  6.204637E+04  2.835614E+05  4.190745E+04  4.099056E+05 -6.453786E-11  7.740443E-10
       246  17 -4.849018E+04 -1.776327E+05 -5.134728E+04  3.493161E+05  1.563944E-10 -3.519750E-11
       246  18 -1.618896E+05 -6.406398E+05 -1.501447E+05  4.108150E+05  6.704479E-10 -2.172914E-09
       246  19 -6.023659E+04 -2.252256E+05 -6.077144E+04  4.110251E+05  1.298707E+04 -4.142384E+04
       246  20  5.012749E+04  2.377206E+05  2.640799E+04  3.495345E+05 -1.400275E+04 -4.657256E+04
       246  21  1.579942E+05  6.992215E+05  1.094973E+05  4.101276E+05 -4.027013E+04 -5.173073E+04
       246  22  9.067550E+02  2.913618E+04 -9.431775E+03  4.104656E+05  1.306787E+04 -2.053909E+03
       246  23  8.197337E+02  3.002199E+04 -1.247044E+04  3.494252E+05 -1.392770E+04 -8.228049E+03
       246  24 -1.933747E+03  2.907428E+04 -2.031377E+04  4.104713E+05 -4.020019E+04 -1.440799E+04
       246  25  6.204693E+04  2.835630E+05  4.191039E+04  4.099060E+05  1.314857E+04  3.733185E+04
       246  26 -4.848973E+04 -1.776317E+05 -5.134521E+04  3.493158E+05 -1.385265E+04  3.010396E+04
       246  27 -1.618877E+05 -6.406389E+05 -1.501407E+05  4.108142E+05 -4.013015E+04  2.287542E+04
       247   1  2.363175E+05  1.011082E+06  1.650756E+05  4.185723E+05  5.915836E+04  6.360577E+04
       247   2  3.351255E+05  1.476265E+06  2.532171E+05  3.308181E+05  6.570299E+04  1.490615E+04
       247   3  3.904357E+05  1.937196E+06  3.621423E+05  3.623065E+05  2.206907E+04 -3.379773E+04
       247   4  1.134393E+03  2.559307E+04 -2.580859E+04  4.098306E+05  5.907973E+04  1.781848E+04
       247   5 -1.275389E+04  3.389943E+04 -4.546679E+04  3.502479E+05  6.575558E+04  4.148141E+04
       247   6 -8.274367E+04  2.516945E+04 -9.457106E+04  4.099430E+05  2.219537E+04  6.517412E+04
       247   7 -2.341052E+05 -9.589588E+05 -2.167305E+05  4.011025E+05  5.900231E+04 -2.789787E+04
       247   8 -3.607632E+05 -1.406496E+06 -3.442610E+05  3.696307E+05  6.580990E+04  6.799601E+04
       247   9 -5.561733E+05 -1.883487E+06 -5.515038E+05  4.574304E+05  2.233709E+04  1.638430E+05
       247  10  2.363126E+05  1.011076E+06  1.650615E+05  4.185693E+05  4.688624E-10 -9.853090E-10
       247  11  3.351208E+05  1.476264E+06  2.532086E+05  3.308173E+05  5.446131E-11  1.611860E-10
       247  12  3.904348E+05  1.937195E+06  3.621392E+05  3.623071E+05  1.381583E-10 -6.351915E-10
       247  13  1.130561E+03  2.559179E+04 -2.581574E+04  4.098298E+05  1.509692E-09  1.296461E-09
       247  14 -1.275900E+04  3.389642E+04 -4.547815E+04  3.502457E+05  7.091382E-10  1.010375E-11
       247  15 -8.274533E+04  2.516476E+04 -9.457996E+04  4.099418E+05  1.035527E-10 -3.088918E-10
       247  16 -2.341092E+05 -9.589606E+05 -2.167385E+05  4.011038E+05  3.293338E-11  1.025249E-09
       247  17 -3.607691E+05 -1.406502E+06 -3.442778E+05  3.696271E+05 -5.445832E-10  6.913668E-10
       247  18 -5.561810E+05 -1.883516E+06 -5.515554E+05  4.574274E+05  2.504546E-10 -4.449942E-10
       247  19  2.363175E+05  1.011082E+06  1.650756E+05  4.185723E+05 -5.915836E+04 -6.360577E+04
       247  20  3.351255E+05  1.476265E+06  2.532171E+05  3.308181E+05 -6.570299E+04 -1.490615E+04
       247  21  3.904357E+05  1.937196E+06  3.621423E+05  3.623065E+05 -2.206907E+04  3.379773E+04
       247  22  1.134393E+03  2.559307E+04 -2.580859E+04  4.098306E+05 -5.907973E+04 -1.781848E+04
       247  23 -1.275389E+04  3.389943E+04 -4.546679E+04  3.502479E+05 -6.575558E+04 -4.148141E+04
       247  24 -8.274367E+04  2.516945E+04 -9.457106E+04  4.099430E+05 -2.219537E+04 -6.517412E+04
       247  25 -2.341052E+05 -9.589588E+05 -2.167305E+05  4.011025E+05 -5.900231E+04  2.789787E+04
       247  26 -3.607632E+05 -1.406496E+06 -3.442610E+05  3.696307E+05 -6.580990E+04 -6.799601E+04
       247  27 -5.561733E+05 -1.883487E+06 -5.515038E+05  4.574304E+05 -2.233709E+04 -1.638430E+05
       248   1  1.473755E+06  3.542573E+05  3.391841E+05  2.252064E+05  7.519666E+04 -1.864056E+04
       248   2  1.207242E+06  2.895914E+05  2.422849E+05  1.957475E+05  2.326997E+04 -5.789155E+04
       248   3  9.483592E+05  2.269609E+05  1.796878E+05  2.333316E+05 -2.860177E+04 -5.896686E+04
       248   4 -5.277895E+03 -1.169535E+04 -1.281714E+04  2.323616E+05 -8.974157E+03 -1.860484E+04
       248   5 -4.188400E+03 -2.194523E+03 -6.086886E+03  1.988378E+05 -5.813978E+03 -5.789387E+04
       248   6 -5.076055E+03 -2.057881E+02 -3.257130E+03  2.323647E+05 -2.620817E+03 -5.897264E+04
       248   7 -1.482291E+06 -3.778017E+05 -3.649449E+05  2.394995E+05 -9.294575E+04 -1.857105E+04
       248   8 -1.214225E+06 -2.940721E+05 -2.545337E+05  2.019218E+05 -3.484227E+04 -5.789649E+04
       248   9 -9.576357E+05 -2.274258E+05 -1.862413E+05  2.313992E+05  2.332121E+04 -5.897851E+04
       248  10  1.473749E+06  3.542554E+05  3.391728E+05  2.252076E+05 -8.646843E-10  4.157624E-10
       248  11  1.207241E+06  2.895877E+05  2.422776E+05  1.957486E+05  2.159111E-10 -4.056071E-10
       248  12  9.483573E+05  2.269569E+05  1.796798E+05  2.333302E+05  1.071168E-09  1.180312E-10
       248  13 -5.278074E+03 -1.169574E+04 -1.281794E+04  2.323615E+05 -4.476193E-10 -5.455435E-10
       248  14 -4.189335E+03 -2.198131E+03 -6.093247E+03  1.988375E+05  8.546324E-10 -1.398617E-10
       248  15 -5.076996E+03 -2.095243E+02 -3.263678E+03  2.323646E+05 -3.931646E-10  9.492871E-11
       248  16 -1.482301E+06 -3.778044E+05 -3.649618E+05  2.394981E+05 -2.869255E-11 -4.825998E-10
       248  17 -1.214227E+06 -2.940761E+05 -2.545422E+05  2.019202E+05 -6.746325E-10 -3.410663E-11
       248  18 -9.576372E+05 -2.274297E+05 -1.862488E+05  2.314003E+05 -1.628611E-09 -3.298479E-10
       248  19  1.473755E+06  3.542573E+05  3.391841E+05  2.252064E+05 -7.519666E+04  1.864056E+04
       248  20  1.207242E+06  2.895914E+05  2.422849E+05  1.957475E+05 -2.326997E+04  5.789155E+04
       248  21  9.483592E+05  2.269609E+05  1.796878E+05  2.333316E+05  2.860177E+04  5.896686E+04
       248  22 -5.277895E+03 -1.169535E+04 -1.281714E+04  2.323616E+05  8.974157E+03  1.860484E+04
       248  23 -4.188400E+03 -2.194523E+03 -6.086886E+03  1.988378E+05  5.813978E+03  5.789387E+04
       248  24 -5.076055E+03 -2.057881E+02 -3.257130E+03  2.323647E+05  2.620817E+03  5.897264E+04
       248  25 -1.482291E+06 -3.778017E+05 -3.649449E+05  2.394995E+05  9.294575E+04  1.857105E+04
       248  26 -1.214225E+06 -2.940721E+05 -2.545337E+05  2.019218E+05  3.484227E+04  5.789649E+04
       248  27 -9.576357E+05 -2.274258E+05 -1.862413E+05  2.313992E+05 -2.332121E+04  5.897851E+04
       249   1  7.695699E+05  1.838254E+05  1.457073E+05  2.327438E+05 -2.142734E+04 -4.833540E+04
       249   2  5.069693E+05  1.214438E+05  9.510984E+04  1.982351E+05 -2.456733E+04 -3.371630E+04
       249   3  2.449928E+05  5.937118E+04  4.664570E+04  2.330409E+05 -2.771255E+04 -1.652460E+04
       249   4 -4.594762E+03 -5.638210E+02 -2.434438E+03  2.328677E+05 -2.208534E+03 -4.833709E+04
       249   5 -4.508554E+03 -6.607250E+01 -1.118646E+03  1.982085E+05 -1.645514E+03 -3.371283E+04
       249   6 -4.507980E+03  1.013350E+02 -2.399805E+02  2.328675E+05 -1.089003E+03 -1.651476E+04
       249   7 -7.781819E+05 -1.849882E+05 -1.506021E+05  2.329913E+05  1.698689E+04 -4.833879E+04
       249   8 -5.157326E+05 -1.215908E+05 -9.735659E+04  1.981819E+05  2.125789E+04 -3.370936E+04
       249   9 -2.539471E+05 -5.917174E+04 -4.712571E+04  2.326942E+05  2.552411E+04 -1.650494E+04
       249  10  7.695687E+05  1.838228E+05  1.457021E+05  2.327430E+05 -2.375278E-10  1.495620E-10
       249  11  5.069684E+05  1.214424E+05  9.510657E+04  1.982344E+05  6.337301E-10  4.413619E-10
       249  12  2.449919E+05  5.937068E+04  4.664375E+04  2.330405E+05  8.292320E-10  2.112868E-10
       249  13 -4.595395E+03 -5.663312E+02 -2.438838E+03  2.328676E+05  1.460117E-10 -5.973488E-11
       249  14 -4.508862E+03 -6.729365E+01 -1.120787E+03  1.982085E+05  1.002895E-09  3.055991E-10
       249  15 -4.508054E+03  1.010418E+02 -2.404953E+02  2.328675E+05  4.665461E-10 -1.718124E-10
       249  16 -7.781828E+05 -1.849908E+05 -1.506070E+05  2.329920E+05 -6.579600E-11 -2.885597E-10
       249  17 -5.157334E+05 -1.215922E+05 -9.735958E+04  1.981825E+05 -1.700890E-10  8.615227E-11
       249  18 -2.539478E+05 -5.917221E+04 -4.712745E+04  2.326946E+05 -4.195663E-10 -1.203763E-10
       249  19  7.695699E+05  1.838254E+05  1.457073E+05  2.327438E+05  2.142734E+04  4.833540E+04
       249  20  5.069693E+05  1.214438E+05  9.510984E+04  1.982351E+05  2.456733E+04  3.371630E+04
       249  21  2.449928E+05  5.937118E+04  4.664570E+04  2.330409E+05  2.771255E+04  1.652460E+04
       249  22 -4.594762E+03 -5.638210E+02 -2.434438E+03  2.328677E+05  2.208534E+03  4.833709E+04
       249  23 -4.508554E+03 -6.607250E+01 -1.118646E+03  1.982085E+05  1.645514E+03  3.371283E+04
       249  24 -4.507980E+03  1.013350E+02 -2.399805E+02  2.328675E+05  1.089003E+03  1.651476E+04
       249  25 -7.781819E+05 -1.849882E+05 -1.506021E+05  2.329913E+05 -1.698689E+04  4.833879E+04
       249  26 -5.157326E+05 -1.215908E+05 -9.735659E+04  1.981819E+05 -2.125789E+04  3.370936E+04
       249  27 -2.539471E+05 -5.917174E+04 -4.712571E+04  2.326942E+05 -2.552411E+04  1.650494E+04
       250   1  6.731774E+04  1.696771E+04  1.284071E+04  2.329894E+05 -2.760610E+04 -5.595173E+03
       250   2 -1.947145E+05 -4.523003E+04 -3.548906E+04  1.981713E+05 -2.523953E+04  1.183669E+04
       250   3 -4.570129E+05 -1.076350E+05 -8.541194E+04  2.327068E+05 -2.287168E+04  2.729439E+04
       250   4 -4.442705E+03  7.517744E+01  1.349139E+02  2.328751E+05 -1.085765E+03 -5.584348E+03
       250   5 -4.537301E+03  9.899949E+01  9.549230E+02  1.981989E+05 -1.566806E+03  1.184448E+04
       250   6 -4.474949E+03  4.120585E+02  2.157543E+03  2.328749E+05 -2.045565E+03  2.729960E+04
       250   7 -7.619661E+04 -1.681726E+04 -1.256843E+04  2.327607E+05  2.543159E+04 -5.573532E+03
       250   8  1.856760E+05  4.542620E+04  3.739936E+04  1.982265E+05  2.211301E+04  1.185227E+04
       250   9  4.482608E+05  1.084471E+05  8.971908E+04  2.330431E+05  1.879540E+04  2.730483E+04
       250  10  6.731692E+04  1.696748E+04  1.283922E+04  2.329893E+05 -4.308153E-10  2.286853E-11
       250  11 -1.947153E+05 -4.523036E+04 -3.549052E+04  1.981715E+05 -1.328853E-11 -1.619687E-10
       250  12 -4.570137E+05 -1.076359E+05 -8.541433E+04  2.327073E+05  5.738236E-10 -4.054422E-11
       250  13 -4.442714E+03  7.514364E+01  1.348531E+02  2.328751E+05  2.779513E-10 -1.481161E-10
       250  14 -4.537342E+03  9.884817E+01  9.546548E+02  1.981989E+05 -2.563080E-10  2.895795E-10
       250  15 -4.475153E+03  4.112570E+02  2.156135E+03  2.328750E+05  7.394426E-10 -1.219222E-10
       250  16 -7.619731E+04 -1.681747E+04 -1.256970E+04  2.327608E+05  2.633060E-10 -1.772632E-10
       250  17  1.856754E+05  4.542592E+04  3.739818E+04  1.982263E+05  2.995303E-10  1.331463E-10
       250  18  4.482602E+05  1.084462E+05  8.971701E+04  2.330427E+05 -6.266314E-10  3.929036E-10
       250  19  6.731774E+04  1.696771E+04  1.284071E+04  2.329894E+05  2.760610E+04  5.595173E+03
       250  20 -1.947145E+05 -4.523003E+04 -3.548906E+04  1.981713E+05  2.523953E+04 -1.183669E+04
       250  21 -4.570129E+05 -1.076350E+05 -8.541194E+04  2.327068E+05  2.287168E+04 -2.729439E+04
       250  22 -4.442705E+03  7.517744E+01  1.349139E+02  2.328751E+05  1.085765E+03  5.584348E+03
       250  23 -4.537301E+03  9.899949E+01  9.549230E+02  1.981989E+05  1.566806E+03 -1.184448E+04
       250  24 -4.474949E+03  4.120585E+02  2.157543E+03  2.328749E+05  2.045565E+03 -2.729960E+04
       250  25 -7.619661E+04 -1.681726E+04 -1.256843E+04  2.327607E+05 -2.543159E+04  5.573532E+03
       250  26  1.856760E+05  4.542620E+04  3.739936E+04  1.982265E+05 -2.211301E+04 -1.185227E+04
       250  27  4.482608E+05  1.084471E+05  8.971908E+04  2.330431E+05 -1.879540E+04 -2.730483E+04
       251   1 -6.352822E+05 -1.507764E+05 -1.193251E+05  2.333489E+05 -2.860003E+04  3.799983E+04
       251   2 -8.949624E+05 -2.134237E+05 -1.787342E+05  1.962197E+05  1.232062E+04  4.101641E+04
       251   3 -1.159896E+06 -2.767058E+05 -2.649353E+05  2.266481E+05  5.320919E+04  1.365612E+04
       251   4 -4.041785E+03 -3.207156E+01  2.912557E+03  2.324743E+05 -2.427148E+03  3.800353E+04
       251   5 -5.255328E+03  1.433544E+03  5.359996E+03  1.986991E+05 -5.197665E+03  4.101110E+04
       251   6 -4.190580E+03  9.858148E+03  1.137833E+04  2.324747E+05 -7.983209E+03  1.366206E+04
       251   7  6.275832E+05  1.506889E+05  1.251341E+05  2.315987E+05  2.377177E+04  3.800716E+04
       251   8  8.852034E+05  2.162407E+05  1.894124E+05  2.011819E+05 -2.274064E+04  4.100565E+04
       251   9  1.152749E+06  2.963275E+05  2.876119E+05  2.383121E+05 -6.928917E+04  1.366685E+04
       251  10 -6.352834E+05 -1.507782E+05 -1.193293E+05  2.333497E+05  5.287028E-10 -1.054448E-10
       251  11 -8.949630E+05 -2.134255E+05 -1.787377E+05  1.962193E+05  6.071182E-10  1.668844E-10
       251  12 -1.159899E+06 -2.767068E+05 -2.649410E+05  2.266475E+05  8.772955E-10  3.351694E-10
       251  13 -4.042180E+03 -3.362408E+01  2.909832E+03  2.324743E+05 -6.569491E-11  7.593671E-11
       251  14 -5.255809E+03  1.431731E+03  5.356784E+03  1.986992E+05 -9.561397E-11  7.634378E-11
       251  15 -4.190699E+03  9.857930E+03  1.137786E+04  2.324748E+05 -1.730152E-10 -3.774603E-10
       251  16  6.275822E+05  1.506872E+05  1.251303E+05  2.315979E+05 -8.577913E-11  2.995703E-10
       251  17  8.852024E+05  2.162388E+05  1.894083E+05  2.011826E+05 -3.881059E-10 -1.701923E-11
       251  18  1.152744E+06  2.963260E+05  2.876025E+05  2.383128E+05  2.721709E-10 -2.327936E-10
       251  19 -6.352822E+05 -1.507764E+05 -1.193251E+05  2.333489E+05  2.860003E+04 -3.799983E+04
       251  20 -8.949624E+05 -2.134237E+05 -1.787342E+05  1.962197E+05 -1.232062E+04 -4.101641E+04
       251  21 -1.159896E+06 -2.767058E+05 -2.649353E+05  2.266481E+05 -5.320919E+04 -1.365612E+04
       251  22 -4.041785E+03 -3.207156E+01  2.912557E+03  2.324743E+05  2.427148E+03 -3.800353E+04
       251  23 -5.255328E+03  1.433544E+03  5.359996E+03  1.986991E+05  5.197665E+03 -4.101110E+04
       251  24 -4.190580E+03  9.858148E+03  1.137833E+04  2.324747E+05  7.983209E+03 -1.366206E+04
       251  25  6.275832E+05  1.506889E+05  1.251341E+05  2.315987E+05 -2.377177E+04 -3.800716E+04
       251  26  8.852034E+05  2.162407E+05  1.894124E+05  2.011819E+05  2.274064E+04 -4.100565E+04
       251  27  1.152749E+06  2.963275E+05  2.876119E+05  2.383121E+05  6.928917E+04 -1.366685E+04
       252   1 -4.688313E+05 -1.840765E+06 -4.546925E+05  4.844166E+05 -2.062306E+04 -9.278036E+04
       252   2 -3.220047E+05 -1.286463E+06 -2.787576E+05  4.135326E+05 -5.827486E+04 -2.052865E+04
       252   3 -1.878306E+05 -7.446164E+05 -1.531618E+05  4.846908E+05 -4.552475E+04  5.173617E+04
       252   4 -7.741745E+01  4.752522E+04 -1.294794E+03  4.862251E+05 -2.045403E+04 -2.268920E+03
       252   5  9.036348E+02  4.782729E+04  4.724642E+02  4.152117E+05 -5.822814E+04 -2.410107E+03
       252   6  1.851369E+03  4.799271E+04  2.275531E+03  4.862222E+05 -4.564968E+04 -2.604251E+03
       252   7  4.684214E+05  1.939104E+06  4.518806E+05  4.880364E+05 -2.028482E+04  8.851735E+04
       252   8  3.236981E+05  1.383804E+06  2.796049E+05  4.168933E+05 -5.818139E+04  1.574680E+04
       252   9  1.914971E+05  8.412108E+05  1.576937E+05  4.877549E+05 -4.577477E+04 -5.701261E+04
       252  10 -4.688341E+05 -1.840774E+06 -4.547095E+05  4.844150E+05 -1.053594E-10 -1.229017E-09
       252  11 -3.220085E+05 -1.286464E+06 -2.787648E+05  4.135316E+05 -1.018822E-10  5.567915E-10
       252  12 -1.878336E+05 -7.446199E+05 -1.531707E+05  4.846927E+05 -5.766731E-10  2.459508E-09
       252  13 -7.786804E+01  4.752510E+04 -1.295590E+03  4.862250E+05 -1.160630E-09 -3.403643E-11
       252  14  8.999925E+02  4.782638E+04  4.660822E+02  4.152116E+05  1.664578E-09 -1.417217E-09
       252  15  1.849130E+03  4.799214E+04  2.271603E+03  4.862221E+05  1.744226E-10  2.348174E-10
       252  16  4.684189E+05  1.939096E+06  4.518652E+05  4.880378E+05 -5.089118E-10  1.104230E-10
       252  17  3.236944E+05  1.383803E+06  2.795981E+05  4.168940E+05 -1.336073E-09 -1.254970E-09
       252  18  1.914939E+05  8.412067E+05  1.576836E+05  4.877528E+05  9.744726E-10 -2.828655E-09
       252  19 -4.688313E+05 -1.840765E+06 -4.546925E+05  4.844166E+05  2.062306E+04  9.278036E+04
       252  20 -3.220047E+05 -1.286463E+06 -2.787576E+05  4.135326E+05  5.827486E+04  2.052865E+04
       252  21 -1.878306E+05 -7.446164E+05 -1.531618E+05  4.846908E+05  4.552475E+04 -5.173617E+04
       252  22 -7.741745E+01  4.752522E+04 -1.294794E+03  4.862251E+05  2.045403E+04  2.268920E+03
       252  23  9.036348E+02  4.782729E+04  4.724642E+02  4.152117E+05  5.822814E+04  2.410107E+03
       252  24  1.851369E+03  4.799271E+04  2.275531E+03  4.862222E+05  4.564968E+04  2.604251E+03
       252  25  4.684214E+05  1.939104E+06  4.518806E+05  4.880364E+05  2.028482E+04 -8.851735E+04
       252  26  3.236981E+05  1.383804E+06  2.796049E+05  4.168933E+05  5.818139E+04 -1.574680E+04
       252  27  1.914971E+05  8.412108E+05  1.576937E+05  4.877549E+05  4.577477E+04  5.701261E+04
       253   1 -9.871323E+04 -3.712872E+05 -7.984995E+04  4.857902E+05 -2.308425E+04  4.291733E+04
       253   2  3.232868E+04  1.764737E+05  3.031535E+04  4.147586E+05  8.697408E+03  3.910041E+04
       253   3  1.654380E+05  7.250087E+05  1.433117E+05  4.885110E+05  4.003037E+04  3.528459E+04
       253   4  1.834060E+03  4.819597E+04  3.298560E+03  4.868367E+05 -2.319648E+04 -3.176535E+03
       253   5  1.822998E+03  4.798505E+04  6.261661E+03  4.144418E+05  8.589494E+03 -6.364875E+03
       253   6  3.786013E+03  4.815032E+04  1.162261E+04  4.868318E+05  3.992597E+04 -9.548927E+03
       253   7  1.023718E+05  4.678521E+05  8.644635E+04  4.878837E+05 -2.330881E+04 -4.930091E+04
       253   8 -2.868253E+04 -8.048321E+04 -1.778497E+04  4.141250E+05  8.481611E+03 -5.182099E+04
       253   9 -1.578924E+05 -6.282643E+05 -1.200806E+05  4.851541E+05  3.982174E+04 -5.433469E+04
       253  10 -9.871430E+04 -3.712893E+05 -7.985441E+04  4.857910E+05 -1.174598E-10 -2.616092E-09
       253  11  3.232819E+04  1.764721E+05  3.031233E+04  4.147583E+05 -1.083449E-09 -1.199039E-11
       253  12  1.654360E+05  7.250069E+05  1.433064E+05  4.885099E+05  6.648650E-10  2.726099E-09
       253  13  1.833479E+03  4.819581E+04  3.297530E+03  4.868366E+05  1.534732E-10  2.113753E-11
       253  14  1.822908E+03  4.798499E+04  6.261446E+03  4.144418E+05 -2.197037E-09 -1.847889E-09
       253  15  3.784276E+03  4.814979E+04  1.161944E+04  4.868321E+05 -1.265719E-09  1.750756E-10
       253  16  1.023705E+05  4.678493E+05  8.644077E+04  4.878828E+05  8.252096E-10  8.135851E-10
       253  17 -2.868333E+04 -8.048611E+04 -1.779015E+04  4.141254E+05  5.033961E-10 -5.287335E-10
       253  18 -1.578949E+05 -6.282679E+05 -1.200892E+05  4.851558E+05  8.057503E-10 -3.247033E-09
       253  19 -9.871323E+04 -3.712872E+05 -7.984995E+04  4.857902E+05  2.308425E+04 -4.291733E+04
       253  20  3.232868E+04  1.764737E+05  3.031535E+04  4.147586E+05 -8.697408E+03 -3.910041E+04
       253  21  1.654380E+05  7.250087E+05  1.433117E+05  4.885110E+05 -4.003037E+04 -3.528459E+04
       253  22  1.834060E+03  4.819597E+04  3.298560E+03  4.868367E+05  2.319648E+04  3.176535E+03
       253  23  1.822998E+03  4.798505E+04  6.261661E+03  4.144418E+05 -8.589494E+03  6.364875E+03
       253  24  3.786013E+03  4.815032E+04  1.162261E+04  4.868318E+05 -3.992597E+04  9.548927E+03
       253  25  1.023718E+05  4.678521E+05  8.644635E+04  4.878837E+05  2.330881E+04  4.930091E+04
       253  26 -2.868253E+04 -8.048321E+04 -1.778497E+04  4.141250E+05 -8.481611E+03  5.182099E+04
       253  27 -1.578924E+05 -6.282643E+05 -1.200806E+05  4.851541E+05 -3.982174E+04  5.433469E+04
       254   1  2.524522E+05  1.101072E+06  2.192322E+05  4.831390E+05  6.243932E+04  4.268416E+04
       254   2  3.933643E+05  1.637592E+06  3.577582E+05  4.299730E+05  7.159072E+04 -5.307502E+04
       254   3  5.834833E+05  2.199109E+06  5.707922E+05  5.184136E+05  2.415304E+04 -1.488727E+05
       254   4  1.651083E+03  5.029912E+04  1.516825E+04  4.861401E+05  6.232343E+04 -1.161956E+04
       254   5  8.930724E+03  4.471129E+04  2.714608E+04  4.152913E+05  7.165812E+04 -2.568775E+04
       254   6  5.133823E+04  4.974131E+04  5.701901E+04  4.860550E+05  2.434298E+04 -3.970757E+04
       254   7 -2.492143E+05 -9.994081E+05 -1.889367E+05  4.891349E+05  6.220689E+04 -6.583353E+04
       254   8 -3.756629E+05 -1.545768E+06 -3.036018E+05  4.006459E+05  7.172435E+04  1.630648E+03
       254   9 -4.811311E+05 -2.095374E+06 -4.570348E+05  4.538054E+05  2.452201E+04  6.908246E+04
       254  10  2.524475E+05  1.101069E+06  2.192214E+05  4.831369E+05  9.393583E-11 -1.763530E-09
       254  11  3.933581E+05  1.637588E+06  3.577433E+05  4.299761E+05 -1.987350E-10 -6.620129E-10
       254  12  5.834768E+05  2.199085E+06  5.707495E+05  5.184165E+05  2.157071E-10  6.691178E-10
       254  13  1.646875E+03  5.029793E+04  1.516069E+04  4.861406E+05  1.740561E-09  1.301562E-11
       254  14  8.925031E+03  4.470920E+04  2.713519E+04  4.152927E+05 -7.078879E-10 -1.294961E-09
       254  15  5.133717E+04  4.973946E+04  5.701493E+04  4.860558E+05  2.020946E-10  1.039031E-10
       254  16 -2.492197E+05 -9.994138E+05 -1.889522E+05  4.891382E+05  1.045970E-10  1.711569E-10
       254  17 -3.756685E+05 -1.545770E+06 -3.036115E+05  4.006458E+05 -5.466778E-10  3.893281E-10
       254  18 -4.811330E+05 -2.095379E+06 -4.570449E+05  4.538040E+05  2.025821E-10 -9.395457E-10
       254  19  2.524522E+05  1.101072E+06  2.192322E+05  4.831390E+05 -6.243932E+04 -4.268416E+04
       254  20  3.933643E+05  1.637592E+06  3.577582E+05  4.299730E+05 -7.159072E+04  5.307502E+04
       254  21  5.834833E+05  2.199109E+06  5.707922E+05  5.184136E+05 -2.415304E+04  1.488727E+05
       254  22  1.651083E+03  5.029912E+04  1.516825E+04  4.861401E+05 -6.232343E+04  1.161956E+04
       254  23  8.930724E+03  4.471129E+04  2.714608E+04  4.152913E+05 -7.165812E+04  2.568775E+04
       254  24  5.133823E+04  4.974131E+04  5.701901E+04  4.860550E+05 -2.434298E+04  3.970757E+04
       254  25 -2.492143E+05 -9.994081E+05 -1.889367E+05  4.891349E+05 -6.220689E+04  6.583353E+04
       254  26 -3.756629E+05 -1.545768E+06 -3.036018E+05  4.006459E+05 -7.172435E+04 -1.630648E+03
       254  27 -4.811311E+05 -2.095374E+06 -4.570348E+05  4.538054E+05 -2.452201E+04 -6.908246E+04
       255   1  1.171048E+06  3.041761E+05  2.923503E+05  1.683552E+05  7.218792E+04 -1.594800E+04
       255   2  9.762182E+05  2.493101E+05  2.115463E+05  1.443417E+05  2.680917E+04 -5.029669E+04
       255   3  7.894707E+05  2.022883E+05  1.622386E+05  1.687726E+05 -1.853777E+04 -5.308034E+04
       255   4 -6.033160E+04 -4.735014E+02 -3.583156E+02  1.686999E+05 -1.122270E+02 -1.593452E+04
       255   5 -6.034788E+04 -2.560527E+02 -2.991319E+02  1.444760E+05  4.291706E+01 -5.030287E+04
       255   6 -6.020643E+04 -8.443085E+01 -3.278658E+02  1.686999E+05  2.150306E+02 -5.308215E+04
       255   7 -1.290310E+06 -3.052295E+05 -2.931533E+05  1.690437E+05 -7.226988E+04 -1.592113E+04
       255   8 -1.095892E+06 -2.498892E+05 -2.121987E+05  1.446099E+05 -2.667951E+04 -5.030907E+04
       255   9 -9.091880E+05 -2.024995E+05 -1.629259E+05  1.686271E+05  1.894279E+04 -5.308397E+04
       255  10  1.171042E+06  3.041745E+05  2.923400E+05  1.683561E+05 -3.050238E-10  3.258366E-10
       255  11  9.762167E+05  2.493072E+05  2.115402E+05  1.443428E+05  2.128989E-12 -1.705136E-10
       255  12  7.894696E+05  2.022851E+05  1.622327E+05  1.687718E+05 -7.652203E-10 -1.161333E-10
       255  13 -6.033167E+04 -4.737741E+02 -3.587927E+02  1.686999E+05 -3.245099E-10 -8.018694E-10
       255  14 -6.034856E+04 -2.587698E+02 -3.038869E+02  1.444760E+05  3.768178E-10 -4.486401E-10
       255  15 -6.020719E+04 -8.745652E+01 -3.331608E+02  1.686999E+05  5.909113E-10 -1.294526E-10
       255  16 -1.290315E+06 -3.052312E+05 -2.931636E+05  1.690428E+05 -1.364053E-10 -6.064791E-10
       255  17 -1.095894E+06 -2.498921E+05 -2.122048E+05  1.446088E+05  9.405964E-10 -1.906156E-10
       255  18 -9.091892E+05 -2.025026E+05 -1.629319E+05  1.686279E+05  8.586436E-10 -2.849808E-10
       255  19  1.171048E+06  3.041761E+05  2.923503E+05  1.683552E+05 -7.218792E+04  1.594800E+04
       255  20  9.762182E+05  2.493101E+05  2.115463E+05  1.443417E+05 -2.680917E+04  5.029669E+04
       255  21  7.894707E+05  2.022883E+05  1.622386E+05  1.687726E+05  1.853777E+04  5.308034E+04
       255  22 -6.033160E+04 -4.735014E+02 -3.583156E+02  1.686999E+05  1.122270E+02  1.593452E+04
       255  23 -6.034788E+04 -2.560527E+02 -2.991319E+02  1.444760E+05 -4.291706E+01  5.030287E+04
       255  24 -6.020643E+04 -8.443085E+01 -3.278658E+02  1.686999E+05 -2.150306E+02  5.308215E+04
       255  25 -1.290310E+06 -3.052295E+05 -2.931533E+05  1.690437E+05  7.226988E+04  1.592113E+04
       255  26 -1.095892E+06 -2.498892E+05 -2.121987E+05  1.446099E+05  2.667951E+04  5.030907E+04
       255  27 -9.091880E+05 -2.024995E+05 -1.629259E+05  1.686271E+05 -1.894279E+04  5.308397E+04
       256   1  6.591219E+05  1.712170E+05  1.368093E+05  1.692012E+05 -1.288601E+04 -4.539076E+04
       256   2  4.683326E+05  1.255385E+05  9.846260E+04  1.440289E+05 -1.567479E+04 -3.517899E+04
       256   3  2.781050E+05  8.039071E+04  6.206861E+04  1.691834E+05 -1.846815E+04 -2.280479E+04
       256   4 -6.020493E+04 -3.860273E+01 -4.069400E+02  1.691180E+05  2.738313E+02 -4.539089E+04
       256   5 -6.016411E+04  4.245720E+01 -6.546523E+02  1.439533E+05  5.991383E+02 -3.517476E+04
       256   6 -6.013980E+04  1.151083E+02 -1.111669E+03  1.691180E+05  9.189854E+02 -2.279522E+04
       256   7 -7.790331E+05 -1.713246E+05 -1.376459E+05  1.690348E+05  1.341880E+04 -4.539102E+04
       256   8 -5.883903E+05 -1.254696E+05 -9.978301E+04  1.438777E+05  1.685956E+04 -3.517053E+04
       256   9 -3.982731E+05 -8.016690E+04 -6.429544E+04  1.690526E+05  2.029583E+04 -2.278565E+04
       256  10  6.591212E+05  1.712148E+05  1.368051E+05  1.692007E+05 -2.575324E-10  1.576065E-10
       256  11  4.683320E+05  1.255371E+05  9.845981E+04  1.440285E+05 -2.211966E-10 -7.877745E-10
       256  12  2.781045E+05  8.039006E+04  6.206699E+04  1.691830E+05  1.754940E-10 -3.765105E-10
       256  13 -6.020548E+04 -4.081513E+01 -4.108119E+02  1.691180E+05  8.290778E-10 -5.752242E-11
       256  14 -6.016444E+04  4.112853E+01 -6.569780E+02  1.439533E+05 -1.933933E-10 -3.399301E-10
       256  15 -6.013994E+04  1.145501E+02 -1.112647E+03  1.691180E+05  4.055273E-10 -3.923525E-10
       256  16 -7.790338E+05 -1.713268E+05 -1.376501E+05  1.690352E+05  7.956657E-10 -3.791303E-10
       256  17 -5.883909E+05 -1.254710E+05 -9.978587E+04  1.438781E+05  6.398856E-10 -2.142984E-10
       256  18 -3.982737E+05 -8.016757E+04 -6.429719E+04  1.690530E+05 -2.461891E-10  2.316779E-10
       256  19  6.591219E+05  1.712170E+05  1.368093E+05  1.692012E+05  1.288601E+04  4.539076E+04
       256  20  4.683326E+05  1.255385E+05  9.846260E+04  1.440289E+05  1.567479E+04  3.517899E+04
       256  21  2.781050E+05  8.039071E+04  6.206861E+04  1.691834E+05  1.846815E+04  2.280479E+04
       256  22 -6.020493E+04 -3.860273E+01 -4.069400E+02  1.691180E+05 -2.738313E+02  4.539089E+04
       256  23 -6.016411E+04  4.245720E+01 -6.546523E+02  1.439533E+05 -5.991383E+02  3.517476E+04
       256  24 -6.013980E+04  1.151083E+02 -1.111669E+03  1.691180E+05 -9.189854E+02  2.279522E+04
       256  25 -7.790331E+05 -1.713246E+05 -1.376459E+05  1.690348E+05 -1.341880E+04  4.539102E+04
       256  26 -5.883903E+05 -1.254696E+05 -9.978301E+04  1.438777E+05 -1.685956E+04  3.517053E+04
       256  27 -3.982731E+05 -8.016690E+04 -6.429544E+04  1.690526E+05 -2.029583E+04  2.278565E+04
       257   1  1.489254E+05  4.965975E+04  3.688974E+04  1.690436E+05 -1.807583E+04 -1.486597E+04
       257   2 -4.122735E+04  4.370066E+03  1.932400E+02  1.439908E+05 -1.516257E+04 -2.090955E+03
       257   3 -2.319738E+05 -4.178267E+04 -3.862807E+04  1.693302E+05 -1.225018E+04  9.543937E+03
       257   4 -6.019773E+04  1.676209E+02 -1.461561E+03  1.691319E+05  1.140372E+03 -1.485522E+04
       257   5 -6.002633E+04  6.042963E+01 -2.554929E+03  1.439360E+05  2.409339E+03 -2.081017E+03
       257   6 -6.019544E+04 -6.218621E+02 -4.630483E+03  1.691324E+05  3.678257E+03  9.553129E+03
       257   7 -2.692776E+05 -4.932680E+04 -3.981326E+04  1.692202E+05  2.035028E+04 -1.484447E+04
       257   8 -7.882430E+04 -4.249058E+03 -5.301944E+03  1.438812E+05  1.998073E+04 -2.071083E+03
       257   9  1.116117E+05  4.053729E+04  2.936660E+04  1.689344E+05  1.961101E+04  9.562310E+03
       257  10  1.489250E+05  4.965943E+04  3.688871E+04  1.690434E+05  4.373096E-10 -3.198931E-10
       257  11 -4.122760E+04  4.370000E+03  1.927998E+02  1.439907E+05  4.148467E-10 -4.363214E-10
       257  12 -2.319740E+05 -4.178281E+04 -3.862852E+04  1.693303E+05  9.873619E-10 -8.253690E-10
       257  13 -6.019779E+04  1.673836E+02 -1.461978E+03  1.691319E+05  6.963493E-10 -2.637708E-10
       257  14 -6.002634E+04  6.042342E+01 -2.554949E+03  1.439360E+05 -2.690087E-11 -4.068074E-10
       257  15 -6.019547E+04 -6.219637E+02 -4.630680E+03  1.691323E+05  4.799440E-10 -5.854315E-10
       257  16 -2.692781E+05 -4.932714E+04 -3.981445E+04  1.692204E+05 -2.528809E-10  3.611322E-11
       257  17 -7.882473E+04 -4.249169E+03 -5.302703E+03  1.438812E+05  1.926576E-10  7.788923E-10
       257  18  1.116112E+05  4.053709E+04  2.936570E+04  1.689343E+05 -9.974658E-10 -1.516035E-10
       257  19  1.489254E+05  4.965975E+04  3.688974E+04  1.690436E+05  1.807583E+04  1.486597E+04
       257  20 -4.122735E+04  4.370066E+03  1.932400E+02  1.439908E+05  1.516257E+04  2.090955E+03
       257  21 -2.319738E+05 -4.178267E+04 -3.862807E+04  1.693302E+05  1.225018E+04 -9.543937E+03
       257  22 -6.019773E+04  1.676209E+02 -1.461561E+03  1.691319E+05 -1.140372E+03  1.485522E+04
       257  23 -6.002633E+04  6.042963E+01 -2.554929E+03  1.439360E+05 -2.409339E+03  2.081017E+03
       257  24 -6.019544E+04 -6.218621E+02 -4.630483E+03  1.691324E+05 -3.678257E+03 -9.553129E+03
       257  25 -2.692776E+05 -4.932680E+04 -3.981326E+04  1.692202E+05 -2.035028E+04  1.484447E+04
       257  26 -7.882430E+04 -4.249058E+03 -5.301944E+03  1.438812E+05 -1.998073E+04  2.071083E+03
       257  27  1.116117E+05  4.053729E+04  2.936660E+04  1.689344E+05 -1.961101E+04 -9.562310E+03
       258   1 -3.624977E+05 -7.199248E+04 -6.512132E+04  1.669713E+05 -1.466669E+04  1.735300E+04
       258   2 -5.487260E+05 -1.215577E+05 -1.130850E+05  1.490983E+05  1.717726E+04  2.155047E+04
       258   3 -7.435764E+05 -1.892125E+05 -1.863147E+05  1.805393E+05  4.901265E+04  7.524640E+03
       258   4 -6.104178E+04  1.375709E+02 -6.014302E+03  1.688917E+05  4.465281E+03  1.736299E+04
       258   5 -5.902445E+04 -3.131934E+03 -1.081179E+04  1.442384E+05  1.008917E+04  2.154593E+04
       258   6 -6.110196E+04 -1.992702E+04 -2.265385E+04  1.688989E+05  1.571464E+04  7.511413E+03
       258   7  2.405021E+05  7.226235E+04  5.308971E+04  1.708132E+05  2.360634E+04  1.737310E+04
       258   8  4.309043E+05  1.152786E+05  9.144831E+04  1.393746E+05  2.995586E+03  2.154150E+04
       258   9  6.218021E+05  1.493257E+05  1.409783E+05  1.572455E+05 -1.761987E+04  7.499447E+03
       258  10 -3.624980E+05 -7.199286E+04 -6.512229E+04  1.669715E+05 -2.270736E-10 -9.891346E-10
       258  11 -5.487265E+05 -1.215583E+05 -1.130864E+05  1.490980E+05  5.168647E-11 -9.308734E-10
       258  12 -7.435790E+05 -1.892132E+05 -1.863194E+05  1.805390E+05 -7.088928E-10 -1.157172E-10
       258  13 -6.104189E+04  1.372418E+02 -6.014905E+03  1.688917E+05 -6.224132E-11 -2.192680E-09
       258  14 -5.902468E+04 -3.132460E+03 -1.081285E+04  1.442382E+05  1.155861E-10  7.196761E-10
       258  15 -6.110224E+04 -1.992715E+04 -2.265442E+04  1.688988E+05  3.676358E-10  4.563169E-11
       258  16  2.405014E+05  7.226188E+04  5.308810E+04  1.708128E+05  4.993728E-10 -3.940537E-10
       258  17  4.309042E+05  1.152781E+05  9.144742E+04  1.393746E+05  5.936927E-10  5.813149E-10
       258  18  6.218018E+05  1.493256E+05  1.409776E+05  1.572456E+05  1.235737E-10 -1.561818E-10
       258  19 -3.624977E+05 -7.199248E+04 -6.512132E+04  1.669713E+05  1.466669E+04 -1.735300E+04
       258  20 -5.487260E+05 -1.215577E+05 -1.130850E+05  1.490983E+05 -1.717726E+04 -2.155047E+04
       258  21 -7.435764E+05 -1.892125E+05 -1.863147E+05  1.805393E+05 -4.901265E+04 -7.524640E+03
       258  22 -6.104178E+04  1.375709E+02 -6.014302E+03  1.688917E+05 -4.465281E+03 -1.736299E+04
       258  23 -5.902445E+04 -3.131934E+03 -1.081179E+04  1.442384E+05 -1.008917E+04 -2.154593E+04
       258  24 -6.110196E+04 -1.992702E+04 -2.265385E+04  1.688989E+05 -1.571464E+04 -7.511413E+03
       258  25  2.405021E+05  7.226235E+04  5.308971E+04  1.708132E+05 -2.360634E+04 -1.737310E+04
       258  26  4.309043E+05  1.152786E+05  9.144831E+04  1.393746E+05 -2.995586E+03 -2.154150E+04
       258  27  6.218021E+05  1.493257E+05  1.409783E+05  1.572455E+05  1.761987E+04 -7.499447E+03
       259   1 -2.842853E+05 -1.204889E+06 -2.746994E+05  3.106570E+05 -1.225419E+04 -5.729907E+04
       259   2 -1.920770E+05 -8.487238E+05 -1.622176E+05  2.655088E+05 -3.417810E+04 -1.528542E+04
       259   3 -1.062476E+05 -4.995799E+05 -7.874178E+04  3.118305E+05 -2.523462E+04  2.673332E+04
       259   4  1.674659E+03 -5.279263E+04  2.109997E+03  3.126950E+05 -1.219139E+04 -3.509780E+03
       259   5  5.620177E+02 -5.299193E+04  4.798727E+03  2.669642E+05 -3.416278E+04 -5.874338E+03
       259   6  7.941426E+02 -5.261310E+04  9.340898E+03  3.126956E+05 -2.528488E+04 -8.258873E+03
       259   7  2.875396E+05  1.100526E+06  2.788360E+05  3.147362E+05 -1.212832E+04  5.037909E+04
       259   8  1.931604E+05  7.433390E+05  1.717801E+05  2.684211E+05 -3.414742E+04  3.548625E+03
       259   9  1.078245E+05  3.945477E+05  9.741842E+04  3.135613E+05 -2.533521E+04 -4.327574E+04
       259  10 -2.842864E+05 -1.204892E+06 -2.747059E+05  3.106564E+05  1.506385E-10  3.379590E-10
       259  11 -1.920783E+05 -8.487243E+05 -1.622203E+05  2.655084E+05  7.581500E-10 -5.100192E-11
       259  12 -1.062485E+05 -4.995808E+05 -7.874432E+04  3.118311E+05 -2.406868E-10  6.245009E-10
       259  13  1.674496E+03 -5.279269E+04  2.109694E+03  3.126950E+05 -2.756881E-10 -1.321040E-09
       259  14  5.607554E+02 -5.299228E+04  4.796469E+03  2.669640E+05  1.207407E-09  8.884671E-10
       259  15  7.934380E+02 -5.261335E+04  9.339569E+03  3.126955E+05  3.875444E-10 -1.432115E-09
       259  16  2.875387E+05  1.100524E+06  2.788309E+05  3.147367E+05 -1.178758E-10 -3.060600E-10
       259  17  1.931592E+05  7.433387E+05  1.717778E+05  2.684212E+05  7.721465E-11 -8.721890E-10
       259  18  1.078233E+05  3.945456E+05  9.741370E+04  3.135604E+05  6.466128E-10 -2.880482E-10
       259  19 -2.842853E+05 -1.204889E+06 -2.746994E+05  3.106570E+05  1.225419E+04  5.729907E+04
       259  20 -1.920770E+05 -8.487238E+05 -1.622176E+05  2.655088E+05  3.417810E+04  1.528542E+04
       259  21 -1.062476E+05 -4.995799E+05 -7.874178E+04  3.118305E+05  2.523462E+04 -2.673332E+04
       259  22  1.674659E+03 -5.279263E+04  2.109997E+03  3.126950E+05  1.219139E+04  3.509780E+03
       259  23  5.620177E+02 -5.299193E+04  4.798727E+03  2.669642E+05  3.416278E+04  5.874338E+03
       259  24  7.941426E+02 -5.261310E+04  9.340898E+03  3.126956E+05  2.528488E+04  8.258873E+03
       259  25  2.875396E+05  1.100526E+06  2.788360E+05  3.147362E+05  1.212832E+04 -5.037909E+04
       259  26  1.931604E+05  7.433390E+05  1.717801E+05  2.684211E+05  3.414742E+04 -3.548625E+03
       259  27  1.078245E+05  3.945477E+05  9.741842E+04  3.135613E+05  2.533521E+04  4.327574E+04
       260   1 -4.915578E+04 -2.590453E+05 -2.907940E+04  3.114357E+05 -1.078347E+04  1.977382E+04
       260   2  3.579994E+04  9.214600E+04  4.950836E+04  2.670279E+05  9.761968E+03  7.919440E+03
       260   3  1.263963E+05  4.462080E+05  1.371549E+05  3.157658E+05  2.979697E+04 -3.938437E+03
       260   4  5.613164E+02 -5.212630E+04  1.252214E+04  3.130711E+05 -1.082870E+04 -1.020020E+04
       260   5  1.226833E+03 -5.345711E+04  2.225053E+04  2.664930E+05  9.719711E+03 -2.132410E+04
       260   6  7.414881E+03 -5.215858E+04  4.053675E+04  3.130608E+05  2.975739E+04 -3.244508E+04
       260   7  5.027626E+04  1.548354E+05  5.412487E+04  3.147070E+05 -1.087408E+04 -4.018402E+04
       260   8 -3.334704E+04 -1.990379E+05 -5.005007E+03  2.659583E+05  9.677497E+03 -5.056096E+04
       260   9 -1.115809E+05 -5.502849E+05 -5.609006E+04  3.103580E+05  2.971804E+04 -6.092935E+04
       260  10 -4.915601E+04 -2.590457E+05 -2.908036E+04  3.114359E+05 -1.488521E-10 -2.767897E-10
       260  11  3.579982E+04  9.214590E+04  4.950806E+04  2.670278E+05 -5.100191E-10 -1.654648E-10
       260  12  1.263953E+05  4.462077E+05  1.371532E+05  3.157659E+05  6.026527E-10  1.317683E-09
       260  13  5.611626E+02 -5.212645E+04  1.252172E+04  3.130710E+05 -2.446710E-10 -2.202143E-09
       260  14  1.226609E+03 -5.345762E+04  2.224949E+04  2.664932E+05  1.713445E-09  1.044739E-09
       260  15  7.413646E+03 -5.215995E+04  4.053311E+04  3.130616E+05 -1.066060E-09 -1.411304E-09
       260  16  5.027570E+04  1.548337E+05  5.412162E+04  3.147067E+05  8.346419E-11  1.881363E-10
       260  17 -3.334782E+04 -1.990406E+05 -5.009990E+03  2.659587E+05  2.178738E-10 -9.960917E-10
       260  18 -1.115828E+05 -5.502891E+05 -5.609870E+04  3.103594E+05  3.090162E-10 -1.096100E-09
       260  19 -4.915578E+04 -2.590453E+05 -2.907940E+04  3.114357E+05  1.078347E+04 -1.977382E+04
       260  20  3.579994E+04  9.214600E+04  4.950836E+04  2.670279E+05 -9.761968E+03 -7.919440E+03
       260  21  1.263963E+05  4.462080E+05  1.371549E+05  3.157658E+05 -2.979697E+04  3.938437E+03
       260  22  5.613164E+02 -5.212630E+04  1.252214E+04  3.130711E+05  1.082870E+04  1.020020E+04
       260  23  1.226833E+03 -5.345711E+04  2.225053E+04  2.664930E+05 -9.719711E+03  2.132410E+04
       260  24  7.414881E+03 -5.215858E+04  4.053675E+04  3.130608E+05 -2.975739E+04  3.244508E+04
       260  25  5.027626E+04  1.548354E+05  5.412487E+04  3.147070E+05  1.087408E+04  4.018402E+04
       260  26 -3.334704E+04 -1.990379E+05 -5.005007E+03  2.659583E+05 -9.677497E+03  5.056096E+04
       260  27 -1.115809E+05 -5.502849E+05 -5.609006E+04  3.103580E+05 -2.971804E+04  6.092935E+04
       261   1  1.768610E+05  6.941934E+05  1.959168E+05  2.973461E+05  4.418987E+04 -4.556297E+03
       261   2  2.906877E+05  1.024243E+06  3.199141E+05  3.116435E+05  4.929431E+04 -1.084713E+05
       261   3  5.333059E+05  1.400117E+06  5.436915E+05  4.169550E+05  1.643805E+04 -2.124328E+05
       261   4  5.386062E+02 -4.473433E+04  5.270673E+04  3.126067E+05  4.414594E+04 -3.942780E+04
       261   5  2.818797E+04 -6.300406E+04  9.458611E+04  2.670269E+05  4.933078E+04 -8.855760E+04
       261   6  1.752502E+05 -4.497277E+04  1.983073E+05  3.124348E+05  1.654464E+04 -1.376707E+05
       261   7 -1.758148E+05 -7.831347E+05 -9.052427E+04  3.278485E+05  4.410025E+04 -7.425875E+04
       261   8 -2.343792E+05 -1.149127E+06 -1.308037E+05  2.224892E+05  4.936444E+04 -6.867807E+04
       261   9 -1.829131E+05 -1.488116E+06 -1.471975E+05  2.081577E+05  1.662628E+04 -6.308131E+04
       261  10  1.768589E+05  6.941929E+05  1.959131E+05  2.973463E+05  4.571550E-11 -2.408898E-10
       261  11  2.906820E+05  1.024230E+06  3.198874E+05  3.116478E+05 -7.109157E-11 -5.478678E-10
       261  12  5.332935E+05  1.400069E+06  5.436064E+05  4.169578E+05  3.227646E-10  2.349783E-10
       261  13  5.360949E+02 -4.473653E+04  5.270014E+04  3.126081E+05  5.943323E-10 -1.885844E-09
       261  14  2.818325E+04 -6.301314E+04  9.456679E+04  2.670304E+05  7.006708E-10  7.548526E-10
       261  15  1.752448E+05 -4.499320E+04  1.982712E+05  3.124366E+05  3.958618E-10 -6.317429E-10
       261  16 -1.758183E+05 -7.831412E+05 -9.053831E+04  3.278512E+05 -2.118448E-10  2.126987E-10
       261  17 -2.343831E+05 -1.149133E+06 -1.308172E+05  2.224919E+05 -3.498830E-10 -8.977864E-11
       261  18 -1.829145E+05 -1.488120E+06 -1.472055E+05  2.081585E+05  2.661389E-10 -1.336675E-10
       261  19  1.768610E+05  6.941934E+05  1.959168E+05  2.973461E+05 -4.418987E+04  4.556297E+03
       261  20  2.906877E+05  1.024243E+06  3.199141E+05  3.116435E+05 -4.929431E+04  1.084713E+05
       261  21  5.333059E+05  1.400117E+06  5.436915E+05  4.169550E+05 -1.643805E+04  2.124328E+05
       261  22  5.386062E+02 -4.473433E+04  5.270673E+04  3.126067E+05 -4.414594E+04  3.942780E+04
       261  23  2.818797E+04 -6.300406E+04  9.458611E+04  2.670269E+05 -4.933078E+04  8.855760E+04
       261  24  1.752502E+05 -4.497277E+04  1.983073E+05  3.124348E+05 -1.654464E+04  1.376707E+05
       261  25 -1.758148E+05 -7.831347E+05 -9.052427E+04  3.278485E+05 -4.410025E+04  7.425875E+04
       261  26 -2.343792E+05 -1.149127E+06 -1.308037E+05  2.224892E+05 -4.936444E+04  6.867807E+04
       261  27 -1.829131E+05 -1.488116E+06 -1.471975E+05  2.081577E+05 -1.662628E+04  6.308131E+04
       262   1  1.994860E+06  4.921076E+05  4.680839E+05  3.151276E+05  9.650270E+04 -2.647689E+04
       262   2  1.615568E+06  4.113873E+05  3.378995E+05  2.775576E+05  2.645616E+04 -8.254104E+04
       262   3  1.244283E+06  3.244517E+05  2.517364E+05  3.357181E+05 -4.355211E+04 -8.414392E+04
       262   4 -1.159451E+05 -2.999424E+04 -3.415028E+04  3.317721E+05 -2.359949E+04 -2.656467E+04
       262   5 -1.128593E+05 -4.825730E+03 -1.640614E+04  2.838832E+05 -1.500886E+04 -8.260146E+04
       262   6 -1.155322E+05  4.878225E+02 -9.163112E+03  3.317435E+05 -6.424653E+03 -8.410563E+04
       262   7 -2.222638E+06 -5.524083E+05 -5.366421E+05  3.483581E+05 -1.432962E+05 -2.665911E+04
       262   8 -1.838450E+06 -4.212252E+05 -3.708644E+05  2.901897E+05 -5.636068E+04 -8.266283E+04
       262   9 -1.473567E+06 -3.235846E+05 -2.701423E+05  3.277768E+05  3.062351E+04 -8.406775E+04
       262  10  1.994850E+06  4.921043E+05  4.680651E+05  3.151296E+05  1.598912E-09 -4.615631E-10
       262  11  1.615565E+06  4.113798E+05  3.378854E+05  2.775593E+05  1.606327E-10 -2.377331E-09
       262  12  1.244279E+06  3.244436E+05  2.517195E+05  3.357151E+05  7.103044E-10 -2.377852E-09
       262  13 -1.159458E+05 -2.999515E+04 -3.415265E+04  3.317716E+05  2.491851E-11  2.984969E-12
       262  14 -1.128613E+05 -4.833116E+03 -1.641938E+04  2.838822E+05 -5.414910E-10 -1.800769E-09
       262  15 -1.155341E+05  4.802163E+02 -9.176481E+03  3.317431E+05 -6.882319E-11 -4.725765E-10
       262  16 -2.222661E+06 -5.524146E+05 -5.366821E+05  3.483551E+05 -1.799473E-09 -2.305290E-10
       262  17 -1.838455E+06 -4.212334E+05 -3.708832E+05  2.901860E+05  1.150240E-09 -3.317127E-09
       262  18 -1.473570E+06 -3.235924E+05 -2.701573E+05  3.277789E+05  4.972563E-10 -3.983672E-09
       262  19  1.994860E+06  4.921076E+05  4.680839E+05  3.151276E+05 -9.650270E+04  2.647689E+04
       262  20  1.615568E+06  4.113873E+05  3.378995E+05  2.775576E+05 -2.645616E+04  8.254104E+04
       262  21  1.244283E+06  3.244517E+05  2.517364E+05  3.357181E+05  4.355211E+04  8.414392E+04
       262  22 -1.159451E+05 -2.999424E+04 -3.415028E+04  3.317721E+05  2.359949E+04  2.656467E+04
       262  23 -1.128593E+05 -4.825730E+03 -1.640614E+04  2.838832E+05  1.500886E+04  8.260146E+04
       262  24 -1.155322E+05  4.878225E+02 -9.163112E+03  3.317435E+05  6.424653E+03  8.410563E+04
       262  25 -2.222638E+06 -5.524083E+05 -5.366421E+05  3.483581E+05  1.432962E+05  2.665911E+04
       262  26 -1.838450E+06 -4.212252E+05 -3.708644E+05  2.901897E+05  5.636068E+04  8.266283E+04
       262  27 -1.473567E+06 -3.235846E+05 -2.701423E+05  3.277768E+05 -3.062351E+04  8.406775E+04
       263   1  9.894038E+05  2.623417E+05  2.040418E+05  3.332196E+05 -3.271222E+04 -6.894383E+04
       263   2  6.144947E+05  1.736635E+05  1.328708E+05  2.836795E+05 -3.593649E+04 -4.806041E+04
       263   3  2.400062E+05  8.522976E+04  6.379939E+04  3.331567E+05 -3.917711E+04 -2.350623E+04
       263   4 -1.142679E+05 -5.106334E+02 -7.144716E+03  3.324753E+05 -5.238647E+03 -6.891031E+04
       263   5 -1.138658E+05  6.291896E+02 -4.166214E+03  2.829617E+05 -3.182510E+03 -4.800926E+04
       263   6 -1.140912E+05  1.104537E+03 -2.753158E+03  3.324728E+05 -1.144515E+03 -2.343502E+04
       263   7 -1.216766E+06 -2.634343E+05 -2.183839E+05  3.317316E+05  2.218729E+04 -6.887681E+04
       263   8 -8.417117E+05 -1.724354E+05 -1.412224E+05  2.822444E+05  2.953402E+04 -4.795815E+04
       263   9 -4.680644E+05 -8.302718E+04 -6.930573E+04  3.317891E+05  3.686693E+04 -2.336386E+04
       263  10  9.894014E+05  2.623363E+05  2.040308E+05  3.332178E+05 -3.455746E-09 -2.888115E-09
       263  11  6.144927E+05  1.736607E+05  1.328641E+05  2.836781E+05 -1.152073E-09  1.185852E-09
       263  12  2.400044E+05  8.522875E+04  6.379547E+04  3.331560E+05 -1.163529E-11  1.827712E-09
       263  13 -1.142693E+05 -5.157394E+02 -7.153690E+03  3.324750E+05  1.094883E-09 -2.030508E-09
       263  14 -1.138664E+05  6.267120E+02 -4.170563E+03  2.829615E+05 -2.337077E-10 -6.613426E-11
       263  15 -1.140914E+05  1.103947E+03 -2.754192E+03  3.324728E+05  5.965394E-11 -1.673509E-09
       263  16 -1.216768E+06 -2.634396E+05 -2.183937E+05  3.317328E+05  3.079637E-09 -2.878780E-10
       263  17 -8.417133E+05 -1.724381E+05 -1.412284E+05  2.822455E+05  1.800649E-09  1.045577E-09
       263  18 -4.680660E+05 -8.302813E+04 -6.930932E+04  3.317898E+05  1.246541E-10  3.132425E-10
       263  19  9.894038E+05  2.623417E+05  2.040418E+05  3.332196E+05  3.271222E+04  6.894383E+04
       263  20  6.144947E+05  1.736635E+05  1.328708E+05  2.836795E+05  3.593649E+04  4.806041E+04
       263  21  2.400062E+05  8.522976E+04  6.379939E+04  3.331567E+05  3.917711E+04  2.350623E+04
       263  22 -1.142679E+05 -5.106334E+02 -7.144716E+03  3.324753E+05  5.238647E+03  6.891031E+04
       263  23 -1.138658E+05  6.291896E+02 -4.166214E+03  2.829617E+05  3.182510E+03  4.800926E+04
       263  24 -1.140912E+05  1.104537E+03 -2.753158E+03  3.324728E+05  1.144515E+03  2.343502E+04
       263  25 -1.216766E+06 -2.634343E+05 -2.183839E+05  3.317315E+05 -2.218729E+04  6.887681E+04
       263  26 -8.417117E+05 -1.724354E+05 -1.412224E+05  2.822444E+05 -2.953402E+04  4.795815E+04
       263  27 -4.680644E+05 -8.302718E+04 -6.930573E+04  3.317891E+05 -3.686693E+04  2.336386E+04
       264   1 -1.385420E+04  2.467682E+04  1.529783E+04  3.325881E+05 -3.860681E+04 -7.891584E+03
       264   2 -3.878069E+05 -6.444607E+04 -5.481576E+04  2.827026E+05 -3.341863E+04  1.702059E+04
       264   3 -7.627956E+05 -1.543950E+05 -1.286061E+05  3.318930E+05 -2.822498E+04  3.910769E+04
       264   4 -1.140321E+05  1.096200E+03 -2.422323E+03  3.324836E+05 -7.222411E+02 -7.818581E+03
       264   5 -1.138329E+05  8.649786E+02 -2.317975E+03  2.829477E+05  3.896974E+02  1.708190E+04
       264   6 -1.140985E+05  5.222720E+02 -3.059707E+03  3.324845E+05  1.510119E+03  3.915825E+04
       264   7 -2.141971E+05 -2.248420E+04 -2.013746E+04  3.323792E+05  3.715639E+04 -7.745583E+03
       264   8  1.602158E+05  6.617221E+04  5.018068E+04  2.831928E+05  3.421261E+04  1.714322E+04
       264   9  5.350053E+05  1.554149E+05  1.224703E+05  3.330764E+05  3.127561E+04  3.920884E+04
       264  10 -1.385581E+04  2.467635E+04  1.529492E+04  3.325879E+05 -6.459897E-10  2.388919E-09
       264  11 -3.878082E+05 -6.444669E+04 -5.481841E+04  2.827031E+05 -3.543457E-10  1.588517E-09
       264  12 -7.627969E+05 -1.543968E+05 -1.286105E+05  3.318939E+05  2.007512E-09 -8.787446E-10
       264  13 -1.140321E+05  1.096134E+03 -2.422438E+03  3.324836E+05  1.091816E-09 -2.063212E-09
       264  14 -1.138330E+05  8.646652E+02 -2.318524E+03  2.829477E+05 -1.110057E-09  1.932961E-09
       264  15 -1.140989E+05  5.206249E+02 -3.062592E+03  3.324844E+05  5.833953E-10  2.260322E-09
       264  16 -2.141986E+05 -2.248464E+04 -2.014016E+04  3.323794E+05  4.748018E-10  1.191364E-09
       264  17  1.602145E+05  6.617158E+04  5.017793E+04  2.831923E+05  1.053668E-09  2.026981E-09
       264  18  5.350038E+05  1.554130E+05  1.224656E+05  3.330754E+05 -1.935351E-09  5.060594E-10
       264  19 -1.385420E+04  2.467682E+04  1.529783E+04  3.325881E+05  3.860681E+04  7.891584E+03
       264  20 -3.878069E+05 -6.444607E+04 -5.481576E+04  2.827026E+05  3.341863E+04 -1.702059E+04
       264  21 -7.627956E+05 -1.543950E+05 -1.286061E+05  3.318930E+05  2.822498E+04 -3.910769E+04
       264  22 -1.140321E+05  1.096200E+03 -2.422323E+03  3.324836E+05  7.222411E+02  7.818581E+03
       264  23 -1.138329E+05  8.649786E+02 -2.317975E+03  2.829477E+05 -3.896974E+02 -1.708190E+04
       264  24 -1.140985E+05  5.222720E+02 -3.059707E+03  3.324845E+05 -1.510119E+03 -3.915825E+04
       264  25 -2.141971E+05 -2.248420E+04 -2.013746E+04  3.323792E+05 -3.715639E+04  7.745583E+03
       264  26  1.602158E+05  6.617221E+04  5.018068E+04  2.831928E+05 -3.421261E+04 -1.714322E+04
       264  27  5.350053E+05  1.554149E+05  1.224703E+05  3.330764E+05 -3.127561E+04 -3.920884E+04
       265   1 -1.018451E+06 -2.150807E+05 -1.787570E+05  3.299029E+05 -3.539320E+04  5.439330E+04
       265   2 -1.386569E+06 -3.088606E+05 -2.696810E+05  2.852273E+05  3.033352E+04  5.876613E+04
       265   3 -1.767579E+06 -4.205902E+05 -4.079452E+05  3.370546E+05  9.604571E+04  1.967013E+04
       265   4 -1.145516E+05  8.426173E+02 -3.680754E+03  3.319095E+05  1.988815E+03  5.445087E+04
       265   5 -1.136282E+05 -1.357254E+03 -6.214770E+03  2.836694E+05  5.243485E+03  5.872132E+04
       265   6 -1.148564E+05 -1.062440E+04 -1.264719E+04  3.319237E+05  8.525744E+03  1.956275E+04
       265   7  7.901365E+05  2.167180E+05  1.713624E+05  3.339185E+05  3.942410E+04  5.450864E+04
       265   8  1.160852E+06  3.060437E+05  2.571658E+05  2.821074E+05 -1.989720E+04  5.867670E+04
       265   9  1.540391E+06  3.991476E+05  3.824870E+05  3.267777E+05 -7.922672E+04  1.945702E+04
       265  10 -1.018453E+06 -2.150843E+05 -1.787649E+05  3.299044E+05  1.106124E-09 -6.317661E-10
       265  11 -1.386571E+06 -3.088646E+05 -2.696892E+05  2.852259E+05  1.759866E-10  2.498954E-09
       265  12 -1.767589E+06 -4.205931E+05 -4.079633E+05  3.370531E+05  4.780293E-11  9.932880E-10
       265  13 -1.145524E+05  8.394327E+02 -3.686332E+03  3.319094E+05  8.919062E-10  4.071574E-10
       265  14 -1.136292E+05 -1.360964E+03 -6.221300E+03  2.836691E+05 -1.097536E-09  3.180637E-09
       265  15 -1.148566E+05 -1.062483E+04 -1.264804E+04  3.319236E+05  6.131532E-10 -1.287421E-10
       265  16  7.901340E+05  2.167144E+05  1.713540E+05  3.339168E+05 -1.215339E-09  9.447571E-10
       265  17  1.160851E+06  3.060399E+05  2.571586E+05  2.821083E+05 -3.291740E-10  9.327162E-10
       265  18  1.540384E+06  3.991455E+05  3.824745E+05  3.267790E+05 -7.539543E-10 -4.084954E-10
       265  19 -1.018451E+06 -2.150807E+05 -1.787570E+05  3.299029E+05  3.539320E+04 -5.439330E+04
       265  20 -1.386569E+06 -3.088606E+05 -2.696810E+05  2.852273E+05 -3.033352E+04 -5.876613E+04
       265  21 -1.767579E+06 -4.205902E+05 -4.079452E+05  3.370546E+05 -9.604571E+04 -1.967013E+04
       265  22 -1.145516E+05  8.426173E+02 -3.680754E+03  3.319095E+05 -1.988815E+03 -5.445087E+04
       265  23 -1.136282E+05 -1.357254E+03 -6.214770E+03  2.836694E+05 -5.243485E+03 -5.872132E+04
       265  24 -1.148564E+05 -1.062440E+04 -1.264719E+04  3.319237E+05 -8.525744E+03 -1.956275E+04
       265  25  7.901365E+05  2.167180E+05  1.713624E+05  3.339185E+05 -3.942410E+04 -5.450864E+04
       265  26  1.160852E+06  3.060437E+05  2.571658E+05  2.821074E+05  1.989720E+04 -5.867670E+04
       265  27  1.540391E+06  3.991476E+05  3.824870E+05  3.267777E+05  7.922672E+04 -1.945702E+04
       266   1 -3.021051E+05 -1.154920E+06 -2.901198E+05  3.409480E+05 -1.329154E+04 -5.365153E+04
       266   2 -2.077696E+05 -7.593206E+05 -1.721518E+05  2.938586E+05 -3.697640E+04 -9.912492E+03
       266   3 -1.138552E+05 -3.692979E+05 -8.280436E+04  3.486857E+05 -2.678660E+04  3.385350E+04
       266   4  1.132730E+04  1.079122E+05  1.335428E+04  3.484196E+05 -1.325499E+04  4.814730E+03
       266   5  1.884285E+03  1.066504E+05  9.769064E+03  2.974700E+05 -3.696521E+04 -1.548668E+02
       266   6  4.920736E+02  1.081301E+05  1.142650E+04  3.484254E+05 -2.682285E+04 -5.126329E+03
       266   7  3.246456E+05  1.372213E+06  3.167279E+05  3.559059E+05 -1.321709E+04  6.339961E+04
       266   8  2.114901E+05  9.733306E+05  1.916483E+05  3.010862E+05 -3.695391E+04  9.616164E+03
       266   9  1.148264E+05  5.857796E+05  1.056519E+05  3.481648E+05 -2.685905E+04 -4.413551E+04
       266  10 -3.021060E+05 -1.154923E+06 -2.901256E+05  3.409474E+05  2.596122E-10  5.675426E-11
       266  11 -2.077711E+05 -7.593211E+05 -1.721546E+05  2.938583E+05  4.971470E-10  6.906273E-10
       266  12 -1.138563E+05 -3.692993E+05 -8.280787E+04  3.486864E+05 -2.787453E-10 -4.136957E-10
       266  13  1.132710E+04  1.079121E+05  1.335390E+04  3.484197E+05  2.601412E-10 -3.382534E-11
       266  14  1.882817E+03  1.066500E+05  9.766496E+03  2.974700E+05  4.693695E-10  5.693146E-10
       266  15  4.912941E+02  1.081299E+05  1.142510E+04  3.484253E+05 -1.072256E-10  6.223419E-12
       266  16  3.246443E+05  1.372209E+06  3.167200E+05  3.559066E+05 -1.071623E-11 -8.872412E-11
       266  17  2.114886E+05  9.733302E+05  1.916456E+05  3.010865E+05 -3.590044E-10  1.506015E-11
       266  18  1.148251E+05  5.857773E+05  1.056469E+05  3.481639E+05  2.637753E-10  1.383023E-10
       266  19 -3.021051E+05 -1.154920E+06 -2.901198E+05  3.409480E+05  1.329154E+04  5.365153E+04
       266  20 -2.077696E+05 -7.593206E+05 -1.721518E+05  2.938586E+05  3.697640E+04  9.912492E+03
       266  21 -1.138552E+05 -3.692979E+05 -8.280436E+04  3.486857E+05  2.678660E+04 -3.385350E+04
       266  22  1.132730E+04  1.079122E+05  1.335428E+04  3.484196E+05  1.325499E+04 -4.814730E+03
       266  23  1.884285E+03  1.066504E+05  9.769064E+03  2.974700E+05  3.696521E+04  1.548668E+02
       266  24  4.920736E+02  1.081301E+05  1.142650E+04  3.484254E+05  2.682285E+04  5.126329E+03
       266  25  3.246456E+05  1.372213E+06  3.167279E+05  3.559059E+05  1.321709E+04 -6.339961E+04
       266  26  2.114901E+05  9.733306E+05  1.916483E+05  3.010862E+05  3.695391E+04 -9.616164E+03
       266  27  1.148264E+05  5.857796E+05  1.056519E+05  3.481648E+05  2.685905E+04  4.413551E+04
       267   1 -4.982927E+04 -1.019551E+05 -2.890715E+04  3.473028E+05 -1.068563E+04  2.621838E+04
       267   2  4.428712E+04  2.893720E+05  5.539568E+04  2.973894E+05  1.223724E+04  1.470079E+04
       267   3  1.437302E+05  6.836085E+05  1.484884E+05  3.512150E+05  3.452157E+04  3.179996E+03
       267   4  6.885920E+02  1.081364E+05  1.357220E+04  3.488330E+05 -1.071928E+04 -7.268731E+03
       267   5  9.481850E+02  1.068095E+05  2.122578E+04  2.969603E+05  1.220710E+04 -1.787300E+04
       267   6  6.386055E+03  1.080895E+05  3.704110E+04  3.488273E+05  3.449452E+04 -2.847353E+04
       267   7  5.120433E+04  3.182722E+05  5.605350E+04  3.503637E+05 -1.075309E+04 -4.076696E+04
       267   8 -4.239211E+04 -7.571863E+04 -1.294158E+04  2.965313E+05  1.217699E+04 -5.043747E+04
       267   9 -1.309772E+05 -4.671093E+05 -7.441793E+04  3.464418E+05  3.446769E+04 -6.009838E+04
       267  10 -4.982958E+04 -1.019559E+05 -2.890866E+04  3.473030E+05 -4.553480E-10  2.953567E-10
       267  11  4.428690E+04  2.893718E+05  5.539499E+04  2.973893E+05 -4.127201E-10  1.052982E-09
       267  12  1.437289E+05  6.836081E+05  1.484861E+05  3.512149E+05 -4.896618E-11 -8.280845E-10
       267  13  6.884545E+02  1.081363E+05  1.357189E+04  3.488329E+05 -1.321511E-10  4.273861E-10
       267  14  9.479391E+02  1.068091E+05  2.122489E+04  2.969605E+05 -7.084014E-10  8.718595E-10
       267  15  6.384559E+03  1.080883E+05  3.703734E+04  3.488281E+05 -9.089489E-10 -1.352175E-11
       267  16  5.120376E+04  3.182704E+05  5.605016E+04  3.503633E+05  5.439858E-11 -8.225019E-10
       267  17 -4.239295E+04 -7.572140E+04 -1.294664E+04  2.965318E+05 -2.096719E-11  4.305640E-10
       267  18 -1.309795E+05 -4.671135E+05 -7.442696E+04  3.464435E+05 -1.937366E-10  4.430378E-10
       267  19 -4.982927E+04 -1.019551E+05 -2.890715E+04  3.473028E+05  1.068563E+04 -2.621838E+04
       267  20  4.428712E+04  2.893720E+05  5.539568E+04  2.973894E+05 -1.223724E+04 -1.470079E+04
       267  21  1.437302E+05  6.836085E+05  1.484884E+05  3.512150E+05 -3.452157E+04 -3.179996E+03
       267  22  6.885920E+02  1.081364E+05  1.357220E+04  3.488330E+05  1.071928E+04  7.268731E+03
       267  23  9.481850E+02  1.068095E+05  2.122578E+04  2.969603E+05 -1.220710E+04  1.787300E+04
       267  24  6.386055E+03  1.080895E+05  3.704110E+04  3.488273E+05 -3.449452E+04  2.847353E+04
       267  25  5.120433E+04  3.182722E+05  5.605350E+04  3.503637E+05  1.075309E+04  4.076696E+04
       267  26 -4.239211E+04 -7.571863E+04 -1.294158E+04  2.965313E+05 -1.217699E+04  5.043747E+04
       267  27 -1.309772E+05 -4.671093E+05 -7.441793E+04  3.464418E+05 -3.446769E+04  6.009838E+04
       268   1  2.014482E+05  9.581937E+05  2.111011E+05  3.344687E+05  5.054708E+04  4.001899E+03
       268   2  3.220966E+05  1.329787E+06  3.400154E+05  3.372568E+05  5.604698E+04 -1.018731E+05
       268   3  5.603130E+05  1.744866E+06  5.671931E+05  4.414446E+05  1.877788E+04 -2.078287E+05
       268   4  2.149828E+02  1.147112E+05  4.775978E+04  3.483076E+05  5.051985E+04 -3.484024E+04
       268   5  2.493526E+04  9.818583E+04  8.498459E+04  2.975879E+05  5.607450E+04 -7.896819E+04
       268   6  1.566484E+05  1.143956E+05  1.777191E+05  3.482445E+05  1.883975E+04 -1.231054E+05
       268   7 -2.010591E+05 -7.280848E+05 -1.156092E+05  3.621271E+05  5.049086E+04 -7.363083E+04
       268   8 -2.723161E+05 -1.131976E+06 -1.701259E+05  2.579984E+05  5.609915E+04 -5.610779E+04
       268   9 -2.471722E+05 -1.513608E+06 -2.119105E+05  2.552887E+05  1.887637E+04 -3.860281E+04
       268  10  2.014455E+05  9.581930E+05  2.110963E+05  3.344685E+05 -1.011077E-10 -1.871772E-12
       268  11  3.220904E+05  1.329775E+06  3.399900E+05  3.372614E+05 -4.802491E-11  2.120481E-10
       268  12  5.603010E+05  1.744819E+06  5.671114E+05  4.414478E+05 -1.474612E-10  1.309062E-10
       268  13  2.119148E+02  1.147092E+05  4.775269E+04  3.483091E+05 -3.791039E-11  3.532408E-10
       268  14  2.493020E+04  9.817829E+04  8.496696E+04  2.975914E+05  1.414614E-11  1.616356E-10
       268  15  1.566440E+05  1.143793E+05  1.776900E+05  3.482463E+05 -2.419916E-10 -1.751830E-11
       268  16 -2.010633E+05 -7.280913E+05 -1.156242E+05  3.621301E+05 -6.798700E-10 -3.080167E-10
       268  17 -2.723203E+05 -1.131980E+06 -1.701377E+05  2.580009E+05 -2.135818E-10  1.880250E-10
       268  18 -2.471729E+05 -1.513610E+06 -2.119140E+05  2.552893E+05  8.690488E-12  6.329996E-11
       268  19  2.014482E+05  9.581937E+05  2.111011E+05  3.344687E+05 -5.054708E+04 -4.001899E+03
       268  20  3.220966E+05  1.329787E+06  3.400154E+05  3.372568E+05 -5.604698E+04  1.018731E+05
       268  21  5.603130E+05  1.744866E+06  5.671931E+05  4.414446E+05 -1.877788E+04  2.078287E+05
       268  22  2.149828E+02  1.147112E+05  4.775978E+04  3.483076E+05 -5.051985E+04  3.484024E+04
       268  23  2.493526E+04  9.818583E+04  8.498459E+04  2.975879E+05 -5.607450E+04  7.896819E+04
       268  24  1.566484E+05  1.143956E+05  1.777191E+05  3.482445E+05 -1.883975E+04  1.231054E+05
       268  25 -2.010591E+05 -7.280848E+05 -1.156092E+05  3.621271E+05 -5.049086E+04  7.363083E+04
       268  26 -2.723161E+05 -1.131976E+06 -1.701259E+05  2.579984E+05 -5.609915E+04  5.610779E+04
       268  27 -2.471722E+05 -1.513608E+06 -2.119105E+05  2.552887E+05 -1.887637E+04  3.860281E+04
       269   1  1.724690E+06  4.397116E+05  4.233255E+05  3.023978E+05  1.005942E+05 -2.168818E+04
       269   2  1.380209E+06  3.428863E+05  2.932530E+05  2.580485E+05  3.387322E+04 -6.713164E+04
       269   3  1.048054E+06  2.598784E+05  2.100254E+05  3.002668E+05 -3.283891E+04 -6.684192E+04
       269   4 -3.973944E+04  3.136350E+03  3.090940E+03  2.992455E+05  2.141229E+03 -2.180369E+04
       269   5 -3.998516E+04  7.183395E+02  1.470763E+03  2.559588E+05  1.445014E+03 -6.718889E+04
       269   6 -3.943448E+04  6.940337E+02  9.287860E+02  2.992490E+05  7.205985E+02 -6.679351E+04
       269   7 -1.801297E+06 -4.336582E+05 -4.173256E+05  2.961007E+05 -9.603389E+04 -2.191842E+04
       269   8 -1.458265E+06 -3.415760E+05 -2.904154E+05  2.538729E+05 -3.091046E+04 -6.724601E+04
       269   9 -1.125784E+06 -2.585597E+05 -2.082182E+05  2.982323E+05  3.422275E+04 -6.674515E+04
       269  10  1.724679E+06  4.397084E+05  4.233057E+05  3.023995E+05  1.999091E-09 -1.006027E-09
       269  11  1.380206E+06  3.428812E+05  2.932424E+05  2.580503E+05 -1.511308E-09 -1.332258E-09
       269  12  1.048052E+06  2.598733E+05  2.100150E+05  3.002650E+05 -4.146118E-09 -6.998829E-10
       269  13 -3.973957E+04  3.135839E+03  3.090038E+03  2.992455E+05  8.505436E-10  1.386484E-09
       269  14 -3.998638E+04  7.134913E+02  1.462276E+03  2.559589E+05 -1.182688E-09  8.144129E-11
       269  15 -3.943568E+04  6.892429E+02  9.204013E+02  2.992490E+05  5.226951E-11 -4.519180E-10
       269  16 -1.801307E+06 -4.336612E+05 -4.173439E+05  2.960990E+05 -3.139789E-09  3.697504E-10
       269  17 -1.458267E+06 -3.415811E+05 -2.904257E+05  2.538713E+05  1.659307E-09 -1.438817E-09
       269  18 -1.125787E+06 -2.585648E+05 -2.082287E+05  2.982341E+05  3.959018E-09 -5.870114E-10
       269  19  1.724690E+06  4.397116E+05  4.233255E+05  3.023978E+05 -1.005942E+05  2.168818E+04
       269  20  1.380209E+06  3.428863E+05  2.932530E+05  2.580485E+05 -3.387322E+04  6.713164E+04
       269  21  1.048054E+06  2.598784E+05  2.100254E+05  3.002668E+05  3.283891E+04  6.684192E+04
       269  22 -3.973944E+04  3.136350E+03  3.090940E+03  2.992455E+05 -2.141229E+03  2.180369E+04
       269  23 -3.998516E+04  7.183395E+02  1.470763E+03  2.559588E+05 -1.445014E+03  6.718889E+04
       269  24 -3.943448E+04  6.940337E+02  9.287860E+02  2.992490E+05 -7.205985E+02  6.679351E+04
       269  25 -1.801297E+06 -4.336582E+05 -4.173256E+05  2.961007E+05  9.603389E+04  2.191842E+04
       269  26 -1.458265E+06 -3.415760E+05 -2.904154E+05  2.538729E+05  3.091046E+04  6.724601E+04
       269  27 -1.125784E+06 -2.585597E+05 -2.082182E+05  2.982323E+05 -3.422275E+04  6.674515E+04
       270   1  8.171750E+05  2.050552E+05  1.650879E+05  3.009666E+05 -2.490430E+04 -5.310716E+04
       270   2  4.790072E+05  1.240443E+05  9.836128E+04  2.558999E+05 -2.958875E+04 -3.392357E+04
       270   3  1.415731E+05  4.415542E+04  3.488595E+04  3.001204E+05 -3.428400E+04 -1.168850E+04
       270   4 -3.955400E+04  9.212706E+02  7.503126E+02  2.998516E+05  5.583425E+02 -5.306605E+04
       270   5 -3.942785E+04  8.190011E+02  5.355705E+02  2.552057E+05  2.652940E+02 -3.386840E+04
       270   6 -3.944071E+04  1.082586E+03  5.247717E+02  2.998516E+05 -4.098699E+01 -1.161777E+04
       270   7 -8.955756E+05 -2.032557E+05 -1.636185E+05  2.987378E+05  2.598670E+04 -5.302500E+04
       270   8 -5.576016E+05 -1.224214E+05 -9.729863E+04  2.545119E+05  3.009504E+04 -3.381328E+04
       270   9 -2.204204E+05 -4.199154E+04 -3.383347E+04  2.995828E+05  3.419229E+04 -1.154706E+04
       270  10  8.171736E+05  2.050520E+05  1.650815E+05  3.009655E+05  3.056923E-09  1.492720E-09
       270  11  4.790060E+05  1.240428E+05  9.835748E+04  2.558991E+05 -1.061986E-08 -4.449432E-10
       270  12  1.415718E+05  4.415496E+04  3.488349E+04  3.001201E+05 -2.244851E-08  6.731562E-10
       270  13 -3.955476E+04  9.182467E+02  7.450202E+02  2.998517E+05  7.253728E-10  1.229193E-09
       270  14 -3.942816E+04  8.177693E+02  5.334148E+02  2.552057E+05 -7.871886E-10  8.325912E-10
       270  15 -3.944075E+04  1.082441E+03  5.245180E+02  2.998516E+05  1.293872E-10  1.365602E-09
       270  16 -8.955771E+05 -2.032589E+05 -1.636251E+05  2.987389E+05 -2.850969E-09  2.396580E-09
       270  17 -5.576028E+05 -1.224229E+05 -9.730248E+04  2.545128E+05  1.147797E-08 -4.466143E-09
       270  18 -2.204217E+05 -4.199200E+04 -3.383592E+04  2.995831E+05  2.297100E-08 -1.218143E-09
       270  19  8.171750E+05  2.050552E+05  1.650879E+05  3.009666E+05  2.490430E+04  5.310716E+04
       270  20  4.790072E+05  1.240443E+05  9.836128E+04  2.558999E+05  2.958875E+04  3.392357E+04
       270  21  1.415731E+05  4.415542E+04  3.488595E+04  3.001204E+05  3.428400E+04  1.168850E+04
       270  22 -3.955400E+04  9.212706E+02  7.503126E+02  2.998516E+05 -5.583425E+02  5.306605E+04
       270  23 -3.942785E+04  8.190011E+02  5.355705E+02  2.552057E+05 -2.652940E+02  3.386840E+04
       270  24 -3.944071E+04  1.082586E+03  5.247717E+02  2.998516E+05  4.098699E+01  1.161777E+04
       270  25 -8.955756E+05 -2.032557E+05 -1.636185E+05  2.987378E+05 -2.598670E+04  5.302500E+04
       270  26 -5.576016E+05 -1.224214E+05 -9.729863E+04  2.545119E+05 -3.009504E+04  3.381328E+04
       270  27 -2.204204E+05 -4.199154E+04 -3.383347E+04  2.995828E+05 -3.419229E+04  1.154706E+04
       271   1 -8.731603E+04 -1.042493E+04 -9.099020E+03  2.998010E+05 -3.436474E+04  2.388777E+03
       271   2 -4.245606E+05 -9.079392E+04 -7.229533E+04  2.546689E+05 -3.073770E+04  2.474811E+04
       271   3 -7.625243E+05 -1.714363E+05 -1.380116E+05  2.988479E+05 -2.710203E+04  4.430219E+04
       271   4 -3.943328E+04  1.085402E+03  5.640905E+02  2.998551E+05 -1.689426E+02  2.459964E+03
       271   5 -3.940893E+04  8.702859E+02  7.599610E+02  2.552013E+05 -5.879633E+02  2.480604E+04
       271   6 -3.951746E+04  1.088338E+03  1.244208E+03  2.998549E+05 -9.963946E+02  4.434800E+04
       271   7  8.454158E+03  1.259622E+04  1.023148E+04  2.999091E+05  3.402944E+04  2.531154E+03
       271   8  3.458878E+05  9.252630E+04  7.381206E+04  2.557339E+05  2.958004E+04  2.486400E+04
       271   9  6.839940E+05  1.735824E+05  1.404784E+05  3.008626E+05  2.513897E+04  4.439385E+04
       271  10 -8.731730E+04 -1.042525E+04 -9.101251E+03  2.998010E+05  2.101466E-08  2.993083E-09
       271  11 -4.245617E+05 -9.079483E+04 -7.229826E+04  2.546695E+05 -1.948671E-10 -5.330024E-10
       271  12 -7.625256E+05 -1.714387E+05 -1.380166E+05  2.988489E+05 -2.082142E-08  2.401259E-09
       271  13 -3.943329E+04  1.085396E+03  5.640790E+02  2.998551E+05  8.322989E-10  2.402364E-09
       271  14 -3.940909E+04  8.696250E+02  7.588040E+02  2.552013E+05 -5.381174E-10  1.760789E-09
       271  15 -3.951799E+04  1.086226E+03  1.240510E+03  2.998549E+05 -7.827769E-11 -3.982677E-10
       271  16  8.452913E+03  1.259590E+04  1.022929E+04  2.999091E+05 -2.125923E-08  1.146428E-09
       271  17  3.458867E+05  9.252540E+04  7.380926E+04  2.557333E+05 -2.184092E-10 -4.647436E-10
       271  18  6.839928E+05  1.735801E+05  1.404735E+05  3.008617E+05  2.010804E-08 -4.713294E-09
       271  19 -8.731603E+04 -1.042493E+04 -9.099020E+03  2.998010E+05  3.436474E+04 -2.388777E+03
       271  20 -4.245606E+05 -9.079392E+04 -7.229533E+04  2.546689E+05  3.073770E+04 -2.474811E+04
       271  21 -7.625243E+05 -1.714363E+05 -1.380116E+05  2.988479E+05  2.710203E+04 -4.430219E+04
       271  22 -3.943328E+04  1.085402E+03  5.640905E+02  2.998551E+05  1.689426E+02 -2.459964E+03
       271  23 -3.940893E+04  8.702859E+02  7.599610E+02  2.552013E+05  5.879633E+02 -2.480604E+04
       271  24 -3.951746E+04  1.088338E+03  1.244208E+03  2.998549E+05  9.963946E+02 -4.434800E+04
       271  25  8.454158E+03  1.259622E+04  1.023148E+04  2.999091E+05 -3.402944E+04 -2.531154E+03
       271  26  3.458878E+05  9.252630E+04  7.381206E+04  2.557339E+05 -2.958004E+04 -2.486400E+04
       271  27  6.839940E+05  1.735824E+05  1.404784E+05  3.008626E+05 -2.513897E+04 -4.439385E+04
       272   1 -9.925373E+05 -2.267732E+05 -1.823836E+05  2.985789E+05 -3.484435E+04  5.805023E+04
       272   2 -1.325617E+06 -3.091797E+05 -2.625132E+05  2.532768E+05  2.496615E+04  6.024216E+04
       272   3 -1.668051E+06 -3.983147E+05 -3.833168E+05  2.947554E+05  8.477654E+04  1.986639E+04
       272   4 -3.930044E+04  7.882278E+02  1.590049E+03  2.992923E+05 -1.244458E+03  5.810382E+04
       272   5 -4.003213E+04  1.199485E+03  2.705091E+03  2.559036E+05 -2.619158E+03  6.019097E+04
       272   6 -3.957707E+04  5.528043E+03  5.685258E+03  2.992853E+05 -3.961196E+03  1.975088E+04
       272   7  9.148134E+05  2.282962E+05  1.855257E+05  3.000063E+05  3.240591E+04  5.815743E+04
       272   8  1.247124E+06  3.114746E+05  2.678372E+05  2.585350E+05 -3.026068E+04  6.013961E+04
       272   9  1.591350E+06  4.091831E+05  3.945302E+05  3.038260E+05 -9.293111E+04  1.963428E+04
       272  10 -9.925395E+05 -2.267771E+05 -1.823922E+05  2.985806E+05  1.902998E-08  2.413766E-09
       272  11 -1.325619E+06 -3.091838E+05 -2.625212E+05  2.532756E+05  9.207078E-09 -5.989501E-10
       272  12 -1.668059E+06 -3.983171E+05 -3.833311E+05  2.947540E+05 -3.147355E-09  2.146281E-10
       272  13 -3.930135E+04  7.846021E+02  1.583701E+03  2.992924E+05  9.362209E-10  2.837039E-09
       272  14 -4.003311E+04  1.195592E+03  2.698270E+03  2.559037E+05 -1.233721E-10 -3.381719E-09
       272  15 -3.957720E+04  5.527620E+03  5.684495E+03  2.992854E+05  1.961213E-10  1.084759E-09
       272  16  9.148114E+05  2.282923E+05  1.855174E+05  3.000048E+05 -1.945964E-08 -6.835899E-11
       272  17  1.247122E+06  3.114705E+05  2.678286E+05  2.585365E+05 -8.459639E-09  5.146097E-10
       272  18  1.591340E+06  4.091803E+05  3.945133E+05  3.038274E+05  3.109880E-09 -4.073392E-10
       272  19 -9.925373E+05 -2.267732E+05 -1.823836E+05  2.985789E+05  3.484435E+04 -5.805023E+04
       272  20 -1.325617E+06 -3.091797E+05 -2.625132E+05  2.532768E+05 -2.496615E+04 -6.024216E+04
       272  21 -1.668051E+06 -3.983147E+05 -3.833168E+05  2.947554E+05 -8.477654E+04 -1.986639E+04
       272  22 -3.930044E+04  7.882278E+02  1.590049E+03  2.992923E+05  1.244458E+03 -5.810382E+04
       272  23 -4.003213E+04  1.199485E+03  2.705091E+03  2.559036E+05  2.619158E+03 -6.019097E+04
       272  24 -3.957707E+04  5.528043E+03  5.685258E+03  2.992853E+05  3.961196E+03 -1.975088E+04
       272  25  9.148134E+05  2.282962E+05  1.855257E+05  3.000063E+05 -3.240591E+04 -5.815743E+04
       272  26  1.247124E+06  3.114746E+05  2.678372E+05  2.585350E+05  3.026068E+04 -6.013961E+04
       272  27  1.591350E+06  4.091831E+05  3.945302E+05  3.038260E+05  9.293111E+04 -1.963428E+04
       273   1 -3.707837E+05 -1.537886E+06 -3.574242E+05  4.166421E+05 -1.592165E+04 -6.765172E+04
       273   2 -2.506480E+05 -1.059501E+06 -2.126599E+05  3.571635E+05 -4.428335E+04 -1.195619E+04
       273   3 -1.361510E+05 -5.893086E+05 -1.056104E+05  4.207770E+05 -3.189938E+04  4.380080E+04
       273   4  6.002285E+03 -2.024114E+04  7.422960E+03  4.206934E+05 -1.590274E+04  2.430822E+03
       273   5  8.525110E+02 -2.097310E+04  5.629154E+03  3.591550E+05 -4.427299E+04 -4.294098E+02
       273   6  2.598757E+02 -1.992614E+04  6.850151E+03  4.206942E+05 -3.192901E+04 -3.272242E+03
       273   7  3.826231E+05  1.499527E+06  3.721248E+05  4.247540E+05 -1.588298E+04  7.268434E+04
       273   8  2.522837E+05  1.018575E+06  2.238583E+05  3.611496E+05 -4.426257E+04  1.111637E+04
       273   9  1.366522E+05  5.497715E+05  1.193032E+05  4.206112E+05 -3.195861E+04 -5.038758E+04
       273  10 -3.707852E+05 -1.537891E+06 -3.574333E+05  4.166412E+05 -7.950171E-12 -2.840705E-10
       273  11 -2.506501E+05 -1.059502E+06 -2.126638E+05  3.571631E+05  1.098863E-11  5.478708E-10
       273  12 -1.361526E+05 -5.893109E+05 -1.056160E+05  4.207781E+05 -1.428571E-10  2.612255E-10
       273  13  6.002012E+03 -2.024122E+04  7.422473E+03  4.206935E+05  1.994540E-10  2.008624E-12
       273  14  8.504062E+02 -2.097363E+04  5.625471E+03  3.591550E+05 -4.132677E-10  8.031091E-10
       273  15  2.587782E+02 -1.992643E+04  6.848215E+03  4.206941E+05 -3.745794E-10 -5.296460E-10
       273  16  3.826215E+05  1.499521E+06  3.721144E+05  4.247549E+05 -2.445074E-12  6.614420E-10
       273  17  2.522816E+05  1.018575E+06  2.238544E+05  3.611500E+05 -4.020368E-10 -5.730587E-10
       273  18  1.366505E+05  5.497685E+05  1.192965E+05  4.206099E+05  2.810043E-10 -3.791802E-10
       273  19 -3.707837E+05 -1.537886E+06 -3.574242E+05  4.166421E+05  1.592165E+04  6.765172E+04
       273  20 -2.506480E+05 -1.059501E+06 -2.126599E+05  3.571635E+05  4.428335E+04  1.195619E+04
       273  21 -1.361510E+05 -5.893086E+05 -1.056104E+05  4.207770E+05  3.189938E+04 -4.380080E+04
       273  22  6.002285E+03 -2.024114E+04  7.422960E+03  4.206934E+05  1.590274E+04 -2.430822E+03
       273  23  8.525110E+02 -2.097310E+04  5.629154E+03  3.591550E+05  4.427299E+04  4.294098E+02
       273  24  2.598757E+02 -1.992614E+04  6.850151E+03  4.206942E+05  3.192901E+04  3.272242E+03
       273  25  3.826231E+05  1.499527E+06  3.721248E+05  4.247540E+05  1.588298E+04 -7.268434E+04
       273  26  2.522837E+05  1.018575E+06  2.238583E+05  3.611496E+05  4.426257E+04 -1.111637E+04
       273  27  1.366522E+05  5.497715E+05  1.193032E+05  4.206112E+05  3.195861E+04  5.038758E+04
       274   1 -5.891516E+04 -2.664508E+05 -4.174313E+04  4.202622E+05 -1.244601E+04  3.589657E+04
       274   2  5.459493E+04  2.068546E+05  5.558015E+04  3.588023E+05  1.526126E+04  2.828295E+04
       274   3  1.713998E+05  6.822505E+05  1.586697E+05  4.226324E+05  4.217346E+04  2.066917E+04
       274   4  3.968082E+02 -1.989618E+04  8.211116E+03  4.211864E+05 -1.247515E+04 -4.578660E+03
       274   5  5.529411E+02 -2.077091E+04  1.297029E+04  3.585393E+05  1.523688E+04 -1.105877E+04
       274   6  3.820028E+03 -1.996580E+04  2.271340E+04  4.211840E+05  4.215314E+04 -1.753347E+04
       274   7  5.970588E+04  2.267199E+05  5.816837E+04  4.221110E+05 -1.250440E+04 -4.506967E+04
       274   8 -5.349122E+04 -2.483430E+05 -2.963600E+04  3.582763E+05  1.521252E+04 -5.038643E+04
       274   9 -1.637884E+05 -7.217055E+05 -1.132606E+05  4.197371E+05  4.213298E+04 -5.569390E+04
       274  10 -5.891567E+04 -2.664523E+05 -4.174585E+04  4.202625E+05 -4.802505E-10  3.026981E-10
       274  11  5.459447E+04  2.068537E+05  5.557821E+04  3.588020E+05 -2.513116E-10  4.861768E-10
       274  12  1.713978E+05  6.822496E+05  1.586656E+05  4.226317E+05 -2.610138E-10  3.291812E-10
       274  13  3.966356E+02 -1.989625E+04  8.210784E+03  4.211864E+05  1.641082E-11 -5.311195E-10
       274  14  5.526588E+02 -2.077111E+04  1.296962E+04  3.585394E+05  6.169163E-10  4.564247E-10
       274  15  3.818037E+03 -1.996661E+04  2.270948E+04  4.211846E+05 -2.980174E-10 -3.986981E-11
       274  16  5.970517E+04  2.267177E+05  5.816426E+04  4.221106E+05  1.656588E-11 -4.578785E-10
       274  17 -5.349215E+04 -2.483458E+05 -2.964121E+04  3.582769E+05  4.208600E-10  1.051329E-10
       274  18 -1.637911E+05 -7.217093E+05 -1.132697E+05  4.197389E+05  2.854980E-10 -5.658677E-11
       274  19 -5.891516E+04 -2.664508E+05 -4.174313E+04  4.202622E+05  1.244601E+04 -3.589657E+04
       274  20  5.459493E+04  2.068546E+05  5.558015E+04  3.588023E+05 -1.526126E+04 -2.828295E+04
       274  21  1.713998E+05  6.822505E+05  1.586697E+05  4.226324E+05 -4.217346E+04 -2.066917E+04
       274  22  3.968082E+02 -1.989618E+04  8.211116E+03  4.211864E+05  1.247515E+04  4.578660E+03
       274  23  5.529411E+02 -2.077091E+04  1.297029E+04  3.585393E+05 -1.523688E+04  1.105877E+04
       274  24  3.820028E+03 -1.996580E+04  2.271340E+04  4.211840E+05 -4.215314E+04  1.753347E+04
       274  25  5.970588E+04  2.267199E+05  5.816837E+04  4.221110E+05  1.250440E+04  4.506967E+04
       274  26 -5.349122E+04 -2.483430E+05 -2.963600E+04  3.582763E+05 -1.521252E+04  5.038643E+04
       274  27 -1.637884E+05 -7.217055E+05 -1.132606E+05  4.197371E+05 -4.213298E+04  5.569390E+04
       275   1  2.447127E+05  1.009964E+06  2.279469E+05  4.119943E+05  6.152893E+04  2.547807E+04
       275   2  3.754363E+05  1.468253E+06  3.615335E+05  3.834372E+05  6.813290E+04 -7.636521E+04
       275   3  5.848160E+05  1.960115E+06  5.810748E+05  4.773023E+05  2.291267E+04 -1.783302E+05
       275   4 -5.570296E+01 -1.589865E+04  2.931012E+04  4.205397E+05  6.151300E+04 -2.145029E+04
       275   5  1.488463E+04 -2.636261E+04  5.210283E+04  3.593334E+05  6.815295E+04 -4.847599E+04
       275   6  9.562302E+04 -1.634917E+04  1.090176E+05  4.205410E+05  2.292259E+04 -7.554195E+04
       275   7 -2.448854E+05 -1.040746E+06 -1.693677E+05  4.290702E+05  6.149574E+04 -6.830293E+04
       275   8 -3.458060E+05 -1.518861E+06 -2.574460E+05  3.352878E+05  6.817089E+04 -2.065253E+04
       275   9 -3.938347E+05 -1.989210E+06 -3.632734E+05  3.639597E+05  2.291387E+04  2.692162E+04
       275  10  2.447085E+05  1.009962E+06  2.279386E+05  4.119930E+05 -1.566188E-10 -3.431924E-10
       275  11  3.754297E+05  1.468245E+06  3.615138E+05  3.834414E+05 -9.367232E-11  7.651541E-10
       275  12  5.848069E+05  1.960081E+06  5.810142E+05  4.773056E+05  1.059849E-10  1.748910E-10
       275  13 -5.989094E+01 -1.590016E+04  2.930214E+04  4.205407E+05 -2.429004E-10  5.437611E-10
       275  14  1.487901E+04 -2.636639E+04  5.208968E+04  3.593360E+05 -9.597192E-10  1.072938E-09
       275  15  9.562092E+04 -1.635544E+04  1.090059E+05  4.205424E+05 -3.078188E-10  2.742422E-10
       275  16 -2.448907E+05 -1.040752E+06 -1.693836E+05  4.290736E+05 -2.593679E-10  9.493773E-10
       275  17 -3.458111E+05 -1.518863E+06 -2.574555E+05  3.352889E+05 -7.611796E-10 -5.004766E-10
       275  18 -3.938355E+05 -1.989211E+06 -3.632758E+05  3.639592E+05 -2.453035E-10 -1.050856E-09
       275  19  2.447127E+05  1.009964E+06  2.279469E+05  4.119943E+05 -6.152893E+04 -2.547807E+04
       275  20  3.754363E+05  1.468253E+06  3.615335E+05  3.834372E+05 -6.813290E+04  7.636521E+04
       275  21  5.848160E+05  1.960115E+06  5.810748E+05  4.773023E+05 -2.291267E+04  1.783302E+05
       275  22 -5.570296E+01 -1.589865E+04  2.931012E+04  4.205397E+05 -6.151300E+04  2.145029E+04
       275  23  1.488463E+04 -2.636261E+04  5.210283E+04  3.593334E+05 -6.815295E+04  4.847599E+04
       275  24  9.562302E+04 -1.634917E+04  1.090176E+05  4.205410E+05 -2.292259E+04  7.554195E+04
       275  25 -2.448854E+05 -1.040746E+06 -1.693677E+05  4.290702E+05 -6.149574E+04  6.830293E+04
       275  26 -3.458060E+05 -1.518861E+06 -2.574460E+05  3.352878E+05 -6.817089E+04  2.065253E+04
       275  27 -3.938347E+05 -1.989210E+06 -3.632734E+05  3.639597E+05 -2.291387E+04 -2.692162E+04
       276   1  1.060039E+06  2.762197E+05  2.672888E+05  2.036453E+05  6.583318E+04 -1.300290E+04
       276   2  8.324016E+05  2.070314E+05  1.803114E+05  1.718631E+05  2.281203E+04 -3.982131E+04
       276   3  6.137132E+05  1.511609E+05  1.246452E+05  1.973367E+05 -2.021369E+04 -3.853297E+04
       276   4 -1.844633E+04  9.206301E+03  1.008618E+04  1.975054E+05  6.967457E+03 -1.306785E+04
       276   5 -1.932598E+04  1.668786E+03  4.841636E+03  1.688811E+05  4.486099E+03 -3.984811E+04
       276   6 -1.832556E+04  4.297619E+02  2.790042E+03  1.975157E+05  1.983956E+03 -3.850449E+04
       276   7 -1.095858E+06 -2.578892E+05 -2.471852E+05  1.913757E+05 -5.179661E+04 -1.313170E+04
       276   8 -8.703651E+05 -2.037394E+05 -1.706659E+05  1.659030E+05 -1.381516E+04 -3.987475E+04
       276   9 -6.499794E+05 -1.503249E+05 -1.190818E+05  1.976943E+05  2.415954E+04 -3.847599E+04
       276  10  1.060034E+06  2.762184E+05  2.672804E+05  2.036460E+05 -2.625517E-08  3.764953E-10
       276  11  8.324006E+05  2.070295E+05  1.803075E+05  1.718638E+05  9.081952E-11  2.838053E-09
       276  12  6.137124E+05  1.511592E+05  1.246417E+05  1.973360E+05  2.753802E-08  8.074957E-10
       276  13 -1.844642E+04  9.206105E+03  1.008577E+04  1.975054E+05  1.352654E-10 -2.114133E-09
       276  14 -1.932643E+04  1.667076E+03  4.838614E+03  1.688813E+05 -3.330053E-10 -4.545562E-09
       276  15 -1.832597E+04  4.281688E+02  2.787249E+03  1.975157E+05  1.533970E-11  9.205689E-10
       276  16 -1.095861E+06 -2.578901E+05 -2.471905E+05  1.913751E+05  2.586959E-08 -6.203105E-12
       276  17 -8.703658E+05 -2.037411E+05 -1.706693E+05  1.659026E+05 -1.187045E-09  7.057277E-10
       276  18 -6.499804E+05 -1.503266E+05 -1.190857E+05  1.976950E+05 -2.810901E-08  2.704403E-11
       276  19  1.060039E+06  2.762197E+05  2.672888E+05  2.036453E+05 -6.583318E+04  1.300290E+04
       276  20  8.324016E+05  2.070314E+05  1.803114E+05  1.718631E+05 -2.281203E+04  3.982131E+04
       276  21  6.137132E+05  1.511609E+05  1.246452E+05  1.973367E+05  2.021369E+04  3.853297E+04
       276  22 -1.844633E+04  9.206301E+03  1.008618E+04  1.975054E+05 -6.967457E+03  1.306785E+04
       276  23 -1.932598E+04  1.668786E+03  4.841636E+03  1.688811E+05 -4.486099E+03  3.984811E+04
       276  24 -1.832556E+04  4.297619E+02  2.790042E+03  1.975157E+05 -1.983956E+03  3.850449E+04
       276  25 -1.095858E+06 -2.578892E+05 -2.471852E+05  1.913757E+05  5.179661E+04  1.313170E+04
       276  26 -8.703651E+05 -2.037394E+05 -1.706659E+05  1.659030E+05  1.381516E+04  3.987475E+04
       276  27 -6.499794E+05 -1.503249E+05 -1.190818E+05  1.976943E+05 -2.415954E+04  3.847599E+04
       277   1  4.612088E+05  1.152495E+05  9.455840E+04  1.985055E+05 -1.563916E+04 -2.945227E+04
       277   2  2.380642E+05  6.155652E+04  5.005150E+04  1.687299E+05 -1.900951E+04 -1.657036E+04
       277   3  1.546967E+04  8.752833E+03  7.915396E+03  1.978808E+05 -2.238375E+04 -1.833759E+03
       277   4 -1.870215E+04  8.208115E+02  2.201961E+03  1.978849E+05  1.590665E+03 -2.942831E+04
       277   5 -1.870132E+04  4.746871E+02  1.375530E+03  1.684211E+05  8.895761E+02 -1.654048E+04
       277   6 -1.866514E+04  5.563071E+02  1.066300E+03  1.978853E+05  1.834201E+02 -1.797467E+03
       277   7 -4.983910E+05 -1.136214E+05 -9.016400E+04  1.972646E+05  1.880748E+04 -2.940438E+04
       277   8 -2.754024E+05 -6.061079E+04 -4.730189E+04  1.681124E+05  2.078064E+04 -1.651062E+04
       277   9 -5.279774E+04 -7.640017E+03 -5.780941E+03  1.978899E+05  2.274937E+04 -1.761173E+03
       277  10  4.612083E+05  1.152485E+05  9.455631E+04  1.985052E+05  4.994519E-10 -7.078350E-10
       277  11  2.380637E+05  6.155613E+04  5.005031E+04  1.687297E+05  5.667744E-10  4.320652E-09
       277  12  1.546913E+04  8.752695E+03  7.914448E+03  1.978808E+05  2.280833E-09  5.429847E-09
       277  13 -1.870239E+04  8.198808E+02  2.200329E+03  1.978849E+05  3.380744E-10  5.308584E-09
       277  14 -1.870140E+04  4.743931E+02  1.375015E+03  1.684211E+05 -7.488510E-10 -6.713580E-09
       277  15 -1.866514E+04  5.563036E+02  1.066294E+03  1.978853E+05  3.012078E-10  5.146597E-09
       277  16 -4.983916E+05 -1.136224E+05 -9.016629E+04  1.972650E+05 -6.021933E-10 -3.602225E-09
       277  17 -2.754029E+05 -6.061120E+04 -4.730321E+04  1.681127E+05 -2.308045E-10 -8.176872E-10
       277  18 -5.279830E+04 -7.640159E+03 -5.781920E+03  1.978899E+05 -2.028613E-09  3.119408E-09
       277  19  4.612088E+05  1.152495E+05  9.455840E+04  1.985055E+05  1.563916E+04  2.945227E+04
       277  20  2.380642E+05  6.155652E+04  5.005150E+04  1.687299E+05  1.900951E+04  1.657036E+04
       277  21  1.546967E+04  8.752833E+03  7.915396E+03  1.978808E+05  2.238375E+04  1.833759E+03
       277  22 -1.870215E+04  8.208115E+02  2.201961E+03  1.978849E+05 -1.590665E+03  2.942831E+04
       277  23 -1.870132E+04  4.746871E+02  1.375530E+03  1.684211E+05 -8.895761E+02  1.654048E+04
       277  24 -1.866514E+04  5.563071E+02  1.066300E+03  1.978853E+05 -1.834201E+02  1.797467E+03
       277  25 -4.983910E+05 -1.136214E+05 -9.016400E+04  1.972646E+05 -1.880748E+04  2.940438E+04
       277  26 -2.754024E+05 -6.061079E+04 -4.730189E+04  1.681124E+05 -2.078064E+04  1.651062E+04
       277  27 -5.279774E+04 -7.640017E+03 -5.780941E+03  1.978899E+05 -2.274937E+04  1.761173E+03
       278   1 -1.355669E+05 -2.726556E+04 -2.116596E+04  1.977765E+05 -2.260792E+04  7.455674E+03
       278   2 -3.581346E+05 -8.026834E+04 -6.287710E+04  1.680343E+05 -2.033239E+04  2.214670E+04
       278   3 -5.811382E+05 -1.334000E+05 -1.061493E+05  1.972130E+05 -1.805141E+04  3.482724E+04
       278   4 -1.867055E+04  5.565971E+02  1.036299E+03  1.978833E+05 -1.784093E+01  7.491781E+03
       278   5 -1.870613E+04  4.504706E+02  1.207352E+03  1.684237E+05 -6.396714E+02  2.217536E+04
       278   6 -1.871951E+04  7.217452E+02  1.830508E+03  1.978830E+05 -1.255311E+03  3.484913E+04
       278   7  9.824003E+04  2.837823E+04  2.323986E+04  1.979901E+05  2.257639E+04  7.527891E+03
       278   8  3.208345E+05  8.116278E+04  6.528819E+04  1.688133E+05  1.906355E+04  2.220405E+04
       278   9  5.440044E+05  1.348249E+05  1.097968E+05  1.985534E+05  1.555566E+04  3.487103E+04
       278  10 -1.355674E+05 -2.726576E+04 -2.116703E+04  1.977766E+05  2.752976E-09 -1.004303E-09
       278  11 -3.581352E+05 -8.026898E+04 -6.287880E+04  1.680346E+05  1.061799E-09 -6.714637E-10
       278  12 -5.811389E+05 -1.334014E+05 -1.061521E+05  1.972135E+05  8.083715E-10 -1.097800E-09
       278  13 -1.867056E+04  5.565368E+02  1.036193E+03  1.978833E+05  6.817741E-10  2.086040E-09
       278  14 -1.870627E+04  4.499425E+02  1.206427E+03  1.684237E+05 -2.336332E-10 -4.676147E-10
       278  15 -1.871983E+04  7.204406E+02  1.828223E+03  1.978830E+05  5.514462E-10 -1.463592E-09
       278  16  9.823947E+04  2.837803E+04  2.323880E+04  1.979900E+05 -2.674156E-09 -2.006252E-10
       278  17  3.208339E+05  8.116215E+04  6.528658E+04  1.688130E+05 -5.592412E-10  2.555459E-09
       278  18  5.440039E+05  1.348236E+05  1.097941E+05  1.985530E+05 -7.451806E-10  1.966616E-09
       278  19 -1.355669E+05 -2.726556E+04 -2.116596E+04  1.977765E+05  2.260792E+04 -7.455674E+03
       278  20 -3.581346E+05 -8.026834E+04 -6.287710E+04  1.680343E+05  2.033239E+04 -2.214670E+04
       278  21 -5.811382E+05 -1.334000E+05 -1.061493E+05  1.972130E+05  1.805141E+04 -3.482724E+04
       278  22 -1.867055E+04  5.565971E+02  1.036299E+03  1.978833E+05  1.784093E+01 -7.491781E+03
       278  23 -1.870613E+04  4.504706E+02  1.207352E+03  1.684237E+05  6.396714E+02 -2.217536E+04
       278  24 -1.871951E+04  7.217452E+02  1.830508E+03  1.978830E+05  1.255311E+03 -3.484913E+04
       278  25  9.824003E+04  2.837823E+04  2.323986E+04  1.979901E+05 -2.257639E+04 -7.527891E+03
       278  26  3.208345E+05  8.116278E+04  6.528819E+04  1.688133E+05 -1.906355E+04 -2.220405E+04
       278  27  5.440044E+05  1.348249E+05  1.097968E+05  1.985534E+05 -1.555566E+04 -3.487103E+04
       279   1 -7.328715E+05 -1.700686E+05 -1.352321E+05  1.974537E+05 -2.369923E+04  4.388133E+04
       279   2 -9.528508E+05 -2.239051E+05 -1.881737E+05  1.663431E+05  1.766877E+04  4.422920E+04
       279   3 -1.178767E+06 -2.801439E+05 -2.686725E+05  1.923672E+05  5.904077E+04  1.440947E+04
       279   4 -1.841659E+04  3.912126E+02  2.291720E+03  1.974867E+05 -1.584246E+03  4.390767E+04
       279   5 -1.926167E+04  1.345886E+03  3.914655E+03  1.689179E+05 -3.600629E+03  4.419943E+04
       279   6 -1.854898E+04  7.438961E+03  8.131550E+03  1.974788E+05 -5.597596E+03  1.434458E+04
       279   7  6.965309E+05  1.708210E+05  1.397938E+05  1.975194E+05  2.055563E+04  4.393400E+04
       279   8  9.151564E+05  2.265422E+05  1.959580E+05  1.714964E+05 -2.490147E+04  4.416952E+04
       279   9  1.142914E+06  2.949268E+05  2.848568E+05  2.025995E+05 -7.035637E+04  1.427869E+04
       279  10 -7.328727E+05 -1.700708E+05 -1.352368E+05  1.974545E+05  2.704396E-09 -2.393754E-09
       279  11 -9.528516E+05 -2.239073E+05 -1.881780E+05  1.663425E+05  1.160990E-10  2.584125E-10
       279  12 -1.178771E+06 -2.801451E+05 -2.686795E+05  1.923665E+05 -7.807809E-10 -1.149083E-09
       279  13 -1.841711E+04  3.891417E+02  2.288092E+03  1.974867E+05  5.691382E-10 -2.271713E-10
       279  14 -1.926221E+04  1.343785E+03  3.910959E+03  1.689181E+05 -4.417036E-10 -1.969697E-09
       279  15 -1.854907E+04  7.438731E+03  8.131105E+03  1.974789E+05  4.240561E-10 -1.219649E-09
       279  16  6.965299E+05  1.708188E+05  1.397894E+05  1.975187E+05 -2.557514E-09 -5.199357E-10
       279  17  9.151552E+05  2.265399E+05  1.959531E+05  1.714972E+05  5.036770E-10  2.152195E-09
       279  18  1.142909E+06  2.949253E+05  2.848471E+05  2.026003E+05  9.179377E-10 -2.064236E-10
       279  19 -7.328715E+05 -1.700686E+05 -1.352321E+05  1.974537E+05  2.369923E+04 -4.388133E+04
       279  20 -9.528508E+05 -2.239051E+05 -1.881737E+05  1.663431E+05 -1.766877E+04 -4.422920E+04
       279  21 -1.178767E+06 -2.801439E+05 -2.686725E+05  1.923672E+05 -5.904077E+04 -1.440947E+04
       279  22 -1.841659E+04  3.912126E+02  2.291720E+03  1.974867E+05  1.584246E+03 -4.390767E+04
       279  23 -1.926167E+04  1.345886E+03  3.914655E+03  1.689179E+05  3.600629E+03 -4.419943E+04
       279  24 -1.854898E+04  7.438961E+03  8.131550E+03  1.974788E+05  5.597596E+03 -1.434458E+04
       279  25  6.965309E+05  1.708210E+05  1.397938E+05  1.975194E+05 -2.055563E+04 -4.393400E+04
       279  26  9.151564E+05  2.265422E+05  1.959580E+05  1.714964E+05  2.490147E+04 -4.416952E+04
       279  27  1.142914E+06  2.949268E+05  2.848568E+05  2.025995E+05  7.035637E+04 -1.427869E+04
       280   1 -3.117037E+05 -1.318715E+06 -3.010865E+05  3.441690E+05 -1.327184E+04 -5.875624E+04
       280   2 -2.098589E+05 -9.259917E+05 -1.802132E+05  2.940576E+05 -3.710085E+04 -1.110838E+04
       280   3 -1.154494E+05 -5.409534E+05 -9.224436E+04  3.448360E+05 -2.715342E+04  3.659053E+04
       280   4  9.590520E+02 -5.914939E+04  1.614780E+03  3.449089E+05 -1.327283E+04 -2.113391E+02
       280   5 -2.624640E+01 -5.934891E+04  1.794019E+03  2.944683E+05 -3.709592E+04 -1.115438E+03
       280   6  5.242636E+00 -5.893388E+04  2.833942E+03  3.449086E+05 -2.716413E+04 -1.999546E+03
       280   7  3.135081E+05  1.201878E+06  3.042161E+05  3.456499E+05 -1.327369E+04  5.845207E+04
       280   8  2.097582E+05  8.080045E+05  1.837596E+05  2.948794E+05 -3.709098E+04  8.891243E+03
       280   9  1.154466E+05  4.233114E+05  9.790648E+04  3.449812E+05 -2.717483E+04 -4.061897E+04
       280  10 -3.117048E+05 -1.318719E+06 -3.010933E+05  3.441684E+05  1.061110E-10  1.324819E-09
       280  11 -2.098604E+05 -9.259922E+05 -1.802160E+05  2.940572E+05  4.093756E-11  1.200546E-09
       280  12 -1.154505E+05 -5.409550E+05 -9.224826E+04  3.448368E+05  3.233936E-10 -1.296945E-09
       280  13  9.588629E+02 -5.914943E+04  1.614449E+03  3.449089E+05  3.267440E-10  8.152306E-10
       280  14 -2.772436E+01 -5.934928E+04  1.791431E+03  2.944683E+05  1.186055E-09 -1.518993E-09
       280  15  4.449271E+00 -5.893408E+04  2.832548E+03  3.449086E+05  1.083166E-09 -3.830490E-10
       280  16  3.135070E+05  1.201875E+06  3.042094E+05  3.456505E+05  1.061934E-10 -1.269959E-09
       280  17  2.097567E+05  8.080040E+05  1.837568E+05  2.948797E+05  5.272210E-10 -1.057929E-11
       280  18  1.154453E+05  4.233095E+05  9.790199E+04  3.449803E+05  1.088405E-09 -6.471443E-11
       280  19 -3.117037E+05 -1.318715E+06 -3.010865E+05  3.441690E+05  1.327184E+04  5.875624E+04
       280  20 -2.098589E+05 -9.259917E+05 -1.802132E+05  2.940576E+05  3.710085E+04  1.110838E+04
       280  21 -1.154494E+05 -5.409534E+05 -9.224436E+04  3.448360E+05  2.715342E+04 -3.659053E+04
       280  22  9.590520E+02 -5.914939E+04  1.614780E+03  3.449089E+05  1.327283E+04  2.113391E+02
       280  23 -2.624640E+01 -5.934891E+04  1.794019E+03  2.944683E+05  3.709592E+04  1.115438E+03
       280  24  5.242636E+00 -5.893388E+04  2.833942E+03  3.449086E+05  2.716413E+04  1.999546E+03
       280  25  3.135081E+05  1.201878E+06  3.042161E+05  3.456499E+05  1.327369E+04 -5.845207E+04
       280  26  2.097582E+05  8.080045E+05  1.837596E+05  2.948794E+05  3.709098E+04 -8.891243E+03
       280  27  1.154466E+05  4.233114E+05  9.790648E+04  3.449812E+05  2.717483E+04  4.061897E+04
       281   1 -5.221873E+04 -2.761611E+05 -4.019983E+04  3.449110E+05 -1.120449E+04  3.053594E+04
       281   2  4.087552E+04  1.121491E+05  3.823564E+04  2.940661E+05  1.149005E+04  2.661796E+04
       281   3  1.355346E+05  5.016058E+05  1.196196E+05  3.459434E+05  3.358618E+04  2.270084E+04
       281   4  1.852978E+01 -5.884424E+04  3.623819E+03  3.453181E+05 -1.121626E+04 -2.572537E+03
       281   5  1.696098E+02 -5.929248E+04  6.140626E+03  2.939560E+05  1.148104E+04 -5.637226E+03
       281   6  1.745525E+03 -5.888720E+04  1.101549E+04  3.453175E+05  3.357947E+04 -8.698693E+03
       281   7  5.225346E+04  1.585199E+05  4.744917E+04  3.457254E+05 -1.122807E+04 -3.569238E+04
       281   8 -4.053744E+04 -2.307034E+05 -2.595174E+04  2.938459E+05  1.147204E+04 -3.788373E+04
       281   9 -1.320617E+05 -6.190764E+05 -9.759972E+04  3.446922E+05  3.357282E+04 -4.007053E+04
       281  10 -5.221912E+04 -2.761621E+05 -4.020182E+04  3.449113E+05  3.710460E-10  3.230383E-10
       281  11  4.087519E+04  1.121483E+05  3.823406E+04  2.940658E+05  3.174577E-10 -7.437275E-10
       281  12  1.355332E+05  5.016049E+05  1.196166E+05  3.459427E+05  8.347042E-11 -3.557857E-10
       281  13  1.839295E+01 -5.884428E+04  3.623570E+03  3.453181E+05  7.780700E-10  4.641222E-10
       281  14  1.694597E+02 -5.929255E+04  6.140319E+03  2.939560E+05  3.399210E-10 -1.340135E-09
       281  15  1.744293E+03 -5.888759E+04  1.101322E+04  3.453178E+05 -6.571792E-10  4.243773E-10
       281  16  5.225298E+04  1.585185E+05  4.744654E+04  3.457251E+05  5.008332E-10  6.635773E-11
       281  17 -4.053797E+04 -2.307050E+05 -2.595469E+04  2.938463E+05 -2.860930E-10 -3.328501E-10
       281  18 -1.320634E+05 -6.190784E+05 -9.760486E+04  3.446933E+05 -1.150228E-09  1.396688E-10
       281  19 -5.221873E+04 -2.761611E+05 -4.019983E+04  3.449110E+05  1.120449E+04 -3.053594E+04
       281  20  4.087552E+04  1.121491E+05  3.823564E+04  2.940661E+05 -1.149005E+04 -2.661796E+04
       281  21  1.355346E+05  5.016058E+05  1.196196E+05  3.459434E+05 -3.358618E+04 -2.270084E+04
       281  22  1.852978E+01 -5.884424E+04  3.623819E+03  3.453181E+05  1.121626E+04  2.572537E+03
       281  23  1.696098E+02 -5.929248E+04  6.140626E+03  2.939560E+05 -1.148104E+04  5.637226E+03
       281  24  1.745525E+03 -5.888720E+04  1.101549E+04  3.453175E+05 -3.357947E+04  8.698693E+03
       281  25  5.225346E+04  1.585199E+05  4.744917E+04  3.457254E+05  1.122807E+04  3.569238E+04
       281  26 -4.053744E+04 -2.307034E+05 -2.595174E+04  2.938459E+05 -1.147204E+04  3.788373E+04
       281  27 -1.320617E+05 -6.190764E+05 -9.759972E+04  3.446922E+05 -3.357282E+04  4.007053E+04
       282   1  1.968990E+05  7.688899E+05  1.742746E+05  3.404900E+05  4.945997E+04  2.788425E+04
       282   2  2.990599E+05  1.147903E+06  2.761418E+05  3.062104E+05  5.508684E+04 -4.610556E+04
       282   3  4.439590E+05  1.547731E+06  4.368763E+05  3.722974E+05  1.858265E+04 -1.201792E+05
       282   4 -1.819764E+02 -5.688840E+04  1.428305E+04  3.447902E+05  4.945766E+04 -1.060218E+04
       282   5  7.087138E+03 -6.212505E+04  2.547988E+04  2.946117E+05  5.509397E+04 -2.381071E+04
       282   6  4.660566E+04 -5.718696E+04  5.340045E+04  3.448012E+05  1.856561E+04 -3.705533E+04
       282   7 -1.973028E+05 -8.820089E+05 -1.457349E+05  3.490843E+05  4.945480E+04 -4.903861E+04
       282   8 -2.849777E+05 -1.270765E+06 -2.252598E+05  2.830357E+05  5.510029E+04 -1.558472E+03
       282   9 -3.509274E+05 -1.659731E+06 -3.302306E+05  3.173758E+05  1.854125E+04  4.585510E+04
       282  10  1.968962E+05  7.688884E+05  1.742685E+05  3.404889E+05 -7.246003E-10  8.417458E-10
       282  11  2.990561E+05  1.147899E+06  2.761321E+05  3.062125E+05 -1.206692E-09  1.592512E-09
       282  12  4.439547E+05  1.547716E+06  4.368485E+05  3.722992E+05 -6.216650E-10  7.695967E-10
       282  13 -1.846336E+02 -5.688918E+04  1.427824E+04  3.447906E+05 -1.243707E-09  1.343037E-09
       282  14  7.083725E+03 -6.212647E+04  2.547311E+04  2.946128E+05 -4.321022E-10 -8.134812E-10
       282  15  4.660492E+04 -5.718853E+04  5.339722E+04  3.448018E+05 -8.615972E-10  3.532177E-10
       282  16 -1.973061E+05 -8.820121E+05 -1.457441E+05  3.490863E+05 -9.841821E-10 -3.609749E-10
       282  17 -2.849810E+05 -1.270766E+06 -2.252655E+05  2.830358E+05  4.325551E-10 -6.748313E-10
       282  18 -3.509284E+05 -1.659733E+06 -3.302352E+05  3.173751E+05  6.893118E-11 -7.826589E-10
       282  19  1.968990E+05  7.688899E+05  1.742746E+05  3.404900E+05 -4.945997E+04 -2.788425E+04
       282  20  2.990599E+05  1.147903E+06  2.761418E+05  3.062104E+05 -5.508684E+04  4.610556E+04
       282  21  4.439590E+05  1.547731E+06  4.368763E+05  3.722974E+05 -1.858265E+04  1.201792E+05
       282  22 -1.819764E+02 -5.688840E+04  1.428305E+04  3.447902E+05 -4.945766E+04  1.060218E+04
       282  23  7.087138E+03 -6.212505E+04  2.547988E+04  2.946117E+05 -5.509397E+04  2.381071E+04
       282  24  4.660566E+04 -5.718696E+04  5.340045E+04  3.448012E+05 -1.856561E+04  3.705533E+04
       282  25 -1.973028E+05 -8.820089E+05 -1.457349E+05  3.490843E+05 -4.945480E+04  4.903861E+04
       282  26 -2.849777E+05 -1.270765E+06 -2.252598E+05  2.830357E+05 -5.510029E+04  1.558472E+03
       282  27 -3.509274E+05 -1.659731E+06 -3.302306E+05  3.173758E+05 -1.854125E+04 -4.585510E+04
       283   1  4.970908E+05  1.342700E+05  1.309594E+05  1.092693E+05  3.378650E+04 -5.881821E+03
       283   2  3.776821E+05  9.456065E+04  8.483358E+04  9.098592E+04  1.205508E+04 -1.765895E+04
       283   3  2.635256E+05  6.460937E+04  5.528530E+04  1.027694E+05 -9.679986E+03 -1.620151E+04
       283   4 -6.494744E+03  9.508528E+03  1.063689E+04  1.034205E+05  7.305278E+03 -5.903353E+03
       283   5 -7.445891E+03  1.608183E+03  5.137331E+03  8.839066E+04  4.647147E+03 -1.766621E+04
       283   6 -6.466134E+03  1.597676E+02  2.978426E+03  1.034281E+05  1.980812E+03 -1.619099E+04
       283   7 -5.098464E+05 -1.152708E+05 -1.097008E+05  9.757629E+04 -1.915457E+04 -5.924397E+03
       283   8 -3.924332E+05 -9.135363E+04 -7.456676E+04  8.579699E+04 -2.756270E+03 -1.767341E+04
       283   9 -2.763876E+05 -6.429410E+04 -4.933136E+04  1.040865E+05  1.363666E+04 -1.618044E+04
       283  10  4.970896E+05  1.342697E+05  1.309572E+05  1.092695E+05  5.120718E-10 -7.521770E-10
       283  11  3.776819E+05  9.456028E+04  8.483272E+04  9.098609E+04 -5.997738E-10 -2.961066E-10
       283  12  2.635254E+05  6.460906E+04  5.528463E+04  1.027693E+05 -1.122966E-09 -1.612803E-09
       283  13 -6.494810E+03  9.508476E+03  1.063673E+04  1.034205E+05  3.234969E-10  1.482547E-09
       283  14 -7.445998E+03  1.607842E+03  5.136704E+03  8.839072E+04 -5.094331E-10 -2.383020E-09
       283  15 -6.466208E+03  1.594850E+02  2.977926E+03  1.034282E+05 -4.678228E-11 -2.886122E-09
       283  16 -5.098468E+05 -1.152709E+05 -1.097016E+05  9.757620E+04 -1.209399E-09  3.621727E-10
       283  17 -3.924333E+05 -9.135397E+04 -7.456736E+04  8.579695E+04  4.151178E-10 -3.117918E-09
       283  18 -2.763878E+05 -6.429443E+04 -4.933220E+04  1.040867E+05  9.761805E-10 -2.279168E-09
       283  19  4.970908E+05  1.342700E+05  1.309594E+05  1.092693E+05 -3.378650E+04  5.881821E+03
       283  20  3.776821E+05  9.456065E+04  8.483358E+04  9.098592E+04 -1.205508E+04  1.765895E+04
       283  21  2.635256E+05  6.460937E+04  5.528530E+04  1.027694E+05  9.679986E+03  1.620151E+04
       283  22 -6.494744E+03  9.508528E+03  1.063689E+04  1.034205E+05 -7.305278E+03  5.903353E+03
       283  23 -7.445891E+03  1.608183E+03  5.137331E+03  8.839066E+04 -4.647147E+03  1.766621E+04
       283  24 -6.466134E+03  1.597676E+02  2.978426E+03  1.034281E+05 -1.980812E+03  1.619099E+04
       283  25 -5.098464E+05 -1.152708E+05 -1.097008E+05  9.757629E+04  1.915457E+04  5.924397E+03
       283  26 -3.924332E+05 -9.135363E+04 -7.456676E+04  8.579699E+04  2.756270E+03  1.767341E+04
       283  27 -2.763876E+05 -6.429410E+04 -4.933136E+04  1.040865E+05 -1.363666E+04  1.618044E+04
       284   1  1.835767E+05  4.599440E+04  3.927217E+04  1.038699E+05 -7.756468E+03 -1.143558E+04
       284   2  6.674031E+04  1.774655E+04  1.574215E+04  8.827283E+04 -9.777546E+03 -4.533281E+03
       284   3 -4.974090E+04 -9.936642E+03 -6.348291E+03  1.035319E+05 -1.179939E+04  3.226513E+03
       284   4 -6.859226E+03  5.328299E+02  2.381912E+03  1.036022E+05  1.569657E+03 -1.142671E+04
       284   5 -6.921184E+03  1.798682E+02  1.568202E+03  8.817418E+04  7.829625E+02 -4.522921E+03
       284   6 -6.853675E+03  1.784468E+02  1.337603E+03  1.036025E+05 -4.838960E+00  3.238444E+03
       284   7 -1.972601E+05 -4.493085E+04 -3.450972E+04  1.033346E+05  1.089299E+04 -1.141785E+04
       284   8 -8.057722E+04 -1.738708E+04 -1.260558E+04  8.807554E+04  1.134225E+04 -4.512563E+03
       284   9  3.603565E+04  1.029351E+04  9.023950E+03  1.036732E+05  1.179050E+04  3.250378E+03
       284  10  1.835766E+05  4.599424E+04  3.927181E+04  1.038698E+05 -4.220916E-09 -4.064357E-10
       284  11  6.674021E+04  1.774650E+04  1.574193E+04  8.827279E+04 -2.060885E-09 -3.608425E-09
       284  12 -4.974106E+04 -9.936690E+03 -6.348572E+03  1.035319E+05  3.942607E-10 -4.596410E-10
       284  13 -6.859264E+03  5.326891E+02  2.381662E+03  1.036022E+05  4.342062E-10 -4.040518E-10
       284  14 -6.921190E+03  1.798461E+02  1.568162E+03  8.817418E+04 -4.443394E-10 -1.146636E-09
       284  15 -6.853678E+03  1.784355E+02  1.337583E+03  1.036025E+05  4.256328E-10  1.703029E-09
       284  16 -1.972603E+05 -4.493102E+04 -3.451019E+04  1.033347E+05  3.814861E-09  1.567126E-09
       284  17 -8.057737E+04 -1.738713E+04 -1.260586E+04  8.807558E+04  2.360598E-09  5.202688E-10
       284  18  3.603549E+04  1.029346E+04  9.023669E+03  1.036731E+05  4.237127E-10  1.567110E-09
       284  19  1.835767E+05  4.599440E+04  3.927217E+04  1.038699E+05  7.756468E+03  1.143558E+04
       284  20  6.674031E+04  1.774655E+04  1.574215E+04  8.827283E+04  9.777546E+03  4.533281E+03
       284  21 -4.974090E+04 -9.936642E+03 -6.348291E+03  1.035319E+05  1.179939E+04 -3.226513E+03
       284  22 -6.859226E+03  5.328299E+02  2.381912E+03  1.036022E+05 -1.569657E+03  1.142671E+04
       284  23 -6.921184E+03  1.798682E+02  1.568202E+03  8.817418E+04 -7.829625E+02  4.522921E+03
       284  24 -6.853675E+03  1.784468E+02  1.337603E+03  1.036025E+05  4.838960E+00 -3.238444E+03
       284  25 -1.972601E+05 -4.493085E+04 -3.450972E+04  1.033346E+05 -1.089299E+04  1.141785E+04
       284  26 -8.057722E+04 -1.738708E+04 -1.260558E+04  8.807554E+04 -1.134225E+04  4.512563E+03
       284  27  3.603565E+04  1.029351E+04  9.023950E+03  1.036732E+05 -1.179050E+04 -3.250378E+03
       285   1 -1.287939E+05 -2.879898E+04 -2.151445E+04  1.035764E+05 -1.209396E+04  8.089472E+03
       285   2 -2.453787E+05 -5.649498E+04 -4.306353E+04  8.797356E+04 -1.131440E+04  1.573492E+04
       285   3 -3.620701E+05 -8.406463E+04 -6.510350E+04  1.032105E+05 -1.053266E+04  2.221449E+04
       285   4 -6.846886E+03  1.711431E+02  1.379252E+03  1.035987E+05 -2.492186E+02  8.101220E+03
       285   5 -6.941734E+03  1.713174E+02  1.793095E+03  8.817898E+04 -1.149200E+03  1.574396E+04
       285   6 -6.864886E+03  5.900290E+02  2.882341E+03  1.035983E+05 -2.046864E+03  2.222108E+04
       285   7  1.151148E+05  2.914048E+04  2.427284E+04  1.036210E+05  1.159779E+04  8.112968E+03
       285   8  2.315504E+05  5.683437E+04  4.664762E+04  8.838447E+04  9.019804E+03  1.575301E+04
       285   9  3.484620E+05  8.523728E+04  7.086270E+04  1.039862E+05  6.443674E+03  2.222768E+04
       285  10 -1.287941E+05 -2.879909E+04 -2.151485E+04  1.035765E+05  8.864152E-09 -1.852610E-10
       285  11 -2.453789E+05 -5.649528E+04 -4.306423E+04  8.797370E+04 -1.759929E-08  3.907024E-10
       285  12 -3.620703E+05 -8.406519E+04 -6.510464E+04  1.032107E+05 -3.930933E-08 -3.471805E-09
       285  13 -6.846904E+03  1.710726E+02  1.379129E+03  1.035987E+05  9.925436E-10 -1.796596E-09
       285  14 -6.941802E+03  1.710509E+02  1.792627E+03  8.817900E+04 -2.402646E-11  1.677310E-09
       285  15 -6.865023E+03  5.894976E+02  2.881405E+03  1.035983E+05  6.694145E-11 -1.245923E-09
       285  16  1.151146E+05  2.914038E+04  2.427246E+04  1.036209E+05 -8.756137E-09 -6.040263E-10
       285  17  2.315502E+05  5.683408E+04  4.664700E+04  8.838435E+04  1.757080E-08 -3.321194E-09
       285  18  3.484618E+05  8.523674E+04  7.086170E+04  1.039861E+05  3.946744E-08 -1.760816E-09
       285  19 -1.287939E+05 -2.879898E+04 -2.151445E+04  1.035764E+05  1.209396E+04 -8.089472E+03
       285  20 -2.453787E+05 -5.649498E+04 -4.306353E+04  8.797356E+04  1.131440E+04 -1.573492E+04
       285  21 -3.620701E+05 -8.406463E+04 -6.510350E+04  1.032105E+05  1.053266E+04 -2.221449E+04
       285  22 -6.846886E+03  1.711431E+02  1.379252E+03  1.035987E+05  2.492186E+02 -8.101220E+03
       285  23 -6.941734E+03  1.713174E+02  1.793095E+03  8.817898E+04  1.149200E+03 -1.574396E+04
       285  24 -6.864886E+03  5.900290E+02  2.882341E+03  1.035983E+05  2.046864E+03 -2.222108E+04
       285  25  1.151148E+05  2.914048E+04  2.427284E+04  1.036210E+05 -1.159779E+04 -8.112968E+03
       285  26  2.315504E+05  5.683437E+04  4.664762E+04  8.838447E+04 -9.019804E+03 -1.575301E+04
       285  27  3.484620E+05  8.523728E+04  7.086270E+04  1.039862E+05 -6.443674E+03 -2.222768E+04
       286   1 -4.412506E+05 -1.035745E+05 -7.982653E+04  1.041686E+05 -1.408000E+04  2.694170E+04
       286   2 -5.570755E+05 -1.305477E+05 -1.063406E+05  8.523631E+04  7.465928E+03  2.634051E+04
       286   3 -6.747544E+05 -1.537804E+05 -1.459531E+05  9.612054E+04  2.901487E+04  8.466175E+03
       286   4 -6.371456E+03  1.189368E+02  3.652625E+03  1.033720E+05 -2.544176E+03  2.694999E+04
       286   5 -7.615800E+03  1.931532E+03  6.382302E+03  8.846061E+04 -5.853777E+03  2.632909E+04
       286   6 -6.412156E+03  1.179924E+04  1.328013E+04  1.033638E+05 -9.155839E+03  8.442276E+03
       286   7  4.286901E+05  1.038013E+05  8.712360E+04  1.025747E+05  8.999542E+03  2.695825E+04
       286   8  5.421311E+05  1.343919E+05  1.190898E+05  9.168776E+04 -1.918507E+04  2.631753E+04
       286   9  6.623434E+05  1.773477E+05  1.724876E+05  1.106148E+05 -4.736748E+04  8.417500E+03
       286  10 -4.412510E+05 -1.035754E+05 -7.982826E+04  1.041689E+05  4.173351E-08 -1.160054E-09
       286  11 -5.570757E+05 -1.305484E+05 -1.063420E+05  8.523615E+04  1.910079E-08  1.137591E-09
       286  12 -6.747553E+05 -1.537808E+05 -1.459548E+05  9.612034E+04 -7.068621E-09  2.489095E-09
       286  13 -6.371658E+03  1.181551E+02  3.651248E+03  1.033720E+05  3.545593E-10 -6.565560E-10
       286  14 -7.616023E+03  1.930778E+03  6.380935E+03  8.846074E+04 -3.016548E-10  1.663748E-09
       286  15 -6.412265E+03  1.179915E+04  1.327984E+04  1.033638E+05 -7.275482E-11  1.077776E-09
       286  16  4.286898E+05  1.038005E+05  8.712208E+04  1.025745E+05 -4.187958E-08 -8.539425E-10
       286  17  5.421306E+05  1.343910E+05  1.190878E+05  9.168817E+04 -1.945322E-08  9.303170E-10
       286  18  6.623410E+05  1.773470E+05  1.724832E+05  1.106151E+05  6.682499E-09  6.408819E-10
       286  19 -4.412506E+05 -1.035745E+05 -7.982653E+04  1.041686E+05  1.408000E+04 -2.694170E+04
       286  20 -5.570755E+05 -1.305477E+05 -1.063406E+05  8.523631E+04 -7.465928E+03 -2.634051E+04
       286  21 -6.747544E+05 -1.537804E+05 -1.459531E+05  9.612054E+04 -2.901487E+04 -8.466175E+03
       286  22 -6.371456E+03  1.189368E+02  3.652625E+03  1.033720E+05  2.544176E+03 -2.694999E+04
       286  23 -7.615800E+03  1.931532E+03  6.382302E+03  8.846061E+04  5.853777E+03 -2.632909E+04
       286  24 -6.412156E+03  1.179924E+04  1.328013E+04  1.033638E+05  9.155839E+03 -8.442276E+03
       286  25  4.286901E+05  1.038013E+05  8.712360E+04  1.025747E+05 -8.999542E+03 -2.695825E+04
       286  26  5.421311E+05  1.343919E+05  1.190898E+05  9.168776E+04  1.918507E+04 -2.631753E+04
       286  27  6.623434E+05  1.773477E+05  1.724876E+05  1.106148E+05  4.736748E+04 -8.417500E+03
       287   1 -1.934132E+05 -8.362103E+05 -1.870754E+05  2.123033E+05 -8.191658E+03 -3.691193E+04
       287   2 -1.298090E+05 -5.946713E+05 -1.122686E+05  1.810965E+05 -2.294033E+04 -7.023756E+03
       287   3 -7.167315E+04 -3.582210E+05 -5.829366E+04  2.118743E+05 -1.687158E+04  2.288770E+04
       287   4 -6.224597E+02 -5.931510E+04 -4.361786E+02  2.119373E+05 -8.198209E+03 -7.276706E+02
       287   5 -2.163226E+02 -5.930425E+04  1.180774E+02  1.809467E+05 -2.293951E+04 -7.824878E+02
       287   6 -7.123083E+01 -5.923329E+04  6.532140E+02  2.119373E+05 -1.687155E+04 -8.261515E+02
       287   7  1.921251E+05  7.181360E+05  1.861650E+05  2.115707E+05 -8.204805E+03  3.550174E+04
       287   8  1.293579E+05  4.763339E+05  1.124888E+05  1.807967E+05 -2.293869E+04  5.464080E+03
       287   9  7.152557E+04  2.398412E+05  5.959784E+04  2.120004E+05 -1.687153E+04 -2.455119E+04
       287  10 -1.934137E+05 -8.362118E+05 -1.870781E+05  2.123031E+05  4.352863E-12 -5.998949E-10
       287  11 -1.298096E+05 -5.946715E+05 -1.122696E+05  1.810964E+05 -4.918503E-10  7.236687E-10
       287  12 -7.167360E+04 -3.582216E+05 -5.829518E+04  2.118746E+05 -9.543102E-10 -4.794318E-10
       287  13 -6.225320E+02 -5.931512E+04 -4.363059E+02  2.119373E+05  8.227958E-10 -4.032040E-10
       287  14 -2.168878E+02 -5.930439E+04  1.170874E+02  1.809467E+05 -1.115901E-09 -2.175756E-09
       287  15 -7.153666E+01 -5.923336E+04  6.526778E+02  2.119373E+05 -6.858094E-10 -8.084812E-10
       287  16  1.921247E+05  7.181346E+05  1.861625E+05  2.115709E+05  1.366178E-10 -8.097369E-10
       287  17  1.293574E+05  4.763337E+05  1.124878E+05  1.807968E+05 -3.289543E-10 -6.826193E-10
       287  18  7.152510E+04  2.398405E+05  5.959617E+04  2.120001E+05 -7.504109E-10 -1.451459E-09
       287  19 -1.934132E+05 -8.362103E+05 -1.870754E+05  2.123033E+05  8.191658E+03  3.691193E+04
       287  20 -1.298090E+05 -5.946713E+05 -1.122686E+05  1.810965E+05  2.294033E+04  7.023756E+03
       287  21 -7.167315E+04 -3.582210E+05 -5.829366E+04  2.118743E+05  1.687158E+04 -2.288770E+04
       287  22 -6.224597E+02 -5.931510E+04 -4.361786E+02  2.119373E+05  8.198209E+03  7.276706E+02
       287  23 -2.163226E+02 -5.930425E+04  1.180774E+02  1.809467E+05  2.293951E+04  7.824878E+02
       287  24 -7.123083E+01 -5.923329E+04  6.532140E+02  2.119373E+05  1.687155E+04  8.261515E+02
       287  25  1.921251E+05  7.181360E+05  1.861650E+05  2.115707E+05  8.204805E+03 -3.550174E+04
       287  26  1.293579E+05  4.763339E+05  1.124888E+05  1.807967E+05  2.293869E+04 -5.464080E+03
       287  27  7.152557E+04  2.398412E+05  5.959784E+04  2.120004E+05  1.687153E+04  2.455119E+04
       288   1 -3.285486E+04 -1.954876E+05 -2.649043E+04  2.120881E+05 -7.071785E+03  1.935568E+04
       288   2  2.434164E+04  4.323612E+04  2.105117E+04  1.806547E+05  6.869430E+03  1.792200E+04
       288   3  8.202847E+04  2.823890E+05  6.965835E+04  2.123391E+05  2.045286E+04  1.648892E+04
       288   4 -9.634545E+01 -5.916929E+04  9.628245E+02  2.121900E+05 -7.072760E+03 -9.750582E+02
       288   5 -9.471206E+00 -5.931981E+04  1.851545E+03  1.806308E+05  6.869389E+03 -1.896898E+03
       288   6  4.818132E+02 -5.918509E+04  3.450881E+03  2.121900E+05  2.045358E+04 -2.817610E+03
       288   7  3.266124E+04  7.716766E+04  2.841668E+04  2.122919E+05 -7.073742E+03 -2.131017E+04
       288   8 -2.436098E+04 -1.618647E+05 -1.734706E+04  1.806069E+05  6.869349E+03 -2.171260E+04
       288   9 -8.107161E+04 -4.006463E+05 -6.276067E+04  2.120409E+05  2.045431E+04 -2.211376E+04
       288  10 -3.285501E+04 -1.954880E+05 -2.649123E+04  2.120882E+05 -1.138045E-09  3.222510E-09
       288  11  2.434151E+04  4.323576E+04  2.105048E+04  1.806546E+05 -6.745362E-10 -8.167620E-09
       288  12  8.202795E+04  2.823886E+05  6.965705E+04  2.123388E+05  1.326894E-09 -1.695736E-08
       288  13 -9.639942E+01 -5.916930E+04  9.627287E+02  2.121900E+05 -8.422854E-10  1.133620E-10
       288  14 -9.522849E+00 -5.931983E+04  1.851450E+03  1.806308E+05  7.219890E-10 -5.221326E-10
       288  15  4.813618E+02 -5.918521E+04  3.450079E+03  2.121900E+05  2.352630E-09  6.486019E-10
       288  16  3.266106E+04  7.716716E+04  2.841573E+04  2.122918E+05 -1.834966E-10 -4.360232E-09
       288  17 -2.436116E+04 -1.618652E+05 -1.734803E+04  1.806070E+05  5.359606E-12  7.815887E-09
       288  18 -8.107219E+04 -4.006469E+05 -6.276237E+04  2.120413E+05  1.910762E-09  1.712173E-08
       288  19 -3.285486E+04 -1.954876E+05 -2.649043E+04  2.120881E+05  7.071785E+03 -1.935568E+04
       288  20  2.434164E+04  4.323612E+04  2.105117E+04  1.806547E+05 -6.869430E+03 -1.792200E+04
       288  21  8.202847E+04  2.823890E+05  6.965835E+04  2.123391E+05 -2.045286E+04 -1.648892E+04
       288  22 -9.634545E+01 -5.916929E+04  9.628245E+02  2.121900E+05  7.072760E+03  9.750582E+02
       288  23 -9.471206E+00 -5.931981E+04  1.851545E+03  1.806308E+05 -6.869389E+03  1.896898E+03
       288  24  4.818132E+02 -5.918509E+04  3.450881E+03  2.121900E+05 -2.045358E+04  2.817610E+03
       288  25  3.266124E+04  7.716766E+04  2.841668E+04  2.122919E+05  7.073742E+03  2.131017E+04
       288  26 -2.436098E+04 -1.618647E+05 -1.734706E+04  1.806069E+05 -6.869349E+03  2.171260E+04
       288  27 -8.107161E+04 -4.006463E+05 -6.276067E+04  2.120409E+05 -2.045431E+04  2.211376E+04
       289   1  1.203009E+05  4.459891E+05  1.022907E+05  2.104292E+05  3.020806E+04  2.023365E+04
       289   2  1.809174E+05  6.803104E+05  1.615608E+05  1.846179E+05  3.370820E+04 -2.119221E+04
       289   3  2.582355E+05  9.244164E+05  2.519889E+05  2.204708E+05  1.137830E+04 -6.265203E+04
       289   4 -1.388896E+02 -5.854611E+04  4.507278E+03  2.118661E+05  3.021113E+04 -3.414377E+03
       289   5  2.171231E+03 -6.024392E+04  8.090532E+03  1.810352E+05  3.370839E+04 -7.606567E+03
       289   6  1.473655E+04 -5.865852E+04  1.699553E+04  2.118708E+05  1.136225E+04 -1.181669E+04
       289   7 -1.205936E+05 -5.628356E+05 -9.328597E+04  2.133017E+05  3.021409E+04 -2.704363E+04
       289   8 -1.766095E+05 -8.002785E+05 -1.454089E+05  1.774568E+05  3.370843E+04  5.963162E+03
       289   9 -2.288307E+05 -1.040843E+06 -2.180562E+05  2.032844E+05  1.134479E+04  3.893860E+04
       289  10  1.202999E+05  4.459884E+05  1.022882E+05  2.104287E+05  8.935845E-10  1.948145E-08
       289  11  1.809160E+05  6.803096E+05  1.615578E+05  1.846185E+05 -1.413038E-09  9.006416E-09
       289  12  2.582343E+05  9.244122E+05  2.519813E+05  2.204713E+05 -4.352527E-10 -2.933853E-09
       289  13 -1.398729E+02 -5.854637E+04  4.505541E+03  2.118662E+05  1.278878E-09  1.385368E-09
       289  14  2.169995E+03 -6.024428E+04  8.088288E+03  1.810354E+05  2.886877E-10  3.240041E-09
       289  15  1.473638E+04 -5.865870E+04  1.699503E+04  2.118709E+05  2.308518E-10  8.782128E-10
       289  16 -1.205948E+05 -5.628367E+05 -9.328907E+04  2.133023E+05  1.694926E-09 -1.909450E-08
       289  17 -1.766108E+05 -8.002788E+05 -1.454111E+05  1.774566E+05  6.472367E-10 -8.851685E-09
       289  18 -2.288313E+05 -1.040844E+06 -2.180593E+05  2.032840E+05 -7.590400E-11  1.187727E-09
       289  19  1.203009E+05  4.459891E+05  1.022907E+05  2.104292E+05 -3.020806E+04 -2.023365E+04
       289  20  1.809174E+05  6.803104E+05  1.615608E+05  1.846179E+05 -3.370820E+04  2.119221E+04
       289  21  2.582355E+05  9.244164E+05  2.519889E+05  2.204708E+05 -1.137830E+04  6.265203E+04
       289  22 -1.388896E+02 -5.854611E+04  4.507278E+03  2.118661E+05 -3.021113E+04  3.414377E+03
       289  23  2.171231E+03 -6.024392E+04  8.090532E+03  1.810352E+05 -3.370839E+04  7.606567E+03
       289  24  1.473655E+04 -5.865852E+04  1.699553E+04  2.118708E+05 -1.136225E+04  1.181669E+04
       289  25 -1.205936E+05 -5.628356E+05 -9.328597E+04  2.133017E+05 -3.021409E+04  2.704363E+04
       289  26 -1.766095E+05 -8.002785E+05 -1.454089E+05  1.774568E+05 -3.370843E+04 -5.963162E+03
       289  27 -2.288307E+05 -1.040843E+06 -2.180562E+05  2.032844E+05 -1.134479E+04 -3.893860E+04
       290   1 -7.159332E+04 -3.538887E+05 -6.882950E+04  8.592707E+04 -3.062696E+03 -1.121502E+04
       290   2 -4.810976E+04 -2.544042E+05 -4.058733E+04  7.408427E+04 -8.380353E+03 -4.366960E+02
       290   3 -2.464209E+04 -1.562872E+05 -1.936536E+04  8.789440E+04 -5.610834E+03  1.034666E+04
       290   4  2.892776E+03 -5.371239E+04  3.358111E+03  8.761783E+04 -3.065997E+03  2.256561E+03
       290   5  4.216479E+02 -5.402791E+04  1.659026E+03  7.479133E+04 -8.380546E+03  1.394531E+03
       290   6 -4.366505E+01 -5.369981E+04  1.025935E+03  8.761705E+04 -5.609145E+03  5.356380E+02
       290   7  7.737242E+04  2.465468E+05  7.553999E+04  8.930942E+04 -3.069223E+03  1.573463E+04
       290   8  4.895047E+04  1.463863E+05  4.390313E+04  7.549862E+04 -8.380735E+03  3.226339E+03
       290   9  2.455417E+04  4.889789E+04  2.141707E+04  8.733966E+04 -5.607448E+03 -9.276975E+03
       290  10 -7.159337E+04 -3.538888E+05 -6.882975E+04  8.592704E+04 -1.735855E-10  5.930051E-11
       290  11 -4.810984E+04 -2.544042E+05 -4.058746E+04  7.408426E+04 -5.374607E-10 -1.140256E-09
       290  12 -2.464215E+04 -1.562874E+05 -1.936562E+04  8.789445E+04 -3.193909E-10  7.284603E-10
       290  13  2.892765E+03 -5.371240E+04  3.358084E+03  8.761784E+04  9.891157E-11 -1.924114E-09
       290  14  4.215719E+02 -5.402793E+04  1.658890E+03  7.479134E+04 -9.113473E-10 -2.469284E-10
       290  15 -4.369891E+01 -5.369982E+04  1.025876E+03  8.761706E+04  5.406626E-11 -3.250157E-09
       290  16  7.737234E+04  2.465465E+05  7.553950E+04  8.930946E+04  1.081701E-10 -8.290722E-11
       290  17  4.895040E+04  1.463863E+05  4.390298E+04  7.549864E+04  1.102981E-10  1.285515E-09
       290  18  2.455411E+04  4.889779E+04  2.141685E+04  8.733962E+04 -8.107755E-10  1.693615E-09
       290  19 -7.159332E+04 -3.538887E+05 -6.882950E+04  8.592707E+04  3.062696E+03  1.121502E+04
       290  20 -4.810976E+04 -2.544042E+05 -4.058733E+04  7.408427E+04  8.380353E+03  4.366960E+02
       290  21 -2.464209E+04 -1.562872E+05 -1.936536E+04  8.789440E+04  5.610834E+03 -1.034666E+04
       290  22  2.892776E+03 -5.371239E+04  3.358111E+03  8.761783E+04  3.065997E+03 -2.256561E+03
       290  23  4.216479E+02 -5.402791E+04  1.659026E+03  7.479133E+04  8.380546E+03 -1.394531E+03
       290  24 -4.366505E+01 -5.369981E+04  1.025935E+03  8.761705E+04  5.609145E+03 -5.356380E+02
       290  25  7.737242E+04  2.465468E+05  7.553999E+04  8.930942E+04  3.069223E+03 -1.573463E+04
       290  26  4.895047E+04  1.463863E+05  4.390313E+04  7.549862E+04  8.380735E+03 -3.226339E+03
       290  27  2.455417E+04  4.889789E+04  2.141707E+04  8.733966E+04  5.607448E+03  9.276975E+03
       291   1 -8.480722E+03 -8.917860E+04 -6.513938E+03  8.766185E+04 -1.556131E+03  8.899440E+03
       291   2  1.502705E+04  9.493678E+03  1.257066E+04  7.465733E+04  4.243036E+03  8.230057E+03
       291   3  3.874312E+04  1.083381E+05  3.214797E+04  8.774138E+04  9.821182E+03  7.560819E+03
       291   4  6.883796E+01 -5.381710E+04  8.694534E+02  8.771422E+04 -1.554794E+03  3.901264E+02
       291   5 -1.910609E+01 -5.387290E+04  7.077878E+02  7.466985E+04  4.244549E+03  3.839996E+01
       291   6  4.656578E+01 -5.382115E+04  8.182509E+02  8.771421E+04  9.822836E+03 -3.130787E+02
       291   7  8.618357E+03 -1.845426E+04  8.253048E+03  8.776659E+04 -1.553458E+03 -8.119664E+03
       291   8 -1.506546E+04 -1.172354E+05 -1.115500E+04  7.468236E+04  4.246062E+03 -8.152442E+03
       291   9 -3.865152E+04 -2.159550E+05 -3.051247E+04  8.768705E+04  9.824491E+03 -8.184967E+03
       291  10 -8.480746E+03 -8.917868E+04 -6.514091E+03  8.766186E+04 -3.745169E-10  5.054736E-09
       291  11  1.502702E+04  9.493601E+03  1.257050E+04  7.465730E+04  7.514976E-10 -1.028246E-08
       291  12  3.874300E+04  1.083380E+05  3.214769E+04  8.774132E+04  1.551261E-09 -1.720045E-08
       291  13  6.883532E+01 -5.381710E+04  8.694486E+02  8.771422E+04 -2.153873E-10 -1.728415E-09
       291  14 -1.912543E+01 -5.387290E+04  7.077540E+02  7.466985E+04 -3.679336E-11 -7.104870E-10
       291  15  4.646215E+01 -5.382118E+04  8.180694E+02  8.771421E+04  2.154609E-09 -2.398049E-09
       291  16  8.618337E+03 -1.845433E+04  8.252919E+03  8.776658E+04 -7.465911E-10 -3.977959E-09
       291  17 -1.506550E+04 -1.172355E+05 -1.115516E+04  7.468239E+04  2.983371E-10  8.323858E-09
       291  18 -3.865164E+04 -2.159551E+05 -3.051277E+04  8.768711E+04  1.420983E-09  1.829990E-08
       291  19 -8.480722E+03 -8.917860E+04 -6.513938E+03  8.766185E+04  1.556131E+03 -8.899440E+03
       291  20  1.502705E+04  9.493678E+03  1.257066E+04  7.465733E+04 -4.243036E+03 -8.230057E+03
       291  21  3.874312E+04  1.083381E+05  3.214797E+04  8.774138E+04 -9.821182E+03 -7.560819E+03
       291  22  6.883796E+01 -5.381710E+04  8.694534E+02  8.771422E+04  1.554794E+03 -3.901264E+02
       291  23 -1.910609E+01 -5.387290E+04  7.077878E+02  7.466985E+04 -4.244549E+03 -3.839996E+01
       291  24  4.656578E+01 -5.382115E+04  8.182509E+02  8.771421E+04 -9.822836E+03  3.130787E+02
       291  25  8.618357E+03 -1.845426E+04  8.253048E+03  8.776659E+04  1.553458E+03  8.119664E+03
       291  26 -1.506546E+04 -1.172354E+05 -1.115500E+04  7.468236E+04 -4.246062E+03  8.152442E+03
       291  27 -3.865152E+04 -2.159550E+05 -3.051247E+04  8.768705E+04 -9.824491E+03  8.184967E+03
       292   1  5.472150E+04  1.758036E+05  4.533810E+04  8.729542E+04  1.384933E+04  9.315751E+03
       292   2  7.926562E+04  2.729581E+05  6.913591E+04  7.543510E+04  1.503509E+04 -7.583820E+03
       292   3  1.084065E+05  3.735128E+05  1.050905E+05  8.902840E+04  5.026027E+03 -2.449139E+04
       292   4 -5.748769E+01 -5.371818E+04  9.475382E+02  8.757304E+04  1.385179E+04 -4.494393E+02
       292   5  3.500611E+02 -5.402562E+04  1.494609E+03  7.484634E+04  1.503388E+04 -1.221877E+03
       292   6  2.557158E+03 -5.373870E+04  3.002328E+03  8.757389E+04  5.018524E+03 -1.999772E+03
       292   7 -5.483957E+04 -2.831891E+05 -4.344513E+04  8.785054E+04  1.385423E+04 -1.021110E+04
       292   8 -7.857225E+04 -3.809079E+05 -6.615234E+04  7.425790E+04  1.503266E+04  5.136774E+03
       292   9 -1.033051E+05 -4.808218E+05 -9.909679E+04  8.612038E+04  5.010913E+03  2.047645E+04
       292  10  5.472127E+04  1.758034E+05  4.533757E+04  8.729532E+04  4.839941E-10  2.134755E-08
       292  11  7.926536E+04  2.729580E+05  6.913537E+04  7.543519E+04 -1.141431E-09  7.040627E-09
       292  12  1.084063E+05  3.735121E+05  1.050893E+05  8.902850E+04 -9.891309E-10 -1.220140E-09
       292  13 -5.769377E+01 -5.371823E+04  9.471773E+02  8.757304E+04  1.275745E-09 -2.930183E-09
       292  14  3.498180E+02 -5.402569E+04  1.494181E+03  7.484636E+04  7.539496E-10  1.713683E-10
       292  15  2.557130E+03 -5.373871E+04  3.002273E+03  8.757389E+04 -7.774508E-10 -3.207611E-09
       292  16 -5.483980E+04 -2.831893E+05 -4.344568E+04  8.785066E+04  1.974389E-09 -2.052301E-08
       292  17 -7.857250E+04 -3.809080E+05 -6.615281E+04  7.425784E+04  1.197111E-09 -9.073132E-09
       292  18 -1.033053E+05 -4.808223E+05 -9.909763E+04  8.612030E+04  3.417705E-10  2.408492E-09
       292  19  5.472150E+04  1.758036E+05  4.533810E+04  8.729542E+04 -1.384933E+04 -9.315751E+03
       292  20  7.926562E+04  2.729581E+05  6.913591E+04  7.543510E+04 -1.503509E+04  7.583820E+03
       292  21  1.084065E+05  3.735128E+05  1.050905E+05  8.902840E+04 -5.026027E+03  2.449139E+04
       292  22 -5.748769E+01 -5.371818E+04  9.475382E+02  8.757304E+04 -1.385179E+04  4.494393E+02
       292  23  3.500611E+02 -5.402562E+04  1.494609E+03  7.484634E+04 -1.503388E+04  1.221877E+03
       292  24  2.557158E+03 -5.373870E+04  3.002328E+03  8.757389E+04 -5.018524E+03  1.999772E+03
       292  25 -5.483957E+04 -2.831891E+05 -4.344513E+04  8.785054E+04 -1.385423E+04  1.021110E+04
       292  26 -7.857225E+04 -3.809079E+05 -6.615234E+04  7.425790E+04 -1.503266E+04 -5.136774E+03
       292  27 -1.033051E+05 -4.808218E+05 -9.909679E+04  8.612038E+04 -5.010913E+03 -2.047645E+04
       293   1  7.121861E+05  3.695549E+05  3.502137E+05  2.173830E+05  6.978917E+04 -2.078629E+04
       293   2  4.429824E+05  3.194577E+05  2.587387E+05  1.943192E+05  1.866888E+04 -6.506999E+04
       293   3  1.782327E+05  2.587398E+05  1.979192E+05  2.392240E+05 -3.238479E+04 -6.763308E+04
       293   4 -9.084061E+05 -3.175652E+04 -3.552612E+04  2.366408E+05 -2.410108E+04 -2.072771E+04
       293   5 -9.052575E+05 -5.481317E+03 -1.740005E+04  2.026578E+05 -1.508332E+04 -6.506797E+04
       293   6 -9.081640E+05 -2.771323E+02 -1.037562E+04  2.366543E+05 -6.020541E+03 -6.764454E+04
       293   7 -2.526568E+06 -4.332515E+05 -4.214167E+05  2.558481E+05 -1.177475E+05 -2.067492E+04
       293   8 -2.251767E+06 -3.305337E+05 -2.936311E+05  2.109780E+05 -4.876355E+04 -6.506687E+04
       293   9 -1.993422E+06 -2.593635E+05 -2.187218E+05  2.340890E+05  2.029866E+04 -6.765622E+04
       293  10  7.121807E+05  3.695532E+05  3.502038E+05  2.173841E+05  6.667380E-10  6.741228E-11
       293  11  4.429809E+05  3.194531E+05  2.587301E+05  1.943201E+05  1.191084E-11  4.702762E-11
       293  12  1.782303E+05  2.587346E+05  1.979086E+05  2.392222E+05  5.387114E-10 -1.291689E-10
       293  13 -9.084068E+05 -3.175714E+04 -3.552802E+04  2.366404E+05  1.685043E-11  2.541427E-11
       293  14 -9.052589E+05 -5.485922E+03 -1.740843E+04  2.026570E+05  3.747275E-10  2.081873E-11
       293  15 -9.081652E+05 -2.820533E+02 -1.038428E+04  2.366539E+05 -4.283828E-10 -1.951006E-10
       293  16 -2.526583E+06 -4.332557E+05 -4.214437E+05  2.558462E+05 -8.853136E-11  5.858106E-12
       293  17 -2.251771E+06 -3.305389E+05 -2.936436E+05  2.109754E+05  3.796479E-10  2.305365E-11
       293  18 -1.993424E+06 -2.593685E+05 -2.187312E+05  2.340901E+05 -3.042580E-10 -1.694091E-10
       293  19  7.121861E+05  3.695549E+05  3.502137E+05  2.173830E+05 -6.978917E+04  2.078629E+04
       293  20  4.429824E+05  3.194577E+05  2.587387E+05  1.943192E+05 -1.866888E+04  6.506999E+04
       293  21  1.782327E+05  2.587398E+05  1.979192E+05  2.392240E+05  3.238479E+04  6.763308E+04
       293  22 -9.084061E+05 -3.175652E+04 -3.552612E+04  2.366408E+05  2.410108E+04  2.072771E+04
       293  23 -9.052575E+05 -5.481317E+03 -1.740005E+04  2.026578E+05  1.508332E+04  6.506797E+04
       293  24 -9.081640E+05 -2.771323E+02 -1.037562E+04  2.366543E+05  6.020541E+03  6.764454E+04
       293  25 -2.526568E+06 -4.332515E+05 -4.214167E+05  2.558481E+05  1.177475E+05  2.067492E+04
       293  26 -2.251767E+06 -3.305337E+05 -2.936311E+05  2.109780E+05  4.876355E+04  6.506687E+04
       293  27 -1.993422E+06 -2.593635E+05 -2.187218E+05  2.340890E+05 -2.029866E+04  6.765622E+04
       294   1 -3.088730E+03  2.140128E+05  1.642025E+05  2.366601E+05 -2.356311E+04 -5.682639E+04
       294   2 -2.703234E+05  1.511125E+05  1.131705E+05  2.016846E+05 -2.445898E+04 -4.222270E+04
       294   3 -5.373512E+05  8.785538E+04  6.265590E+04  2.373310E+05 -2.536254E+04 -2.477521E+04
       294   4 -9.068757E+05 -1.387485E+03 -8.581300E+03  2.372391E+05 -4.577331E+03 -5.683220E+04
       294   5 -9.065335E+05 -1.259508E+02 -6.405853E+03  2.019258E+05 -1.386088E+03 -4.222255E+04
       294   6 -9.067647E+05  7.151023E+01 -6.554289E+03  2.372390E+05  1.797085E+03 -2.476751E+04
       294   7 -1.809874E+06 -2.168358E+05 -1.814009E+05  2.378171E+05  1.438146E+04 -5.683798E+04
       294   8 -1.542351E+06 -1.513877E+05 -1.259979E+05  2.021666E+05  2.166374E+04 -4.222238E+04
       294   9 -1.276045E+06 -8.771987E+04 -7.576760E+04  2.371470E+05  2.894094E+04 -2.475981E+04
       294  10 -3.090191E+03  2.140092E+05  1.641954E+05  2.366590E+05  1.378913E-10 -6.682515E-11
       294  11 -2.703245E+05  1.511105E+05  1.131660E+05  2.016838E+05  4.694618E-12 -1.474621E-11
       294  12 -5.373520E+05  8.785455E+04  6.265354E+04  2.373305E+05  1.696034E-10 -1.395881E-12
       294  13 -9.068766E+05 -1.390958E+03 -8.587406E+03  2.372389E+05  3.718986E-11 -2.056825E-10
       294  14 -9.065339E+05 -1.278649E+02 -6.409205E+03  2.019257E+05  1.628791E-10 -7.110205E-11
       294  15 -9.067649E+05  7.085089E+01 -6.555447E+03  2.372390E+05  1.465840E-11 -2.106300E-11
       294  16 -1.809875E+06 -2.168393E+05 -1.814073E+05  2.378178E+05  1.720496E-11 -2.672688E-10
       294  17 -1.542352E+06 -1.513897E+05 -1.260021E+05  2.021673E+05  1.458311E-10 -5.336059E-11
       294  18 -1.276046E+06 -8.772075E+04 -7.577033E+04  2.371476E+05 -1.854359E-10  4.549422E-11
       294  19 -3.088730E+03  2.140128E+05  1.642025E+05  2.366601E+05  2.356311E+04  5.682639E+04
       294  20 -2.703234E+05  1.511125E+05  1.131705E+05  2.016846E+05  2.445898E+04  4.222270E+04
       294  21 -5.373512E+05  8.785538E+04  6.265590E+04  2.373310E+05  2.536254E+04  2.477521E+04
       294  22 -9.068757E+05 -1.387485E+03 -8.581300E+03  2.372391E+05  4.577331E+03  5.683220E+04
       294  23 -9.065335E+05 -1.259508E+02 -6.405853E+03  2.019258E+05  1.386088E+03  4.222255E+04
       294  24 -9.067647E+05  7.151023E+01 -6.554289E+03  2.372390E+05 -1.797085E+03  2.476751E+04
       294  25 -1.809874E+06 -2.168358E+05 -1.814009E+05  2.378171E+05 -1.438146E+04  5.683798E+04
       294  26 -1.542351E+06 -1.513877E+05 -1.259979E+05  2.021666E+05 -2.166374E+04  4.222238E+04
       294  27 -1.276045E+06 -8.771987E+04 -7.576760E+04  2.371470E+05 -2.894094E+04  2.475981E+04
       295   1 -7.186764E+05  4.472639E+04  2.695365E+04  2.367504E+05 -2.397165E+04 -1.362788E+04
       295   2 -9.850147E+05 -1.908634E+04 -2.663595E+04  2.021424E+05 -1.595129E+04  4.237333E+03
       295   3 -1.253017E+06 -8.575966E+04 -8.616906E+04  2.382637E+05 -7.933726E+03  2.030582E+04
       295   4 -9.069031E+05  1.806130E+02 -7.379305E+03  2.372617E+05  3.017260E+03 -1.361842E+04
       295   5 -9.062683E+05 -1.742782E+02 -1.090573E+04  2.018977E+05  8.448549E+03  4.245084E+03
       295   6 -9.069201E+05 -2.936826E+03 -1.857589E+04  2.372627E+05  1.388037E+04  2.031212E+04
       295   7 -1.095094E+06 -4.436677E+04 -4.171095E+04  2.377727E+05  2.999820E+04 -1.360892E+04
       295   8 -8.275147E+05  1.873772E+04  4.826432E+03  2.016529E+05  3.285142E+04  4.252814E+03
       295   9 -5.607065E+05  7.987906E+04  4.901334E+04  2.362610E+05  3.570638E+04  2.031835E+04
       295  10 -7.186771E+05  4.472603E+04  2.695222E+04  2.367502E+05  1.430940E-10  1.688815E-11
       295  11 -9.850149E+05 -1.908643E+04 -2.663647E+04  2.021425E+05 -2.493845E-11  4.577099E-11
       295  12 -1.253018E+06 -8.576012E+04 -8.616995E+04  2.382638E+05  7.468063E-11 -4.479136E-12
       295  13 -9.069031E+05  1.804115E+02 -7.379671E+03  2.372617E+05  7.088489E-11  5.432468E-12
       295  14 -9.062684E+05 -1.743167E+02 -1.090589E+04  2.018977E+05  1.225927E-11  5.143708E-11
       295  15 -9.069204E+05 -2.937321E+03 -1.857703E+04  2.372624E+05 -1.249799E-10 -3.159859E-11
       295  16 -1.095095E+06 -4.436721E+04 -4.171299E+04  2.377731E+05 -4.876372E-12  1.193290E-11
       295  17 -8.275158E+05  1.873741E+04  4.824368E+03  2.016528E+05 -6.441806E-11  1.223350E-10
       295  18 -5.607080E+05  7.987827E+04  4.901016E+04  2.362604E+05 -1.125451E-10  3.600614E-11
       295  19 -7.186764E+05  4.472639E+04  2.695365E+04  2.367504E+05  2.397165E+04  1.362788E+04
       295  20 -9.850147E+05 -1.908634E+04 -2.663595E+04  2.021424E+05  1.595129E+04 -4.237333E+03
       295  21 -1.253017E+06 -8.575966E+04 -8.616906E+04  2.382637E+05  7.933726E+03 -2.030582E+04
       295  22 -9.069031E+05  1.806130E+02 -7.379305E+03  2.372617E+05 -3.017260E+03  1.361842E+04
       295  23 -9.062683E+05 -1.742782E+02 -1.090573E+04  2.018977E+05 -8.448549E+03 -4.245084E+03
       295  24 -9.069201E+05 -2.936826E+03 -1.857589E+04  2.372627E+05 -1.388037E+04 -2.031212E+04
       295  25 -1.095094E+06 -4.436677E+04 -4.171095E+04  2.377727E+05 -2.999820E+04  1.360892E+04
       295  26 -8.275147E+05  1.873772E+04  4.826432E+03  2.016529E+05 -3.285142E+04 -4.252814E+03
       295  27 -5.607065E+05  7.987906E+04  4.901334E+04  2.362610E+05 -3.570638E+04 -2.031835E+04
       296   1 -1.438324E+06 -1.263053E+05 -1.267339E+05  2.297818E+05 -9.719601E+03  3.125233E+04
       296   2 -1.693904E+06 -2.040132E+05 -2.069334E+05  2.218643E+05  5.272841E+04  3.579436E+04
       296   3 -1.972439E+06 -3.417058E+05 -3.428380E+05  2.829096E+05  1.151363E+05  1.216469E+04
       296   4 -9.102053E+05  4.565490E+01 -2.382575E+04  2.368739E+05  1.704658E+04  3.125743E+04
       296   5 -9.023178E+05 -1.253138E+04 -4.228815E+04  2.023885E+05  3.903126E+04  3.578806E+04
       296   6 -9.103749E+05 -7.800993E+04 -8.828081E+04  2.368722E+05  6.100397E+04  1.215803E+04
       296   7 -3.818169E+05  1.263805E+05  7.907183E+04  2.439722E+05  4.383507E+04  3.126313E+04
       296   8 -1.101352E+05  1.789120E+05  1.223237E+05  1.828872E+05  2.531688E+04  3.578264E+04
       296   9  1.527366E+05  1.856134E+05  1.662086E+05  1.907554E+05  6.779060E+03  1.215944E+04
       296  10 -1.438324E+06 -1.263064E+05 -1.267359E+05  2.297821E+05  8.515687E-11  4.213450E-11
       296  11 -1.693908E+06 -2.040153E+05 -2.069411E+05  2.218628E+05  5.662532E-14  2.843250E-11
       296  12 -1.972453E+06 -3.417095E+05 -3.428632E+05  2.829085E+05  2.288313E-10  7.347319E-11
       296  13 -9.102059E+05  4.452834E+01 -2.382813E+04  2.368735E+05 -4.869749E-11  6.375440E-12
       296  14 -9.023197E+05 -1.253317E+04 -4.229342E+04  2.023873E+05  1.473633E-10  1.913229E-12
       296  15 -9.103789E+05 -7.801109E+04 -8.828809E+04  2.368716E+05 -2.736648E-10 -4.553450E-12
       296  16 -3.818192E+05  1.263789E+05  7.906638E+04  2.439711E+05 -7.945666E-11 -3.907341E-11
       296  17 -1.101362E+05  1.789105E+05  1.223201E+05  1.828865E+05  8.259450E-11  3.467691E-12
       296  18  1.527365E+05  1.856133E+05  1.662082E+05  1.907553E+05  9.313254E-11 -9.046049E-14
       296  19 -1.438324E+06 -1.263053E+05 -1.267339E+05  2.297818E+05  9.719601E+03 -3.125233E+04
       296  20 -1.693904E+06 -2.040132E+05 -2.069334E+05  2.218643E+05 -5.272841E+04 -3.579436E+04
       296  21 -1.972439E+06 -3.417058E+05 -3.428380E+05  2.829096E+05 -1.151363E+05 -1.216469E+04
       296  22 -9.102053E+05  4.565490E+01 -2.382575E+04  2.368739E+05 -1.704658E+04 -3.125743E+04
       296  23 -9.023178E+05 -1.253138E+04 -4.228815E+04  2.023885E+05 -3.903126E+04 -3.578806E+04
       296  24 -9.103749E+05 -7.800993E+04 -8.828081E+04  2.368722E+05 -6.100397E+04 -1.215803E+04
       296  25 -3.818169E+05  1.263805E+05  7.907183E+04  2.439722E+05 -4.383507E+04 -3.126313E+04
       296  26 -1.101352E+05  1.789120E+05  1.223237E+05  1.828872E+05 -2.531688E+04 -3.578264E+04
       296  27  1.527366E+05  1.856134E+05  1.662086E+05  1.907554E+05 -6.779060E+03 -1.215944E+04
       297   1  5.180749E+05  2.503456E+05  2.405001E+05  1.726319E+05  5.483638E+04 -1.267140E+04
       297   2  3.176730E+05  1.980373E+05  1.673527E+05  1.485535E+05  1.757327E+04 -3.899192E+04
       297   3  1.234185E+05  1.502308E+05  1.195966E+05  1.750039E+05 -1.966519E+04 -3.870322E+04
       297   4 -5.066370E+05 -3.445406E+03 -3.798551E+03  1.747265E+05 -2.261941E+03 -1.266325E+04
       297   5 -5.063137E+05 -6.633314E+02 -2.104932E+03  1.494604E+05 -1.174873E+03 -3.899576E+04
       297   6 -5.065329E+05 -3.110479E+01 -1.641465E+03  1.747267E+05 -7.548503E+01 -3.870282E+04
       297   7 -1.530379E+06 -2.573106E+05 -2.481587E+05  1.768174E+05 -5.926651E+04 -1.265549E+04
       297   8 -1.329655E+06 -1.994065E+05 -1.715976E+05  1.503659E+05 -1.989858E+04 -3.899966E+04
       297   9 -1.136102E+06 -1.503163E+05 -1.228964E+05  1.744497E+05  1.949480E+04 -3.870243E+04
       297  10  5.180716E+05  2.503447E+05  2.404941E+05  1.726325E+05  2.783381E-10  6.073710E-11
       297  11  3.176723E+05  1.980355E+05  1.673492E+05  1.485541E+05 -1.781219E-10 -2.575220E-11
       297  12  1.234177E+05  1.502290E+05  1.195931E+05  1.750032E+05  1.421493E-10 -1.211912E-10
       297  13 -5.066370E+05 -3.445579E+03 -3.798862E+03  1.747264E+05  4.572069E-11  4.390528E-11
       297  14 -5.063141E+05 -6.649643E+02 -2.107792E+03  1.494603E+05  2.093754E-10 -2.814531E-11
       297  15 -5.065333E+05 -3.271291E+01 -1.644279E+03  1.747267E+05 -3.940638E-11 -1.073837E-10
       297  16 -1.530383E+06 -2.573117E+05 -2.481656E+05  1.768168E+05  3.007534E-12 -2.618237E-11
       297  17 -1.329656E+06 -1.994083E+05 -1.716012E+05  1.503653E+05  3.933649E-10  6.396510E-11
       297  18 -1.136102E+06 -1.503180E+05 -1.228999E+05  1.744503E+05 -8.348958E-12  2.577121E-12
       297  19  5.180749E+05  2.503456E+05  2.405001E+05  1.726319E+05 -5.483638E+04  1.267140E+04
       297  20  3.176730E+05  1.980373E+05  1.673527E+05  1.485535E+05 -1.757327E+04  3.899192E+04
       297  21  1.234185E+05  1.502308E+05  1.195966E+05  1.750039E+05  1.966519E+04  3.870322E+04
       297  22 -5.066370E+05 -3.445406E+03 -3.798551E+03  1.747265E+05  2.261941E+03  1.266325E+04
       297  23 -5.063137E+05 -6.633314E+02 -2.104932E+03  1.494604E+05  1.174873E+03  3.899576E+04
       297  24 -5.065329E+05 -3.110479E+01 -1.641465E+03  1.747267E+05  7.548503E+01  3.870282E+04
       297  25 -1.530379E+06 -2.573106E+05 -2.481587E+05  1.768174E+05  5.926651E+04  1.265549E+04
       297  26 -1.329655E+06 -1.994065E+05 -1.715976E+05  1.503659E+05  1.989858E+04  3.899966E+04
       297  27 -1.136102E+06 -1.503163E+05 -1.228964E+05  1.744497E+05 -1.949480E+04  3.870243E+04
       298   1 -1.114215E+04  1.179872E+05  9.342913E+04  1.750243E+05 -1.469854E+04 -3.068388E+04
       298   2 -2.085417E+05  7.088898E+04  5.419579E+04  1.489310E+05 -1.623969E+04 -1.945645E+04
       298   3 -4.056131E+05  2.406847E+04  1.603712E+04  1.749957E+05 -1.778334E+04 -6.453592E+03
       298   4 -5.064172E+05 -1.127802E+02 -1.661383E+03  1.750882E+05  1.905029E+02 -3.068209E+04
       298   5 -5.063202E+05  6.234721E+01 -2.042778E+03  1.490084E+05  1.202858E+03 -1.945202E+04
       298   6 -5.063794E+05  7.285746E+01 -3.124053E+03  1.750882E+05  2.212208E+03 -6.446012E+03
       298   7 -1.001456E+06 -1.182271E+05 -9.676233E+04  1.751519E+05  1.506794E+04 -3.068030E+04
       298   8 -8.040124E+05 -7.076930E+04 -5.828411E+04  1.490858E+05  1.863724E+04 -1.944759E+04
       298   9 -6.071350E+05 -2.392313E+04 -2.228417E+04  1.751807E+05  2.220458E+04 -6.438425E+03
       298  10 -1.114263E+04  1.179861E+05  9.342696E+04  1.750239E+05  4.199572E-11 -1.052534E-10
       298  11 -2.085421E+05  7.088851E+04  5.419458E+04  1.489308E+05 -6.786114E-11  4.019631E-11
       298  12 -4.056135E+05  2.406834E+04  1.603644E+04  1.749956E+05  5.515222E-11  1.215426E-10
       298  13 -5.064175E+05 -1.137908E+02 -1.663152E+03  1.750882E+05  9.727870E-11 -4.620342E-11
       298  14 -5.063203E+05  6.194059E+01 -2.043492E+03  1.490084E+05  2.358988E-10  6.951602E-11
       298  15 -5.063794E+05  7.281153E+01 -3.124141E+03  1.750882E+05  5.051293E-11  6.291429E-11
       298  16 -1.001456E+06 -1.182282E+05 -9.676453E+04  1.751523E+05  1.057566E-10 -4.933116E-11
       298  17 -8.040129E+05 -7.076980E+04 -5.828548E+04  1.490860E+05 -5.346217E-11  4.064367E-11
       298  18 -6.071355E+05 -2.392331E+04 -2.228518E+04  1.751808E+05  1.354594E-10  3.594411E-11
       298  19 -1.114215E+04  1.179872E+05  9.342913E+04  1.750243E+05  1.469854E+04  3.068388E+04
       298  20 -2.085417E+05  7.088898E+04  5.419579E+04  1.489310E+05  1.623969E+04  1.945645E+04
       298  21 -4.056131E+05  2.406847E+04  1.603712E+04  1.749957E+05  1.778334E+04  6.453592E+03
       298  22 -5.064172E+05 -1.127802E+02 -1.661383E+03  1.750882E+05 -1.905029E+02  3.068209E+04
       298  23 -5.063202E+05  6.234721E+01 -2.042778E+03  1.490084E+05 -1.202858E+03  1.945202E+04
       298  24 -5.063794E+05  7.285746E+01 -3.124053E+03  1.750882E+05 -2.212208E+03  6.446012E+03
       298  25 -1.001456E+06 -1.182271E+05 -9.676233E+04  1.751519E+05 -1.506794E+04  3.068030E+04
       298  26 -8.040124E+05 -7.076930E+04 -5.828411E+04  1.490858E+05 -1.863724E+04  1.944759E+04
       298  27 -6.071350E+05 -2.392313E+04 -2.228417E+04  1.751807E+05 -2.220458E+04  6.438425E+03
       299   1 -5.394707E+05 -7.742091E+03 -1.056243E+04  1.746717E+05 -1.713901E+04  1.773123E+03
       299   2 -7.360481E+05 -5.486258E+04 -5.040906E+04  1.491070E+05 -1.138008E+04  1.483159E+04
       299   3 -9.338324E+05 -1.039829E+05 -9.451142E+04  1.757135E+05 -5.620516E+03  2.624135E+04
       299   4 -5.065269E+05  1.653506E+02 -3.990571E+03  1.750905E+05  2.834111E+03  1.780850E+03
       299   5 -5.061282E+05 -1.233351E+02 -6.796080E+03  1.490058E+05  6.219649E+03  1.483673E+04
       299   6 -5.065577E+05 -1.996189E+03 -1.220590E+04  1.750912E+05  9.607528E+03  2.624428E+04
       299   7 -4.735813E+05  8.072941E+03  2.582736E+03  1.755093E+05  2.280828E+04  1.788605E+03
       299   8 -2.761566E+05  5.461298E+04  3.681571E+04  1.489046E+05  2.382574E+04  1.484186E+04
       299   9 -7.910658E+04  9.997978E+04  7.009205E+04  1.744685E+05  2.484582E+04  2.624717E+04
       299  10 -5.394710E+05 -7.742174E+03 -1.056299E+04  1.746717E+05  5.320555E-11  9.278723E-11
       299  11 -7.360483E+05 -5.486285E+04 -5.040972E+04  1.491072E+05  3.929566E-11  8.464686E-11
       299  12 -9.338326E+05 -1.039836E+05 -9.451278E+04  1.757136E+05  4.001260E-11  1.138651E-10
       299  13 -5.065269E+05  1.653450E+02 -3.990592E+03  1.750905E+05  1.044886E-10 -3.541305E-11
       299  14 -5.061283E+05 -1.235818E+02 -6.796566E+03  1.490058E+05 -1.213826E-10  2.933550E-11
       299  15 -5.065580E+05 -1.996953E+03 -1.220737E+04  1.750910E+05  1.321341E-10 -2.581110E-11
       299  16 -4.735819E+05  8.072798E+03  2.581752E+03  1.755092E+05 -1.382359E-10  5.386303E-12
       299  17 -2.761572E+05  5.461259E+04  3.681423E+04  1.489043E+05  1.043508E-10 -1.538761E-10
       299  18 -7.910743E+04  9.997888E+04  7.008959E+04  1.744680E+05 -2.760509E-12  4.142232E-11
       299  19 -5.394707E+05 -7.742091E+03 -1.056243E+04  1.746717E+05  1.713901E+04 -1.773123E+03
       299  20 -7.360481E+05 -5.486258E+04 -5.040906E+04  1.491070E+05  1.138008E+04 -1.483159E+04
       299  21 -9.338324E+05 -1.039829E+05 -9.451142E+04  1.757135E+05  5.620516E+03 -2.624135E+04
       299  22 -5.065269E+05  1.653506E+02 -3.990571E+03  1.750905E+05 -2.834111E+03 -1.780850E+03
       299  23 -5.061282E+05 -1.233351E+02 -6.796080E+03  1.490058E+05 -6.219649E+03 -1.483673E+04
       299  24 -5.065577E+05 -1.996189E+03 -1.220590E+04  1.750912E+05 -9.607528E+03 -2.624428E+04
       299  25 -4.735813E+05  8.072941E+03  2.582736E+03  1.755093E+05 -2.280828E+04 -1.788605E+03
       299  26 -2.761566E+05  5.461298E+04  3.681571E+04  1.489046E+05 -2.382574E+04 -1.484186E+04
       299  27 -7.910658E+04  9.997978E+04  7.009205E+04  1.744685E+05 -2.484582E+04 -2.624717E+04
       300   1 -1.070540E+06 -1.341376E+05 -1.242542E+05  1.699455E+05 -7.937217E+03  3.427942E+04
       300   2 -1.259251E+06 -1.909596E+05 -1.842886E+05  1.625404E+05  4.272903E+04  3.544145E+04
       300   3 -1.464893E+06 -2.896392E+05 -2.877964E+05  2.057688E+05  9.336817E+04  1.161712E+04
       300   4 -5.087774E+05  6.007365E+00 -1.582224E+04  1.747516E+05  1.169332E+04  3.428127E+04
       300   5 -5.034789E+05 -8.467442E+03 -2.837365E+04  1.494332E+05  2.645057E+04  3.543641E+04
       300   6 -5.088854E+05 -5.252757E+04 -5.941548E+04  1.747509E+05  4.119821E+04  1.161614E+04
       300   7  5.329017E+04  1.341312E+05  9.259653E+04  1.795620E+05  3.134124E+04  3.428342E+04
       300   8  2.528366E+05  1.739894E+05  1.275115E+05  1.363095E+05  1.015260E+04  3.543208E+04
       300   9  4.479703E+05  1.845229E+05  1.689118E+05  1.436848E+05 -1.105191E+04  1.162039E+04
       300  10 -1.070541E+06 -1.341389E+05 -1.242566E+05  1.699458E+05  5.356112E-11  1.969802E-10
       300  11 -1.259253E+06 -1.909614E+05 -1.842943E+05  1.625392E+05  8.022791E-11  1.375692E-10
       300  12 -1.464903E+06 -2.896417E+05 -2.878131E+05  2.057680E+05  2.325233E-10  8.456190E-11
       300  13 -5.087779E+05  4.709116E+00 -1.582471E+04  1.747512E+05 -6.307520E-11  8.374894E-11
       300  14 -5.034800E+05 -8.468978E+03 -2.837732E+04  1.494324E+05 -4.337079E-10  7.499904E-12
       300  15 -5.088872E+05 -5.252817E+04 -5.941893E+04  1.747505E+05 -3.581292E-10  2.452229E-11
       300  16  5.328880E+04  1.341296E+05  9.259247E+04  1.795611E+05 -1.650907E-10  2.931634E-11
       300  17  2.528362E+05  1.739880E+05  1.275090E+05  1.363093E+05  1.053290E-11  9.106558E-12
       300  18  4.479701E+05  1.845227E+05  1.689113E+05  1.436849E+05 -2.470869E-11 -1.306549E-11
       300  19 -1.070540E+06 -1.341376E+05 -1.242542E+05  1.699455E+05  7.937217E+03 -3.427942E+04
       300  20 -1.259251E+06 -1.909596E+05 -1.842886E+05  1.625404E+05 -4.272903E+04 -3.544145E+04
       300  21 -1.464893E+06 -2.896392E+05 -2.877964E+05  2.057688E+05 -9.336817E+04 -1.161712E+04
       300  22 -5.087774E+05  6.007365E+00 -1.582224E+04  1.747516E+05 -1.169332E+04 -3.428127E+04
       300  23 -5.034789E+05 -8.467442E+03 -2.837365E+04  1.494332E+05 -2.645057E+04 -3.543641E+04
       300  24 -5.088854E+05 -5.252757E+04 -5.941548E+04  1.747509E+05 -4.119821E+04 -1.161614E+04
       300  25  5.329017E+04  1.341312E+05  9.259653E+04  1.795620E+05 -3.134124E+04 -3.428342E+04
       300  26  2.528366E+05  1.739894E+05  1.275115E+05  1.363095E+05 -1.015260E+04 -3.543208E+04
       300  27  4.479703E+05  1.845229E+05  1.689118E+05  1.436848E+05  1.105191E+04 -1.162039E+04
       301   1  7.415440E+05  2.346629E+05  2.282686E+05  1.635470E+05  6.015987E+04 -1.100029E+04
       301   2  5.611794E+05  1.745793E+05  1.542281E+05  1.365294E+05  2.300665E+04 -3.375456E+04
       301   3  3.895002E+05  1.293780E+05  1.080908E+05  1.546095E+05 -1.412572E+04 -3.325541E+04
       301   4 -1.532350E+05  1.311667E+04  1.495992E+04  1.558158E+05  1.059471E+04 -1.099575E+04
       301   5 -1.546178E+05  2.005763E+03  6.970334E+03  1.332661E+05  6.968653E+03 -3.375781E+04
       301   6 -1.531559E+05 -2.958753E+01  3.622355E+03  1.558153E+05  3.351785E+03 -3.325476E+04
       301   7 -1.047275E+06 -2.084859E+05 -1.983957E+05  1.480958E+05 -3.889943E+04 -1.098998E+04
       301   8 -8.699284E+05 -1.705999E+05 -1.403140E+05  1.300065E+05 -9.051200E+03 -3.376089E+04
       301   9 -6.955282E+05 -1.294545E+05 -1.008586E+05  1.570199E+05  2.081437E+04 -3.325405E+04
       301  10  7.415401E+05  2.346618E+05  2.282615E+05  1.635475E+05  4.085666E-10 -6.654445E-11
       301  11  5.611785E+05  1.745779E+05  1.542250E+05  1.365300E+05 -6.362709E-11 -7.166911E-11
       301  12  3.894997E+05  1.293768E+05  1.080884E+05  1.546091E+05  6.113581E-11 -1.197462E-10
       301  13 -1.532352E+05  1.311651E+04  1.495948E+04  1.558159E+05  8.775658E-11  4.623387E-11
       301  14 -1.546181E+05  2.004526E+03  6.968101E+03  1.332663E+05 -1.404506E-10 -7.072227E-11
       301  15 -1.531563E+05 -3.077802E+01  3.620255E+03  1.558154E+05  1.178572E-10 -1.520410E-11
       301  16 -1.047276E+06 -2.084864E+05 -1.983988E+05  1.480954E+05 -1.251842E-10  3.353242E-11
       301  17 -8.699287E+05 -1.706011E+05 -1.403163E+05  1.300063E+05  2.094023E-10  4.352123E-11
       301  18 -6.955290E+05 -1.294558E+05 -1.008615E+05  1.570205E+05 -9.940593E-11  9.757236E-11
       301  19  7.415440E+05  2.346629E+05  2.282686E+05  1.635470E+05 -6.015987E+04  1.100029E+04
       301  20  5.611794E+05  1.745793E+05  1.542281E+05  1.365294E+05 -2.300665E+04  3.375456E+04
       301  21  3.895002E+05  1.293780E+05  1.080908E+05  1.546095E+05  1.412572E+04  3.325541E+04
       301  22 -1.532350E+05  1.311667E+04  1.495992E+04  1.558158E+05 -1.059471E+04  1.099575E+04
       301  23 -1.546178E+05  2.005763E+03  6.970334E+03  1.332661E+05 -6.968653E+03  3.375781E+04
       301  24 -1.531559E+05 -2.958753E+01  3.622355E+03  1.558153E+05 -3.351785E+03  3.325476E+04
       301  25 -1.047275E+06 -2.084859E+05 -1.983957E+05  1.480958E+05  3.889943E+04  1.098998E+04
       301  26 -8.699284E+05 -1.705999E+05 -1.403140E+05  1.300065E+05  9.051200E+03  3.376089E+04
       301  27 -6.955282E+05 -1.294545E+05 -1.008586E+05  1.570199E+05 -2.081437E+04  3.325405E+04
       302   1  2.688708E+05  1.012667E+05  8.373412E+04  1.562950E+05 -1.046816E+04 -2.610413E+04
       302   2  9.275536E+04  5.872467E+04  4.736955E+04  1.328792E+05 -1.308328E+04 -1.604980E+04
       302   3 -8.279299E+04  1.693212E+04  1.289419E+04  1.559561E+05 -1.569993E+04 -4.449456E+03
       302   4 -1.537310E+05  5.189756E+02  2.562559E+03  1.561256E+05  2.900462E+03 -2.610245E+04
       302   5 -1.537939E+05  9.451917E+01  7.738183E+02  1.328788E+05  2.510831E+03 -1.604613E+04
       302   6 -1.537031E+05  3.567790E+01 -6.696979E+02  1.561258E+05  2.118992E+03 -4.443421E+03
       302   7 -5.761605E+05 -1.002393E+05 -7.861654E+04  1.559563E+05  1.626020E+04 -2.610076E+04
       302   8 -4.002840E+05 -5.853905E+04 -4.582368E+04  1.328783E+05  1.809890E+04 -1.604245E+04
       302   9 -2.246076E+05 -1.686089E+04 -1.423262E+04  1.562955E+05  1.993592E+04 -4.437376E+03
       302  10  2.688705E+05  1.012660E+05  8.373264E+04  1.562948E+05 -7.550176E-11 -4.496110E-11
       302  11  9.275511E+04  5.872435E+04  4.736874E+04  1.328790E+05  4.152210E-11  1.329609E-10
       302  12 -8.279326E+04  1.693203E+04  1.289369E+04  1.559560E+05  2.666748E-10 -4.456973E-11
       302  13 -1.537312E+05  5.182417E+02  2.561263E+03  1.561257E+05 -3.948697E-11 -4.744335E-11
       302  14 -1.537940E+05  9.424100E+01  7.733226E+02  1.328788E+05 -1.341433E-10  2.180178E-10
       302  15 -1.537031E+05  3.565549E+01 -6.697434E+02  1.561258E+05  7.108496E-11 -6.642126E-11
       302  16 -5.761610E+05 -1.002401E+05 -7.861832E+04  1.559566E+05  1.473114E-11  7.857029E-11
       302  17 -4.002844E+05 -5.853941E+04 -4.582478E+04  1.328786E+05 -1.662283E-11  2.448769E-11
       302  18 -2.246080E+05 -1.686101E+04 -1.423340E+04  1.562956E+05 -1.223310E-10 -3.802915E-11
       302  19  2.688708E+05  1.012667E+05  8.373412E+04  1.562950E+05  1.046816E+04  2.610413E+04
       302  20  9.275536E+04  5.872467E+04  4.736955E+04  1.328792E+05  1.308328E+04  1.604980E+04
       302  21 -8.279299E+04  1.693212E+04  1.289419E+04  1.559561E+05  1.569993E+04  4.449456E+03
       302  22 -1.537310E+05  5.189756E+02  2.562559E+03  1.561256E+05 -2.900462E+03  2.610245E+04
       302  23 -1.537939E+05  9.451917E+01  7.738183E+02  1.328788E+05 -2.510831E+03  1.604613E+04
       302  24 -1.537031E+05  3.567790E+01 -6.696979E+02  1.561258E+05 -2.118992E+03  4.443421E+03
       302  25 -5.761605E+05 -1.002393E+05 -7.861654E+04  1.559563E+05 -1.626020E+04  2.610076E+04
       302  26 -4.002840E+05 -5.853905E+04 -4.582368E+04  1.328783E+05 -1.809890E+04  1.604245E+04
       302  27 -2.246076E+05 -1.686089E+04 -1.423262E+04  1.562955E+05 -1.993592E+04  4.437376E+03
       303   1 -2.020915E+05 -1.141083E+04 -1.078946E+04  1.558400E+05 -1.551009E+04  2.880928E+03
       303   2 -3.774846E+05 -5.333648E+04 -4.577107E+04  1.328958E+05 -1.165399E+04  1.450272E+04
       303   3 -5.536549E+05 -9.651768E+04 -8.357971E+04  1.564482E+05 -7.796936E+03  2.462045E+04
       303   4 -1.538323E+05  1.154326E+02 -1.428436E+03  1.561262E+05  2.300380E+03  2.887006E+03
       303   5 -1.536300E+05 -7.540236E+01 -3.389527E+03  1.328785E+05  3.990144E+03  1.450660E+04
       303   6 -1.538581E+05 -1.143718E+03 -6.672131E+03  1.561266E+05  5.681902E+03  2.462248E+04
       303   7 -1.055703E+05  1.164173E+04  7.933673E+03  1.564124E+05  2.011221E+04  2.893101E+03
       303   8  7.027343E+04  5.318288E+04  3.899071E+04  1.328613E+05  1.963978E+04  1.451049E+04
       303   9  2.460930E+05  9.422087E+04  7.022876E+04  1.558047E+05  1.916923E+04  2.462449E+04
       303  10 -2.020917E+05 -1.141090E+04 -1.078993E+04  1.558400E+05 -8.029553E-11 -4.933356E-11
       303  11 -3.774848E+05 -5.333674E+04 -4.577172E+04  1.328959E+05  3.410293E-11 -1.298866E-10
       303  12 -5.536551E+05 -9.651835E+04 -8.358096E+04  1.564483E+05 -1.138783E-10  2.849960E-12
       303  13 -1.538323E+05  1.154222E+02 -1.428461E+03  1.561262E+05 -6.731135E-11 -9.205432E-11
       303  14 -1.536301E+05 -7.563258E+01 -3.389952E+03  1.328785E+05 -2.876634E-10  1.844026E-10
       303  15 -1.538583E+05 -1.144378E+03 -6.673331E+03  1.561264E+05  6.522893E-11 -1.351456E-10
       303  16 -1.055707E+05  1.164161E+04  7.932897E+03  1.564123E+05  1.227327E-10 -8.745220E-11
       303  17  7.027296E+04  5.318255E+04  3.898959E+04  1.328611E+05  1.653611E-11  2.084970E-11
       303  18  2.460925E+05  9.422012E+04  7.022693E+04  1.558043E+05  1.213121E-10  3.776312E-11
       303  19 -2.020915E+05 -1.141083E+04 -1.078946E+04  1.558400E+05  1.551009E+04 -2.880928E+03
       303  20 -3.774846E+05 -5.333648E+04 -4.577107E+04  1.328958E+05  1.165399E+04 -1.450272E+04
       303  21 -5.536549E+05 -9.651768E+04 -8.357971E+04  1.564482E+05  7.796936E+03 -2.462045E+04
       303  22 -1.538323E+05  1.154326E+02 -1.428436E+03  1.561262E+05 -2.300380E+03 -2.887006E+03
       303  23 -1.536300E+05 -7.540236E+01 -3.389527E+03  1.328785E+05 -3.990144E+03 -1.450660E+04
       303  24 -1.538581E+05 -1.143718E+03 -6.672131E+03  1.561266E+05 -5.681902E+03 -2.462248E+04
       303  25 -1.055703E+05  1.164173E+04  7.933673E+03  1.564124E+05 -2.011221E+04 -2.893101E+03
       303  26  7.027343E+04  5.318288E+04  3.899071E+04  1.328613E+05 -1.963978E+04 -1.451049E+04
       303  27  2.460930E+05  9.422087E+04  7.022876E+04  1.558047E+05 -1.916923E+04 -2.462449E+04
       304   1 -6.748456E+05 -1.240501E+05 -1.089955E+05  1.530723E+05 -1.066161E+04  3.177937E+04
       304   2 -8.448757E+05 -1.720275E+05 -1.587834E+05  1.407057E+05  3.036745E+04  3.257398E+04
       304   3 -1.026602E+06 -2.458913E+05 -2.417588E+05  1.734724E+05  7.137506E+04  1.064163E+04
       304   4 -1.551256E+05 -1.441815E+01 -8.796420E+03  1.558246E+05  6.825043E+03  3.178045E+04
       304   5 -1.521468E+05 -4.849883E+03 -1.603515E+04  1.332573E+05  1.517115E+04  3.257041E+04
       304   6 -1.552054E+05 -2.987715E+04 -3.374011E+04  1.558238E+05  2.350881E+04  1.064361E+04
       304   7  3.648551E+05  1.240054E+05  9.139129E+04  1.585793E+05  2.432601E+04  3.178167E+04
       304   8  5.410384E+05  1.622978E+05  1.266882E+05  1.258005E+05 -4.183276E+01  3.256721E+04
       304   9  7.168942E+05  1.860844E+05  1.742340E+05  1.381503E+05 -2.442443E+04  1.064832E+04
       304  10 -6.748460E+05 -1.240512E+05 -1.089976E+05  1.530725E+05  2.936851E-10  8.474448E-12
       304  11 -8.448770E+05 -1.720289E+05 -1.587871E+05  1.407049E+05  2.753978E-10  2.414144E-11
       304  12 -1.026608E+06 -2.458928E+05 -2.417686E+05  1.734717E+05  6.518057E-11 -4.576330E-11
       304  13 -1.551259E+05 -1.551506E+01 -8.798405E+03  1.558244E+05 -9.405348E-11  3.039380E-11
       304  14 -1.521474E+05 -4.851084E+03 -1.603757E+04  1.332569E+05 -5.853604E-11  1.949387E-11
       304  15 -1.552060E+05 -2.987742E+04 -3.374137E+04  1.558236E+05 -4.420955E-10 -7.433115E-11
       304  16  3.648542E+05  1.240041E+05  9.138828E+04  1.585787E+05 -2.869681E-10 -4.863804E-11
       304  17  5.410381E+05  1.622966E+05  1.266862E+05  1.258005E+05 -1.018786E-10 -4.234936E-11
       304  18  7.168936E+05  1.860842E+05  1.742326E+05  1.381505E+05  1.633420E-10 -8.061135E-11
       304  19 -6.748456E+05 -1.240501E+05 -1.089955E+05  1.530723E+05  1.066161E+04 -3.177937E+04
       304  20 -8.448757E+05 -1.720275E+05 -1.587834E+05  1.407057E+05 -3.036745E+04 -3.257398E+04
       304  21 -1.026602E+06 -2.458913E+05 -2.417588E+05  1.734724E+05 -7.137506E+04 -1.064163E+04
       304  22 -1.551256E+05 -1.441815E+01 -8.796420E+03  1.558246E+05 -6.825043E+03 -3.178045E+04
       304  23 -1.521468E+05 -4.849883E+03 -1.603515E+04  1.332573E+05 -1.517115E+04 -3.257041E+04
       304  24 -1.552054E+05 -2.987715E+04 -3.374011E+04  1.558238E+05 -2.350881E+04 -1.064361E+04
       304  25  3.648551E+05  1.240054E+05  9.139129E+04  1.585793E+05 -2.432601E+04 -3.178167E+04
       304  26  5.410384E+05  1.622978E+05  1.266882E+05  1.258005E+05  4.183276E+01 -3.256721E+04
       304  27  7.168942E+05  1.860844E+05  1.742340E+05  1.381503E+05  2.442443E+04 -1.064832E+04
       305   1  1.027563E+06  2.420400E+05  2.384953E+05  1.694134E+05  7.160360E+04 -1.042369E+04
       305   2  8.508754E+05  1.684723E+05  1.564733E+05  1.369259E+05  3.090001E+04 -3.190712E+04
       305   3  6.863014E+05  1.217416E+05  1.076417E+05  1.481852E+05 -9.783989E+03 -3.123274E+04
       305   4  1.754217E+05  3.111842E+04  3.537640E+04  1.510101E+05  2.463486E+04 -1.042143E+04
       305   5  1.721803E+05  4.884387E+03  1.681657E+04  1.291364E+05  1.589369E+04 -3.191042E+04
       305   6  1.754979E+05 -3.782641E+01  9.285161E+03  1.510090E+05  7.160561E+03 -3.123195E+04
       305   7 -6.760493E+05 -1.798531E+05 -1.677850E+05  1.326321E+05 -2.226981E+04 -1.041640E+04
       305   8 -5.060775E+05 -1.587322E+05 -1.228640E+05  1.213554E+05  9.034711E+02 -3.191334E+04
       305   9 -3.350542E+05 -1.218325E+05 -8.908235E+04  1.538304E+05  2.409150E+04 -3.123101E+04
       305  10  1.027558E+06  2.420385E+05  2.384854E+05  1.694140E+05  2.178082E-10  5.842091E-11
       305  11  8.508741E+05  1.684709E+05  1.564696E+05  1.369267E+05 -4.102530E-10  2.608644E-11
       305  12  6.863011E+05  1.217405E+05  1.076397E+05  1.481849E+05  2.517595E-10 -2.328832E-10
       305  13  1.754210E+05  3.111814E+04  3.537505E+04  1.510103E+05  1.345582E-10 -2.615559E-11
       305  14  1.721797E+05  4.883226E+03  1.681418E+04  1.291368E+05 -2.442786E-11  4.670227E-11
       305  15  1.754976E+05 -3.888778E+01  9.283231E+03  1.510092E+05  1.445679E-10 -2.234209E-10
       305  16 -6.760499E+05 -1.798534E+05 -1.677861E+05  1.326319E+05 -1.528505E-10  1.372498E-11
       305  17 -5.060778E+05 -1.587333E+05 -1.228660E+05  1.213555E+05  3.907094E-10  1.056903E-11
       305  18 -3.350551E+05 -1.218337E+05 -8.908527E+04  1.538310E+05 -1.709333E-11 -1.724516E-10
       305  19  1.027563E+06  2.420400E+05  2.384953E+05  1.694134E+05 -7.160360E+04  1.042369E+04
       305  20  8.508754E+05  1.684723E+05  1.564733E+05  1.369259E+05 -3.090001E+04  3.190712E+04
       305  21  6.863014E+05  1.217416E+05  1.076417E+05  1.481852E+05  9.783989E+03  3.123274E+04
       305  22  1.754217E+05  3.111842E+04  3.537640E+04  1.510101E+05 -2.463486E+04  1.042143E+04
       305  23  1.721803E+05  4.884387E+03  1.681657E+04  1.291364E+05 -1.589369E+04  3.191042E+04
       305  24  1.754979E+05 -3.782641E+01  9.285161E+03  1.510090E+05 -7.160561E+03  3.123195E+04
       305  25 -6.760493E+05 -1.798531E+05 -1.677850E+05  1.326321E+05  2.226981E+04  1.041640E+04
       305  26 -5.060775E+05 -1.587322E+05 -1.228640E+05  1.213554E+05 -9.034711E+02  3.191334E+04
       305  27 -3.350542E+05 -1.218325E+05 -8.908235E+04  1.538304E+05 -2.409150E+04  3.123101E+04
       306   1  5.686651E+05  9.522944E+04  8.286409E+04  1.517196E+05 -7.085665E+03 -2.430294E+04
       306   2  3.978683E+05  5.337795E+04  4.601275E+04  1.288583E+05 -1.103128E+04 -1.452674E+04
       306   3  2.279483E+05  1.282776E+04  1.205374E+04  1.510331E+05 -1.497778E+04 -3.281571E+03
       306   4  1.741680E+05  1.204454E+03  7.065518E+03  1.512966E+05  5.941937E+03 -2.430120E+04
       306   5  1.739393E+05  1.375050E+02  3.665166E+03  1.287783E+05  4.112372E+03 -1.452323E+04
       306   6  1.741929E+05  6.553619E+00  1.689531E+03  1.512969E+05  2.280884E+03 -3.275970E+03
       306   7 -2.201792E+05 -9.282965E+04 -6.873958E+04  1.508738E+05  1.896146E+04 -2.429948E+04
       306   8 -4.994077E+04 -5.310574E+04 -3.868378E+04  1.286982E+05  1.925070E+04 -1.451973E+04
       306   9  1.204409E+05 -1.281466E+04 -8.673688E+03  1.515608E+05  1.953808E+04 -3.270354E+03
       306  10  5.686649E+05  9.522879E+04  8.286289E+04  1.517194E+05 -1.142276E-10 -3.257491E-10
       306  11  3.978681E+05  5.337769E+04  4.601213E+04  1.288582E+05  1.699476E-10 -1.324556E-10
       306  12  2.279481E+05  1.282769E+04  1.205329E+04  1.510331E+05  1.312163E-10 -1.516655E-10
       306  13  1.741678E+05  1.203811E+03  7.064342E+03  1.512967E+05  4.230351E-11 -2.600577E-10
       306  14  1.739393E+05  1.372740E+02  3.664738E+03  1.287783E+05  1.557047E-10 -5.327753E-11
       306  15  1.741929E+05  6.540694E+00  1.689501E+03  1.512969E+05 -1.147713E-11  5.668821E-11
       306  16 -2.201797E+05 -9.283038E+04 -6.874136E+04  1.508742E+05  1.121998E-10 -2.036853E-10
       306  17 -4.994123E+04 -5.310607E+04 -3.868487E+04  1.286984E+05 -7.961872E-11 -1.094947E-10
       306  18  1.204405E+05 -1.281478E+04 -8.674425E+03  1.515608E+05 -1.087420E-10 -1.299627E-10
       306  19  5.686651E+05  9.522944E+04  8.286409E+04  1.517196E+05  7.085665E+03  2.430294E+04
       306  20  3.978683E+05  5.337795E+04  4.601275E+04  1.288583E+05  1.103128E+04  1.452674E+04
       306  21  2.279483E+05  1.282776E+04  1.205374E+04  1.510331E+05  1.497778E+04  3.281571E+03
       306  22  1.741680E+05  1.204454E+03  7.065518E+03  1.512966E+05 -5.941937E+03  2.430120E+04
       306  23  1.739393E+05  1.375050E+02  3.665166E+03  1.287783E+05 -4.112372E+03  1.452323E+04
       306  24  1.741929E+05  6.553619E+00  1.689531E+03  1.512969E+05 -2.280884E+03  3.275970E+03
       306  25 -2.201792E+05 -9.282965E+04 -6.873958E+04  1.508738E+05 -1.896146E+04  2.429948E+04
       306  26 -4.994077E+04 -5.310574E+04 -3.868378E+04  1.286982E+05 -1.925070E+04  1.451973E+04
       306  27  1.204409E+05 -1.281466E+04 -8.673688E+03  1.515608E+05 -1.953808E+04  3.270354E+03
       307   1  1.123865E+05 -1.461716E+04 -1.088680E+04  1.511090E+05 -1.521411E+04  3.817409E+03
       307   2 -5.770906E+04 -5.515740E+04 -4.423544E+04  1.287136E+05 -1.286870E+04  1.506149E+04
       307   3 -2.282319E+05 -9.635053E+04 -7.927470E+04  1.513563E+05 -1.052195E+04  2.482155E+04
       307   4  1.740664E+05  8.377161E+01  9.468701E+02  1.512970E+05  2.045724E+03  3.822997E+03
       307   5  1.740969E+05 -3.380934E+01 -4.107486E+02  1.287784E+05  2.252377E+03  1.506492E+04
       307   6  1.740410E+05 -4.321085E+02 -1.974330E+03  1.512971E+05  2.461025E+03  2.482317E+04
       307   7  2.357505E+05  1.478464E+04  1.278148E+04  1.514849E+05  1.930724E+04  3.828594E+03
       307   8  4.059553E+05  5.508677E+04  4.341242E+04  1.288433E+05  1.737897E+04  1.506836E+04
       307   9  5.764700E+05  9.547683E+04  7.531923E+04  1.512379E+05  1.545222E+04  2.482478E+04
       307  10  1.123863E+05 -1.461724E+04 -1.088726E+04  1.511091E+05 -3.114298E-10 -3.200968E-11
       307  11 -5.770930E+04 -5.515769E+04 -4.423617E+04  1.287137E+05 -7.542732E-11  3.630293E-10
       307  12 -2.282322E+05 -9.635123E+04 -7.927607E+04  1.513565E+05  4.285553E-10  1.642292E-10
       307  13  1.740664E+05  8.375479E+01  9.468348E+02  1.512970E+05 -6.315252E-12 -8.268270E-11
       307  14  1.740969E+05 -3.405441E+01 -4.111846E+02  1.287784E+05  1.299480E-10 -1.119815E-10
       307  15  1.740408E+05 -4.327718E+02 -1.975499E+03  1.512971E+05  1.828672E-10  3.887094E-11
       307  16  2.357501E+05  1.478452E+04  1.278075E+04  1.514848E+05  3.672435E-10 -2.122506E-11
       307  17  4.059549E+05  5.508644E+04  4.341143E+04  1.288431E+05  3.575075E-11 -9.856738E-11
       307  18  5.764696E+05  9.547610E+04  7.531762E+04  1.512376E+05 -9.211590E-11 -1.112498E-10
       307  19  1.123865E+05 -1.461716E+04 -1.088680E+04  1.511090E+05  1.521411E+04 -3.817409E+03
       307  20 -5.770906E+04 -5.515740E+04 -4.423544E+04  1.287136E+05  1.286870E+04 -1.506149E+04
       307  21 -2.282319E+05 -9.635053E+04 -7.927470E+04  1.513563E+05  1.052195E+04 -2.482155E+04
       307  22  1.740664E+05  8.377161E+01  9.468701E+02  1.512970E+05 -2.045724E+03 -3.822997E+03
       307  23  1.740969E+05 -3.380934E+01 -4.107486E+02  1.287784E+05 -2.252377E+03 -1.506492E+04
       307  24  1.740410E+05 -4.321085E+02 -1.974330E+03  1.512971E+05 -2.461025E+03 -2.482317E+04
       307  25  2.357505E+05  1.478464E+04  1.278148E+04  1.514849E+05 -1.930724E+04 -3.828594E+03
       307  26  4.059553E+05  5.508677E+04  4.341242E+04  1.288433E+05 -1.737897E+04 -1.506836E+04
       307  27  5.764700E+05  9.547683E+04  7.531923E+04  1.512379E+05 -1.545222E+04 -2.482478E+04
       308   1 -3.449234E+05 -1.237193E+05 -1.027391E+05  1.499586E+05 -1.412758E+04  3.175220E+04
       308   2 -5.115789E+05 -1.673594E+05 -1.469722E+05  1.318616E+05  2.104644E+04  3.233226E+04
       308   3 -6.859293E+05 -2.239256E+05 -2.173293E+05  1.574833E+05  5.620232E+04  1.053578E+04
       308   4  1.735674E+05 -3.496491E+01 -2.871255E+03  1.510041E+05  2.803821E+03  3.175286E+04
       308   5  1.745918E+05 -1.841125E+03 -5.703275E+03  1.291452E+05  5.782513E+03  3.232928E+04
       308   6  1.734939E+05 -1.097267E+04 -1.228929E+04  1.510037E+05  8.752809E+03  1.054000E+04
       308   7  6.923175E+05  1.236335E+05  9.698521E+04  1.520504E+05  1.974904E+04  3.175357E+04
       308   8  8.612098E+05  1.636476E+05  1.355412E+05  1.264258E+05 -9.498004E+03  3.232644E+04
       308   9  1.033600E+06  2.019282E+05  1.927073E+05  1.445149E+05 -3.876215E+04  1.054522E+04
       308  10 -3.449239E+05 -1.237204E+05 -1.027414E+05  1.499590E+05  3.359165E-10  2.919014E-11
       308  11 -5.115796E+05 -1.673606E+05 -1.469750E+05  1.318610E+05  7.879038E-11 -3.781260E-11
       308  12 -6.859327E+05 -2.239265E+05 -2.173355E+05  1.574828E+05  2.429166E-11  4.220820E-11
       308  13  1.735671E+05 -3.604976E+01 -2.873164E+03  1.510040E+05  2.550417E-10  2.047117E-11
       308  14  1.745915E+05 -1.842257E+03 -5.705302E+03  1.291451E+05  2.850476E-10 -2.101794E-10
       308  15  1.734938E+05 -1.097281E+04 -1.228964E+04  1.510036E+05 -3.628534E-10  3.133273E-11
       308  16  6.923168E+05  1.236324E+05  9.698259E+04  1.520499E+05  1.855068E-10 -7.310360E-11
       308  17  8.612095E+05  1.636464E+05  1.355391E+05  1.264260E+05  1.779476E-10 -7.444085E-11
       308  18  1.033598E+06  2.019277E+05  1.927043E+05  1.445153E+05  8.394138E-11  7.288728E-11
       308  19 -3.449234E+05 -1.237193E+05 -1.027391E+05  1.499586E+05  1.412758E+04 -3.175220E+04
       308  20 -5.115789E+05 -1.673594E+05 -1.469722E+05  1.318616E+05 -2.104644E+04 -3.233226E+04
       308  21 -6.859293E+05 -2.239256E+05 -2.173293E+05  1.574833E+05 -5.620232E+04 -1.053578E+04
       308  22  1.735674E+05 -3.496491E+01 -2.871255E+03  1.510041E+05 -2.803821E+03 -3.175286E+04
       308  23  1.745918E+05 -1.841125E+03 -5.703275E+03  1.291452E+05 -5.782513E+03 -3.232928E+04
       308  24  1.734939E+05 -1.097267E+04 -1.228929E+04  1.510037E+05 -8.752809E+03 -1.054000E+04
       308  25  6.923175E+05  1.236335E+05  9.698521E+04  1.520504E+05 -1.974904E+04 -3.175357E+04
       308  26  8.612098E+05  1.636476E+05  1.355412E+05  1.264258E+05  9.498004E+03 -3.232644E+04
       308  27  1.033600E+06  2.019282E+05  1.927073E+05  1.445149E+05  3.876215E+04 -1.054522E+04
       309   1  1.400990E+06  2.713170E+05  2.702879E+05  1.918100E+05  8.932169E+04 -1.077955E+04
       309   2  1.210506E+06  1.774287E+05  1.726663E+05  1.507949E+05  4.139295E+04 -3.288054E+04
       309   3  1.036643E+06  1.246278E+05  1.164830E+05  1.565146E+05 -6.511901E+03 -3.188187E+04
       309   4  5.134565E+05  5.171406E+04  5.875171E+04  1.611906E+05  4.075002E+04 -1.077995E+04
       309   5  5.080884E+05  8.165349E+03  2.806595E+04  1.378238E+05  2.616338E+04 -3.288470E+04
       309   6  5.135507E+05 -4.881394E+01  1.571637E+04  1.611892E+05  1.158536E+04 -3.188062E+04
       309   7 -3.733483E+05 -1.679409E+05 -1.528304E+05  1.306150E+05 -7.752702E+03 -1.077557E+04
       309   8 -1.938609E+05 -1.611284E+05 -1.165600E+05  1.248675E+05  1.095069E+04 -3.288822E+04
       309   9 -9.278043E+03 -1.247414E+05 -8.506171E+04  1.658596E+05  2.966774E+04 -3.187910E+04
       309  10  1.400981E+06  2.713147E+05  2.702727E+05  1.918108E+05  2.399069E-10 -3.235415E-11
       309  11  1.210504E+06  1.774271E+05  1.726611E+05  1.507960E+05 -4.188338E-10  1.052817E-11
       309  12  1.036643E+06  1.246267E+05  1.164810E+05  1.565145E+05  3.975487E-10 -2.918178E-10
       309  13  5.134547E+05  5.171349E+04  5.874837E+04  1.611909E+05 -1.977563E-10  3.140780E-11
       309  14  5.080874E+05  8.164003E+03  2.806263E+04  1.378245E+05 -2.502345E-10  1.486693E-10
       309  15  5.135503E+05 -4.994175E+01  1.571420E+04  1.611895E+05  6.190946E-12 -1.685742E-10
       309  16 -3.733484E+05 -1.679410E+05 -1.528308E+05  1.306149E+05 -6.473094E-13  7.976376E-11
       309  17 -1.938613E+05 -1.611296E+05 -1.165622E+05  1.248678E+05 -6.437010E-11  1.152095E-10
       309  18 -9.279262E+03 -1.247427E+05 -8.506528E+04  1.658604E+05 -5.117449E-10 -1.262163E-10
       309  19  1.400990E+06  2.713170E+05  2.702879E+05  1.918100E+05 -8.932169E+04  1.077955E+04
       309  20  1.210506E+06  1.774287E+05  1.726663E+05  1.507949E+05 -4.139295E+04  3.288054E+04
       309  21  1.036643E+06  1.246278E+05  1.164830E+05  1.565146E+05  6.511901E+03  3.188187E+04
       309  22  5.134565E+05  5.171406E+04  5.875171E+04  1.611906E+05 -4.075002E+04  1.077995E+04
       309  23  5.080884E+05  8.165349E+03  2.806595E+04  1.378238E+05 -2.616338E+04  3.288470E+04
       309  24  5.135507E+05 -4.881394E+01  1.571637E+04  1.611892E+05 -1.158536E+04  3.188062E+04
       309  25 -3.733483E+05 -1.679409E+05 -1.528304E+05  1.306150E+05  7.752702E+03  1.077557E+04
       309  26 -1.938609E+05 -1.611284E+05 -1.165600E+05  1.248675E+05 -1.095069E+04  3.288822E+04
       309  27 -9.278043E+03 -1.247414E+05 -8.506171E+04  1.658596E+05 -2.966774E+04  3.187910E+04
       310   1  9.103491E+05  9.707006E+04  8.885924E+04  1.621985E+05 -4.514312E+03 -2.448489E+04
       310   2  7.279274E+05  5.178037E+04  4.792200E+04  1.376262E+05 -1.012348E+04 -1.400039E+04
       310   3  5.467702E+05  8.454454E+03  1.112347E+04  1.611014E+05 -1.573296E+04 -1.990313E+03
       310   4  5.113539E+05  1.993352E+03  1.214633E+04  1.614829E+05  9.498395E+03 -2.448265E+04
       310   5  5.109426E+05  1.970865E+02  6.837064E+03  1.374590E+05  6.088292E+03 -1.399628E+04
       310   6  5.113807E+05 -1.516238E+01  4.141909E+03  1.614835E+05  2.676273E+03 -1.983999E+03
       310   7  1.125120E+05 -9.309268E+04 -6.457317E+04  1.607678E+05  2.350231E+04 -2.448045E+04
       310   8  2.940037E+05 -5.138881E+04 -3.424898E+04  1.372919E+05  2.229454E+04 -1.399218E+04
       310   9  4.759932E+05 -8.484672E+03 -2.838445E+03  1.618657E+05  2.108448E+04 -1.977662E+03
       310  10  9.103489E+05  9.706941E+04  8.885807E+04  1.621984E+05 -3.079399E-10 -3.345605E-10
       310  11  7.279272E+05  5.178014E+04  4.792144E+04  1.376261E+05  2.440580E-12  5.970601E-11
       310  12  5.467699E+05  8.454383E+03  1.112300E+04  1.611014E+05 -3.641148E-10  7.667522E-11
       310  13  5.113536E+05  1.992684E+03  1.214503E+04  1.614831E+05 -4.242127E-12 -2.436317E-10
       310  14  5.109425E+05  1.968661E+02  6.836626E+03  1.374591E+05 -1.144928E-10 -7.560706E-11
       310  15  5.113807E+05 -1.516853E+01  4.141888E+03  1.614835E+05 -1.903359E-11  4.435087E-11
       310  16  1.125113E+05 -9.309347E+04 -6.457534E+04  1.607682E+05  8.837589E-11 -1.219010E-10
       310  17  2.940031E+05 -5.138915E+04 -3.425028E+04  1.372921E+05  6.341699E-11 -2.447091E-10
       310  18  4.759927E+05 -8.484795E+03 -2.839287E+03  1.618657E+05  2.005317E-10  1.775210E-10
       310  19  9.103491E+05  9.707006E+04  8.885924E+04  1.621985E+05  4.514312E+03  2.448489E+04
       310  20  7.279274E+05  5.178037E+04  4.792200E+04  1.376262E+05  1.012348E+04  1.400039E+04
       310  21  5.467702E+05  8.454454E+03  1.112347E+04  1.611014E+05  1.573296E+04  1.990313E+03
       310  22  5.113539E+05  1.993352E+03  1.214633E+04  1.614829E+05 -9.498395E+03  2.448265E+04
       310  23  5.109426E+05  1.970865E+02  6.837064E+03  1.374590E+05 -6.088292E+03  1.399628E+04
       310  24  5.113807E+05 -1.516238E+01  4.141909E+03  1.614835E+05 -2.676273E+03  1.983999E+03
       310  25  1.125120E+05 -9.309268E+04 -6.457317E+04  1.607678E+05 -2.350231E+04  2.448045E+04
       310  26  2.940037E+05 -5.138881E+04 -3.424898E+04  1.372919E+05 -2.229454E+04  1.399218E+04
       310  27  4.759932E+05 -8.484672E+03 -2.838445E+03  1.618657E+05 -2.108448E+04  1.977662E+03
       311   1  4.234727E+05 -2.081636E+04 -1.335564E+04  1.613672E+05 -1.641005E+04  5.581766E+03
       311   2  2.417981E+05 -6.400283E+04 -4.841534E+04  1.373067E+05 -1.527108E+04  1.755982E+04
       311   3  5.998440E+04 -1.073327E+05 -8.425303E+04  1.612925E+05 -1.412995E+04  2.791439E+04
       311   4  5.112435E+05  6.725443E+01  3.336911E+03  1.614828E+05  2.014161E+03  5.587976E+03
       311   5  5.111089E+05  3.751061E+00  2.417771E+03  1.374602E+05  8.122497E+02  1.756343E+04
       311   6  5.112119E+05  2.053555E+02  2.346198E+03  1.614828E+05 -3.872103E+02  2.791582E+04
       311   7  5.990224E+05  2.095060E+04  2.003040E+04  1.615983E+05  2.044091E+04  5.594192E+03
       311   8  7.804902E+05  6.400625E+04  5.324866E+04  1.376139E+05  1.690238E+04  1.756704E+04
       311   9  9.626358E+05  1.077315E+05  8.893680E+04  1.616731E+05  1.336528E+04  2.791725E+04
       311  10  4.234724E+05 -2.081647E+04 -1.335621E+04  1.613673E+05  3.895040E-10  2.563572E-10
       311  11  2.417978E+05 -6.400322E+04 -4.841636E+04  1.373069E+05 -1.882188E-10  1.781687E-11
       311  12  5.998397E+04 -1.073336E+05 -8.425487E+04  1.612928E+05 -4.598586E-10  1.069047E-10
       311  13  5.112435E+05  6.721981E+01  3.336845E+03  1.614827E+05 -1.682714E-11  1.257875E-10
       311  14  5.111088E+05  3.419563E+00  2.417190E+03  1.374602E+05  1.538510E-10  2.498715E-11
       311  15  5.112117E+05  2.045185E+02  2.344733E+03  1.614828E+05 -7.890777E-11  1.361124E-10
       311  16  5.990219E+05  2.095046E+04  2.002955E+04  1.615982E+05 -4.667853E-10  9.603931E-11
       311  17  7.804898E+05  6.400584E+04  5.324755E+04  1.376136E+05  1.667407E-10 -9.236572E-11
       311  18  9.626354E+05  1.077306E+05  8.893500E+04  1.616728E+05  3.098650E-10 -3.380411E-11
       311  19  4.234727E+05 -2.081636E+04 -1.335564E+04  1.613672E+05  1.641005E+04 -5.581766E+03
       311  20  2.417981E+05 -6.400283E+04 -4.841534E+04  1.373067E+05  1.527108E+04 -1.755982E+04
       311  21  5.998440E+04 -1.073327E+05 -8.425303E+04  1.612925E+05  1.412995E+04 -2.791439E+04
       311  22  5.112435E+05  6.725443E+01  3.336911E+03  1.614828E+05 -2.014161E+03 -5.587976E+03
       311  23  5.111089E+05  3.751061E+00  2.417771E+03  1.374602E+05 -8.122497E+02 -1.756343E+04
       311  24  5.112119E+05  2.053555E+02  2.346198E+03  1.614828E+05  3.872103E+02 -2.791582E+04
       311  25  5.990224E+05  2.095060E+04  2.003040E+04  1.615983E+05 -2.044091E+04 -5.594192E+03
       311  26  7.804902E+05  6.400625E+04  5.324866E+04  1.376139E+05 -1.690238E+04 -1.756704E+04
       311  27  9.626358E+05  1.077315E+05  8.893680E+04  1.616731E+05 -1.336528E+04 -2.791725E+04
       312   1 -6.382246E+04 -1.372295E+05 -1.081469E+05  1.616606E+05 -1.883385E+04  3.530373E+04
       312   2 -2.435737E+05 -1.810076E+05 -1.514736E+05  1.362950E+05  1.442081E+04  3.564458E+04
       312   3 -4.279562E+05 -2.265822E+05 -2.168796E+05  1.575798E+05  4.765478E+04  1.157663E+04
       312   4  5.114537E+05 -6.367279E+01  2.538075E+03  1.611719E+05 -7.807494E+02  3.530397E+04
       312   5  5.106904E+05  8.524076E+02  3.652089E+03  1.378486E+05 -2.660098E+03  3.564152E+04
       312   6  5.113650E+05  6.073305E+03  7.085001E+03  1.611723E+05 -4.550016E+03  1.158398E+04
       312   7  1.087049E+06  1.370828E+05  1.132090E+05  1.606827E+05  1.728869E+04  3.530418E+04
       312   8  1.265495E+06  1.826768E+05  1.587484E+05  1.394040E+05 -1.976139E+04  3.563838E+04
       312   9  1.451501E+06  2.386666E+05  2.309979E+05  1.647702E+05 -5.683346E+04  1.159073E+04
       312  10 -6.382318E+04 -1.372310E+05 -1.081499E+05  1.616611E+05  9.806822E-11  1.587669E-10
       312  11 -2.435742E+05 -1.810090E+05 -1.514764E+05  1.362946E+05 -2.082436E-10  1.952823E-10
       312  12 -4.279587E+05 -2.265829E+05 -2.168841E+05  1.575794E+05 -2.656863E-11  1.213058E-10
       312  13  5.114534E+05 -6.501167E+01  2.535731E+03  1.611719E+05 -2.094112E-10  2.197357E-11
       312  14  5.106900E+05  8.510413E+02  3.649688E+03  1.378487E+05  1.280778E-10 -1.794878E-10
       312  15  5.113649E+05  6.073155E+03  7.084710E+03  1.611724E+05 -2.506855E-10 -1.895244E-10
       312  16  1.087048E+06  1.370813E+05  1.132061E+05  1.606822E+05  1.338707E-10 -3.427869E-11
       312  17  1.265494E+06  1.826753E+05  1.587453E+05  1.394046E+05  8.325250E-11 -2.781586E-10
       312  18  1.451498E+06  2.386656E+05  2.309916E+05  1.647708E+05  7.666133E-10 -3.592565E-10
       312  19 -6.382246E+04 -1.372295E+05 -1.081469E+05  1.616606E+05  1.883385E+04 -3.530373E+04
       312  20 -2.435737E+05 -1.810076E+05 -1.514736E+05  1.362950E+05 -1.442081E+04 -3.564458E+04
       312  21 -4.279562E+05 -2.265822E+05 -2.168796E+05  1.575798E+05 -4.765478E+04 -1.157663E+04
       312  22  5.114537E+05 -6.367279E+01  2.538075E+03  1.611719E+05  7.807494E+02 -3.530397E+04
       312  23  5.106904E+05  8.524076E+02  3.652089E+03  1.378486E+05  2.660098E+03 -3.564152E+04
       312  24  5.113650E+05  6.073305E+03  7.085001E+03  1.611723E+05  4.550016E+03 -1.158398E+04
       312  25  1.087049E+06  1.370828E+05  1.132090E+05  1.606827E+05 -1.728869E+04 -3.530418E+04
       312  26  1.265495E+06  1.826768E+05  1.587484E+05  1.394040E+05  1.976139E+04 -3.563838E+04
       312  27  1.451501E+06  2.386666E+05  2.309979E+05  1.647702E+05  5.683346E+04 -1.159073E+04
       313   1  1.889992E+06  3.226885E+05  3.245803E+05  2.393044E+05  1.127770E+05 -1.180310E+04
       313   2  1.660042E+06  1.977579E+05  2.019893E+05  1.848532E+05  5.294035E+04 -3.560394E+04
       313   3  1.452829E+06  1.320774E+05  1.330974E+05  1.865848E+05 -6.861856E+03 -3.348503E+04
       313   4  8.980154E+05  7.732499E+04  8.804711E+04  1.933822E+05  5.967082E+04 -1.180723E+04
       313   5  8.899675E+05  1.219848E+04  4.313852E+04  1.652925E+05  3.727793E+04 -3.560961E+04
       313   6  8.981556E+05 -1.231035E+02  2.600896E+04  1.933794E+05  1.489620E+04 -3.348270E+04
       313   7 -9.305117E+04 -1.681001E+05 -1.485435E+05  1.475333E+05  6.648804E+03 -1.180354E+04
       313   8  1.204555E+05 -1.733968E+05 -1.157431E+05  1.457564E+05  2.163454E+04 -3.561431E+04
       313   9  3.437785E+05 -1.323415E+05 -8.109205E+04  2.001679E+05  3.663530E+04 -3.347989E+04
       313  10  1.889979E+06  3.226849E+05  3.245562E+05  2.393055E+05  2.477800E-10 -7.948820E-11
       313  11  1.660038E+06  1.977558E+05  2.019816E+05  1.848547E+05 -2.496581E-13 -1.281433E-10
       313  12  1.452829E+06  1.320762E+05  1.330953E+05  1.865846E+05 -2.099730E-11  1.338690E-10
       313  13  8.980115E+05  7.732389E+04  8.804016E+04  1.933827E+05 -3.680339E-10  2.697720E-10
       313  14  8.899656E+05  1.219674E+04  4.313352E+04  1.652936E+05 -3.341612E-10  1.151411E-10
       313  15  8.981551E+05 -1.243675E+02  2.600644E+04  1.933798E+05  4.537170E-10  3.325080E-10
       313  16 -9.305125E+04 -1.681002E+05 -1.485438E+05  1.475333E+05 -1.850642E-10  2.708997E-11
       313  17  1.204546E+05 -1.733983E+05 -1.157464E+05  1.457571E+05 -3.628567E-11  2.686086E-10
       313  18  3.437768E+05 -1.323430E+05 -8.109668E+04  2.001689E+05  2.586586E-10  1.952692E-10
       313  19  1.889992E+06  3.226885E+05  3.245803E+05  2.393044E+05 -1.127770E+05  1.180310E+04
       313  20  1.660042E+06  1.977579E+05  2.019893E+05  1.848532E+05 -5.294035E+04  3.560394E+04
       313  21  1.452829E+06  1.320774E+05  1.330974E+05  1.865848E+05  6.861856E+03  3.348503E+04
       313  22  8.980154E+05  7.732499E+04  8.804711E+04  1.933822E+05 -5.967082E+04  1.180723E+04
       313  23  8.899675E+05  1.219848E+04  4.313852E+04  1.652925E+05 -3.727793E+04  3.560961E+04
       313  24  8.981556E+05 -1.231035E+02  2.600896E+04  1.933794E+05 -1.489620E+04  3.348270E+04
       313  25 -9.305117E+04 -1.681001E+05 -1.485435E+05  1.475333E+05 -6.648804E+03  1.180354E+04
       313  26  1.204555E+05 -1.733968E+05 -1.157431E+05  1.457564E+05 -2.163454E+04  3.561431E+04
       313  27  3.437785E+05 -1.323415E+05 -8.109205E+04  2.001679E+05 -3.663530E+04  3.347989E+04
       314   1  1.300856E+06  9.963302E+04  9.988228E+04  1.950300E+05 -5.939580E+03 -2.460181E+04
       314   2  1.081717E+06  4.476230E+04  5.215769E+04  1.655375E+05 -1.654249E+04 -1.184579E+04
       314   3  8.647782E+05 -7.052399E+03  1.208890E+04  1.936687E+05 -2.714393E+04  2.602879E+03
       314   4  8.949575E+05  2.897769E+03  2.159907E+04  1.937035E+05  1.123614E+04 -2.459826E+04
       314   5  8.941042E+05  1.315151E+02  1.640791E+04  1.648914E+05  3.075272E+03 -1.184019E+04
       314   6  8.949857E+05  2.035209E+00  1.718253E+04  1.937041E+05 -5.087642E+03  2.610875E+03
       314   7  4.892182E+05 -9.384709E+04 -5.669069E+04  1.923777E+05  2.840089E+04 -2.459477E+04
       314   8  7.065260E+05 -4.450113E+04 -1.934200E+04  1.642456E+05  2.268725E+04 -1.183462E+04
       314   9  9.251950E+05  7.056682E+03  2.227795E+04  1.937395E+05  1.696968E+04  2.618873E+03
       314  10  1.300855E+06  9.963236E+04  9.988108E+04  1.950299E+05 -9.991323E-11  9.463897E-11
       314  11  1.081717E+06  4.476208E+04  5.215691E+04  1.655373E+05  1.382688E-10  1.834468E-10
       314  12  8.647775E+05 -7.052604E+03  1.208751E+04  1.936687E+05 -8.160431E-11  4.468509E-11
       314  13  8.949572E+05  2.897085E+03  2.159769E+04  1.937037E+05  3.555864E-10  3.194451E-10
       314  14  8.941042E+05  1.313619E+02  1.640763E+04  1.648915E+05  5.185541E-10  3.134944E-10
       314  15  8.949856E+05  2.020943E+00  1.718247E+04  1.937041E+05 -2.174930E-11  7.422970E-12
       314  16  4.892172E+05 -9.384796E+04 -5.669334E+04  1.923783E+05 -2.773850E-10  9.708468E-11
       314  17  7.065254E+05 -4.450142E+04 -1.934323E+04  1.642458E+05  3.301314E-10  2.276630E-10
       314  18  9.251947E+05  7.056598E+03  2.227740E+04  1.937395E+05  2.406933E-10  1.824937E-11
       314  19  1.300856E+06  9.963302E+04  9.988228E+04  1.950300E+05  5.939580E+03  2.460181E+04
       314  20  1.081717E+06  4.476230E+04  5.215769E+04  1.655375E+05  1.654249E+04  1.184579E+04
       314  21  8.647782E+05 -7.052399E+03  1.208890E+04  1.936687E+05  2.714393E+04 -2.602879E+03
       314  22  8.949575E+05  2.897769E+03  2.159907E+04  1.937035E+05 -1.123614E+04  2.459826E+04
       314  23  8.941042E+05  1.315151E+02  1.640791E+04  1.648914E+05 -3.075272E+03  1.184019E+04
       314  24  8.949857E+05  2.035209E+00  1.718253E+04  1.937041E+05  5.087642E+03 -2.610875E+03
       314  25  4.892182E+05 -9.384709E+04 -5.669069E+04  1.923777E+05 -2.840089E+04  2.459477E+04
       314  26  7.065260E+05 -4.450113E+04 -1.934200E+04  1.642456E+05 -2.268725E+04  1.183462E+04
       314  27  9.251950E+05  7.056682E+03  2.227795E+04  1.937395E+05 -1.696968E+04 -2.618873E+03
       315   1  7.174803E+05 -4.248495E+04 -1.398985E+04  1.950966E+05 -3.044089E+04  1.168034E+04
       315   2  4.979296E+05 -9.334745E+04 -4.544569E+04  1.641907E+05 -4.189791E+04  2.598772E+04
       315   3  2.814287E+05 -1.383333E+05 -6.797041E+04  1.909071E+05 -5.334706E+04  3.821393E+04
       315   4  8.953763E+05 -2.442892E+02  1.948156E+04  1.937029E+05 -8.322085E+03  1.168788E+04
       315   5  8.935841E+05  6.156333E+02  2.901487E+04  1.648921E+05 -2.278955E+04  2.599093E+04
       315   6  8.953119E+05  7.872888E+03  4.956088E+04  1.937005E+05 -3.725301E+04  3.821350E+04
       315   7  1.073304E+06  4.199480E+04  5.295343E+04  1.923087E+05  1.380290E+04  1.169531E+04
       315   8  1.289390E+06  9.456983E+04  1.034700E+05  1.655940E+05 -3.669317E+03  2.599418E+04
       315   9  1.509558E+06  1.540571E+05  1.670760E+05  1.964967E+05 -2.114342E+04  3.821321E+04
       315  10  7.174793E+05 -4.248534E+04 -1.399185E+04  1.950968E+05  2.311912E-10  2.420004E-10
       315  11  4.979276E+05 -9.334864E+04 -4.545026E+04  1.641916E+05  2.207939E-11 -1.229412E-10
       315  12  2.814253E+05 -1.383357E+05 -6.797850E+04  1.909087E+05  3.075689E-11 -4.081487E-10
       315  13  8.953761E+05 -2.444545E+02  1.948117E+04  1.937029E+05  5.891443E-11 -9.633101E-12
       315  14  8.935833E+05  6.147682E+02  2.901262E+04  1.648926E+05  1.932424E-10 -1.191661E-10
       315  15  8.953100E+05  7.870947E+03  4.955553E+04  1.937017E+05 -2.602388E-10 -3.863536E-10
       315  16  1.073304E+06  4.199461E+04  5.295281E+04  1.923086E+05  1.570115E-10 -6.810096E-11
       315  17  1.289390E+06  9.456910E+04  1.034687E+05  1.655941E+05  1.330444E-10 -2.114327E-10
       315  18  1.509557E+06  1.540554E+05  1.670724E+05  1.964974E+05  2.935525E-10 -4.687122E-10
       315  19  7.174803E+05 -4.248495E+04 -1.398985E+04  1.950966E+05  3.044089E+04 -1.168034E+04
       315  20  4.979296E+05 -9.334745E+04 -4.544569E+04  1.641907E+05  4.189791E+04 -2.598772E+04
       315  21  2.814287E+05 -1.383333E+05 -6.797041E+04  1.909071E+05  5.334706E+04 -3.821393E+04
       315  22  8.953763E+05 -2.442892E+02  1.948156E+04  1.937029E+05  8.322085E+03 -1.168788E+04
       315  23  8.935841E+05  6.156333E+02  2.901487E+04  1.648921E+05  2.278955E+04 -2.599093E+04
       315  24  8.953119E+05  7.872888E+03  4.956088E+04  1.937005E+05  3.725301E+04 -3.821350E+04
       315  25  1.073304E+06  4.199480E+04  5.295343E+04  1.923087E+05 -1.380290E+04 -1.169531E+04
       315  26  1.289390E+06  9.456983E+04  1.034700E+05  1.655940E+05  3.669317E+03 -2.599418E+04
       315  27  1.509558E+06  1.540571E+05  1.670760E+05  1.964967E+05  2.114342E+04 -3.821321E+04
       316   1  1.413229E+05 -1.819874E+05 -8.283706E+04  2.121298E+05 -6.731215E+04  4.705692E+04
       316   2 -9.508395E+04 -2.026319E+05 -8.782107E+04  1.134857E+05 -8.117662E+04  4.656640E+04
       316   3 -2.959572E+05 -8.952426E+04 -5.028535E+04  7.083223E+04 -9.505226E+04  1.505780E+04
       316   4  9.040904E+05 -2.289455E+02  6.361494E+04  1.933210E+05 -4.574629E+04  4.705627E+04
       316   5  8.823985E+05  3.288179E+04  1.127950E+05  1.653575E+05 -1.043438E+05  4.655698E+04
       316   6  9.038655E+05  2.073684E+05  2.354776E+05  1.933596E+05 -1.629606E+05  1.505867E+04
       316   7  1.667419E+06  1.814967E+05  2.100422E+05  1.744884E+05 -2.415453E+04  4.705430E+04
       316   8  1.860795E+06  2.683459E+05  3.133636E+05  2.173123E+05 -1.275466E+05  4.654371E+04
       316   9  2.105051E+06  5.042163E+05  5.211650E+05  3.161249E+05 -2.309994E+05  1.503277E+04
       316  10  1.413174E+05 -1.819910E+05 -8.284974E+04  2.121324E+05  1.213442E-10 -7.154947E-10
       316  11 -9.509161E+04 -2.026360E+05 -8.783753E+04  1.134887E+05 -2.068664E-10 -7.551368E-10
       316  12 -2.959669E+05 -8.952693E+04 -5.030276E+04  7.083338E+04 -6.810711E-10 -5.201497E-10
       316  13  9.040876E+05 -2.318860E+02  6.360684E+04  1.933227E+05 -6.587726E-10 -5.407429E-10
       316  14  8.823863E+05  3.287654E+04  1.127705E+05  1.653614E+05  1.933083E-10 -6.847798E-10
       316  15  9.038370E+05  2.073611E+05  2.354273E+05  1.933616E+05 -6.508333E-10 -1.643277E-11
       316  16  1.667418E+06  1.814942E+05  2.100369E+05  1.744893E+05 -8.807576E-11 -5.859803E-10
       316  17  1.860777E+06  2.683392E+05  3.133290E+05  2.173171E+05  8.228809E-11 -3.718095E-10
       316  18  2.104994E+06  5.042018E+05  5.210647E+05  3.161277E+05  1.446388E-09 -4.410191E-10
       316  19  1.413229E+05 -1.819874E+05 -8.283706E+04  2.121298E+05  6.731215E+04 -4.705692E+04
       316  20 -9.508395E+04 -2.026319E+05 -8.782107E+04  1.134857E+05  8.117662E+04 -4.656640E+04
       316  21 -2.959572E+05 -8.952426E+04 -5.028535E+04  7.083223E+04  9.505226E+04 -1.505780E+04
       316  22  9.040904E+05 -2.289455E+02  6.361494E+04  1.933210E+05  4.574629E+04 -4.705627E+04
       316  23  8.823985E+05  3.288179E+04  1.127950E+05  1.653575E+05  1.043438E+05 -4.655698E+04
       316  24  9.038655E+05  2.073684E+05  2.354776E+05  1.933596E+05  1.629606E+05 -1.505867E+04
       316  25  1.667419E+06  1.814967E+05  2.100422E+05  1.744884E+05  2.415453E+04 -4.705430E+04
       316  26  1.860795E+06  2.683459E+05  3.133636E+05  2.173123E+05  1.275466E+05 -4.654371E+04
       316  27  2.105051E+06  5.042163E+05  5.211650E+05  3.161249E+05  2.309994E+05 -1.503277E+04
       317   1 -6.228503E+05 -1.054071E+04 -5.488579E+04 -7.112880E+03 -1.449829E+05 -1.276770E+04
       317   2 -7.641837E+05  1.600224E+05  3.032890E+04  6.043805E+04 -1.089897E+05 -4.032483E+04
       317   3 -9.524691E+05  1.607385E+05  4.967056E+04  1.699078E+05 -7.299283E+04 -4.196899E+04
       317   4 -1.625992E+06 -2.594535E+05 -2.939601E+05  1.464450E+05 -2.030046E+05 -1.278129E+04
       317   5 -1.599076E+06 -4.145918E+04 -1.408454E+05  1.255130E+05 -1.298353E+05 -4.033537E+04
       317   6 -1.625702E+06  6.358640E+01 -7.954022E+04  1.465169E+05 -5.664746E+04 -4.197087E+04
       317   7 -2.628151E+06 -5.083487E+05 -5.330797E+05  2.997533E+05 -2.609326E+05 -1.282367E+04
       317   8 -2.433294E+06 -2.429685E+05 -3.120529E+05  1.904987E+05 -1.506532E+05 -4.035031E+04
       317   9 -2.298496E+06 -1.606360E+05 -2.087705E+05  1.231519E+05 -4.031940E+04 -4.197398E+04
       317  10 -6.228729E+05 -1.054654E+04 -5.492564E+04 -7.114372E+03 -2.380442E-10  5.957414E-10
       317  11 -7.641969E+05  1.600175E+05  3.030350E+04  6.043451E+04  5.481740E-12 -2.618967E-10
       317  12 -9.524753E+05  1.607352E+05  4.965722E+04  1.699053E+05  2.397514E-09 -3.047588E-10
       317  13 -1.626036E+06 -2.594648E+05 -2.940380E+05  1.464429E+05 -5.102435E-10 -3.608460E-10
       317  14 -1.599094E+06 -4.146546E+04 -1.408802E+05  1.255088E+05 -3.338721E-10  2.040510E-12
       317  15 -1.625706E+06  6.083270E+01 -7.954957E+04  1.465150E+05  4.120640E-10 -4.394452E-10
       317  16 -2.628224E+06 -5.083673E+05 -5.332085E+05  2.997506E+05 -1.620729E-10 -2.399791E-10
       317  17 -2.433319E+06 -2.429764E+05 -3.120988E+05  1.904938E+05 -1.051707E-09 -4.251595E-11
       317  18 -2.298498E+06 -1.606383E+05 -2.087769E+05  1.231506E+05 -3.074792E-09 -9.634908E-10
       317  19 -6.228503E+05 -1.054071E+04 -5.488579E+04 -7.112880E+03  1.449829E+05  1.276770E+04
       317  20 -7.641837E+05  1.600224E+05  3.032890E+04  6.043805E+04  1.089897E+05  4.032483E+04
       317  21 -9.524691E+05  1.607385E+05  4.967056E+04  1.699078E+05  7.299283E+04  4.196899E+04
       317  22 -1.625992E+06 -2.594535E+05 -2.939601E+05  1.464450E+05  2.030046E+05  1.278129E+04
       317  23 -1.599076E+06 -4.145918E+04 -1.408454E+05  1.255130E+05  1.298353E+05  4.033537E+04
       317  24 -1.625702E+06  6.358640E+01 -7.954022E+04  1.465169E+05  5.664746E+04  4.197087E+04
       317  25 -2.628151E+06 -5.083487E+05 -5.330797E+05  2.997533E+05  2.609326E+05  1.282367E+04
       317  26 -2.433294E+06 -2.429685E+05 -3.120529E+05  1.904987E+05  1.506532E+05  4.035031E+04
       317  27 -2.298496E+06 -1.606360E+05 -2.087705E+05  1.231519E+05  4.031940E+04  4.197398E+04
       318   1 -1.054493E+06  1.236765E+05  4.510820E+04  1.433862E+05 -5.781280E+04 -3.527176E+04
       318   2 -1.217858E+06  9.313068E+04  3.752178E+04  1.241514E+05 -4.203813E+04 -2.622537E+04
       318   3 -1.385103E+06  5.500689E+04  1.777083E+04  1.486495E+05 -2.627024E+04 -1.541226E+04
       318   4 -1.614766E+06 -9.987722E+03 -6.210980E+04  1.468986E+05 -4.604764E+04 -3.527444E+04
       318   5 -1.612559E+06 -7.846392E+02 -3.673145E+04  1.250303E+05 -2.774920E+04 -2.622551E+04
       318   6 -1.614704E+06  3.978246E+02 -2.528417E+04  1.468973E+05 -9.453495E+03 -1.540940E+04
       318   7 -2.174735E+06 -1.436704E+05 -1.693416E+05  1.504077E+05 -3.429285E+04 -3.527699E+04
       318   8 -2.007108E+06 -9.470891E+04 -1.109907E+05  1.259086E+05 -1.346915E+04 -2.622562E+04
       318   9 -1.844252E+06 -5.421414E+04 -6.834038E+04  1.451457E+05  7.357175E+03 -1.540663E+04
       318  10 -1.054496E+06  1.236742E+05  4.509958E+04  1.433845E+05 -1.239061E-11 -4.703135E-10
       318  11 -1.217860E+06  9.312946E+04  3.751717E+04  1.241505E+05 -2.906269E-10 -1.060165E-10
       318  12 -1.385104E+06  5.500645E+04  1.776909E+04  1.486491E+05  4.133282E-10  6.242667E-10
       318  13 -1.614768E+06 -9.989627E+03 -6.211613E+04  1.468973E+05 -5.132478E-10 -7.739987E-10
       318  14 -1.612560E+06 -7.855844E+02 -3.673420E+04  1.250297E+05 -8.128223E-10  1.091687E-10
       318  15 -1.614704E+06  3.975458E+02 -2.528478E+04  1.468971E+05  5.289441E-10  1.081941E-10
       318  16 -2.174737E+06 -1.436720E+05 -1.693461E+05  1.504068E+05  4.819816E-10 -8.114532E-10
       318  17 -2.007108E+06 -9.470970E+04 -1.109924E+05  1.259083E+05 -3.981529E-10  2.151775E-10
       318  18 -1.844252E+06 -5.421441E+04 -6.834093E+04  1.451458E+05  2.851929E-11  5.916102E-11
       318  19 -1.054493E+06  1.236765E+05  4.510820E+04  1.433862E+05  5.781280E+04  3.527176E+04
       318  20 -1.217858E+06  9.313068E+04  3.752178E+04  1.241514E+05  4.203813E+04  2.622537E+04
       318  21 -1.385103E+06  5.500689E+04  1.777083E+04  1.486495E+05  2.627024E+04  1.541226E+04
       318  22 -1.614766E+06 -9.987722E+03 -6.210980E+04  1.468986E+05  4.604764E+04  3.527444E+04
       318  23 -1.612559E+06 -7.846392E+02 -3.673145E+04  1.250303E+05  2.774920E+04  2.622551E+04
       318  24 -1.614704E+06  3.978246E+02 -2.528417E+04  1.468973E+05  9.453495E+03  1.540940E+04
       318  25 -2.174735E+06 -1.436704E+05 -1.693416E+05  1.504077E+05  3.429285E+04  3.527699E+04
       318  26 -2.007108E+06 -9.470891E+04 -1.109907E+05  1.259086E+05  1.346915E+04  2.622562E+04
       318  27 -1.844252E+06 -5.421414E+04 -6.834038E+04  1.451457E+05 -7.357175E+03  1.540663E+04
       319   1 -1.496881E+06  2.794829E+04 -1.324196E+03  1.467235E+05 -2.194507E+04 -8.502949E+03
       319   2 -1.660984E+06 -1.167448E+04 -3.244343E+04  1.258223E+05 -8.986754E+03  2.571120E+03
       319   3 -1.827778E+06 -5.544732E+04 -7.305205E+04  1.487424E+05  3.968255E+03  1.253313E+04
       319   4 -1.614271E+06  1.424845E+02 -2.275761E+04  1.469162E+05 -5.232530E+03 -8.499477E+03
       319   5 -1.613056E+06 -1.529578E+02 -2.285113E+04  1.250058E+05  6.125310E+03  2.573967E+03
       319   6 -1.614282E+06 -4.319166E+03 -3.132111E+04  1.469168E+05  1.748317E+04  1.253542E+04
       319   7 -1.731647E+06 -2.766395E+04 -4.419052E+04  1.471089E+05  1.147693E+04 -8.495993E+03
       319   8 -1.565125E+06  1.136855E+04 -1.325809E+04  1.241893E+05  2.123852E+04  2.576774E+03
       319   9 -1.400741E+06  4.680635E+04  1.040834E+04  1.450905E+05  3.100264E+04  1.253762E+04
       319  10 -1.496882E+06  2.794808E+04 -1.325239E+03  1.467234E+05  7.970426E-10  7.113671E-10
       319  11 -1.660984E+06 -1.167451E+04 -3.244359E+04  1.258224E+05  1.727717E-09  2.001766E-10
       319  12 -1.827778E+06 -5.544749E+04 -7.305237E+04  1.487424E+05  2.737691E-10  3.725593E-10
       319  13 -1.614271E+06  1.423996E+02 -2.275780E+04  1.469162E+05  5.310688E-10  1.126729E-10
       319  14 -1.613056E+06 -1.529751E+02 -2.285122E+04  1.250058E+05  1.574697E-10  1.344762E-10
       319  15 -1.614282E+06 -4.319416E+03 -3.132198E+04  1.469166E+05  1.007533E-09 -1.751070E-10
       319  16 -1.731647E+06 -2.766406E+04 -4.419091E+04  1.471089E+05  7.647621E-11 -2.867264E-10
       319  17 -1.565126E+06  1.136842E+04 -1.325895E+04  1.241893E+05  1.638040E-10 -2.750349E-10
       319  18 -1.400742E+06  4.680592E+04  1.040623E+04  1.450902E+05 -1.373061E-10 -2.039483E-10
       319  19 -1.496881E+06  2.794829E+04 -1.324196E+03  1.467235E+05  2.194507E+04  8.502949E+03
       319  20 -1.660984E+06 -1.167448E+04 -3.244343E+04  1.258223E+05  8.986754E+03 -2.571120E+03
       319  21 -1.827778E+06 -5.544732E+04 -7.305205E+04  1.487424E+05 -3.968255E+03 -1.253313E+04
       319  22 -1.614271E+06  1.424845E+02 -2.275761E+04  1.469162E+05  5.232530E+03  8.499477E+03
       319  23 -1.613056E+06 -1.529578E+02 -2.285113E+04  1.250058E+05 -6.125310E+03 -2.573967E+03
       319  24 -1.614282E+06 -4.319166E+03 -3.132111E+04  1.469168E+05 -1.748317E+04 -1.253542E+04
       319  25 -1.731647E+06 -2.766395E+04 -4.419052E+04  1.471089E+05 -1.147693E+04  8.495993E+03
       319  26 -1.565125E+06  1.136855E+04 -1.325809E+04  1.241893E+05 -2.123852E+04 -2.576774E+03
       319  27 -1.400741E+06  4.680635E+04  1.040834E+04  1.450905E+05 -3.100264E+04 -1.253762E+04
       320   1 -1.945315E+06 -7.795989E+04 -1.017597E+05  1.363895E+05  6.196654E+03  1.931755E+04
       320   2 -2.096446E+06 -1.368722E+05 -1.659735E+05  1.544405E+05  6.451366E+04  2.214204E+04
       320   3 -2.275945E+06 -2.790113E+05 -2.890418E+05  2.151744E+05  1.228098E+05  7.532937E+03
       320   4 -1.619077E+06  1.461211E+02 -3.814172E+04  1.466682E+05  2.277609E+04  1.931951E+04
       320   5 -1.607144E+06 -1.844009E+04 -6.413850E+04  1.253208E+05  5.606571E+04  2.213730E+04
       320   6 -1.619219E+06 -1.158632E+05 -1.315466E+05  1.466655E+05  8.935100E+04  7.520358E+03
       320   7 -1.292736E+06  7.824627E+04  2.547229E+04  1.569524E+05  3.936407E+04  1.932201E+04
       320   8 -1.117613E+06  9.997995E+04  3.768402E+04  9.617762E+04  4.761117E+04  2.213336E+04
       320   9 -9.620835E+05  4.727171E+04  2.592471E+04  7.808355E+04  5.585682E+04  7.515202E+03
       320  10 -1.945315E+06 -7.796030E+04 -1.017605E+05  1.363894E+05 -6.629016E-11  4.270604E-10
       320  11 -2.096450E+06 -1.368738E+05 -1.659822E+05  1.544393E+05  7.185957E-10  2.800252E-10
       320  12 -2.275961E+06 -2.790154E+05 -2.890703E+05  2.151736E+05  1.222504E-09  1.907763E-10
       320  13 -1.619077E+06  1.455810E+02 -3.814340E+04  1.466678E+05  6.730133E-11  1.956932E-10
       320  14 -1.607148E+06 -1.844146E+04 -6.414535E+04  1.253198E+05  2.889687E-10  3.854908E-10
       320  15 -1.619227E+06 -1.158655E+05 -1.315618E+05  1.466649E+05 -7.274601E-10 -1.349226E-10
       320  16 -1.292737E+06  7.824546E+04  2.546867E+04  1.569518E+05 -2.690884E-11  4.616098E-12
       320  17 -1.117615E+06  9.997882E+04  3.767884E+04  9.617677E+04  3.084074E-10  4.988435E-10
       320  18 -9.620869E+05  4.727081E+04  2.591873E+04  7.808321E+04 -5.106499E-10  6.571191E-11
       320  19 -1.945315E+06 -7.795989E+04 -1.017597E+05  1.363895E+05 -6.196654E+03 -1.931755E+04
       320  20 -2.096446E+06 -1.368722E+05 -1.659735E+05  1.544405E+05 -6.451366E+04 -2.214204E+04
       320  21 -2.275945E+06 -2.790113E+05 -2.890418E+05  2.151744E+05 -1.228098E+05 -7.532937E+03
       320  22 -1.619077E+06  1.461211E+02 -3.814172E+04  1.466682E+05 -2.277609E+04 -1.931951E+04
       320  23 -1.607144E+06 -1.844009E+04 -6.413850E+04  1.253208E+05 -5.606571E+04 -2.213730E+04
       320  24 -1.619219E+06 -1.158632E+05 -1.315466E+05  1.466655E+05 -8.935100E+04 -7.520358E+03
       320  25 -1.292736E+06  7.824627E+04  2.547229E+04  1.569524E+05 -3.936407E+04 -1.932201E+04
       320  26 -1.117613E+06  9.997995E+04  3.768402E+04  9.617762E+04 -4.761117E+04 -2.213336E+04
       320  27 -9.620835E+05  4.727171E+04  2.592471E+04  7.808355E+04 -5.585682E+04 -7.515202E+03
       321   1 -5.079610E+05  1.408941E+05  1.244047E+05  5.414292E+04  2.323276E+03 -1.096715E+04
       321   2 -6.065515E+05  1.616310E+05  1.112282E+05  6.221248E+04 -1.003153E+04 -3.523086E+04
       321   3 -7.125565E+05  1.458971E+05  9.699846E+04  9.602056E+04 -2.237816E+04 -3.870137E+04
       321   4 -1.324457E+06 -6.139514E+04 -6.964525E+04  9.050301E+04 -4.751861E+04 -1.096162E+04
       321   5 -1.318095E+06 -9.838082E+03 -3.381901E+04  7.763146E+04 -2.996140E+04 -3.523456E+04
       321   6 -1.324372E+06  2.430702E+01 -1.985204E+04  9.050227E+04 -1.239742E+04 -3.870260E+04
       321   7 -2.140332E+06 -2.637262E+05 -2.637318E+05  1.268150E+05 -9.729518E+04 -1.096192E+04
       321   8 -2.029155E+06 -1.813378E+05 -1.788912E+05  9.303240E+04 -4.986882E+04 -3.523926E+04
       321   9 -1.935826E+06 -1.458704E+05 -1.367191E+05  8.498952E+04 -2.426298E+03 -3.870402E+04
       321  10 -5.079610E+05  1.408940E+05  1.244045E+05  5.414294E+04  9.334399E-12  3.517248E-10
       321  11 -6.065520E+05  1.616297E+05  1.112256E+05  6.221220E+04 -9.573903E-10  7.857904E-11
       321  12 -7.125574E+05  1.458954E+05  9.699471E+04  9.601986E+04 -1.452544E-10  5.680588E-11
       321  13 -1.324460E+06 -6.139588E+04 -6.964973E+04  9.050259E+04 -9.298862E-10 -3.858730E-10
       321  14 -1.318096E+06 -9.839656E+03 -3.382303E+04  7.763061E+04 -6.754128E-10  1.019181E-10
       321  15 -1.324372E+06  2.265825E+01 -1.985515E+04  9.050189E+04 -2.349313E-11  1.585299E-10
       321  16 -2.140342E+06 -2.637289E+05 -2.637499E+05  1.268141E+05 -6.810558E-10 -2.232539E-10
       321  17 -2.029158E+06 -1.813398E+05 -1.788982E+05  9.303098E+04  5.878278E-10  2.156601E-10
       321  18 -1.935826E+06 -1.458720E+05 -1.367220E+05  8.498944E+04  1.563133E-10  2.777276E-10
       321  19 -5.079610E+05  1.408941E+05  1.244047E+05  5.414292E+04 -2.323276E+03  1.096715E+04
       321  20 -6.065515E+05  1.616310E+05  1.112282E+05  6.221248E+04  1.003153E+04  3.523086E+04
       321  21 -7.125565E+05  1.458971E+05  9.699846E+04  9.602056E+04  2.237816E+04  3.870137E+04
       321  22 -1.324457E+06 -6.139514E+04 -6.964525E+04  9.050301E+04  4.751861E+04  1.096162E+04
       321  23 -1.318095E+06 -9.838082E+03 -3.381901E+04  7.763146E+04  2.996140E+04  3.523456E+04
       321  24 -1.324372E+06  2.430702E+01 -1.985204E+04  9.050227E+04  1.239742E+04  3.870260E+04
       321  25 -2.140332E+06 -2.637262E+05 -2.637318E+05  1.268150E+05  9.729518E+04  1.096192E+04
       321  26 -2.029155E+06 -1.813378E+05 -1.788912E+05  9.303240E+04  4.986882E+04  3.523926E+04
       321  27 -1.935826E+06 -1.458704E+05 -1.367191E+05  8.498952E+04  2.426298E+03  3.870402E+04
       322   1 -7.802582E+05  1.267341E+05  8.701567E+04  8.994887E+04 -1.597491E+04 -3.458999E+04
       322   2 -8.824641E+05  1.041818E+05  7.094909E+04  7.695895E+04 -1.248257E+04 -2.947900E+04
       322   3 -9.855028E+05  8.000380E+04  5.220487E+04  9.108820E+04 -8.993381E+03 -2.290679E+04
       322   4 -1.321820E+06 -2.329454E+03 -1.611031E+04  9.080781E+04 -9.668500E+03 -3.459097E+04
       322   5 -1.321199E+06 -1.103570E+02 -1.123818E+04  7.724715E+04 -4.078642E+03 -2.947800E+04
       322   6 -1.321788E+06  1.175478E+02 -1.050478E+04  9.080696E+04  1.508590E+03 -2.290327E+04
       322   7 -1.863099E+06 -1.314102E+05 -1.192493E+05  9.166594E+04 -3.367461E+03 -3.459194E+04
       322   8 -1.759747E+06 -1.044136E+05 -9.343349E+04  7.753512E+04  4.319490E+03 -2.947699E+04
       322   9 -1.657964E+06 -7.977518E+04 -7.321884E+04  9.052586E+04  1.200501E+04 -2.289976E+04
       322  10 -7.802588E+05  1.267327E+05  8.701295E+04  8.994842E+04 -4.045655E-10  2.331951E-10
       322  11 -8.824645E+05  1.041808E+05  7.094716E+04  7.695865E+04  1.120069E-09 -6.414419E-10
       322  12 -9.855031E+05  8.000322E+04  5.220374E+04  9.108803E+04  4.776923E-10 -4.345684E-10
       322  13 -1.321821E+06 -2.330763E+03 -1.611273E+04  9.080754E+04  1.008566E-10  1.814269E-10
       322  14 -1.321199E+06 -1.112940E+02 -1.123984E+04  7.724706E+04  5.778828E-10 -1.524072E-10
       322  15 -1.321789E+06  1.169842E+02 -1.050577E+04  9.080699E+04  6.858837E-10 -4.700147E-10
       322  16 -1.863099E+06 -1.314115E+05 -1.192516E+05  9.166585E+04  8.017173E-10 -3.454300E-11
       322  17 -1.759748E+06 -1.044145E+05 -9.343516E+04  7.753523E+04  4.828155E-10  1.624451E-11
       322  18 -1.657964E+06 -7.977578E+04 -7.322010E+04  9.052608E+04 -8.525436E-10  2.994656E-10
       322  19 -7.802582E+05  1.267341E+05  8.701567E+04  8.994887E+04  1.597491E+04  3.458999E+04
       322  20 -8.824641E+05  1.041818E+05  7.094909E+04  7.695895E+04  1.248257E+04  2.947900E+04
       322  21 -9.855028E+05  8.000380E+04  5.220487E+04  9.108820E+04  8.993381E+03  2.290679E+04
       322  22 -1.321820E+06 -2.329454E+03 -1.611031E+04  9.080781E+04  9.668500E+03  3.459097E+04
       322  23 -1.321199E+06 -1.103570E+02 -1.123818E+04  7.724715E+04  4.078642E+03  2.947800E+04
       322  24 -1.321788E+06  1.175478E+02 -1.050478E+04  9.080696E+04 -1.508590E+03  2.290327E+04
       322  25 -1.863099E+06 -1.314102E+05 -1.192493E+05  9.166594E+04  3.367461E+03  3.459194E+04
       322  26 -1.759747E+06 -1.044136E+05 -9.343349E+04  7.753512E+04 -4.319490E+03  2.947699E+04
       322  27 -1.657964E+06 -7.977518E+04 -7.321884E+04  9.052586E+04 -1.200501E+04  2.289976E+04
       323   1 -1.055348E+06  6.345990E+04  3.793532E+04  9.022450E+04 -6.894732E+03 -1.861654E+04
       323   2 -1.157229E+06  3.857648E+04  1.425588E+04  7.765722E+04  1.475728E+03 -1.159646E+04
       323   3 -1.261077E+06  1.023643E+04 -1.575098E+04  9.234664E+04  9.844034E+03 -4.901361E+03
       323   4 -1.321932E+06  2.154876E+02 -1.135035E+04  9.083714E+04  3.428453E+03 -1.861235E+04
       323   5 -1.320983E+06 -2.452959E+02 -1.586781E+04  7.720952E+04  1.132893E+04 -1.159182E+04
       323   6 -1.321927E+06 -4.080448E+03 -2.638597E+04  9.083917E+04  1.922856E+04 -4.896331E+03
       323   7 -1.588446E+06 -6.303294E+04 -6.063858E+04  9.144950E+04  1.374731E+04 -1.860813E+04
       323   8 -1.484710E+06 -3.906855E+04 -4.599224E+04  7.676193E+04  2.117960E+04 -1.158720E+04
       323   9 -1.382774E+06 -1.839747E+04 -3.702076E+04  8.933185E+04  2.861220E+04 -4.891346E+03
       323  10 -1.055348E+06  6.345952E+04  3.793458E+04  9.022440E+04  1.363762E-10 -3.769534E-10
       323  11 -1.157229E+06  3.857634E+04  1.425562E+04  7.765724E+04 -1.661933E-10 -3.836346E-10
       323  12 -1.261077E+06  1.023638E+04 -1.575120E+04  9.234668E+04  1.985793E-10 -7.596905E-10
       323  13 -1.321932E+06  2.151126E+02 -1.135102E+04  9.083719E+04  3.869197E-10 -3.834451E-10
       323  14 -1.320983E+06 -2.454747E+02 -1.586831E+04  7.720962E+04 -3.750105E-10 -5.078868E-10
       323  15 -1.321928E+06 -4.080573E+03 -2.638671E+04  9.083925E+04  2.697166E-10 -4.770414E-10
       323  16 -1.588446E+06 -6.303336E+04 -6.063959E+04  9.144970E+04 -1.652895E-10 -1.792698E-10
       323  17 -1.484711E+06 -3.906881E+04 -4.599334E+04  7.676213E+04 -8.484207E-10  4.256485E-10
       323  18 -1.382775E+06 -1.839772E+04 -3.702234E+04  8.933197E+04 -1.173455E-09  2.663087E-10
       323  19 -1.055348E+06  6.345990E+04  3.793532E+04  9.022450E+04  6.894732E+03  1.861654E+04
       323  20 -1.157229E+06  3.857648E+04  1.425588E+04  7.765722E+04 -1.475728E+03  1.159646E+04
       323  21 -1.261077E+06  1.023643E+04 -1.575098E+04  9.234664E+04 -9.844034E+03  4.901361E+03
       323  22 -1.321932E+06  2.154876E+02 -1.135035E+04  9.083714E+04 -3.428453E+03  1.861235E+04
       323  23 -1.320983E+06 -2.452959E+02 -1.586781E+04  7.720952E+04 -1.132893E+04  1.159182E+04
       323  24 -1.321927E+06 -4.080448E+03 -2.638597E+04  9.083917E+04 -1.922856E+04  4.896331E+03
       323  25 -1.588446E+06 -6.303294E+04 -6.063858E+04  9.144950E+04 -1.374731E+04  1.860813E+04
       323  26 -1.484710E+06 -3.906855E+04 -4.599224E+04  7.676193E+04 -2.117960E+04  1.158720E+04
       323  27 -1.382774E+06 -1.839747E+04 -3.702076E+04  8.933185E+04 -2.861220E+04  4.891346E+03
       324   1 -1.335631E+06 -2.246167E+03 -3.656235E+04  8.088317E+04  1.327743E+04 -6.403988E+02
       324   2 -1.426535E+06 -4.447686E+04 -8.392705E+04  1.046144E+05  5.290424E+04  3.601665E+03
       324   3 -1.541606E+06 -1.625828E+05 -1.761088E+05  1.552605E+05  9.252640E+04  1.748296E+03
       324   4 -1.326531E+06  1.662282E+02 -3.367436E+04  9.075643E+04  2.372873E+04 -6.344787E+02
       324   5 -1.315247E+06 -1.731601E+04 -5.941535E+04  7.732033E+04  5.459103E+04  3.600146E+03
       324   6 -1.326608E+06 -1.091445E+05 -1.238704E+05  9.080605E+04  8.545539E+04  1.735088E+03
       324   7 -1.317430E+06  2.579041E+03 -3.078592E+04  1.006298E+05  3.418019E+04 -6.282255E+02
       324   8 -1.203946E+06  9.846812E+03 -3.490399E+04  5.002127E+04  5.627811E+04  3.598479E+03
       324   9 -1.111559E+06 -5.569391E+04 -7.163302E+04  2.632915E+04  7.838193E+04  1.723355E+03
       324  10 -1.335631E+06 -2.246215E+03 -3.656268E+04  8.088317E+04  2.536679E-10 -1.064772E-09
       324  11 -1.426538E+06 -4.447762E+04 -8.393235E+04  1.046143E+05  9.170114E-10 -1.314708E-09
       324  12 -1.541615E+06 -1.625851E+05 -1.761249E+05  1.552604E+05 -2.517146E-10 -2.982747E-10
       324  13 -1.326531E+06  1.660762E+02 -3.367542E+04  9.075644E+04  1.292300E-09 -2.103389E-09
       324  14 -1.315251E+06 -1.731683E+04 -5.942099E+04  7.732017E+04 -2.011468E-09  1.060454E-09
       324  15 -1.326616E+06 -1.091465E+05 -1.238842E+05  9.080593E+04  4.109731E-10 -3.952156E-11
       324  16 -1.317431E+06  2.578726E+03 -3.078812E+04  1.006298E+05 -8.826286E-10  1.601708E-10
       324  17 -1.203950E+06  9.845946E+03 -3.490998E+04  5.002111E+04 -1.322582E-09  8.792659E-10
       324  18 -1.111565E+06 -5.569556E+04 -7.164459E+04  2.632904E+04  5.607160E-10 -2.911272E-10
       324  19 -1.335631E+06 -2.246167E+03 -3.656235E+04  8.088317E+04 -1.327743E+04  6.403988E+02
       324  20 -1.426535E+06 -4.447686E+04 -8.392705E+04  1.046144E+05 -5.290424E+04 -3.601665E+03
       324  21 -1.541606E+06 -1.625828E+05 -1.761088E+05  1.552605E+05 -9.252640E+04 -1.748296E+03
       324  22 -1.326531E+06  1.662282E+02 -3.367436E+04  9.075643E+04 -2.372873E+04  6.344787E+02
       324  23 -1.315247E+06 -1.731601E+04 -5.941535E+04  7.732033E+04 -5.459103E+04 -3.600146E+03
       324  24 -1.326608E+06 -1.091445E+05 -1.238704E+05  9.080605E+04 -8.545539E+04 -1.735088E+03
       324  25 -1.317430E+06  2.579041E+03 -3.078592E+04  1.006298E+05 -3.418019E+04  6.282255E+02
       324  26 -1.203946E+06  9.846812E+03 -3.490399E+04  5.002127E+04 -5.627811E+04 -3.598479E+03
       324  27 -1.111559E+06 -5.569391E+04 -7.163302E+04  2.632915E+04 -7.838193E+04 -1.723355E+03
       325   1  4.359204E+05  3.067662E+05  2.862499E+05  1.777830E+05  4.564011E+04 -1.837410E+04
       325   2  2.027232E+05  2.806566E+05  2.181574E+05  1.645999E+05  6.418797E+03 -5.781132E+04
       325   3 -3.107282E+04  2.310280E+05  1.697475E+05  2.108390E+05 -3.280127E+04 -6.032763E+04
       325   4 -9.986110E+05 -4.846192E+04 -5.521714E+04  2.057221E+05 -3.767699E+04 -1.843815E+04
       325   5 -9.935578E+05 -7.664295E+03 -2.682622E+04  1.759825E+05 -2.370734E+04 -5.784978E+04
       325   6 -9.984102E+05  3.517419E+02 -1.570684E+04  2.056760E+05 -9.751853E+03 -6.030596E+04
       325   7 -2.431236E+06 -4.038318E+05 -3.968019E+05  2.335957E+05 -1.208025E+05 -1.850979E+04
       325   8 -2.188476E+06 -2.960741E+05 -2.718824E+05  1.873422E+05 -5.377645E+04 -5.788939E+04
       325   9 -1.964845E+06 -2.303795E+05 -2.012020E+05  2.005209E+05  1.326250E+04 -6.028466E+04
       325  10  4.359181E+05  3.067652E+05  2.862453E+05  1.777837E+05  5.763618E-10 -3.284404E-10
       325  11  2.027223E+05  2.806530E+05  2.181511E+05  1.646002E+05  6.164259E-10 -2.191040E-09
       325  12 -3.107495E+04  2.310238E+05  1.697386E+05  2.108374E+05  7.083561E-10 -2.202560E-09
       325  13 -9.986126E+05 -4.846266E+04 -5.522045E+04  2.057215E+05 -3.735596E-10  4.077960E-10
       325  14 -9.935593E+05 -7.668038E+03 -2.683356E+04  1.759814E+05 -7.529113E-10 -1.306138E-09
       325  15 -9.984113E+05  3.478131E+02 -1.571385E+04  2.056755E+05  4.983084E-11 -5.880768E-10
       325  16 -2.431252E+06 -4.038361E+05 -3.968300E+05  2.335939E+05 -1.158040E-09  7.621398E-11
       325  17 -2.188480E+06 -2.960784E+05 -2.718942E+05  1.873397E+05  7.844465E-10 -2.883236E-09
       325  18 -1.964846E+06 -2.303835E+05 -2.012092E+05  2.005215E+05 -5.683567E-10 -3.788254E-09
       325  19  4.359204E+05  3.067662E+05  2.862499E+05  1.777830E+05 -4.564011E+04  1.837410E+04
       325  20  2.027232E+05  2.806566E+05  2.181574E+05  1.645999E+05 -6.418797E+03  5.781132E+04
       325  21 -3.107282E+04  2.310280E+05  1.697475E+05  2.108390E+05  3.280127E+04  6.032763E+04
       325  22 -9.986110E+05 -4.846192E+04 -5.521714E+04  2.057221E+05  3.767699E+04  1.843815E+04
       325  23 -9.935578E+05 -7.664295E+03 -2.682622E+04  1.759825E+05  2.370734E+04  5.784978E+04
       325  24 -9.984102E+05  3.517419E+02 -1.570684E+04  2.056760E+05  9.751853E+03  6.030596E+04
       325  25 -2.431236E+06 -4.038318E+05 -3.968019E+05  2.335957E+05  1.208025E+05  1.850979E+04
       325  26 -2.188476E+06 -2.960741E+05 -2.718824E+05  1.873422E+05  5.377645E+04  5.788939E+04
       325  27 -1.964845E+06 -2.303795E+05 -2.012020E+05  2.005209E+05 -1.326250E+04  6.028466E+04
       326   1 -1.887699E+05  1.910478E+05  1.416407E+05  2.062275E+05 -2.413080E+04 -5.086557E+04
       326   2 -4.222444E+05  1.366711E+05  9.893159E+04  1.755961E+05 -2.335686E+04 -3.813236E+04
       326   3 -6.560923E+05  8.148825E+04  5.548284E+04  2.067466E+05 -2.259292E+04 -2.287860E+04
       326   4 -9.963897E+05 -1.453694E+03 -1.274020E+04  2.062058E+05 -7.608963E+03 -5.084831E+04
       326   5 -9.958186E+05  3.090599E+02 -8.858976E+03  1.753115E+05 -3.214136E+03 -3.810558E+04
       326   6 -9.963011E+05  6.390969E+02 -8.235181E+03  2.062029E+05  1.171025E+03 -2.284104E+04
       326   7 -1.803380E+06 -1.939935E+05 -1.671497E+05  2.061838E+05  8.891882E+03 -5.083104E+04
       326   8 -1.569074E+06 -1.360718E+05 -1.166623E+05  1.750271E+05  1.691043E+04 -3.807880E+04
       326   9 -1.336397E+06 -8.021646E+04 -7.195607E+04  2.056594E+05  2.492226E+04 -2.280350E+04
       326  10 -1.887712E+05  1.910449E+05  1.416347E+05  2.062265E+05 -4.646703E-09 -2.563049E-09
       326  11 -4.222454E+05  1.366694E+05  9.892783E+04  1.755954E+05 -1.522709E-09  1.408603E-09
       326  12 -6.560930E+05  8.148756E+04  5.548089E+04  2.067461E+05 -4.611888E-10  2.073105E-09
       326  13 -9.963905E+05 -1.456485E+03 -1.274517E+04  2.062055E+05  9.867322E-12 -1.901785E-09
       326  14 -9.958190E+05  3.074987E+02 -8.861722E+03  1.753114E+05 -7.379954E-10  5.538301E-10
       326  15 -9.963013E+05  6.385366E+02 -8.236164E+03  2.062029E+05  1.947401E-09 -1.270632E-09
       326  16 -1.803381E+06 -1.939963E+05 -1.671547E+05  2.061842E+05  3.688922E-09 -4.666576E-10
       326  17 -1.569074E+06 -1.360735E+05 -1.166656E+05  1.750276E+05  1.036509E-09  1.461143E-09
       326  18 -1.336397E+06 -8.021719E+04 -7.195822E+04  2.056599E+05 -6.748737E-11  3.161520E-10
       326  19 -1.887699E+05  1.910478E+05  1.416407E+05  2.062275E+05  2.413080E+04  5.086557E+04
       326  20 -4.222444E+05  1.366711E+05  9.893159E+04  1.755961E+05  2.335686E+04  3.813236E+04
       326  21 -6.560923E+05  8.148825E+04  5.548284E+04  2.067466E+05  2.259292E+04  2.287860E+04
       326  22 -9.963897E+05 -1.453694E+03 -1.274020E+04  2.062058E+05  7.608963E+03  5.084831E+04
       326  23 -9.958186E+05  3.090599E+02 -8.858976E+03  1.753115E+05  3.214136E+03  3.810558E+04
       326  24 -9.963011E+05  6.390969E+02 -8.235181E+03  2.062029E+05 -1.171025E+03  2.284104E+04
       326  25 -1.803380E+06 -1.939935E+05 -1.671497E+05  2.061838E+05 -8.891882E+03  5.083104E+04
       326  26 -1.569074E+06 -1.360718E+05 -1.166623E+05  1.750271E+05 -1.691043E+04  3.807880E+04
       326  27 -1.336397E+06 -8.021646E+04 -7.195607E+04  2.056594E+05 -2.492226E+04  2.280350E+04
       327   1 -8.147059E+05  4.374207E+04  2.431906E+04  2.058864E+05 -2.094556E+04 -1.312339E+04
       327   2 -1.047469E+06 -1.222519E+04 -2.298175E+04  1.755351E+05 -1.257695E+04  2.530778E+03
       327   3 -1.282182E+06 -7.106898E+04 -7.651324E+04  2.070677E+05 -4.209056E+03  1.664505E+04
       327   4 -9.964098E+05  7.256510E+02 -8.883344E+03  2.062242E+05  2.659463E+03 -1.308461E+04
       327   5 -9.956073E+05  2.757111E+02 -1.239336E+04  1.752850E+05  8.809760E+03  2.565454E+03
       327   6 -9.964215E+05 -2.662054E+03 -2.059089E+04  2.062296E+05  1.496236E+04  1.667579E+04
       327   7 -1.178080E+06 -4.229234E+04 -4.208499E+04  2.065619E+05  2.625775E+04 -1.304579E+04
       327   8 -9.437421E+05  1.277669E+04 -1.803382E+03  1.750350E+05  3.019823E+04  2.600110E+03
       327   9 -7.105814E+05  6.574015E+04  3.532892E+04  2.053911E+05  3.414243E+04  1.670647E+04
       327  10 -8.147064E+05  4.374177E+04  2.431791E+04  2.058862E+05 -3.431400E-09  2.816859E-09
       327  11 -1.047469E+06 -1.222524E+04 -2.298206E+04  1.755351E+05 -9.672276E-11  1.533757E-09
       327  12 -1.282182E+06 -7.106928E+04 -7.651380E+04  2.070678E+05  1.912865E-09 -7.649469E-10
       327  13 -9.964098E+05  7.254653E+02 -8.883679E+03  2.062242E+05  1.273034E-09 -1.587388E-09
       327  14 -9.956073E+05  2.756832E+02 -1.239351E+04  1.752850E+05 -2.957790E-10  1.566194E-09
       327  15 -9.964218E+05 -2.662412E+03 -2.059183E+04  2.062294E+05  7.455998E-10  2.558360E-09
       327  16 -1.178081E+06 -4.229271E+04 -4.208661E+04  2.065622E+05  2.472949E-09  7.755601E-10
       327  17 -9.437431E+05  1.277644E+04 -1.805111E+03  1.750349E+05 -6.653948E-10  2.786694E-09
       327  18 -7.105827E+05  6.573953E+04  3.532621E+04  2.053907E+05 -2.497054E-09  1.299264E-09
       327  19 -8.147059E+05  4.374207E+04  2.431906E+04  2.058864E+05  2.094556E+04  1.312339E+04
       327  20 -1.047469E+06 -1.222519E+04 -2.298175E+04  1.755351E+05  1.257695E+04 -2.530778E+03
       327  21 -1.282182E+06 -7.106898E+04 -7.651324E+04  2.070677E+05  4.209056E+03 -1.664505E+04
       327  22 -9.964098E+05  7.256510E+02 -8.883344E+03  2.062242E+05 -2.659463E+03  1.308461E+04
       327  23 -9.956073E+05  2.757111E+02 -1.239336E+04  1.752850E+05 -8.809760E+03 -2.565454E+03
       327  24 -9.964215E+05 -2.662054E+03 -2.059089E+04  2.062296E+05 -1.496236E+04 -1.667579E+04
       327  25 -1.178080E+06 -4.229234E+04 -4.208499E+04  2.065619E+05 -2.625775E+04  1.304579E+04
       327  26 -9.437421E+05  1.277669E+04 -1.803382E+03  1.750350E+05 -3.019823E+04 -2.600110E+03
       327  27 -7.105814E+05  6.574015E+04  3.532892E+04  2.053911E+05 -3.414243E+04 -1.670647E+04
       328   1 -1.444982E+06 -1.058932E+05 -1.130842E+05  1.976973E+05 -4.973260E+03  2.622521E+04
       328   2 -1.666840E+06 -1.765726E+05 -1.870072E+05  1.963690E+05  5.392555E+04  3.049498E+04
       328   3 -1.912416E+06 -3.111330E+05 -3.153435E+05  2.554578E+05  1.128233E+05  1.053539E+04
       328   4 -1.000011E+06  6.166831E+02 -2.627199E+04  2.058867E+05  1.845785E+04  2.626086E+04
       328   5 -9.912389E+05 -1.318940E+04 -4.637467E+04  1.757308E+05  4.255407E+04  3.047438E+04
       328   6 -1.000154E+06 -8.478446E+04 -9.665750E+04  2.060002E+05  6.667353E+04  1.046508E+04
       328   7 -5.548490E+05  1.071152E+05  6.053288E+04  2.140820E+05  4.190540E+04  2.629711E+04
       328   8 -3.152033E+05  1.501664E+05  9.423353E+04  1.550696E+05  3.117038E+04  3.045456E+04
       328   9 -8.711745E+04  1.415141E+05  1.219789E+05  1.564690E+05  2.045599E+04  1.040221E+04
       328  10 -1.444982E+06 -1.058939E+05 -1.130855E+05  1.976974E+05  6.781547E-11 -8.438525E-10
       328  11 -1.666843E+06 -1.765744E+05 -1.870144E+05  1.963677E+05 -3.721326E-11  2.555813E-09
       328  12 -1.912429E+06 -3.111365E+05 -3.153676E+05  2.554569E+05  1.824135E-10  8.133265E-10
       328  13 -1.000012E+06  6.158515E+02 -2.627393E+04  2.058863E+05  2.851970E-10  3.751667E-10
       328  14 -9.912411E+05 -1.319089E+04 -4.637982E+04  1.757298E+05 -1.164701E-09  2.982393E-09
       328  15 -1.000159E+06 -8.478577E+04 -9.666608E+04  2.059996E+05  1.459926E-09 -4.189964E-11
       328  16 -5.548511E+05  1.071140E+05  6.052828E+04  2.140811E+05 -4.523870E-10  1.098124E-09
       328  17 -3.152046E+05  1.501651E+05  9.422996E+04  1.550688E+05 -1.407192E-09  1.202987E-09
       328  18 -8.711793E+04  1.415138E+05  1.219779E+05  1.564688E+05 -7.660315E-10 -5.179348E-10
       328  19 -1.444982E+06 -1.058932E+05 -1.130842E+05  1.976973E+05  4.973260E+03 -2.622521E+04
       328  20 -1.666840E+06 -1.765726E+05 -1.870072E+05  1.963690E+05 -5.392555E+04 -3.049498E+04
       328  21 -1.912416E+06 -3.111330E+05 -3.153435E+05  2.554578E+05 -1.128233E+05 -1.053539E+04
       328  22 -1.000011E+06  6.166831E+02 -2.627199E+04  2.058867E+05 -1.845785E+04 -2.626086E+04
       328  23 -9.912389E+05 -1.318940E+04 -4.637467E+04  1.757308E+05 -4.255407E+04 -3.047438E+04
       328  24 -1.000154E+06 -8.478446E+04 -9.665750E+04  2.060002E+05 -6.667353E+04 -1.046508E+04
       328  25 -5.548490E+05  1.071152E+05  6.053288E+04  2.140820E+05 -4.190540E+04 -2.629711E+04
       328  26 -3.152033E+05  1.501664E+05  9.423353E+04  1.550696E+05 -3.117038E+04 -3.045456E+04
       328  27 -8.711745E+04  1.415141E+05  1.219789E+05  1.564690E+05 -2.045599E+04 -1.040221E+04
       329   1  4.699753E+05  2.542560E+05  2.423170E+05  1.780600E+05  5.056375E+04 -1.316830E+04
       329   2  2.587926E+05  2.060455E+05  1.703248E+05  1.552287E+05  1.393905E+04 -4.066877E+04
       329   3  5.214417E+04  1.569030E+05  1.219401E+05  1.859204E+05 -2.270030E+04 -4.027147E+04
       329   4 -6.035379E+05 -1.162853E+04 -1.366435E+04  1.841452E+05 -9.076151E+03 -1.324534E+04
       329   5 -6.022380E+05 -1.607783E+03 -6.820530E+03  1.573729E+05 -5.499034E+03 -4.070105E+04
       329   6 -6.034200E+05  5.036995E+02 -4.280503E+03  1.841286E+05 -1.948695E+03 -4.024088E+04
       329   7 -1.675986E+06 -2.775943E+05 -2.697133E+05  1.902193E+05 -6.861344E+04 -1.332364E+04
       329   8 -1.462564E+06 -2.093076E+05 -1.840042E+05  1.595137E+05 -2.491064E+04 -4.073349E+04
       329   9 -1.258570E+06 -1.559209E+05 -1.305194E+05  1.823385E+05  1.878150E+04 -4.021039E+04
       329  10  4.699725E+05  2.542552E+05  2.423119E+05  1.780605E+05 -2.081937E-08 -1.560125E-09
       329  11  2.587919E+05  2.060437E+05  1.703213E+05  1.552291E+05  1.523953E-09 -2.408851E-09
       329  12  5.214318E+04  1.569011E+05  1.219361E+05  1.859197E+05  2.216254E-08 -1.726920E-09
       329  13 -6.035380E+05 -1.162874E+04 -1.366484E+04  1.841451E+05 -4.736101E-10  1.549354E-09
       329  14 -6.022384E+05 -1.609569E+03 -6.823699E+03  1.573727E+05 -4.452014E-10 -1.583358E-09
       329  15 -6.034204E+05  5.019602E+02 -4.283552E+03  1.841285E+05  1.901047E-09 -2.893741E-09
       329  16 -1.675991E+06 -2.775958E+05 -2.697225E+05  1.902186E+05  1.924103E-08 -2.723075E-10
       329  17 -1.462565E+06 -2.093096E+05 -1.840085E+05  1.595129E+05 -1.945101E-09 -3.249455E-09
       329  18 -1.258570E+06 -1.559227E+05 -1.305231E+05  1.823391E+05 -2.283236E-08 -2.653235E-09
       329  19  4.699753E+05  2.542560E+05  2.423170E+05  1.780600E+05 -5.056375E+04  1.316830E+04
       329  20  2.587926E+05  2.060455E+05  1.703248E+05  1.552287E+05 -1.393905E+04  4.066877E+04
       329  21  5.214417E+04  1.569030E+05  1.219401E+05  1.859204E+05  2.270030E+04  4.027147E+04
       329  22 -6.035379E+05 -1.162853E+04 -1.366435E+04  1.841452E+05  9.076151E+03  1.324534E+04
       329  23 -6.022380E+05 -1.607783E+03 -6.820530E+03  1.573729E+05  5.499034E+03  4.070105E+04
       329  24 -6.034200E+05  5.036995E+02 -4.280503E+03  1.841286E+05  1.948695E+03  4.024088E+04
       329  25 -1.675986E+06 -2.775943E+05 -2.697133E+05  1.902193E+05  6.861344E+04  1.332364E+04
       329  26 -1.462564E+06 -2.093076E+05 -1.840042E+05  1.595137E+05  2.491064E+04  4.073349E+04
       329  27 -1.258570E+06 -1.559209E+05 -1.305194E+05  1.823385E+05 -1.878150E+04  4.021039E+04
       330   1 -8.995828E+04  1.224303E+05  9.483327E+04  1.849019E+05 -1.716966E+04 -3.176904E+04
       330   2 -2.988234E+05  7.278208E+04  5.422421E+04  1.571278E+05 -1.827030E+04 -1.985158E+04
       330   3 -5.076374E+05  2.332565E+04  1.432999E+04  1.845873E+05 -1.937650E+04 -6.075352E+03
       330   4 -6.029372E+05  8.887882E+01 -3.704096E+03  1.845107E+05 -1.345904E+03 -3.174409E+04
       330   5 -6.026888E+05  4.939024E+02 -3.200020E+03  1.568926E+05  2.260065E+02 -1.981989E+04
       330   6 -6.028961E+05  6.284824E+02 -3.838107E+03  1.845099E+05  1.792012E+03 -6.036379E+03
       330   7 -1.115662E+06 -1.222680E+05 -1.022526E+05  1.841197E+05  1.446508E+04 -3.171914E+04
       330   8 -9.064642E+05 -7.179948E+04 -6.062704E+04  1.566575E+05  1.871348E+04 -1.978820E+04
       330   9 -6.981451E+05 -2.206898E+04 -2.200493E+04  1.844324E+05  2.295735E+04 -5.997407E+03
       330  10 -8.995887E+04  1.224291E+05  9.483082E+04  1.849014E+05 -2.061972E-09  1.213719E-09
       330  11 -2.988238E+05  7.278157E+04  5.422284E+04  1.571275E+05 -3.067854E-10  8.283370E-10
       330  12 -5.076378E+05  2.332551E+04  1.432921E+04  1.845872E+05 -1.085600E-09  2.858566E-09
       330  13 -6.029375E+05  8.779658E+01 -3.705993E+03  1.845106E+05  2.773399E-10 -1.057456E-10
       330  14 -6.026889E+05  4.934807E+02 -3.200758E+03  1.568927E+05 -9.262314E-10  1.815546E-09
       330  15 -6.028961E+05  6.284424E+02 -3.838182E+03  1.845099E+05  1.008318E-09  2.407543E-09
       330  16 -1.115663E+06 -1.222691E+05 -1.022549E+05  1.841200E+05  9.187561E-10  1.234047E-09
       330  17 -9.064647E+05 -7.180000E+04 -6.062843E+04  1.566578E+05  1.214268E-10 -2.873714E-09
       330  18 -6.981456E+05 -2.206916E+04 -2.200599E+04  1.844325E+05  4.496913E-10 -2.813436E-10
       330  19 -8.995828E+04  1.224303E+05  9.483327E+04  1.849019E+05  1.716966E+04  3.176904E+04
       330  20 -2.988234E+05  7.278208E+04  5.422421E+04  1.571278E+05  1.827030E+04  1.985158E+04
       330  21 -5.076374E+05  2.332565E+04  1.432999E+04  1.845873E+05  1.937650E+04  6.075352E+03
       330  22 -6.029372E+05  8.887882E+01 -3.704096E+03  1.845107E+05  1.345904E+03  3.174409E+04
       330  23 -6.026888E+05  4.939024E+02 -3.200020E+03  1.568926E+05 -2.260065E+02  1.981989E+04
       330  24 -6.028961E+05  6.284824E+02 -3.838107E+03  1.845099E+05 -1.792012E+03  6.036379E+03
       330  25 -1.115662E+06 -1.222680E+05 -1.022526E+05  1.841197E+05 -1.446508E+04  3.171914E+04
       330  26 -9.064642E+05 -7.179948E+04 -6.062704E+04  1.566575E+05 -1.871348E+04  1.978820E+04
       330  27 -6.981451E+05 -2.206898E+04 -2.200493E+04  1.844324E+05 -2.295735E+04  5.997407E+03
       331   1 -6.493403E+05 -1.038153E+04 -1.365963E+04  1.840505E+05 -1.863646E+04  2.637534E+03
       331   2 -8.574031E+05 -6.034648E+04 -5.556790E+04  1.567294E+05 -1.249986E+04  1.646668E+04
       331   3 -1.066892E+06 -1.122366E+05 -1.020112E+05  1.846544E+05 -6.360107E+03  2.852836E+04
       331   4 -6.030219E+05  7.071860E+02 -4.576979E+03  1.845115E+05  2.515197E+03  2.676592E+03
       331   5 -6.025258E+05  3.344769E+02 -7.253436E+03  1.568910E+05  6.107461E+03  1.649907E+04
       331   6 -6.030581E+05 -1.519301E+03 -1.269613E+04  1.845154E+05  9.704905E+03  2.855454E+04
       331   7 -5.567006E+05  1.179601E+04  4.507248E+03  1.849725E+05  2.366840E+04  2.715679E+03
       331   8 -3.475850E+05  6.101182E+04  4.105943E+04  1.570527E+05  2.472224E+04  1.653146E+04
       331   9 -1.390161E+05  1.091854E+05  7.660996E+04  1.843761E+05  2.578166E+04  2.858070E+04
       331  10 -6.493406E+05 -1.038163E+04 -1.366029E+04  1.840505E+05 -2.395789E-09  4.820638E-09
       331  11 -8.574033E+05 -6.034681E+04 -5.556870E+04  1.567295E+05  1.292532E-09  1.731909E-09
       331  12 -1.066892E+06 -1.122375E+05 -1.020128E+05  1.846546E+05  1.986459E-09  3.909398E-09
       331  13 -6.030219E+05  7.071766E+02 -4.577005E+03  1.845115E+05  2.829808E-10  3.346606E-09
       331  14 -6.025259E+05  3.341747E+02 -7.254018E+03  1.568909E+05 -5.300264E-10  1.579416E-09
       331  15 -6.030584E+05 -1.520201E+03 -1.269784E+04  1.845152E+05  1.810126E-09 -1.296078E-11
       331  16 -5.567012E+05  1.179585E+04  4.506181E+03  1.849724E+05  2.484926E-09  1.184228E-09
       331  17 -3.475857E+05  6.101136E+04  4.105777E+04  1.570523E+05 -1.662245E-09 -1.876755E-10
       331  18 -1.390171E+05  1.091843E+05  7.660718E+04  1.843755E+05 -2.548968E-09 -4.534841E-09
       331  19 -6.493403E+05 -1.038153E+04 -1.365963E+04  1.840505E+05  1.863646E+04 -2.637534E+03
       331  20 -8.574031E+05 -6.034648E+04 -5.556790E+04  1.567294E+05  1.249986E+04 -1.646668E+04
       331  21 -1.066892E+06 -1.122366E+05 -1.020112E+05  1.846544E+05  6.360107E+03 -2.852836E+04
       331  22 -6.030219E+05  7.071860E+02 -4.576979E+03  1.845115E+05 -2.515197E+03 -2.676592E+03
       331  23 -6.025258E+05  3.344769E+02 -7.253436E+03  1.568910E+05 -6.107461E+03 -1.649907E+04
       331  24 -6.030581E+05 -1.519301E+03 -1.269613E+04  1.845154E+05 -9.704905E+03 -2.855454E+04
       331  25 -5.567006E+05  1.179601E+04  4.507248E+03  1.849725E+05 -2.366840E+04 -2.715679E+03
       331  26 -3.475850E+05  6.101182E+04  4.105943E+04  1.570527E+05 -2.472224E+04 -1.653146E+04
       331  27 -1.390161E+05  1.091854E+05  7.660996E+04  1.843761E+05 -2.578166E+04 -2.858070E+04
       332   1 -1.211557E+06 -1.442563E+05 -1.333604E+05  1.785445E+05 -8.915487E+03  3.703386E+04
       332   2 -1.411436E+06 -2.042105E+05 -1.966096E+05  1.699706E+05  4.470086E+04  3.819538E+04
       332   3 -1.629129E+06 -3.073008E+05 -3.056177E+05  2.150154E+05  9.832560E+04  1.261771E+04
       332   4 -6.053351E+05  5.331096E+02 -1.637341E+04  1.841418E+05  1.185959E+04  3.706554E+04
       332   5 -5.998236E+05 -8.265777E+03 -2.922213E+04  1.573694E+05  2.705595E+04  3.816443E+04
       332   6 -6.054590E+05 -5.348827E+04 -6.109398E+04  1.842181E+05  4.227973E+04  1.253691E+04
       332   7  1.242062E+03  1.453009E+05  1.005981E+05  1.897445E+05  3.265452E+04  3.709757E+04
       332   8  2.124165E+05  1.876380E+05  1.381311E+05  1.447512E+05  9.388320E+03  3.813423E+04
       332   9  4.191825E+05  2.002537E+05  1.833683E+05  1.533693E+05 -1.385838E+04  1.246176E+04
       332  10 -1.211558E+06 -1.442578E+05 -1.333631E+05  1.785448E+05 -3.165766E-09  2.963342E-09
       332  11 -1.411439E+06 -2.042126E+05 -1.966161E+05  1.699693E+05 -1.442957E-10 -4.782041E-10
       332  12 -1.629139E+06 -3.073036E+05 -3.056362E+05  2.150144E+05  5.216309E-10 -1.683407E-10
       332  13 -6.053356E+05  5.315971E+02 -1.637626E+04  1.841414E+05  9.241763E-11  3.299854E-09
       332  14 -5.998247E+05 -8.267537E+03 -2.922624E+04  1.573686E+05  3.283918E-10 -1.951507E-09
       332  15 -6.054610E+05 -5.348892E+04 -6.109763E+04  1.842177E+05  9.722838E-10  1.660804E-09
       332  16  1.240549E+03  1.452992E+05  1.005935E+05  1.897435E+05  2.139500E-09  3.464807E-10
       332  17  2.124160E+05  1.876365E+05  1.381282E+05  1.447509E+05 -5.648292E-10  1.144332E-09
       332  18  4.191823E+05  2.002535E+05  1.833676E+05  1.533695E+05 -1.465772E-09  6.602017E-10
       332  19 -1.211557E+06 -1.442563E+05 -1.333604E+05  1.785445E+05  8.915487E+03 -3.703386E+04
       332  20 -1.411436E+06 -2.042105E+05 -1.966096E+05  1.699706E+05 -4.470086E+04 -3.819538E+04
       332  21 -1.629129E+06 -3.073008E+05 -3.056177E+05  2.150154E+05 -9.832560E+04 -1.261771E+04
       332  22 -6.053351E+05  5.331096E+02 -1.637341E+04  1.841418E+05 -1.185959E+04 -3.706554E+04
       332  23 -5.998236E+05 -8.265777E+03 -2.922213E+04  1.573694E+05 -2.705595E+04 -3.816443E+04
       332  24 -6.054590E+05 -5.348827E+04 -6.109398E+04  1.842181E+05 -4.227973E+04 -1.253691E+04
       332  25  1.242062E+03  1.453009E+05  1.005981E+05  1.897445E+05 -3.265452E+04 -3.709757E+04
       332  26  2.124165E+05  1.876380E+05  1.381311E+05  1.447512E+05 -9.388320E+03 -3.813423E+04
       332  27  4.191825E+05  2.002537E+05  1.833683E+05  1.533693E+05  1.385838E+04 -1.246176E+04
       333   1  3.144719E+05  1.537298E+05  1.490203E+05  1.251484E+05  3.635817E+04 -6.947811E+03
       333   2  1.749196E+05  1.111668E+05  9.743993E+04  1.053014E+05  1.221192E+04 -2.091569E+04
       333   3  4.051962E+04  7.682157E+04  6.362384E+04  1.207213E+05 -1.194442E+04 -1.926177E+04
       333   4 -2.799986E+05  6.419256E+03  6.960723E+03  1.209817E+05  5.025719E+03 -6.985985E+03
       333   5 -2.805944E+05  1.203059E+03  3.178944E+03  1.033515E+05  3.387681E+03 -2.092821E+04
       333   6 -2.799597E+05  3.018931E+02  1.536612E+03  1.209893E+05  1.733995E+03 -1.924357E+04
       333   7 -8.741430E+05 -1.409163E+05 -1.351201E+05  1.168189E+05 -2.627688E+04 -7.023760E+03
       333   8 -7.359116E+05 -1.087738E+05 -9.109301E+04  1.014031E+05 -5.430200E+03 -2.094067E+04
       333   9 -6.003399E+05 -7.622381E+04 -6.055473E+04  1.212572E+05  1.540551E+04 -1.922536E+04
       333  10  3.144705E+05  1.537294E+05  1.490177E+05  1.251486E+05 -8.365171E-09  8.395518E-10
       333  11  1.749193E+05  1.111663E+05  9.743883E+04  1.053016E+05  7.933043E-09  4.527806E-09
       333  12  4.051937E+04  7.682113E+04  6.362287E+04  1.207211E+05  2.097085E-08  3.081278E-09
       333  13 -2.799986E+05  6.419197E+03  6.960584E+03  1.209818E+05  7.493747E-10 -1.542355E-09
       333  14 -2.805945E+05  1.202585E+03  3.178100E+03  1.033516E+05  5.672818E-11 -3.044646E-09
       333  15 -2.799598E+05  3.014946E+02  1.535910E+03  1.209894E+05  1.627502E-09  2.048477E-09
       333  16 -8.741437E+05 -1.409165E+05 -1.351214E+05  1.168188E+05  7.542177E-09  2.258894E-10
       333  17 -7.359117E+05 -1.087743E+05 -9.109389E+04  1.014030E+05 -9.206347E-09  2.323348E-09
       333  18 -6.003403E+05 -7.622427E+04 -6.055587E+04  1.212574E+05 -2.140179E-08  4.717918E-10
       333  19  3.144719E+05  1.537298E+05  1.490203E+05  1.251484E+05 -3.635817E+04  6.947811E+03
       333  20  1.749196E+05  1.111668E+05  9.743993E+04  1.053014E+05 -1.221192E+04  2.091569E+04
       333  21  4.051962E+04  7.682157E+04  6.362384E+04  1.207213E+05  1.194442E+04  1.926177E+04
       333  22 -2.799986E+05  6.419256E+03  6.960723E+03  1.209817E+05 -5.025719E+03  6.985985E+03
       333  23 -2.805944E+05  1.203059E+03  3.178944E+03  1.033515E+05 -3.387681E+03  2.092821E+04
       333  24 -2.799597E+05  3.018931E+02  1.536612E+03  1.209893E+05 -1.733995E+03  1.924357E+04
       333  25 -8.741430E+05 -1.409163E+05 -1.351201E+05  1.168189E+05  2.627688E+04  7.023760E+03
       333  26 -7.359116E+05 -1.087738E+05 -9.109301E+04  1.014031E+05  5.430200E+03  2.094067E+04
       333  27 -6.003399E+05 -7.622381E+04 -6.055473E+04  1.212572E+05 -1.540551E+04  1.922536E+04
       334   1 -5.309759E+04  5.479334E+04  4.497935E+04  1.214711E+05 -9.374498E+03 -1.366797E+04
       334   2 -1.900829E+05  2.180890E+04  1.730761E+04  1.031466E+05 -1.083847E+04 -5.576627E+03
       334   3 -3.268426E+05 -1.068141E+04 -9.316513E+03  1.210300E+05 -1.230393E+04  3.528237E+03
       334   4 -2.802336E+05  5.589002E+02  9.861481E+02  1.211969E+05  1.548868E+03 -1.365281E+04
       334   5 -2.802058E+05  3.149668E+02 -1.565900E+01  1.030930E+05  1.542997E+03 -5.558993E+03
       334   6 -2.802258E+05  3.124162E+02 -9.830180E+02  1.211973E+05  1.535305E+03  3.548465E+03
       334   7 -5.073197E+05 -5.367856E+04 -4.300902E+04  1.209229E+05  1.246833E+04 -1.363766E+04
       334   8 -3.703206E+05 -2.117937E+04 -1.733872E+04  1.030395E+05  1.392270E+04 -5.541359E+03
       334   9 -2.336064E+05  1.130622E+04  7.351115E+03  1.213647E+05  1.537555E+04  3.568700E+03
       334  10 -5.309773E+04  5.479312E+04  4.497883E+04  1.214710E+05 -2.152384E-08  1.273414E-09
       334  11 -1.900831E+05  2.180884E+04  1.730733E+04  1.031465E+05 -7.641263E-09  2.000703E-09
       334  12 -3.268427E+05 -1.068146E+04 -9.316822E+03  1.210300E+05  6.404521E-09  2.804213E-09
       334  13 -2.802336E+05  5.586994E+02  9.857933E+02  1.211970E+05  9.074993E-11  6.286614E-09
       334  14 -2.802058E+05  3.149330E+02 -1.572155E+01  1.030930E+05  4.812783E-10 -6.954448E-09
       334  15 -2.802258E+05  3.124020E+02 -9.830461E+02  1.211973E+05  6.965874E-10  2.008296E-09
       334  16 -5.073199E+05 -5.367880E+04 -4.300966E+04  1.209230E+05  2.131559E-08 -4.922358E-10
       334  17 -3.703208E+05 -2.117945E+04 -1.733915E+04  1.030396E+05  7.705922E-09 -1.441654E-09
       334  18 -2.336067E+05  1.130614E+04  7.350647E+03  1.213647E+05 -7.223229E-09  1.424853E-09
       334  19 -5.309759E+04  5.479334E+04  4.497935E+04  1.214711E+05  9.374498E+03  1.366797E+04
       334  20 -1.900829E+05  2.180890E+04  1.730761E+04  1.031466E+05  1.083847E+04  5.576627E+03
       334  21 -3.268426E+05 -1.068141E+04 -9.316513E+03  1.210300E+05  1.230393E+04 -3.528237E+03
       334  22 -2.802336E+05  5.589002E+02  9.861481E+02  1.211969E+05 -1.548868E+03  1.365281E+04
       334  23 -2.802058E+05  3.149668E+02 -1.565900E+01  1.030930E+05 -1.542997E+03  5.558993E+03
       334  24 -2.802258E+05  3.124162E+02 -9.830180E+02  1.211973E+05 -1.535305E+03 -3.548465E+03
       334  25 -5.073197E+05 -5.367856E+04 -4.300902E+04  1.209229E+05 -1.246833E+04  1.363766E+04
       334  26 -3.703206E+05 -2.117937E+04 -1.733872E+04  1.030395E+05 -1.392270E+04  5.541359E+03
       334  27 -2.336064E+05  1.130622E+04  7.351115E+03  1.213647E+05 -1.537555E+04 -3.568700E+03
       335   1 -4.197086E+05 -3.275872E+04 -2.773529E+04  1.208196E+05 -1.214585E+04  9.236212E+03
       335   2 -5.561391E+05 -6.546448E+04 -5.508903E+04  1.028797E+05 -8.633688E+03  1.821550E+04
       335   3 -6.933637E+05 -9.920257E+04 -8.501671E+04  1.211247E+05 -5.118690E+03  2.583282E+04
       335   4 -2.803229E+05  3.676739E+02 -1.550336E+03  1.211916E+05  1.749512E+03  9.256208E+03
       335   5 -2.801007E+05  1.611745E+02 -3.134134E+03  1.031004E+05  3.301325E+03  1.823127E+04
       335   6 -2.803478E+05 -7.353542E+02 -5.928600E+03  1.211931E+05  4.856693E+03  2.584470E+04
       335   7 -1.409179E+05  3.349304E+04  2.463450E+04  1.215637E+05  1.564791E+04  9.276218E+03
       335   8 -3.988344E+03  6.578247E+04  4.881797E+04  1.033212E+05  1.524152E+04  1.824704E+04
       335   9  1.328328E+05  9.772184E+04  7.315210E+04  1.212615E+05  1.483856E+04  2.585658E+04
       335  10 -4.197088E+05 -3.275885E+04 -2.773573E+04  1.208197E+05  6.381233E-10 -4.055313E-09
       335  11 -5.561392E+05 -6.546485E+04 -5.508980E+04  1.028799E+05 -3.612004E-10 -3.829984E-09
       335  12 -6.933639E+05 -9.920330E+04 -8.501801E+04  1.211248E+05 -2.299383E-09 -1.454009E-09
       335  13 -2.803229E+05  3.675811E+02 -1.550503E+03  1.211916E+05  2.658740E-10 -1.332642E-09
       335  14 -2.801008E+05  1.608147E+02 -3.134779E+03  1.031004E+05  4.058245E-10 -3.095723E-09
       335  15 -2.803480E+05 -7.360777E+02 -5.929899E+03  1.211930E+05  1.316294E-09 -2.364557E-09
       335  16 -1.409182E+05  3.349289E+04  2.463388E+04  1.215635E+05 -1.518843E-09 -2.194748E-09
       335  17 -3.988682E+03  6.578205E+04  4.881691E+04  1.033209E+05 -6.466055E-10  4.942569E-10
       335  18  1.328324E+05  9.772106E+04  7.315043E+04  1.212612E+05  2.355853E-09  2.057058E-09
       335  19 -4.197086E+05 -3.275872E+04 -2.773529E+04  1.208196E+05  1.214585E+04 -9.236212E+03
       335  20 -5.561391E+05 -6.546448E+04 -5.508903E+04  1.028797E+05  8.633688E+03 -1.821550E+04
       335  21 -6.933637E+05 -9.920257E+04 -8.501671E+04  1.211247E+05  5.118690E+03 -2.583282E+04
       335  22 -2.803229E+05  3.676739E+02 -1.550336E+03  1.211916E+05 -1.749512E+03 -9.256208E+03
       335  23 -2.801007E+05  1.611745E+02 -3.134134E+03  1.031004E+05 -3.301325E+03 -1.823127E+04
       335  24 -2.803478E+05 -7.353542E+02 -5.928600E+03  1.211931E+05 -4.856693E+03 -2.584470E+04
       335  25 -1.409179E+05  3.349304E+04  2.463450E+04  1.215637E+05 -1.564791E+04 -9.276218E+03
       335  26 -3.988344E+03  6.578247E+04  4.881797E+04  1.033212E+05 -1.524152E+04 -1.824704E+04
       335  27  1.328328E+05  9.772184E+04  7.315210E+04  1.212615E+05 -1.483856E+04 -2.585658E+04
       336   1 -7.879062E+05 -1.205611E+05 -1.050260E+05  1.180883E+05 -7.671820E+03  3.138103E+04
       336   2 -9.196113E+05 -1.585422E+05 -1.455708E+05  1.094184E+05  2.866053E+04  3.074374E+04
       336   3 -1.061719E+06 -2.191555E+05 -2.154540E+05  1.357228E+05  6.500001E+04  9.924315E+03
       336   4 -2.814528E+05  2.536299E+02 -7.760472E+03  1.209196E+05  5.865638E+03  3.139616E+04
       336   5 -2.787988E+05 -4.001864E+03 -1.404992E+04  1.034466E+05  1.317736E+04  3.072351E+04
       336   6 -2.815122E+05 -2.583375E+04 -2.950055E+04  1.209481E+05  2.050498E+04  9.877186E+03
       336   7  2.252481E+05  1.210533E+05  8.949396E+04  1.237531E+05  1.941389E+04  3.141141E+04
       336   8  3.624048E+05  1.505129E+05  1.174500E+05  9.746832E+04 -2.321529E+03  3.070360E+04
       336   9  4.992584E+05  1.674459E+05  1.564178E+05  1.061546E+05 -2.404580E+04  9.832212E+03
       336  10 -7.879066E+05 -1.205622E+05 -1.050280E+05  1.180885E+05  3.062194E-09 -3.308841E-09
       336  11 -9.196124E+05 -1.585434E+05 -1.455741E+05  1.094177E+05  4.671145E-10 -9.259349E-10
       336  12 -1.061723E+06 -2.191567E+05 -2.154622E+05  1.357223E+05 -1.851532E-09 -1.443902E-09
       336  13 -2.814531E+05  2.525624E+02 -7.762388E+03  1.209194E+05  3.882123E-12 -8.545096E-10
       336  14 -2.787992E+05 -4.002924E+03 -1.405202E+04  1.034462E+05 -3.077226E-10 -4.723021E-09
       336  15 -2.815127E+05 -2.583397E+04 -2.950152E+04  1.209480E+05  1.182004E-10 -1.225059E-09
       336  16  2.252474E+05  1.210521E+05  8.949140E+04  1.237527E+05 -2.904059E-09  1.690318E-10
       336  17  3.624045E+05  1.505119E+05  1.174482E+05  9.746838E+04 -1.000569E-09  1.483190E-09
       336  18  4.992577E+05  1.674456E+05  1.564165E+05  1.061548E+05  1.734689E-09  3.040931E-10
       336  19 -7.879062E+05 -1.205611E+05 -1.050260E+05  1.180883E+05  7.671820E+03 -3.138103E+04
       336  20 -9.196113E+05 -1.585422E+05 -1.455708E+05  1.094184E+05 -2.866053E+04 -3.074374E+04
       336  21 -1.061719E+06 -2.191555E+05 -2.154540E+05  1.357228E+05 -6.500001E+04 -9.924315E+03
       336  22 -2.814528E+05  2.536299E+02 -7.760472E+03  1.209196E+05 -5.865638E+03 -3.139616E+04
       336  23 -2.787988E+05 -4.001864E+03 -1.404992E+04  1.034466E+05 -1.317736E+04 -3.072351E+04
       336  24 -2.815122E+05 -2.583375E+04 -2.950055E+04  1.209481E+05 -2.050498E+04 -9.877186E+03
       336  25  2.252481E+05  1.210533E+05  8.949396E+04  1.237531E+05 -1.941389E+04 -3.141141E+04
       336  26  3.624048E+05  1.505129E+05  1.174500E+05  9.746832E+04  2.321529E+03 -3.070360E+04
       336  27  4.992584E+05  1.674459E+05  1.564178E+05  1.061546E+05  2.404580E+04 -9.832212E+03
       337   1  1.332637E+05  6.422562E+04  6.386042E+04  6.416681E+04  1.864312E+04 -2.263895E+03
       337   2  6.635501E+04  3.785600E+04  3.710615E+04  5.199244E+04  7.287136E+03 -6.384237E+03
       337   3  3.116569E+03  2.035448E+04  1.995661E+04  5.668114E+04 -4.071916E+03 -4.733611E+03
       337   4 -8.147477E+04  1.095704E+04  1.231293E+04  5.760471E+04  8.566042E+03 -2.272874E+03
       337   5 -8.258363E+04  1.813467E+03  5.861672E+03  4.917796E+04  5.522743E+03 -6.385960E+03
       337   6 -8.146903E+04  9.625365E+01  3.243989E+03  5.761409E+04  2.475013E+03 -4.727582E+03
       337   7 -2.961708E+05 -4.231469E+04 -3.923743E+04  5.104488E+04 -1.507563E+03 -2.281642E+03
       337   8 -2.315013E+05 -3.423046E+04 -2.538403E+04  4.636417E+04  3.758766E+03 -6.387666E+03
       337   9 -1.660477E+05 -2.016238E+04 -1.346882E+04  5.854690E+04  9.021069E+03 -4.721532E+03
       337  10  1.332634E+05  6.422552E+04  6.385975E+04  6.416685E+04  7.954978E-09  2.368771E-10
       337  11  6.635494E+04  3.785594E+04  3.710597E+04  5.199248E+04 -1.835763E-08 -2.487233E-09
       337  12  3.116545E+03  2.035445E+04  1.995654E+04  5.668112E+04 -4.036117E-08 -3.633064E-09
       337  13 -8.147485E+04  1.095701E+04  1.231278E+04  5.760473E+04 -3.263949E-10  2.864907E-09
       337  14 -8.258367E+04  1.813415E+03  5.861539E+03  4.917799E+04  2.428410E-10 -2.434026E-09
       337  15 -8.146905E+04  9.622801E+01  3.243936E+03  5.761410E+04  8.306207E-10 -2.843780E-09
       337  16 -2.961708E+05 -4.231469E+04 -3.923745E+04  5.104488E+04 -8.437885E-09  1.663915E-09
       337  17 -2.315013E+05 -3.423051E+04 -2.538413E+04  4.636419E+04  1.734370E-08 -3.124141E-09
       337  18 -1.660478E+05 -2.016243E+04 -1.346902E+04  5.854694E+04  3.941667E-08 -3.640216E-09
       337  19  1.332637E+05  6.422562E+04  6.386042E+04  6.416681E+04 -1.864312E+04  2.263895E+03
       337  20  6.635501E+04  3.785600E+04  3.710615E+04  5.199244E+04 -7.287136E+03  6.384237E+03
       337  21  3.116569E+03  2.035448E+04  1.995661E+04  5.668114E+04  4.071916E+03  4.733611E+03
       337  22 -8.147477E+04  1.095704E+04  1.231293E+04  5.760471E+04 -8.566042E+03  2.272874E+03
       337  23 -8.258363E+04  1.813467E+03  5.861672E+03  4.917796E+04 -5.522743E+03  6.385960E+03
       337  24 -8.146903E+04  9.625365E+01  3.243989E+03  5.761409E+04 -2.475013E+03  4.727582E+03
       337  25 -2.961708E+05 -4.231469E+04 -3.923743E+04  5.104488E+04  1.507563E+03  2.281642E+03
       337  26 -2.315013E+05 -3.423046E+04 -2.538403E+04  4.636417E+04 -3.758766E+03  6.387666E+03
       337  27 -1.660477E+05 -2.016238E+04 -1.346882E+04  5.854690E+04 -9.021069E+03  4.721532E+03
       338   1 -4.162337E+04  1.021232E+04  1.062525E+04  5.785218E+04 -3.485907E+03 -2.062624E+03
       338   2 -1.067675E+05 -5.700894E+03 -3.042674E+03  4.908980E+04 -4.654959E+03  1.956201E+03
       338   3 -1.716810E+05 -2.117153E+04 -1.584863E+04  5.753632E+04 -5.824094E+03  6.330075E+03
       338   4 -8.193116E+04  5.204772E+02  2.478198E+03  5.768931E+04  2.046607E+03 -2.057446E+03
       338   5 -8.200111E+04  1.237457E+02  1.311572E+03  4.908509E+04  1.388585E+03  1.961788E+03
       338   6 -8.193226E+04  8.134084E+01  6.523352E+02  5.768972E+04  7.303706E+02  6.336073E+03
       338   7 -1.222373E+05 -9.171449E+03 -5.668821E+03  5.752646E+04  7.578769E+03 -2.052270E+03
       338   8 -5.723405E+04  5.948371E+03  5.665933E+03  4.908039E+04  7.432363E+03  1.967374E+03
       338   9  7.824395E+03  2.133377E+04  1.715313E+04  5.784314E+04  7.285758E+03  6.342073E+03
       338  10 -4.162338E+04  1.021231E+04  1.062522E+04  5.785217E+04  3.791782E-08 -4.180427E-09
       338  11 -1.067675E+05 -5.700904E+03 -3.042722E+03  4.908981E+04  1.834187E-08 -3.720118E-09
       338  12 -1.716810E+05 -2.117158E+04 -1.584877E+04  5.753635E+04 -5.935042E-09 -7.229721E-10
       338  13 -8.193116E+04  5.204715E+02  2.478183E+03  5.768932E+04 -5.506119E-10 -1.528739E-09
       338  14 -8.200111E+04  1.237410E+02  1.311561E+03  4.908509E+04 -3.148226E-10 -2.714672E-10
       338  15 -8.193227E+04  8.129759E+01  6.522587E+02  5.768972E+04  7.967199E-10 -3.573960E-10
       338  16 -1.222374E+05 -9.171469E+03 -5.668936E+03  5.752647E+04 -3.858109E-08 -7.376169E-10
       338  17 -5.723411E+04  5.948352E+03  5.665821E+03  4.908037E+04 -1.851570E-08 -2.461301E-09
       338  18  7.824327E+03  2.133371E+04  1.715296E+04  5.784311E+04  5.845739E-09  8.902743E-10
       338  19 -4.162337E+04  1.021232E+04  1.062525E+04  5.785218E+04  3.485907E+03  2.062624E+03
       338  20 -1.067675E+05 -5.700894E+03 -3.042674E+03  4.908980E+04  4.654959E+03 -1.956201E+03
       338  21 -1.716810E+05 -2.117153E+04 -1.584863E+04  5.753632E+04  5.824094E+03 -6.330075E+03
       338  22 -8.193116E+04  5.204772E+02  2.478198E+03  5.768931E+04 -2.046607E+03  2.057446E+03
       338  23 -8.200111E+04  1.237457E+02  1.311572E+03  4.908509E+04 -1.388585E+03 -1.961788E+03
       338  24 -8.193226E+04  8.134084E+01  6.523352E+02  5.768972E+04 -7.303706E+02 -6.336073E+03
       338  25 -1.222373E+05 -9.171449E+03 -5.668821E+03  5.752646E+04 -7.578769E+03  2.052270E+03
       338  26 -5.723405E+04  5.948371E+03  5.665933E+03  4.908039E+04 -7.432363E+03 -1.967374E+03
       338  27  7.824395E+03  2.133377E+04  1.715313E+04  5.784314E+04 -7.285758E+03 -6.342073E+03
       339   1 -2.157939E+05 -3.166125E+04 -2.456406E+04  5.754370E+04 -5.989396E+03  9.041254E+03
       339   2 -2.807011E+05 -4.715385E+04 -3.725399E+04  4.895118E+04 -4.883423E+03  1.325655E+04
       339   3 -3.458326E+05 -6.287440E+04 -5.072894E+04  5.754349E+04 -3.776305E+03  1.669872E+04
       339   4 -8.197282E+04  1.037794E+02  4.156830E+02  5.768422E+04  6.338057E+02  9.047137E+03
       339   5 -8.195956E+04  5.590345E+01  1.000738E+01  4.909202E+04  6.266343E+02  1.326095E+04
       339   6 -8.198121E+04 -2.637751E+01 -4.074296E+02  5.768433E+04  6.207196E+02  1.670177E+04
       339   7  5.186565E+04  3.186780E+04  2.539483E+04  5.782475E+04  7.258399E+03  9.053023E+03
       339   8  1.168203E+05  4.726339E+04  3.727241E+04  4.923290E+04  6.138412E+03  1.326535E+04
       339   9  1.819373E+05  6.281756E+04  4.991101E+04  5.782521E+04  5.019570E+03  1.670482E+04
       339  10 -2.157939E+05 -3.166135E+04 -2.456428E+04  5.754375E+04 -2.411711E-09 -9.489538E-10
       339  11 -2.807012E+05 -4.715405E+04 -3.725436E+04  4.895123E+04  1.110303E-08  1.060072E-09
       339  12 -3.458326E+05 -6.287470E+04 -5.072949E+04  5.754354E+04  2.371696E-08  5.758283E-10
       339  13 -8.197285E+04  1.036914E+02  4.155285E+02  5.768421E+04  3.261402E-10 -2.993734E-09
       339  14 -8.195960E+04  5.571451E+01  9.676201E+00  4.909202E+04 -5.063575E-10  3.523797E-09
       339  15 -8.198129E+04 -2.667715E+01 -4.079545E+02  5.768432E+04  5.838775E-10  1.038602E-09
       339  16  5.186557E+04  3.186770E+04  2.539457E+04  5.782470E+04  2.339141E-09 -1.833221E-09
       339  17  1.168202E+05  4.726319E+04  3.727200E+04  4.923284E+04 -1.185158E-08 -2.040211E-09
       339  18  1.819372E+05  6.281726E+04  4.991043E+04  5.782514E+04 -2.391530E-08  2.123341E-09
       339  19 -2.157939E+05 -3.166125E+04 -2.456406E+04  5.754370E+04  5.989396E+03 -9.041254E+03
       339  20 -2.807011E+05 -4.715385E+04 -3.725399E+04  4.895118E+04  4.883423E+03 -1.325655E+04
       339  21 -3.458326E+05 -6.287440E+04 -5.072894E+04  5.754349E+04  3.776305E+03 -1.669872E+04
       339  22 -8.197282E+04  1.037794E+02  4.156830E+02  5.768422E+04 -6.338057E+02 -9.047137E+03
       339  23 -8.195956E+04  5.590345E+01  1.000738E+01  4.909202E+04 -6.266343E+02 -1.326095E+04
       339  24 -8.198121E+04 -2.637751E+01 -4.074296E+02  5.768433E+04 -6.207196E+02 -1.670177E+04
       339  25  5.186565E+04  3.186780E+04  2.539483E+04  5.782475E+04 -7.258399E+03 -9.053023E+03
       339  26  1.168203E+05  4.726339E+04  3.727241E+04  4.923290E+04 -6.138412E+03 -1.326535E+04
       339  27  1.819373E+05  6.281756E+04  4.991101E+04  5.782521E+04 -5.019570E+03 -1.670482E+04
       340   1 -3.904257E+05 -7.341408E+04 -5.962348E+04  5.711429E+04 -5.693506E+03  1.931981E+04
       340   2 -4.538542E+05 -8.999900E+04 -7.735286E+04  4.971676E+04  1.117392E+04  1.814978E+04
       340   3 -5.206096E+05 -1.110981E+05 -1.071972E+05  5.883480E+04  2.804505E+04  5.741808E+03
       340   4 -8.209439E+04  6.763457E+01 -6.355854E+02  5.753530E+04  6.908187E+02  1.932408E+04
       340   5 -8.184125E+04 -3.687576E+02 -1.328442E+03  4.927857E+04  1.386277E+03  1.814199E+04
       340   6 -8.210984E+04 -2.509404E+03 -2.900944E+03  5.753709E+04  2.087588E+03  5.724992E+03
       340   7  2.263286E+05  7.354376E+04  5.834813E+04  5.795651E+04  7.078241E+03  1.932835E+04
       340   8  2.903035E+05  8.925287E+04  7.468902E+04  4.884007E+04 -8.407130E+03  1.813422E+04
       340   9  3.565680E+05  1.060658E+05  1.013844E+05  5.623843E+04 -2.388813E+04  5.708293E+03
       340  10 -3.904259E+05 -7.341449E+04 -5.962424E+04  5.711438E+04  5.834958E-09  1.582436E-09
       340  11 -4.538545E+05 -8.999939E+04 -7.735372E+04  4.971660E+04 -6.605327E-09  5.342846E-10
       340  12 -5.206105E+05 -1.110984E+05 -1.071988E+05  5.883467E+04 -1.782659E-08  1.520960E-09
       340  13 -8.209450E+04  6.723347E+01 -6.362880E+02  5.753529E+04  1.180251E-11  1.307311E-09
       340  14 -8.184134E+04 -3.691115E+02 -1.329064E+03  4.927855E+04 -3.220742E-10  1.078979E-09
       340  15 -8.210985E+04 -2.509440E+03 -2.901014E+03  5.753708E+04  7.056920E-10  9.645975E-10
       340  16  2.263285E+05  7.354335E+04  5.834734E+04  5.795640E+04 -5.886596E-09  1.936366E-09
       340  17  2.903034E+05  8.925249E+04  7.468827E+04  4.884020E+04  6.339933E-09  3.062930E-09
       340  18  3.565674E+05  1.060656E+05  1.013833E+05  5.623854E+04  1.750887E-08 -3.675167E-10
       340  19 -3.904257E+05 -7.341408E+04 -5.962348E+04  5.711429E+04  5.693506E+03 -1.931981E+04
       340  20 -4.538542E+05 -8.999900E+04 -7.735286E+04  4.971676E+04 -1.117392E+04 -1.814978E+04
       340  21 -5.206096E+05 -1.110981E+05 -1.071972E+05  5.883480E+04 -2.804505E+04 -5.741808E+03
       340  22 -8.209439E+04  6.763457E+01 -6.355854E+02  5.753530E+04 -6.908187E+02 -1.932408E+04
       340  23 -8.184125E+04 -3.687576E+02 -1.328442E+03  4.927857E+04 -1.386277E+03 -1.814199E+04
       340  24 -8.210984E+04 -2.509404E+03 -2.900944E+03  5.753709E+04 -2.087588E+03 -5.724992E+03
       340  25  2.263286E+05  7.354376E+04  5.834813E+04  5.795651E+04 -7.078241E+03 -1.932835E+04
       340  26  2.903035E+05  8.925287E+04  7.468902E+04  4.884007E+04  8.407130E+03 -1.813422E+04
       340  27  3.565680E+05  1.060658E+05  1.013844E+05  5.623843E+04  2.388813E+04 -5.708293E+03
