    1C
    1UUSER                                                              
    1UDATE              12.september.2022                               
    1UTIME              21:48:40                                        
    1UHOST                                                              
    1UPGM               CalculiX                                        
    1UVERSION           Version 2.19                             
    1UCOMPILETIME       Fri Dec 17 13:15:26 CET 2021                    
    1UDIR                                                               
    1UDBN                                                               
    1UMAT    1MESH_MATERIAL                                             
    2C                          1001                                     1
 -1         1 0.00000E+00 0.00000E+00 0.00000E+00
 -1         2 8.33333E-03 0.00000E+00 0.00000E+00
 -1         3 1.66667E-02 0.00000E+00 0.00000E+00
 -1         4 2.50000E-02 0.00000E+00 0.00000E+00
 -1         5 3.33333E-02 0.00000E+00 0.00000E+00
 -1         6 4.16667E-02 0.00000E+00 0.00000E+00
 -1         7 5.00000E-02 0.00000E+00 0.00000E+00
 -1         8 5.83333E-02 0.00000E+00 0.00000E+00
 -1         9 6.66667E-02 0.00000E+00 0.00000E+00
 -1        14 0.00000E+00 6.25000E-03 0.00000E+00
 -1        15 8.33333E-03 6.25000E-03 0.00000E+00
 -1        16 1.66667E-02 6.25000E-03 0.00000E+00
 -1        17 2.50000E-02 6.25000E-03 0.00000E+00
 -1        18 3.33333E-02 6.25000E-03 0.00000E+00
 -1        19 4.16667E-02 6.25000E-03 0.00000E+00
 -1        20 5.00000E-02 6.25000E-03 0.00000E+00
 -1        21 5.83333E-02 6.25000E-03 0.00000E+00
 -1        22 6.66667E-02 6.25000E-03 0.00000E+00
 -1        27 0.00000E+00 1.25000E-02 0.00000E+00
 -1        28 8.33333E-03 1.25000E-02 0.00000E+00
 -1        29 1.66667E-02 1.25000E-02 0.00000E+00
 -1        30 2.50000E-02 1.25000E-02 0.00000E+00
 -1        31 3.33333E-02 1.25000E-02 0.00000E+00
 -1        32 4.16667E-02 1.25000E-02 0.00000E+00
 -1        33 5.00000E-02 1.25000E-02 0.00000E+00
 -1        34 5.83333E-02 1.25000E-02 0.00000E+00
 -1        35 6.66667E-02 1.25000E-02 0.00000E+00
 -1        36 7.50000E-02 1.25000E-02 0.00000E+00
 -1        37 8.33333E-02 1.25000E-02 0.00000E+00
 -1        38 9.16667E-02 1.25000E-02 0.00000E+00
 -1        39 1.00000E-01 1.25000E-02 0.00000E+00
 -1        40 0.00000E+00 1.87500E-02 0.00000E+00
 -1        41 8.33333E-03 1.87500E-02 0.00000E+00
 -1        42 1.66667E-02 1.87500E-02 0.00000E+00
 -1        43 2.50000E-02 1.87500E-02 0.00000E+00
 -1        44 3.33333E-02 1.87500E-02 0.00000E+00
 -1        45 4.16667E-02 1.87500E-02 0.00000E+00
 -1        46 5.00000E-02 1.87500E-02 0.00000E+00
 -1        47 5.83333E-02 1.87500E-02 0.00000E+00
 -1        48 6.66667E-02 1.87500E-02 0.00000E+00
 -1        49 7.50000E-02 1.87500E-02 0.00000E+00
 -1        50 8.33333E-02 1.87500E-02 0.00000E+00
 -1        51 9.16667E-02 1.87500E-02 0.00000E+00
 -1        52 1.00000E-01 1.87500E-02 0.00000E+00
 -1        53 0.00000E+00 2.50000E-02 0.00000E+00
 -1        54 8.33333E-03 2.50000E-02 0.00000E+00
 -1        55 1.66667E-02 2.50000E-02 0.00000E+00
 -1        56 2.50000E-02 2.50000E-02 0.00000E+00
 -1        57 3.33333E-02 2.50000E-02 0.00000E+00
 -1        58 4.16667E-02 2.50000E-02 0.00000E+00
 -1        59 5.00000E-02 2.50000E-02 0.00000E+00
 -1        60 5.83333E-02 2.50000E-02 0.00000E+00
 -1        61 6.66667E-02 2.50000E-02 0.00000E+00
 -1        62 7.50000E-02 2.50000E-02 0.00000E+00
 -1        63 8.33333E-02 2.50000E-02 0.00000E+00
 -1        64 9.16667E-02 2.50000E-02 0.00000E+00
 -1        65 1.00000E-01 2.50000E-02 0.00000E+00
 -1        66 1.04167E-03 0.00000E+00 0.00000E+00
 -1        67 2.08333E-03 0.00000E+00 0.00000E+00
 -1        68 3.12500E-03 0.00000E+00 0.00000E+00
 -1        69 4.16667E-03 0.00000E+00 0.00000E+00
 -1        70 5.20833E-03 0.00000E+00 0.00000E+00
 -1        71 6.25000E-03 0.00000E+00 0.00000E+00
 -1        72 7.29167E-03 0.00000E+00 0.00000E+00
 -1        73 0.00000E+00 1.04167E-03 0.00000E+00
 -1        74 0.00000E+00 2.08333E-03 0.00000E+00
 -1        75 0.00000E+00 3.12500E-03 0.00000E+00
 -1        76 0.00000E+00 4.16667E-03 0.00000E+00
 -1        77 0.00000E+00 5.20833E-03 0.00000E+00
 -1        78 8.33330E-04 6.25000E-04 0.00000E+00
 -1        79 1.66667E-03 1.25000E-03 0.00000E+00
 -1        80 2.50000E-03 1.87500E-03 0.00000E+00
 -1        81 3.33333E-03 2.50000E-03 0.00000E+00
 -1        82 4.16667E-03 3.12500E-03 0.00000E+00
 -1        83 5.00000E-03 3.75000E-03 0.00000E+00
 -1        84 5.83333E-03 4.37500E-03 0.00000E+00
 -1        85 6.66667E-03 5.00000E-03 0.00000E+00
 -1        86 7.50000E-03 5.62500E-03 0.00000E+00
 -1        87 9.37500E-03 0.00000E+00 0.00000E+00
 -1        88 1.04167E-02 0.00000E+00 0.00000E+00
 -1        89 1.14583E-02 0.00000E+00 0.00000E+00
 -1        90 1.25000E-02 0.00000E+00 0.00000E+00
 -1        91 1.35417E-02 0.00000E+00 0.00000E+00
 -1        92 1.45833E-02 0.00000E+00 0.00000E+00
 -1        93 1.56250E-02 0.00000E+00 0.00000E+00
 -1        94 8.33333E-03 1.04167E-03 0.00000E+00
 -1        95 8.33333E-03 2.08333E-03 0.00000E+00
 -1        96 8.33333E-03 3.12500E-03 0.00000E+00
 -1        97 8.33333E-03 4.16667E-03 0.00000E+00
 -1        98 8.33333E-03 5.20833E-03 0.00000E+00
 -1        99 9.16667E-03 6.25000E-04 0.00000E+00
 -1       100 1.00000E-02 1.25000E-03 0.00000E+00
 -1       101 1.08333E-02 1.87500E-03 0.00000E+00
 -1       102 1.16667E-02 2.50000E-03 0.00000E+00
 -1       103 1.25000E-02 3.12500E-03 0.00000E+00
 -1       104 1.33333E-02 3.75000E-03 0.00000E+00
 -1       105 1.41667E-02 4.37500E-03 0.00000E+00
 -1       106 1.50000E-02 5.00000E-03 0.00000E+00
 -1       107 1.58333E-02 5.62500E-03 0.00000E+00
 -1       108 1.77083E-02 0.00000E+00 0.00000E+00
 -1       109 1.87500E-02 0.00000E+00 0.00000E+00
 -1       110 1.97917E-02 0.00000E+00 0.00000E+00
 -1       111 2.08333E-02 0.00000E+00 0.00000E+00
 -1       112 2.18750E-02 0.00000E+00 0.00000E+00
 -1       113 2.29167E-02 0.00000E+00 0.00000E+00
 -1       114 2.39583E-02 0.00000E+00 0.00000E+00
 -1       115 1.66667E-02 1.04167E-03 0.00000E+00
 -1       116 1.66667E-02 2.08333E-03 0.00000E+00
 -1       117 1.66667E-02 3.12500E-03 0.00000E+00
 -1       118 1.66667E-02 4.16667E-03 0.00000E+00
 -1       119 1.66667E-02 5.20833E-03 0.00000E+00
 -1       120 1.75000E-02 6.25000E-04 0.00000E+00
 -1       121 1.83333E-02 1.25000E-03 0.00000E+00
 -1       122 1.91667E-02 1.87500E-03 0.00000E+00
 -1       123 2.00000E-02 2.50000E-03 0.00000E+00
 -1       124 2.08333E-02 3.12500E-03 0.00000E+00
 -1       125 2.16667E-02 3.75000E-03 0.00000E+00
 -1       126 2.25000E-02 4.37500E-03 0.00000E+00
 -1       127 2.33333E-02 5.00000E-03 0.00000E+00
 -1       128 2.41667E-02 5.62500E-03 0.00000E+00
 -1       129 2.60417E-02 0.00000E+00 0.00000E+00
 -1       130 2.70833E-02 0.00000E+00 0.00000E+00
 -1       131 2.81250E-02 0.00000E+00 0.00000E+00
 -1       132 2.91667E-02 0.00000E+00 0.00000E+00
 -1       133 3.02083E-02 0.00000E+00 0.00000E+00
 -1       134 3.12500E-02 0.00000E+00 0.00000E+00
 -1       135 3.22917E-02 0.00000E+00 0.00000E+00
 -1       136 2.50000E-02 1.04167E-03 0.00000E+00
 -1       137 2.50000E-02 2.08333E-03 0.00000E+00
 -1       138 2.50000E-02 3.12500E-03 0.00000E+00
 -1       139 2.50000E-02 4.16667E-03 0.00000E+00
 -1       140 2.50000E-02 5.20833E-03 0.00000E+00
 -1       141 2.58333E-02 6.25000E-04 0.00000E+00
 -1       142 2.66667E-02 1.25000E-03 0.00000E+00
 -1       143 2.75000E-02 1.87500E-03 0.00000E+00
 -1       144 2.83333E-02 2.50000E-03 0.00000E+00
 -1       145 2.91667E-02 3.12500E-03 0.00000E+00
 -1       146 3.00000E-02 3.75000E-03 0.00000E+00
 -1       147 3.08333E-02 4.37500E-03 0.00000E+00
 -1       148 3.16667E-02 5.00000E-03 0.00000E+00
 -1       149 3.25000E-02 5.62500E-03 0.00000E+00
 -1       150 3.43750E-02 0.00000E+00 0.00000E+00
 -1       151 3.54167E-02 0.00000E+00 0.00000E+00
 -1       152 3.64583E-02 0.00000E+00 0.00000E+00
 -1       153 3.75000E-02 0.00000E+00 0.00000E+00
 -1       154 3.85417E-02 0.00000E+00 0.00000E+00
 -1       155 3.95833E-02 0.00000E+00 0.00000E+00
 -1       156 4.06250E-02 0.00000E+00 0.00000E+00
 -1       157 3.33333E-02 1.04167E-03 0.00000E+00
 -1       158 3.33333E-02 2.08333E-03 0.00000E+00
 -1       159 3.33333E-02 3.12500E-03 0.00000E+00
 -1       160 3.33333E-02 4.16667E-03 0.00000E+00
 -1       161 3.33333E-02 5.20833E-03 0.00000E+00
 -1       162 3.41667E-02 6.25000E-04 0.00000E+00
 -1       163 3.50000E-02 1.25000E-03 0.00000E+00
 -1       164 3.58333E-02 1.87500E-03 0.00000E+00
 -1       165 3.66667E-02 2.50000E-03 0.00000E+00
 -1       166 3.75000E-02 3.12500E-03 0.00000E+00
 -1       167 3.83333E-02 3.75000E-03 0.00000E+00
 -1       168 3.91667E-02 4.37500E-03 0.00000E+00
 -1       169 4.00000E-02 5.00000E-03 0.00000E+00
 -1       170 4.08333E-02 5.62500E-03 0.00000E+00
 -1       171 4.27083E-02 0.00000E+00 0.00000E+00
 -1       172 4.37500E-02 0.00000E+00 0.00000E+00
 -1       173 4.47917E-02 0.00000E+00 0.00000E+00
 -1       174 4.58333E-02 0.00000E+00 0.00000E+00
 -1       175 4.68750E-02 0.00000E+00 0.00000E+00
 -1       176 4.79167E-02 0.00000E+00 0.00000E+00
 -1       177 4.89583E-02 0.00000E+00 0.00000E+00
 -1       178 4.16667E-02 1.04167E-03 0.00000E+00
 -1       179 4.16667E-02 2.08333E-03 0.00000E+00
 -1       180 4.16667E-02 3.12500E-03 0.00000E+00
 -1       181 4.16667E-02 4.16667E-03 0.00000E+00
 -1       182 4.16667E-02 5.20833E-03 0.00000E+00
 -1       183 4.25000E-02 6.25000E-04 0.00000E+00
 -1       184 4.33333E-02 1.25000E-03 0.00000E+00
 -1       185 4.41667E-02 1.87500E-03 0.00000E+00
 -1       186 4.50000E-02 2.50000E-03 0.00000E+00
 -1       187 4.58333E-02 3.12500E-03 0.00000E+00
 -1       188 4.66667E-02 3.75000E-03 0.00000E+00
 -1       189 4.75000E-02 4.37500E-03 0.00000E+00
 -1       190 4.83333E-02 5.00000E-03 0.00000E+00
 -1       191 4.91667E-02 5.62500E-03 0.00000E+00
 -1       192 5.10417E-02 0.00000E+00 0.00000E+00
 -1       193 5.20833E-02 0.00000E+00 0.00000E+00
 -1       194 5.31250E-02 0.00000E+00 0.00000E+00
 -1       195 5.41667E-02 0.00000E+00 0.00000E+00
 -1       196 5.52083E-02 0.00000E+00 0.00000E+00
 -1       197 5.62500E-02 0.00000E+00 0.00000E+00
 -1       198 5.72917E-02 0.00000E+00 0.00000E+00
 -1       199 5.00000E-02 1.04167E-03 0.00000E+00
 -1       200 5.00000E-02 2.08333E-03 0.00000E+00
 -1       201 5.00000E-02 3.12500E-03 0.00000E+00
 -1       202 5.00000E-02 4.16667E-03 0.00000E+00
 -1       203 5.00000E-02 5.20833E-03 0.00000E+00
 -1       204 5.08333E-02 6.25000E-04 0.00000E+00
 -1       205 5.16667E-02 1.25000E-03 0.00000E+00
 -1       206 5.25000E-02 1.87500E-03 0.00000E+00
 -1       207 5.33333E-02 2.50000E-03 0.00000E+00
 -1       208 5.41667E-02 3.12500E-03 0.00000E+00
 -1       209 5.50000E-02 3.75000E-03 0.00000E+00
 -1       210 5.58333E-02 4.37500E-03 0.00000E+00
 -1       211 5.66667E-02 5.00000E-03 0.00000E+00
 -1       212 5.75000E-02 5.62500E-03 0.00000E+00
 -1       213 5.93750E-02 0.00000E+00 0.00000E+00
 -1       214 6.04167E-02 0.00000E+00 0.00000E+00
 -1       215 6.14583E-02 0.00000E+00 0.00000E+00
 -1       216 6.25000E-02 0.00000E+00 0.00000E+00
 -1       217 6.35417E-02 0.00000E+00 0.00000E+00
 -1       218 6.45833E-02 0.00000E+00 0.00000E+00
 -1       219 6.56250E-02 0.00000E+00 0.00000E+00
 -1       220 5.83333E-02 1.04167E-03 0.00000E+00
 -1       221 5.83333E-02 2.08333E-03 0.00000E+00
 -1       222 5.83333E-02 3.12500E-03 0.00000E+00
 -1       223 5.83333E-02 4.16667E-03 0.00000E+00
 -1       224 5.83333E-02 5.20833E-03 0.00000E+00
 -1       225 5.91667E-02 6.25000E-04 0.00000E+00
 -1       226 6.00000E-02 1.25000E-03 0.00000E+00
 -1       227 6.08333E-02 1.87500E-03 0.00000E+00
 -1       228 6.16667E-02 2.50000E-03 0.00000E+00
 -1       229 6.25000E-02 3.12500E-03 0.00000E+00
 -1       230 6.33333E-02 3.75000E-03 0.00000E+00
 -1       231 6.41667E-02 4.37500E-03 0.00000E+00
 -1       232 6.50000E-02 5.00000E-03 0.00000E+00
 -1       233 6.58333E-02 5.62500E-03 0.00000E+00
 -1       241 6.66667E-02 1.04167E-03 0.00000E+00
 -1       242 6.66667E-02 2.08333E-03 0.00000E+00
 -1       243 6.66667E-02 3.12500E-03 0.00000E+00
 -1       244 6.66667E-02 4.16667E-03 0.00000E+00
 -1       245 6.66667E-02 5.20833E-03 0.00000E+00
 -1       323 1.04167E-03 6.25000E-03 0.00000E+00
 -1       324 2.08333E-03 6.25000E-03 0.00000E+00
 -1       325 3.12500E-03 6.25000E-03 0.00000E+00
 -1       326 4.16667E-03 6.25000E-03 0.00000E+00
 -1       327 5.20833E-03 6.25000E-03 0.00000E+00
 -1       328 6.25000E-03 6.25000E-03 0.00000E+00
 -1       329 7.29167E-03 6.25000E-03 0.00000E+00
 -1       330 0.00000E+00 7.29167E-03 0.00000E+00
 -1       331 0.00000E+00 8.33333E-03 0.00000E+00
 -1       332 0.00000E+00 9.37500E-03 0.00000E+00
 -1       333 0.00000E+00 1.04167E-02 0.00000E+00
 -1       334 0.00000E+00 1.14583E-02 0.00000E+00
 -1       335 8.33330E-04 6.87500E-03 0.00000E+00
 -1       336 1.66667E-03 7.50000E-03 0.00000E+00
 -1       337 2.50000E-03 8.12500E-03 0.00000E+00
 -1       338 3.33333E-03 8.75000E-03 0.00000E+00
 -1       339 4.16667E-03 9.37500E-03 0.00000E+00
 -1       340 5.00000E-03 1.00000E-02 0.00000E+00
 -1       341 5.83333E-03 1.06250E-02 0.00000E+00
 -1       342 6.66667E-03 1.12500E-02 0.00000E+00
 -1       343 7.50000E-03 1.18750E-02 0.00000E+00
 -1       344 9.37500E-03 6.25000E-03 0.00000E+00
 -1       345 1.04167E-02 6.25000E-03 0.00000E+00
 -1       346 1.14583E-02 6.25000E-03 0.00000E+00
 -1       347 1.25000E-02 6.25000E-03 0.00000E+00
 -1       348 1.35417E-02 6.25000E-03 0.00000E+00
 -1       349 1.45833E-02 6.25000E-03 0.00000E+00
 -1       350 1.56250E-02 6.25000E-03 0.00000E+00
 -1       351 8.33333E-03 7.29167E-03 0.00000E+00
 -1       352 8.33333E-03 8.33333E-03 0.00000E+00
 -1       353 8.33333E-03 9.37500E-03 0.00000E+00
 -1       354 8.33333E-03 1.04167E-02 0.00000E+00
 -1       355 8.33333E-03 1.14583E-02 0.00000E+00
 -1       356 9.16667E-03 6.87500E-03 0.00000E+00
 -1       357 1.00000E-02 7.50000E-03 0.00000E+00
 -1       358 1.08333E-02 8.12500E-03 0.00000E+00
 -1       359 1.16667E-02 8.75000E-03 0.00000E+00
 -1       360 1.25000E-02 9.37500E-03 0.00000E+00
 -1       361 1.33333E-02 1.00000E-02 0.00000E+00
 -1       362 1.41667E-02 1.06250E-02 0.00000E+00
 -1       363 1.50000E-02 1.12500E-02 0.00000E+00
 -1       364 1.58333E-02 1.18750E-02 0.00000E+00
 -1       365 1.77083E-02 6.25000E-03 0.00000E+00
 -1       366 1.87500E-02 6.25000E-03 0.00000E+00
 -1       367 1.97917E-02 6.25000E-03 0.00000E+00
 -1       368 2.08333E-02 6.25000E-03 0.00000E+00
 -1       369 2.18750E-02 6.25000E-03 0.00000E+00
 -1       370 2.29167E-02 6.25000E-03 0.00000E+00
 -1       371 2.39583E-02 6.25000E-03 0.00000E+00
 -1       372 1.66667E-02 7.29167E-03 0.00000E+00
 -1       373 1.66667E-02 8.33333E-03 0.00000E+00
 -1       374 1.66667E-02 9.37500E-03 0.00000E+00
 -1       375 1.66667E-02 1.04167E-02 0.00000E+00
 -1       376 1.66667E-02 1.14583E-02 0.00000E+00
 -1       377 1.75000E-02 6.87500E-03 0.00000E+00
 -1       378 1.83333E-02 7.50000E-03 0.00000E+00
 -1       379 1.91667E-02 8.12500E-03 0.00000E+00
 -1       380 2.00000E-02 8.75000E-03 0.00000E+00
 -1       381 2.08333E-02 9.37500E-03 0.00000E+00
 -1       382 2.16667E-02 1.00000E-02 0.00000E+00
 -1       383 2.25000E-02 1.06250E-02 0.00000E+00
 -1       384 2.33333E-02 1.12500E-02 0.00000E+00
 -1       385 2.41667E-02 1.18750E-02 0.00000E+00
 -1       386 2.60417E-02 6.25000E-03 0.00000E+00
 -1       387 2.70833E-02 6.25000E-03 0.00000E+00
 -1       388 2.81250E-02 6.25000E-03 0.00000E+00
 -1       389 2.91667E-02 6.25000E-03 0.00000E+00
 -1       390 3.02083E-02 6.25000E-03 0.00000E+00
 -1       391 3.12500E-02 6.25000E-03 0.00000E+00
 -1       392 3.22917E-02 6.25000E-03 0.00000E+00
 -1       393 2.50000E-02 7.29167E-03 0.00000E+00
 -1       394 2.50000E-02 8.33333E-03 0.00000E+00
 -1       395 2.50000E-02 9.37500E-03 0.00000E+00
 -1       396 2.50000E-02 1.04167E-02 0.00000E+00
 -1       397 2.50000E-02 1.14583E-02 0.00000E+00
 -1       398 2.58333E-02 6.87500E-03 0.00000E+00
 -1       399 2.66667E-02 7.50000E-03 0.00000E+00
 -1       400 2.75000E-02 8.12500E-03 0.00000E+00
 -1       401 2.83333E-02 8.75000E-03 0.00000E+00
 -1       402 2.91667E-02 9.37500E-03 0.00000E+00
 -1       403 3.00000E-02 1.00000E-02 0.00000E+00
 -1       404 3.08333E-02 1.06250E-02 0.00000E+00
 -1       405 3.16667E-02 1.12500E-02 0.00000E+00
 -1       406 3.25000E-02 1.18750E-02 0.00000E+00
 -1       407 3.43750E-02 6.25000E-03 0.00000E+00
 -1       408 3.54167E-02 6.25000E-03 0.00000E+00
 -1       409 3.64583E-02 6.25000E-03 0.00000E+00
 -1       410 3.75000E-02 6.25000E-03 0.00000E+00
 -1       411 3.85417E-02 6.25000E-03 0.00000E+00
 -1       412 3.95833E-02 6.25000E-03 0.00000E+00
 -1       413 4.06250E-02 6.25000E-03 0.00000E+00
 -1       414 3.33333E-02 7.29167E-03 0.00000E+00
 -1       415 3.33333E-02 8.33333E-03 0.00000E+00
 -1       416 3.33333E-02 9.37500E-03 0.00000E+00
 -1       417 3.33333E-02 1.04167E-02 0.00000E+00
 -1       418 3.33333E-02 1.14583E-02 0.00000E+00
 -1       419 3.41667E-02 6.87500E-03 0.00000E+00
 -1       420 3.50000E-02 7.50000E-03 0.00000E+00
 -1       421 3.58333E-02 8.12500E-03 0.00000E+00
 -1       422 3.66667E-02 8.75000E-03 0.00000E+00
 -1       423 3.75000E-02 9.37500E-03 0.00000E+00
 -1       424 3.83333E-02 1.00000E-02 0.00000E+00
 -1       425 3.91667E-02 1.06250E-02 0.00000E+00
 -1       426 4.00000E-02 1.12500E-02 0.00000E+00
 -1       427 4.08333E-02 1.18750E-02 0.00000E+00
 -1       428 4.27083E-02 6.25000E-03 0.00000E+00
 -1       429 4.37500E-02 6.25000E-03 0.00000E+00
 -1       430 4.47917E-02 6.25000E-03 0.00000E+00
 -1       431 4.58333E-02 6.25000E-03 0.00000E+00
 -1       432 4.68750E-02 6.25000E-03 0.00000E+00
 -1       433 4.79167E-02 6.25000E-03 0.00000E+00
 -1       434 4.89583E-02 6.25000E-03 0.00000E+00
 -1       435 4.16667E-02 7.29167E-03 0.00000E+00
 -1       436 4.16667E-02 8.33333E-03 0.00000E+00
 -1       437 4.16667E-02 9.37500E-03 0.00000E+00
 -1       438 4.16667E-02 1.04167E-02 0.00000E+00
 -1       439 4.16667E-02 1.14583E-02 0.00000E+00
 -1       440 4.25000E-02 6.87500E-03 0.00000E+00
 -1       441 4.33333E-02 7.50000E-03 0.00000E+00
 -1       442 4.41667E-02 8.12500E-03 0.00000E+00
 -1       443 4.50000E-02 8.75000E-03 0.00000E+00
 -1       444 4.58333E-02 9.37500E-03 0.00000E+00
 -1       445 4.66667E-02 1.00000E-02 0.00000E+00
 -1       446 4.75000E-02 1.06250E-02 0.00000E+00
 -1       447 4.83333E-02 1.12500E-02 0.00000E+00
 -1       448 4.91667E-02 1.18750E-02 0.00000E+00
 -1       449 5.10417E-02 6.25000E-03 0.00000E+00
 -1       450 5.20833E-02 6.25000E-03 0.00000E+00
 -1       451 5.31250E-02 6.25000E-03 0.00000E+00
 -1       452 5.41667E-02 6.25000E-03 0.00000E+00
 -1       453 5.52083E-02 6.25000E-03 0.00000E+00
 -1       454 5.62500E-02 6.25000E-03 0.00000E+00
 -1       455 5.72917E-02 6.25000E-03 0.00000E+00
 -1       456 5.00000E-02 7.29167E-03 0.00000E+00
 -1       457 5.00000E-02 8.33333E-03 0.00000E+00
 -1       458 5.00000E-02 9.37500E-03 0.00000E+00
 -1       459 5.00000E-02 1.04167E-02 0.00000E+00
 -1       460 5.00000E-02 1.14583E-02 0.00000E+00
 -1       461 5.08333E-02 6.87500E-03 0.00000E+00
 -1       462 5.16667E-02 7.50000E-03 0.00000E+00
 -1       463 5.25000E-02 8.12500E-03 0.00000E+00
 -1       464 5.33333E-02 8.75000E-03 0.00000E+00
 -1       465 5.41667E-02 9.37500E-03 0.00000E+00
 -1       466 5.50000E-02 1.00000E-02 0.00000E+00
 -1       467 5.58333E-02 1.06250E-02 0.00000E+00
 -1       468 5.66667E-02 1.12500E-02 0.00000E+00
 -1       469 5.75000E-02 1.18750E-02 0.00000E+00
 -1       470 5.93750E-02 6.25000E-03 0.00000E+00
 -1       471 6.04167E-02 6.25000E-03 0.00000E+00
 -1       472 6.14583E-02 6.25000E-03 0.00000E+00
 -1       473 6.25000E-02 6.25000E-03 0.00000E+00
 -1       474 6.35417E-02 6.25000E-03 0.00000E+00
 -1       475 6.45833E-02 6.25000E-03 0.00000E+00
 -1       476 6.56250E-02 6.25000E-03 0.00000E+00
 -1       477 5.83333E-02 7.29167E-03 0.00000E+00
 -1       478 5.83333E-02 8.33333E-03 0.00000E+00
 -1       479 5.83333E-02 9.37500E-03 0.00000E+00
 -1       480 5.83333E-02 1.04167E-02 0.00000E+00
 -1       481 5.83333E-02 1.14583E-02 0.00000E+00
 -1       482 5.91667E-02 6.87500E-03 0.00000E+00
 -1       483 6.00000E-02 7.50000E-03 0.00000E+00
 -1       484 6.08333E-02 8.12500E-03 0.00000E+00
 -1       485 6.16667E-02 8.75000E-03 0.00000E+00
 -1       486 6.25000E-02 9.37500E-03 0.00000E+00
 -1       487 6.33333E-02 1.00000E-02 0.00000E+00
 -1       488 6.41667E-02 1.06250E-02 0.00000E+00
 -1       489 6.50000E-02 1.12500E-02 0.00000E+00
 -1       490 6.58333E-02 1.18750E-02 0.00000E+00
 -1       498 6.66667E-02 7.29167E-03 0.00000E+00
 -1       499 6.66667E-02 8.33333E-03 0.00000E+00
 -1       500 6.66667E-02 9.37500E-03 0.00000E+00
 -1       501 6.66667E-02 1.04167E-02 0.00000E+00
 -1       502 6.66667E-02 1.14583E-02 0.00000E+00
 -1       580 1.04167E-03 1.25000E-02 0.00000E+00
 -1       581 2.08333E-03 1.25000E-02 0.00000E+00
 -1       582 3.12500E-03 1.25000E-02 0.00000E+00
 -1       583 4.16667E-03 1.25000E-02 0.00000E+00
 -1       584 5.20833E-03 1.25000E-02 0.00000E+00
 -1       585 6.25000E-03 1.25000E-02 0.00000E+00
 -1       586 7.29167E-03 1.25000E-02 0.00000E+00
 -1       587 0.00000E+00 1.35417E-02 0.00000E+00
 -1       588 0.00000E+00 1.45833E-02 0.00000E+00
 -1       589 0.00000E+00 1.56250E-02 0.00000E+00
 -1       590 0.00000E+00 1.66667E-02 0.00000E+00
 -1       591 0.00000E+00 1.77083E-02 0.00000E+00
 -1       592 8.33330E-04 1.31250E-02 0.00000E+00
 -1       593 1.66667E-03 1.37500E-02 0.00000E+00
 -1       594 2.50000E-03 1.43750E-02 0.00000E+00
 -1       595 3.33333E-03 1.50000E-02 0.00000E+00
 -1       596 4.16667E-03 1.56250E-02 0.00000E+00
 -1       597 5.00000E-03 1.62500E-02 0.00000E+00
 -1       598 5.83333E-03 1.68750E-02 0.00000E+00
 -1       599 6.66667E-03 1.75000E-02 0.00000E+00
 -1       600 7.50000E-03 1.81250E-02 0.00000E+00
 -1       601 9.37500E-03 1.25000E-02 0.00000E+00
 -1       602 1.04167E-02 1.25000E-02 0.00000E+00
 -1       603 1.14583E-02 1.25000E-02 0.00000E+00
 -1       604 1.25000E-02 1.25000E-02 0.00000E+00
 -1       605 1.35417E-02 1.25000E-02 0.00000E+00
 -1       606 1.45833E-02 1.25000E-02 0.00000E+00
 -1       607 1.56250E-02 1.25000E-02 0.00000E+00
 -1       608 8.33333E-03 1.35417E-02 0.00000E+00
 -1       609 8.33333E-03 1.45833E-02 0.00000E+00
 -1       610 8.33333E-03 1.56250E-02 0.00000E+00
 -1       611 8.33333E-03 1.66667E-02 0.00000E+00
 -1       612 8.33333E-03 1.77083E-02 0.00000E+00
 -1       613 9.16667E-03 1.31250E-02 0.00000E+00
 -1       614 1.00000E-02 1.37500E-02 0.00000E+00
 -1       615 1.08333E-02 1.43750E-02 0.00000E+00
 -1       616 1.16667E-02 1.50000E-02 0.00000E+00
 -1       617 1.25000E-02 1.56250E-02 0.00000E+00
 -1       618 1.33333E-02 1.62500E-02 0.00000E+00
 -1       619 1.41667E-02 1.68750E-02 0.00000E+00
 -1       620 1.50000E-02 1.75000E-02 0.00000E+00
 -1       621 1.58333E-02 1.81250E-02 0.00000E+00
 -1       622 1.77083E-02 1.25000E-02 0.00000E+00
 -1       623 1.87500E-02 1.25000E-02 0.00000E+00
 -1       624 1.97917E-02 1.25000E-02 0.00000E+00
 -1       625 2.08333E-02 1.25000E-02 0.00000E+00
 -1       626 2.18750E-02 1.25000E-02 0.00000E+00
 -1       627 2.29167E-02 1.25000E-02 0.00000E+00
 -1       628 2.39583E-02 1.25000E-02 0.00000E+00
 -1       629 1.66667E-02 1.35417E-02 0.00000E+00
 -1       630 1.66667E-02 1.45833E-02 0.00000E+00
 -1       631 1.66667E-02 1.56250E-02 0.00000E+00
 -1       632 1.66667E-02 1.66667E-02 0.00000E+00
 -1       633 1.66667E-02 1.77083E-02 0.00000E+00
 -1       634 1.75000E-02 1.31250E-02 0.00000E+00
 -1       635 1.83333E-02 1.37500E-02 0.00000E+00
 -1       636 1.91667E-02 1.43750E-02 0.00000E+00
 -1       637 2.00000E-02 1.50000E-02 0.00000E+00
 -1       638 2.08333E-02 1.56250E-02 0.00000E+00
 -1       639 2.16667E-02 1.62500E-02 0.00000E+00
 -1       640 2.25000E-02 1.68750E-02 0.00000E+00
 -1       641 2.33333E-02 1.75000E-02 0.00000E+00
 -1       642 2.41667E-02 1.81250E-02 0.00000E+00
 -1       643 2.60417E-02 1.25000E-02 0.00000E+00
 -1       644 2.70833E-02 1.25000E-02 0.00000E+00
 -1       645 2.81250E-02 1.25000E-02 0.00000E+00
 -1       646 2.91667E-02 1.25000E-02 0.00000E+00
 -1       647 3.02083E-02 1.25000E-02 0.00000E+00
 -1       648 3.12500E-02 1.25000E-02 0.00000E+00
 -1       649 3.22917E-02 1.25000E-02 0.00000E+00
 -1       650 2.50000E-02 1.35417E-02 0.00000E+00
 -1       651 2.50000E-02 1.45833E-02 0.00000E+00
 -1       652 2.50000E-02 1.56250E-02 0.00000E+00
 -1       653 2.50000E-02 1.66667E-02 0.00000E+00
 -1       654 2.50000E-02 1.77083E-02 0.00000E+00
 -1       655 2.58333E-02 1.31250E-02 0.00000E+00
 -1       656 2.66667E-02 1.37500E-02 0.00000E+00
 -1       657 2.75000E-02 1.43750E-02 0.00000E+00
 -1       658 2.83333E-02 1.50000E-02 0.00000E+00
 -1       659 2.91667E-02 1.56250E-02 0.00000E+00
 -1       660 3.00000E-02 1.62500E-02 0.00000E+00
 -1       661 3.08333E-02 1.68750E-02 0.00000E+00
 -1       662 3.16667E-02 1.75000E-02 0.00000E+00
 -1       663 3.25000E-02 1.81250E-02 0.00000E+00
 -1       664 3.43750E-02 1.25000E-02 0.00000E+00
 -1       665 3.54167E-02 1.25000E-02 0.00000E+00
 -1       666 3.64583E-02 1.25000E-02 0.00000E+00
 -1       667 3.75000E-02 1.25000E-02 0.00000E+00
 -1       668 3.85417E-02 1.25000E-02 0.00000E+00
 -1       669 3.95833E-02 1.25000E-02 0.00000E+00
 -1       670 4.06250E-02 1.25000E-02 0.00000E+00
 -1       671 3.33333E-02 1.35417E-02 0.00000E+00
 -1       672 3.33333E-02 1.45833E-02 0.00000E+00
 -1       673 3.33333E-02 1.56250E-02 0.00000E+00
 -1       674 3.33333E-02 1.66667E-02 0.00000E+00
 -1       675 3.33333E-02 1.77083E-02 0.00000E+00
 -1       676 3.41667E-02 1.31250E-02 0.00000E+00
 -1       677 3.50000E-02 1.37500E-02 0.00000E+00
 -1       678 3.58333E-02 1.43750E-02 0.00000E+00
 -1       679 3.66667E-02 1.50000E-02 0.00000E+00
 -1       680 3.75000E-02 1.56250E-02 0.00000E+00
 -1       681 3.83333E-02 1.62500E-02 0.00000E+00
 -1       682 3.91667E-02 1.68750E-02 0.00000E+00
 -1       683 4.00000E-02 1.75000E-02 0.00000E+00
 -1       684 4.08333E-02 1.81250E-02 0.00000E+00
 -1       685 4.27083E-02 1.25000E-02 0.00000E+00
 -1       686 4.37500E-02 1.25000E-02 0.00000E+00
 -1       687 4.47917E-02 1.25000E-02 0.00000E+00
 -1       688 4.58333E-02 1.25000E-02 0.00000E+00
 -1       689 4.68750E-02 1.25000E-02 0.00000E+00
 -1       690 4.79167E-02 1.25000E-02 0.00000E+00
 -1       691 4.89583E-02 1.25000E-02 0.00000E+00
 -1       692 4.16667E-02 1.35417E-02 0.00000E+00
 -1       693 4.16667E-02 1.45833E-02 0.00000E+00
 -1       694 4.16667E-02 1.56250E-02 0.00000E+00
 -1       695 4.16667E-02 1.66667E-02 0.00000E+00
 -1       696 4.16667E-02 1.77083E-02 0.00000E+00
 -1       697 4.25000E-02 1.31250E-02 0.00000E+00
 -1       698 4.33333E-02 1.37500E-02 0.00000E+00
 -1       699 4.41667E-02 1.43750E-02 0.00000E+00
 -1       700 4.50000E-02 1.50000E-02 0.00000E+00
 -1       701 4.58333E-02 1.56250E-02 0.00000E+00
 -1       702 4.66667E-02 1.62500E-02 0.00000E+00
 -1       703 4.75000E-02 1.68750E-02 0.00000E+00
 -1       704 4.83333E-02 1.75000E-02 0.00000E+00
 -1       705 4.91667E-02 1.81250E-02 0.00000E+00
 -1       706 5.10417E-02 1.25000E-02 0.00000E+00
 -1       707 5.20833E-02 1.25000E-02 0.00000E+00
 -1       708 5.31250E-02 1.25000E-02 0.00000E+00
 -1       709 5.41667E-02 1.25000E-02 0.00000E+00
 -1       710 5.52083E-02 1.25000E-02 0.00000E+00
 -1       711 5.62500E-02 1.25000E-02 0.00000E+00
 -1       712 5.72917E-02 1.25000E-02 0.00000E+00
 -1       713 5.00000E-02 1.35417E-02 0.00000E+00
 -1       714 5.00000E-02 1.45833E-02 0.00000E+00
 -1       715 5.00000E-02 1.56250E-02 0.00000E+00
 -1       716 5.00000E-02 1.66667E-02 0.00000E+00
 -1       717 5.00000E-02 1.77083E-02 0.00000E+00
 -1       718 5.08333E-02 1.31250E-02 0.00000E+00
 -1       719 5.16667E-02 1.37500E-02 0.00000E+00
 -1       720 5.25000E-02 1.43750E-02 0.00000E+00
 -1       721 5.33333E-02 1.50000E-02 0.00000E+00
 -1       722 5.41667E-02 1.56250E-02 0.00000E+00
 -1       723 5.50000E-02 1.62500E-02 0.00000E+00
 -1       724 5.58333E-02 1.68750E-02 0.00000E+00
 -1       725 5.66667E-02 1.75000E-02 0.00000E+00
 -1       726 5.75000E-02 1.81250E-02 0.00000E+00
 -1       727 5.93750E-02 1.25000E-02 0.00000E+00
 -1       728 6.04167E-02 1.25000E-02 0.00000E+00
 -1       729 6.14583E-02 1.25000E-02 0.00000E+00
 -1       730 6.25000E-02 1.25000E-02 0.00000E+00
 -1       731 6.35417E-02 1.25000E-02 0.00000E+00
 -1       732 6.45833E-02 1.25000E-02 0.00000E+00
 -1       733 6.56250E-02 1.25000E-02 0.00000E+00
 -1       734 5.83333E-02 1.35417E-02 0.00000E+00
 -1       735 5.83333E-02 1.45833E-02 0.00000E+00
 -1       736 5.83333E-02 1.56250E-02 0.00000E+00
 -1       737 5.83333E-02 1.66667E-02 0.00000E+00
 -1       738 5.83333E-02 1.77083E-02 0.00000E+00
 -1       739 5.91667E-02 1.31250E-02 0.00000E+00
 -1       740 6.00000E-02 1.37500E-02 0.00000E+00
 -1       741 6.08333E-02 1.43750E-02 0.00000E+00
 -1       742 6.16667E-02 1.50000E-02 0.00000E+00
 -1       743 6.25000E-02 1.56250E-02 0.00000E+00
 -1       744 6.33333E-02 1.62500E-02 0.00000E+00
 -1       745 6.41667E-02 1.68750E-02 0.00000E+00
 -1       746 6.50000E-02 1.75000E-02 0.00000E+00
 -1       747 6.58333E-02 1.81250E-02 0.00000E+00
 -1       748 6.77083E-02 1.25000E-02 0.00000E+00
 -1       749 6.87500E-02 1.25000E-02 0.00000E+00
 -1       750 6.97917E-02 1.25000E-02 0.00000E+00
 -1       751 7.08333E-02 1.25000E-02 0.00000E+00
 -1       752 7.18750E-02 1.25000E-02 0.00000E+00
 -1       753 7.29167E-02 1.25000E-02 0.00000E+00
 -1       754 7.39583E-02 1.25000E-02 0.00000E+00
 -1       755 6.66667E-02 1.35417E-02 0.00000E+00
 -1       756 6.66667E-02 1.45833E-02 0.00000E+00
 -1       757 6.66667E-02 1.56250E-02 0.00000E+00
 -1       758 6.66667E-02 1.66667E-02 0.00000E+00
 -1       759 6.66667E-02 1.77083E-02 0.00000E+00
 -1       760 6.75000E-02 1.31250E-02 0.00000E+00
 -1       761 6.83333E-02 1.37500E-02 0.00000E+00
 -1       762 6.91667E-02 1.43750E-02 0.00000E+00
 -1       763 7.00000E-02 1.50000E-02 0.00000E+00
 -1       764 7.08333E-02 1.56250E-02 0.00000E+00
 -1       765 7.16667E-02 1.62500E-02 0.00000E+00
 -1       766 7.25000E-02 1.68750E-02 0.00000E+00
 -1       767 7.33333E-02 1.75000E-02 0.00000E+00
 -1       768 7.41667E-02 1.81250E-02 0.00000E+00
 -1       769 7.60417E-02 1.25000E-02 0.00000E+00
 -1       770 7.70833E-02 1.25000E-02 0.00000E+00
 -1       771 7.81250E-02 1.25000E-02 0.00000E+00
 -1       772 7.91667E-02 1.25000E-02 0.00000E+00
 -1       773 8.02083E-02 1.25000E-02 0.00000E+00
 -1       774 8.12500E-02 1.25000E-02 0.00000E+00
 -1       775 8.22917E-02 1.25000E-02 0.00000E+00
 -1       776 7.50000E-02 1.35417E-02 0.00000E+00
 -1       777 7.50000E-02 1.45833E-02 0.00000E+00
 -1       778 7.50000E-02 1.56250E-02 0.00000E+00
 -1       779 7.50000E-02 1.66667E-02 0.00000E+00
 -1       780 7.50000E-02 1.77083E-02 0.00000E+00
 -1       781 7.58333E-02 1.31250E-02 0.00000E+00
 -1       782 7.66667E-02 1.37500E-02 0.00000E+00
 -1       783 7.75000E-02 1.43750E-02 0.00000E+00
 -1       784 7.83333E-02 1.50000E-02 0.00000E+00
 -1       785 7.91667E-02 1.56250E-02 0.00000E+00
 -1       786 8.00000E-02 1.62500E-02 0.00000E+00
 -1       787 8.08333E-02 1.68750E-02 0.00000E+00
 -1       788 8.16667E-02 1.75000E-02 0.00000E+00
 -1       789 8.25000E-02 1.81250E-02 0.00000E+00
 -1       790 8.43750E-02 1.25000E-02 0.00000E+00
 -1       791 8.54167E-02 1.25000E-02 0.00000E+00
 -1       792 8.64583E-02 1.25000E-02 0.00000E+00
 -1       793 8.75000E-02 1.25000E-02 0.00000E+00
 -1       794 8.85417E-02 1.25000E-02 0.00000E+00
 -1       795 8.95833E-02 1.25000E-02 0.00000E+00
 -1       796 9.06250E-02 1.25000E-02 0.00000E+00
 -1       797 8.33333E-02 1.35417E-02 0.00000E+00
 -1       798 8.33333E-02 1.45833E-02 0.00000E+00
 -1       799 8.33333E-02 1.56250E-02 0.00000E+00
 -1       800 8.33333E-02 1.66667E-02 0.00000E+00
 -1       801 8.33333E-02 1.77083E-02 0.00000E+00
 -1       802 8.41667E-02 1.31250E-02 0.00000E+00
 -1       803 8.50000E-02 1.37500E-02 0.00000E+00
 -1       804 8.58333E-02 1.43750E-02 0.00000E+00
 -1       805 8.66667E-02 1.50000E-02 0.00000E+00
 -1       806 8.75000E-02 1.56250E-02 0.00000E+00
 -1       807 8.83333E-02 1.62500E-02 0.00000E+00
 -1       808 8.91667E-02 1.68750E-02 0.00000E+00
 -1       809 9.00000E-02 1.75000E-02 0.00000E+00
 -1       810 9.08333E-02 1.81250E-02 0.00000E+00
 -1       811 9.27083E-02 1.25000E-02 0.00000E+00
 -1       812 9.37500E-02 1.25000E-02 0.00000E+00
 -1       813 9.47917E-02 1.25000E-02 0.00000E+00
 -1       814 9.58333E-02 1.25000E-02 0.00000E+00
 -1       815 9.68750E-02 1.25000E-02 0.00000E+00
 -1       816 9.79167E-02 1.25000E-02 0.00000E+00
 -1       817 9.89583E-02 1.25000E-02 0.00000E+00
 -1       818 9.16667E-02 1.35417E-02 0.00000E+00
 -1       819 9.16667E-02 1.45833E-02 0.00000E+00
 -1       820 9.16667E-02 1.56250E-02 0.00000E+00
 -1       821 9.16667E-02 1.66667E-02 0.00000E+00
 -1       822 9.16667E-02 1.77083E-02 0.00000E+00
 -1       823 9.25000E-02 1.31250E-02 0.00000E+00
 -1       824 9.33333E-02 1.37500E-02 0.00000E+00
 -1       825 9.41667E-02 1.43750E-02 0.00000E+00
 -1       826 9.50000E-02 1.50000E-02 0.00000E+00
 -1       827 9.58333E-02 1.56250E-02 0.00000E+00
 -1       828 9.66667E-02 1.62500E-02 0.00000E+00
 -1       829 9.75000E-02 1.68750E-02 0.00000E+00
 -1       830 9.83333E-02 1.75000E-02 0.00000E+00
 -1       831 9.91667E-02 1.81250E-02 0.00000E+00
 -1       832 1.00000E-01 1.35417E-02 0.00000E+00
 -1       833 1.00000E-01 1.45833E-02 0.00000E+00
 -1       834 1.00000E-01 1.56250E-02 0.00000E+00
 -1       835 1.00000E-01 1.66667E-02 0.00000E+00
 -1       836 1.00000E-01 1.77083E-02 0.00000E+00
 -1       837 1.04167E-03 1.87500E-02 0.00000E+00
 -1       838 2.08333E-03 1.87500E-02 0.00000E+00
 -1       839 3.12500E-03 1.87500E-02 0.00000E+00
 -1       840 4.16667E-03 1.87500E-02 0.00000E+00
 -1       841 5.20833E-03 1.87500E-02 0.00000E+00
 -1       842 6.25000E-03 1.87500E-02 0.00000E+00
 -1       843 7.29167E-03 1.87500E-02 0.00000E+00
 -1       844 0.00000E+00 1.97917E-02 0.00000E+00
 -1       845 0.00000E+00 2.08333E-02 0.00000E+00
 -1       846 0.00000E+00 2.18750E-02 0.00000E+00
 -1       847 0.00000E+00 2.29167E-02 0.00000E+00
 -1       848 0.00000E+00 2.39583E-02 0.00000E+00
 -1       849 8.33330E-04 1.93750E-02 0.00000E+00
 -1       850 1.66667E-03 2.00000E-02 0.00000E+00
 -1       851 2.50000E-03 2.06250E-02 0.00000E+00
 -1       852 3.33333E-03 2.12500E-02 0.00000E+00
 -1       853 4.16667E-03 2.18750E-02 0.00000E+00
 -1       854 5.00000E-03 2.25000E-02 0.00000E+00
 -1       855 5.83333E-03 2.31250E-02 0.00000E+00
 -1       856 6.66667E-03 2.37500E-02 0.00000E+00
 -1       857 7.50000E-03 2.43750E-02 0.00000E+00
 -1       858 9.37500E-03 1.87500E-02 0.00000E+00
 -1       859 1.04167E-02 1.87500E-02 0.00000E+00
 -1       860 1.14583E-02 1.87500E-02 0.00000E+00
 -1       861 1.25000E-02 1.87500E-02 0.00000E+00
 -1       862 1.35417E-02 1.87500E-02 0.00000E+00
 -1       863 1.45833E-02 1.87500E-02 0.00000E+00
 -1       864 1.56250E-02 1.87500E-02 0.00000E+00
 -1       865 8.33333E-03 1.97917E-02 0.00000E+00
 -1       866 8.33333E-03 2.08333E-02 0.00000E+00
 -1       867 8.33333E-03 2.18750E-02 0.00000E+00
 -1       868 8.33333E-03 2.29167E-02 0.00000E+00
 -1       869 8.33333E-03 2.39583E-02 0.00000E+00
 -1       870 9.16667E-03 1.93750E-02 0.00000E+00
 -1       871 1.00000E-02 2.00000E-02 0.00000E+00
 -1       872 1.08333E-02 2.06250E-02 0.00000E+00
 -1       873 1.16667E-02 2.12500E-02 0.00000E+00
 -1       874 1.25000E-02 2.18750E-02 0.00000E+00
 -1       875 1.33333E-02 2.25000E-02 0.00000E+00
 -1       876 1.41667E-02 2.31250E-02 0.00000E+00
 -1       877 1.50000E-02 2.37500E-02 0.00000E+00
 -1       878 1.58333E-02 2.43750E-02 0.00000E+00
 -1       879 1.77083E-02 1.87500E-02 0.00000E+00
 -1       880 1.87500E-02 1.87500E-02 0.00000E+00
 -1       881 1.97917E-02 1.87500E-02 0.00000E+00
 -1       882 2.08333E-02 1.87500E-02 0.00000E+00
 -1       883 2.18750E-02 1.87500E-02 0.00000E+00
 -1       884 2.29167E-02 1.87500E-02 0.00000E+00
 -1       885 2.39583E-02 1.87500E-02 0.00000E+00
 -1       886 1.66667E-02 1.97917E-02 0.00000E+00
 -1       887 1.66667E-02 2.08333E-02 0.00000E+00
 -1       888 1.66667E-02 2.18750E-02 0.00000E+00
 -1       889 1.66667E-02 2.29167E-02 0.00000E+00
 -1       890 1.66667E-02 2.39583E-02 0.00000E+00
 -1       891 1.75000E-02 1.93750E-02 0.00000E+00
 -1       892 1.83333E-02 2.00000E-02 0.00000E+00
 -1       893 1.91667E-02 2.06250E-02 0.00000E+00
 -1       894 2.00000E-02 2.12500E-02 0.00000E+00
 -1       895 2.08333E-02 2.18750E-02 0.00000E+00
 -1       896 2.16667E-02 2.25000E-02 0.00000E+00
 -1       897 2.25000E-02 2.31250E-02 0.00000E+00
 -1       898 2.33333E-02 2.37500E-02 0.00000E+00
 -1       899 2.41667E-02 2.43750E-02 0.00000E+00
 -1       900 2.60417E-02 1.87500E-02 0.00000E+00
 -1       901 2.70833E-02 1.87500E-02 0.00000E+00
 -1       902 2.81250E-02 1.87500E-02 0.00000E+00
 -1       903 2.91667E-02 1.87500E-02 0.00000E+00
 -1       904 3.02083E-02 1.87500E-02 0.00000E+00
 -1       905 3.12500E-02 1.87500E-02 0.00000E+00
 -1       906 3.22917E-02 1.87500E-02 0.00000E+00
 -1       907 2.50000E-02 1.97917E-02 0.00000E+00
 -1       908 2.50000E-02 2.08333E-02 0.00000E+00
 -1       909 2.50000E-02 2.18750E-02 0.00000E+00
 -1       910 2.50000E-02 2.29167E-02 0.00000E+00
 -1       911 2.50000E-02 2.39583E-02 0.00000E+00
 -1       912 2.58333E-02 1.93750E-02 0.00000E+00
 -1       913 2.66667E-02 2.00000E-02 0.00000E+00
 -1       914 2.75000E-02 2.06250E-02 0.00000E+00
 -1       915 2.83333E-02 2.12500E-02 0.00000E+00
 -1       916 2.91667E-02 2.18750E-02 0.00000E+00
 -1       917 3.00000E-02 2.25000E-02 0.00000E+00
 -1       918 3.08333E-02 2.31250E-02 0.00000E+00
 -1       919 3.16667E-02 2.37500E-02 0.00000E+00
 -1       920 3.25000E-02 2.43750E-02 0.00000E+00
 -1       921 3.43750E-02 1.87500E-02 0.00000E+00
 -1       922 3.54167E-02 1.87500E-02 0.00000E+00
 -1       923 3.64583E-02 1.87500E-02 0.00000E+00
 -1       924 3.75000E-02 1.87500E-02 0.00000E+00
 -1       925 3.85417E-02 1.87500E-02 0.00000E+00
 -1       926 3.95833E-02 1.87500E-02 0.00000E+00
 -1       927 4.06250E-02 1.87500E-02 0.00000E+00
 -1       928 3.33333E-02 1.97917E-02 0.00000E+00
 -1       929 3.33333E-02 2.08333E-02 0.00000E+00
 -1       930 3.33333E-02 2.18750E-02 0.00000E+00
 -1       931 3.33333E-02 2.29167E-02 0.00000E+00
 -1       932 3.33333E-02 2.39583E-02 0.00000E+00
 -1       933 3.41667E-02 1.93750E-02 0.00000E+00
 -1       934 3.50000E-02 2.00000E-02 0.00000E+00
 -1       935 3.58333E-02 2.06250E-02 0.00000E+00
 -1       936 3.66667E-02 2.12500E-02 0.00000E+00
 -1       937 3.75000E-02 2.18750E-02 0.00000E+00
 -1       938 3.83333E-02 2.25000E-02 0.00000E+00
 -1       939 3.91667E-02 2.31250E-02 0.00000E+00
 -1       940 4.00000E-02 2.37500E-02 0.00000E+00
 -1       941 4.08333E-02 2.43750E-02 0.00000E+00
 -1       942 4.27083E-02 1.87500E-02 0.00000E+00
 -1       943 4.37500E-02 1.87500E-02 0.00000E+00
 -1       944 4.47917E-02 1.87500E-02 0.00000E+00
 -1       945 4.58333E-02 1.87500E-02 0.00000E+00
 -1       946 4.68750E-02 1.87500E-02 0.00000E+00
 -1       947 4.79167E-02 1.87500E-02 0.00000E+00
 -1       948 4.89583E-02 1.87500E-02 0.00000E+00
 -1       949 4.16667E-02 1.97917E-02 0.00000E+00
 -1       950 4.16667E-02 2.08333E-02 0.00000E+00
 -1       951 4.16667E-02 2.18750E-02 0.00000E+00
 -1       952 4.16667E-02 2.29167E-02 0.00000E+00
 -1       953 4.16667E-02 2.39583E-02 0.00000E+00
 -1       954 4.25000E-02 1.93750E-02 0.00000E+00
 -1       955 4.33333E-02 2.00000E-02 0.00000E+00
 -1       956 4.41667E-02 2.06250E-02 0.00000E+00
 -1       957 4.50000E-02 2.12500E-02 0.00000E+00
 -1       958 4.58333E-02 2.18750E-02 0.00000E+00
 -1       959 4.66667E-02 2.25000E-02 0.00000E+00
 -1       960 4.75000E-02 2.31250E-02 0.00000E+00
 -1       961 4.83333E-02 2.37500E-02 0.00000E+00
 -1       962 4.91667E-02 2.43750E-02 0.00000E+00
 -1       963 5.10417E-02 1.87500E-02 0.00000E+00
 -1       964 5.20833E-02 1.87500E-02 0.00000E+00
 -1       965 5.31250E-02 1.87500E-02 0.00000E+00
 -1       966 5.41667E-02 1.87500E-02 0.00000E+00
 -1       967 5.52083E-02 1.87500E-02 0.00000E+00
 -1       968 5.62500E-02 1.87500E-02 0.00000E+00
 -1       969 5.72917E-02 1.87500E-02 0.00000E+00
 -1       970 5.00000E-02 1.97917E-02 0.00000E+00
 -1       971 5.00000E-02 2.08333E-02 0.00000E+00
 -1       972 5.00000E-02 2.18750E-02 0.00000E+00
 -1       973 5.00000E-02 2.29167E-02 0.00000E+00
 -1       974 5.00000E-02 2.39583E-02 0.00000E+00
 -1       975 5.08333E-02 1.93750E-02 0.00000E+00
 -1       976 5.16667E-02 2.00000E-02 0.00000E+00
 -1       977 5.25000E-02 2.06250E-02 0.00000E+00
 -1       978 5.33333E-02 2.12500E-02 0.00000E+00
 -1       979 5.41667E-02 2.18750E-02 0.00000E+00
 -1       980 5.50000E-02 2.25000E-02 0.00000E+00
 -1       981 5.58333E-02 2.31250E-02 0.00000E+00
 -1       982 5.66667E-02 2.37500E-02 0.00000E+00
 -1       983 5.75000E-02 2.43750E-02 0.00000E+00
 -1       984 5.93750E-02 1.87500E-02 0.00000E+00
 -1       985 6.04167E-02 1.87500E-02 0.00000E+00
 -1       986 6.14583E-02 1.87500E-02 0.00000E+00
 -1       987 6.25000E-02 1.87500E-02 0.00000E+00
 -1       988 6.35417E-02 1.87500E-02 0.00000E+00
 -1       989 6.45833E-02 1.87500E-02 0.00000E+00
 -1       990 6.56250E-02 1.87500E-02 0.00000E+00
 -1       991 5.83333E-02 1.97917E-02 0.00000E+00
 -1       992 5.83333E-02 2.08333E-02 0.00000E+00
 -1       993 5.83333E-02 2.18750E-02 0.00000E+00
 -1       994 5.83333E-02 2.29167E-02 0.00000E+00
 -1       995 5.83333E-02 2.39583E-02 0.00000E+00
 -1       996 5.91667E-02 1.93750E-02 0.00000E+00
 -1       997 6.00000E-02 2.00000E-02 0.00000E+00
 -1       998 6.08333E-02 2.06250E-02 0.00000E+00
 -1       999 6.16667E-02 2.12500E-02 0.00000E+00
 -1      1000 6.25000E-02 2.18750E-02 0.00000E+00
 -1      1001 6.33333E-02 2.25000E-02 0.00000E+00
 -1      1002 6.41667E-02 2.31250E-02 0.00000E+00
 -1      1003 6.50000E-02 2.37500E-02 0.00000E+00
 -1      1004 6.58333E-02 2.43750E-02 0.00000E+00
 -1      1005 6.77083E-02 1.87500E-02 0.00000E+00
 -1      1006 6.87500E-02 1.87500E-02 0.00000E+00
 -1      1007 6.97917E-02 1.87500E-02 0.00000E+00
 -1      1008 7.08333E-02 1.87500E-02 0.00000E+00
 -1      1009 7.18750E-02 1.87500E-02 0.00000E+00
 -1      1010 7.29167E-02 1.87500E-02 0.00000E+00
 -1      1011 7.39583E-02 1.87500E-02 0.00000E+00
 -1      1012 6.66667E-02 1.97917E-02 0.00000E+00
 -1      1013 6.66667E-02 2.08333E-02 0.00000E+00
 -1      1014 6.66667E-02 2.18750E-02 0.00000E+00
 -1      1015 6.66667E-02 2.29167E-02 0.00000E+00
 -1      1016 6.66667E-02 2.39583E-02 0.00000E+00
 -1      1017 6.75000E-02 1.93750E-02 0.00000E+00
 -1      1018 6.83333E-02 2.00000E-02 0.00000E+00
 -1      1019 6.91667E-02 2.06250E-02 0.00000E+00
 -1      1020 7.00000E-02 2.12500E-02 0.00000E+00
 -1      1021 7.08333E-02 2.18750E-02 0.00000E+00
 -1      1022 7.16667E-02 2.25000E-02 0.00000E+00
 -1      1023 7.25000E-02 2.31250E-02 0.00000E+00
 -1      1024 7.33333E-02 2.37500E-02 0.00000E+00
 -1      1025 7.41667E-02 2.43750E-02 0.00000E+00
 -1      1026 7.60417E-02 1.87500E-02 0.00000E+00
 -1      1027 7.70833E-02 1.87500E-02 0.00000E+00
 -1      1028 7.81250E-02 1.87500E-02 0.00000E+00
 -1      1029 7.91667E-02 1.87500E-02 0.00000E+00
 -1      1030 8.02083E-02 1.87500E-02 0.00000E+00
 -1      1031 8.12500E-02 1.87500E-02 0.00000E+00
 -1      1032 8.22917E-02 1.87500E-02 0.00000E+00
 -1      1033 7.50000E-02 1.97917E-02 0.00000E+00
 -1      1034 7.50000E-02 2.08333E-02 0.00000E+00
 -1      1035 7.50000E-02 2.18750E-02 0.00000E+00
 -1      1036 7.50000E-02 2.29167E-02 0.00000E+00
 -1      1037 7.50000E-02 2.39583E-02 0.00000E+00
 -1      1038 7.58333E-02 1.93750E-02 0.00000E+00
 -1      1039 7.66667E-02 2.00000E-02 0.00000E+00
 -1      1040 7.75000E-02 2.06250E-02 0.00000E+00
 -1      1041 7.83333E-02 2.12500E-02 0.00000E+00
 -1      1042 7.91667E-02 2.18750E-02 0.00000E+00
 -1      1043 8.00000E-02 2.25000E-02 0.00000E+00
 -1      1044 8.08333E-02 2.31250E-02 0.00000E+00
 -1      1045 8.16667E-02 2.37500E-02 0.00000E+00
 -1      1046 8.25000E-02 2.43750E-02 0.00000E+00
 -1      1047 8.43750E-02 1.87500E-02 0.00000E+00
 -1      1048 8.54167E-02 1.87500E-02 0.00000E+00
 -1      1049 8.64583E-02 1.87500E-02 0.00000E+00
 -1      1050 8.75000E-02 1.87500E-02 0.00000E+00
 -1      1051 8.85417E-02 1.87500E-02 0.00000E+00
 -1      1052 8.95833E-02 1.87500E-02 0.00000E+00
 -1      1053 9.06250E-02 1.87500E-02 0.00000E+00
 -1      1054 8.33333E-02 1.97917E-02 0.00000E+00
 -1      1055 8.33333E-02 2.08333E-02 0.00000E+00
 -1      1056 8.33333E-02 2.18750E-02 0.00000E+00
 -1      1057 8.33333E-02 2.29167E-02 0.00000E+00
 -1      1058 8.33333E-02 2.39583E-02 0.00000E+00
 -1      1059 8.41667E-02 1.93750E-02 0.00000E+00
 -1      1060 8.50000E-02 2.00000E-02 0.00000E+00
 -1      1061 8.58333E-02 2.06250E-02 0.00000E+00
 -1      1062 8.66667E-02 2.12500E-02 0.00000E+00
 -1      1063 8.75000E-02 2.18750E-02 0.00000E+00
 -1      1064 8.83333E-02 2.25000E-02 0.00000E+00
 -1      1065 8.91667E-02 2.31250E-02 0.00000E+00
 -1      1066 9.00000E-02 2.37500E-02 0.00000E+00
 -1      1067 9.08333E-02 2.43750E-02 0.00000E+00
 -1      1068 9.27083E-02 1.87500E-02 0.00000E+00
 -1      1069 9.37500E-02 1.87500E-02 0.00000E+00
 -1      1070 9.47917E-02 1.87500E-02 0.00000E+00
 -1      1071 9.58333E-02 1.87500E-02 0.00000E+00
 -1      1072 9.68750E-02 1.87500E-02 0.00000E+00
 -1      1073 9.79167E-02 1.87500E-02 0.00000E+00
 -1      1074 9.89583E-02 1.87500E-02 0.00000E+00
 -1      1075 9.16667E-02 1.97917E-02 0.00000E+00
 -1      1076 9.16667E-02 2.08333E-02 0.00000E+00
 -1      1077 9.16667E-02 2.18750E-02 0.00000E+00
 -1      1078 9.16667E-02 2.29167E-02 0.00000E+00
 -1      1079 9.16667E-02 2.39583E-02 0.00000E+00
 -1      1080 9.25000E-02 1.93750E-02 0.00000E+00
 -1      1081 9.33333E-02 2.00000E-02 0.00000E+00
 -1      1082 9.41667E-02 2.06250E-02 0.00000E+00
 -1      1083 9.50000E-02 2.12500E-02 0.00000E+00
 -1      1084 9.58333E-02 2.18750E-02 0.00000E+00
 -1      1085 9.66667E-02 2.25000E-02 0.00000E+00
 -1      1086 9.75000E-02 2.31250E-02 0.00000E+00
 -1      1087 9.83333E-02 2.37500E-02 0.00000E+00
 -1      1088 9.91667E-02 2.43750E-02 0.00000E+00
 -1      1089 1.00000E-01 1.97917E-02 0.00000E+00
 -1      1090 1.00000E-01 2.08333E-02 0.00000E+00
 -1      1091 1.00000E-01 2.18750E-02 0.00000E+00
 -1      1092 1.00000E-01 2.29167E-02 0.00000E+00
 -1      1093 1.00000E-01 2.39583E-02 0.00000E+00
 -1      1094 1.04167E-03 2.50000E-02 0.00000E+00
 -1      1095 2.08333E-03 2.50000E-02 0.00000E+00
 -1      1096 3.12500E-03 2.50000E-02 0.00000E+00
 -1      1097 4.16667E-03 2.50000E-02 0.00000E+00
 -1      1098 5.20833E-03 2.50000E-02 0.00000E+00
 -1      1099 6.25000E-03 2.50000E-02 0.00000E+00
 -1      1100 7.29167E-03 2.50000E-02 0.00000E+00
 -1      1101 9.37500E-03 2.50000E-02 0.00000E+00
 -1      1102 1.04167E-02 2.50000E-02 0.00000E+00
 -1      1103 1.14583E-02 2.50000E-02 0.00000E+00
 -1      1104 1.25000E-02 2.50000E-02 0.00000E+00
 -1      1105 1.35417E-02 2.50000E-02 0.00000E+00
 -1      1106 1.45833E-02 2.50000E-02 0.00000E+00
 -1      1107 1.56250E-02 2.50000E-02 0.00000E+00
 -1      1108 1.77083E-02 2.50000E-02 0.00000E+00
 -1      1109 1.87500E-02 2.50000E-02 0.00000E+00
 -1      1110 1.97917E-02 2.50000E-02 0.00000E+00
 -1      1111 2.08333E-02 2.50000E-02 0.00000E+00
 -1      1112 2.18750E-02 2.50000E-02 0.00000E+00
 -1      1113 2.29167E-02 2.50000E-02 0.00000E+00
 -1      1114 2.39583E-02 2.50000E-02 0.00000E+00
 -1      1115 2.60417E-02 2.50000E-02 0.00000E+00
 -1      1116 2.70833E-02 2.50000E-02 0.00000E+00
 -1      1117 2.81250E-02 2.50000E-02 0.00000E+00
 -1      1118 2.91667E-02 2.50000E-02 0.00000E+00
 -1      1119 3.02083E-02 2.50000E-02 0.00000E+00
 -1      1120 3.12500E-02 2.50000E-02 0.00000E+00
 -1      1121 3.22917E-02 2.50000E-02 0.00000E+00
 -1      1122 3.43750E-02 2.50000E-02 0.00000E+00
 -1      1123 3.54167E-02 2.50000E-02 0.00000E+00
 -1      1124 3.64583E-02 2.50000E-02 0.00000E+00
 -1      1125 3.75000E-02 2.50000E-02 0.00000E+00
 -1      1126 3.85417E-02 2.50000E-02 0.00000E+00
 -1      1127 3.95833E-02 2.50000E-02 0.00000E+00
 -1      1128 4.06250E-02 2.50000E-02 0.00000E+00
 -1      1129 4.27083E-02 2.50000E-02 0.00000E+00
 -1      1130 4.37500E-02 2.50000E-02 0.00000E+00
 -1      1131 4.47917E-02 2.50000E-02 0.00000E+00
 -1      1132 4.58333E-02 2.50000E-02 0.00000E+00
 -1      1133 4.68750E-02 2.50000E-02 0.00000E+00
 -1      1134 4.79167E-02 2.50000E-02 0.00000E+00
 -1      1135 4.89583E-02 2.50000E-02 0.00000E+00
 -1      1136 5.10417E-02 2.50000E-02 0.00000E+00
 -1      1137 5.20833E-02 2.50000E-02 0.00000E+00
 -1      1138 5.31250E-02 2.50000E-02 0.00000E+00
 -1      1139 5.41667E-02 2.50000E-02 0.00000E+00
 -1      1140 5.52083E-02 2.50000E-02 0.00000E+00
 -1      1141 5.62500E-02 2.50000E-02 0.00000E+00
 -1      1142 5.72917E-02 2.50000E-02 0.00000E+00
 -1      1143 5.93750E-02 2.50000E-02 0.00000E+00
 -1      1144 6.04167E-02 2.50000E-02 0.00000E+00
 -1      1145 6.14583E-02 2.50000E-02 0.00000E+00
 -1      1146 6.25000E-02 2.50000E-02 0.00000E+00
 -1      1147 6.35417E-02 2.50000E-02 0.00000E+00
 -1      1148 6.45833E-02 2.50000E-02 0.00000E+00
 -1      1149 6.56250E-02 2.50000E-02 0.00000E+00
 -1      1150 6.77083E-02 2.50000E-02 0.00000E+00
 -1      1151 6.87500E-02 2.50000E-02 0.00000E+00
 -1      1152 6.97917E-02 2.50000E-02 0.00000E+00
 -1      1153 7.08333E-02 2.50000E-02 0.00000E+00
 -1      1154 7.18750E-02 2.50000E-02 0.00000E+00
 -1      1155 7.29167E-02 2.50000E-02 0.00000E+00
 -1      1156 7.39583E-02 2.50000E-02 0.00000E+00
 -1      1157 7.60417E-02 2.50000E-02 0.00000E+00
 -1      1158 7.70833E-02 2.50000E-02 0.00000E+00
 -1      1159 7.81250E-02 2.50000E-02 0.00000E+00
 -1      1160 7.91667E-02 2.50000E-02 0.00000E+00
 -1      1161 8.02083E-02 2.50000E-02 0.00000E+00
 -1      1162 8.12500E-02 2.50000E-02 0.00000E+00
 -1      1163 8.22917E-02 2.50000E-02 0.00000E+00
 -1      1164 8.43750E-02 2.50000E-02 0.00000E+00
 -1      1165 8.54167E-02 2.50000E-02 0.00000E+00
 -1      1166 8.64583E-02 2.50000E-02 0.00000E+00
 -1      1167 8.75000E-02 2.50000E-02 0.00000E+00
 -1      1168 8.85417E-02 2.50000E-02 0.00000E+00
 -1      1169 8.95833E-02 2.50000E-02 0.00000E+00
 -1      1170 9.06250E-02 2.50000E-02 0.00000E+00
 -1      1171 9.27083E-02 2.50000E-02 0.00000E+00
 -1      1172 9.37500E-02 2.50000E-02 0.00000E+00
 -1      1173 9.47917E-02 2.50000E-02 0.00000E+00
 -1      1174 9.58333E-02 2.50000E-02 0.00000E+00
 -1      1175 9.68750E-02 2.50000E-02 0.00000E+00
 -1      1176 9.79167E-02 2.50000E-02 0.00000E+00
 -1      1177 9.89583E-02 2.50000E-02 0.00000E+00
 -3
    3C                           540                                     1
 -1         1   12    0    1
 -2         1        67        66
 -1         2   12    0    1
 -2        67        69        68
 -1         3   12    0    1
 -2        69        71        70
 -1         4   12    0    1
 -2        71         2        72
 -1         5   12    0    1
 -2         1        74        73
 -1         6   12    0    1
 -2        74        76        75
 -1         7   12    0    1
 -2        76        14        77
 -1         8   12    0    1
 -2         1        79        78
 -1         9   12    0    1
 -2        79        81        80
 -1        10   12    0    1
 -2        81        83        82
 -1        11   12    0    1
 -2        83        85        84
 -1        12   12    0    1
 -2        85        15        86
 -1        13   12    0    1
 -2         2        88        87
 -1        14   12    0    1
 -2        88        90        89
 -1        15   12    0    1
 -2        90        92        91
 -1        16   12    0    1
 -2        92         3        93
 -1        17   12    0    1
 -2         2        95        94
 -1        18   12    0    1
 -2        95        97        96
 -1        19   12    0    1
 -2        97        15        98
 -1        20   12    0    1
 -2         2       100        99
 -1        21   12    0    1
 -2       100       102       101
 -1        22   12    0    1
 -2       102       104       103
 -1        23   12    0    1
 -2       104       106       105
 -1        24   12    0    1
 -2       106        16       107
 -1        25   12    0    1
 -2         3       109       108
 -1        26   12    0    1
 -2       109       111       110
 -1        27   12    0    1
 -2       111       113       112
 -1        28   12    0    1
 -2       113         4       114
 -1        29   12    0    1
 -2         3       116       115
 -1        30   12    0    1
 -2       116       118       117
 -1        31   12    0    1
 -2       118        16       119
 -1        32   12    0    1
 -2         3       121       120
 -1        33   12    0    1
 -2       121       123       122
 -1        34   12    0    1
 -2       123       125       124
 -1        35   12    0    1
 -2       125       127       126
 -1        36   12    0    1
 -2       127        17       128
 -1        37   12    0    1
 -2         4       130       129
 -1        38   12    0    1
 -2       130       132       131
 -1        39   12    0    1
 -2       132       134       133
 -1        40   12    0    1
 -2       134         5       135
 -1        41   12    0    1
 -2         4       137       136
 -1        42   12    0    1
 -2       137       139       138
 -1        43   12    0    1
 -2       139        17       140
 -1        44   12    0    1
 -2         4       142       141
 -1        45   12    0    1
 -2       142       144       143
 -1        46   12    0    1
 -2       144       146       145
 -1        47   12    0    1
 -2       146       148       147
 -1        48   12    0    1
 -2       148        18       149
 -1        49   12    0    1
 -2         5       151       150
 -1        50   12    0    1
 -2       151       153       152
 -1        51   12    0    1
 -2       153       155       154
 -1        52   12    0    1
 -2       155         6       156
 -1        53   12    0    1
 -2         5       158       157
 -1        54   12    0    1
 -2       158       160       159
 -1        55   12    0    1
 -2       160        18       161
 -1        56   12    0    1
 -2         5       163       162
 -1        57   12    0    1
 -2       163       165       164
 -1        58   12    0    1
 -2       165       167       166
 -1        59   12    0    1
 -2       167       169       168
 -1        60   12    0    1
 -2       169        19       170
 -1        61   12    0    1
 -2         6       172       171
 -1        62   12    0    1
 -2       172       174       173
 -1        63   12    0    1
 -2       174       176       175
 -1        64   12    0    1
 -2       176         7       177
 -1        65   12    0    1
 -2         6       179       178
 -1        66   12    0    1
 -2       179       181       180
 -1        67   12    0    1
 -2       181        19       182
 -1        68   12    0    1
 -2         6       184       183
 -1        69   12    0    1
 -2       184       186       185
 -1        70   12    0    1
 -2       186       188       187
 -1        71   12    0    1
 -2       188       190       189
 -1        72   12    0    1
 -2       190        20       191
 -1        73   12    0    1
 -2         7       193       192
 -1        74   12    0    1
 -2       193       195       194
 -1        75   12    0    1
 -2       195       197       196
 -1        76   12    0    1
 -2       197         8       198
 -1        77   12    0    1
 -2         7       200       199
 -1        78   12    0    1
 -2       200       202       201
 -1        79   12    0    1
 -2       202        20       203
 -1        80   12    0    1
 -2         7       205       204
 -1        81   12    0    1
 -2       205       207       206
 -1        82   12    0    1
 -2       207       209       208
 -1        83   12    0    1
 -2       209       211       210
 -1        84   12    0    1
 -2       211        21       212
 -1        85   12    0    1
 -2         8       214       213
 -1        86   12    0    1
 -2       214       216       215
 -1        87   12    0    1
 -2       216       218       217
 -1        88   12    0    1
 -2       218         9       219
 -1        89   12    0    1
 -2         8       221       220
 -1        90   12    0    1
 -2       221       223       222
 -1        91   12    0    1
 -2       223        21       224
 -1        92   12    0    1
 -2         8       226       225
 -1        93   12    0    1
 -2       226       228       227
 -1        94   12    0    1
 -2       228       230       229
 -1        95   12    0    1
 -2       230       232       231
 -1        96   12    0    1
 -2       232        22       233
 -1        97   12    0    1
 -2         9       242       241
 -1        98   12    0    1
 -2       242       244       243
 -1        99   12    0    1
 -2       244        22       245
 -1       100   12    0    1
 -2        14       324       323
 -1       101   12    0    1
 -2       324       326       325
 -1       102   12    0    1
 -2       326       328       327
 -1       103   12    0    1
 -2       328        15       329
 -1       104   12    0    1
 -2        14       331       330
 -1       105   12    0    1
 -2       331       333       332
 -1       106   12    0    1
 -2       333        27       334
 -1       107   12    0    1
 -2        14       336       335
 -1       108   12    0    1
 -2       336       338       337
 -1       109   12    0    1
 -2       338       340       339
 -1       110   12    0    1
 -2       340       342       341
 -1       111   12    0    1
 -2       342        28       343
 -1       112   12    0    1
 -2        15       345       344
 -1       113   12    0    1
 -2       345       347       346
 -1       114   12    0    1
 -2       347       349       348
 -1       115   12    0    1
 -2       349        16       350
 -1       116   12    0    1
 -2        15       352       351
 -1       117   12    0    1
 -2       352       354       353
 -1       118   12    0    1
 -2       354        28       355
 -1       119   12    0    1
 -2        15       357       356
 -1       120   12    0    1
 -2       357       359       358
 -1       121   12    0    1
 -2       359       361       360
 -1       122   12    0    1
 -2       361       363       362
 -1       123   12    0    1
 -2       363        29       364
 -1       124   12    0    1
 -2        16       366       365
 -1       125   12    0    1
 -2       366       368       367
 -1       126   12    0    1
 -2       368       370       369
 -1       127   12    0    1
 -2       370        17       371
 -1       128   12    0    1
 -2        16       373       372
 -1       129   12    0    1
 -2       373       375       374
 -1       130   12    0    1
 -2       375        29       376
 -1       131   12    0    1
 -2        16       378       377
 -1       132   12    0    1
 -2       378       380       379
 -1       133   12    0    1
 -2       380       382       381
 -1       134   12    0    1
 -2       382       384       383
 -1       135   12    0    1
 -2       384        30       385
 -1       136   12    0    1
 -2        17       387       386
 -1       137   12    0    1
 -2       387       389       388
 -1       138   12    0    1
 -2       389       391       390
 -1       139   12    0    1
 -2       391        18       392
 -1       140   12    0    1
 -2        17       394       393
 -1       141   12    0    1
 -2       394       396       395
 -1       142   12    0    1
 -2       396        30       397
 -1       143   12    0    1
 -2        17       399       398
 -1       144   12    0    1
 -2       399       401       400
 -1       145   12    0    1
 -2       401       403       402
 -1       146   12    0    1
 -2       403       405       404
 -1       147   12    0    1
 -2       405        31       406
 -1       148   12    0    1
 -2        18       408       407
 -1       149   12    0    1
 -2       408       410       409
 -1       150   12    0    1
 -2       410       412       411
 -1       151   12    0    1
 -2       412        19       413
 -1       152   12    0    1
 -2        18       415       414
 -1       153   12    0    1
 -2       415       417       416
 -1       154   12    0    1
 -2       417        31       418
 -1       155   12    0    1
 -2        18       420       419
 -1       156   12    0    1
 -2       420       422       421
 -1       157   12    0    1
 -2       422       424       423
 -1       158   12    0    1
 -2       424       426       425
 -1       159   12    0    1
 -2       426        32       427
 -1       160   12    0    1
 -2        19       429       428
 -1       161   12    0    1
 -2       429       431       430
 -1       162   12    0    1
 -2       431       433       432
 -1       163   12    0    1
 -2       433        20       434
 -1       164   12    0    1
 -2        19       436       435
 -1       165   12    0    1
 -2       436       438       437
 -1       166   12    0    1
 -2       438        32       439
 -1       167   12    0    1
 -2        19       441       440
 -1       168   12    0    1
 -2       441       443       442
 -1       169   12    0    1
 -2       443       445       444
 -1       170   12    0    1
 -2       445       447       446
 -1       171   12    0    1
 -2       447        33       448
 -1       172   12    0    1
 -2        20       450       449
 -1       173   12    0    1
 -2       450       452       451
 -1       174   12    0    1
 -2       452       454       453
 -1       175   12    0    1
 -2       454        21       455
 -1       176   12    0    1
 -2        20       457       456
 -1       177   12    0    1
 -2       457       459       458
 -1       178   12    0    1
 -2       459        33       460
 -1       179   12    0    1
 -2        20       462       461
 -1       180   12    0    1
 -2       462       464       463
 -1       181   12    0    1
 -2       464       466       465
 -1       182   12    0    1
 -2       466       468       467
 -1       183   12    0    1
 -2       468        34       469
 -1       184   12    0    1
 -2        21       471       470
 -1       185   12    0    1
 -2       471       473       472
 -1       186   12    0    1
 -2       473       475       474
 -1       187   12    0    1
 -2       475        22       476
 -1       188   12    0    1
 -2        21       478       477
 -1       189   12    0    1
 -2       478       480       479
 -1       190   12    0    1
 -2       480        34       481
 -1       191   12    0    1
 -2        21       483       482
 -1       192   12    0    1
 -2       483       485       484
 -1       193   12    0    1
 -2       485       487       486
 -1       194   12    0    1
 -2       487       489       488
 -1       195   12    0    1
 -2       489        35       490
 -1       196   12    0    1
 -2        22       499       498
 -1       197   12    0    1
 -2       499       501       500
 -1       198   12    0    1
 -2       501        35       502
 -1       199   12    0    1
 -2        27       581       580
 -1       200   12    0    1
 -2       581       583       582
 -1       201   12    0    1
 -2       583       585       584
 -1       202   12    0    1
 -2       585        28       586
 -1       203   12    0    1
 -2        27       588       587
 -1       204   12    0    1
 -2       588       590       589
 -1       205   12    0    1
 -2       590        40       591
 -1       206   12    0    1
 -2        27       593       592
 -1       207   12    0    1
 -2       593       595       594
 -1       208   12    0    1
 -2       595       597       596
 -1       209   12    0    1
 -2       597       599       598
 -1       210   12    0    1
 -2       599        41       600
 -1       211   12    0    1
 -2        28       602       601
 -1       212   12    0    1
 -2       602       604       603
 -1       213   12    0    1
 -2       604       606       605
 -1       214   12    0    1
 -2       606        29       607
 -1       215   12    0    1
 -2        28       609       608
 -1       216   12    0    1
 -2       609       611       610
 -1       217   12    0    1
 -2       611        41       612
 -1       218   12    0    1
 -2        28       614       613
 -1       219   12    0    1
 -2       614       616       615
 -1       220   12    0    1
 -2       616       618       617
 -1       221   12    0    1
 -2       618       620       619
 -1       222   12    0    1
 -2       620        42       621
 -1       223   12    0    1
 -2        29       623       622
 -1       224   12    0    1
 -2       623       625       624
 -1       225   12    0    1
 -2       625       627       626
 -1       226   12    0    1
 -2       627        30       628
 -1       227   12    0    1
 -2        29       630       629
 -1       228   12    0    1
 -2       630       632       631
 -1       229   12    0    1
 -2       632        42       633
 -1       230   12    0    1
 -2        29       635       634
 -1       231   12    0    1
 -2       635       637       636
 -1       232   12    0    1
 -2       637       639       638
 -1       233   12    0    1
 -2       639       641       640
 -1       234   12    0    1
 -2       641        43       642
 -1       235   12    0    1
 -2        30       644       643
 -1       236   12    0    1
 -2       644       646       645
 -1       237   12    0    1
 -2       646       648       647
 -1       238   12    0    1
 -2       648        31       649
 -1       239   12    0    1
 -2        30       651       650
 -1       240   12    0    1
 -2       651       653       652
 -1       241   12    0    1
 -2       653        43       654
 -1       242   12    0    1
 -2        30       656       655
 -1       243   12    0    1
 -2       656       658       657
 -1       244   12    0    1
 -2       658       660       659
 -1       245   12    0    1
 -2       660       662       661
 -1       246   12    0    1
 -2       662        44       663
 -1       247   12    0    1
 -2        31       665       664
 -1       248   12    0    1
 -2       665       667       666
 -1       249   12    0    1
 -2       667       669       668
 -1       250   12    0    1
 -2       669        32       670
 -1       251   12    0    1
 -2        31       672       671
 -1       252   12    0    1
 -2       672       674       673
 -1       253   12    0    1
 -2       674        44       675
 -1       254   12    0    1
 -2        31       677       676
 -1       255   12    0    1
 -2       677       679       678
 -1       256   12    0    1
 -2       679       681       680
 -1       257   12    0    1
 -2       681       683       682
 -1       258   12    0    1
 -2       683        45       684
 -1       259   12    0    1
 -2        32       686       685
 -1       260   12    0    1
 -2       686       688       687
 -1       261   12    0    1
 -2       688       690       689
 -1       262   12    0    1
 -2       690        33       691
 -1       263   12    0    1
 -2        32       693       692
 -1       264   12    0    1
 -2       693       695       694
 -1       265   12    0    1
 -2       695        45       696
 -1       266   12    0    1
 -2        32       698       697
 -1       267   12    0    1
 -2       698       700       699
 -1       268   12    0    1
 -2       700       702       701
 -1       269   12    0    1
 -2       702       704       703
 -1       270   12    0    1
 -2       704        46       705
 -1       271   12    0    1
 -2        33       707       706
 -1       272   12    0    1
 -2       707       709       708
 -1       273   12    0    1
 -2       709       711       710
 -1       274   12    0    1
 -2       711        34       712
 -1       275   12    0    1
 -2        33       714       713
 -1       276   12    0    1
 -2       714       716       715
 -1       277   12    0    1
 -2       716        46       717
 -1       278   12    0    1
 -2        33       719       718
 -1       279   12    0    1
 -2       719       721       720
 -1       280   12    0    1
 -2       721       723       722
 -1       281   12    0    1
 -2       723       725       724
 -1       282   12    0    1
 -2       725        47       726
 -1       283   12    0    1
 -2        34       728       727
 -1       284   12    0    1
 -2       728       730       729
 -1       285   12    0    1
 -2       730       732       731
 -1       286   12    0    1
 -2       732        35       733
 -1       287   12    0    1
 -2        34       735       734
 -1       288   12    0    1
 -2       735       737       736
 -1       289   12    0    1
 -2       737        47       738
 -1       290   12    0    1
 -2        34       740       739
 -1       291   12    0    1
 -2       740       742       741
 -1       292   12    0    1
 -2       742       744       743
 -1       293   12    0    1
 -2       744       746       745
 -1       294   12    0    1
 -2       746        48       747
 -1       295   12    0    1
 -2        35       749       748
 -1       296   12    0    1
 -2       749       751       750
 -1       297   12    0    1
 -2       751       753       752
 -1       298   12    0    1
 -2       753        36       754
 -1       299   12    0    1
 -2        35       756       755
 -1       300   12    0    1
 -2       756       758       757
 -1       301   12    0    1
 -2       758        48       759
 -1       302   12    0    1
 -2        35       761       760
 -1       303   12    0    1
 -2       761       763       762
 -1       304   12    0    1
 -2       763       765       764
 -1       305   12    0    1
 -2       765       767       766
 -1       306   12    0    1
 -2       767        49       768
 -1       307   12    0    1
 -2        36       770       769
 -1       308   12    0    1
 -2       770       772       771
 -1       309   12    0    1
 -2       772       774       773
 -1       310   12    0    1
 -2       774        37       775
 -1       311   12    0    1
 -2        36       777       776
 -1       312   12    0    1
 -2       777       779       778
 -1       313   12    0    1
 -2       779        49       780
 -1       314   12    0    1
 -2        36       782       781
 -1       315   12    0    1
 -2       782       784       783
 -1       316   12    0    1
 -2       784       786       785
 -1       317   12    0    1
 -2       786       788       787
 -1       318   12    0    1
 -2       788        50       789
 -1       319   12    0    1
 -2        37       791       790
 -1       320   12    0    1
 -2       791       793       792
 -1       321   12    0    1
 -2       793       795       794
 -1       322   12    0    1
 -2       795        38       796
 -1       323   12    0    1
 -2        37       798       797
 -1       324   12    0    1
 -2       798       800       799
 -1       325   12    0    1
 -2       800        50       801
 -1       326   12    0    1
 -2        37       803       802
 -1       327   12    0    1
 -2       803       805       804
 -1       328   12    0    1
 -2       805       807       806
 -1       329   12    0    1
 -2       807       809       808
 -1       330   12    0    1
 -2       809        51       810
 -1       331   12    0    1
 -2        38       812       811
 -1       332   12    0    1
 -2       812       814       813
 -1       333   12    0    1
 -2       814       816       815
 -1       334   12    0    1
 -2       816        39       817
 -1       335   12    0    1
 -2        38       819       818
 -1       336   12    0    1
 -2       819       821       820
 -1       337   12    0    1
 -2       821        51       822
 -1       338   12    0    1
 -2        38       824       823
 -1       339   12    0    1
 -2       824       826       825
 -1       340   12    0    1
 -2       826       828       827
 -1       341   12    0    1
 -2       828       830       829
 -1       342   12    0    1
 -2       830        52       831
 -1       343   12    0    1
 -2        39       833       832
 -1       344   12    0    1
 -2       833       835       834
 -1       345   12    0    1
 -2       835        52       836
 -1       346   12    0    1
 -2        40       838       837
 -1       347   12    0    1
 -2       838       840       839
 -1       348   12    0    1
 -2       840       842       841
 -1       349   12    0    1
 -2       842        41       843
 -1       350   12    0    1
 -2        40       845       844
 -1       351   12    0    1
 -2       845       847       846
 -1       352   12    0    1
 -2       847        53       848
 -1       353   12    0    1
 -2        40       850       849
 -1       354   12    0    1
 -2       850       852       851
 -1       355   12    0    1
 -2       852       854       853
 -1       356   12    0    1
 -2       854       856       855
 -1       357   12    0    1
 -2       856        54       857
 -1       358   12    0    1
 -2        41       859       858
 -1       359   12    0    1
 -2       859       861       860
 -1       360   12    0    1
 -2       861       863       862
 -1       361   12    0    1
 -2       863        42       864
 -1       362   12    0    1
 -2        41       866       865
 -1       363   12    0    1
 -2       866       868       867
 -1       364   12    0    1
 -2       868        54       869
 -1       365   12    0    1
 -2        41       871       870
 -1       366   12    0    1
 -2       871       873       872
 -1       367   12    0    1
 -2       873       875       874
 -1       368   12    0    1
 -2       875       877       876
 -1       369   12    0    1
 -2       877        55       878
 -1       370   12    0    1
 -2        42       880       879
 -1       371   12    0    1
 -2       880       882       881
 -1       372   12    0    1
 -2       882       884       883
 -1       373   12    0    1
 -2       884        43       885
 -1       374   12    0    1
 -2        42       887       886
 -1       375   12    0    1
 -2       887       889       888
 -1       376   12    0    1
 -2       889        55       890
 -1       377   12    0    1
 -2        42       892       891
 -1       378   12    0    1
 -2       892       894       893
 -1       379   12    0    1
 -2       894       896       895
 -1       380   12    0    1
 -2       896       898       897
 -1       381   12    0    1
 -2       898        56       899
 -1       382   12    0    1
 -2        43       901       900
 -1       383   12    0    1
 -2       901       903       902
 -1       384   12    0    1
 -2       903       905       904
 -1       385   12    0    1
 -2       905        44       906
 -1       386   12    0    1
 -2        43       908       907
 -1       387   12    0    1
 -2       908       910       909
 -1       388   12    0    1
 -2       910        56       911
 -1       389   12    0    1
 -2        43       913       912
 -1       390   12    0    1
 -2       913       915       914
 -1       391   12    0    1
 -2       915       917       916
 -1       392   12    0    1
 -2       917       919       918
 -1       393   12    0    1
 -2       919        57       920
 -1       394   12    0    1
 -2        44       922       921
 -1       395   12    0    1
 -2       922       924       923
 -1       396   12    0    1
 -2       924       926       925
 -1       397   12    0    1
 -2       926        45       927
 -1       398   12    0    1
 -2        44       929       928
 -1       399   12    0    1
 -2       929       931       930
 -1       400   12    0    1
 -2       931        57       932
 -1       401   12    0    1
 -2        44       934       933
 -1       402   12    0    1
 -2       934       936       935
 -1       403   12    0    1
 -2       936       938       937
 -1       404   12    0    1
 -2       938       940       939
 -1       405   12    0    1
 -2       940        58       941
 -1       406   12    0    1
 -2        45       943       942
 -1       407   12    0    1
 -2       943       945       944
 -1       408   12    0    1
 -2       945       947       946
 -1       409   12    0    1
 -2       947        46       948
 -1       410   12    0    1
 -2        45       950       949
 -1       411   12    0    1
 -2       950       952       951
 -1       412   12    0    1
 -2       952        58       953
 -1       413   12    0    1
 -2        45       955       954
 -1       414   12    0    1
 -2       955       957       956
 -1       415   12    0    1
 -2       957       959       958
 -1       416   12    0    1
 -2       959       961       960
 -1       417   12    0    1
 -2       961        59       962
 -1       418   12    0    1
 -2        46       964       963
 -1       419   12    0    1
 -2       964       966       965
 -1       420   12    0    1
 -2       966       968       967
 -1       421   12    0    1
 -2       968        47       969
 -1       422   12    0    1
 -2        46       971       970
 -1       423   12    0    1
 -2       971       973       972
 -1       424   12    0    1
 -2       973        59       974
 -1       425   12    0    1
 -2        46       976       975
 -1       426   12    0    1
 -2       976       978       977
 -1       427   12    0    1
 -2       978       980       979
 -1       428   12    0    1
 -2       980       982       981
 -1       429   12    0    1
 -2       982        60       983
 -1       430   12    0    1
 -2        47       985       984
 -1       431   12    0    1
 -2       985       987       986
 -1       432   12    0    1
 -2       987       989       988
 -1       433   12    0    1
 -2       989        48       990
 -1       434   12    0    1
 -2        47       992       991
 -1       435   12    0    1
 -2       992       994       993
 -1       436   12    0    1
 -2       994        60       995
 -1       437   12    0    1
 -2        47       997       996
 -1       438   12    0    1
 -2       997       999       998
 -1       439   12    0    1
 -2       999      1001      1000
 -1       440   12    0    1
 -2      1001      1003      1002
 -1       441   12    0    1
 -2      1003        61      1004
 -1       442   12    0    1
 -2        48      1006      1005
 -1       443   12    0    1
 -2      1006      1008      1007
 -1       444   12    0    1
 -2      1008      1010      1009
 -1       445   12    0    1
 -2      1010        49      1011
 -1       446   12    0    1
 -2        48      1013      1012
 -1       447   12    0    1
 -2      1013      1015      1014
 -1       448   12    0    1
 -2      1015        61      1016
 -1       449   12    0    1
 -2        48      1018      1017
 -1       450   12    0    1
 -2      1018      1020      1019
 -1       451   12    0    1
 -2      1020      1022      1021
 -1       452   12    0    1
 -2      1022      1024      1023
 -1       453   12    0    1
 -2      1024        62      1025
 -1       454   12    0    1
 -2        49      1027      1026
 -1       455   12    0    1
 -2      1027      1029      1028
 -1       456   12    0    1
 -2      1029      1031      1030
 -1       457   12    0    1
 -2      1031        50      1032
 -1       458   12    0    1
 -2        49      1034      1033
 -1       459   12    0    1
 -2      1034      1036      1035
 -1       460   12    0    1
 -2      1036        62      1037
 -1       461   12    0    1
 -2        49      1039      1038
 -1       462   12    0    1
 -2      1039      1041      1040
 -1       463   12    0    1
 -2      1041      1043      1042
 -1       464   12    0    1
 -2      1043      1045      1044
 -1       465   12    0    1
 -2      1045        63      1046
 -1       466   12    0    1
 -2        50      1048      1047
 -1       467   12    0    1
 -2      1048      1050      1049
 -1       468   12    0    1
 -2      1050      1052      1051
 -1       469   12    0    1
 -2      1052        51      1053
 -1       470   12    0    1
 -2        50      1055      1054
 -1       471   12    0    1
 -2      1055      1057      1056
 -1       472   12    0    1
 -2      1057        63      1058
 -1       473   12    0    1
 -2        50      1060      1059
 -1       474   12    0    1
 -2      1060      1062      1061
 -1       475   12    0    1
 -2      1062      1064      1063
 -1       476   12    0    1
 -2      1064      1066      1065
 -1       477   12    0    1
 -2      1066        64      1067
 -1       478   12    0    1
 -2        51      1069      1068
 -1       479   12    0    1
 -2      1069      1071      1070
 -1       480   12    0    1
 -2      1071      1073      1072
 -1       481   12    0    1
 -2      1073        52      1074
 -1       482   12    0    1
 -2        51      1076      1075
 -1       483   12    0    1
 -2      1076      1078      1077
 -1       484   12    0    1
 -2      1078        64      1079
 -1       485   12    0    1
 -2        51      1081      1080
 -1       486   12    0    1
 -2      1081      1083      1082
 -1       487   12    0    1
 -2      1083      1085      1084
 -1       488   12    0    1
 -2      1085      1087      1086
 -1       489   12    0    1
 -2      1087        65      1088
 -1       490   12    0    1
 -2        52      1090      1089
 -1       491   12    0    1
 -2      1090      1092      1091
 -1       492   12    0    1
 -2      1092        65      1093
 -1       493   12    0    1
 -2        53      1095      1094
 -1       494   12    0    1
 -2      1095      1097      1096
 -1       495   12    0    1
 -2      1097      1099      1098
 -1       496   12    0    1
 -2      1099        54      1100
 -1       497   12    0    1
 -2        54      1102      1101
 -1       498   12    0    1
 -2      1102      1104      1103
 -1       499   12    0    1
 -2      1104      1106      1105
 -1       500   12    0    1
 -2      1106        55      1107
 -1       501   12    0    1
 -2        55      1109      1108
 -1       502   12    0    1
 -2      1109      1111      1110
 -1       503   12    0    1
 -2      1111      1113      1112
 -1       504   12    0    1
 -2      1113        56      1114
 -1       505   12    0    1
 -2        56      1116      1115
 -1       506   12    0    1
 -2      1116      1118      1117
 -1       507   12    0    1
 -2      1118      1120      1119
 -1       508   12    0    1
 -2      1120        57      1121
 -1       509   12    0    1
 -2        57      1123      1122
 -1       510   12    0    1
 -2      1123      1125      1124
 -1       511   12    0    1
 -2      1125      1127      1126
 -1       512   12    0    1
 -2      1127        58      1128
 -1       513   12    0    1
 -2        58      1130      1129
 -1       514   12    0    1
 -2      1130      1132      1131
 -1       515   12    0    1
 -2      1132      1134      1133
 -1       516   12    0    1
 -2      1134        59      1135
 -1       517   12    0    1
 -2        59      1137      1136
 -1       518   12    0    1
 -2      1137      1139      1138
 -1       519   12    0    1
 -2      1139      1141      1140
 -1       520   12    0    1
 -2      1141        60      1142
 -1       521   12    0    1
 -2        60      1144      1143
 -1       522   12    0    1
 -2      1144      1146      1145
 -1       523   12    0    1
 -2      1146      1148      1147
 -1       524   12    0    1
 -2      1148        61      1149
 -1       525   12    0    1
 -2        61      1151      1150
 -1       526   12    0    1
 -2      1151      1153      1152
 -1       527   12    0    1
 -2      1153      1155      1154
 -1       528   12    0    1
 -2      1155        62      1156
 -1       529   12    0    1
 -2        62      1158      1157
 -1       530   12    0    1
 -2      1158      1160      1159
 -1       531   12    0    1
 -2      1160      1162      1161
 -1       532   12    0    1
 -2      1162        63      1163
 -1       533   12    0    1
 -2        63      1165      1164
 -1       534   12    0    1
 -2      1165      1167      1166
 -1       535   12    0    1
 -2      1167      1169      1168
 -1       536   12    0    1
 -2      1169        64      1170
 -1       537   12    0    1
 -2        64      1172      1171
 -1       538   12    0    1
 -2      1172      1174      1173
 -1       539   12    0    1
 -2      1174      1176      1175
 -1       540   12    0    1
 -2      1176        65      1177
 -3
    1PSTEP                         1           1           1          
  100CL  101 1.000000000        1001                     0    1           1
 -4  DISP        4    1
 -5  D1          1    2    1    0
 -5  D2          1    2    2    0
 -5  D3          1    2    3    0
 -5  ALL         1    2    0    0    1ALL
 -1         1-2.17231E-05 0.00000E+00 0.00000E+00
 -1         2-1.56430E-05 0.00000E+00 0.00000E+00
 -1         3-1.18648E-05 0.00000E+00 0.00000E+00
 -1         4-9.29531E-06 0.00000E+00 0.00000E+00
 -1         5-7.45457E-06 0.00000E+00 0.00000E+00
 -1         6-6.08855E-06 0.00000E+00 0.00000E+00
 -1         7-5.08915E-06 0.00000E+00 0.00000E+00
 -1         8-4.58197E-06 0.00000E+00 0.00000E+00
 -1         9-4.56253E-06 0.00000E+00 0.00000E+00
 -1        14-1.28210E-05 1.08779E-06 0.00000E+00
 -1        15-1.29029E-05-1.22379E-06 0.00000E+00
 -1        16-1.10627E-05-1.06768E-06 0.00000E+00
 -1        17-9.14851E-06-7.21601E-07 0.00000E+00
 -1        18-7.57247E-06-3.92806E-07 0.00000E+00
 -1        19-6.30950E-06-1.90295E-07 0.00000E+00
 -1        20-5.15925E-06-1.60835E-07 0.00000E+00
 -1        21-4.15641E-06 9.02225E-08 0.00000E+00
 -1        22-4.07766E-06 5.14435E-07 0.00000E+00
 -1        27-7.88062E-06 1.06730E-06 0.00000E+00
 -1        28-8.26400E-06-1.50682E-06 0.00000E+00
 -1        29-8.24718E-06-1.96538E-06 0.00000E+00
 -1        30-7.50440E-06-1.52515E-06 0.00000E+00
 -1        31-6.56398E-06-8.72803E-07 0.00000E+00
 -1        32-5.83758E-06-3.77404E-07 0.00000E+00
 -1        33-5.10839E-06-4.00971E-07 0.00000E+00
 -1        34-3.97384E-06-3.18513E-07 0.00000E+00
 -1        35-2.37831E-06 1.40644E-06 0.00000E+00
 -1        36-2.44948E-07 1.08187E-05 0.00000E+00
 -1        37 7.34326E-07 2.19393E-05 0.00000E+00
 -1        38 1.05232E-06 3.34244E-05 0.00000E+00
 -1        39 1.08153E-06 4.45922E-05 0.00000E+00
 -1        40-4.43643E-06 6.77055E-07 0.00000E+00
 -1        41-4.92923E-06-1.69674E-06 0.00000E+00
 -1        42-5.41810E-06-2.45558E-06 0.00000E+00
 -1        43-5.42298E-06-2.17379E-06 0.00000E+00
 -1        44-4.88931E-06-1.40889E-06 0.00000E+00
 -1        45-4.17456E-06-4.52216E-07 0.00000E+00
 -1        46-4.40115E-06-3.82447E-07 0.00000E+00
 -1        47-4.74758E-06-5.85282E-07 0.00000E+00
 -1        48-5.14030E-06 1.88369E-06 0.00000E+00
 -1        49-5.96655E-06 1.00872E-05 0.00000E+00
 -1        50-6.32939E-06 2.12514E-05 0.00000E+00
 -1        51-6.53379E-06 3.29232E-05 0.00000E+00
 -1        52-6.67527E-06 4.41846E-05 0.00000E+00
 -1        53 0.00000E+00 0.00000E+00 0.00000E+00
 -1        54-1.91308E-06-1.92719E-06 0.00000E+00
 -1        55-3.29355E-06-2.72742E-06 0.00000E+00
 -1        56-4.02130E-06-2.56176E-06 0.00000E+00
 -1        57-3.89043E-06-1.88685E-06 0.00000E+00
 -1        58-2.70036E-06-1.00800E-06 0.00000E+00
 -1        59 0.00000E+00 0.00000E+00 0.00000E+00
 -1        60-3.71250E-06-7.35859E-07 0.00000E+00
 -1        61-6.99090E-06 1.99528E-06 0.00000E+00
 -1        62-1.01516E-05 9.76437E-06 0.00000E+00
 -1        63-1.24570E-05 2.07428E-05 0.00000E+00
 -1        64-1.36779E-05 3.25418E-05 0.00000E+00
 -1        65-1.41264E-05 4.39346E-05 0.00000E+00
 -1        66-2.09699E-05-4.10282E-22 0.00000E+00
 -1        67-2.02062E-05-1.19776E-21-1.32349E-23
 -1        68-1.94411E-05-2.11096E-21 2.64698E-23
 -1        69-1.86752E-05-2.50139E-21 1.32349E-23
 -1        70-1.79096E-05-1.62789E-21 0.00000E+00
 -1        71-1.71459E-05 3.97047E-23 0.00000E+00
 -1        72-1.63850E-05 5.22778E-22 0.00000E+00
 -1        73-2.09863E-05 1.98347E-07-6.61744E-24
 -1        74-1.96729E-05 3.81023E-07 0.00000E+00
 -1        75-1.79896E-05 5.60917E-07 0.00000E+00
 -1        76-1.61467E-05 7.38537E-07 0.00000E+00
 -1        77-1.43544E-05 9.15068E-07 0.00000E+00
 -1        78-2.11066E-05 2.29668E-07 0.00000E+00
 -1        79-2.03646E-05 3.00159E-07 0.00000E+00
 -1        80-1.95238E-05 2.39840E-07-1.32349E-23
 -1        81-1.86080E-05 8.02065E-08-6.61744E-24
 -1        82-1.76413E-05-1.47409E-07-1.32349E-23
 -1        83-1.66477E-05-4.11601E-07 6.61744E-24
 -1        84-1.56510E-05-6.81024E-07 0.00000E+00
 -1        85-1.46762E-05-9.25076E-07 0.00000E+00
 -1        86-1.37476E-05-1.11275E-06 0.00000E+00
 -1        87-1.51745E-05 2.91168E-22 0.00000E+00
 -1        88-1.46998E-05 4.36751E-22 0.00000E+00
 -1        89-1.42243E-05-4.89691E-22 0.00000E+00
 -1        90-1.37483E-05-7.14684E-22-6.61744E-24
 -1        91-1.32726E-05-1.06541E-21-1.32349E-23
 -1        92-1.27980E-05-7.74241E-22-6.61744E-24
 -1        93-1.23253E-05 2.18376E-22 0.00000E+00
 -1        94-1.54558E-05-1.84718E-07-9.30578E-25
 -1        95-1.50976E-05-3.93308E-07-1.65436E-24
 -1        96-1.46153E-05-6.04979E-07 0.00000E+00
 -1        97-1.40568E-05-8.17541E-07 0.00000E+00
 -1        98-1.34701E-05-1.02856E-06-8.27181E-25
 -1        99-1.53291E-05 9.06198E-08 0.00000E+00
 -1       100-1.49428E-05 8.26535E-08 0.00000E+00
 -1       101-1.44985E-05-3.21248E-09 6.61744E-24
 -1       102-1.40114E-05-1.46418E-07 0.00000E+00
 -1       103-1.34969E-05-3.26396E-07 0.00000E+00
 -1       104-1.29704E-05-5.22647E-07-3.30872E-24
 -1       105-1.24475E-05-7.14695E-07-6.61744E-24
 -1       106-1.19440E-05-8.82369E-07 0.00000E+00
 -1       107-1.14755E-05-1.00535E-06 0.00000E+00
 -1       108-1.15476E-05 7.61006E-22 6.61744E-24
 -1       109-1.12249E-05 1.24077E-21 0.00000E+00
 -1       110-1.09014E-05 1.53856E-21 6.61744E-24
 -1       111-1.05775E-05 1.02901E-21 3.30872E-24
 -1       112-1.02537E-05 1.20107E-21-6.61744E-24
 -1       113-9.93072E-06 8.96664E-22 3.30872E-24
 -1       114-9.60890E-06 4.49986E-22 6.61744E-24
 -1       115-1.18267E-05-1.65122E-07 0.00000E+00
 -1       116-1.17414E-05-3.46899E-07 0.00000E+00
 -1       117-1.16155E-05-5.30738E-07-3.30872E-24
 -1       118-1.14558E-05-7.14972E-07 0.00000E+00
 -1       119-1.12692E-05-8.97826E-07 0.00000E+00
 -1       120-1.16796E-05 4.62814E-08 6.61744E-24
 -1       121-1.14491E-05 3.04320E-08 1.65436E-24
 -1       122-1.11824E-05-3.39733E-08 0.00000E+00
 -1       123-1.08896E-05-1.33518E-07 3.30872E-24
 -1       124-1.05805E-05-2.54780E-07-6.61744E-24
 -1       125-1.02654E-05-3.84370E-07 0.00000E+00
 -1       126-9.95415E-06-5.08906E-07 0.00000E+00
 -1       127-9.65714E-06-6.15156E-07-3.30872E-24
 -1       128-9.38450E-06-6.89818E-07 0.00000E+00
 -1       129-9.06840E-06 1.22423E-21 0.00000E+00
 -1       130-8.83730E-06 1.71061E-21 3.30872E-24
 -1       131-8.60562E-06 1.73708E-21 0.00000E+00
 -1       132-8.37361E-06 1.16798E-21 3.30872E-24
 -1       133-8.14164E-06 8.10637E-22 6.61744E-24
 -1       134-7.91020E-06 5.32704E-22 0.00000E+00
 -1       135-7.67958E-06 5.12852E-22-6.61744E-24
 -1       136-9.30451E-06-1.11655E-07 2.06795E-25
 -1       137-9.30780E-06-2.34689E-07-8.27181E-25
 -1       138-9.29951E-06-3.59113E-07 0.00000E+00
 -1       139-9.27396E-06-4.83751E-07 0.00000E+00
 -1       140-9.22546E-06-6.07368E-07 8.27181E-25
 -1       141-9.17451E-06 3.17800E-08 0.00000E+00
 -1       142-9.02563E-06 2.44761E-08 0.00000E+00
 -1       143-8.85434E-06-1.29786E-08-3.30872E-24
 -1       144-8.66709E-06-7.19112E-08 0.00000E+00
 -1       145-8.47030E-06-1.43637E-07 3.30872E-24
 -1       146-8.27049E-06-2.19496E-07 0.00000E+00
 -1       147-8.07414E-06-2.90839E-07 0.00000E+00
 -1       148-7.88785E-06-3.49084E-07 0.00000E+00
 -1       149-7.71814E-06-3.85621E-07 3.30872E-24
 -1       150-7.28610E-06-2.48154E-23-3.30872E-24
 -1       151-7.11465E-06-4.00355E-22 0.00000E+00
 -1       152-6.94278E-06-4.74802E-22 0.00000E+00
 -1       153-6.77067E-06 5.45939E-23 0.00000E+00
 -1       154-6.59859E-06 7.87476E-22 6.61744E-24
 -1       155-6.42688E-06 6.93177E-22 0.00000E+00
 -1       156-6.25574E-06 2.92822E-22-3.30872E-24
 -1       157-7.47989E-06-5.98166E-08 0.00000E+00
 -1       158-7.51549E-06-1.27143E-07 0.00000E+00
 -1       159-7.55200E-06-1.95383E-07 0.00000E+00
 -1       160-7.57994E-06-2.63752E-07 4.13590E-25
 -1       161-7.58986E-06-3.31431E-07 0.00000E+00
 -1       162-7.37134E-06 2.48640E-08 0.00000E+00
 -1       163-7.27069E-06 2.47398E-08-1.65436E-24
 -1       164-7.15599E-06 5.61000E-09 0.00000E+00
 -1       165-7.03139E-06-2.69187E-08 0.00000E+00
 -1       166-6.90101E-06-6.72210E-08 3.30872E-24
 -1       167-6.76905E-06-1.09703E-07 1.65436E-24
 -1       168-6.63967E-06-1.48776E-07 0.00000E+00
 -1       169-6.51711E-06-1.78878E-07 1.65436E-24
 -1       170-6.40556E-06-1.94443E-07-3.30872E-24
 -1       171-5.96500E-06 2.46500E-22 3.30872E-24
 -1       172-5.83954E-06 2.96131E-22-1.65436E-24
 -1       173-5.71382E-06 5.12852E-23 0.00000E+00
 -1       174-5.58795E-06 7.57697E-22-1.65436E-24
 -1       175-5.46212E-06 1.10346E-21 0.00000E+00
 -1       176-5.33656E-06 7.44463E-22-1.65436E-24
 -1       177-5.21142E-06 2.20030E-22 0.00000E+00
 -1       178-6.11918E-06-2.79541E-08 8.27181E-25
 -1       179-6.16622E-06-6.09569E-08 1.29247E-26
 -1       180-6.21928E-06-9.45697E-08 0.00000E+00
 -1       181-6.26783E-06-1.28255E-07 0.00000E+00
 -1       182-6.30135E-06-1.61458E-07 0.00000E+00
 -1       183-6.02100E-06 1.93231E-08 0.00000E+00
 -1       184-5.93895E-06 1.80116E-08 0.00000E+00
 -1       185-5.84531E-06 1.04030E-09 0.00000E+00
 -1       186-5.74357E-06-2.68778E-08 0.00000E+00
 -1       187-5.63720E-06-6.10178E-08 1.65436E-24
 -1       188-5.52971E-06-9.66759E-08 8.27181E-25
 -1       189-5.42464E-06-1.29149E-07 0.00000E+00
 -1       190-5.32551E-06-1.53755E-07 0.00000E+00
 -1       191-5.23584E-06-1.65805E-07 0.00000E+00
 -1       192-5.02562E-06-4.30134E-23 0.00000E+00
 -1       193-4.96196E-06-1.36485E-22 0.00000E+00
 -1       194-4.89829E-06-1.52201E-22-1.65436E-24
 -1       195-4.83463E-06-2.53944E-22 0.00000E+00
 -1       196-4.77101E-06 7.94093E-23 1.65436E-24
 -1       197-4.70751E-06 1.14978E-22 0.00000E+00
 -1       198-4.64417E-06-1.40621E-23-1.65436E-24
 -1       199-5.10136E-06-2.40623E-08 0.00000E+00
 -1       200-5.11920E-06-5.19833E-08 5.16988E-26
 -1       201-5.13831E-06-8.03551E-08-4.13590E-25
 -1       202-5.15428E-06-1.08735E-07 2.06795E-25
 -1       203-5.16270E-06-1.36677E-07-4.13590E-25
 -1       204-5.01685E-06 3.55846E-08-1.65436E-24
 -1       205-4.93421E-06 5.88342E-08-8.27181E-25
 -1       206-4.84372E-06 7.18190E-08-1.65436E-24
 -1       207-4.74733E-06 7.71034E-08-8.27181E-25
 -1       208-4.64705E-06 7.72341E-08-3.30872E-24
 -1       209-4.54483E-06 7.47887E-08 1.65436E-24
 -1       210-4.44263E-06 7.23450E-08 0.00000E+00
 -1       211-4.34245E-06 7.24569E-08-1.65436E-24
 -1       212-4.24624E-06 7.76926E-08 1.65436E-24
 -1       213-4.57826E-06-5.69721E-23 0.00000E+00
 -1       214-4.57615E-06-2.38047E-22 2.06795E-25
 -1       215-4.57426E-06 1.91357E-22 0.00000E+00
 -1       216-4.57250E-06 2.79503E-22 1.03398E-25
 -1       217-4.57073E-06 5.19056E-23 0.00000E+00
 -1       218-4.56880E-06-1.07585E-22 0.00000E+00
 -1       219-4.56659E-06-1.37467E-22 0.00000E+00
 -1       220-4.54348E-06 1.53992E-08 4.13590E-25
 -1       221-4.47684E-06 2.97982E-08-2.06795E-25
 -1       222-4.39336E-06 4.41211E-08 0.00000E+00
 -1       223-4.30450E-06 5.85691E-08 4.13590E-25
 -1       224-4.22174E-06 7.33097E-08 1.65436E-24
 -1       225-4.54218E-06 6.27325E-08 1.65436E-24
 -1       226-4.51206E-06 1.40826E-07-8.27181E-25
 -1       227-4.48784E-06 2.27142E-07 0.00000E+00
 -1       228-4.46468E-06 3.15157E-07-8.27181E-25
 -1       229-4.43782E-06 3.98321E-07 1.65436E-24
 -1       230-4.40239E-06 4.70131E-07-8.27181E-25
 -1       231-4.35354E-06 5.24085E-07 1.65436E-24
 -1       232-4.28640E-06 5.53712E-07 0.00000E+00
 -1       233-4.19608E-06 5.52534E-07 1.65436E-24
 -1       241-4.54434E-06 8.39685E-08 0.00000E+00
 -1       242-4.49845E-06 1.69795E-07-8.27181E-25
 -1       243-4.42677E-06 2.55892E-07-1.65436E-24
 -1       244-4.33136E-06 3.42155E-07-1.65436E-24
 -1       245-4.21427E-06 4.28437E-07 0.00000E+00
 -1       323-1.28282E-05 3.75631E-07 3.30872E-24
 -1       324-1.28399E-05-9.95212E-08 0.00000E+00
 -1       325-1.28521E-05-3.94845E-07 0.00000E+00
 -1       326-1.28647E-05-5.68916E-07 0.00000E+00
 -1       327-1.28772E-05-6.80308E-07-4.13590E-25
 -1       328-1.28889E-05-7.87639E-07-3.10193E-25
 -1       329-1.28996E-05-9.49532E-07 8.27181E-25
 -1       330-1.18502E-05 1.08876E-06 0.00000E+00
 -1       331-1.09168E-05 1.08538E-06 0.00000E+00
 -1       332-1.00371E-05 1.08137E-06 0.00000E+00
 -1       333-9.22718E-06 1.07690E-06 0.00000E+00
 -1       334-8.50319E-06 1.07228E-06 0.00000E+00
 -1       335-1.21494E-05 5.32798E-07 0.00000E+00
 -1       336-1.15534E-05 8.73976E-08 0.00000E+00
 -1       337-1.10253E-05-2.66180E-07 6.61744E-24
 -1       338-1.05534E-05-5.43795E-07 3.30872E-24
 -1       339-1.01263E-05-7.61377E-07 0.00000E+00
 -1       340-9.73246E-06-9.34728E-07-3.30872E-24
 -1       341-9.36018E-06-1.07965E-06-6.61744E-24
 -1       342-8.99818E-06-1.21216E-06 0.00000E+00
 -1       343-8.63498E-06-1.34811E-06 0.00000E+00
 -1       344-1.26754E-05-1.48594E-06 0.00000E+00
 -1       345-1.24444E-05-1.57047E-06 0.00000E+00
 -1       346-1.22130E-05-1.52534E-06-6.61744E-24
 -1       347-1.19813E-05-1.39952E-06 0.00000E+00
 -1       348-1.17497E-05-1.24196E-06 0.00000E+00
 -1       349-1.15185E-05-1.10161E-06-3.30872E-24
 -1       350-1.12881E-05-1.02744E-06 0.00000E+00
 -1       351-1.22272E-05-1.26308E-06 8.27181E-25
 -1       352-1.14172E-05-1.31142E-06 0.00000E+00
 -1       353-1.05439E-05-1.36103E-06-4.13590E-25
 -1       354-9.67950E-06-1.41117E-06 2.06795E-25
 -1       355-8.89586E-06-1.46098E-06 0.00000E+00
 -1       356-1.23822E-05-1.38237E-06 0.00000E+00
 -1       357-1.18709E-05-1.51547E-06 3.30872E-24
 -1       358-1.13735E-05-1.62808E-06 1.32349E-23
 -1       359-1.08894E-05-1.72156E-06 0.00000E+00
 -1       360-1.04184E-05-1.79741E-06 0.00000E+00
 -1       361-9.95970E-06-1.85690E-06-6.61744E-24
 -1       362-9.51274E-06-1.90133E-06-6.61744E-24
 -1       363-9.07738E-06-1.93232E-06 0.00000E+00
 -1       364-8.65318E-06-1.95131E-06 0.00000E+00
 -1       365-1.08278E-05-1.16357E-06 0.00000E+00
 -1       366-1.05874E-05-1.16506E-06 3.30872E-24
 -1       367-1.03462E-05-1.09913E-06 6.61744E-24
 -1       368-1.01046E-05-9.93324E-07 0.00000E+00
 -1       369-9.86303E-06-8.75176E-07-6.61744E-24
 -1       370-9.62204E-06-7.72219E-07-3.30872E-24
 -1       371-9.38200E-06-7.11994E-07 3.30872E-24
 -1       372-1.06981E-05-1.20827E-06 0.00000E+00
 -1       373-1.02243E-05-1.36072E-06 1.65436E-24
 -1       374-9.69145E-06-1.51463E-06-3.30872E-24
 -1       375-9.15049E-06-1.66878E-06 8.27181E-25
 -1       376-8.65233E-06-1.82188E-06 1.65436E-24
 -1       377-1.07240E-05-1.09978E-06 0.00000E+00
 -1       378-1.03660E-05-1.14707E-06-3.30872E-24
 -1       379-9.99730E-06-1.20715E-06-6.61744E-24
 -1       380-9.62239E-06-1.27444E-06 0.00000E+00
 -1       381-9.24594E-06-1.34352E-06-6.61744E-24
 -1       382-8.87241E-06-1.40877E-06 3.30872E-24
 -1       383-8.50627E-06-1.46456E-06 6.61744E-24
 -1       384-8.15230E-06-1.50555E-06 3.30872E-24
 -1       385-7.81509E-06-1.52622E-06-6.61744E-24
 -1       386-8.95528E-06-7.61306E-07-6.61744E-24
 -1       387-8.75738E-06-7.44892E-07 3.30872E-24
 -1       388-8.55882E-06-6.88675E-07 0.00000E+00
 -1       389-8.35987E-06-6.09302E-07 0.00000E+00
 -1       390-8.16094E-06-5.23413E-07 0.00000E+00
 -1       391-7.96249E-06-4.47649E-07 0.00000E+00
 -1       392-7.76481E-06-3.98655E-07-3.30872E-24
 -1       393-8.94603E-06-8.48199E-07 0.00000E+00
 -1       394-8.67464E-06-9.84827E-07 0.00000E+00
 -1       395-8.36434E-06-1.12266E-06 3.30872E-24
 -1       396-8.04562E-06-1.26058E-06 0.00000E+00
 -1       397-7.74894E-06-1.39745E-06 0.00000E+00
 -1       398-8.91590E-06-7.09348E-07 0.00000E+00
 -1       399-8.66425E-06-7.14654E-07 0.00000E+00
 -1       400-8.40056E-06-7.34852E-07 0.00000E+00
 -1       401-8.12888E-06-7.64886E-07-3.30872E-24
 -1       402-7.85340E-06-7.99795E-07 0.00000E+00
 -1       403-7.57812E-06-8.34470E-07 3.30872E-24
 -1       404-7.30703E-06-8.63809E-07-6.61744E-24
 -1       405-7.04435E-06-8.82878E-07 0.00000E+00
 -1       406-6.79417E-06-8.86638E-07 0.00000E+00
 -1       407-7.41752E-06-4.09687E-07 3.30872E-24
 -1       408-7.25897E-06-3.96534E-07-1.65436E-24
 -1       409-7.09992E-06-3.62229E-07 0.00000E+00
 -1       410-6.94056E-06-3.15829E-07 1.65436E-24
 -1       411-6.78122E-06-2.66392E-07 3.30872E-24
 -1       412-6.62224E-06-2.22976E-07-1.65436E-24
 -1       413-6.46385E-06-1.94641E-07 0.00000E+00
 -1       414-7.45688E-06-4.67870E-07 0.00000E+00
 -1       415-7.29474E-06-5.49896E-07-8.27181E-25
 -1       416-7.10507E-06-6.32737E-07-1.65436E-24
 -1       417-6.90720E-06-7.15587E-07 0.00000E+00
 -1       418-6.72047E-06-7.97638E-07 0.00000E+00
 -1       419-7.42209E-06-3.64623E-07 3.30872E-24
 -1       420-7.25900E-06-3.48741E-07-1.65436E-24
 -1       421-7.08724E-06-3.43742E-07-3.30872E-24
 -1       422-6.90908E-06-3.46787E-07 1.65436E-24
 -1       423-6.72690E-06-3.55087E-07 0.00000E+00
 -1       424-6.54294E-06-3.65772E-07 0.00000E+00
 -1       425-6.35947E-06-3.75972E-07 0.00000E+00
 -1       426-6.17886E-06-3.82920E-07 1.65436E-24
 -1       427-6.00343E-06-3.83789E-07-3.30872E-24
 -1       428-6.16851E-06-2.03210E-07 0.00000E+00
 -1       429-6.02411E-06-2.03971E-07 1.65436E-24
 -1       430-5.87921E-06-1.96239E-07 3.30872E-24
 -1       431-5.73403E-06-1.83750E-07 0.00000E+00
 -1       432-5.58886E-06-1.70236E-07 0.00000E+00
 -1       433-5.44403E-06-1.59433E-07 1.65436E-24
 -1       434-5.29974E-06-1.55076E-07-3.30872E-24
 -1       435-6.26192E-06-2.18388E-07-4.13590E-25
 -1       436-6.19510E-06-2.50833E-07 0.00000E+00
 -1       437-6.11407E-06-2.83787E-07 0.00000E+00
 -1       438-6.02403E-06-3.16748E-07 0.00000E+00
 -1       439-5.93015E-06-3.49216E-07 0.00000E+00
 -1       440-6.21320E-06-1.80484E-07 0.00000E+00
 -1       441-6.10254E-06-1.88617E-07 0.00000E+00
 -1       442-5.98118E-06-2.10848E-07 0.00000E+00
 -1       443-5.85238E-06-2.42873E-07 0.00000E+00
 -1       444-5.71943E-06-2.80403E-07 3.30872E-24
 -1       445-5.58561E-06-3.19127E-07-1.65436E-24
 -1       446-5.45419E-06-3.54731E-07 0.00000E+00
 -1       447-5.32850E-06-3.82961E-07 0.00000E+00
 -1       448-5.21183E-06-3.99529E-07 1.65436E-24
 -1       449-5.03645E-06-1.51479E-07 3.30872E-24
 -1       450-4.91068E-06-1.19940E-07 0.00000E+00
 -1       451-4.78449E-06-7.40770E-08-3.30872E-24
 -1       452-4.65803E-06-2.18932E-08 0.00000E+00
 -1       453-4.53156E-06 2.86123E-08 0.00000E+00
 -1       454-4.40533E-06 6.94417E-08 0.00000E+00
 -1       455-4.27949E-06 9.25937E-08 0.00000E+00
 -1       456-5.15279E-06-1.97651E-07 0.00000E+00
 -1       457-5.15157E-06-2.38841E-07 0.00000E+00
 -1       458-5.15106E-06-2.80554E-07 0.00000E+00
 -1       459-5.14671E-06-3.22310E-07 0.00000E+00
 -1       460-5.13398E-06-3.63621E-07-4.52364E-26
 -1       461-5.05791E-06-1.55508E-07 0.00000E+00
 -1       462-4.93600E-06-1.75642E-07-8.27181E-25
 -1       463-4.80024E-06-2.13954E-07 0.00000E+00
 -1       464-4.65671E-06-2.62424E-07 0.00000E+00
 -1       465-4.51151E-06-3.13061E-07 0.00000E+00
 -1       466-4.37072E-06-3.57824E-07 0.00000E+00
 -1       467-4.24040E-06-3.88674E-07 0.00000E+00
 -1       468-4.12666E-06-3.97618E-07 0.00000E+00
 -1       469-4.03558E-06-3.76642E-07 0.00000E+00
 -1       470-4.14468E-06 1.22586E-07 0.00000E+00
 -1       471-4.13538E-06 2.00054E-07 0.00000E+00
 -1       472-4.12641E-06 3.03206E-07 0.00000E+00
 -1       473-4.11765E-06 4.12321E-07 1.03398E-25
 -1       474-4.10886E-06 5.07672E-07 3.10193E-25
 -1       475-4.09978E-06 5.69547E-07-3.61892E-25
 -1       476-4.09026E-06 5.78228E-07-1.24077E-24
 -1       477-4.10424E-06 2.62806E-08 1.03398E-25
 -1       478-4.04921E-06-4.34957E-08-4.13590E-25
 -1       479-3.99997E-06-1.13957E-07-1.65436E-24
 -1       480-3.96522E-06-1.84443E-07 4.13590E-25
 -1       481-3.95368E-06-2.54283E-07 0.00000E+00
 -1       482-3.93591E-06 1.52162E-07 0.00000E+00
 -1       483-3.69320E-06 1.96134E-07 3.30872E-24
 -1       484-3.44324E-06 2.32191E-07-6.61744E-24
 -1       485-3.19660E-06 2.73938E-07 0.00000E+00
 -1       486-2.96404E-06 3.34851E-07 6.61744E-24
 -1       487-2.75599E-06 4.28657E-07-3.30872E-24
 -1       488-2.58291E-06 5.69100E-07 0.00000E+00
 -1       489-2.45523E-06 7.69889E-07 0.00000E+00
 -1       490-2.38339E-06 1.04478E-06 6.61744E-24
 -1       498-3.71671E-06 6.59394E-07-3.30872E-24
 -1       499-3.27562E-06 8.07477E-07 0.00000E+00
 -1       500-2.83753E-06 9.56103E-07 0.00000E+00
 -1       501-2.48631E-06 1.10529E-06 3.30872E-24
 -1       502-2.30579E-06 1.25489E-06-6.61744E-24
 -1       580-7.92779E-06 6.13519E-07 2.06795E-25
 -1       581-7.97656E-06 2.38882E-07 8.27181E-25
 -1       582-8.02553E-06-7.70366E-08-8.27181E-25
 -1       583-8.07458E-06-3.55125E-07-4.13590E-25
 -1       584-8.12354E-06-6.16273E-07 0.00000E+00
 -1       585-8.17210E-06-8.81388E-07-4.13590E-25
 -1       586-8.22006E-06-1.17137E-06 0.00000E+00
 -1       587-7.31835E-06 1.00443E-06 0.00000E+00
 -1       588-6.74085E-06 9.39178E-07 0.00000E+00
 -1       589-6.15595E-06 8.73585E-07 0.00000E+00
 -1       590-5.57163E-06 8.07813E-07 8.27181E-25
 -1       591-4.99584E-06 7.42072E-07 0.00000E+00
 -1       592-7.52098E-06 6.99067E-07-1.65436E-24
 -1       593-7.18021E-06 3.62128E-07-8.27181E-25
 -1       594-6.85833E-06 5.12956E-08 0.00000E+00
 -1       595-6.55285E-06-2.37011E-07 0.00000E+00
 -1       596-6.26139E-06-5.06439E-07-1.65436E-24
 -1       597-5.98143E-06-7.60522E-07 8.27181E-25
 -1       598-5.71044E-06-1.00281E-06 1.65436E-24
 -1       599-5.44601E-06-1.23694E-06 0.00000E+00
 -1       600-5.18567E-06-1.46649E-06 0.00000E+00
 -1       601-8.26067E-06-1.76296E-06-1.65436E-24
 -1       602-8.25913E-06-1.88714E-06 8.27181E-25
 -1       603-8.25782E-06-1.91645E-06 0.00000E+00
 -1       604-8.25665E-06-1.88876E-06 0.00000E+00
 -1       605-8.25543E-06-1.84197E-06 1.03398E-25
 -1       606-8.25394E-06-1.81398E-06-1.03398E-25
 -1       607-8.25202E-06-1.84269E-06-7.23783E-25
 -1       608-7.74759E-06-1.53544E-06 0.00000E+00
 -1       609-7.16522E-06-1.56739E-06 4.13590E-25
 -1       610-6.55434E-06-1.59983E-06 4.13590E-25
 -1       611-5.95286E-06-1.63251E-06 5.16988E-26
 -1       612-5.39871E-06-1.66513E-06-6.20385E-25
 -1       613-7.91046E-06-1.70222E-06 0.00000E+00
 -1       614-7.57810E-06-1.85982E-06 0.00000E+00
 -1       615-7.26732E-06-1.98719E-06-6.61744E-24
 -1       616-6.97474E-06-2.08930E-06-3.30872E-24
 -1       617-6.69711E-06-2.17124E-06 6.61744E-24
 -1       618-6.43093E-06-2.23793E-06 0.00000E+00
 -1       619-6.17274E-06-2.29430E-06 0.00000E+00
 -1       620-5.91936E-06-2.34548E-06 0.00000E+00
 -1       621-5.66743E-06-2.39646E-06 3.30872E-24
 -1       622-8.15536E-06-2.07879E-06 3.30872E-24
 -1       623-8.06240E-06-2.07230E-06-1.65436E-24
 -1       624-7.96928E-06-1.98136E-06-3.30872E-24
 -1       625-7.87605E-06-1.84215E-06 0.00000E+00
 -1       626-7.78282E-06-1.69080E-06 0.00000E+00
 -1       627-7.68965E-06-1.56351E-06 8.27181E-25
 -1       628-7.59660E-06-1.49644E-06 0.00000E+00
 -1       629-7.84308E-06-2.04167E-06 0.00000E+00
 -1       630-7.34546E-06-2.12463E-06 8.27181E-25
 -1       631-6.80395E-06-2.20846E-06 0.00000E+00
 -1       632-6.26883E-06-2.29254E-06 4.13590E-25
 -1       633-5.79036E-06-2.37619E-06 2.19720E-25
 -1       634-7.93497E-06-2.03575E-06 0.00000E+00
 -1       635-7.62535E-06-2.09179E-06-3.30872E-24
 -1       636-7.32273E-06-2.13688E-06 0.00000E+00
 -1       637-7.02729E-06-2.17128E-06 0.00000E+00
 -1       638-6.73936E-06-2.19538E-06-6.61744E-24
 -1       639-6.45904E-06-2.20937E-06 0.00000E+00
 -1       640-6.18642E-06-2.21346E-06 0.00000E+00
 -1       641-5.92191E-06-2.20807E-06 0.00000E+00
 -1       642-5.66571E-06-2.19350E-06 0.00000E+00
 -1       643-7.38851E-06-1.56925E-06 0.00000E+00
 -1       644-7.27067E-06-1.51924E-06 1.65436E-24
 -1       645-7.15255E-06-1.40386E-06 3.30872E-24
 -1       646-7.03426E-06-1.25247E-06-1.65436E-24
 -1       647-6.91597E-06-1.09438E-06 3.30872E-24
 -1       648-6.79784E-06-9.58938E-07 0.00000E+00
 -1       649-6.67998E-06-8.75469E-07 0.00000E+00
 -1       650-7.21732E-06-1.62712E-06 0.00000E+00
 -1       651-6.84867E-06-1.73718E-06-8.27181E-25
 -1       652-6.44142E-06-1.84823E-06 0.00000E+00
 -1       653-6.03913E-06-1.95943E-06-8.27181E-25
 -1       654-5.68534E-06-2.06991E-06-2.06795E-25
 -1       655-7.23899E-06-1.52855E-06 3.30872E-24
 -1       656-6.96583E-06-1.53170E-06 0.00000E+00
 -1       657-6.69095E-06-1.53555E-06-6.61744E-24
 -1       658-6.41630E-06-1.53800E-06 0.00000E+00
 -1       659-6.14400E-06-1.53703E-06 6.61744E-24
 -1       660-5.87592E-06-1.53045E-06 0.00000E+00
 -1       661-5.61392E-06-1.51606E-06 0.00000E+00
 -1       662-5.36014E-06-1.49187E-06-3.30872E-24
 -1       663-5.11653E-06-1.45575E-06 0.00000E+00
 -1       664-6.47364E-06-8.94141E-07 3.30872E-24
 -1       665-6.38262E-06-8.49097E-07 3.30872E-24
 -1       666-6.29152E-06-7.58719E-07 0.00000E+00
 -1       667-6.20036E-06-6.44466E-07 0.00000E+00
 -1       668-6.10922E-06-5.27789E-07 0.00000E+00
 -1       669-6.01819E-06-4.30146E-07 8.27181E-25
 -1       670-5.92732E-06-3.72993E-07 0.00000E+00
 -1       671-6.34284E-06-9.56879E-07 0.00000E+00
 -1       672-6.04666E-06-1.04827E-06 0.00000E+00
 -1       673-5.71409E-06-1.14052E-06-1.65436E-24
 -1       674-5.38431E-06-1.23282E-06 8.27181E-25
 -1       675-5.09650E-06-1.32432E-06 0.00000E+00
 -1       676-6.33510E-06-8.27323E-07 0.00000E+00
 -1       677-6.10014E-06-7.79483E-07 3.30872E-24
 -1       678-5.86333E-06-7.32551E-07-6.61744E-24
 -1       679-5.62485E-06-6.86750E-07 3.30872E-24
 -1       680-5.38505E-06-6.42423E-07-6.61744E-24
 -1       681-5.14401E-06-5.99723E-07-3.30872E-24
 -1       682-4.90183E-06-5.58803E-07 6.61744E-24
 -1       683-4.65880E-06-5.19982E-07 0.00000E+00
 -1       684-4.41510E-06-4.83469E-07-3.30872E-24
 -1       685-5.74722E-06-4.26121E-07 3.30872E-24
 -1       686-5.65573E-06-4.45476E-07-1.65436E-24
 -1       687-5.56407E-06-4.43503E-07 0.00000E+00
 -1       688-5.47233E-06-4.28415E-07-1.65436E-24
 -1       689-5.38061E-06-4.08419E-07 3.30872E-24
 -1       690-5.28908E-06-3.91727E-07-8.27181E-25
 -1       691-5.19781E-06-3.86550E-07 0.00000E+00
 -1       692-5.63816E-06-3.87749E-07-2.84343E-25
 -1       693-5.35883E-06-4.01544E-07-1.03398E-25
 -1       694-5.03594E-06-4.15710E-07-1.03398E-25
 -1       695-4.70641E-06-4.29763E-07-8.27181E-25
 -1       696-4.40714E-06-4.43249E-07 0.00000E+00
 -1       697-5.71037E-06-3.58818E-07 0.00000E+00
 -1       698-5.58829E-06-3.29732E-07 0.00000E+00
 -1       699-5.46903E-06-2.96344E-07-3.30872E-24
 -1       700-5.34882E-06-2.63856E-07 1.65436E-24
 -1       701-5.22395E-06-2.37511E-07 0.00000E+00
 -1       702-5.09062E-06-2.22501E-07 0.00000E+00
 -1       703-4.94506E-06-2.24024E-07 0.00000E+00
 -1       704-4.78365E-06-2.47395E-07 1.65436E-24
 -1       705-4.60267E-06-2.97862E-07 1.65436E-24
 -1       706-4.97014E-06-4.34705E-07 0.00000E+00
 -1       707-4.82777E-06-4.54804E-07 0.00000E+00
 -1       708-4.68482E-06-4.61754E-07 3.30872E-24
 -1       709-4.54149E-06-4.56103E-07-1.65436E-24
 -1       710-4.39815E-06-4.38398E-07-3.30872E-24
 -1       711-4.25513E-06-4.09190E-07 0.00000E+00
 -1       712-4.11263E-06-3.69030E-07 0.00000E+00
 -1       713-5.06090E-06-3.96077E-07-4.13590E-25
 -1       714-4.98922E-06-3.93257E-07-1.29247E-25
 -1       715-4.89031E-06-3.90720E-07 3.10193E-25
 -1       716-4.76125E-06-3.88310E-07 0.00000E+00
 -1       717-4.59911E-06-3.85837E-07 7.75482E-26
 -1       718-5.05916E-06-4.33601E-07-8.27181E-25
 -1       719-5.00622E-06-4.73531E-07 0.00000E+00
 -1       720-4.95136E-06-5.16377E-07 0.00000E+00
 -1       721-4.89733E-06-5.58386E-07 4.13590E-25
 -1       722-4.84685E-06-5.95782E-07 0.00000E+00
 -1       723-4.80270E-06-6.24845E-07 0.00000E+00
 -1       724-4.76770E-06-6.41859E-07 0.00000E+00
 -1       725-4.74474E-06-6.43196E-07 0.00000E+00
 -1       726-4.73668E-06-6.25189E-07 0.00000E+00
 -1       727-3.78107E-06-2.44133E-07-3.30872E-24
 -1       728-3.58205E-06-1.29670E-07-3.30872E-24
 -1       729-3.38210E-06 2.51226E-08 0.00000E+00
 -1       730-3.18148E-06 2.20319E-07-3.30872E-24
 -1       731-2.98065E-06 4.55997E-07 6.61744E-24
 -1       732-2.77975E-06 7.32221E-07 3.30872E-24
 -1       733-2.57885E-06 1.04907E-06 0.00000E+00
 -1       734-4.07497E-06-3.58565E-07 0.00000E+00
 -1       735-4.20669E-06-4.03231E-07 4.13590E-25
 -1       736-4.35450E-06-4.48571E-07 0.00000E+00
 -1       737-4.50370E-06-4.94331E-07 8.27181E-25
 -1       738-4.63956E-06-5.40146E-07 0.00000E+00
 -1       739-3.97583E-06-2.49007E-07 0.00000E+00
 -1       740-3.99511E-06-1.57920E-07 0.00000E+00
 -1       741-4.03439E-06-4.04091E-08-3.30872E-24
 -1       742-4.09686E-06 1.07858E-07-8.27181E-25
 -1       743-4.18573E-06 2.91224E-07 1.65436E-24
 -1       744-4.30422E-06 5.13995E-07-1.65436E-24
 -1       745-4.45558E-06 7.80476E-07 0.00000E+00
 -1       746-4.64310E-06 1.09490E-06 0.00000E+00
 -1       747-4.87004E-06 1.46151E-06 0.00000E+00
 -1       748-2.11309E-06 2.02606E-06 0.00000E+00
 -1       749-1.84465E-06 2.90769E-06 0.00000E+00
 -1       750-1.57593E-06 4.00072E-06 0.00000E+00
 -1       751-1.30716E-06 5.25317E-06-3.30872E-24
 -1       752-1.03865E-06 6.61312E-06 0.00000E+00
 -1       753-7.70929E-07 8.02859E-06 0.00000E+00
 -1       754-5.04297E-07 9.44762E-06 0.00000E+00
 -1       755-2.76887E-06 1.49201E-06-3.30872E-24
 -1       756-3.18676E-06 1.57250E-06 1.65436E-24
 -1       757-3.63250E-06 1.65210E-06-3.30872E-24
 -1       758-4.10645E-06 1.73080E-06 0.00000E+00
 -1       759-4.60897E-06 1.80884E-06 1.65436E-24
 -1       760-2.48562E-06 1.93934E-06 0.00000E+00
 -1       761-2.67775E-06 2.58842E-06 0.00000E+00
 -1       762-2.94492E-06 3.33789E-06 0.00000E+00
 -1       763-3.27566E-06 4.17225E-06 3.30872E-24
 -1       764-3.65858E-06 5.07603E-06 6.61744E-24
 -1       765-4.08225E-06 6.03376E-06 0.00000E+00
 -1       766-4.53526E-06 7.02994E-06 0.00000E+00
 -1       767-5.00666E-06 8.04878E-06 3.30872E-24
 -1       768-5.48527E-06 9.07467E-06 3.30872E-24
 -1       769-1.22456E-07 1.21140E-05 3.30872E-24
 -1       770 8.99932E-10 1.34651E-05 1.65436E-24
 -1       771 1.24310E-07 1.48581E-05 0.00000E+00
 -1       772 2.47704E-07 1.62782E-05-1.65436E-24
 -1       773 3.70966E-07 1.77109E-05 0.00000E+00
 -1       774 4.93812E-07 1.91417E-05 0.00000E+00
 -1       775 6.16076E-07 2.05559E-05 0.00000E+00
 -1       776-1.34112E-06 1.07050E-05 0.00000E+00
 -1       777-2.32751E-06 1.05814E-05-1.65436E-24
 -1       778-3.24336E-06 1.04565E-05 0.00000E+00
 -1       779-4.12859E-06 1.03312E-05-1.65436E-24
 -1       780-5.02313E-06 1.02064E-05 0.00000E+00
 -1       781-8.65088E-07 1.18765E-05 0.00000E+00
 -1       782-1.47407E-06 1.29223E-05 0.00000E+00
 -1       783-2.07575E-06 1.39587E-05 0.00000E+00
 -1       784-2.67297E-06 1.49894E-05-1.65436E-24
 -1       785-3.26862E-06 1.60181E-05 0.00000E+00
 -1       786-3.86553E-06 1.70483E-05 0.00000E+00
 -1       787-4.46657E-06 1.80836E-05 3.30872E-24
 -1       788-5.07488E-06 1.91274E-05 0.00000E+00
 -1       789-5.69345E-06 2.01833E-05 0.00000E+00
 -1       790 7.74192E-07 2.33214E-05 0.00000E+00
 -1       791 8.14389E-07 2.47428E-05 0.00000E+00
 -1       792 8.54589E-07 2.61915E-05-1.65436E-24
 -1       793 8.94771E-07 2.76557E-05 0.00000E+00
 -1       794 9.34894E-07 2.91231E-05 0.00000E+00
 -1       795 9.74829E-07 3.05817E-05 0.00000E+00
 -1       796 1.01451E-06 3.20194E-05-4.13590E-25
 -1       797-5.17963E-07 2.18296E-05 0.00000E+00
 -1       798-1.70737E-06 2.17136E-05 1.65436E-24
 -1       799-2.85838E-06 2.15967E-05 3.30872E-24
 -1       800-3.99585E-06 2.14797E-05 1.65436E-24
 -1       801-5.14465E-06 2.13632E-05-1.65436E-24
 -1       802-2.70764E-09 2.30486E-05 0.00000E+00
 -1       803-7.33565E-07 2.41532E-05 8.27181E-25
 -1       804-1.46059E-06 2.52532E-05 0.00000E+00
 -1       805-2.18482E-06 2.63499E-05 8.27181E-25
 -1       806-2.90733E-06 2.74443E-05 0.00000E+00
 -1       807-3.62916E-06 2.85377E-05 0.00000E+00
 -1       808-4.35132E-06 2.96314E-05 0.00000E+00
 -1       809-5.07500E-06 3.07264E-05-8.27181E-25
 -1       810-5.80130E-06 3.18239E-05 8.27181E-25
 -1       811 1.05604E-06 3.48077E-05 2.06795E-25
 -1       812 1.06004E-06 3.62066E-05 0.00000E+00
 -1       813 1.06407E-06 3.76151E-05-1.03398E-25
 -1       814 1.06809E-06 3.90272E-05-5.16988E-26
 -1       815 1.07207E-06 4.04369E-05 0.00000E+00
 -1       816 1.07589E-06 4.18383E-05 0.00000E+00
 -1       817 1.07949E-06 4.32253E-05 0.00000E+00
 -1       818-2.55460E-07 3.33434E-05 0.00000E+00
 -1       819-1.52390E-06 3.32589E-05 0.00000E+00
 -1       820-2.76938E-06 3.31740E-05 0.00000E+00
 -1       821-4.00848E-06 3.30891E-05 0.00000E+00
 -1       822-5.25781E-06 3.30045E-05-8.27181E-25
 -1       823 2.59609E-07 3.45251E-05-4.13590E-25
 -1       824-5.26315E-07 3.56191E-05 4.13590E-25
 -1       825-1.30691E-06 3.67063E-05 0.00000E+00
 -1       826-2.08277E-06 3.77875E-05 0.00000E+00
 -1       827-2.85455E-06 3.88633E-05 0.00000E+00
 -1       828-3.62284E-06 3.99344E-05 4.13590E-25
 -1       829-4.38823E-06 4.10016E-05 0.00000E+00
 -1       830-5.15143E-06 4.20654E-05 0.00000E+00
 -1       831-5.91306E-06 4.31265E-05-5.16988E-26
 -1       832-2.38613E-07 4.45252E-05 1.65436E-24
 -1       833-1.53912E-06 4.44567E-05-8.27181E-25
 -1       834-2.82648E-06 4.43880E-05 0.00000E+00
 -1       835-4.10725E-06 4.43194E-05 0.00000E+00
 -1       836-5.38800E-06 4.42510E-05 0.00000E+00
 -1       837-4.49800E-06 2.27531E-07 8.27181E-25
 -1       838-4.56014E-06-1.38279E-07-4.13590E-25
 -1       839-4.62232E-06-4.40099E-07 8.27181E-25
 -1       840-4.68451E-06-6.98141E-07-8.27181E-25
 -1       841-4.74663E-06-9.32618E-07 1.65436E-24
 -1       842-4.80851E-06-1.16377E-06 0.00000E+00
 -1       843-4.87004E-06-1.41182E-06 0.00000E+00
 -1       844-3.76937E-06 5.67996E-07 0.00000E+00
 -1       845-3.01726E-06 4.55984E-07-1.65436E-24
 -1       846-2.22191E-06 3.43409E-07 3.30872E-24
 -1       847-1.42574E-06 2.30215E-07-1.65436E-24
 -1       848-6.71158E-07 1.16517E-07 0.00000E+00
 -1       849-4.10081E-06 2.99682E-07 0.00000E+00
 -1       850-3.78789E-06-4.03695E-08 0.00000E+00
 -1       851-3.49804E-06-3.48599E-07-1.65436E-24
 -1       852-3.22876E-06-6.28656E-07 0.00000E+00
 -1       853-2.97769E-06-8.84269E-07 0.00000E+00
 -1       854-2.74228E-06-1.11905E-06 0.00000E+00
 -1       855-2.52002E-06-1.33664E-06 0.00000E+00
 -1       856-2.30864E-06-1.54085E-06 2.06795E-25
 -1       857-2.10573E-06-1.73541E-06-8.27181E-25
 -1       858-4.98864E-06-1.94094E-06 8.27181E-25
 -1       859-5.05037E-06-2.09098E-06 0.00000E+00
 -1       860-5.11242E-06-2.17226E-06 0.00000E+00
 -1       861-5.17465E-06-2.21073E-06 8.27181E-25
 -1       862-5.23684E-06-2.23237E-06 0.00000E+00
 -1       863-5.29871E-06-2.26314E-06-8.27181E-25
 -1       864-5.36010E-06-2.32902E-06 0.00000E+00
 -1       865-4.46312E-06-1.73296E-06 0.00000E+00
 -1       866-3.92909E-06-1.77055E-06 0.00000E+00
 -1       867-3.36689E-06-1.80845E-06 0.00000E+00
 -1       868-2.81676E-06-1.84680E-06 0.00000E+00
 -1       869-2.31895E-06-1.88560E-06-1.65436E-24
 -1       870-4.68964E-06-1.90593E-06 0.00000E+00
 -1       871-4.47423E-06-2.07703E-06 8.27181E-25
 -1       872-4.28190E-06-2.21649E-06 0.00000E+00
 -1       873-4.10913E-06-2.32925E-06 0.00000E+00
 -1       874-3.95253E-06-2.42035E-06 0.00000E+00
 -1       875-3.80853E-06-2.49469E-06 8.27181E-25
 -1       876-3.67362E-06-2.55723E-06 1.65436E-24
 -1       877-3.54448E-06-2.61306E-06 0.00000E+00
 -1       878-3.41769E-06-2.66721E-06-2.06795E-25
 -1       879-5.41843E-06-2.55874E-06-1.65436E-24
 -1       880-5.41943E-06-2.56559E-06 0.00000E+00
 -1       881-5.42052E-06-2.50416E-06 0.00000E+00
 -1       882-5.42164E-06-2.40305E-06 1.03398E-25
 -1       883-5.42272E-06-2.29088E-06 0.00000E+00
 -1       884-5.42362E-06-2.19628E-06 0.00000E+00
 -1       885-5.42423E-06-2.14787E-06 0.00000E+00
 -1       886-5.09495E-06-2.49799E-06 0.00000E+00
 -1       887-4.70971E-06-2.54311E-06 0.00000E+00
 -1       888-4.29948E-06-2.58866E-06 0.00000E+00
 -1       889-3.90178E-06-2.63456E-06 0.00000E+00
 -1       890-3.55415E-06-2.68065E-06 8.27181E-25
 -1       891-5.22263E-06-2.54661E-06 0.00000E+00
 -1       892-5.04209E-06-2.61095E-06 1.65436E-24
 -1       893-4.87739E-06-2.65316E-06 0.00000E+00
 -1       894-4.72671E-06-2.67598E-06 0.00000E+00
 -1       895-4.58836E-06-2.68219E-06 3.30872E-24
 -1       896-4.46047E-06-2.67447E-06 0.00000E+00
 -1       897-4.34120E-06-2.65553E-06 0.00000E+00
 -1       898-4.22888E-06-2.62818E-06 1.65436E-24
 -1       899-4.12174E-06-2.59519E-06-1.65436E-24
 -1       900-5.35751E-06-2.19372E-06 3.30872E-24
 -1       901-5.29090E-06-2.12495E-06 1.65436E-24
 -1       902-5.22411E-06-1.99499E-06 0.00000E+00
 -1       903-5.15721E-06-1.83190E-06-8.27181E-25
 -1       904-5.09027E-06-1.66374E-06 1.65436E-24
 -1       905-5.02330E-06-1.51856E-06-8.27181E-25
 -1       906-4.95631E-06-1.42442E-06 0.00000E+00
 -1       907-5.20650E-06-2.23447E-06 0.00000E+00
 -1       908-4.94090E-06-2.29987E-06 8.27181E-25
 -1       909-4.65773E-06-2.36589E-06 0.00000E+00
 -1       910-4.38889E-06-2.43214E-06-4.13590E-25
 -1       911-4.16628E-06-2.49819E-06 4.13590E-25
 -1       912-5.24176E-06-2.18949E-06 0.00000E+00
 -1       913-5.06253E-06-2.19518E-06 0.00000E+00
 -1       914-4.88887E-06-2.19236E-06-3.30872E-24
 -1       915-4.72146E-06-2.18044E-06 0.00000E+00
 -1       916-4.56110E-06-2.15890E-06 0.00000E+00
 -1       917-4.40842E-06-2.12709E-06 0.00000E+00
 -1       918-4.26405E-06-2.08437E-06-3.30872E-24
 -1       919-4.12875E-06-2.03019E-06-1.65436E-24
 -1       920-4.00320E-06-1.96393E-06 0.00000E+00
 -1       921-4.80103E-06-1.38180E-06 0.00000E+00
 -1       922-4.71176E-06-1.26633E-06 1.65436E-24
 -1       923-4.62235E-06-1.09312E-06-3.30872E-24
 -1       924-4.53284E-06-8.93376E-07 0.00000E+00
 -1       925-4.44329E-06-6.98282E-07 0.00000E+00
 -1       926-4.35372E-06-5.39028E-07 1.65436E-24
 -1       927-4.26414E-06-4.46807E-07-3.30872E-24
 -1       928-4.73026E-06-1.48383E-06 0.00000E+00
 -1       929-4.53310E-06-1.56526E-06 8.27181E-25
 -1       930-4.32406E-06-1.64747E-06 0.00000E+00
 -1       931-4.12966E-06-1.72972E-06 4.13590E-25
 -1       932-3.97642E-06-1.81130E-06-2.06795E-25
 -1       933-4.67293E-06-1.37580E-06 0.00000E+00
 -1       934-4.44304E-06-1.35094E-06 3.30872E-24
 -1       935-4.20711E-06-1.33267E-06 0.00000E+00
 -1       936-3.96886E-06-1.31644E-06 3.30872E-24
 -1       937-3.73216E-06-1.29782E-06 0.00000E+00
 -1       938-3.50065E-06-1.27217E-06 0.00000E+00
 -1       939-3.27792E-06-1.23485E-06 0.00000E+00
 -1       940-3.06766E-06-1.18126E-06 0.00000E+00
 -1       941-2.87348E-06-1.10678E-06-6.61744E-24
 -1       942-4.19777E-06-4.87428E-07 1.65436E-24
 -1       943-4.22622E-06-4.59721E-07 0.00000E+00
 -1       944-4.25544E-06-3.94026E-07 2.06795E-25
 -1       945-4.28518E-06-3.15698E-07 0.00000E+00
 -1       946-4.31503E-06-2.50087E-07 8.27181E-25
 -1       947-4.34473E-06-2.22535E-07 0.00000E+00
 -1       948-4.37412E-06-2.58388E-07 0.00000E+00
 -1       949-3.94193E-06-5.39984E-07 0.00000E+00
 -1       950-3.65216E-06-6.35769E-07 8.27181E-25
 -1       951-3.34400E-06-7.32396E-07-1.65436E-24
 -1       952-3.05664E-06-8.28730E-07 2.58494E-25
 -1       953-2.82925E-06-9.23720E-07 0.00000E+00
 -1       954-3.81614E-06-3.47017E-07 6.61744E-24
 -1       955-3.43646E-06-2.49914E-07 0.00000E+00
 -1       956-3.04391E-06-1.66947E-07-1.32349E-23
 -1       957-2.63913E-06-9.82118E-08 0.00000E+00
 -1       958-2.22301E-06-4.40396E-08 0.00000E+00
 -1       959-1.79602E-06-4.40781E-09 6.61744E-24
 -1       960-1.35857E-06 2.06994E-08 0.00000E+00
 -1       961-9.11630E-07 3.09137E-08 0.00000E+00
 -1       962-4.55802E-07 2.61006E-08 6.61744E-24
 -1       963-4.44137E-06-5.59180E-07 0.00000E+00
 -1       964-4.48459E-06-6.77632E-07-1.03398E-25
 -1       965-4.52826E-06-7.45115E-07-4.13590E-25
 -1       966-4.57223E-06-7.69257E-07 4.13590E-25
 -1       967-4.61629E-06-7.57687E-07 0.00000E+00
 -1       968-4.66033E-06-7.18060E-07 0.00000E+00
 -1       969-4.70430E-06-6.58030E-07 8.27181E-25
 -1       970-3.86450E-06-3.20559E-07 0.00000E+00
 -1       971-3.11867E-06-2.56965E-07-8.27181E-25
 -1       972-2.26085E-06-1.93141E-07-1.65436E-24
 -1       973-1.38963E-06-1.29079E-07 0.00000E+00
 -1       974-6.03573E-07-6.48345E-08-3.30872E-24
 -1       975-4.25699E-06-5.15488E-07-1.65436E-24
 -1       976-4.13594E-06-6.16857E-07 0.00000E+00
 -1       977-4.03580E-06-6.90247E-07-1.65436E-24
 -1       978-3.95392E-06-7.39279E-07 1.65436E-24
 -1       979-3.88768E-06-7.67587E-07 0.00000E+00
 -1       980-3.83450E-06-7.78850E-07 0.00000E+00
 -1       981-3.79183E-06-7.76770E-07 0.00000E+00
 -1       982-3.75761E-06-7.65426E-07 0.00000E+00
 -1       983-3.72954E-06-7.48697E-07 0.00000E+00
 -1       984-4.79622E-06-4.90504E-07-8.27181E-25
 -1       985-4.84582E-06-3.33736E-07 4.13590E-25
 -1       986-4.89555E-06-1.15223E-07-1.65436E-24
 -1       987-4.94535E-06 1.64494E-07-2.06795E-25
 -1       988-4.99510E-06 5.04864E-07-1.24077E-24
 -1       989-5.04461E-06 9.05293E-07-2.06795E-25
 -1       990-5.09375E-06 1.36519E-06-7.75482E-25
 -1       991-4.67385E-06-6.07899E-07 0.00000E+00
 -1       992-4.50527E-06-6.30474E-07 0.00000E+00
 -1       993-4.28306E-06-6.53344E-07 0.00000E+00
 -1       994-4.04905E-06-6.77129E-07-8.27181E-25
 -1       995-3.84509E-06-7.02202E-07 3.30872E-24
 -1       996-4.82969E-06-5.14551E-07-7.23783E-25
 -1       997-4.95079E-06-3.91481E-07-1.55096E-25
 -1       998-5.10828E-06-2.19899E-07 4.13590E-25
 -1       999-5.29919E-06-3.79735E-09 2.84343E-25
 -1      1000-5.52058E-06 2.52816E-07-4.13590E-25
 -1      1001-5.76953E-06 5.45891E-07-2.06795E-25
 -1      1002-6.04316E-06 8.71360E-07-8.27181E-25
 -1      1003-6.33890E-06 1.22487E-06 0.00000E+00
 -1      1004-6.65404E-06 1.60222E-06-3.30872E-24
 -1      1005-5.23904E-06 2.57634E-06-1.44757E-24
 -1      1006-5.34291E-06 3.42693E-06-4.13590E-25
 -1      1007-5.44760E-06 4.40461E-06 0.00000E+00
 -1      1008-5.55282E-06 5.47760E-06 0.00000E+00
 -1      1009-5.65810E-06 6.61416E-06 1.65436E-24
 -1      1010-5.76300E-06 7.78244E-06 0.00000E+00
 -1      1011-5.86721E-06 8.95061E-06 0.00000E+00
 -1      1012-5.53802E-06 1.90486E-06 0.00000E+00
 -1      1013-5.83799E-06 1.92637E-06 0.00000E+00
 -1      1014-6.08646E-06 1.94760E-06 0.00000E+00
 -1      1015-6.33028E-06 1.96781E-06-4.13590E-25
 -1      1016-6.61633E-06 1.98651E-06 0.00000E+00
 -1      1017-5.46031E-06 2.42874E-06 0.00000E+00
 -1      1018-5.84052E-06 3.05871E-06 0.00000E+00
 -1      1019-6.27486E-06 3.76145E-06 0.00000E+00
 -1      1020-6.75510E-06 4.52571E-06 0.00000E+00
 -1      1021-7.27308E-06 5.34021E-06 0.00000E+00
 -1      1022-7.82055E-06 6.19370E-06-8.27181E-25
 -1      1023-8.38930E-06 7.07490E-06 1.65436E-24
 -1      1024-8.97157E-06 7.97220E-06 0.00000E+00
 -1      1025-9.55936E-06 8.87419E-06-1.65436E-24
 -1      1026-6.00966E-06 1.12755E-05 8.27181E-25
 -1      1027-6.05513E-06 1.25904E-05 2.06795E-25
 -1      1028-6.10105E-06 1.39986E-05 8.27181E-25
 -1      1029-6.14725E-06 1.54661E-05 4.13590E-25
 -1      1030-6.19350E-06 1.69591E-05-3.30872E-24
 -1      1031-6.23960E-06 1.84435E-05 0.00000E+00
 -1      1032-6.28540E-06 1.98854E-05 0.00000E+00
 -1      1033-6.79191E-06 1.00374E-05 1.65436E-24
 -1      1034-7.47029E-06 9.98513E-06 8.27181E-25
 -1      1035-8.07314E-06 9.93232E-06-1.65436E-24
 -1      1036-8.67286E-06 9.87867E-06 0.00000E+00
 -1      1037-9.34184E-06 9.82412E-06-1.65436E-24
 -1      1038-6.52821E-06 1.10299E-05 0.00000E+00
 -1      1039-7.11564E-06 1.20156E-05 0.00000E+00
 -1      1040-7.72880E-06 1.30368E-05 3.30872E-24
 -1      1041-8.36418E-06 1.40885E-05 0.00000E+00
 -1      1042-9.01839E-06 1.51653E-05 0.00000E+00
 -1      1043-9.68787E-06 1.62623E-05 1.65436E-24
 -1      1044-1.03691E-05 1.73743E-05 0.00000E+00
 -1      1045-1.10588E-05 1.84960E-05-8.27181E-25
 -1      1046-1.17538E-05 1.96221E-05-4.13590E-25
 -1      1047-6.35407E-06 2.25974E-05 0.00000E+00
 -1      1048-6.37967E-06 2.40228E-05-2.06795E-25
 -1      1049-6.40547E-06 2.55043E-05 2.06795E-25
 -1      1050-6.43138E-06 2.70182E-05 0.00000E+00
 -1      1051-6.45732E-06 2.85408E-05-8.27181E-25
 -1      1052-6.48317E-06 3.00482E-05-4.13590E-25
 -1      1053-6.50887E-06 3.15168E-05 8.27181E-25
 -1      1054-7.41989E-06 2.11703E-05 3.30872E-24
 -1      1055-8.41089E-06 2.10858E-05 0.00000E+00
 -1      1056-9.35594E-06 2.10007E-05 0.00000E+00
 -1      1057-1.03093E-05 2.09153E-05-1.65436E-24
 -1      1058-1.13251E-05 2.08295E-05 1.65436E-24
 -1      1059-7.02499E-06 2.23221E-05 0.00000E+00
 -1      1060-7.73118E-06 2.34140E-05 0.00000E+00
 -1      1061-8.44921E-06 2.45228E-05 0.00000E+00
 -1      1062-9.17747E-06 2.56459E-05-1.65436E-24
 -1      1063-9.91446E-06 2.67808E-05 0.00000E+00
 -1      1064-1.06585E-05 2.79250E-05 0.00000E+00
 -1      1065-1.14080E-05 2.90761E-05-3.30872E-24
 -1      1066-1.21614E-05 3.02314E-05 8.27181E-25
 -1      1067-1.29173E-05 3.13884E-05 0.00000E+00
 -1      1068-6.55098E-06 3.42940E-05 1.29247E-25
 -1      1069-6.56856E-06 3.57014E-05-2.06795E-25
 -1      1070-6.58622E-06 3.71325E-05 4.13590E-25
 -1      1071-6.60394E-06 3.85741E-05 0.00000E+00
 -1      1072-6.62168E-06 4.00131E-05 8.27181E-25
 -1      1073-6.63944E-06 4.14366E-05 8.27181E-25
 -1      1074-6.65722E-06 4.28313E-05 0.00000E+00
 -1      1075-7.75929E-06 3.28617E-05 0.00000E+00
 -1      1076-8.92710E-06 3.27980E-05 0.00000E+00
 -1      1077-1.00699E-05 3.27339E-05 0.00000E+00
 -1      1078-1.12207E-05 3.26697E-05-8.27181E-25
 -1      1079-1.24125E-05 3.26054E-05-8.27181E-25
 -1      1080-7.29061E-06 3.40167E-05 0.00000E+00
 -1      1081-8.04767E-06 3.51153E-05 1.65436E-24
 -1      1082-8.80635E-06 3.62168E-05 0.00000E+00
 -1      1083-9.56619E-06 3.73202E-05-8.27181E-25
 -1      1084-1.03268E-05 3.84248E-05 0.00000E+00
 -1      1085-1.10876E-05 3.95298E-05 0.00000E+00
 -1      1086-1.18482E-05 4.06342E-05 1.65436E-24
 -1      1087-1.26082E-05 4.17373E-05 4.13590E-25
 -1      1088-1.33671E-05 4.28382E-05-8.27181E-25
 -1      1089-7.93295E-06 4.41433E-05 0.00000E+00
 -1      1090-9.16354E-06 4.41013E-05 0.00000E+00
 -1      1091-1.03826E-05 4.40592E-05 0.00000E+00
 -1      1092-1.16056E-05 4.40172E-05-4.13590E-25
 -1      1093-1.28484E-05 4.39753E-05 0.00000E+00
 -1      1094-2.37613E-07-4.38432E-07 0.00000E+00
 -1      1095-4.78019E-07-7.74220E-07 3.30872E-24
 -1      1096-7.18774E-07-1.03007E-06 0.00000E+00
 -1      1097-9.59696E-07-1.22932E-06-3.30872E-24
 -1      1098-1.20049E-06-1.39531E-06 0.00000E+00
 -1      1099-1.44067E-06-1.55141E-06 0.00000E+00
 -1      1100-1.67995E-06-1.72100E-06 0.00000E+00
 -1      1101-2.08340E-06-2.13914E-06-3.30872E-24
 -1      1102-2.25690E-06-2.28965E-06 0.00000E+00
 -1      1103-2.43084E-06-2.39321E-06 3.30872E-24
 -1      1104-2.60502E-06-2.46470E-06 1.65436E-24
 -1      1105-2.77913E-06-2.51898E-06 0.00000E+00
 -1      1106-2.95276E-06-2.57097E-06 0.00000E+00
 -1      1107-3.12567E-06-2.63555E-06 3.30872E-24
 -1      1108-3.38389E-06-2.80328E-06-1.65436E-24
 -1      1109-3.47563E-06-2.82128E-06-1.65436E-24
 -1      1110-3.56755E-06-2.79634E-06 1.65436E-24
 -1      1111-3.65954E-06-2.74373E-06 0.00000E+00
 -1      1112-3.75145E-06-2.67871E-06-3.30872E-24
 -1      1113-3.84299E-06-2.61656E-06-1.65436E-24
 -1      1114-3.93398E-06-2.57256E-06-1.65436E-24
 -1      1115-4.00655E-06-2.54575E-06 0.00000E+00
 -1      1116-3.99071E-06-2.48186E-06 0.00000E+00
 -1      1117-3.97469E-06-2.38410E-06 0.00000E+00
 -1      1118-3.95852E-06-2.26674E-06-4.13590E-25
 -1      1119-3.94225E-06-2.14407E-06-8.27181E-25
 -1      1120-3.92576E-06-2.03038E-06-2.06795E-25
 -1      1121-3.90898E-06-1.93996E-06-8.27181E-25
 -1      1122-3.74611E-06-1.82883E-06 0.00000E+00
 -1      1123-3.59770E-06-1.72639E-06 0.00000E+00
 -1      1124-3.44866E-06-1.59417E-06 3.30872E-24
 -1      1125-3.29919E-06-1.44709E-06 0.00000E+00
 -1      1126-3.14956E-06-1.30004E-06 0.00000E+00
 -1      1127-2.99985E-06-1.16795E-06-1.65436E-24
 -1      1128-2.85010E-06-1.06572E-06 0.00000E+00
 -1      1129-2.36915E-06-8.83069E-07 0.00000E+00
 -1      1130-2.02949E-06-6.80844E-07 0.00000E+00
 -1      1131-1.68865E-06-4.39508E-07 0.00000E+00
 -1      1132-1.34715E-06-1.97770E-07 0.00000E+00
 -1      1133-1.00575E-06 5.67652E-09 6.61744E-24
 -1      1134-6.65449E-07 1.32131E-07 3.30872E-24
 -1      1135-3.26853E-07 1.42869E-07 6.61744E-24
 -1      1136-4.40689E-07-2.51997E-07 6.61744E-24
 -1      1137-9.05421E-07-4.40860E-07 0.00000E+00
 -1      1138-1.37368E-06-5.75041E-07 1.32349E-23
 -1      1139-1.84431E-06-6.63371E-07-6.61744E-24
 -1      1140-2.31540E-06-7.14704E-07 0.00000E+00
 -1      1141-2.78579E-06-7.37948E-07 0.00000E+00
 -1      1142-3.25470E-06-7.42019E-07-1.32349E-23
 -1      1143-4.11514E-06-6.67519E-07 0.00000E+00
 -1      1144-4.52639E-06-4.97431E-07 6.61744E-24
 -1      1145-4.93888E-06-2.37055E-07 0.00000E+00
 -1      1146-5.35213E-06 1.01548E-07-6.61744E-24
 -1      1147-5.76539E-06 5.06283E-07 0.00000E+00
 -1      1148-6.17783E-06 9.64965E-07-6.61744E-24
 -1      1149-6.58898E-06 1.46540E-06-1.32349E-23
 -1      1150-7.37890E-06 2.64460E-06 6.61744E-24
 -1      1151-7.77557E-06 3.44007E-06-3.30872E-24
 -1      1152-8.17354E-06 4.35518E-06 0.00000E+00
 -1      1153-8.57231E-06 5.36251E-06 6.61744E-24
 -1      1154-8.97108E-06 6.43462E-06 0.00000E+00
 -1      1155-9.36896E-06 7.54396E-06-6.61744E-24
 -1      1156-9.76537E-06 8.66298E-06 6.61744E-24
 -1      1157-1.04356E-05 1.09183E-05 0.00000E+00
 -1      1158-1.07252E-05 1.21911E-05 0.00000E+00
 -1      1159-1.10157E-05 1.35551E-05 0.00000E+00
 -1      1160-1.13066E-05 1.49817E-05-3.30872E-24
 -1      1161-1.15975E-05 1.64424E-05-6.61744E-24
 -1      1162-1.18876E-05 1.79084E-05 0.00000E+00
 -1      1163-1.21765E-05 1.93513E-05-6.61744E-24
 -1      1164-1.26081E-05 2.21214E-05 0.00000E+00
 -1      1165-1.27617E-05 2.35655E-05-1.65436E-24
 -1      1166-1.29156E-05 2.50564E-05 3.30872E-24
 -1      1167-1.30696E-05 2.65749E-05 0.00000E+00
 -1      1168-1.32236E-05 2.81018E-05 3.30872E-24
 -1      1169-1.33772E-05 2.96180E-05 1.65436E-24
 -1      1170-1.35299E-05 3.11043E-05 0.00000E+00
 -1      1171-1.37339E-05 3.39490E-05-1.65436E-24
 -1      1172-1.37904E-05 3.53816E-05 0.00000E+00
 -1      1173-1.38469E-05 3.68293E-05 0.00000E+00
 -1      1174-1.39035E-05 3.82819E-05-8.27181E-25
 -1      1175-1.39600E-05 3.97291E-05 0.00000E+00
 -1      1176-1.40163E-05 4.11604E-05 8.27181E-25
 -1      1177-1.40723E-05 4.25657E-05 0.00000E+00
 -3
    1PSTEP                         2           1           1          
  100CL  101 1.000000000        1001                     0    1           1
 -4  STRESS      6    1
 -5  SXX         1    4    1    1
 -5  SYY         1    4    2    2
 -5  SZZ         1    4    3    3
 -5  SXY         1    4    1    2
 -5  SYZ         1    4    2    3
 -5  SZX         1    4    3    1
 -1         1 1.08602E+06 4.28078E+05 5.35260E+02 4.49052E+05-8.03387E-11 1.01924E-09
 -1         2 9.51605E+05 4.91489E+02-9.02075E+02 1.32477E+05-4.63842E-11 2.26919E-10
 -1         3 5.97684E+05-3.44024E+04-7.83792E+02 6.31708E+04 1.40972E-11 3.03771E-10
 -1         4 4.12045E+05-2.31428E+04-5.42672E+02 3.55472E+04-3.56977E-11-1.43018E-10
 -1         5 3.00030E+05-3.49730E+03-3.49305E+02 2.21908E+04-5.32054E-11 2.82625E-10
 -1         6 2.26036E+05 8.57061E+03-2.36065E+02 1.58877E+04-5.17275E-11 5.39330E-10
 -1         7 1.60673E+05 1.13158E+04-2.39520E+02 2.26235E+04-3.53282E-11-5.54564E-10
 -1         8 7.24394E+04 3.51137E+04-2.07997E+02 3.05569E+04-5.91172E-12 3.50155E-10
 -1         9 1.64323E+04 1.09481E+05-1.67496E+01 2.58811E+03 1.68257E-11-1.94092E-10
 -1        14 8.03627E+04 1.85225E+05-1.47661E+03 2.48000E+05 9.09495E-12-4.09273E-10
 -1        15 3.78141E+05 5.94917E+04-1.51880E+03 2.78439E+05 9.58001E-11 6.30583E-11
 -1        16 3.60415E+05-3.07369E+04-1.29142E+03 1.64380E+05-1.45519E-10-2.43593E-10
 -1        17 2.91409E+05-3.07818E+04-9.59555E+02 1.01998E+05 9.39811E-11 4.54141E-10
 -1        18 2.24587E+05-5.95197E+03-6.51793E+02 6.64146E+04 1.50825E-11-1.76973E-10
 -1        19 1.79158E+05 1.13533E+04-4.00405E+02 3.76454E+04-5.54413E-11 2.16005E-11
 -1        20 1.62365E+05 4.47058E+03-3.36572E+02 3.19763E+04-1.34908E-11-1.69166E-10
 -1        21 1.51686E+05 2.94077E+04-3.53736E+02 7.78664E+04-1.63709E-11-2.42229E-10
 -1        22 4.64230E+04 1.79261E+05-7.17712E+01 9.37337E+04-2.92204E-10-1.36250E-10
 -1        27-7.98410E+03-2.67129E+04-4.76168E+02 4.71661E+04 7.91260E-11 5.56611E-10
 -1        28 7.71616E+04 4.26568E+04-5.88576E+02 1.46431E+05 1.08381E-10 7.71555E-11
 -1        29 1.86172E+05 4.06985E+03-8.60398E+02 1.77648E+05-1.90388E-10-2.98617E-10
 -1        30 2.19838E+05-1.19872E+04-8.33060E+02 1.49715E+05 2.40410E-10 8.85242E-11
 -1        31 2.04236E+05 9.48459E+03-6.82985E+02 1.26982E+05 1.10200E-10-2.07971E-10
 -1        32 1.49464E+05 3.64409E+04-4.23263E+02 8.27426E+04-4.59295E-11-7.73070E-11
 -1        33 1.31985E+05 9.30615E+03-2.11695E+02 2.25171E+04-4.33526E-11 5.72982E-11
 -1        34 1.82763E+05-1.54348E+04-2.89054E+02 2.40282E+04-9.47390E-11-7.74586E-11
 -1        35 3.49798E+05 2.03768E+05 4.76080E+02 1.59215E+05-3.97828E-10-3.15367E-10
 -1        36 3.13635E+05-2.08926E+04-3.03489E+02 1.12623E+05-4.06794E-09-1.40051E-09
 -1        37 1.33643E+05-4.25658E+04-3.15347E+02 5.61366E+04 1.62947E-09-4.75893E-10
 -1        38 3.49045E+04-4.20559E+04-2.12797E+02 2.93670E+04 2.01010E-09-5.41831E-10
 -1        39-5.23122E+03-8.55337E+04-2.91038E+02 1.60197E+04 2.09984E-08-6.03087E-10
 -1        40-3.31771E+04-1.04746E+05 3.02986E+00 5.41671E+04-1.20508E-10 5.12046E-10
 -1        41-1.96391E+04-5.58116E+03-6.70463E+01 7.78814E+04-1.22024E-11 7.34190E-10
 -1        42 4.36459E+04-3.13114E+03-3.61349E+02 1.12052E+05-6.00267E-11 5.45697E-10
 -1        43 1.22622E+05-7.03552E+03-5.58712E+02 1.22916E+05 5.76013E-11 4.43682E-10
 -1        44 1.82885E+05 6.37226E+03-6.86804E+02 1.32593E+05 1.67195E-10-6.66205E-11
 -1        45 1.90635E+05 6.15782E+04-7.37155E+02 1.68231E+05 8.27640E-11 1.78564E-10
 -1        46 1.27002E+04 5.59601E+04-2.11989E+02 8.49818E+04-2.02022E-10-1.29603E-11
 -1        47-4.58044E+04-3.38777E+04 1.45243E+02 1.10697E+04 2.27374E-11-1.14142E-10
 -1        48-2.97349E+04 5.86278E+04 1.82207E+02 5.56357E+04-4.86125E-10-2.16763E-10
 -1        49 2.04007E+04-6.11631E+03-3.54303E+02 1.42154E+05 7.16379E-10 6.64234E-10
 -1        50 2.69410E+04-4.59226E+04-3.40633E+02 9.81081E+04 9.95897E-11-1.54781E-09
 -1        51 1.29431E+04-3.97336E+04-2.29904E+02 5.92513E+04-1.01234E-09-1.12717E-09
 -1        52-5.34197E+03-6.47054E+04-2.23603E+02 2.80105E+04 7.93796E-09-6.50987E-10
 -1        53-3.23790E+05-1.82995E+05-7.24278E+02 8.32582E+04-2.73985E-11-1.86446E-10
 -1        54-2.58596E+05-3.18411E+04-2.60078E+02 5.50160E+04 1.88955E-10 1.68711E-10
 -1        55-1.51818E+05-2.14643E+04-3.44819E+02 5.78065E+04-3.84185E-10-1.54159E-10
 -1        56-1.01657E+04-1.59160E+04-4.26771E+02 6.70564E+04 6.85958E-11 3.80624E-10
 -1        57 1.65624E+05-6.18322E+03-4.85679E+02 7.69246E+04-1.46208E-10 1.00044E-10
 -1        58 4.09503E+05 1.54645E+04-3.38050E+02 1.22676E+05 3.70335E-11 1.00044E-11
 -1        59 9.10059E+04 1.24516E+05-5.06664E+00 1.95125E+05-6.37044E-10-1.66256E-09
 -1        60-5.72230E+05-5.23841E+04-6.85716E+02 3.26190E+04 1.56691E-10 5.09317E-11
 -1        61-5.46478E+05-3.59006E+04-3.89081E+02 3.30379E+04 2.13960E-10 2.46700E-10
 -1        62-4.34039E+05-4.37317E+04-5.85606E+02 8.98681E+04-3.02609E-10 2.01089E-09
 -1        63-2.48652E+05-4.15773E+04-4.86726E+02 8.99284E+04 3.69329E-09 4.09273E-11
 -1        64-1.04028E+05-2.52591E+04-2.63003E+02 6.07820E+04 6.04988E-09 9.54969E-10
 -1        65-2.08173E+04-1.92289E+04-7.74060E+01 4.00956E+04 7.24419E-09-2.09184E-10
 -1        66 2.19118E+06 2.04330E+04 7.07092E+04 2.02635E-09 1.90745E-09 8.84029E-10
 -1        67 2.20650E+06 8.60165E+03 4.00055E+04 3.22962E-09 5.50036E-09-8.36735E-11
 -1        68 2.19788E+06 2.35933E+02 2.36239E+04-6.32951E-10 1.25614E-09-2.40880E-09
 -1        69 2.20022E+06 6.25549E+02 2.34730E+04-3.80672E-09-2.32074E-09-6.75186E-10
 -1        70 2.19749E+06 6.52211E+02 3.35760E+04 2.11463E-09-1.21526E-09-5.27507E-11
 -1        71 2.21275E+06 1.55539E+04 6.77077E+04 1.90812E-09-2.15155E-10-2.23827E-09
 -1        72 2.18527E+06 3.68737E+04 1.25686E+05-1.53523E-09 5.86526E-11 2.98314E-10
 -1        73-2.97042E+04 5.23539E+05-9.95526E+04 4.16875E+05 2.91038E-11-1.04046E-09
 -1        74-1.11354E+04 5.00240E+05-4.98942E+04 5.35670E+05-8.36735E-11-1.74623E-10
 -1        75 8.28543E+02 5.11410E+05-1.77553E+04 4.15890E+05 1.81899E-12-6.54836E-10
 -1        76 4.63593E+03 5.12078E+05 1.33132E+03 5.36088E+05-2.91038E-11-8.68113E-10
 -1        77 8.34127E+03 5.08588E+05 1.95999E+04 4.16461E+05-2.36469E-11-3.49246E-10
 -1        78 1.24652E+06 5.85965E+05 3.22596E+04 8.48358E+05-1.38243E-10-6.64841E-10
 -1        79 1.27024E+06 5.63771E+05 1.77737E+04 8.48029E+05-2.81943E-11 2.27942E-10
 -1        80 1.24481E+06 5.81445E+05 9.55166E+03 8.54258E+05-1.27329E-11 6.07542E-10
 -1        81 1.26699E+06 5.59824E+05 7.99889E+03 8.48166E+05 3.85626E-10-1.40028E-09
 -1        82 1.24470E+06 5.81240E+05 1.00010E+04 8.54405E+05 1.77351E-10-5.37511E-10
 -1        83 1.26762E+06 5.60395E+05 1.77993E+04 8.48339E+05-4.26212E-10 1.18416E-09
 -1        84 1.24449E+06 5.81575E+05 3.33855E+04 8.53426E+05-6.27551E-11-1.93722E-10
 -1        85 1.28281E+06 5.76641E+05 7.33966E+04 8.47289E+05 1.01863E-10 6.95763E-11
 -1        86 1.25044E+06 6.02217E+05 1.39058E+05 8.27579E+05-5.82077E-11 1.67347E-10
 -1        87 1.36121E+06 1.21231E+04 4.20540E+04 1.68438E-09-2.65014E-10 7.13044E-10
 -1        88 1.37030E+06 5.10717E+03 2.39251E+04 5.55701E-10 1.57152E-10 5.76847E-10
 -1        89 1.36518E+06 1.30885E+02 1.43760E+04-2.01754E-09 3.01270E-11-5.54564E-10
 -1        90 1.36663E+06 3.91587E+02 1.46739E+04-1.22415E-09 1.61059E-12-1.58252E-10
 -1        91 1.36490E+06 4.23770E+02 2.13848E+04 3.54902E-10-1.53020E-10 1.80080E-10
 -1        92 1.37472E+06 1.00065E+04 4.34395E+04 3.67436E-10-2.63433E-11-1.06957E-09
 -1        93 1.35705E+06 2.36936E+04 8.07744E+04 1.37879E-09 2.74761E-10 8.36735E-11
 -1        94-4.66708E+04-6.04031E+05-1.63279E+05 9.45139E+04 1.16415E-10 4.56566E-10
 -1        95-2.01290E+04-6.40132E+05-9.55086E+04 1.21444E+05 1.26420E-10 9.34051E-10
 -1        96-1.55389E+03-6.18999E+05-6.20192E+04 9.42260E+04 3.36058E-10 1.17052E-09
 -1        97-1.38039E+04-6.34852E+05-7.43532E+04 1.21675E+05 4.38376E-10 1.03228E-09
 -1        98-3.13434E+04-6.09651E+05-1.14144E+05 9.43135E+04 2.25555E-10-2.65231E-10
 -1        99 6.05435E+05 2.62651E+05-8.56446E+03 4.04839E+05 1.79284E-10-5.40240E-10
 -1       100 6.18479E+05 2.49110E+05-4.20996E+03 3.99128E+05 2.29647E-10 7.08042E-10
 -1       101 6.05561E+05 2.64120E+05-1.29310E+03 4.03227E+05 2.97405E-10 9.92259E-10
 -1       102 6.19643E+05 2.49933E+05 5.40829E+02 3.98989E+05 1.05501E-10 3.80098E-10
 -1       103 6.05474E+05 2.64099E+05 2.63227E+03 4.03143E+05 2.82853E-10 4.89990E-11
 -1       104 6.20028E+05 2.50256E+05 6.25126E+03 3.99102E+05 3.97904E-12 6.93035E-10
 -1       105 6.05380E+05 2.64204E+05 1.25951E+04 4.02771E+05 3.16049E-10 2.64549E-10
 -1       106 6.25852E+05 2.56614E+05 2.82195E+04 3.98741E+05 8.00355E-11 2.52726E-10
 -1       107 6.07747E+05 2.72098E+05 5.36749E+04 3.92782E+05-2.36469E-11-6.58474E-10
 -1       108 9.25419E+05 1.07318E+04 3.70314E+04 2.39288E-09 1.02431E-10 1.50976E-10
 -1       109 9.33461E+05 4.52708E+03 2.06974E+04 2.53749E-10 2.18875E-10-1.00226E-09
 -1       110 9.28943E+05 1.40454E+02 1.17408E+04 6.58062E-10-1.12619E-10 1.11731E-09
 -1       111 9.30070E+05 2.91951E+02 1.09322E+04-1.42131E-09 9.01473E-12 1.07715E-09
 -1       112 9.28820E+05 2.72490E+02 1.49023E+04-1.15379E-09 1.90496E-10 4.15639E-10
 -1       113 9.35452E+05 6.73776E+03 2.95011E+04 1.41245E-09 8.58898E-11 5.02041E-10
 -1       114 9.23545E+05 1.59491E+04 5.44978E+04-1.51158E-09-2.19432E-10 5.63887E-11
 -1       115-3.26649E+04-5.25552E+05-1.14910E+05 1.35395E+04-2.18279E-11-5.13410E-10
 -1       116-1.41860E+04-5.50890E+05-6.83421E+04 1.73260E+04-8.00355E-11-7.27596E-12
 -1       117-1.21919E+03-5.35834E+05-4.64146E+04 1.34639E+04 9.09495E-11-1.47793E-10
 -1       118-1.13544E+04-5.48451E+05-5.87810E+04 1.74298E+04-5.82077E-11 1.16609E-09
 -1       119-2.57852E+04-5.28014E+05-9.27046E+04 1.34463E+04 1.45519E-11-3.18551E-10
 -1       120 3.51388E+05 1.46866E+05-6.73645E+03 2.31781E+05 1.49214E-10-5.59339E-10
 -1       121 3.59806E+05 1.38071E+05-3.41590E+03 2.27856E+05 3.36513E-11-7.37487E-10
 -1       122 3.51530E+05 1.48000E+05-1.27200E+03 2.30535E+05 2.85581E-10-4.18140E-10
 -1       123 3.60692E+05 1.38734E+05-1.23826E+02 2.27761E+05 4.56566E-10 3.96660E-10
 -1       124 3.51483E+05 1.47999E+05 9.80601E+02 2.30480E+05 1.63709E-10 1.30387E-09
 -1       125 3.60883E+05 1.38890E+05 2.65426E+03 2.27817E+05-2.22968E-10 1.02546E-10
 -1       126 3.51442E+05 1.48041E+05 5.48357E+03 2.30317E+05-3.72893E-11 6.65068E-11
 -1       127 3.63405E+05 1.41720E+05 1.23630E+04 2.27673E+05 3.59046E-09 5.54519E-09
 -1       128 3.52514E+05 1.51465E+05 2.35439E+04 2.25925E+05 3.63798E-11-6.04814E-10
 -1       129 6.62664E+05 8.11939E+03 2.79745E+04-1.32695E-09 7.88130E-11-2.38288E-10
 -1       130 6.68745E+05 3.42722E+03 1.55487E+04-1.99998E-09 9.73740E-11-1.29057E-09
 -1       131 6.65333E+05 1.12002E+02 8.65323E+03 1.63365E-09 3.56164E-11-6.86441E-10
 -1       132 6.66148E+05 2.08146E+02 7.79066E+03-7.32385E-10 2.22886E-10-1.44010E-09
 -1       133 6.65268E+05 1.82172E+02 1.03340E+04 6.67114E-10 3.09029E-11-4.51109E-10
 -1       134 6.69804E+05 4.60268E+03 2.02294E+04 1.66665E-09-9.90471E-11-5.27507E-11
 -1       135 6.61669E+05 1.08930E+04 3.72611E+04-7.38510E-10-2.70701E-11-3.29237E-10
 -1       136-2.23453E+04-3.55859E+05-7.87551E+04-1.11965E+04-2.54659E-11 2.61252E-10
 -1       137-9.71427E+03-3.73221E+05-4.71169E+04-1.44630E+04-1.95541E-11 7.44706E-10
 -1       138-8.55377E+02-3.62863E+05-3.25012E+04-1.12001E+04 2.66027E-11-6.86668E-11
 -1       139-8.17214E+03-3.71881E+05-4.18951E+04-1.44102E+04-1.93268E-11-6.49834E-10
 -1       140-1.85944E+04-3.57191E+05-6.66261E+04-1.12455E+04 2.91038E-11-4.32010E-11
 -1       141 2.29862E+05 9.62756E+04-6.43464E+03 1.52372E+05-9.77707E-11-3.05590E-10
 -1       142 2.35135E+05 9.06546E+04-3.32880E+03 1.49450E+05 3.43084E-09 4.52729E-09
 -1       143 2.30043E+05 9.73181E+04-1.37821E+03 1.51187E+05-1.35287E-10-5.84578E-10
 -1       144 2.35935E+05 9.13200E+04-4.67798E+02 1.49374E+05 3.32875E-10 8.02356E-10
 -1       145 2.30015E+05 9.73275E+04 2.43045E+02 1.51140E+05-9.77707E-12 2.07137E-10
 -1       146 2.36044E+05 9.14081E+04 1.09474E+03 1.49407E+05 1.63311E-10-1.98952E-11
 -1       147 2.29995E+05 9.73416E+04 2.42140E+03 1.51066E+05-5.79803E-11 3.25144E-11
 -1       148 2.37159E+05 9.27056E+04 5.54534E+03 1.49351E+05-1.79625E-11 8.09450E-11
 -1       149 2.30499E+05 9.88617E+04 1.05968E+04 1.49082E+05 7.27596E-12-6.32099E-11
 -1       150 4.91550E+05 5.78866E+03 1.99419E+04 8.10360E-10-8.00527E-11 6.53927E-10
 -1       151 4.95883E+05 2.44403E+03 1.10750E+04 3.05590E-10-9.20675E-11 2.20552E-10
 -1       152 4.93453E+05 8.04322E+01 6.14601E+03 1.71433E-10 5.68416E-11 1.05729E-11
 -1       153 4.94028E+05 1.47126E+02 5.50528E+03 3.94145E-10 2.95781E-10-3.87942E-10
 -1       154 4.93409E+05 1.27418E+02 7.27158E+03-1.73621E-10-1.88984E-11-3.82897E-10
 -1       155 4.96593E+05 3.23135E+03 1.42098E+04 1.22213E-09-3.34700E-11-4.42014E-10
 -1       156 4.90884E+05 7.64562E+03 2.61608E+04 3.61979E-10-8.90506E-11 2.74667E-10
 -1       157-1.47548E+04-1.95207E+05-5.20307E+04-1.86826E+04-4.00178E-11 1.20355E-09
 -1       158-6.41329E+03-2.06682E+05-3.11876E+04-2.40679E+04-4.45652E-11-1.28427E-09
 -1       159-5.67457E+02-1.99827E+05-2.16222E+04-1.86587E+04-1.65983E-11-2.96916E-09
 -1       160-5.48035E+03-2.05870E+05-2.80269E+04-2.40419E+04 1.68257E-11-8.09905E-10
 -1       161-1.24844E+04-1.96012E+05-4.46880E+04-1.87073E+04 8.91305E-11 9.04492E-10
 -1       162 1.59689E+05 6.81778E+04-6.94282E+03 1.07472E+05-6.02540E-11-4.71573E-10
 -1       163 1.62866E+05 6.46283E+04-3.63585E+03 1.05064E+05-8.45830E-11-6.43354E-10
 -1       164 1.59922E+05 6.92652E+04-1.59372E+03 1.06191E+05-2.30557E-10-4.90672E-10
 -1       165 1.63691E+05 6.53803E+04-7.32555E+02 1.04992E+05-2.97064E-10-1.55543E-10
 -1       166 1.59902E+05 6.92812E+04-1.90526E+02 1.06143E+05-3.35262E-10-2.57103E-10
 -1       167 1.63759E+05 6.54349E+04 2.41062E+02 1.05013E+05-8.54499E-11 3.63116E-10
 -1       168 1.59892E+05 6.92798E+04 7.74051E+02 1.06117E+05 2.87173E-10-1.93836E-10
 -1       169 1.64128E+05 6.59088E+04 1.89492E+03 1.05004E+05 6.73720E-09 7.21195E-09
 -1       170 1.60087E+05 6.97869E+04 3.67054E+03 1.05423E+05 3.03316E-10-5.93559E-10
 -1       171 3.59581E+05 3.70660E+03 1.27980E+04-3.79032E-10-1.15097E-10-1.78261E-10
 -1       172 3.62356E+05 1.56466E+03 7.15718E+03 1.94552E-09-1.71058E-10-2.03841E-10
 -1       173 3.60797E+05 4.81881E+01 4.06724E+03 9.82048E-10-6.37168E-11 1.40858E-10
 -1       174 3.61185E+05 1.01585E+02 3.80024E+03-5.73110E-10 1.70070E-10 1.64718E-10
 -1       175 3.60753E+05 9.52511E+01 5.19489E+03 2.31992E-10-1.99973E-11 2.40107E-10
 -1       176 3.63067E+05 2.35354E+03 1.02979E+04 1.05388E-09-1.18134E-10-2.40902E-10
 -1       177 3.58913E+05 5.56668E+03 1.90284E+04-1.60071E-10-1.11589E-10-7.41238E-10
 -1       178-9.92613E+03-9.61807E+04-3.50397E+04-2.07802E+04 2.36469E-11 1.20963E-10
 -1       179-4.31536E+03-1.03912E+05-2.10736E+04-2.67521E+04-5.22959E-12 5.84180E-10
 -1       180-3.85513E+02-9.92847E+04-1.47367E+04-2.07461E+04 4.02451E-11-1.34150E-11
 -1       181-3.78696E+03-1.03452E+05-1.92831E+04-2.67385E+04 1.07434E-11 3.90912E-10
 -1       182-8.63986E+03-9.66366E+04-3.08800E+04-2.07934E+04-9.09495E-12 3.84262E-11
 -1       183 1.29246E+05 5.45983E+04-5.12601E+03 8.64429E+04-3.71756E-11 8.83119E-10
 -1       184 1.31976E+05 5.15928E+04-2.69029E+03 8.45530E+04-6.67342E-11 7.41238E-11
 -1       185 1.29414E+05 5.54072E+04-1.19122E+03 8.55001E+04 8.68567E-11-2.63640E-10
 -1       186 1.32589E+05 5.21423E+04-5.72670E+02 8.44980E+04 1.51203E-11-7.54596E-11
 -1       187 1.29400E+05 5.54198E+04-2.03849E+02 8.54642E+04-1.35856E-11 2.78476E-10
 -1       188 1.32632E+05 5.21770E+04 4.66860E+01 8.45114E+04 1.12003E-10-1.37447E-10
 -1       189 1.29395E+05 5.54162E+04 3.14861E+02 8.54528E+04 7.65681E-11-1.83491E-10
 -1       190 1.32780E+05 5.24075E+04 8.28251E+02 8.45149E+04-5.95719E-11-3.02407E-11
 -1       191 1.29499E+05 5.56224E+04 1.62555E+03 8.51398E+04 1.01181E-10 2.10036E-10
 -1       192 1.82208E+05 2.67710E+02 9.98296E+02-6.03251E-10-3.34720E-11-2.98002E-10
 -1       193 1.82406E+05 1.11634E+02 6.90019E+02-9.44524E-10 6.31192E-12-5.94795E-10
 -1       194 1.82290E+05-5.29619E+00 6.44172E+02-1.22117E-10-3.57522E-11-2.81403E-10
 -1       195 1.82368E+05 2.69015E+01 1.00607E+03-8.54996E-11-1.62238E-11 3.49303E-10
 -1       196 1.82245E+05 4.32606E+01 1.80789E+03 1.05865E-09 7.16684E-11 2.90129E-10
 -1       197 1.83139E+05 9.25847E+02 3.93141E+03 1.45747E-10 1.08318E-10-3.42709E-10
 -1       198 1.81519E+05 2.18718E+03 7.42813E+03 5.93445E-11-6.44274E-11-2.44654E-10
 -1       199-7.60699E+03-8.12749E+04-2.69866E+04-8.70340E+03 2.27374E-11-4.20783E-10
 -1       200-3.31932E+03-8.72283E+04-1.64807E+04-1.12087E+04 1.36424E-11 5.33078E-10
 -1       201-3.14298E+02-8.36325E+04-1.19656E+04-8.69093E+03 2.97860E-11-6.01403E-11
 -1       202-3.26234E+03-8.71782E+04-1.62871E+04-1.11992E+04 9.89075E-12-2.88424E-10
 -1       203-7.46819E+03-8.13237E+04-2.65368E+04-8.71258E+03-2.09184E-11-1.65073E-10
 -1       204 1.53530E+05 7.74684E+04 5.72133E+03 1.07467E+05 1.50976E-10-2.02476E-10
 -1       205 1.55705E+05 7.55631E+04 3.03926E+03 1.08023E+05 1.98270E-10 1.59787E-10
 -1       206 1.53267E+05 7.66393E+04 1.41970E+03 1.08534E+05 2.25555E-10 8.23661E-11
 -1       207 1.55102E+05 7.48764E+04 8.31920E+02 1.08063E+05 4.46903E-10-1.26526E-10
 -1       208 1.53271E+05 7.66231E+04 6.10468E+02 1.08574E+05-2.63242E-10 4.29679E-10
 -1       209 1.55096E+05 7.48710E+04 7.43183E+02 1.08061E+05-3.38761E-09-8.77037E-10
 -1       210 1.53269E+05 7.66385E+04 1.20385E+03 1.08541E+05-3.47029E-10 4.13138E-10
 -1       211 1.55599E+05 7.54358E+04 2.53477E+03 1.08024E+05 5.85203E-10-3.01867E-10
 -1       212 1.53483E+05 7.73318E+04 4.75365E+03 1.07656E+05 2.70347E-10-4.34511E-10
 -1       213 5.58791E+03-3.08483E+03-1.06119E+04 2.22826E-11 3.00988E-13 4.21096E-10
 -1       214 3.25725E+03-1.30370E+03-5.85857E+03-5.02155E-10-3.14110E-11 5.14547E-10
 -1       215 4.57304E+03-4.51624E+01-3.18316E+03 1.29863E-09 1.30880E-11 2.52385E-10
 -1       216 4.25974E+03-7.33036E+01-2.74065E+03 1.17146E-09-2.82897E-11-2.34255E-10
 -1       217 4.58521E+03-5.82420E+01-3.49668E+03-3.90269E-10 4.88675E-11 2.91834E-10
 -1       218 3.05950E+03-1.52310E+03-6.73189E+03-6.74163E-11-2.99212E-11 1.01909E-09
 -1       219 5.77356E+03-3.60184E+03-1.23441E+04 2.94676E-10 6.97608E-11 1.98270E-10
 -1       220-2.02195E+03 4.07257E+04-7.53374E+03 2.26844E+04 1.07775E-10-1.10958E-10
 -1       221-9.07319E+02 3.90525E+04-5.26049E+03 2.91654E+04 7.32143E-11-4.48154E-10
 -1       222-1.26949E+02 4.01459E+04-4.96366E+03 2.26316E+04 2.24418E-10-1.82979E-10
 -1       223-1.81408E+03 3.82643E+04-8.33194E+03 2.91815E+04 8.52651E-11-1.06837E-10
 -1       224-4.22986E+03 4.15086E+04-1.46707E+04 2.26685E+04 2.11458E-10-3.85398E-11
 -1       225 1.15808E+05 9.04300E+04 9.63694E+03 1.00752E+05-3.27873E-10-2.76486E-10
 -1       226 1.12164E+05 9.45429E+04 5.06339E+03 1.03833E+05 2.67733E-11 4.86494E-10
 -1       227 1.15446E+05 8.89535E+04 2.25262E+03 1.02531E+05 1.34889E-10-1.34278E-10
 -1       228 1.11055E+05 9.34651E+04 1.10411E+03 1.03920E+05-1.37486E-10-6.65977E-10
 -1       229 1.15467E+05 8.89310E+04 4.36915E+02 1.02599E+05-6.84395E-11 7.66249E-11
 -1       230 1.10983E+05 9.34014E+04 2.33768E+01 1.03898E+05-3.43789E-10 2.11458E-11
 -1       231 1.15479E+05 8.89401E+04-3.74969E+02 1.02619E+05-2.38970E-10-1.45974E-10
 -1       232 1.10818E+05 9.30725E+04-1.07390E+03 1.03893E+05 1.14369E-10-1.38243E-10
 -1       233 1.15321E+05 8.86896E+04-2.14195E+03 1.03048E+05 5.59339E-11-2.19416E-10
 -1       241 3.59928E+03 2.46114E+05 1.23042E+04 4.12205E+03 1.44610E-10 9.68612E-11
 -1       242 1.53213E+03 2.48807E+05 6.65881E+03 5.21752E+03-3.45608E-11-3.55612E-10
 -1       243 8.71945E+01 2.47296E+05 3.35348E+03 4.07895E+03 3.65844E-10-1.94859E-10
 -1       244 3.11073E+02 2.47748E+05 2.52451E+03 5.28720E+03-3.93925E-11-2.85581E-10
 -1       245 6.25213E+02 2.47170E+05 2.69634E+03 4.05206E+03 5.54905E-10 1.91676E-10
 -1       323-3.39823E+04-9.45943E+03-3.17653E+04 1.15927E+05-1.25146E-09-3.91310E-10
 -1       324-4.10081E+04-4.05576E+03-1.77774E+04 1.48755E+05 7.03949E-10-8.36735E-11
 -1       325-3.72723E+04-2.14705E+02-1.01776E+04 1.15528E+05 2.71029E-09-6.10271E-10
 -1       326-3.83848E+04-3.02336E+02-9.61381E+03 1.49183E+05 4.00178E-11 2.66482E-10
 -1       327-3.72546E+04-2.73717E+02-1.32758E+04 1.15515E+05-2.65743E-09 2.84217E-10
 -1       328-4.32400E+04-6.08850E+03-2.64275E+04 1.48956E+05-7.27823E-10-1.62800E-10
 -1       329-3.24394E+04-1.43844E+04-4.89005E+04 1.15744E+05 1.46974E-09-6.18456E-10
 -1       330-8.39051E+03-9.63281E+03-2.85274E+04 3.17233E+04 6.18456E-11 1.34150E-10
 -1       331-3.50577E+03-1.59252E+04-1.48048E+04 4.10407E+04-9.18590E-11-1.07229E-09
 -1       332-1.26380E+02-1.24317E+04-6.21794E+03 3.17536E+04 1.63823E-10-6.95763E-10
 -1       333 1.93941E+02-1.26618E+04-2.21682E+03 4.08305E+04-1.57115E-10-3.89718E-10
 -1       334 6.27443E+02-1.27948E+04 7.18358E+02 3.19215E+04 2.72848E-11-3.71074E-10
 -1       335 3.51712E+05 2.60080E+05 3.36673E+04 2.95084E+05 2.27828E-10-4.07454E-10
 -1       336 3.43972E+05 2.69478E+05 1.79999E+04 3.04387E+05 3.63798E-12-3.17868E-10
 -1       337 3.50502E+05 2.54832E+05 8.63670E+03 3.01212E+05-1.43700E-10-6.63022E-10
 -1       338 3.40050E+05 2.65821E+05 5.50569E+03 3.04702E+05-3.53793E-10-1.02295E-09
 -1       339 3.50504E+05 2.54702E+05 4.79956E+03 3.01409E+05 9.64064E-11-5.99925E-10
 -1       340 3.40126E+05 2.65898E+05 6.88266E+03 3.04703E+05 2.32831E-10-6.98947E-10
 -1       341 3.50437E+05 2.54856E+05 1.19895E+04 3.01058E+05 1.70985E-10-8.24912E-10
 -1       342 3.45552E+05 2.71441E+05 2.58217E+04 3.04261E+05 1.15506E-10-4.40195E-10
 -1       343 3.52387E+05 2.62203E+05 4.86845E+04 2.92047E+05-9.00400E-11-3.51065E-10
 -1       344 6.62320E+05 6.38716E+03 2.24243E+04 9.69803E+04-2.41926E-10 3.56522E-10
 -1       345 6.67123E+05 2.70541E+03 1.25558E+04 1.24495E+05-2.40107E-10 5.62068E-10
 -1       346 6.64286E+05 7.94881E+01 7.13153E+03 9.66677E+04-9.34051E-10 1.04592E-11
 -1       347 6.64921E+05 2.13570E+02 6.66504E+03 1.24806E+05 2.75577E-10-8.85848E-10
 -1       348 6.64166E+05 1.91333E+02 9.09821E+03 9.66644E+04 1.87038E-09 1.24601E-10
 -1       349 6.68244E+05 4.13839E+03 1.80246E+04 1.24585E+05 4.80213E-10-6.88487E-10
 -1       350 6.61031E+05 9.70991E+03 3.32820E+04 9.68927E+04-4.84761E-10 1.91903E-10
 -1       351-1.73583E+04-1.40206E+05-6.06603E+04 1.42178E+05 1.81899E-10-9.67702E-10
 -1       352-7.22550E+03-1.53726E+05-3.43024E+04 1.82979E+05 5.15911E-10 5.81849E-10
 -1       353-2.98242E+02-1.45971E+05-2.01863E+04 1.41904E+05 4.35648E-10 7.70797E-11
 -1       354-3.29767E+03-1.50292E+05-2.09762E+04 1.82950E+05 2.94676E-10-2.00089E-11
 -1       355-7.79561E+03-1.43585E+05-2.97031E+04 1.42201E+05 2.97405E-10-1.25510E-09
 -1       356 6.07614E+05 3.52108E+05 5.10514E+04 4.46979E+05-1.03682E-10 1.05138E-09
 -1       357 6.10937E+05 3.51284E+05 2.73022E+04 4.56697E+05-7.91260E-11 6.04814E-10
 -1       358 6.05540E+05 3.44432E+05 1.31336E+04 4.56423E+05 6.63931E-11 7.91260E-11
 -1       359 6.05316E+05 3.45460E+05 8.41657E+03 4.57168E+05 2.39197E-10-1.20826E-09
 -1       360 6.05555E+05 3.44241E+05 7.41855E+03 4.56777E+05 4.29736E-11 1.01028E-09
 -1       361 6.05478E+05 3.45589E+05 1.07232E+04 4.57218E+05-9.36780E-11 1.60782E-09
 -1       362 6.05468E+05 3.44467E+05 1.87416E+04 4.56248E+05-5.82077E-11-2.18733E-10
 -1       363 6.13858E+05 3.54379E+05 4.03986E+04 4.56574E+05-3.89264E-10-2.12822E-10
 -1       364 6.08630E+05 3.55856E+05 7.61924E+04 4.42105E+05-3.61979E-10-2.94676E-10
 -1       365 6.89729E+05 1.05683E+04 3.64397E+04 5.45654E+04-9.00400E-11 1.19871E-09
 -1       366 6.97650E+05 4.46917E+03 2.01457E+04 7.00543E+04 4.41105E-11 6.51482E-10
 -1       367 6.93167E+05 1.57316E+02 1.09952E+04 5.43943E+04 1.17780E-10 2.95131E-10
 -1       368 6.94179E+05 2.71075E+02 9.54695E+03 7.02220E+04 3.17414E-10-1.24692E-09
 -1       369 6.93108E+05 2.16961E+02 1.22680E+04 5.43934E+04-1.30512E-10-3.18323E-10
 -1       370 6.98426E+05 5.37192E+03 2.36884E+04 7.00895E+04 3.91083E-11-7.90806E-10
 -1       371 6.88948E+05 1.26853E+04 4.34700E+04 5.45297E+04-5.95719E-11-1.11686E-09
 -1       372-2.31429E+04-4.39754E+05-8.17031E+04 1.00350E+05-3.63798E-11-9.34961E-10
 -1       373-9.95556E+03-4.57831E+05-4.87753E+04 1.29141E+05-2.19643E-10 5.59567E-10
 -1       374-7.78697E+02-4.47111E+05-3.34798E+04 1.00136E+05 4.13820E-11-6.44491E-10
 -1       375-8.21583E+03-4.56347E+05-4.29178E+04 1.29165E+05-1.20053E-10-1.93745E-09
 -1       376-1.89173E+04-4.41276E+05-6.80955E+04 1.00327E+05 3.21961E-10-1.25237E-09
 -1       377 4.91910E+05 2.60463E+05 4.12699E+04 3.45471E+05-1.44610E-10-1.83718E-10
 -1       378 4.99035E+05 2.55358E+05 2.20277E+04 3.52030E+05 5.78666E-10 2.63981E-10
 -1       379 4.90161E+05 2.54330E+05 1.05086E+04 3.53126E+05 2.07365E-10 1.52795E-10
 -1       380 4.94553E+05 2.50576E+05 6.57256E+03 3.52384E+05-3.93356E-11-1.69848E-09
 -1       381 4.90178E+05 2.54186E+05 5.53762E+03 3.53413E+05 1.54472E-10-2.58638E-10
 -1       382 4.94633E+05 2.50640E+05 7.71457E+03 3.52410E+05 2.37037E-11 1.18547E-10
 -1       383 4.90127E+05 2.54347E+05 1.32857E+04 3.53042E+05-1.01409E-10 3.06954E-11
 -1       384 5.00497E+05 2.56881E+05 2.85141E+04 3.51970E+05 3.42334E-09 4.52883E-09
 -1       385 4.92401E+05 2.62330E+05 5.37197E+04 3.43065E+05-1.03682E-10 3.81988E-11
 -1       386 5.67772E+05 9.05087E+03 3.11403E+04 3.29740E+04-6.50289E-11 1.05501E-10
 -1       387 5.74553E+05 3.82585E+03 1.71764E+04 4.23374E+04-1.41881E-10-2.94790E-10
 -1       388 5.70737E+05 1.36290E+02 9.30218E+03 3.28725E+04-1.89402E-10-1.19209E-09
 -1       389 5.71591E+05 2.19688E+02 7.95557E+03 4.24376E+04 1.53477E-11-2.43290E-11
 -1       390 5.70703E+05 1.71067E+02 1.00856E+04 3.28718E+04 5.40012E-11-3.51520E-10
 -1       391 5.75038E+05 4.37776E+03 1.93575E+04 4.23556E+04-2.44427E-11-4.29281E-10
 -1       392 5.67299E+05 1.03492E+04 3.54686E+04 3.29559E+04 1.05956E-10-6.49379E-10
 -1       393-1.97007E+04-3.94238E+05-6.97673E+04 6.01010E+04-7.27596E-12 4.37922E-10
 -1       394-8.55072E+03-4.09639E+05-4.22439E+04 7.73277E+04-9.78844E-11 1.41631E-09
 -1       395-7.54147E+02-4.00410E+05-3.00414E+04 5.99680E+04-1.12777E-10-2.40789E-10
 -1       396-7.89184E+03-4.09082E+05-4.00318E+04 7.73534E+04 7.27596E-11 1.93268E-10
 -1       397-1.81012E+04-3.94819E+05-6.46278E+04 6.00769E+04 4.18368E-11 1.59162E-11
 -1       398 3.79441E+05 1.98026E+05 3.09210E+04 2.64839E+05-4.00178E-11 3.51065E-10
 -1       399 3.85368E+05 1.93614E+05 1.64798E+04 2.69582E+05 1.46429E-10 3.20142E-10
 -1       400 3.78117E+05 1.93445E+05 7.81156E+03 2.70579E+05 6.91216E-11-1.02773E-10
 -1       401 3.82016E+05 1.90014E+05 4.79250E+03 2.69839E+05 1.65983E-10-1.04365E-10
 -1       402 3.78134E+05 1.93341E+05 3.88723E+03 2.70793E+05 5.20686E-11 3.27987E-10
 -1       403 3.82047E+05 1.90040E+05 5.23703E+03 2.69849E+05 1.69337E-10 7.96661E-11
 -1       404 3.78104E+05 1.93451E+05 8.89254E+03 2.70545E+05-2.31921E-11 1.16643E-10
 -1       405 3.85940E+05 1.94201E+05 1.90041E+04 2.69556E+05-2.25100E-11-6.97582E-10
 -1       406 3.79628E+05 1.98758E+05 3.57668E+04 2.63903E+05 7.27596E-11 3.71074E-10
 -1       407 4.54770E+05 6.97481E+03 2.39800E+04 1.79409E+04 5.06361E-10-7.63976E-10
 -1       408 4.59994E+05 2.94719E+03 1.32169E+04 2.30373E+04-6.45286E-10-1.29251E-09
 -1       409 4.57062E+05 1.04543E+02 7.13992E+03 1.78862E+04-1.71440E-09 1.92074E-10
 -1       410 4.57716E+05 1.64636E+02 6.07621E+03 2.30915E+04-5.07384E-10 4.53156E-10
 -1       411 4.57041E+05 1.27144E+02 7.66876E+03 1.78858E+04 6.62226E-10-3.22871E-11
 -1       412 4.60325E+05 3.31813E+03 1.46896E+04 2.30462E+04 7.11509E-10-1.70985E-10
 -1       413 4.54455E+05 7.84866E+03 2.69019E+04 1.79321E+04 1.48475E-10-4.00178E-11
 -1       414-1.37142E+04-2.37122E+05-4.86932E+04 3.81671E+04 2.54659E-10 2.03272E-10
 -1       415-5.97412E+03-2.47867E+05-2.97678E+04 4.90885E+04 2.72053E-10-2.09184E-10
 -1       416-5.55782E+02-2.41385E+05-2.16664E+04 3.80790E+04 3.76076E-10-2.64890E-11
 -1       417-5.91213E+03-2.47821E+05-2.95682E+04 4.91134E+04 4.21096E-10-4.09273E-11
 -1       418-1.35651E+04-2.37181E+05-4.82288E+04 3.81435E+04 2.63753E-10 1.13232E-10
 -1       419 2.65804E+05 1.40973E+05 1.83206E+04 1.88050E+05-2.68301E-11-4.33829E-10
 -1       420 2.69199E+05 1.38470E+05 9.76709E+03 1.90890E+05-6.73026E-11-1.63709E-11
 -1       421 2.65016E+05 1.38262E+05 4.63515E+03 1.91451E+05 2.63753E-11 5.97424E-10
 -1       422 2.67217E+05 1.36334E+05 2.85478E+03 1.91042E+05-1.19769E-10-5.87363E-10
 -1       423 2.65025E+05 1.38200E+05 2.33365E+03 1.91578E+05-1.50123E-10-7.40386E-11
 -1       424 2.67238E+05 1.36352E+05 3.16660E+03 1.91049E+05 8.94786E-11-4.96929E-10
 -1       425 2.65006E+05 1.38267E+05 5.39363E+03 1.91427E+05 1.30740E-10-3.92333E-10
 -1       426 2.69608E+05 1.38874E+05 1.15385E+04 1.90869E+05 7.15090E-11 2.31353E-10
 -1       427 2.65925E+05 1.41495E+05 2.17204E+04 1.87395E+05-1.36424E-10 1.85537E-10
 -1       428 4.14246E+05 6.64254E+03 2.28272E+04 7.39268E+03 5.51381E-11-2.19188E-10
 -1       429 4.19222E+05 2.80589E+03 1.25723E+04 9.49416E+03 1.08002E-10-4.15071E-10
 -1       430 4.16432E+05 9.93156E+01 6.77467E+03 7.37026E+03 1.17609E-10-5.50244E-11
 -1       431 4.17054E+05 1.53592E+02 5.73670E+03 9.51633E+03-6.99458E-11 2.83364E-10
 -1       432 4.16416E+05 1.17432E+02 7.20695E+03 7.37015E+03-1.94120E-11 1.23919E-10
 -1       433 4.19494E+05 3.10845E+03 1.37763E+04 9.49730E+03-1.89175E-10 2.40107E-10
 -1       434 4.13990E+05 7.35569E+03 2.52155E+04 7.38958E+03-1.68484E-10-4.01997E-10
 -1       435-8.57611E+03-9.43876E+04-3.04288E+04 1.02388E+04-8.00355E-11 3.52429E-11
 -1       436-3.74163E+03-1.01101E+05-1.85894E+04 1.31440E+04 9.20863E-12 8.39520E-10
 -1       437-3.53669E+02-9.70469E+04-1.35079E+04 1.02050E+04-7.26459E-11-1.29489E-10
 -1       438-3.68539E+03-1.01055E+05-1.84021E+04 1.31712E+04 1.54614E-11-3.61524E-11
 -1       439-8.43976E+03-9.44380E+04-2.99935E+04 1.02125E+04-1.34605E-10 3.61295E-10
 -1       440 1.64124E+05 7.68495E+04 4.81280E+03 1.11310E+05-1.25283E-10 4.75495E-10
 -1       441 1.67399E+05 7.37971E+04 2.58870E+03 1.11351E+05 1.41426E-10-1.42336E-10
 -1       442 1.63885E+05 7.61686E+04 1.27442E+03 1.12209E+05-3.42743E-09-5.56373E-09
 -1       443 1.66914E+05 7.32061E+04 8.71372E+02 1.11382E+05-3.61410E-09-6.18604E-09
 -1       444 1.63881E+05 7.61501E+04 8.54364E+02 1.12243E+05 1.13232E-10-2.36753E-10
 -1       445 1.66946E+05 7.32320E+04 1.33316E+03 1.11392E+05-1.43435E-10 1.68654E-10
 -1       446 1.63871E+05 7.61753E+04 2.39734E+03 1.12174E+05-3.52429E-12-3.09797E-11
 -1       447 1.67999E+05 7.44045E+04 5.21211E+03 1.11322E+05-1.92813E-10-1.81672E-10
 -1       448 1.64313E+05 7.76133E+04 9.84680E+03 1.10339E+05 2.00089E-11-1.81899E-11
 -1       449 3.60752E+05 5.75944E+03 1.97512E+04 1.58358E+04 1.19826E-10 4.44743E-10
 -1       450 3.65059E+05 2.43532E+03 1.08011E+04 2.03492E+04 2.01737E-10-4.19618E-10
 -1       451 3.62648E+05 9.25052E+01 5.66973E+03 1.57937E+04 1.67120E-11-2.72109E-10
 -1       452 3.63149E+05 1.23654E+02 4.54680E+03 2.03908E+04-7.95808E-11-2.28852E-10
 -1       453 3.62659E+05 8.14737E+01 5.41158E+03 1.57939E+04 8.10587E-11 4.03588E-10
 -1       454 3.64897E+05 2.25421E+03 1.00822E+04 2.03439E+04 1.93381E-10 4.76120E-10
 -1       455 3.60906E+05 5.33307E+03 1.83251E+04 1.58409E+04 4.18368E-11 2.21007E-10
 -1       456-8.60848E+03-1.19386E+05-3.04397E+04-8.98912E+03-1.09139E-11-5.11022E-11
 -1       457-3.74886E+03-1.26098E+05-1.84070E+04-1.15784E+04-5.22959E-12 3.68401E-10
 -1       458-3.43079E+02-1.22068E+05-1.30477E+04-8.97732E+03-7.16227E-12-4.63672E-10
 -1       459-3.42921E+03-1.25820E+05-1.73246E+04-1.15669E+04-1.35287E-11-7.53403E-10
 -1       460-7.83046E+03-1.19662E+05-2.79249E+04-9.00038E+03-5.82077E-11-2.78533E-10
 -1       461 1.76647E+05 7.04738E+04 7.78268E+03 1.10842E+05-4.36557E-11 1.40503E-10
 -1       462 1.82690E+05 6.48060E+04 4.14196E+03 1.10700E+05 8.00355E-11-8.75161E-10
 -1       463 1.76266E+05 6.93687E+04 1.94925E+03 1.12297E+05 1.00044E-10-2.41016E-11
 -1       464 1.81892E+05 6.38486E+04 1.17004E+03 1.10746E+05-1.12436E-10 3.03771E-10
 -1       465 1.76268E+05 6.93467E+04 9.05938E+02 1.12351E+05 1.52994E-10-2.27146E-10
 -1       466 1.81892E+05 6.38494E+04 1.16775E+03 1.10748E+05-5.46834E-11 1.20963E-10
 -1       467 1.76269E+05 6.93678E+04 1.94368E+03 1.12300E+05-7.88987E-11-1.53022E-10
 -1       468 1.82668E+05 6.48231E+04 4.12873E+03 1.10712E+05-1.00158E-10-5.67184E-10
 -1       469 1.76671E+05 7.04498E+04 7.75802E+03 1.10847E+05-1.56433E-10-5.50244E-11
 -1       470 2.59276E+04-4.70027E+03-1.61863E+04 3.89677E+04-6.82121E-11 2.00089E-11
 -1       471 2.23632E+04-1.97737E+03-8.97092E+03 5.01190E+04 1.51431E-10 6.09361E-11
 -1       472 2.43695E+04-5.88936E+01-4.94480E+03 3.88774E+04-3.89150E-10 2.72848E-11
 -1       473 2.38726E+04-1.06988E+02-4.37555E+03 5.02069E+04-6.25278E-11 1.35969E-10
 -1       474 2.44072E+04-9.65084E+01-5.72204E+03 3.88803E+04 8.27640E-11-4.60204E-10
 -1       475 2.18935E+04-2.53131E+03-1.11345E+04 5.00750E+04-1.35515E-10-1.50976E-10
 -1       476 2.64096E+04-5.99549E+03-2.04790E+04 3.90076E+04-8.04903E-11-1.03682E-10
 -1       477-1.14933E+04-2.01702E+05-4.07498E+04 1.71677E+04 1.09139E-10-4.31381E-10
 -1       478-5.01247E+03-2.10684E+05-2.48249E+04 2.21392E+04 7.18501E-11 1.07548E-10
 -1       479-4.70220E+02-2.05268E+05-1.79169E+04 1.71551E+04 1.40631E-10-3.79941E-10
 -1       480-4.84258E+03-2.10531E+05-2.42422E+04 2.20952E+04 7.91260E-11-2.46473E-10
 -1       481-1.10787E+04-2.01845E+05-3.93967E+04 1.72099E+04-4.91127E-11-3.53339E-10
 -1       482 4.42794E+05 2.03829E+05 4.58225E+04 2.87857E+05 6.54836E-11-6.78483E-10
 -1       483 4.55804E+05 1.93069E+05 2.41782E+04 2.93675E+05 8.54925E-11 4.01997E-10
 -1       484 4.40840E+05 1.97034E+05 1.09727E+04 2.96381E+05 4.95675E-11 3.31966E-10
 -1       485 4.50800E+05 1.87711E+05 5.80933E+03 2.94033E+05-4.98517E-11-2.71029E-10
 -1       486 4.40910E+05 1.96925E+05 3.18939E+03 2.96710E+05-5.36602E-11-4.48381E-10
 -1       487 4.50577E+05 1.87522E+05 2.42170E+03 2.93978E+05-3.97449E-10-6.84850E-10
 -1       488 4.40956E+05 1.96980E+05 2.73083E+03 2.96669E+05-1.24328E-09-9.27685E-10
 -1       489 4.51372E+05 1.88694E+05 4.93645E+03 2.93960E+05 4.14275E-10 2.24645E-10
 -1       490 4.41515E+05 1.98144E+05 8.88865E+03 2.95021E+05-2.72848E-11-1.60981E-10
 -1       498 6.08142E+03 4.24636E+05 1.96421E+04 1.65840E+05 1.30694E-09 1.39153E-10
 -1       499 2.67758E+03 4.28856E+05 9.20434E+03 2.13605E+05 8.54925E-11 6.54836E-11
 -1       500 1.45113E+02 4.26720E+05 1.80442E+03 1.65642E+05 9.60426E-10-6.18456E-11
 -1       501-1.43565E+03 4.25689E+05-4.25058E+03 2.13358E+05 7.27596E-11 1.55524E-10
 -1       502-3.86052E+03 4.28475E+05-1.16567E+04 1.66085E+05-6.09816E-10-1.67347E-10
 -1       580-1.39789E+05-3.26364E+03-1.12306E+04 4.13711E+04-1.18234E-11 7.05739E-10
 -1       581-1.42235E+05-1.39771E+03-6.49794E+03 5.30880E+04 2.34195E-11-1.57343E-10
 -1       582-1.40867E+05-5.51222E+01-4.11422E+03 4.12318E+04-1.23237E-10-4.92946E-10
 -1       583-1.41327E+05-1.48449E+02-4.51952E+03 5.32339E+04 9.26548E-11 5.34328E-11
 -1       584-1.40769E+05-1.64710E+02-6.90398E+03 4.12280E+04 6.06235E-11 2.37151E-10
 -1       585-1.44022E+05-3.33709E+03-1.42712E+04 5.31438E+04 3.63343E-10 1.95200E-10
 -1       586-1.38166E+05-7.84611E+03-2.66464E+04 4.13172E+04 3.18323E-11-3.72893E-10
 -1       587-4.61292E+03-1.86929E+05-1.59335E+04 1.56250E+04-1.00044E-11 1.24260E-10
 -1       588-1.95841E+03-1.90434E+05-8.83025E+03 2.01305E+04 1.39153E-10-6.01716E-10
 -1       589-1.10031E+02-1.88435E+05-4.85243E+03 1.55915E+04 1.15769E-10-3.90266E-10
 -1       590-6.66114E+02-1.89315E+05-4.45842E+03 2.01285E+04-5.88898E-11 3.04226E-10
 -1       591-1.46786E+03-1.88047E+05-5.77453E+03 1.56247E+04-6.07088E-11 7.67272E-10
 -1       592 1.24166E+05 8.57675E+04 2.39982E+04 9.64024E+04 7.18501E-11-3.27418E-10
 -1       593 1.23793E+05 8.73354E+04 1.27644E+04 1.01550E+05 1.62572E-11-5.52518E-10
 -1       594 1.23230E+05 8.21187E+04 5.99951E+03 1.00829E+05 4.83169E-11 1.98725E-10
 -1       595 1.21094E+05 8.46329E+04 3.58655E+03 1.01772E+05 2.00544E-10 8.93692E-10
 -1       596 1.23251E+05 8.20376E+04 2.75310E+03 1.00992E+05 3.29237E-10 6.85645E-10
 -1       597 1.21085E+05 8.46314E+04 3.51827E+03 1.01769E+05-2.72053E-10-7.95964E-10
 -1       598 1.23233E+05 8.21156E+04 5.83420E+03 1.00830E+05 3.55658E-09 5.70344E-09
 -1       599 1.23645E+05 8.73021E+04 1.23777E+04 1.01564E+05-1.07775E-10 8.36735E-10
 -1       600 1.24189E+05 8.55990E+04 2.32555E+04 9.65219E+04 2.56478E-10 8.64020E-11
 -1       601 4.04904E+03-3.62703E+03-1.23007E+04 7.49435E+04-1.10958E-10-1.30285E-10
 -1       602 1.32016E+03-1.53260E+03-6.89510E+03 9.62308E+04 4.54747E-13 1.09139E-10
 -1       603 2.78876E+03-5.53058E+01-3.96707E+03 7.47074E+04-9.09495E-12-7.88532E-10
 -1       604 2.35357E+03-9.26694E+01-3.78118E+03 9.64735E+04-2.17142E-11-3.68345E-10
 -1       605 2.81862E+03-9.52871E+01-5.25718E+03 7.47034E+04 4.79758E-11-2.07365E-10
 -1       606 4.51690E+02-2.40867E+03-1.04926E+04 9.62928E+04 1.47793E-11 1.30422E-09
 -1       607 4.75534E+03-5.71827E+03-1.94322E+04 7.48856E+04-1.00044E-10 4.20187E-10
 -1       608-6.35884E+03-9.19658E+04-2.21148E+04 7.48685E+04 2.04636E-10 7.73070E-12
 -1       609-2.63712E+03-9.68809E+04-1.22432E+04 9.63665E+04 4.82942E-10-2.07092E-09
 -1       610-9.08901E+01-9.40842E+04-6.71317E+03 7.47313E+04 3.12866E-10-8.78231E-10
 -1       611-8.39629E+02-9.53057E+04-6.13994E+03 9.63374E+04 9.82254E-11-3.74712E-10
 -1       612-1.98032E+03-9.35085E+04-7.93434E+03 7.48952E+04 2.38288E-10 8.27640E-10
 -1       613 3.07537E+05 1.95587E+05 3.77079E+04 2.34189E+05-3.41061E-10-5.45697E-12
 -1       614 3.07338E+05 1.97652E+05 2.01083E+04 2.42153E+05-3.08489E-10-8.52879E-10
 -1       615 3.06043E+05 1.89879E+05 9.55509E+03 2.41150E+05 2.94563E-10 2.44654E-10
 -1       616 3.03130E+05 1.93384E+05 5.90698E+03 2.42501E+05 3.17186E-10-3.44926E-10
 -1       617 3.06065E+05 1.89745E+05 4.86566E+03 2.41407E+05 2.43062E-10-6.63448E-10
 -1       618 3.03179E+05 1.93428E+05 6.64753E+03 2.42515E+05 1.24373E-10-1.68484E-10
 -1       619 3.06019E+05 1.89889E+05 1.13552E+04 2.41088E+05 6.18456E-11-7.18501E-11
 -1       620 3.08235E+05 1.98681E+05 2.43123E+04 2.42115E+05-1.77579E-10-1.87356E-10
 -1       621 3.07895E+05 1.96754E+05 4.57783E+04 2.32605E+05-1.02773E-10 2.27374E-10
 -1       622 2.66434E+05 2.11062E+03 7.36793E+03 7.15758E+04-1.76442E-10-9.69521E-10
 -1       623 2.67997E+05 9.06452E+02 4.01066E+03 9.19184E+04-2.96495E-10-3.83807E-10
 -1       624 2.67065E+05 4.37391E+01 2.05275E+03 7.13568E+04 1.48702E-10 1.97360E-10
 -1       625 2.67208E+05 6.92780E+01 1.55856E+03 9.21380E+04 3.98757E-10 4.71118E-10
 -1       626 2.67065E+05 3.90036E+01 1.73837E+03 7.13551E+04-6.16183E-11 6.86214E-10
 -1       627 2.67766E+05 7.02719E+02 3.13270E+03 9.19566E+04-4.02224E-10 3.65617E-10
 -1       628 2.66585E+05 1.61391E+03 5.62861E+03 7.15387E+04-2.18279E-11 9.54969E-11
 -1       629-1.29085E+04-2.39140E+05-4.53398E+04 9.92112E+04 1.09139E-10-1.05410E-09
 -1       630-5.47739E+03-2.49193E+05-2.64180E+04 1.27695E+05-1.88948E-10-1.14505E-09
 -1       631-3.46452E+02-2.43317E+05-1.69955E+04 9.90213E+04 2.67391E-10-1.29376E-10
 -1       632-3.62290E+03-2.47570E+05-2.01248E+04 1.27675E+05-4.99313E-10 6.00039E-10
 -1       633-8.39341E+03-2.40733E+05-3.07200E+04 9.92296E+04 6.00267E-11 7.51243E-10
 -1       634 3.97717E+05 2.29405E+05 4.28788E+04 2.88953E+05-9.60426E-10-2.68665E-09
 -1       635 4.01087E+05 2.28148E+05 2.28566E+04 2.96958E+05-1.92017E-10 8.20819E-11
 -1       636 3.95961E+05 2.22972E+05 1.08445E+04 2.96893E+05-7.34303E-10 9.94078E-10
 -1       637 3.96364E+05 2.23238E+05 6.67239E+03 2.97341E+05-3.11019E-10 7.32712E-10
 -1       638 3.95988E+05 2.22825E+05 5.44367E+03 2.97190E+05-4.00405E-10 5.51211E-10
 -1       639 3.96412E+05 2.23277E+05 7.37269E+03 2.97357E+05-3.95517E-10-1.88265E-10
 -1       640 3.95940E+05 2.22982E+05 1.25479E+04 2.96840E+05 5.91172E-12 4.53383E-10
 -1       641 4.01957E+05 2.29107E+05 2.68345E+04 2.96927E+05-1.59844E-10 3.42880E-10
 -1       642 3.98045E+05 2.30524E+05 5.05145E+04 2.87468E+05 3.63798E-12 5.05679E-10
 -1       643 3.37843E+05 3.74844E+03 1.29317E+04 5.80670E+04-1.77533E-09-8.82210E-11
 -1       644 3.40632E+05 1.59767E+03 7.08635E+03 7.45782E+04-3.64253E-10-6.48015E-10
 -1       645 3.39036E+05 6.93881E+01 3.73805E+03 5.78950E+04 1.52522E-09 1.00954E-10
 -1       646 3.39347E+05 1.04631E+02 3.03144E+03 7.47499E+04 7.87054E-10 4.73847E-10
 -1       647 3.39034E+05 6.92757E+01 3.64541E+03 5.78940E+04 5.47061E-10 2.75577E-10
 -1       648 3.40559E+05 1.54012E+03 6.82729E+03 7.45976E+04 2.89219E-10-2.04636E-11
 -1       649 3.37882E+05 3.60555E+03 1.24189E+04 5.80483E+04 1.16415E-10-3.94721E-10
 -1       650-1.57909E+04-3.17387E+05-5.57639E+04 8.59153E+04-2.91038E-11-1.88720E-10
 -1       651-6.79384E+03-3.29718E+05-3.33148E+04 1.10586E+05 2.45905E-10-1.14233E-09
 -1       652-5.37158E+02-3.22394E+05-2.29157E+04 8.57507E+04 1.45064E-10-2.12026E-10
 -1       653-5.65320E+03-3.28719E+05-2.94431E+04 1.10570E+05-2.00089E-11 3.41970E-10
 -1       654-1.30142E+04-3.18366E+05-4.67702E+04 8.59297E+04-7.45786E-11 1.40062E-10
 -1       655 4.07923E+05 2.26180E+05 4.18167E+04 2.90948E+05 5.47516E-10 1.41881E-10
 -1       656 4.12795E+05 2.23365E+05 2.22600E+04 2.98291E+05 3.25417E-09 1.50249E-09
 -1       657 4.06183E+05 2.19934E+05 1.05007E+04 2.98701E+05 1.10049E-10-3.23780E-10
 -1       658 4.08211E+05 2.18546E+05 6.34569E+03 2.98654E+05-5.89324E-10 8.69477E-10
 -1       659 4.06213E+05 2.19796E+05 4.98764E+03 2.98991E+05-3.01327E-10 7.30552E-10
 -1       660 4.08223E+05 2.18556E+05 6.52315E+03 2.98658E+05-3.59648E-10-1.01805E-09
 -1       661 4.06179E+05 2.19936E+05 1.09324E+04 2.98688E+05-2.11458E-10-8.01947E-10
 -1       662 4.13006E+05 2.23617E+05 2.32682E+04 2.98287E+05 2.04636E-11 2.89219E-10
 -1       663 4.08017E+05 2.26453E+05 4.37518E+04 2.90570E+05-1.16415E-10 2.38288E-10
 -1       664 2.60674E+05 1.29389E+03 4.51028E+03 4.24597E+04-2.68301E-11-7.95808E-11
 -1       665 2.61627E+05 5.54027E+02 2.54058E+03 5.45427E+04-2.47837E-10 1.60071E-10
 -1       666 2.61075E+05 2.21899E+01 1.47326E+03 4.23375E+04 2.11458E-11 5.59339E-11
 -1       667 2.61201E+05 5.10031E+01 1.42486E+03 5.46651E+04 3.64864E-10-3.77440E-10
 -1       668 2.61053E+05 4.50360E+01 1.99689E+03 4.23370E+04-3.00133E-11-6.36646E-12
 -1       669 2.61953E+05 9.22299E+02 3.99877E+03 5.45501E+04 8.00355E-11-4.01087E-10
 -1       670 2.60359E+05 2.16019E+03 7.40313E+03 4.24529E+04 5.41149E-11 1.82524E-10
 -1       671-1.43541E+04-2.63899E+05-5.09425E+04 7.73353E+04 4.00178E-10-2.14641E-10
 -1       672-6.20941E+03-2.75163E+05-3.09685E+04 9.95298E+04 6.31474E-10-6.29598E-10
 -1       673-5.36860E+02-2.68404E+05-2.22467E+04 7.71857E+04 6.46651E-10-7.96092E-11
 -1       674-5.91236E+03-2.74900E+05-2.99568E+04 9.95212E+04 5.32964E-10 2.27601E-10
 -1       675-1.36303E+04-2.64152E+05-4.85926E+04 7.73434E+04 2.65572E-10 1.64164E-10
 -1       676 4.02278E+05 2.31698E+05 4.12746E+04 2.92672E+05-9.09495E-13-6.31189E-10
 -1       677 4.05497E+05 2.30507E+05 2.19397E+04 3.00386E+05-6.00267E-11 7.04631E-10
 -1       678 4.00568E+05 2.25526E+05 1.02852E+04 3.00325E+05 6.84395E-11 2.95586E-10
 -1       679 4.00958E+05 2.25756E+05 6.09342E+03 3.00742E+05 3.00815E-10 3.68800E-10
 -1       680 4.00604E+05 2.25395E+05 4.58520E+03 3.00612E+05 3.97335E-11 1.20224E-10
 -1       681 4.00934E+05 2.25735E+05 5.73683E+03 3.00734E+05-3.12383E-10-3.55044E-10
 -1       682 4.00579E+05 2.25521E+05 9.41822E+03 3.00352E+05-1.28239E-10-3.76531E-10
 -1       683 4.05043E+05 2.30031E+05 1.99146E+04 3.00405E+05 4.00178E-11 4.90218E-10
 -1       684 4.02123E+05 2.31116E+05 3.73877E+04 2.93424E+05-2.00089E-11-1.27329E-11
 -1       685 2.62168E+05 2.21721E+03 7.67704E+03 1.62476E+04-3.84262E-11-3.19233E-10
 -1       686 2.63826E+05 9.36030E+02 4.31161E+03 2.08590E+04-5.79803E-11-4.94992E-10
 -1       687 2.62891E+05 2.73817E+01 2.48418E+03 1.61948E+04-4.88853E-11-4.59693E-10
 -1       688 2.63127E+05 6.42838E+01 2.37603E+03 2.09122E+04 1.53818E-10-4.43265E-10
 -1       689 2.62858E+05 6.24651E+01 3.30644E+03 1.61941E+04-4.71800E-11-1.19826E-10
 -1       690 2.64341E+05 1.51279E+03 6.60161E+03 2.08742E+04-7.73070E-12-1.29603E-10
 -1       691 2.61677E+05 3.57545E+03 1.22198E+04 1.62330E+04-6.60521E-11 1.60071E-10
 -1       692-6.81436E+03-4.06960E+04-2.45804E+04 7.29361E+04-2.40107E-10-5.59339E-10
 -1       693-2.95512E+03-4.61587E+04-1.56344E+04 9.38175E+04 3.13776E-11-1.83718E-10
 -1       694-2.82748E+02-4.28061E+04-1.24423E+04 7.27821E+04-3.05590E-10-2.56591E-10
 -1       695-3.77921E+03-4.68852E+04-1.84376E+04 9.38376E+04-5.00222E-11 1.96451E-10
 -1       696-8.82242E+03-3.99914E+04-3.10926E+04 7.29167E+04-2.42835E-10-5.45697E-12
 -1       697 2.00585E+05 1.33696E+05 1.45199E+04 1.59916E+05 1.77351E-11-2.76941E-10
 -1       698 1.98231E+05 1.36757E+05 7.79164E+03 1.63635E+05-1.99577E-10 6.21753E-10
 -1       699 2.00006E+05 1.31501E+05 3.79953E+03 1.62594E+05-7.98650E-11-3.73888E-10
 -1       700 1.96619E+05 1.35120E+05 2.53217E+03 1.63777E+05-3.73888E-11 4.93401E-11
 -1       701 2.00008E+05 1.31440E+05 2.38534E+03 1.62695E+05 1.10902E-10-5.95719E-11
 -1       702 1.96699E+05 1.35180E+05 3.62328E+03 1.63803E+05-6.76721E-11-4.47926E-10
 -1       703 1.99974E+05 1.31518E+05 6.45222E+03 1.62516E+05 1.48646E-10-3.70619E-10
 -1       704 1.99681E+05 1.38160E+05 1.39883E+04 1.63567E+05-1.28821E-10 3.92902E-10
 -1       705 2.01005E+05 1.35533E+05 2.64132E+04 1.57639E+05-3.52429E-10 2.71029E-10
 -1       706 4.08582E+05 7.97754E+03 2.73476E+04 1.10880E+03-2.22826E-11 2.60115E-10
 -1       707 4.14556E+05 3.37078E+03 1.49402E+04 1.38268E+03 3.42880E-10-7.11225E-10
 -1       708 4.11213E+05 1.26799E+02 7.81411E+03 1.08878E+03 7.33280E-11-2.18961E-10
 -1       709 4.11909E+05 1.65825E+02 6.21716E+03 1.40361E+03-1.31763E-10 5.91740E-11
 -1       710 4.11232E+05 1.07075E+02 7.33853E+03 1.08725E+03-3.29692E-12 5.74346E-10
 -1       711 4.14256E+05 3.03833E+03 1.36156E+04 1.41865E+03 1.64505E-10 4.92719E-10
 -1       712 4.08863E+05 7.19349E+03 2.47201E+04 1.07309E+03 1.70644E-10 2.98314E-10
 -1       713-4.04262E+03 7.43925E+03-1.39964E+04-5.73680E+03-1.94632E-10-3.33102E-10
 -1       714-1.73904E+03 4.35217E+03-7.93155E+03-7.48405E+03-7.40101E-11 1.90198E-10
 -1       715-1.27287E+02 6.14112E+03-4.69235E+03-5.77046E+03-3.42993E-10 1.32786E-10
 -1       716-8.49565E+02 5.12678E+03-4.91700E+03-7.39368E+03-1.39480E-10 1.16415E-10
 -1       717-1.87666E+03 6.67241E+03-6.99177E+03-5.82653E+03-5.39330E-10-3.89264E-10
 -1       718 4.13023E+04 8.27562E+03-9.12584E+03 2.38198E+04-1.63027E-10 9.54969E-11
 -1       719 4.31005E+04 6.01444E+03-4.73273E+03 2.13644E+04-1.05238E-10 3.66981E-10
 -1       720 4.16590E+04 9.65911E+03-1.97932E+03 2.21245E+04 1.90255E-10-2.84530E-10
 -1       721 4.41440E+04 7.05880E+03-7.16451E+02 2.12950E+04-3.70389E-09-5.82281E-09
 -1       722 4.16292E+04 9.66791E+03 2.39553E+02 2.20621E+04 1.52568E-10 4.80441E-10
 -1       723 4.42855E+04 7.17667E+03 1.33494E+03 2.13426E+04-1.99464E-10 4.53838E-10
 -1       724 4.16014E+04 9.68680E+03 3.00936E+03 2.19713E+04-1.18916E-10-3.49701E-10
 -1       725 4.57154E+04 8.76084E+03 6.92110E+03 2.12590E+04-1.45519E-11-2.79556E-10
 -1       726 4.21934E+04 1.16212E+04 1.32389E+04 1.94979E+04-9.09495E-13 1.61890E-10
 -1       727 5.71278E+05 1.20716E+04 4.09677E+04 3.07485E+01-5.14774E-10-1.05865E-09
 -1       728 5.80261E+05 5.10545E+03 2.16249E+04-1.26072E+02 3.19460E-10 1.14596E-09
 -1       729 5.75292E+05 2.37827E+02 9.83081E+03-2.32080E+01-6.20275E-10-5.58884E-10
 -1       730 5.75988E+05 1.35774E+02 5.24438E+03-6.75125E+01-3.04681E-10-2.10207E-10
 -1       731 5.75561E+05-4.94944E+01 2.94991E+03-2.77529E+01 2.72848E-12-2.33513E-10
 -1       732 5.75926E+05 2.92508E+02 2.46172E+03-9.08857E+00-1.33787E-09-4.10864E-10
 -1       733 5.75356E+05 7.19000E+02 2.95127E+03-8.18757E+01 1.42791E-10 4.08818E-10
 -1       734-8.92148E+03-1.29040E+05-3.05017E+04-2.90563E+04-3.20142E-10-1.41199E-10
 -1       735-3.79190E+03-1.35763E+05-1.64939E+04-3.73828E+04-1.36424E-10-6.23004E-11
 -1       736-2.09562E+02-1.31980E+05-8.28030E+03-2.89963E+04-4.34738E-10-9.83249E-11
 -1       737-7.43142E+02-1.33125E+05-6.18199E+03-3.73866E+04-1.94632E-10-3.68232E-10
 -1       738-1.50220E+03-1.31680E+05-6.54068E+03-2.90522E+04-3.75394E-10-9.16316E-11
 -1       739 8.12066E+04 2.91131E+04-5.74790E+03 5.16383E+04-1.75760E-10 5.07043E-11
 -1       740 8.37810E+04 2.62435E+04-2.98058E+03 4.96711E+04 3.93811E-10 4.25416E-10
 -1       741 8.14747E+04 2.99445E+04-1.24642E+03 5.05635E+04 5.53882E-10 1.81444E-10
 -1       742 8.43976E+04 2.69433E+04-4.50400E+02 4.96451E+04-2.63753E-10-1.30512E-10
 -1       743 8.14605E+04 2.99464E+04 1.52843E+02 5.05283E+04-7.92625E-10-1.01863E-10
 -1       744 8.44854E+04 2.70274E+04 8.47484E+02 4.96845E+04-1.77079E-09-4.79304E-10
 -1       745 8.14491E+04 2.99516E+04 1.90631E+03 5.04744E+04-1.54023E-09-8.77662E-11
 -1       746 8.53181E+04 2.81094E+04 4.38826E+03 4.96609E+04 6.07542E-10 4.18368E-11
 -1       747 8.19043E+04 3.11058E+04 8.39223E+03 4.88903E+04-1.34605E-10-2.37833E-10
 -1       748 7.70932E+05 6.53718E+03 2.28083E+04 1.03894E+05-4.96948E-09-1.03682E-09
 -1       749 7.75735E+05 2.91839E+03 1.31026E+04 1.32906E+05-1.95814E-09-2.41016E-10
 -1       750 7.72786E+05 2.19307E+02 8.05103E+03 1.03471E+05 4.38740E-09 5.04770E-10
 -1       751 7.73466E+05 5.35088E+02 8.52136E+03 1.33336E+05-2.32831E-09-9.68612E-10
 -1       752 7.72448E+05 5.20040E+02 1.26946E+04 1.03463E+05-7.63248E-09-2.74667E-09
 -1       753 7.78237E+05 6.37310E+03 2.60045E+04 1.33201E+05-1.43796E-08-2.17915E-09
 -1       754 7.67733E+05 1.44784E+04 4.84345E+04 1.03582E+05-6.06587E-09-1.86083E-09
 -1       755-9.65332E+03 2.29528E+05-3.17613E+04 5.82021E+02-1.91540E-09-1.85310E-10
 -1       756-4.01495E+03 2.22507E+05-1.48748E+04 8.76149E+02-7.34417E-11 5.56042E-10
 -1       757-8.08706E+01 2.26179E+05-2.96503E+03 6.25645E+02-2.26919E-09 9.95897E-11
 -1       758 2.37864E+03 2.28040E+05 6.75600E+03 7.93926E+02 3.77895E-10-2.16460E-10
 -1       759 5.91361E+03 2.23988E+05 1.85039E+04 6.73382E+02-2.36287E-09-6.67796E-10
 -1       760 3.96780E+05 2.82967E+05 1.28901E+04 3.33548E+05-4.48978E-09-7.29415E-10
 -1       761 3.87591E+05 2.92785E+05 7.16144E+03 3.38862E+05-2.09366E-09-9.92713E-10
 -1       762 3.96419E+05 2.80833E+05 3.96119E+03 3.35808E+05-1.12414E-09 5.76620E-10
 -1       763 3.85970E+05 2.91541E+05 3.51522E+03 3.39017E+05 6.02085E-10 1.54910E-09
 -1       764 3.96366E+05 2.80740E+05 4.63328E+03 3.35859E+05 3.33239E-09 3.30601E-10
 -1       765 3.86291E+05 2.91817E+05 8.44233E+03 3.39090E+05-4.14002E-09-1.39607E-10
 -1       766 3.96244E+05 2.80912E+05 1.59479E+04 3.35376E+05-3.37241E-09-1.52340E-10
 -1       767 3.93703E+05 2.99460E+05 3.51421E+04 3.38517E+05-5.50745E-09 8.41283E-11
 -1       768 3.98979E+05 2.90894E+05 6.66070E+04 3.23006E+05 2.01908E-09-1.52795E-10
 -1       769 3.55802E+05 1.90736E+03 6.56656E+03 2.93060E+04-1.93131E-09-7.29869E-10
 -1       770 3.57170E+05 8.68017E+02 4.04767E+03 3.74814E+04 5.79257E-09 5.54110E-10
 -1       771 3.56375E+05 7.49411E+01 3.01516E+03 2.92116E+04-4.81214E-09-1.11913E-09
 -1       772 3.56707E+05 2.08180E+02 3.96455E+03 3.75805E+04 7.15772E-10-2.59206E-11
 -1       773 3.56228E+05 2.29986E+02 6.64613E+03 2.92093E+04-3.42283E-10-9.33142E-10
 -1       774 3.59445E+05 3.41498E+03 1.41596E+04 3.75181E+04 1.88197E-09 1.96451E-10
 -1       775 3.53637E+05 7.90643E+03 2.66276E+04 2.92600E+04 2.49906E-09-6.14818E-10
 -1       776-1.96276E+04-3.55142E+05-6.77105E+04 7.92202E+04 8.68386E-09-5.49335E-10
 -1       777-8.57793E+03-3.70051E+05-3.90147E+04 1.01769E+05 8.53504E-09 2.15869E-09
 -1       778-7.78696E+02-3.61425E+05-2.42868E+04 7.90499E+04 7.11793E-09 1.43245E-10
 -1       779-5.15028E+03-3.67149E+05-2.74982E+04 1.01862E+05 6.44604E-09-2.98229E-10
 -1       780-1.13032E+04-3.58155E+05-4.09516E+04 7.91456E+04 7.31234E-09-5.78439E-10
 -1       781 2.67949E+05 1.39191E+05 1.12771E+04 1.89872E+05-1.65528E-10-9.16771E-10
 -1       782 2.71304E+05 1.36377E+05 6.17306E+03 1.91240E+05-4.68617E-10 5.40240E-10
 -1       783 2.67444E+05 1.37540E+05 3.25271E+03 1.91958E+05-4.40104E-09 5.65706E-10
 -1       784 2.70122E+05 1.35068E+05 2.61265E+03 1.91350E+05 3.22370E-09-4.44288E-10
 -1       785 2.67420E+05 1.37474E+05 3.13685E+03 1.92036E+05 4.38428E-09 1.04407E-10
 -1       786 2.70321E+05 1.35230E+05 5.48111E+03 1.91414E+05 3.39230E-09 9.56334E-10
 -1       787 2.67359E+05 1.37581E+05 1.02281E+04 1.91741E+05-3.41970E-09 6.78028E-10
 -1       788 2.74995E+05 1.40176E+05 2.24656E+04 1.91076E+05 5.31873E-09-1.44632E-09
 -1       789 2.69170E+05 1.43893E+05 4.25479E+04 1.83829E+05 2.14641E-10-8.07631E-10
 -1       790 1.17878E+05 8.15393E+02 2.71175E+03 2.40430E+04-9.00036E-09-9.83164E-10
 -1       791 1.18433E+05 4.00117E+02 1.70593E+03 3.08362E+04-5.49062E-09-1.80535E-10
 -1       792 1.18109E+05 6.32518E+01 1.33007E+03 2.39723E+04-3.88218E-09-9.73841E-10
 -1       793 1.18255E+05 1.35692E+02 1.82150E+03 3.09088E+04 1.30893E-09 1.58707E-10
 -1       794 1.18039E+05 1.38217E+02 3.10866E+03 2.39715E+04-1.74214E-09-8.29004E-10
 -1       795 1.19552E+05 1.64605E+03 6.65975E+03 3.08462E+04-4.28463E-09-3.25144E-10
 -1       796 1.16822E+05 3.75086E+03 1.25389E+04 2.40282E+04 3.76895E-09-5.35692E-10
 -1       797-1.28347E+04-3.32072E+05-4.46085E+04 4.95043E+04-1.48793E-09 2.46018E-10
 -1       798-5.65310E+03-3.41871E+05-2.63452E+04 6.35656E+04 1.95553E-09 1.31718E-09
 -1       799-5.71109E+02-3.36105E+05-1.75771E+04 4.94077E+04-2.48019E-09 3.95289E-10
 -1       800-4.30089E+03-3.40718E+05-2.17924E+04 6.36073E+04 1.83036E-09-8.35144E-10
 -1       801-9.54852E+03-3.33255E+05-3.40296E+04 4.94703E+04-1.32968E-09-5.55247E-10
 -1       802 1.49065E+05 8.12956E+04 1.36754E+04 1.05928E+05 3.55794E-09-1.28557E-09
 -1       803 1.50991E+05 8.00437E+04 7.34187E+03 1.08229E+05 9.89337E-09-1.02602E-10
 -1       804 1.48478E+05 7.92704E+04 3.58740E+03 1.08462E+05-1.61776E-09 1.92017E-09
 -1       805 1.49511E+05 7.84643E+04 2.40428E+03 1.08352E+05-7.23861E-09 4.13706E-10
 -1       806 1.48476E+05 7.92153E+04 2.28569E+03 1.08557E+05-8.04015E-10 2.79954E-10
 -1       807 1.49586E+05 7.85258E+04 3.49351E+03 1.08376E+05 7.91792E-09 7.52368E-09
 -1       808 1.48445E+05 7.92860E+04 6.23627E+03 1.08380E+05 1.52295E-09 5.32054E-10
 -1       809 1.52398E+05 8.14811E+04 1.35293E+04 1.08165E+05-4.80225E-09-2.38742E-10
 -1       810 1.49523E+05 8.30861E+04 2.55505E+04 1.03634E+05-3.70073E-09-1.70712E-09
 -1       811 1.42358E+04 6.38389E+02 2.18717E+03 1.18518E+04 8.13986E-09-3.95517E-10
 -1       812 1.46986E+04 2.95700E+02 1.38328E+03 1.52322E+04 9.18504E-09 8.33325E-11
 -1       813 1.44271E+04 2.91571E+01 1.09213E+03 1.18224E+04 7.45899E-10-7.80005E-10
 -1       814 1.45632E+04 8.17961E+01 1.51138E+03 1.52622E+04-1.85833E-09 2.64322E-10
 -1       815 1.43692E+04 9.14335E+01 2.59141E+03 1.18227E+04 3.59682E-09-4.47471E-10
 -1       816 1.56453E+04 1.34426E+03 5.55957E+03 1.52245E+04-3.39440E-09 1.79170E-10
 -1       817 1.33496E+04 3.11039E+03 1.04715E+04 1.18546E+04-2.04636E-11-8.10360E-10
 -1       818-7.10238E+03-2.40671E+05-2.48233E+04 3.30970E+04-6.77665E-09 4.34511E-10
 -1       819-3.15946E+03-2.46113E+05-1.50241E+04 4.24914E+04-5.95628E-09 3.35194E-09
 -1       820-3.59387E+02-2.42865E+05-1.06761E+04 3.30339E+04-5.81940E-09 1.55040E-09
 -1       821-2.91790E+03-2.45909E+05-1.42135E+04 4.25109E+04-1.08953E-08-2.30102E-10
 -1       822-6.51555E+03-2.40884E+05-2.29394E+04 3.30790E+04-7.46695E-09-2.48019E-09
 -1       823 5.50883E+04 2.95392E+04 9.00431E+03 3.76048E+04 3.50974E-09 9.95442E-10
 -1       824 5.62779E+04 2.87992E+04 4.82577E+03 3.91469E+04 8.97228E-09-7.52465E-10
 -1       825 5.46958E+04 2.82122E+04 2.34129E+03 3.92757E+04-4.25337E-09-1.32090E-09
 -1       826 5.53084E+04 2.77521E+04 1.53861E+03 3.92250E+04-5.53860E-09 8.17487E-10
 -1       827 5.46953E+04 2.81774E+04 1.41673E+03 3.93381E+04-5.57247E-09-8.22865E-10
 -1       828 5.53497E+04 2.77839E+04 2.11730E+03 3.92375E+04 5.12358E-10-5.37176E-09
 -1       829 5.46775E+04 2.82213E+04 3.74841E+03 3.92320E+04 8.02271E-09 3.37423E-10
 -1       830 5.70417E+04 2.95470E+04 8.11288E+03 3.91078E+04-5.93957E-10 1.73111E-09
 -1       831 5.53164E+04 3.05059E+04 1.53130E+04 3.63907E+04-2.39561E-09-1.53841E-09
 -1       832-3.16872E+03-1.94207E+05-1.12278E+04 1.32418E+04 3.25463E-09 5.50472E-10
 -1       833-1.41868E+03-1.96661E+05-7.05128E+03 1.69510E+04 4.38871E-09 5.95037E-10
 -1       834-1.75875E+02-1.95165E+05-5.45747E+03 1.32109E+04 8.19614E-09-2.71029E-10
 -1       835-1.66714E+03-1.96878E+05-7.89431E+03 1.69711E+04 6.23004E-11-1.43108E-09
 -1       836-3.77364E+03-1.93994E+05-1.31866E+04 1.32208E+04 2.10912E-09 5.78495E-10
 -1       837-1.77699E+05-1.23679E+03-4.21916E+03 4.00564E+04-4.18368E-11 1.40744E-10
 -1       838-1.78604E+05-5.40908E+02-2.56003E+03 5.13693E+04-9.54969E-12 2.77396E-10
 -1       839-1.78114E+05-2.92298E+01-1.84508E+03 3.99091E+04 5.77529E-11 4.40878E-10
 -1       840-1.78335E+05-8.79092E+01-2.34787E+03 5.15230E+04 8.57199E-11-1.16188E-10
 -1       841-1.78049E+05-1.04993E+02-3.88015E+03 3.99037E+04-4.72937E-11-1.64619E-10
 -1       842-1.79924E+05-1.94758E+03-8.23158E+03 5.14477E+04-3.18323E-12 4.99313E-10
 -1       843-1.76533E+05-4.56880E+03-1.54664E+04 3.99822E+04-1.23691E-10 1.65528E-10
 -1       844-5.38405E+03-3.20150E+05-1.77161E+04 8.35562E+04-4.63842E-11 2.69210E-10
 -1       845-2.09232E+03-3.24086E+05-7.64223E+03 1.07560E+05-9.66338E-11 3.16277E-10
 -1       846 1.24580E+02-3.22144E+05-5.93152E+01 8.33834E+04 1.32331E-10-7.39448E-10
 -1       847 2.37887E+03-3.20216E+05 7.48049E+03 1.07561E+05 8.64020E-11-8.79481E-10
 -1       848 5.49667E+03-3.24017E+05 1.74276E+04 8.35482E+04 6.63931E-11-8.94943E-10
 -1       849 8.02822E+04 6.18191E+04 2.77890E+04 6.28361E+04-5.45697E-12 6.60293E-10
 -1       850 8.02032E+04 6.32934E+04 1.48688E+04 6.86942E+04 1.38186E-10-3.52884E-10
 -1       851 7.91961E+04 5.75935E+04 7.16630E+03 6.79540E+04 1.33696E-10 1.61435E-10
 -1       852 7.70913E+04 6.01748E+04 4.62305E+03 6.89626E+04 2.92857E-10-3.73802E-10
 -1       853 7.92050E+04 5.74835E+04 4.12244E+03 6.81420E+04 1.54159E-10-4.39513E-10
 -1       854 7.71814E+04 6.02573E+04 6.01578E+03 6.89916E+04 1.31877E-11-3.04240E-10
 -1       855 7.91567E+04 5.76102E+04 1.05542E+04 6.78424E+04 2.91038E-11-3.57659E-10
 -1       856 8.19150E+04 6.52154E+04 2.27817E+04 6.86276E+04-2.21235E-10-1.88265E-10
 -1       857 8.09368E+04 6.40363E+04 4.29773E+04 5.98722E+04-1.81899E-11-1.81899E-10
 -1       858-1.77179E+05-4.60269E+03-1.57453E+04 5.13644E+04 1.36424E-11-1.69166E-10
 -1       859-1.80630E+05-1.95072E+03-8.77899E+03 6.59355E+04 2.54659E-11-6.31189E-10
 -1       860-1.78723E+05-7.25055E+01-4.94651E+03 5.11964E+04-1.11413E-10-3.91083E-10
 -1       861-1.79222E+05-1.25190E+02-4.55307E+03 6.61104E+04-7.35554E-11-5.70708E-10
 -1       862-1.78688E+05-1.14547E+02-6.15493E+03 5.11923E+04 9.22000E-11-5.36602E-11
 -1       863-1.81426E+05-2.78032E+03-1.21476E+04 6.59921E+04 2.23736E-10 2.18620E-10
 -1       864-1.76499E+05-6.57333E+03-2.24243E+04 5.13123E+04 2.12822E-10-1.32786E-10
 -1       865-2.42094E+03-1.07259E+05-7.56378E+03 7.94513E+04 1.06411E-10-4.09273E-11
 -1       866-8.73638E+02-1.08956E+05-2.31292E+03 1.02274E+05 4.35193E-10 1.79057E-10
 -1       867 1.43541E+02-1.08239E+05 2.30392E+03 7.93101E+04 3.78350E-10-8.35371E-10
 -1       868 2.34991E+03-1.06139E+05 8.62314E+03 1.02236E+05 6.03904E-10-5.76620E-10
 -1       869 5.43122E+03-1.10030E+05 1.78492E+04 7.94867E+04 2.37378E-10-5.54792E-10
 -1       870 1.19170E+05 8.79884E+04 2.30301E+04 9.63218E+04 2.27374E-12 4.03816E-10
 -1       871 1.17802E+05 9.05109E+04 1.23355E+04 1.01552E+05 4.92491E-10-2.40107E-10
 -1       872 1.18284E+05 8.44758E+04 5.96918E+03 1.00558E+05-7.66249E-11-3.23325E-10
 -1       873 1.15206E+05 8.79408E+04 3.89418E+03 1.01778E+05-1.08685E-10 1.64960E-10
 -1       874 1.18289E+05 8.43818E+04 3.54190E+03 1.00712E+05 2.20552E-11 1.67972E-10
 -1       875 1.15296E+05 8.80212E+04 5.24545E+03 1.01805E+05-4.46789E-11-2.39311E-10
 -1       876 1.18244E+05 8.44920E+04 9.25444E+03 1.00449E+05-6.41194E-11-2.77851E-10
 -1       877 1.19475E+05 9.23595E+04 2.00090E+04 1.01481E+05 7.36691E-11-1.00954E-10
 -1       878 1.19792E+05 9.01539E+04 3.77596E+04 9.34504E+04-1.63709E-11 1.92813E-10
 -1       879-3.01200E+03-1.38502E+03-4.75025E+03 5.65976E+04-1.79170E-10 3.82897E-10
 -1       880-4.06963E+03-5.76008E+02-2.76771E+03 7.26823E+04-2.95586E-10-8.04903E-11
 -1       881-3.50349E+03-6.32575E+00-1.79573E+03 5.64212E+04-6.73026E-11-7.27596E-12
 -1       882-3.72588E+03-3.83492E+01-2.03337E+03 7.28613E+04 1.30967E-10 1.14596E-10
 -1       883-3.45918E+03-5.73946E+01-3.16494E+03 5.64192E+04-1.36879E-10-3.90855E-10
 -1       884-4.95722E+03-1.52247E+03-6.58340E+03 7.27191E+04 1.20508E-10 7.04858E-11
 -1       885-2.22651E+03-3.62712E+03-1.23170E+04 5.65625E+04-2.04636E-11 1.66438E-10
 -1       886-5.11359E+03-1.29512E+05-1.72800E+04 7.41070E+04-9.00400E-11-3.50610E-10
 -1       887-2.09329E+03-1.33344E+05-8.70351E+03 9.53984E+04-3.41515E-10-7.21684E-10
 -1       888-2.63719E+01-1.31278E+05-3.12585E+03 7.39774E+04 1.48248E-10 1.80989E-10
 -1       889 5.13334E+02-1.31062E+05 1.44198E+02 9.53594E+04-9.54969E-11 1.27329E-09
 -1       890 1.23566E+03-1.31750E+05 3.27818E+03 7.41446E+04 5.63887E-11-3.05590E-10
 -1       891 1.91167E+05 1.20649E+05 2.67208E+04 1.43948E+05-1.19144E-10-7.27596E-12
 -1       892 1.91582E+05 1.21562E+05 1.42545E+04 1.49431E+05 1.54756E-10 1.10958E-10
 -1       893 1.90105E+05 1.16606E+05 6.78276E+03 1.48881E+05-1.60185E-10 1.64619E-10
 -1       894 1.88601E+05 1.18538E+05 4.21262E+03 1.49679E+05 1.25510E-10-1.95200E-10
 -1       895 1.90121E+05 1.16511E+05 3.50155E+03 1.49064E+05 1.18462E-10 9.54969E-12
 -1       896 1.88640E+05 1.18574E+05 4.82222E+03 1.49692E+05-7.27596E-12-2.69068E-10
 -1       897 1.90088E+05 1.16614E+05 8.26582E+03 1.48832E+05 1.11868E-10 7.52607E-11
 -1       898 1.92315E+05 1.22418E+05 1.77175E+04 1.49405E+05-2.00089E-10-3.81988E-11
 -1       899 1.91470E+05 1.21603E+05 3.33685E+04 1.42645E+05-1.28239E-10 2.31012E-10
 -1       900 1.90963E+05 2.16004E+03 7.37987E+03 5.55170E+04-1.13687E-10 2.21917E-10
 -1       901 1.92552E+05 9.29052E+02 3.88839E+03 7.13104E+04 2.36469E-11-4.83851E-10
 -1       902 1.91642E+05 5.62335E+01 1.74344E+03 5.53536E+04-1.88265E-10-4.67480E-10
 -1       903 1.91742E+05 4.76604E+01 8.83361E+02 7.14741E+04-3.34467E-10-3.83352E-10
 -1       904 1.91690E+05 3.11240E+00 4.05104E+02 5.53527E+04-1.15961E-10 1.70530E-10
 -1       905 1.91698E+05-2.06982E+00 1.59903E+02 7.13257E+04 2.15323E-10 2.21917E-10
 -1       906 1.91744E+05-4.02414E+01-1.53294E+01 5.55021E+04 1.03682E-10 1.72804E-10
 -1       907-9.15962E+03-1.88463E+05-3.19265E+04 6.29687E+04 4.36557E-11-1.12323E-10
 -1       908-3.91076E+03-1.95514E+05-1.82983E+04 8.10753E+04-8.70841E-11-3.85626E-10
 -1       909-2.62866E+02-1.91416E+05-1.12146E+04 6.28643E+04-5.91172E-12-4.24734E-10
 -1       910-2.17943E+03-1.93990E+05-1.24129E+04 8.10312E+04 2.63753E-11 5.92991E-10
 -1       911-4.94199E+03-1.89944E+05-1.82534E+04 6.30114E+04 1.61890E-10 1.62345E-10
 -1       912 2.61879E+05 1.48360E+05 2.89033E+04 1.88254E+05 3.18323E-11 6.87578E-10
 -1       913 2.64682E+05 1.46981E+05 1.53545E+04 1.93497E+05 9.62928E-11 1.29603E-10
 -1       914 2.60694E+05 1.44025E+05 7.17912E+03 1.93609E+05-9.76570E-11 2.31921E-11
 -1       915 2.61489E+05 1.43665E+05 4.21811E+03 1.93749E+05-1.65983E-10-3.70960E-10
 -1       916 2.60721E+05 1.43934E+05 3.11389E+03 1.93810E+05 4.05862E-11-2.22485E-10
 -1       917 2.61460E+05 1.43643E+05 3.81692E+03 1.93741E+05 1.22327E-10 2.72166E-10
 -1       918 2.60708E+05 1.44019E+05 6.20382E+03 1.93640E+05 6.59384E-11-3.71188E-10
 -1       919 2.64130E+05 1.46486E+05 1.30764E+04 1.93531E+05 4.62023E-10 1.53136E-10
 -1       920 2.61747E+05 1.47663E+05 2.45306E+04 1.89089E+05 2.39197E-10-3.27418E-11
 -1       921 2.55758E+05 1.88031E+03 6.41251E+03 6.17211E+04-1.31877E-10-1.92813E-10
 -1       922 2.57123E+05 8.17841E+02 3.38304E+03 7.93111E+04-3.00133E-10-1.40062E-10
 -1       923 2.56339E+05 5.76423E+01 1.52352E+03 6.15544E+04-2.72848E-12 2.14186E-10
 -1       924 2.56419E+05 5.27622E+01 7.85230E+02 7.94765E+04 4.01002E-10-6.09361E-11
 -1       925 2.56388E+05 7.34695E+00 3.84784E+02 6.15552E+04-9.54969E-12 1.30058E-10
 -1       926 2.56416E+05 1.57751E+01 2.12102E+02 7.92971E+04 9.77707E-11-2.20098E-10
 -1       927 2.56444E+05-5.16541E+00 1.21771E+02 6.17339E+04 3.36513E-11-6.41194E-11
 -1       928-1.27752E+04-2.35214E+05-4.52678E+04 5.23389E+04 3.03771E-10-2.61252E-10
 -1       929-5.54616E+03-2.45204E+05-2.74431E+04 6.74000E+04 3.17300E-10-5.77131E-10
 -1       930-4.95503E+02-2.39202E+05-1.95774E+04 5.22564E+04 4.05180E-10-6.76891E-10
 -1       931-5.17751E+03-2.44864E+05-2.61715E+04 6.73553E+04 2.93767E-10 2.71029E-10
 -1       932-1.18743E+04-2.35519E+05-4.23152E+04 5.23815E+04 2.81943E-10-1.67347E-10
 -1       933 3.80499E+05 2.01468E+05 3.84937E+04 2.65183E+05-4.91127E-11-5.36602E-10
 -1       934 3.86728E+05 1.97128E+05 2.03523E+04 2.71441E+05-4.22915E-11-3.16959E-10
 -1       935 3.78881E+05 1.95736E+05 9.32033E+03 2.72335E+05-3.68345E-11-3.20142E-10
 -1       936 3.82503E+05 1.92658E+05 5.10065E+03 2.71751E+05 1.88948E-10 6.42331E-11
 -1       937 3.78933E+05 1.95635E+05 3.11895E+03 2.72603E+05-5.42286E-11 1.75532E-10
 -1       938 3.82354E+05 1.92537E+05 2.94680E+03 2.71705E+05 1.17097E-10-6.07088E-10
 -1       939 3.78947E+05 1.95704E+05 4.08212E+03 2.72500E+05 1.06638E-10-2.51248E-11
 -1       940 3.83932E+05 1.94302E+05 8.11857E+03 2.71577E+05-8.54925E-11-2.23736E-10
 -1       941 3.79624E+05 1.97899E+05 1.50140E+04 2.69716E+05-3.00133E-11 9.23137E-11
 -1       942-8.27965E+04-1.01587E+04-3.46152E+04 5.00815E+04 1.23237E-10-9.45874E-11
 -1       943-9.04238E+04-4.29116E+03-1.85721E+04 6.43999E+04 6.54836E-11-3.88354E-10
 -1       944-8.61830E+04-1.78217E+02-9.05094E+03 4.99597E+04-1.04592E-11 4.49290E-10
 -1       945-8.69456E+04-1.52209E+02-6.04936E+03 6.45214E+04 5.88898E-11 2.71484E-10
 -1       946-8.63041E+04-4.44801E+01-5.69693E+03 4.99623E+04 9.32232E-11-1.37788E-10
 -1       947-8.82836E+04-1.95577E+03-9.22729E+03 6.43584E+04 3.31966E-11-4.10068E-10
 -1       948-8.47571E+04-4.64429E+03-1.60828E+04 5.01205E+04 2.33740E-10-3.05590E-10
 -1       949-1.58781E+04-2.77068E+05-5.73084E+04 7.73042E+04-1.92813E-10 1.85992E-10
 -1       950-6.95385E+03-2.89736E+05-3.65737E+04 9.95500E+04-1.00272E-10 2.83251E-10
 -1       951-7.28147E+02-2.81893E+05-2.92893E+04 7.71812E+04-1.52795E-10-3.66526E-10
 -1       952-9.05804E+03-2.91513E+05-4.36389E+04 9.94876E+04-2.81943E-11-2.61934E-10
 -1       953-2.09870E+04-2.75215E+05-7.37238E+04 7.73622E+04 6.54836E-11-3.47427E-10
 -1       954 6.74622E+05 3.88584E+05 7.99591E+04 4.87541E+05 1.29148E-10-1.52795E-10
 -1       955 6.81056E+05 3.86085E+05 4.25637E+04 5.02437E+05-2.39652E-10 5.98902E-10
 -1       956 6.71289E+05 3.76644E+05 2.00867E+04 5.02374E+05-9.45874E-11-4.56566E-10
 -1       957 6.72298E+05 3.76872E+05 1.21480E+04 5.03131E+05-3.93356E-11-5.84805E-10
 -1       958 6.71349E+05 3.76377E+05 9.56321E+03 5.02929E+05-1.50521E-10-3.55840E-10
 -1       959 6.72322E+05 3.76896E+05 1.25247E+04 5.03140E+05 1.12024E-10-2.26464E-10
 -1       960 6.71280E+05 3.76647E+05 2.10022E+04 5.02345E+05 2.82398E-10 6.45741E-11
 -1       961 6.81581E+05 3.86543E+05 4.47015E+04 5.02403E+05-5.15229E-10 1.55342E-09
 -1       962 6.74730E+05 3.89254E+05 8.40640E+04 4.86762E+05-4.83851E-10 2.00089E-10
 -1       963-1.24402E+05-5.82731E+03-1.97801E+04 1.51596E+04-2.11912E-10 1.40062E-10
 -1       964-1.28748E+05-2.47152E+03-1.05171E+04 1.93522E+04 6.09361E-11 2.77623E-10
 -1       965-1.26341E+05-1.18678E+02-4.93482E+03 1.50682E+04 7.50333E-11 1.38471E-10
 -1       966-1.26727E+05-8.21408E+01-2.94011E+03 1.94536E+04-7.02585E-11 4.22460E-10
 -1       967-1.26454E+05-7.40989E-01-2.23235E+03 1.50604E+04 2.86491E-11 1.12436E-10
 -1       968-1.27064E+05-5.70134E+02-2.99044E+03 1.94696E+04 1.70530E-10-4.42441E-10
 -1       969-1.26024E+05-1.35749E+03-4.84972E+03 1.50523E+04 1.39948E-10-1.96678E-11
 -1       970 3.53044E+03 1.83292E+05 1.13659E+04 1.95039E+05-1.47293E-09-1.16415E-10
 -1       971 1.81272E+03 1.85534E+05 5.73288E+03 2.50837E+05-8.44011E-10 1.44155E-10
 -1       972 3.66760E+02 1.84153E+05 1.98957E+03 1.94634E+05-2.06455E-09-1.17871E-09
 -1       973 6.05324E+01 1.83946E+05-2.79023E+02 2.50878E+05-7.16682E-10 7.73525E-10
 -1       974-7.50015E+02 1.84760E+05-2.59991E+03 1.94999E+05-1.40562E-09-6.51198E-10
 -1       975 5.79291E+04 4.63834E+04 3.63810E+03 5.16034E+04-5.58941E-10-8.00355E-11
 -1       976 5.58628E+04 4.86357E+04 2.31756E+03 5.29432E+04 4.15639E-10-7.35326E-10
 -1       977 5.78236E+04 4.57847E+04 1.86010E+03 5.22279E+04 9.64064E-11-6.77574E-11
 -1       978 5.54647E+04 4.83197E+04 2.58046E+03 5.30368E+04-5.82077E-11 2.84501E-10
 -1       979 5.77610E+04 4.57013E+04 4.46580E+03 5.22490E+04 1.54614E-11-9.37916E-11
 -1       980 5.59016E+04 4.86830E+04 8.94401E+03 5.31768E+04-4.79758E-11 1.88720E-11
 -1       981 5.76367E+04 4.58733E+04 1.73363E+04 5.17418E+04-8.45830E-11-3.48336E-10
 -1       982 6.39984E+04 5.71207E+04 3.84683E+04 5.25869E+04-5.27507E-11-2.36469E-11
 -1       983 6.06547E+04 5.68019E+04 7.30294E+04 3.81849E+04 6.00267E-11 7.27596E-11
 -1       984-1.42133E+05-1.85420E+03-6.46706E+03 1.17745E+03-2.45564E-10 1.66665E-10
 -1       985-1.43526E+05-7.86276E+02-3.78511E+03 1.30320E+03 6.64386E-10-5.87590E-10
 -1       986-1.42731E+05-2.31828E+01-2.47596E+03 1.08752E+03-8.84029E-10 2.52804E-10
 -1       987-1.43005E+05-8.45592E+01-2.83110E+03 1.40745E+03-4.80213E-10 1.48475E-10
 -1       988-1.42656E+05-1.03898E+02-4.42670E+03 1.07324E+03-2.68301E-10-1.50521E-10
 -1       989-1.44759E+05-2.15009E+03-9.21934E+03 1.50511E+03-1.89129E-09 2.19302E-10
 -1       990-1.40981E+05-5.06925E+03-1.72457E+04 9.94111E+02 3.53793E-10 3.03544E-10
 -1       991 4.44285E+02-6.36191E+04 4.17081E+03 8.26884E+04 2.15095E-10 3.91083E-11
 -1       992 4.41169E+02-6.27157E+04 7.29379E+03 1.06344E+05 1.24146E-10-2.14641E-10
 -1       993 3.89317E+02-6.39119E+04 1.35045E+04 8.25051E+04 5.38080E-10-2.27260E-10
 -1       994 7.06962E+03-5.70039E+04 2.96880E+04 1.06378E+05 3.85853E-10-4.60659E-10
 -1       995 1.65795E+04-6.93693E+04 5.62244E+04 8.26549E+04 2.43745E-10-1.23237E-10
 -1       996-5.14407E+04-1.38770E+04 1.63316E+03-2.89855E+04-1.65755E-10 4.91127E-11
 -1       997-5.38435E+04-1.13683E+04 1.14643E+03-2.79521E+04 3.56295E-10 8.09450E-11
 -1       998-5.14220E+04-1.42115E+04 1.09556E+03-2.87365E+04 8.46285E-10 3.18323E-10
 -1       999-5.40852E+04-1.14264E+04 1.71695E+03-2.78815E+04-3.46972E-10-1.66324E-10
 -1      1000-5.14658E+04-1.42738E+04 3.11580E+03-2.87335E+04 4.17458E-10-6.38806E-10
 -1      1001-5.37772E+04-1.11530E+04 6.32538E+03-2.77812E+04 5.00222E-10-1.43910E-09
 -1      1002-5.15540E+04-1.41566E+04 1.23009E+04-2.90983E+04-2.87127E-09-1.52340E-10
 -1      1003-4.80590E+04-5.12540E+03 2.73225E+04-2.81939E+04 1.00363E-09 4.98676E-09
 -1      1004-4.93705E+04-6.43326E+03 5.18774E+04-3.87420E+04-5.36602E-10 8.49468E-10
 -1      1005-2.97443E+05-9.72069E+03-3.34746E+04 6.26381E+04-5.03860E-09 7.34417E-10
 -1      1006-3.04826E+05-4.01803E+03-1.83237E+04 8.03267E+04-1.81171E-09-1.09503E-09
 -1      1007-3.00761E+05-5.68339E+01-9.67129E+03 6.23603E+04 3.71074E-09-2.42835E-10
 -1      1008-3.01718E+05-4.73077E+01-7.84082E+03 8.06151E+04-2.15186E-09-7.90806E-10
 -1      1009-3.00826E+05-8.91940E+00-9.44783E+03 6.23446E+04-7.13362E-09-1.13232E-10
 -1      1010-3.04839E+05-3.78658E+03-1.77118E+04 8.05430E+04-1.22398E-08 4.21664E-10
 -1      1011-2.97736E+05-9.25155E+03-3.22502E+04 6.24450E+04-5.94514E-09 5.02041E-10
 -1      1012 8.96340E+02 6.28716E+04 6.39183E+03 9.26441E+04-2.00362E-09-3.24690E-10
 -1      1013 5.99509E+02 6.42742E+04 9.24603E+03 1.19177E+05 7.73070E-11-7.38510E-10
 -1      1014 3.73853E+02 6.26929E+04 1.59515E+04 9.24525E+04-1.50430E-09-1.75760E-10
 -1      1015 8.04850E+03 7.07106E+04 3.44350E+04 1.19189E+05 4.25644E-10-3.88354E-10
 -1      1016 1.90359E+04 5.64202E+04 6.49420E+04 9.26461E+04-1.96451E-09-1.60981E-10
 -1      1017 1.11483E+05 1.06902E+05 1.89966E+04 1.07294E+05-4.63797E-09 4.91127E-10
 -1      1018 1.05631E+05 1.13720E+05 1.03894E+04 1.12954E+05-1.67165E-09-1.38562E-09
 -1      1019 1.10828E+05 1.03909E+05 5.44694E+03 1.10723E+05-7.77618E-10 2.28738E-10
 -1      1020 1.03401E+05 1.11727E+05 4.33762E+03 1.13172E+05-8.24002E-10 7.10997E-10
 -1      1021 1.10795E+05 1.03793E+05 5.15729E+03 1.10833E+05 5.40149E-09 1.18860E-09
 -1      1022 1.03705E+05 1.11994E+05 8.97125E+03 1.13258E+05-3.58523E-09-8.35371E-10
 -1      1023 1.10684E+05 1.03972E+05 1.67185E+04 1.10340E+05-7.25777E-10-8.31278E-10
 -1      1024 1.11426E+05 1.19989E+05 3.67098E+04 1.12671E+05-1.40972E-09 2.89219E-10
 -1      1025 1.13557E+05 1.14378E+05 6.95261E+04 9.74369E+04 3.71074E-10 4.43833E-10
 -1      1026-1.28386E+05-4.20285E+03-1.48090E+04 6.69821E+04-1.44064E-09-1.04393E-10
 -1      1027-1.31709E+05-1.62086E+03-8.04057E+03 8.60182E+04 6.17729E-09-2.42017E-09
 -1      1028-1.29896E+05 1.01575E+02-4.12292E+03 6.67500E+04-5.01677E-09-4.30191E-10
 -1      1029-1.30335E+05 1.61916E+02-3.13332E+03 8.62505E+04-1.09139E-11-1.65574E-09
 -1      1030-1.29944E+05 1.43173E+02-3.52098E+03 6.67442E+04-4.36557E-11-1.02273E-09
 -1      1031-1.31395E+05-1.16746E+03-6.36831E+03 8.61008E+04 2.17256E-09-1.74123E-09
 -1      1032-1.28811E+05-3.16748E+03-1.14877E+04 6.69048E+04 3.22825E-09-9.00400E-10
 -1      1033-5.24763E+03-1.48785E+05-1.53656E+04 1.43181E+05 5.98993E-09-2.44654E-10
 -1      1034-2.21405E+03-1.52183E+05-5.08877E+03 1.84182E+05 5.14410E-09 6.18456E-11
 -1      1035-7.18749E+01-1.50810E+05 3.70376E+03 1.42899E+05 5.63159E-09 2.76032E-10
 -1      1036 3.79758E+03-1.46990E+05 1.52340E+04 1.84189E+05 5.46515E-09 1.61890E-09
 -1      1037 9.38379E+03-1.53993E+05 3.18657E+04 1.43197E+05 6.22822E-09 2.07365E-10
 -1      1038 2.15957E+05 1.44937E+05 3.42554E+04 1.67123E+05-3.68891E-09-1.05683E-09
 -1      1039 2.15396E+05 1.47202E+05 1.83940E+04 1.74455E+05 1.20554E-09-1.21418E-10
 -1      1040 2.14591E+05 1.39753E+05 8.99629E+03 1.73435E+05-4.50473E-09-7.12134E-10
 -1      1041 2.11577E+05 1.43359E+05 6.04539E+03 1.74791E+05 5.79894E-09 5.75199E-09
 -1      1042 2.14589E+05 1.39608E+05 5.76992E+03 1.73667E+05 4.33511E-09 1.50618E-09
 -1      1043 2.11765E+05 1.43519E+05 8.84381E+03 1.74850E+05 6.61657E-09 7.17762E-10
 -1      1044 2.14508E+05 1.39791E+05 1.58027E+04 1.73216E+05-2.98269E-09 4.65661E-10
 -1      1045 2.18925E+05 1.50975E+05 3.42908E+04 1.74301E+05-6.40557E-09-3.21506E-10
 -1      1046 2.17210E+05 1.49458E+05 6.47705E+04 1.61193E+05 6.45014E-09 1.22600E-09
 -1      1047-7.07608E+04-1.48886E+03-5.47737E+03 4.68704E+04-7.16318E-09 8.04903E-11
 -1      1048-7.20090E+04-5.13233E+02-2.98212E+03 6.02175E+04-3.90628E-09-1.75896E-09
 -1      1049-7.13227E+04 1.05061E+02-1.54638E+03 4.67221E+04-5.72072E-10 2.81943E-11
 -1      1050-7.15056E+04 1.44665E+02-1.20602E+03 6.03651E+04 4.84079E-10-9.36780E-11
 -1      1051-7.13343E+04 1.15240E+02-1.39635E+03 4.67201E+04 9.02673E-10 6.18456E-11
 -1      1052-7.19300E+04-4.00578E+02-2.56530E+03 6.02459E+04-4.17845E-09-1.80671E-09
 -1      1053-7.08659E+04-1.23128E+03-4.64950E+03 4.68437E+04 1.59753E-09-5.35238E-10
 -1      1054-6.96013E+03-2.40952E+05-2.25747E+04 1.07365E+05-2.15550E-09 6.12090E-10
 -1      1055-3.08449E+03-2.45891E+05-1.14416E+04 1.38109E+05 2.35559E-09 9.83619E-10
 -1      1056-3.09897E+02-2.43282E+05-4.26768E+03 1.07175E+05-3.11866E-09 1.44826E-09
 -1      1057 2.17309E+02-2.43008E+05-2.44233E+02 1.38082E+05 2.28465E-09-2.97405E-10
 -1      1058 1.07946E+03-2.43791E+05 3.44334E+03 1.07405E+05-7.32143E-10 1.11322E-09
 -1      1059 1.64516E+05 1.05491E+05 2.84958E+04 1.23290E+05 1.70348E-09-5.51154E-10
 -1      1060 1.65209E+05 1.06219E+05 1.52231E+04 1.29062E+05 5.43702E-09-2.38970E-10
 -1      1061 1.63356E+05 1.01209E+05 7.28862E+03 1.28559E+05 1.55029E-09 4.06681E-09
 -1      1062 1.62047E+05 1.02984E+05 4.61002E+03 1.29326E+05-4.63268E-09 1.91267E-09
 -1      1063 1.63368E+05 1.01103E+05 3.96822E+03 1.28755E+05 4.54293E-10-4.15039E-09
 -1      1064 1.62116E+05 1.03044E+05 5.62924E+03 1.29349E+05 2.67812E-09-3.86535E-11
 -1      1065 1.63327E+05 1.01221E+05 9.76664E+03 1.28479E+05 7.46695E-10-1.79671E-09
 -1      1066 1.66487E+05 1.07601E+05 2.10114E+04 1.29010E+05-2.79420E-09-1.27784E-10
 -1      1067 1.64981E+05 1.07129E+05 3.96062E+04 1.21131E+05-1.02955E-09-1.81899E-11
 -1      1068-4.77041E+04-5.93976E+02-2.21161E+03 2.58145E+04 8.10314E-09-2.71825E-10
 -1      1069-4.82128E+04-1.90099E+02-1.11657E+03 3.31944E+04 9.03412E-09-1.31308E-09
 -1      1070-4.79332E+04 5.41044E+01-4.06091E+02 2.57430E+04-2.83785E-09 1.05729E-10
 -1      1071-4.79669E+04 9.20246E+01-1.31079E+01 3.32642E+04-2.79614E-09-6.92125E-10
 -1      1072-4.79625E+04 8.59799E+01 3.73176E+02 2.57435E+04 5.26688E-09-5.95264E-10
 -1      1073-4.77187E+04 3.53968E+02 1.05429E+03 3.31864E+04 5.18071E-10-1.08116E-09
 -1      1074-4.81627E+04 6.89536E+02 2.09440E+03 2.58197E+04 3.06409E-09-1.62117E-10
 -1      1075-4.82005E+03-1.81071E+05-1.60632E+04 6.54708E+04-4.73665E-09-3.16959E-10
 -1      1076-2.18125E+03-1.84572E+05-8.93424E+03 8.42113E+04-6.98674E-09-5.68207E-10
 -1      1077-2.75632E+02-1.82606E+05-4.97854E+03 6.53609E+04-3.72165E-09 1.89948E-09
 -1      1078-9.34166E+02-1.83478E+05-4.69911E+03 8.41867E+04-1.23673E-08 2.97950E-09
 -1      1079-1.78253E+03-1.82140E+05-6.22299E+03 6.55008E+04-8.26435E-09-6.81212E-10
 -1      1080 1.00008E+05 6.17376E+04 1.85686E+04 7.29713E+04-2.69984E-09-1.25328E-09
 -1      1081 1.00966E+05 6.17049E+04 9.88765E+03 7.65876E+04 7.57535E-09-2.28226E-09
 -1      1082 9.92361E+04 5.89632E+04 4.66936E+03 7.64116E+04-3.30965E-09-8.38781E-10
 -1      1083 9.89175E+04 5.95771E+04 2.83290E+03 7.67523E+04-9.00186E-09 1.29248E-09
 -1      1084 9.92492E+04 5.89011E+04 2.24569E+03 7.65402E+04-3.96837E-09 6.44548E-10
 -1      1085 9.89264E+04 5.95844E+04 2.96177E+03 7.67552E+04-4.31726E-10-6.34779E-09
 -1      1086 9.92323E+04 5.89650E+04 4.98275E+03 7.64018E+04 1.48589E-10 1.18234E-10
 -1      1087 1.01131E+05 6.18765E+04 1.06196E+04 7.65805E+04-5.16491E-09 1.62026E-09
 -1      1088 1.00063E+05 6.19480E+04 1.99735E+04 7.26995E+04 8.48513E-09 1.12459E-08
 -1      1089-1.55083E+03-1.18290E+05-5.37634E+03 3.10920E+04 7.79642E-09 5.66160E-10
 -1      1090-7.48650E+02-1.19449E+05-3.54616E+03 3.99784E+04 7.35349E-09-2.38970E-10
 -1      1091-1.52557E+02-1.18731E+05-3.03219E+03 3.10389E+04 9.34278E-09-7.46127E-10
 -1      1092-1.10786E+03-1.19757E+05-4.75737E+03 3.99660E+04 2.41971E-09-4.54293E-10
 -1      1093-2.42455E+03-1.17976E+05-8.19119E+03 3.11028E+04 5.75346E-09 1.72395E-09
 -1      1094-6.88111E+05-5.59157E+03-1.92629E+04 4.63275E+04 5.27507E-11-2.54659E-10
 -1      1095-6.92268E+05-2.38200E+03-1.10316E+04 5.93555E+04-1.95541E-11 3.00133E-10
 -1      1096-6.89961E+05-8.41310E+01-6.77336E+03 4.61463E+04-1.81899E-11-1.09594E-10
 -1      1097-6.90662E+05-2.13944E+02-7.13778E+03 5.95520E+04 5.91172E-12 2.03727E-10
 -1      1098-6.89833E+05-2.29967E+02-1.06285E+04 4.61359E+04 3.97904E-11-9.02673E-11
 -1      1099-6.94761E+05-5.05242E+03-2.17767E+04 5.94771E+04-3.91083E-11 2.09525E-10
 -1      1100-6.85894E+05-1.19078E+04-4.05704E+04 4.62165E+04 1.69166E-10-1.63709E-11
 -1      1101-4.97127E+05-6.24324E+03-2.15194E+04 2.94739E+04-5.72982E-11-2.00089E-11
 -1      1102-5.01802E+05-2.64350E+03-1.20596E+04 3.77947E+04-3.13548E-10 1.10049E-10
 -1      1103-4.99183E+05-8.71321E+01-6.90318E+03 2.93657E+04-6.45741E-11 2.86946E-10
 -1      1104-4.99861E+05-1.79836E+02-6.53265E+03 3.79108E+04-3.92220E-11 3.09228E-10
 -1      1105-4.99109E+05-1.70544E+02-9.02117E+03 2.93607E+04-3.45608E-10-7.67955E-11
 -1      1106-5.03159E+05-4.11671E+03-1.79615E+04 3.78560E+04 2.12026E-11 5.88898E-11
 -1      1107-4.95894E+05-9.72199E+03-3.32237E+04 2.94185E+04-8.66294E-11-2.07365E-10
 -1      1108-2.62840E+05-2.73871E+03-9.54785E+03 3.01943E+04-2.39197E-10-1.86219E-10
 -1      1109-2.64908E+05-1.15328E+03-5.56024E+03 3.87522E+04 4.63842E-11 1.76897E-10
 -1      1110-2.63743E+05-2.07879E+01-3.58515E+03 3.00896E+04 1.40972E-11-2.93312E-11
 -1      1111-2.64142E+05-1.03502E+02-4.03220E+03 3.88606E+04 1.20110E-10-3.42652E-10
 -1      1112-2.63645E+05-1.28059E+02-6.24426E+03 3.00868E+04-1.84230E-10-1.79057E-11
 -1      1113-2.66600E+05-3.00743E+03-1.29689E+04 3.87950E+04-2.49997E-10 3.09285E-10
 -1      1114-2.61282E+05-7.11352E+03-2.42414E+04 3.01546E+04-1.45064E-10 6.12090E-10
 -1      1115 4.55831E+04 2.08751E+03 6.94968E+03 2.82594E+04-2.10093E-10-2.13731E-10
 -1      1116 4.71143E+04 8.91791E+02 3.40290E+03 3.62902E+04-1.65755E-10-4.85443E-10
 -1      1117 4.62756E+04 6.40064E+01 1.00559E+03 2.81717E+04 9.23137E-11-1.68029E-10
 -1      1118 4.62685E+04-5.98465E+00-5.47817E+02 3.63787E+04 3.30544E-11-4.82032E-10
 -1      1119 4.64035E+04-7.41963E+01-2.34191E+03 2.81707E+04-8.86757E-12 1.32900E-10
 -1      1120 4.49973E+04-1.44778E+03-5.92190E+03 3.63072E+04-5.91172E-11 3.88951E-10
 -1      1121 4.75589E+04-3.42946E+03-1.15465E+04 2.82431E+04-1.20053E-10-1.17325E-10
 -1      1122 4.25835E+05 7.91940E+03 2.68540E+04 2.95494E+04-1.94632E-10-2.72848E-11
 -1      1123 4.31711E+05 3.35926E+03 1.41449E+04 3.79532E+04-1.19371E-10-3.47313E-10
 -1      1124 4.28457E+05 1.68255E+02 6.36661E+03 2.94668E+04 6.20730E-11 3.17698E-10
 -1      1125 4.28888E+05 9.84805E+01 3.26850E+03 3.80353E+04 4.59867E-10 1.33014E-10
 -1      1126 4.28642E+05-3.07890E+01 1.59828E+03 2.94670E+04-1.03910E-10 6.20730E-11
 -1      1127 4.28706E+05 2.36087E+01 8.64545E+02 3.79537E+04 7.71934E-11-1.07320E-10
 -1      1128 4.28660E+05 5.33219E+01 5.09184E+02 2.95485E+04 5.09317E-11 5.22959E-12
 -1      1129 9.74947E+05 1.64348E+04 5.66042E+04 7.67407E+04-2.37833E-10-1.34605E-10
 -1      1130 9.87250E+05 6.97172E+03 3.15170E+04 9.86759E+04 5.76847E-10 1.78147E-10
 -1      1131 9.80305E+05 2.57436E+02 1.76401E+04 7.65799E+04-7.53886E-11-2.11458E-11
 -1      1132 9.82014E+05 4.69332E+02 1.60424E+04 9.88335E+04 3.62661E-10 5.88443E-10
 -1      1133 9.80198E+05 3.88115E+02 2.14479E+04 7.65811E+04 2.61934E-10 7.93989E-10
 -1      1134 9.89760E+05 9.57923E+03 4.21279E+04 9.85741E+04-3.78350E-10 1.47338E-10
 -1      1135 9.72810E+05 2.26454E+04 7.76510E+04 7.68535E+04-5.00222E-10-8.51287E-10
 -1      1136-1.33496E+06-4.64215E+04-1.58469E+05 1.76659E+04-6.50289E-10-1.05501E-09
 -1      1137-1.36973E+06-1.96943E+04-8.50932E+04 2.25419E+04-4.32010E-10 1.78989E-09
 -1      1138-1.35034E+06-8.48679E+02-4.15225E+04 1.75800E+04-2.72848E-11-5.45697E-12
 -1      1139-1.35375E+06-7.54208E+02-2.78899E+04 2.26668E+04 3.09001E-10 8.69704E-10
 -1      1140-1.35093E+06-2.15159E+02-2.64614E+04 1.75643E+04-8.18545E-12-9.44510E-10
 -1      1141-1.36023E+06-9.12982E+03-4.31205E+04 2.26885E+04-1.38471E-10-1.66938E-09
 -1      1142-1.34390E+06-2.16019E+04-7.52638E+04 1.75583E+04 2.27374E-13-9.05857E-10
 -1      1143-1.17807E+06-1.66923E+04-5.73399E+04 2.36618E+04 2.88310E-10 1.44610E-09
 -1      1144-1.19055E+06-7.06399E+03-3.15344E+04 3.02364E+04 1.11686E-09-1.73031E-09
 -1      1145-1.18358E+06-2.55977E+02-1.68998E+04 2.34891E+04-1.07502E-09 1.44291E-09
 -1      1146-1.18512E+06-3.68944E+02-1.41643E+04 3.04392E+04-6.83940E-10 2.91720E-10
 -1      1147-1.18357E+06-2.71102E+02-1.76304E+04 2.34619E+04-4.73847E-10-3.82897E-10
 -1      1148-1.19107E+06-7.54590E+03-3.35744E+04 3.04989E+04-2.00703E-09 6.73936E-10
 -1      1149-1.17770E+06-1.78562E+04-6.13811E+04 2.34427E+04 7.70569E-10 4.87489E-10
 -1      1150-1.13558E+06-1.65989E+04-5.72410E+04 5.32825E+04-4.85397E-09 3.85444E-09
 -1      1151-1.14808E+06-6.95173E+03-3.16179E+04 6.84841E+04-2.41562E-09-2.51021E-10
 -1      1152-1.14112E+06-1.67912E+02-1.72235E+04 5.30101E+04 4.77030E-09-9.26775E-10
 -1      1153-1.14277E+06-2.70671E+02-1.49063E+04 6.87736E+04-9.45874E-11 8.76298E-10
 -1      1154-1.14110E+06-2.12893E+02-1.91184E+04 5.29852E+04-6.09316E-09 3.81647E-09
 -1      1155-1.14941E+06-8.21284E+03-3.69078E+04 6.87391E+04-1.01882E-08 2.99542E-09
 -1      1156-1.13460E+06-1.96324E+04-6.77207E+04 5.30715E+04-6.60282E-09 2.13186E-09
 -1      1157-8.27530E+05-1.04540E+04-3.64711E+04 5.53910E+04-2.11730E-09-5.66615E-10
 -1      1158-8.35511E+05-4.29472E+03-2.04081E+04 7.13334E+04 3.48518E-09-3.53430E-09
 -1      1159-8.31053E+05 1.55575E+00-1.16299E+04 5.51607E+04-3.87627E-09 9.60426E-10
 -1      1160-8.32246E+05-9.41388E+01-1.09223E+04 7.15622E+04 3.31738E-10-5.04770E-11
 -1      1161-8.30950E+05-1.20270E+02-1.49984E+04 5.51496E+04 5.66729E-10 1.00670E-09
 -1      1162-8.37712E+05-6.61718E+03-2.97990E+04 7.14605E+04 1.13369E-09-7.44421E-10
 -1      1163-8.25616E+05-1.59579E+04-5.50902E+04 5.52897E+04-3.99723E-10 1.24055E-09
 -1      1164-4.37030E+05-4.36591E+03-1.55036E+04 3.72691E+04-5.66479E-09 7.68523E-11
 -1      1165-4.40422E+05-1.74917E+03-8.85295E+03 4.80226E+04-5.98470E-09-5.27734E-10
 -1      1166-4.38506E+05 6.01783E+01-5.38442E+03 3.71398E+04-4.61068E-09 7.68068E-10
 -1      1167-4.39099E+05-7.68351E+00-5.59930E+03 4.81468E+04-1.98906E-09-2.35650E-09
 -1      1168-4.38399E+05-5.68683E+01-8.26557E+03 3.71378E+04 1.74953E-09 3.25372E-10
 -1      1169-4.42253E+05-3.75990E+03-1.68804E+04 4.80529E+04-7.85167E-09-3.22188E-10
 -1      1170-4.35338E+05-9.10776E+03-3.14244E+04 3.72502E+04 2.26828E-09-4.71118E-10
 -1      1171-1.58972E+05-8.67817E+02-3.27281E+03 2.01983E+04 4.72232E-09-5.82872E-10
 -1      1172-1.59688E+05-3.15499E+02-1.98928E+03 2.60323E+04 8.19068E-09-3.05749E-09
 -1      1173-1.59272E+05 5.49137E+01-1.43563E+03 2.01459E+04 2.91209E-09 6.76664E-10
 -1      1174-1.59456E+05 2.40466E+01-1.83104E+03 2.60818E+04-5.13296E-10-1.93074E-09
 -1      1175-1.59209E+05-1.25746E+01-3.02789E+03 2.01474E+04 4.03566E-09 3.66043E-10
 -1      1176-1.60688E+05-1.43198E+03-6.42449E+03 2.60147E+04 8.91305E-11-4.71204E-10
 -1      1177-1.58026E+05-3.49618E+03-1.20705E+04 2.02192E+04 6.98492E-09 2.84672E-10
 -3
 9999
