    1C
    1UUSER                                                              
    1UDATE              21.september.2022                               
    1UTIME              09:10:54                                        
    1UHOST                                                              
    1UPGM               CalculiX                                        
    1UVERSION           Version 2.19                             
    1UCOMPILETIME       Fri Dec 17 13:15:26 CET 2021                    
    1UDIR                                                               
    1UDBN                                                               
    1UMAT    1MESH_MATERIAL                                             
    2C                           641                                     1
 -1         1 0.00000E+00 0.00000E+00 0.00000E+00
 -1         2 8.33333E-03 0.00000E+00 0.00000E+00
 -1         3 1.66667E-02 0.00000E+00 0.00000E+00
 -1         4 2.50000E-02 0.00000E+00 0.00000E+00
 -1         5 3.33333E-02 0.00000E+00 0.00000E+00
 -1         6 4.16667E-02 0.00000E+00 0.00000E+00
 -1         7 5.00000E-02 0.00000E+00 0.00000E+00
 -1         8 5.83333E-02 0.00000E+00 0.00000E+00
 -1         9 6.66667E-02 0.00000E+00 0.00000E+00
 -1        14 0.00000E+00 6.25000E-03 0.00000E+00
 -1        15 8.33333E-03 6.25000E-03 0.00000E+00
 -1        16 1.66667E-02 6.25000E-03 0.00000E+00
 -1        17 2.50000E-02 6.25000E-03 0.00000E+00
 -1        18 3.33333E-02 6.25000E-03 0.00000E+00
 -1        19 4.16667E-02 6.25000E-03 0.00000E+00
 -1        20 5.00000E-02 6.25000E-03 0.00000E+00
 -1        21 5.83333E-02 6.25000E-03 0.00000E+00
 -1        22 6.66667E-02 6.25000E-03 0.00000E+00
 -1        27 0.00000E+00 1.25000E-02 0.00000E+00
 -1        28 8.33333E-03 1.25000E-02 0.00000E+00
 -1        29 1.66667E-02 1.25000E-02 0.00000E+00
 -1        30 2.50000E-02 1.25000E-02 0.00000E+00
 -1        31 3.33333E-02 1.25000E-02 0.00000E+00
 -1        32 4.16667E-02 1.25000E-02 0.00000E+00
 -1        33 5.00000E-02 1.25000E-02 0.00000E+00
 -1        34 5.83333E-02 1.25000E-02 0.00000E+00
 -1        35 6.66667E-02 1.25000E-02 0.00000E+00
 -1        36 7.50000E-02 1.25000E-02 0.00000E+00
 -1        37 8.33333E-02 1.25000E-02 0.00000E+00
 -1        38 9.16667E-02 1.25000E-02 0.00000E+00
 -1        39 1.00000E-01 1.25000E-02 0.00000E+00
 -1        40 0.00000E+00 1.87500E-02 0.00000E+00
 -1        41 8.33333E-03 1.87500E-02 0.00000E+00
 -1        42 1.66667E-02 1.87500E-02 0.00000E+00
 -1        43 2.50000E-02 1.87500E-02 0.00000E+00
 -1        44 3.33333E-02 1.87500E-02 0.00000E+00
 -1        45 4.16667E-02 1.87500E-02 0.00000E+00
 -1        46 5.00000E-02 1.87500E-02 0.00000E+00
 -1        47 5.83333E-02 1.87500E-02 0.00000E+00
 -1        48 6.66667E-02 1.87500E-02 0.00000E+00
 -1        49 7.50000E-02 1.87500E-02 0.00000E+00
 -1        50 8.33333E-02 1.87500E-02 0.00000E+00
 -1        51 9.16667E-02 1.87500E-02 0.00000E+00
 -1        52 1.00000E-01 1.87500E-02 0.00000E+00
 -1        53 0.00000E+00 2.50000E-02 0.00000E+00
 -1        54 8.33333E-03 2.50000E-02 0.00000E+00
 -1        55 1.66667E-02 2.50000E-02 0.00000E+00
 -1        56 2.50000E-02 2.50000E-02 0.00000E+00
 -1        57 3.33333E-02 2.50000E-02 0.00000E+00
 -1        58 4.16667E-02 2.50000E-02 0.00000E+00
 -1        59 5.00000E-02 2.50000E-02 0.00000E+00
 -1        60 5.83333E-02 2.50000E-02 0.00000E+00
 -1        61 6.66667E-02 2.50000E-02 0.00000E+00
 -1        62 7.50000E-02 2.50000E-02 0.00000E+00
 -1        63 8.33333E-02 2.50000E-02 0.00000E+00
 -1        64 9.16667E-02 2.50000E-02 0.00000E+00
 -1        65 1.00000E-01 2.50000E-02 0.00000E+00
 -1        66 1.04167E-03 0.00000E+00 0.00000E+00
 -1        67 2.08333E-03 0.00000E+00 0.00000E+00
 -1        68 3.12500E-03 0.00000E+00 0.00000E+00
 -1        69 4.16667E-03 0.00000E+00 0.00000E+00
 -1        70 5.20833E-03 0.00000E+00 0.00000E+00
 -1        71 6.25000E-03 0.00000E+00 0.00000E+00
 -1        72 7.29167E-03 0.00000E+00 0.00000E+00
 -1        73 0.00000E+00 1.04167E-03 0.00000E+00
 -1        74 0.00000E+00 2.08333E-03 0.00000E+00
 -1        75 0.00000E+00 3.12500E-03 0.00000E+00
 -1        76 0.00000E+00 4.16667E-03 0.00000E+00
 -1        77 0.00000E+00 5.20833E-03 0.00000E+00
 -1        78 9.37500E-03 0.00000E+00 0.00000E+00
 -1        79 1.04167E-02 0.00000E+00 0.00000E+00
 -1        80 1.14583E-02 0.00000E+00 0.00000E+00
 -1        81 1.25000E-02 0.00000E+00 0.00000E+00
 -1        82 1.35417E-02 0.00000E+00 0.00000E+00
 -1        83 1.45833E-02 0.00000E+00 0.00000E+00
 -1        84 1.56250E-02 0.00000E+00 0.00000E+00
 -1        85 8.33333E-03 1.04167E-03 0.00000E+00
 -1        86 8.33333E-03 2.08333E-03 0.00000E+00
 -1        87 8.33333E-03 3.12500E-03 0.00000E+00
 -1        88 8.33333E-03 4.16667E-03 0.00000E+00
 -1        89 8.33333E-03 5.20833E-03 0.00000E+00
 -1        90 1.77083E-02 0.00000E+00 0.00000E+00
 -1        91 1.87500E-02 0.00000E+00 0.00000E+00
 -1        92 1.97917E-02 0.00000E+00 0.00000E+00
 -1        93 2.08333E-02 0.00000E+00 0.00000E+00
 -1        94 2.18750E-02 0.00000E+00 0.00000E+00
 -1        95 2.29167E-02 0.00000E+00 0.00000E+00
 -1        96 2.39583E-02 0.00000E+00 0.00000E+00
 -1        97 1.66667E-02 1.04167E-03 0.00000E+00
 -1        98 1.66667E-02 2.08333E-03 0.00000E+00
 -1        99 1.66667E-02 3.12500E-03 0.00000E+00
 -1       100 1.66667E-02 4.16667E-03 0.00000E+00
 -1       101 1.66667E-02 5.20833E-03 0.00000E+00
 -1       102 2.60417E-02 0.00000E+00 0.00000E+00
 -1       103 2.70833E-02 0.00000E+00 0.00000E+00
 -1       104 2.81250E-02 0.00000E+00 0.00000E+00
 -1       105 2.91667E-02 0.00000E+00 0.00000E+00
 -1       106 3.02083E-02 0.00000E+00 0.00000E+00
 -1       107 3.12500E-02 0.00000E+00 0.00000E+00
 -1       108 3.22917E-02 0.00000E+00 0.00000E+00
 -1       109 2.50000E-02 1.04167E-03 0.00000E+00
 -1       110 2.50000E-02 2.08333E-03 0.00000E+00
 -1       111 2.50000E-02 3.12500E-03 0.00000E+00
 -1       112 2.50000E-02 4.16667E-03 0.00000E+00
 -1       113 2.50000E-02 5.20833E-03 0.00000E+00
 -1       114 3.43750E-02 0.00000E+00 0.00000E+00
 -1       115 3.54167E-02 0.00000E+00 0.00000E+00
 -1       116 3.64583E-02 0.00000E+00 0.00000E+00
 -1       117 3.75000E-02 0.00000E+00 0.00000E+00
 -1       118 3.85417E-02 0.00000E+00 0.00000E+00
 -1       119 3.95833E-02 0.00000E+00 0.00000E+00
 -1       120 4.06250E-02 0.00000E+00 0.00000E+00
 -1       121 3.33333E-02 1.04167E-03 0.00000E+00
 -1       122 3.33333E-02 2.08333E-03 0.00000E+00
 -1       123 3.33333E-02 3.12500E-03 0.00000E+00
 -1       124 3.33333E-02 4.16667E-03 0.00000E+00
 -1       125 3.33333E-02 5.20833E-03 0.00000E+00
 -1       126 4.27083E-02 0.00000E+00 0.00000E+00
 -1       127 4.37500E-02 0.00000E+00 0.00000E+00
 -1       128 4.47917E-02 0.00000E+00 0.00000E+00
 -1       129 4.58333E-02 0.00000E+00 0.00000E+00
 -1       130 4.68750E-02 0.00000E+00 0.00000E+00
 -1       131 4.79167E-02 0.00000E+00 0.00000E+00
 -1       132 4.89583E-02 0.00000E+00 0.00000E+00
 -1       133 4.16667E-02 1.04167E-03 0.00000E+00
 -1       134 4.16667E-02 2.08333E-03 0.00000E+00
 -1       135 4.16667E-02 3.12500E-03 0.00000E+00
 -1       136 4.16667E-02 4.16667E-03 0.00000E+00
 -1       137 4.16667E-02 5.20833E-03 0.00000E+00
 -1       138 5.10417E-02 0.00000E+00 0.00000E+00
 -1       139 5.20833E-02 0.00000E+00 0.00000E+00
 -1       140 5.31250E-02 0.00000E+00 0.00000E+00
 -1       141 5.41667E-02 0.00000E+00 0.00000E+00
 -1       142 5.52083E-02 0.00000E+00 0.00000E+00
 -1       143 5.62500E-02 0.00000E+00 0.00000E+00
 -1       144 5.72917E-02 0.00000E+00 0.00000E+00
 -1       145 5.00000E-02 1.04167E-03 0.00000E+00
 -1       146 5.00000E-02 2.08333E-03 0.00000E+00
 -1       147 5.00000E-02 3.12500E-03 0.00000E+00
 -1       148 5.00000E-02 4.16667E-03 0.00000E+00
 -1       149 5.00000E-02 5.20833E-03 0.00000E+00
 -1       150 5.93750E-02 0.00000E+00 0.00000E+00
 -1       151 6.04167E-02 0.00000E+00 0.00000E+00
 -1       152 6.14583E-02 0.00000E+00 0.00000E+00
 -1       153 6.25000E-02 0.00000E+00 0.00000E+00
 -1       154 6.35417E-02 0.00000E+00 0.00000E+00
 -1       155 6.45833E-02 0.00000E+00 0.00000E+00
 -1       156 6.56250E-02 0.00000E+00 0.00000E+00
 -1       157 5.83333E-02 1.04167E-03 0.00000E+00
 -1       158 5.83333E-02 2.08333E-03 0.00000E+00
 -1       159 5.83333E-02 3.12500E-03 0.00000E+00
 -1       160 5.83333E-02 4.16667E-03 0.00000E+00
 -1       161 5.83333E-02 5.20833E-03 0.00000E+00
 -1       169 6.66667E-02 1.04167E-03 0.00000E+00
 -1       170 6.66667E-02 2.08333E-03 0.00000E+00
 -1       171 6.66667E-02 3.12500E-03 0.00000E+00
 -1       172 6.66667E-02 4.16667E-03 0.00000E+00
 -1       173 6.66667E-02 5.20833E-03 0.00000E+00
 -1       215 1.04167E-03 6.25000E-03 0.00000E+00
 -1       216 2.08333E-03 6.25000E-03 0.00000E+00
 -1       217 3.12500E-03 6.25000E-03 0.00000E+00
 -1       218 4.16667E-03 6.25000E-03 0.00000E+00
 -1       219 5.20833E-03 6.25000E-03 0.00000E+00
 -1       220 6.25000E-03 6.25000E-03 0.00000E+00
 -1       221 7.29167E-03 6.25000E-03 0.00000E+00
 -1       222 0.00000E+00 7.29167E-03 0.00000E+00
 -1       223 0.00000E+00 8.33333E-03 0.00000E+00
 -1       224 0.00000E+00 9.37500E-03 0.00000E+00
 -1       225 0.00000E+00 1.04167E-02 0.00000E+00
 -1       226 0.00000E+00 1.14583E-02 0.00000E+00
 -1       227 9.37500E-03 6.25000E-03 0.00000E+00
 -1       228 1.04167E-02 6.25000E-03 0.00000E+00
 -1       229 1.14583E-02 6.25000E-03 0.00000E+00
 -1       230 1.25000E-02 6.25000E-03 0.00000E+00
 -1       231 1.35417E-02 6.25000E-03 0.00000E+00
 -1       232 1.45833E-02 6.25000E-03 0.00000E+00
 -1       233 1.56250E-02 6.25000E-03 0.00000E+00
 -1       234 8.33333E-03 7.29167E-03 0.00000E+00
 -1       235 8.33333E-03 8.33333E-03 0.00000E+00
 -1       236 8.33333E-03 9.37500E-03 0.00000E+00
 -1       237 8.33333E-03 1.04167E-02 0.00000E+00
 -1       238 8.33333E-03 1.14583E-02 0.00000E+00
 -1       239 1.77083E-02 6.25000E-03 0.00000E+00
 -1       240 1.87500E-02 6.25000E-03 0.00000E+00
 -1       241 1.97917E-02 6.25000E-03 0.00000E+00
 -1       242 2.08333E-02 6.25000E-03 0.00000E+00
 -1       243 2.18750E-02 6.25000E-03 0.00000E+00
 -1       244 2.29167E-02 6.25000E-03 0.00000E+00
 -1       245 2.39583E-02 6.25000E-03 0.00000E+00
 -1       246 1.66667E-02 7.29167E-03 0.00000E+00
 -1       247 1.66667E-02 8.33333E-03 0.00000E+00
 -1       248 1.66667E-02 9.37500E-03 0.00000E+00
 -1       249 1.66667E-02 1.04167E-02 0.00000E+00
 -1       250 1.66667E-02 1.14583E-02 0.00000E+00
 -1       251 2.60417E-02 6.25000E-03 0.00000E+00
 -1       252 2.70833E-02 6.25000E-03 0.00000E+00
 -1       253 2.81250E-02 6.25000E-03 0.00000E+00
 -1       254 2.91667E-02 6.25000E-03 0.00000E+00
 -1       255 3.02083E-02 6.25000E-03 0.00000E+00
 -1       256 3.12500E-02 6.25000E-03 0.00000E+00
 -1       257 3.22917E-02 6.25000E-03 0.00000E+00
 -1       258 2.50000E-02 7.29167E-03 0.00000E+00
 -1       259 2.50000E-02 8.33333E-03 0.00000E+00
 -1       260 2.50000E-02 9.37500E-03 0.00000E+00
 -1       261 2.50000E-02 1.04167E-02 0.00000E+00
 -1       262 2.50000E-02 1.14583E-02 0.00000E+00
 -1       263 3.43750E-02 6.25000E-03 0.00000E+00
 -1       264 3.54167E-02 6.25000E-03 0.00000E+00
 -1       265 3.64583E-02 6.25000E-03 0.00000E+00
 -1       266 3.75000E-02 6.25000E-03 0.00000E+00
 -1       267 3.85417E-02 6.25000E-03 0.00000E+00
 -1       268 3.95833E-02 6.25000E-03 0.00000E+00
 -1       269 4.06250E-02 6.25000E-03 0.00000E+00
 -1       270 3.33333E-02 7.29167E-03 0.00000E+00
 -1       271 3.33333E-02 8.33333E-03 0.00000E+00
 -1       272 3.33333E-02 9.37500E-03 0.00000E+00
 -1       273 3.33333E-02 1.04167E-02 0.00000E+00
 -1       274 3.33333E-02 1.14583E-02 0.00000E+00
 -1       275 4.27083E-02 6.25000E-03 0.00000E+00
 -1       276 4.37500E-02 6.25000E-03 0.00000E+00
 -1       277 4.47917E-02 6.25000E-03 0.00000E+00
 -1       278 4.58333E-02 6.25000E-03 0.00000E+00
 -1       279 4.68750E-02 6.25000E-03 0.00000E+00
 -1       280 4.79167E-02 6.25000E-03 0.00000E+00
 -1       281 4.89583E-02 6.25000E-03 0.00000E+00
 -1       282 4.16667E-02 7.29167E-03 0.00000E+00
 -1       283 4.16667E-02 8.33333E-03 0.00000E+00
 -1       284 4.16667E-02 9.37500E-03 0.00000E+00
 -1       285 4.16667E-02 1.04167E-02 0.00000E+00
 -1       286 4.16667E-02 1.14583E-02 0.00000E+00
 -1       287 5.10417E-02 6.25000E-03 0.00000E+00
 -1       288 5.20833E-02 6.25000E-03 0.00000E+00
 -1       289 5.31250E-02 6.25000E-03 0.00000E+00
 -1       290 5.41667E-02 6.25000E-03 0.00000E+00
 -1       291 5.52083E-02 6.25000E-03 0.00000E+00
 -1       292 5.62500E-02 6.25000E-03 0.00000E+00
 -1       293 5.72917E-02 6.25000E-03 0.00000E+00
 -1       294 5.00000E-02 7.29167E-03 0.00000E+00
 -1       295 5.00000E-02 8.33333E-03 0.00000E+00
 -1       296 5.00000E-02 9.37500E-03 0.00000E+00
 -1       297 5.00000E-02 1.04167E-02 0.00000E+00
 -1       298 5.00000E-02 1.14583E-02 0.00000E+00
 -1       299 5.93750E-02 6.25000E-03 0.00000E+00
 -1       300 6.04167E-02 6.25000E-03 0.00000E+00
 -1       301 6.14583E-02 6.25000E-03 0.00000E+00
 -1       302 6.25000E-02 6.25000E-03 0.00000E+00
 -1       303 6.35417E-02 6.25000E-03 0.00000E+00
 -1       304 6.45833E-02 6.25000E-03 0.00000E+00
 -1       305 6.56250E-02 6.25000E-03 0.00000E+00
 -1       306 5.83333E-02 7.29167E-03 0.00000E+00
 -1       307 5.83333E-02 8.33333E-03 0.00000E+00
 -1       308 5.83333E-02 9.37500E-03 0.00000E+00
 -1       309 5.83333E-02 1.04167E-02 0.00000E+00
 -1       310 5.83333E-02 1.14583E-02 0.00000E+00
 -1       318 6.66667E-02 7.29167E-03 0.00000E+00
 -1       319 6.66667E-02 8.33333E-03 0.00000E+00
 -1       320 6.66667E-02 9.37500E-03 0.00000E+00
 -1       321 6.66667E-02 1.04167E-02 0.00000E+00
 -1       322 6.66667E-02 1.14583E-02 0.00000E+00
 -1       364 1.04167E-03 1.25000E-02 0.00000E+00
 -1       365 2.08333E-03 1.25000E-02 0.00000E+00
 -1       366 3.12500E-03 1.25000E-02 0.00000E+00
 -1       367 4.16667E-03 1.25000E-02 0.00000E+00
 -1       368 5.20833E-03 1.25000E-02 0.00000E+00
 -1       369 6.25000E-03 1.25000E-02 0.00000E+00
 -1       370 7.29167E-03 1.25000E-02 0.00000E+00
 -1       371 0.00000E+00 1.35417E-02 0.00000E+00
 -1       372 0.00000E+00 1.45833E-02 0.00000E+00
 -1       373 0.00000E+00 1.56250E-02 0.00000E+00
 -1       374 0.00000E+00 1.66667E-02 0.00000E+00
 -1       375 0.00000E+00 1.77083E-02 0.00000E+00
 -1       376 9.37500E-03 1.25000E-02 0.00000E+00
 -1       377 1.04167E-02 1.25000E-02 0.00000E+00
 -1       378 1.14583E-02 1.25000E-02 0.00000E+00
 -1       379 1.25000E-02 1.25000E-02 0.00000E+00
 -1       380 1.35417E-02 1.25000E-02 0.00000E+00
 -1       381 1.45833E-02 1.25000E-02 0.00000E+00
 -1       382 1.56250E-02 1.25000E-02 0.00000E+00
 -1       383 8.33333E-03 1.35417E-02 0.00000E+00
 -1       384 8.33333E-03 1.45833E-02 0.00000E+00
 -1       385 8.33333E-03 1.56250E-02 0.00000E+00
 -1       386 8.33333E-03 1.66667E-02 0.00000E+00
 -1       387 8.33333E-03 1.77083E-02 0.00000E+00
 -1       388 1.77083E-02 1.25000E-02 0.00000E+00
 -1       389 1.87500E-02 1.25000E-02 0.00000E+00
 -1       390 1.97917E-02 1.25000E-02 0.00000E+00
 -1       391 2.08333E-02 1.25000E-02 0.00000E+00
 -1       392 2.18750E-02 1.25000E-02 0.00000E+00
 -1       393 2.29167E-02 1.25000E-02 0.00000E+00
 -1       394 2.39583E-02 1.25000E-02 0.00000E+00
 -1       395 1.66667E-02 1.35417E-02 0.00000E+00
 -1       396 1.66667E-02 1.45833E-02 0.00000E+00
 -1       397 1.66667E-02 1.56250E-02 0.00000E+00
 -1       398 1.66667E-02 1.66667E-02 0.00000E+00
 -1       399 1.66667E-02 1.77083E-02 0.00000E+00
 -1       400 2.60417E-02 1.25000E-02 0.00000E+00
 -1       401 2.70833E-02 1.25000E-02 0.00000E+00
 -1       402 2.81250E-02 1.25000E-02 0.00000E+00
 -1       403 2.91667E-02 1.25000E-02 0.00000E+00
 -1       404 3.02083E-02 1.25000E-02 0.00000E+00
 -1       405 3.12500E-02 1.25000E-02 0.00000E+00
 -1       406 3.22917E-02 1.25000E-02 0.00000E+00
 -1       407 2.50000E-02 1.35417E-02 0.00000E+00
 -1       408 2.50000E-02 1.45833E-02 0.00000E+00
 -1       409 2.50000E-02 1.56250E-02 0.00000E+00
 -1       410 2.50000E-02 1.66667E-02 0.00000E+00
 -1       411 2.50000E-02 1.77083E-02 0.00000E+00
 -1       412 3.43750E-02 1.25000E-02 0.00000E+00
 -1       413 3.54167E-02 1.25000E-02 0.00000E+00
 -1       414 3.64583E-02 1.25000E-02 0.00000E+00
 -1       415 3.75000E-02 1.25000E-02 0.00000E+00
 -1       416 3.85417E-02 1.25000E-02 0.00000E+00
 -1       417 3.95833E-02 1.25000E-02 0.00000E+00
 -1       418 4.06250E-02 1.25000E-02 0.00000E+00
 -1       419 3.33333E-02 1.35417E-02 0.00000E+00
 -1       420 3.33333E-02 1.45833E-02 0.00000E+00
 -1       421 3.33333E-02 1.56250E-02 0.00000E+00
 -1       422 3.33333E-02 1.66667E-02 0.00000E+00
 -1       423 3.33333E-02 1.77083E-02 0.00000E+00
 -1       424 4.27083E-02 1.25000E-02 0.00000E+00
 -1       425 4.37500E-02 1.25000E-02 0.00000E+00
 -1       426 4.47917E-02 1.25000E-02 0.00000E+00
 -1       427 4.58333E-02 1.25000E-02 0.00000E+00
 -1       428 4.68750E-02 1.25000E-02 0.00000E+00
 -1       429 4.79167E-02 1.25000E-02 0.00000E+00
 -1       430 4.89583E-02 1.25000E-02 0.00000E+00
 -1       431 4.16667E-02 1.35417E-02 0.00000E+00
 -1       432 4.16667E-02 1.45833E-02 0.00000E+00
 -1       433 4.16667E-02 1.56250E-02 0.00000E+00
 -1       434 4.16667E-02 1.66667E-02 0.00000E+00
 -1       435 4.16667E-02 1.77083E-02 0.00000E+00
 -1       436 5.10417E-02 1.25000E-02 0.00000E+00
 -1       437 5.20833E-02 1.25000E-02 0.00000E+00
 -1       438 5.31250E-02 1.25000E-02 0.00000E+00
 -1       439 5.41667E-02 1.25000E-02 0.00000E+00
 -1       440 5.52083E-02 1.25000E-02 0.00000E+00
 -1       441 5.62500E-02 1.25000E-02 0.00000E+00
 -1       442 5.72917E-02 1.25000E-02 0.00000E+00
 -1       443 5.00000E-02 1.35417E-02 0.00000E+00
 -1       444 5.00000E-02 1.45833E-02 0.00000E+00
 -1       445 5.00000E-02 1.56250E-02 0.00000E+00
 -1       446 5.00000E-02 1.66667E-02 0.00000E+00
 -1       447 5.00000E-02 1.77083E-02 0.00000E+00
 -1       448 5.93750E-02 1.25000E-02 0.00000E+00
 -1       449 6.04167E-02 1.25000E-02 0.00000E+00
 -1       450 6.14583E-02 1.25000E-02 0.00000E+00
 -1       451 6.25000E-02 1.25000E-02 0.00000E+00
 -1       452 6.35417E-02 1.25000E-02 0.00000E+00
 -1       453 6.45833E-02 1.25000E-02 0.00000E+00
 -1       454 6.56250E-02 1.25000E-02 0.00000E+00
 -1       455 5.83333E-02 1.35417E-02 0.00000E+00
 -1       456 5.83333E-02 1.45833E-02 0.00000E+00
 -1       457 5.83333E-02 1.56250E-02 0.00000E+00
 -1       458 5.83333E-02 1.66667E-02 0.00000E+00
 -1       459 5.83333E-02 1.77083E-02 0.00000E+00
 -1       460 6.77083E-02 1.25000E-02 0.00000E+00
 -1       461 6.87500E-02 1.25000E-02 0.00000E+00
 -1       462 6.97917E-02 1.25000E-02 0.00000E+00
 -1       463 7.08333E-02 1.25000E-02 0.00000E+00
 -1       464 7.18750E-02 1.25000E-02 0.00000E+00
 -1       465 7.29167E-02 1.25000E-02 0.00000E+00
 -1       466 7.39583E-02 1.25000E-02 0.00000E+00
 -1       467 6.66667E-02 1.35417E-02 0.00000E+00
 -1       468 6.66667E-02 1.45833E-02 0.00000E+00
 -1       469 6.66667E-02 1.56250E-02 0.00000E+00
 -1       470 6.66667E-02 1.66667E-02 0.00000E+00
 -1       471 6.66667E-02 1.77083E-02 0.00000E+00
 -1       472 7.60417E-02 1.25000E-02 0.00000E+00
 -1       473 7.70833E-02 1.25000E-02 0.00000E+00
 -1       474 7.81250E-02 1.25000E-02 0.00000E+00
 -1       475 7.91667E-02 1.25000E-02 0.00000E+00
 -1       476 8.02083E-02 1.25000E-02 0.00000E+00
 -1       477 8.12500E-02 1.25000E-02 0.00000E+00
 -1       478 8.22917E-02 1.25000E-02 0.00000E+00
 -1       479 7.50000E-02 1.35417E-02 0.00000E+00
 -1       480 7.50000E-02 1.45833E-02 0.00000E+00
 -1       481 7.50000E-02 1.56250E-02 0.00000E+00
 -1       482 7.50000E-02 1.66667E-02 0.00000E+00
 -1       483 7.50000E-02 1.77083E-02 0.00000E+00
 -1       484 8.43750E-02 1.25000E-02 0.00000E+00
 -1       485 8.54167E-02 1.25000E-02 0.00000E+00
 -1       486 8.64583E-02 1.25000E-02 0.00000E+00
 -1       487 8.75000E-02 1.25000E-02 0.00000E+00
 -1       488 8.85417E-02 1.25000E-02 0.00000E+00
 -1       489 8.95833E-02 1.25000E-02 0.00000E+00
 -1       490 9.06250E-02 1.25000E-02 0.00000E+00
 -1       491 8.33333E-02 1.35417E-02 0.00000E+00
 -1       492 8.33333E-02 1.45833E-02 0.00000E+00
 -1       493 8.33333E-02 1.56250E-02 0.00000E+00
 -1       494 8.33333E-02 1.66667E-02 0.00000E+00
 -1       495 8.33333E-02 1.77083E-02 0.00000E+00
 -1       496 9.27083E-02 1.25000E-02 0.00000E+00
 -1       497 9.37500E-02 1.25000E-02 0.00000E+00
 -1       498 9.47917E-02 1.25000E-02 0.00000E+00
 -1       499 9.58333E-02 1.25000E-02 0.00000E+00
 -1       500 9.68750E-02 1.25000E-02 0.00000E+00
 -1       501 9.79167E-02 1.25000E-02 0.00000E+00
 -1       502 9.89583E-02 1.25000E-02 0.00000E+00
 -1       503 9.16667E-02 1.35417E-02 0.00000E+00
 -1       504 9.16667E-02 1.45833E-02 0.00000E+00
 -1       505 9.16667E-02 1.56250E-02 0.00000E+00
 -1       506 9.16667E-02 1.66667E-02 0.00000E+00
 -1       507 9.16667E-02 1.77083E-02 0.00000E+00
 -1       508 1.00000E-01 1.35417E-02 0.00000E+00
 -1       509 1.00000E-01 1.45833E-02 0.00000E+00
 -1       510 1.00000E-01 1.56250E-02 0.00000E+00
 -1       511 1.00000E-01 1.66667E-02 0.00000E+00
 -1       512 1.00000E-01 1.77083E-02 0.00000E+00
 -1       513 1.04167E-03 1.87500E-02 0.00000E+00
 -1       514 2.08333E-03 1.87500E-02 0.00000E+00
 -1       515 3.12500E-03 1.87500E-02 0.00000E+00
 -1       516 4.16667E-03 1.87500E-02 0.00000E+00
 -1       517 5.20833E-03 1.87500E-02 0.00000E+00
 -1       518 6.25000E-03 1.87500E-02 0.00000E+00
 -1       519 7.29167E-03 1.87500E-02 0.00000E+00
 -1       520 0.00000E+00 1.97917E-02 0.00000E+00
 -1       521 0.00000E+00 2.08333E-02 0.00000E+00
 -1       522 0.00000E+00 2.18750E-02 0.00000E+00
 -1       523 0.00000E+00 2.29167E-02 0.00000E+00
 -1       524 0.00000E+00 2.39583E-02 0.00000E+00
 -1       525 9.37500E-03 1.87500E-02 0.00000E+00
 -1       526 1.04167E-02 1.87500E-02 0.00000E+00
 -1       527 1.14583E-02 1.87500E-02 0.00000E+00
 -1       528 1.25000E-02 1.87500E-02 0.00000E+00
 -1       529 1.35417E-02 1.87500E-02 0.00000E+00
 -1       530 1.45833E-02 1.87500E-02 0.00000E+00
 -1       531 1.56250E-02 1.87500E-02 0.00000E+00
 -1       532 8.33333E-03 1.97917E-02 0.00000E+00
 -1       533 8.33333E-03 2.08333E-02 0.00000E+00
 -1       534 8.33333E-03 2.18750E-02 0.00000E+00
 -1       535 8.33333E-03 2.29167E-02 0.00000E+00
 -1       536 8.33333E-03 2.39583E-02 0.00000E+00
 -1       537 1.77083E-02 1.87500E-02 0.00000E+00
 -1       538 1.87500E-02 1.87500E-02 0.00000E+00
 -1       539 1.97917E-02 1.87500E-02 0.00000E+00
 -1       540 2.08333E-02 1.87500E-02 0.00000E+00
 -1       541 2.18750E-02 1.87500E-02 0.00000E+00
 -1       542 2.29167E-02 1.87500E-02 0.00000E+00
 -1       543 2.39583E-02 1.87500E-02 0.00000E+00
 -1       544 1.66667E-02 1.97917E-02 0.00000E+00
 -1       545 1.66667E-02 2.08333E-02 0.00000E+00
 -1       546 1.66667E-02 2.18750E-02 0.00000E+00
 -1       547 1.66667E-02 2.29167E-02 0.00000E+00
 -1       548 1.66667E-02 2.39583E-02 0.00000E+00
 -1       549 2.60417E-02 1.87500E-02 0.00000E+00
 -1       550 2.70833E-02 1.87500E-02 0.00000E+00
 -1       551 2.81250E-02 1.87500E-02 0.00000E+00
 -1       552 2.91667E-02 1.87500E-02 0.00000E+00
 -1       553 3.02083E-02 1.87500E-02 0.00000E+00
 -1       554 3.12500E-02 1.87500E-02 0.00000E+00
 -1       555 3.22917E-02 1.87500E-02 0.00000E+00
 -1       556 2.50000E-02 1.97917E-02 0.00000E+00
 -1       557 2.50000E-02 2.08333E-02 0.00000E+00
 -1       558 2.50000E-02 2.18750E-02 0.00000E+00
 -1       559 2.50000E-02 2.29167E-02 0.00000E+00
 -1       560 2.50000E-02 2.39583E-02 0.00000E+00
 -1       561 3.43750E-02 1.87500E-02 0.00000E+00
 -1       562 3.54167E-02 1.87500E-02 0.00000E+00
 -1       563 3.64583E-02 1.87500E-02 0.00000E+00
 -1       564 3.75000E-02 1.87500E-02 0.00000E+00
 -1       565 3.85417E-02 1.87500E-02 0.00000E+00
 -1       566 3.95833E-02 1.87500E-02 0.00000E+00
 -1       567 4.06250E-02 1.87500E-02 0.00000E+00
 -1       568 3.33333E-02 1.97917E-02 0.00000E+00
 -1       569 3.33333E-02 2.08333E-02 0.00000E+00
 -1       570 3.33333E-02 2.18750E-02 0.00000E+00
 -1       571 3.33333E-02 2.29167E-02 0.00000E+00
 -1       572 3.33333E-02 2.39583E-02 0.00000E+00
 -1       573 4.27083E-02 1.87500E-02 0.00000E+00
 -1       574 4.37500E-02 1.87500E-02 0.00000E+00
 -1       575 4.47917E-02 1.87500E-02 0.00000E+00
 -1       576 4.58333E-02 1.87500E-02 0.00000E+00
 -1       577 4.68750E-02 1.87500E-02 0.00000E+00
 -1       578 4.79167E-02 1.87500E-02 0.00000E+00
 -1       579 4.89583E-02 1.87500E-02 0.00000E+00
 -1       580 4.16667E-02 1.97917E-02 0.00000E+00
 -1       581 4.16667E-02 2.08333E-02 0.00000E+00
 -1       582 4.16667E-02 2.18750E-02 0.00000E+00
 -1       583 4.16667E-02 2.29167E-02 0.00000E+00
 -1       584 4.16667E-02 2.39583E-02 0.00000E+00
 -1       585 5.10417E-02 1.87500E-02 0.00000E+00
 -1       586 5.20833E-02 1.87500E-02 0.00000E+00
 -1       587 5.31250E-02 1.87500E-02 0.00000E+00
 -1       588 5.41667E-02 1.87500E-02 0.00000E+00
 -1       589 5.52083E-02 1.87500E-02 0.00000E+00
 -1       590 5.62500E-02 1.87500E-02 0.00000E+00
 -1       591 5.72917E-02 1.87500E-02 0.00000E+00
 -1       592 5.00000E-02 1.97917E-02 0.00000E+00
 -1       593 5.00000E-02 2.08333E-02 0.00000E+00
 -1       594 5.00000E-02 2.18750E-02 0.00000E+00
 -1       595 5.00000E-02 2.29167E-02 0.00000E+00
 -1       596 5.00000E-02 2.39583E-02 0.00000E+00
 -1       597 5.93750E-02 1.87500E-02 0.00000E+00
 -1       598 6.04167E-02 1.87500E-02 0.00000E+00
 -1       599 6.14583E-02 1.87500E-02 0.00000E+00
 -1       600 6.25000E-02 1.87500E-02 0.00000E+00
 -1       601 6.35417E-02 1.87500E-02 0.00000E+00
 -1       602 6.45833E-02 1.87500E-02 0.00000E+00
 -1       603 6.56250E-02 1.87500E-02 0.00000E+00
 -1       604 5.83333E-02 1.97917E-02 0.00000E+00
 -1       605 5.83333E-02 2.08333E-02 0.00000E+00
 -1       606 5.83333E-02 2.18750E-02 0.00000E+00
 -1       607 5.83333E-02 2.29167E-02 0.00000E+00
 -1       608 5.83333E-02 2.39583E-02 0.00000E+00
 -1       609 6.77083E-02 1.87500E-02 0.00000E+00
 -1       610 6.87500E-02 1.87500E-02 0.00000E+00
 -1       611 6.97917E-02 1.87500E-02 0.00000E+00
 -1       612 7.08333E-02 1.87500E-02 0.00000E+00
 -1       613 7.18750E-02 1.87500E-02 0.00000E+00
 -1       614 7.29167E-02 1.87500E-02 0.00000E+00
 -1       615 7.39583E-02 1.87500E-02 0.00000E+00
 -1       616 6.66667E-02 1.97917E-02 0.00000E+00
 -1       617 6.66667E-02 2.08333E-02 0.00000E+00
 -1       618 6.66667E-02 2.18750E-02 0.00000E+00
 -1       619 6.66667E-02 2.29167E-02 0.00000E+00
 -1       620 6.66667E-02 2.39583E-02 0.00000E+00
 -1       621 7.60417E-02 1.87500E-02 0.00000E+00
 -1       622 7.70833E-02 1.87500E-02 0.00000E+00
 -1       623 7.81250E-02 1.87500E-02 0.00000E+00
 -1       624 7.91667E-02 1.87500E-02 0.00000E+00
 -1       625 8.02083E-02 1.87500E-02 0.00000E+00
 -1       626 8.12500E-02 1.87500E-02 0.00000E+00
 -1       627 8.22917E-02 1.87500E-02 0.00000E+00
 -1       628 7.50000E-02 1.97917E-02 0.00000E+00
 -1       629 7.50000E-02 2.08333E-02 0.00000E+00
 -1       630 7.50000E-02 2.18750E-02 0.00000E+00
 -1       631 7.50000E-02 2.29167E-02 0.00000E+00
 -1       632 7.50000E-02 2.39583E-02 0.00000E+00
 -1       633 8.43750E-02 1.87500E-02 0.00000E+00
 -1       634 8.54167E-02 1.87500E-02 0.00000E+00
 -1       635 8.64583E-02 1.87500E-02 0.00000E+00
 -1       636 8.75000E-02 1.87500E-02 0.00000E+00
 -1       637 8.85417E-02 1.87500E-02 0.00000E+00
 -1       638 8.95833E-02 1.87500E-02 0.00000E+00
 -1       639 9.06250E-02 1.87500E-02 0.00000E+00
 -1       640 8.33333E-02 1.97917E-02 0.00000E+00
 -1       641 8.33333E-02 2.08333E-02 0.00000E+00
 -1       642 8.33333E-02 2.18750E-02 0.00000E+00
 -1       643 8.33333E-02 2.29167E-02 0.00000E+00
 -1       644 8.33333E-02 2.39583E-02 0.00000E+00
 -1       645 9.27083E-02 1.87500E-02 0.00000E+00
 -1       646 9.37500E-02 1.87500E-02 0.00000E+00
 -1       647 9.47917E-02 1.87500E-02 0.00000E+00
 -1       648 9.58333E-02 1.87500E-02 0.00000E+00
 -1       649 9.68750E-02 1.87500E-02 0.00000E+00
 -1       650 9.79167E-02 1.87500E-02 0.00000E+00
 -1       651 9.89583E-02 1.87500E-02 0.00000E+00
 -1       652 9.16667E-02 1.97917E-02 0.00000E+00
 -1       653 9.16667E-02 2.08333E-02 0.00000E+00
 -1       654 9.16667E-02 2.18750E-02 0.00000E+00
 -1       655 9.16667E-02 2.29167E-02 0.00000E+00
 -1       656 9.16667E-02 2.39583E-02 0.00000E+00
 -1       657 1.00000E-01 1.97917E-02 0.00000E+00
 -1       658 1.00000E-01 2.08333E-02 0.00000E+00
 -1       659 1.00000E-01 2.18750E-02 0.00000E+00
 -1       660 1.00000E-01 2.29167E-02 0.00000E+00
 -1       661 1.00000E-01 2.39583E-02 0.00000E+00
 -1       662 1.04167E-03 2.50000E-02 0.00000E+00
 -1       663 2.08333E-03 2.50000E-02 0.00000E+00
 -1       664 3.12500E-03 2.50000E-02 0.00000E+00
 -1       665 4.16667E-03 2.50000E-02 0.00000E+00
 -1       666 5.20833E-03 2.50000E-02 0.00000E+00
 -1       667 6.25000E-03 2.50000E-02 0.00000E+00
 -1       668 7.29167E-03 2.50000E-02 0.00000E+00
 -1       669 9.37500E-03 2.50000E-02 0.00000E+00
 -1       670 1.04167E-02 2.50000E-02 0.00000E+00
 -1       671 1.14583E-02 2.50000E-02 0.00000E+00
 -1       672 1.25000E-02 2.50000E-02 0.00000E+00
 -1       673 1.35417E-02 2.50000E-02 0.00000E+00
 -1       674 1.45833E-02 2.50000E-02 0.00000E+00
 -1       675 1.56250E-02 2.50000E-02 0.00000E+00
 -1       676 1.77083E-02 2.50000E-02 0.00000E+00
 -1       677 1.87500E-02 2.50000E-02 0.00000E+00
 -1       678 1.97917E-02 2.50000E-02 0.00000E+00
 -1       679 2.08333E-02 2.50000E-02 0.00000E+00
 -1       680 2.18750E-02 2.50000E-02 0.00000E+00
 -1       681 2.29167E-02 2.50000E-02 0.00000E+00
 -1       682 2.39583E-02 2.50000E-02 0.00000E+00
 -1       683 2.60417E-02 2.50000E-02 0.00000E+00
 -1       684 2.70833E-02 2.50000E-02 0.00000E+00
 -1       685 2.81250E-02 2.50000E-02 0.00000E+00
 -1       686 2.91667E-02 2.50000E-02 0.00000E+00
 -1       687 3.02083E-02 2.50000E-02 0.00000E+00
 -1       688 3.12500E-02 2.50000E-02 0.00000E+00
 -1       689 3.22917E-02 2.50000E-02 0.00000E+00
 -1       690 3.43750E-02 2.50000E-02 0.00000E+00
 -1       691 3.54167E-02 2.50000E-02 0.00000E+00
 -1       692 3.64583E-02 2.50000E-02 0.00000E+00
 -1       693 3.75000E-02 2.50000E-02 0.00000E+00
 -1       694 3.85417E-02 2.50000E-02 0.00000E+00
 -1       695 3.95833E-02 2.50000E-02 0.00000E+00
 -1       696 4.06250E-02 2.50000E-02 0.00000E+00
 -1       697 4.27083E-02 2.50000E-02 0.00000E+00
 -1       698 4.37500E-02 2.50000E-02 0.00000E+00
 -1       699 4.47917E-02 2.50000E-02 0.00000E+00
 -1       700 4.58333E-02 2.50000E-02 0.00000E+00
 -1       701 4.68750E-02 2.50000E-02 0.00000E+00
 -1       702 4.79167E-02 2.50000E-02 0.00000E+00
 -1       703 4.89583E-02 2.50000E-02 0.00000E+00
 -1       704 5.10417E-02 2.50000E-02 0.00000E+00
 -1       705 5.20833E-02 2.50000E-02 0.00000E+00
 -1       706 5.31250E-02 2.50000E-02 0.00000E+00
 -1       707 5.41667E-02 2.50000E-02 0.00000E+00
 -1       708 5.52083E-02 2.50000E-02 0.00000E+00
 -1       709 5.62500E-02 2.50000E-02 0.00000E+00
 -1       710 5.72917E-02 2.50000E-02 0.00000E+00
 -1       711 5.93750E-02 2.50000E-02 0.00000E+00
 -1       712 6.04167E-02 2.50000E-02 0.00000E+00
 -1       713 6.14583E-02 2.50000E-02 0.00000E+00
 -1       714 6.25000E-02 2.50000E-02 0.00000E+00
 -1       715 6.35417E-02 2.50000E-02 0.00000E+00
 -1       716 6.45833E-02 2.50000E-02 0.00000E+00
 -1       717 6.56250E-02 2.50000E-02 0.00000E+00
 -1       718 6.77083E-02 2.50000E-02 0.00000E+00
 -1       719 6.87500E-02 2.50000E-02 0.00000E+00
 -1       720 6.97917E-02 2.50000E-02 0.00000E+00
 -1       721 7.08333E-02 2.50000E-02 0.00000E+00
 -1       722 7.18750E-02 2.50000E-02 0.00000E+00
 -1       723 7.29167E-02 2.50000E-02 0.00000E+00
 -1       724 7.39583E-02 2.50000E-02 0.00000E+00
 -1       725 7.60417E-02 2.50000E-02 0.00000E+00
 -1       726 7.70833E-02 2.50000E-02 0.00000E+00
 -1       727 7.81250E-02 2.50000E-02 0.00000E+00
 -1       728 7.91667E-02 2.50000E-02 0.00000E+00
 -1       729 8.02083E-02 2.50000E-02 0.00000E+00
 -1       730 8.12500E-02 2.50000E-02 0.00000E+00
 -1       731 8.22917E-02 2.50000E-02 0.00000E+00
 -1       732 8.43750E-02 2.50000E-02 0.00000E+00
 -1       733 8.54167E-02 2.50000E-02 0.00000E+00
 -1       734 8.64583E-02 2.50000E-02 0.00000E+00
 -1       735 8.75000E-02 2.50000E-02 0.00000E+00
 -1       736 8.85417E-02 2.50000E-02 0.00000E+00
 -1       737 8.95833E-02 2.50000E-02 0.00000E+00
 -1       738 9.06250E-02 2.50000E-02 0.00000E+00
 -1       739 9.27083E-02 2.50000E-02 0.00000E+00
 -1       740 9.37500E-02 2.50000E-02 0.00000E+00
 -1       741 9.47917E-02 2.50000E-02 0.00000E+00
 -1       742 9.58333E-02 2.50000E-02 0.00000E+00
 -1       743 9.68750E-02 2.50000E-02 0.00000E+00
 -1       744 9.79167E-02 2.50000E-02 0.00000E+00
 -1       745 9.89583E-02 2.50000E-02 0.00000E+00
 -3
    3C                           340                                     1
 -1         1   12    0    1
 -2         1        67        66
 -1         2   12    0    1
 -2        67        69        68
 -1         3   12    0    1
 -2        69        71        70
 -1         4   12    0    1
 -2        71         2        72
 -1         5   12    0    1
 -2         1        74        73
 -1         6   12    0    1
 -2        74        76        75
 -1         7   12    0    1
 -2        76        14        77
 -1         8   12    0    1
 -2         2        79        78
 -1         9   12    0    1
 -2        79        81        80
 -1        10   12    0    1
 -2        81        83        82
 -1        11   12    0    1
 -2        83         3        84
 -1        12   12    0    1
 -2         2        86        85
 -1        13   12    0    1
 -2        86        88        87
 -1        14   12    0    1
 -2        88        15        89
 -1        15   12    0    1
 -2         3        91        90
 -1        16   12    0    1
 -2        91        93        92
 -1        17   12    0    1
 -2        93        95        94
 -1        18   12    0    1
 -2        95         4        96
 -1        19   12    0    1
 -2         3        98        97
 -1        20   12    0    1
 -2        98       100        99
 -1        21   12    0    1
 -2       100        16       101
 -1        22   12    0    1
 -2         4       103       102
 -1        23   12    0    1
 -2       103       105       104
 -1        24   12    0    1
 -2       105       107       106
 -1        25   12    0    1
 -2       107         5       108
 -1        26   12    0    1
 -2         4       110       109
 -1        27   12    0    1
 -2       110       112       111
 -1        28   12    0    1
 -2       112        17       113
 -1        29   12    0    1
 -2         5       115       114
 -1        30   12    0    1
 -2       115       117       116
 -1        31   12    0    1
 -2       117       119       118
 -1        32   12    0    1
 -2       119         6       120
 -1        33   12    0    1
 -2         5       122       121
 -1        34   12    0    1
 -2       122       124       123
 -1        35   12    0    1
 -2       124        18       125
 -1        36   12    0    1
 -2         6       127       126
 -1        37   12    0    1
 -2       127       129       128
 -1        38   12    0    1
 -2       129       131       130
 -1        39   12    0    1
 -2       131         7       132
 -1        40   12    0    1
 -2         6       134       133
 -1        41   12    0    1
 -2       134       136       135
 -1        42   12    0    1
 -2       136        19       137
 -1        43   12    0    1
 -2         7       139       138
 -1        44   12    0    1
 -2       139       141       140
 -1        45   12    0    1
 -2       141       143       142
 -1        46   12    0    1
 -2       143         8       144
 -1        47   12    0    1
 -2         7       146       145
 -1        48   12    0    1
 -2       146       148       147
 -1        49   12    0    1
 -2       148        20       149
 -1        50   12    0    1
 -2         8       151       150
 -1        51   12    0    1
 -2       151       153       152
 -1        52   12    0    1
 -2       153       155       154
 -1        53   12    0    1
 -2       155         9       156
 -1        54   12    0    1
 -2         8       158       157
 -1        55   12    0    1
 -2       158       160       159
 -1        56   12    0    1
 -2       160        21       161
 -1        57   12    0    1
 -2         9       170       169
 -1        58   12    0    1
 -2       170       172       171
 -1        59   12    0    1
 -2       172        22       173
 -1        60   12    0    1
 -2        14       216       215
 -1        61   12    0    1
 -2       216       218       217
 -1        62   12    0    1
 -2       218       220       219
 -1        63   12    0    1
 -2       220        15       221
 -1        64   12    0    1
 -2        14       223       222
 -1        65   12    0    1
 -2       223       225       224
 -1        66   12    0    1
 -2       225        27       226
 -1        67   12    0    1
 -2        15       228       227
 -1        68   12    0    1
 -2       228       230       229
 -1        69   12    0    1
 -2       230       232       231
 -1        70   12    0    1
 -2       232        16       233
 -1        71   12    0    1
 -2        15       235       234
 -1        72   12    0    1
 -2       235       237       236
 -1        73   12    0    1
 -2       237        28       238
 -1        74   12    0    1
 -2        16       240       239
 -1        75   12    0    1
 -2       240       242       241
 -1        76   12    0    1
 -2       242       244       243
 -1        77   12    0    1
 -2       244        17       245
 -1        78   12    0    1
 -2        16       247       246
 -1        79   12    0    1
 -2       247       249       248
 -1        80   12    0    1
 -2       249        29       250
 -1        81   12    0    1
 -2        17       252       251
 -1        82   12    0    1
 -2       252       254       253
 -1        83   12    0    1
 -2       254       256       255
 -1        84   12    0    1
 -2       256        18       257
 -1        85   12    0    1
 -2        17       259       258
 -1        86   12    0    1
 -2       259       261       260
 -1        87   12    0    1
 -2       261        30       262
 -1        88   12    0    1
 -2        18       264       263
 -1        89   12    0    1
 -2       264       266       265
 -1        90   12    0    1
 -2       266       268       267
 -1        91   12    0    1
 -2       268        19       269
 -1        92   12    0    1
 -2        18       271       270
 -1        93   12    0    1
 -2       271       273       272
 -1        94   12    0    1
 -2       273        31       274
 -1        95   12    0    1
 -2        19       276       275
 -1        96   12    0    1
 -2       276       278       277
 -1        97   12    0    1
 -2       278       280       279
 -1        98   12    0    1
 -2       280        20       281
 -1        99   12    0    1
 -2        19       283       282
 -1       100   12    0    1
 -2       283       285       284
 -1       101   12    0    1
 -2       285        32       286
 -1       102   12    0    1
 -2        20       288       287
 -1       103   12    0    1
 -2       288       290       289
 -1       104   12    0    1
 -2       290       292       291
 -1       105   12    0    1
 -2       292        21       293
 -1       106   12    0    1
 -2        20       295       294
 -1       107   12    0    1
 -2       295       297       296
 -1       108   12    0    1
 -2       297        33       298
 -1       109   12    0    1
 -2        21       300       299
 -1       110   12    0    1
 -2       300       302       301
 -1       111   12    0    1
 -2       302       304       303
 -1       112   12    0    1
 -2       304        22       305
 -1       113   12    0    1
 -2        21       307       306
 -1       114   12    0    1
 -2       307       309       308
 -1       115   12    0    1
 -2       309        34       310
 -1       116   12    0    1
 -2        22       319       318
 -1       117   12    0    1
 -2       319       321       320
 -1       118   12    0    1
 -2       321        35       322
 -1       119   12    0    1
 -2        27       365       364
 -1       120   12    0    1
 -2       365       367       366
 -1       121   12    0    1
 -2       367       369       368
 -1       122   12    0    1
 -2       369        28       370
 -1       123   12    0    1
 -2        27       372       371
 -1       124   12    0    1
 -2       372       374       373
 -1       125   12    0    1
 -2       374        40       375
 -1       126   12    0    1
 -2        28       377       376
 -1       127   12    0    1
 -2       377       379       378
 -1       128   12    0    1
 -2       379       381       380
 -1       129   12    0    1
 -2       381        29       382
 -1       130   12    0    1
 -2        28       384       383
 -1       131   12    0    1
 -2       384       386       385
 -1       132   12    0    1
 -2       386        41       387
 -1       133   12    0    1
 -2        29       389       388
 -1       134   12    0    1
 -2       389       391       390
 -1       135   12    0    1
 -2       391       393       392
 -1       136   12    0    1
 -2       393        30       394
 -1       137   12    0    1
 -2        29       396       395
 -1       138   12    0    1
 -2       396       398       397
 -1       139   12    0    1
 -2       398        42       399
 -1       140   12    0    1
 -2        30       401       400
 -1       141   12    0    1
 -2       401       403       402
 -1       142   12    0    1
 -2       403       405       404
 -1       143   12    0    1
 -2       405        31       406
 -1       144   12    0    1
 -2        30       408       407
 -1       145   12    0    1
 -2       408       410       409
 -1       146   12    0    1
 -2       410        43       411
 -1       147   12    0    1
 -2        31       413       412
 -1       148   12    0    1
 -2       413       415       414
 -1       149   12    0    1
 -2       415       417       416
 -1       150   12    0    1
 -2       417        32       418
 -1       151   12    0    1
 -2        31       420       419
 -1       152   12    0    1
 -2       420       422       421
 -1       153   12    0    1
 -2       422        44       423
 -1       154   12    0    1
 -2        32       425       424
 -1       155   12    0    1
 -2       425       427       426
 -1       156   12    0    1
 -2       427       429       428
 -1       157   12    0    1
 -2       429        33       430
 -1       158   12    0    1
 -2        32       432       431
 -1       159   12    0    1
 -2       432       434       433
 -1       160   12    0    1
 -2       434        45       435
 -1       161   12    0    1
 -2        33       437       436
 -1       162   12    0    1
 -2       437       439       438
 -1       163   12    0    1
 -2       439       441       440
 -1       164   12    0    1
 -2       441        34       442
 -1       165   12    0    1
 -2        33       444       443
 -1       166   12    0    1
 -2       444       446       445
 -1       167   12    0    1
 -2       446        46       447
 -1       168   12    0    1
 -2        34       449       448
 -1       169   12    0    1
 -2       449       451       450
 -1       170   12    0    1
 -2       451       453       452
 -1       171   12    0    1
 -2       453        35       454
 -1       172   12    0    1
 -2        34       456       455
 -1       173   12    0    1
 -2       456       458       457
 -1       174   12    0    1
 -2       458        47       459
 -1       175   12    0    1
 -2        35       461       460
 -1       176   12    0    1
 -2       461       463       462
 -1       177   12    0    1
 -2       463       465       464
 -1       178   12    0    1
 -2       465        36       466
 -1       179   12    0    1
 -2        35       468       467
 -1       180   12    0    1
 -2       468       470       469
 -1       181   12    0    1
 -2       470        48       471
 -1       182   12    0    1
 -2        36       473       472
 -1       183   12    0    1
 -2       473       475       474
 -1       184   12    0    1
 -2       475       477       476
 -1       185   12    0    1
 -2       477        37       478
 -1       186   12    0    1
 -2        36       480       479
 -1       187   12    0    1
 -2       480       482       481
 -1       188   12    0    1
 -2       482        49       483
 -1       189   12    0    1
 -2        37       485       484
 -1       190   12    0    1
 -2       485       487       486
 -1       191   12    0    1
 -2       487       489       488
 -1       192   12    0    1
 -2       489        38       490
 -1       193   12    0    1
 -2        37       492       491
 -1       194   12    0    1
 -2       492       494       493
 -1       195   12    0    1
 -2       494        50       495
 -1       196   12    0    1
 -2        38       497       496
 -1       197   12    0    1
 -2       497       499       498
 -1       198   12    0    1
 -2       499       501       500
 -1       199   12    0    1
 -2       501        39       502
 -1       200   12    0    1
 -2        38       504       503
 -1       201   12    0    1
 -2       504       506       505
 -1       202   12    0    1
 -2       506        51       507
 -1       203   12    0    1
 -2        39       509       508
 -1       204   12    0    1
 -2       509       511       510
 -1       205   12    0    1
 -2       511        52       512
 -1       206   12    0    1
 -2        40       514       513
 -1       207   12    0    1
 -2       514       516       515
 -1       208   12    0    1
 -2       516       518       517
 -1       209   12    0    1
 -2       518        41       519
 -1       210   12    0    1
 -2        40       521       520
 -1       211   12    0    1
 -2       521       523       522
 -1       212   12    0    1
 -2       523        53       524
 -1       213   12    0    1
 -2        41       526       525
 -1       214   12    0    1
 -2       526       528       527
 -1       215   12    0    1
 -2       528       530       529
 -1       216   12    0    1
 -2       530        42       531
 -1       217   12    0    1
 -2        41       533       532
 -1       218   12    0    1
 -2       533       535       534
 -1       219   12    0    1
 -2       535        54       536
 -1       220   12    0    1
 -2        42       538       537
 -1       221   12    0    1
 -2       538       540       539
 -1       222   12    0    1
 -2       540       542       541
 -1       223   12    0    1
 -2       542        43       543
 -1       224   12    0    1
 -2        42       545       544
 -1       225   12    0    1
 -2       545       547       546
 -1       226   12    0    1
 -2       547        55       548
 -1       227   12    0    1
 -2        43       550       549
 -1       228   12    0    1
 -2       550       552       551
 -1       229   12    0    1
 -2       552       554       553
 -1       230   12    0    1
 -2       554        44       555
 -1       231   12    0    1
 -2        43       557       556
 -1       232   12    0    1
 -2       557       559       558
 -1       233   12    0    1
 -2       559        56       560
 -1       234   12    0    1
 -2        44       562       561
 -1       235   12    0    1
 -2       562       564       563
 -1       236   12    0    1
 -2       564       566       565
 -1       237   12    0    1
 -2       566        45       567
 -1       238   12    0    1
 -2        44       569       568
 -1       239   12    0    1
 -2       569       571       570
 -1       240   12    0    1
 -2       571        57       572
 -1       241   12    0    1
 -2        45       574       573
 -1       242   12    0    1
 -2       574       576       575
 -1       243   12    0    1
 -2       576       578       577
 -1       244   12    0    1
 -2       578        46       579
 -1       245   12    0    1
 -2        45       581       580
 -1       246   12    0    1
 -2       581       583       582
 -1       247   12    0    1
 -2       583        58       584
 -1       248   12    0    1
 -2        46       586       585
 -1       249   12    0    1
 -2       586       588       587
 -1       250   12    0    1
 -2       588       590       589
 -1       251   12    0    1
 -2       590        47       591
 -1       252   12    0    1
 -2        46       593       592
 -1       253   12    0    1
 -2       593       595       594
 -1       254   12    0    1
 -2       595        59       596
 -1       255   12    0    1
 -2        47       598       597
 -1       256   12    0    1
 -2       598       600       599
 -1       257   12    0    1
 -2       600       602       601
 -1       258   12    0    1
 -2       602        48       603
 -1       259   12    0    1
 -2        47       605       604
 -1       260   12    0    1
 -2       605       607       606
 -1       261   12    0    1
 -2       607        60       608
 -1       262   12    0    1
 -2        48       610       609
 -1       263   12    0    1
 -2       610       612       611
 -1       264   12    0    1
 -2       612       614       613
 -1       265   12    0    1
 -2       614        49       615
 -1       266   12    0    1
 -2        48       617       616
 -1       267   12    0    1
 -2       617       619       618
 -1       268   12    0    1
 -2       619        61       620
 -1       269   12    0    1
 -2        49       622       621
 -1       270   12    0    1
 -2       622       624       623
 -1       271   12    0    1
 -2       624       626       625
 -1       272   12    0    1
 -2       626        50       627
 -1       273   12    0    1
 -2        49       629       628
 -1       274   12    0    1
 -2       629       631       630
 -1       275   12    0    1
 -2       631        62       632
 -1       276   12    0    1
 -2        50       634       633
 -1       277   12    0    1
 -2       634       636       635
 -1       278   12    0    1
 -2       636       638       637
 -1       279   12    0    1
 -2       638        51       639
 -1       280   12    0    1
 -2        50       641       640
 -1       281   12    0    1
 -2       641       643       642
 -1       282   12    0    1
 -2       643        63       644
 -1       283   12    0    1
 -2        51       646       645
 -1       284   12    0    1
 -2       646       648       647
 -1       285   12    0    1
 -2       648       650       649
 -1       286   12    0    1
 -2       650        52       651
 -1       287   12    0    1
 -2        51       653       652
 -1       288   12    0    1
 -2       653       655       654
 -1       289   12    0    1
 -2       655        64       656
 -1       290   12    0    1
 -2        52       658       657
 -1       291   12    0    1
 -2       658       660       659
 -1       292   12    0    1
 -2       660        65       661
 -1       293   12    0    1
 -2        53       663       662
 -1       294   12    0    1
 -2       663       665       664
 -1       295   12    0    1
 -2       665       667       666
 -1       296   12    0    1
 -2       667        54       668
 -1       297   12    0    1
 -2        54       670       669
 -1       298   12    0    1
 -2       670       672       671
 -1       299   12    0    1
 -2       672       674       673
 -1       300   12    0    1
 -2       674        55       675
 -1       301   12    0    1
 -2        55       677       676
 -1       302   12    0    1
 -2       677       679       678
 -1       303   12    0    1
 -2       679       681       680
 -1       304   12    0    1
 -2       681        56       682
 -1       305   12    0    1
 -2        56       684       683
 -1       306   12    0    1
 -2       684       686       685
 -1       307   12    0    1
 -2       686       688       687
 -1       308   12    0    1
 -2       688        57       689
 -1       309   12    0    1
 -2        57       691       690
 -1       310   12    0    1
 -2       691       693       692
 -1       311   12    0    1
 -2       693       695       694
 -1       312   12    0    1
 -2       695        58       696
 -1       313   12    0    1
 -2        58       698       697
 -1       314   12    0    1
 -2       698       700       699
 -1       315   12    0    1
 -2       700       702       701
 -1       316   12    0    1
 -2       702        59       703
 -1       317   12    0    1
 -2        59       705       704
 -1       318   12    0    1
 -2       705       707       706
 -1       319   12    0    1
 -2       707       709       708
 -1       320   12    0    1
 -2       709        60       710
 -1       321   12    0    1
 -2        60       712       711
 -1       322   12    0    1
 -2       712       714       713
 -1       323   12    0    1
 -2       714       716       715
 -1       324   12    0    1
 -2       716        61       717
 -1       325   12    0    1
 -2        61       719       718
 -1       326   12    0    1
 -2       719       721       720
 -1       327   12    0    1
 -2       721       723       722
 -1       328   12    0    1
 -2       723        62       724
 -1       329   12    0    1
 -2        62       726       725
 -1       330   12    0    1
 -2       726       728       727
 -1       331   12    0    1
 -2       728       730       729
 -1       332   12    0    1
 -2       730        63       731
 -1       333   12    0    1
 -2        63       733       732
 -1       334   12    0    1
 -2       733       735       734
 -1       335   12    0    1
 -2       735       737       736
 -1       336   12    0    1
 -2       737        64       738
 -1       337   12    0    1
 -2        64       740       739
 -1       338   12    0    1
 -2       740       742       741
 -1       339   12    0    1
 -2       742       744       743
 -1       340   12    0    1
 -2       744        65       745
 -3
    1PSTEP                         1           1           1          
  100CL  101 1.000000000         641                     0    1           1
 -4  DISP        4    1
 -5  D1          1    2    1    0
 -5  D2          1    2    2    0
 -5  D3          1    2    3    0
 -5  ALL         1    2    0    0    1ALL
 -1         1-6.52397E-05 0.00000E+00 0.00000E+00
 -1         2-5.65127E-05 0.00000E+00 0.00000E+00
 -1         3-4.99748E-05 0.00000E+00 0.00000E+00
 -1         4-4.49839E-05 0.00000E+00 0.00000E+00
 -1         5-4.11546E-05 0.00000E+00 0.00000E+00
 -1         6-3.82626E-05 0.00000E+00 0.00000E+00
 -1         7-3.61844E-05 0.00000E+00 0.00000E+00
 -1         8-3.48661E-05 0.00000E+00 0.00000E+00
 -1         9-3.43329E-05 0.00000E+00 0.00000E+00
 -1        14-4.35990E-05 1.47972E-06 0.00000E+00
 -1        15-4.16242E-05-4.67737E-07 0.00000E+00
 -1        16-3.90861E-05-2.85959E-07 0.00000E+00
 -1        17-3.65189E-05-1.61654E-07 0.00000E+00
 -1        18-3.41483E-05-6.64008E-08 0.00000E+00
 -1        19-3.20700E-05 2.68456E-09 0.00000E+00
 -1        20-3.03202E-05-4.46417E-08 0.00000E+00
 -1        21-2.89332E-05-6.88236E-08 0.00000E+00
 -1        22-2.80087E-05 1.13546E-07 0.00000E+00
 -1        27-2.57235E-05 1.76627E-06 0.00000E+00
 -1        28-2.54971E-05-6.60242E-07 0.00000E+00
 -1        29-2.48509E-05-4.62592E-07 0.00000E+00
 -1        30-2.39259E-05-2.54110E-07 0.00000E+00
 -1        31-2.28140E-05-9.18372E-08 0.00000E+00
 -1        32-2.15659E-05 2.84735E-08 0.00000E+00
 -1        33-2.01558E-05-8.55247E-08 0.00000E+00
 -1        34-1.83864E-05-3.16798E-07 0.00000E+00
 -1        35-1.60157E-05 8.65001E-07 0.00000E+00
 -1        36-1.29548E-05 1.20525E-05 0.00000E+00
 -1        37-1.11847E-05 2.47066E-05 0.00000E+00
 -1        38-1.03639E-05 3.48591E-05 0.00000E+00
 -1        39-1.01223E-05 4.15843E-05 0.00000E+00
 -1        40-1.23262E-05 1.22784E-06 0.00000E+00
 -1        41-1.25666E-05-8.32876E-07 0.00000E+00
 -1        42-1.26944E-05-5.65853E-07 0.00000E+00
 -1        43-1.25554E-05-2.94674E-07 0.00000E+00
 -1        44-1.21496E-05-7.63103E-08 0.00000E+00
 -1        45-1.15813E-05 1.02596E-07 0.00000E+00
 -1        46-1.10947E-05-8.50286E-08 0.00000E+00
 -1        47-1.11078E-05-5.41034E-07 0.00000E+00
 -1        48-1.12732E-05 1.41403E-06 0.00000E+00
 -1        49-1.15910E-05 1.19633E-05 0.00000E+00
 -1        50-1.17106E-05 2.43974E-05 0.00000E+00
 -1        51-1.17709E-05 3.45592E-05 0.00000E+00
 -1        52-1.17961E-05 4.12742E-05 0.00000E+00
 -1        53 0.00000E+00 0.00000E+00 0.00000E+00
 -1        54-2.51982E-06-9.75839E-07 0.00000E+00
 -1        55-3.92740E-06-6.15163E-07 0.00000E+00
 -1        56-4.35492E-06-3.07545E-07 0.00000E+00
 -1        57-3.87180E-06-5.23661E-08 0.00000E+00
 -1        58-2.45265E-06 1.75331E-07 0.00000E+00
 -1        59 0.00000E+00 0.00000E+00 0.00000E+00
 -1        60-4.45581E-06-6.83118E-07 0.00000E+00
 -1        61-8.12671E-06 1.61137E-06 0.00000E+00
 -1        62-1.08975E-05 1.19031E-05 0.00000E+00
 -1        63-1.25811E-05 2.42647E-05 0.00000E+00
 -1        64-1.33672E-05 3.44319E-05 0.00000E+00
 -1        65-1.36003E-05 4.11599E-05 0.00000E+00
 -1        66-6.41638E-05-1.58819E-21 0.00000E+00
 -1        67-6.30694E-05-7.45124E-21-1.32349E-23
 -1        68-6.19723E-05-9.56883E-21-2.64698E-23
 -1        69-6.08737E-05-8.77473E-21 0.00000E+00
 -1        70-5.97751E-05-6.08805E-21-2.64698E-23
 -1        71-5.86785E-05-5.29396E-23 1.32349E-23
 -1        72-5.75849E-05 1.89259E-21 0.00000E+00
 -1        73-6.35529E-05 2.69357E-07 8.27181E-24
 -1        74-6.04825E-05 5.18411E-07 1.65436E-24
 -1        75-5.64862E-05 7.62553E-07 3.30872E-24
 -1        76-5.20301E-05 1.00299E-06-3.30872E-24
 -1        77-4.75804E-05 1.24232E-06 0.00000E+00
 -1        78-5.57016E-05 3.09035E-21-2.64698E-23
 -1        79-5.48814E-05 8.35122E-21 0.00000E+00
 -1        80-5.40599E-05 6.73656E-21 0.00000E+00
 -1        81-5.32377E-05 4.65868E-21 0.00000E+00
 -1        82-5.24158E-05 5.37337E-21-2.64698E-23
 -1        83-5.15954E-05 4.41384E-21 0.00000E+00
 -1        84-5.07773E-05 3.11682E-21 0.00000E+00
 -1        85-5.52435E-05-4.85905E-08-4.96308E-24
 -1        86-5.30030E-05-1.28509E-07 0.00000E+00
 -1        87-5.01530E-05-2.13634E-07 0.00000E+00
 -1        88-4.70617E-05-3.01628E-07 0.00000E+00
 -1        89-4.40973E-05-3.89196E-07 0.00000E+00
 -1        90-4.93558E-05 1.59480E-21 0.00000E+00
 -1        91-4.87297E-05 2.67345E-21 6.61744E-24
 -1        92-4.81026E-05-6.74979E-22 0.00000E+00
 -1        93-4.74750E-05 3.57342E-22 0.00000E+00
 -1        94-4.68475E-05 9.79382E-22 0.00000E+00
 -1        95-4.62212E-05 8.13946E-22 6.61744E-24
 -1        96-4.55967E-05 3.17637E-22 0.00000E+00
 -1        97-4.90720E-05-2.66365E-08-3.30872E-24
 -1        98-4.74632E-05-7.64275E-08 0.00000E+00
 -1        99-4.54021E-05-1.29845E-07 0.00000E+00
 -1       100-4.31471E-05-1.85104E-07 4.13590E-25
 -1       101-4.09565E-05-2.39824E-07 0.00000E+00
 -1       102-4.45088E-05 3.58004E-21 0.00000E+00
 -1       103-4.40284E-05 5.77703E-21 6.61744E-24
 -1       104-4.35473E-05 6.00202E-21 0.00000E+00
 -1       105-4.30658E-05 4.19546E-21 6.61744E-24
 -1       106-4.25845E-05 3.78518E-21 1.32349E-23
 -1       107-4.21040E-05 1.79333E-21 0.00000E+00
 -1       108-4.16248E-05 2.18376E-21 1.32349E-23
 -1       109-4.42982E-05-1.15944E-08-5.79026E-24
 -1       110-4.30665E-05-4.05522E-08 0.00000E+00
 -1       111-4.14790E-05-7.21262E-08 0.00000E+00
 -1       112-3.97296E-05-1.04917E-07-4.13590E-25
 -1       113-3.80122E-05-1.37137E-07-3.30872E-24
 -1       114-4.07955E-05 1.17791E-21-1.32349E-23
 -1       115-4.04327E-05-2.71315E-22 6.61744E-24
 -1       116-4.00694E-05 9.19825E-22 1.32349E-23
 -1       117-3.97058E-05 2.47162E-21 0.00000E+00
 -1       118-3.93423E-05 1.17460E-21 0.00000E+00
 -1       119-3.89794E-05 1.48893E-21 6.61744E-24
 -1       120-3.86176E-05 9.09899E-22 0.00000E+00
 -1       121-4.05967E-05 1.02706E-10 2.48154E-24
 -1       122-3.95884E-05-1.27204E-08 0.00000E+00
 -1       123-3.82832E-05-2.74481E-08 0.00000E+00
 -1       124-3.68375E-05-4.29865E-08 0.00000E+00
 -1       125-3.54075E-05-5.79822E-08 0.00000E+00
 -1       126-3.80041E-05 6.71671E-22 0.00000E+00
 -1       127-3.77432E-05-2.21684E-22 0.00000E+00
 -1       128-3.74820E-05-2.83558E-21 6.61744E-24
 -1       129-3.72207E-05-3.64952E-21-3.30872E-24
 -1       130-3.69595E-05-1.43599E-21 0.00000E+00
 -1       131-3.66988E-05-2.00509E-21 3.30872E-24
 -1       132-3.64390E-05 4.89691E-22 0.00000E+00
 -1       133-3.77755E-05 8.29979E-09-3.30872E-24
 -1       134-3.68914E-05 7.29819E-09 0.00000E+00
 -1       135-3.57433E-05 4.93721E-09 0.00000E+00
 -1       136-3.44669E-05 2.05475E-09 0.00000E+00
 -1       137-3.31976E-05-3.39149E-10 0.00000E+00
 -1       138-3.60199E-05 7.56043E-22 3.30872E-24
 -1       139-3.58542E-05 9.92617E-22 0.00000E+00
 -1       140-3.56884E-05 2.33265E-22 0.00000E+00
 -1       141-3.55226E-05-1.71723E-21 0.00000E+00
 -1       142-3.53569E-05-5.82335E-22 0.00000E+00
 -1       143-3.51915E-05 1.60473E-22 0.00000E+00
 -1       144-3.50268E-05-2.97785E-23 0.00000E+00
 -1       145-3.57276E-05-2.05936E-09 1.65436E-24
 -1       146-3.48956E-05-1.07195E-08 0.00000E+00
 -1       147-3.38124E-05-2.03462E-08 0.00000E+00
 -1       148-3.26047E-05-3.02839E-08-4.13590E-25
 -1       149-3.13988E-05-3.97649E-08 0.00000E+00
 -1       150-3.47989E-05-3.82157E-22 0.00000E+00
 -1       151-3.47320E-05 4.06146E-21-8.27181E-25
 -1       152-3.46651E-05 7.87807E-21 1.65436E-24
 -1       153-3.45983E-05 9.35376E-21 8.27181E-25
 -1       154-3.45315E-05 6.65798E-21-1.65436E-24
 -1       155-3.44649E-05 4.14417E-21 0.00000E+00
 -1       156-3.43984E-05 3.92084E-22 0.00000E+00
 -1       157-3.43963E-05-8.43248E-09 0.00000E+00
 -1       158-3.35455E-05-2.07202E-08 0.00000E+00
 -1       159-3.24426E-05-3.36101E-08 0.00000E+00
 -1       160-3.12190E-05-4.66616E-08 0.00000E+00
 -1       161-3.00058E-05-5.93617E-08 0.00000E+00
 -1       169-3.39524E-05 1.94276E-08 0.00000E+00
 -1       170-3.31862E-05 3.77089E-08 0.00000E+00
 -1       171-3.21204E-05 5.57497E-08 0.00000E+00
 -1       172-3.08434E-05 7.38152E-08-4.13590E-25
 -1       173-2.94434E-05 9.21763E-08-1.65436E-24
 -1       215-4.33559E-05-2.45898E-07 0.00000E+00
 -1       216-4.31083E-05-1.03056E-06 0.00000E+00
 -1       217-4.28595E-05-1.12976E-06-1.32349E-23
 -1       218-4.26104E-05-8.04336E-07 0.00000E+00
 -1       219-4.23613E-05-3.15031E-07-6.61744E-24
 -1       220-4.21127E-05 7.73936E-08 1.65436E-24
 -1       221-4.18653E-05 1.12108E-07 4.13590E-24
 -1       222-4.04897E-05 1.53392E-06 0.00000E+00
 -1       223-3.72504E-05 1.58175E-06 0.00000E+00
 -1       224-3.40172E-05 1.62862E-06 0.00000E+00
 -1       225-3.09272E-05 1.67496E-06 0.00000E+00
 -1       226-2.81178E-05 1.72141E-06 0.00000E+00
 -1       227-4.13153E-05-1.21831E-06 0.00000E+00
 -1       228-4.09969E-05-1.37817E-06 0.00000E+00
 -1       229-4.06771E-05-1.13013E-06 0.00000E+00
 -1       230-4.03564E-05-6.60450E-07-6.61744E-24
 -1       231-4.00357E-05-1.55306E-07-6.61744E-24
 -1       232-3.97156E-05 1.99126E-07 0.00000E+00
 -1       233-3.93968E-05 2.16611E-07 4.96308E-24
 -1       234-3.93394E-05-4.93157E-07 0.00000E+00
 -1       235-3.65325E-05-5.25966E-07 0.00000E+00
 -1       236-3.34726E-05-5.60213E-07-5.16988E-26
 -1       237-3.04322E-05-5.94913E-07 0.00000E+00
 -1       238-2.76840E-05-6.28963E-07 0.00000E+00
 -1       239-3.87723E-05-8.83603E-07 0.00000E+00
 -1       240-3.84502E-05-1.00460E-06 0.00000E+00
 -1       241-3.81268E-05-7.98002E-07-1.32349E-23
 -1       242-3.78027E-05-4.15651E-07-6.61744E-24
 -1       243-3.74787E-05-9.30430E-09 0.00000E+00
 -1       244-3.71553E-05 2.69264E-07-3.30872E-24
 -1       245-3.68330E-05 2.68230E-07 0.00000E+00
 -1       246-3.71337E-05-3.08069E-07 0.00000E+00
 -1       247-3.46772E-05-3.38453E-07 0.00000E+00
 -1       248-3.19671E-05-3.70327E-07 5.16988E-26
 -1       249-2.92573E-05-4.02701E-07 0.00000E+00
 -1       250-2.68018E-05-4.34447E-07 0.00000E+00
 -1       251-3.62284E-05-6.54829E-07 0.00000E+00
 -1       252-3.59310E-05-7.47794E-07 0.00000E+00
 -1       253-3.56324E-05-5.67085E-07-1.32349E-23
 -1       254-3.53333E-05-2.41590E-07-3.30872E-24
 -1       255-3.50342E-05 9.98555E-08-6.61744E-24
 -1       256-3.47357E-05 3.28422E-07 3.30872E-24
 -1       257-3.44383E-05 3.15223E-07 0.00000E+00
 -1       258-3.48343E-05-1.70401E-07 0.00000E+00
 -1       259-3.26836E-05-1.86793E-07 0.00000E+00
 -1       260-3.02906E-05-2.04516E-07-4.13590E-25
 -1       261-2.78825E-05-2.22682E-07 0.00000E+00
 -1       262-2.56862E-05-2.40273E-07 0.00000E+00
 -1       263-3.38932E-05-4.88275E-07 0.00000E+00
 -1       264-3.36324E-05-5.60106E-07 0.00000E+00
 -1       265-3.33707E-05-3.94162E-07 0.00000E+00
 -1       266-3.31086E-05-1.04789E-07 0.00000E+00
 -1       267-3.28465E-05 1.93705E-07-6.61744E-24
 -1       268-3.25849E-05 3.87011E-07 1.65436E-24
 -1       269-3.23243E-05 3.60787E-07 0.00000E+00
 -1       270-3.26551E-05-6.50006E-08 1.65436E-24
 -1       271-3.07317E-05-7.02549E-08 0.00000E+00
 -1       272-2.85807E-05-7.66409E-08 8.27181E-25
 -1       273-2.64076E-05-8.33608E-08 0.00000E+00
 -1       274-2.44178E-05-8.95204E-08 0.00000E+00
 -1       275-3.18548E-05-3.81221E-07-6.61744E-24
 -1       276-3.16351E-05-4.47451E-07-3.30872E-24
 -1       277-3.14148E-05-2.99687E-07 0.00000E+00
 -1       278-3.11940E-05-4.35357E-08-3.30872E-24
 -1       279-3.09734E-05 2.15440E-07 0.00000E+00
 -1       280-3.07532E-05 3.71667E-07 0.00000E+00
 -1       281-3.05339E-05 3.19544E-07-4.96308E-24
 -1       282-3.06953E-05 1.14644E-08 0.00000E+00
 -1       283-2.89181E-05 1.46833E-08 0.00000E+00
 -1       284-2.69263E-05 1.69750E-08 4.13590E-25
 -1       285-2.49104E-05 1.90694E-08-1.65436E-24
 -1       286-2.30609E-05 2.17564E-08 0.00000E+00
 -1       287-3.01496E-05-4.16119E-07 0.00000E+00
 -1       288-2.99753E-05-4.78158E-07-3.30872E-24
 -1       289-2.98004E-05-3.31706E-07 0.00000E+00
 -1       290-2.96253E-05-7.95935E-08 3.30872E-24
 -1       291-2.94502E-05 1.75377E-07 3.30872E-24
 -1       292-2.92756E-05 3.30407E-07-8.27181E-25
 -1       293-2.91018E-05 2.82664E-07 2.89513E-24
 -1       294-2.89821E-05-4.79840E-08 0.00000E+00
 -1       295-2.72543E-05-5.61687E-08 0.00000E+00
 -1       296-2.53211E-05-6.51225E-08-2.06795E-25
 -1       297-2.33694E-05-7.40866E-08 0.00000E+00
 -1       298-2.15861E-05-8.22946E-08 0.00000E+00
 -1       299-2.88201E-05-3.07416E-07-6.61744E-24
 -1       300-2.87044E-05-1.87284E-07 6.61744E-24
 -1       301-2.85882E-05 1.50935E-07 3.30872E-24
 -1       302-2.84718E-05 5.64294E-07 0.00000E+00
 -1       303-2.83554E-05 9.09856E-07-2.89513E-24
 -1       304-2.82391E-05 1.04472E-06 0.00000E+00
 -1       305-2.81231E-05 8.25951E-07 1.65436E-24
 -1       306-2.75515E-05-1.07336E-07 0.00000E+00
 -1       307-2.57423E-05-1.50657E-07 0.00000E+00
 -1       308-2.37122E-05-1.94690E-07-4.13590E-25
 -1       309-2.16704E-05-2.38496E-07 0.00000E+00
 -1       310-1.98263E-05-2.81191E-07 0.00000E+00
 -1       318-2.60585E-05 2.35827E-07 3.30872E-24
 -1       319-2.37678E-05 3.59433E-07 0.00000E+00
 -1       320-2.13763E-05 4.83303E-07 0.00000E+00
 -1       321-1.91264E-05 6.08069E-07 0.00000E+00
 -1       322-1.72601E-05 7.34065E-07 0.00000E+00
 -1       364-2.56975E-05 5.72475E-07 0.00000E+00
 -1       365-2.56693E-05-1.89649E-09 0.00000E+00
 -1       366-2.56405E-05-1.37048E-07 0.00000E+00
 -1       367-2.56115E-05-1.69467E-08 0.00000E+00
 -1       368-2.55824E-05 1.74466E-07 0.00000E+00
 -1       369-2.55534E-05 2.53208E-07 0.00000E+00
 -1       370-2.55247E-05 3.52681E-08 0.00000E+00
 -1       371-2.35420E-05 1.68073E-06 0.00000E+00
 -1       372-2.12087E-05 1.59106E-06-1.65436E-24
 -1       373-1.88215E-05 1.50068E-06-3.30872E-24
 -1       374-1.64796E-05 1.40989E-06 0.00000E+00
 -1       375-1.42820E-05 1.31910E-06 8.27181E-25
 -1       376-2.54195E-05-1.33055E-06 6.61744E-24
 -1       377-2.53385E-05-1.44842E-06 3.30872E-24
 -1       378-2.52570E-05-1.18872E-06 0.00000E+00
 -1       379-2.51751E-05-7.29739E-07 0.00000E+00
 -1       380-2.50932E-05-2.49695E-07-1.24077E-24
 -1       381-2.50115E-05 7.31596E-08 8.27181E-25
 -1       382-2.49301E-05 6.05524E-08 0.00000E+00
 -1       383-2.35619E-05-6.86882E-07 0.00000E+00
 -1       384-2.12707E-05-7.15878E-07 0.00000E+00
 -1       385-1.88233E-05-7.45414E-07-2.58494E-26
 -1       386-1.64224E-05-7.75048E-07 0.00000E+00
 -1       387-1.42703E-05-8.04319E-07 0.00000E+00
 -1       388-2.47387E-05-1.03645E-06 0.00000E+00
 -1       389-2.46228E-05-1.12198E-06 0.00000E+00
 -1       390-2.45062E-05-8.75835E-07 0.00000E+00
 -1       391-2.43893E-05-4.57661E-07 0.00000E+00
 -1       392-2.42724E-05-2.70598E-08 3.30872E-24
 -1       393-2.41557E-05 2.56351E-07 1.24077E-24
 -1       394-2.40394E-05 2.32923E-07 0.00000E+00
 -1       395-2.30656E-05-4.77153E-07 0.00000E+00
 -1       396-2.09093E-05-4.94651E-07 0.00000E+00
 -1       397-1.85869E-05-5.12764E-07 0.00000E+00
 -1       398-1.63058E-05-5.31022E-07 0.00000E+00
 -1       399-1.42735E-05-5.48924E-07 0.00000E+00
 -1       400-2.37904E-05-7.79647E-07 0.00000E+00
 -1       401-2.36510E-05-8.59749E-07 3.30872E-24
 -1       402-2.35110E-05-6.37518E-07-6.61744E-24
 -1       403-2.33707E-05-2.58773E-07-1.65436E-24
 -1       404-2.32303E-05 1.30701E-07 0.00000E+00
 -1       405-2.30902E-05 3.85127E-07 4.13590E-25
 -1       406-2.29505E-05 3.58677E-07 1.65436E-24
 -1       407-2.22718E-05-2.57937E-07 0.00000E+00
 -1       408-2.02618E-05-2.65093E-07 0.00000E+00
 -1       409-1.80894E-05-2.72892E-07 0.00000E+00
 -1       410-1.59507E-05-2.80850E-07 0.00000E+00
 -1       411-1.40416E-05-2.88448E-07 0.00000E+00
 -1       412-2.26615E-05-5.73276E-07 0.00000E+00
 -1       413-2.25050E-05-6.45350E-07 0.00000E+00
 -1       414-2.23479E-05-4.40313E-07 0.00000E+00
 -1       415-2.21905E-05-9.29079E-08-1.65436E-24
 -1       416-2.20331E-05 2.62156E-07-3.30872E-24
 -1       417-2.18760E-05 4.90165E-07-4.13590E-25
 -1       418-2.17193E-05 4.56379E-07 2.06795E-24
 -1       419-2.12815E-05-8.61841E-08 0.00000E+00
 -1       420-1.94089E-05-8.40676E-08 0.00000E+00
 -1       421-1.73768E-05-8.26006E-08 0.00000E+00
 -1       422-1.53681E-05-8.13000E-08-1.65436E-24
 -1       423-1.35656E-05-7.96429E-08 0.00000E+00
 -1       424-2.13932E-05-4.36910E-07 0.00000E+00
 -1       425-2.12165E-05-5.30459E-07 0.00000E+00
 -1       426-2.10390E-05-3.72278E-07 0.00000E+00
 -1       427-2.08613E-05-8.47376E-08-3.30872E-24
 -1       428-2.06835E-05 2.09837E-07 3.30872E-24
 -1       429-2.05060E-05 3.89109E-07 1.65436E-24
 -1       430-2.03291E-05 3.30712E-07 8.27181E-25
 -1       431-2.01481E-05 4.40930E-08 0.00000E+00
 -1       432-1.84154E-05 5.60410E-08 4.13590E-25
 -1       433-1.65291E-05 6.73289E-08 8.27181E-25
 -1       434-1.46526E-05 7.83977E-08 0.00000E+00
 -1       435-1.29496E-05 8.97458E-08 0.00000E+00
 -1       436-1.99395E-05-5.32283E-07-6.61744E-24
 -1       437-1.97176E-05-6.37575E-07-3.30872E-24
 -1       438-1.94949E-05-5.11210E-07 0.00000E+00
 -1       439-1.92716E-05-2.65038E-07 0.00000E+00
 -1       440-1.90483E-05-1.08800E-08-6.61744E-24
 -1       441-1.88255E-05 1.39452E-07 1.65436E-24
 -1       442-1.86034E-05 7.41021E-08 4.96308E-24
 -1       443-1.88967E-05-8.10559E-08 1.65436E-24
 -1       444-1.73698E-05-8.12106E-08 0.00000E+00
 -1       445-1.56998E-05-8.21648E-08 0.00000E+00
 -1       446-1.40132E-05-8.35245E-08 0.00000E+00
 -1       447-1.24365E-05-8.47847E-08-3.30872E-24
 -1       448-1.80985E-05-7.02058E-07 0.00000E+00
 -1       449-1.78021E-05-7.25023E-07 0.00000E+00
 -1       450-1.75044E-05-4.89455E-07 0.00000E+00
 -1       451-1.72059E-05-1.01178E-07 0.00000E+00
 -1       452-1.69072E-05 3.34031E-07 0.00000E+00
 -1       453-1.66087E-05 7.10387E-07 0.00000E+00
 -1       454-1.63106E-05 9.22087E-07 0.00000E+00
 -1       455-1.72695E-05-3.47701E-07 0.00000E+00
 -1       456-1.59691E-05-3.85341E-07 0.00000E+00
 -1       457-1.45934E-05-4.24024E-07 3.10193E-25
 -1       458-1.32519E-05-4.63306E-07-4.13590E-25
 -1       459-1.20541E-05-5.02585E-07 0.00000E+00
 -1       460-1.56382E-05 1.09018E-06-1.32349E-23
 -1       461-1.52537E-05 1.95156E-06 6.61744E-24
 -1       462-1.48685E-05 3.30069E-06 0.00000E+00
 -1       463-1.44830E-05 4.98570E-06 0.00000E+00
 -1       464-1.40979E-05 6.85492E-06-1.32349E-23
 -1       465-1.37135E-05 8.75663E-06 3.30872E-24
 -1       466-1.33302E-05 1.05391E-05-6.61744E-24
 -1       467-1.52436E-05 9.63539E-07 0.00000E+00
 -1       468-1.42975E-05 1.05598E-06-1.65436E-24
 -1       469-1.33019E-05 1.14738E-06 3.30872E-24
 -1       470-1.23825E-05 1.23781E-06 0.00000E+00
 -1       471-1.16650E-05 1.32760E-06 0.00000E+00
 -1       472-1.27331E-05 1.33902E-05 6.61744E-24
 -1       473-1.25105E-05 1.49552E-05 0.00000E+00
 -1       474-1.22879E-05 1.66695E-05-6.61744E-24
 -1       475-1.20655E-05 1.84539E-05 3.30872E-24
 -1       476-1.18432E-05 2.02289E-05 0.00000E+00
 -1       477-1.16214E-05 2.19154E-05-3.30872E-24
 -1       478-1.14003E-05 2.34339E-05-3.30872E-24
 -1       479-1.32931E-05 1.20469E-05-3.30872E-24
 -1       480-1.31192E-05 1.20321E-05 0.00000E+00
 -1       481-1.26460E-05 1.20160E-05 0.00000E+00
 -1       482-1.20899E-05 1.19988E-05 0.00000E+00
 -1       483-1.16669E-05 1.19813E-05 0.00000E+00
 -1       484-1.10817E-05 2.58728E-05 3.30872E-24
 -1       485-1.09784E-05 2.71770E-05 0.00000E+00
 -1       486-1.08751E-05 2.85655E-05 0.00000E+00
 -1       487-1.07719E-05 2.99836E-05-1.65436E-24
 -1       488-1.06687E-05 3.13766E-05-1.65436E-24
 -1       489-1.05658E-05 3.26898E-05-8.27181E-25
 -1       490-1.04632E-05 3.38685E-05 6.20385E-25
 -1       491-1.16478E-05 2.46609E-05 0.00000E+00
 -1       492-1.17510E-05 2.46090E-05 0.00000E+00
 -1       493-1.16505E-05 2.45563E-05 0.00000E+00
 -1       494-1.15049E-05 2.45030E-05 4.13590E-25
 -1       495-1.14727E-05 2.44497E-05 0.00000E+00
 -1       496-1.03334E-05 3.57197E-05 0.00000E+00
 -1       497-1.03028E-05 3.66276E-05 0.00000E+00
 -1       498-1.02722E-05 3.75566E-05 0.00000E+00
 -1       499-1.02417E-05 3.84799E-05 2.06795E-25
 -1       500-1.02112E-05 3.93709E-05-5.68687E-25
 -1       501-1.01808E-05 4.02029E-05 2.06795E-25
 -1       502-1.01507E-05 4.09494E-05 0.00000E+00
 -1       503-1.08276E-05 3.48121E-05 0.00000E+00
 -1       504-1.10714E-05 3.47617E-05 1.65436E-24
 -1       505-1.11908E-05 3.47109E-05 0.00000E+00
 -1       506-1.12828E-05 3.46599E-05 2.06795E-25
 -1       507-1.14442E-05 3.46089E-05-8.27181E-25
 -1       508-1.05089E-05 4.15340E-05 0.00000E+00
 -1       509-1.07983E-05 4.14820E-05 0.00000E+00
 -1       510-1.10307E-05 4.14297E-05-1.65436E-24
 -1       511-1.12473E-05 4.13774E-05-4.13590E-25
 -1       512-1.14889E-05 4.13252E-05 4.13590E-25
 -1       513-1.23607E-05 1.88601E-07 0.00000E+00
 -1       514-1.23913E-05-3.26060E-07 0.00000E+00
 -1       515-1.24210E-05-4.64810E-07 0.00000E+00
 -1       516-1.24503E-05-3.79509E-07 2.84343E-25
 -1       517-1.24794E-05-2.22010E-07 0.00000E+00
 -1       518-1.25085E-05-1.44215E-07 0.00000E+00
 -1       519-1.25375E-05-2.98044E-07 0.00000E+00
 -1       520-1.03101E-05 1.02835E-06 6.61744E-24
 -1       521-8.09609E-06 8.24205E-07-3.30872E-24
 -1       522-5.82056E-06 6.19212E-07-6.61744E-24
 -1       523-3.62124E-06 4.13621E-07 3.30872E-24
 -1       524-1.63590E-06 2.07848E-07-6.61744E-24
 -1       525-1.25833E-05-1.35699E-06 0.00000E+00
 -1       526-1.25995E-05-1.43877E-06 0.00000E+00
 -1       527-1.26154E-05-1.21806E-06 0.00000E+00
 -1       528-1.26313E-05-8.37473E-07 1.03398E-25
 -1       529-1.26472E-05-4.39603E-07 0.00000E+00
 -1       530-1.26630E-05-1.67064E-07 0.00000E+00
 -1       531-1.26789E-05-1.62475E-07 0.00000E+00
 -1       532-1.09830E-05-8.54590E-07 0.00000E+00
 -1       533-9.11786E-06-8.76667E-07 0.00000E+00
 -1       534-7.15418E-06-8.99110E-07-4.13590E-25
 -1       535-5.27704E-06-9.22145E-07 0.00000E+00
 -1       536-3.67153E-06-9.45864E-07-1.65436E-24
 -1       537-1.26783E-05-1.00573E-06 0.00000E+00
 -1       538-1.26610E-05-1.05373E-06 0.00000E+00
 -1       539-1.26434E-05-8.36606E-07 0.00000E+00
 -1       540-1.26258E-05-4.83605E-07 0.00000E+00
 -1       541-1.26081E-05-1.23926E-07 0.00000E+00
 -1       542-1.25904E-05 1.13211E-07 0.00000E+00
 -1       543-1.25728E-05 9.85739E-08 0.00000E+00
 -1       544-1.13126E-05-5.72895E-07 0.00000E+00
 -1       545-9.68317E-06-5.80326E-07 0.00000E+00
 -1       546-7.96720E-06-5.87989E-07 0.00000E+00
 -1       547-6.32769E-06-5.95916E-07 0.00000E+00
 -1       548-4.92762E-06-6.04086E-07 0.00000E+00
 -1       549-1.25063E-05-7.06154E-07 0.00000E+00
 -1       550-1.24556E-05-7.48402E-07-1.65436E-24
 -1       551-1.24045E-05-5.41957E-07 0.00000E+00
 -1       552-1.23532E-05-2.09665E-07-8.27181E-25
 -1       553-1.23019E-05 1.25648E-07 2.06795E-25
 -1       554-1.22507E-05 3.41164E-07 0.00000E+00
 -1       555-1.21997E-05 3.14032E-07 0.00000E+00
 -1       556-1.12604E-05-2.96012E-07 0.00000E+00
 -1       557-9.73600E-06-2.98331E-07 0.00000E+00
 -1       558-8.13200E-06-3.00847E-07 0.00000E+00
 -1       559-6.59988E-06-3.03349E-07 0.00000E+00
 -1       560-5.29116E-06-3.05643E-07 0.00000E+00
 -1       561-1.20802E-05-4.70066E-07 0.00000E+00
 -1       562-1.20090E-05-5.03091E-07 0.00000E+00
 -1       563-1.19374E-05-2.94949E-07 0.00000E+00
 -1       564-1.18657E-05 3.25531E-08-8.27181E-25
 -1       565-1.17940E-05 3.57627E-07 0.00000E+00
 -1       566-1.17224E-05 5.58485E-07 8.27181E-25
 -1       567-1.16511E-05 5.13321E-07 1.65436E-24
 -1       568-1.08627E-05-7.19865E-08 0.00000E+00
 -1       569-9.33230E-06-6.91176E-08-2.06795E-25
 -1       570-7.71251E-06-6.64136E-08 0.00000E+00
 -1       571-6.15907E-06-6.34021E-08 0.00000E+00
 -1       572-4.82772E-06-5.97090E-08 0.00000E+00
 -1       573-1.15212E-05-3.08040E-07 0.00000E+00
 -1       574-1.14600E-05-3.61981E-07 0.00000E+00
 -1       575-1.13986E-05-1.80903E-07 0.00000E+00
 -1       576-1.13371E-05 1.11260E-07 0.00000E+00
 -1       577-1.12756E-05 3.90605E-07 2.06795E-25
 -1       578-1.12144E-05 5.33227E-07 8.27181E-25
 -1       579-1.11535E-05 4.15203E-07 0.00000E+00
 -1       580-1.02049E-05 1.14002E-07 0.00000E+00
 -1       581-8.53587E-06 1.23984E-07 2.06795E-25
 -1       582-6.74930E-06 1.33894E-07 0.00000E+00
 -1       583-5.02228E-06 1.44490E-07 0.00000E+00
 -1       584-3.53192E-06 1.56329E-07 0.00000E+00
 -1       585-1.10954E-05-6.53485E-07 0.00000E+00
 -1       586-1.10968E-05-8.76375E-07 0.00000E+00
 -1       587-1.10982E-05-8.52127E-07 0.00000E+00
 -1       588-1.10998E-05-6.81276E-07 0.00000E+00
 -1       589-1.11014E-05-4.64351E-07 0.00000E+00
 -1       590-1.11031E-05-3.01902E-07 0.00000E+00
 -1       591-1.11050E-05-2.94500E-07 0.00000E+00
 -1       592-9.50184E-06-6.91112E-08 0.00000E+00
 -1       593-7.52839E-06-5.38390E-08 0.00000E+00
 -1       594-5.38172E-06-3.89853E-08 0.00000E+00
 -1       595-3.27189E-06-2.45447E-08 0.00000E+00
 -1       596-1.40896E-06-1.04117E-08 0.00000E+00
 -1       597-1.11290E-05-8.25495E-07 0.00000E+00
 -1       598-1.11500E-05-8.14167E-07 0.00000E+00
 -1       599-1.11710E-05-5.78311E-07 0.00000E+00
 -1       600-1.11920E-05-1.90938E-07 2.06795E-25
 -1       601-1.12130E-05 2.74946E-07 0.00000E+00
 -1       602-1.12338E-05 7.46275E-07 4.13590E-25
 -1       603-1.12543E-05 1.14999E-06 0.00000E+00
 -1       604-1.01190E-05-5.60105E-07 3.30872E-24
 -1       605-8.90325E-06-5.79604E-07 0.00000E+00
 -1       606-7.59410E-06-5.99723E-07 0.00000E+00
 -1       607-6.32671E-06-6.21381E-07 4.13590E-25
 -1       608-5.23622E-06-6.45094E-07 0.00000E+00
 -1       609-1.13100E-05 2.00436E-06 0.00000E+00
 -1       610-1.13495E-05 3.08769E-06 0.00000E+00
 -1       611-1.13896E-05 4.52342E-06 0.00000E+00
 -1       612-1.14302E-05 6.16792E-06-1.55096E-25
 -1       613-1.14710E-05 7.87759E-06-1.65436E-24
 -1       614-1.15116E-05 9.50876E-06 0.00000E+00
 -1       615-1.15519E-05 1.09177E-05 0.00000E+00
 -1       616-1.08676E-05 1.45015E-06 0.00000E+00
 -1       617-1.02152E-05 1.48684E-06 0.00000E+00
 -1       618-9.46463E-06 1.52315E-06 0.00000E+00
 -1       619-8.76640E-06 1.55815E-06 0.00000E+00
 -1       620-8.27100E-06 1.59125E-06 2.27475E-24
 -1       621-1.16056E-05 1.29994E-05 0.00000E+00
 -1       622-1.16203E-05 1.44406E-05 0.00000E+00
 -1       623-1.16353E-05 1.61599E-05 0.00000E+00
 -1       624-1.16505E-05 1.80277E-05 0.00000E+00
 -1       625-1.16657E-05 1.99147E-05 1.65436E-24
 -1       626-1.16808E-05 2.16912E-05 0.00000E+00
 -1       627-1.16957E-05 2.32278E-05 0.00000E+00
 -1       628-1.16139E-05 1.19553E-05 0.00000E+00
 -1       629-1.13406E-05 1.19476E-05 0.00000E+00
 -1       630-1.09508E-05 1.19398E-05 1.55096E-25
 -1       631-1.06263E-05 1.19312E-05 0.00000E+00
 -1       632-1.05488E-05 1.19213E-05 1.65436E-24
 -1       633-1.17186E-05 2.54112E-05 0.00000E+00
 -1       634-1.17260E-05 2.66680E-05 0.00000E+00
 -1       635-1.17335E-05 2.80838E-05 0.00000E+00
 -1       636-1.17410E-05 2.95732E-05 0.00000E+00
 -1       637-1.17485E-05 3.10507E-05 0.00000E+00
 -1       638-1.17559E-05 3.24309E-05-1.65436E-24
 -1       639-1.17632E-05 3.36283E-05 0.00000E+00
 -1       640-1.19801E-05 2.43763E-05-3.30872E-24
 -1       641-1.20024E-05 2.43555E-05 8.27181E-25
 -1       642-1.19248E-05 2.43345E-05 4.13590E-25
 -1       643-1.18965E-05 2.43130E-05-8.27181E-25
 -1       644-1.20663E-05 2.42909E-05-1.65436E-24
 -1       645-1.17746E-05 3.53252E-05 0.00000E+00
 -1       646-1.17776E-05 3.62011E-05 0.00000E+00
 -1       647-1.17805E-05 3.71428E-05 1.03398E-25
 -1       648-1.17834E-05 3.81056E-05 0.00000E+00
 -1       649-1.17863E-05 3.90448E-05 0.00000E+00
 -1       650-1.17892E-05 3.99156E-05 0.00000E+00
 -1       651-1.17922E-05 4.06733E-05 0.00000E+00
 -1       652-1.21154E-05 3.45383E-05-1.65436E-24
 -1       653-1.23072E-05 3.45175E-05 0.00000E+00
 -1       654-1.24369E-05 3.44967E-05 4.13590E-25
 -1       655-1.25959E-05 3.44757E-05 4.13590E-25
 -1       656-1.28760E-05 3.44545E-05 0.00000E+00
 -1       657-1.21142E-05 4.12549E-05 0.00000E+00
 -1       658-1.23752E-05 4.12360E-05 4.13590E-25
 -1       659-1.26165E-05 4.12171E-05 0.00000E+00
 -1       660-1.28760E-05 4.11981E-05 4.13590E-25
 -1       661-1.31915E-05 4.11792E-05-4.13590E-25
 -1       662-3.14175E-07-7.58958E-07-6.61744E-24
 -1       663-6.30569E-07-1.13278E-06-3.30872E-24
 -1       664-9.47150E-07-1.22150E-06 6.61744E-24
 -1       665-1.26383E-06-1.12761E-06 0.00000E+00
 -1       666-1.58035E-06-9.53637E-07 0.00000E+00
 -1       667-1.89624E-06-8.02204E-07 0.00000E+00
 -1       668-2.21120E-06-7.75939E-07 0.00000E+00
 -1       669-2.69662E-06-1.22853E-06-3.30872E-24
 -1       670-2.87359E-06-1.24597E-06 0.00000E+00
 -1       671-3.05053E-06-1.10233E-06-3.30872E-24
 -1       672-3.22741E-06-8.73283E-07 0.00000E+00
 -1       673-3.40415E-06-6.34497E-07-6.61744E-24
 -1       674-3.58041E-06-4.61664E-07 0.00000E+00
 -1       675-3.75604E-06-4.30466E-07 0.00000E+00
 -1       676-3.98269E-06-8.23112E-07-1.24077E-24
 -1       677-4.03682E-06-8.26815E-07-6.72084E-25
 -1       678-4.09073E-06-6.92406E-07 0.00000E+00
 -1       679-4.14448E-06-4.87322E-07 8.27181E-25
 -1       680-4.19809E-06-2.78987E-07 0.00000E+00
 -1       681-4.25142E-06-1.34834E-07 0.00000E+00
 -1       682-4.30438E-06-1.22298E-07 0.00000E+00
 -1       683-4.29760E-06-4.99322E-07 0.00000E+00
 -1       684-4.23764E-06-4.97535E-07 0.00000E+00
 -1       685-4.17727E-06-3.66282E-07 3.30872E-24
 -1       686-4.11660E-06-1.70871E-07 0.00000E+00
 -1       687-4.05580E-06 2.34015E-08 0.00000E+00
 -1       688-3.99485E-06 1.51244E-07-6.20385E-25
 -1       689-3.93375E-06 1.47348E-07 7.23783E-25
 -1       690-3.69897E-06-2.40491E-07 0.00000E+00
 -1       691-3.52181E-06-2.28396E-07 0.00000E+00
 -1       692-3.34400E-06-8.45120E-08 0.00000E+00
 -1       693-3.16572E-06 1.21506E-07 3.30872E-24
 -1       694-2.98731E-06 3.20015E-07-3.30872E-24
 -1       695-2.80887E-06 4.41377E-07 3.30872E-24
 -1       696-2.63048E-06 4.15934E-07-6.61744E-24
 -1       697-2.14882E-06-3.34996E-08-1.32349E-23
 -1       698-1.83862E-06-2.29901E-08 0.00000E+00
 -1       699-1.52759E-06 1.24703E-07-6.61744E-24
 -1       700-1.21623E-06 3.26068E-07 3.30872E-24
 -1       701-9.05253E-07 4.97621E-07 0.00000E+00
 -1       702-5.96020E-07 5.55880E-07 1.65436E-24
 -1       703-2.89377E-07 4.17320E-07-8.27181E-25
 -1       704-5.36234E-07-4.80873E-07-1.32349E-23
 -1       705-1.09373E-06-7.22958E-07 0.00000E+00
 -1       706-1.65431E-06-7.88127E-07 1.32349E-23
 -1       707-2.21700E-06-7.39868E-07 6.61744E-24
 -1       708-2.78011E-06-6.41724E-07 1.32349E-23
 -1       709-3.34264E-06-5.57312E-07 6.61744E-24
 -1       710-3.90393E-06-5.50251E-07 0.00000E+00
 -1       711-4.91140E-06-8.36112E-07-1.32349E-23
 -1       712-5.37197E-06-7.85603E-07 0.00000E+00
 -1       713-5.83322E-06-5.69679E-07 1.32349E-23
 -1       714-6.29486E-06-2.27707E-07 0.00000E+00
 -1       715-6.75638E-06 2.00899E-07 0.00000E+00
 -1       716-7.21703E-06 6.76594E-07 0.00000E+00
 -1       717-7.67638E-06 1.15983E-06 1.32349E-23
 -1       718-8.46999E-06 2.32348E-06 0.00000E+00
 -1       719-8.81746E-06 3.37738E-06-3.30872E-24
 -1       720-9.16568E-06 4.68561E-06-6.61744E-24
 -1       721-9.51438E-06 6.15848E-06 3.30872E-24
 -1       722-9.86306E-06 7.70634E-06 0.00000E+00
 -1       723-1.02110E-05 9.23936E-06-6.61744E-24
 -1       724-1.05579E-05 1.06677E-05 1.32349E-23
 -1       725-1.11076E-05 1.31445E-05 0.00000E+00
 -1       726-1.13189E-05 1.46316E-05 0.00000E+00
 -1       727-1.15306E-05 1.62861E-05 0.00000E+00
 -1       728-1.17424E-05 1.80278E-05 0.00000E+00
 -1       729-1.19541E-05 1.97764E-05-6.61744E-24
 -1       730-1.21653E-05 2.14520E-05-3.30872E-24
 -1       731-1.23755E-05 2.29743E-05 6.61744E-24
 -1       732-1.26803E-05 2.54458E-05 3.30872E-24
 -1       733-1.27792E-05 2.67569E-05-8.27181E-25
 -1       734-1.28781E-05 2.81463E-05-3.30872E-24
 -1       735-1.29768E-05 2.95616E-05 0.00000E+00
 -1       736-1.30755E-05 3.09501E-05 3.30872E-24
 -1       737-1.31738E-05 3.22595E-05-1.65436E-24
 -1       738-1.32717E-05 3.34372E-05-3.30872E-24
 -1       739-1.33974E-05 3.52980E-05 0.00000E+00
 -1       740-1.34267E-05 3.62065E-05 0.00000E+00
 -1       741-1.34559E-05 3.71329E-05 8.27181E-25
 -1       742-1.34850E-05 3.80522E-05 0.00000E+00
 -1       743-1.35140E-05 3.89394E-05 0.00000E+00
 -1       744-1.35429E-05 3.97696E-05 1.65436E-24
 -1       745-1.35718E-05 4.05179E-05 0.00000E+00
 -3
    1PSTEP                         2           1           1          
  100CL  101 1.000000000         641                     0    1           1
 -4  STRESS      6    1
 -5  SXX         1    4    1    1
 -5  SYY         1    4    2    2
 -5  SZZ         1    4    3    3
 -5  SXY         1    4    1    2
 -5  SYZ         1    4    2    3
 -5  SZX         1    4    3    1
 -1         1 1.43366E+06 5.09008E+05-2.26608E+03 5.92701E+05-8.73115E-11-4.59204E-09
 -1         2 1.68130E+06 7.57910E+04-1.43157E+03 3.10803E+05-9.70128E-12 8.34613E-10
 -1         3 1.26956E+06 6.41263E+04-1.07740E+03 2.18163E+05-1.64922E-10 2.86491E-10
 -1         4 9.72253E+05 5.58512E+04-8.13843E+02 1.63768E+05-1.16415E-10-2.09032E-10
 -1         5 7.41990E+05 4.98441E+04-6.50676E+02 1.32097E+05-4.36557E-11 1.44564E-09
 -1         6 5.49789E+05 4.37382E+04-5.35050E+02 1.14586E+05-1.55220E-10-2.28518E-09
 -1         7 3.74480E+05 2.35132E+04-4.89674E+02 1.06900E+05 6.79089E-11 1.51348E-09
 -1         8 2.02667E+05 6.95635E+03-4.55048E+02 1.10959E+05 4.12304E-11 1.31255E-09
 -1         9 8.70468E+04 3.45761E+04-6.95747E+02 1.11852E+05-7.23958E-10-3.78839E-09
 -1        14 2.28957E+05 2.97450E+05-3.28829E+03 7.33166E+05-4.85064E-11-4.27680E-10
 -1        15 3.53527E+05-2.89392E+04-3.87513E+03 6.90600E+05 5.76620E-10 1.75334E-09
 -1        16 4.02907E+05-1.57022E+03-2.69246E+03 5.39868E+05-4.67480E-10 2.31799E-09
 -1        17 3.91569E+05 1.94021E+04-2.01339E+03 4.45505E+05 5.09317E-10-1.77810E-09
 -1        18 3.54340E+05 3.22984E+04-1.56105E+03 3.84151E+05 7.33053E-10-2.24667E-10
 -1        19 3.06314E+05 3.94298E+04-1.23954E+03 3.46693E+05-2.96495E-10-5.89104E-10
 -1        20 2.49661E+05 2.07811E+04-1.09733E+03 3.31257E+05-5.34783E-10-9.23642E-10
 -1        21 1.80512E+05-1.17262E+04-1.21970E+03 3.72138E+05-2.47383E-10 2.47624E-11
 -1        22 1.06054E+05 1.43935E+05-1.03803E+03 4.01268E+05-3.25599E-09 1.53287E-10
 -1        27 2.26552E+04-2.95698E+04-1.19261E+03 3.55248E+05-7.03343E-11-4.89801E-10
 -1        28 6.77405E+04-2.79913E+04-1.51007E+03 5.31158E+05 8.94943E-10-1.13664E-09
 -1        29 1.24114E+05-1.28795E+04-1.48234E+03 5.07075E+05-1.89175E-10 1.03253E-09
 -1        30 1.62684E+05 6.76793E+03-1.29726E+03 4.62269E+05 6.89397E-10-5.31159E-10
 -1        31 1.89691E+05 2.27595E+04-1.12592E+03 4.24478E+05 9.76797E-10 1.67731E-10
 -1        32 2.14696E+05 3.73730E+04-9.23223E+02 3.87885E+05-1.43700E-10-4.76234E-10
 -1        33 2.54262E+05 2.77994E+04-7.18386E+02 3.47555E+05-5.89353E-10 4.70237E-11
 -1        34 3.24552E+05-8.48055E+03-7.15405E+02 3.40487E+05-2.18279E-10 7.67102E-10
 -1        35 4.53972E+05 1.95877E+05-8.80489E+01 3.97724E+05-8.09450E-10-1.05518E-09
 -1        36 5.35469E+05 3.30845E+04-2.37628E+02 3.79377E+05-4.83609E-09-3.08243E-09
 -1        37 2.80732E+05-1.81502E+04-3.12766E+02 2.47839E+05 4.33890E-09-6.34297E-10
 -1        38 1.11240E+05-3.10887E+04-1.94886E+02 1.50903E+05 4.22248E-09 8.31430E-11
 -1        39 3.02336E+04-6.12971E+04-2.24856E+02 8.57720E+04 1.53759E-08 2.79186E-10
 -1        40-4.33206E+04-2.61306E+05-6.12871E+02 3.28076E+05-4.94765E-10 1.38908E-09
 -1        41-3.04205E+04-3.34830E+04-2.40709E+02 4.32566E+05 1.54614E-10 1.42313E-09
 -1        42 8.08875E+02-1.38318E+04-5.57099E+02 4.07382E+05-5.80258E-10 1.76456E-09
 -1        43 4.41931E+04 7.84161E+02-7.47709E+02 3.80350E+05 2.45564E-10 1.33596E-09
 -1        44 7.93459E+04 1.38767E+04-9.62496E+02 3.70068E+05 5.60249E-10 3.35461E-10
 -1        45 8.70736E+04 2.51133E+04-1.22965E+03 3.72071E+05-5.91172E-10-8.07304E-10
 -1        46 4.05748E+04 1.55020E+04-4.74096E+02 3.55924E+05-9.64064E-10-1.29961E-09
 -1        47-1.81124E+04-3.77647E+04 2.94098E+02 2.65185E+05-2.74667E-10 2.91124E-10
 -1        48-2.66402E+04 7.68833E+04 1.09441E+02 3.12661E+05-4.69299E-10-1.46017E-10
 -1        49-3.54268E+04-1.92112E+04-7.51740E+02 4.25773E+05-2.28829E-09 1.49100E-10
 -1        50-1.88916E+04-4.81316E+04-5.54273E+02 3.31472E+05 4.87580E-09-1.84426E-09
 -1        51-1.16838E+04-4.60961E+04-2.90165E+02 2.02192E+05 2.47655E-09-1.87129E-10
 -1        52-7.32779E+03-6.31661E+04-1.91293E+02 1.04531E+05 8.56562E-09-1.00438E-10
 -1        53-4.33529E+05-3.10218E+05-1.39513E+03 3.03635E+05-1.40403E-10-1.96451E-10
 -1        54-4.36741E+05-5.27360E+04-6.13191E+02 3.06952E+05 6.99364E-11 5.31145E-10
 -1        55-2.03360E+05-2.18256E+04-4.13697E+02 2.58652E+05-5.88178E-10 6.30583E-11
 -1        56 6.38266E+03-4.67973E+02-3.60690E+02 2.40287E+05 1.15866E-10 3.73499E-10
 -1        57 2.11486E+05 2.07767E+04-3.49031E+02 2.45881E+05 2.65686E-10 4.53535E-10
 -1        58 4.34294E+05 4.56760E+04 5.59185E+01 2.79484E+05-6.55120E-10-1.84324E-10
 -1        59-2.17829E+05-4.73262E+03-6.61425E+02 3.01914E+05-9.75774E-10-2.07607E-09
 -1        60-9.04831E+05-9.14620E+04-1.04664E+03 2.00938E+05-1.97834E-10-6.02692E-10
 -1        61-7.06439E+05-2.96294E+04-5.70363E+02 2.35827E+05-1.30347E-10-2.30405E-11
 -1        62-4.92489E+05-4.62926E+04-5.81834E+02 2.96518E+05-3.40160E-09 1.14233E-09
 -1        63-2.74522E+05-3.88235E+04-3.42690E+02 2.37699E+05 2.75622E-09-1.74380E-09
 -1        64-1.14408E+05-2.57571E+04-1.02893E+02 1.42748E+05 8.12311E-09-1.50976E-09
 -1        65-3.92991E+04-2.84255E+04 3.89021E+01 7.95479E+04 3.94829E-09-1.42700E-09
 -1        66 3.14278E+06 3.62573E+04 1.24387E+05 9.24047E-10-5.07701E-11-6.62112E-10
 -1        67 3.16986E+06 1.52626E+04 6.86174E+04 8.87667E-10 1.36486E-09 1.57615E-09
 -1        68 3.15476E+06 5.36710E+02 3.72136E+04-7.99230E-09-3.55823E-10 6.12090E-10
 -1        69 3.15813E+06 8.47490E+02 3.18509E+04 9.75490E-10-1.09015E-09-3.08381E-09
 -1        70 3.15464E+06 6.69913E+02 4.03945E+04-9.52394E-09 9.03286E-10-1.27056E-09
 -1        71 3.17186E+06 1.74831E+04 7.74690E+04-2.68665E-09 7.97185E-10 1.57979E-09
 -1        72 3.14089E+06 4.15164E+04 1.41957E+05 8.22183E-10-7.63865E-10 1.17871E-09
 -1        73-3.73859E+04 7.33185E+05-1.24376E+05 9.25335E+05 1.45519E-11-4.80213E-10
 -1        74-8.82629E+03 6.99027E+05-6.25252E+04 1.18852E+06-3.71074E-10 6.24277E-09
 -1        75 6.03785E+03 7.09345E+05-2.44529E+04 9.23047E+05-3.34694E-10 2.19006E-09
 -1        76 1.24803E+04 7.05919E+05-4.04626E+03 1.18966E+06-8.73115E-11-3.98359E-09
 -1        77 1.22410E+04 7.06628E+05 1.23719E+04 9.24155E+05 4.05635E-10-2.99406E-09
 -1        78 2.35295E+06 1.78578E+04 6.17151E+04 2.78123E-09 2.03217E-10 6.13727E-09
 -1        79 2.36628E+06 7.51806E+03 3.47839E+04 1.07029E-08 3.64744E-09-3.44153E-09
 -1        80 2.35881E+06 2.15283E+02 2.02873E+04 5.50949E-09 1.07927E-10 3.22643E-09
 -1        81 2.36076E+06 5.26598E+02 1.97650E+04 3.25991E-09-6.64142E-10 2.99599E-09
 -1        82 2.35852E+06 5.32769E+02 2.78756E+04 9.60313E-09-8.45047E-10-2.10366E-09
 -1        83 2.37105E+06 1.28190E+04 5.59060E+04 7.66249E-09-6.80949E-10 1.47338E-09
 -1        84 2.34843E+06 3.03922E+04 1.03628E+05 1.03682E-10-2.37910E-10-1.16779E-09
 -1        85-5.96022E+04-2.24969E+05-2.05432E+05 7.27098E+05 7.13044E-10-3.56522E-09
 -1        86-2.14412E+04-2.74125E+05-1.12636E+05 9.35072E+05 1.13505E-09 2.10275E-09
 -1        87 2.26211E+03-2.50416E+05-6.07674E+04 7.25436E+05 1.27693E-09-3.12866E-10
 -1        88-2.33046E+03-2.62363E+05-5.36443E+04 9.35720E+05 1.38243E-09-5.52063E-10
 -1        89-1.40850E+04-2.44882E+05-6.80885E+04 7.26521E+05 9.74978E-10-4.40195E-10
 -1        90 1.79546E+06 1.37840E+04 4.76309E+04 6.19730E-09 1.11114E-10 5.38421E-09
 -1        91 1.80575E+06 5.80713E+03 2.68001E+04 8.34598E-09 3.45408E-10 5.29462E-09
 -1        92 1.79998E+06 1.68951E+02 1.55435E+04 9.93936E-09 1.19474E-09-2.75486E-09
 -1        93 1.80146E+06 4.00348E+02 1.50123E+04-5.37086E-09 8.81945E-10 4.03389E-09
 -1        94 1.79977E+06 3.98758E+02 2.10401E+04 7.59883E-09 1.34881E-09 1.51795E-09
 -1        95 1.80921E+06 9.64850E+03 4.21027E+04-1.93268E-09 5.70280E-10-2.41016E-09
 -1        96 1.79219E+06 2.28596E+04 7.79929E+04-1.25383E-08-1.75151E-09 4.36557E-11
 -1        97-4.44503E+04-1.42679E+05-1.53485E+05 5.10429E+05 1.60071E-10-2.03727E-10
 -1        98-1.70267E+04-1.78488E+05-8.55123E+04 6.56259E+05-6.83940E-10 4.41651E-09
 -1        99 6.72767E+02-1.60192E+05-4.84501E+04 5.09207E+05 7.89441E-10-4.64024E-09
 -1       100-4.72681E+03-1.70537E+05-4.70921E+04 6.56802E+05-9.96806E-10 2.12731E-09
 -1       101-1.50705E+04-1.55226E+05-6.40532E+04 5.09935E+05 7.43967E-10 5.85715E-10
 -1       102 1.37715E+06 1.03970E+04 3.59464E+04 5.03860E-09 6.74181E-11 1.45155E-09
 -1       103 1.38491E+06 4.38241E+03 2.02383E+04-8.78458E-09-6.50622E-10-4.93401E-09
 -1       104 1.38056E+06 1.26483E+02 1.17608E+04-7.35774E-09 3.02202E-10-2.74463E-09
 -1       105 1.38168E+06 3.04176E+02 1.13982E+04-1.42479E-08 4.65804E-10-1.85901E-09
 -1       106 1.38039E+06 3.04312E+02 1.60165E+04-1.67640E-09-1.10402E-09-3.97313E-09
 -1       107 1.38759E+06 7.35732E+03 3.20876E+04 9.28094E-09 2.83751E-10 5.02041E-10
 -1       108 1.37462E+06 1.74224E+04 5.94561E+04 2.13731E-09 9.58897E-10 1.97906E-09
 -1       109-3.35071E+04-8.41936E+04-1.15976E+05 3.83200E+05-7.27596E-11 3.85262E-09
 -1       110-1.32342E+04-1.10905E+05-6.54348E+04 4.92577E+05-3.38332E-10 4.96948E-09
 -1       111 1.04861E+02-9.68151E+04-3.85225E+04 3.82248E+05-1.61890E-10 1.64982E-09
 -1       112-5.12798E+03-1.05577E+05-4.00088E+04 4.93041E+05-3.34694E-10-6.21867E-10
 -1       113-1.41219E+04-9.23990E+04-5.67896E+04 3.82772E+05-1.50976E-10 3.83807E-10
 -1       114 1.03988E+06 7.37255E+03 2.55343E+04 4.27826E-09 1.79611E-10 4.06544E-10
 -1       115 1.04539E+06 3.10811E+03 1.44434E+04-7.49196E-10-2.05521E-10-2.47178E-09
 -1       116 1.04230E+06 8.51359E+01 8.52079E+03-7.28093E-10-9.50921E-10-3.89480E-09
 -1       117 1.04312E+06 2.25879E+02 8.45969E+03-3.37886E-09 6.79663E-10-2.79726E-10
 -1       118 1.04216E+06 2.34487E+02 1.20962E+04-3.98632E-09 3.34561E-10-7.62157E-10
 -1       119 1.04764E+06 5.60814E+03 2.43995E+04 9.99535E-10 5.45267E-10-3.54703E-10
 -1       120 1.03776E+06 1.32732E+04 4.52865E+04-2.86400E-09-3.35471E-10 1.02227E-09
 -1       121-2.50167E+04-3.80453E+04-8.67981E+04 3.09117E+05 1.11322E-09-3.06682E-09
 -1       122-1.00033E+04-5.79395E+04-4.94804E+04 3.97282E+05 1.85901E-09 1.42973E-09
 -1       123-5.34587E+01-4.72887E+04-3.00552E+04 3.08325E+05 2.45200E-09 2.22099E-09
 -1       124-4.65611E+03-5.44938E+04-3.27883E+04 3.97689E+05 2.08092E-09 4.62828E-09
 -1       125-1.22398E+04-4.35042E+04-4.79322E+04 3.08734E+05 2.31194E-09 2.63844E-09
 -1       126 7.47425E+05 4.55776E+03 1.58782E+04-7.52971E-09-5.24527E-10-3.39423E-09
 -1       127 7.50833E+05 1.92037E+03 9.14051E+03-6.33679E-09 4.67104E-11 1.37800E-09
 -1       128 7.48911E+05 4.19507E+01 5.69309E+03-2.54869E-09 8.79272E-11-1.17910E-09
 -1       129 7.49487E+05 1.63430E+02 6.11774E+03 8.01211E-09 4.23179E-10 2.63208E-09
 -1       130 7.48774E+05 1.89081E+02 9.21678E+03 5.64152E-09 2.37614E-10 4.60977E-09
 -1       131 7.53053E+05 4.38478E+03 1.89536E+04 3.79328E-09 6.96361E-10 1.92631E-09
 -1       132 7.45336E+05 1.03717E+04 3.53455E+04-3.07500E-09 1.16142E-10 6.76664E-10
 -1       133-1.80293E+04-3.76387E+03-6.27261E+04 2.68151E+05-5.34783E-10 7.74889E-10
 -1       134-7.19583E+03-1.81692E+04-3.61418E+04 3.44586E+05-5.45697E-11-6.54836E-11
 -1       135-3.68853E+01-1.04513E+04-2.26794E+04 2.67448E+05-1.13141E-09-8.78572E-10
 -1       136-3.85172E+03-1.62114E+04-2.59345E+04 3.44962E+05-2.91038E-10 4.00917E-09
 -1       137-1.00756E+04-7.31422E+03-3.89406E+04 2.67793E+05-1.05138E-09-8.73115E-11
 -1       138 4.74503E+05 2.24192E+03 7.92561E+03 5.18799E-09 3.00214E-10-2.73576E-09
 -1       139 4.76188E+05 9.42796E+02 4.76305E+03-3.03999E-10 5.27573E-10-3.23337E-09
 -1       140 4.75226E+05 7.13334E+00 3.33932E+03 2.75303E-09-8.46935E-10-1.00657E-09
 -1       141 4.75598E+05 1.10490E+02 4.13415E+03-2.49572E-09-1.96093E-09 5.74829E-10
 -1       142 4.75093E+05 1.48933E+02 6.73650E+03 7.14715E-09-2.87009E-10 1.69348E-09
 -1       143 4.78329E+05 3.31914E+03 1.42246E+04 1.09501E-08 1.82901E-09 4.47471E-10
 -1       144 4.72491E+05 7.84656E+03 2.66953E+04 6.03950E-09 1.24867E-10-1.62072E-09
 -1       145-1.28058E+04-2.51093E+04-4.47437E+04 2.50166E+05-1.30240E-09 4.03816E-10
 -1       146-5.03263E+03-3.54735E+04-2.61907E+04 3.21453E+05-7.96717E-10 4.35102E-09
 -1       147 3.75781E+01-2.99878E+04-1.72218E+04 2.49496E+05-2.66300E-09-2.20825E-09
 -1       148-3.18548E+03-3.47229E+04-2.09426E+04 3.21822E+05-1.16052E-09 7.37941E-10
 -1       149-8.47678E+03-2.73000E+04-3.24851E+04 2.49810E+05-2.42289E-09-1.93904E-09
 -1       150 1.91440E+05-5.84697E+02-1.90007E+03-2.17148E-09-8.45669E-10 3.39764E-09
 -1       151 1.90998E+05-2.49160E+02-8.50068E+02 1.00294E-08-3.34675E-09 1.09634E-09
 -1       152 1.91239E+05-2.17616E+01-7.62847E+01 3.59585E-09-2.08797E-09 1.21054E-09
 -1       153 1.91259E+05 1.55324E+01 5.80907E+02 3.20252E-09 7.47961E-10-4.23158E-09
 -1       154 1.91178E+05 4.36853E+01 1.49213E+03 3.35917E-09 6.16545E-10-1.75294E-09
 -1       155 1.91987E+05 8.48202E+02 3.51849E+03 5.20731E-09 6.98964E-10 7.90408E-10
 -1       156 1.90511E+05 2.00215E+03 6.76553E+03 3.86399E-09 5.02482E-10-4.16139E-09
 -1       157-7.43797E+03-3.45624E+04-2.61328E+04 2.59617E+05 1.46974E-09 5.45697E-10
 -1       158-2.68848E+03-4.08451E+04-1.55505E+04 3.33615E+05 1.01863E-09-1.81899E-11
 -1       159 2.38652E+02-3.77560E+04-1.07656E+04 2.58927E+05 3.23962E-09 8.18545E-11
 -1       160-1.90395E+03-4.10194E+04-1.39029E+04 3.33976E+05 1.46247E-09 1.36228E-09
 -1       161-5.69544E+03-3.58358E+04-2.22385E+04 2.59264E+05 3.41333E-09-2.18279E-09
 -1       169-2.33262E+03 5.35852E+04-8.28176E+03 1.74974E+05 2.18279E-09-1.69166E-09
 -1       170-7.80851E+02 5.14642E+04-6.11391E+03 2.24377E+05-4.07454E-10-1.42973E-09
 -1       171 8.68806E+01 5.23127E+04-6.40608E+03 1.74315E+05 4.80577E-09 5.11136E-10
 -1       172-1.98387E+03 4.94179E+04-1.13694E+04 2.25006E+05-2.14641E-10 1.18871E-09
 -1       173-5.45889E+03 5.39290E+04-2.04161E+04 1.74356E+05 5.68980E-09-6.68479E-10
 -1       215 7.19131E+05 1.63400E+03 1.75176E+04 5.16373E+05-5.82077E-11-2.13913E-09
 -1       216 7.21354E+05 6.89596E+02 1.05178E+04 6.63002E+05-8.73115E-11-3.14321E-09
 -1       217 7.16067E+05-4.21873E+02 6.42254E+03 5.14740E+05 9.82254E-11-1.21508E-09
 -1       218 7.15650E+05 7.54579E+02 6.96059E+03 6.64638E+05 1.06411E-10-2.51384E-09
 -1       219 7.14726E+05 5.51074E+02 1.01406E+04 5.14727E+05 2.37378E-10-1.56433E-09
 -1       220 7.20458E+05 4.87071E+03 2.06459E+04 6.63447E+05-4.20187E-10 1.21508E-09
 -1       221 7.13508E+05 9.90907E+03 3.78389E+04 5.15959E+05-1.70985E-10-1.69530E-09
 -1       222-9.90076E+03 1.48525E+05-3.82810E+04 2.71473E+05 3.63798E-11 2.51930E-10
 -1       223-2.60246E+03 1.39505E+05-1.86837E+04 3.49573E+05-2.58296E-10 5.03485E-09
 -1       224 1.42310E+03 1.44629E+05-5.55234E+03 2.71111E+05 2.76486E-10 1.74441E-09
 -1       225 3.58889E+03 1.45924E+05 3.51489E+03 3.49145E+05-1.18234E-10-2.11003E-10
 -1       226 5.38402E+03 1.43894E+05 1.32199E+04 2.71856E+05 2.11003E-10-1.32422E-09
 -1       227 9.17220E+05 1.60575E+04 5.90122E+04 3.68918E+05 1.38607E-09-3.09228E-09
 -1       228 9.29299E+05 7.04045E+03 3.24152E+04 4.73818E+05-1.20235E-09-1.41517E-09
 -1       229 9.20903E+05 3.58563E+02 1.68959E+04 3.67823E+05-4.06362E-09 3.40151E-10
 -1       230 9.22003E+05 8.59871E+02 1.34109E+04 4.74868E+05-1.56160E-09 1.28784E-09
 -1       231 9.20769E+05 4.30459E+02 1.55915E+04 3.67821E+05 1.62618E-09 1.01500E-09
 -1       232 9.27977E+05 6.37280E+03 2.87482E+04 4.73915E+05 8.73115E-10-3.68163E-09
 -1       233 9.17464E+05 1.42356E+04 5.17714E+04 3.68810E+05 9.20409E-10-1.33878E-09
 -1       234-1.07273E+04-8.50944E+04-4.36528E+04 5.38626E+05 1.04774E-09 3.16868E-09
 -1       235-1.45908E+03-9.66915E+04-2.38298E+04 6.93095E+05 1.21145E-09-2.03727E-10
 -1       236 2.74599E+03-9.10318E+04-1.29809E+04 5.37571E+05 1.22600E-09 3.36740E-10
 -1       237 2.03385E+03-9.33804E+04-1.16751E+04 6.93029E+05 9.74978E-10-2.95950E-09
 -1       238-2.17103E+03-8.79196E+04-1.54339E+04 5.38680E+05 1.03137E-09-3.15049E-09
 -1       239 9.26518E+05 1.46068E+04 5.27053E+04 3.00735E+05-3.63798E-10 5.67525E-10
 -1       240 9.37480E+05 6.34416E+03 2.90290E+04 3.86267E+05-4.63842E-10 2.56659E-09
 -1       241 9.30273E+05 2.99113E+02 1.53798E+04 2.99850E+05 2.61934E-10 3.31056E-10
 -1       242 9.31404E+05 6.68973E+02 1.26220E+04 3.87119E+05-6.19593E-11-4.66389E-09
 -1       243 9.30176E+05 3.63431E+02 1.52511E+04 2.99850E+05-2.07365E-10-1.34969E-09
 -1       244 9.37123E+05 6.38903E+03 2.86516E+04 3.86336E+05 3.45608E-11 7.49424E-10
 -1       245 9.26302E+05 1.45765E+04 5.19753E+04 3.00662E+05 1.01863E-10-3.84580E-09
 -1       246-1.32666E+04-8.07519E+04-5.10151E+04 5.01616E+05 3.49246E-10 1.80444E-09
 -1       247-3.09495E+03-9.37140E+04-2.83565E+04 6.45411E+05-1.34241E-09 2.64390E-09
 -1       248 2.12550E+03-8.72161E+04-1.62509E+04 5.00612E+05 6.47560E-10 1.18155E-09
 -1       249 5.24071E+02-9.05772E+04-1.61097E+04 6.45402E+05-1.63709E-09-2.41016E-10
 -1       250-4.45967E+03-8.38839E+04-2.25617E+04 5.01614E+05 1.06593E-09-4.90400E-09
 -1       251 8.55009E+05 1.24920E+04 4.47170E+04 2.55236E+05 3.05590E-10 2.03727E-10
 -1       252 8.64372E+05 5.40602E+03 2.46822E+04 3.27860E+05 5.09317E-11 6.25732E-10
 -1       253 8.58372E+05 2.46463E+02 1.32152E+04 2.54499E+05-3.80169E-10-1.18234E-09
 -1       254 8.59397E+05 5.34596E+02 1.10763E+04 3.28574E+05-1.08730E-09 3.16504E-10
 -1       255 8.58296E+05 3.05419E+02 1.36851E+04 2.54497E+05-2.31012E-10-4.05089E-09
 -1       256 8.64512E+05 5.81062E+03 2.59798E+04 3.27899E+05 5.16593E-10-4.76575E-09
 -1       257 8.54566E+05 1.33708E+04 4.73031E+04 2.55197E+05 2.91038E-10 1.48702E-10
 -1       258-1.27231E+04-4.24392E+04-4.79743E+04 4.48696E+05-3.63798E-10-3.27418E-09
 -1       259-3.41716E+03-5.44130E+04-2.69865E+04 5.77246E+05-7.85803E-10 1.46520E-09
 -1       260 1.60054E+03-4.83384E+04-1.60054E+04 4.47779E+05-4.83851E-10-7.73298E-10
 -1       261-3.45308E+02-5.19394E+04-1.68140E+04 5.77285E+05-5.20231E-10-5.92991E-10
 -1       262-5.28437E+03-4.52293E+04-2.43255E+04 4.48650E+05-4.74756E-10-1.60799E-09
 -1       263 7.49264E+05 1.02413E+04 3.65802E+04 2.26393E+05-6.94854E-10-2.58660E-09
 -1       264 7.56930E+05 4.43187E+03 2.02332E+04 2.90828E+05 3.99268E-10-1.60981E-09
 -1       265 7.52054E+05 2.01943E+02 1.09231E+04 2.25746E+05 2.21917E-10 1.21145E-09
 -1       266 7.52923E+05 4.35746E+02 9.30595E+03 2.91459E+05 4.18197E-10 3.61979E-10
 -1       267 7.51995E+05 2.53633E+02 1.16832E+04 2.25745E+05 8.06722E-10 6.80302E-10
 -1       268 7.57330E+05 5.00200E+03 2.23443E+04 2.90852E+05 1.20690E-09-1.88447E-09
 -1       269 7.48730E+05 1.15478E+04 4.07742E+04 2.26369E+05-2.87400E-10-1.06820E-09
 -1       270-1.12588E+04-1.16110E+04-4.22460E+04 4.06090E+05 2.81943E-09-1.61162E-09
 -1       271-3.18416E+03-2.20830E+04-2.41179E+04 5.22389E+05 3.10320E-09-1.59253E-09
 -1       272 1.25354E+03-1.67194E+04-1.49427E+04 4.05250E+05 3.84171E-09-3.95607E-09
 -1       273-9.28618E+02-2.03756E+04-1.67770E+04 5.22450E+05 3.33239E-09-5.23596E-09
 -1       274-5.81791E+03-1.37355E+04-2.51711E+04 4.06025E+05 2.80443E-09-4.36557E-10
 -1       275 6.30998E+05 8.03619E+03 2.88194E+04 2.09016E+05-1.45519E-10-5.74801E-10
 -1       276 6.37014E+05 3.48437E+03 1.60390E+04 2.68528E+05-2.54659E-10 5.45697E-10
 -1       277 6.33155E+05 1.55697E+02 8.84205E+03 2.08422E+05 3.08319E-10-2.08820E-09
 -1       278 6.33882E+05 3.62151E+02 7.84263E+03 2.69109E+05 5.09019E-10 1.71349E-09
 -1       279 6.33094E+05 2.18462E+02 1.02089E+04 2.08422E+05 4.64752E-10 9.38599E-10
 -1       280 6.37853E+05 4.45141E+03 1.98440E+04 2.68538E+05-5.12955E-10 8.91305E-11
 -1       281 6.30164E+05 1.03062E+04 3.63696E+04 2.09008E+05-1.81899E-11-1.88629E-09
 -1       282-9.41491E+03 1.21182E+04-3.56041E+04 3.76636E+05-1.62618E-09-1.97178E-09
 -1       283-2.64489E+03 3.26515E+03-2.07871E+04 4.84474E+05-8.00355E-11-4.14730E-10
 -1       284 1.05354E+03 7.83277E+03-1.37351E+04 3.75853E+05-2.02272E-09 4.95220E-10
 -1       285-1.38118E+03 4.11171E+03-1.68039E+04 4.84543E+05-3.23780E-10 4.72937E-11
 -1       286-6.38791E+03 1.08514E+04-2.63302E+04 3.76566E+05-1.45656E-09-6.43922E-10
 -1       287 5.00793E+05 6.42630E+03 2.32674E+04 2.03477E+05-7.42148E-10 2.46655E-09
 -1       288 5.05611E+05 2.80042E+03 1.30474E+04 2.61423E+05 1.74623E-10 1.68802E-09
 -1       289 5.02441E+05 1.25755E+02 7.36457E+03 2.02902E+05 2.21007E-10-1.56069E-09
 -1       290 5.03056E+05 3.28297E+02 6.81890E+03 2.61989E+05 1.94177E-10-1.31513E-09
 -1       291 5.02362E+05 2.07777E+02 9.19483E+03 2.02901E+05 6.55746E-10 1.60435E-09
 -1       292 5.06742E+05 4.09146E+03 1.81431E+04 2.61427E+05 8.07631E-10-6.51198E-10
 -1       293 4.99685E+05 9.46096E+03 3.33787E+04 2.03478E+05-5.00222E-10-2.56659E-09
 -1       294-8.14324E+03-2.06919E+04-3.14944E+04 3.69427E+05-3.71438E-09-3.27418E-11
 -1       295-2.19599E+03-2.85880E+04-1.91992E+04 4.75234E+05-2.06273E-09 1.17416E-09
 -1       296 9.73037E+02-2.44362E+04-1.41664E+04 3.68666E+05-4.81305E-09 8.32642E-10
 -1       297-2.24199E+03-2.88138E+04-1.95743E+04 4.75289E+05-2.32467E-09 2.06637E-09
 -1       298-8.29164E+03-2.07814E+04-3.23514E+04 3.69374E+05-3.37832E-09-1.53159E-09
 -1       299 3.33041E+05 4.40085E+03 1.61910E+04 2.82677E+05 9.24047E-10-1.23873E-09
 -1       300 3.36141E+05 2.11905E+03 8.80720E+03 3.63421E+05 1.45519E-10 2.22281E-09
 -1       301 3.33791E+05 2.54848E+02 4.33930E+03 2.81974E+05-1.90812E-09-7.65795E-10
 -1       302 3.34097E+05 3.69348E+02 3.00324E+03 3.64107E+05-9.93168E-10-6.25732E-10
 -1       303 3.34119E+05 7.87193E+00 2.86209E+03 2.81984E+05 9.45874E-11-1.14960E-09
 -1       304 3.35943E+05 7.27371E+02 4.74415E+03 3.63216E+05-1.58252E-10-2.36469E-10
 -1       305 3.34690E+05 1.47962E+03 8.07950E+03 2.82868E+05-1.90994E-09-3.08864E-09
 -1       306-8.00120E+03-1.20897E+05-3.20077E+04 4.13487E+05 4.05635E-09 2.69210E-09
 -1       307-1.93068E+03-1.29094E+05-2.06596E+04 5.31996E+05 2.20462E-09-1.85992E-09
 -1       308 1.12307E+03-1.24741E+05-1.72825E+04 4.12646E+05 6.16637E-09 4.85443E-10
 -1       309-3.65403E+03-1.30717E+05-2.66437E+04 5.32033E+05 2.55386E-09-4.03816E-10
 -1       310-1.22200E+04-1.19495E+05-4.59005E+04 4.13453E+05 4.96311E-09-8.87667E-10
 -1       318 4.90472E+03 3.60204E+05 9.64573E+03 4.79489E+05 8.07927E-09 1.41335E-09
 -1       319 4.16822E+03 3.61105E+05 2.66953E+03 6.17134E+05 4.00178E-11-9.01309E-10
 -1       320 1.91822E+03 3.60863E+05-4.04924E+03 4.78760E+05 8.65475E-09-3.40151E-10
 -1       321-1.31279E+03 3.58206E+05-1.36988E+04 6.16740E+05 2.51021E-10 2.32831E-10
 -1       322-8.08102E+03 3.66241E+05-2.85333E+04 4.79895E+05 4.91309E-09-1.29512E-09
 -1       364 8.53307E+04 9.21001E+02 8.42877E+03 3.63866E+05 1.67347E-10 9.02219E-10
 -1       365 8.64429E+04 3.89128E+02 4.74118E+03 4.67279E+05-2.60115E-10 1.31331E-09
 -1       366 8.40228E+04-1.78306E+02 2.31976E+03 3.62734E+05-2.40107E-10 1.70257E-09
 -1       367 8.38092E+04 2.30720E+02 1.66139E+03 4.68422E+05 5.54792E-11 1.44428E-09
 -1       368 8.36865E+04 3.98255E+01 1.53515E+03 3.62720E+05 6.41194E-10 1.56069E-09
 -1       369 8.49557E+04 3.24851E+02 2.48628E+03 4.67503E+05-2.91038E-11 3.65253E-09
 -1       370 8.47482E+04 2.82518E+02 4.02532E+03 3.63654E+05-1.56433E-10 5.47516E-10
 -1       371-6.56972E+03-2.50555E+05-2.47027E+04 1.95178E+05-1.54614E-10-1.77261E-09
 -1       372-1.93861E+03-2.56341E+05-1.24693E+04 2.51404E+05 7.27596E-11-6.37738E-09
 -1       373 7.51350E+02-2.53173E+05-4.59024E+03 1.94839E+05-1.45519E-11-2.13367E-09
 -1       374 1.63541E+03-2.53005E+05-9.35945E+01 2.51262E+05-2.91038E-11-8.76753E-10
 -1       375 2.17626E+03-2.53479E+05 4.03659E+03 1.95301E+05 6.91216E-11 2.89037E-09
 -1       376 2.35375E+05 4.62627E+03 1.92533E+04 3.52627E+05 8.73115E-11-4.54747E-10
 -1       377 2.38852E+05 2.21515E+03 1.05927E+04 4.52986E+05 2.89219E-10 1.70621E-09
 -1       378 2.35465E+05 1.98012E+02 5.32081E+03 3.51594E+05-2.29193E-10 1.85537E-10
 -1       379 2.35586E+05 5.68603E+02 3.91438E+03 4.54009E+05-3.53566E-10 1.64437E-09
 -1       380 2.35410E+05 2.16338E+02 4.03978E+03 3.51591E+05 5.45697E-12-1.22236E-09
 -1       381 2.37760E+05 1.45769E+03 7.00488E+03 4.53053E+05-7.82165E-11-1.69166E-09
 -1       382 2.35834E+05 2.70082E+03 1.21556E+04 3.52557E+05 5.20231E-10 1.22418E-09
 -1       383-2.26003E+03-7.66786E+04-1.21592E+04 3.99935E+05 5.29326E-10-2.69210E-09
 -1       384 8.83268E+02-8.04225E+04-6.33348E+03 5.14736E+05 1.48430E-09-4.49745E-09
 -1       385 1.73944E+03-7.86802E+04-3.01561E+03 3.99203E+05 9.45874E-10-2.79215E-10
 -1       386 2.01800E+03-7.89346E+04-1.89827E+03 5.14594E+05 1.17871E-09 1.74714E-09
 -1       387 6.01385E+02-7.73093E+04-1.89181E+03 4.00073E+05 8.53106E-10 2.22281E-09
 -1       388 3.34983E+05 5.72596E+03 2.22560E+04 3.15838E+05-2.07365E-10-2.21917E-10
 -1       389 3.39257E+05 2.63845E+03 1.22298E+04 4.05740E+05-1.40062E-10-7.20320E-10
 -1       390 3.35736E+05 2.02466E+02 6.24694E+03 3.14920E+05 3.87445E-10 1.14596E-10
 -1       391 3.36022E+05 5.02869E+02 4.75761E+03 4.06646E+05 3.55840E-11 2.74667E-09
 -1       392 3.35722E+05 1.96887E+02 5.20444E+03 3.14919E+05-3.87445E-10 1.25510E-10
 -1       393 3.38450E+05 1.98250E+03 9.31576E+03 4.05784E+05 2.78305E-10-2.64845E-09
 -1       394 3.35442E+05 4.10519E+03 1.64855E+04 3.15791E+05 4.22006E-10 6.54836E-10
 -1       395-3.55971E+03-4.46361E+04-1.63328E+04 4.09902E+05 8.18545E-11 6.91216E-10
 -1       396 2.91293E+02-4.93274E+04-8.71076E+03 5.27520E+05-1.17143E-09-3.13048E-09
 -1       397 1.65096E+03-4.70987E+04-4.46213E+03 4.09144E+05 5.42059E-10-3.56067E-09
 -1       398 1.67610E+03-4.76671E+04-3.48155E+03 5.27394E+05-1.48066E-09-2.33649E-09
 -1       399-9.83969E+01-4.55140E+04-4.21725E+03 4.10025E+05 4.83851E-10 1.66256E-09
 -1       400 4.01757E+05 6.13344E+03 2.32281E+04 2.88512E+05-3.01952E-10 3.63798E-11
 -1       401 4.06337E+05 2.77315E+03 1.27717E+04 3.70648E+05-1.74623E-09-2.23736E-10
 -1       402 4.02835E+05 1.88025E+02 6.59967E+03 2.87682E+05-1.17325E-09 2.27192E-09
 -1       403 4.03199E+05 4.48635E+02 5.15054E+03 3.71466E+05-3.60671E-10-4.14730E-10
 -1       404 4.02821E+05 1.85964E+02 5.83319E+03 2.87680E+05 3.00133E-10-1.04956E-09
 -1       405 4.05735E+05 2.29480E+03 1.06287E+04 3.70676E+05 9.82254E-10-7.85803E-10
 -1       406 4.02086E+05 4.94740E+03 1.89852E+04 2.88482E+05 3.89264E-10 5.38421E-10
 -1       407-4.60409E+03-1.59709E+04-1.94732E+04 3.87314E+05-3.18323E-10-1.99725E-09
 -1       408-3.71450E+02-2.12461E+04-1.06608E+04 4.98417E+05-6.73026E-10-6.10180E-09
 -1       409 1.41021E+03-1.86380E+04-5.90043E+03 3.86591E+05-4.29281E-10-4.16549E-10
 -1       410 1.03811E+03-1.96709E+04-5.47356E+03 4.98314E+05-4.54747E-10 1.95723E-09
 -1       411-1.10350E+03-1.69446E+04-7.44723E+03 3.87413E+05-6.56655E-10 6.94854E-10
 -1       412 4.50336E+05 6.42388E+03 2.38818E+04 2.66622E+05-1.88447E-09-1.90994E-09
 -1       413 4.55127E+05 2.87003E+03 1.31192E+04 3.42528E+05 6.29370E-10-1.00044E-10
 -1       414 4.51653E+05 1.80364E+02 6.79917E+03 2.65859E+05 3.45062E-09 1.50976E-09
 -1       415 4.52069E+05 4.05736E+02 5.33334E+03 3.43279E+05 2.50452E-09-7.67614E-10
 -1       416 4.51652E+05 1.70782E+02 6.09678E+03 2.65858E+05-1.09685E-09-2.19734E-09
 -1       417 4.54606E+05 2.41686E+03 1.11576E+04 3.42551E+05-8.44011E-10-4.80213E-10
 -1       418 4.50669E+05 5.31673E+03 1.99957E+04 2.66597E+05-6.94854E-10 4.83851E-10
 -1       419-5.26599E+03 9.79133E+03-2.13099E+04 3.61416E+05 3.11047E-09 1.69530E-09
 -1       420-8.65348E+02 4.22079E+03-1.18619E+04 4.65049E+05 3.05226E-09-1.66710E-09
 -1       421 1.18961E+03 7.03952E+03-6.87499E+03 3.60730E+05 3.85444E-09-2.30966E-09
 -1       422 5.08021E+02 5.63951E+03-6.94470E+03 4.64977E+05 2.80124E-09-2.16914E-09
 -1       423-1.87803E+03 8.76186E+03-9.90175E+03 3.61484E+05 2.24372E-09-9.60426E-10
 -1       424 5.08329E+05 7.08713E+03 2.58834E+04 2.42144E+05 2.87400E-10-4.58385E-10
 -1       425 5.13631E+05 3.11123E+03 1.42195E+04 3.11079E+05-3.27418E-10 6.36646E-11
 -1       426 5.10009E+05 1.63188E+02 7.42398E+03 2.41448E+05 2.20098E-10-2.13186E-09
 -1       427 5.10519E+05 3.58314E+02 5.91039E+03 3.11762E+05 1.90937E-10-2.58115E-09
 -1       428 5.10006E+05 1.57615E+02 6.89624E+03 2.41448E+05 3.12866E-10-2.81943E-10
 -1       429 5.13234E+05 2.77392E+03 1.27452E+04 3.11104E+05 1.09139E-10-4.36557E-11
 -1       430 5.08573E+05 6.25925E+03 2.29628E+04 2.42118E+05-9.82254E-11-5.45697E-12
 -1       431-5.77729E+03 3.72339E+04-2.24558E+04 3.23266E+05-1.66074E-09-7.58519E-10
 -1       432-1.32247E+03 3.15540E+04-1.24240E+04 4.15910E+05-2.03727E-10-4.15639E-09
 -1       433 9.59226E+02 3.44658E+04-6.99635E+03 3.22637E+05-1.82263E-09-1.44473E-09
 -1       434 3.33497E+02 3.30745E+04-6.71924E+03 4.15878E+05-2.40107E-10 9.85892E-10
 -1       435-1.72938E+03 3.58602E+04-9.20663E+03 3.23294E+05-1.62981E-09 6.07542E-10
 -1       436 6.37795E+05 1.01621E+04 3.62027E+04 2.21384E+05-2.91038E-10 2.52476E-09
 -1       437 6.45411E+05 4.38320E+03 1.98547E+04 2.84406E+05 4.34738E-10-3.63798E-11
 -1       438 6.40596E+05 1.95057E+02 1.03945E+04 2.20748E+05 5.40240E-10 4.51109E-10
 -1       439 6.41398E+05 3.80682E+02 8.30907E+03 2.85026E+05 3.64537E-10 7.40329E-10
 -1       440 6.40595E+05 1.86722E+02 9.78549E+03 2.20747E+05 4.32010E-10-6.36646E-11
 -1       441 6.44960E+05 3.99025E+03 1.81539E+04 2.84426E+05 2.92857E-10-1.32786E-09
 -1       442 6.38084E+05 9.20213E+03 3.28334E+04 2.21363E+05-3.92902E-10 5.68434E-11
 -1       443-7.96603E+03 1.49854E+03-2.89466E+04 2.50081E+05-3.20324E-09-4.80213E-10
 -1       444-2.61906E+03-5.37361E+03-1.56583E+04 3.21680E+05-1.63163E-09-1.14051E-09
 -1       445 5.79884E+02-1.75189E+03-8.00236E+03 2.49556E+05-4.27644E-09-7.30779E-10
 -1       446 2.02670E+02-3.04425E+03-6.24616E+03 3.21727E+05-1.73895E-09 7.08496E-10
 -1       447-1.12034E+03-1.02375E+03-7.06761E+03 2.50028E+05-3.60205E-09-6.56655E-10
 -1       448 8.51895E+05 1.55652E+04 5.43733E+04 2.09725E+05 6.40284E-10-3.60160E-09
 -1       449 8.63511E+05 6.68530E+03 2.91687E+04 2.69248E+05-8.44011E-10 2.84626E-09
 -1       450 8.56468E+05 3.42885E+02 1.40672E+04 2.09068E+05-1.77897E-09 2.06455E-10
 -1       451 8.57388E+05 4.71429E+02 9.14963E+03 2.69883E+05-6.23231E-10-1.61526E-09
 -1       452 8.56559E+05 1.91497E+02 8.16722E+03 2.09065E+05-2.13731E-10-1.87902E-09
 -1       453 8.59418E+05 2.74323E+03 1.27127E+04 2.69380E+05-7.95808E-10-1.89902E-09
 -1       454 8.54995E+05 6.07761E+03 2.17514E+04 2.09577E+05-8.27640E-10-1.22191E-09
 -1       455-1.23061E+04-1.07341E+05-4.33855E+04 2.16214E+05 3.56340E-09-3.11047E-10
 -1       456-4.67731E+03-1.17214E+05-2.32294E+04 2.78319E+05 1.48430E-09-2.50157E-09
 -1       457 2.53137E+02-1.11753E+05-1.12929E+04 2.15827E+05 4.16458E-09 3.28782E-10
 -1       458-1.53400E+02-1.13096E+05-7.68844E+03 2.78212E+05 1.46429E-09 7.27596E-11
 -1       459-1.25761E+03-1.11118E+05-7.29132E+03 2.16311E+05 2.95404E-09-4.09273E-10
 -1       460 1.10705E+06 1.29418E+04 4.67946E+04 3.02398E+05-4.32192E-09-1.55705E-09
 -1       461 1.11646E+06 6.08812E+03 2.60258E+04 3.87539E+05-2.88128E-09-1.34241E-09
 -1       462 1.10959E+06 7.25364E+02 1.41323E+04 3.01331E+05 6.04268E-09 8.05812E-10
 -1       463 1.11011E+06 1.60145E+03 1.22869E+04 3.88583E+05-3.40606E-09-1.14960E-09
 -1       464 1.10875E+06 1.32415E+03 1.56607E+04 3.01329E+05-1.11186E-08-4.58749E-09
 -1       465 1.11530E+06 8.19254E+03 3.01338E+04 3.88008E+05-1.83609E-08-3.35422E-09
 -1       466 1.10390E+06 1.68639E+04 5.50943E+04 3.01888E+05-7.81620E-09-2.81034E-09
 -1       467-1.11229E+04 2.64415E+05-3.78094E+04 2.48665E+05 3.26872E-09-4.94765E-10
 -1       468-4.13946E+03 2.55772E+05-1.78657E+04 3.20109E+05-5.82077E-11-1.99020E-09
 -1       469 3.20405E+02 2.60297E+05-4.02725E+03 2.48286E+05 3.33603E-09-2.95404E-09
 -1       470 2.98749E+03 2.62455E+05 6.85352E+03 3.19880E+05 2.61934E-10-9.18590E-10
 -1       471 6.33052E+03 2.58598E+05 1.95920E+04 2.48891E+05 1.18962E-09 4.00178E-11
 -1       472 6.40946E+05 2.51683E+03 7.93484E+03 1.57973E+05-1.12232E-09-1.15506E-09
 -1       473 6.42331E+05 1.52825E+03 5.05849E+03 2.02735E+05 6.59747E-09-3.09228E-11
 -1       474 6.41334E+05 4.97437E+02 3.99576E+03 1.57558E+05-5.63250E-09-1.63527E-09
 -1       475 6.41631E+05 8.51011E+02 5.53926E+03 2.03150E+05-3.91083E-10 1.61344E-09
 -1       476 6.41141E+05 7.11826E+02 9.46880E+03 1.57558E+05-1.01045E-09-7.33053E-10
 -1       477 6.45835E+05 5.32885E+03 2.03046E+04 2.02702E+05-6.18456E-10 7.09406E-11
 -1       478 6.37761E+05 1.15103E+04 3.81766E+04 1.57996E+05 2.35013E-09-1.57115E-09
 -1       479-1.91186E+04-4.23409E+04-6.24030E+04 4.27431E+05 1.97906E-09-1.21145E-09
 -1       480-7.52584E+03-5.70480E+04-3.25377E+04 5.49706E+05 1.09139E-11-2.15186E-09
 -1       481-1.49418E+01-5.01778E+04-1.43811E+04 4.26508E+05-6.73026E-10-2.95586E-10
 -1       482 4.15811E+02-5.11385E+04-6.81022E+03 5.49942E+05-6.40284E-10 1.69894E-09
 -1       483 2.05351E+01-4.98935E+04-2.55260E+03 4.27231E+05 2.53749E-10-3.56522E-10
 -1       484 2.98164E+05 1.26953E+03 3.85843E+03 1.08516E+05-3.47609E-09-1.28421E-09
 -1       485 2.98832E+05 7.95763E+02 2.53300E+03 1.39413E+05-2.73985E-09 7.00311E-10
 -1       486 2.98376E+05 2.75825E+02 2.12904E+03 1.08250E+05-3.33830E-09-1.63800E-09
 -1       487 2.98563E+05 4.62771E+02 3.09740E+03 1.39677E+05 4.16492E-09-3.20142E-10
 -1       488 2.98287E+05 3.86195E+02 5.40288E+03 1.08253E+05 1.00135E-09 2.00089E-11
 -1       489 3.01000E+05 3.03514E+03 1.16586E+04 1.39335E+05-4.10000E-09-6.98492E-10
 -1       490 2.96335E+05 6.60137E+03 2.19540E+04 1.08587E+05 3.35058E-09-5.82531E-10
 -1       491-1.28972E+04-1.48912E+05-4.24950E+04 3.13343E+05-1.57888E-09-4.87489E-10
 -1       492-5.31512E+03-1.58721E+05-2.30152E+04 4.03014E+05 2.98314E-10 1.11959E-09
 -1       493-2.63817E+02-1.53831E+05-1.18386E+04 3.12677E+05-2.78851E-09 1.70940E-09
 -1       494-1.15283E+03-1.55503E+05-9.38858E+03 4.03146E+05 6.29370E-10 6.80302E-10
 -1       495-2.84305E+03-1.52784E+05-1.08036E+04 3.13229E+05-7.68523E-11-1.03500E-09
 -1       496 8.86080E+04 3.25275E+02 9.64432E+02 5.27204E+04 6.02586E-09-1.08002E-10
 -1       497 8.87669E+04 2.19897E+02 7.75818E+02 6.78323E+04 4.57396E-09-5.47516E-10
 -1       498 8.86633E+04 8.03448E+01 8.88040E+02 5.26167E+04-6.95763E-11-4.02451E-10
 -1       499 8.87794E+04 1.58128E+02 1.54706E+03 6.79303E+04-2.73371E-09 1.27784E-10
 -1       500 8.86101E+04 1.46918E+02 2.87800E+03 5.26225E+04 9.85892E-10-1.04001E-09
 -1       501 9.00872E+04 1.58030E+03 6.32325E+03 6.77300E+04 6.60748E-10-1.49885E-09
 -1       502 8.74985E+04 3.56450E+03 1.19642E+04 5.28152E+04 2.59297E-09-5.50699E-10
 -1       503-7.01990E+03-1.44513E+05-2.33856E+04 1.91660E+05-3.39787E-09 1.01136E-09
 -1       504-2.99757E+03-1.49809E+05-1.30660E+04 2.46491E+05 1.43518E-09 6.00267E-10
 -1       505-2.44837E+02-1.47021E+05-7.46220E+03 1.91246E+05 4.82032E-10 4.17458E-10
 -1       506-1.26196E+03-1.48449E+05-7.36324E+03 2.46573E+05-2.15368E-09-8.09223E-10
 -1       507-2.82359E+03-1.46115E+05-1.01234E+04 1.91583E+05-1.47634E-09-5.00222E-11
 -1       508-3.64619E+03-1.49235E+05-1.24881E+04 8.10567E+04 6.43922E-10 6.82121E-11
 -1       509-1.59839E+03-1.51998E+05-7.28982E+03 1.04221E+05-1.96496E-09-1.99407E-10
 -1       510-1.61164E+02-1.50429E+05-4.72505E+03 8.08739E+04 1.75214E-09 6.63931E-10
 -1       511-1.10106E+03-1.51602E+05-5.64864E+03 1.04270E+05 1.98452E-09 4.00178E-11
 -1       512-2.44248E+03-1.49690E+05-8.67175E+03 8.10097E+04 5.85737E-09-2.41471E-10
 -1       513-8.33227E+04 5.34555E+03 2.18967E+04 3.00378E+05 1.09139E-11-1.38243E-10
 -1       514-7.89892E+04 2.24237E+03 1.16375E+04 3.85657E+05 4.72937E-11-1.14960E-09
 -1       515-8.26750E+04-4.61802E+01 5.15086E+03 2.99398E+05-3.63798E-12-5.83896E-10
 -1       516-8.25965E+04 1.85010E+02 2.54024E+03 3.86637E+05 2.27374E-12-1.01500E-09
 -1       517-8.28168E+04-1.35496E+01 9.07112E+02 2.99383E+05 3.72893E-11-8.93124E-10
 -1       518-8.24953E+04-3.22215E+02-2.41651E+02 3.85897E+05 1.47338E-10-2.80124E-10
 -1       519-8.16866E+04-1.10576E+03-1.61061E+03 3.00138E+05-9.45874E-11 6.22094E-10
 -1       520-7.23327E+03-5.78694E+05-2.71767E+04 2.70777E+05-3.91083E-10 8.98581E-10
 -1       521-1.88295E+03-5.85155E+05-1.27631E+04 3.48969E+05-3.67436E-10 1.49953E-09
 -1       522 1.05938E+03-5.81754E+05-2.75735E+03 2.70330E+05 8.18545E-11-2.04545E-09
 -1       523 3.23873E+03-5.80154E+05 5.22876E+03 3.48719E+05 2.18279E-11-2.77214E-09
 -1       524 5.33901E+03-5.82727E+05 1.45891E+04 2.71005E+05 2.38288E-10-2.40834E-09
 -1       525-4.42132E+04-8.51354E+01 1.83877E+03 2.81943E+05-1.63709E-10 5.22050E-10
 -1       526-4.42751E+04 1.36486E+02 1.01519E+03 3.62202E+05-6.14818E-10-8.25821E-10
 -1       527-4.51614E+04 8.71777E+01 3.17770E+02 2.81116E+05-5.27507E-10-1.18052E-09
 -1       528-4.53681E+04 3.04239E+02-7.80834E+01 3.63032E+05 5.68434E-12-2.80852E-09
 -1       529-4.51938E+04 9.50396E+01-6.23219E+02 2.81112E+05 1.69166E-10-6.58474E-10
 -1       530-4.50550E+04-4.30928E+02-1.61900E+03 3.62259E+05-8.00355E-11 1.06229E-09
 -1       531-4.38528E+04-1.51389E+03-3.37342E+03 2.81887E+05 3.52884E-10 1.18598E-09
 -1       532 1.20560E+03-5.81525E+04 2.70384E+03 3.65544E+05 6.07542E-10 1.68984E-09
 -1       533 2.04602E+03-5.82975E+04 5.47492E+03 4.70613E+05 9.82254E-10 4.50200E-10
 -1       534 1.56820E+03-5.88511E+04 1.03556E+04 3.64944E+05 7.89441E-10-2.48929E-09
 -1       535 6.89946E+03-5.32338E+04 2.29120E+04 4.70342E+05 7.31234E-10-1.44064E-09
 -1       536 1.31923E+04-6.17503E+04 4.31646E+04 3.65815E+05 2.25555E-10-1.59343E-09
 -1       537 5.12549E+04 1.36706E+03 6.31217E+03 2.55515E+05-1.27329E-10-8.91305E-11
 -1       538 5.22545E+04 7.30844E+02 3.42983E+03 3.28273E+05 2.78305E-10-2.56478E-10
 -1       539 5.09707E+04 1.09192E+02 1.56973E+03 2.54775E+05 3.49246E-10-3.81988E-10
 -1       540 5.09251E+04 2.78143E+02 8.88919E+02 3.29011E+05-2.55227E-11-4.05635E-10
 -1       541 5.09880E+04 8.11549E+01 5.02434E+02 2.54774E+05-3.56522E-10-3.67436E-10
 -1       542 5.15161E+04 1.59111E+01 4.52375E+02 3.28300E+05-5.31145E-10-5.18412E-10
 -1       543 5.18179E+04-3.50153E+02 4.10431E+02 2.55486E+05 3.27418E-10-7.51243E-10
 -1       544 6.28971E+02-1.76531E+04 4.81787E+02 3.21972E+05 5.64796E-10 4.00178E-10
 -1       545 1.40148E+03-1.81255E+04 2.23936E+03 4.14499E+05-6.25732E-10 3.80624E-10
 -1       546 1.12308E+03-1.82061E+04 4.80644E+03 3.21445E+05 3.34694E-10-2.09911E-09
 -1       547 3.74094E+03-1.54296E+04 1.09452E+04 4.14265E+05-6.62112E-10-1.27329E-09
 -1       548 6.45635E+03-1.92107E+04 2.06626E+04 3.22206E+05 4.07454E-10-1.70257E-09
 -1       549 1.47030E+05 2.52187E+03 1.00966E+04 2.42925E+05 1.46611E-09 4.27463E-10
 -1       550 1.48891E+05 1.20534E+03 5.51695E+03 3.12116E+05-1.41335E-09 8.93124E-10
 -1       551 1.47205E+05 1.19561E+02 2.71932E+03 2.42233E+05-2.34286E-09 4.54747E-10
 -1       552 1.47287E+05 2.77813E+02 1.90072E+03 3.12805E+05-1.25850E-09-1.43700E-09
 -1       553 1.47229E+05 8.94758E+01 1.82801E+03 2.42232E+05-5.00222E-10-6.91216E-10
 -1       554 1.48300E+05 5.95433E+02 3.03235E+03 3.12123E+05 2.17369E-10 1.32786E-10
 -1       555 1.47528E+05 1.07038E+03 5.16992E+03 2.42917E+05 3.16504E-10 4.05635E-10
 -1       556-8.17885E+02-3.94768E+03-5.12348E+03 2.99318E+05-1.42791E-10 5.00222E-10
 -1       557 5.66090E+02-5.58498E+03-2.70707E+03 3.85331E+05-4.62023E-10-5.49790E-10
 -1       558 8.29064E+02-4.74719E+03-1.39834E+03 2.98830E+05-3.87445E-10-1.25056E-09
 -1       559 8.35983E+02-4.76510E+03-1.10252E+03 3.85115E+05 4.36557E-11 2.22190E-09
 -1       560-4.59083E+01-3.77347E+03-1.44017E+03 2.99534E+05-1.09139E-10-1.96451E-10
 -1       561 2.05542E+05 2.81510E+03 1.10623E+04 2.40898E+05-5.56611E-10-1.70803E-09
 -1       562 2.07616E+05 1.32955E+03 6.10841E+03 3.09524E+05 6.82121E-11 5.45697E-11
 -1       563 2.05834E+05 1.22574E+02 3.15919E+03 2.40220E+05 1.38243E-10-2.43745E-10
 -1       564 2.05980E+05 2.86592E+02 2.47595E+03 3.10197E+05 9.39835E-10-6.05723E-10
 -1       565 2.05857E+05 1.01577E+02 2.79156E+03 2.40220E+05-6.18456E-11 2.07365E-10
 -1       566 2.07406E+05 1.06140E+03 5.08599E+03 3.09517E+05-3.05590E-10 1.20781E-09
 -1       567 2.05784E+05 2.19392E+03 9.03251E+03 2.40904E+05-2.51021E-10 6.11180E-10
 -1       568-1.84720E+03 1.05090E+04-9.64316E+03 3.07783E+05 2.61480E-09-2.83762E-10
 -1       569 8.74285E+01 7.83118E+03-7.01207E+03 3.96196E+05 2.41562E-09-6.22094E-10
 -1       570 7.13724E+02 9.46114E+03-7.21148E+03 3.07270E+05 2.75941E-09-2.32467E-09
 -1       571-1.79278E+03 6.75990E+03-1.27166E+04 3.96001E+05 2.39015E-09 1.54523E-09
 -1       572-6.31470E+03 1.25243E+04-2.29416E+04 3.07979E+05 1.81990E-09 1.89175E-10
 -1       573 1.76653E+05 1.33451E+03 6.09098E+03 2.45048E+05 1.81899E-10 3.94721E-10
 -1       574 1.77628E+05 6.98059E+02 3.55983E+03 3.14896E+05 1.95541E-10 9.69521E-10
 -1       575 1.76458E+05 8.06236E+01 2.15302E+03 2.44371E+05 3.54703E-11-3.81988E-10
 -1       576 1.76571E+05 2.59678E+02 2.24257E+03 3.15568E+05 2.97746E-10 1.81899E-11
 -1       577 1.76461E+05 9.50080E+01 3.22587E+03 2.44374E+05 4.47471E-10-1.14596E-10
 -1       578 1.78425E+05 1.38998E+03 6.55652E+03 3.14859E+05-1.63709E-10-1.43700E-10
 -1       579 1.76145E+05 3.02464E+03 1.20270E+04 2.45086E+05 2.54659E-10-1.75169E-09
 -1       580-1.69997E+03 3.11971E+04-1.06421E+04 3.50049E+05-1.38971E-09-8.27640E-10
 -1       581 3.13921E+02 2.81144E+04-9.55828E+03 4.50540E+05-3.60160E-10-2.03727E-10
 -1       582 8.14731E+02 3.01295E+04-1.24699E+04 3.49444E+05-1.57161E-09-1.20781E-09
 -1       583-4.32092E+03 2.46705E+04-2.45675E+04 4.50370E+05-4.83851E-10-1.73804E-09
 -1       584-1.28690E+04 3.56076E+04-4.55597E+04 3.50221E+05-1.51340E-09-1.49885E-09
 -1       585-3.00799E+03-2.27348E+03-6.14846E+03 1.98843E+05-6.33008E-10 1.27875E-09
 -1       586-4.59970E+03-9.34861E+02-3.05238E+03 2.55337E+05 1.09139E-11 2.38470E-09
 -1       587-4.27506E+03-7.89800E+01-1.12601E+03 1.98219E+05 5.03860E-10-9.45874E-10
 -1       588-4.46536E+03 1.06276E+02-4.62288E+01 2.55974E+05 6.18456E-11-1.63709E-11
 -1       589-4.48531E+03 9.64051E+01 9.54895E+02 1.98210E+05 4.96584E-10-8.51287E-10
 -1       590-3.63758E+03 6.92444E+02 2.71951E+03 2.55482E+05 5.99357E-10-1.04774E-09
 -1       591-4.60928E+03 1.38973E+03 5.32530E+03 1.98713E+05-3.52884E-10 3.39242E-10
 -1       592 7.99405E+02 4.93240E+04 3.87264E+02 4.15236E+05-4.35284E-09 1.01863E-10
 -1       593 2.15938E+03 4.83317E+04 2.85192E+03 5.34313E+05-2.22281E-09 6.74845E-10
 -1       594 1.81803E+03 4.81009E+04 6.26488E+03 4.14464E+05-5.07134E-09-2.76896E-09
 -1       595 5.40707E+03 5.15595E+04 1.43308E+04 5.34197E+05-1.85173E-09 2.25918E-09
 -1       596 8.78891E+03 4.68032E+04 2.70329E+04 4.15348E+05-3.28873E-09-1.24419E-09
 -1       597-5.94897E+04-3.13075E+02-3.42946E+02 1.44483E+05 6.73026E-10 2.98314E-10
 -1       598-5.96951E+04-7.94071E+01-3.80711E+02 1.85365E+05 4.72937E-11 1.85719E-09
 -1       599-5.99299E+04 2.92513E+01-6.62942E+02 1.43961E+05-1.55524E-09 1.07411E-09
 -1       600-6.01774E+04 1.10546E+02-1.30610E+03 1.85905E+05-6.06178E-10-3.94721E-10
 -1       601-6.00168E+04 5.99669E+01-2.55437E+03 1.43944E+05-2.92630E-10-1.14323E-09
 -1       602-6.13220E+04-1.19102E+03-5.67971E+03 1.85624E+05-1.97906E-09-2.05819E-09
 -1       603-5.88273E+04-3.14597E+03-1.08235E+04 1.44242E+05 1.74623E-10-1.10231E-09
 -1       604 5.24407E+02-5.24583E+04 4.76808E+03 2.66980E+05 3.00224E-09 2.61934E-10
 -1       605 1.25945E+03-5.17870E+04 1.11577E+04 3.43641E+05 1.39698E-09 1.67347E-10
 -1       606 1.22430E+03-5.34008E+04 2.22532E+04 2.66508E+05 3.81260E-09-8.30823E-10
 -1       607 1.25721E+04-4.16895E+04 4.97912E+04 3.43500E+05 1.41108E-09-1.59616E-09
 -1       608 2.81366E+04-6.20242E+04 9.45525E+04 2.67117E+05 2.14641E-09-1.16415E-09
 -1       609-1.10462E+05-4.98628E+03-1.65314E+04 2.83881E+05-6.33008E-09 6.76664E-10
 -1       610-1.14782E+05-1.39316E+03-8.70619E+03 3.64565E+05-3.07591E-09-3.30328E-09
 -1       611-1.13397E+05 6.03040E+02-4.18123E+03 2.82977E+05 6.32645E-09-1.74987E-09
 -1       612-1.14244E+05 1.13234E+03-2.61774E+03 3.65482E+05-3.63798E-09-2.22644E-09
 -1       613-1.13731E+05 8.59650E+02-2.31831E+03 2.82963E+05-9.55151E-09 2.91038E-11
 -1       614-1.14315E+05 2.56925E+02-3.56631E+03 3.64780E+05-1.57988E-08-2.94676E-10
 -1       615-1.12310E+05-1.44745E+03-6.28683E+03 2.83680E+05-5.17684E-09-1.28057E-09
 -1       616 1.83970E+03 1.07293E+05 9.73275E+03 2.97491E+05 1.49703E-09 4.14730E-10
 -1       617 1.59278E+03 1.09066E+05 1.28900E+04 3.82890E+05 2.07365E-10-7.58973E-10
 -1       618 9.44629E+02 1.06893E+05 2.12281E+04 2.96976E+05 2.13549E-09-4.77485E-10
 -1       619 1.10105E+04 1.17641E+05 4.52541E+04 3.82721E+05 7.63976E-10 3.50155E-10
 -1       620 2.48625E+04 9.94436E+04 8.49328E+04 2.97680E+05 7.27596E-11-8.54925E-10
 -1       621-3.83599E+04 6.09154E+02 1.38529E+03 2.55976E+05-1.22600E-09-1.18598E-09
 -1       622-3.86582E+04 1.04043E+03 8.88798E+02 3.28851E+05 5.91717E-09-2.92857E-09
 -1       623-3.91752E+04 8.05156E+02 5.28688E+02 2.55220E+05-5.82077E-09 6.91216E-11
 -1       624-3.95152E+04 1.23198E+03 5.66460E+02 3.29608E+05-1.32786E-10-7.54881E-10
 -1       625-3.92531E+04 8.61941E+02 7.56948E+02 2.55215E+05-1.54432E-09-1.87356E-10
 -1       626-3.87014E+04 1.29170E+03 1.51154E+03 3.28909E+05 1.95632E-09-2.06091E-09
 -1       627-3.86920E+04 1.10894E+03 2.63370E+03 2.55921E+05 2.92857E-09-2.16642E-09
 -1       628 7.88024E+02-2.00567E+04 5.57629E+03 3.59177E+05 5.41149E-10-6.14818E-10
 -1       629 9.40485E+02-1.92724E+04 7.77402E+03 4.62319E+05-1.32059E-09-1.30967E-10
 -1       630 5.47435E+02-2.06551E+04 1.29721E+04 3.58559E+05 9.14952E-10-6.22094E-10
 -1       631 6.62949E+03-1.37099E+04 2.77727E+04 4.62112E+05-3.81988E-10-4.72937E-11
 -1       632 1.47647E+04-2.45315E+04 5.20099E+04 3.59408E+05 4.04179E-09-1.57888E-09
 -1       633-1.87391E+04 1.62927E+03 4.81062E+03 1.68894E+05-7.57791E-09-9.80435E-10
 -1       634-1.79607E+04 1.11511E+03 2.65899E+03 2.17057E+05-8.82847E-09-1.86628E-09
 -1       635-1.86325E+04 4.71002E+02 1.37423E+03 1.68430E+05-4.73028E-09-6.77574E-10
 -1       636-1.86727E+04 6.60823E+02 1.07496E+03 2.17518E+05-1.53420E-10-1.25874E-09
 -1       637-1.85976E+04 4.44528E+02 1.20446E+03 1.68433E+05 8.30369E-10-1.87356E-10
 -1       638-1.79910E+04 9.58730E+02 2.19146E+03 2.17019E+05-4.04452E-09-1.57706E-09
 -1       639-1.85578E+04 1.29870E+03 3.87783E+03 1.68930E+05 2.47383E-09-1.70076E-10
 -1       640-7.10374E+01-5.87146E+04 1.75727E+03 2.94484E+05-2.18279E-10-1.12777E-10
 -1       641 2.23998E+02-5.85923E+04 3.32076E+03 3.79034E+05 2.87400E-10-2.18279E-11
 -1       642 1.66125E+02-5.92213E+04 6.14177E+03 2.93972E+05 2.25555E-10-3.27873E-10
 -1       643 3.09989E+03-5.57091E+04 1.35139E+04 3.78881E+05 3.05226E-09-1.72713E-09
 -1       644 7.00654E+03-6.09274E+04 2.54165E+04 2.94649E+05-2.65572E-10-1.74623E-10
 -1       645-7.32506E+03 1.60010E+03 5.13106E+03 8.83969E+04 6.43649E-09 6.95763E-10
 -1       646-6.28068E+03 8.23934E+02 2.85185E+03 1.13665E+05 4.24916E-09 1.81899E-11
 -1       647-6.91259E+03 1.79447E+02 1.56833E+03 8.81789E+04-3.27873E-09 2.61025E-10
 -1       648-6.79886E+03 2.46995E+02 1.38330E+03 1.13879E+05-8.24912E-10-1.03046E-09
 -1       649-6.89170E+03 1.68545E+02 1.79159E+03 8.81838E+04 1.65437E-09-3.94721E-10
 -1       650-6.05972E+03 9.40956E+02 3.47933E+03 1.13590E+05-2.00453E-09-1.60344E-09
 -1       651-7.37296E+03 1.91555E+03 6.37014E+03 8.84679E+04 5.03496E-09 3.45153E-10
 -1       652-2.33407E+02-5.90643E+04 1.04047E+02 1.80956E+05-2.55523E-09-8.24912E-10
 -1       653-6.18183E+01-5.91216E+04 8.23192E+02 2.32906E+05-2.40470E-09-3.22416E-10
 -1       654-1.07679E+01-5.92953E+04 1.85196E+03 1.80640E+05-4.55657E-10-2.37378E-10
 -1       655 9.02023E+02-5.81426E+04 4.25424E+03 2.32816E+05-3.32693E-09 1.19371E-09
 -1       656 2.14073E+03-5.97971E+04 8.06639E+03 1.81049E+05-8.90395E-10 1.45519E-11
 -1       657 4.19245E+02-5.39961E+04 1.65710E+03 7.47956E+04 2.45007E-09 3.04226E-10
 -1       658 1.60615E+02-5.36304E+04 1.00512E+03 9.62857E+04 9.44965E-10 6.19593E-11
 -1       659-1.94283E+01-5.38691E+04 7.07810E+02 7.46738E+04 3.13321E-09 4.14047E-10
 -1       660 1.26877E+02-5.36227E+04 9.34426E+02 9.62306E+04 5.62795E-09 2.24395E-09
 -1       661 3.44146E+02-5.39410E+04 1.48995E+03 7.48506E+04 5.31008E-09 7.73070E-10
 -1       662-9.03842E+05-5.57854E+03-1.74756E+04 2.02652E+05 1.52795E-10-3.74712E-10
 -1       663-9.07811E+05-2.37872E+03-1.00605E+04 2.60045E+05-6.36646E-11 3.16504E-10
 -1       664-9.06228E+05-1.45443E+02-6.41796E+03 2.01936E+05 1.20053E-10-1.23691E-10
 -1       665-9.07068E+05-1.20830E+02-7.08083E+03 2.60800E+05 1.51886E-10 2.81943E-10
 -1       666-9.06284E+05-1.75518E+02-1.09052E+04 2.01908E+05-7.04858E-12-7.09406E-11
 -1       667-9.11265E+05-5.21764E+03-2.26065E+04 2.60350E+05 1.01863E-10 2.27374E-10
 -1       668-9.01844E+05-1.25657E+04-4.23164E+04 2.02375E+05-6.18456E-11 3.52884E-10
 -1       669-5.05790E+05-7.00244E+02-2.13393E+03 1.49467E+05 5.09317E-11 3.00133E-11
 -1       670-5.06328E+05-2.35396E+02-1.71752E+03 1.92016E+05-1.11868E-10 9.09495E-11
 -1       671-5.06261E+05 5.77415E+01-2.04515E+03 1.49016E+05 5.45697E-11 1.88265E-10
 -1       672-5.06609E+05-4.36006E-01-3.61454E+03 1.92471E+05 3.78122E-10 3.42880E-10
 -1       673-5.06098E+05-1.26318E+02-6.79750E+03 1.49014E+05-8.18545E-12-1.13687E-10
 -1       674-5.09384E+05-3.53484E+03-1.49610E+04 1.92054E+05-9.09495E-11 4.82032E-11
 -1       675-5.03039E+05-8.49845E+03-2.83987E+04 1.49426E+05-8.00355E-11-1.63709E-11
 -1       676-1.54211E+05 1.97816E+03 6.94894E+03 1.33277E+05-1.18234E-10-5.63887E-10
 -1       677-1.52760E+05 8.87686E+02 3.32809E+03 1.71229E+05-3.27418E-11 1.06411E-10
 -1       678-1.53742E+05 9.13123E+01 7.72379E+02 1.32886E+05-4.54747E-12 1.03682E-10
 -1       679-1.53818E+05 4.76427E+01-1.06376E+03 1.71618E+05-4.74074E-11 1.06411E-10
 -1       680-1.53587E+05-7.81407E+01-3.39083E+03 1.32886E+05-2.07365E-10-1.14596E-10
 -1       681-1.55403E+05-2.01776E+03-8.27028E+03 1.71244E+05-1.45519E-10 6.09361E-11
 -1       682-1.51765E+05-4.87619E+03-1.60563E+04 1.33257E+05-4.36557E-11 4.62023E-10
 -1       683 1.72562E+05 4.86015E+03 1.67982E+04 1.29151E+05-2.00089E-11-9.04038E-10
 -1       684 1.76155E+05 2.10350E+03 8.73842E+03 1.65941E+05-3.79259E-10-9.00400E-11
 -1       685 1.73998E+05 1.34824E+02 3.66421E+03 1.28785E+05-2.00089E-10 4.45652E-11
 -1       686 1.74179E+05 1.05650E+02 1.34420E+03 1.66304E+05-1.85821E-10-4.72937E-11
 -1       687 1.74159E+05-3.66786E+01-4.12056E+02 1.28785E+05-2.09184E-11-2.11003E-10
 -1       688 1.73591E+05-7.51281E+02-2.61509E+03 1.65938E+05 9.09495E-12-5.45697E-12
 -1       689 1.74982E+05-1.86689E+03-5.72369E+03 1.29149E+05-8.36735E-11 3.09228E-11
 -1       690 5.08514E+05 8.14025E+03 2.80476E+04 1.37845E+05-2.49202E-10-5.43878E-10
 -1       691 5.14540E+05 3.49697E+03 1.48687E+04 1.77122E+05-2.39197E-10 5.63887E-11
 -1       692 5.11017E+05 1.94507E+02 6.83648E+03 1.37466E+05 1.39153E-10 2.80124E-10
 -1       693 5.11462E+05 1.79041E+02 3.80762E+03 1.77493E+05 7.38737E-10 1.51886E-10
 -1       694 5.11204E+05-2.31643E-02 2.41607E+03 1.37468E+05 4.63842E-11-3.01952E-10
 -1       695 5.11794E+05 3.85572E+02 2.56038E+03 1.77103E+05 5.45697E-12-8.36735E-11
 -1       696 5.11176E+05 8.21632E+02 3.62810E+03 1.37858E+05-1.05501E-10 2.61934E-10
 -1       697 8.90496E+05 1.21693E+04 4.31177E+04 1.65325E+05 1.70985E-10-4.36557E-10
 -1       698 8.99688E+05 5.19450E+03 2.52297E+04 2.12494E+05 1.01863E-10 7.35781E-10
 -1       699 8.94193E+05 1.29298E+02 1.64085E+04 1.64900E+05-5.00222E-12-4.27463E-11
 -1       700 8.96014E+05 5.84256E+02 1.86532E+04 2.12903E+05 2.45791E-10 6.62112E-10
 -1       701 8.93771E+05 6.08063E+02 2.90131E+04 1.64901E+05 3.71074E-10 5.96629E-10
 -1       702 9.07815E+05 1.39153E+04 6.03412E+04 2.12406E+05-5.38421E-10 1.81899E-10
 -1       703 8.83232E+05 3.28507E+04 1.12781E+05 1.65442E+05-4.03816E-10-1.30240E-09
 -1       704-1.59857E+06-4.14733E+04-1.40851E+05 1.25439E+05-8.09450E-10-4.29281E-10
 -1       705-1.62951E+06-1.76043E+04-7.55381E+04 1.61013E+05-5.12046E-10 3.08501E-09
 -1       706-1.61250E+06-7.92060E+02-3.67366E+04 1.25037E+05 2.12822E-10-2.07365E-10
 -1       707-1.61554E+06-6.32049E+02-2.44352E+04 1.61494E+05 4.49063E-10 7.11225E-10
 -1       708-1.61313E+06-1.53438E+02-2.28518E+04 1.25012E+05 9.48148E-11-1.18234E-09
 -1       709-1.62097E+06-7.75819E+03-3.68568E+04 1.61213E+05 3.87445E-10-2.06137E-09
 -1       710-1.60702E+06-1.84500E+04-6.41471E+04 1.25305E+05-1.15506E-10-1.54250E-09
 -1       711-1.31775E+06-9.86405E+03-3.38393E+04 7.76198E+04 8.24002E-10 1.05524E-09
 -1       712-1.32508E+06-4.15749E+03-1.91085E+04 9.94675E+04 7.43057E-10-1.49339E-09
 -1       713-1.32111E+06-1.19268E+02-1.12446E+04 7.72511E+04-1.21872E-09 1.55251E-09
 -1       714-1.32225E+06-2.40865E+02-1.11174E+04 9.98812E+04-5.29326E-10 1.60571E-09
 -1       715-1.32102E+06-2.46604E+02-1.58689E+04 7.72136E+04-4.04725E-10-3.82443E-10
 -1       716-1.32826E+06-7.27021E+03-3.20129E+04 9.98221E+04-1.91153E-09 8.36849E-10
 -1       717-1.31530E+06-1.73138E+04-5.94140E+04 7.73183E+04 4.61569E-10-4.36557E-10
 -1       718-9.92456E+05-7.74052E+03-2.68856E+04 1.75971E+05-5.78075E-09 3.50246E-09
 -1       719-9.98567E+05-2.88721E+03-1.51194E+04 2.26141E+05-2.99224E-09-8.89486E-10
 -1       720-9.95585E+05 2.93283E+02-8.86903E+03 1.75321E+05 5.43150E-09-9.91349E-10
 -1       721-9.96723E+05 4.26341E+02-8.70261E+03 2.26817E+05-3.79441E-09-1.94632E-10
 -1       722-9.95636E+05 2.74885E+02-1.23930E+04 1.75294E+05-8.60166E-09 2.33103E-09
 -1       723-1.00130E+06-5.10602E+03-2.49742E+04 2.26434E+05-1.35919E-08 1.38243E-09
 -1       724-9.90908E+05-1.32138E+04-4.63949E+04 1.75718E+05-7.54517E-09 2.10275E-09
 -1       725-6.01669E+05-1.64820E+03-6.85247E+03 1.57378E+05-3.27236E-09-8.40373E-10
 -1       726-6.03382E+05-2.37115E+02-4.21570E+03 2.02440E+05 6.85031E-09-3.64344E-09
 -1       727-6.02630E+05 4.89081E+02-3.20250E+03 1.56901E+05-3.28055E-09 1.17325E-09
 -1       728-6.03196E+05 5.78468E+02-4.27551E+03 2.02917E+05 1.80194E-11-8.33097E-10
 -1       729-6.02489E+05 3.30896E+02-7.25520E+03 1.56899E+05 1.76442E-10 8.18545E-10
 -1       730-6.05984E+05-3.05332E+03-1.55095E+04 2.02466E+05 1.26511E-09-1.68711E-09
 -1       731-5.99318E+05-8.30152E+03-2.92509E+04 1.57362E+05 8.42192E-10-5.27507E-10
 -1       732-2.80439E+05 1.19162E+03 3.16992E+03 1.03358E+05-4.03634E-09-3.76531E-10
 -1       733-2.79834E+05 7.59993E+02 1.37091E+03 1.33001E+05-4.86943E-09-1.88265E-09
 -1       734-2.80207E+05 3.14357E+02-1.56200E+01 1.03099E+05-3.34762E-09 5.93900E-10
 -1       735-2.80348E+05 3.27776E+02-1.28664E+03 1.33255E+05-2.44836E-09-3.64707E-10
 -1       736-2.80047E+05 1.57434E+02-3.13643E+03 1.03106E+05-1.90903E-09 8.36735E-11
 -1       737-2.81697E+05-1.47619E+03-7.31535E+03 1.32912E+05-4.24188E-09-6.07542E-10
 -1       738-2.78482E+05-4.02406E+03-1.40675E+04 1.03446E+05 3.19596E-09 9.89530E-10
 -1       739-8.25689E+04 1.81237E+03 5.86098E+03 4.91813E+04 8.48104E-10 7.00766E-10
 -1       740-8.13014E+04 8.46854E+02 3.05758E+03 6.33286E+04-1.06797E-09-9.38599E-10
 -1       741-8.20033E+04 1.23679E+02 1.31172E+03 4.90877E+04 4.16696E-09-7.43057E-10
 -1       742-8.19233E+04 1.22975E+02 5.43497E+02 6.34170E+04 1.78625E-09-2.06273E-09
 -1       743-8.19304E+04 5.40513E+01 8.83054E+00 4.90947E+04 5.65160E-09-1.56297E-09
 -1       744-8.20626E+04-9.46013E+01-5.67450E+02 6.32243E+04 4.16549E-10-1.03864E-09
 -1       745-8.17344E+04-3.76119E+02-1.33412E+03 4.92809E+04 6.97310E-09-8.62201E-10
 -3
 9999
