    1C
    1UUSER                                                              
    1UDATE              11.october.2022                                 
    1UTIME              17:33:38                                        
    1UHOST                                                              
    1UPGM               CalculiX                                        
    1UVERSION           Version 2.20                             
    1UCOMPILETIME       Sun Jul 31 18:08:37 CEST 2022                    
    1UDIR                                                               
    1UDBN                                                               
    1UMAT    1MESH_MATERIAL                                             
    2C                           841                                     1
 -1         1 0.00000E+00 0.00000E+00 0.00000E+00
 -1         2 1.66667E-02 0.00000E+00 0.00000E+00
 -1         3 3.33333E-02 0.00000E+00 0.00000E+00
 -1         4 5.00000E-02 0.00000E+00 0.00000E+00
 -1         5 6.66667E-02 0.00000E+00 0.00000E+00
 -1         8 0.00000E+00 6.25000E-03 0.00000E+00
 -1         9 1.66667E-02 6.25000E-03 0.00000E+00
 -1        10 3.33333E-02 6.25000E-03 0.00000E+00
 -1        11 5.00000E-02 6.25000E-03 0.00000E+00
 -1        12 6.66667E-02 6.25000E-03 0.00000E+00
 -1        15 0.00000E+00 1.25000E-02 0.00000E+00
 -1        16 1.66667E-02 1.25000E-02 0.00000E+00
 -1        17 3.33333E-02 1.25000E-02 0.00000E+00
 -1        18 5.00000E-02 1.25000E-02 0.00000E+00
 -1        19 6.66667E-02 1.25000E-02 0.00000E+00
 -1        20 8.33333E-02 1.25000E-02 0.00000E+00
 -1        21 1.00000E-01 1.25000E-02 0.00000E+00
 -1        22 0.00000E+00 1.87500E-02 0.00000E+00
 -1        23 1.66667E-02 1.87500E-02 0.00000E+00
 -1        24 3.33333E-02 1.87500E-02 0.00000E+00
 -1        25 5.00000E-02 1.87500E-02 0.00000E+00
 -1        26 6.66667E-02 1.87500E-02 0.00000E+00
 -1        27 8.33333E-02 1.87500E-02 0.00000E+00
 -1        28 1.00000E-01 1.87500E-02 0.00000E+00
 -1        29 0.00000E+00 2.50000E-02 0.00000E+00
 -1        30 1.66667E-02 2.50000E-02 0.00000E+00
 -1        31 3.33333E-02 2.50000E-02 0.00000E+00
 -1        32 5.00000E-02 2.50000E-02 0.00000E+00
 -1        33 6.66667E-02 2.50000E-02 0.00000E+00
 -1        34 8.33333E-02 2.50000E-02 0.00000E+00
 -1        35 1.00000E-01 2.50000E-02 0.00000E+00
 -1        36 1.04167E-03 0.00000E+00 0.00000E+00
 -1        37 2.08333E-03 0.00000E+00 0.00000E+00
 -1        38 3.12500E-03 0.00000E+00 0.00000E+00
 -1        39 4.16667E-03 0.00000E+00 0.00000E+00
 -1        40 5.20833E-03 0.00000E+00 0.00000E+00
 -1        41 6.25000E-03 0.00000E+00 0.00000E+00
 -1        42 7.29167E-03 0.00000E+00 0.00000E+00
 -1        43 8.33333E-03 0.00000E+00 0.00000E+00
 -1        44 9.37500E-03 0.00000E+00 0.00000E+00
 -1        45 1.04167E-02 0.00000E+00 0.00000E+00
 -1        46 1.14583E-02 0.00000E+00 0.00000E+00
 -1        47 1.25000E-02 0.00000E+00 0.00000E+00
 -1        48 1.35417E-02 0.00000E+00 0.00000E+00
 -1        49 1.45833E-02 0.00000E+00 0.00000E+00
 -1        50 1.56250E-02 0.00000E+00 0.00000E+00
 -1        51 0.00000E+00 1.04167E-03 0.00000E+00
 -1        52 0.00000E+00 2.08333E-03 0.00000E+00
 -1        53 0.00000E+00 3.12500E-03 0.00000E+00
 -1        54 0.00000E+00 4.16667E-03 0.00000E+00
 -1        55 0.00000E+00 5.20833E-03 0.00000E+00
 -1        56 1.04167E-03 3.90630E-04 0.00000E+00
 -1        57 2.08333E-03 7.81250E-04 0.00000E+00
 -1        58 3.12500E-03 1.17188E-03 0.00000E+00
 -1        59 4.16667E-03 1.56250E-03 0.00000E+00
 -1        60 5.20833E-03 1.95312E-03 0.00000E+00
 -1        61 6.25000E-03 2.34375E-03 0.00000E+00
 -1        62 7.29167E-03 2.73438E-03 0.00000E+00
 -1        63 8.33333E-03 3.12500E-03 0.00000E+00
 -1        64 9.37500E-03 3.51563E-03 0.00000E+00
 -1        65 1.04167E-02 3.90625E-03 0.00000E+00
 -1        66 1.14583E-02 4.29688E-03 0.00000E+00
 -1        67 1.25000E-02 4.68750E-03 0.00000E+00
 -1        68 1.35417E-02 5.07813E-03 0.00000E+00
 -1        69 1.45833E-02 5.46875E-03 0.00000E+00
 -1        70 1.56250E-02 5.85938E-03 0.00000E+00
 -1        71 1.77083E-02 0.00000E+00 0.00000E+00
 -1        72 1.87500E-02 0.00000E+00 0.00000E+00
 -1        73 1.97917E-02 0.00000E+00 0.00000E+00
 -1        74 2.08333E-02 0.00000E+00 0.00000E+00
 -1        75 2.18750E-02 0.00000E+00 0.00000E+00
 -1        76 2.29167E-02 0.00000E+00 0.00000E+00
 -1        77 2.39583E-02 0.00000E+00 0.00000E+00
 -1        78 2.50000E-02 0.00000E+00 0.00000E+00
 -1        79 2.60417E-02 0.00000E+00 0.00000E+00
 -1        80 2.70833E-02 0.00000E+00 0.00000E+00
 -1        81 2.81250E-02 0.00000E+00 0.00000E+00
 -1        82 2.91667E-02 0.00000E+00 0.00000E+00
 -1        83 3.02083E-02 0.00000E+00 0.00000E+00
 -1        84 3.12500E-02 0.00000E+00 0.00000E+00
 -1        85 3.22917E-02 0.00000E+00 0.00000E+00
 -1        86 1.66667E-02 1.04167E-03 0.00000E+00
 -1        87 1.66667E-02 2.08333E-03 0.00000E+00
 -1        88 1.66667E-02 3.12500E-03 0.00000E+00
 -1        89 1.66667E-02 4.16667E-03 0.00000E+00
 -1        90 1.66667E-02 5.20833E-03 0.00000E+00
 -1        91 1.77083E-02 3.90630E-04 0.00000E+00
 -1        92 1.87500E-02 7.81250E-04 0.00000E+00
 -1        93 1.97917E-02 1.17188E-03 0.00000E+00
 -1        94 2.08333E-02 1.56250E-03 0.00000E+00
 -1        95 2.18750E-02 1.95312E-03 0.00000E+00
 -1        96 2.29167E-02 2.34375E-03 0.00000E+00
 -1        97 2.39583E-02 2.73438E-03 0.00000E+00
 -1        98 2.50000E-02 3.12500E-03 0.00000E+00
 -1        99 2.60417E-02 3.51563E-03 0.00000E+00
 -1       100 2.70833E-02 3.90625E-03 0.00000E+00
 -1       101 2.81250E-02 4.29688E-03 0.00000E+00
 -1       102 2.91667E-02 4.68750E-03 0.00000E+00
 -1       103 3.02083E-02 5.07813E-03 0.00000E+00
 -1       104 3.12500E-02 5.46875E-03 0.00000E+00
 -1       105 3.22917E-02 5.85938E-03 0.00000E+00
 -1       106 3.43750E-02 0.00000E+00 0.00000E+00
 -1       107 3.54167E-02 0.00000E+00 0.00000E+00
 -1       108 3.64583E-02 0.00000E+00 0.00000E+00
 -1       109 3.75000E-02 0.00000E+00 0.00000E+00
 -1       110 3.85417E-02 0.00000E+00 0.00000E+00
 -1       111 3.95833E-02 0.00000E+00 0.00000E+00
 -1       112 4.06250E-02 0.00000E+00 0.00000E+00
 -1       113 4.16667E-02 0.00000E+00 0.00000E+00
 -1       114 4.27083E-02 0.00000E+00 0.00000E+00
 -1       115 4.37500E-02 0.00000E+00 0.00000E+00
 -1       116 4.47917E-02 0.00000E+00 0.00000E+00
 -1       117 4.58333E-02 0.00000E+00 0.00000E+00
 -1       118 4.68750E-02 0.00000E+00 0.00000E+00
 -1       119 4.79167E-02 0.00000E+00 0.00000E+00
 -1       120 4.89583E-02 0.00000E+00 0.00000E+00
 -1       121 3.33333E-02 1.04167E-03 0.00000E+00
 -1       122 3.33333E-02 2.08333E-03 0.00000E+00
 -1       123 3.33333E-02 3.12500E-03 0.00000E+00
 -1       124 3.33333E-02 4.16667E-03 0.00000E+00
 -1       125 3.33333E-02 5.20833E-03 0.00000E+00
 -1       126 3.43750E-02 3.90630E-04 0.00000E+00
 -1       127 3.54167E-02 7.81250E-04 0.00000E+00
 -1       128 3.64583E-02 1.17188E-03 0.00000E+00
 -1       129 3.75000E-02 1.56250E-03 0.00000E+00
 -1       130 3.85417E-02 1.95312E-03 0.00000E+00
 -1       131 3.95833E-02 2.34375E-03 0.00000E+00
 -1       132 4.06250E-02 2.73438E-03 0.00000E+00
 -1       133 4.16667E-02 3.12500E-03 0.00000E+00
 -1       134 4.27083E-02 3.51563E-03 0.00000E+00
 -1       135 4.37500E-02 3.90625E-03 0.00000E+00
 -1       136 4.47917E-02 4.29688E-03 0.00000E+00
 -1       137 4.58333E-02 4.68750E-03 0.00000E+00
 -1       138 4.68750E-02 5.07813E-03 0.00000E+00
 -1       139 4.79167E-02 5.46875E-03 0.00000E+00
 -1       140 4.89583E-02 5.85938E-03 0.00000E+00
 -1       141 5.10417E-02 0.00000E+00 0.00000E+00
 -1       142 5.20833E-02 0.00000E+00 0.00000E+00
 -1       143 5.31250E-02 0.00000E+00 0.00000E+00
 -1       144 5.41667E-02 0.00000E+00 0.00000E+00
 -1       145 5.52083E-02 0.00000E+00 0.00000E+00
 -1       146 5.62500E-02 0.00000E+00 0.00000E+00
 -1       147 5.72917E-02 0.00000E+00 0.00000E+00
 -1       148 5.83333E-02 0.00000E+00 0.00000E+00
 -1       149 5.93750E-02 0.00000E+00 0.00000E+00
 -1       150 6.04167E-02 0.00000E+00 0.00000E+00
 -1       151 6.14583E-02 0.00000E+00 0.00000E+00
 -1       152 6.25000E-02 0.00000E+00 0.00000E+00
 -1       153 6.35417E-02 0.00000E+00 0.00000E+00
 -1       154 6.45833E-02 0.00000E+00 0.00000E+00
 -1       155 6.56250E-02 0.00000E+00 0.00000E+00
 -1       156 5.00000E-02 1.04167E-03 0.00000E+00
 -1       157 5.00000E-02 2.08333E-03 0.00000E+00
 -1       158 5.00000E-02 3.12500E-03 0.00000E+00
 -1       159 5.00000E-02 4.16667E-03 0.00000E+00
 -1       160 5.00000E-02 5.20833E-03 0.00000E+00
 -1       161 5.10417E-02 3.90630E-04 0.00000E+00
 -1       162 5.20833E-02 7.81250E-04 0.00000E+00
 -1       163 5.31250E-02 1.17188E-03 0.00000E+00
 -1       164 5.41667E-02 1.56250E-03 0.00000E+00
 -1       165 5.52083E-02 1.95312E-03 0.00000E+00
 -1       166 5.62500E-02 2.34375E-03 0.00000E+00
 -1       167 5.72917E-02 2.73438E-03 0.00000E+00
 -1       168 5.83333E-02 3.12500E-03 0.00000E+00
 -1       169 5.93750E-02 3.51563E-03 0.00000E+00
 -1       170 6.04167E-02 3.90625E-03 0.00000E+00
 -1       171 6.14583E-02 4.29688E-03 0.00000E+00
 -1       172 6.25000E-02 4.68750E-03 0.00000E+00
 -1       173 6.35417E-02 5.07813E-03 0.00000E+00
 -1       174 6.45833E-02 5.46875E-03 0.00000E+00
 -1       175 6.56250E-02 5.85938E-03 0.00000E+00
 -1       191 6.66667E-02 1.04167E-03 0.00000E+00
 -1       192 6.66667E-02 2.08333E-03 0.00000E+00
 -1       193 6.66667E-02 3.12500E-03 0.00000E+00
 -1       194 6.66667E-02 4.16667E-03 0.00000E+00
 -1       195 6.66667E-02 5.20833E-03 0.00000E+00
 -1       251 1.04167E-03 6.25000E-03 0.00000E+00
 -1       252 2.08333E-03 6.25000E-03 0.00000E+00
 -1       253 3.12500E-03 6.25000E-03 0.00000E+00
 -1       254 4.16667E-03 6.25000E-03 0.00000E+00
 -1       255 5.20833E-03 6.25000E-03 0.00000E+00
 -1       256 6.25000E-03 6.25000E-03 0.00000E+00
 -1       257 7.29167E-03 6.25000E-03 0.00000E+00
 -1       258 8.33333E-03 6.25000E-03 0.00000E+00
 -1       259 9.37500E-03 6.25000E-03 0.00000E+00
 -1       260 1.04167E-02 6.25000E-03 0.00000E+00
 -1       261 1.14583E-02 6.25000E-03 0.00000E+00
 -1       262 1.25000E-02 6.25000E-03 0.00000E+00
 -1       263 1.35417E-02 6.25000E-03 0.00000E+00
 -1       264 1.45833E-02 6.25000E-03 0.00000E+00
 -1       265 1.56250E-02 6.25000E-03 0.00000E+00
 -1       266 0.00000E+00 7.29167E-03 0.00000E+00
 -1       267 0.00000E+00 8.33333E-03 0.00000E+00
 -1       268 0.00000E+00 9.37500E-03 0.00000E+00
 -1       269 0.00000E+00 1.04167E-02 0.00000E+00
 -1       270 0.00000E+00 1.14583E-02 0.00000E+00
 -1       271 1.04167E-03 6.64063E-03 0.00000E+00
 -1       272 2.08333E-03 7.03125E-03 0.00000E+00
 -1       273 3.12500E-03 7.42188E-03 0.00000E+00
 -1       274 4.16667E-03 7.81250E-03 0.00000E+00
 -1       275 5.20833E-03 8.20313E-03 0.00000E+00
 -1       276 6.25000E-03 8.59375E-03 0.00000E+00
 -1       277 7.29167E-03 8.98438E-03 0.00000E+00
 -1       278 8.33333E-03 9.37500E-03 0.00000E+00
 -1       279 9.37500E-03 9.76562E-03 0.00000E+00
 -1       280 1.04167E-02 1.01562E-02 0.00000E+00
 -1       281 1.14583E-02 1.05469E-02 0.00000E+00
 -1       282 1.25000E-02 1.09375E-02 0.00000E+00
 -1       283 1.35417E-02 1.13281E-02 0.00000E+00
 -1       284 1.45833E-02 1.17188E-02 0.00000E+00
 -1       285 1.56250E-02 1.21094E-02 0.00000E+00
 -1       286 1.77083E-02 6.25000E-03 0.00000E+00
 -1       287 1.87500E-02 6.25000E-03 0.00000E+00
 -1       288 1.97917E-02 6.25000E-03 0.00000E+00
 -1       289 2.08333E-02 6.25000E-03 0.00000E+00
 -1       290 2.18750E-02 6.25000E-03 0.00000E+00
 -1       291 2.29167E-02 6.25000E-03 0.00000E+00
 -1       292 2.39583E-02 6.25000E-03 0.00000E+00
 -1       293 2.50000E-02 6.25000E-03 0.00000E+00
 -1       294 2.60417E-02 6.25000E-03 0.00000E+00
 -1       295 2.70833E-02 6.25000E-03 0.00000E+00
 -1       296 2.81250E-02 6.25000E-03 0.00000E+00
 -1       297 2.91667E-02 6.25000E-03 0.00000E+00
 -1       298 3.02083E-02 6.25000E-03 0.00000E+00
 -1       299 3.12500E-02 6.25000E-03 0.00000E+00
 -1       300 3.22917E-02 6.25000E-03 0.00000E+00
 -1       301 1.66667E-02 7.29167E-03 0.00000E+00
 -1       302 1.66667E-02 8.33333E-03 0.00000E+00
 -1       303 1.66667E-02 9.37500E-03 0.00000E+00
 -1       304 1.66667E-02 1.04167E-02 0.00000E+00
 -1       305 1.66667E-02 1.14583E-02 0.00000E+00
 -1       306 1.77083E-02 6.64063E-03 0.00000E+00
 -1       307 1.87500E-02 7.03125E-03 0.00000E+00
 -1       308 1.97917E-02 7.42188E-03 0.00000E+00
 -1       309 2.08333E-02 7.81250E-03 0.00000E+00
 -1       310 2.18750E-02 8.20313E-03 0.00000E+00
 -1       311 2.29167E-02 8.59375E-03 0.00000E+00
 -1       312 2.39583E-02 8.98438E-03 0.00000E+00
 -1       313 2.50000E-02 9.37500E-03 0.00000E+00
 -1       314 2.60417E-02 9.76562E-03 0.00000E+00
 -1       315 2.70833E-02 1.01562E-02 0.00000E+00
 -1       316 2.81250E-02 1.05469E-02 0.00000E+00
 -1       317 2.91667E-02 1.09375E-02 0.00000E+00
 -1       318 3.02083E-02 1.13281E-02 0.00000E+00
 -1       319 3.12500E-02 1.17188E-02 0.00000E+00
 -1       320 3.22917E-02 1.21094E-02 0.00000E+00
 -1       321 3.43750E-02 6.25000E-03 0.00000E+00
 -1       322 3.54167E-02 6.25000E-03 0.00000E+00
 -1       323 3.64583E-02 6.25000E-03 0.00000E+00
 -1       324 3.75000E-02 6.25000E-03 0.00000E+00
 -1       325 3.85417E-02 6.25000E-03 0.00000E+00
 -1       326 3.95833E-02 6.25000E-03 0.00000E+00
 -1       327 4.06250E-02 6.25000E-03 0.00000E+00
 -1       328 4.16667E-02 6.25000E-03 0.00000E+00
 -1       329 4.27083E-02 6.25000E-03 0.00000E+00
 -1       330 4.37500E-02 6.25000E-03 0.00000E+00
 -1       331 4.47917E-02 6.25000E-03 0.00000E+00
 -1       332 4.58333E-02 6.25000E-03 0.00000E+00
 -1       333 4.68750E-02 6.25000E-03 0.00000E+00
 -1       334 4.79167E-02 6.25000E-03 0.00000E+00
 -1       335 4.89583E-02 6.25000E-03 0.00000E+00
 -1       336 3.33333E-02 7.29167E-03 0.00000E+00
 -1       337 3.33333E-02 8.33333E-03 0.00000E+00
 -1       338 3.33333E-02 9.37500E-03 0.00000E+00
 -1       339 3.33333E-02 1.04167E-02 0.00000E+00
 -1       340 3.33333E-02 1.14583E-02 0.00000E+00
 -1       341 3.43750E-02 6.64063E-03 0.00000E+00
 -1       342 3.54167E-02 7.03125E-03 0.00000E+00
 -1       343 3.64583E-02 7.42188E-03 0.00000E+00
 -1       344 3.75000E-02 7.81250E-03 0.00000E+00
 -1       345 3.85417E-02 8.20313E-03 0.00000E+00
 -1       346 3.95833E-02 8.59375E-03 0.00000E+00
 -1       347 4.06250E-02 8.98438E-03 0.00000E+00
 -1       348 4.16667E-02 9.37500E-03 0.00000E+00
 -1       349 4.27083E-02 9.76562E-03 0.00000E+00
 -1       350 4.37500E-02 1.01562E-02 0.00000E+00
 -1       351 4.47917E-02 1.05469E-02 0.00000E+00
 -1       352 4.58333E-02 1.09375E-02 0.00000E+00
 -1       353 4.68750E-02 1.13281E-02 0.00000E+00
 -1       354 4.79167E-02 1.17188E-02 0.00000E+00
 -1       355 4.89583E-02 1.21094E-02 0.00000E+00
 -1       356 5.10417E-02 6.25000E-03 0.00000E+00
 -1       357 5.20833E-02 6.25000E-03 0.00000E+00
 -1       358 5.31250E-02 6.25000E-03 0.00000E+00
 -1       359 5.41667E-02 6.25000E-03 0.00000E+00
 -1       360 5.52083E-02 6.25000E-03 0.00000E+00
 -1       361 5.62500E-02 6.25000E-03 0.00000E+00
 -1       362 5.72917E-02 6.25000E-03 0.00000E+00
 -1       363 5.83333E-02 6.25000E-03 0.00000E+00
 -1       364 5.93750E-02 6.25000E-03 0.00000E+00
 -1       365 6.04167E-02 6.25000E-03 0.00000E+00
 -1       366 6.14583E-02 6.25000E-03 0.00000E+00
 -1       367 6.25000E-02 6.25000E-03 0.00000E+00
 -1       368 6.35417E-02 6.25000E-03 0.00000E+00
 -1       369 6.45833E-02 6.25000E-03 0.00000E+00
 -1       370 6.56250E-02 6.25000E-03 0.00000E+00
 -1       371 5.00000E-02 7.29167E-03 0.00000E+00
 -1       372 5.00000E-02 8.33333E-03 0.00000E+00
 -1       373 5.00000E-02 9.37500E-03 0.00000E+00
 -1       374 5.00000E-02 1.04167E-02 0.00000E+00
 -1       375 5.00000E-02 1.14583E-02 0.00000E+00
 -1       376 5.10417E-02 6.64063E-03 0.00000E+00
 -1       377 5.20833E-02 7.03125E-03 0.00000E+00
 -1       378 5.31250E-02 7.42188E-03 0.00000E+00
 -1       379 5.41667E-02 7.81250E-03 0.00000E+00
 -1       380 5.52083E-02 8.20313E-03 0.00000E+00
 -1       381 5.62500E-02 8.59375E-03 0.00000E+00
 -1       382 5.72917E-02 8.98438E-03 0.00000E+00
 -1       383 5.83333E-02 9.37500E-03 0.00000E+00
 -1       384 5.93750E-02 9.76562E-03 0.00000E+00
 -1       385 6.04167E-02 1.01562E-02 0.00000E+00
 -1       386 6.14583E-02 1.05469E-02 0.00000E+00
 -1       387 6.25000E-02 1.09375E-02 0.00000E+00
 -1       388 6.35417E-02 1.13281E-02 0.00000E+00
 -1       389 6.45833E-02 1.17188E-02 0.00000E+00
 -1       390 6.56250E-02 1.21094E-02 0.00000E+00
 -1       406 6.66667E-02 7.29167E-03 0.00000E+00
 -1       407 6.66667E-02 8.33333E-03 0.00000E+00
 -1       408 6.66667E-02 9.37500E-03 0.00000E+00
 -1       409 6.66667E-02 1.04167E-02 0.00000E+00
 -1       410 6.66667E-02 1.14583E-02 0.00000E+00
 -1       466 1.04167E-03 1.25000E-02 0.00000E+00
 -1       467 2.08333E-03 1.25000E-02 0.00000E+00
 -1       468 3.12500E-03 1.25000E-02 0.00000E+00
 -1       469 4.16667E-03 1.25000E-02 0.00000E+00
 -1       470 5.20833E-03 1.25000E-02 0.00000E+00
 -1       471 6.25000E-03 1.25000E-02 0.00000E+00
 -1       472 7.29167E-03 1.25000E-02 0.00000E+00
 -1       473 8.33333E-03 1.25000E-02 0.00000E+00
 -1       474 9.37500E-03 1.25000E-02 0.00000E+00
 -1       475 1.04167E-02 1.25000E-02 0.00000E+00
 -1       476 1.14583E-02 1.25000E-02 0.00000E+00
 -1       477 1.25000E-02 1.25000E-02 0.00000E+00
 -1       478 1.35417E-02 1.25000E-02 0.00000E+00
 -1       479 1.45833E-02 1.25000E-02 0.00000E+00
 -1       480 1.56250E-02 1.25000E-02 0.00000E+00
 -1       481 0.00000E+00 1.35417E-02 0.00000E+00
 -1       482 0.00000E+00 1.45833E-02 0.00000E+00
 -1       483 0.00000E+00 1.56250E-02 0.00000E+00
 -1       484 0.00000E+00 1.66667E-02 0.00000E+00
 -1       485 0.00000E+00 1.77083E-02 0.00000E+00
 -1       486 1.04167E-03 1.28906E-02 0.00000E+00
 -1       487 2.08333E-03 1.32813E-02 0.00000E+00
 -1       488 3.12500E-03 1.36719E-02 0.00000E+00
 -1       489 4.16667E-03 1.40625E-02 0.00000E+00
 -1       490 5.20833E-03 1.44531E-02 0.00000E+00
 -1       491 6.25000E-03 1.48437E-02 0.00000E+00
 -1       492 7.29167E-03 1.52344E-02 0.00000E+00
 -1       493 8.33333E-03 1.56250E-02 0.00000E+00
 -1       494 9.37500E-03 1.60156E-02 0.00000E+00
 -1       495 1.04167E-02 1.64062E-02 0.00000E+00
 -1       496 1.14583E-02 1.67969E-02 0.00000E+00
 -1       497 1.25000E-02 1.71875E-02 0.00000E+00
 -1       498 1.35417E-02 1.75781E-02 0.00000E+00
 -1       499 1.45833E-02 1.79687E-02 0.00000E+00
 -1       500 1.56250E-02 1.83594E-02 0.00000E+00
 -1       501 1.77083E-02 1.25000E-02 0.00000E+00
 -1       502 1.87500E-02 1.25000E-02 0.00000E+00
 -1       503 1.97917E-02 1.25000E-02 0.00000E+00
 -1       504 2.08333E-02 1.25000E-02 0.00000E+00
 -1       505 2.18750E-02 1.25000E-02 0.00000E+00
 -1       506 2.29167E-02 1.25000E-02 0.00000E+00
 -1       507 2.39583E-02 1.25000E-02 0.00000E+00
 -1       508 2.50000E-02 1.25000E-02 0.00000E+00
 -1       509 2.60417E-02 1.25000E-02 0.00000E+00
 -1       510 2.70833E-02 1.25000E-02 0.00000E+00
 -1       511 2.81250E-02 1.25000E-02 0.00000E+00
 -1       512 2.91667E-02 1.25000E-02 0.00000E+00
 -1       513 3.02083E-02 1.25000E-02 0.00000E+00
 -1       514 3.12500E-02 1.25000E-02 0.00000E+00
 -1       515 3.22917E-02 1.25000E-02 0.00000E+00
 -1       516 1.66667E-02 1.35417E-02 0.00000E+00
 -1       517 1.66667E-02 1.45833E-02 0.00000E+00
 -1       518 1.66667E-02 1.56250E-02 0.00000E+00
 -1       519 1.66667E-02 1.66667E-02 0.00000E+00
 -1       520 1.66667E-02 1.77083E-02 0.00000E+00
 -1       521 1.77083E-02 1.28906E-02 0.00000E+00
 -1       522 1.87500E-02 1.32813E-02 0.00000E+00
 -1       523 1.97917E-02 1.36719E-02 0.00000E+00
 -1       524 2.08333E-02 1.40625E-02 0.00000E+00
 -1       525 2.18750E-02 1.44531E-02 0.00000E+00
 -1       526 2.29167E-02 1.48437E-02 0.00000E+00
 -1       527 2.39583E-02 1.52344E-02 0.00000E+00
 -1       528 2.50000E-02 1.56250E-02 0.00000E+00
 -1       529 2.60417E-02 1.60156E-02 0.00000E+00
 -1       530 2.70833E-02 1.64062E-02 0.00000E+00
 -1       531 2.81250E-02 1.67969E-02 0.00000E+00
 -1       532 2.91667E-02 1.71875E-02 0.00000E+00
 -1       533 3.02083E-02 1.75781E-02 0.00000E+00
 -1       534 3.12500E-02 1.79687E-02 0.00000E+00
 -1       535 3.22917E-02 1.83594E-02 0.00000E+00
 -1       536 3.43750E-02 1.25000E-02 0.00000E+00
 -1       537 3.54167E-02 1.25000E-02 0.00000E+00
 -1       538 3.64583E-02 1.25000E-02 0.00000E+00
 -1       539 3.75000E-02 1.25000E-02 0.00000E+00
 -1       540 3.85417E-02 1.25000E-02 0.00000E+00
 -1       541 3.95833E-02 1.25000E-02 0.00000E+00
 -1       542 4.06250E-02 1.25000E-02 0.00000E+00
 -1       543 4.16667E-02 1.25000E-02 0.00000E+00
 -1       544 4.27083E-02 1.25000E-02 0.00000E+00
 -1       545 4.37500E-02 1.25000E-02 0.00000E+00
 -1       546 4.47917E-02 1.25000E-02 0.00000E+00
 -1       547 4.58333E-02 1.25000E-02 0.00000E+00
 -1       548 4.68750E-02 1.25000E-02 0.00000E+00
 -1       549 4.79167E-02 1.25000E-02 0.00000E+00
 -1       550 4.89583E-02 1.25000E-02 0.00000E+00
 -1       551 3.33333E-02 1.35417E-02 0.00000E+00
 -1       552 3.33333E-02 1.45833E-02 0.00000E+00
 -1       553 3.33333E-02 1.56250E-02 0.00000E+00
 -1       554 3.33333E-02 1.66667E-02 0.00000E+00
 -1       555 3.33333E-02 1.77083E-02 0.00000E+00
 -1       556 3.43750E-02 1.28906E-02 0.00000E+00
 -1       557 3.54167E-02 1.32813E-02 0.00000E+00
 -1       558 3.64583E-02 1.36719E-02 0.00000E+00
 -1       559 3.75000E-02 1.40625E-02 0.00000E+00
 -1       560 3.85417E-02 1.44531E-02 0.00000E+00
 -1       561 3.95833E-02 1.48437E-02 0.00000E+00
 -1       562 4.06250E-02 1.52344E-02 0.00000E+00
 -1       563 4.16667E-02 1.56250E-02 0.00000E+00
 -1       564 4.27083E-02 1.60156E-02 0.00000E+00
 -1       565 4.37500E-02 1.64062E-02 0.00000E+00
 -1       566 4.47917E-02 1.67969E-02 0.00000E+00
 -1       567 4.58333E-02 1.71875E-02 0.00000E+00
 -1       568 4.68750E-02 1.75781E-02 0.00000E+00
 -1       569 4.79167E-02 1.79687E-02 0.00000E+00
 -1       570 4.89583E-02 1.83594E-02 0.00000E+00
 -1       571 5.10417E-02 1.25000E-02 0.00000E+00
 -1       572 5.20833E-02 1.25000E-02 0.00000E+00
 -1       573 5.31250E-02 1.25000E-02 0.00000E+00
 -1       574 5.41667E-02 1.25000E-02 0.00000E+00
 -1       575 5.52083E-02 1.25000E-02 0.00000E+00
 -1       576 5.62500E-02 1.25000E-02 0.00000E+00
 -1       577 5.72917E-02 1.25000E-02 0.00000E+00
 -1       578 5.83333E-02 1.25000E-02 0.00000E+00
 -1       579 5.93750E-02 1.25000E-02 0.00000E+00
 -1       580 6.04167E-02 1.25000E-02 0.00000E+00
 -1       581 6.14583E-02 1.25000E-02 0.00000E+00
 -1       582 6.25000E-02 1.25000E-02 0.00000E+00
 -1       583 6.35417E-02 1.25000E-02 0.00000E+00
 -1       584 6.45833E-02 1.25000E-02 0.00000E+00
 -1       585 6.56250E-02 1.25000E-02 0.00000E+00
 -1       586 5.00000E-02 1.35417E-02 0.00000E+00
 -1       587 5.00000E-02 1.45833E-02 0.00000E+00
 -1       588 5.00000E-02 1.56250E-02 0.00000E+00
 -1       589 5.00000E-02 1.66667E-02 0.00000E+00
 -1       590 5.00000E-02 1.77083E-02 0.00000E+00
 -1       591 5.10417E-02 1.28906E-02 0.00000E+00
 -1       592 5.20833E-02 1.32813E-02 0.00000E+00
 -1       593 5.31250E-02 1.36719E-02 0.00000E+00
 -1       594 5.41667E-02 1.40625E-02 0.00000E+00
 -1       595 5.52083E-02 1.44531E-02 0.00000E+00
 -1       596 5.62500E-02 1.48437E-02 0.00000E+00
 -1       597 5.72917E-02 1.52344E-02 0.00000E+00
 -1       598 5.83333E-02 1.56250E-02 0.00000E+00
 -1       599 5.93750E-02 1.60156E-02 0.00000E+00
 -1       600 6.04167E-02 1.64062E-02 0.00000E+00
 -1       601 6.14583E-02 1.67969E-02 0.00000E+00
 -1       602 6.25000E-02 1.71875E-02 0.00000E+00
 -1       603 6.35417E-02 1.75781E-02 0.00000E+00
 -1       604 6.45833E-02 1.79687E-02 0.00000E+00
 -1       605 6.56250E-02 1.83594E-02 0.00000E+00
 -1       606 6.77083E-02 1.25000E-02 0.00000E+00
 -1       607 6.87500E-02 1.25000E-02 0.00000E+00
 -1       608 6.97917E-02 1.25000E-02 0.00000E+00
 -1       609 7.08333E-02 1.25000E-02 0.00000E+00
 -1       610 7.18750E-02 1.25000E-02 0.00000E+00
 -1       611 7.29167E-02 1.25000E-02 0.00000E+00
 -1       612 7.39583E-02 1.25000E-02 0.00000E+00
 -1       613 7.50000E-02 1.25000E-02 0.00000E+00
 -1       614 7.60417E-02 1.25000E-02 0.00000E+00
 -1       615 7.70833E-02 1.25000E-02 0.00000E+00
 -1       616 7.81250E-02 1.25000E-02 0.00000E+00
 -1       617 7.91667E-02 1.25000E-02 0.00000E+00
 -1       618 8.02083E-02 1.25000E-02 0.00000E+00
 -1       619 8.12500E-02 1.25000E-02 0.00000E+00
 -1       620 8.22917E-02 1.25000E-02 0.00000E+00
 -1       621 6.66667E-02 1.35417E-02 0.00000E+00
 -1       622 6.66667E-02 1.45833E-02 0.00000E+00
 -1       623 6.66667E-02 1.56250E-02 0.00000E+00
 -1       624 6.66667E-02 1.66667E-02 0.00000E+00
 -1       625 6.66667E-02 1.77083E-02 0.00000E+00
 -1       626 6.77083E-02 1.28906E-02 0.00000E+00
 -1       627 6.87500E-02 1.32813E-02 0.00000E+00
 -1       628 6.97917E-02 1.36719E-02 0.00000E+00
 -1       629 7.08333E-02 1.40625E-02 0.00000E+00
 -1       630 7.18750E-02 1.44531E-02 0.00000E+00
 -1       631 7.29167E-02 1.48437E-02 0.00000E+00
 -1       632 7.39583E-02 1.52344E-02 0.00000E+00
 -1       633 7.50000E-02 1.56250E-02 0.00000E+00
 -1       634 7.60417E-02 1.60156E-02 0.00000E+00
 -1       635 7.70833E-02 1.64062E-02 0.00000E+00
 -1       636 7.81250E-02 1.67969E-02 0.00000E+00
 -1       637 7.91667E-02 1.71875E-02 0.00000E+00
 -1       638 8.02083E-02 1.75781E-02 0.00000E+00
 -1       639 8.12500E-02 1.79687E-02 0.00000E+00
 -1       640 8.22917E-02 1.83594E-02 0.00000E+00
 -1       641 8.43750E-02 1.25000E-02 0.00000E+00
 -1       642 8.54167E-02 1.25000E-02 0.00000E+00
 -1       643 8.64583E-02 1.25000E-02 0.00000E+00
 -1       644 8.75000E-02 1.25000E-02 0.00000E+00
 -1       645 8.85417E-02 1.25000E-02 0.00000E+00
 -1       646 8.95833E-02 1.25000E-02 0.00000E+00
 -1       647 9.06250E-02 1.25000E-02 0.00000E+00
 -1       648 9.16667E-02 1.25000E-02 0.00000E+00
 -1       649 9.27083E-02 1.25000E-02 0.00000E+00
 -1       650 9.37500E-02 1.25000E-02 0.00000E+00
 -1       651 9.47917E-02 1.25000E-02 0.00000E+00
 -1       652 9.58333E-02 1.25000E-02 0.00000E+00
 -1       653 9.68750E-02 1.25000E-02 0.00000E+00
 -1       654 9.79167E-02 1.25000E-02 0.00000E+00
 -1       655 9.89583E-02 1.25000E-02 0.00000E+00
 -1       656 8.33333E-02 1.35417E-02 0.00000E+00
 -1       657 8.33333E-02 1.45833E-02 0.00000E+00
 -1       658 8.33333E-02 1.56250E-02 0.00000E+00
 -1       659 8.33333E-02 1.66667E-02 0.00000E+00
 -1       660 8.33333E-02 1.77083E-02 0.00000E+00
 -1       661 8.43750E-02 1.28906E-02 0.00000E+00
 -1       662 8.54167E-02 1.32813E-02 0.00000E+00
 -1       663 8.64583E-02 1.36719E-02 0.00000E+00
 -1       664 8.75000E-02 1.40625E-02 0.00000E+00
 -1       665 8.85417E-02 1.44531E-02 0.00000E+00
 -1       666 8.95833E-02 1.48437E-02 0.00000E+00
 -1       667 9.06250E-02 1.52344E-02 0.00000E+00
 -1       668 9.16667E-02 1.56250E-02 0.00000E+00
 -1       669 9.27083E-02 1.60156E-02 0.00000E+00
 -1       670 9.37500E-02 1.64062E-02 0.00000E+00
 -1       671 9.47917E-02 1.67969E-02 0.00000E+00
 -1       672 9.58333E-02 1.71875E-02 0.00000E+00
 -1       673 9.68750E-02 1.75781E-02 0.00000E+00
 -1       674 9.79167E-02 1.79687E-02 0.00000E+00
 -1       675 9.89583E-02 1.83594E-02 0.00000E+00
 -1       676 1.00000E-01 1.35417E-02 0.00000E+00
 -1       677 1.00000E-01 1.45833E-02 0.00000E+00
 -1       678 1.00000E-01 1.56250E-02 0.00000E+00
 -1       679 1.00000E-01 1.66667E-02 0.00000E+00
 -1       680 1.00000E-01 1.77083E-02 0.00000E+00
 -1       681 1.04167E-03 1.87500E-02 0.00000E+00
 -1       682 2.08333E-03 1.87500E-02 0.00000E+00
 -1       683 3.12500E-03 1.87500E-02 0.00000E+00
 -1       684 4.16667E-03 1.87500E-02 0.00000E+00
 -1       685 5.20833E-03 1.87500E-02 0.00000E+00
 -1       686 6.25000E-03 1.87500E-02 0.00000E+00
 -1       687 7.29167E-03 1.87500E-02 0.00000E+00
 -1       688 8.33333E-03 1.87500E-02 0.00000E+00
 -1       689 9.37500E-03 1.87500E-02 0.00000E+00
 -1       690 1.04167E-02 1.87500E-02 0.00000E+00
 -1       691 1.14583E-02 1.87500E-02 0.00000E+00
 -1       692 1.25000E-02 1.87500E-02 0.00000E+00
 -1       693 1.35417E-02 1.87500E-02 0.00000E+00
 -1       694 1.45833E-02 1.87500E-02 0.00000E+00
 -1       695 1.56250E-02 1.87500E-02 0.00000E+00
 -1       696 0.00000E+00 1.97917E-02 0.00000E+00
 -1       697 0.00000E+00 2.08333E-02 0.00000E+00
 -1       698 0.00000E+00 2.18750E-02 0.00000E+00
 -1       699 0.00000E+00 2.29167E-02 0.00000E+00
 -1       700 0.00000E+00 2.39583E-02 0.00000E+00
 -1       701 1.04167E-03 1.91406E-02 0.00000E+00
 -1       702 2.08333E-03 1.95312E-02 0.00000E+00
 -1       703 3.12500E-03 1.99219E-02 0.00000E+00
 -1       704 4.16667E-03 2.03125E-02 0.00000E+00
 -1       705 5.20833E-03 2.07031E-02 0.00000E+00
 -1       706 6.25000E-03 2.10938E-02 0.00000E+00
 -1       707 7.29167E-03 2.14844E-02 0.00000E+00
 -1       708 8.33333E-03 2.18750E-02 0.00000E+00
 -1       709 9.37500E-03 2.22656E-02 0.00000E+00
 -1       710 1.04167E-02 2.26563E-02 0.00000E+00
 -1       711 1.14583E-02 2.30469E-02 0.00000E+00
 -1       712 1.25000E-02 2.34375E-02 0.00000E+00
 -1       713 1.35417E-02 2.38281E-02 0.00000E+00
 -1       714 1.45833E-02 2.42187E-02 0.00000E+00
 -1       715 1.56250E-02 2.46094E-02 0.00000E+00
 -1       716 1.77083E-02 1.87500E-02 0.00000E+00
 -1       717 1.87500E-02 1.87500E-02 0.00000E+00
 -1       718 1.97917E-02 1.87500E-02 0.00000E+00
 -1       719 2.08333E-02 1.87500E-02 0.00000E+00
 -1       720 2.18750E-02 1.87500E-02 0.00000E+00
 -1       721 2.29167E-02 1.87500E-02 0.00000E+00
 -1       722 2.39583E-02 1.87500E-02 0.00000E+00
 -1       723 2.50000E-02 1.87500E-02 0.00000E+00
 -1       724 2.60417E-02 1.87500E-02 0.00000E+00
 -1       725 2.70833E-02 1.87500E-02 0.00000E+00
 -1       726 2.81250E-02 1.87500E-02 0.00000E+00
 -1       727 2.91667E-02 1.87500E-02 0.00000E+00
 -1       728 3.02083E-02 1.87500E-02 0.00000E+00
 -1       729 3.12500E-02 1.87500E-02 0.00000E+00
 -1       730 3.22917E-02 1.87500E-02 0.00000E+00
 -1       731 1.66667E-02 1.97917E-02 0.00000E+00
 -1       732 1.66667E-02 2.08333E-02 0.00000E+00
 -1       733 1.66667E-02 2.18750E-02 0.00000E+00
 -1       734 1.66667E-02 2.29167E-02 0.00000E+00
 -1       735 1.66667E-02 2.39583E-02 0.00000E+00
 -1       736 1.77083E-02 1.91406E-02 0.00000E+00
 -1       737 1.87500E-02 1.95312E-02 0.00000E+00
 -1       738 1.97917E-02 1.99219E-02 0.00000E+00
 -1       739 2.08333E-02 2.03125E-02 0.00000E+00
 -1       740 2.18750E-02 2.07031E-02 0.00000E+00
 -1       741 2.29167E-02 2.10938E-02 0.00000E+00
 -1       742 2.39583E-02 2.14844E-02 0.00000E+00
 -1       743 2.50000E-02 2.18750E-02 0.00000E+00
 -1       744 2.60417E-02 2.22656E-02 0.00000E+00
 -1       745 2.70833E-02 2.26563E-02 0.00000E+00
 -1       746 2.81250E-02 2.30469E-02 0.00000E+00
 -1       747 2.91667E-02 2.34375E-02 0.00000E+00
 -1       748 3.02083E-02 2.38281E-02 0.00000E+00
 -1       749 3.12500E-02 2.42187E-02 0.00000E+00
 -1       750 3.22917E-02 2.46094E-02 0.00000E+00
 -1       751 3.43750E-02 1.87500E-02 0.00000E+00
 -1       752 3.54167E-02 1.87500E-02 0.00000E+00
 -1       753 3.64583E-02 1.87500E-02 0.00000E+00
 -1       754 3.75000E-02 1.87500E-02 0.00000E+00
 -1       755 3.85417E-02 1.87500E-02 0.00000E+00
 -1       756 3.95833E-02 1.87500E-02 0.00000E+00
 -1       757 4.06250E-02 1.87500E-02 0.00000E+00
 -1       758 4.16667E-02 1.87500E-02 0.00000E+00
 -1       759 4.27083E-02 1.87500E-02 0.00000E+00
 -1       760 4.37500E-02 1.87500E-02 0.00000E+00
 -1       761 4.47917E-02 1.87500E-02 0.00000E+00
 -1       762 4.58333E-02 1.87500E-02 0.00000E+00
 -1       763 4.68750E-02 1.87500E-02 0.00000E+00
 -1       764 4.79167E-02 1.87500E-02 0.00000E+00
 -1       765 4.89583E-02 1.87500E-02 0.00000E+00
 -1       766 3.33333E-02 1.97917E-02 0.00000E+00
 -1       767 3.33333E-02 2.08333E-02 0.00000E+00
 -1       768 3.33333E-02 2.18750E-02 0.00000E+00
 -1       769 3.33333E-02 2.29167E-02 0.00000E+00
 -1       770 3.33333E-02 2.39583E-02 0.00000E+00
 -1       771 3.43750E-02 1.91406E-02 0.00000E+00
 -1       772 3.54167E-02 1.95312E-02 0.00000E+00
 -1       773 3.64583E-02 1.99219E-02 0.00000E+00
 -1       774 3.75000E-02 2.03125E-02 0.00000E+00
 -1       775 3.85417E-02 2.07031E-02 0.00000E+00
 -1       776 3.95833E-02 2.10938E-02 0.00000E+00
 -1       777 4.06250E-02 2.14844E-02 0.00000E+00
 -1       778 4.16667E-02 2.18750E-02 0.00000E+00
 -1       779 4.27083E-02 2.22656E-02 0.00000E+00
 -1       780 4.37500E-02 2.26563E-02 0.00000E+00
 -1       781 4.47917E-02 2.30469E-02 0.00000E+00
 -1       782 4.58333E-02 2.34375E-02 0.00000E+00
 -1       783 4.68750E-02 2.38281E-02 0.00000E+00
 -1       784 4.79167E-02 2.42187E-02 0.00000E+00
 -1       785 4.89583E-02 2.46094E-02 0.00000E+00
 -1       786 5.10417E-02 1.87500E-02 0.00000E+00
 -1       787 5.20833E-02 1.87500E-02 0.00000E+00
 -1       788 5.31250E-02 1.87500E-02 0.00000E+00
 -1       789 5.41667E-02 1.87500E-02 0.00000E+00
 -1       790 5.52083E-02 1.87500E-02 0.00000E+00
 -1       791 5.62500E-02 1.87500E-02 0.00000E+00
 -1       792 5.72917E-02 1.87500E-02 0.00000E+00
 -1       793 5.83333E-02 1.87500E-02 0.00000E+00
 -1       794 5.93750E-02 1.87500E-02 0.00000E+00
 -1       795 6.04167E-02 1.87500E-02 0.00000E+00
 -1       796 6.14583E-02 1.87500E-02 0.00000E+00
 -1       797 6.25000E-02 1.87500E-02 0.00000E+00
 -1       798 6.35417E-02 1.87500E-02 0.00000E+00
 -1       799 6.45833E-02 1.87500E-02 0.00000E+00
 -1       800 6.56250E-02 1.87500E-02 0.00000E+00
 -1       801 5.00000E-02 1.97917E-02 0.00000E+00
 -1       802 5.00000E-02 2.08333E-02 0.00000E+00
 -1       803 5.00000E-02 2.18750E-02 0.00000E+00
 -1       804 5.00000E-02 2.29167E-02 0.00000E+00
 -1       805 5.00000E-02 2.39583E-02 0.00000E+00
 -1       806 5.10417E-02 1.91406E-02 0.00000E+00
 -1       807 5.20833E-02 1.95312E-02 0.00000E+00
 -1       808 5.31250E-02 1.99219E-02 0.00000E+00
 -1       809 5.41667E-02 2.03125E-02 0.00000E+00
 -1       810 5.52083E-02 2.07031E-02 0.00000E+00
 -1       811 5.62500E-02 2.10938E-02 0.00000E+00
 -1       812 5.72917E-02 2.14844E-02 0.00000E+00
 -1       813 5.83333E-02 2.18750E-02 0.00000E+00
 -1       814 5.93750E-02 2.22656E-02 0.00000E+00
 -1       815 6.04167E-02 2.26563E-02 0.00000E+00
 -1       816 6.14583E-02 2.30469E-02 0.00000E+00
 -1       817 6.25000E-02 2.34375E-02 0.00000E+00
 -1       818 6.35417E-02 2.38281E-02 0.00000E+00
 -1       819 6.45833E-02 2.42187E-02 0.00000E+00
 -1       820 6.56250E-02 2.46094E-02 0.00000E+00
 -1       821 6.77083E-02 1.87500E-02 0.00000E+00
 -1       822 6.87500E-02 1.87500E-02 0.00000E+00
 -1       823 6.97917E-02 1.87500E-02 0.00000E+00
 -1       824 7.08333E-02 1.87500E-02 0.00000E+00
 -1       825 7.18750E-02 1.87500E-02 0.00000E+00
 -1       826 7.29167E-02 1.87500E-02 0.00000E+00
 -1       827 7.39583E-02 1.87500E-02 0.00000E+00
 -1       828 7.50000E-02 1.87500E-02 0.00000E+00
 -1       829 7.60417E-02 1.87500E-02 0.00000E+00
 -1       830 7.70833E-02 1.87500E-02 0.00000E+00
 -1       831 7.81250E-02 1.87500E-02 0.00000E+00
 -1       832 7.91667E-02 1.87500E-02 0.00000E+00
 -1       833 8.02083E-02 1.87500E-02 0.00000E+00
 -1       834 8.12500E-02 1.87500E-02 0.00000E+00
 -1       835 8.22917E-02 1.87500E-02 0.00000E+00
 -1       836 6.66667E-02 1.97917E-02 0.00000E+00
 -1       837 6.66667E-02 2.08333E-02 0.00000E+00
 -1       838 6.66667E-02 2.18750E-02 0.00000E+00
 -1       839 6.66667E-02 2.29167E-02 0.00000E+00
 -1       840 6.66667E-02 2.39583E-02 0.00000E+00
 -1       841 6.77083E-02 1.91406E-02 0.00000E+00
 -1       842 6.87500E-02 1.95312E-02 0.00000E+00
 -1       843 6.97917E-02 1.99219E-02 0.00000E+00
 -1       844 7.08333E-02 2.03125E-02 0.00000E+00
 -1       845 7.18750E-02 2.07031E-02 0.00000E+00
 -1       846 7.29167E-02 2.10938E-02 0.00000E+00
 -1       847 7.39583E-02 2.14844E-02 0.00000E+00
 -1       848 7.50000E-02 2.18750E-02 0.00000E+00
 -1       849 7.60417E-02 2.22656E-02 0.00000E+00
 -1       850 7.70833E-02 2.26563E-02 0.00000E+00
 -1       851 7.81250E-02 2.30469E-02 0.00000E+00
 -1       852 7.91667E-02 2.34375E-02 0.00000E+00
 -1       853 8.02083E-02 2.38281E-02 0.00000E+00
 -1       854 8.12500E-02 2.42187E-02 0.00000E+00
 -1       855 8.22917E-02 2.46094E-02 0.00000E+00
 -1       856 8.43750E-02 1.87500E-02 0.00000E+00
 -1       857 8.54167E-02 1.87500E-02 0.00000E+00
 -1       858 8.64583E-02 1.87500E-02 0.00000E+00
 -1       859 8.75000E-02 1.87500E-02 0.00000E+00
 -1       860 8.85417E-02 1.87500E-02 0.00000E+00
 -1       861 8.95833E-02 1.87500E-02 0.00000E+00
 -1       862 9.06250E-02 1.87500E-02 0.00000E+00
 -1       863 9.16667E-02 1.87500E-02 0.00000E+00
 -1       864 9.27083E-02 1.87500E-02 0.00000E+00
 -1       865 9.37500E-02 1.87500E-02 0.00000E+00
 -1       866 9.47917E-02 1.87500E-02 0.00000E+00
 -1       867 9.58333E-02 1.87500E-02 0.00000E+00
 -1       868 9.68750E-02 1.87500E-02 0.00000E+00
 -1       869 9.79167E-02 1.87500E-02 0.00000E+00
 -1       870 9.89583E-02 1.87500E-02 0.00000E+00
 -1       871 8.33333E-02 1.97917E-02 0.00000E+00
 -1       872 8.33333E-02 2.08333E-02 0.00000E+00
 -1       873 8.33333E-02 2.18750E-02 0.00000E+00
 -1       874 8.33333E-02 2.29167E-02 0.00000E+00
 -1       875 8.33333E-02 2.39583E-02 0.00000E+00
 -1       876 8.43750E-02 1.91406E-02 0.00000E+00
 -1       877 8.54167E-02 1.95312E-02 0.00000E+00
 -1       878 8.64583E-02 1.99219E-02 0.00000E+00
 -1       879 8.75000E-02 2.03125E-02 0.00000E+00
 -1       880 8.85417E-02 2.07031E-02 0.00000E+00
 -1       881 8.95833E-02 2.10938E-02 0.00000E+00
 -1       882 9.06250E-02 2.14844E-02 0.00000E+00
 -1       883 9.16667E-02 2.18750E-02 0.00000E+00
 -1       884 9.27083E-02 2.22656E-02 0.00000E+00
 -1       885 9.37500E-02 2.26563E-02 0.00000E+00
 -1       886 9.47917E-02 2.30469E-02 0.00000E+00
 -1       887 9.58333E-02 2.34375E-02 0.00000E+00
 -1       888 9.68750E-02 2.38281E-02 0.00000E+00
 -1       889 9.79167E-02 2.42187E-02 0.00000E+00
 -1       890 9.89583E-02 2.46094E-02 0.00000E+00
 -1       891 1.00000E-01 1.97917E-02 0.00000E+00
 -1       892 1.00000E-01 2.08333E-02 0.00000E+00
 -1       893 1.00000E-01 2.18750E-02 0.00000E+00
 -1       894 1.00000E-01 2.29167E-02 0.00000E+00
 -1       895 1.00000E-01 2.39583E-02 0.00000E+00
 -1       896 1.04167E-03 2.50000E-02 0.00000E+00
 -1       897 2.08333E-03 2.50000E-02 0.00000E+00
 -1       898 3.12500E-03 2.50000E-02 0.00000E+00
 -1       899 4.16667E-03 2.50000E-02 0.00000E+00
 -1       900 5.20833E-03 2.50000E-02 0.00000E+00
 -1       901 6.25000E-03 2.50000E-02 0.00000E+00
 -1       902 7.29167E-03 2.50000E-02 0.00000E+00
 -1       903 8.33333E-03 2.50000E-02 0.00000E+00
 -1       904 9.37500E-03 2.50000E-02 0.00000E+00
 -1       905 1.04167E-02 2.50000E-02 0.00000E+00
 -1       906 1.14583E-02 2.50000E-02 0.00000E+00
 -1       907 1.25000E-02 2.50000E-02 0.00000E+00
 -1       908 1.35417E-02 2.50000E-02 0.00000E+00
 -1       909 1.45833E-02 2.50000E-02 0.00000E+00
 -1       910 1.56250E-02 2.50000E-02 0.00000E+00
 -1       911 1.77083E-02 2.50000E-02 0.00000E+00
 -1       912 1.87500E-02 2.50000E-02 0.00000E+00
 -1       913 1.97917E-02 2.50000E-02 0.00000E+00
 -1       914 2.08333E-02 2.50000E-02 0.00000E+00
 -1       915 2.18750E-02 2.50000E-02 0.00000E+00
 -1       916 2.29167E-02 2.50000E-02 0.00000E+00
 -1       917 2.39583E-02 2.50000E-02 0.00000E+00
 -1       918 2.50000E-02 2.50000E-02 0.00000E+00
 -1       919 2.60417E-02 2.50000E-02 0.00000E+00
 -1       920 2.70833E-02 2.50000E-02 0.00000E+00
 -1       921 2.81250E-02 2.50000E-02 0.00000E+00
 -1       922 2.91667E-02 2.50000E-02 0.00000E+00
 -1       923 3.02083E-02 2.50000E-02 0.00000E+00
 -1       924 3.12500E-02 2.50000E-02 0.00000E+00
 -1       925 3.22917E-02 2.50000E-02 0.00000E+00
 -1       926 3.43750E-02 2.50000E-02 0.00000E+00
 -1       927 3.54167E-02 2.50000E-02 0.00000E+00
 -1       928 3.64583E-02 2.50000E-02 0.00000E+00
 -1       929 3.75000E-02 2.50000E-02 0.00000E+00
 -1       930 3.85417E-02 2.50000E-02 0.00000E+00
 -1       931 3.95833E-02 2.50000E-02 0.00000E+00
 -1       932 4.06250E-02 2.50000E-02 0.00000E+00
 -1       933 4.16667E-02 2.50000E-02 0.00000E+00
 -1       934 4.27083E-02 2.50000E-02 0.00000E+00
 -1       935 4.37500E-02 2.50000E-02 0.00000E+00
 -1       936 4.47917E-02 2.50000E-02 0.00000E+00
 -1       937 4.58333E-02 2.50000E-02 0.00000E+00
 -1       938 4.68750E-02 2.50000E-02 0.00000E+00
 -1       939 4.79167E-02 2.50000E-02 0.00000E+00
 -1       940 4.89583E-02 2.50000E-02 0.00000E+00
 -1       941 5.10417E-02 2.50000E-02 0.00000E+00
 -1       942 5.20833E-02 2.50000E-02 0.00000E+00
 -1       943 5.31250E-02 2.50000E-02 0.00000E+00
 -1       944 5.41667E-02 2.50000E-02 0.00000E+00
 -1       945 5.52083E-02 2.50000E-02 0.00000E+00
 -1       946 5.62500E-02 2.50000E-02 0.00000E+00
 -1       947 5.72917E-02 2.50000E-02 0.00000E+00
 -1       948 5.83333E-02 2.50000E-02 0.00000E+00
 -1       949 5.93750E-02 2.50000E-02 0.00000E+00
 -1       950 6.04167E-02 2.50000E-02 0.00000E+00
 -1       951 6.14583E-02 2.50000E-02 0.00000E+00
 -1       952 6.25000E-02 2.50000E-02 0.00000E+00
 -1       953 6.35417E-02 2.50000E-02 0.00000E+00
 -1       954 6.45833E-02 2.50000E-02 0.00000E+00
 -1       955 6.56250E-02 2.50000E-02 0.00000E+00
 -1       956 6.77083E-02 2.50000E-02 0.00000E+00
 -1       957 6.87500E-02 2.50000E-02 0.00000E+00
 -1       958 6.97917E-02 2.50000E-02 0.00000E+00
 -1       959 7.08333E-02 2.50000E-02 0.00000E+00
 -1       960 7.18750E-02 2.50000E-02 0.00000E+00
 -1       961 7.29167E-02 2.50000E-02 0.00000E+00
 -1       962 7.39583E-02 2.50000E-02 0.00000E+00
 -1       963 7.50000E-02 2.50000E-02 0.00000E+00
 -1       964 7.60417E-02 2.50000E-02 0.00000E+00
 -1       965 7.70833E-02 2.50000E-02 0.00000E+00
 -1       966 7.81250E-02 2.50000E-02 0.00000E+00
 -1       967 7.91667E-02 2.50000E-02 0.00000E+00
 -1       968 8.02083E-02 2.50000E-02 0.00000E+00
 -1       969 8.12500E-02 2.50000E-02 0.00000E+00
 -1       970 8.22917E-02 2.50000E-02 0.00000E+00
 -1       971 8.43750E-02 2.50000E-02 0.00000E+00
 -1       972 8.54167E-02 2.50000E-02 0.00000E+00
 -1       973 8.64583E-02 2.50000E-02 0.00000E+00
 -1       974 8.75000E-02 2.50000E-02 0.00000E+00
 -1       975 8.85417E-02 2.50000E-02 0.00000E+00
 -1       976 8.95833E-02 2.50000E-02 0.00000E+00
 -1       977 9.06250E-02 2.50000E-02 0.00000E+00
 -1       978 9.16667E-02 2.50000E-02 0.00000E+00
 -1       979 9.27083E-02 2.50000E-02 0.00000E+00
 -1       980 9.37500E-02 2.50000E-02 0.00000E+00
 -1       981 9.47917E-02 2.50000E-02 0.00000E+00
 -1       982 9.58333E-02 2.50000E-02 0.00000E+00
 -1       983 9.68750E-02 2.50000E-02 0.00000E+00
 -1       984 9.79167E-02 2.50000E-02 0.00000E+00
 -1       985 9.89583E-02 2.50000E-02 0.00000E+00
 -3
    3C                           440                                     1
 -1         1   12    0    1
 -2         1        37        36
 -1         2   12    0    1
 -2        37        39        38
 -1         3   12    0    1
 -2        39        41        40
 -1         4   12    0    1
 -2        41        43        42
 -1         5   12    0    1
 -2        43        45        44
 -1         6   12    0    1
 -2        45        47        46
 -1         7   12    0    1
 -2        47        49        48
 -1         8   12    0    1
 -2        49         2        50
 -1         9   12    0    1
 -2         1        52        51
 -1        10   12    0    1
 -2        52        54        53
 -1        11   12    0    1
 -2        54         8        55
 -1        12   12    0    1
 -2         1        57        56
 -1        13   12    0    1
 -2        57        59        58
 -1        14   12    0    1
 -2        59        61        60
 -1        15   12    0    1
 -2        61        63        62
 -1        16   12    0    1
 -2        63        65        64
 -1        17   12    0    1
 -2        65        67        66
 -1        18   12    0    1
 -2        67        69        68
 -1        19   12    0    1
 -2        69         9        70
 -1        20   12    0    1
 -2         2        72        71
 -1        21   12    0    1
 -2        72        74        73
 -1        22   12    0    1
 -2        74        76        75
 -1        23   12    0    1
 -2        76        78        77
 -1        24   12    0    1
 -2        78        80        79
 -1        25   12    0    1
 -2        80        82        81
 -1        26   12    0    1
 -2        82        84        83
 -1        27   12    0    1
 -2        84         3        85
 -1        28   12    0    1
 -2         2        87        86
 -1        29   12    0    1
 -2        87        89        88
 -1        30   12    0    1
 -2        89         9        90
 -1        31   12    0    1
 -2         2        92        91
 -1        32   12    0    1
 -2        92        94        93
 -1        33   12    0    1
 -2        94        96        95
 -1        34   12    0    1
 -2        96        98        97
 -1        35   12    0    1
 -2        98       100        99
 -1        36   12    0    1
 -2       100       102       101
 -1        37   12    0    1
 -2       102       104       103
 -1        38   12    0    1
 -2       104        10       105
 -1        39   12    0    1
 -2         3       107       106
 -1        40   12    0    1
 -2       107       109       108
 -1        41   12    0    1
 -2       109       111       110
 -1        42   12    0    1
 -2       111       113       112
 -1        43   12    0    1
 -2       113       115       114
 -1        44   12    0    1
 -2       115       117       116
 -1        45   12    0    1
 -2       117       119       118
 -1        46   12    0    1
 -2       119         4       120
 -1        47   12    0    1
 -2         3       122       121
 -1        48   12    0    1
 -2       122       124       123
 -1        49   12    0    1
 -2       124        10       125
 -1        50   12    0    1
 -2         3       127       126
 -1        51   12    0    1
 -2       127       129       128
 -1        52   12    0    1
 -2       129       131       130
 -1        53   12    0    1
 -2       131       133       132
 -1        54   12    0    1
 -2       133       135       134
 -1        55   12    0    1
 -2       135       137       136
 -1        56   12    0    1
 -2       137       139       138
 -1        57   12    0    1
 -2       139        11       140
 -1        58   12    0    1
 -2         4       142       141
 -1        59   12    0    1
 -2       142       144       143
 -1        60   12    0    1
 -2       144       146       145
 -1        61   12    0    1
 -2       146       148       147
 -1        62   12    0    1
 -2       148       150       149
 -1        63   12    0    1
 -2       150       152       151
 -1        64   12    0    1
 -2       152       154       153
 -1        65   12    0    1
 -2       154         5       155
 -1        66   12    0    1
 -2         4       157       156
 -1        67   12    0    1
 -2       157       159       158
 -1        68   12    0    1
 -2       159        11       160
 -1        69   12    0    1
 -2         4       162       161
 -1        70   12    0    1
 -2       162       164       163
 -1        71   12    0    1
 -2       164       166       165
 -1        72   12    0    1
 -2       166       168       167
 -1        73   12    0    1
 -2       168       170       169
 -1        74   12    0    1
 -2       170       172       171
 -1        75   12    0    1
 -2       172       174       173
 -1        76   12    0    1
 -2       174        12       175
 -1        77   12    0    1
 -2         5       192       191
 -1        78   12    0    1
 -2       192       194       193
 -1        79   12    0    1
 -2       194        12       195
 -1        80   12    0    1
 -2         8       252       251
 -1        81   12    0    1
 -2       252       254       253
 -1        82   12    0    1
 -2       254       256       255
 -1        83   12    0    1
 -2       256       258       257
 -1        84   12    0    1
 -2       258       260       259
 -1        85   12    0    1
 -2       260       262       261
 -1        86   12    0    1
 -2       262       264       263
 -1        87   12    0    1
 -2       264         9       265
 -1        88   12    0    1
 -2         8       267       266
 -1        89   12    0    1
 -2       267       269       268
 -1        90   12    0    1
 -2       269        15       270
 -1        91   12    0    1
 -2         8       272       271
 -1        92   12    0    1
 -2       272       274       273
 -1        93   12    0    1
 -2       274       276       275
 -1        94   12    0    1
 -2       276       278       277
 -1        95   12    0    1
 -2       278       280       279
 -1        96   12    0    1
 -2       280       282       281
 -1        97   12    0    1
 -2       282       284       283
 -1        98   12    0    1
 -2       284        16       285
 -1        99   12    0    1
 -2         9       287       286
 -1       100   12    0    1
 -2       287       289       288
 -1       101   12    0    1
 -2       289       291       290
 -1       102   12    0    1
 -2       291       293       292
 -1       103   12    0    1
 -2       293       295       294
 -1       104   12    0    1
 -2       295       297       296
 -1       105   12    0    1
 -2       297       299       298
 -1       106   12    0    1
 -2       299        10       300
 -1       107   12    0    1
 -2         9       302       301
 -1       108   12    0    1
 -2       302       304       303
 -1       109   12    0    1
 -2       304        16       305
 -1       110   12    0    1
 -2         9       307       306
 -1       111   12    0    1
 -2       307       309       308
 -1       112   12    0    1
 -2       309       311       310
 -1       113   12    0    1
 -2       311       313       312
 -1       114   12    0    1
 -2       313       315       314
 -1       115   12    0    1
 -2       315       317       316
 -1       116   12    0    1
 -2       317       319       318
 -1       117   12    0    1
 -2       319        17       320
 -1       118   12    0    1
 -2        10       322       321
 -1       119   12    0    1
 -2       322       324       323
 -1       120   12    0    1
 -2       324       326       325
 -1       121   12    0    1
 -2       326       328       327
 -1       122   12    0    1
 -2       328       330       329
 -1       123   12    0    1
 -2       330       332       331
 -1       124   12    0    1
 -2       332       334       333
 -1       125   12    0    1
 -2       334        11       335
 -1       126   12    0    1
 -2        10       337       336
 -1       127   12    0    1
 -2       337       339       338
 -1       128   12    0    1
 -2       339        17       340
 -1       129   12    0    1
 -2        10       342       341
 -1       130   12    0    1
 -2       342       344       343
 -1       131   12    0    1
 -2       344       346       345
 -1       132   12    0    1
 -2       346       348       347
 -1       133   12    0    1
 -2       348       350       349
 -1       134   12    0    1
 -2       350       352       351
 -1       135   12    0    1
 -2       352       354       353
 -1       136   12    0    1
 -2       354        18       355
 -1       137   12    0    1
 -2        11       357       356
 -1       138   12    0    1
 -2       357       359       358
 -1       139   12    0    1
 -2       359       361       360
 -1       140   12    0    1
 -2       361       363       362
 -1       141   12    0    1
 -2       363       365       364
 -1       142   12    0    1
 -2       365       367       366
 -1       143   12    0    1
 -2       367       369       368
 -1       144   12    0    1
 -2       369        12       370
 -1       145   12    0    1
 -2        11       372       371
 -1       146   12    0    1
 -2       372       374       373
 -1       147   12    0    1
 -2       374        18       375
 -1       148   12    0    1
 -2        11       377       376
 -1       149   12    0    1
 -2       377       379       378
 -1       150   12    0    1
 -2       379       381       380
 -1       151   12    0    1
 -2       381       383       382
 -1       152   12    0    1
 -2       383       385       384
 -1       153   12    0    1
 -2       385       387       386
 -1       154   12    0    1
 -2       387       389       388
 -1       155   12    0    1
 -2       389        19       390
 -1       156   12    0    1
 -2        12       407       406
 -1       157   12    0    1
 -2       407       409       408
 -1       158   12    0    1
 -2       409        19       410
 -1       159   12    0    1
 -2        15       467       466
 -1       160   12    0    1
 -2       467       469       468
 -1       161   12    0    1
 -2       469       471       470
 -1       162   12    0    1
 -2       471       473       472
 -1       163   12    0    1
 -2       473       475       474
 -1       164   12    0    1
 -2       475       477       476
 -1       165   12    0    1
 -2       477       479       478
 -1       166   12    0    1
 -2       479        16       480
 -1       167   12    0    1
 -2        15       482       481
 -1       168   12    0    1
 -2       482       484       483
 -1       169   12    0    1
 -2       484        22       485
 -1       170   12    0    1
 -2        15       487       486
 -1       171   12    0    1
 -2       487       489       488
 -1       172   12    0    1
 -2       489       491       490
 -1       173   12    0    1
 -2       491       493       492
 -1       174   12    0    1
 -2       493       495       494
 -1       175   12    0    1
 -2       495       497       496
 -1       176   12    0    1
 -2       497       499       498
 -1       177   12    0    1
 -2       499        23       500
 -1       178   12    0    1
 -2        16       502       501
 -1       179   12    0    1
 -2       502       504       503
 -1       180   12    0    1
 -2       504       506       505
 -1       181   12    0    1
 -2       506       508       507
 -1       182   12    0    1
 -2       508       510       509
 -1       183   12    0    1
 -2       510       512       511
 -1       184   12    0    1
 -2       512       514       513
 -1       185   12    0    1
 -2       514        17       515
 -1       186   12    0    1
 -2        16       517       516
 -1       187   12    0    1
 -2       517       519       518
 -1       188   12    0    1
 -2       519        23       520
 -1       189   12    0    1
 -2        16       522       521
 -1       190   12    0    1
 -2       522       524       523
 -1       191   12    0    1
 -2       524       526       525
 -1       192   12    0    1
 -2       526       528       527
 -1       193   12    0    1
 -2       528       530       529
 -1       194   12    0    1
 -2       530       532       531
 -1       195   12    0    1
 -2       532       534       533
 -1       196   12    0    1
 -2       534        24       535
 -1       197   12    0    1
 -2        17       537       536
 -1       198   12    0    1
 -2       537       539       538
 -1       199   12    0    1
 -2       539       541       540
 -1       200   12    0    1
 -2       541       543       542
 -1       201   12    0    1
 -2       543       545       544
 -1       202   12    0    1
 -2       545       547       546
 -1       203   12    0    1
 -2       547       549       548
 -1       204   12    0    1
 -2       549        18       550
 -1       205   12    0    1
 -2        17       552       551
 -1       206   12    0    1
 -2       552       554       553
 -1       207   12    0    1
 -2       554        24       555
 -1       208   12    0    1
 -2        17       557       556
 -1       209   12    0    1
 -2       557       559       558
 -1       210   12    0    1
 -2       559       561       560
 -1       211   12    0    1
 -2       561       563       562
 -1       212   12    0    1
 -2       563       565       564
 -1       213   12    0    1
 -2       565       567       566
 -1       214   12    0    1
 -2       567       569       568
 -1       215   12    0    1
 -2       569        25       570
 -1       216   12    0    1
 -2        18       572       571
 -1       217   12    0    1
 -2       572       574       573
 -1       218   12    0    1
 -2       574       576       575
 -1       219   12    0    1
 -2       576       578       577
 -1       220   12    0    1
 -2       578       580       579
 -1       221   12    0    1
 -2       580       582       581
 -1       222   12    0    1
 -2       582       584       583
 -1       223   12    0    1
 -2       584        19       585
 -1       224   12    0    1
 -2        18       587       586
 -1       225   12    0    1
 -2       587       589       588
 -1       226   12    0    1
 -2       589        25       590
 -1       227   12    0    1
 -2        18       592       591
 -1       228   12    0    1
 -2       592       594       593
 -1       229   12    0    1
 -2       594       596       595
 -1       230   12    0    1
 -2       596       598       597
 -1       231   12    0    1
 -2       598       600       599
 -1       232   12    0    1
 -2       600       602       601
 -1       233   12    0    1
 -2       602       604       603
 -1       234   12    0    1
 -2       604        26       605
 -1       235   12    0    1
 -2        19       607       606
 -1       236   12    0    1
 -2       607       609       608
 -1       237   12    0    1
 -2       609       611       610
 -1       238   12    0    1
 -2       611       613       612
 -1       239   12    0    1
 -2       613       615       614
 -1       240   12    0    1
 -2       615       617       616
 -1       241   12    0    1
 -2       617       619       618
 -1       242   12    0    1
 -2       619        20       620
 -1       243   12    0    1
 -2        19       622       621
 -1       244   12    0    1
 -2       622       624       623
 -1       245   12    0    1
 -2       624        26       625
 -1       246   12    0    1
 -2        19       627       626
 -1       247   12    0    1
 -2       627       629       628
 -1       248   12    0    1
 -2       629       631       630
 -1       249   12    0    1
 -2       631       633       632
 -1       250   12    0    1
 -2       633       635       634
 -1       251   12    0    1
 -2       635       637       636
 -1       252   12    0    1
 -2       637       639       638
 -1       253   12    0    1
 -2       639        27       640
 -1       254   12    0    1
 -2        20       642       641
 -1       255   12    0    1
 -2       642       644       643
 -1       256   12    0    1
 -2       644       646       645
 -1       257   12    0    1
 -2       646       648       647
 -1       258   12    0    1
 -2       648       650       649
 -1       259   12    0    1
 -2       650       652       651
 -1       260   12    0    1
 -2       652       654       653
 -1       261   12    0    1
 -2       654        21       655
 -1       262   12    0    1
 -2        20       657       656
 -1       263   12    0    1
 -2       657       659       658
 -1       264   12    0    1
 -2       659        27       660
 -1       265   12    0    1
 -2        20       662       661
 -1       266   12    0    1
 -2       662       664       663
 -1       267   12    0    1
 -2       664       666       665
 -1       268   12    0    1
 -2       666       668       667
 -1       269   12    0    1
 -2       668       670       669
 -1       270   12    0    1
 -2       670       672       671
 -1       271   12    0    1
 -2       672       674       673
 -1       272   12    0    1
 -2       674        28       675
 -1       273   12    0    1
 -2        21       677       676
 -1       274   12    0    1
 -2       677       679       678
 -1       275   12    0    1
 -2       679        28       680
 -1       276   12    0    1
 -2        22       682       681
 -1       277   12    0    1
 -2       682       684       683
 -1       278   12    0    1
 -2       684       686       685
 -1       279   12    0    1
 -2       686       688       687
 -1       280   12    0    1
 -2       688       690       689
 -1       281   12    0    1
 -2       690       692       691
 -1       282   12    0    1
 -2       692       694       693
 -1       283   12    0    1
 -2       694        23       695
 -1       284   12    0    1
 -2        22       697       696
 -1       285   12    0    1
 -2       697       699       698
 -1       286   12    0    1
 -2       699        29       700
 -1       287   12    0    1
 -2        22       702       701
 -1       288   12    0    1
 -2       702       704       703
 -1       289   12    0    1
 -2       704       706       705
 -1       290   12    0    1
 -2       706       708       707
 -1       291   12    0    1
 -2       708       710       709
 -1       292   12    0    1
 -2       710       712       711
 -1       293   12    0    1
 -2       712       714       713
 -1       294   12    0    1
 -2       714        30       715
 -1       295   12    0    1
 -2        23       717       716
 -1       296   12    0    1
 -2       717       719       718
 -1       297   12    0    1
 -2       719       721       720
 -1       298   12    0    1
 -2       721       723       722
 -1       299   12    0    1
 -2       723       725       724
 -1       300   12    0    1
 -2       725       727       726
 -1       301   12    0    1
 -2       727       729       728
 -1       302   12    0    1
 -2       729        24       730
 -1       303   12    0    1
 -2        23       732       731
 -1       304   12    0    1
 -2       732       734       733
 -1       305   12    0    1
 -2       734        30       735
 -1       306   12    0    1
 -2        23       737       736
 -1       307   12    0    1
 -2       737       739       738
 -1       308   12    0    1
 -2       739       741       740
 -1       309   12    0    1
 -2       741       743       742
 -1       310   12    0    1
 -2       743       745       744
 -1       311   12    0    1
 -2       745       747       746
 -1       312   12    0    1
 -2       747       749       748
 -1       313   12    0    1
 -2       749        31       750
 -1       314   12    0    1
 -2        24       752       751
 -1       315   12    0    1
 -2       752       754       753
 -1       316   12    0    1
 -2       754       756       755
 -1       317   12    0    1
 -2       756       758       757
 -1       318   12    0    1
 -2       758       760       759
 -1       319   12    0    1
 -2       760       762       761
 -1       320   12    0    1
 -2       762       764       763
 -1       321   12    0    1
 -2       764        25       765
 -1       322   12    0    1
 -2        24       767       766
 -1       323   12    0    1
 -2       767       769       768
 -1       324   12    0    1
 -2       769        31       770
 -1       325   12    0    1
 -2        24       772       771
 -1       326   12    0    1
 -2       772       774       773
 -1       327   12    0    1
 -2       774       776       775
 -1       328   12    0    1
 -2       776       778       777
 -1       329   12    0    1
 -2       778       780       779
 -1       330   12    0    1
 -2       780       782       781
 -1       331   12    0    1
 -2       782       784       783
 -1       332   12    0    1
 -2       784        32       785
 -1       333   12    0    1
 -2        25       787       786
 -1       334   12    0    1
 -2       787       789       788
 -1       335   12    0    1
 -2       789       791       790
 -1       336   12    0    1
 -2       791       793       792
 -1       337   12    0    1
 -2       793       795       794
 -1       338   12    0    1
 -2       795       797       796
 -1       339   12    0    1
 -2       797       799       798
 -1       340   12    0    1
 -2       799        26       800
 -1       341   12    0    1
 -2        25       802       801
 -1       342   12    0    1
 -2       802       804       803
 -1       343   12    0    1
 -2       804        32       805
 -1       344   12    0    1
 -2        25       807       806
 -1       345   12    0    1
 -2       807       809       808
 -1       346   12    0    1
 -2       809       811       810
 -1       347   12    0    1
 -2       811       813       812
 -1       348   12    0    1
 -2       813       815       814
 -1       349   12    0    1
 -2       815       817       816
 -1       350   12    0    1
 -2       817       819       818
 -1       351   12    0    1
 -2       819        33       820
 -1       352   12    0    1
 -2        26       822       821
 -1       353   12    0    1
 -2       822       824       823
 -1       354   12    0    1
 -2       824       826       825
 -1       355   12    0    1
 -2       826       828       827
 -1       356   12    0    1
 -2       828       830       829
 -1       357   12    0    1
 -2       830       832       831
 -1       358   12    0    1
 -2       832       834       833
 -1       359   12    0    1
 -2       834        27       835
 -1       360   12    0    1
 -2        26       837       836
 -1       361   12    0    1
 -2       837       839       838
 -1       362   12    0    1
 -2       839        33       840
 -1       363   12    0    1
 -2        26       842       841
 -1       364   12    0    1
 -2       842       844       843
 -1       365   12    0    1
 -2       844       846       845
 -1       366   12    0    1
 -2       846       848       847
 -1       367   12    0    1
 -2       848       850       849
 -1       368   12    0    1
 -2       850       852       851
 -1       369   12    0    1
 -2       852       854       853
 -1       370   12    0    1
 -2       854        34       855
 -1       371   12    0    1
 -2        27       857       856
 -1       372   12    0    1
 -2       857       859       858
 -1       373   12    0    1
 -2       859       861       860
 -1       374   12    0    1
 -2       861       863       862
 -1       375   12    0    1
 -2       863       865       864
 -1       376   12    0    1
 -2       865       867       866
 -1       377   12    0    1
 -2       867       869       868
 -1       378   12    0    1
 -2       869        28       870
 -1       379   12    0    1
 -2        27       872       871
 -1       380   12    0    1
 -2       872       874       873
 -1       381   12    0    1
 -2       874        34       875
 -1       382   12    0    1
 -2        27       877       876
 -1       383   12    0    1
 -2       877       879       878
 -1       384   12    0    1
 -2       879       881       880
 -1       385   12    0    1
 -2       881       883       882
 -1       386   12    0    1
 -2       883       885       884
 -1       387   12    0    1
 -2       885       887       886
 -1       388   12    0    1
 -2       887       889       888
 -1       389   12    0    1
 -2       889        35       890
 -1       390   12    0    1
 -2        28       892       891
 -1       391   12    0    1
 -2       892       894       893
 -1       392   12    0    1
 -2       894        35       895
 -1       393   12    0    1
 -2        29       897       896
 -1       394   12    0    1
 -2       897       899       898
 -1       395   12    0    1
 -2       899       901       900
 -1       396   12    0    1
 -2       901       903       902
 -1       397   12    0    1
 -2       903       905       904
 -1       398   12    0    1
 -2       905       907       906
 -1       399   12    0    1
 -2       907       909       908
 -1       400   12    0    1
 -2       909        30       910
 -1       401   12    0    1
 -2        30       912       911
 -1       402   12    0    1
 -2       912       914       913
 -1       403   12    0    1
 -2       914       916       915
 -1       404   12    0    1
 -2       916       918       917
 -1       405   12    0    1
 -2       918       920       919
 -1       406   12    0    1
 -2       920       922       921
 -1       407   12    0    1
 -2       922       924       923
 -1       408   12    0    1
 -2       924        31       925
 -1       409   12    0    1
 -2        31       927       926
 -1       410   12    0    1
 -2       927       929       928
 -1       411   12    0    1
 -2       929       931       930
 -1       412   12    0    1
 -2       931       933       932
 -1       413   12    0    1
 -2       933       935       934
 -1       414   12    0    1
 -2       935       937       936
 -1       415   12    0    1
 -2       937       939       938
 -1       416   12    0    1
 -2       939        32       940
 -1       417   12    0    1
 -2        32       942       941
 -1       418   12    0    1
 -2       942       944       943
 -1       419   12    0    1
 -2       944       946       945
 -1       420   12    0    1
 -2       946       948       947
 -1       421   12    0    1
 -2       948       950       949
 -1       422   12    0    1
 -2       950       952       951
 -1       423   12    0    1
 -2       952       954       953
 -1       424   12    0    1
 -2       954        33       955
 -1       425   12    0    1
 -2        33       957       956
 -1       426   12    0    1
 -2       957       959       958
 -1       427   12    0    1
 -2       959       961       960
 -1       428   12    0    1
 -2       961       963       962
 -1       429   12    0    1
 -2       963       965       964
 -1       430   12    0    1
 -2       965       967       966
 -1       431   12    0    1
 -2       967       969       968
 -1       432   12    0    1
 -2       969        34       970
 -1       433   12    0    1
 -2        34       972       971
 -1       434   12    0    1
 -2       972       974       973
 -1       435   12    0    1
 -2       974       976       975
 -1       436   12    0    1
 -2       976       978       977
 -1       437   12    0    1
 -2       978       980       979
 -1       438   12    0    1
 -2       980       982       981
 -1       439   12    0    1
 -2       982       984       983
 -1       440   12    0    1
 -2       984        35       985
 -3
    1PSTEP                         1           1           1          
  100CL  101 1.000000000         841                     0    1           1
 -4  DISP        4    1
 -5  D1          1    2    1    0
 -5  D2          1    2    2    0
 -5  D3          1    2    3    0
 -5  ALL         1    2    0    0    1ALL
 -1         1 7.61518E-05 0.00000E+00 0.00000E+00
 -1         2 6.02514E-05 0.00000E+00 0.00000E+00
 -1         3 5.41970E-05 0.00000E+00 0.00000E+00
 -1         4 5.27164E-05 0.00000E+00 0.00000E+00
 -1         5 5.27791E-05 0.00000E+00 0.00000E+00
 -1         8 4.98794E-05-1.18873E-06 0.00000E+00
 -1         9 4.99868E-05 1.29326E-06 0.00000E+00
 -1        10 4.90316E-05-1.87786E-06 0.00000E+00
 -1        11 4.90402E-05-4.77441E-07 0.00000E+00
 -1        12 4.99279E-05 2.99610E-06 0.00000E+00
 -1        15 2.22261E-05-1.76198E-06 0.00000E+00
 -1        16 2.90087E-05 1.49659E-06 0.00000E+00
 -1        17 3.10668E-05-3.79949E-06 0.00000E+00
 -1        18 3.66157E-05-9.20541E-07 0.00000E+00
 -1        19 4.10686E-05 5.89235E-06 0.00000E+00
 -1        20 4.21850E-05 5.62212E-05 0.00000E+00
 -1        21 4.21323E-05 1.18220E-04 0.00000E+00
 -1        22 9.21672E-06-1.11794E-06 0.00000E+00
 -1        23 1.20013E-05 1.90781E-06 0.00000E+00
 -1        24 1.41632E-05-4.38463E-06 0.00000E+00
 -1        25 2.36070E-05-6.57327E-07 0.00000E+00
 -1        26 2.93095E-05 7.63232E-06 0.00000E+00
 -1        27 2.55330E-05 5.50881E-05 0.00000E+00
 -1        28 2.27724E-05 1.17209E-04 0.00000E+00
 -1        29 0.00000E+00 0.00000E+00 0.00000E+00
 -1        30 4.48575E-06 2.31045E-06 0.00000E+00
 -1        31 5.71859E-06-3.43689E-06 0.00000E+00
 -1        32 0.00000E+00 0.00000E+00 0.00000E+00
 -1        33 1.20871E-05 1.07870E-05 0.00000E+00
 -1        34 1.02294E-05 5.49832E-05 0.00000E+00
 -1        35 6.41660E-06 1.16662E-04 0.00000E+00
 -1        36 7.51763E-05-3.16976E-21 2.64698E-23
 -1        37 7.41818E-05-8.15931E-21 0.00000E+00
 -1        38 7.31874E-05-1.33937E-20 2.64698E-23
 -1        39 7.21902E-05-1.14151E-20 0.00000E+00
 -1        40 7.11926E-05-4.17561E-21 0.00000E+00
 -1        41 7.01945E-05 1.70068E-21 0.00000E+00
 -1        42 6.91962E-05 1.05747E-20 2.64698E-23
 -1        43 6.81978E-05 1.91310E-20 0.00000E+00
 -1        44 6.71995E-05 2.72440E-20 2.64698E-23
 -1        45 6.62013E-05 3.64026E-20 0.00000E+00
 -1        46 6.52032E-05 3.88378E-20 0.00000E+00
 -1        47 6.42058E-05 3.75408E-20 1.32349E-23
 -1        48 6.32089E-05 2.38029E-20 0.00000E+00
 -1        49 6.22154E-05 9.21148E-21 0.00000E+00
 -1        50 6.12218E-05-4.94985E-21 0.00000E+00
 -1        51 7.44317E-05-2.08227E-07 1.32349E-23
 -1        52 7.12282E-05-4.01843E-07 0.00000E+00
 -1        53 6.68507E-05-5.94999E-07 0.00000E+00
 -1        54 6.16194E-05-7.89674E-07 0.00000E+00
 -1        55 5.58553E-05-9.86722E-07 1.65436E-24
 -1        56 7.48174E-05-6.14234E-07 0.00000E+00
 -1        57 7.34993E-05-1.38429E-06-1.32349E-23
 -1        58 7.22156E-05-2.24444E-06-5.29396E-23
 -1        59 7.09407E-05-3.14388E-06 0.00000E+00
 -1        60 6.96591E-05-4.02758E-06 0.00000E+00
 -1        61 6.83507E-05-4.84248E-06 0.00000E+00
 -1        62 6.69966E-05-5.53594E-06 0.00000E+00
 -1        63 6.55777E-05-6.05693E-06 0.00000E+00
 -1        64 6.40756E-05-6.35616E-06 0.00000E+00
 -1        65 6.24729E-05-6.38687E-06 0.00000E+00
 -1        66 6.07531E-05-6.10502E-06 0.00000E+00
 -1        67 5.89018E-05-5.46999E-06 0.00000E+00
 -1        68 5.69047E-05-4.44501E-06 0.00000E+00
 -1        69 5.47556E-05-2.99565E-06-1.32349E-23
 -1        70 5.24358E-05-1.09660E-06-2.64698E-23
 -1        71 5.98690E-05 1.73708E-21-1.32349E-23
 -1        72 5.94897E-05-6.97313E-21 6.61744E-24
 -1        73 5.91105E-05-7.61833E-21 1.32349E-23
 -1        74 5.87317E-05-5.64137E-21 6.61744E-24
 -1        75 5.83530E-05-9.04439E-21 0.00000E+00
 -1        76 5.79744E-05-2.01170E-21 6.61744E-24
 -1        77 5.75958E-05-4.96308E-23 1.32349E-23
 -1        78 5.72172E-05-5.28899E-21 0.00000E+00
 -1        79 5.68387E-05-4.19877E-21 1.32349E-23
 -1        80 5.64602E-05-9.65154E-21 0.00000E+00
 -1        81 5.60817E-05-1.22456E-20 0.00000E+00
 -1        82 5.57033E-05-2.14190E-20 0.00000E+00
 -1        83 5.53251E-05-1.86231E-20 1.32349E-23
 -1        84 5.49475E-05-1.10809E-20 0.00000E+00
 -1        85 5.45700E-05-3.85797E-21 1.32349E-23
 -1        86 5.99210E-05 1.96505E-07 0.00000E+00
 -1        87 5.89833E-05 4.21062E-07-1.65436E-24
 -1        88 5.74799E-05 6.44327E-07-3.30872E-24
 -1        89 5.54524E-05 8.67873E-07-1.65436E-24
 -1        90 5.29413E-05 1.09123E-06-8.27181E-25
 -1        91 5.96243E-05-2.90850E-07 1.32349E-23
 -1        92 5.90163E-05-6.59110E-07 0.00000E+00
 -1        93 5.84285E-05-1.08067E-06-2.64698E-23
 -1        94 5.78515E-05-1.53483E-06 0.00000E+00
 -1        95 5.72784E-05-1.99987E-06 0.00000E+00
 -1        96 5.67011E-05-2.45439E-06-1.32349E-23
 -1        97 5.61118E-05-2.87700E-06-2.64698E-23
 -1        98 5.55026E-05-3.24655E-06-1.32349E-23
 -1        99 5.48656E-05-3.54209E-06 0.00000E+00
 -1       100 5.41933E-05-3.74310E-06 0.00000E+00
 -1       101 5.34781E-05-3.82946E-06 0.00000E+00
 -1       102 5.27128E-05-3.78164E-06 1.32349E-23
 -1       103 5.18904E-05-3.58081E-06-1.32349E-23
 -1       104 5.10058E-05-3.20833E-06-6.61744E-24
 -1       105 5.00502E-05-2.64776E-06 1.32349E-23
 -1       106 5.40961E-05 1.12439E-20-6.61744E-24
 -1       107 5.40027E-05 2.09541E-20 0.00000E+00
 -1       108 5.39092E-05 2.60322E-20 3.30872E-24
 -1       109 5.38169E-05 1.81289E-20-1.65436E-24
 -1       110 5.37247E-05 2.01931E-20 0.00000E+00
 -1       111 5.36328E-05 2.56740E-20 1.65436E-24
 -1       112 5.35409E-05 2.33625E-20 0.00000E+00
 -1       113 5.34490E-05 2.49027E-20 1.65436E-24
 -1       114 5.33572E-05 2.15377E-20-3.30872E-24
 -1       115 5.32654E-05 1.88634E-20 1.65436E-24
 -1       116 5.31736E-05 1.51444E-20 0.00000E+00
 -1       117 5.30818E-05 3.51759E-21 0.00000E+00
 -1       118 5.29901E-05 1.93147E-21 0.00000E+00
 -1       119 5.28985E-05 3.15528E-21 0.00000E+00
 -1       120 5.28069E-05 3.73637E-21 0.00000E+00
 -1       121 5.39564E-05-3.10663E-07 0.00000E+00
 -1       122 5.33464E-05-6.23337E-07 0.00000E+00
 -1       123 5.24572E-05-9.36219E-07-6.61744E-24
 -1       124 5.13805E-05-1.24967E-06 0.00000E+00
 -1       125 5.02080E-05-1.56327E-06 1.32349E-23
 -1       126 5.39207E-05-1.51370E-07 0.00000E+00
 -1       127 5.36674E-05-3.67312E-07 3.30872E-24
 -1       128 5.34318E-05-6.30307E-07 0.00000E+00
 -1       129 5.32072E-05-9.23098E-07 0.00000E+00
 -1       130 5.29871E-05-1.22826E-06 0.00000E+00
 -1       131 5.27652E-05-1.52837E-06 3.30872E-24
 -1       132 5.25349E-05-1.80605E-06 6.61744E-24
 -1       133 5.22896E-05-2.04397E-06 3.30872E-24
 -1       134 5.20230E-05-2.22486E-06-6.61744E-24
 -1       135 5.17286E-05-2.33159E-06 0.00000E+00
 -1       136 5.14001E-05-2.34721E-06 0.00000E+00
 -1       137 5.10314E-05-2.25491E-06 0.00000E+00
 -1       138 5.06161E-05-2.03819E-06 0.00000E+00
 -1       139 5.01490E-05-1.68051E-06 0.00000E+00
 -1       140 4.96231E-05-1.16635E-06-6.61744E-24
 -1       141 5.27153E-05 3.60454E-21 0.00000E+00
 -1       142 5.27171E-05 5.78476E-21-2.06795E-25
 -1       143 5.27189E-05 7.68334E-21 0.00000E+00
 -1       144 5.27211E-05-1.12596E-21 0.00000E+00
 -1       145 5.27233E-05-1.44574E-20 0.00000E+00
 -1       146 5.27257E-05-3.05646E-20 0.00000E+00
 -1       147 5.27281E-05-3.88577E-20 0.00000E+00
 -1       148 5.27305E-05-4.16035E-20 0.00000E+00
 -1       149 5.27329E-05-3.51694E-20-2.06795E-25
 -1       150 5.27355E-05-2.56844E-20 0.00000E+00
 -1       151 5.27382E-05-1.53923E-20 0.00000E+00
 -1       152 5.27414E-05-3.01925E-21 0.00000E+00
 -1       153 5.27449E-05 4.42159E-21 0.00000E+00
 -1       154 5.27509E-05 8.50848E-21 0.00000E+00
 -1       155 5.27567E-05 5.56899E-21 0.00000E+00
 -1       156 5.25599E-05-7.84180E-08 0.00000E+00
 -1       157 5.21531E-05-1.57512E-07 8.27181E-25
 -1       158 5.15467E-05-2.36740E-07 0.00000E+00
 -1       159 5.07918E-05-3.16373E-07 0.00000E+00
 -1       160 4.99392E-05-3.96090E-07 3.30872E-24
 -1       161 5.26316E-05-5.36902E-08 0.00000E+00
 -1       162 5.25548E-05-1.32257E-07 0.00000E+00
 -1       163 5.24825E-05-2.23128E-07 0.00000E+00
 -1       164 5.24102E-05-3.14202E-07-1.65436E-24
 -1       165 5.23334E-05-3.93256E-07 0.00000E+00
 -1       166 5.22474E-05-4.48138E-07-1.65436E-24
 -1       167 5.21478E-05-4.66698E-07 0.00000E+00
 -1       168 5.20301E-05-4.36823E-07-1.65436E-24
 -1       169 5.18897E-05-3.46427E-07 0.00000E+00
 -1       170 5.17222E-05-1.83455E-07 1.65436E-24
 -1       171 5.15231E-05 6.40855E-08 1.65436E-24
 -1       172 5.12883E-05 4.08248E-07-8.27181E-25
 -1       173 5.10132E-05 8.60848E-07 8.27181E-25
 -1       174 5.06958E-05 1.43456E-06-2.06795E-25
 -1       175 5.03287E-05 2.13994E-06 0.00000E+00
 -1       191 5.27030E-05 4.96189E-07-1.32349E-23
 -1       192 5.24691E-05 9.97142E-07 0.00000E+00
 -1       193 5.20754E-05 1.49885E-06 0.00000E+00
 -1       194 5.15211E-05 2.00044E-06 0.00000E+00
 -1       195 5.08053E-05 2.50098E-06-1.32349E-23
 -1       251 4.98662E-05 3.09017E-06 0.00000E+00
 -1       252 4.98704E-05 5.96313E-06-3.30872E-24
 -1       253 4.98773E-05 7.61269E-06 0.00000E+00
 -1       254 4.98872E-05 8.22279E-06-8.27181E-25
 -1       255 4.98977E-05 7.97708E-06 0.00000E+00
 -1       256 4.99082E-05 7.05919E-06 0.00000E+00
 -1       257 4.99183E-05 5.65274E-06-2.06795E-25
 -1       258 4.99280E-05 3.94128E-06 0.00000E+00
 -1       259 4.99375E-05 2.10831E-06 4.13590E-25
 -1       260 4.99471E-05 3.37385E-07 0.00000E+00
 -1       261 4.99569E-05-1.18796E-06 0.00000E+00
 -1       262 4.99669E-05-2.28422E-06 0.00000E+00
 -1       263 4.99771E-05-2.76778E-06 0.00000E+00
 -1       264 4.99855E-05-2.45508E-06 4.13590E-25
 -1       265 4.99931E-05-1.16227E-06 1.65436E-24
 -1       266 4.45734E-05-1.29568E-06 0.00000E+00
 -1       267 3.91846E-05-1.39460E-06-1.65436E-24
 -1       268 3.39842E-05-1.49254E-06-3.30872E-24
 -1       269 2.92437E-05-1.58667E-06 0.00000E+00
 -1       270 2.52345E-05-1.67763E-06 0.00000E+00
 -1       271 4.71674E-05 2.80935E-06-2.64698E-23
 -1       272 4.48913E-05 5.55295E-06 0.00000E+00
 -1       273 4.30338E-05 7.19080E-06 2.64698E-23
 -1       274 4.15326E-05 7.86794E-06 0.00000E+00
 -1       275 4.03332E-05 7.74019E-06 2.64698E-23
 -1       276 3.93741E-05 6.96926E-06 1.32349E-23
 -1       277 3.85931E-05 5.72212E-06 0.00000E+00
 -1       278 3.79260E-05 4.17003E-06 1.32349E-23
 -1       279 3.73080E-05 2.48657E-06 0.00000E+00
 -1       280 3.66739E-05 8.46610E-07 0.00000E+00
 -1       281 3.59587E-05-5.75378E-07 2.64698E-23
 -1       282 3.50983E-05-1.60678E-06 1.32349E-23
 -1       283 3.40290E-05-2.07825E-06-2.64698E-23
 -1       284 3.26937E-05-1.82384E-06-1.32349E-23
 -1       285 3.10256E-05-6.87131E-07 0.00000E+00
 -1       286 4.99159E-05 3.93732E-06-6.61744E-24
 -1       287 4.98557E-05 5.70037E-06-1.65436E-24
 -1       288 4.97965E-05 6.68861E-06 3.30872E-24
 -1       289 4.97391E-05 7.00957E-06 0.00000E+00
 -1       290 4.96820E-05 6.77084E-06 0.00000E+00
 -1       291 4.96249E-05 6.08029E-06-1.65436E-24
 -1       292 4.95676E-05 5.04594E-06-1.65436E-24
 -1       293 4.95102E-05 3.77595E-06 0.00000E+00
 -1       294 4.94525E-05 2.37857E-06-1.65436E-24
 -1       295 4.93948E-05 9.62112E-07-8.27181E-25
 -1       296 4.93371E-05-3.65149E-07 1.65436E-24
 -1       297 4.92793E-05-1.49493E-06-8.27181E-25
 -1       298 4.92215E-05-2.31903E-06 1.65436E-24
 -1       299 4.91622E-05-2.72941E-06-1.65436E-24
 -1       300 4.91029E-05-2.61804E-06 0.00000E+00
 -1       301 4.65980E-05 1.31608E-06-3.30872E-24
 -1       302 4.30895E-05 1.35200E-06 2.58494E-25
 -1       303 3.95184E-05 1.39022E-06 0.00000E+00
 -1       304 3.59427E-05 1.42902E-06 0.00000E+00
 -1       305 3.24205E-05 1.46676E-06 0.00000E+00
 -1       306 4.78737E-05 3.55869E-06 0.00000E+00
 -1       307 4.60386E-05 4.97360E-06-1.32349E-23
 -1       308 4.44849E-05 5.64308E-06 0.00000E+00
 -1       309 4.31691E-05 5.66378E-06-1.32349E-23
 -1       310 4.20563E-05 5.14131E-06 0.00000E+00
 -1       311 4.11050E-05 4.18481E-06 0.00000E+00
 -1       312 4.02738E-05 2.90722E-06-2.64698E-23
 -1       313 3.95191E-05 1.42436E-06 1.32349E-23
 -1       314 3.87972E-05-1.46208E-07-2.64698E-23
 -1       315 3.80641E-05-1.68607E-06 0.00000E+00
 -1       316 3.72755E-05-3.07718E-06 2.64698E-23
 -1       317 3.63887E-05-4.20267E-06 1.32349E-23
 -1       318 3.53603E-05-4.94811E-06 2.64698E-23
 -1       319 3.41536E-05-5.20095E-06 0.00000E+00
 -1       320 3.27218E-05-4.85652E-06 2.64698E-23
 -1       321 4.90166E-05-9.38689E-07-6.61744E-24
 -1       322 4.90162E-05-3.11150E-07-1.65436E-24
 -1       323 4.90158E-05 4.69583E-08-1.65436E-24
 -1       324 4.90176E-05 1.78190E-07 0.00000E+00
 -1       325 4.90197E-05 1.25022E-07 0.00000E+00
 -1       326 4.90222E-05-7.00447E-08 0.00000E+00
 -1       327 4.90248E-05-3.64522E-07 0.00000E+00
 -1       328 4.90275E-05-7.15918E-07-1.29247E-26
 -1       329 4.90301E-05-1.08174E-06 1.03398E-25
 -1       330 4.90328E-05-1.41950E-06 0.00000E+00
 -1       331 4.90355E-05-1.68671E-06 0.00000E+00
 -1       332 4.90380E-05-1.84088E-06 0.00000E+00
 -1       333 4.90405E-05-1.83951E-06 0.00000E+00
 -1       334 4.90421E-05-1.64012E-06-4.13590E-25
 -1       335 4.90438E-05-1.20017E-06 0.00000E+00
 -1       336 4.71113E-05-2.19743E-06-6.61744E-24
 -1       337 4.41552E-05-2.51832E-06-3.30872E-24
 -1       338 4.06167E-05-2.84075E-06 0.00000E+00
 -1       339 3.69518E-05-3.16294E-06 0.00000E+00
 -1       340 3.36171E-05-3.48411E-06 0.00000E+00
 -1       341 4.80196E-05-1.15247E-06 0.00000E+00
 -1       342 4.70930E-05-6.97147E-07 0.00000E+00
 -1       343 4.62528E-05-4.71207E-07 0.00000E+00
 -1       344 4.54829E-05-4.38607E-07 0.00000E+00
 -1       345 4.47709E-05-5.60995E-07 0.00000E+00
 -1       346 4.41021E-05-7.99806E-07-1.32349E-23
 -1       347 4.34623E-05-1.11583E-06 0.00000E+00
 -1       348 4.28365E-05-1.46949E-06 1.32349E-23
 -1       349 4.22099E-05-1.82102E-06-2.64698E-23
 -1       350 4.15677E-05-2.13065E-06-1.32349E-23
 -1       351 4.08953E-05-2.35885E-06 2.64698E-23
 -1       352 4.01783E-05-2.46638E-06 0.00000E+00
 -1       353 3.94022E-05-2.41478E-06 0.00000E+00
 -1       354 3.85563E-05-2.16515E-06 6.61744E-24
 -1       355 3.76223E-05-1.68238E-06 0.00000E+00
 -1       356 4.90859E-05 2.80100E-07 0.00000E+00
 -1       357 4.91390E-05 8.12635E-07 5.16988E-26
 -1       358 4.91922E-05 1.15290E-06-8.27181E-25
 -1       359 4.92465E-05 1.33379E-06 4.13590E-25
 -1       360 4.93010E-05 1.38812E-06 1.65436E-24
 -1       361 4.93557E-05 1.34866E-06-8.27181E-25
 -1       362 4.94105E-05 1.24814E-06 1.65436E-24
 -1       363 4.94653E-05 1.11929E-06 0.00000E+00
 -1       364 4.95202E-05 9.94811E-07 1.65436E-24
 -1       365 4.95751E-05 9.07403E-07-8.27181E-25
 -1       366 4.96302E-05 8.89788E-07 1.65436E-24
 -1       367 4.96857E-05 9.74714E-07 0.00000E+00
 -1       368 4.97414E-05 1.19496E-06 3.30872E-24
 -1       369 4.97991E-05 1.58335E-06-1.65436E-24
 -1       370 4.98567E-05 2.17282E-06-6.61744E-24
 -1       371 4.76106E-05-5.52798E-07-1.65436E-24
 -1       372 4.54995E-05-6.27237E-07-8.27181E-25
 -1       373 4.30252E-05-7.02324E-07 0.00000E+00
 -1       374 4.05070E-05-7.76811E-07 0.00000E+00
 -1       375 3.82644E-05-8.50680E-07 0.00000E+00
 -1       376 4.84572E-05 1.66008E-07 0.00000E+00
 -1       377 4.79500E-05 5.82998E-07 0.00000E+00
 -1       378 4.75117E-05 8.16728E-07 0.00000E+00
 -1       379 4.71258E-05 9.07514E-07 0.00000E+00
 -1       380 4.67778E-05 8.96793E-07 0.00000E+00
 -1       381 4.64521E-05 8.25888E-07 3.30872E-24
 -1       382 4.61334E-05 7.36325E-07 6.61744E-24
 -1       383 4.58061E-05 6.69635E-07 0.00000E+00
 -1       384 4.54546E-05 6.67304E-07 6.61744E-24
 -1       385 4.50636E-05 7.70669E-07-3.30872E-24
 -1       386 4.46177E-05 1.02081E-06 0.00000E+00
 -1       387 4.41020E-05 1.45855E-06 3.30872E-24
 -1       388 4.35011E-05 2.12413E-06 6.61744E-24
 -1       389 4.28030E-05 3.05825E-06-3.30872E-24
 -1       390 4.19892E-05 4.29875E-06 0.00000E+00
 -1       406 4.88547E-05 3.47816E-06-1.32349E-23
 -1       407 4.76095E-05 3.96458E-06 0.00000E+00
 -1       408 4.61998E-05 4.45134E-06 1.32349E-23
 -1       409 4.46339E-05 4.93711E-06 0.00000E+00
 -1       410 4.29204E-05 5.42048E-06-1.32349E-23
 -1       466 2.26311E-05 1.13502E-07 0.00000E+00
 -1       467 2.30559E-05 1.21240E-06 0.00000E+00
 -1       468 2.34812E-05 1.65632E-06 0.00000E+00
 -1       469 2.39093E-05 1.56557E-06 6.61744E-24
 -1       470 2.43377E-05 1.05902E-06-1.32349E-23
 -1       471 2.47665E-05 2.54219E-07 0.00000E+00
 -1       472 2.51953E-05-7.32036E-07 1.32349E-23
 -1       473 2.56241E-05-1.78352E-06 6.61744E-24
 -1       474 2.60529E-05-2.78419E-06 0.00000E+00
 -1       475 2.64818E-05-3.61784E-06 0.00000E+00
 -1       476 2.69106E-05-4.16781E-06 1.32349E-23
 -1       477 2.73389E-05-4.31657E-06 6.61744E-24
 -1       478 2.77664E-05-3.94555E-06-1.32349E-23
 -1       479 2.81900E-05-2.93458E-06-6.61744E-24
 -1       480 2.86126E-05-1.16167E-06-6.61744E-24
 -1       481 1.98139E-05-1.65937E-06 1.65436E-24
 -1       482 1.73745E-05-1.55172E-06 1.65436E-24
 -1       483 1.50015E-05-1.44397E-06 0.00000E+00
 -1       484 1.27884E-05-1.33538E-06 1.65436E-24
 -1       485 1.08290E-05-1.22615E-06 0.00000E+00
 -1       486 2.09819E-05 1.37065E-07-6.61744E-24
 -1       487 1.98961E-05 1.55420E-06 0.00000E+00
 -1       488 1.89703E-05 2.54730E-06 0.00000E+00
 -1       489 1.81814E-05 3.16754E-06 0.00000E+00
 -1       490 1.75117E-05 3.46936E-06 0.00000E+00
 -1       491 1.69405E-05 3.50759E-06 0.00000E+00
 -1       492 1.64470E-05 3.33815E-06 0.00000E+00
 -1       493 1.60100E-05 3.01768E-06 6.61744E-24
 -1       494 1.56083E-05 2.60336E-06-1.32349E-23
 -1       495 1.52202E-05 2.15273E-06 0.00000E+00
 -1       496 1.48242E-05 1.72349E-06 0.00000E+00
 -1       497 1.43990E-05 1.37332E-06-6.61744E-24
 -1       498 1.39231E-05 1.15948E-06 0.00000E+00
 -1       499 1.33772E-05 1.13951E-06 6.61744E-24
 -1       500 1.27376E-05 1.36851E-06 0.00000E+00
 -1       501 2.91233E-05 4.08707E-06 0.00000E+00
 -1       502 2.92520E-05 5.66893E-06-4.13590E-25
 -1       503 2.93817E-05 6.37563E-06 0.00000E+00
 -1       504 2.95134E-05 6.34094E-06 0.00000E+00
 -1       505 2.96452E-05 5.69784E-06 0.00000E+00
 -1       506 2.97770E-05 4.57877E-06-1.65436E-24
 -1       507 2.99084E-05 3.11580E-06 0.00000E+00
 -1       508 3.00397E-05 1.44064E-06 0.00000E+00
 -1       509 3.01707E-05-3.15148E-07 0.00000E+00
 -1       510 3.03018E-05-2.02007E-06-1.65436E-24
 -1       511 3.04331E-05-3.54265E-06-3.30872E-24
 -1       512 3.05643E-05-4.75116E-06 1.65436E-24
 -1       513 3.06955E-05-5.51365E-06 6.61744E-24
 -1       514 3.08247E-05-5.69780E-06 0.00000E+00
 -1       515 3.09538E-05-5.17065E-06-7.23783E-25
 -1       516 2.56274E-05 1.55692E-06-8.27181E-25
 -1       517 2.21422E-05 1.62630E-06 1.03398E-25
 -1       518 1.87949E-05 1.69591E-06 8.27181E-25
 -1       519 1.58276E-05 1.76704E-06-3.61892E-25
 -1       520 1.34825E-05 1.83993E-06 0.00000E+00
 -1       521 2.71052E-05 3.82333E-06 1.32349E-23
 -1       522 2.55100E-05 5.23126E-06 0.00000E+00
 -1       523 2.42173E-05 5.83753E-06 0.00000E+00
 -1       524 2.31791E-05 5.75187E-06 1.32349E-23
 -1       525 2.23555E-05 5.09189E-06 2.64698E-23
 -1       526 2.17010E-05 3.97821E-06 0.00000E+00
 -1       527 2.11696E-05 2.53477E-06 0.00000E+00
 -1       528 2.07140E-05 8.87888E-07 1.32349E-23
 -1       529 2.02868E-05-8.34702E-07 0.00000E+00
 -1       530 1.98400E-05-2.50466E-06 0.00000E+00
 -1       531 1.93259E-05-3.99406E-06 2.64698E-23
 -1       532 1.86977E-05-5.17620E-06-1.32349E-23
 -1       533 1.79085E-05-5.92668E-06 0.00000E+00
 -1       534 1.69163E-05-6.12321E-06 0.00000E+00
 -1       535 1.56721E-05-5.64999E-06 0.00000E+00
 -1       536 3.13871E-05-2.20355E-06 1.65436E-24
 -1       537 3.17327E-05-1.08786E-06-3.30872E-24
 -1       538 3.20786E-05-3.88285E-07 6.61744E-24
 -1       539 3.24282E-05-4.12150E-08-3.30872E-24
 -1       540 3.27786E-05 1.61184E-08 0.00000E+00
 -1       541 3.31295E-05-1.54237E-07 6.61744E-24
 -1       542 3.34807E-05-4.90718E-07-1.32349E-23
 -1       543 3.38319E-05-9.32187E-07 0.00000E+00
 -1       544 3.41831E-05-1.41772E-06 1.32349E-23
 -1       545 3.45343E-05-1.88654E-06 0.00000E+00
 -1       546 3.48854E-05-2.27779E-06 0.00000E+00
 -1       547 3.52362E-05-2.53043E-06-6.61744E-24
 -1       548 3.55866E-05-2.58315E-06 0.00000E+00
 -1       549 3.59348E-05-2.37410E-06 3.30872E-24
 -1       550 3.62829E-05-1.84086E-06 0.00000E+00
 -1       551 2.85720E-05-3.90033E-06-1.65436E-24
 -1       552 2.57519E-05-3.99585E-06 1.65436E-24
 -1       553 2.27524E-05-4.09079E-06-3.30872E-24
 -1       554 1.97224E-05-4.18592E-06-3.30872E-24
 -1       555 1.68105E-05-4.28203E-06 0.00000E+00
 -1       556 3.01527E-05-2.39734E-06 0.00000E+00
 -1       557 2.93865E-05-1.40327E-06-6.61744E-24
 -1       558 2.87534E-05-7.65841E-07 1.32349E-23
 -1       559 2.82338E-05-4.32015E-07 0.00000E+00
 -1       560 2.78081E-05-3.48634E-07 0.00000E+00
 -1       561 2.74562E-05-4.62283E-07-6.61744E-24
 -1       562 2.71581E-05-7.19499E-07 1.32349E-23
 -1       563 2.68938E-05-1.06674E-06 0.00000E+00
 -1       564 2.66432E-05-1.45043E-06 1.32349E-23
 -1       565 2.63862E-05-1.81699E-06 0.00000E+00
 -1       566 2.61027E-05-2.11283E-06-1.32349E-23
 -1       567 2.57729E-05-2.28438E-06-3.30872E-24
 -1       568 2.53767E-05-2.27811E-06 3.30872E-24
 -1       569 2.48949E-05-2.04051E-06 1.65436E-24
 -1       570 2.43084E-05-1.51820E-06 1.65436E-24
 -1       571 3.68783E-05-4.30376E-08-3.07608E-24
 -1       572 3.71536E-05 5.62569E-07 0.00000E+00
 -1       573 3.74317E-05 9.40049E-07 0.00000E+00
 -1       574 3.77112E-05 1.13501E-06 0.00000E+00
 -1       575 3.79912E-05 1.19309E-06 0.00000E+00
 -1       576 3.82716E-05 1.16010E-06 0.00000E+00
 -1       577 3.85520E-05 1.08180E-06 0.00000E+00
 -1       578 3.88325E-05 1.00399E-06 0.00000E+00
 -1       579 3.91130E-05 9.72458E-07 1.32349E-23
 -1       580 3.93935E-05 1.03300E-06 0.00000E+00
 -1       581 3.96740E-05 1.23143E-06-1.32349E-23
 -1       582 3.99543E-05 1.61359E-06-1.32349E-23
 -1       583 4.02344E-05 2.22533E-06-1.32349E-23
 -1       584 4.05139E-05 3.11234E-06 0.00000E+00
 -1       585 4.07927E-05 4.32026E-06 0.00000E+00
 -1       586 3.47805E-05-8.76375E-07 0.00000E+00
 -1       587 3.25942E-05-8.30534E-07 0.00000E+00
 -1       588 3.02191E-05-7.84769E-07 0.00000E+00
 -1       589 2.78199E-05-7.39546E-07 0.00000E+00
 -1       590 2.55618E-05-6.95378E-07 0.00000E+00
 -1       591 3.60357E-05-2.58857E-08 0.00000E+00
 -1       592 3.55172E-05 6.75169E-07 0.00000E+00
 -1       593 3.50573E-05 1.21493E-06 0.00000E+00
 -1       594 3.46451E-05 1.62436E-06-3.30872E-24
 -1       595 3.42699E-05 1.93442E-06-6.61744E-24
 -1       596 3.39202E-05 2.17606E-06-3.30872E-24
 -1       597 3.35845E-05 2.38020E-06-6.61744E-24
 -1       598 3.32513E-05 2.57773E-06 0.00000E+00
 -1       599 3.29089E-05 2.79959E-06 0.00000E+00
 -1       600 3.25459E-05 3.07669E-06 0.00000E+00
 -1       601 3.21506E-05 3.43991E-06-3.30872E-24
 -1       602 3.17115E-05 3.92017E-06 0.00000E+00
 -1       603 3.12174E-05 4.54836E-06-6.61744E-24
 -1       604 3.06577E-05 5.35548E-06-1.65436E-24
 -1       605 3.00217E-05 6.37249E-06-1.65436E-24
 -1       606 4.11499E-05 7.94327E-06-6.61744E-24
 -1       607 4.12240E-05 1.02121E-05 0.00000E+00
 -1       608 4.12963E-05 1.26846E-05 6.61744E-24
 -1       609 4.13673E-05 1.53452E-05 0.00000E+00
 -1       610 4.14376E-05 1.81783E-05 0.00000E+00
 -1       611 4.15074E-05 2.11682E-05 0.00000E+00
 -1       612 4.15767E-05 2.42989E-05 0.00000E+00
 -1       613 4.16456E-05 2.75549E-05 6.61744E-24
 -1       614 4.17141E-05 3.09204E-05 0.00000E+00
 -1       615 4.17823E-05 3.43795E-05-3.30872E-24
 -1       616 4.18502E-05 3.79167E-05 0.00000E+00
 -1       617 4.19179E-05 4.15160E-05 0.00000E+00
 -1       618 4.19854E-05 4.51618E-05 0.00000E+00
 -1       619 4.20526E-05 4.88384E-05 1.65436E-24
 -1       620 4.21195E-05 5.25301E-05 0.00000E+00
 -1       621 3.90313E-05 6.18245E-06 6.61744E-24
 -1       622 3.69689E-05 6.47520E-06 0.00000E+00
 -1       623 3.49233E-05 6.76820E-06-6.61744E-24
 -1       624 3.29368E-05 7.06053E-06 0.00000E+00
 -1       625 3.10519E-05 7.35112E-06 3.30872E-24
 -1       626 4.04512E-05 8.04394E-06-1.32349E-23
 -1       627 3.97385E-05 1.04400E-05 0.00000E+00
 -1       628 3.89418E-05 1.30566E-05 0.00000E+00
 -1       629 3.80715E-05 1.58673E-05 0.00000E+00
 -1       630 3.71376E-05 1.88457E-05 0.00000E+00
 -1       631 3.61503E-05 2.19654E-05 3.30872E-24
 -1       632 3.51196E-05 2.51996E-05 0.00000E+00
 -1       633 3.40556E-05 2.85220E-05 6.61744E-24
 -1       634 3.29682E-05 3.19060E-05 0.00000E+00
 -1       635 3.18675E-05 3.53250E-05 0.00000E+00
 -1       636 3.07635E-05 3.87526E-05-3.30872E-24
 -1       637 2.96663E-05 4.21621E-05 1.65436E-24
 -1       638 2.85856E-05 4.55272E-05 3.30872E-24
 -1       639 2.75310E-05 4.88211E-05 1.65436E-24
 -1       640 2.65121E-05 5.20173E-05-8.27181E-25
 -1       641 4.21845E-05 5.99190E-05 0.00000E+00
 -1       642 4.21821E-05 6.37092E-05-2.06795E-25
 -1       643 4.21794E-05 6.75770E-05 0.00000E+00
 -1       644 4.21763E-05 7.15078E-05 0.00000E+00
 -1       645 4.21729E-05 7.54869E-05 0.00000E+00
 -1       646 4.21694E-05 7.94993E-05 0.00000E+00
 -1       647 4.21657E-05 8.35305E-05 1.03398E-25
 -1       648 4.21620E-05 8.75656E-05-5.16988E-26
 -1       649 4.21584E-05 9.15900E-05 0.00000E+00
 -1       650 4.21548E-05 9.55889E-05-2.58494E-26
 -1       651 4.21514E-05 9.95475E-05 0.00000E+00
 -1       652 4.21480E-05 1.03451E-04 0.00000E+00
 -1       653 4.21449E-05 1.07285E-04 0.00000E+00
 -1       654 4.21415E-05 1.11034E-04 0.00000E+00
 -1       655 4.21385E-05 1.14684E-04-1.65436E-24
 -1       656 3.88456E-05 5.60373E-05 0.00000E+00
 -1       657 3.59284E-05 5.58451E-05-1.65436E-24
 -1       658 3.32864E-05 5.56539E-05 3.30872E-24
 -1       659 3.07718E-05 5.54629E-05 0.00000E+00
 -1       660 2.82366E-05 5.52715E-05 1.65436E-24
 -1       661 4.09839E-05 5.99826E-05 0.00000E+00
 -1       662 3.97591E-05 6.38268E-05-3.30872E-24
 -1       663 3.85097E-05 6.77352E-05 0.00000E+00
 -1       664 3.72430E-05 7.16926E-05 0.00000E+00
 -1       665 3.59639E-05 7.56827E-05-6.61744E-24
 -1       666 3.46785E-05 7.96897E-05-3.30872E-24
 -1       667 3.33928E-05 8.36981E-05 0.00000E+00
 -1       668 3.21125E-05 8.76919E-05 3.30872E-24
 -1       669 3.08437E-05 9.16555E-05 0.00000E+00
 -1       670 2.95923E-05 9.55730E-05-3.30872E-24
 -1       671 2.83643E-05 9.94287E-05-6.61744E-24
 -1       672 2.71656E-05 1.03206E-04-3.30872E-24
 -1       673 2.60023E-05 1.06890E-04 6.61744E-24
 -1       674 2.48791E-05 1.10463E-04 1.65436E-24
 -1       675 2.38041E-05 1.13910E-04 3.30872E-24
 -1       676 3.87302E-05 1.18053E-04 3.30872E-24
 -1       677 3.54319E-05 1.17883E-04-1.65436E-24
 -1       678 3.22122E-05 1.17713E-04 0.00000E+00
 -1       679 2.90459E-05 1.17544E-04 1.65436E-24
 -1       680 2.59077E-05 1.17374E-04-3.30872E-24
 -1       681 9.38646E-06 6.48414E-08 3.30872E-24
 -1       682 9.56103E-06 9.09017E-07 0.00000E+00
 -1       683 9.73579E-06 1.45922E-06 6.61744E-24
 -1       684 9.91130E-06 1.76008E-06 0.00000E+00
 -1       685 1.00870E-05 1.85589E-06 0.00000E+00
 -1       686 1.02628E-05 1.79069E-06 3.30872E-24
 -1       687 1.04386E-05 1.60837E-06 6.61744E-24
 -1       688 1.06144E-05 1.35266E-06 0.00000E+00
 -1       689 1.07902E-05 1.06721E-06 6.61744E-24
 -1       690 1.09659E-05 7.95617E-07-3.30872E-24
 -1       691 1.11415E-05 5.81521E-07 6.61744E-24
 -1       692 1.13169E-05 4.68616E-07 3.30872E-24
 -1       693 1.14920E-05 5.00712E-07 0.00000E+00
 -1       694 1.16655E-05 7.21789E-07 0.00000E+00
 -1       695 1.18390E-05 1.17608E-06 1.65436E-24
 -1       696 7.72185E-06-9.36711E-07 0.00000E+00
 -1       697 6.10066E-06-7.50585E-07 3.30872E-24
 -1       698 4.43543E-06-5.64482E-07-6.61744E-24
 -1       699 2.80859E-06-3.77311E-07-3.30872E-24
 -1       700 1.30267E-06-1.89832E-07 0.00000E+00
 -1       701 8.57487E-06 5.06181E-08 0.00000E+00
 -1       702 8.01881E-06 9.57359E-07-1.65436E-24
 -1       703 7.54960E-06 1.63360E-06-6.61744E-24
 -1       704 7.15504E-06 2.10639E-06 0.00000E+00
 -1       705 6.82595E-06 2.40417E-06 0.00000E+00
 -1       706 6.55167E-06 2.55514E-06 0.00000E+00
 -1       707 6.32169E-06 2.58781E-06-6.61744E-24
 -1       708 6.12531E-06 2.53080E-06 3.30872E-24
 -1       709 5.95178E-06 2.41287E-06-6.61744E-24
 -1       710 5.79031E-06 2.26285E-06 3.30872E-24
 -1       711 5.63011E-06 2.10965E-06 0.00000E+00
 -1       712 5.46054E-06 1.98222E-06 3.30872E-24
 -1       713 5.27072E-06 1.90938E-06 0.00000E+00
 -1       714 5.05117E-06 1.92039E-06 0.00000E+00
 -1       715 4.78946E-06 2.04329E-06 0.00000E+00
 -1       716 1.21282E-05 2.48492E-06 5.16988E-25
 -1       717 1.22646E-05 2.52880E-06 0.00000E+00
 -1       718 1.24010E-05 2.12630E-06 0.00000E+00
 -1       719 1.25386E-05 1.36441E-06 1.65436E-24
 -1       720 1.26762E-05 3.29691E-07-3.30872E-24
 -1       721 1.28138E-05-8.91501E-07-1.65436E-24
 -1       722 1.29514E-05-2.21298E-06 0.00000E+00
 -1       723 1.30889E-05-3.54868E-06 1.65436E-24
 -1       724 1.32266E-05-4.81254E-06-3.30872E-24
 -1       725 1.33643E-05-5.91841E-06 1.65436E-24
 -1       726 1.35022E-05-6.78003E-06 3.30872E-24
 -1       727 1.36398E-05-7.31087E-06-1.65436E-24
 -1       728 1.37770E-05-7.42414E-06 0.00000E+00
 -1       729 1.39119E-05-7.03264E-06 8.27181E-25
 -1       730 1.40463E-05-6.04867E-06-1.65436E-24
 -1       731 1.08502E-05 1.96924E-06-2.06795E-25
 -1       732 9.41817E-06 2.03682E-06 0.00000E+00
 -1       733 7.88530E-06 2.10423E-06 1.65436E-24
 -1       734 6.43202E-06 2.17262E-06 8.27181E-25
 -1       735 5.23883E-06 2.24149E-06-8.27181E-25
 -1       736 1.12852E-05 2.48373E-06 0.00000E+00
 -1       737 1.06580E-05 2.77446E-06-6.61744E-24
 -1       738 1.01239E-05 2.81794E-06 0.00000E+00
 -1       739 9.66794E-06 2.64634E-06 0.00000E+00
 -1       740 9.27933E-06 2.29413E-06 0.00000E+00
 -1       741 8.94508E-06 1.79570E-06-6.61744E-24
 -1       742 8.65239E-06 1.18608E-06 1.32349E-23
 -1       743 8.38802E-06 5.00596E-07 0.00000E+00
 -1       744 8.13873E-06-2.25138E-07 0.00000E+00
 -1       745 7.89117E-06-9.55368E-07-6.61744E-24
 -1       746 7.63200E-06-1.65435E-06 1.32349E-23
 -1       747 7.34811E-06-2.28637E-06 0.00000E+00
 -1       748 7.02616E-06-2.81602E-06 1.32349E-23
 -1       749 6.65466E-06-3.20771E-06-6.61744E-24
 -1       750 6.21852E-06-3.42760E-06 6.61744E-24
 -1       751 1.47157E-05-2.63101E-06 0.00000E+00
 -1       752 1.53051E-05-1.39821E-06 0.00000E+00
 -1       753 1.58949E-05-6.14704E-07 1.32349E-23
 -1       754 1.64901E-05-2.10351E-07 6.61744E-24
 -1       755 1.70863E-05-1.16469E-07-1.32349E-23
 -1       756 1.76835E-05-2.65719E-07-6.61744E-24
 -1       757 1.82809E-05-5.91629E-07 1.32349E-23
 -1       758 1.88784E-05-1.02851E-06 0.00000E+00
 -1       759 1.94760E-05-1.51105E-06 1.32349E-23
 -1       760 2.00734E-05-1.97418E-06-6.61744E-24
 -1       761 2.06706E-05-2.35272E-06 1.32349E-23
 -1       762 2.12671E-05-2.58114E-06-6.61744E-24
 -1       763 2.18628E-05-2.59335E-06 1.32349E-23
 -1       764 2.24543E-05-2.32236E-06 0.00000E+00
 -1       765 2.30456E-05-1.70009E-06 6.61744E-24
 -1       766 1.21349E-05-4.24021E-06 1.65436E-24
 -1       767 1.02585E-05-4.07805E-06-4.13590E-25
 -1       768 8.60613E-06-3.91593E-06 3.30872E-24
 -1       769 7.25017E-06-3.75272E-06 0.00000E+00
 -1       770 6.26341E-06-3.58859E-06 0.00000E+00
 -1       771 1.28122E-05-2.80750E-06 0.00000E+00
 -1       772 1.15578E-05-1.54505E-06 1.32349E-23
 -1       773 1.04056E-05-5.64760E-07-2.64698E-23
 -1       774 9.34623E-06 1.62821E-07 1.32349E-23
 -1       775 8.37004E-06 6.67275E-07-2.64698E-23
 -1       776 7.46623E-06 9.78143E-07 1.32349E-23
 -1       777 6.62386E-06 1.12504E-06 2.64698E-23
 -1       778 5.83184E-06 1.13768E-06 1.32349E-23
 -1       779 5.07904E-06 1.04585E-06 0.00000E+00
 -1       780 4.35428E-06 8.79421E-07 1.32349E-23
 -1       781 3.64642E-06 6.68305E-07 2.64698E-23
 -1       782 2.94442E-06 4.42505E-07 0.00000E+00
 -1       783 2.23732E-06 2.32046E-07-1.32349E-23
 -1       784 1.51520E-06 6.72629E-08 6.61744E-24
 -1       785 7.68209E-07-2.15335E-08-1.32349E-23
 -1       786 2.39428E-05 4.74147E-07 0.00000E+00
 -1       787 2.42985E-05 1.32875E-06-3.30872E-24
 -1       788 2.46542E-05 1.94914E-06 6.61744E-24
 -1       789 2.50129E-05 2.37766E-06 6.61744E-24
 -1       790 2.53722E-05 2.65619E-06-1.32349E-23
 -1       791 2.57319E-05 2.82621E-06 6.61744E-24
 -1       792 2.60919E-05 2.92900E-06 1.32349E-23
 -1       793 2.64520E-05 3.00563E-06-6.61744E-24
 -1       794 2.68120E-05 3.09713E-06-1.32349E-23
 -1       795 2.71720E-05 3.24457E-06 0.00000E+00
 -1       796 2.75319E-05 3.48912E-06-1.32349E-23
 -1       797 2.78915E-05 3.87224E-06 0.00000E+00
 -1       798 2.82506E-05 4.43566E-06 1.32349E-23
 -1       799 2.86079E-05 5.22159E-06 0.00000E+00
 -1       800 2.89650E-05 6.27278E-06 0.00000E+00
 -1       801 2.08626E-05-5.47664E-07 0.00000E+00
 -1       802 1.63931E-05-4.34143E-07 0.00000E+00
 -1       803 1.11344E-05-3.24326E-07-1.65436E-24
 -1       804 6.02434E-06-2.14998E-07 0.00000E+00
 -1       805 2.00081E-06-1.01284E-07 0.00000E+00
 -1       806 2.28008E-05 3.30521E-07 0.00000E+00
 -1       807 2.20460E-05 1.14178E-06 0.00000E+00
 -1       808 2.13428E-05 1.80848E-06 0.00000E+00
 -1       809 2.06813E-05 2.36027E-06 6.61744E-24
 -1       810 2.00513E-05 2.82684E-06 1.32349E-23
 -1       811 1.94419E-05 3.23776E-06-6.61744E-24
 -1       812 1.88422E-05 3.62260E-06-1.32349E-23
 -1       813 1.82413E-05 4.01089E-06 0.00000E+00
 -1       814 1.76279E-05 4.43218E-06-1.32349E-23
 -1       815 1.69910E-05 4.91600E-06 6.61744E-24
 -1       816 1.63197E-05 5.49185E-06 0.00000E+00
 -1       817 1.56030E-05 6.18923E-06 0.00000E+00
 -1       818 1.48301E-05 7.03763E-06 0.00000E+00
 -1       819 1.39910E-05 8.06662E-06 3.30872E-24
 -1       820 1.30759E-05 9.30573E-06 0.00000E+00
 -1       821 2.90896E-05 9.35582E-06-1.65436E-24
 -1       822 2.88560E-05 1.14052E-05-1.65436E-24
 -1       823 2.86219E-05 1.37476E-05 6.61744E-24
 -1       824 2.83852E-05 1.63491E-05 0.00000E+00
 -1       825 2.81476E-05 1.91755E-05 0.00000E+00
 -1       826 2.79092E-05 2.21923E-05 3.30872E-24
 -1       827 2.76701E-05 2.53646E-05 0.00000E+00
 -1       828 2.74307E-05 2.86573E-05 0.00000E+00
 -1       829 2.71910E-05 3.20352E-05-6.61744E-24
 -1       830 2.69511E-05 3.54629E-05-3.30872E-24
 -1       831 2.67113E-05 3.89048E-05 0.00000E+00
 -1       832 2.64718E-05 4.23255E-05 3.30872E-24
 -1       833 2.62328E-05 4.56895E-05-6.61744E-24
 -1       834 2.59956E-05 4.89614E-05 0.00000E+00
 -1       835 2.57588E-05 5.21059E-05 3.30872E-24
 -1       836 2.71568E-05 8.14873E-06-1.32349E-23
 -1       837 2.42360E-05 8.68246E-06 0.00000E+00
 -1       838 2.09080E-05 9.21433E-06 0.00000E+00
 -1       839 1.75336E-05 9.74526E-06 0.00000E+00
 -1       840 1.44731E-05 1.02777E-05-6.61744E-24
 -1       841 2.85958E-05 9.34409E-06 0.00000E+00
 -1       842 2.77455E-05 1.13998E-05 0.00000E+00
 -1       843 2.67788E-05 1.37639E-05-1.65436E-24
 -1       844 2.57093E-05 1.63976E-05 0.00000E+00
 -1       845 2.45522E-05 1.92628E-05 0.00000E+00
 -1       846 2.33220E-05 2.23209E-05 8.27181E-25
 -1       847 2.20333E-05 2.55333E-05 0.00000E+00
 -1       848 2.07008E-05 2.88611E-05 8.27181E-25
 -1       849 1.93393E-05 3.22657E-05 0.00000E+00
 -1       850 1.79635E-05 3.57082E-05-8.27181E-25
 -1       851 1.65880E-05 3.91496E-05-1.65436E-24
 -1       852 1.52275E-05 4.25513E-05-8.27181E-25
 -1       853 1.38969E-05 4.58742E-05 0.00000E+00
 -1       854 1.26106E-05 4.90797E-05 1.65436E-24
 -1       855 1.13835E-05 5.21289E-05-3.30872E-24
 -1       856 2.53713E-05 5.81405E-05 0.00000E+00
 -1       857 2.52009E-05 6.14899E-05-1.65436E-24
 -1       858 2.50296E-05 6.50972E-05-3.30872E-24
 -1       859 2.48565E-05 6.89226E-05-1.65436E-24
 -1       860 2.46826E-05 7.29263E-05 3.30872E-24
 -1       861 2.45079E-05 7.70682E-05 0.00000E+00
 -1       862 2.43327E-05 8.13080E-05 6.61744E-24
 -1       863 2.41573E-05 8.56053E-05 3.30872E-24
 -1       864 2.39817E-05 8.99196E-05 0.00000E+00
 -1       865 2.38063E-05 9.42106E-05 3.30872E-24
 -1       866 2.36312E-05 9.84378E-05 0.00000E+00
 -1       867 2.34567E-05 1.02561E-04 0.00000E+00
 -1       868 2.32828E-05 1.06539E-04 0.00000E+00
 -1       869 2.31103E-05 1.10334E-04 0.00000E+00
 -1       870 2.29385E-05 1.13903E-04 0.00000E+00
 -1       871 2.28549E-05 5.50727E-05 0.00000E+00
 -1       872 2.02903E-05 5.50561E-05 0.00000E+00
 -1       873 1.77927E-05 5.50394E-05 8.27181E-25
 -1       874 1.53148E-05 5.50223E-05-2.06795E-25
 -1       875 1.28093E-05 5.50043E-05-8.27181E-25
 -1       876 2.46111E-05 5.81903E-05 0.00000E+00
 -1       877 2.36050E-05 6.15421E-05 0.00000E+00
 -1       878 2.25177E-05 6.51080E-05 0.00000E+00
 -1       879 2.13627E-05 6.88565E-05 3.30872E-24
 -1       880 2.01508E-05 7.27554E-05 0.00000E+00
 -1       881 1.88940E-05 7.67734E-05-3.30872E-24
 -1       882 1.76039E-05 8.08793E-05-6.61744E-24
 -1       883 1.62924E-05 8.50419E-05 3.30872E-24
 -1       884 1.49710E-05 8.92303E-05 0.00000E+00
 -1       885 1.36516E-05 9.34137E-05 0.00000E+00
 -1       886 1.23457E-05 9.75610E-05 0.00000E+00
 -1       887 1.10650E-05 1.01641E-04-3.30872E-24
 -1       888 9.82120E-06 1.05623E-04-6.61744E-24
 -1       889 8.62496E-06 1.09476E-04 0.00000E+00
 -1       890 7.48980E-06 1.13167E-04 3.30872E-24
 -1       891 1.98563E-05 1.17118E-04 0.00000E+00
 -1       892 1.72187E-05 1.17026E-04 0.00000E+00
 -1       893 1.47081E-05 1.16935E-04 1.65436E-24
 -1       894 1.21721E-05 1.16844E-04-8.27181E-25
 -1       895 9.45886E-06 1.16752E-04 0.00000E+00
 -1       896 2.78754E-07 1.00270E-06 0.00000E+00
 -1       897 5.59761E-07 1.75079E-06 3.30872E-24
 -1       898 8.40906E-07 2.27507E-06-6.61744E-24
 -1       899 1.12243E-06 2.60612E-06 0.00000E+00
 -1       900 1.40403E-06 2.77416E-06-6.61744E-24
 -1       901 1.68571E-06 2.80910E-06 0.00000E+00
 -1       902 1.96740E-06 2.74060E-06 0.00000E+00
 -1       903 2.24908E-06 2.59812E-06 0.00000E+00
 -1       904 2.53074E-06 2.41100E-06 0.00000E+00
 -1       905 2.81234E-06 2.20846E-06 0.00000E+00
 -1       906 3.09387E-06 2.01974E-06 6.61744E-24
 -1       907 3.37515E-06 1.87406E-06-3.30872E-24
 -1       908 3.65620E-06 1.80075E-06-6.61744E-24
 -1       909 3.93588E-06 1.82925E-06-3.30872E-24
 -1       910 4.21558E-06 1.98924E-06 0.00000E+00
 -1       911 4.56299E-06 2.59117E-06 1.65436E-24
 -1       912 4.64113E-06 2.63346E-06 0.00000E+00
 -1       913 4.71925E-06 2.47015E-06 0.00000E+00
 -1       914 4.79745E-06 2.13424E-06 0.00000E+00
 -1       915 4.87563E-06 1.65857E-06-1.65436E-24
 -1       916 4.95377E-06 1.07595E-06-8.27181E-25
 -1       917 5.03187E-06 4.19104E-07-1.65436E-24
 -1       918 5.10994E-06-2.79271E-07-8.27181E-25
 -1       919 5.18798E-06-9.86496E-07-3.30872E-24
 -1       920 5.26598E-06-1.66989E-06 0.00000E+00
 -1       921 5.34394E-06-2.29679E-06-1.65436E-24
 -1       922 5.42169E-06-2.83447E-06-8.27181E-25
 -1       923 5.49925E-06-3.25016E-06 0.00000E+00
 -1       924 5.57550E-06-3.51106E-06-1.24077E-24
 -1       925 5.65180E-06-3.58424E-06 0.00000E+00
 -1       926 5.37081E-06-3.17892E-06-6.61744E-24
 -1       927 5.01398E-06-2.95404E-06-3.30872E-24
 -1       928 4.65718E-06-2.75652E-06 1.32349E-23
 -1       929 4.29908E-06-2.58052E-06 0.00000E+00
 -1       930 3.94076E-06-2.42018E-06 0.00000E+00
 -1       931 3.58220E-06-2.26958E-06 0.00000E+00
 -1       932 3.22356E-06-2.12279E-06-1.32349E-23
 -1       933 2.86488E-06-1.97385E-06-6.61744E-24
 -1       934 2.50618E-06-1.81683E-06 0.00000E+00
 -1       935 2.14748E-06-1.64581E-06 0.00000E+00
 -1       936 1.78880E-06-1.45489E-06 0.00000E+00
 -1       937 1.43018E-06-1.23824E-06 0.00000E+00
 -1       938 1.07163E-06-9.90078E-07 1.32349E-23
 -1       939 7.13485E-07-7.04706E-07 0.00000E+00
 -1       940 3.55318E-07-3.76501E-07 0.00000E+00
 -1       941 7.10334E-07 3.68118E-07-6.61744E-24
 -1       942 1.46546E-06 6.87581E-07 0.00000E+00
 -1       943 2.22047E-06 9.77263E-07-2.64698E-23
 -1       944 2.98194E-06 1.25593E-06 1.32349E-23
 -1       945 3.74453E-06 1.54230E-06 2.64698E-23
 -1       946 4.50829E-06 1.85512E-06-1.32349E-23
 -1       947 5.27241E-06 2.21327E-06 2.64698E-23
 -1       948 6.03670E-06 2.63589E-06-1.32349E-23
 -1       949 6.80098E-06 3.14240E-06-2.64698E-23
 -1       950 7.56507E-06 3.75271E-06-1.32349E-23
 -1       951 8.32880E-06 4.48719E-06 2.64698E-23
 -1       952 9.09151E-06 5.36692E-06-1.32349E-23
 -1       953 9.85319E-06 6.41364E-06-2.64698E-23
 -1       954 1.06096E-05 7.65001E-06 6.61744E-24
 -1       955 1.13659E-05 9.09963E-06-1.32349E-23
 -1       956 1.19758E-05 1.27645E-05-3.30872E-24
 -1       957 1.18615E-05 1.49369E-05-8.27181E-25
 -1       958 1.17464E-05 1.72859E-05-1.65436E-24
 -1       959 1.16307E-05 1.97920E-05-1.01459E-24
 -1       960 1.15145E-05 2.24360E-05 4.13590E-25
 -1       961 1.13980E-05 2.51979E-05-1.24077E-24
 -1       962 1.12812E-05 2.80583E-05 0.00000E+00
 -1       963 1.11642E-05 3.09974E-05 8.27181E-25
 -1       964 1.10470E-05 3.39956E-05 0.00000E+00
 -1       965 1.09297E-05 3.70331E-05 0.00000E+00
 -1       966 1.08124E-05 4.00903E-05 0.00000E+00
 -1       967 1.06951E-05 4.31475E-05 0.00000E+00
 -1       968 1.05779E-05 4.61849E-05 0.00000E+00
 -1       969 1.04609E-05 4.91830E-05-1.65436E-24
 -1       970 1.03444E-05 5.21221E-05 0.00000E+00
 -1       971 1.00003E-05 5.79170E-05 0.00000E+00
 -1       972 9.76380E-06 6.11497E-05 0.00000E+00
 -1       973 9.52653E-06 6.46445E-05-6.61744E-24
 -1       974 9.28757E-06 6.83643E-05-3.30872E-24
 -1       975 9.04776E-06 7.22713E-05 6.61744E-24
 -1       976 8.80722E-06 7.63276E-05 0.00000E+00
 -1       977 8.56619E-06 8.04950E-05-6.61744E-24
 -1       978 8.32485E-06 8.47351E-05 0.00000E+00
 -1       979 8.08337E-06 8.90095E-05 0.00000E+00
 -1       980 7.84195E-06 9.32796E-05-3.30872E-24
 -1       981 7.60077E-06 9.75069E-05 0.00000E+00
 -1       982 7.36015E-06 1.01653E-04 3.30872E-24
 -1       983 7.12020E-06 1.05680E-04 0.00000E+00
 -1       984 6.88209E-06 1.09548E-04 0.00000E+00
 -1       985 6.64466E-06 1.13222E-04 0.00000E+00
 -3
    1PSTEP                         2           1           1          
  100CL  101 1.000000000         841                     0    1           1
 -4  STRESS      6    1
 -5  SXX         1    4    1    1
 -5  SYY         1    4    2    2
 -5  SZZ         1    4    3    3
 -5  SXY         1    4    1    2
 -5  SYZ         1    4    2    3
 -5  SZX         1    4    3    1
 -1         1-2.09646E+06-6.26585E+05-2.33500E+05-7.79016E+05-7.27596E-12-1.75593E-09
 -1         2-1.28432E+06 1.20480E+03 2.29805E+03-1.53805E+05-1.89175E-10 3.48609E-09
 -1         3-5.25611E+05-2.43587E+05 1.22133E+02-8.64702E+04-1.30626E-10-3.64184E-09
 -1         4-1.23850E+05-6.31675E+04 2.04437E+02-3.14327E+04-4.56453E-11 1.47224E-09
 -1         5 2.76378E+04 5.80548E+05-1.01895E+05 1.65690E+03 9.71340E-10 9.40236E-09
 -1         8-6.28249E+05-3.78327E+05-4.20293E+04-6.09002E+05 8.00355E-11-6.40284E-10
 -1         9-1.03145E+06-1.80286E+05-9.13187E+04-4.16052E+05 9.84073E-10 1.81899E-09
 -1        10-5.77247E+05-3.76542E+05 2.57891E+02-2.73786E+05-2.09457E-09 2.56644E-09
 -1        11-2.15955E+05-1.15229E+05 1.46050E+02-1.41039E+05 1.93487E-09-1.92449E-09
 -1        12-2.27733E+03 5.67004E+05-1.04030E+05-1.18073E+04 7.53062E-10 8.87155E-10
 -1        15 6.22783E+03-2.50128E+04 1.70202E+03-1.85925E+05 5.27507E-11-2.56841E-09
 -1        16-5.44516E+05-1.59653E+05-5.62797E+04-3.75910E+05 1.12777E-09-1.48005E-09
 -1        17-3.73832E+05-3.05144E+05-5.41137E+03-3.97665E+05-2.52173E-09-2.47383E-10
 -1        18-7.51784E+04-9.59244E+04-3.28800E+04-2.99087E+05 1.37758E-09 2.13064E-09
 -1        19 1.25051E+05 2.97409E+05-4.67216E+04-4.32766E+04-9.53150E-10 1.69954E-09
 -1        20 1.40867E+05-9.71974E+04-1.57032E+04 8.54968E+04 1.47461E-08-6.77574E-10
 -1        21-2.23472E+04-2.10159E+05-9.59166E+02 1.53367E+04 4.52046E-08-1.06134E-09
 -1        22 3.00946E+04 1.74720E+05 7.52168E+02-7.57888E+04 6.54836E-11-1.33150E-09
 -1        23-2.14788E+05-1.35530E+04 1.48487E+03-1.96571E+05 6.94248E-10 3.28782E-10
 -1        24-2.49115E+05-3.90700E+04 8.68351E+04-3.55262E+05-7.50636E-10 2.54659E-10
 -1        25 2.26403E+05 1.00550E+05 1.22492E+05-3.60898E+05 2.79306E-09-1.61284E-10
 -1        26 1.79861E+04 3.32943E+05 2.72613E+04-1.12202E+05 6.68479E-11-9.66793E-10
 -1        27-6.56088E+04-7.88721E+04-3.77787E+04 1.18219E+05 3.73711E-09-3.28085E-09
 -1        28-1.59017E+04-1.44688E+05-1.09391E+03 7.58168E+04 3.82911E-08 1.23410E-10
 -1        29 3.88735E+05 2.85288E+05 1.01501E+03-4.22981E+04 1.20110E-10 1.04751E-09
 -1        30 1.38080E+05 3.42718E+04 1.05870E+03-8.04595E+04 3.83039E-10-4.96584E-10
 -1        31-4.38094E+05 3.39840E+04 2.28640E+03-1.15967E+05-3.48241E-10 3.18323E-10
 -1        32-4.09812E+04 1.42915E+05 1.85864E+05-3.37283E+05 2.26869E-10 1.88811E-09
 -1        33 3.48047E+05 4.36198E+05 1.88187E+05-1.47299E+05 9.81174E-10-5.44787E-10
 -1        34-2.85280E+05-4.12793E+04-1.81798E+04 5.53415E+04 8.27792E-09 4.22006E-10
 -1        35-4.33888E+04-4.74491E+04-8.51109E+02 1.05056E+05 3.57358E-08-3.37362E-09
 -1        36-2.83215E+06 2.20326E+04-1.17906E+05-2.87573E-08 6.38321E-10-2.00816E-09
 -1        37-2.87272E+06-3.32777E+04-7.40041E+04 2.59206E-09 3.97242E-10-5.10227E-09
 -1        38-2.84940E+06 2.09733E+03-3.04406E+04-2.22745E-08-7.13544E-10 5.03678E-09
 -1        39-2.85357E+06-2.93645E+03-1.67314E+04-9.43544E-09 1.41787E-09 1.97383E-09
 -1        40-2.85119E+06 2.21284E+02-7.78689E+03-7.06117E-09-3.83413E-10-1.10276E-09
 -1        41-2.85154E+06-2.56214E+02-4.27390E+03-1.24818E-08-3.99873E-10 4.73028E-09
 -1        42-2.85140E+06 3.34216E+01-2.48234E+03-2.36708E-09-1.89199E-10-2.00174E-09
 -1        43-2.85132E+06-4.64158E+01-2.16261E+03 1.35258E-08 9.95388E-11-1.47703E-09
 -1        44-2.85139E+06 3.85845E+01-2.79889E+03-1.28288E-08 1.94135E-10-5.99266E-09
 -1        45-2.85160E+06-3.12177E+02-5.10098E+03 1.81779E-08-1.28512E-09-2.75116E-09
 -1        46-2.85113E+06 2.69781E+02-9.45102E+03 2.95408E-08 4.30917E-10 2.91084E-09
 -1        47-2.85409E+06-3.58576E+03-2.04019E+04 2.76146E-08-1.09209E-10 5.17684E-09
 -1        48-2.84894E+06 2.56104E+03-3.71568E+04-2.94168E-08-8.49604E-10 2.68665E-09
 -1        49-2.87748E+06-4.06362E+04-9.03599E+04-2.81270E-08 5.26308E-10 4.99676E-09
 -1        50-2.82787E+06 2.69068E+04-1.43959E+05 1.60835E-08-7.54253E-10 1.49157E-09
 -1        51 4.55713E+04-5.05951E+05 1.07807E+05-9.90374E+05-4.36557E-11-2.08092E-09
 -1        52 1.99623E+04-4.92285E+05 5.82126E+04-1.16961E+06 4.65661E-10 4.65661E-10
 -1        53 8.13192E+03-5.12974E+05 3.09256E+04-9.86778E+05 6.18456E-10 4.36557E-10
 -1        54 1.64766E+04-5.14162E+05 2.73848E+04-1.17309E+06 4.51109E-10 2.80852E-09
 -1        55 2.41895E+04-5.22287E+05 3.46514E+04-9.86508E+05 3.63798E-11 4.77667E-09
 -1        56-3.49538E+06-4.57164E+05-2.15181E+05-1.33830E+06 7.63976E-11-6.40284E-10
 -1        57-3.56414E+06-5.85712E+05-1.33178E+05-1.34561E+06 5.91626E-10 1.05501E-09
 -1        58-3.53093E+06-4.99243E+05-5.06224E+04-1.33497E+06 4.57476E-10-7.14863E-10
 -1        59-3.52293E+06-5.27065E+05-2.73065E+04-1.35363E+06 1.34332E-09 5.46788E-09
 -1        60-3.53464E+06-5.03472E+05-1.17827E+04-1.33481E+06-8.91305E-10 4.14775E-09
 -1        61-3.51884E+06-5.21162E+05-6.25918E+03-1.35378E+06-1.44064E-09 7.53133E-10
 -1        62-3.53478E+06-5.04202E+05-3.43736E+03-1.33513E+06 1.98725E-10-2.87366E-09
 -1        63-3.51914E+06-5.19933E+05-3.03061E+03-1.35285E+06 2.12276E-09-2.48679E-09
 -1        64-3.53424E+06-5.04722E+05-4.12777E+03-1.33569E+06-6.72571E-10-4.29736E-10
 -1        65-3.52090E+06-5.19396E+05-8.11539E+03-1.35138E+06 1.84218E-09-2.59274E-09
 -1        66-3.53290E+06-5.04890E+05-1.56261E+04-1.33649E+06 8.85393E-10 4.50746E-09
 -1        67-3.52825E+06-5.25249E+05-3.63257E+04-1.34874E+06 6.09589E-10 4.63206E-09
 -1        68-3.52697E+06-5.00239E+05-6.74624E+04-1.33776E+06-3.98700E-10-6.69388E-10
 -1        69-3.58488E+06-6.01580E+05-1.77405E+05-1.33595E+06-6.39375E-10 8.00355E-10
 -1        70-3.47875E+06-4.44992E+05-2.86648E+05-1.34311E+06 1.10595E-09-2.47383E-09
 -1        71-1.08553E+06-3.67417E+03 1.97226E+04-2.89735E-08 3.92700E-10-3.50065E-09
 -1        72-1.07861E+06 5.55724E+03 1.23695E+04-1.75353E-08 7.70768E-11 6.94126E-09
 -1        73-1.08264E+06-3.49668E+02 5.08224E+03-1.72117E-08-6.17543E-10 1.59866E-09
 -1        74-1.08180E+06 4.90021E+02 2.77408E+03 1.00664E-09 2.16848E-09-6.95763E-09
 -1        75-1.08234E+06-3.65061E+01 1.25163E+03 2.23524E-08-3.32726E-10 4.25507E-09
 -1        76-1.08215E+06 4.20919E+01 6.07974E+02 4.17459E-08 1.01569E-10 5.86476E-09
 -1        77-1.08230E+06-3.54549E+00 2.03107E+02-1.04506E-10 4.97043E-10 2.46123E-09
 -1        78-1.08220E+06-1.61494E+00-7.58088E+01-9.18568E-09-8.86747E-10-4.51995E-09
 -1        79-1.08229E+06 6.06243E+00-3.88202E+02 6.28862E-09 1.67550E-10 9.54799E-10
 -1        80-1.08227E+06-6.18984E+01-9.36307E+02-1.39592E-08 3.95851E-11 6.68008E-09
 -1        81-1.08223E+06 5.36315E+01-1.85512E+03-2.26804E-08-2.28001E-10 2.47587E-09
 -1        82-1.08277E+06-7.17488E+02-4.07312E+03-1.39615E-08 4.59180E-10-2.26919E-09
 -1        83-1.08179E+06 5.12058E+02-7.44647E+03-2.06770E-08-6.34143E-10-2.12458E-09
 -1        84-1.08746E+06-8.13672E+03-1.81135E+04 2.20757E-08 8.21363E-10 5.45697E-11
 -1        85-1.07756E+06 5.38063E+03-2.88728E+04-3.24985E-09-1.04332E-10-2.91402E-09
 -1        86-3.41006E+04 6.34456E+05 1.87393E+05-1.10981E+04 6.33008E-10 7.52334E-09
 -1        87 5.41518E+04 7.00288E+05 1.30821E+05-3.17019E+04 1.85901E-09 7.09952E-09
 -1        88-5.65586E+03 6.58904E+05 7.94079E+04-1.11565E+04 1.42609E-09 1.91540E-09
 -1        89 4.14837E+04 6.91984E+05 1.06363E+05-3.15016E+04 3.50246E-09-1.92813E-09
 -1        90-2.47966E+04 6.42386E+05 1.40181E+05-1.12658E+04 2.05910E-09-3.12139E-09
 -1        91-1.63064E+06-2.22581E+05-5.05070E+04-6.19679E+05 1.48611E-09 3.63798E-12
 -1        92-1.64390E+06-2.55462E+05-3.12429E+04-6.24577E+05-4.49063E-10-1.71894E-10
 -1        93-1.63901E+06-2.32410E+05-1.18928E+04-6.18888E+05-1.18575E-10 4.71846E-09
 -1        94-1.63421E+06-2.41767E+05-6.41895E+03-6.26503E+05 2.75676E-10 5.64978E-09
 -1        95-1.63990E+06-2.33377E+05-2.77938E+03-6.18830E+05-3.61013E-10 3.71887E-09
 -1        96-1.63321E+06-2.40437E+05-1.49080E+03-6.26603E+05 7.23446E-10-2.80932E-09
 -1        97-1.63997E+06-2.33513E+05-8.44304E+02-6.18870E+05 7.95922E-10-2.18802E-09
 -1        98-1.63322E+06-2.40219E+05-7.92141E+02-6.26472E+05-2.80158E-09 2.04727E-09
 -1        99-1.63988E+06-2.33590E+05-1.12774E+03-6.18957E+05-6.06406E-10-3.22859E-09
 -1       100-1.63358E+06-2.40210E+05-2.26073E+03-6.26229E+05-2.47269E-10-4.44732E-09
 -1       101-1.63959E+06-2.33555E+05-4.36560E+03-6.19091E+05 2.80124E-10-4.68845E-10
 -1       102-1.63548E+06-2.42008E+05-1.01597E+04-6.25690E+05-4.18368E-10-2.01612E-09
 -1       103-1.63801E+06-2.32171E+05-1.88626E+04-6.19345E+05 5.74687E-10-1.93086E-09
 -1       104-1.65111E+06-2.63461E+05-4.95584E+04-6.22311E+05 8.62372E-10-5.81167E-10
 -1       105-1.62461E+06-2.16706E+05-8.01224E+04-6.20739E+05-5.53882E-10 4.65661E-10
 -1       106-2.70337E+05-8.72895E+03 4.69122E+04 3.16008E-08-8.96531E-10-2.13186E-09
 -1       107-2.54075E+05 1.32089E+04 2.94266E+04 2.74836E-08 1.14707E-10-3.18323E-09
 -1       108-2.63461E+05-8.30715E+02 1.21073E+04-3.39040E-09 4.07525E-10-5.35692E-09
 -1       109-2.61677E+05 1.16436E+03 6.63203E+03-1.16658E-08-9.47045E-11-5.05543E-09
 -1       110-2.62744E+05-8.72149E+01 3.04098E+03-4.65744E-09-2.22450E-10 2.16357E-09
 -1       111-2.62486E+05 1.00719E+02 1.57382E+03 4.07303E-08-2.40320E-10-9.51673E-10
 -1       112-2.62653E+05-1.08085E+01 7.32729E+02-2.80848E-08-2.50499E-10 4.09784E-10
 -1       113-2.62593E+05 7.05222E+00 3.31869E+02-4.23195E-08 9.35793E-10 2.56614E-09
 -1       114-2.62637E+05-1.79717E-01 7.74960E+01-2.54958E-08-8.47026E-10 6.39062E-11
 -1       115-2.62626E+05-1.42408E+01-1.37067E+02 4.15216E-08 1.12149E-09 2.10781E-09
 -1       116-2.62621E+05 1.24510E+01-4.00579E+02 9.70074E-09-3.00911E-10-2.16468E-09
 -1       117-2.62748E+05-1.70967E+02-9.50599E+02-2.40389E-09 9.03068E-10 1.82013E-09
 -1       118-2.62515E+05 1.21914E+02-1.76647E+03 8.09911E-09 5.45803E-11 5.13467E-09
 -1       119-2.63865E+05-1.93954E+03-4.31543E+03 7.69694E-09-2.14461E-10 1.02051E-09
 -1       120-2.61504E+05 1.28199E+03-6.88484E+03 1.96576E-09-6.03618E-11 3.12866E-09
 -1       121 2.06084E+03-8.92522E+05-1.12724E+04-2.18542E+04 3.89718E-10 1.04319E-09
 -1       122-3.03128E+03-8.96279E+05-6.43045E+03-6.69149E+04-1.10140E-09-3.63798E-10
 -1       123 1.22317E+02-8.94369E+05-1.47697E+03-2.15246E+04 7.96263E-10-1.83718E-10
 -1       124 1.47407E+03-8.93667E+05 2.05704E+03-6.72916E+04-1.51613E-09 7.96626E-09
 -1       125-9.98598E+02-8.95415E+05 5.16795E+03-2.14769E+04 8.52651E-10 3.47889E-09
 -1       126-7.31805E+05-1.04273E+05-5.98048E+03-2.78270E+05 4.19277E-10 3.16641E-09
 -1       127-7.28622E+05-1.12852E+05-3.69956E+03-2.84220E+05 1.07786E-09 3.37718E-09
 -1       128-7.32825E+05-1.05405E+05-1.41352E+03-2.78145E+05 2.67050E-10 4.78536E-09
 -1       129-7.27447E+05-1.11266E+05-7.70582E+02-2.84489E+05-1.28053E-09 4.79030E-09
 -1       130-7.32937E+05-1.05513E+05-3.51153E+02-2.78133E+05-4.75168E-10 3.13088E-09
 -1       131-7.27332E+05-1.11109E+05-2.23818E+02-2.84500E+05 4.90672E-10-5.31088E-10
 -1       132-7.32936E+05-1.05535E+05-1.97088E+02-2.78143E+05-3.44244E-10-2.03613E-10
 -1       133-7.27366E+05-1.11070E+05-3.04833E+02-2.84456E+05 8.12179E-10 5.20060E-10
 -1       134-7.32894E+05-1.05555E+05-5.61780E+02-2.78172E+05 6.72344E-10-1.18973E-09
 -1       135-7.27533E+05-1.11109E+05-1.21846E+03-2.84367E+05-3.95175E-10 8.81641E-11
 -1       136-7.32755E+05-1.05514E+05-2.39663E+03-2.78219E+05 4.96811E-10-1.98906E-09
 -1       137-7.28521E+05-1.12154E+05-5.59862E+03-2.84129E+05-2.77396E-11 2.15402E-09
 -1       138-7.31916E+05-1.04722E+05-1.04048E+04-2.78322E+05-3.06954E-11 1.79170E-10
 -1       139-7.37074E+05-1.24032E+05-2.73260E+04-2.82328E+05-8.59700E-10-9.68839E-09
 -1       140-7.24544E+05-9.61801E+04-4.41847E+04-2.79055E+05-1.78215E-09-1.79534E-09
 -1       141 3.88499E+03-3.35191E+03 1.80113E+04-9.30322E-09 5.98284E-10 2.20552E-09
 -1       142 1.01220E+04 5.07228E+03 1.12905E+04-1.44339E-08 2.35982E-10 7.17364E-09
 -1       143 6.52807E+03-3.18791E+02 4.62619E+03-2.84415E-08-4.82046E-10-4.16708E-09
 -1       144 7.20123E+03 4.47069E+02 2.49704E+03 5.69757E-09 4.07823E-10 1.66665E-09
 -1       145 6.80533E+03-3.27097E+01 1.06817E+03-3.88920E-09-2.95587E-10 3.69295E-09
 -1       146 6.88298E+03 3.74768E+01 3.99753E+02-8.86935E-09 6.70854E-10-8.40721E-09
 -1       147 6.84632E+03-2.99884E-01-1.21797E+02-3.64359E-08-1.80242E-11-2.73278E-09
 -1       148 6.80461E+03-1.48969E+01-7.01805E+02-1.99652E-08 7.50892E-11 6.65437E-10
 -1       149 6.88370E+03 2.35301E+01-1.59153E+03 2.67798E-08 8.34642E-11-2.20166E-09
 -1       150 6.56894E+03-2.20199E+02-3.43764E+03-7.20732E-10-1.17709E-10 2.78499E-09
 -1       151 7.08207E+03 1.90719E+02-6.65054E+03-2.33196E-08-2.43625E-10-9.88166E-10
 -1       152 4.79965E+03-2.54628E+03-1.45076E+04-3.84830E-09 6.37200E-10 3.35808E-09
 -1       153 8.65402E+03 1.81687E+03-2.64828E+04-1.25112E-08 3.46106E-11-2.73394E-09
 -1       154-1.18231E+04-2.88870E+04-6.43648E+04 4.01269E-09-1.73741E-10-4.79213E-09
 -1       155 2.37223E+04 1.90982E+04-1.02554E+05-2.91020E-08 1.30641E-09 1.69530E-09
 -1       156 6.03252E+02-2.25558E+05-3.05806E+03-1.24387E+04 4.15241E-10-2.18279E-11
 -1       157-7.26004E+02-2.26522E+05-8.89016E+02-3.76506E+04 2.30852E-09 3.88354E-09
 -1       158-1.09032E+02-2.26256E+05 1.59734E+03-1.23135E+04 1.28716E-09 1.65255E-09
 -1       159 2.73430E+03-2.24439E+05 5.67842E+03-3.77959E+04 3.50894E-09-4.42924E-10
 -1       160-1.80313E+03-2.27768E+05 9.64639E+03-1.22928E+04 1.62709E-09 5.62068E-10
 -1       161-2.31430E+05-3.30215E+04-6.90862E+03-8.97636E+04-1.86958E-10 2.37287E-09
 -1       162-2.30265E+05-4.04891E+04-4.27873E+03-9.38463E+04 4.41158E-10 4.29594E-09
 -1       163-2.32573E+05-3.43645E+04-1.64251E+03-8.96584E+04-2.50452E-10 7.12816E-11
 -1       164-2.28947E+05-3.86148E+04-9.11234E+02-9.41043E+04 6.37698E-10-1.86492E-09
 -1       165-2.32692E+05-3.44998E+04-4.48559E+02-8.96539E+04-2.33342E-10-4.33806E-09
 -1       166-2.28819E+05-3.84323E+04-3.50162E+02-9.41135E+04 1.26869E-09-1.91653E-09
 -1       167-2.32693E+05-3.45165E+04-4.15289E+02-8.96589E+04-1.03796E-09 2.94790E-10
 -1       168-2.28854E+05-3.84306E+04-7.59520E+02-9.40997E+04-1.10867E-09-1.41790E-09
 -1       169-2.32649E+05-3.45008E+04-1.47427E+03-8.96647E+04 4.00519E-10-2.65709E-09
 -1       170-2.29156E+05-3.87027E+04-3.24363E+03-9.40685E+04-2.71370E-10 1.99782E-09
 -1       171-2.32385E+05-3.42761E+04-6.39084E+03-8.96737E+04 1.29830E-10 2.96359E-09
 -1       172-2.31572E+05-4.17314E+04-1.49502E+04-9.37365E+04 1.48202E-09 2.91061E-09
 -1       173-2.30296E+05-3.20094E+04-2.77730E+04-8.97894E+04 1.05729E-09-6.84668E-09
 -1       174-2.54040E+05-7.38081E+04-7.29507E+04-8.93952E+04-7.63976E-10 1.56069E-09
 -1       175-2.10845E+05-8.95067E+03-1.17901E+05-9.14639E+04 2.05182E-09-2.54659E-10
 -1       191 1.49016E+04 1.43804E+06 3.48577E+04 1.92954E+03-3.05590E-10 1.94996E-09
 -1       192 4.95857E+03 1.44467E+06 2.08814E+04 3.05598E+03-7.61020E-10 1.69257E-09
 -1       193 1.04313E+03 1.44056E+06 1.57527E+04 2.22541E+03-1.09746E-09-2.89219E-09
 -1       194 5.43492E+03 1.44499E+06 2.22304E+04 2.46912E+03-2.41289E-09-3.33966E-09
 -1       195 1.64276E+04 1.43775E+06 3.81111E+04 2.54792E+03-1.56433E-09 3.76349E-09
 -1       251 2.07813E+04-1.59325E+04 7.61566E+04-4.53464E+04-6.54836E-10 1.40062E-09
 -1       252 4.97695E+04 2.04605E+04 4.82690E+04-1.36167E+05-3.60160E-10-7.78527E-10
 -1       253 3.14283E+04-2.14156E+03 1.95430E+04-4.48845E+04 8.03993E-10-4.91309E-09
 -1       254 3.51972E+04 1.51969E+03 1.09514E+04-1.36620E+05-8.51287E-10 5.34328E-09
 -1       255 3.21348E+04-3.73099E+02 4.95751E+03-4.48831E+04 5.43878E-10 1.84764E-09
 -1       256 3.25398E+04 3.53954E+02 2.78606E+03-1.36619E+05 4.61114E-10-5.15001E-10
 -1       257 3.20080E+04 6.08921E+01 1.53725E+03-4.48891E+04-4.32919E-10 3.88172E-09
 -1       258 3.17902E+04 4.79233E+02 1.27157E+03-1.36608E+05-2.11912E-10-4.17913E-10
 -1       259 3.19420E+04 1.38963E+02 1.51569E+03-4.48931E+04-5.09090E-10-6.32554E-10
 -1       260 3.20478E+04 5.57128E+02 2.65824E+03-1.36610E+05 2.70120E-10-4.63729E-09
 -1       261 3.19420E+04-1.33875E+02 4.78852E+03-4.48867E+04 9.61336E-10-3.21188E-09
 -1       262 3.41547E+04 1.84477E+03 1.04005E+04-1.36602E+05 7.71252E-10-2.05837E-09
 -1       263 3.11611E+04-1.68467E+03 1.86870E+04-4.49009E+04-8.07631E-10 2.40379E-09
 -1       264 4.76057E+04 1.99787E+04 4.58487E+04-1.36202E+05-6.76664E-10-2.87355E-09
 -1       265 2.09568E+04-1.46518E+04 7.25368E+04-4.52985E+04-1.51704E-09 1.84082E-09
 -1       266-8.95204E+03-2.47552E+05 5.09509E+04-6.52189E+04 2.41926E-10-1.39880E-09
 -1       267 1.61831E+04-2.31200E+05 2.99321E+04-2.00555E+05-2.32831E-10 5.64796E-09
 -1       268-7.17883E+01-2.39478E+05 8.22428E+03-6.51624E+04-3.56977E-10-7.54881E-10
 -1       269-2.66901E+03-2.41398E+05-5.16314E+03-2.00137E+05-2.97860E-11 1.75351E-09
 -1       270 3.29384E+03-2.35271E+05-1.72091E+04-6.56719E+04-1.76442E-10 3.62706E-09
 -1       271-2.67741E+06-3.66742E+05-2.03672E+05-1.05847E+06-7.05768E-10-1.68802E-09
 -1       272-2.71228E+06-5.15876E+05-1.25683E+05-1.09722E+06-5.41149E-10-3.16322E-09
 -1       273-2.71322E+06-4.04033E+05-4.80675E+04-1.05335E+06-2.58296E-10 1.45883E-09
 -1       274-2.67108E+06-4.63809E+05-2.57452E+04-1.10946E+06 1.08048E-09 4.53838E-09
 -1       275-2.71843E+06-4.06245E+05-1.12174E+04-1.05174E+06-2.01908E-10-5.23869E-10
 -1       276-2.66553E+06-4.60580E+05-5.84434E+03-1.11309E+06-1.49612E-10-4.19686E-09
 -1       277-2.71982E+06-4.05609E+05-3.15825E+03-1.05090E+06 7.27596E-11 1.34594E-09
 -1       278-2.66446E+06-4.61081E+05-2.63590E+03-1.11460E+06 8.27185E-10 1.31899E-09
 -1       279-2.72008E+06-4.05309E+05-3.44204E+03-1.05067E+06 7.13015E-10-8.90395E-10
 -1       280-2.66507E+06-4.61486E+05-6.70101E+03-1.11437E+06 1.43882E-09 2.09184E-11
 -1       281-2.71914E+06-4.05313E+05-1.28846E+04-1.05105E+06-3.75621E-10 3.10320E-09
 -1       282-2.67073E+06-4.66382E+05-2.98892E+04-1.11187E+06-1.23600E-09-2.20007E-09
 -1       283-2.71387E+06-4.01964E+05-5.56320E+04-1.05226E+06 1.90994E-10-1.74623E-10
 -1       284-2.71749E+06-5.28232E+05-1.45912E+05-1.09959E+06 1.78488E-10 4.34011E-09
 -1       285-2.67315E+06-3.57728E+05-2.36134E+05-1.05737E+06-4.00178E-11-4.65661E-10
 -1       286-1.70531E+05-1.08839E+04 5.48279E+04-2.67945E+04 2.99224E-09 1.60071E-09
 -1       287-1.50496E+05 1.50676E+04 3.45913E+04-7.96528E+04 1.61253E-09 1.20417E-09
 -1       288-1.62683E+05-1.29077E+03 1.41105E+04-2.63803E+04 7.56700E-10 2.38833E-09
 -1       289-1.60220E+05 1.21600E+03 7.84735E+03-8.01427E+04 1.00408E-09-1.33696E-10
 -1       290-1.62021E+05-2.06606E+02 3.60186E+03-2.62958E+04-6.53017E-10 4.32738E-09
 -1       291-1.61692E+05 1.95188E+02 2.02871E+03-8.02713E+04 4.03816E-10 2.81489E-10
 -1       292-1.62032E+05 9.61903E+00 1.18173E+03-2.62528E+04 2.29375E-09 6.61839E-09
 -1       293-1.62063E+05 2.19373E+02 1.07628E+03-8.03314E+04 1.64891E-09 4.73392E-10
 -1       294-1.62079E+05 5.38210E+01 1.42078E+03-2.62354E+04 1.26363E-09-2.07615E-09
 -1       295-1.61942E+05 3.65171E+02 2.60861E+03-8.03367E+04 1.60253E-09-1.36697E-09
 -1       296-1.62187E+05-9.73499E+01 4.82267E+03-2.62473E+04 1.06729E-09 3.12190E-09
 -1       297-1.60449E+05 1.93000E+03 1.04266E+04-8.02747E+04 1.40062E-09-2.29022E-10
 -1       298-1.63211E+05-1.37669E+03 1.89231E+04-2.62972E+04 4.80213E-10 2.87582E-09
 -1       299-1.48055E+05 2.05973E+04 4.60870E+04-7.99255E+04-8.45830E-11-5.09317E-10
 -1       300-1.73818E+05-1.39494E+04 7.33081E+04-2.66033E+04-1.23691E-10-7.85803E-10
 -1       301 4.27529E+04 1.26765E+05 9.48933E+04-1.79736E+05-8.62201E-10-2.46473E-10
 -1       302 1.52498E+04 1.44546E+05 5.31514E+04-2.12980E+05 2.12458E-09-7.47605E-10
 -1       303 3.70279E+03 1.33814E+05 3.38647E+04-1.79569E+05 9.09495E-11 4.52587E-10
 -1       304 1.03990E+04 1.41445E+05 3.94907E+04-2.13006E+05 2.10639E-09 8.73092E-09
 -1       305 2.72361E+04 1.29823E+05 6.19308E+04-1.79768E+05-6.25732E-10 8.82119E-09
 -1       306-2.81830E+06-3.72948E+05-2.20484E+05-1.09998E+06 2.40107E-10-2.00816E-09
 -1       307-2.87551E+06-5.16699E+05-1.36298E+05-1.12148E+06 6.63931E-10-2.32831E-09
 -1       308-2.85613E+06-4.14499E+05-5.19480E+04-1.09520E+06-5.30235E-10 8.29459E-10
 -1       309-2.83148E+06-4.59004E+05-2.79320E+04-1.13274E+06-5.96174E-10 1.15779E-09
 -1       310-2.86110E+06-4.17629E+05-1.20803E+04-1.09393E+06-9.93168E-10-3.03771E-10
 -1       311-2.82577E+06-4.54784E+05-6.31749E+03-1.13537E+06 2.72121E-09-5.58543E-10
 -1       312-2.86220E+06-4.17386E+05-3.34465E+03-1.09331E+06-5.35238E-10-5.70708E-11
 -1       313-2.82475E+06-4.54990E+05-2.71042E+03-1.13638E+06 8.75502E-10-6.44832E-10
 -1       314-2.86238E+06-4.17192E+05-3.41745E+03-1.09314E+06 1.30331E-09 1.19371E-10
 -1       315-2.82532E+06-4.55406E+05-6.55514E+03-1.13622E+06 1.69575E-09-1.75692E-09
 -1       316-2.86160E+06-4.17050E+05-1.25264E+04-1.09342E+06 8.63110E-10-9.61336E-10
 -1       317-2.83074E+06-4.60453E+05-2.90781E+04-1.13437E+06-1.23919E-09 4.42378E-09
 -1       318-2.85681E+06-4.13408E+05-5.40133E+04-1.09437E+06 1.56888E-11-3.18323E-09
 -1       319-2.87597E+06-5.21223E+05-1.41882E+05-1.12355E+06 2.14072E-09-2.28829E-09
 -1       320-2.81782E+06-3.69746E+05-2.29405E+05-1.09895E+06-2.73030E-09 2.75031E-09
 -1       321-6.56153E+03-1.66637E+04 8.91454E+04-1.05000E+04 4.16549E-10 1.25146E-09
 -1       322 2.44147E+04 2.50428E+04 5.59390E+04-3.15005E+04-1.83036E-09-3.20142E-10
 -1       323 6.47517E+03-1.61569E+03 2.30118E+04-1.03892E+04-2.64663E-10 7.10315E-10
 -1       324 9.86322E+03 2.19425E+03 1.26320E+04-3.16107E+04 1.08275E-09 8.58108E-10
 -1       325 7.81562E+03-1.75988E+02 5.82140E+03-1.03823E+04-6.45741E-11 2.92766E-09
 -1       326 8.26402E+03 2.01853E+02 3.08532E+03-3.16169E+04 4.95675E-11 2.34263E-09
 -1       327 7.97225E+03-1.75289E+01 1.57331E+03-1.03832E+04-9.20863E-11 3.15606E-09
 -1       328 8.05061E+03 4.26452E+01 1.00221E+03-3.16160E+04-1.07434E-10 3.69710E-09
 -1       329 7.98828E+03-4.00650E+00 8.71024E+02-1.03832E+04 3.72893E-11-4.78542E-09
 -1       330 8.10056E+03 8.44268E+01 1.24974E+03-3.16154E+04-4.85670E-10-2.30131E-09
 -1       331 7.94238E+03-6.27641E+01 2.13153E+03-1.03838E+04-2.31921E-11-1.22797E-09
 -1       332 8.68799E+03 7.74175E+02 4.49829E+03-3.16106E+04 6.12545E-10 1.99833E-09
 -1       333 7.48174E+03-5.83907E+02 8.13330E+03-1.03879E+04 5.68434E-11-4.07181E-09
 -1       334 1.38772E+04 8.81614E+03 1.97505E+04-3.15104E+04-1.48702E-10-2.39197E-09
 -1       335 2.89599E+03-5.91867E+03 3.14383E+04-1.04861E+04-9.25866E-10-2.24827E-09
 -1       336-1.04767E+03-9.05596E+05 3.17925E+03-1.09094E+05 1.78534E-09 5.52973E-10
 -1       337 2.80311E+03-9.05536E+05-2.22087E+01-3.35073E+05-4.71391E-09-3.29692E-09
 -1       338 1.10270E+03-9.05279E+05-4.63277E+03-1.08252E+05 2.67573E-09 1.42791E-09
 -1       339-4.11109E+03-9.10699E+05-1.37330E+04-3.35338E+05-4.22369E-09 9.28594E-09
 -1       340 4.51186E+03-9.01406E+05-2.31131E+04-1.08828E+05 2.82307E-09 4.70209E-09
 -1       341-1.64518E+06-2.21941E+05-8.24703E+04-6.32336E+05-8.74024E-10-2.06273E-09
 -1       342-1.66638E+06-2.76086E+05-5.10082E+04-6.40857E+05-9.14838E-10-4.21642E-09
 -1       343-1.65903E+06-2.37793E+05-1.94314E+04-6.30850E+05-7.72616E-10-1.19962E-09
 -1       344-1.65028E+06-2.54052E+05-1.04885E+04-6.44416E+05-1.74066E-09 1.99975E-09
 -1       345-1.66065E+06-2.39208E+05-4.56267E+03-6.30592E+05-8.90395E-10 3.47632E-09
 -1       346-1.64839E+06-2.52161E+05-2.47972E+03-6.44937E+05 3.63002E-10-2.42753E-09
 -1       347-1.66090E+06-2.39279E+05-1.47347E+03-6.30501E+05 1.99930E-09-1.75584E-09
 -1       348-1.64818E+06-2.52073E+05-1.50104E+03-6.45046E+05 9.60370E-10-1.24714E-09
 -1       349-1.66087E+06-2.39263E+05-2.26008E+03-6.30502E+05 3.27987E-11 4.44766E-09
 -1       350-1.64863E+06-2.52377E+05-4.63135E+03-6.44926E+05-1.04484E-09-3.51190E-09
 -1       351-1.66044E+06-2.39025E+05-8.98058E+03-6.30595E+05-3.16163E-10-6.27551E-11
 -1       352-1.65222E+06-2.56413E+05-2.09386E+04-6.44196E+05 9.98114E-10 7.62702E-09
 -1       353-1.65736E+06-2.36004E+05-3.88769E+04-6.30925E+05-1.42109E-10-1.80080E-10
 -1       354-1.68407E+06-3.01012E+05-1.02171E+05-6.37641E+05 9.76570E-10-4.26553E-09
 -1       355-1.62990E+06-2.03915E+05-1.65120E+05-6.33568E+05-1.44973E-09-2.70666E-09
 -1       356 1.49478E+05-8.45437E+03 4.51992E+04-8.04769E+03 3.17414E-10 4.42924E-09
 -1       357 1.65181E+05 1.26944E+04 2.83590E+04-2.43395E+04-1.11959E-09-4.68390E-10
 -1       358 1.56093E+05-8.20250E+02 1.16468E+04-7.99159E+03-3.47882E-10-4.95675E-10
 -1       359 1.57796E+05 1.10895E+03 6.35581E+03-2.43812E+04 6.63022E-10 1.25056E-11
 -1       360 1.56774E+05-8.88973E+01 2.85154E+03-8.00299E+03-2.47383E-10 3.40629E-09
 -1       361 1.56977E+05 9.74646E+01 1.35669E+03-2.43632E+04 3.56977E-10-4.72858E-09
 -1       362 1.56861E+05-5.91182E+00 3.88130E+02-8.00962E+03-2.64208E-10 2.09855E-09
 -1       363 1.56835E+05-1.36997E+00-3.35142E+02-2.43571E+04-9.51658E-10 8.76753E-10
 -1       364 1.56902E+05 1.94572E+01-1.20764E+03-8.00919E+03 1.05729E-09-3.19801E-10
 -1       365 1.56640E+05-1.83506E+02-2.80917E+03-2.43662E+04-5.20231E-10 1.86071E-09
 -1       366 1.57076E+05 1.52077E+02-5.52835E+03-8.00053E+03-3.91765E-10 2.05227E-09
 -1       367 1.55196E+05-2.14221E+03-1.21031E+04-2.43856E+04 7.69205E-10-1.19144E-10
 -1       368 1.58404E+05 1.49471E+03-2.21244E+04-7.98990E+03-4.42469E-10-3.41606E-09
 -1       369 1.41374E+05-2.41657E+04-5.37607E+04-2.43381E+04-1.64619E-09 2.26009E-09
 -1       370 1.71009E+05 1.59015E+04-8.56886E+04-8.04162E+03 1.19962E-09 3.37604E-09
 -1       371-2.19249E+03-2.07682E+05 1.06125E+04-7.78841E+04 2.95495E-09-5.88261E-09
 -1       372 3.86989E+03-2.04618E+05 4.93375E+03-2.36629E+05 1.01563E-08 3.45790E-09
 -1       373 5.00685E+02-2.06004E+05-1.63841E+03-7.75367E+04 4.55952E-09-2.09297E-10
 -1       374-3.75716E+03-2.09632E+05-9.79240E+03-2.36678E+05 1.04935E-08 5.07134E-09
 -1       375 3.42873E+03-2.02905E+05-1.77766E+04-7.78359E+04 3.50701E-09 4.48563E-09
 -1       376-7.60010E+05-1.04078E+05-4.81189E+04-2.97542E+05 1.02591E-09 1.08776E-09
 -1       377-7.66159E+05-1.41876E+05-2.97596E+04-3.09666E+05 1.13960E-09-1.73168E-09
 -1       378-7.68065E+05-1.13345E+05-1.13468E+04-2.96726E+05-1.41654E-10 3.90173E-10
 -1       379-7.56869E+05-1.28945E+05-6.13368E+03-3.11654E+05-3.99382E-10-3.08660E-10
 -1       380-7.68967E+05-1.14215E+05-2.68734E+03-2.96632E+05 1.51886E-10-4.02167E-09
 -1       381-7.55859E+05-1.27758E+05-1.49981E+03-3.11859E+05-7.06677E-10 8.80490E-10
 -1       382-7.69071E+05-1.14297E+05-9.66358E+02-2.96622E+05-8.89031E-11 3.40214E-09
 -1       383-7.55802E+05-1.27650E+05-1.10672E+03-3.11836E+05 5.37739E-10 4.45351E-09
 -1       384-7.69011E+05-1.14315E+05-1.79006E+03-2.96652E+05 2.91720E-10 2.83194E-09
 -1       385-7.56186E+05-1.27878E+05-3.74272E+03-3.11690E+05 1.80898E-09 6.53961E-09
 -1       386-7.68642E+05-1.14130E+05-7.30108E+03-2.96722E+05-1.37516E-09 4.18095E-09
 -1       387-7.59047E+05-1.31184E+05-1.70230E+04-3.11101E+05 1.42109E-10-6.59202E-09
 -1       388-7.66155E+05-1.11667E+05-3.16261E+04-2.96956E+05 1.60173E-09-2.71029E-09
 -1       389-7.84834E+05-1.67458E+05-8.30443E+04-3.05802E+05 3.35376E-10 3.47427E-09
 -1       390-7.43837E+05-8.55979E+04-1.34243E+05-2.99049E+05 2.14823E-09 1.57161E-09
 -1       406 1.46245E+04 1.39893E+06 3.59037E+04-2.85337E+04-2.07729E-09 7.74889E-10
 -1       407 5.14275E+03 1.40581E+06 2.49598E+04-3.28216E+04-3.82784E-09-2.74031E-09
 -1       408 1.78395E+03 1.40103E+06 2.46904E+04-2.82134E+04-2.99769E-09-3.74530E-09
 -1       409 1.14528E+04 1.40971E+06 4.25925E+04-3.33923E+04-5.32782E-09-4.94765E-10
 -1       410 3.47426E+04 1.39482E+06 7.84504E+04-2.78800E+04-3.55794E-09-6.58474E-10
 -1       466 1.21094E+06-2.20754E+04 1.16061E+05-2.87188E+04-1.09139E-10-4.73665E-09
 -1       467 1.25172E+06 3.23983E+04 7.29603E+04-8.91508E+04 6.80302E-10 5.82077E-10
 -1       468 1.22779E+06-2.24440E+03 2.99848E+04-2.90553E+04-3.63798E-11 3.61979E-10
 -1       469 1.23220E+06 2.85054E+03 1.65491E+04-8.84113E+04 2.66027E-10 2.48656E-09
 -1       470 1.22942E+06-2.34136E+02 7.70024E+03-2.94390E+04-4.00178E-11 3.91083E-10
 -1       471 1.22983E+06 3.83872E+02 4.26802E+03-8.78574E+04 1.09139E-11 1.48248E-10
 -1       472 1.22957E+06 2.35273E+01 2.51535E+03-2.96101E+04 2.25100E-10 1.39471E-09
 -1       473 1.22955E+06 2.15795E+02 2.24898E+03-8.77349E+04 1.76840E-10 2.47337E-09
 -1       474 1.22958E+06-4.36671E+00 2.95600E+03-2.95616E+04-5.33873E-10 2.50748E-09
 -1       475 1.23006E+06 4.05658E+02 5.43716E+03-8.80556E+04 3.06045E-10 4.49759E-09
 -1       476 1.22939E+06-3.64552E+02 1.00278E+04-2.92891E+04 1.19962E-09-1.36379E-09
 -1       477 1.23319E+06 3.64391E+03 2.17224E+04-8.88013E+04 7.62157E-10-2.01908E-10
 -1       478 1.22723E+06-2.99921E+03 3.94081E+04-2.88144E+04-2.39379E-09 1.81899E-10
 -1       479 1.25880E+06 4.25368E+04 9.59531E+04-8.97061E+04-2.37196E-09-3.18323E-11
 -1       480 1.20505E+06-2.90400E+04 1.52677E+05-2.84173E+04-1.08594E-09-2.05910E-09
 -1       481-5.89981E+03 3.14156E+05 3.27265E+04-2.36458E+04 1.27329E-11-1.20741E-09
 -1       482 9.65955E+03 3.25316E+05 2.16143E+04-7.03162E+04-3.09115E-10 5.34328E-09
 -1       483-6.75347E+02 3.18733E+05 1.09739E+04-2.35984E+04-1.07207E-10 2.17779E-09
 -1       484 4.14087E+03 3.22034E+05 1.11600E+04-7.02992E+04 3.59250E-11-1.05319E-09
 -1       485-2.09398E+03 3.17692E+05 1.24905E+04-2.36678E+04 4.00178E-11-1.98997E-09
 -1       486-1.19398E+06-1.54463E+05-1.19418E+05-4.70116E+05-1.15506E-10-1.90630E-09
 -1       487-1.22494E+06-2.32505E+05-7.38382E+04-4.82084E+05-4.23370E-10-3.23053E-09
 -1       488-1.21406E+06-1.77383E+05-2.81431E+04-4.67997E+05 4.47926E-10 1.39880E-09
 -1       489-1.20170E+06-2.00609E+05-1.51437E+04-4.87289E+05 4.72028E-10 1.08366E-09
 -1       490-1.21643E+06-1.79403E+05-6.53608E+03-4.67631E+05-5.23414E-10-8.13998E-10
 -1       491-1.19898E+06-1.97904E+05-3.40205E+03-4.88140E+05 1.30058E-10 4.05180E-10
 -1       492-1.21686E+06-1.79448E+05-1.75555E+03-4.67462E+05-8.59472E-11-1.58400E-09
 -1       493-1.19855E+06-1.97853E+05-1.33691E+03-4.88465E+05 4.43379E-11 4.39581E-10
 -1       494-1.21695E+06-1.79364E+05-1.57735E+03-4.67386E+05 7.63066E-10 1.53852E-09
 -1       495-1.19872E+06-1.98128E+05-2.93326E+03-4.88533E+05 2.64361E-10 8.56289E-10
 -1       496-1.21672E+06-1.79182E+05-5.54961E+03-4.67402E+05-5.51381E-12-8.60837E-10
 -1       497-1.20087E+06-2.00634E+05-1.28591E+04-4.88111E+05-1.76669E-10-8.87894E-10
 -1       498-1.21483E+06-1.77348E+05-2.38524E+04-4.67604E+05-1.06809E-10-4.71118E-10
 -1       499-1.22041E+06-2.27896E+05-6.26343E+04-4.83973E+05 9.11768E-11-4.58385E-10
 -1       500-1.19791E+06-1.57788E+05-1.01262E+05-4.69289E+05 7.37600E-10 2.91038E-10
 -1       501 3.68056E+05-1.46433E+04 7.40290E+04-3.25930E+04 3.22689E-09-1.39335E-09
 -1       502 3.94936E+05 2.04176E+04 4.66982E+04-9.89677E+04 5.71163E-10 7.16682E-10
 -1       503 3.78643E+05-1.68487E+03 1.90692E+04-3.24808E+04-1.03682E-10 1.27693E-09
 -1       504 3.81790E+05 1.73744E+03 1.05954E+04-9.89040E+04-3.30147E-10 5.43923E-09
 -1       505 3.79540E+05-2.24197E+02 4.87680E+03-3.26441E+04 6.89397E-10 3.15549E-09
 -1       506 3.79833E+05 3.46640E+02 2.73336E+03-9.86400E+04 1.75305E-09 2.64845E-09
 -1       507 3.79540E+05 5.13578E+01 1.59199E+03-3.27457E+04 1.39744E-09 1.49385E-09
 -1       508 3.79401E+05 3.47673E+02 1.42564E+03-9.85148E+04 1.74805E-09 3.96540E-10
 -1       509 3.79501E+05 8.40158E+01 1.86267E+03-3.27687E+04 1.30819E-09 1.69416E-09
 -1       510 3.79659E+05 4.92512E+02 3.40599E+03-9.85452E+04 2.36082E-09 3.83011E-10
 -1       511 3.79394E+05-1.52427E+02 6.27197E+03-3.27153E+04 7.48514E-10 1.52409E-09
 -1       512 3.81749E+05 2.46534E+03 1.35832E+04-9.87151E+04 2.55841E-09 2.45211E-09
 -1       513 3.78107E+05-1.87281E+03 2.46094E+04-3.25985E+04 5.11136E-10 1.91812E-09
 -1       514 3.98084E+05 2.66816E+04 6.00043E+04-9.87322E+04-8.08541E-10 2.56432E-09
 -1       515 3.64350E+05-1.83111E+04 9.53706E+04-3.27115E+04-2.52840E-10-7.56700E-10
 -1       516-1.08067E+04 2.11550E+05 6.18661E+04-5.99820E+04 2.87037E-09 2.80352E-10
 -1       517 1.90686E+04 2.32451E+05 4.30965E+04-1.80666E+05 5.36943E-09 5.05497E-09
 -1       518-1.52802E+03 2.19772E+05 2.59482E+04-5.98666E+04 2.40857E-09 3.22234E-09
 -1       519 1.41882E+04 2.30632E+05 3.44929E+04-1.80565E+05 4.80941E-09 1.08776E-09
 -1       520-8.25640E+03 2.14915E+05 4.49589E+04-6.00999E+04 1.28057E-09-1.30422E-09
 -1       521-2.30028E+06-3.05657E+05-1.97586E+05-9.05132E+05 3.31056E-10 1.54250E-09
 -1       522-2.34395E+06-4.41690E+05-1.22087E+05-9.32839E+05 1.15551E-09 7.78346E-09
 -1       523-2.33422E+06-3.42781E+05-4.65732E+04-9.00894E+05 5.30235E-10 4.38376E-09
 -1       524-2.30472E+06-3.89974E+05-2.50151E+04-9.42997E+05-9.28594E-10 2.22781E-09
 -1       525-2.33867E+06-3.45573E+05-1.08153E+04-8.99821E+05-1.30058E-09-1.98634E-09
 -1       526-2.29977E+06-3.86103E+05-5.61383E+03-9.45340E+05 3.87899E-09 2.52192E-09
 -1       527-2.33965E+06-3.45369E+05-2.90302E+03-8.99317E+05 3.27873E-10 1.61140E-09
 -1       528-2.29894E+06-3.86206E+05-2.22157E+03-9.46184E+05 1.24703E-09 1.02500E-09
 -1       529-2.33978E+06-3.45235E+05-2.64386E+03-8.99200E+05-4.22546E-10 1.03523E-09
 -1       530-2.29940E+06-3.86443E+05-4.94063E+03-9.45959E+05-1.55615E-09 1.24146E-09
 -1       531-2.33912E+06-3.45222E+05-9.39191E+03-8.99474E+05 8.93124E-10-2.10093E-10
 -1       532-2.30351E+06-3.90046E+05-2.17317E+04-9.44272E+05-3.26054E-10 2.57933E-09
 -1       533-2.33537E+06-3.42686E+05-4.03965E+04-9.00300E+05-6.25732E-10-1.32786E-10
 -1       534-2.33744E+06-4.35085E+05-1.05972E+05-9.35637E+05 8.32188E-10-1.34605E-09
 -1       535-2.30595E+06-3.10426E+05-1.71469E+05-9.03934E+05-1.39153E-09 3.49246E-10
 -1       536 9.81143E+05-2.87016E+04 1.53480E+05-1.48083E+04-2.40107E-10-1.90630E-09
 -1       537 1.03447E+06 4.30309E+04 9.63131E+04-4.66699E+04-1.86446E-09-8.67658E-10
 -1       538 1.00359E+06-2.80698E+03 3.96368E+04-1.49546E+04-2.80124E-10-8.82210E-10
 -1       539 1.00937E+06 3.74737E+03 2.17812E+04-4.62878E+04 5.42059E-10 4.80577E-09
 -1       540 1.00589E+06-3.16242E+02 1.00675E+04-1.51690E+04-6.18456E-11 2.57387E-09
 -1       541 1.00659E+06 3.39095E+02 5.40022E+03-4.59433E+04-1.54614E-10-5.53428E-10
 -1       542 1.00615E+06-3.46920E+01 2.87182E+03-1.52997E+04-2.18279E-10-3.07182E-10
 -1       543 1.00621E+06 8.26417E+01 2.05794E+03-4.57783E+04-2.39652E-10-2.18085E-09
 -1       544 1.00616E+06-1.35141E+01 2.14584E+03-1.53343E+04-1.57229E-10-8.19568E-10
 -1       545 1.00637E+06 2.37296E+02 3.49662E+03-4.58033E+04-2.91948E-10-1.71279E-09
 -1       546 1.00600E+06-1.77339E+02 6.24956E+03-1.52747E+04 4.52928E-10 1.92858E-09
 -1       547 1.00807E+06 2.31844E+03 1.33519E+04-4.60118E+04-3.91083E-10-7.29415E-10
 -1       548 1.00460E+06-1.70274E+03 2.42323E+04-1.51253E+04-1.74623E-10-1.21236E-09
 -1       549 1.02342E+06 2.62982E+04 5.88325E+04-4.62796E+04 5.88443E-10 2.94131E-09
 -1       550 9.90897E+05-1.75360E+04 9.37133E+04-1.50152E+04-1.71713E-09 4.94765E-10
 -1       551 2.05421E+04-2.59176E+05 4.32662E+04-4.59060E+05-2.93585E-09-1.38243E-09
 -1       552 9.29707E+03-2.51974E+05 2.62980E+04-5.43882E+05 2.34286E-09 1.96451E-10
 -1       553 4.09562E+03-2.57240E+05 2.02648E+04-4.58280E+05-3.97267E-09 4.53383E-10
 -1       554 1.04409E+04-2.51574E+05 2.91641E+04-5.44002E+05 2.08092E-09 2.45927E-09
 -1       555 2.40262E+04-2.60209E+05 5.02016E+04-4.58923E+05-3.64525E-09-1.60617E-09
 -1       556-7.70095E+05-2.28559E+05-3.28168E+04-4.26969E+05-9.45874E-10-1.13505E-09
 -1       557-7.56016E+05-2.40341E+05-1.61476E+04-4.54056E+05 2.64845E-09 4.20505E-09
 -1       558-7.72241E+05-2.16497E+05-6.89991E+03-4.32046E+05 6.91216E-11 4.35648E-10
 -1       559-7.52537E+05-2.36385E+05-3.36155E+03-4.55589E+05 2.25555E-10-1.02290E-09
 -1       560-7.72866E+05-2.15822E+05-1.57730E+03-4.32474E+05-2.14641E-10-1.09935E-10
 -1       561-7.52606E+05-2.36124E+05-8.16824E+02-4.55904E+05 4.58385E-10 2.51566E-09
 -1       562-7.73149E+05-2.15697E+05-5.06902E+02-4.32621E+05 2.56478E-10 5.63887E-11
 -1       563-7.52751E+05-2.36056E+05-5.08575E+02-4.56034E+05 1.00044E-10 5.59339E-10
 -1       564-7.73204E+05-2.15646E+05-7.93221E+02-4.32661E+05 5.54792E-11-8.78572E-10
 -1       565-7.52784E+05-2.36058E+05-1.58289E+03-4.56034E+05-1.28239E-09-1.41881E-09
 -1       566-7.73016E+05-2.15664E+05-3.20877E+03-4.32591E+05-1.23691E-10 9.33142E-10
 -1       567-7.53127E+05-2.36457E+05-6.99131E+03-4.55881E+05-4.89308E-10-5.38421E-10
 -1       568-7.72348E+05-2.16654E+05-1.43260E+04-4.31977E+05-2.33194E-09-9.63701E-09
 -1       569-7.60442E+05-2.45245E+05-3.37225E+04-4.54141E+05-3.40151E-10-1.82990E-09
 -1       570-7.69254E+05-2.40799E+05-6.83815E+04-4.20992E+05-7.05768E-10-1.01227E-09
 -1       571 7.96284E+05 3.72987E+04 8.38073E+04-1.41545E+05 7.53062E-10-6.38465E-10
 -1       572 8.12012E+05 1.19089E+04 4.25644E+04-1.66870E+05-9.78616E-10-1.46611E-09
 -1       573 8.02774E+05 1.14170E+03 1.91311E+04-1.40909E+05-1.66983E-09-3.81988E-11
 -1       574 8.04069E+05 2.81216E+02 9.74882E+03-1.67477E+05 8.47649E-10 1.50976E-09
 -1       575 8.03087E+05-1.72576E+02 4.69754E+03-1.40866E+05 2.57387E-09-9.05857E-10
 -1       576 8.03177E+05-4.44739E+01 2.41971E+03-1.67522E+05 1.31149E-09-4.65843E-09
 -1       577 8.03075E+05-4.59788E+01 1.22557E+03-1.40865E+05-1.81359E-10-1.93540E-09
 -1       578 8.03084E+05-1.42093E+01 7.10822E+02-1.67528E+05-8.59927E-10-1.89175E-10
 -1       579 8.03184E+05-7.23572E+01 5.04661E+02-1.40861E+05-5.00222E-10-1.96633E-09
 -1       580 8.03306E+05-1.29590E+02 5.85689E+02-1.67538E+05 2.69210E-10 2.13367E-09
 -1       581 8.03458E+05-2.55769E+02 9.07325E+02-1.40854E+05-1.16052E-09 2.83762E-10
 -1       582 8.03873E+05-2.93856E+02 1.79791E+03-1.67491E+05-8.00355E-10 3.25417E-09
 -1       583 8.03821E+05-2.83412E+02 3.44124E+03-1.40906E+05-4.94765E-10 2.15732E-09
 -1       584 8.05910E+05 1.51125E+03 7.69610E+03-1.66720E+05-5.03496E-09 1.94268E-09
 -1       585 8.03168E+05 5.97130E+03 1.50747E+04-1.41642E+05 1.74623E-09 4.64934E-09
 -1       586 8.42108E+03 1.39436E+05 1.71308E+04-5.10550E+05 9.86256E-09-1.95723E-09
 -1       587 5.09722E+03 1.41577E+05 1.27398E+04-6.04704E+05 1.24419E-08 2.20098E-09
 -1       588 3.27614E+03 1.39075E+05 1.35265E+04-5.09693E+05 1.21436E-08 4.45334E-09
 -1       589 9.31273E+03 1.43971E+05 2.42878E+04-6.04790E+05 1.34678E-08 1.95450E-09
 -1       590 2.17430E+04 1.36491E+05 4.50063E+04-5.10442E+05 1.09567E-08 7.27596E-12
 -1       591-5.12369E+05-1.57047E+05-6.25815E+04-2.65303E+05 1.15188E-09 4.29281E-10
 -1       592-5.10748E+05-1.54704E+05-3.08820E+04-2.88160E+05-4.84761E-10 3.72575E-09
 -1       593-5.14778E+05-1.35217E+05-1.31156E+04-2.75388E+05-1.26784E-09 3.32511E-09
 -1       594-5.03969E+05-1.46575E+05-6.42163E+03-2.89360E+05-1.74532E-09 1.73060E-09
 -1       595-5.15192E+05-1.34426E+05-2.96935E+03-2.75859E+05-1.73713E-10-1.69939E-09
 -1       596-5.03533E+05-1.46250E+05-1.52012E+03-2.89375E+05 1.08685E-10-6.53927E-10
 -1       597-5.15285E+05-1.34450E+05-8.62580E+02-2.75881E+05 3.43925E-09 8.36735E-09
 -1       598-5.03494E+05-1.46251E+05-7.53633E+02-2.89363E+05 7.11111E-10-3.59250E-10
 -1       599-5.15256E+05-1.34456E+05-1.04156E+03-2.75868E+05 1.96906E-10-1.83263E-09
 -1       600-5.03508E+05-1.46267E+05-1.99095E+03-2.89346E+05 3.47427E-10-2.44700E-09
 -1       601-5.15088E+05-1.34438E+05-3.97390E+03-2.75817E+05-7.03949E-10-1.30240E-09
 -1       602-5.04071E+05-1.46717E+05-8.63811E+03-2.89309E+05-2.39197E-10 1.02773E-09
 -1       603-5.14521E+05-1.35510E+05-1.76590E+04-2.75174E+05 3.12866E-10-6.34282E-09
 -1       604-5.13157E+05-1.57697E+05-4.15824E+04-2.87734E+05-6.32008E-09 6.09361E-10
 -1       605-5.11320E+05-1.64834E+05-8.42561E+04-2.61543E+05 1.69348E-09 1.05101E-08
 -1       606 2.15989E+05-2.06222E+04-4.59066E+04 4.95618E+04-1.36442E-08 5.82986E-10
 -1       607 2.07241E+05-6.59315E+03-2.32975E+04 5.77598E+04-4.44561E-09 1.66710E-09
 -1       608 2.12079E+05-6.56686E+02-1.04898E+04 4.91127E+04 1.00626E-08-1.70076E-10
 -1       609 2.11181E+05-2.55526E+01-5.32647E+03 5.82065E+04-4.58385E-09-5.31372E-10
 -1       610 2.11636E+05 2.36203E+02-2.56630E+03 4.90741E+04-1.77479E-08 4.13729E-09
 -1       611 2.11417E+05 2.92724E+02-1.29013E+03 5.82411E+04-3.00124E-08 4.20778E-09
 -1       612 2.11491E+05 2.61630E+02-6.13613E+02 4.90737E+04-1.28584E-08-2.25782E-09
 -1       613 2.11367E+05 3.31278E+02-2.60578E+02 5.82394E+04-2.05255E-08-1.98179E-09
 -1       614 2.11402E+05 2.83491E+02-3.50253E+01 4.90745E+04-8.64020E-10-5.45697E-11
 -1       615 2.11311E+05 3.62396E+02 1.81876E+02 5.82355E+04 1.38102E-08-9.39963E-10
 -1       616 2.11336E+05 3.04847E+02 4.76076E+02 4.90768E+04-1.01281E-08 1.79125E-09
 -1       617 2.11335E+05 4.38676E+02 1.05659E+03 5.82286E+04 2.59706E-09 5.40513E-09
 -1       618 2.11237E+05 4.89334E+02 2.10657E+03 4.90799E+04-1.14414E-09 3.38150E-09
 -1       619 2.12140E+05 1.76354E+03 4.70308E+03 5.81928E+04-1.66563E-09 9.28367E-10
 -1       620 2.10461E+05 4.52006E+03 9.27079E+03 4.90927E+04 7.90169E-09 7.98536E-10
 -1       621 9.44379E+03 8.45820E+05 2.26848E+04-1.32423E+05-3.38287E-09 8.79936E-11
 -1       622 3.85881E+03 8.50097E+05 1.72529E+04-1.56850E+05-6.04177E-09 2.85740E-09
 -1       623 1.89978E+03 8.47026E+05 1.92357E+04-1.32346E+05-4.05817E-09 4.81850E-09
 -1       624 1.02324E+04 8.54322E+05 3.53649E+04-1.56620E+05-5.21686E-09 2.29011E-09
 -1       625 2.99115E+04 8.41930E+05 6.63680E+04-1.32625E+05-3.31056E-09-2.95040E-09
 -1       626 3.65684E+05 9.97677E+04-1.80371E+04 2.12862E+05-4.03816E-09 3.12866E-10
 -1       627 3.53387E+05 1.13168E+05-8.89109E+03 2.20669E+05-4.38376E-09-2.30966E-09
 -1       628 3.65251E+05 1.05694E+05-3.78576E+03 2.09416E+05 1.41663E-08 2.80761E-09
 -1       629 3.54752E+05 1.16001E+05-1.83470E+03 2.20721E+05 1.74186E-08-2.57091E-09
 -1       630 3.65052E+05 1.05954E+05-8.27916E+02 2.09172E+05 8.81846E-09-6.23345E-10
 -1       631 3.54728E+05 1.16171E+05-3.62709E+02 2.20671E+05-4.03361E-09-1.18175E-09
 -1       632 3.64936E+05 1.05990E+05-9.22581E+01 2.09110E+05 3.27964E-09 2.90220E-09
 -1       633 3.54671E+05 1.16201E+05 1.23918E+02 2.20623E+05-3.23234E-09 1.40199E-09
 -1       634 3.64869E+05 1.05996E+05 3.99179E+02 2.09082E+05-2.98496E-09 4.74756E-10
 -1       635 3.54682E+05 1.16205E+05 9.31061E+02 2.20618E+05-2.84854E-09-5.74801E-10
 -1       636 3.64820E+05 1.05962E+05 1.93802E+03 2.09079E+05-4.59983E-09-2.17278E-09
 -1       637 3.55043E+05 1.16395E+05 4.25942E+03 2.20663E+05-1.08798E-09 5.14137E-09
 -1       638 3.64646E+05 1.06425E+05 8.71108E+03 2.08825E+05-3.42197E-09 2.47383E-09
 -1       639 3.59721E+05 1.21730E+05 2.05350E+04 2.19978E+05-2.91038E-10-4.83124E-09
 -1       640 3.63222E+05 1.20853E+05 4.15969E+04 2.02203E+05-1.09212E-08 7.20320E-10
 -1       641 1.35057E+04 1.91385E+03-1.01745E+04 3.68022E+03-1.97381E-08-7.11907E-09
 -1       642 9.93573E+03-2.78571E+03-6.37956E+03 1.09846E+04-2.07734E-08-7.49424E-09
 -1       643 1.20099E+04 2.05057E+02-2.62221E+03 3.64967E+03-1.38359E-08-3.10047E-09
 -1       644 1.15739E+04-1.69747E+02-1.42795E+03 1.10144E+04 6.99612E-09 1.37356E-09
 -1       645 1.18518E+04 4.62310E+01-6.39199E+02 3.64778E+03 4.70379E-09-5.48050E-09
 -1       646 1.17455E+04 6.34522E+01-2.98892E+02 1.10158E+04-1.87115E-08-3.61854E-09
 -1       647 1.18300E+04 3.00016E+01-7.54678E+01 3.64796E+03 1.90696E-08-3.76446E-09
 -1       648 1.17758E+04 8.74267E+01 9.95619E+01 1.10158E+04 4.45554E-08-3.64520E-09
 -1       649 1.18205E+04 2.30570E+01 3.18159E+02 3.64774E+03 1.84685E-08-5.22425E-09
 -1       650 1.18331E+04 1.30971E+02 7.29353E+02 1.10159E+04 1.81763E-08-1.68018E-09
 -1       651 1.17790E+04-1.53020E+01 1.42848E+03 3.64787E+03-1.68529E-09-3.49871E-09
 -1       652 1.22242E+04 6.29251E+02 3.12845E+03 1.10140E+04 2.74952E-09 3.24576E-10
 -1       653 1.14429E+04-3.69896E+02 5.71302E+03 3.64927E+03 1.46779E-08-4.20073E-09
 -1       654 1.58265E+04 6.30909E+03 1.38925E+04 1.09673E+04-7.26595E-09-3.56613E-09
 -1       655 8.19820E+03-4.10334E+03 2.21409E+04 3.68935E+03 6.98810E-09-8.23093E-09
 -1       656 1.12260E+04-5.34412E+05-6.43009E+04 3.77528E+04-1.13105E-08-1.73532E-09
 -1       657-1.93125E+04-5.56407E+05-4.57910E+04 1.11001E+05-7.03608E-09 3.28873E-09
 -1       658 1.86292E+03-5.42724E+05-2.94996E+04 3.74746E+04-1.08852E-08 4.86580E-11
 -1       659-1.73833E+04-5.55444E+05-4.22466E+04 1.11192E+05-1.58907E-08 6.66253E-09
 -1       660 1.00342E+04-5.35690E+05-5.74018E+04 3.75689E+04-9.19681E-09-4.34829E-09
 -1       661 4.86311E+05 6.49076E+04 3.88154E+04 1.90836E+05 1.73363E-08 1.52795E-09
 -1       662 4.96570E+05 9.01483E+04 2.40088E+04 1.94554E+05 7.15465E-09 2.10980E-09
 -1       663 4.92690E+05 7.25032E+04 9.15059E+03 1.90301E+05-9.45786E-09 2.58615E-09
 -1       664 4.89198E+05 7.95769E+04 4.94059E+03 1.95947E+05-3.19828E-08-1.22748E-09
 -1       665 4.93361E+05 7.32656E+04 2.14274E+03 1.90280E+05-1.45769E-08-3.93345E-09
 -1       666 4.88422E+05 7.85651E+04 1.15166E+03 1.96032E+05 1.14118E-09 1.54449E-09
 -1       667 4.93439E+05 7.33426E+04 6.55607E+02 1.90280E+05-6.45667E-09-2.72820E-10
 -1       668 4.88343E+05 7.84931E+04 6.20879E+02 1.96048E+05-8.58645E-09-2.69625E-09
 -1       669 4.93442E+05 7.33258E+04 8.85931E+02 1.90270E+05-1.62458E-09-3.82693E-09
 -1       670 4.88460E+05 7.86676E+04 1.78327E+03 1.96082E+05 2.33583E-08 3.26759E-09
 -1       671 4.93332E+05 7.31771E+04 3.43709E+03 1.90247E+05-9.07073E-09-1.66324E-09
 -1       672 4.89698E+05 8.03436E+04 8.00271E+03 1.95986E+05-2.12501E-08-7.51970E-09
 -1       673 4.92256E+05 7.19229E+04 1.48454E+04 1.90267E+05 2.03627E-09-2.48019E-09
 -1       674 5.01654E+05 9.75295E+04 3.89784E+04 1.93752E+05 2.12747E-08 3.85717E-09
 -1       675 4.81906E+05 5.95835E+04 6.30213E+04 1.91129E+05 3.77513E-08 1.40426E-09
 -1       676 4.24536E+03-4.70838E+05-2.42450E+04 7.69504E+03 3.35240E-08 3.77054E-09
 -1       677-7.27850E+03-4.79242E+05-1.82039E+04 2.01636E+04 3.40460E-08 6.16512E-09
 -1       678 8.81397E+02-4.73732E+05-1.33017E+04 7.62682E+03 2.13067E-08 2.88082E-09
 -1       679-8.99330E+03-4.80344E+05-2.14987E+04 2.02348E+04 1.96717E-08 5.41468E-09
 -1       680 5.49106E+03-4.69760E+05-3.06010E+04 7.62297E+03 2.94749E-08-5.10958E-09
 -1       681 4.98857E+05-5.29516E+03 2.79127E+04-1.06675E+04-1.36424E-11-9.31323E-10
 -1       682 5.08636E+05 7.78839E+03 1.75463E+04-3.28615E+04-2.54659E-11-2.98769E-10
 -1       683 5.02924E+05-5.42744E+02 7.21661E+03-1.06656E+04-4.54747E-11-7.77163E-10
 -1       684 5.03987E+05 6.61232E+02 3.99285E+03-3.27864E+04-4.27463E-11-1.93063E-09
 -1       685 5.03324E+05-6.88366E+01 1.87984E+03-1.07400E+04 2.45564E-10 1.13687E-11
 -1       686 5.03435E+05 6.18427E+01 1.08937E+03-3.26677E+04 3.00133E-11-1.59048E-10
 -1       687 5.03358E+05-7.76211E+00 7.29678E+02-1.07844E+04-1.42563E-10 1.93268E-10
 -1       688 5.03363E+05 3.31489E+01 8.01556E+02-3.26113E+04-1.75078E-11 1.31018E-09
 -1       689 5.03342E+05-1.12424E+01 1.22414E+03-1.07963E+04-2.11628E-10 2.48747E-10
 -1       690 5.03511E+05 1.60478E+02 2.37605E+03-3.26220E+04-3.21734E-11 3.12649E-10
 -1       691 5.03219E+05-1.30083E+02 4.47301E+03-1.07737E+04 8.68567E-11 1.95087E-10
 -1       692 5.04735E+05 1.68878E+03 9.69405E+03-3.26942E+04 0.00000E+00 9.22910E-10
 -1       693 5.02190E+05-1.23490E+03 1.76567E+04-1.07240E+04-2.13277E-10-5.08408E-10
 -1       694 5.15902E+05 1.92037E+04 4.29074E+04-3.27387E+04-5.48425E-10-2.53522E-09
 -1       695 4.92186E+05-1.27768E+04 6.83683E+04-1.07339E+04-4.29281E-10-6.54836E-11
 -1       696-5.74018E+03 5.33946E+05 3.06416E+04-2.10547E+04 5.45697E-11-6.46651E-10
 -1       697 8.69672E+03 5.44332E+05 1.79554E+04-6.21503E+04 2.54659E-11-2.89333E-11
 -1       698-2.75179E+02 5.38713E+05 4.90235E+03-2.10129E+04-2.93312E-10 1.60549E-09
 -1       699-2.41914E+03 5.37350E+05-3.32452E+03-6.21649E+04-2.58296E-10 2.04773E-09
 -1       700 2.20498E+03 5.40990E+05-1.04597E+04-2.10439E+04-2.15550E-10 1.62709E-09
 -1       701-4.62823E+05-5.71468E+04-6.51981E+04-1.85017E+05 1.65073E-10-1.25874E-09
 -1       702-4.79935E+05-9.96294E+04-4.03205E+04-1.91451E+05-3.15140E-10-8.87667E-10
 -1       703-4.73671E+05-6.97772E+04-1.53660E+04-1.83985E+05 1.06411E-10 5.12046E-10
 -1       704-4.67409E+05-8.20346E+04-8.27677E+03-1.94041E+05-7.27596E-12-5.06589E-10
 -1       705-4.74879E+05-7.09737E+04-3.57266E+03-1.83875E+05-1.78716E-10-4.22915E-11
 -1       706-4.66030E+05-8.04308E+04-1.87005E+03-1.94331E+05-2.68074E-10-5.34840E-10
 -1       707-4.75055E+05-7.10581E+04-9.78674E+02-1.83839E+05 6.59384E-12-3.21222E-10
 -1       708-4.65859E+05-8.03345E+04-7.73906E+02-1.94412E+05 1.14596E-10 5.37142E-10
 -1       709-4.75078E+05-7.10358E+04-9.48542E+02-1.83820E+05-3.67208E-11 6.57963E-11
 -1       710-4.65977E+05-8.04907E+04-1.79384E+03-1.94435E+05-1.26875E-10 4.88740E-10
 -1       711-4.74950E+05-7.09103E+04-3.40770E+03-1.83818E+05 9.04095E-11-2.40107E-10
 -1       712-4.67249E+05-8.20859E+04-7.90351E+03-1.94256E+05-9.73017E-11-3.96994E-10
 -1       713-4.73838E+05-6.97262E+04-1.46572E+04-1.83889E+05 8.40203E-10 2.20007E-09
 -1       714-4.79138E+05-9.89656E+04-3.84856E+04-1.91903E+05 1.44610E-10 6.61203E-10
 -1       715-4.63541E+05-5.76083E+04-6.22127E+04-1.84817E+05 1.84627E-10 5.52973E-10
 -1       716 3.86978E+05-1.10804E+04 5.84072E+04-2.15001E+04 4.22006E-10 1.54978E-09
 -1       717 4.07436E+05 1.64111E+04 3.67198E+04-6.47132E+04-3.01952E-10 1.28239E-10
 -1       718 3.95451E+05-1.09270E+03 1.50946E+04-2.14367E+04-2.23736E-10-2.70120E-10
 -1       719 3.97617E+05 1.52771E+03 8.33782E+03-6.46974E+04-1.96906E-10 1.79580E-09
 -1       720 3.96276E+05-8.40829E+01 3.90169E+03-2.15114E+04 1.01409E-09 1.26647E-09
 -1       721 3.96443E+05 2.78136E+02 2.20052E+03-6.45924E+04 1.65812E-09-4.03134E-10
 -1       722 3.96356E+05 3.77773E+01 1.37255E+03-2.15419E+04 1.57678E-09 5.35238E-10
 -1       723 3.96338E+05 1.85507E+02 1.35185E+03-6.45833E+04 4.75211E-10 2.66220E-09
 -1       724 3.96360E+05 7.36891E+00 1.91507E+03-2.15205E+04 1.05774E-09 2.19882E-09
 -1       725 3.96694E+05 3.15713E+02 3.63669E+03-6.46804E+04 7.93079E-10-1.72548E-10
 -1       726 3.96228E+05-2.32340E+02 6.76587E+03-2.14449E+04 8.16726E-10-1.23691E-10
 -1       727 3.98784E+05 2.52811E+03 1.46964E+04-6.48727E+04 1.91176E-09 7.34872E-10
 -1       728 3.94751E+05-1.99947E+03 2.66861E+04-2.13274E+04-3.81988E-11-1.47338E-09
 -1       729 4.16050E+05 2.89275E+04 6.49961E+04-6.49333E+04-4.32919E-10-2.30284E-09
 -1       730 3.79706E+05-1.96188E+04 1.03439E+05-2.13995E+04 3.36513E-10-2.09548E-09
 -1       731-7.45653E+03 1.93477E+05 4.04673E+04-4.45109E+04 1.17689E-09 3.45608E-10
 -1       732 1.18287E+04 2.07249E+05 2.56789E+04-1.34382E+05 2.61196E-09 1.31058E-09
 -1       733-6.40435E+02 1.99305E+05 1.10542E+04-4.43936E+04 1.11913E-09 1.67483E-09
 -1       734 2.18991E+03 2.01354E+05 7.32482E+03-1.34362E+05 2.28965E-09 8.64475E-10
 -1       735-6.86705E+02 1.99615E+05 4.97774E+03-4.45330E+04 4.82714E-10 1.36606E-09
 -1       736-1.12361E+06-1.45448E+05-9.34181E+04-4.36254E+05-2.78305E-10-3.81988E-10
 -1       737-1.15033E+06-2.04144E+05-5.77791E+04-4.42945E+05 3.36968E-10-3.41970E-10
 -1       738-1.13921E+06-1.63500E+05-2.20049E+04-4.34691E+05 6.44150E-10 3.75621E-10
 -1       739-1.13225E+06-1.79037E+05-1.18533E+04-4.46789E+05-3.18323E-11 2.48519E-10
 -1       740-1.14099E+06-1.65162E+05-5.10534E+03-4.34465E+05 5.32054E-11 9.36325E-10
 -1       741-1.13017E+06-1.76821E+05-2.66222E+03-4.47296E+05 1.72690E-10 1.59167E-09
 -1       742-1.14127E+06-1.65258E+05-1.36748E+03-4.34379E+05-1.28011E-10-1.11925E-10
 -1       743-1.12988E+06-1.76713E+05-1.03843E+03-4.47443E+05-1.11788E-09-9.96010E-10
 -1       744-1.14131E+06-1.65228E+05-1.21687E+03-4.34347E+05-8.55607E-10-1.37970E-09
 -1       745-1.13004E+06-1.76891E+05-2.25629E+03-4.47447E+05-7.30935E-10 1.36424E-10
 -1       746-1.14113E+06-1.65098E+05-4.26454E+03-4.34370E+05 5.44787E-10 4.45198E-10
 -1       747-1.13169E+06-1.78812E+05-9.87870E+03-4.47127E+05-3.22188E-10 1.16415E-10
 -1       748-1.13968E+06-1.63676E+05-1.83185E+04-4.34520E+05-2.13419E-10-1.59162E-10
 -1       749-1.14669E+06-1.99782E+05-4.81081E+04-4.44010E+05-2.60911E-10-1.23327E-09
 -1       750-1.12673E+06-1.48614E+05-7.77726E+04-4.35789E+05-7.83075E-10 6.73026E-10
 -1       751 1.67556E+06-4.19867E+04 2.25155E+05-1.56233E+04-3.47427E-10-9.02219E-10
 -1       752 1.75365E+06 6.31104E+04 1.41249E+05-5.11180E+04-2.51612E-09-2.31194E-09
 -1       753 1.70850E+06-4.08402E+03 5.81723E+04-1.60188E+04-2.15550E-10 7.27596E-11
 -1       754 1.71694E+06 5.50544E+03 3.19777E+04-5.02876E+04 6.53017E-10 1.42245E-09
 -1       755 1.71189E+06-4.54777E+02 1.48264E+04-1.64189E+04 2.42835E-10 1.33696E-10
 -1       756 1.71291E+06 4.91661E+02 8.02247E+03-4.96521E+04-2.94222E-10-3.03771E-10
 -1       757 1.71228E+06-5.49738E+01 4.40857E+03-1.66551E+04-4.13820E-10-4.27463E-10
 -1       758 1.71240E+06 1.13855E+02 3.41529E+03-4.93554E+04 1.87924E-10 1.39232E-09
 -1       759 1.71229E+06-3.65035E+01 3.92102E+03-1.67160E+04 2.31068E-10-2.73275E-10
 -1       760 1.71274E+06 4.34747E+02 6.74042E+03-4.94059E+04-1.13005E-09 2.55477E-09
 -1       761 1.71196E+06-3.48530E+02 1.22601E+04-1.66044E+04 1.98725E-10-1.29648E-09
 -1       762 1.71600E+06 4.56881E+03 2.63035E+04-4.97969E+04 4.19504E-10 1.27920E-09
 -1       763 1.70916E+06-3.31951E+03 4.78111E+04-1.63243E+04 4.45652E-10 8.87667E-10
 -1       764 1.74613E+06 5.18955E+04 1.16030E+05-5.03987E+04 6.00267E-10-1.81899E-09
 -1       765 1.68209E+06-3.44500E+04 1.84934E+05-1.60214E+04-2.02908E-09 6.40284E-10
 -1       766-2.07931E+04 4.62810E+05 1.15421E+05-1.84900E+04 1.26602E-09-6.33918E-10
 -1       767 3.35622E+04 5.03079E+05 8.07443E+04-5.46145E+04-2.25009E-09-4.55657E-10
 -1       768-3.43388E+03 4.77911E+05 4.93875E+04-1.84385E+04 1.07707E-09 1.44337E-09
 -1       769 2.61473E+04 4.98687E+05 6.67067E+04-5.46526E+04-1.29239E-09 2.69483E-09
 -1       770-1.56976E+04 4.67561E+05 8.82287E+04-1.84681E+04 4.76575E-10 9.43146E-10
 -1       771-1.67079E+06-3.39598E+05-1.21917E+05-6.87794E+05-1.15915E-09 3.89991E-09
 -1       772-1.67901E+06-3.23536E+05-6.01600E+04-7.19033E+05-1.53705E-09 1.07775E-09
 -1       773-1.67527E+06-2.97265E+05-2.55493E+04-7.07532E+05 7.89441E-10-1.38243E-09
 -1       774-1.66584E+06-3.07646E+05-1.24963E+04-7.21275E+05 2.82853E-09-2.14186E-09
 -1       775-1.67610E+06-2.95696E+05-5.76562E+03-7.08435E+05-7.27596E-11 1.58707E-10
 -1       776-1.66501E+06-3.07027E+05-2.90459E+03-7.21387E+05-5.60249E-10 3.52884E-10
 -1       777-1.67639E+06-2.95682E+05-1.56343E+03-7.08507E+05 1.21872E-10 2.60241E-09
 -1       778-1.66501E+06-3.07010E+05-1.19801E+03-7.21492E+05 7.51243E-10 6.88601E-10
 -1       779-1.67651E+06-2.95615E+05-1.46987E+03-7.08552E+05-4.00178E-11-1.50976E-10
 -1       780-1.66516E+06-3.06992E+05-2.67001E+03-7.21612E+05-7.18501E-10-1.60026E-09
 -1       781-1.67646E+06-2.95496E+05-5.25614E+03-7.08569E+05-3.63798E-12 6.87578E-10
 -1       782-1.66606E+06-3.07547E+05-1.14066E+04-7.21743E+05-6.12999E-10 2.28283E-10
 -1       783-1.67591E+06-2.96781E+05-2.32960E+04-7.07803E+05-3.74797E-10-3.07409E-10
 -1       784-1.67801E+06-3.22271E+05-5.49208E+04-7.20154E+05-4.42924E-10-2.27010E-09
 -1       785-1.67212E+06-3.35207E+05-1.11263E+05-6.89686E+05 3.66072E-10 8.73115E-11
 -1       786 1.01114E+06-2.27327E+04 1.22023E+05-9.69781E+03 7.00311E-10-4.07454E-10
 -1       787 1.05339E+06 3.42576E+04 7.65558E+04-3.09124E+04-2.31012E-10-1.31968E-09
 -1       788 1.02901E+06-2.19003E+03 3.15250E+04-9.78300E+03-5.87534E-10 7.13044E-10
 -1       789 1.03355E+06 2.99265E+03 1.73124E+04-3.07001E+04-2.01908E-10 2.08729E-10
 -1       790 1.03087E+06-2.38634E+02 8.01145E+03-9.89827E+03 3.39696E-10 1.84127E-09
 -1       791 1.03140E+06 2.52172E+02 4.29316E+03-3.05318E+04 7.46354E-10 3.50553E-09
 -1       792 1.03109E+06-3.35340E+01 2.28830E+03-9.95134E+03 1.51090E-10 2.66823E-09
 -1       793 1.03115E+06 2.94168E+01 1.64309E+03-3.04907E+04 6.51852E-10 1.70724E-09
 -1       794 1.03111E+06-2.64705E+01 1.72034E+03-9.93948E+03-3.64707E-10-7.69205E-10
 -1       795 1.03130E+06 1.47178E+02 2.81260E+03-3.05808E+04 1.32877E-09 3.88125E-09
 -1       796 1.03098E+06-1.59054E+02 5.03109E+03-9.86122E+03-1.12414E-09-4.27485E-09
 -1       797 1.03265E+06 1.82847E+03 1.07544E+04-3.07957E+04 9.89075E-11-2.23486E-09
 -1       798 1.02985E+06-1.37933E+03 1.95218E+04-9.72444E+03-4.33829E-10 1.44883E-09
 -1       799 1.04498E+06 2.11609E+04 4.73923E+04-3.10434E+04-4.23688E-09-1.22327E-09
 -1       800 1.01879E+06-1.41160E+04 7.54969E+04-9.62203E+03 6.84850E-10-5.67525E-10
 -1       801-1.17401E+04 3.51642E+05 6.42550E+04-2.31614E+05 5.30781E-09 1.09503E-09
 -1       802 2.61828E+04 3.70716E+05 5.26836E+04-6.98765E+05 2.16423E-08 2.67119E-09
 -1       803-6.13002E+02 3.56690E+05 4.34908E+04-2.31034E+05 8.85666E-09 3.72529E-09
 -1       804 3.84738E+04 3.80403E+05 7.73735E+04-6.98735E+05 1.94268E-08-1.37516E-09
 -1       805-2.19997E+04 3.44306E+05 1.11520E+05-2.31661E+05 4.75120E-09 1.60071E-09
 -1       806-9.44588E+05-2.22687E+05-8.31174E+04-4.20828E+05 5.10136E-09 7.61065E-09
 -1       807-9.46553E+05-2.15462E+05-4.10225E+04-4.46414E+05-1.16415E-09-6.17274E-09
 -1       808-9.47605E+05-1.93843E+05-1.74128E+04-4.34304E+05-1.41335E-09 3.55340E-09
 -1       809-9.37582E+05-2.04574E+05-8.52480E+03-4.47824E+05-1.12414E-09-8.93152E-10
 -1       810-9.48098E+05-1.92829E+05-3.93305E+03-4.34906E+05-9.56788E-10 2.60729E-09
 -1       811-9.36966E+05-2.04153E+05-2.00093E+03-4.47804E+05 1.54250E-09-9.71795E-10
 -1       812-9.48197E+05-1.92876E+05-1.10765E+03-4.34919E+05 8.12406E-10-1.83718E-10
 -1       813-9.36899E+05-2.04159E+05-9.19604E+02-4.47775E+05 1.21236E-09-2.10457E-09
 -1       814-9.48161E+05-1.92891E+05-1.21451E+03-4.34903E+05-1.87356E-09-8.76571E-09
 -1       815-9.36922E+05-2.04172E+05-2.28045E+03-4.47751E+05 1.28784E-09-5.50244E-10
 -1       816-9.47978E+05-1.92870E+05-4.52960E+03-4.34856E+05-3.17050E-09 4.33283E-09
 -1       817-9.37588E+05-2.04671E+05-9.83664E+03-4.47716E+05 1.41881E-10 2.65754E-09
 -1       818-9.47357E+05-1.94078E+05-2.01036E+04-4.34141E+05-2.38288E-10 1.84446E-09
 -1       819-9.47938E+05-2.17200E+05-4.73488E+04-4.45994E+05-3.00133E-09 1.13505E-09
 -1       820-9.43809E+05-2.27397E+05-9.59370E+04-4.18592E+05-1.02045E-09 2.24827E-09
 -1       821-6.56699E+05 1.51683E+04-8.16782E+04 6.96844E+03-9.63882E-09-1.20053E-09
 -1       822-6.84873E+05-2.29359E+04-5.12372E+04 2.34330E+04-3.63707E-09-2.88946E-09
 -1       823-6.68703E+05 1.44082E+03-2.11117E+04 6.71392E+03 1.02555E-08-2.26737E-09
 -1       824-6.71736E+05-1.92288E+03-1.15811E+04 2.38014E+04-2.47019E-09-8.00355E-11
 -1       825-6.69972E+05 1.72232E+02-5.37991E+03 6.59166E+03-1.67829E-08 1.64619E-09
 -1       826-6.70405E+05-3.92206E+01-2.89669E+03 2.40029E+04-2.92450E-08 7.23105E-10
 -1       827-6.70140E+05 5.99122E+01-1.59249E+03 6.51057E+03-1.60203E-08-1.43700E-09
 -1       828-6.70294E+05 1.31952E+02-1.22251E+03 2.41287E+04-2.03104E-08-1.42450E-09
 -1       829-6.70154E+05 6.69898E+01-1.39849E+03 6.46524E+03-2.30466E-09 5.46834E-11
 -1       830-6.70430E+05 2.37969E+01-2.39976E+03 2.41808E+04 1.14558E-08-4.57519E-09
 -1       831-6.70034E+05 1.73493E+02-4.36855E+03 6.45824E+03-1.18001E-08-1.42552E-09
 -1       832-6.71554E+05-1.47629E+03-9.37633E+03 2.41565E+04-3.86626E-09-5.08408E-09
 -1       833-6.69021E+05 1.21324E+03-1.70583E+04 6.49079E+03 5.50472E-10 1.47429E-09
 -1       834-6.82216E+05-1.84458E+04-4.14207E+04 2.40166E+04 2.11276E-09 5.70708E-10
 -1       835-6.59328E+05 1.23226E+04-6.60067E+04 6.61134E+03 5.62432E-09-1.98634E-09
 -1       836-2.32082E+04 1.53474E+06 1.31346E+05-9.30811E+04-1.45519E-10-2.07183E-09
 -1       837 4.03411E+04 1.57989E+06 9.86593E+04-2.73450E+05-2.16005E-10 3.01907E-09
 -1       838-4.37432E+03 1.55004E+06 7.18124E+04-9.32138E+04-1.53068E-09 3.37991E-10
 -1       839 4.92317E+04 1.58528E+06 1.15576E+05-2.73354E+05 1.28603E-09-1.28239E-10
 -1       840-2.94046E+04 1.52906E+06 1.64098E+05-9.31691E+04-1.74623E-09 5.45697E-12
 -1       841-1.70438E+05-1.16933E+04-3.58122E+04-5.96197E+04-9.76797E-10-3.12320E-09
 -1       842-1.96710E+05-1.80267E+04-2.21259E+04-4.38619E+04-1.63709E-10-4.13183E-09
 -1       843-1.76232E+05-1.87797E+04-8.44317E+03-5.92717E+04 3.97813E-09-2.54454E-09
 -1       844-1.90134E+05-8.11871E+03-4.53073E+03-4.50451E+04 3.52293E-09-1.65767E-09
 -1       845-1.76844E+05-1.94822E+04-1.94336E+03-5.92920E+04-7.31234E-10-2.18620E-09
 -1       846-1.89518E+05-7.12696E+03-9.75050E+02-4.51151E+04-2.43883E-08-4.64837E-09
 -1       847-1.76912E+05-1.95584E+04-4.33702E+02-5.93236E+04-1.48880E-08 7.60281E-10
 -1       848-1.89491E+05-6.99922E+03-1.95798E+02-4.51065E+04-1.19103E-08 4.09317E-09
 -1       849-1.76921E+05-1.95703E+04-5.71277E+01-5.93405E+04-1.29057E-09 3.75698E-09
 -1       850-1.89489E+05-6.96940E+03 4.65277E+01-4.51019E+04 2.21350E-08-1.21867E-09
 -1       851-1.76931E+05-1.95781E+04 1.63868E+02-5.93404E+04 1.70093E-08 1.44360E-09
 -1       852-1.89391E+05-6.89451E+03 4.26687E+02-4.51156E+04 1.41999E-08 6.39966E-09
 -1       853-1.76999E+05-1.96413E+04 8.01315E+02-5.93196E+04 9.96488E-09 2.80033E-09
 -1       854-1.88620E+05-6.04180E+03 2.12815E+03-4.53043E+04 2.07931E-08-4.54929E-09
 -1       855-1.77620E+05-2.02663E+04 3.42712E+03-5.91884E+04 9.49694E-09 2.38060E-09
 -1       856-4.68658E+05 8.95602E+03-4.81402E+04 8.21396E+03-1.51613E-08-1.26420E-09
 -1       857-4.85321E+05-1.33876E+04-3.01881E+04 2.77026E+04-7.88714E-09-3.43061E-09
 -1       858-4.75742E+05 8.86112E+02-1.24408E+04 8.02403E+03-1.14414E-08-1.64437E-09
 -1       859-4.77620E+05-9.92278E+02-6.81917E+03 2.79563E+04-2.04204E-09-2.61707E-09
 -1       860-4.76498E+05 1.47829E+02-3.16014E+03 7.95030E+03 3.48336E-10-1.99384E-09
 -1       861-4.76854E+05 1.25472E+02-1.68773E+03 2.80645E+04-1.91734E-08-3.65424E-09
 -1       862-4.76600E+05 8.40357E+01-8.99371E+02 7.91407E+03 1.19053E-08-5.23755E-10
 -1       863-4.76782E+05 2.26921E+02-6.43590E+02 2.81067E+04 4.07681E-08-3.72279E-09
 -1       864-4.76608E+05 8.27522E+01-6.74176E+02 7.90764E+03 1.62036E-08-3.36331E-09
 -1       865-4.76820E+05 1.71622E+02-1.10190E+03 2.80886E+04 1.77456E-08-2.98598E-09
 -1       866-4.76546E+05 1.20712E+02-1.97903E+03 7.93234E+03 1.37743E-09-8.33225E-10
 -1       867-4.77283E+05-5.21412E+02-4.22210E+03 2.80067E+04-1.05811E-08-3.63659E-09
 -1       868-4.76076E+05 5.71226E+02-7.68470E+03 7.99072E+03 4.97130E-09-2.67391E-09
 -1       869-4.82011E+05-8.17851E+03-1.86295E+04 2.77852E+04 1.86787E-09-4.57931E-09
 -1       870-4.71699E+05 5.54064E+03-2.97120E+04 8.16089E+03 1.77251E-08-2.83944E-09
 -1       871-4.68766E+03-3.76752E+04-7.78931E+03 1.46541E+05 6.04996E-09-3.60160E-09
 -1       872-2.01160E+03-3.90471E+04-2.14536E+03 1.73526E+05-6.48924E-09-2.13549E-09
 -1       873-5.11249E+02-3.86697E+04 2.63355E+03 1.46285E+05 5.89807E-09-5.38762E-09
 -1       874 2.10320E+03-3.64989E+04 9.35235E+03 1.73607E+05-3.02498E-09 1.27568E-09
 -1       875 8.42348E+03-4.03525E+04 1.99472E+04 1.46508E+05 3.06318E-09 1.42518E-09
 -1       876 5.53557E+05 7.41229E+04 5.27574E+04 2.20483E+05 2.14909E-08-1.84809E-09
 -1       877 5.64190E+05 1.11832E+05 3.26414E+04 2.29378E+05-1.15062E-09-5.77575E-09
 -1       878 5.62199E+05 8.44853E+04 1.24306E+04 2.19772E+05-8.69068E-09-2.05182E-09
 -1       879 5.54191E+05 9.74061E+04 6.71172E+03 2.31178E+05-3.48177E-08-1.70257E-09
 -1       880 5.63064E+05 8.55703E+04 2.89656E+03 2.19780E+05-1.05667E-08 1.54068E-09
 -1       881 5.53180E+05 9.59668E+04 1.53715E+03 2.31197E+05 5.98811E-09-2.88765E-10
 -1       882 5.63136E+05 8.57148E+04 8.31036E+02 2.19813E+05-2.78317E-09-1.26192E-09
 -1       883 5.53102E+05 9.58130E+04 7.13428E+02 2.31145E+05-1.39427E-08-3.25531E-09
 -1       884 5.63120E+05 8.57238E+04 9.40867E+02 2.19823E+05 6.02765E-09-1.78989E-09
 -1       885 5.53239E+05 9.59624E+04 1.83534E+03 2.31146E+05 1.69960E-08-1.31649E-10
 -1       886 5.63002E+05 8.55794E+04 3.51134E+03 2.19808E+05-3.41504E-09-8.45057E-09
 -1       887 5.54510E+05 9.76652E+04 8.15840E+03 2.31049E+05-1.74045E-08-8.75161E-10
 -1       888 5.61913E+05 8.42934E+04 1.51266E+04 2.19826E+05-2.02772E-09 3.89355E-09
 -1       889 5.66700E+05 1.15179E+05 3.97148E+04 2.28795E+05 2.06393E-08 2.73303E-09
 -1       890 5.51376E+05 7.17093E+04 6.42036E+04 2.20702E+05 4.34748E-08-3.67436E-10
 -1       891 1.46799E+03-2.52107E+05-9.88276E+03 3.79277E+04 2.34490E-08-1.00044E-09
 -1       892-3.50346E+03-2.55185E+05-7.74045E+03 1.13577E+05 1.20840E-08 1.95416E-09
 -1       893 2.54840E+02-2.53256E+05-6.23196E+03 3.77818E+04 1.86556E-08 2.46416E-09
 -1       894-5.14431E+03-2.56169E+05-1.08530E+04 1.13550E+05 1.46647E-08 3.91287E-09
 -1       895 2.60666E+03-2.51058E+05-1.59040E+04 3.79532E+04 2.44509E-08-1.19962E-09
 -1       896 8.04373E+05-2.41718E+03 1.26827E+04-7.05287E+03-3.09228E-11-1.12414E-09
 -1       897 8.08787E+05 3.52741E+03 7.97882E+03-2.23432E+04 2.05091E-10 2.77169E-10
 -1       898 8.06220E+05-2.54251E+02 3.28476E+03-7.10683E+03-7.23048E-11-5.76165E-10
 -1       899 8.06666E+05 2.92078E+02 1.82966E+03-2.21903E+04 1.45064E-10 2.72280E-10
 -1       900 8.06399E+05-3.64423E+01 8.81166E+02-7.20482E+03-1.81899E-12-9.99307E-11
 -1       901 8.06408E+05 2.35425E+01 5.53032E+02-2.20287E+04 1.86560E-10-1.84855E-10
 -1       902 8.06411E+05-7.08553E+00 4.44180E+02-7.26848E+03-1.43245E-11 1.23578E-10
 -1       903 8.06378E+05 1.84736E+01 5.97248E+02-2.19367E+04 1.15790E-10-4.91127E-11
 -1       904 8.06392E+05-1.17186E+01 1.01141E+03-7.29681E+03 1.69393E-11 3.42624E-10
 -1       905 8.06500E+05 1.34910E+02 2.02955E+03-2.19170E+04 3.51861E-11-2.10761E-10
 -1       906 8.06280E+05-1.08580E+02 3.85613E+03-7.28815E+03-7.81029E-11 1.85764E-10
 -1       907 8.07530E+05 1.46709E+03 8.37090E+03-2.19669E+04-1.93722E-10 3.22416E-10
 -1       908 8.05380E+05-1.05104E+03 1.52614E+04-7.24680E+03-2.32149E-10 2.63753E-10
 -1       909 8.17129E+05 1.66149E+04 3.70715E+04-2.20328E+04 2.45564E-11 8.18545E-11
 -1       910 7.96717E+05-1.10014E+04 5.90842E+04-7.22431E+03-4.63842E-10-8.76753E-10
 -1       911 2.23287E+05-1.02697E+03 5.28416E+03-8.14913E+03 3.27418E-10-9.94760E-11
 -1       912 2.25157E+05 1.47899E+03 3.33485E+03-2.44861E+04-1.33468E-10-4.37922E-10
 -1       913 2.24046E+05-1.08912E+02 1.37488E+03-8.10004E+03-1.13232E-10 3.38787E-10
 -1       914 2.24236E+05 1.41565E+02 7.81485E+02-2.45146E+04 2.05318E-10-2.71655E-10
 -1       915 2.24113E+05-9.16986E+00 4.01319E+02-8.12043E+03 7.56472E-10 1.03216E-09
 -1       916 2.24111E+05 3.84030E+01 3.01941E+02-2.44813E+04 7.32598E-10-4.69186E-10
 -1       917 2.24112E+05 6.06647E+00 3.25052E+02-8.13334E+03 7.27255E-10 8.38327E-10
 -1       918 2.24107E+05 4.40610E+01 5.35859E+02-2.44669E+04 4.06303E-10 8.64020E-12
 -1       919 2.24094E+05-3.56434E+00 9.81747E+02-8.13479E+03 6.53188E-10 9.34108E-10
 -1       920 2.24245E+05 1.56138E+02 2.01549E+03-2.44752E+04 9.01764E-10-3.20600E-10
 -1       921 2.23987E+05-1.05855E+02 3.84921E+03-8.12500E+03 5.74346E-10 1.11936E-09
 -1       922 2.25295E+05 1.48303E+03 8.37424E+03-2.45023E+04 9.36780E-10-2.03841E-10
 -1       923 2.23093E+05-1.05680E+03 1.52686E+04-8.10754E+03 4.66116E-10 4.12001E-10
 -1       924 2.34934E+05 1.66456E+04 3.71131E+04-2.44716E+04-1.14369E-10-1.54614E-10
 -1       925 2.14434E+05-1.10339E+04 5.91455E+04-8.15722E+03 9.09495E-11-4.80213E-10
 -1       926-1.01637E+06 1.05017E+04-5.63533E+04-1.64591E+03 8.07290E-10-6.54836E-11
 -1       927-1.03579E+06-1.58836E+04-3.53621E+04-4.49741E+03 2.03613E-10 8.03993E-10
 -1       928-1.02463E+06 9.98712E+02-1.45488E+04-1.61261E+03 2.88821E-10-5.50244E-10
 -1       929-1.02665E+06-1.40193E+03-7.97896E+03-4.54518E+03 4.34937E-10-7.28846E-10
 -1       930-1.02549E+06 1.04638E+02-3.67748E+03-1.59928E+03 5.54792E-11-3.46517E-10
 -1       931-1.02568E+06-1.22748E+02-1.94292E+03-4.56158E+03-1.68150E-10 2.35815E-10
 -1       932-1.02560E+06 1.36074E+01-9.84676E+02-1.59624E+03 7.56728E-12-5.00933E-10
 -1       933-1.02556E+06-1.44158E+01-6.14685E+02-4.55822E+03-6.19451E-11-5.30037E-10
 -1       934-1.02561E+06 5.83195E+00-5.16221E+02-1.60264E+03-1.38300E-10-1.09083E-10
 -1       935-1.02558E+06-4.07973E+01-7.19341E+02-4.53570E+03 8.52651E-11-2.09582E-10
 -1       936-1.02558E+06 3.27359E+01-1.21618E+03-1.61876E+03 1.03171E-10-1.58707E-10
 -1       937-1.02588E+06-4.46146E+02-2.55398E+03-4.49360E+03 5.15570E-10-7.04176E-10
 -1       938-1.02531E+06 3.15192E+02-4.62321E+03-1.64473E+03 2.88310E-10-1.23805E-09
 -1       939-1.02878E+06-5.03584E+03-1.12119E+04-4.41691E+03 7.09008E-10 3.41061E-12
 -1       940-1.02269E+06 3.32529E+03-1.78633E+04-1.69492E+03-2.31807E-10-2.54659E-11
 -1       941 2.14487E+06-5.17653E+04 2.79493E+05-3.96376E+03 1.17791E-09 1.84809E-09
 -1       942 2.24132E+06 7.84786E+04 1.75225E+05-1.34021E+04 1.07116E-09-2.14277E-09
 -1       943 2.18585E+06-4.92894E+03 7.22359E+04-3.99225E+03 1.20195E-10-4.43833E-10
 -1       944 2.19616E+06 6.90455E+03 3.96689E+04-1.33794E+04-5.03917E-11-8.87667E-10
 -1       945 2.19015E+06-5.22138E+02 1.84078E+04-3.97792E+03 7.82677E-10 1.08776E-09
 -1       946 2.19139E+06 5.90505E+02 9.92737E+03-1.34705E+04 1.66830E-09 3.37604E-09
 -1       947 2.19068E+06-7.99594E+01 5.42257E+03-3.90096E+03 6.48924E-10 1.47861E-09
 -1       948 2.19087E+06 7.09125E+01 4.13260E+03-1.36908E+04 5.08521E-10 1.29336E-09
 -1       949 2.19071E+06-7.32397E+01 4.65904E+03-3.75750E+03-2.00134E-09-4.32016E-09
 -1       950 2.19127E+06 4.41445E+02 7.94029E+03-1.40463E+04 1.96451E-09 2.71359E-09
 -1       951 2.19031E+06-4.24051E+02 1.44046E+04-3.54524E+03-2.53567E-09-4.88171E-09
 -1       952 2.19501E+06 5.32798E+03 3.08718E+04-1.45375E+04-1.67347E-09-1.18234E-09
 -1       953 2.18698E+06-3.85942E+03 5.61257E+04-3.26683E+03-1.78397E-09-1.07320E-09
 -1       954 2.23013E+06 6.09073E+04 1.36124E+05-1.51223E+04-4.61841E-09-1.06411E-09
 -1       955 2.15514E+06-4.02679E+04 2.17039E+05-2.98943E+03-8.62201E-10-1.44064E-09
 -1       956-3.21264E+05-7.56811E+03-1.70690E+04 6.00141E+04-1.22036E-08 2.51748E-09
 -1       957-3.24523E+05-2.29474E+03-8.65664E+03 7.05144E+04-2.31012E-10-1.90994E-10
 -1       958-3.22803E+05-1.03004E+02-3.90427E+03 5.96059E+04 1.11431E-08-1.67165E-09
 -1       959-3.23167E+05 1.99651E+02-1.98335E+03 7.09497E+04-3.65071E-09-1.03546E-09
 -1       960-3.23042E+05 2.77099E+02-9.65242E+02 5.95629E+04-1.37443E-08-7.59883E-10
 -1       961-3.23155E+05 3.60364E+02-4.99741E+02 7.09974E+04-2.70111E-08 2.75895E-09
 -1       962-3.23145E+05 3.20466E+02-2.69848E+02 5.95558E+04-1.38862E-08-5.31145E-10
 -1       963-3.23220E+05 4.01693E+02-1.82553E+02 7.10069E+04-1.42468E-08 2.58296E-10
 -1       964-3.23199E+05 3.50062E+02-1.83236E+02 5.95525E+04-5.57884E-09-7.48969E-10
 -1       965-3.23267E+05 4.25121E+02-2.83257E+02 7.10086E+04 1.23582E-08-2.72394E-10
 -1       966-3.23209E+05 3.66233E+02-5.15022E+02 5.95535E+04-1.11307E-08-1.24146E-10
 -1       967-3.23338E+05 3.76081E+02-1.04933E+03 7.09900E+04 3.36604E-09-4.26553E-10
 -1       968-3.23129E+05 1.94822E+02-2.05643E+03 5.95718E+04-1.63436E-09-5.44787E-10
 -1       969-3.24100E+05-9.18871E+02-4.56834E+03 7.07941E+04 6.98492E-10 6.03904E-10
 -1       970-3.22340E+05-3.73653E+03-9.00387E+03 5.97635E+04 6.91216E-10-1.83172E-09
 -1       971-6.59126E+05 7.38671E+03-3.97522E+04 7.08547E+03-8.55653E-09-3.48518E-09
 -1       972-6.72848E+05-1.10462E+04-2.49256E+04 2.53362E+04-1.81863E-08 3.46699E-09
 -1       973-6.64975E+05 7.27830E+02-1.02804E+04 6.85433E+03-1.45474E-08-3.95994E-09
 -1       974-6.66505E+05-8.05636E+02-5.64344E+03 2.56640E+04 8.30823E-09 2.85615E-09
 -1       975-6.65602E+05 1.22203E+02-2.63922E+03 6.74963E+03 1.76124E-09-4.37262E-09
 -1       976-6.65886E+05 1.22635E+02-1.45210E+03 2.58245E+04-2.20080E-08 3.70977E-09
 -1       977-6.65687E+05 7.36618E+01-8.59683E+02 6.69222E+03 1.90157E-08-6.87044E-09
 -1       978-6.65848E+05 2.06113E+02-7.71174E+02 2.58991E+04 4.89467E-08-4.49177E-10
 -1       979-6.65686E+05 8.08447E+01-1.02577E+03 6.67446E+03 1.51261E-08-7.84286E-09
 -1       980-6.65951E+05 1.06255E+02-1.89005E+03 2.58940E+04 2.42117E-08-2.75563E-10
 -1       981-6.65582E+05 1.60998E+02-3.51510E+03 6.69743E+03 7.39419E-10-5.47936E-09
 -1       982-6.66836E+05-1.12197E+03-7.58401E+03 2.58064E+04 3.08273E-09 2.58024E-09
 -1       983-6.64752E+05 9.93655E+02-1.38220E+04 6.76363E+03 1.63791E-08-7.36372E-09
 -1       984-6.75439E+05-1.48882E+04-3.35611E+04 2.55775E+04 4.27917E-10 2.01544E-09
 -1       985-6.56889E+05 9.98223E+03-5.35004E+04 6.93892E+03 1.16552E-08-5.74073E-09
 -3
 9999
