    1C
    1UUSER                                                              
    1UDATE              11.october.2022                                 
    1UTIME              17:32:13                                        
    1UHOST                                                              
    1UPGM               CalculiX                                        
    1UVERSION           Version 2.20                             
    1UCOMPILETIME       Sun Jul 31 18:08:37 CEST 2022                    
    1UDIR                                                               
    1UDBN                                                               
    1UMAT    1MESH_MATERIAL                                             
    2C                           841                                     1
 -1         1 0.00000E+00 0.00000E+00 0.00000E+00
 -1         2 1.66667E-02 0.00000E+00 0.00000E+00
 -1         3 3.33333E-02 0.00000E+00 0.00000E+00
 -1         4 5.00000E-02 0.00000E+00 0.00000E+00
 -1         5 6.66667E-02 0.00000E+00 0.00000E+00
 -1         8 0.00000E+00 6.25000E-03 0.00000E+00
 -1         9 1.66667E-02 6.25000E-03 0.00000E+00
 -1        10 3.33333E-02 6.25000E-03 0.00000E+00
 -1        11 5.00000E-02 6.25000E-03 0.00000E+00
 -1        12 6.66667E-02 6.25000E-03 0.00000E+00
 -1        15 0.00000E+00 1.25000E-02 0.00000E+00
 -1        16 1.66667E-02 1.25000E-02 0.00000E+00
 -1        17 3.33333E-02 1.25000E-02 0.00000E+00
 -1        18 5.00000E-02 1.25000E-02 0.00000E+00
 -1        19 6.66667E-02 1.25000E-02 0.00000E+00
 -1        20 8.33333E-02 1.25000E-02 0.00000E+00
 -1        21 1.00000E-01 1.25000E-02 0.00000E+00
 -1        22 0.00000E+00 1.87500E-02 0.00000E+00
 -1        23 1.66667E-02 1.87500E-02 0.00000E+00
 -1        24 3.33333E-02 1.87500E-02 0.00000E+00
 -1        25 5.00000E-02 1.87500E-02 0.00000E+00
 -1        26 6.66667E-02 1.87500E-02 0.00000E+00
 -1        27 8.33333E-02 1.87500E-02 0.00000E+00
 -1        28 1.00000E-01 1.87500E-02 0.00000E+00
 -1        29 0.00000E+00 2.50000E-02 0.00000E+00
 -1        30 1.66667E-02 2.50000E-02 0.00000E+00
 -1        31 3.33333E-02 2.50000E-02 0.00000E+00
 -1        32 5.00000E-02 2.50000E-02 0.00000E+00
 -1        33 6.66667E-02 2.50000E-02 0.00000E+00
 -1        34 8.33333E-02 2.50000E-02 0.00000E+00
 -1        35 1.00000E-01 2.50000E-02 0.00000E+00
 -1        36 1.04167E-03 0.00000E+00 0.00000E+00
 -1        37 2.08333E-03 0.00000E+00 0.00000E+00
 -1        38 3.12500E-03 0.00000E+00 0.00000E+00
 -1        39 4.16667E-03 0.00000E+00 0.00000E+00
 -1        40 5.20833E-03 0.00000E+00 0.00000E+00
 -1        41 6.25000E-03 0.00000E+00 0.00000E+00
 -1        42 7.29167E-03 0.00000E+00 0.00000E+00
 -1        43 8.33333E-03 0.00000E+00 0.00000E+00
 -1        44 9.37500E-03 0.00000E+00 0.00000E+00
 -1        45 1.04167E-02 0.00000E+00 0.00000E+00
 -1        46 1.14583E-02 0.00000E+00 0.00000E+00
 -1        47 1.25000E-02 0.00000E+00 0.00000E+00
 -1        48 1.35417E-02 0.00000E+00 0.00000E+00
 -1        49 1.45833E-02 0.00000E+00 0.00000E+00
 -1        50 1.56250E-02 0.00000E+00 0.00000E+00
 -1        51 0.00000E+00 1.04167E-03 0.00000E+00
 -1        52 0.00000E+00 2.08333E-03 0.00000E+00
 -1        53 0.00000E+00 3.12500E-03 0.00000E+00
 -1        54 0.00000E+00 4.16667E-03 0.00000E+00
 -1        55 0.00000E+00 5.20833E-03 0.00000E+00
 -1        56 1.04167E-03 3.90630E-04 0.00000E+00
 -1        57 2.08333E-03 7.81250E-04 0.00000E+00
 -1        58 3.12500E-03 1.17188E-03 0.00000E+00
 -1        59 4.16667E-03 1.56250E-03 0.00000E+00
 -1        60 5.20833E-03 1.95312E-03 0.00000E+00
 -1        61 6.25000E-03 2.34375E-03 0.00000E+00
 -1        62 7.29167E-03 2.73438E-03 0.00000E+00
 -1        63 8.33333E-03 3.12500E-03 0.00000E+00
 -1        64 9.37500E-03 3.51563E-03 0.00000E+00
 -1        65 1.04167E-02 3.90625E-03 0.00000E+00
 -1        66 1.14583E-02 4.29688E-03 0.00000E+00
 -1        67 1.25000E-02 4.68750E-03 0.00000E+00
 -1        68 1.35417E-02 5.07813E-03 0.00000E+00
 -1        69 1.45833E-02 5.46875E-03 0.00000E+00
 -1        70 1.56250E-02 5.85938E-03 0.00000E+00
 -1        71 1.77083E-02 0.00000E+00 0.00000E+00
 -1        72 1.87500E-02 0.00000E+00 0.00000E+00
 -1        73 1.97917E-02 0.00000E+00 0.00000E+00
 -1        74 2.08333E-02 0.00000E+00 0.00000E+00
 -1        75 2.18750E-02 0.00000E+00 0.00000E+00
 -1        76 2.29167E-02 0.00000E+00 0.00000E+00
 -1        77 2.39583E-02 0.00000E+00 0.00000E+00
 -1        78 2.50000E-02 0.00000E+00 0.00000E+00
 -1        79 2.60417E-02 0.00000E+00 0.00000E+00
 -1        80 2.70833E-02 0.00000E+00 0.00000E+00
 -1        81 2.81250E-02 0.00000E+00 0.00000E+00
 -1        82 2.91667E-02 0.00000E+00 0.00000E+00
 -1        83 3.02083E-02 0.00000E+00 0.00000E+00
 -1        84 3.12500E-02 0.00000E+00 0.00000E+00
 -1        85 3.22917E-02 0.00000E+00 0.00000E+00
 -1        86 1.66667E-02 1.04167E-03 0.00000E+00
 -1        87 1.66667E-02 2.08333E-03 0.00000E+00
 -1        88 1.66667E-02 3.12500E-03 0.00000E+00
 -1        89 1.66667E-02 4.16667E-03 0.00000E+00
 -1        90 1.66667E-02 5.20833E-03 0.00000E+00
 -1        91 1.77083E-02 3.90630E-04 0.00000E+00
 -1        92 1.87500E-02 7.81250E-04 0.00000E+00
 -1        93 1.97917E-02 1.17188E-03 0.00000E+00
 -1        94 2.08333E-02 1.56250E-03 0.00000E+00
 -1        95 2.18750E-02 1.95312E-03 0.00000E+00
 -1        96 2.29167E-02 2.34375E-03 0.00000E+00
 -1        97 2.39583E-02 2.73438E-03 0.00000E+00
 -1        98 2.50000E-02 3.12500E-03 0.00000E+00
 -1        99 2.60417E-02 3.51563E-03 0.00000E+00
 -1       100 2.70833E-02 3.90625E-03 0.00000E+00
 -1       101 2.81250E-02 4.29688E-03 0.00000E+00
 -1       102 2.91667E-02 4.68750E-03 0.00000E+00
 -1       103 3.02083E-02 5.07813E-03 0.00000E+00
 -1       104 3.12500E-02 5.46875E-03 0.00000E+00
 -1       105 3.22917E-02 5.85938E-03 0.00000E+00
 -1       106 3.43750E-02 0.00000E+00 0.00000E+00
 -1       107 3.54167E-02 0.00000E+00 0.00000E+00
 -1       108 3.64583E-02 0.00000E+00 0.00000E+00
 -1       109 3.75000E-02 0.00000E+00 0.00000E+00
 -1       110 3.85417E-02 0.00000E+00 0.00000E+00
 -1       111 3.95833E-02 0.00000E+00 0.00000E+00
 -1       112 4.06250E-02 0.00000E+00 0.00000E+00
 -1       113 4.16667E-02 0.00000E+00 0.00000E+00
 -1       114 4.27083E-02 0.00000E+00 0.00000E+00
 -1       115 4.37500E-02 0.00000E+00 0.00000E+00
 -1       116 4.47917E-02 0.00000E+00 0.00000E+00
 -1       117 4.58333E-02 0.00000E+00 0.00000E+00
 -1       118 4.68750E-02 0.00000E+00 0.00000E+00
 -1       119 4.79167E-02 0.00000E+00 0.00000E+00
 -1       120 4.89583E-02 0.00000E+00 0.00000E+00
 -1       121 3.33333E-02 1.04167E-03 0.00000E+00
 -1       122 3.33333E-02 2.08333E-03 0.00000E+00
 -1       123 3.33333E-02 3.12500E-03 0.00000E+00
 -1       124 3.33333E-02 4.16667E-03 0.00000E+00
 -1       125 3.33333E-02 5.20833E-03 0.00000E+00
 -1       126 3.43750E-02 3.90630E-04 0.00000E+00
 -1       127 3.54167E-02 7.81250E-04 0.00000E+00
 -1       128 3.64583E-02 1.17188E-03 0.00000E+00
 -1       129 3.75000E-02 1.56250E-03 0.00000E+00
 -1       130 3.85417E-02 1.95312E-03 0.00000E+00
 -1       131 3.95833E-02 2.34375E-03 0.00000E+00
 -1       132 4.06250E-02 2.73438E-03 0.00000E+00
 -1       133 4.16667E-02 3.12500E-03 0.00000E+00
 -1       134 4.27083E-02 3.51563E-03 0.00000E+00
 -1       135 4.37500E-02 3.90625E-03 0.00000E+00
 -1       136 4.47917E-02 4.29688E-03 0.00000E+00
 -1       137 4.58333E-02 4.68750E-03 0.00000E+00
 -1       138 4.68750E-02 5.07813E-03 0.00000E+00
 -1       139 4.79167E-02 5.46875E-03 0.00000E+00
 -1       140 4.89583E-02 5.85938E-03 0.00000E+00
 -1       141 5.10417E-02 0.00000E+00 0.00000E+00
 -1       142 5.20833E-02 0.00000E+00 0.00000E+00
 -1       143 5.31250E-02 0.00000E+00 0.00000E+00
 -1       144 5.41667E-02 0.00000E+00 0.00000E+00
 -1       145 5.52083E-02 0.00000E+00 0.00000E+00
 -1       146 5.62500E-02 0.00000E+00 0.00000E+00
 -1       147 5.72917E-02 0.00000E+00 0.00000E+00
 -1       148 5.83333E-02 0.00000E+00 0.00000E+00
 -1       149 5.93750E-02 0.00000E+00 0.00000E+00
 -1       150 6.04167E-02 0.00000E+00 0.00000E+00
 -1       151 6.14583E-02 0.00000E+00 0.00000E+00
 -1       152 6.25000E-02 0.00000E+00 0.00000E+00
 -1       153 6.35417E-02 0.00000E+00 0.00000E+00
 -1       154 6.45833E-02 0.00000E+00 0.00000E+00
 -1       155 6.56250E-02 0.00000E+00 0.00000E+00
 -1       156 5.00000E-02 1.04167E-03 0.00000E+00
 -1       157 5.00000E-02 2.08333E-03 0.00000E+00
 -1       158 5.00000E-02 3.12500E-03 0.00000E+00
 -1       159 5.00000E-02 4.16667E-03 0.00000E+00
 -1       160 5.00000E-02 5.20833E-03 0.00000E+00
 -1       161 5.10417E-02 3.90630E-04 0.00000E+00
 -1       162 5.20833E-02 7.81250E-04 0.00000E+00
 -1       163 5.31250E-02 1.17188E-03 0.00000E+00
 -1       164 5.41667E-02 1.56250E-03 0.00000E+00
 -1       165 5.52083E-02 1.95312E-03 0.00000E+00
 -1       166 5.62500E-02 2.34375E-03 0.00000E+00
 -1       167 5.72917E-02 2.73438E-03 0.00000E+00
 -1       168 5.83333E-02 3.12500E-03 0.00000E+00
 -1       169 5.93750E-02 3.51563E-03 0.00000E+00
 -1       170 6.04167E-02 3.90625E-03 0.00000E+00
 -1       171 6.14583E-02 4.29688E-03 0.00000E+00
 -1       172 6.25000E-02 4.68750E-03 0.00000E+00
 -1       173 6.35417E-02 5.07813E-03 0.00000E+00
 -1       174 6.45833E-02 5.46875E-03 0.00000E+00
 -1       175 6.56250E-02 5.85938E-03 0.00000E+00
 -1       191 6.66667E-02 1.04167E-03 0.00000E+00
 -1       192 6.66667E-02 2.08333E-03 0.00000E+00
 -1       193 6.66667E-02 3.12500E-03 0.00000E+00
 -1       194 6.66667E-02 4.16667E-03 0.00000E+00
 -1       195 6.66667E-02 5.20833E-03 0.00000E+00
 -1       251 1.04167E-03 6.25000E-03 0.00000E+00
 -1       252 2.08333E-03 6.25000E-03 0.00000E+00
 -1       253 3.12500E-03 6.25000E-03 0.00000E+00
 -1       254 4.16667E-03 6.25000E-03 0.00000E+00
 -1       255 5.20833E-03 6.25000E-03 0.00000E+00
 -1       256 6.25000E-03 6.25000E-03 0.00000E+00
 -1       257 7.29167E-03 6.25000E-03 0.00000E+00
 -1       258 8.33333E-03 6.25000E-03 0.00000E+00
 -1       259 9.37500E-03 6.25000E-03 0.00000E+00
 -1       260 1.04167E-02 6.25000E-03 0.00000E+00
 -1       261 1.14583E-02 6.25000E-03 0.00000E+00
 -1       262 1.25000E-02 6.25000E-03 0.00000E+00
 -1       263 1.35417E-02 6.25000E-03 0.00000E+00
 -1       264 1.45833E-02 6.25000E-03 0.00000E+00
 -1       265 1.56250E-02 6.25000E-03 0.00000E+00
 -1       266 0.00000E+00 7.29167E-03 0.00000E+00
 -1       267 0.00000E+00 8.33333E-03 0.00000E+00
 -1       268 0.00000E+00 9.37500E-03 0.00000E+00
 -1       269 0.00000E+00 1.04167E-02 0.00000E+00
 -1       270 0.00000E+00 1.14583E-02 0.00000E+00
 -1       271 1.04167E-03 6.64063E-03 0.00000E+00
 -1       272 2.08333E-03 7.03125E-03 0.00000E+00
 -1       273 3.12500E-03 7.42188E-03 0.00000E+00
 -1       274 4.16667E-03 7.81250E-03 0.00000E+00
 -1       275 5.20833E-03 8.20313E-03 0.00000E+00
 -1       276 6.25000E-03 8.59375E-03 0.00000E+00
 -1       277 7.29167E-03 8.98438E-03 0.00000E+00
 -1       278 8.33333E-03 9.37500E-03 0.00000E+00
 -1       279 9.37500E-03 9.76562E-03 0.00000E+00
 -1       280 1.04167E-02 1.01562E-02 0.00000E+00
 -1       281 1.14583E-02 1.05469E-02 0.00000E+00
 -1       282 1.25000E-02 1.09375E-02 0.00000E+00
 -1       283 1.35417E-02 1.13281E-02 0.00000E+00
 -1       284 1.45833E-02 1.17188E-02 0.00000E+00
 -1       285 1.56250E-02 1.21094E-02 0.00000E+00
 -1       286 1.77083E-02 6.25000E-03 0.00000E+00
 -1       287 1.87500E-02 6.25000E-03 0.00000E+00
 -1       288 1.97917E-02 6.25000E-03 0.00000E+00
 -1       289 2.08333E-02 6.25000E-03 0.00000E+00
 -1       290 2.18750E-02 6.25000E-03 0.00000E+00
 -1       291 2.29167E-02 6.25000E-03 0.00000E+00
 -1       292 2.39583E-02 6.25000E-03 0.00000E+00
 -1       293 2.50000E-02 6.25000E-03 0.00000E+00
 -1       294 2.60417E-02 6.25000E-03 0.00000E+00
 -1       295 2.70833E-02 6.25000E-03 0.00000E+00
 -1       296 2.81250E-02 6.25000E-03 0.00000E+00
 -1       297 2.91667E-02 6.25000E-03 0.00000E+00
 -1       298 3.02083E-02 6.25000E-03 0.00000E+00
 -1       299 3.12500E-02 6.25000E-03 0.00000E+00
 -1       300 3.22917E-02 6.25000E-03 0.00000E+00
 -1       301 1.66667E-02 7.29167E-03 0.00000E+00
 -1       302 1.66667E-02 8.33333E-03 0.00000E+00
 -1       303 1.66667E-02 9.37500E-03 0.00000E+00
 -1       304 1.66667E-02 1.04167E-02 0.00000E+00
 -1       305 1.66667E-02 1.14583E-02 0.00000E+00
 -1       306 1.77083E-02 6.64063E-03 0.00000E+00
 -1       307 1.87500E-02 7.03125E-03 0.00000E+00
 -1       308 1.97917E-02 7.42188E-03 0.00000E+00
 -1       309 2.08333E-02 7.81250E-03 0.00000E+00
 -1       310 2.18750E-02 8.20313E-03 0.00000E+00
 -1       311 2.29167E-02 8.59375E-03 0.00000E+00
 -1       312 2.39583E-02 8.98438E-03 0.00000E+00
 -1       313 2.50000E-02 9.37500E-03 0.00000E+00
 -1       314 2.60417E-02 9.76562E-03 0.00000E+00
 -1       315 2.70833E-02 1.01562E-02 0.00000E+00
 -1       316 2.81250E-02 1.05469E-02 0.00000E+00
 -1       317 2.91667E-02 1.09375E-02 0.00000E+00
 -1       318 3.02083E-02 1.13281E-02 0.00000E+00
 -1       319 3.12500E-02 1.17188E-02 0.00000E+00
 -1       320 3.22917E-02 1.21094E-02 0.00000E+00
 -1       321 3.43750E-02 6.25000E-03 0.00000E+00
 -1       322 3.54167E-02 6.25000E-03 0.00000E+00
 -1       323 3.64583E-02 6.25000E-03 0.00000E+00
 -1       324 3.75000E-02 6.25000E-03 0.00000E+00
 -1       325 3.85417E-02 6.25000E-03 0.00000E+00
 -1       326 3.95833E-02 6.25000E-03 0.00000E+00
 -1       327 4.06250E-02 6.25000E-03 0.00000E+00
 -1       328 4.16667E-02 6.25000E-03 0.00000E+00
 -1       329 4.27083E-02 6.25000E-03 0.00000E+00
 -1       330 4.37500E-02 6.25000E-03 0.00000E+00
 -1       331 4.47917E-02 6.25000E-03 0.00000E+00
 -1       332 4.58333E-02 6.25000E-03 0.00000E+00
 -1       333 4.68750E-02 6.25000E-03 0.00000E+00
 -1       334 4.79167E-02 6.25000E-03 0.00000E+00
 -1       335 4.89583E-02 6.25000E-03 0.00000E+00
 -1       336 3.33333E-02 7.29167E-03 0.00000E+00
 -1       337 3.33333E-02 8.33333E-03 0.00000E+00
 -1       338 3.33333E-02 9.37500E-03 0.00000E+00
 -1       339 3.33333E-02 1.04167E-02 0.00000E+00
 -1       340 3.33333E-02 1.14583E-02 0.00000E+00
 -1       341 3.43750E-02 6.64063E-03 0.00000E+00
 -1       342 3.54167E-02 7.03125E-03 0.00000E+00
 -1       343 3.64583E-02 7.42188E-03 0.00000E+00
 -1       344 3.75000E-02 7.81250E-03 0.00000E+00
 -1       345 3.85417E-02 8.20313E-03 0.00000E+00
 -1       346 3.95833E-02 8.59375E-03 0.00000E+00
 -1       347 4.06250E-02 8.98438E-03 0.00000E+00
 -1       348 4.16667E-02 9.37500E-03 0.00000E+00
 -1       349 4.27083E-02 9.76562E-03 0.00000E+00
 -1       350 4.37500E-02 1.01562E-02 0.00000E+00
 -1       351 4.47917E-02 1.05469E-02 0.00000E+00
 -1       352 4.58333E-02 1.09375E-02 0.00000E+00
 -1       353 4.68750E-02 1.13281E-02 0.00000E+00
 -1       354 4.79167E-02 1.17188E-02 0.00000E+00
 -1       355 4.89583E-02 1.21094E-02 0.00000E+00
 -1       356 5.10417E-02 6.25000E-03 0.00000E+00
 -1       357 5.20833E-02 6.25000E-03 0.00000E+00
 -1       358 5.31250E-02 6.25000E-03 0.00000E+00
 -1       359 5.41667E-02 6.25000E-03 0.00000E+00
 -1       360 5.52083E-02 6.25000E-03 0.00000E+00
 -1       361 5.62500E-02 6.25000E-03 0.00000E+00
 -1       362 5.72917E-02 6.25000E-03 0.00000E+00
 -1       363 5.83333E-02 6.25000E-03 0.00000E+00
 -1       364 5.93750E-02 6.25000E-03 0.00000E+00
 -1       365 6.04167E-02 6.25000E-03 0.00000E+00
 -1       366 6.14583E-02 6.25000E-03 0.00000E+00
 -1       367 6.25000E-02 6.25000E-03 0.00000E+00
 -1       368 6.35417E-02 6.25000E-03 0.00000E+00
 -1       369 6.45833E-02 6.25000E-03 0.00000E+00
 -1       370 6.56250E-02 6.25000E-03 0.00000E+00
 -1       371 5.00000E-02 7.29167E-03 0.00000E+00
 -1       372 5.00000E-02 8.33333E-03 0.00000E+00
 -1       373 5.00000E-02 9.37500E-03 0.00000E+00
 -1       374 5.00000E-02 1.04167E-02 0.00000E+00
 -1       375 5.00000E-02 1.14583E-02 0.00000E+00
 -1       376 5.10417E-02 6.64063E-03 0.00000E+00
 -1       377 5.20833E-02 7.03125E-03 0.00000E+00
 -1       378 5.31250E-02 7.42188E-03 0.00000E+00
 -1       379 5.41667E-02 7.81250E-03 0.00000E+00
 -1       380 5.52083E-02 8.20313E-03 0.00000E+00
 -1       381 5.62500E-02 8.59375E-03 0.00000E+00
 -1       382 5.72917E-02 8.98438E-03 0.00000E+00
 -1       383 5.83333E-02 9.37500E-03 0.00000E+00
 -1       384 5.93750E-02 9.76562E-03 0.00000E+00
 -1       385 6.04167E-02 1.01562E-02 0.00000E+00
 -1       386 6.14583E-02 1.05469E-02 0.00000E+00
 -1       387 6.25000E-02 1.09375E-02 0.00000E+00
 -1       388 6.35417E-02 1.13281E-02 0.00000E+00
 -1       389 6.45833E-02 1.17188E-02 0.00000E+00
 -1       390 6.56250E-02 1.21094E-02 0.00000E+00
 -1       406 6.66667E-02 7.29167E-03 0.00000E+00
 -1       407 6.66667E-02 8.33333E-03 0.00000E+00
 -1       408 6.66667E-02 9.37500E-03 0.00000E+00
 -1       409 6.66667E-02 1.04167E-02 0.00000E+00
 -1       410 6.66667E-02 1.14583E-02 0.00000E+00
 -1       466 1.04167E-03 1.25000E-02 0.00000E+00
 -1       467 2.08333E-03 1.25000E-02 0.00000E+00
 -1       468 3.12500E-03 1.25000E-02 0.00000E+00
 -1       469 4.16667E-03 1.25000E-02 0.00000E+00
 -1       470 5.20833E-03 1.25000E-02 0.00000E+00
 -1       471 6.25000E-03 1.25000E-02 0.00000E+00
 -1       472 7.29167E-03 1.25000E-02 0.00000E+00
 -1       473 8.33333E-03 1.25000E-02 0.00000E+00
 -1       474 9.37500E-03 1.25000E-02 0.00000E+00
 -1       475 1.04167E-02 1.25000E-02 0.00000E+00
 -1       476 1.14583E-02 1.25000E-02 0.00000E+00
 -1       477 1.25000E-02 1.25000E-02 0.00000E+00
 -1       478 1.35417E-02 1.25000E-02 0.00000E+00
 -1       479 1.45833E-02 1.25000E-02 0.00000E+00
 -1       480 1.56250E-02 1.25000E-02 0.00000E+00
 -1       481 0.00000E+00 1.35417E-02 0.00000E+00
 -1       482 0.00000E+00 1.45833E-02 0.00000E+00
 -1       483 0.00000E+00 1.56250E-02 0.00000E+00
 -1       484 0.00000E+00 1.66667E-02 0.00000E+00
 -1       485 0.00000E+00 1.77083E-02 0.00000E+00
 -1       486 1.04167E-03 1.28906E-02 0.00000E+00
 -1       487 2.08333E-03 1.32813E-02 0.00000E+00
 -1       488 3.12500E-03 1.36719E-02 0.00000E+00
 -1       489 4.16667E-03 1.40625E-02 0.00000E+00
 -1       490 5.20833E-03 1.44531E-02 0.00000E+00
 -1       491 6.25000E-03 1.48437E-02 0.00000E+00
 -1       492 7.29167E-03 1.52344E-02 0.00000E+00
 -1       493 8.33333E-03 1.56250E-02 0.00000E+00
 -1       494 9.37500E-03 1.60156E-02 0.00000E+00
 -1       495 1.04167E-02 1.64062E-02 0.00000E+00
 -1       496 1.14583E-02 1.67969E-02 0.00000E+00
 -1       497 1.25000E-02 1.71875E-02 0.00000E+00
 -1       498 1.35417E-02 1.75781E-02 0.00000E+00
 -1       499 1.45833E-02 1.79687E-02 0.00000E+00
 -1       500 1.56250E-02 1.83594E-02 0.00000E+00
 -1       501 1.77083E-02 1.25000E-02 0.00000E+00
 -1       502 1.87500E-02 1.25000E-02 0.00000E+00
 -1       503 1.97917E-02 1.25000E-02 0.00000E+00
 -1       504 2.08333E-02 1.25000E-02 0.00000E+00
 -1       505 2.18750E-02 1.25000E-02 0.00000E+00
 -1       506 2.29167E-02 1.25000E-02 0.00000E+00
 -1       507 2.39583E-02 1.25000E-02 0.00000E+00
 -1       508 2.50000E-02 1.25000E-02 0.00000E+00
 -1       509 2.60417E-02 1.25000E-02 0.00000E+00
 -1       510 2.70833E-02 1.25000E-02 0.00000E+00
 -1       511 2.81250E-02 1.25000E-02 0.00000E+00
 -1       512 2.91667E-02 1.25000E-02 0.00000E+00
 -1       513 3.02083E-02 1.25000E-02 0.00000E+00
 -1       514 3.12500E-02 1.25000E-02 0.00000E+00
 -1       515 3.22917E-02 1.25000E-02 0.00000E+00
 -1       516 1.66667E-02 1.35417E-02 0.00000E+00
 -1       517 1.66667E-02 1.45833E-02 0.00000E+00
 -1       518 1.66667E-02 1.56250E-02 0.00000E+00
 -1       519 1.66667E-02 1.66667E-02 0.00000E+00
 -1       520 1.66667E-02 1.77083E-02 0.00000E+00
 -1       521 1.77083E-02 1.28906E-02 0.00000E+00
 -1       522 1.87500E-02 1.32813E-02 0.00000E+00
 -1       523 1.97917E-02 1.36719E-02 0.00000E+00
 -1       524 2.08333E-02 1.40625E-02 0.00000E+00
 -1       525 2.18750E-02 1.44531E-02 0.00000E+00
 -1       526 2.29167E-02 1.48437E-02 0.00000E+00
 -1       527 2.39583E-02 1.52344E-02 0.00000E+00
 -1       528 2.50000E-02 1.56250E-02 0.00000E+00
 -1       529 2.60417E-02 1.60156E-02 0.00000E+00
 -1       530 2.70833E-02 1.64062E-02 0.00000E+00
 -1       531 2.81250E-02 1.67969E-02 0.00000E+00
 -1       532 2.91667E-02 1.71875E-02 0.00000E+00
 -1       533 3.02083E-02 1.75781E-02 0.00000E+00
 -1       534 3.12500E-02 1.79687E-02 0.00000E+00
 -1       535 3.22917E-02 1.83594E-02 0.00000E+00
 -1       536 3.43750E-02 1.25000E-02 0.00000E+00
 -1       537 3.54167E-02 1.25000E-02 0.00000E+00
 -1       538 3.64583E-02 1.25000E-02 0.00000E+00
 -1       539 3.75000E-02 1.25000E-02 0.00000E+00
 -1       540 3.85417E-02 1.25000E-02 0.00000E+00
 -1       541 3.95833E-02 1.25000E-02 0.00000E+00
 -1       542 4.06250E-02 1.25000E-02 0.00000E+00
 -1       543 4.16667E-02 1.25000E-02 0.00000E+00
 -1       544 4.27083E-02 1.25000E-02 0.00000E+00
 -1       545 4.37500E-02 1.25000E-02 0.00000E+00
 -1       546 4.47917E-02 1.25000E-02 0.00000E+00
 -1       547 4.58333E-02 1.25000E-02 0.00000E+00
 -1       548 4.68750E-02 1.25000E-02 0.00000E+00
 -1       549 4.79167E-02 1.25000E-02 0.00000E+00
 -1       550 4.89583E-02 1.25000E-02 0.00000E+00
 -1       551 3.33333E-02 1.35417E-02 0.00000E+00
 -1       552 3.33333E-02 1.45833E-02 0.00000E+00
 -1       553 3.33333E-02 1.56250E-02 0.00000E+00
 -1       554 3.33333E-02 1.66667E-02 0.00000E+00
 -1       555 3.33333E-02 1.77083E-02 0.00000E+00
 -1       556 3.43750E-02 1.28906E-02 0.00000E+00
 -1       557 3.54167E-02 1.32813E-02 0.00000E+00
 -1       558 3.64583E-02 1.36719E-02 0.00000E+00
 -1       559 3.75000E-02 1.40625E-02 0.00000E+00
 -1       560 3.85417E-02 1.44531E-02 0.00000E+00
 -1       561 3.95833E-02 1.48437E-02 0.00000E+00
 -1       562 4.06250E-02 1.52344E-02 0.00000E+00
 -1       563 4.16667E-02 1.56250E-02 0.00000E+00
 -1       564 4.27083E-02 1.60156E-02 0.00000E+00
 -1       565 4.37500E-02 1.64062E-02 0.00000E+00
 -1       566 4.47917E-02 1.67969E-02 0.00000E+00
 -1       567 4.58333E-02 1.71875E-02 0.00000E+00
 -1       568 4.68750E-02 1.75781E-02 0.00000E+00
 -1       569 4.79167E-02 1.79687E-02 0.00000E+00
 -1       570 4.89583E-02 1.83594E-02 0.00000E+00
 -1       571 5.10417E-02 1.25000E-02 0.00000E+00
 -1       572 5.20833E-02 1.25000E-02 0.00000E+00
 -1       573 5.31250E-02 1.25000E-02 0.00000E+00
 -1       574 5.41667E-02 1.25000E-02 0.00000E+00
 -1       575 5.52083E-02 1.25000E-02 0.00000E+00
 -1       576 5.62500E-02 1.25000E-02 0.00000E+00
 -1       577 5.72917E-02 1.25000E-02 0.00000E+00
 -1       578 5.83333E-02 1.25000E-02 0.00000E+00
 -1       579 5.93750E-02 1.25000E-02 0.00000E+00
 -1       580 6.04167E-02 1.25000E-02 0.00000E+00
 -1       581 6.14583E-02 1.25000E-02 0.00000E+00
 -1       582 6.25000E-02 1.25000E-02 0.00000E+00
 -1       583 6.35417E-02 1.25000E-02 0.00000E+00
 -1       584 6.45833E-02 1.25000E-02 0.00000E+00
 -1       585 6.56250E-02 1.25000E-02 0.00000E+00
 -1       586 5.00000E-02 1.35417E-02 0.00000E+00
 -1       587 5.00000E-02 1.45833E-02 0.00000E+00
 -1       588 5.00000E-02 1.56250E-02 0.00000E+00
 -1       589 5.00000E-02 1.66667E-02 0.00000E+00
 -1       590 5.00000E-02 1.77083E-02 0.00000E+00
 -1       591 5.10417E-02 1.28906E-02 0.00000E+00
 -1       592 5.20833E-02 1.32813E-02 0.00000E+00
 -1       593 5.31250E-02 1.36719E-02 0.00000E+00
 -1       594 5.41667E-02 1.40625E-02 0.00000E+00
 -1       595 5.52083E-02 1.44531E-02 0.00000E+00
 -1       596 5.62500E-02 1.48437E-02 0.00000E+00
 -1       597 5.72917E-02 1.52344E-02 0.00000E+00
 -1       598 5.83333E-02 1.56250E-02 0.00000E+00
 -1       599 5.93750E-02 1.60156E-02 0.00000E+00
 -1       600 6.04167E-02 1.64062E-02 0.00000E+00
 -1       601 6.14583E-02 1.67969E-02 0.00000E+00
 -1       602 6.25000E-02 1.71875E-02 0.00000E+00
 -1       603 6.35417E-02 1.75781E-02 0.00000E+00
 -1       604 6.45833E-02 1.79687E-02 0.00000E+00
 -1       605 6.56250E-02 1.83594E-02 0.00000E+00
 -1       606 6.77083E-02 1.25000E-02 0.00000E+00
 -1       607 6.87500E-02 1.25000E-02 0.00000E+00
 -1       608 6.97917E-02 1.25000E-02 0.00000E+00
 -1       609 7.08333E-02 1.25000E-02 0.00000E+00
 -1       610 7.18750E-02 1.25000E-02 0.00000E+00
 -1       611 7.29167E-02 1.25000E-02 0.00000E+00
 -1       612 7.39583E-02 1.25000E-02 0.00000E+00
 -1       613 7.50000E-02 1.25000E-02 0.00000E+00
 -1       614 7.60417E-02 1.25000E-02 0.00000E+00
 -1       615 7.70833E-02 1.25000E-02 0.00000E+00
 -1       616 7.81250E-02 1.25000E-02 0.00000E+00
 -1       617 7.91667E-02 1.25000E-02 0.00000E+00
 -1       618 8.02083E-02 1.25000E-02 0.00000E+00
 -1       619 8.12500E-02 1.25000E-02 0.00000E+00
 -1       620 8.22917E-02 1.25000E-02 0.00000E+00
 -1       621 6.66667E-02 1.35417E-02 0.00000E+00
 -1       622 6.66667E-02 1.45833E-02 0.00000E+00
 -1       623 6.66667E-02 1.56250E-02 0.00000E+00
 -1       624 6.66667E-02 1.66667E-02 0.00000E+00
 -1       625 6.66667E-02 1.77083E-02 0.00000E+00
 -1       626 6.77083E-02 1.28906E-02 0.00000E+00
 -1       627 6.87500E-02 1.32813E-02 0.00000E+00
 -1       628 6.97917E-02 1.36719E-02 0.00000E+00
 -1       629 7.08333E-02 1.40625E-02 0.00000E+00
 -1       630 7.18750E-02 1.44531E-02 0.00000E+00
 -1       631 7.29167E-02 1.48437E-02 0.00000E+00
 -1       632 7.39583E-02 1.52344E-02 0.00000E+00
 -1       633 7.50000E-02 1.56250E-02 0.00000E+00
 -1       634 7.60417E-02 1.60156E-02 0.00000E+00
 -1       635 7.70833E-02 1.64062E-02 0.00000E+00
 -1       636 7.81250E-02 1.67969E-02 0.00000E+00
 -1       637 7.91667E-02 1.71875E-02 0.00000E+00
 -1       638 8.02083E-02 1.75781E-02 0.00000E+00
 -1       639 8.12500E-02 1.79687E-02 0.00000E+00
 -1       640 8.22917E-02 1.83594E-02 0.00000E+00
 -1       641 8.43750E-02 1.25000E-02 0.00000E+00
 -1       642 8.54167E-02 1.25000E-02 0.00000E+00
 -1       643 8.64583E-02 1.25000E-02 0.00000E+00
 -1       644 8.75000E-02 1.25000E-02 0.00000E+00
 -1       645 8.85417E-02 1.25000E-02 0.00000E+00
 -1       646 8.95833E-02 1.25000E-02 0.00000E+00
 -1       647 9.06250E-02 1.25000E-02 0.00000E+00
 -1       648 9.16667E-02 1.25000E-02 0.00000E+00
 -1       649 9.27083E-02 1.25000E-02 0.00000E+00
 -1       650 9.37500E-02 1.25000E-02 0.00000E+00
 -1       651 9.47917E-02 1.25000E-02 0.00000E+00
 -1       652 9.58333E-02 1.25000E-02 0.00000E+00
 -1       653 9.68750E-02 1.25000E-02 0.00000E+00
 -1       654 9.79167E-02 1.25000E-02 0.00000E+00
 -1       655 9.89583E-02 1.25000E-02 0.00000E+00
 -1       656 8.33333E-02 1.35417E-02 0.00000E+00
 -1       657 8.33333E-02 1.45833E-02 0.00000E+00
 -1       658 8.33333E-02 1.56250E-02 0.00000E+00
 -1       659 8.33333E-02 1.66667E-02 0.00000E+00
 -1       660 8.33333E-02 1.77083E-02 0.00000E+00
 -1       661 8.43750E-02 1.28906E-02 0.00000E+00
 -1       662 8.54167E-02 1.32813E-02 0.00000E+00
 -1       663 8.64583E-02 1.36719E-02 0.00000E+00
 -1       664 8.75000E-02 1.40625E-02 0.00000E+00
 -1       665 8.85417E-02 1.44531E-02 0.00000E+00
 -1       666 8.95833E-02 1.48437E-02 0.00000E+00
 -1       667 9.06250E-02 1.52344E-02 0.00000E+00
 -1       668 9.16667E-02 1.56250E-02 0.00000E+00
 -1       669 9.27083E-02 1.60156E-02 0.00000E+00
 -1       670 9.37500E-02 1.64062E-02 0.00000E+00
 -1       671 9.47917E-02 1.67969E-02 0.00000E+00
 -1       672 9.58333E-02 1.71875E-02 0.00000E+00
 -1       673 9.68750E-02 1.75781E-02 0.00000E+00
 -1       674 9.79167E-02 1.79687E-02 0.00000E+00
 -1       675 9.89583E-02 1.83594E-02 0.00000E+00
 -1       676 1.00000E-01 1.35417E-02 0.00000E+00
 -1       677 1.00000E-01 1.45833E-02 0.00000E+00
 -1       678 1.00000E-01 1.56250E-02 0.00000E+00
 -1       679 1.00000E-01 1.66667E-02 0.00000E+00
 -1       680 1.00000E-01 1.77083E-02 0.00000E+00
 -1       681 1.04167E-03 1.87500E-02 0.00000E+00
 -1       682 2.08333E-03 1.87500E-02 0.00000E+00
 -1       683 3.12500E-03 1.87500E-02 0.00000E+00
 -1       684 4.16667E-03 1.87500E-02 0.00000E+00
 -1       685 5.20833E-03 1.87500E-02 0.00000E+00
 -1       686 6.25000E-03 1.87500E-02 0.00000E+00
 -1       687 7.29167E-03 1.87500E-02 0.00000E+00
 -1       688 8.33333E-03 1.87500E-02 0.00000E+00
 -1       689 9.37500E-03 1.87500E-02 0.00000E+00
 -1       690 1.04167E-02 1.87500E-02 0.00000E+00
 -1       691 1.14583E-02 1.87500E-02 0.00000E+00
 -1       692 1.25000E-02 1.87500E-02 0.00000E+00
 -1       693 1.35417E-02 1.87500E-02 0.00000E+00
 -1       694 1.45833E-02 1.87500E-02 0.00000E+00
 -1       695 1.56250E-02 1.87500E-02 0.00000E+00
 -1       696 0.00000E+00 1.97917E-02 0.00000E+00
 -1       697 0.00000E+00 2.08333E-02 0.00000E+00
 -1       698 0.00000E+00 2.18750E-02 0.00000E+00
 -1       699 0.00000E+00 2.29167E-02 0.00000E+00
 -1       700 0.00000E+00 2.39583E-02 0.00000E+00
 -1       701 1.04167E-03 1.91406E-02 0.00000E+00
 -1       702 2.08333E-03 1.95312E-02 0.00000E+00
 -1       703 3.12500E-03 1.99219E-02 0.00000E+00
 -1       704 4.16667E-03 2.03125E-02 0.00000E+00
 -1       705 5.20833E-03 2.07031E-02 0.00000E+00
 -1       706 6.25000E-03 2.10938E-02 0.00000E+00
 -1       707 7.29167E-03 2.14844E-02 0.00000E+00
 -1       708 8.33333E-03 2.18750E-02 0.00000E+00
 -1       709 9.37500E-03 2.22656E-02 0.00000E+00
 -1       710 1.04167E-02 2.26563E-02 0.00000E+00
 -1       711 1.14583E-02 2.30469E-02 0.00000E+00
 -1       712 1.25000E-02 2.34375E-02 0.00000E+00
 -1       713 1.35417E-02 2.38281E-02 0.00000E+00
 -1       714 1.45833E-02 2.42187E-02 0.00000E+00
 -1       715 1.56250E-02 2.46094E-02 0.00000E+00
 -1       716 1.77083E-02 1.87500E-02 0.00000E+00
 -1       717 1.87500E-02 1.87500E-02 0.00000E+00
 -1       718 1.97917E-02 1.87500E-02 0.00000E+00
 -1       719 2.08333E-02 1.87500E-02 0.00000E+00
 -1       720 2.18750E-02 1.87500E-02 0.00000E+00
 -1       721 2.29167E-02 1.87500E-02 0.00000E+00
 -1       722 2.39583E-02 1.87500E-02 0.00000E+00
 -1       723 2.50000E-02 1.87500E-02 0.00000E+00
 -1       724 2.60417E-02 1.87500E-02 0.00000E+00
 -1       725 2.70833E-02 1.87500E-02 0.00000E+00
 -1       726 2.81250E-02 1.87500E-02 0.00000E+00
 -1       727 2.91667E-02 1.87500E-02 0.00000E+00
 -1       728 3.02083E-02 1.87500E-02 0.00000E+00
 -1       729 3.12500E-02 1.87500E-02 0.00000E+00
 -1       730 3.22917E-02 1.87500E-02 0.00000E+00
 -1       731 1.66667E-02 1.97917E-02 0.00000E+00
 -1       732 1.66667E-02 2.08333E-02 0.00000E+00
 -1       733 1.66667E-02 2.18750E-02 0.00000E+00
 -1       734 1.66667E-02 2.29167E-02 0.00000E+00
 -1       735 1.66667E-02 2.39583E-02 0.00000E+00
 -1       736 1.77083E-02 1.91406E-02 0.00000E+00
 -1       737 1.87500E-02 1.95312E-02 0.00000E+00
 -1       738 1.97917E-02 1.99219E-02 0.00000E+00
 -1       739 2.08333E-02 2.03125E-02 0.00000E+00
 -1       740 2.18750E-02 2.07031E-02 0.00000E+00
 -1       741 2.29167E-02 2.10938E-02 0.00000E+00
 -1       742 2.39583E-02 2.14844E-02 0.00000E+00
 -1       743 2.50000E-02 2.18750E-02 0.00000E+00
 -1       744 2.60417E-02 2.22656E-02 0.00000E+00
 -1       745 2.70833E-02 2.26563E-02 0.00000E+00
 -1       746 2.81250E-02 2.30469E-02 0.00000E+00
 -1       747 2.91667E-02 2.34375E-02 0.00000E+00
 -1       748 3.02083E-02 2.38281E-02 0.00000E+00
 -1       749 3.12500E-02 2.42187E-02 0.00000E+00
 -1       750 3.22917E-02 2.46094E-02 0.00000E+00
 -1       751 3.43750E-02 1.87500E-02 0.00000E+00
 -1       752 3.54167E-02 1.87500E-02 0.00000E+00
 -1       753 3.64583E-02 1.87500E-02 0.00000E+00
 -1       754 3.75000E-02 1.87500E-02 0.00000E+00
 -1       755 3.85417E-02 1.87500E-02 0.00000E+00
 -1       756 3.95833E-02 1.87500E-02 0.00000E+00
 -1       757 4.06250E-02 1.87500E-02 0.00000E+00
 -1       758 4.16667E-02 1.87500E-02 0.00000E+00
 -1       759 4.27083E-02 1.87500E-02 0.00000E+00
 -1       760 4.37500E-02 1.87500E-02 0.00000E+00
 -1       761 4.47917E-02 1.87500E-02 0.00000E+00
 -1       762 4.58333E-02 1.87500E-02 0.00000E+00
 -1       763 4.68750E-02 1.87500E-02 0.00000E+00
 -1       764 4.79167E-02 1.87500E-02 0.00000E+00
 -1       765 4.89583E-02 1.87500E-02 0.00000E+00
 -1       766 3.33333E-02 1.97917E-02 0.00000E+00
 -1       767 3.33333E-02 2.08333E-02 0.00000E+00
 -1       768 3.33333E-02 2.18750E-02 0.00000E+00
 -1       769 3.33333E-02 2.29167E-02 0.00000E+00
 -1       770 3.33333E-02 2.39583E-02 0.00000E+00
 -1       771 3.43750E-02 1.91406E-02 0.00000E+00
 -1       772 3.54167E-02 1.95312E-02 0.00000E+00
 -1       773 3.64583E-02 1.99219E-02 0.00000E+00
 -1       774 3.75000E-02 2.03125E-02 0.00000E+00
 -1       775 3.85417E-02 2.07031E-02 0.00000E+00
 -1       776 3.95833E-02 2.10938E-02 0.00000E+00
 -1       777 4.06250E-02 2.14844E-02 0.00000E+00
 -1       778 4.16667E-02 2.18750E-02 0.00000E+00
 -1       779 4.27083E-02 2.22656E-02 0.00000E+00
 -1       780 4.37500E-02 2.26563E-02 0.00000E+00
 -1       781 4.47917E-02 2.30469E-02 0.00000E+00
 -1       782 4.58333E-02 2.34375E-02 0.00000E+00
 -1       783 4.68750E-02 2.38281E-02 0.00000E+00
 -1       784 4.79167E-02 2.42187E-02 0.00000E+00
 -1       785 4.89583E-02 2.46094E-02 0.00000E+00
 -1       786 5.10417E-02 1.87500E-02 0.00000E+00
 -1       787 5.20833E-02 1.87500E-02 0.00000E+00
 -1       788 5.31250E-02 1.87500E-02 0.00000E+00
 -1       789 5.41667E-02 1.87500E-02 0.00000E+00
 -1       790 5.52083E-02 1.87500E-02 0.00000E+00
 -1       791 5.62500E-02 1.87500E-02 0.00000E+00
 -1       792 5.72917E-02 1.87500E-02 0.00000E+00
 -1       793 5.83333E-02 1.87500E-02 0.00000E+00
 -1       794 5.93750E-02 1.87500E-02 0.00000E+00
 -1       795 6.04167E-02 1.87500E-02 0.00000E+00
 -1       796 6.14583E-02 1.87500E-02 0.00000E+00
 -1       797 6.25000E-02 1.87500E-02 0.00000E+00
 -1       798 6.35417E-02 1.87500E-02 0.00000E+00
 -1       799 6.45833E-02 1.87500E-02 0.00000E+00
 -1       800 6.56250E-02 1.87500E-02 0.00000E+00
 -1       801 5.00000E-02 1.97917E-02 0.00000E+00
 -1       802 5.00000E-02 2.08333E-02 0.00000E+00
 -1       803 5.00000E-02 2.18750E-02 0.00000E+00
 -1       804 5.00000E-02 2.29167E-02 0.00000E+00
 -1       805 5.00000E-02 2.39583E-02 0.00000E+00
 -1       806 5.10417E-02 1.91406E-02 0.00000E+00
 -1       807 5.20833E-02 1.95312E-02 0.00000E+00
 -1       808 5.31250E-02 1.99219E-02 0.00000E+00
 -1       809 5.41667E-02 2.03125E-02 0.00000E+00
 -1       810 5.52083E-02 2.07031E-02 0.00000E+00
 -1       811 5.62500E-02 2.10938E-02 0.00000E+00
 -1       812 5.72917E-02 2.14844E-02 0.00000E+00
 -1       813 5.83333E-02 2.18750E-02 0.00000E+00
 -1       814 5.93750E-02 2.22656E-02 0.00000E+00
 -1       815 6.04167E-02 2.26563E-02 0.00000E+00
 -1       816 6.14583E-02 2.30469E-02 0.00000E+00
 -1       817 6.25000E-02 2.34375E-02 0.00000E+00
 -1       818 6.35417E-02 2.38281E-02 0.00000E+00
 -1       819 6.45833E-02 2.42187E-02 0.00000E+00
 -1       820 6.56250E-02 2.46094E-02 0.00000E+00
 -1       821 6.77083E-02 1.87500E-02 0.00000E+00
 -1       822 6.87500E-02 1.87500E-02 0.00000E+00
 -1       823 6.97917E-02 1.87500E-02 0.00000E+00
 -1       824 7.08333E-02 1.87500E-02 0.00000E+00
 -1       825 7.18750E-02 1.87500E-02 0.00000E+00
 -1       826 7.29167E-02 1.87500E-02 0.00000E+00
 -1       827 7.39583E-02 1.87500E-02 0.00000E+00
 -1       828 7.50000E-02 1.87500E-02 0.00000E+00
 -1       829 7.60417E-02 1.87500E-02 0.00000E+00
 -1       830 7.70833E-02 1.87500E-02 0.00000E+00
 -1       831 7.81250E-02 1.87500E-02 0.00000E+00
 -1       832 7.91667E-02 1.87500E-02 0.00000E+00
 -1       833 8.02083E-02 1.87500E-02 0.00000E+00
 -1       834 8.12500E-02 1.87500E-02 0.00000E+00
 -1       835 8.22917E-02 1.87500E-02 0.00000E+00
 -1       836 6.66667E-02 1.97917E-02 0.00000E+00
 -1       837 6.66667E-02 2.08333E-02 0.00000E+00
 -1       838 6.66667E-02 2.18750E-02 0.00000E+00
 -1       839 6.66667E-02 2.29167E-02 0.00000E+00
 -1       840 6.66667E-02 2.39583E-02 0.00000E+00
 -1       841 6.77083E-02 1.91406E-02 0.00000E+00
 -1       842 6.87500E-02 1.95312E-02 0.00000E+00
 -1       843 6.97917E-02 1.99219E-02 0.00000E+00
 -1       844 7.08333E-02 2.03125E-02 0.00000E+00
 -1       845 7.18750E-02 2.07031E-02 0.00000E+00
 -1       846 7.29167E-02 2.10938E-02 0.00000E+00
 -1       847 7.39583E-02 2.14844E-02 0.00000E+00
 -1       848 7.50000E-02 2.18750E-02 0.00000E+00
 -1       849 7.60417E-02 2.22656E-02 0.00000E+00
 -1       850 7.70833E-02 2.26563E-02 0.00000E+00
 -1       851 7.81250E-02 2.30469E-02 0.00000E+00
 -1       852 7.91667E-02 2.34375E-02 0.00000E+00
 -1       853 8.02083E-02 2.38281E-02 0.00000E+00
 -1       854 8.12500E-02 2.42187E-02 0.00000E+00
 -1       855 8.22917E-02 2.46094E-02 0.00000E+00
 -1       856 8.43750E-02 1.87500E-02 0.00000E+00
 -1       857 8.54167E-02 1.87500E-02 0.00000E+00
 -1       858 8.64583E-02 1.87500E-02 0.00000E+00
 -1       859 8.75000E-02 1.87500E-02 0.00000E+00
 -1       860 8.85417E-02 1.87500E-02 0.00000E+00
 -1       861 8.95833E-02 1.87500E-02 0.00000E+00
 -1       862 9.06250E-02 1.87500E-02 0.00000E+00
 -1       863 9.16667E-02 1.87500E-02 0.00000E+00
 -1       864 9.27083E-02 1.87500E-02 0.00000E+00
 -1       865 9.37500E-02 1.87500E-02 0.00000E+00
 -1       866 9.47917E-02 1.87500E-02 0.00000E+00
 -1       867 9.58333E-02 1.87500E-02 0.00000E+00
 -1       868 9.68750E-02 1.87500E-02 0.00000E+00
 -1       869 9.79167E-02 1.87500E-02 0.00000E+00
 -1       870 9.89583E-02 1.87500E-02 0.00000E+00
 -1       871 8.33333E-02 1.97917E-02 0.00000E+00
 -1       872 8.33333E-02 2.08333E-02 0.00000E+00
 -1       873 8.33333E-02 2.18750E-02 0.00000E+00
 -1       874 8.33333E-02 2.29167E-02 0.00000E+00
 -1       875 8.33333E-02 2.39583E-02 0.00000E+00
 -1       876 8.43750E-02 1.91406E-02 0.00000E+00
 -1       877 8.54167E-02 1.95312E-02 0.00000E+00
 -1       878 8.64583E-02 1.99219E-02 0.00000E+00
 -1       879 8.75000E-02 2.03125E-02 0.00000E+00
 -1       880 8.85417E-02 2.07031E-02 0.00000E+00
 -1       881 8.95833E-02 2.10938E-02 0.00000E+00
 -1       882 9.06250E-02 2.14844E-02 0.00000E+00
 -1       883 9.16667E-02 2.18750E-02 0.00000E+00
 -1       884 9.27083E-02 2.22656E-02 0.00000E+00
 -1       885 9.37500E-02 2.26563E-02 0.00000E+00
 -1       886 9.47917E-02 2.30469E-02 0.00000E+00
 -1       887 9.58333E-02 2.34375E-02 0.00000E+00
 -1       888 9.68750E-02 2.38281E-02 0.00000E+00
 -1       889 9.79167E-02 2.42187E-02 0.00000E+00
 -1       890 9.89583E-02 2.46094E-02 0.00000E+00
 -1       891 1.00000E-01 1.97917E-02 0.00000E+00
 -1       892 1.00000E-01 2.08333E-02 0.00000E+00
 -1       893 1.00000E-01 2.18750E-02 0.00000E+00
 -1       894 1.00000E-01 2.29167E-02 0.00000E+00
 -1       895 1.00000E-01 2.39583E-02 0.00000E+00
 -1       896 1.04167E-03 2.50000E-02 0.00000E+00
 -1       897 2.08333E-03 2.50000E-02 0.00000E+00
 -1       898 3.12500E-03 2.50000E-02 0.00000E+00
 -1       899 4.16667E-03 2.50000E-02 0.00000E+00
 -1       900 5.20833E-03 2.50000E-02 0.00000E+00
 -1       901 6.25000E-03 2.50000E-02 0.00000E+00
 -1       902 7.29167E-03 2.50000E-02 0.00000E+00
 -1       903 8.33333E-03 2.50000E-02 0.00000E+00
 -1       904 9.37500E-03 2.50000E-02 0.00000E+00
 -1       905 1.04167E-02 2.50000E-02 0.00000E+00
 -1       906 1.14583E-02 2.50000E-02 0.00000E+00
 -1       907 1.25000E-02 2.50000E-02 0.00000E+00
 -1       908 1.35417E-02 2.50000E-02 0.00000E+00
 -1       909 1.45833E-02 2.50000E-02 0.00000E+00
 -1       910 1.56250E-02 2.50000E-02 0.00000E+00
 -1       911 1.77083E-02 2.50000E-02 0.00000E+00
 -1       912 1.87500E-02 2.50000E-02 0.00000E+00
 -1       913 1.97917E-02 2.50000E-02 0.00000E+00
 -1       914 2.08333E-02 2.50000E-02 0.00000E+00
 -1       915 2.18750E-02 2.50000E-02 0.00000E+00
 -1       916 2.29167E-02 2.50000E-02 0.00000E+00
 -1       917 2.39583E-02 2.50000E-02 0.00000E+00
 -1       918 2.50000E-02 2.50000E-02 0.00000E+00
 -1       919 2.60417E-02 2.50000E-02 0.00000E+00
 -1       920 2.70833E-02 2.50000E-02 0.00000E+00
 -1       921 2.81250E-02 2.50000E-02 0.00000E+00
 -1       922 2.91667E-02 2.50000E-02 0.00000E+00
 -1       923 3.02083E-02 2.50000E-02 0.00000E+00
 -1       924 3.12500E-02 2.50000E-02 0.00000E+00
 -1       925 3.22917E-02 2.50000E-02 0.00000E+00
 -1       926 3.43750E-02 2.50000E-02 0.00000E+00
 -1       927 3.54167E-02 2.50000E-02 0.00000E+00
 -1       928 3.64583E-02 2.50000E-02 0.00000E+00
 -1       929 3.75000E-02 2.50000E-02 0.00000E+00
 -1       930 3.85417E-02 2.50000E-02 0.00000E+00
 -1       931 3.95833E-02 2.50000E-02 0.00000E+00
 -1       932 4.06250E-02 2.50000E-02 0.00000E+00
 -1       933 4.16667E-02 2.50000E-02 0.00000E+00
 -1       934 4.27083E-02 2.50000E-02 0.00000E+00
 -1       935 4.37500E-02 2.50000E-02 0.00000E+00
 -1       936 4.47917E-02 2.50000E-02 0.00000E+00
 -1       937 4.58333E-02 2.50000E-02 0.00000E+00
 -1       938 4.68750E-02 2.50000E-02 0.00000E+00
 -1       939 4.79167E-02 2.50000E-02 0.00000E+00
 -1       940 4.89583E-02 2.50000E-02 0.00000E+00
 -1       941 5.10417E-02 2.50000E-02 0.00000E+00
 -1       942 5.20833E-02 2.50000E-02 0.00000E+00
 -1       943 5.31250E-02 2.50000E-02 0.00000E+00
 -1       944 5.41667E-02 2.50000E-02 0.00000E+00
 -1       945 5.52083E-02 2.50000E-02 0.00000E+00
 -1       946 5.62500E-02 2.50000E-02 0.00000E+00
 -1       947 5.72917E-02 2.50000E-02 0.00000E+00
 -1       948 5.83333E-02 2.50000E-02 0.00000E+00
 -1       949 5.93750E-02 2.50000E-02 0.00000E+00
 -1       950 6.04167E-02 2.50000E-02 0.00000E+00
 -1       951 6.14583E-02 2.50000E-02 0.00000E+00
 -1       952 6.25000E-02 2.50000E-02 0.00000E+00
 -1       953 6.35417E-02 2.50000E-02 0.00000E+00
 -1       954 6.45833E-02 2.50000E-02 0.00000E+00
 -1       955 6.56250E-02 2.50000E-02 0.00000E+00
 -1       956 6.77083E-02 2.50000E-02 0.00000E+00
 -1       957 6.87500E-02 2.50000E-02 0.00000E+00
 -1       958 6.97917E-02 2.50000E-02 0.00000E+00
 -1       959 7.08333E-02 2.50000E-02 0.00000E+00
 -1       960 7.18750E-02 2.50000E-02 0.00000E+00
 -1       961 7.29167E-02 2.50000E-02 0.00000E+00
 -1       962 7.39583E-02 2.50000E-02 0.00000E+00
 -1       963 7.50000E-02 2.50000E-02 0.00000E+00
 -1       964 7.60417E-02 2.50000E-02 0.00000E+00
 -1       965 7.70833E-02 2.50000E-02 0.00000E+00
 -1       966 7.81250E-02 2.50000E-02 0.00000E+00
 -1       967 7.91667E-02 2.50000E-02 0.00000E+00
 -1       968 8.02083E-02 2.50000E-02 0.00000E+00
 -1       969 8.12500E-02 2.50000E-02 0.00000E+00
 -1       970 8.22917E-02 2.50000E-02 0.00000E+00
 -1       971 8.43750E-02 2.50000E-02 0.00000E+00
 -1       972 8.54167E-02 2.50000E-02 0.00000E+00
 -1       973 8.64583E-02 2.50000E-02 0.00000E+00
 -1       974 8.75000E-02 2.50000E-02 0.00000E+00
 -1       975 8.85417E-02 2.50000E-02 0.00000E+00
 -1       976 8.95833E-02 2.50000E-02 0.00000E+00
 -1       977 9.06250E-02 2.50000E-02 0.00000E+00
 -1       978 9.16667E-02 2.50000E-02 0.00000E+00
 -1       979 9.27083E-02 2.50000E-02 0.00000E+00
 -1       980 9.37500E-02 2.50000E-02 0.00000E+00
 -1       981 9.47917E-02 2.50000E-02 0.00000E+00
 -1       982 9.58333E-02 2.50000E-02 0.00000E+00
 -1       983 9.68750E-02 2.50000E-02 0.00000E+00
 -1       984 9.79167E-02 2.50000E-02 0.00000E+00
 -1       985 9.89583E-02 2.50000E-02 0.00000E+00
 -3
    3C                           440                                     1
 -1         1   12    0    1
 -2         1        37        36
 -1         2   12    0    1
 -2        37        39        38
 -1         3   12    0    1
 -2        39        41        40
 -1         4   12    0    1
 -2        41        43        42
 -1         5   12    0    1
 -2        43        45        44
 -1         6   12    0    1
 -2        45        47        46
 -1         7   12    0    1
 -2        47        49        48
 -1         8   12    0    1
 -2        49         2        50
 -1         9   12    0    1
 -2         1        52        51
 -1        10   12    0    1
 -2        52        54        53
 -1        11   12    0    1
 -2        54         8        55
 -1        12   12    0    1
 -2         1        57        56
 -1        13   12    0    1
 -2        57        59        58
 -1        14   12    0    1
 -2        59        61        60
 -1        15   12    0    1
 -2        61        63        62
 -1        16   12    0    1
 -2        63        65        64
 -1        17   12    0    1
 -2        65        67        66
 -1        18   12    0    1
 -2        67        69        68
 -1        19   12    0    1
 -2        69         9        70
 -1        20   12    0    1
 -2         2        72        71
 -1        21   12    0    1
 -2        72        74        73
 -1        22   12    0    1
 -2        74        76        75
 -1        23   12    0    1
 -2        76        78        77
 -1        24   12    0    1
 -2        78        80        79
 -1        25   12    0    1
 -2        80        82        81
 -1        26   12    0    1
 -2        82        84        83
 -1        27   12    0    1
 -2        84         3        85
 -1        28   12    0    1
 -2         2        87        86
 -1        29   12    0    1
 -2        87        89        88
 -1        30   12    0    1
 -2        89         9        90
 -1        31   12    0    1
 -2         2        92        91
 -1        32   12    0    1
 -2        92        94        93
 -1        33   12    0    1
 -2        94        96        95
 -1        34   12    0    1
 -2        96        98        97
 -1        35   12    0    1
 -2        98       100        99
 -1        36   12    0    1
 -2       100       102       101
 -1        37   12    0    1
 -2       102       104       103
 -1        38   12    0    1
 -2       104        10       105
 -1        39   12    0    1
 -2         3       107       106
 -1        40   12    0    1
 -2       107       109       108
 -1        41   12    0    1
 -2       109       111       110
 -1        42   12    0    1
 -2       111       113       112
 -1        43   12    0    1
 -2       113       115       114
 -1        44   12    0    1
 -2       115       117       116
 -1        45   12    0    1
 -2       117       119       118
 -1        46   12    0    1
 -2       119         4       120
 -1        47   12    0    1
 -2         3       122       121
 -1        48   12    0    1
 -2       122       124       123
 -1        49   12    0    1
 -2       124        10       125
 -1        50   12    0    1
 -2         3       127       126
 -1        51   12    0    1
 -2       127       129       128
 -1        52   12    0    1
 -2       129       131       130
 -1        53   12    0    1
 -2       131       133       132
 -1        54   12    0    1
 -2       133       135       134
 -1        55   12    0    1
 -2       135       137       136
 -1        56   12    0    1
 -2       137       139       138
 -1        57   12    0    1
 -2       139        11       140
 -1        58   12    0    1
 -2         4       142       141
 -1        59   12    0    1
 -2       142       144       143
 -1        60   12    0    1
 -2       144       146       145
 -1        61   12    0    1
 -2       146       148       147
 -1        62   12    0    1
 -2       148       150       149
 -1        63   12    0    1
 -2       150       152       151
 -1        64   12    0    1
 -2       152       154       153
 -1        65   12    0    1
 -2       154         5       155
 -1        66   12    0    1
 -2         4       157       156
 -1        67   12    0    1
 -2       157       159       158
 -1        68   12    0    1
 -2       159        11       160
 -1        69   12    0    1
 -2         4       162       161
 -1        70   12    0    1
 -2       162       164       163
 -1        71   12    0    1
 -2       164       166       165
 -1        72   12    0    1
 -2       166       168       167
 -1        73   12    0    1
 -2       168       170       169
 -1        74   12    0    1
 -2       170       172       171
 -1        75   12    0    1
 -2       172       174       173
 -1        76   12    0    1
 -2       174        12       175
 -1        77   12    0    1
 -2         5       192       191
 -1        78   12    0    1
 -2       192       194       193
 -1        79   12    0    1
 -2       194        12       195
 -1        80   12    0    1
 -2         8       252       251
 -1        81   12    0    1
 -2       252       254       253
 -1        82   12    0    1
 -2       254       256       255
 -1        83   12    0    1
 -2       256       258       257
 -1        84   12    0    1
 -2       258       260       259
 -1        85   12    0    1
 -2       260       262       261
 -1        86   12    0    1
 -2       262       264       263
 -1        87   12    0    1
 -2       264         9       265
 -1        88   12    0    1
 -2         8       267       266
 -1        89   12    0    1
 -2       267       269       268
 -1        90   12    0    1
 -2       269        15       270
 -1        91   12    0    1
 -2         8       272       271
 -1        92   12    0    1
 -2       272       274       273
 -1        93   12    0    1
 -2       274       276       275
 -1        94   12    0    1
 -2       276       278       277
 -1        95   12    0    1
 -2       278       280       279
 -1        96   12    0    1
 -2       280       282       281
 -1        97   12    0    1
 -2       282       284       283
 -1        98   12    0    1
 -2       284        16       285
 -1        99   12    0    1
 -2         9       287       286
 -1       100   12    0    1
 -2       287       289       288
 -1       101   12    0    1
 -2       289       291       290
 -1       102   12    0    1
 -2       291       293       292
 -1       103   12    0    1
 -2       293       295       294
 -1       104   12    0    1
 -2       295       297       296
 -1       105   12    0    1
 -2       297       299       298
 -1       106   12    0    1
 -2       299        10       300
 -1       107   12    0    1
 -2         9       302       301
 -1       108   12    0    1
 -2       302       304       303
 -1       109   12    0    1
 -2       304        16       305
 -1       110   12    0    1
 -2         9       307       306
 -1       111   12    0    1
 -2       307       309       308
 -1       112   12    0    1
 -2       309       311       310
 -1       113   12    0    1
 -2       311       313       312
 -1       114   12    0    1
 -2       313       315       314
 -1       115   12    0    1
 -2       315       317       316
 -1       116   12    0    1
 -2       317       319       318
 -1       117   12    0    1
 -2       319        17       320
 -1       118   12    0    1
 -2        10       322       321
 -1       119   12    0    1
 -2       322       324       323
 -1       120   12    0    1
 -2       324       326       325
 -1       121   12    0    1
 -2       326       328       327
 -1       122   12    0    1
 -2       328       330       329
 -1       123   12    0    1
 -2       330       332       331
 -1       124   12    0    1
 -2       332       334       333
 -1       125   12    0    1
 -2       334        11       335
 -1       126   12    0    1
 -2        10       337       336
 -1       127   12    0    1
 -2       337       339       338
 -1       128   12    0    1
 -2       339        17       340
 -1       129   12    0    1
 -2        10       342       341
 -1       130   12    0    1
 -2       342       344       343
 -1       131   12    0    1
 -2       344       346       345
 -1       132   12    0    1
 -2       346       348       347
 -1       133   12    0    1
 -2       348       350       349
 -1       134   12    0    1
 -2       350       352       351
 -1       135   12    0    1
 -2       352       354       353
 -1       136   12    0    1
 -2       354        18       355
 -1       137   12    0    1
 -2        11       357       356
 -1       138   12    0    1
 -2       357       359       358
 -1       139   12    0    1
 -2       359       361       360
 -1       140   12    0    1
 -2       361       363       362
 -1       141   12    0    1
 -2       363       365       364
 -1       142   12    0    1
 -2       365       367       366
 -1       143   12    0    1
 -2       367       369       368
 -1       144   12    0    1
 -2       369        12       370
 -1       145   12    0    1
 -2        11       372       371
 -1       146   12    0    1
 -2       372       374       373
 -1       147   12    0    1
 -2       374        18       375
 -1       148   12    0    1
 -2        11       377       376
 -1       149   12    0    1
 -2       377       379       378
 -1       150   12    0    1
 -2       379       381       380
 -1       151   12    0    1
 -2       381       383       382
 -1       152   12    0    1
 -2       383       385       384
 -1       153   12    0    1
 -2       385       387       386
 -1       154   12    0    1
 -2       387       389       388
 -1       155   12    0    1
 -2       389        19       390
 -1       156   12    0    1
 -2        12       407       406
 -1       157   12    0    1
 -2       407       409       408
 -1       158   12    0    1
 -2       409        19       410
 -1       159   12    0    1
 -2        15       467       466
 -1       160   12    0    1
 -2       467       469       468
 -1       161   12    0    1
 -2       469       471       470
 -1       162   12    0    1
 -2       471       473       472
 -1       163   12    0    1
 -2       473       475       474
 -1       164   12    0    1
 -2       475       477       476
 -1       165   12    0    1
 -2       477       479       478
 -1       166   12    0    1
 -2       479        16       480
 -1       167   12    0    1
 -2        15       482       481
 -1       168   12    0    1
 -2       482       484       483
 -1       169   12    0    1
 -2       484        22       485
 -1       170   12    0    1
 -2        15       487       486
 -1       171   12    0    1
 -2       487       489       488
 -1       172   12    0    1
 -2       489       491       490
 -1       173   12    0    1
 -2       491       493       492
 -1       174   12    0    1
 -2       493       495       494
 -1       175   12    0    1
 -2       495       497       496
 -1       176   12    0    1
 -2       497       499       498
 -1       177   12    0    1
 -2       499        23       500
 -1       178   12    0    1
 -2        16       502       501
 -1       179   12    0    1
 -2       502       504       503
 -1       180   12    0    1
 -2       504       506       505
 -1       181   12    0    1
 -2       506       508       507
 -1       182   12    0    1
 -2       508       510       509
 -1       183   12    0    1
 -2       510       512       511
 -1       184   12    0    1
 -2       512       514       513
 -1       185   12    0    1
 -2       514        17       515
 -1       186   12    0    1
 -2        16       517       516
 -1       187   12    0    1
 -2       517       519       518
 -1       188   12    0    1
 -2       519        23       520
 -1       189   12    0    1
 -2        16       522       521
 -1       190   12    0    1
 -2       522       524       523
 -1       191   12    0    1
 -2       524       526       525
 -1       192   12    0    1
 -2       526       528       527
 -1       193   12    0    1
 -2       528       530       529
 -1       194   12    0    1
 -2       530       532       531
 -1       195   12    0    1
 -2       532       534       533
 -1       196   12    0    1
 -2       534        24       535
 -1       197   12    0    1
 -2        17       537       536
 -1       198   12    0    1
 -2       537       539       538
 -1       199   12    0    1
 -2       539       541       540
 -1       200   12    0    1
 -2       541       543       542
 -1       201   12    0    1
 -2       543       545       544
 -1       202   12    0    1
 -2       545       547       546
 -1       203   12    0    1
 -2       547       549       548
 -1       204   12    0    1
 -2       549        18       550
 -1       205   12    0    1
 -2        17       552       551
 -1       206   12    0    1
 -2       552       554       553
 -1       207   12    0    1
 -2       554        24       555
 -1       208   12    0    1
 -2        17       557       556
 -1       209   12    0    1
 -2       557       559       558
 -1       210   12    0    1
 -2       559       561       560
 -1       211   12    0    1
 -2       561       563       562
 -1       212   12    0    1
 -2       563       565       564
 -1       213   12    0    1
 -2       565       567       566
 -1       214   12    0    1
 -2       567       569       568
 -1       215   12    0    1
 -2       569        25       570
 -1       216   12    0    1
 -2        18       572       571
 -1       217   12    0    1
 -2       572       574       573
 -1       218   12    0    1
 -2       574       576       575
 -1       219   12    0    1
 -2       576       578       577
 -1       220   12    0    1
 -2       578       580       579
 -1       221   12    0    1
 -2       580       582       581
 -1       222   12    0    1
 -2       582       584       583
 -1       223   12    0    1
 -2       584        19       585
 -1       224   12    0    1
 -2        18       587       586
 -1       225   12    0    1
 -2       587       589       588
 -1       226   12    0    1
 -2       589        25       590
 -1       227   12    0    1
 -2        18       592       591
 -1       228   12    0    1
 -2       592       594       593
 -1       229   12    0    1
 -2       594       596       595
 -1       230   12    0    1
 -2       596       598       597
 -1       231   12    0    1
 -2       598       600       599
 -1       232   12    0    1
 -2       600       602       601
 -1       233   12    0    1
 -2       602       604       603
 -1       234   12    0    1
 -2       604        26       605
 -1       235   12    0    1
 -2        19       607       606
 -1       236   12    0    1
 -2       607       609       608
 -1       237   12    0    1
 -2       609       611       610
 -1       238   12    0    1
 -2       611       613       612
 -1       239   12    0    1
 -2       613       615       614
 -1       240   12    0    1
 -2       615       617       616
 -1       241   12    0    1
 -2       617       619       618
 -1       242   12    0    1
 -2       619        20       620
 -1       243   12    0    1
 -2        19       622       621
 -1       244   12    0    1
 -2       622       624       623
 -1       245   12    0    1
 -2       624        26       625
 -1       246   12    0    1
 -2        19       627       626
 -1       247   12    0    1
 -2       627       629       628
 -1       248   12    0    1
 -2       629       631       630
 -1       249   12    0    1
 -2       631       633       632
 -1       250   12    0    1
 -2       633       635       634
 -1       251   12    0    1
 -2       635       637       636
 -1       252   12    0    1
 -2       637       639       638
 -1       253   12    0    1
 -2       639        27       640
 -1       254   12    0    1
 -2        20       642       641
 -1       255   12    0    1
 -2       642       644       643
 -1       256   12    0    1
 -2       644       646       645
 -1       257   12    0    1
 -2       646       648       647
 -1       258   12    0    1
 -2       648       650       649
 -1       259   12    0    1
 -2       650       652       651
 -1       260   12    0    1
 -2       652       654       653
 -1       261   12    0    1
 -2       654        21       655
 -1       262   12    0    1
 -2        20       657       656
 -1       263   12    0    1
 -2       657       659       658
 -1       264   12    0    1
 -2       659        27       660
 -1       265   12    0    1
 -2        20       662       661
 -1       266   12    0    1
 -2       662       664       663
 -1       267   12    0    1
 -2       664       666       665
 -1       268   12    0    1
 -2       666       668       667
 -1       269   12    0    1
 -2       668       670       669
 -1       270   12    0    1
 -2       670       672       671
 -1       271   12    0    1
 -2       672       674       673
 -1       272   12    0    1
 -2       674        28       675
 -1       273   12    0    1
 -2        21       677       676
 -1       274   12    0    1
 -2       677       679       678
 -1       275   12    0    1
 -2       679        28       680
 -1       276   12    0    1
 -2        22       682       681
 -1       277   12    0    1
 -2       682       684       683
 -1       278   12    0    1
 -2       684       686       685
 -1       279   12    0    1
 -2       686       688       687
 -1       280   12    0    1
 -2       688       690       689
 -1       281   12    0    1
 -2       690       692       691
 -1       282   12    0    1
 -2       692       694       693
 -1       283   12    0    1
 -2       694        23       695
 -1       284   12    0    1
 -2        22       697       696
 -1       285   12    0    1
 -2       697       699       698
 -1       286   12    0    1
 -2       699        29       700
 -1       287   12    0    1
 -2        22       702       701
 -1       288   12    0    1
 -2       702       704       703
 -1       289   12    0    1
 -2       704       706       705
 -1       290   12    0    1
 -2       706       708       707
 -1       291   12    0    1
 -2       708       710       709
 -1       292   12    0    1
 -2       710       712       711
 -1       293   12    0    1
 -2       712       714       713
 -1       294   12    0    1
 -2       714        30       715
 -1       295   12    0    1
 -2        23       717       716
 -1       296   12    0    1
 -2       717       719       718
 -1       297   12    0    1
 -2       719       721       720
 -1       298   12    0    1
 -2       721       723       722
 -1       299   12    0    1
 -2       723       725       724
 -1       300   12    0    1
 -2       725       727       726
 -1       301   12    0    1
 -2       727       729       728
 -1       302   12    0    1
 -2       729        24       730
 -1       303   12    0    1
 -2        23       732       731
 -1       304   12    0    1
 -2       732       734       733
 -1       305   12    0    1
 -2       734        30       735
 -1       306   12    0    1
 -2        23       737       736
 -1       307   12    0    1
 -2       737       739       738
 -1       308   12    0    1
 -2       739       741       740
 -1       309   12    0    1
 -2       741       743       742
 -1       310   12    0    1
 -2       743       745       744
 -1       311   12    0    1
 -2       745       747       746
 -1       312   12    0    1
 -2       747       749       748
 -1       313   12    0    1
 -2       749        31       750
 -1       314   12    0    1
 -2        24       752       751
 -1       315   12    0    1
 -2       752       754       753
 -1       316   12    0    1
 -2       754       756       755
 -1       317   12    0    1
 -2       756       758       757
 -1       318   12    0    1
 -2       758       760       759
 -1       319   12    0    1
 -2       760       762       761
 -1       320   12    0    1
 -2       762       764       763
 -1       321   12    0    1
 -2       764        25       765
 -1       322   12    0    1
 -2        24       767       766
 -1       323   12    0    1
 -2       767       769       768
 -1       324   12    0    1
 -2       769        31       770
 -1       325   12    0    1
 -2        24       772       771
 -1       326   12    0    1
 -2       772       774       773
 -1       327   12    0    1
 -2       774       776       775
 -1       328   12    0    1
 -2       776       778       777
 -1       329   12    0    1
 -2       778       780       779
 -1       330   12    0    1
 -2       780       782       781
 -1       331   12    0    1
 -2       782       784       783
 -1       332   12    0    1
 -2       784        32       785
 -1       333   12    0    1
 -2        25       787       786
 -1       334   12    0    1
 -2       787       789       788
 -1       335   12    0    1
 -2       789       791       790
 -1       336   12    0    1
 -2       791       793       792
 -1       337   12    0    1
 -2       793       795       794
 -1       338   12    0    1
 -2       795       797       796
 -1       339   12    0    1
 -2       797       799       798
 -1       340   12    0    1
 -2       799        26       800
 -1       341   12    0    1
 -2        25       802       801
 -1       342   12    0    1
 -2       802       804       803
 -1       343   12    0    1
 -2       804        32       805
 -1       344   12    0    1
 -2        25       807       806
 -1       345   12    0    1
 -2       807       809       808
 -1       346   12    0    1
 -2       809       811       810
 -1       347   12    0    1
 -2       811       813       812
 -1       348   12    0    1
 -2       813       815       814
 -1       349   12    0    1
 -2       815       817       816
 -1       350   12    0    1
 -2       817       819       818
 -1       351   12    0    1
 -2       819        33       820
 -1       352   12    0    1
 -2        26       822       821
 -1       353   12    0    1
 -2       822       824       823
 -1       354   12    0    1
 -2       824       826       825
 -1       355   12    0    1
 -2       826       828       827
 -1       356   12    0    1
 -2       828       830       829
 -1       357   12    0    1
 -2       830       832       831
 -1       358   12    0    1
 -2       832       834       833
 -1       359   12    0    1
 -2       834        27       835
 -1       360   12    0    1
 -2        26       837       836
 -1       361   12    0    1
 -2       837       839       838
 -1       362   12    0    1
 -2       839        33       840
 -1       363   12    0    1
 -2        26       842       841
 -1       364   12    0    1
 -2       842       844       843
 -1       365   12    0    1
 -2       844       846       845
 -1       366   12    0    1
 -2       846       848       847
 -1       367   12    0    1
 -2       848       850       849
 -1       368   12    0    1
 -2       850       852       851
 -1       369   12    0    1
 -2       852       854       853
 -1       370   12    0    1
 -2       854        34       855
 -1       371   12    0    1
 -2        27       857       856
 -1       372   12    0    1
 -2       857       859       858
 -1       373   12    0    1
 -2       859       861       860
 -1       374   12    0    1
 -2       861       863       862
 -1       375   12    0    1
 -2       863       865       864
 -1       376   12    0    1
 -2       865       867       866
 -1       377   12    0    1
 -2       867       869       868
 -1       378   12    0    1
 -2       869        28       870
 -1       379   12    0    1
 -2        27       872       871
 -1       380   12    0    1
 -2       872       874       873
 -1       381   12    0    1
 -2       874        34       875
 -1       382   12    0    1
 -2        27       877       876
 -1       383   12    0    1
 -2       877       879       878
 -1       384   12    0    1
 -2       879       881       880
 -1       385   12    0    1
 -2       881       883       882
 -1       386   12    0    1
 -2       883       885       884
 -1       387   12    0    1
 -2       885       887       886
 -1       388   12    0    1
 -2       887       889       888
 -1       389   12    0    1
 -2       889        35       890
 -1       390   12    0    1
 -2        28       892       891
 -1       391   12    0    1
 -2       892       894       893
 -1       392   12    0    1
 -2       894        35       895
 -1       393   12    0    1
 -2        29       897       896
 -1       394   12    0    1
 -2       897       899       898
 -1       395   12    0    1
 -2       899       901       900
 -1       396   12    0    1
 -2       901       903       902
 -1       397   12    0    1
 -2       903       905       904
 -1       398   12    0    1
 -2       905       907       906
 -1       399   12    0    1
 -2       907       909       908
 -1       400   12    0    1
 -2       909        30       910
 -1       401   12    0    1
 -2        30       912       911
 -1       402   12    0    1
 -2       912       914       913
 -1       403   12    0    1
 -2       914       916       915
 -1       404   12    0    1
 -2       916       918       917
 -1       405   12    0    1
 -2       918       920       919
 -1       406   12    0    1
 -2       920       922       921
 -1       407   12    0    1
 -2       922       924       923
 -1       408   12    0    1
 -2       924        31       925
 -1       409   12    0    1
 -2        31       927       926
 -1       410   12    0    1
 -2       927       929       928
 -1       411   12    0    1
 -2       929       931       930
 -1       412   12    0    1
 -2       931       933       932
 -1       413   12    0    1
 -2       933       935       934
 -1       414   12    0    1
 -2       935       937       936
 -1       415   12    0    1
 -2       937       939       938
 -1       416   12    0    1
 -2       939        32       940
 -1       417   12    0    1
 -2        32       942       941
 -1       418   12    0    1
 -2       942       944       943
 -1       419   12    0    1
 -2       944       946       945
 -1       420   12    0    1
 -2       946       948       947
 -1       421   12    0    1
 -2       948       950       949
 -1       422   12    0    1
 -2       950       952       951
 -1       423   12    0    1
 -2       952       954       953
 -1       424   12    0    1
 -2       954        33       955
 -1       425   12    0    1
 -2        33       957       956
 -1       426   12    0    1
 -2       957       959       958
 -1       427   12    0    1
 -2       959       961       960
 -1       428   12    0    1
 -2       961       963       962
 -1       429   12    0    1
 -2       963       965       964
 -1       430   12    0    1
 -2       965       967       966
 -1       431   12    0    1
 -2       967       969       968
 -1       432   12    0    1
 -2       969        34       970
 -1       433   12    0    1
 -2        34       972       971
 -1       434   12    0    1
 -2       972       974       973
 -1       435   12    0    1
 -2       974       976       975
 -1       436   12    0    1
 -2       976       978       977
 -1       437   12    0    1
 -2       978       980       979
 -1       438   12    0    1
 -2       980       982       981
 -1       439   12    0    1
 -2       982       984       983
 -1       440   12    0    1
 -2       984        35       985
 -3
    1PSTEP                         1           1           1          
  100CL  101 1.000000000         841                     0    1           1
 -4  DISP        4    1
 -5  D1          1    2    1    0
 -5  D2          1    2    2    0
 -5  D3          1    2    3    0
 -5  ALL         1    2    0    0    1ALL
 -1         1 6.32122E-05 0.00000E+00 0.00000E+00
 -1         2 5.07548E-05 0.00000E+00 0.00000E+00
 -1         3 4.64283E-05 0.00000E+00 0.00000E+00
 -1         4 4.56476E-05 0.00000E+00 0.00000E+00
 -1         5 4.56536E-05 0.00000E+00 0.00000E+00
 -1         8 3.95018E-05-1.36711E-06 0.00000E+00
 -1         9 4.17440E-05 1.17372E-06 0.00000E+00
 -1        10 4.17537E-05-5.92958E-07 0.00000E+00
 -1        11 4.26493E-05-1.37727E-07 0.00000E+00
 -1        12 4.37912E-05 3.22426E-06 0.00000E+00
 -1        15 1.95046E-05-1.74876E-06 0.00000E+00
 -1        16 2.50714E-05 1.39900E-06 0.00000E+00
 -1        17 2.77980E-05-1.23952E-06 0.00000E+00
 -1        18 3.25381E-05-3.43661E-07 0.00000E+00
 -1        19 3.70336E-05 6.37060E-06 0.00000E+00
 -1        20 3.83718E-05 5.88190E-05 0.00000E+00
 -1        21 3.83284E-05 1.16087E-04 0.00000E+00
 -1        22 8.68386E-06-1.11524E-06 0.00000E+00
 -1        23 1.12249E-05 1.75658E-06 0.00000E+00
 -1        24 1.33750E-05-1.55169E-06 0.00000E+00
 -1        25 1.95776E-05-1.64666E-07 0.00000E+00
 -1        26 2.41034E-05 8.38158E-06 0.00000E+00
 -1        27 2.10800E-05 5.80104E-05 0.00000E+00
 -1        28 1.94103E-05 1.15351E-04 0.00000E+00
 -1        29 0.00000E+00 0.00000E+00 0.00000E+00
 -1        30 4.25119E-06 2.15376E-06 0.00000E+00
 -1        31 5.22922E-06-7.62784E-07 0.00000E+00
 -1        32 0.00000E+00 0.00000E+00 0.00000E+00
 -1        33 7.79724E-06 1.04567E-05 0.00000E+00
 -1        34 5.33916E-06 5.78731E-05 0.00000E+00
 -1        35 2.49863E-06 1.14936E-04 0.00000E+00
 -1        36 6.24408E-05-3.46754E-21 0.00000E+00
 -1        37 6.16611E-05 3.44107E-22 1.32349E-23
 -1        38 6.08810E-05 6.33951E-21 0.00000E+00
 -1        39 6.00999E-05 1.15210E-20 1.32349E-23
 -1        40 5.93185E-05 9.29751E-21 0.00000E+00
 -1        41 5.85369E-05 1.13291E-20-1.32349E-23
 -1        42 5.77553E-05 1.54981E-20 2.64698E-23
 -1        43 5.69737E-05 1.23945E-20-1.32349E-23
 -1        44 5.61920E-05 1.27320E-20 0.00000E+00
 -1        45 5.54105E-05 1.32217E-20 0.00000E+00
 -1        46 5.46291E-05 1.65833E-20-2.64698E-23
 -1        47 5.38482E-05 1.36716E-20 0.00000E+00
 -1        48 5.30679E-05 7.60344E-21 0.00000E+00
 -1        49 5.22900E-05-7.94093E-23 0.00000E+00
 -1        50 5.15128E-05-2.15067E-21-1.32349E-23
 -1        51 6.16182E-05-2.40216E-07 6.61744E-24
 -1        52 5.85926E-05-4.65438E-07-3.30872E-24
 -1        53 5.44971E-05-6.90321E-07 0.00000E+00
 -1        54 4.97028E-05-9.15649E-07-8.27181E-25
 -1        55 4.45811E-05-1.14155E-06 6.61744E-24
 -1        56 6.21001E-05-4.68371E-07 0.00000E+00
 -1        57 6.09800E-05-9.91074E-07-1.32349E-23
 -1        58 5.98665E-05-1.53315E-06 0.00000E+00
 -1        59 5.87474E-05-2.06934E-06 0.00000E+00
 -1        60 5.76152E-05-2.57262E-06 0.00000E+00
 -1        61 5.64603E-05-3.01702E-06 1.32349E-23
 -1        62 5.52735E-05-3.37672E-06 0.00000E+00
 -1        63 5.40454E-05-3.62645E-06 0.00000E+00
 -1        64 5.27667E-05-3.74138E-06 0.00000E+00
 -1        65 5.14285E-05-3.69737E-06 0.00000E+00
 -1        66 5.00221E-05-3.47092E-06 2.64698E-23
 -1        67 4.85395E-05-3.03936E-06 0.00000E+00
 -1        68 4.69728E-05-2.38091E-06 0.00000E+00
 -1        69 4.53182E-05-1.47371E-06-1.32349E-23
 -1        70 4.35641E-05-2.99651E-07-2.64698E-23
 -1        71 5.04804E-05 1.75859E-21 6.61744E-24
 -1        72 5.02091E-05 5.40645E-21 3.30872E-24
 -1        73 4.99379E-05 6.32959E-21 0.00000E+00
 -1        74 4.96670E-05 4.48663E-21 0.00000E+00
 -1        75 4.93963E-05 5.69597E-21-6.61744E-24
 -1        76 4.91256E-05 3.02417E-21 0.00000E+00
 -1        77 4.88549E-05 6.80935E-21-6.61744E-24
 -1        78 4.85843E-05 1.68100E-20 0.00000E+00
 -1        79 4.83137E-05 1.28660E-20-6.61744E-24
 -1        80 4.80431E-05 7.60510E-21 0.00000E+00
 -1        81 4.77726E-05 8.57952E-21 0.00000E+00
 -1        82 4.75022E-05 7.56043E-21 0.00000E+00
 -1        83 4.72319E-05 4.97963E-21 0.00000E+00
 -1        84 4.69623E-05 1.23581E-21-3.30872E-24
 -1        85 4.66928E-05-1.77017E-22 6.61744E-24
 -1        86 5.03258E-05 1.79675E-07 9.30578E-25
 -1        87 4.92926E-05 3.82278E-07 0.00000E+00
 -1        88 4.77860E-05 5.84748E-07 0.00000E+00
 -1        89 4.59379E-05 7.87350E-07 0.00000E+00
 -1        90 4.38802E-05 9.89608E-07-2.06795E-25
 -1        91 5.02674E-05-2.17523E-07 1.32349E-23
 -1        92 4.97870E-05-4.75577E-07 0.00000E+00
 -1        93 4.93155E-05-7.58195E-07 0.00000E+00
 -1        94 4.88472E-05-1.05218E-06 0.00000E+00
 -1        95 4.83779E-05-1.34381E-06 0.00000E+00
 -1        96 4.79024E-05-1.61961E-06 0.00000E+00
 -1        97 4.74160E-05-1.86611E-06 0.00000E+00
 -1        98 4.69135E-05-2.06995E-06 0.00000E+00
 -1        99 4.63900E-05-2.21782E-06 0.00000E+00
 -1       100 4.58407E-05-2.29656E-06-6.61744E-24
 -1       101 4.52606E-05-2.29311E-06 1.32349E-23
 -1       102 4.46452E-05-2.19456E-06 6.61744E-24
 -1       103 4.39896E-05-1.98820E-06 0.00000E+00
 -1       104 4.32907E-05-1.66114E-06-6.61744E-24
 -1       105 4.25424E-05-1.20160E-06 0.00000E+00
 -1       106 4.63741E-05 7.95582E-21 0.00000E+00
 -1       107 4.63246E-05 1.09506E-20 8.27181E-25
 -1       108 4.62753E-05 1.13477E-20 1.65436E-24
 -1       109 4.62266E-05 8.63163E-21 0.00000E+00
 -1       110 4.61780E-05 8.76811E-21 0.00000E+00
 -1       111 4.61296E-05 7.02566E-21 8.27181E-25
 -1       112 4.60812E-05 3.19664E-21 0.00000E+00
 -1       113 4.60328E-05 2.70488E-21 8.27181E-25
 -1       114 4.59844E-05 2.07581E-21 1.65436E-24
 -1       115 4.59361E-05 3.28349E-21-8.27181E-25
 -1       116 4.58877E-05 7.01780E-21 1.65436E-24
 -1       117 4.58394E-05 8.69491E-21 8.27181E-25
 -1       118 4.57911E-05 6.80149E-21-1.65436E-24
 -1       119 4.57430E-05 3.27894E-21 8.27181E-25
 -1       120 4.56948E-05 1.53690E-21 0.00000E+00
 -1       121 4.61712E-05-9.98426E-08-3.30872E-24
 -1       122 4.55800E-05-1.97278E-07-1.65436E-24
 -1       123 4.47483E-05-2.94885E-07 3.30872E-24
 -1       124 4.37704E-05-3.92800E-07 0.00000E+00
 -1       125 4.27408E-05-4.90846E-07-3.30872E-24
 -1       126 4.62323E-05-1.10265E-07 0.00000E+00
 -1       127 4.60503E-05-2.64701E-07 0.00000E+00
 -1       128 4.58799E-05-4.50340E-07 0.00000E+00
 -1       129 4.57162E-05-6.55017E-07-3.30872E-24
 -1       130 4.55551E-05-8.66391E-07 6.61744E-24
 -1       131 4.53918E-05-1.07219E-06 3.30872E-24
 -1       132 4.52218E-05-1.26014E-06 0.00000E+00
 -1       133 4.50405E-05-1.41801E-06 3.30872E-24
 -1       134 4.48433E-05-1.53357E-06-6.61744E-24
 -1       135 4.46258E-05-1.59463E-06 0.00000E+00
 -1       136 4.43833E-05-1.58906E-06-6.61744E-24
 -1       137 4.41114E-05-1.50473E-06 0.00000E+00
 -1       138 4.38057E-05-1.32962E-06 0.00000E+00
 -1       139 4.34622E-05-1.05156E-06 3.30872E-24
 -1       140 4.30760E-05-6.58939E-07 0.00000E+00
 -1       141 4.56449E-05 1.35478E-21 0.00000E+00
 -1       142 4.56433E-05-1.96352E-22-1.03398E-25
 -1       143 4.56418E-05-4.96671E-21-1.03398E-25
 -1       144 4.56404E-05-6.91478E-21 5.16988E-26
 -1       145 4.56391E-05-7.24529E-21 5.16988E-26
 -1       146 4.56378E-05-1.08705E-20 0.00000E+00
 -1       147 4.56365E-05-1.28300E-20-2.58494E-26
 -1       148 4.56353E-05-1.39042E-20 0.00000E+00
 -1       149 4.56341E-05-1.19948E-20 0.00000E+00
 -1       150 4.56329E-05-6.27641E-21-5.16988E-26
 -1       151 4.56320E-05-3.73547E-21 0.00000E+00
 -1       152 4.56313E-05-2.23005E-21 0.00000E+00
 -1       153 4.56312E-05 5.60001E-22 1.65436E-24
 -1       154 4.56330E-05 3.87224E-23 1.65436E-24
 -1       155 4.56355E-05 2.47100E-21 0.00000E+00
 -1       156 4.55030E-05-2.26716E-08-2.06795E-25
 -1       157 4.51560E-05-4.51957E-08 0.00000E+00
 -1       158 4.46517E-05-6.78115E-08 8.27181E-25
 -1       159 4.40355E-05-9.06198E-08 4.13590E-25
 -1       160 4.33529E-05-1.13513E-07 0.00000E+00
 -1       161 4.56105E-05-1.31395E-08 8.27181E-25
 -1       162 4.55697E-05-1.76486E-08 0.00000E+00
 -1       163 4.55240E-05-9.11774E-09 0.00000E+00
 -1       164 4.54718E-05 1.66793E-08 4.13590E-25
 -1       165 4.54114E-05 6.39988E-08-8.27181E-25
 -1       166 4.53415E-05 1.37080E-07 4.13590E-25
 -1       167 4.52602E-05 2.40158E-07-8.27181E-25
 -1       168 4.51662E-05 3.77463E-07-4.13590E-25
 -1       169 4.50577E-05 5.53227E-07 0.00000E+00
 -1       170 4.49333E-05 7.71680E-07 0.00000E+00
 -1       171 4.47914E-05 1.03705E-06-8.27181E-25
 -1       172 4.46308E-05 1.35363E-06 0.00000E+00
 -1       173 4.44498E-05 1.72565E-06 0.00000E+00
 -1       174 4.42486E-05 2.15791E-06 8.27181E-25
 -1       175 4.40239E-05 2.65399E-06-6.61744E-24
 -1       191 4.56002E-05 5.31857E-07 0.00000E+00
 -1       192 4.54434E-05 1.07153E-06-6.61744E-24
 -1       193 4.51834E-05 1.61223E-06 0.00000E+00
 -1       194 4.48209E-05 2.15290E-06 0.00000E+00
 -1       195 4.43565E-05 2.69249E-06-1.32349E-23
 -1       251 3.96207E-05 2.14018E-06 6.61744E-24
 -1       252 3.97585E-05 4.57278E-06 0.00000E+00
 -1       253 3.98988E-05 6.06457E-06-1.44757E-24
 -1       254 4.00421E-05 6.75120E-06 1.65436E-24
 -1       255 4.01862E-05 6.76778E-06 1.65436E-24
 -1       256 4.03305E-05 6.24909E-06 1.65436E-24
 -1       257 4.04748E-05 5.32969E-06 0.00000E+00
 -1       258 4.06189E-05 4.14393E-06 1.65436E-24
 -1       259 4.07629E-05 2.82597E-06 3.30872E-24
 -1       260 4.09068E-05 1.50998E-06 3.30872E-24
 -1       261 4.10507E-05 3.30091E-07 6.61744E-24
 -1       262 4.11945E-05-5.79505E-07 0.00000E+00
 -1       263 4.13380E-05-1.08446E-06 0.00000E+00
 -1       264 4.14796E-05-1.05029E-06 0.00000E+00
 -1       265 4.16202E-05-3.42046E-07 0.00000E+00
 -1       266 3.53175E-05-1.44078E-06 0.00000E+00
 -1       267 3.13260E-05-1.50664E-06 1.65436E-24
 -1       268 2.76383E-05-1.57103E-06 0.00000E+00
 -1       269 2.43652E-05-1.63288E-06 0.00000E+00
 -1       270 2.16175E-05-1.69292E-06 0.00000E+00
 -1       271 3.74399E-05 1.94901E-06 0.00000E+00
 -1       272 3.57255E-05 4.27866E-06 0.00000E+00
 -1       273 3.43373E-05 5.74250E-06 0.00000E+00
 -1       274 3.32280E-05 6.45741E-06-1.32349E-23
 -1       275 3.23545E-05 6.54351E-06 0.00000E+00
 -1       276 3.16706E-05 6.12252E-06 0.00000E+00
 -1       277 3.11306E-05 5.31748E-06 0.00000E+00
 -1       278 3.06876E-05 4.25279E-06 0.00000E+00
 -1       279 3.02951E-05 3.05346E-06 0.00000E+00
 -1       280 2.99061E-05 1.84503E-06 1.32349E-23
 -1       281 2.94737E-05 7.53047E-07 0.00000E+00
 -1       282 2.89515E-05-9.72976E-08-1.32349E-23
 -1       283 2.82928E-05-5.81452E-07-1.32349E-23
 -1       284 2.74541E-05-5.75358E-07 0.00000E+00
 -1       285 2.63863E-05 4.20916E-08 0.00000E+00
 -1       286 4.17334E-05 2.86709E-06 0.00000E+00
 -1       287 4.17334E-05 3.98642E-06 0.00000E+00
 -1       288 4.17342E-05 4.60218E-06 0.00000E+00
 -1       289 4.17364E-05 4.78617E-06 0.00000E+00
 -1       290 4.17389E-05 4.61005E-06 0.00000E+00
 -1       291 4.17416E-05 4.14550E-06 0.00000E+00
 -1       292 4.17443E-05 3.46423E-06 0.00000E+00
 -1       293 4.17469E-05 2.63790E-06 0.00000E+00
 -1       294 4.17495E-05 1.73821E-06-2.58494E-26
 -1       295 4.17521E-05 8.36859E-07 0.00000E+00
 -1       296 4.17546E-05 5.50601E-09 0.00000E+00
 -1       297 4.17570E-05-6.84152E-07 0.00000E+00
 -1       298 4.17593E-05-1.16042E-06 0.00000E+00
 -1       299 4.17606E-05-1.35166E-06-7.23783E-25
 -1       300 4.17615E-05-1.18609E-06 3.30872E-24
 -1       301 3.92163E-05 1.20204E-06 2.89513E-24
 -1       302 3.64016E-05 1.24139E-06 0.00000E+00
 -1       303 3.34390E-05 1.28212E-06 0.00000E+00
 -1       304 3.04693E-05 1.32337E-06 0.00000E+00
 -1       305 2.76338E-05 1.36422E-06 0.00000E+00
 -1       306 4.03115E-05 2.59279E-06 0.00000E+00
 -1       307 3.90588E-05 3.45533E-06 0.00000E+00
 -1       308 3.79855E-05 3.83905E-06 0.00000E+00
 -1       309 3.70620E-05 3.81439E-06 0.00000E+00
 -1       310 3.62635E-05 3.45459E-06-2.64698E-23
 -1       311 3.55623E-05 2.83338E-06 0.00000E+00
 -1       312 3.49310E-05 2.02530E-06 0.00000E+00
 -1       313 3.43415E-05 1.10549E-06-1.32349E-23
 -1       314 3.37654E-05 1.49454E-07 2.64698E-23
 -1       315 3.31748E-05-7.67170E-07 1.32349E-23
 -1       316 3.25413E-05-1.56890E-06 0.00000E+00
 -1       317 3.18373E-05-2.18056E-06 1.32349E-23
 -1       318 3.10349E-05-2.52760E-06 0.00000E+00
 -1       319 3.01091E-05-2.53562E-06 0.00000E+00
 -1       320 2.90299E-05-2.13296E-06 1.32349E-23
 -1       321 4.17978E-05 1.24912E-07 0.00000E+00
 -1       322 4.18529E-05 5.92794E-07 0.00000E+00
 -1       323 4.19085E-05 8.44215E-07-3.10193E-25
 -1       324 4.19655E-05 9.13233E-07 4.13590E-25
 -1       325 4.20229E-05 8.33801E-07-1.65436E-24
 -1       326 4.20805E-05 6.39864E-07-8.27181E-25
 -1       327 4.21382E-05 3.65341E-07-1.65436E-24
 -1       328 4.21959E-05 4.41388E-08 0.00000E+00
 -1       329 4.22536E-05-2.89844E-07 0.00000E+00
 -1       330 4.23113E-05-6.02720E-07 0.00000E+00
 -1       331 4.23690E-05-8.60589E-07 0.00000E+00
 -1       332 4.24266E-05-1.02954E-06 0.00000E+00
 -1       333 4.24841E-05-1.07565E-06 0.00000E+00
 -1       334 4.25410E-05-9.64986E-07 0.00000E+00
 -1       335 4.25976E-05-6.63527E-07 0.00000E+00
 -1       336 4.02097E-05-7.02151E-07 3.30872E-24
 -1       337 3.79329E-05-8.08667E-07 0.00000E+00
 -1       338 3.52373E-05-9.15983E-07 3.30872E-24
 -1       339 3.24390E-05-1.02346E-06 0.00000E+00
 -1       340 2.98544E-05-1.13045E-06 0.00000E+00
 -1       341 4.09944E-05-5.07312E-08-1.32349E-23
 -1       342 4.03113E-05 2.47519E-07 0.00000E+00
 -1       343 3.97045E-05 3.41798E-07 0.00000E+00
 -1       344 3.91589E-05 2.67726E-07 6.61744E-24
 -1       345 3.86623E-05 6.20996E-08-1.32349E-23
 -1       346 3.82009E-05-2.38397E-07 0.00000E+00
 -1       347 3.77612E-05-5.96894E-07 0.00000E+00
 -1       348 3.73293E-05-9.76416E-07-6.61744E-24
 -1       349 3.68915E-05-1.33995E-06 0.00000E+00
 -1       350 3.64338E-05-1.65053E-06-6.61744E-24
 -1       351 3.59427E-05-1.87127E-06 1.32349E-23
 -1       352 3.54046E-05-1.96543E-06 6.61744E-24
 -1       353 3.48059E-05-1.89653E-06-1.32349E-23
 -1       354 3.41351E-05-1.62782E-06 0.00000E+00
 -1       355 3.33767E-05-1.12429E-06-6.61744E-24
 -1       356 4.27131E-05 4.43258E-07 2.06795E-25
 -1       357 4.27823E-05 8.83045E-07-8.27181E-25
 -1       358 4.28518E-05 1.20112E-06-1.65436E-24
 -1       359 4.29219E-05 1.41724E-06-8.27181E-25
 -1       360 4.29923E-05 1.55111E-06 1.65436E-24
 -1       361 4.30628E-05 1.62244E-06-8.27181E-25
 -1       362 4.31333E-05 1.65091E-06 0.00000E+00
 -1       363 4.32039E-05 1.65618E-06 0.00000E+00
 -1       364 4.32745E-05 1.65793E-06 0.00000E+00
 -1       365 4.33452E-05 1.67582E-06 1.65436E-24
 -1       366 4.34160E-05 1.72952E-06 0.00000E+00
 -1       367 4.34871E-05 1.83872E-06 1.65436E-24
 -1       368 4.35586E-05 2.02309E-06 0.00000E+00
 -1       369 4.36317E-05 2.30235E-06-3.30872E-24
 -1       370 4.37052E-05 2.69625E-06-6.61744E-24
 -1       371 4.15157E-05-1.72345E-07 8.27181E-25
 -1       372 3.98722E-05-2.06664E-07-3.10193E-25
 -1       373 3.79351E-05-2.41363E-07 8.27181E-25
 -1       374 3.59222E-05-2.76015E-07 0.00000E+00
 -1       375 3.40510E-05-3.10382E-07 0.00000E+00
 -1       376 4.22738E-05 3.46683E-07 0.00000E+00
 -1       377 4.19609E-05 6.48100E-07 0.00000E+00
 -1       378 4.17022E-05 8.04629E-07 0.00000E+00
 -1       379 4.14834E-05 8.52771E-07 0.00000E+00
 -1       380 4.12913E-05 8.29423E-07 0.00000E+00
 -1       381 4.11121E-05 7.71379E-07 0.00000E+00
 -1       382 4.09321E-05 7.15474E-07 0.00000E+00
 -1       383 4.07374E-05 6.98518E-07 3.30872E-24
 -1       384 4.05143E-05 7.57303E-07 0.00000E+00
 -1       385 4.02492E-05 9.28562E-07-1.65436E-24
 -1       386 3.99282E-05 1.24895E-06-6.61744E-24
 -1       387 3.95378E-05 1.75509E-06 0.00000E+00
 -1       388 3.90645E-05 2.48340E-06 0.00000E+00
 -1       389 3.84963E-05 3.47071E-06 8.27181E-25
 -1       390 3.78179E-05 4.75251E-06 1.65436E-24
 -1       406 4.31509E-05 3.74564E-06 1.32349E-23
 -1       407 4.23477E-05 4.27407E-06 6.61744E-24
 -1       408 4.13575E-05 4.80310E-06 0.00000E+00
 -1       409 4.01571E-05 5.33132E-06-6.61744E-24
 -1       410 3.87232E-05 5.85739E-06-1.32349E-23
 -1       466 1.98371E-05-3.90883E-07 3.30872E-24
 -1       467 2.01853E-05 4.52025E-07 0.00000E+00
 -1       468 2.05345E-05 8.57309E-07 0.00000E+00
 -1       469 2.08856E-05 9.02840E-07 3.30872E-24
 -1       470 2.12372E-05 6.66009E-07 0.00000E+00
 -1       471 2.15891E-05 2.23833E-07 6.61744E-24
 -1       472 2.19410E-05-3.46871E-07 1.32349E-23
 -1       473 2.22930E-05-9.69473E-07 0.00000E+00
 -1       474 2.26450E-05-1.56741E-06-1.32349E-23
 -1       475 2.29970E-05-2.06406E-06 0.00000E+00
 -1       476 2.33488E-05-2.38272E-06 0.00000E+00
 -1       477 2.37002E-05-2.44642E-06 1.98523E-23
 -1       478 2.40509E-05-2.17792E-06 0.00000E+00
 -1       479 2.43989E-05-1.49957E-06 0.00000E+00
 -1       480 2.47456E-05-3.33148E-07 0.00000E+00
 -1       481 1.76675E-05-1.64703E-06-1.65436E-24
 -1       482 1.57183E-05-1.54095E-06 1.65436E-24
 -1       483 1.37509E-05-1.43477E-06-3.30872E-24
 -1       484 1.18599E-05-1.32809E-06 1.65436E-24
 -1       485 1.01396E-05-1.22106E-06 3.30872E-24
 -1       486 1.85824E-05-4.01550E-07 0.00000E+00
 -1       487 1.77721E-05 5.97468E-07-6.61744E-24
 -1       488 1.70750E-05 1.29404E-06-1.32349E-23
 -1       489 1.64742E-05 1.72842E-06 0.00000E+00
 -1       490 1.59556E-05 1.94234E-06 1.32349E-23
 -1       491 1.55038E-05 1.97738E-06 0.00000E+00
 -1       492 1.51032E-05 1.87543E-06 1.32349E-23
 -1       493 1.47382E-05 1.67854E-06 0.00000E+00
 -1       494 1.43930E-05 1.42890E-06-1.32349E-23
 -1       495 1.40517E-05 1.16879E-06 0.00000E+00
 -1       496 1.36986E-05 9.40519E-07-1.32349E-23
 -1       497 1.33181E-05 7.86359E-07-6.61744E-24
 -1       498 1.28943E-05 7.48473E-07 0.00000E+00
 -1       499 1.24130E-05 8.69253E-07 0.00000E+00
 -1       500 1.18570E-05 1.18995E-06 6.61744E-24
 -1       501 2.52286E-05 3.07280E-06 0.00000E+00
 -1       502 2.53989E-05 4.08567E-06 1.65436E-24
 -1       503 2.55703E-05 4.52629E-06 0.00000E+00
 -1       504 2.57433E-05 4.48444E-06 1.65436E-24
 -1       505 2.59166E-05 4.04950E-06 6.61744E-24
 -1       506 2.60901E-05 3.31064E-06-1.65436E-24
 -1       507 2.62635E-05 2.35685E-06-6.61744E-24
 -1       508 2.64369E-05 1.27698E-06 3.30872E-24
 -1       509 2.66102E-05 1.59809E-07-6.61744E-24
 -1       510 2.67835E-05-9.05889E-07-3.30872E-24
 -1       511 2.69568E-05-1.83135E-06 0.00000E+00
 -1       512 2.71299E-05-2.52768E-06 3.30872E-24
 -1       513 2.73026E-05-2.90588E-06 0.00000E+00
 -1       514 2.74735E-05-2.87677E-06 0.00000E+00
 -1       515 2.76436E-05-2.35083E-06 0.00000E+00
 -1       516 2.26336E-05 1.45277E-06 7.23783E-25
 -1       517 1.99420E-05 1.51349E-06 2.06795E-25
 -1       518 1.72256E-05 1.57429E-06-1.03398E-25
 -1       519 1.47142E-05 1.63585E-06 0.00000E+00
 -1       520 1.26379E-05 1.69830E-06 0.00000E+00
 -1       521 2.37434E-05 2.88210E-06 1.32349E-23
 -1       522 2.26075E-05 3.77675E-06 1.32349E-23
 -1       523 2.16612E-05 4.16491E-06 5.29396E-23
 -1       524 2.08736E-05 4.12123E-06-1.32349E-23
 -1       525 2.02182E-05 3.72305E-06 0.00000E+00
 -1       526 1.96659E-05 3.04811E-06 0.00000E+00
 -1       527 1.91877E-05 2.17489E-06 0.00000E+00
 -1       528 1.87540E-05 1.18240E-06 1.32349E-23
 -1       529 1.83352E-05 1.50004E-07-2.64698E-23
 -1       530 1.79018E-05-8.42830E-07 0.00000E+00
 -1       531 1.74239E-05-1.71675E-06 0.00000E+00
 -1       532 1.68725E-05-2.39269E-06 1.32349E-23
 -1       533 1.62180E-05-2.79213E-06 1.32349E-23
 -1       534 1.54336E-05-2.83683E-06 6.61744E-24
 -1       535 1.44880E-05-2.45077E-06 1.32349E-23
 -1       536 2.80720E-05-1.63259E-08-1.65436E-24
 -1       537 2.83671E-05 7.84585E-07 1.65436E-24
 -1       538 2.86632E-05 1.22044E-06 0.00000E+00
 -1       539 2.89620E-05 1.34898E-06 0.00000E+00
 -1       540 2.92615E-05 1.22754E-06 0.00000E+00
 -1       541 2.95614E-05 9.13234E-07 0.00000E+00
 -1       542 2.98615E-05 4.62957E-07 0.00000E+00
 -1       543 3.01616E-05-6.65359E-08 0.00000E+00
 -1       544 3.04617E-05-6.18557E-07 0.00000E+00
 -1       545 3.07618E-05-1.13646E-06 0.00000E+00
 -1       546 3.10618E-05-1.56357E-06 0.00000E+00
 -1       547 3.13616E-05-1.84307E-06 3.30872E-24
 -1       548 3.16609E-05-1.91806E-06-6.61744E-24
 -1       549 3.19585E-05-1.73139E-06-3.30872E-24
 -1       550 3.22554E-05-1.22559E-06 6.61744E-24
 -1       551 2.56909E-05-1.29480E-06 2.89513E-24
 -1       552 2.32222E-05-1.34505E-06-6.72084E-25
 -1       553 2.05728E-05-1.39492E-06 3.30872E-24
 -1       554 1.79265E-05-1.44488E-06 3.30872E-24
 -1       555 1.54669E-05-1.49536E-06 6.61744E-24
 -1       556 2.69334E-05-2.03017E-07-1.32349E-23
 -1       557 2.61977E-05 4.56458E-07 0.00000E+00
 -1       558 2.55817E-05 7.92571E-07-1.32349E-23
 -1       559 2.50660E-05 8.58013E-07 0.00000E+00
 -1       560 2.46316E-05 7.05686E-07 0.00000E+00
 -1       561 2.42589E-05 3.88577E-07 6.61744E-24
 -1       562 2.39279E-05-4.02773E-08 0.00000E+00
 -1       563 2.36189E-05-5.27764E-07-6.61744E-24
 -1       564 2.33120E-05-1.02075E-06-1.32349E-23
 -1       565 2.29872E-05-1.46610E-06 0.00000E+00
 -1       566 2.26248E-05-1.81068E-06 0.00000E+00
 -1       567 2.22050E-05-2.00144E-06 3.30872E-24
 -1       568 2.17080E-05-1.98534E-06 6.61744E-24
 -1       569 2.11152E-05-1.70935E-06 0.00000E+00
 -1       570 2.04072E-05-1.12073E-06 6.61744E-24
 -1       571 3.28027E-05 5.34044E-07 1.65436E-24
 -1       572 3.30809E-05 1.13624E-06 0.00000E+00
 -1       573 3.33615E-05 1.50762E-06-6.61744E-24
 -1       574 3.36436E-05 1.69441E-06 0.00000E+00
 -1       575 3.39262E-05 1.74279E-06 6.61744E-24
 -1       576 3.42091E-05 1.69904E-06-3.30872E-24
 -1       577 3.44921E-05 1.60941E-06 0.00000E+00
 -1       578 3.47752E-05 1.52015E-06-3.30872E-24
 -1       579 3.50583E-05 1.47749E-06 1.32349E-23
 -1       580 3.53414E-05 1.52769E-06 6.61744E-24
 -1       581 3.56245E-05 1.71703E-06 1.32349E-23
 -1       582 3.59075E-05 2.09185E-06 6.61744E-24
 -1       583 3.61902E-05 2.69851E-06 1.32349E-23
 -1       584 3.64726E-05 3.58329E-06 6.61744E-24
 -1       585 3.67542E-05 4.79254E-06 0.00000E+00
 -1       586 3.07890E-05-3.13698E-07 0.00000E+00
 -1       587 2.86399E-05-2.82009E-07 0.00000E+00
 -1       588 2.62663E-05-2.50517E-07-8.27181E-25
 -1       589 2.38462E-05-2.19528E-07 0.00000E+00
 -1       590 2.15580E-05-1.89262E-07 0.00000E+00
 -1       591 3.19138E-05 4.97277E-07 6.61744E-24
 -1       592 3.13566E-05 1.12388E-06 0.00000E+00
 -1       593 3.08632E-05 1.57542E-06 0.00000E+00
 -1       594 3.04204E-05 1.88891E-06 0.00000E+00
 -1       595 3.00149E-05 2.10153E-06 0.00000E+00
 -1       596 2.96333E-05 2.25035E-06 0.00000E+00
 -1       597 2.92615E-05 2.37244E-06 0.00000E+00
 -1       598 2.88859E-05 2.50486E-06 0.00000E+00
 -1       599 2.84924E-05 2.68468E-06 6.61744E-24
 -1       600 2.80673E-05 2.94892E-06-3.30872E-24
 -1       601 2.75968E-05 3.33459E-06 0.00000E+00
 -1       602 2.70670E-05 3.87869E-06 0.00000E+00
 -1       603 2.64643E-05 4.61816E-06 0.00000E+00
 -1       604 2.57760E-05 5.59008E-06 8.27181E-25
 -1       605 2.49889E-05 6.83131E-06-5.16988E-26
 -1       606 3.71291E-05 8.43136E-06 0.00000E+00
 -1       607 3.72172E-05 1.07601E-05 0.00000E+00
 -1       608 3.73036E-05 1.33355E-05 0.00000E+00
 -1       609 3.73887E-05 1.61346E-05 0.00000E+00
 -1       610 3.74730E-05 1.91345E-05 0.00000E+00
 -1       611 3.75566E-05 2.23122E-05 0.00000E+00
 -1       612 3.76397E-05 2.56447E-05 0.00000E+00
 -1       613 3.77223E-05 2.91092E-05 0.00000E+00
 -1       614 3.78046E-05 3.26825E-05 0.00000E+00
 -1       615 3.78865E-05 3.63417E-05 0.00000E+00
 -1       616 3.79682E-05 4.00640E-05 0.00000E+00
 -1       617 3.80497E-05 4.38264E-05-1.65436E-24
 -1       618 3.81311E-05 4.76060E-05 3.30872E-24
 -1       619 3.82122E-05 5.13798E-05 0.00000E+00
 -1       620 3.82931E-05 5.51250E-05 0.00000E+00
 -1       621 3.49731E-05 6.70545E-06 0.00000E+00
 -1       622 3.28016E-05 7.04411E-06 0.00000E+00
 -1       623 3.05735E-05 7.38294E-06 0.00000E+00
 -1       624 2.83444E-05 7.72091E-06 0.00000E+00
 -1       625 2.61695E-05 8.05711E-06 0.00000E+00
 -1       626 3.64459E-05 8.52585E-06 0.00000E+00
 -1       627 3.57474E-05 1.09677E-05 0.00000E+00
 -1       628 3.49512E-05 1.36673E-05 1.32349E-23
 -1       629 3.40692E-05 1.65932E-05-3.30872E-24
 -1       630 3.31133E-05 1.97144E-05 0.00000E+00
 -1       631 3.20953E-05 2.29996E-05-3.30872E-24
 -1       632 3.10270E-05 2.64176E-05 6.61744E-24
 -1       633 2.99202E-05 2.99372E-05 3.30872E-24
 -1       634 2.87867E-05 3.35272E-05 0.00000E+00
 -1       635 2.76383E-05 3.71565E-05 0.00000E+00
 -1       636 2.64867E-05 4.07940E-05 6.61744E-24
 -1       637 2.53437E-05 4.44085E-05 1.65436E-24
 -1       638 2.42209E-05 4.79688E-05 0.00000E+00
 -1       639 2.31296E-05 5.14437E-05 0.00000E+00
 -1       640 2.20811E-05 5.48018E-05-1.65436E-24
 -1       641 3.83708E-05 6.24486E-05 0.00000E+00
 -1       642 3.83683E-05 6.60984E-05-2.06795E-25
 -1       643 3.83657E-05 6.97628E-05 0.00000E+00
 -1       644 3.83629E-05 7.34360E-05 0.00000E+00
 -1       645 3.83601E-05 7.71121E-05-1.03398E-25
 -1       646 3.83572E-05 8.07854E-05 5.16988E-26
 -1       647 3.83544E-05 8.44502E-05 1.03398E-25
 -1       648 3.83516E-05 8.81004E-05 1.29247E-26
 -1       649 3.83488E-05 9.17305E-05 0.00000E+00
 -1       650 3.83461E-05 9.53345E-05 0.00000E+00
 -1       651 3.83436E-05 9.89067E-05 0.00000E+00
 -1       652 3.83410E-05 1.02441E-04 0.00000E+00
 -1       653 3.83386E-05 1.05932E-04 0.00000E+00
 -1       654 3.83359E-05 1.09374E-04-2.06795E-25
 -1       655 3.83334E-05 1.12761E-04 0.00000E+00
 -1       656 3.50391E-05 5.86880E-05 0.00000E+00
 -1       657 3.20429E-05 5.85508E-05 0.00000E+00
 -1       658 2.92666E-05 5.84142E-05-3.30872E-24
 -1       659 2.65924E-05 5.82777E-05 1.65436E-24
 -1       660 2.39026E-05 5.81411E-05 0.00000E+00
 -1       661 3.71313E-05 6.24874E-05-3.30872E-24
 -1       662 3.58914E-05 6.61664E-05 0.00000E+00
 -1       663 3.46504E-05 6.98488E-05-3.30872E-24
 -1       664 3.34108E-05 7.35288E-05-1.65436E-24
 -1       665 3.21745E-05 7.72006E-05 0.00000E+00
 -1       666 3.09436E-05 8.08581E-05 0.00000E+00
 -1       667 2.97204E-05 8.44956E-05 3.30872E-24
 -1       668 2.85070E-05 8.81071E-05 0.00000E+00
 -1       669 2.73057E-05 9.16868E-05 0.00000E+00
 -1       670 2.61187E-05 9.52288E-05-1.65436E-24
 -1       671 2.49481E-05 9.87272E-05 0.00000E+00
 -1       672 2.37961E-05 1.02176E-04 0.00000E+00
 -1       673 2.26650E-05 1.05569E-04 0.00000E+00
 -1       674 2.15563E-05 1.08900E-04 0.00000E+00
 -1       675 2.04730E-05 1.12164E-04-1.65436E-24
 -1       676 3.50771E-05 1.15966E-04 3.30872E-24
 -1       677 3.18806E-05 1.15842E-04 0.00000E+00
 -1       678 2.87275E-05 1.15718E-04 0.00000E+00
 -1       679 2.56058E-05 1.15595E-04 1.65436E-24
 -1       680 2.25040E-05 1.15471E-04 0.00000E+00
 -1       681 8.83883E-06-7.04412E-08 0.00000E+00
 -1       682 8.99803E-06 6.74500E-07 0.00000E+00
 -1       683 9.15756E-06 1.15892E-06 0.00000E+00
 -1       684 9.31767E-06 1.42265E-06-1.65436E-24
 -1       685 9.47794E-06 1.50534E-06-3.30872E-24
 -1       686 9.63831E-06 1.44658E-06 0.00000E+00
 -1       687 9.79870E-06 1.28586E-06 6.61744E-24
 -1       688 9.95909E-06 1.06262E-06 0.00000E+00
 -1       689 1.01195E-05 8.16252E-07 0.00000E+00
 -1       690 1.02798E-05 5.86160E-07-3.30872E-24
 -1       691 1.04400E-05 4.11740E-07 0.00000E+00
 -1       692 1.06001E-05 3.32422E-07 0.00000E+00
 -1       693 1.07598E-05 3.87688E-07 0.00000E+00
 -1       694 1.09184E-05 6.17081E-07 1.65436E-24
 -1       695 1.10765E-05 1.06030E-06-3.30872E-24
 -1       696 7.30686E-06-9.34596E-07-3.30872E-24
 -1       697 5.79544E-06-7.48928E-07 3.30872E-24
 -1       698 4.22914E-06-5.63062E-07 0.00000E+00
 -1       699 2.68790E-06-3.76307E-07 3.30872E-24
 -1       700 1.25170E-06-1.89169E-07 0.00000E+00
 -1       701 8.10629E-06-7.84096E-08 0.00000E+00
 -1       702 7.60276E-06 7.28960E-07 1.65436E-24
 -1       703 7.17469E-06 1.33472E-06 0.00000E+00
 -1       704 6.81179E-06 1.76306E-06 3.30872E-24
 -1       705 6.50581E-06 2.03899E-06-6.61744E-24
 -1       706 6.24747E-06 2.18731E-06 3.30872E-24
 -1       707 6.02758E-06 2.23292E-06-6.61744E-24
 -1       708 5.83682E-06 2.20078E-06 0.00000E+00
 -1       709 5.66584E-06 2.11589E-06 0.00000E+00
 -1       710 5.50528E-06 2.00330E-06 0.00000E+00
 -1       711 5.34580E-06 1.88807E-06 0.00000E+00
 -1       712 5.17812E-06 1.79531E-06 0.00000E+00
 -1       713 4.99290E-06 1.75007E-06 0.00000E+00
 -1       714 4.78176E-06 1.77770E-06 1.65436E-24
 -1       715 4.53432E-06 1.90284E-06 0.00000E+00
 -1       716 1.13515E-05 2.35766E-06 6.20385E-25
 -1       717 1.14866E-05 2.55955E-06 8.27181E-25
 -1       718 1.16221E-05 2.42430E-06 3.30872E-24
 -1       719 1.17586E-05 2.01473E-06 0.00000E+00
 -1       720 1.18953E-05 1.39340E-06 0.00000E+00
 -1       721 1.20321E-05 6.22843E-07 0.00000E+00
 -1       722 1.21688E-05-2.34503E-07 0.00000E+00
 -1       723 1.23056E-05-1.11625E-06 0.00000E+00
 -1       724 1.24424E-05-1.96001E-06-3.30872E-24
 -1       725 1.25792E-05-2.70337E-06 0.00000E+00
 -1       726 1.27160E-05-3.28389E-06 6.61744E-24
 -1       727 1.28525E-05-3.63902E-06 0.00000E+00
 -1       728 1.29886E-05-3.70613E-06-3.30872E-24
 -1       729 1.31229E-05-3.42248E-06-3.30872E-24
 -1       730 1.32564E-05-2.72505E-06 0.00000E+00
 -1       731 1.01142E-05 1.81790E-06 0.00000E+00
 -1       732 8.78661E-06 1.88444E-06 0.00000E+00
 -1       733 7.38906E-06 1.95111E-06 1.65436E-24
 -1       734 6.06909E-06 2.01848E-06-4.13590E-25
 -1       735 4.97427E-06 2.08622E-06-4.13590E-25
 -1       736 1.05878E-05 2.34202E-06 0.00000E+00
 -1       737 1.00224E-05 2.69342E-06 0.00000E+00
 -1       738 9.53246E-06 2.84280E-06 0.00000E+00
 -1       739 9.10613E-06 2.81739E-06-6.61744E-24
 -1       740 8.73430E-06 2.64559E-06 0.00000E+00
 -1       741 8.40645E-06 2.35561E-06 6.61744E-24
 -1       742 8.11215E-06 1.97585E-06-1.32349E-23
 -1       743 7.84075E-06 1.53482E-06 0.00000E+00
 -1       744 7.58158E-06 1.06111E-06 0.00000E+00
 -1       745 7.32396E-06 5.83384E-07 0.00000E+00
 -1       746 7.05720E-06 1.30278E-07-1.32349E-23
 -1       747 6.77073E-06-2.69551E-07 6.61744E-24
 -1       748 6.45391E-06-5.87552E-07-1.32349E-23
 -1       749 6.09716E-06-7.94975E-07 0.00000E+00
 -1       750 5.68879E-06-8.63939E-07 0.00000E+00
 -1       751 1.37359E-05-3.57831E-07-1.65436E-24
 -1       752 1.41227E-05 4.00710E-07 0.00000E+00
 -1       753 1.45108E-05 7.85885E-07-1.32349E-23
 -1       754 1.49021E-05 8.60029E-07 0.00000E+00
 -1       755 1.52943E-05 6.85012E-07 0.00000E+00
 -1       756 1.56869E-05 3.22344E-07 0.00000E+00
 -1       757 1.60798E-05-1.66687E-07 0.00000E+00
 -1       758 1.64727E-05-7.20991E-07 6.61744E-24
 -1       759 1.68657E-05-1.27955E-06 1.32349E-23
 -1       760 1.72585E-05-1.78135E-06 0.00000E+00
 -1       761 1.76513E-05-2.16534E-06-1.32349E-23
 -1       762 1.80436E-05-2.37023E-06 0.00000E+00
 -1       763 1.84352E-05-2.33457E-06 0.00000E+00
 -1       764 1.88241E-05-1.99654E-06 0.00000E+00
 -1       765 1.92118E-05-1.29387E-06 0.00000E+00
 -1       766 1.17547E-05-1.43075E-06 0.00000E+00
 -1       767 1.00747E-05-1.29572E-06-8.27181E-25
 -1       768 8.45843E-06-1.16037E-06 0.00000E+00
 -1       769 7.02966E-06-1.02442E-06-4.13590E-25
 -1       770 5.91226E-06-8.88129E-07 0.00000E+00
 -1       771 1.22283E-05-5.53294E-07 0.00000E+00
 -1       772 1.11668E-05 1.49492E-07 1.32349E-23
 -1       773 1.01973E-05 5.98035E-07-2.64698E-23
 -1       774 9.30696E-06 8.28760E-07 0.00000E+00
 -1       775 8.48381E-06 8.78460E-07 0.00000E+00
 -1       776 7.71441E-06 7.83782E-07-1.32349E-23
 -1       777 6.98522E-06 5.81441E-07 0.00000E+00
 -1       778 6.28255E-06 3.08230E-07-1.32349E-23
 -1       779 5.59264E-06 9.87542E-10 0.00000E+00
 -1       780 4.90173E-06-3.03418E-07-1.32349E-23
 -1       781 4.19607E-06-5.68104E-07 0.00000E+00
 -1       782 3.46209E-06-7.56190E-07 1.32349E-23
 -1       783 2.68626E-06-8.30830E-07 1.32349E-23
 -1       784 1.85633E-06-7.54960E-07-6.61744E-24
 -1       785 9.59403E-07-4.91837E-07 1.32349E-23
 -1       786 1.98420E-05 1.02772E-06-1.65436E-24
 -1       787 2.01237E-05 1.89725E-06 0.00000E+00
 -1       788 2.04063E-05 2.49427E-06 0.00000E+00
 -1       789 2.06911E-05 2.86952E-06-3.30872E-24
 -1       790 2.09765E-05 3.07348E-06-6.61744E-24
 -1       791 2.12623E-05 3.15647E-06-3.30872E-24
 -1       792 2.15483E-05 3.16869E-06 0.00000E+00
 -1       793 2.18344E-05 3.16028E-06-3.30872E-24
 -1       794 2.21205E-05 3.18135E-06-6.61744E-24
 -1       795 2.24065E-05 3.28204E-06 3.30872E-24
 -1       796 2.26924E-05 3.51255E-06-6.61744E-24
 -1       797 2.29781E-05 3.92327E-06 3.30872E-24
 -1       798 2.32633E-05 4.56470E-06 0.00000E+00
 -1       799 2.35472E-05 5.48758E-06 3.30872E-24
 -1       800 2.38303E-05 6.74301E-06 6.61744E-24
 -1       801 1.70819E-05-1.37605E-07 0.00000E+00
 -1       802 1.35098E-05-1.07196E-07 0.00000E+00
 -1       803 9.43690E-06-7.84601E-08 0.00000E+00
 -1       804 5.44223E-06-5.02073E-08 0.00000E+00
 -1       805 2.10476E-06-2.03611E-08 0.00000E+00
 -1       806 1.87095E-05 8.95681E-07 0.00000E+00
 -1       807 1.79103E-05 1.72938E-06 0.00000E+00
 -1       808 1.71790E-05 2.37599E-06 0.00000E+00
 -1       809 1.65027E-05 2.87211E-06 0.00000E+00
 -1       810 1.58686E-05 3.25459E-06 0.00000E+00
 -1       811 1.52630E-05 3.56011E-06 0.00000E+00
 -1       812 1.46725E-05 3.82540E-06 1.32349E-23
 -1       813 1.40833E-05 4.08715E-06-6.61744E-24
 -1       814 1.34816E-05 4.38208E-06-1.32349E-23
 -1       815 1.28537E-05 4.74688E-06-6.61744E-24
 -1       816 1.21859E-05 5.21820E-06 1.32349E-23
 -1       817 1.14647E-05 5.83266E-06-6.61744E-24
 -1       818 1.06764E-05 6.62683E-06 0.00000E+00
 -1       819 9.80871E-06 7.63740E-06 6.61744E-24
 -1       820 8.84851E-06 8.90080E-06 3.30872E-24
 -1       821 2.39286E-05 1.04282E-05-1.65436E-24
 -1       822 2.37421E-05 1.27549E-05 1.65436E-24
 -1       823 2.35546E-05 1.53326E-05 6.61744E-24
 -1       824 2.33651E-05 1.81315E-05 3.30872E-24
 -1       825 2.31748E-05 2.11218E-05-6.61744E-24
 -1       826 2.29837E-05 2.42735E-05 0.00000E+00
 -1       827 2.27922E-05 2.75564E-05 0.00000E+00
 -1       828 2.26003E-05 3.09403E-05 3.30872E-24
 -1       829 2.24081E-05 3.43949E-05-6.61744E-24
 -1       830 2.22159E-05 3.78900E-05 0.00000E+00
 -1       831 2.20237E-05 4.13951E-05 0.00000E+00
 -1       832 2.18317E-05 4.48799E-05 0.00000E+00
 -1       833 2.16402E-05 4.83141E-05 0.00000E+00
 -1       834 2.14500E-05 5.16673E-05-1.65436E-24
 -1       835 2.12605E-05 5.49094E-05 0.00000E+00
 -1       836 2.17798E-05 8.72171E-06 0.00000E+00
 -1       837 1.90002E-05 9.07287E-06-3.30872E-24
 -1       838 1.59878E-05 9.42336E-06 0.00000E+00
 -1       839 1.29672E-05 9.77316E-06 0.00000E+00
 -1       840 1.01625E-05 1.01232E-05 0.00000E+00
 -1       841 2.33299E-05 1.04302E-05 0.00000E+00
 -1       842 2.24447E-05 1.27651E-05-1.65436E-24
 -1       843 2.14626E-05 1.53561E-05 0.00000E+00
 -1       844 2.03953E-05 1.81713E-05 0.00000E+00
 -1       845 1.92551E-05 2.11791E-05 0.00000E+00
 -1       846 1.80541E-05 2.43475E-05 0.00000E+00
 -1       847 1.68042E-05 2.76449E-05-2.06795E-25
 -1       848 1.55175E-05 3.10394E-05 7.75482E-26
 -1       849 1.42061E-05 3.44992E-05 0.00000E+00
 -1       850 1.28820E-05 3.79924E-05 0.00000E+00
 -1       851 1.15571E-05 4.14875E-05 0.00000E+00
 -1       852 1.02437E-05 4.49523E-05 2.06795E-25
 -1       853 8.95353E-06 4.83553E-05 0.00000E+00
 -1       854 7.69848E-06 5.16644E-05-1.24077E-24
 -1       855 6.49083E-06 5.48479E-05 0.00000E+00
 -1       856 2.09823E-05 6.11231E-05-1.65436E-24
 -1       857 2.08792E-05 6.44114E-05 0.00000E+00
 -1       858 2.07754E-05 6.78515E-05 3.30872E-24
 -1       859 2.06707E-05 7.14193E-05 1.65436E-24
 -1       860 2.05654E-05 7.50906E-05 0.00000E+00
 -1       861 2.04597E-05 7.88410E-05-1.65436E-24
 -1       862 2.03538E-05 8.26462E-05 0.00000E+00
 -1       863 2.02477E-05 8.64820E-05-1.65436E-24
 -1       864 2.01417E-05 9.03241E-05 3.30872E-24
 -1       865 2.00357E-05 9.41480E-05 1.65436E-24
 -1       866 1.99298E-05 9.79295E-05 0.00000E+00
 -1       867 1.98243E-05 1.01644E-04 1.65436E-24
 -1       868 1.97192E-05 1.05268E-04 0.00000E+00
 -1       869 1.96148E-05 1.08776E-04-1.65436E-24
 -1       870 1.95109E-05 1.12145E-04 0.00000E+00
 -1       871 1.83121E-05 5.79894E-05 0.00000E+00
 -1       872 1.56914E-05 5.79674E-05 0.00000E+00
 -1       873 1.31512E-05 5.79454E-05 0.00000E+00
 -1       874 1.06240E-05 5.79228E-05 4.13590E-25
 -1       875 8.04226E-06 5.78996E-05-1.44757E-24
 -1       876 2.00683E-05 6.11543E-05 6.61744E-24
 -1       877 1.90101E-05 6.44407E-05 1.65436E-24
 -1       878 1.79058E-05 6.78489E-05 0.00000E+00
 -1       879 1.67632E-05 7.13610E-05 0.00000E+00
 -1       880 1.55884E-05 7.49583E-05-6.61744E-24
 -1       881 1.43885E-05 7.86225E-05 0.00000E+00
 -1       882 1.31702E-05 8.23354E-05 0.00000E+00
 -1       883 1.19403E-05 8.60787E-05 3.30872E-24
 -1       884 1.07058E-05 8.98344E-05 0.00000E+00
 -1       885 9.47343E-06 9.35842E-05 1.65436E-24
 -1       886 8.25012E-06 9.73099E-05 0.00000E+00
 -1       887 7.04267E-06 1.00993E-04-1.65436E-24
 -1       888 5.85788E-06 1.04616E-04 0.00000E+00
 -1       889 4.70195E-06 1.08160E-04 1.65436E-24
 -1       890 3.58250E-06 1.11607E-04-1.65436E-24
 -1       891 1.64803E-05 1.15282E-04 0.00000E+00
 -1       892 1.37170E-05 1.15213E-04 0.00000E+00
 -1       893 1.10290E-05 1.15143E-04-1.65436E-24
 -1       894 8.32434E-06 1.15074E-04 0.00000E+00
 -1       895 5.51133E-06 1.15004E-04 8.27181E-25
 -1       896 2.64384E-07 9.37513E-07-6.61744E-24
 -1       897 5.30726E-07 1.63884E-06 0.00000E+00
 -1       898 7.97269E-07 2.13170E-06 6.61744E-24
 -1       899 1.06410E-06 2.44411E-06 3.30872E-24
 -1       900 1.33103E-06 2.60388E-06-6.61744E-24
 -1       901 1.59801E-06 2.63869E-06-3.30872E-24
 -1       902 1.86501E-06 2.57612E-06 0.00000E+00
 -1       903 2.13199E-06 2.44363E-06-3.30872E-24
 -1       904 2.39896E-06 2.26863E-06 0.00000E+00
 -1       905 2.66588E-06 2.07850E-06 0.00000E+00
 -1       906 2.93271E-06 1.90060E-06 6.61744E-24
 -1       907 3.19933E-06 1.76228E-06 0.00000E+00
 -1       908 3.46567E-06 1.69095E-06 0.00000E+00
 -1       909 3.73086E-06 1.71408E-06-3.30872E-24
 -1       910 3.99566E-06 1.85923E-06 0.00000E+00
 -1       911 4.31286E-06 2.43559E-06 8.27181E-25
 -1       912 4.37492E-06 2.53800E-06 8.27181E-25
 -1       913 4.43701E-06 2.48592E-06 1.65436E-24
 -1       914 4.49913E-06 2.30468E-06 0.00000E+00
 -1       915 4.56124E-06 2.01952E-06 1.65436E-24
 -1       916 4.62333E-06 1.65569E-06 0.00000E+00
 -1       917 4.68540E-06 1.23840E-06-1.65436E-24
 -1       918 4.74745E-06 7.92861E-07-8.27181E-25
 -1       919 4.80948E-06 3.44284E-07 1.65436E-24
 -1       920 4.87147E-06-8.21237E-08 0.00000E+00
 -1       921 4.93341E-06-4.61163E-07 1.65436E-24
 -1       922 4.99518E-06-7.67609E-07 0.00000E+00
 -1       923 5.05670E-06-9.76226E-07 0.00000E+00
 -1       924 5.11722E-06-1.06178E-06 8.27181E-25
 -1       925 5.17738E-06-9.98943E-07-4.13590E-25
 -1       926 4.91167E-06-5.17520E-07 0.00000E+00
 -1       927 4.58554E-06-4.24647E-07-3.30872E-24
 -1       928 4.25907E-06-4.57676E-07 0.00000E+00
 -1       929 3.93151E-06-5.89572E-07 6.61744E-24
 -1       930 3.60368E-06-7.93256E-07 0.00000E+00
 -1       931 3.27564E-06-1.04153E-06 0.00000E+00
 -1       932 2.94752E-06-1.30716E-06 1.32349E-23
 -1       933 2.61936E-06-1.56290E-06-6.61744E-24
 -1       934 2.29120E-06-1.78148E-06 0.00000E+00
 -1       935 1.96306E-06-1.93572E-06 0.00000E+00
 -1       936 1.63495E-06-1.99847E-06 6.61744E-24
 -1       937 1.30692E-06-1.94272E-06 0.00000E+00
 -1       938 9.78984E-07-1.74156E-06 6.61744E-24
 -1       939 6.51448E-07-1.36831E-06 0.00000E+00
 -1       940 3.23971E-07-7.96396E-07 6.61744E-24
 -1       941 4.54090E-07 8.07186E-07 0.00000E+00
 -1       942 9.40244E-07 1.42951E-06-3.30872E-24
 -1       943 1.42782E-06 1.90227E-06 0.00000E+00
 -1       944 1.91940E-06 2.26086E-06 0.00000E+00
 -1       945 2.41201E-06 2.54049E-06 1.32349E-23
 -1       946 2.90537E-06 2.77621E-06-6.61744E-24
 -1       947 3.39901E-06 3.00302E-06-1.32349E-23
 -1       948 3.89278E-06 3.25590E-06 0.00000E+00
 -1       949 4.38656E-06 3.56987E-06 0.00000E+00
 -1       950 4.88021E-06 3.98005E-06-6.61744E-24
 -1       951 5.37359E-06 4.52173E-06 0.00000E+00
 -1       952 5.86634E-06 5.23045E-06 6.61744E-24
 -1       953 6.35817E-06 6.14199E-06 1.32349E-23
 -1       954 6.84682E-06 7.29251E-06 6.61744E-24
 -1       955 7.33413E-06 8.71860E-06-6.61744E-24
 -1       956 7.65056E-06 1.25504E-05 8.27181E-25
 -1       957 7.49918E-06 1.48662E-05-4.13590E-25
 -1       958 7.34664E-06 1.73824E-05 1.65436E-24
 -1       959 7.19321E-06 2.00763E-05 0.00000E+00
 -1       960 7.03922E-06 2.29250E-05-1.65436E-24
 -1       961 6.88478E-06 2.59053E-05-1.65436E-24
 -1       962 6.73000E-06 2.89942E-05-3.30872E-24
 -1       963 6.57494E-06 3.21688E-05 0.00000E+00
 -1       964 6.41970E-06 3.54057E-05-3.30872E-24
 -1       965 6.26435E-06 3.86820E-05 0.00000E+00
 -1       966 6.10897E-06 4.19746E-05 0.00000E+00
 -1       967 5.95366E-06 4.52603E-05 0.00000E+00
 -1       968 5.79856E-06 4.85159E-05 0.00000E+00
 -1       969 5.64392E-06 5.17185E-05 0.00000E+00
 -1       970 5.48998E-06 5.48451E-05 0.00000E+00
 -1       971 5.16682E-06 6.09076E-05-3.30872E-24
 -1       972 4.99020E-06 6.41196E-05 1.65436E-24
 -1       973 4.81293E-06 6.74869E-05-6.61744E-24
 -1       974 4.63477E-06 7.09866E-05-3.30872E-24
 -1       975 4.45612E-06 7.45958E-05 0.00000E+00
 -1       976 4.27709E-06 7.82915E-05 3.30872E-24
 -1       977 4.09779E-06 8.20508E-05 6.61744E-24
 -1       978 3.91834E-06 8.58505E-05 3.30872E-24
 -1       979 3.73883E-06 8.96676E-05 6.61744E-24
 -1       980 3.55938E-06 9.34789E-05 0.00000E+00
 -1       981 3.38008E-06 9.72615E-05 6.61744E-24
 -1       982 3.20111E-06 1.00992E-04-3.30872E-24
 -1       983 3.02261E-06 1.04648E-04-6.61744E-24
 -1       984 2.84523E-06 1.08206E-04 0.00000E+00
 -1       985 2.66852E-06 1.11643E-04 3.30872E-24
 -3
    1PSTEP                         2           1           1          
  100CL  101 1.000000000         841                     0    1           1
 -4  STRESS      6    1
 -5  SXX         1    4    1    1
 -5  SYY         1    4    2    2
 -5  SZZ         1    4    3    3
 -5  SXY         1    4    1    2
 -5  SYZ         1    4    2    3
 -5  SZX         1    4    3    1
 -1         1-1.65084E+06-5.01182E+05-9.63587E+04-6.77694E+05-1.94026E-11 3.90476E-09
 -1         2-9.80659E+05 1.83548E+04 1.77328E+03-1.50708E+05 3.86535E-11 2.61207E-09
 -1         3-3.49234E+05-9.79376E+04 4.30536E+02-7.58889E+04-1.76328E-10 1.22009E-09
 -1         4-5.75298E+04-2.04786E+04 1.26747E+02-2.20239E+04 1.17964E-10 2.37861E-09
 -1         5 5.07001E+04 6.49812E+05-6.60634E+04-1.02403E+03 9.02219E-10 5.76233E-09
 -1         8-3.17041E+05-2.95487E+05 1.43600E+03-5.00990E+05 8.18545E-11 5.26779E-09
 -1         9-6.91464E+05-9.12274E+04-3.04510E+04-3.97587E+05 6.03601E-10 1.66134E-10
 -1        10-3.75682E+05-1.70775E+05 7.58508E+02-2.40238E+05-6.45741E-11 7.88835E-10
 -1        11-9.33264E+04-5.59178E+04 1.68819E+02-1.17097E+05-1.25434E-10 9.60730E-10
 -1        12 7.02455E+04 6.51998E+05-6.23370E+04 2.19951E+04 1.78375E-09 4.21242E-09
 -1        15 1.80472E+04-1.73403E+03 1.17810E+03-1.58161E+05-2.19188E-10 6.71207E-10
 -1        16-3.10762E+05-9.11570E+04-1.75223E+04-3.49923E+05 4.35951E-10-1.06290E-09
 -1        17-2.59736E+05-1.60480E+05 1.65414E+04-3.63924E+05 9.98019E-10 1.27087E-09
 -1        18-4.37048E+04-6.44081E+04-1.05462E+04-2.71171E+05-1.15688E-09-4.12304E-10
 -1        19 2.13137E+05 3.61213E+05-2.50665E+04-1.66329E+03 1.41275E-09 1.16718E-09
 -1        20 1.18118E+05-6.77331E+04-1.05593E+04 7.85942E+04 9.85028E-09-2.67983E-09
 -1        21-1.55455E+04-1.51392E+05-6.58114E+02 1.03604E+04 4.75702E-08-1.06730E-09
 -1        22 2.86956E+04 1.72035E+05 5.47067E+02-9.46873E+04 1.29148E-10-7.71252E-10
 -1        23-1.52297E+05-5.92256E+03 9.52626E+02-1.97243E+05 4.06847E-10-1.28390E-10
 -1        24-2.72064E+05-4.86835E+04 4.68714E+04-3.39422E+05-1.37879E-09 2.42532E-12
 -1        25 2.04491E+04 2.76144E+03 6.45014E+04-3.55202E+05 6.05420E-10-7.45786E-10
 -1        26-9.72185E+03 2.66227E+05 1.17632E+04-1.11386E+05-3.08645E-09-2.75113E-10
 -1        27-1.78061E+04-4.55294E+04-1.93148E+04 1.20190E+05 9.50452E-09-1.36909E-09
 -1        28-5.48199E+03-1.06131E+05-6.60119E+02 5.93833E+04 2.84056E-08-3.49168E-09
 -1        29 3.69893E+05 2.82394E+05 9.34130E+02-6.18654E+04 4.32010E-12-1.89175E-10
 -1        30 1.26041E+05 3.23777E+04 7.62603E+02-9.14450E+04 5.21467E-10-2.31012E-10
 -1        31-3.86094E+05 2.45088E+04 1.59503E+03-1.32101E+05 2.40533E-10 1.92813E-10
 -1        32-2.59828E+05 2.48056E+03 8.70477E+04-3.40622E+05-1.96080E-09 2.44654E-09
 -1        33 6.34752E+04 2.33645E+05 8.99289E+04-1.56744E+05 3.54078E-10 8.55835E-10
 -1        34-2.27839E+05-2.19709E+04-8.66125E+02 7.04299E+04 1.86267E-08-4.46471E-09
 -1        35-3.99695E+04-3.63321E+04-5.23490E+02 8.49409E+04 2.98912E-08 9.32535E-10
 -1        36-2.22583E+06 1.82014E+03-5.20408E+04-9.74705E-09 2.61099E-10 1.43700E-09
 -1        37-2.24127E+06-1.01363E+04-3.06173E+04 1.46192E-08 1.49775E-09-3.11229E-09
 -1        38-2.23267E+06 2.45420E+02-1.32022E+04-8.33850E-09-7.50322E-10-1.29148E-10
 -1        39-2.23384E+06-5.97694E+02-6.99402E+03-1.83240E-08 4.17525E-10-4.43720E-09
 -1        40-2.23322E+06 4.97033E+01-3.40183E+03 1.56035E-08-1.53988E-10-2.37515E-09
 -1        41-2.23322E+06-2.98196E+01-1.91781E+03 2.08484E-08 4.19998E-10 3.96994E-10
 -1        42-2.23328E+06 1.74568E+01-1.28380E+03-5.15865E-09 3.49941E-10-2.52010E-09
 -1        43-2.23317E+06-1.22206E+00-1.37038E+03-5.67699E-09 8.97289E-10-1.67319E-09
 -1        44-2.23326E+06 2.84734E+01-2.08421E+03-1.04637E-08-7.28357E-10 3.84125E-09
 -1        45-2.23334E+06-7.02256E+01-3.97561E+03-6.66914E-09-2.32119E-10 1.17006E-09
 -1        46-2.23311E+06 1.11623E+02-7.62059E+03-1.40393E-09 7.83697E-11 3.59023E-09
 -1        47-2.23478E+06-1.37754E+03-1.60037E+04-1.63338E-08-2.14452E-10 4.13820E-10
 -1        48-2.23185E+06 5.64831E+02-3.03615E+04-6.17365E-09-4.82261E-10-7.93079E-10
 -1        49-2.25192E+06-2.33529E+04-7.05107E+04 2.37269E-08-1.15976E-09 2.15368E-09
 -1        50-2.21607E+06 4.20022E+03-1.19854E+05-1.48793E-09-2.77650E-10 5.45697E-09
 -1        51 3.47362E+04-6.09755E+05 1.06529E+05-8.41485E+05-1.74623E-10 4.55475E-09
 -1        52 1.82931E+04-5.93016E+05 5.64035E+04-1.04954E+06-4.72937E-10-5.16593E-10
 -1        53 6.34050E+03-6.11867E+05 2.52604E+04-8.38469E+05 1.92813E-10 6.54836E-10
 -1        54 1.06008E+04-6.14548E+05 1.33893E+04-1.05199E+06 8.00355E-11 1.78261E-09
 -1        55 8.56230E+03-6.15222E+05 6.36361E+03-8.38848E+05-3.63798E-10 5.63887E-11
 -1        56-2.87068E+06-4.04048E+05-1.45591E+05-1.09362E+06-1.45519E-10-2.56841E-09
 -1        57-2.90902E+06-4.57142E+05-8.43737E+04-1.10548E+06 2.81489E-10-7.46695E-10
 -1        58-2.89036E+06-4.15256E+05-3.37755E+04-1.09722E+06-6.53472E-10-5.43878E-10
 -1        59-2.88515E+06-4.27651E+05-1.73507E+04-1.10796E+06 7.15090E-10-2.46268E-09
 -1        60-2.89198E+06-4.16309E+05-7.82784E+03-1.09754E+06 1.18507E-09-1.00317E-09
 -1        61-2.88326E+06-4.25542E+05-4.09989E+03-1.10780E+06-7.50333E-11 1.31877E-09
 -1        62-2.89206E+06-4.16530E+05-2.39087E+03-1.09766E+06-4.98858E-10-1.47361E-09
 -1        63-2.88330E+06-4.25198E+05-2.24488E+03-1.10749E+06-1.02182E-09 2.26555E-09
 -1        64-2.89188E+06-4.16676E+05-3.26836E+03-1.09781E+06 6.12090E-10 1.87720E-09
 -1        65-2.88394E+06-4.25089E+05-6.43302E+03-1.10712E+06 1.15097E-09-4.24711E-09
 -1        66-2.89135E+06-4.16686E+05-1.27625E+04-1.09798E+06 1.30967E-10-4.49290E-10
 -1        67-2.88763E+06-4.27937E+05-2.85287E+04-1.10658E+06-3.26509E-10 3.91447E-09
 -1        68-2.88834E+06-4.15287E+05-5.56558E+04-1.09778E+06 1.28694E-10 7.71252E-10
 -1        69-2.92756E+06-4.75925E+05-1.39054E+05-1.10173E+06 1.29819E-09-4.66571E-09
 -1        70-2.85555E+06-3.97096E+05-2.39906E+05-1.09214E+06-5.20231E-10-3.20142E-10
 -1        71-7.76579E+05-6.51182E+02 1.88462E+04-1.29910E-08 4.67486E-10-4.81486E-09
 -1        72-7.70843E+05 3.66594E+03 1.10797E+04 2.79010E-09-6.36559E-10 1.12777E-09
 -1        73-7.74096E+05-8.82287E+01 4.76684E+03-2.54169E-08-2.18191E-10 1.67597E-09
 -1        74-7.73534E+05 2.16127E+02 2.49877E+03-3.48606E-10-4.42579E-10-4.26417E-09
 -1        75-7.73895E+05-1.70302E+01 1.16181E+03-3.21774E-09 8.17948E-10 2.48633E-10
 -1        76-7.73762E+05 1.12575E+01 5.48773E+02 9.77352E-10-8.42732E-10 4.20022E-09
 -1        77-7.73869E+05-2.43476E+00 1.76010E+02 1.28772E-08 4.50930E-11-2.93159E-09
 -1        78-7.73801E+05-8.11277E-02-9.55631E+01 2.03550E-08-4.86047E-10-2.95594E-09
 -1        79-7.73857E+05 5.63603E+00-4.10832E+02 1.23724E-08 2.48759E-10-1.21594E-09
 -1        80-7.73854E+05-1.81858E+01-9.59449E+02 1.43904E-08 1.01016E-10 3.53515E-09
 -1        81-7.73816E+05 2.82492E+01-1.92960E+03 1.46616E-08-8.32784E-11 4.49745E-10
 -1        82-7.74225E+05-3.53214E+02-4.09986E+03 1.18997E-08-7.11224E-10 5.68377E-10
 -1        83-7.73488E+05 1.44351E+02-7.79890E+03-1.04770E-08 3.15478E-10-6.49834E-10
 -1        84-7.78623E+05-5.99220E+03-1.81139E+04-1.14799E-08-2.20882E-10 3.73279E-09
 -1        85-7.69428E+05 1.06576E+03-3.08012E+04 7.24867E-09-1.81412E-10-2.39379E-09
 -1        86-5.49373E+03 5.78790E+05 1.54607E+05-8.10607E+04 8.07631E-10 1.54250E-09
 -1        87 3.05391E+04 6.25277E+05 1.02203E+05-1.51657E+05 1.48884E-09 2.76486E-10
 -1        88-1.10665E+03 5.96714E+05 6.64489E+04-8.06938E+04 1.58661E-09-2.70484E-09
 -1        89 2.49912E+04 6.19929E+05 8.73910E+04-1.51938E+05 2.23918E-09-5.71526E-09
 -1        90-3.78809E+03 5.82672E+05 1.24143E+05-8.07348E+04 2.08092E-09 3.23098E-09
 -1        91-1.26120E+06-1.79681E+05-4.29212E+04-4.80913E+05 4.02451E-10-1.11140E-09
 -1        92-1.27047E+06-1.97273E+05-2.48670E+04-4.86686E+05 4.03338E-09 6.18479E-09
 -1        93-1.26703E+06-1.82946E+05-9.96538E+03-4.81967E+05 1.64164E-10 9.16771E-10
 -1        94-1.26342E+06-1.88624E+05-5.12259E+03-4.87448E+05-1.24578E-09 1.53841E-09
 -1        95-1.26752E+06-1.83244E+05-2.31751E+03-4.82052E+05 2.62617E-11-2.05489E-11
 -1        96-1.26285E+06-1.88027E+05-1.22445E+03-4.87431E+05 2.27880E-09 4.55600E-10
 -1        97-1.26755E+06-1.83295E+05-7.32946E+02-4.82074E+05-3.31966E-10-4.35989E-10
 -1        98-1.26284E+06-1.87953E+05-7.21631E+02-4.87374E+05-2.09548E-09-9.96920E-09
 -1        99-1.26752E+06-1.83320E+05-1.08371E+03-4.82101E+05-3.00588E-10-1.07684E-09
 -1       100-1.26300E+06-1.87965E+05-2.15762E+03-4.87311E+05 2.58069E-10 1.52215E-09
 -1       101-1.26737E+06-1.83293E+05-4.28983E+03-4.82125E+05 3.06954E-10-3.31056E-10
 -1       102-1.26419E+06-1.88977E+05-9.59207E+03-4.87199E+05 1.55978E-10-1.01591E-09
 -1       103-1.26638E+06-1.82793E+05-1.87096E+04-4.82021E+05-2.73303E-10 1.57161E-09
 -1       104-1.27754E+06-2.05111E+05-4.67070E+04-4.85623E+05 3.86819E-11-8.61291E-10
 -1       105-1.25536E+06-1.76719E+05-8.06201E+04-4.80104E+05-9.34051E-10-3.49246E-10
 -1       106-1.42596E+05-1.01683E+03 2.95623E+04 7.29187E-09-6.18304E-10 5.11136E-10
 -1       107-1.33693E+05 5.74683E+03 1.73836E+04 6.75163E-09-1.47474E-11-5.79803E-11
 -1       108-1.38698E+05-1.38240E+02 7.48917E+03 1.57863E-08 2.70626E-10 1.94086E-09
 -1       109-1.37910E+05 3.38578E+02 3.94178E+03 1.23031E-08 4.05648E-10 9.62984E-10
 -1       110-1.38382E+05-2.72622E+01 1.86483E+03 1.28179E-08 3.21859E-10-2.17597E-09
 -1       111-1.38265E+05 1.73352E+01 9.46005E+02 2.48935E-08 2.35779E-10-4.46933E-09
 -1       112-1.38343E+05-6.06435E+00 4.43196E+02-8.16874E-09-5.16521E-10 4.24563E-10
 -1       113-1.38312E+05 1.60005E-01 1.91185E+02-6.74482E-09 4.06422E-10-1.99407E-10
 -1       114-1.38334E+05-3.35910E-01 2.65557E+01-4.59131E-09 1.85521E-11-2.49987E-09
 -1       115-1.38330E+05-3.51453E+00-1.24653E+02-2.05433E-09-8.27676E-11 7.43078E-09
 -1       116-1.38326E+05 4.85099E+00-3.29463E+02 8.37064E-09 1.41367E-10 1.79587E-09
 -1       117-1.38400E+05-6.49052E+01-7.40897E+02 7.27517E-09 2.97469E-10 1.80870E-09
 -1       118-1.38265E+05 2.63907E+01-1.42743E+03 1.40937E-09-7.25833E-10-1.18450E-09
 -1       119-1.39208E+05-1.10058E+03-3.32584E+03-6.29871E-09 3.59461E-11-1.93660E-09
 -1       120-1.37518E+05 1.94897E+02-5.65942E+03 3.52202E-09 8.03036E-11-2.89151E-09
 -1       121-6.71956E+02-2.78153E+05 1.76595E+04-5.71283E+04-1.65983E-09 2.84126E-09
 -1       122 3.61318E+03-2.72853E+05 1.29526E+04-1.07618E+05-7.50333E-10-6.82121E-10
 -1       123-1.23446E+02-2.76441E+05 1.06423E+04-5.68387E+04-4.21869E-09-1.81899E-11
 -1       124 5.49132E+03-2.71696E+05 1.74268E+04-1.07839E+05-7.23958E-10 7.48969E-10
 -1       125-8.05066E+02-2.79756E+05 2.69505E+04-5.69028E+04-4.90945E-09 1.24726E-09
 -1       126-5.22551E+05-7.72725E+04-1.37531E+04-2.02560E+05-1.93040E-10 2.84490E-09
 -1       127-5.22757E+05-8.56535E+04-7.96772E+03-2.07563E+05-2.97007E-10 1.77442E-09
 -1       128-5.24439E+05-7.82975E+04-3.19634E+03-2.02880E+05-1.37675E-10 1.70155E-09
 -1       129-5.20483E+05-8.29036E+04-1.64631E+03-2.07831E+05-1.81316E-10 1.15961E-09
 -1       130-5.24599E+05-7.83899E+04-7.52127E+02-2.02905E+05-6.12317E-10-2.00492E-09
 -1       131-5.20297E+05-8.27163E+04-4.12021E+02-2.07830E+05-1.20735E-10-5.58316E-10
 -1       132-5.24611E+05-7.84047E+04-2.75119E+02-2.02911E+05 6.55291E-10-1.19462E-09
 -1       133-5.20294E+05-8.26966E+04-3.17734E+02-2.07814E+05-5.09317E-11-3.35461E-09
 -1       134-5.24593E+05-7.84112E+04-5.24350E+02-2.02917E+05 1.00340E-09 4.15184E-09
 -1       135-5.20368E+05-8.27144E+04-1.07584E+03-2.07793E+05-4.43606E-10-3.56158E-09
 -1       136-5.24523E+05-7.83937E+04-2.15471E+03-2.02922E+05 9.68612E-11-1.46201E-09
 -1       137-5.20944E+05-8.32364E+04-4.82303E+03-2.07749E+05-1.63436E-09 1.55615E-09
 -1       138-5.24030E+05-7.81369E+04-9.41156E+03-2.02859E+05 8.66066E-10 3.05863E-09
 -1       139-5.27654E+05-9.13388E+04-2.34847E+04-2.06946E+05 1.67620E-09-1.51977E-09
 -1       140-5.18470E+05-7.51070E+04-4.05418E+04-2.01904E+05-1.17757E-09 4.36557E-11
 -1       141-4.70866E+03-2.44938E+02 7.12010E+03 1.09208E-09-4.29654E-10-1.81399E-09
 -1       142-2.56572E+03 1.38498E+03 4.17869E+03 1.05891E-08 2.12976E-11 1.76016E-09
 -1       143-3.76834E+03-3.30038E+01 1.78207E+03-1.07265E-09 4.55543E-10 2.62878E-09
 -1       144-3.58363E+03 8.18039E+01 9.02544E+02-1.35877E-08 7.81266E-10-2.58264E-09
 -1       145-3.69083E+03-5.31107E+00 3.55410E+02-5.91780E-09-4.52103E-10 1.08693E-09
 -1       146-3.67581E+03 4.83988E+00 3.58246E+01 2.36566E-08-6.96796E-11 6.81304E-10
 -1       147-3.67617E+03 3.63140E+00-2.72141E+02-2.76547E-09 4.24439E-10-1.04285E-09
 -1       148-3.71582E+03-6.06602E-01-7.28629E+02-3.68884E-08-6.57101E-10 2.46273E-09
 -1       149-3.65082E+03 2.07621E+01-1.51809E+03-1.30229E-09-4.02802E-10 4.32010E-12
 -1       150-3.86951E+03-5.74810E+01-3.16587E+03 1.05702E-08 1.42536E-09 1.74015E-09
 -1       151-3.52244E+03 9.07185E+01-6.20610E+03 1.55863E-09-2.66394E-10-1.67461E-09
 -1       152-5.04816E+03-1.12441E+03-1.30994E+04-2.64708E-09-6.61774E-10-3.13253E-09
 -1       153-2.47139E+03 4.59296E+02-2.48770E+04-1.84453E-08 4.94220E-10-1.18962E-09
 -1       154-1.90523E+04-1.90858E+04-5.77394E+04-1.35851E-08 5.82190E-10-7.70524E-09
 -1       155 1.04974E+04 3.38524E+03-9.81442E+04-7.07769E-09-3.76271E-10 6.41012E-09
 -1       156-8.93713E+01-6.40975E+04 1.76766E+03-2.76140E+04-3.96994E-10 1.14778E-09
 -1       157 3.89986E+02-6.35581E+04 1.85262E+03-5.19002E+04-6.53017E-10-3.44517E-09
 -1       158-2.95532E+01-6.40584E+04 2.39885E+03-2.74590E+04-5.40012E-10 1.15824E-09
 -1       159 1.67824E+03-6.26661E+04 5.00287E+03-5.20484E+04-1.31422E-09 3.81078E-09
 -1       160-2.48037E+02-6.51541E+04 8.29246E+03-2.74649E+04-4.65661E-10 3.73689E-10
 -1       161-9.18568E+04-1.43791E+04-2.52044E+03-3.66793E+04-1.11777E-09-8.81073E-10
 -1       162-9.11769E+04-1.66324E+04-1.46515E+03-3.84185E+04 3.20966E-10 5.70165E-09
 -1       163-9.21943E+04-1.45741E+04-5.98456E+02-3.67459E+04 1.09253E-10-1.29916E-10
 -1       164-9.07685E+04-1.61210E+04-3.29831E+02-3.84574E+04-3.77270E-10-3.05863E-09
 -1       165-9.22217E+04-1.45924E+04-1.96433E+02-3.67513E+04-3.66299E-10-1.14619E-09
 -1       166-9.07396E+04-1.60858E+04-2.00680E+02-3.84560E+04 1.26920E-09 6.97241E-10
 -1       167-9.22180E+04-1.45929E+04-3.08290E+02-3.67521E+04-1.60765E-09-3.12866E-10
 -1       168-9.07622E+04-1.60889E+04-6.12855E+02-3.84595E+04-1.28000E-09-4.41673E-11
 -1       169-9.21942E+04-1.45797E+04-1.23358E+03-3.67500E+04 1.17461E-09-2.27374E-13
 -1       170-9.09205E+04-1.61827E+04-2.66970E+03-3.84820E+04-2.04523E-10 2.52749E-09
 -1       171-9.20547E+04-1.44925E+04-5.40739E+03-3.67304E+04 2.47496E-10-7.40783E-10
 -1       172-9.23200E+04-1.75673E+04-1.21458E+04-3.84783E+04 4.10319E-09-3.32648E-09
 -1       173-9.08731E+04-1.37885E+04-2.37057E+04-3.65288E+04 1.39039E-09-3.91810E-09
 -1       174-1.09041E+05-3.81700E+04-5.91677E+04-3.67151E+04 5.71163E-10 2.39561E-09
 -1       175-7.70224E+04-5.98116E+03-1.02107E+05-3.39430E+04-6.82121E-10-4.55475E-09
 -1       191 1.80839E+04 1.54910E+06 5.53199E+04-2.10014E+03-3.20142E-10-2.50111E-10
 -1       192 6.93275E+03 1.56070E+06 3.34482E+04-2.17099E+03-1.47338E-10 1.67347E-09
 -1       193 8.49844E+02 1.55369E+06 2.44161E+04-1.94498E+03-7.25066E-10-2.55022E-09
 -1       194 6.89609E+03 1.56066E+06 3.33232E+04-2.46719E+03-6.83940E-10-2.42653E-09
 -1       195 1.79807E+04 1.54913E+06 5.50260E+04-1.78244E+03-9.38599E-10 3.88627E-09
 -1       251 4.02634E+05-5.20314E+03 9.79179E+04-8.21148E+04-1.24783E-09 1.20417E-09
 -1       252 4.33382E+05 1.78197E+04 5.78656E+04-1.54085E+05-2.25555E-10-2.10275E-09
 -1       253 4.14641E+05-1.38418E+03 2.47166E+04-8.14674E+04 1.33150E-09 5.11318E-09
 -1       254 4.17523E+05 6.13067E+02 1.31796E+04-1.54588E+05 2.61934E-10 2.43017E-09
 -1       255 4.14957E+05-3.85722E+02 6.23118E+03-8.15617E+04-1.07320E-09-1.13687E-09
 -1       256 4.15177E+05 1.26196E+02 3.40321E+03-1.54432E+05-3.05590E-10-2.45564E-11
 -1       257 4.14639E+05 5.55202E+01 1.93298E+03-8.16300E+04 2.65572E-10 1.49066E-09
 -1       258 4.14475E+05 3.62118E+02 1.61157E+03-1.54338E+05 6.58019E-10-9.24501E-10
 -1       259 4.14493E+05 1.78959E+02 1.97310E+03-8.16551E+04-6.88715E-10-4.58385E-09
 -1       260 4.14603E+05 4.16259E+02 3.44310E+03-1.54338E+05-2.80124E-10-5.29189E-09
 -1       261 4.14518E+05-1.48880E+01 6.37807E+03-8.16300E+04 7.02130E-10-1.57479E-09
 -1       262 4.16379E+05 1.20348E+03 1.33294E+04-1.54406E+05 1.37788E-09-1.25988E-09
 -1       263 4.13899E+05-7.65530E+02 2.51097E+04-8.15856E+04-6.62112E-10 9.04947E-10
 -1       264 4.31763E+05 1.88444E+04 5.84589E+04-1.53975E+05 2.69210E-10 1.83718E-09
 -1       265 4.01490E+05-4.34689E+03 9.91171E+04-8.20929E+04-7.05768E-10-2.91038E-09
 -1       266-1.01590E+03-1.68687E+05 4.30433E+04-6.63311E+04 1.10958E-10 6.28461E-10
 -1       267 9.19639E+03-1.55910E+05 2.36708E+04-1.26465E+05-1.95541E-11-1.46429E-10
 -1       268 1.18770E+02-1.62451E+05 6.81205E+03-6.64468E+04-3.28328E-10 1.48066E-09
 -1       269-2.15444E+03-1.63740E+05-4.05683E+03-1.25891E+05 2.57387E-10 4.19277E-09
 -1       270 3.67002E+02-1.59375E+05-1.43938E+04-6.69414E+04-2.11003E-10 6.20639E-09
 -1       271-1.78560E+06-2.92208E+05-1.33675E+05-7.37483E+05-2.18279E-11-3.22325E-09
 -1       272-1.78840E+06-3.71659E+05-7.72371E+04-7.84038E+05 2.20098E-10-1.36606E-09
 -1       273-1.80504E+06-3.01040E+05-3.11328E+04-7.40175E+05-4.29281E-10 1.47702E-09
 -1       274-1.76623E+06-3.45820E+05-1.58754E+04-7.88602E+05-2.48656E-09-4.48290E-09
 -1       275-1.80741E+06-3.01180E+05-7.22254E+03-7.40243E+05-9.71340E-10-2.97496E-09
 -1       276-1.76444E+06-3.44447E+05-3.66793E+03-7.89872E+05-7.93079E-10-5.92627E-09
 -1       277-1.80809E+06-3.00811E+05-2.04163E+03-7.40160E+05 9.53150E-10 3.32068E-09
 -1       278-1.76431E+06-3.44548E+05-1.69618E+03-7.90498E+05-3.81988E-10 3.48791E-10
 -1       279-1.80826E+06-3.00638E+05-2.26979E+03-7.40124E+05 2.52157E-10-1.74214E-09
 -1       280-1.76453E+06-3.44698E+05-4.34229E+03-7.90551E+05-2.36651E-09-6.67069E-09
 -1       281-1.80790E+06-3.00645E+05-8.57682E+03-7.40124E+05 5.45697E-11-2.92675E-09
 -1       282-1.76672E+06-3.46674E+05-1.91183E+04-7.89939E+05 3.27418E-11-2.81034E-09
 -1       283-1.80556E+06-3.00003E+05-3.73662E+04-7.39928E+05-8.54925E-11-3.07773E-09
 -1       284-1.79329E+06-3.78425E+05-9.31193E+04-7.85638E+05 8.79481E-10-2.70666E-09
 -1       285-1.78278E+06-2.88658E+05-1.60902E+05-7.36361E+05 2.56932E-10-2.34286E-09
 -1       286 4.77358E+02-2.59808E+03 6.07550E+04-4.37877E+04 1.67711E-09-2.19006E-09
 -1       287 1.91168E+04 1.14933E+04 3.58097E+04-8.17292E+04 1.63072E-09-6.26460E-09
 -1       288 8.23141E+03-5.34791E+02 1.53712E+04-4.33608E+04-8.73115E-11-1.87356E-09
 -1       289 9.91345E+03 5.78500E+02 8.15035E+03-8.21519E+04-8.82210E-11-2.92584E-09
 -1       290 8.67169E+03-1.26923E+02 3.87701E+03-4.33468E+04 9.36780E-10 1.04274E-09
 -1       291 8.85034E+03 8.35875E+01 2.08236E+03-8.21661E+04 1.65028E-09 4.87034E-09
 -1       292 8.62100E+03 2.23594E+01 1.16461E+03-4.33478E+04 8.44921E-10 2.65300E-09
 -1       293 8.60356E+03 1.33833E+02 9.20577E+02-8.21656E+04 1.05501E-09-1.17871E-09
 -1       294 8.57982E+03 6.02344E+01 1.08178E+03-4.33473E+04 5.24878E-10-1.10731E-09
 -1       295 8.66575E+03 1.64794E+02 1.85080E+03-8.21658E+04 1.73600E-09-1.78466E-09
 -1       296 8.55491E+03-1.00225E+01 3.42164E+03-4.33475E+04 3.20142E-10-3.53930E-09
 -1       297 9.46485E+03 6.60974E+02 7.13018E+03-8.21538E+04 1.09549E-09-1.94450E-09
 -1       298 8.11161E+03-3.15498E+02 1.34601E+04-4.33589E+04 1.34605E-10 1.21008E-09
 -1       299 1.73899E+04 1.02377E+04 3.12775E+04-8.18272E+04 8.25821E-10 4.71687E-10
 -1       300 1.29670E+03-2.07392E+03 5.30994E+04-4.36823E+04-8.18545E-11 4.80213E-10
 -1       301 2.80516E+04 1.27373E+05 7.99178E+04-3.20748E+05-1.58616E-09 1.01136E-09
 -1       302 1.23515E+04 1.43411E+05 4.56770E+04-4.00894E+05 4.03816E-10-9.74978E-10
 -1       303 2.83546E+03 1.33680E+05 2.86291E+04-3.20183E+05-1.69712E-09-6.53131E-10
 -1       304 8.38269E+03 1.40150E+05 3.26407E+04-4.00923E+05 1.92813E-10-4.77485E-10
 -1       305 1.70759E+04 1.30527E+05 4.92298E+04-3.20744E+05-1.59343E-09 9.38599E-10
 -1       306-2.00343E+06-3.01144E+05-1.53212E+05-7.93970E+05-1.05774E-09-4.00178E-10
 -1       307-2.02905E+06-3.71268E+05-8.87195E+04-8.23029E+05-9.31323E-10-2.23918E-09
 -1       308-2.02483E+06-3.12221E+05-3.55821E+04-7.97320E+05-3.43789E-10 6.33008E-10
 -1       309-2.00348E+06-3.41032E+05-1.82304E+04-8.26824E+05-9.42237E-10-1.46429E-09
 -1       310-2.02698E+06-3.12911E+05-8.20685E+03-7.97418E+05-1.41335E-09-3.07273E-09
 -1       311-2.00121E+06-3.39264E+05-4.19569E+03-8.27428E+05 1.03137E-09-2.28840E-09
 -1       312-2.02739E+06-3.12836E+05-2.27710E+03-7.97342E+05-2.13731E-10 1.58607E-09
 -1       313-2.00095E+06-3.39264E+05-1.84461E+03-8.27656E+05-3.18323E-12-6.55746E-10
 -1       314-2.02743E+06-3.12794E+05-2.37830E+03-7.97321E+05 1.07389E-09-1.43518E-09
 -1       315-2.00119E+06-3.39363E+05-4.47790E+03-8.27598E+05 2.28260E-09 1.46156E-09
 -1       316-2.02708E+06-3.12779E+05-8.78907E+03-7.97354E+05 2.04227E-09 4.61569E-09
 -1       317-2.00358E+06-3.41374E+05-1.95828E+04-8.27159E+05-5.83896E-10 1.59707E-09
 -1       318-2.02488E+06-3.11933E+05-3.82052E+04-7.97192E+05-8.80391E-10-3.94721E-10
 -1       319-2.03094E+06-3.74041E+05-9.53323E+04-8.23359E+05-3.32875E-10 3.09956E-09
 -1       320-2.00202E+06-2.99878E+05-1.64583E+05-7.93486E+05 8.36735E-11 5.24597E-09
 -1       321 1.55765E+05-2.43217E+03 6.80671E+04-2.07100E+04 2.63753E-11 1.20053E-09
 -1       322 1.76283E+05 1.31673E+04 4.00411E+04-3.87596E+04-1.26693E-09-1.15870E-09
 -1       323 1.64687E+05-3.63177E+02 1.72488E+04-2.05388E+04 1.89175E-10-1.92631E-09
 -1       324 1.66470E+05 7.59798E+02 9.10130E+03-3.89196E+04-1.15278E-09-9.25866E-10
 -1       325 1.65374E+05-7.31815E+01 4.33403E+03-2.05403E+04-2.36923E-10-1.11550E-09
 -1       326 1.65593E+05 5.14466E+01 2.26635E+03-3.89124E+04 1.23691E-09 8.73911E-10
 -1       327 1.65439E+05-7.04283E+00 1.19023E+03-2.05465E+04-2.49202E-10-2.13890E-09
 -1       328 1.65471E+05 2.53920E+01 7.86893E+02-3.89055E+04-3.37252E-10 5.32509E-10
 -1       329 1.65444E+05 2.16898E+00 7.40320E+02-2.05473E+04 6.94968E-10 2.11594E-09
 -1       330 1.65509E+05 3.59930E+01 1.10874E+03-3.89077E+04-5.85260E-10-7.42602E-10
 -1       331 1.65424E+05-2.94071E+01 1.96323E+03-2.05442E+04-4.48381E-10-3.21808E-09
 -1       332 1.65913E+05 3.37922E+02 4.03848E+03-3.89131E+04 1.58707E-10-4.62346E-09
 -1       333 1.65138E+05-1.70289E+02 7.61083E+03-2.05418E+04-6.38465E-10-2.41880E-09
 -1       334 1.70280E+05 5.78690E+03 1.76524E+04-3.87703E+04 2.54204E-10-1.80080E-10
 -1       335 1.61229E+05-1.10594E+03 2.99850E+04-2.06903E+04 6.63931E-11-5.63887E-10
 -1       336-7.91408E+02-2.97454E+05 2.50297E+04-1.91046E+05-8.20000E-09 3.37604E-09
 -1       337 6.64259E+03-2.90901E+05 1.68882E+04-3.60704E+05-2.31375E-09 2.39379E-09
 -1       338 7.87046E+02-2.95485E+05 1.11314E+04-1.90366E+05-1.29094E-08 2.01635E-09
 -1       339 6.09253E+03-2.92060E+05 1.49038E+04-3.60861E+05-1.66801E-09 5.72027E-09
 -1       340-1.89805E+02-2.97346E+05 2.10437E+04-1.90884E+05-1.12418E-08 2.05728E-09
 -1       341-1.23729E+06-1.83228E+05-7.95840E+04-4.85197E+05 1.58298E-09-6.43922E-10
 -1       342-1.25087E+06-2.19500E+05-4.60994E+04-5.00123E+05-9.61791E-11-4.61887E-09
 -1       343-1.24827E+06-1.89118E+05-1.84820E+04-4.87024E+05-2.89219E-10-2.10639E-09
 -1       344-1.23766E+06-2.03652E+05-9.48857E+03-5.01819E+05-9.35415E-10-1.84718E-09
 -1       345-1.24927E+06-1.89581E+05-4.28299E+03-4.87123E+05-4.57476E-10 2.66482E-09
 -1       346-1.23652E+06-2.02649E+05-2.23491E+03-5.01952E+05-9.89303E-10-7.16796E-11
 -1       347-1.24941E+06-1.89610E+05-1.28796E+03-4.87116E+05 3.51429E-09 2.79175E-09
 -1       348-1.23642E+06-2.02598E+05-1.18617E+03-5.01969E+05-3.87921E-10-2.42449E-09
 -1       349-1.24939E+06-1.89614E+05-1.69946E+03-4.87121E+05-6.20048E-10-1.46520E-09
 -1       350-1.23662E+06-2.02668E+05-3.33099E+03-5.01923E+05-2.00635E-09-2.58024E-09
 -1       351-1.24917E+06-1.89565E+05-6.59860E+03-4.87132E+05-4.02906E-10-1.78079E-09
 -1       352-1.23838E+06-2.04251E+05-1.47387E+04-5.01752E+05 9.00400E-10 1.40790E-09
 -1       353-1.24764E+06-1.88812E+05-2.87502E+04-4.86956E+05 8.53561E-10-1.95178E-09
 -1       354-1.25887E+06-2.29025E+05-7.17556E+04-4.99257E+05 1.99634E-09 4.56566E-10
 -1       355-1.23064E+06-1.79532E+05-1.23848E+05-4.84021E+05 7.47605E-10-1.57161E-09
 -1       356 1.97164E+05-1.18390E+03 3.34617E+04-1.19762E+04 6.45741E-10 8.73115E-11
 -1       357 2.07236E+05 6.47702E+03 1.96757E+04-2.24689E+04-1.12709E-09-3.04226E-10
 -1       358 2.01562E+05-1.74348E+02 8.46028E+03-1.18846E+04-1.77351E-11 1.66756E-09
 -1       359 2.02427E+05 3.69674E+02 4.42873E+03-2.25537E+04-1.80762E-10 8.88349E-10
 -1       360 2.01909E+05-3.68087E+01 2.04061E+03-1.18878E+04-1.77806E-10 1.26806E-09
 -1       361 2.02001E+05 1.63778E+01 9.28006E+02-2.25474E+04-6.74845E-10-4.04088E-09
 -1       362 2.01950E+05-4.06399E+00 2.18268E+02-1.18910E+04 5.33646E-10 6.06747E-10
 -1       363 2.01918E+05-3.13675E-01-3.63448E+02-2.25438E+04 1.05268E-09-2.69915E-09
 -1       364 2.01976E+05 1.47102E+01-1.11215E+03-1.18914E+04-4.47585E-10-1.18348E-09
 -1       365 2.01792E+05-4.89841E+01-2.49083E+03-2.25467E+04 2.68301E-10 3.99450E-09
 -1       366 2.02087E+05 6.71484E+01-4.96547E+03-1.18882E+04-2.76941E-10 2.41471E-10
 -1       367 2.00860E+05-9.15382E+02-1.05214E+04-2.25519E+04-9.59062E-10 1.97792E-09
 -1       368 2.02945E+05 3.53227E+02-2.00038E+04-1.18864E+04-4.04725E-11 8.82210E-10
 -1       369 1.89632E+05-1.53701E+04-4.64285E+04-2.24719E+04-2.95154E-09 1.63982E-09
 -1       370 2.13393E+05 2.68511E+03-7.89343E+04-1.19604E+04 5.73436E-10 3.82715E-09
 -1       371-1.39932E+02-9.44130E+04 5.05947E+03-1.31862E+05-1.58252E-09-1.83718E-10
 -1       372 1.83221E+03-9.33814E+04 2.74745E+03-2.48709E+05-3.23416E-09-3.55158E-09
 -1       373 4.82695E+02-9.41630E+04 4.90763E+02-1.31420E+05-1.12959E-09-2.80215E-09
 -1       374 3.35672E+02-9.49223E+04-1.32659E+03-2.48813E+05-4.34193E-09 2.91857E-09
 -1       375 3.90632E+02-9.34079E+04-3.29760E+03-1.31758E+05-6.33008E-10 2.85581E-09
 -1       376-4.24819E+05-7.19783E+04-3.16984E+04-1.79128E+05-6.58474E-10-2.70848E-09
 -1       377-4.22454E+05-9.41737E+04-1.83592E+04-1.93981E+05 7.93762E-10-3.41629E-09
 -1       378-4.29235E+05-7.42767E+04-7.37038E+03-1.79835E+05-6.28916E-10-3.56522E-10
 -1       379-4.17201E+05-8.78792E+04-3.79657E+03-1.94687E+05 1.00681E-09 1.12459E-09
 -1       380-4.29627E+05-7.44687E+04-1.74156E+03-1.79892E+05-1.52340E-10-1.45116E-09
 -1       381-4.16775E+05-8.74587E+04-9.67078E+02-1.94715E+05-7.38964E-11-7.22332E-09
 -1       382-4.29663E+05-7.44933E+04-6.71994E+02-1.79897E+05-4.02224E-10 1.46838E-09
 -1       383-4.16746E+05-8.74298E+04-8.13743E+02-1.94690E+05 4.37694E-11-2.53112E-09
 -1       384-4.29622E+05-7.45078E+04-1.38272E+03-1.79898E+05 1.75532E-10 8.42192E-10
 -1       385-4.16894E+05-8.75121E+04-2.85213E+03-1.94644E+05-2.26873E-09-4.51269E-09
 -1       386-4.29420E+05-7.44601E+04-5.72884E+03-1.79881E+05-2.28829E-09-2.97223E-09
 -1       387-4.18357E+05-8.89396E+04-1.28181E+04-1.94520E+05 1.79534E-09 2.31739E-09
 -1       388-4.28097E+05-7.37949E+04-2.50267E+04-1.79682E+05 1.76715E-09-1.40426E-09
 -1       389-4.36085E+05-1.10512E+05-6.24133E+04-1.92367E+05 3.55203E-09-1.41881E-10
 -1       390-4.13296E+05-6.57439E+04-1.07745E+05-1.77085E+05 2.44199E-09 5.22414E-09
 -1       406 1.67341E+04 1.51824E+06 5.31567E+04 5.11581E+04-6.29370E-10 5.01132E-09
 -1       407 6.40901E+03 1.52954E+06 3.50945E+04 6.50329E+04-9.82254E-10-3.37423E-09
 -1       408 8.55505E+02 1.52243E+06 3.06971E+04 5.13630E+04-2.45700E-09 1.06593E-09
 -1       409 1.05292E+04 1.53314E+06 4.88925E+04 6.44204E+04-2.27692E-09-2.15368E-09
 -1       410 2.82082E+04 1.51513E+06 8.56212E+04 5.18443E+04-2.19006E-09-9.82254E-10
 -1       466 9.95343E+05-3.64450E+03 9.47251E+04-4.69790E+04 2.21917E-10-3.92902E-10
 -1       467 1.02400E+06 1.81550E+04 5.57764E+04-8.86031E+04 3.95630E-10 4.80213E-10
 -1       468 1.00760E+06-6.13119E+02 2.40218E+04-4.67739E+04-2.74667E-10 7.96717E-10
 -1       469 1.01002E+06 1.02892E+03 1.27265E+04-8.86721E+04 3.13776E-10-7.72161E-10
 -1       470 1.00844E+06-1.07859E+02 6.11826E+03-4.68846E+04-1.27329E-11-1.01272E-09
 -1       471 1.00864E+06 1.27049E+02 3.33305E+03-8.85073E+04 1.51431E-10 2.38151E-09
 -1       472 1.00848E+06 2.31876E+01 1.99457E+03-4.69400E+04 1.19371E-10-1.21645E-09
 -1       473 1.00846E+06 1.06404E+02 1.77757E+03-8.84630E+04 8.16840E-11-7.53516E-10
 -1       474 1.00848E+06 4.95828E+00 2.35815E+03-4.69291E+04-1.16415E-10-1.30740E-09
 -1       475 1.00875E+06 1.14404E+02 4.27384E+03-8.85534E+04 4.64297E-10 6.03450E-10
 -1       476 1.00844E+06-1.75870E+02 8.03902E+03-4.68491E+04 2.56478E-10 2.57171E-09
 -1       477 1.01057E+06 1.32053E+03 1.68413E+04-8.87582E+04-3.28328E-10 1.15028E-09
 -1       478 1.00730E+06-8.24289E+02 3.18452E+04-4.67224E+04-2.14641E-10 9.70431E-10
 -1       479 1.02903E+06 2.40743E+04 7.39701E+04-8.86913E+04-2.22190E-09-1.47338E-10
 -1       480 9.90990E+05-4.79216E+03 1.25666E+05-4.69570E+04-7.49424E-10-1.66619E-09
 -1       481-8.00094E+02 3.07749E+05 2.92572E+04-5.77907E+04 1.01863E-10 1.32377E-09
 -1       482 6.12875E+03 3.16330E+05 1.82360E+04-1.08642E+05-1.58138E-10 5.23661E-09
 -1       483 2.26347E+01 3.11416E+05 9.89260E+03-5.76800E+04 2.98996E-11 2.36969E-09
 -1       484 2.79974E+03 3.13891E+05 9.98327E+03-1.08567E+05 2.72848E-10-1.23373E-09
 -1       485-3.00350E+02 3.10423E+05 1.21835E+04-5.78708E+04 2.66709E-10-2.14368E-09
 -1       486-9.35174E+05-1.41810E+05-9.94377E+04-3.75421E+05 8.23093E-11 4.51109E-10
 -1       487-9.53605E+05-1.85634E+05-5.75926E+04-3.92374E+05-4.58840E-10 2.23736E-10
 -1       488-9.48909E+05-1.49151E+05-2.30967E+04-3.77724E+05 5.72982E-11 5.05679E-10
 -1       489-9.37139E+05-1.65834E+05-1.18368E+04-3.94520E+05-6.50289E-11 1.49907E-09
 -1       490-9.50184E+05-1.49716E+05-5.31780E+03-3.77862E+05-3.39242E-10 4.73392E-10
 -1       491-9.35738E+05-1.64583E+05-2.70019E+03-3.94727E+05 3.37423E-10 7.28846E-10
 -1       492-9.50390E+05-1.49723E+05-1.42084E+03-3.77848E+05 4.16549E-10 8.48786E-10
 -1       493-9.35586E+05-1.64548E+05-1.06896E+03-3.94816E+05 3.37764E-10 7.18046E-10
 -1       494-9.50424E+05-1.49697E+05-1.27366E+03-3.77836E+05-1.20599E-09-3.15367E-09
 -1       495-9.35690E+05-1.64625E+05-2.31614E+03-3.94842E+05-3.65503E-11 1.57479E-09
 -1       496-9.50297E+05-1.49644E+05-4.49615E+03-3.77827E+05-1.11186E-10 5.65706E-10
 -1       497-9.36858E+05-1.65721E+05-9.99747E+03-3.94753E+05 1.01932E-09 4.47790E-09
 -1       498-9.49262E+05-1.49132E+05-1.94825E+04-3.77695E+05 1.01863E-10-9.78616E-10
 -1       499-9.50723E+05-1.82482E+05-4.86036E+04-3.93029E+05 3.73575E-10-1.17871E-09
 -1       500-9.37710E+05-1.42896E+05-8.39031E+04-3.75725E+05-1.78261E-10 7.27596E-10
 -1       501 4.87623E+05-3.30128E+03 7.71162E+04-5.44766E+04 1.89175E-09-1.16779E-09
 -1       502 5.11217E+05 1.46104E+04 4.54618E+04-1.02199E+05 4.05635E-10-2.46291E-09
 -1       503 4.97429E+05-6.52481E+02 1.95260E+04-5.40972E+04-1.85537E-10-9.09495E-12
 -1       504 4.99474E+05 7.91389E+02 1.03657E+04-1.02486E+05-4.65661E-10 8.77662E-10
 -1       505 4.97970E+05-1.19143E+02 4.95785E+03-5.41656E+04 1.54614E-10 7.87622E-10
 -1       506 4.98113E+05 1.70239E+02 2.70330E+03-1.02371E+05 5.43423E-10 3.33193E-09
 -1       507 4.97910E+05 6.51389E+01 1.59423E+03-5.42129E+04 1.34969E-09 7.19865E-10
 -1       508 4.97841E+05 2.18067E+02 1.39431E+03-1.02316E+05 9.36780E-10-3.29555E-09
 -1       509 4.97878E+05 8.53041E+01 1.81195E+03-5.42207E+04 4.54747E-10 3.74712E-10
 -1       510 4.98039E+05 2.34879E+02 3.25091E+03-1.02339E+05 2.18824E-09 1.00044E-10
 -1       511 4.97860E+05-6.60306E+01 6.09225E+03-5.41901E+04 7.83984E-10 2.21689E-10
 -1       512 4.99506E+05 1.10491E+03 1.27554E+04-1.02422E+05 1.76078E-09 3.29180E-09
 -1       513 4.97071E+05-6.19569E+02 2.40965E+04-5.41364E+04 3.25599E-10 1.33514E-09
 -1       514 5.13693E+05 1.82522E+04 5.60140E+04-1.02149E+05-1.38789E-09-3.64435E-09
 -1       515 4.84850E+05-3.74667E+03 9.51067E+04-5.44860E+04-4.22006E-10-5.38421E-10
 -1       516-1.06354E+03 1.82006E+05 4.96074E+04-1.39791E+05 2.57933E-09-1.06957E-09
 -1       517 1.11346E+04 1.96242E+05 3.24414E+04-2.63637E+05 3.43562E-09 2.95768E-09
 -1       518 2.72411E+02 1.87949E+05 2.03723E+04-1.39525E+05 2.41562E-09 1.27238E-09
 -1       519 8.11881E+03 1.94947E+05 2.57167E+04-2.63412E+05 3.21052E-09-4.31100E-10
 -1       520-1.23833E+03 1.84830E+05 3.55481E+04-1.40032E+05 1.77079E-09-2.35377E-09
 -1       521-1.71993E+06-2.62756E+05-1.52664E+05-6.89479E+05-3.36058E-10-1.51340E-09
 -1       522-1.74386E+06-3.34175E+05-8.83930E+04-7.20270E+05 3.93811E-10 1.50430E-09
 -1       523-1.74127E+06-2.73780E+05-3.54603E+04-6.92862E+05 3.23780E-10 9.31323E-10
 -1       524-1.71848E+06-3.04008E+05-1.81575E+04-7.24033E+05-1.62981E-09-3.20142E-09
 -1       525-1.74340E+06-2.74475E+05-8.16213E+03-6.92997E+05-1.62800E-10-1.86174E-09
 -1       526-1.71627E+06-3.02204E+05-4.13838E+03-7.24614E+05-7.02130E-10-9.07448E-10
 -1       527-1.74381E+06-2.74405E+05-2.18085E+03-6.92942E+05-1.36242E-09 1.16870E-10
 -1       528-1.71603E+06-3.02184E+05-1.64642E+03-7.24832E+05-1.21327E-09 1.15188E-09
 -1       529-1.74385E+06-2.74367E+05-1.97628E+03-6.92925E+05 3.62093E-10-2.63753E-10
 -1       530-1.71621E+06-3.02260E+05-3.60624E+03-7.24773E+05 3.38082E-09 2.44745E-09
 -1       531-1.74356E+06-2.74377E+05-7.02331E+03-6.92950E+05 3.82897E-10 3.31056E-10
 -1       532-1.71809E+06-3.03848E+05-1.56069E+04-7.24355E+05-1.81899E-10-1.92813E-10
 -1       533-1.74175E+06-2.73754E+05-3.04476E+04-6.92822E+05 1.90994E-10-9.13133E-10
 -1       534-1.73990E+06-3.29772E+05-7.59243E+04-7.21145E+05-5.73891E-10 1.25692E-09
 -1       535-1.72341E+06-2.64298E+05-1.31118E+05-6.89929E+05-1.00954E-10-1.56433E-09
 -1       536 8.41494E+05-4.69524E+03 1.29576E+05-3.47935E+04 1.40062E-10-2.13913E-09
 -1       537 8.80562E+05 2.49878E+04 7.62297E+04-6.55506E+04-1.49885E-09-4.18731E-09
 -1       538 8.58434E+05-7.33015E+02 3.28430E+04-3.45945E+04-2.36469E-11-1.33878E-09
 -1       539 8.61794E+05 1.42497E+03 1.73482E+04-6.56395E+04 3.18323E-11 1.27329E-09
 -1       540 8.59707E+05-1.49692E+02 8.28168E+03-3.46735E+04 3.21961E-10 1.35515E-10
 -1       541 8.60069E+05 1.06906E+02 4.37877E+03-6.55097E+04-1.36424E-11-7.33053E-10
 -1       542 8.59809E+05-7.34038E+00 2.38594E+03-3.47257E+04-3.90628E-10-3.43789E-10
 -1       543 8.59822E+05 6.98983E+01 1.74112E+03-6.54494E+04-6.67569E-10-1.61504E-09
 -1       544 8.59809E+05 8.50167E+00 1.88362E+03-3.47342E+04 4.85215E-10 1.82513E-09
 -1       545 8.59949E+05 1.02636E+02 3.08366E+03-6.54739E+04-7.33735E-10 1.16984E-09
 -1       546 8.59744E+05-8.40151E+01 5.63252E+03-3.47011E+04 2.45564E-11 9.15634E-10
 -1       547 8.61119E+05 9.79912E+02 1.16850E+04-6.55728E+04 3.97449E-10 7.09122E-10
 -1       548 8.58907E+05-4.89510E+02 2.20672E+04-3.46344E+04-1.38243E-10 1.05410E-09
 -1       549 8.73772E+05 1.67777E+04 5.11926E+04-6.54874E+04 8.18545E-12 2.16914E-09
 -1       550 8.47560E+05-3.18257E+03 8.69821E+04-3.48027E+04-1.17507E-09-9.42237E-10
 -1       551 1.44567E+04-1.33243E+05 3.99175E+04-4.16751E+05-3.02316E-09 7.60338E-10
 -1       552 7.59949E+03-1.25912E+05 2.47626E+04-5.21077E+05-8.98581E-10 3.93993E-09
 -1       553 2.76211E+03-1.31007E+05 1.88739E+04-4.15981E+05-3.97995E-09-2.55795E-10
 -1       554 8.23761E+03-1.25364E+05 2.68862E+04-5.21065E+05-1.14960E-09 6.44832E-10
 -1       555 1.62283E+04-1.33732E+05 4.49140E+04-4.16760E+05-3.43971E-09-1.00772E-09
 -1       556-1.00704E+06-2.38674E+05-6.97776E+04-4.73751E+05 2.27374E-10-1.46974E-09
 -1       557-1.00093E+06-2.48788E+05-3.53845E+04-5.04853E+05 9.18590E-10 2.97496E-09
 -1       558-1.01168E+06-2.20633E+05-1.50365E+04-4.82767E+05-4.69299E-10 5.40240E-10
 -1       559-9.92846E+05-2.40380E+05-7.38244E+03-5.06069E+05-8.36735E-11-1.77852E-09
 -1       560-1.01237E+06-2.20012E+05-3.42579E+03-4.83216E+05-6.18456E-10-1.90312E-10
 -1       561-9.92490E+05-2.40036E+05-1.74252E+03-5.06221E+05 8.03993E-10-3.01043E-10
 -1       562-1.01258E+06-2.19975E+05-9.80056E+02-4.83289E+05 1.63709E-10 3.77895E-10
 -1       563-9.92513E+05-2.40011E+05-8.36832E+02-5.06278E+05-9.65883E-10-9.00400E-11
 -1       564-1.01258E+06-2.19964E+05-1.14312E+03-4.83294E+05 7.30324E-10 6.89397E-10
 -1       565-9.92529E+05-2.40027E+05-2.17594E+03-5.06246E+05-9.71340E-10-1.01500E-09
 -1       566-1.01237E+06-2.19975E+05-4.35082E+03-4.83230E+05 2.14641E-10-1.31331E-09
 -1       567-9.93052E+05-2.40455E+05-9.42628E+03-5.06139E+05 6.54836E-11 1.25328E-09
 -1       568-1.01158E+06-2.20692E+05-1.92015E+04-4.82688E+05-6.05723E-10-2.18643E-09
 -1       569-1.00338E+06-2.51330E+05-4.52383E+04-5.04863E+05 1.48430E-09-6.18456E-10
 -1       570-1.00590E+06-2.43544E+05-8.91633E+04-4.71070E+05 1.16779E-09 1.28057E-09
 -1       571 8.02204E+05 2.97385E+04 8.79466E+04-1.05257E+05 1.20053E-09-7.91260E-10
 -1       572 8.20622E+05 1.09731E+04 4.57696E+04-1.30904E+05 1.56433E-10-1.00044E-11
 -1       573 8.10089E+05 5.50141E+02 2.05955E+04-1.04723E+05 7.09406E-11 1.92813E-09
 -1       574 8.11469E+05 2.04621E+02 1.05357E+04-1.31403E+05-3.57431E-10 5.09317E-10
 -1       575 8.10491E+05-1.70554E+02 5.09126E+03-1.04702E+05-9.00400E-11-2.07365E-09
 -1       576 8.10607E+05-3.25910E+01 2.61422E+03-1.31424E+05 1.06411E-10 2.81943E-11
 -1       577 8.10506E+05-3.61286E+01 1.31187E+03-1.04704E+05 2.03443E-10 2.04636E-09
 -1       578 8.10510E+05-5.34486E+00 7.34168E+02-1.31428E+05 2.72848E-11 4.39377E-09
 -1       579 8.10592E+05-5.16034E+01 4.78643E+02-1.04698E+05 2.76486E-10 5.02041E-10
 -1       580 8.10676E+05-9.49528E+01 4.95282E+02-1.31447E+05 6.11180E-10 3.15413E-09
 -1       581 8.10795E+05-1.94562E+02 7.14067E+02-1.04684E+05-6.11180E-10-5.27507E-10
 -1       582 8.11112E+05-2.44661E+02 1.38289E+03-1.31436E+05-1.71894E-09-9.60426E-10
 -1       583 8.11067E+05-3.15925E+02 2.61462E+03-1.04708E+05-9.31323E-10-1.96860E-09
 -1       584 8.12776E+05 8.87345E+02 5.85259E+03-1.30810E+05-5.55883E-09 7.80346E-10
 -1       585 8.10466E+05 3.17052E+03 1.11689E+04-1.05319E+05 1.66619E-09 7.63976E-10
 -1       586 6.43737E+03 9.85333E+04 1.75064E+04-4.05161E+05 1.21508E-09-1.09503E-09
 -1       587 4.32619E+03 1.01142E+05 1.29104E+04-5.06264E+05-1.84446E-09-2.30193E-09
 -1       588 2.29478E+03 9.84976E+04 1.31434E+04-4.04330E+05 1.83718E-09-1.98361E-09
 -1       589 7.60791E+03 1.03301E+05 2.30627E+04-5.06410E+05-1.78261E-09-8.42192E-10
 -1       590 1.53360E+04 9.55147E+04 4.14385E+04-4.04995E+05 2.01908E-09 2.56478E-10
 -1       591-6.63730E+05-1.67510E+05-7.28042E+04-3.13559E+05-8.04221E-10-2.47383E-10
 -1       592-6.63772E+05-1.71833E+05-3.69508E+04-3.38751E+05 1.53887E-09 2.32603E-09
 -1       593-6.68126E+05-1.49009E+05-1.56764E+04-3.23072E+05-4.49290E-10 1.90903E-09
 -1       594-6.55286E+05-1.62895E+05-7.71080E+03-3.39534E+05-1.20053E-09-3.40350E-10
 -1       595-6.68634E+05-1.48511E+05-3.57218E+03-3.23458E+05-2.61025E-10 1.47429E-09
 -1       596-6.54767E+05-1.62571E+05-1.82816E+03-3.39509E+05-8.86757E-12-1.57797E-09
 -1       597-6.68722E+05-1.48555E+05-1.03584E+03-3.23469E+05-3.51065E-10 3.00315E-09
 -1       598-6.54705E+05-1.62574E+05-9.02121E+02-3.39479E+05-4.03452E-09-3.31329E-09
 -1       599-6.68673E+05-1.48574E+05-1.24555E+03-3.23448E+05-3.07955E-09-4.18004E-09
 -1       600-6.54713E+05-1.62598E+05-2.37604E+03-3.39438E+05 5.33055E-09 1.27693E-08
 -1       601-6.68470E+05-1.48560E+05-4.74377E+03-3.23391E+05-2.45564E-10 5.38421E-10
 -1       602-6.55347E+05-1.63050E+05-1.02789E+04-3.39406E+05-7.26686E-10-1.06375E-08
 -1       603-6.67740E+05-1.49263E+05-2.09207E+04-3.22852E+05 5.40240E-10-2.46109E-09
 -1       604-6.66632E+05-1.74970E+05-4.92944E+04-3.38307E+05-2.99224E-10-3.68709E-09
 -1       605-6.61847E+05-1.73926E+05-9.71218E+04-3.10132E+05 1.70985E-09 1.27329E-09
 -1       606 2.57703E+05-1.54641E+04-4.52970E+04 5.32428E+04-1.46210E-08-3.00133E-10
 -1       607 2.48106E+05-5.64358E+03-2.35532E+04 6.55399E+04-4.06908E-09-3.22871E-09
 -1       608 2.53317E+05-2.65355E+02-1.06237E+04 5.27813E+04 1.04046E-08-4.05817E-09
 -1       609 2.52415E+05 9.79327E+01-5.41385E+03 6.59977E+04-5.84259E-09 2.66300E-09
 -1       610 2.52855E+05 2.76093E+02-2.61622E+03 5.27524E+04-1.86774E-08-1.39062E-09
 -1       611 2.52603E+05 3.62286E+02-1.30553E+03 6.60194E+04-3.23489E-08-1.48339E-09
 -1       612 2.52695E+05 3.06620E+02-6.05020E+02 5.27556E+04-1.38025E-08-1.39653E-09
 -1       613 2.52536E+05 4.14446E+02-2.20535E+02 6.60123E+04-2.18060E-08 1.38789E-09
 -1       614 2.52602E+05 3.36445E+02 5.33448E+01 5.27580E+04-7.46695E-09-9.15861E-10
 -1       615 2.52484E+05 4.48115E+02 3.65490E+02 6.60057E+04 1.93104E-08 4.47835E-09
 -1       616 2.52538E+05 3.47766E+02 8.38273E+02 5.27612E+04-1.15920E-08 1.50658E-09
 -1       617 2.52568E+05 5.25138E+02 1.80157E+03 6.59926E+04-4.39047E-09 3.10501E-09
 -1       618 2.52419E+05 5.03839E+02 3.55486E+03 5.27698E+04-4.78337E-10 4.69527E-09
 -1       619 2.54098E+05 2.41570E+03 7.91323E+03 6.58681E+04 4.50507E-09-2.36560E-09
 -1       620 2.51020E+05 5.57197E+03 1.52138E+04 5.28613E+04 9.02901E-09-3.83216E-09
 -1       621 1.02170E+04 9.78203E+05 3.21142E+04-1.27977E+05-2.22644E-09 2.19006E-09
 -1       622 4.61057E+03 9.84761E+05 2.38321E+04-1.59487E+05-2.47110E-09-1.84650E-09
 -1       623 1.44243E+03 9.80222E+05 2.49940E+04-1.27765E+05-1.73895E-09 5.84976E-10
 -1       624 1.09419E+04 9.89862E+05 4.45176E+04-1.59485E+05-1.85537E-09-4.51109E-10
 -1       625 2.77043E+04 9.73080E+05 8.08121E+04-1.27937E+05-9.82254E-10-1.17325E-09
 -1       626 4.42339E+05 1.06121E+05-1.42100E+04 2.30947E+05-9.10768E-09 6.09543E-09
 -1       627 4.28440E+05 1.19174E+05-7.19695E+03 2.41723E+05-3.99996E-09-2.83592E-09
 -1       628 4.41693E+05 1.09424E+05-3.06950E+03 2.28582E+05 1.06738E-08 3.93766E-09
 -1       629 4.29528E+05 1.21366E+05-1.48816E+03 2.41890E+05-1.29139E-08-1.94291E-09
 -1       630 4.41491E+05 1.09577E+05-6.70004E+02 2.28406E+05-3.70710E-09-2.54204E-09
 -1       631 4.29483E+05 1.21494E+05-2.75961E+02 2.41818E+05-1.43082E-08 1.29441E-09
 -1       632 4.41376E+05 1.09622E+05-3.48992E+01 2.28349E+05-2.14877E-08-6.13682E-10
 -1       633 4.29426E+05 1.21522E+05 1.91093E+02 2.41758E+05 1.25251E-08-4.90604E-09
 -1       634 4.41308E+05 1.09634E+05 5.10072E+02 2.28322E+05 1.05101E-08 2.17187E-09
 -1       635 4.29446E+05 1.21530E+05 1.15589E+03 2.41753E+05 8.64861E-09 1.65846E-09
 -1       636 4.41253E+05 1.09592E+05 2.39215E+03 2.28320E+05 9.43407E-09 4.96311E-09
 -1       637 4.29864E+05 1.21730E+05 5.23776E+03 2.41827E+05 1.67256E-09 6.07361E-09
 -1       638 4.41007E+05 1.09863E+05 1.06607E+04 2.28109E+05-6.98265E-09 1.76169E-09
 -1       639 4.35812E+05 1.27743E+05 2.51527E+04 2.41416E+05-1.10845E-08 5.32600E-09
 -1       640 4.38191E+05 1.22364E+05 4.95418E+04 2.21715E+05 1.02636E-08 4.01451E-09
 -1       641 1.15025E+04 3.27153E+02-8.79693E+03 3.56260E+03-2.10073E-08-3.40697E-09
 -1       642 8.83306E+03-1.66345E+03-5.17218E+03 6.66707E+03-1.01070E-08 4.36239E-09
 -1       643 1.03409E+04 6.60763E+01-2.22556E+03 3.54364E+03-1.49595E-08-7.24867E-10
 -1       644 1.00873E+04-5.35112E+01-1.16595E+03 6.68240E+03-4.60843E-09-3.21299E-09
 -1       645 1.02464E+04 3.30249E+01-5.40630E+02 3.54269E+03 1.11289E-09-3.44534E-09
 -1       646 1.01943E+04 4.18809E+01-2.52087E+02 6.68325E+03-5.08842E-09 2.22147E-09
 -1       647 1.02345E+04 2.57737E+01-7.38946E+01 3.54257E+03 1.32943E-08-1.75646E-09
 -1       648 1.02141E+04 4.65024E+01 6.18172E+01 6.68360E+03 3.88950E-08 2.70217E-09
 -1       649 1.02293E+04 2.08262E+01 2.25427E+02 3.54235E+03 1.77994E-08-4.13269E-09
 -1       650 1.02446E+04 5.49265E+01 5.17486E+02 6.68361E+03 1.96578E-08-4.01917E-09
 -1       651 1.02088E+04 7.46036E+00 1.03613E+03 3.54259E+03-1.21213E-09-2.11003E-09
 -1       652 1.04469E+04 2.32565E+02 2.19980E+03 6.68197E+03 1.08398E-08-1.13312E-09
 -1       653 1.00341E+04-5.63510E+01 4.18246E+03 3.54364E+03 9.20795E-09 1.25738E-10
 -1       654 1.28080E+04 3.25163E+03 9.71228E+03 6.63783E+03-9.50422E-09 2.66573E-09
 -1       655 7.85726E+03-5.48953E+02 1.65148E+04 3.57904E+03 1.39935E-08-1.25783E-09
 -1       656 1.05919E+03-3.78354E+05-4.83216E+04 7.24370E+04-4.70391E-09-3.58341E-09
 -1       657-1.02554E+04-3.92550E+05-3.21877E+04 1.35502E+05-1.48850E-08 3.29601E-09
 -1       658 1.18019E+01-3.84249E+05-2.14971E+04 7.21539E+04-1.44382E-09 1.71212E-09
 -1       659-8.94766E+03-3.91797E+05-2.91143E+04 1.35664E+05-1.05138E-08-1.17615E-09
 -1       660 1.00358E+03-3.79497E+05-4.19336E+04 7.22839E+04-1.72258E-09 5.83441E-10
 -1       661 3.19004E+05 4.65657E+04 2.40271E+04 1.24567E+05 1.48520E-08-2.06728E-09
 -1       662 3.24772E+05 5.58578E+04 1.39190E+04 1.27163E+05 1.56894E-08-4.20368E-09
 -1       663 3.22254E+05 4.84018E+04 5.58292E+03 1.25181E+05 1.24442E-08-5.99130E-10
 -1       664 3.20839E+05 5.10157E+04 2.87019E+03 1.27579E+05-1.26484E-08 5.34601E-09
 -1       665 3.22532E+05 4.85670E+04 1.29837E+03 1.25229E+05-3.29521E-09-6.39045E-09
 -1       666 3.20510E+05 5.06930E+04 6.84345E+02 1.27583E+05 2.87491E-09 3.85944E-09
 -1       667 3.22565E+05 4.85835E+04 4.05308E+02 1.25231E+05 1.45681E-08 1.89948E-09
 -1       668 3.20480E+05 5.06795E+04 3.92712E+02 1.27589E+05 2.53174E-08 9.23137E-10
 -1       669 3.22565E+05 4.85757E+04 5.80887E+02 1.25227E+05 6.31201E-09 2.71507E-09
 -1       670 3.20534E+05 5.07259E+04 1.15389E+03 1.27610E+05 3.28124E-08 3.99933E-09
 -1       671 3.22516E+05 4.85328E+04 2.28843E+03 1.25213E+05 4.68140E-09 4.24734E-10
 -1       672 3.21113E+05 5.13185E+04 5.11664E+03 1.27625E+05 9.36689E-09 5.84805E-10
 -1       673 3.22028E+05 4.82274E+04 9.97479E+03 1.25121E+05-4.21471E-09 6.33463E-10
 -1       674 3.28159E+05 5.99707E+04 2.48874E+04 1.26878E+05 2.64444E-09 2.89856E-09
 -1       675 3.16202E+05 4.49576E+04 4.29651E+04 1.24042E+05 9.58698E-09-8.54925E-11
 -1       676 5.51134E+02-3.40132E+05-1.80417E+04 8.16543E+03 3.57795E-08 1.13891E-09
 -1       677-3.64575E+03-3.45504E+05-1.27543E+04 1.44219E+04 5.13718E-08-3.23814E-09
 -1       678 1.34782E+02-3.42136E+05-9.79061E+03 8.12392E+03 3.10836E-08 5.01450E-09
 -1       679-4.60290E+03-3.46259E+05-1.51703E+04 1.44705E+04 2.98721E-08-4.76803E-09
 -1       680 7.33799E+02-3.39389E+05-2.30299E+04 8.11513E+03 2.79651E-08-1.42597E-09
 -1       681 4.55779E+05-9.98257E+02 2.47794E+04-2.40423E+04-1.47338E-10-1.24965E-09
 -1       682 4.63297E+05 4.71356E+03 1.46004E+04-4.52224E+04 1.09139E-10-1.38880E-09
 -1       683 4.58975E+05-1.89903E+02 6.28565E+03-2.38817E+04 1.08230E-10-8.77662E-10
 -1       684 4.59612E+05 2.39081E+02 3.34190E+03-4.53503E+04-1.14596E-10 1.27557E-10
 -1       685 4.59182E+05-4.75059E+01 1.62239E+03-2.39099E+04 8.45830E-11 3.75621E-10
 -1       686 4.59228E+05 1.44885E+01 9.23511E+02-4.53032E+04 8.73115E-11 1.45064E-10
 -1       687 4.59178E+05-4.21139E+00 6.23141E+02-2.39291E+04 8.18545E-12-1.19599E-10
 -1       688 4.59167E+05 2.10333E+01 6.74998E+02-4.52790E+04-2.16005E-10-1.29830E-10
 -1       689 4.59163E+05-3.45413E+00 1.03124E+03-2.39341E+04-1.07320E-10-3.93243E-10
 -1       690 4.59262E+05 4.96595E+01 1.96883E+03-4.52854E+04 1.59162E-11 8.82324E-10
 -1       691 4.59105E+05-5.97236E+01 3.76790E+03-2.39226E+04 1.05956E-10-5.53115E-10
 -1       692 4.60030E+05 6.61962E+02 7.91111E+03-4.53143E+04 3.63798E-12 2.04921E-11
 -1       693 4.58514E+05-3.18082E+02 1.49913E+04-2.39048E+04-2.15550E-10-9.66793E-10
 -1       694 4.68581E+05 1.14305E+04 3.47977E+04-4.51931E+04-5.49335E-10-4.00178E-11
 -1       695 4.50772E+05-2.12743E+03 5.91455E+04-2.40522E+04-5.53882E-10-1.35697E-09
 -1       696-9.84049E+02 5.33113E+05 3.17704E+04-4.92730E+04 1.89175E-10-1.45201E-09
 -1       697 6.43083E+03 5.42480E+05 1.76347E+04-9.23072E+04 2.85240E-10-7.41920E-10
 -1       698 4.35729E+01 5.37459E+05 5.46977E+03-4.91643E+04-1.86674E-10 2.06580E-09
 -1       699-1.39110E+03 5.36414E+05-2.03568E+03-9.22911E+04-1.20281E-10 1.95791E-09
 -1       700 4.19052E+02 5.39252E+05-8.86936E+03-4.92960E+04-1.35515E-10 1.64164E-09
 -1       701-4.27956E+05-6.59746E+04-6.32883E+04-1.75242E+05 1.69393E-10 9.09495E-11
 -1       702-4.40185E+05-9.34039E+04-3.66579E+04-1.85522E+05 4.18368E-11 1.01772E-09
 -1       703-4.36659E+05-7.06812E+04-1.47021E+04-1.76735E+05-1.59162E-11 1.32241E-09
 -1       704-4.29736E+05-8.07595E+04-7.53876E+03-1.86804E+05-4.54747E-12-5.82077E-10
 -1       705-4.37435E+05-7.10744E+04-3.38951E+03-1.76844E+05-1.79170E-10 4.43379E-10
 -1       706-4.28866E+05-7.99325E+04-1.72836E+03-1.86880E+05-7.48059E-11 4.48438E-10
 -1       707-4.37547E+05-7.10980E+04-9.22098E+02-1.76846E+05 1.95541E-11-1.11811E-10
 -1       708-4.28781E+05-7.98955E+04-7.16785E+02-1.86913E+05 2.76145E-10 1.83695E-10
 -1       709-4.37564E+05-7.10842E+04-8.84069E+02-1.76842E+05 1.54614E-11 4.74643E-10
 -1       710-4.28857E+05-7.99525E+04-1.63194E+03-1.86939E+05 1.35458E-10 4.00064E-10
 -1       711-4.37487E+05-7.10335E+04-3.17958E+03-1.76830E+05-6.72600E-11-2.61480E-11
 -1       712-4.29671E+05-8.07520E+04-7.07734E+03-1.86924E+05-9.07221E-11-2.50111E-10
 -1       713-4.36787E+05-7.06381E+04-1.37892E+04-1.76719E+05-6.25846E-11 1.21872E-10
 -1       714-4.39440E+05-9.26769E+04-3.44031E+04-1.85813E+05 1.50074E-10-4.11092E-10
 -1       715-4.28674E+05-6.61632E+04-5.93813E+04-1.75275E+05 4.54293E-10 8.00355E-11
 -1       716 3.85357E+05-2.02763E+03 5.27778E+04-3.82676E+04 3.34694E-10-5.63887E-10
 -1       717 4.01317E+05 1.01727E+04 3.10847E+04-7.17055E+04 1.20053E-10-2.02272E-09
 -1       718 3.92167E+05-3.14715E+02 1.33865E+04-3.80248E+04-1.70985E-10 6.65750E-10
 -1       719 3.93496E+05 6.35869E+02 7.10016E+03-7.19149E+04 5.50244E-11 6.65750E-10
 -1       720 3.92623E+05-2.52666E+01 3.42811E+03-3.80502E+04 5.36602E-10-3.50610E-10
 -1       721 3.92717E+05 1.36791E+02 1.89693E+03-7.18751E+04 7.23276E-10 9.01309E-10
 -1       722 3.92643E+05 4.64030E+01 1.19013E+03-3.80650E+04 8.83119E-10 5.70708E-10
 -1       723 3.92638E+05 1.19843E+02 1.15114E+03-7.18666E+04 1.09912E-09 9.37689E-10
 -1       724 3.92654E+05 2.38088E+01 1.62802E+03-3.80588E+04 2.68756E-10-4.25189E-11
 -1       725 3.92863E+05 1.20167E+02 3.03052E+03-7.19010E+04 4.46107E-10 1.76442E-10
 -1       726 3.92622E+05-1.08968E+02 5.74251E+03-3.80304E+04 2.41926E-10-3.68630E-10
 -1       727 3.94169E+05 9.85582E+02 1.20601E+04-7.19651E+04 9.14042E-10 8.38838E-10
 -1       728 3.91804E+05-5.72048E+02 2.28167E+04-3.79935E+04-2.03727E-10-8.54925E-10
 -1       729 4.07393E+05 1.73120E+04 5.30233E+04-7.17274E+04-9.74978E-10 2.61480E-10
 -1       730 3.80112E+05-3.42130E+03 9.00786E+04-3.82895E+04-4.11092E-10-2.56114E-09
 -1       731-1.02457E+03 1.91583E+05 3.43906E+04-8.96887E+04 1.08776E-09-1.01045E-09
 -1       732 7.15814E+03 2.01669E+05 2.06015E+04-1.69099E+05 1.72940E-09-4.01656E-10
 -1       733 4.90077E+01 1.95982E+05 9.55760E+03-8.94858E+04 1.24919E-09 1.71985E-09
 -1       734 1.54244E+03 1.97539E+05 6.66757E+03-1.69017E+05 1.70166E-09 1.49612E-09
 -1       735-1.70023E+02 1.96085E+05 5.56604E+03-8.97748E+04 7.34872E-10 1.02955E-09
 -1       736-9.37830E+05-1.37587E+05-8.34247E+04-3.68633E+05-1.46429E-10-3.92902E-10
 -1       737-9.55571E+05-1.72133E+05-4.83251E+04-3.80312E+05-7.30324E-10-7.45786E-10
 -1       738-9.49292E+05-1.43804E+05-1.93698E+04-3.70587E+05 2.81489E-10 5.36602E-10
 -1       739-9.41763E+05-1.55478E+05-9.93147E+03-3.82017E+05-8.82210E-11 5.38421E-10
 -1       740-9.50328E+05-1.44308E+05-4.45433E+03-3.70705E+05 1.88265E-10-2.98996E-10
 -1       741-9.40574E+05-1.54415E+05-2.25904E+03-3.82141E+05-2.32831E-10-1.12550E-11
 -1       742-9.50482E+05-1.44336E+05-1.17690E+03-3.70695E+05 3.13548E-10-5.17616E-10
 -1       743-9.40440E+05-1.54377E+05-8.65846E+02-3.82187E+05 3.12866E-10 3.83352E-10
 -1       744-9.50501E+05-1.44323E+05-1.00409E+03-3.70686E+05 3.41402E-10 5.97879E-10
 -1       745-9.40519E+05-1.54435E+05-1.80231E+03-3.82202E+05 1.76675E-09 2.41607E-09
 -1       746-9.50406E+05-1.44280E+05-3.48513E+03-3.70680E+05 4.87375E-10 1.05365E-09
 -1       747-9.41430E+05-1.55285E+05-7.74303E+03-3.82145E+05-1.81899E-12 4.59295E-10
 -1       748-9.49614E+05-1.43872E+05-1.50823E+04-3.70579E+05-3.02180E-10-4.22006E-10
 -1       749-9.52171E+05-1.68273E+05-3.76316E+04-3.80845E+05 2.69324E-10 2.44654E-10
 -1       750-9.40698E+05-1.39023E+05-6.49584E+04-3.69052E+05-2.51475E-10 3.34694E-10
 -1       751 1.10318E+06-5.72383E+03 1.59734E+05-3.75237E+04-1.49157E-10-1.45519E-11
 -1       752 1.15129E+06 3.08292E+04 9.39595E+04-7.08131E+04-1.57888E-09-1.91903E-09
 -1       753 1.12409E+06-8.73341E+02 4.04999E+04-3.73495E+04-4.62023E-10-1.36970E-09
 -1       754 1.12821E+06 1.77665E+03 2.14001E+04-7.08413E+04 1.83718E-10-1.80535E-10
 -1       755 1.12567E+06-1.71065E+02 1.02417E+04-3.74570E+04 4.50200E-10 1.25601E-09
 -1       756 1.12612E+06 1.36288E+02 5.45517E+03-7.06722E+04-4.72937E-10 3.04499E-09
 -1       757 1.12581E+06-9.22163E+00 3.05420E+03-3.75204E+04-3.49246E-10 1.53159E-09
 -1       758 1.12585E+06 7.84607E+01 2.37371E+03-7.06073E+04-3.80041E-10-8.50378E-11
 -1       759 1.12582E+06-3.47974E+00 2.76836E+03-3.75224E+04 1.96223E-10-2.76032E-10
 -1       760 1.12606E+06 1.26275E+02 4.71991E+03-7.06620E+04-9.46784E-10 1.70900E-09
 -1       761 1.12571E+06-1.43579E+02 8.73605E+03-3.74654E+04 2.68301E-10 9.19499E-10
 -1       762 1.12785E+06 1.50903E+03 1.81860E+04-7.08247E+04 6.82576E-10 4.92946E-10
 -1       763 1.12437E+06-7.51791E+02 3.43813E+04-3.73582E+04-2.07365E-10-7.20320E-10
 -1       764 1.14749E+06 2.61502E+04 7.97542E+04-7.08002E+04 2.64663E-10-1.01136E-09
 -1       765 1.10665E+06-4.89250E+03 1.35556E+05-3.75210E+04-1.42245E-09-3.20142E-10
 -1       766-2.93207E+03 3.88050E+05 9.44645E+04-7.55748E+04-7.95626E-09 1.42109E-10
 -1       767 1.89812E+04 4.16282E+05 6.25697E+04-1.42354E+05-9.01991E-10 3.85626E-10
 -1       768-5.79930E+02 3.99326E+05 4.09947E+04-7.54768E+04-7.49264E-09 2.94312E-09
 -1       769 1.55559E+04 4.14128E+05 5.43694E+04-1.42176E+05-8.18545E-10 1.86992E-09
 -1       770-2.66447E+03 3.90955E+05 7.74350E+04-7.57714E+04-4.85670E-09 1.29330E-09
 -1       771-1.71164E+06-3.32195E+05-1.39894E+05-6.98252E+05-2.67164E-09 1.65164E-09
 -1       772-1.72446E+06-3.27728E+05-7.10092E+04-7.31907E+05-2.93767E-10 1.80353E-09
 -1       773-1.71984E+06-2.96868E+05-3.01121E+04-7.16630E+05 2.34650E-10 7.09406E-11
 -1       774-1.70820E+06-3.10451E+05-1.47987E+04-7.33239E+05 7.08496E-10-1.63914E-09
 -1       775-1.72081E+06-2.95903E+05-6.83229E+03-7.17342E+05 1.03682E-10 1.75078E-10
 -1       776-1.70718E+06-3.09850E+05-3.44237E+03-7.33238E+05-4.00178E-11 2.32887E-10
 -1       777-1.72105E+06-2.95947E+05-1.84350E+03-7.17375E+05 1.94632E-10-1.62572E-10
 -1       778-1.70712E+06-3.09848E+05-1.41332E+03-7.33275E+05 7.30097E-10 1.40062E-10
 -1       779-1.72108E+06-2.95927E+05-1.72722E+03-7.17385E+05 2.77396E-10 9.50422E-10
 -1       780-1.70721E+06-3.09848E+05-3.14139E+03-7.33312E+05-7.57495E-10-1.60981E-09
 -1       781-1.72093E+06-2.95849E+05-6.18552E+03-7.17373E+05 5.52973E-10 8.04903E-10
 -1       782-1.70816E+06-3.10395E+05-1.33865E+04-7.33381E+05 7.58519E-10 1.99361E-09
 -1       783-1.72011E+06-2.96681E+05-2.72211E+04-7.16739E+05-3.21961E-10-1.08776E-09
 -1       784-1.72287E+06-3.26065E+05-6.42170E+04-7.32274E+05 8.70841E-10-1.07684E-09
 -1       785-1.71273E+06-3.28587E+05-1.26494E+05-7.00112E+05 2.40107E-10 6.73026E-10
 -1       786 8.03984E+05-3.81592E+03 1.06474E+05-3.04105E+04 4.87489E-10-1.39698E-09
 -1       787 8.36043E+05 2.05439E+04 6.26332E+04-5.75007E+04-1.01136E-09-2.66391E-09
 -1       788 8.17932E+05-5.82316E+02 2.69926E+04-3.02505E+04-3.99268E-10 1.65528E-10
 -1       789 8.20677E+05 1.15963E+03 1.42488E+04-5.75849E+04-5.03860E-10-2.38151E-09
 -1       790 8.19003E+05-1.24590E+02 6.79845E+03-3.03026E+04 2.27374E-10-2.57387E-10
 -1       791 8.19307E+05 5.27591E+01 3.57335E+03-5.75089E+04 8.27413E-10 1.40426E-09
 -1       792 8.19110E+05-2.66933E+01 1.91321E+03-3.03272E+04-6.45741E-10-8.77662E-11
 -1       793 8.19143E+05 5.24534E-01 1.33052E+03-5.74952E+04 4.43322E-10-1.02477E-09
 -1       794 8.19134E+05-2.92673E+01 1.34907E+03-3.03166E+04 8.54925E-11-2.19006E-09
 -1       795 8.19268E+05 5.90375E-01 2.12923E+03-5.75530E+04 5.09317E-11 1.58320E-09
 -1       796 8.19116E+05-1.12399E+02 3.83366E+03-3.02692E+04-1.99361E-09-1.02625E-09
 -1       797 8.20116E+05 5.68549E+02 7.93778E+03-5.76687E+04-7.90806E-10-1.18862E-09
 -1       798 8.18579E+05-4.13634E+02 1.49669E+04-3.02002E+04 1.96451E-10 1.62845E-09
 -1       799 8.28772E+05 1.12607E+04 3.47424E+04-5.75881E+04-4.57476E-09-7.53062E-10
 -1       800 8.10911E+05-2.27603E+03 5.90033E+04-3.03664E+04 9.11314E-10-6.73026E-10
 -1       801-7.36305E+02 1.05223E+05 4.21201E+04-3.51447E+05-3.84898E-09 3.05590E-10
 -1       802 1.34332E+04 1.14901E+05 3.28403E+04-6.62687E+05-7.00311E-09-2.08456E-09
 -1       803 2.16688E+03 1.07311E+05 2.90248E+04-3.50482E+05-2.03727E-09 2.18552E-09
 -1       804 1.99321E+04 1.20997E+05 5.00458E+04-6.62582E+05-9.01855E-09-3.03771E-09
 -1       805-2.62728E+03 1.00601E+05 7.75138E+04-3.51560E+05-1.01863E-10 1.19326E-09
 -1       806-1.02535E+06-2.22345E+05-8.88863E+04-4.46935E+05-1.91983E-09-6.25732E-09
 -1       807-1.02854E+06-2.24492E+05-4.51165E+04-4.74056E+05 2.28465E-09 5.53882E-10
 -1       808-1.03065E+06-1.99825E+05-1.91355E+04-4.58582E+05-2.72848E-11 1.01954E-09
 -1       809-1.01818E+06-2.13547E+05-9.40939E+03-4.74955E+05-1.00044E-09 2.72587E-09
 -1       810-1.03126E+06-1.99222E+05-4.35238E+03-4.59045E+05 8.73115E-10-6.04928E-10
 -1       811-1.01754E+06-2.13155E+05-2.21356E+03-4.74926E+05-8.59472E-11-1.95996E-09
 -1       812-1.03138E+06-1.99270E+05-1.22620E+03-4.59060E+05 3.16959E-10-6.27551E-11
 -1       813-1.01748E+06-2.13155E+05-1.01916E+03-4.74903E+05 5.76335E-10 2.53203E-09
 -1       814-1.03134E+06-1.99286E+05-1.34953E+03-4.59047E+05-5.96629E-10 1.93631E-09
 -1       815-1.01751E+06-2.13169E+05-2.53551E+03-4.74869E+05 1.77715E-09-7.91260E-10
 -1       816-1.03115E+06-1.99263E+05-5.03986E+03-4.59004E+05-1.49521E-09 4.38376E-10
 -1       817-1.01822E+06-2.13631E+05-1.09164E+04-4.74847E+05 1.67347E-10-5.96629E-10
 -1       818-1.03039E+06-1.99997E+05-2.22123E+04-4.58451E+05 1.49339E-09-1.56069E-09
 -1       819-1.03022E+06-2.26308E+05-5.23555E+04-4.73734E+05 8.33097E-10 8.91305E-11
 -1       820-1.02420E+06-2.26143E+05-1.03149E+05-4.44931E+05 1.54250E-09-6.18456E-11
 -1       821-5.23324E+05 2.37775E+03-6.93502E+04 1.69087E+04-1.22855E-08-2.71757E-09
 -1       822-5.44135E+05-1.33789E+04-4.07801E+04 3.25338E+04-4.72392E-09-5.05315E-09
 -1       823-5.32524E+05 3.57760E+02-1.75958E+04 1.66534E+04 1.06575E-08-3.84898E-09
 -1       824-5.34355E+05-6.41375E+02-9.27708E+03 3.28252E+04-4.94947E-09-3.71074E-09
 -1       825-5.33310E+05 1.37283E+02-4.44665E+03 1.65995E+04-1.83954E-08-2.20962E-09
 -1       826-5.33605E+05 1.52522E+02-2.35052E+03 3.29078E+04-3.34958E-08-4.17822E-09
 -1       827-5.33429E+05 1.17589E+02-1.30406E+03 1.65684E+04-1.50617E-08-3.73689E-09
 -1       828-5.33564E+05 2.17153E+02-9.83031E+02 3.29558E+04-1.86701E-08-9.30527E-10
 -1       829-5.33450E+05 1.29882E+02-1.11671E+03 1.65509E+04-2.56000E-09-4.13525E-09
 -1       830-5.33646E+05 1.97100E+02-1.87668E+03 3.29749E+04 1.31204E-08-4.96289E-09
 -1       831-5.33386E+05 1.67426E+02-3.46774E+03 1.65490E+04-8.79277E-09-2.76052E-09
 -1       832-5.34278E+05-3.93063E+02-7.20742E+03 3.29607E+04 3.13560E-09-3.34501E-09
 -1       833-5.32801E+05 3.58348E+02-1.36425E+04 1.65666E+04-2.84990E-09-4.44561E-09
 -1       834-5.41909E+05-1.02545E+04-3.16337E+04 3.28213E+04-6.15137E-09-5.91535E-09
 -1       835-5.25683E+05 1.94186E+03-5.37801E+04 1.67113E+04 8.45102E-09-4.89672E-09
 -1       836-2.33553E+03 1.01474E+06 8.39098E+04-1.39036E+05-2.18643E-09-2.80124E-10
 -1       837 1.80089E+04 1.03918E+06 6.02666E+04-2.59849E+05-5.77211E-09-2.14641E-10
 -1       838-8.53216E+01 1.02351E+06 4.76537E+04-1.38737E+05-1.93904E-09 2.66590E-09
 -1       839 2.41087E+04 1.04390E+06 7.56069E+04-2.59846E+05-5.40604E-09-1.51476E-09
 -1       840-3.41654E+03 1.00996E+06 1.15624E+05-1.39031E+05-1.98270E-09 2.44836E-09
 -1       841-2.42056E+04 1.01053E+04-1.93208E+04 6.78206E+03-9.53150E-10 3.49098E-09
 -1       842-4.14278E+04 1.53157E+04-1.11744E+04 1.90246E+04 2.86764E-09 2.85377E-09
 -1       843-2.67274E+04 8.53204E+03-4.49233E+03 6.10535E+03 9.07130E-09 6.51426E-10
 -1       844-3.84973E+04 1.93755E+04-2.28823E+03 1.88013E+04 1.17111E-08-4.22824E-09
 -1       845-2.69745E+04 8.41964E+03-1.01663E+03 6.03330E+03 3.66072E-09-2.09513E-09
 -1       846-3.83026E+04 1.96664E+04-4.76808E+02 1.87729E+04-1.38079E-08-1.17723E-09
 -1       847-2.70219E+04 8.41983E+03-1.78383E+02 6.01090E+03 2.30420E-09 5.01842E-09
 -1       848-3.83050E+04 1.97019E+04 7.01616E+00 1.87589E+04-8.82710E-09 4.11006E-09
 -1       849-2.70420E+04 8.42173E+03 1.92404E+02 5.99973E+03 1.64528E-09 2.21183E-09
 -1       850-3.82810E+04 1.97281E+04 5.06960E+02 1.87589E+04 4.77360E-09-2.51248E-09
 -1       851-2.70708E+04 8.40374E+03 1.06549E+03 5.99548E+03-8.07438E-09-3.63093E-09
 -1       852-3.79847E+04 1.99972E+04 2.41515E+03 1.87628E+04 3.86956E-09-2.71541E-09
 -1       853-2.72998E+04 8.25663E+03 4.71694E+03 5.96669E+03-8.19296E-09 1.47702E-09
 -1       854-3.45382E+04 2.40129E+04 1.17866E+04 1.83472E+04-1.64582E-08-4.16912E-09
 -1       855-3.01056E+04 6.75560E+03 2.03384E+04 5.54823E+03 7.63976E-10 4.44197E-09
 -1       856-2.78934E+05 1.08673E+03-3.00338E+04 1.38347E+04-1.79061E-08-2.57387E-09
 -1       857-2.88001E+05-5.68096E+03-1.76585E+04 2.66400E+04-8.34916E-09-3.27827E-09
 -1       858-2.82922E+05 2.17135E+02-7.61710E+03 1.36874E+04-1.37779E-08-2.26783E-09
 -1       859-2.83770E+05-1.63681E+02-4.01400E+03 2.67946E+04-4.01701E-09-3.40560E-09
 -1       860-2.83263E+05 1.21937E+02-1.91730E+03 1.36671E+04 5.94400E-09-3.63684E-09
 -1       861-2.83442E+05 1.78508E+02-1.00425E+03 2.68206E+04-5.49119E-09-5.78291E-09
 -1       862-2.83312E+05 1.10549E+02-5.37098E+02 1.36602E+04 1.75828E-08-5.63659E-09
 -1       863-2.83413E+05 2.01778E+02-3.71886E+02 2.68282E+04 3.29721E-08-7.09633E-09
 -1       864-2.83316E+05 1.09416E+02-3.78095E+02 1.36593E+04 1.44980E-08-5.27848E-09
 -1       865-2.83423E+05 1.88948E+02-5.96181E+02 2.68230E+04 1.84490E-08-5.21379E-09
 -1       866-2.83288E+05 1.12847E+02-1.08042E+03 1.36654E+04-3.84989E-09-4.34142E-09
 -1       867-2.83593E+05-4.91552E+00-2.22935E+03 2.68011E+04-1.08121E-08-3.76303E-09
 -1       868-2.83093E+05 1.59571E+02-4.21802E+03 1.36821E+04 2.93312E-10-4.40571E-09
 -1       869-2.85914E+05-3.06384E+03-9.76589E+03 2.66566E+04-2.68606E-08-6.14386E-09
 -1       870-2.80879E+05 6.30951E+02-1.66118E+04 1.38176E+04 1.25410E-08-4.57021E-09
 -1       871-3.91311E+03-5.25593E+04-8.04672E+03 1.53687E+05 8.13907E-09-2.49292E-09
 -1       872-2.02242E+03-5.41374E+04-2.40952E+03 1.92058E+05 1.35133E-08-4.85306E-09
 -1       873-6.63081E+02-5.36934E+04 2.43837E+03 1.53392E+05 1.19371E-08-1.40903E-09
 -1       874 1.51336E+03-5.13354E+04 9.08227E+03 1.92102E+05 1.42027E-08 2.54477E-09
 -1       875 5.82514E+03-5.54514E+04 1.90029E+04 1.53683E+05 6.45741E-10 1.71076E-09
 -1       876 3.86117E+05 6.01259E+04 3.78035E+04 1.56755E+05 6.72935E-09-4.79849E-09
 -1       877 3.92056E+05 7.79187E+04 2.19013E+04 1.64424E+05 2.65618E-09-5.28030E-09
 -1       878 3.91259E+05 6.29858E+04 8.77966E+03 1.57669E+05 9.35643E-09-2.91948E-09
 -1       879 3.85819E+05 7.03329E+04 4.51043E+03 1.65093E+05-1.57224E-08-5.72072E-10
 -1       880 3.91676E+05 6.32637E+04 2.02958E+03 1.57749E+05-8.66453E-09-2.29079E-09
 -1       881 3.85307E+05 6.98089E+04 1.05038E+03 1.65065E+05-7.89805E-09-5.47314E-09
 -1       882 3.91713E+05 6.33068E+04 5.83271E+02 1.57761E+05 6.92967E-09 5.78177E-09
 -1       883 3.85264E+05 6.97699E+04 4.99560E+02 1.65045E+05 2.11371E-08 9.37462E-10
 -1       884 3.91707E+05 6.33083E+04 6.72458E+02 1.57762E+05-2.30612E-09 4.55407E-09
 -1       885 3.85328E+05 6.98126E+04 1.28792E+03 1.65057E+05 2.83496E-08-1.49566E-09
 -1       886 3.91651E+05 6.32626E+04 2.53146E+03 1.57751E+05 4.80259E-09-6.41285E-09
 -1       887 3.85973E+05 7.04627E+04 5.64662E+03 1.65075E+05 2.17733E-08 1.13687E-09
 -1       888 3.91117E+05 6.29219E+04 1.10016E+04 1.57651E+05 5.78473E-09-1.59616E-09
 -1       889 3.93769E+05 7.99870E+04 2.74468E+04 1.64244E+05 1.04048E-08 1.60117E-09
 -1       890 3.84685E+05 5.93236E+04 4.73791E+04 1.56481E+05 1.86651E-08 4.50382E-09
 -1       891-6.57868E+01-1.88011E+05-8.22866E+03 5.61619E+04 3.83457E-08 3.73802E-09
 -1       892-2.17051E+03-1.90237E+05-5.88265E+03 1.05522E+05 3.38177E-08-4.90240E-09
 -1       893-2.02640E+02-1.88962E+05-4.65639E+03 5.60089E+04 2.34572E-08 5.00791E-10
 -1       894-2.78211E+03-1.90681E+05-7.39506E+03 1.05498E+05 3.81733E-08-2.84376E-09
 -1       895 2.33872E+01-1.87518E+05-1.13576E+04 5.61840E+04 2.38856E-08 5.03678E-09
 -1       896 7.62829E+05-4.71914E+02 1.10657E+04-1.66926E+04 1.73713E-10 2.04636E-11
 -1       897 7.66161E+05 2.08200E+03 6.52694E+03-3.16067E+04 1.50976E-10 6.19139E-10
 -1       898 7.64250E+05-1.02676E+02 2.81211E+03-1.65994E+04 8.09450E-11 4.45652E-11
 -1       899 7.64497E+05 9.10641E+01 1.50854E+03-3.16533E+04-4.04725E-11 5.00904E-10
 -1       900 7.64333E+05-3.22278E+01 7.53197E+02-1.66443E+04 8.27640E-11 1.17097E-11
 -1       901 7.64312E+05-1.67456E+00 4.75167E+02-3.15769E+04 2.42835E-10 1.60412E-10
 -1       902 7.64323E+05-7.99648E+00 4.00777E+02-1.66759E+04 2.34650E-10-2.00430E-10
 -1       903 7.64281E+05 8.33274E+00 5.53914E+02-3.15308E+04 1.19712E-10-9.25411E-11
 -1       904 7.64302E+05-7.50754E+00 9.57150E+02-1.66905E+04 1.84627E-10-6.54836E-11
 -1       905 7.64360E+05 4.49844E+01 1.90048E+03-3.15202E+04 3.73944E-10-1.24601E-10
 -1       906 7.64229E+05-5.04643E+01 3.67820E+03-1.66864E+04-8.59472E-11-3.10365E-11
 -1       907 7.65070E+05 6.64855E+02 7.73786E+03-3.15411E+04-9.25411E-11 2.16573E-10
 -1       908 7.63623E+05-2.79733E+02 1.46796E+04-1.66693E+04 4.04725E-11 8.45830E-11
 -1       909 7.73368E+05 1.12322E+04 3.40578E+04-3.14889E+04 2.43517E-10-7.43057E-10
 -1       910 7.56003E+05-2.01155E+03 5.79058E+04-1.67426E+04-1.68257E-10-5.74801E-10
 -1       911 1.77607E+05-1.20927E+02 2.23358E+03-1.54249E+04 2.00998E-10 1.65983E-10
 -1       912 1.78291E+05 4.15892E+02 1.32644E+03-2.88678E+04 8.41283E-11 7.41238E-11
 -1       913 1.77874E+05-2.66343E+01 5.75262E+02-1.53095E+04-4.91127E-11-3.63798E-11
 -1       914 1.77917E+05 2.88470E+01 3.25510E+02-2.89799E+04 1.35287E-10 9.02673E-11
 -1       915 1.77876E+05-4.22971E-01 1.90969E+02-1.53127E+04 3.48336E-10 1.78943E-10
 -1       916 1.77861E+05 2.02261E+01 1.76909E+02-2.89726E+04 6.25278E-10 5.34669E-10
 -1       917 1.77865E+05 8.50019E+00 2.39584E+02-1.53168E+04 4.99540E-10-2.49088E-10
 -1       918 1.77861E+05 2.54261E+01 4.35519E+02-2.89682E+04 6.51646E-10-9.28594E-10
 -1       919 1.77852E+05 9.34199E-01 8.28961E+02-1.53170E+04 2.08388E-10-2.31125E-10
 -1       920 1.77950E+05 5.09247E+01 1.69106E+03-2.89717E+04 8.32188E-10 1.59844E-10
 -1       921 1.77794E+05-4.42114E+01 3.29434E+03-1.53133E+04 2.15550E-10-1.75646E-10
 -1       922 1.78604E+05 6.01459E+02 6.94675E+03-2.89779E+04 8.02174E-10-5.72584E-10
 -1       923 1.77257E+05-2.56461E+02 1.31832E+04-1.53105E+04 1.22782E-10 2.92403E-10
 -1       924 1.86077E+05 1.00967E+04 3.06037E+04-2.88664E+04 1.72804E-11-5.16593E-10
 -1       925 1.70422E+05-1.82470E+03 5.20321E+04-1.54282E+04 6.54836E-11 1.96451E-10
 -1       926-9.30519E+05 1.83825E+03-5.39782E+04-1.64237E+04 4.06544E-10-2.18279E-11
 -1       927-9.46657E+05-1.05153E+04-3.17449E+04-3.07292E+04 5.07043E-11 1.11322E-09
 -1       928-9.37659E+05 2.44446E+02-1.36807E+04-1.62680E+04-2.86491E-11-2.09184E-10
 -1       929-9.38996E+05-6.13358E+02-7.20972E+03-3.09237E+04-5.57520E-10-9.94532E-10
 -1       930-9.38250E+05 5.50015E+01-3.43473E+03-1.62325E+04 1.10731E-10-1.00783E-10
 -1       931-9.38368E+05-1.61487E+01-1.79059E+03-3.09662E+04-1.60242E-10 7.94671E-11
 -1       932-9.38322E+05 2.08730E+01-9.37551E+02-1.62252E+04-1.67688E-10 2.83080E-11
 -1       933-9.38287E+05 1.26166E+01-6.13542E+02-3.09583E+04-7.09406E-11 9.79981E-11
 -1       934-9.38321E+05 8.81175E+00-5.72708E+02-1.62403E+04 8.59472E-11-5.42286E-11
 -1       935-9.38278E+05-1.41897E+01-8.49271E+02-3.09041E+04-1.03455E-09-5.28871E-10
 -1       936-9.38274E+05 5.77782E+00-1.50894E+03-1.62795E+04 2.44199E-10 2.25100E-10
 -1       937-9.38499E+05-2.90032E+02-3.08956E+03-3.07985E+04 1.23646E-09-8.38099E-10
 -1       938-9.37999E+05 6.45598E+01-5.84064E+03-1.63459E+04 3.36513E-10-5.61158E-10
 -1       939-9.41700E+05-4.52699E+03-1.35111E+04-3.04984E+04 3.63798E-10-2.85581E-10
 -1       940-9.34934E+05 7.14528E+02-2.29857E+04-1.65761E+04-6.07542E-10 1.34241E-09
 -1       941 1.38577E+06-6.86002E+03 2.00538E+05-2.08941E+04 1.17052E-09 1.20781E-09
 -1       942 1.44595E+06 3.88503E+04 1.17895E+05-3.98853E+04 7.73070E-11-1.56433E-09
 -1       943 1.41218E+06-9.64909E+02 5.08599E+04-2.08172E+04-1.54614E-11-8.36735E-11
 -1       944 1.41734E+06 2.25989E+03 2.68450E+04-3.98892E+04-3.34921E-10-5.85715E-10
 -1       945 1.41432E+06-1.99826E+02 1.28465E+04-2.08603E+04 7.18046E-10 9.09495E-10
 -1       946 1.41492E+06 9.83595E+01 6.80062E+03-3.98413E+04 1.07136E-09 2.09184E-09
 -1       947 1.41457E+06-6.15443E+01 3.74809E+03-2.08657E+04 6.34714E-10 1.49635E-09
 -1       948 1.41467E+06-2.25987E+01 2.80340E+03-3.98745E+04 4.80213E-10 9.61336E-10
 -1       949 1.41460E+06-6.80421E+01 3.13335E+03-2.08273E+04-9.10404E-10-1.77999E-09
 -1       950 1.41490E+06 3.27969E+01 5.22909E+03-3.99951E+04 1.66983E-09 1.81098E-09
 -1       951 1.41445E+06-1.97911E+02 9.61822E+03-2.07446E+04-1.54796E-09-1.63368E-09
 -1       952 1.41676E+06 1.59945E+03 1.99798E+04-4.01911E+04-1.09321E-09-4.53156E-10
 -1       953 1.41291E+06-8.01721E+02 3.77739E+04-2.06305E+04-1.11140E-09 7.82165E-11
 -1       954 1.43811E+06 2.87340E+04 8.75650E+04-4.02582E+04-6.04268E-09-1.61617E-09
 -1       955 1.39333E+06-5.23078E+03 1.48880E+05-2.07217E+04 1.18598E-09 1.15688E-09
 -1       956-4.26783E+05-9.50291E+03-2.80492E+04 5.13407E+04-1.35278E-08-3.83307E-09
 -1       957-4.32700E+05-3.39229E+03-1.45830E+04 6.37299E+04-3.27873E-09-5.51063E-09
 -1       958-4.29524E+05-7.57913E+01-6.58087E+03 5.09338E+04 1.16270E-08-6.49152E-09
 -1       959-4.30068E+05 1.82747E+02-3.36152E+03 6.41551E+04-4.12183E-09-5.63432E-09
 -1       960-4.29831E+05 2.75042E+02-1.64153E+03 5.08935E+04-1.69457E-08-7.47696E-09
 -1       961-4.29974E+05 3.59136E+02-8.56840E+02 6.42020E+04-2.75522E-08-4.80486E-09
 -1       962-4.29938E+05 3.03612E+02-4.71806E+02 5.08842E+04-1.26975E-08-7.05586E-09
 -1       963-4.30027E+05 3.97831E+02-3.39384E+02 6.42153E+04-1.90594E-08-5.38967E-09
 -1       964-4.29987E+05 3.31358E+02-3.67518E+02 5.08791E+04-5.90626E-09-7.37009E-09
 -1       965-4.30078E+05 4.20903E+02-5.96566E+02 6.42197E+04 1.64565E-08-8.35098E-09
 -1       966-4.29983E+05 3.55420E+02-1.10035E+03 5.08793E+04-8.00208E-09-7.86986E-09
 -1       967-4.30217E+05 3.45332E+02-2.24317E+03 6.42029E+04 2.00271E-09-6.64159E-09
 -1       968-4.29833E+05 1.57641E+02-4.37853E+03 5.08968E+04 5.18685E-09-7.70842E-09
 -1       969-4.32034E+05-2.00725E+03-9.71757E+03 6.39964E+04-3.66981E-10-6.52688E-09
 -1       970-4.28042E+05-6.10689E+03-1.86836E+04 5.11101E+04 3.72984E-09-8.32551E-09
 -1       971-4.90150E+05 8.54064E+02-2.35481E+04 1.23563E+04-1.33668E-08 1.49430E-09
 -1       972-4.97236E+05-4.43713E+03-1.38454E+04 2.44005E+04-8.22865E-09 1.49339E-09
 -1       973-4.93279E+05 1.75937E+02-5.97860E+03 1.21955E+04-7.35417E-09 1.74214E-09
 -1       974-4.93930E+05-1.06734E+02-3.15941E+03 2.45824E+04 5.52518E-09 1.97156E-09
 -1       975-4.93550E+05 1.05218E+02-1.52963E+03 1.21644E+04 1.25374E-09 8.57199E-10
 -1       976-4.93683E+05 1.65769E+02-8.40239E+02 2.46264E+04-1.59646E-08 2.28681E-09
 -1       977-4.93590E+05 1.00208E+02-5.26102E+02 1.21506E+04 1.92967E-08 5.56497E-10
 -1       978-4.93674E+05 1.86601E+02-5.05873E+02 2.46438E+04 4.30102E-08-2.13731E-11
 -1       979-4.93590E+05 1.05633E+02-7.18367E+02 1.21468E+04 1.26800E-08-1.70303E-10
 -1       980-4.93726E+05 1.62752E+02-1.33578E+03 2.46407E+04 2.07949E-08 1.13312E-09
 -1       981-4.93534E+05 1.28391E+02-2.54384E+03 1.21537E+04-1.70076E-10 1.18405E-09
 -1       982-4.94184E+05-2.80567E+02-5.32770E+03 2.46134E+04 8.35007E-09 2.21328E-09
 -1       983-4.93095E+05 2.66057E+02-1.01050E+04 1.21753E+04 1.16115E-08-3.95630E-11
 -1       984-4.99831E+05-7.59125E+03-2.34384E+04 2.44725E+04-8.49809E-09 1.54569E-09
 -1       985-4.87819E+05 1.43721E+03-3.98546E+04 1.23128E+04 1.21017E-08 3.43789E-10
 -3
 9999
