
 stresses (elem, integ.pnt.,sxx,syy,szz,sxy,sxz,syz) for set ELALL and time  0.1000000E+01

         1   1 -2.239317E+06 -9.507336E+04 -1.148227E+05 -4.369349E+04 -7.876008E+04  5.562187E+00
         1   2 -2.225720E+06  1.819064E+03 -5.204219E+04 -1.492608E+04 -5.114556E+04  1.233877E+00
         1   3 -2.239210E+06  4.878918E+03 -3.074433E+04  1.384259E+04 -2.353077E+04 -5.264796E-01
         1   4 -2.239319E+06 -9.507696E+04 -1.148232E+05  4.169516E-09 -7.876008E+04 -2.953324E-10
         1   5 -2.225720E+06  1.818644E+03 -5.204225E+04 -1.151494E-08 -5.114556E+04 -5.487689E-10
         1   6 -2.239210E+06  4.878556E+03 -3.074438E+04 -2.477816E-08 -2.353077E+04  4.721094E-10
         1   7 -2.239317E+06 -9.507336E+04 -1.148227E+05  4.369349E+04 -7.876008E+04 -5.562187E+00
         1   8 -2.225720E+06  1.819064E+03 -5.204219E+04  1.492608E+04 -5.114556E+04 -1.233877E+00
         1   9 -2.239210E+06  4.878918E+03 -3.074433E+04 -1.384259E+04 -2.353077E+04  5.264796E-01
         1  10 -2.239323E+06 -9.507504E+04 -1.148344E+05 -4.369349E+04 -8.029852E-10  3.449951E-11
         1  11 -2.225723E+06  1.818358E+03 -5.204712E+04 -1.492608E+04  5.563459E-10  4.497416E-10
         1  12 -2.239210E+06  4.878769E+03 -3.074537E+04  1.384259E+04  5.057149E-09  1.280511E-09
         1  13 -2.239325E+06 -9.507864E+04 -1.148349E+05 -2.221946E-09 -1.109538E-09 -4.602525E-11
         1  14 -2.225723E+06  1.817938E+03 -5.204718E+04  2.015748E-10 -1.251756E-11  2.320520E-10
         1  15 -2.239210E+06  4.878407E+03 -3.074542E+04  4.751772E-09 -1.894761E-09  1.097462E-09
         1  16 -2.239323E+06 -9.507504E+04 -1.148344E+05  4.369349E+04  2.618258E-09 -2.367236E-11
         1  17 -2.225723E+06  1.818358E+03 -5.204712E+04  1.492608E+04 -3.773286E-09 -1.551887E-10
         1  18 -2.239210E+06  4.878769E+03 -3.074537E+04 -1.384259E+04 -3.843873E-09  8.921979E-10
         1  19 -2.239317E+06 -9.507336E+04 -1.148227E+05 -4.369349E+04  7.876008E+04 -5.562187E+00
         1  20 -2.225720E+06  1.819064E+03 -5.204219E+04 -1.492608E+04  5.114556E+04 -1.233877E+00
         1  21 -2.239210E+06  4.878918E+03 -3.074433E+04  1.384259E+04  2.353077E+04  5.264796E-01
         1  22 -2.239319E+06 -9.507696E+04 -1.148232E+05 -8.586077E-09  7.876008E+04  2.484745E-10
         1  23 -2.225720E+06  1.818644E+03 -5.204225E+04  1.191185E-08  5.114556E+04  9.523521E-10
         1  24 -2.239210E+06  4.878556E+03 -3.074438E+04  4.747556E-08  2.353077E+04  1.709865E-09
         1  25 -2.239317E+06 -9.507336E+04 -1.148227E+05  4.369349E+04  7.876008E+04  5.562187E+00
         1  26 -2.225720E+06  1.819064E+03 -5.204219E+04  1.492608E+04  5.114556E+04  1.233877E+00
         1  27 -2.239210E+06  4.878918E+03 -3.074433E+04 -1.384259E+04  2.353077E+04 -5.264796E-01
         2   1 -2.233724E+06 -5.622657E+03 -2.451986E+04 -1.959543E+03 -1.913656E+04  6.060979E-02
         2   2 -2.232560E+06  2.454265E+02 -1.320176E+04 -4.627734E+02 -1.250269E+04  9.351816E-03
         2   3 -2.233710E+06  3.265311E+02 -7.660783E+03  1.033990E+03 -5.868777E+03 -9.808190E-03
         2   4 -2.233724E+06 -5.622664E+03 -2.451986E+04  3.528132E-08 -1.913656E+04  3.878966E-10
         2   5 -2.232560E+06  2.454261E+02 -1.320176E+04  1.080663E-08 -1.250269E+04 -2.684924E-10
         2   6 -2.233710E+06  3.265291E+02 -7.660783E+03  4.332051E-09 -5.868777E+03  6.508076E-10
         2   7 -2.233724E+06 -5.622657E+03 -2.451986E+04  1.959543E+03 -1.913656E+04 -6.060979E-02
         2   8 -2.232560E+06  2.454265E+02 -1.320176E+04  4.627734E+02 -1.250269E+04 -9.351817E-03
         2   9 -2.233710E+06  3.265311E+02 -7.660783E+03 -1.033990E+03 -5.868777E+03  9.808192E-03
         2  10 -2.233724E+06 -5.622755E+03 -2.452055E+04 -1.959543E+03 -6.755605E-09  9.070549E-10
         2  11 -2.232560E+06  2.453843E+02 -1.320205E+04 -4.627734E+02 -2.981319E-09 -4.119552E-10
         2  12 -2.233710E+06  3.265218E+02 -7.660848E+03  1.033990E+03 -9.376041E-10 -7.832697E-10
         2  13 -2.233724E+06 -5.622763E+03 -2.452055E+04  7.407721E-09  2.202366E-09  6.562248E-10
         2  14 -2.232560E+06  2.453839E+02 -1.320205E+04  6.643424E-09  1.595829E-10 -8.387726E-10
         2  15 -2.233710E+06  3.265198E+02 -7.660848E+03  1.575087E-09 -1.392243E-09 -1.677754E-10
         2  16 -2.233724E+06 -5.622755E+03 -2.452055E+04  1.959543E+03  5.578836E-09  5.386523E-10
         2  17 -2.232560E+06  2.453843E+02 -1.320205E+04  4.627734E+02  3.420402E-09 -1.254598E-09
         2  18 -2.233710E+06  3.265218E+02 -7.660848E+03 -1.033990E+03  1.475659E-09  4.028823E-10
         2  19 -2.233724E+06 -5.622657E+03 -2.451986E+04 -1.959543E+03  1.913656E+04 -6.060979E-02
         2  20 -2.232560E+06  2.454265E+02 -1.320176E+04 -4.627734E+02  1.250269E+04 -9.351817E-03
         2  21 -2.233710E+06  3.265311E+02 -7.660783E+03  1.033990E+03  5.868777E+03  9.808189E-03
         2  22 -2.233724E+06 -5.622664E+03 -2.451986E+04 -1.837474E-08  1.913656E+04  9.045797E-10
         2  23 -2.232560E+06  2.454261E+02 -1.320176E+04 -3.973759E-09  1.250269E+04 -1.182011E-09
         2  24 -2.233710E+06  3.265291E+02 -7.660783E+03  2.384160E-08  5.868777E+03 -1.006140E-09
         2  25 -2.233724E+06 -5.622657E+03 -2.451986E+04  1.959543E+03  1.913656E+04  6.060979E-02
         2  26 -2.232560E+06  2.454265E+02 -1.320176E+04  4.627734E+02  1.250269E+04  9.351815E-03
         2  27 -2.233710E+06  3.265311E+02 -7.660783E+03 -1.033990E+03  5.868777E+03 -9.808191E-03
         3   1 -2.233266E+06 -2.913684E+02 -5.903506E+03  5.727389E+01 -4.676946E+03 -4.329561E-04
         3   2 -2.233109E+06  4.970231E+01 -3.401666E+03  7.937346E+01 -2.990862E+03 -3.837053E-04
         3   3 -2.233263E+06  2.887221E+01 -2.090943E+03  1.014727E+02 -1.304798E+03 -2.140009E-04
         3   4 -2.233266E+06 -2.913684E+02 -5.903506E+03  3.860161E-10 -4.676946E+03  2.910140E-10
         3   5 -2.233109E+06  4.970230E+01 -3.401666E+03  5.260351E-09 -2.990862E+03 -1.054554E-09
         3   6 -2.233263E+06  2.887219E+01 -2.090943E+03  4.723150E-09 -1.304798E+03  8.973503E-10
         3   7 -2.233266E+06 -2.913684E+02 -5.903506E+03 -5.727389E+01 -4.676946E+03  4.329567E-04
         3   8 -2.233109E+06  4.970231E+01 -3.401666E+03 -7.937346E+01 -2.990862E+03  3.837030E-04
         3   9 -2.233263E+06  2.887221E+01 -2.090943E+03 -1.014727E+02 -1.304798E+03  2.140027E-04
         3  10 -2.233266E+06 -2.913743E+02 -5.903547E+03  5.727389E+01 -3.276260E-10 -3.831111E-10
         3  11 -2.233109E+06  4.969990E+01 -3.401683E+03  7.937346E+01 -1.407237E-09 -4.485860E-10
         3  12 -2.233263E+06  2.887175E+01 -2.090946E+03  1.014727E+02 -1.940541E-09  2.184930E-10
         3  13 -2.233266E+06 -2.913743E+02 -5.903547E+03 -4.039792E-09 -1.025548E-09  1.492832E-10
         3  14 -2.233109E+06  4.969989E+01 -3.401683E+03 -1.259809E-10  2.328704E-29 -2.293443E-10
         3  15 -2.233263E+06  2.887173E+01 -2.090946E+03  5.766054E-10 -2.252911E-09  2.233581E-10
         3  16 -2.233266E+06 -2.913743E+02 -5.903547E+03 -5.727389E+01 -2.059900E-09  8.750011E-10
         3  17 -2.233109E+06  4.969990E+01 -3.401683E+03 -7.937346E+01  1.075172E-09  8.101162E-11
         3  18 -2.233263E+06  2.887175E+01 -2.090946E+03 -1.014727E+02  2.568898E-09  3.165453E-10
         3  19 -2.233266E+06 -2.913684E+02 -5.903506E+03  5.727389E+01  4.676946E+03  4.329553E-04
         3  20 -2.233109E+06  4.970231E+01 -3.401666E+03  7.937346E+01  2.990862E+03  3.837048E-04
         3  21 -2.233263E+06  2.887221E+01 -2.090943E+03  1.014727E+02  1.304798E+03  2.140013E-04
         3  22 -2.233266E+06 -2.913684E+02 -5.903506E+03  1.256566E-10  4.676946E+03  3.819972E-11
         3  23 -2.233109E+06  4.970230E+01 -3.401666E+03  3.127235E-09  2.990862E+03  7.252763E-10
         3  24 -2.233263E+06  2.887219E+01 -2.090943E+03  7.211110E-09  1.304798E+03 -4.732640E-10
         3  25 -2.233266E+06 -2.913684E+02 -5.903506E+03 -5.727389E+01  4.676946E+03 -4.329554E-04
         3  26 -2.233109E+06  4.970231E+01 -3.401666E+03 -7.937346E+01  2.990862E+03 -3.837031E-04
         3  27 -2.233263E+06  2.887221E+01 -2.090943E+03 -1.014727E+02  1.304798E+03 -2.140021E-04
         4   1 -2.233214E+06 -3.216002E+00 -1.701843E+03  3.914445E+01 -9.632966E+02 -6.094624E-05
         4   2 -2.233169E+06  1.745615E+01 -1.283728E+03  1.249874E+01 -3.292423E+02 -6.651027E-06
         4   3 -2.233214E+06  1.021358E+01 -1.286506E+03 -1.414736E+01  3.048216E+02 -6.968780E-06
         4   4 -2.233214E+06 -3.216005E+00 -1.701843E+03  1.168440E-08 -9.632966E+02  1.616701E-09
         4   5 -2.233169E+06  1.745615E+01 -1.283728E+03 -4.461012E-10 -3.292423E+02  8.619550E-10
         4   6 -2.233214E+06  1.021358E+01 -1.286506E+03  3.417620E-10  3.048216E+02  1.645910E-09
         4   7 -2.233214E+06 -3.216002E+00 -1.701843E+03 -3.914445E+01 -9.632966E+02  6.094929E-05
         4   8 -2.233169E+06  1.745615E+01 -1.283728E+03 -1.249874E+01 -3.292423E+02  6.652235E-06
         4   9 -2.233214E+06  1.021358E+01 -1.286506E+03  1.414736E+01  3.048216E+02  6.972534E-06
         4  10 -2.233214E+06 -3.216252E+00 -1.701845E+03  3.914445E+01  1.188317E-09  2.128809E-10
         4  11 -2.233169E+06  1.745612E+01 -1.283728E+03  1.249874E+01  2.172036E-09  9.963054E-11
         4  12 -2.233214E+06  1.021355E+01 -1.286507E+03 -1.414736E+01 -1.572676E-09  1.729936E-10
         4  13 -2.233214E+06 -3.216255E+00 -1.701845E+03  1.169490E-08 -1.009243E-10  4.077624E-10
         4  14 -2.233169E+06  1.745612E+01 -1.283728E+03 -7.944542E-09  6.733019E-11  4.099128E-10
         4  15 -2.233214E+06  1.021355E+01 -1.286507E+03 -1.300752E-08 -5.333665E-09  6.533510E-10
         4  16 -2.233214E+06 -3.216252E+00 -1.701845E+03 -3.914445E+01 -7.008478E-10  5.033130E-10
         4  17 -2.233169E+06  1.745612E+01 -1.283728E+03 -1.249874E+01 -1.348345E-09  9.805624E-10
         4  18 -2.233214E+06  1.021355E+01 -1.286507E+03  1.414736E+01  1.328826E-09  9.683175E-10
         4  19 -2.233214E+06 -3.216002E+00 -1.701843E+03  3.914445E+01  9.632966E+02  6.094684E-05
         4  20 -2.233169E+06  1.745615E+01 -1.283728E+03  1.249874E+01  3.292423E+02  6.651123E-06
         4  21 -2.233214E+06  1.021358E+01 -1.286506E+03 -1.414736E+01 -3.048216E+02  6.969577E-06
         4  22 -2.233214E+06 -3.216005E+00 -1.701843E+03  1.165920E-08  9.632966E+02 -8.272281E-10
         4  23 -2.233169E+06  1.745615E+01 -1.283728E+03 -9.001650E-09  3.292423E+02 -1.090403E-10
         4  24 -2.233214E+06  1.021358E+01 -1.286506E+03 -3.518594E-10 -3.048216E+02 -3.187012E-10
         4  25 -2.233214E+06 -3.216002E+00 -1.701843E+03 -3.914445E+01  9.632966E+02 -6.094843E-05
         4  26 -2.233169E+06  1.745615E+01 -1.283728E+03 -1.249874E+01  3.292423E+02 -6.651262E-06
         4  27 -2.233214E+06  1.021358E+01 -1.286506E+03  1.414736E+01 -3.048216E+02 -6.970187E-06
         5   1 -2.233227E+06  1.051873E+01 -1.434634E+03 -2.789751E+01  5.510242E+02 -2.484489E-05
         5   2 -2.233153E+06  2.847186E+01 -2.084105E+03 -6.757825E+01  1.580641E+03 -1.726492E-04
         5   3 -2.233228E+06 -1.000856E+01 -3.419818E+03 -1.072590E+02  2.610257E+03 -4.525242E-04
         5   4 -2.233227E+06  1.051873E+01 -1.434634E+03  4.873034E-09  5.510242E+02  1.495786E-09
         5   5 -2.233153E+06  2.847185E+01 -2.084105E+03  1.615623E-09  1.580641E+03 -1.551420E-10
         5   6 -2.233228E+06 -1.000859E+01 -3.419818E+03 -2.465593E-09  2.610257E+03 -7.617597E-10
         5   7 -2.233227E+06  1.051873E+01 -1.434634E+03  2.789751E+01  5.510242E+02  2.484802E-05
         5   8 -2.233153E+06  2.847186E+01 -2.084105E+03  6.757825E+01  1.580641E+03  1.726486E-04
         5   9 -2.233228E+06 -1.000856E+01 -3.419818E+03  1.072590E+02  2.610257E+03  4.525228E-04
         5  10 -2.233227E+06  1.051865E+01 -1.434635E+03 -2.789751E+01 -2.138181E-09  1.359407E-10
         5  11 -2.233153E+06  2.847119E+01 -2.084110E+03 -6.757825E+01  8.467503E-10 -4.169912E-10
         5  12 -2.233228E+06 -1.001040E+01 -3.419831E+03 -1.072590E+02 -9.472196E-10  4.725503E-10
         5  13 -2.233227E+06  1.051865E+01 -1.434635E+03  4.589577E-09 -1.950172E-09  3.019667E-10
         5  14 -2.233153E+06  2.847118E+01 -2.084110E+03  4.740755E-09 -2.051088E-09 -6.191226E-10
         5  15 -2.233228E+06 -1.001042E+01 -3.419831E+03 -5.876524E-09 -2.131000E-09 -4.773929E-10
         5  16 -2.233227E+06  1.051865E+01 -1.434635E+03  2.789751E+01 -1.566703E-10  6.033596E-10
         5  17 -2.233153E+06  2.847119E+01 -2.084110E+03  6.757825E+01  7.756856E-10 -9.463842E-10
         5  18 -2.233228E+06 -1.001040E+01 -3.419831E+03  1.072590E+02 -6.999118E-11 -1.331846E-09
         5  19 -2.233227E+06  1.051873E+01 -1.434634E+03 -2.789751E+01 -5.510242E+02  2.484534E-05
         5  20 -2.233153E+06  2.847186E+01 -2.084105E+03 -6.757825E+01 -1.580641E+03  1.726489E-04
         5  21 -2.233228E+06 -1.000856E+01 -3.419818E+03 -1.072590E+02 -2.610257E+03  4.525248E-04
         5  22 -2.233227E+06  1.051873E+01 -1.434634E+03  8.626938E-09 -5.510242E+02 -8.415156E-10
         5  23 -2.233153E+06  2.847185E+01 -2.084105E+03  4.679866E-09 -1.580641E+03 -1.047441E-09
         5  24 -2.233228E+06 -1.000859E+01 -3.419818E+03 -1.963525E-09 -2.610257E+03 -1.765469E-10
         5  25 -2.233227E+06  1.051873E+01 -1.434634E+03  2.789751E+01 -5.510242E+02 -2.484725E-05
         5  26 -2.233153E+06  2.847186E+01 -2.084105E+03  6.757825E+01 -1.580641E+03 -1.726511E-04
         5  27 -2.233228E+06 -1.000856E+01 -3.419818E+03  1.072590E+02 -2.610257E+03 -4.525256E-04
         6   1 -2.233351E+06  6.218607E+01 -4.437969E+03 -2.493481E+02  3.317211E+03 -1.336916E-03
         6   2 -2.233003E+06  1.116138E+02 -7.620260E+03 -1.926966E+02  7.094821E+03 -2.209734E-03
         6   3 -2.233357E+06 -6.718879E+02 -1.347674E+04 -1.360458E+02  1.087235E+04 -2.390743E-03
         6   4 -2.233351E+06  6.218596E+01 -4.437969E+03 -4.824435E-10  3.317211E+03 -8.328052E-10
         6   5 -2.233003E+06  1.116137E+02 -7.620260E+03 -5.142779E-09  7.094821E+03 -6.092498E-10
         6   6 -2.233357E+06 -6.718879E+02 -1.347674E+04  6.858704E-10  1.087235E+04  1.895575E-10
         6   7 -2.233351E+06  6.218607E+01 -4.437969E+03  2.493481E+02  3.317211E+03  1.336914E-03
         6   8 -2.233003E+06  1.116138E+02 -7.620260E+03  1.926966E+02  7.094821E+03  2.209732E-03
         6   9 -2.233357E+06 -6.718879E+02 -1.347674E+04  1.360458E+02  1.087235E+04  2.390743E-03
         6  10 -2.233351E+06  6.218311E+01 -4.437990E+03 -2.493481E+02 -1.634753E-09  5.663298E-10
         6  11 -2.233003E+06  1.116002E+02 -7.620355E+03 -1.926966E+02 -2.593406E-09  3.369164E-10
         6  12 -2.233357E+06 -6.719197E+02 -1.347697E+04 -1.360458E+02 -2.190999E-10  5.145547E-10
         6  13 -2.233351E+06  6.218299E+01 -4.437990E+03  6.055485E-09 -2.286534E-09 -3.613558E-11
         6  14 -2.233003E+06  1.116001E+02 -7.620355E+03  4.581190E-09 -2.017209E-10  2.031712E-10
         6  15 -2.233357E+06 -6.719198E+02 -1.347697E+04 -1.295373E-10 -1.260877E-09  2.635222E-10
         6  16 -2.233351E+06  6.218311E+01 -4.437990E+03  2.493481E+02  1.391113E-09 -6.661770E-10
         6  17 -2.233003E+06  1.116002E+02 -7.620355E+03  1.926966E+02 -2.983099E-10  4.181215E-10
         6  18 -2.233357E+06 -6.719197E+02 -1.347697E+04  1.360458E+02  1.349437E-10  7.702608E-11
         6  19 -2.233351E+06  6.218607E+01 -4.437969E+03 -2.493481E+02 -3.317211E+03  1.336917E-03
         6  20 -2.233003E+06  1.116138E+02 -7.620260E+03 -1.926966E+02 -7.094821E+03  2.209735E-03
         6  21 -2.233357E+06 -6.718879E+02 -1.347674E+04 -1.360458E+02 -1.087235E+04  2.390744E-03
         6  22 -2.233351E+06  6.218596E+01 -4.437969E+03  6.152068E-09 -3.317211E+03  7.063150E-10
         6  23 -2.233003E+06  1.116137E+02 -7.620260E+03  3.534571E-09 -7.094821E+03  1.223373E-09
         6  24 -2.233357E+06 -6.718879E+02 -1.347674E+04  9.006044E-09 -1.087235E+04  3.245313E-10
         6  25 -2.233351E+06  6.218607E+01 -4.437969E+03  2.493481E+02 -3.317211E+03 -1.336916E-03
         6  26 -2.233003E+06  1.116138E+02 -7.620260E+03  1.926966E+02 -7.094821E+03 -2.209733E-03
         6  27 -2.233357E+06 -6.718879E+02 -1.347674E+04  1.360458E+02 -1.087235E+04 -2.390744E-03
         7   1 -2.234384E+06  7.512007E+02 -1.755555E+04 -2.386156E+03  1.359858E+04 -5.244662E-02
         7   2 -2.231734E+06  5.647283E+02 -3.036115E+04  1.063804E+03  2.885601E+04  4.961590E-02
         7   3 -2.234414E+06 -1.295451E+04 -5.645851E+04  4.513847E+03  4.411339E+04  3.218405E-01
         7   4 -2.234384E+06  7.511899E+02 -1.755556E+04  4.185987E-09  1.359858E+04  1.643781E-10
         7   5 -2.231734E+06  5.647262E+02 -3.036116E+04  1.617078E-09  2.885601E+04 -5.994978E-10
         7   6 -2.234415E+06 -1.295454E+04 -5.645852E+04 -1.784092E-09  4.411339E+04 -6.367902E-10
         7   7 -2.234384E+06  7.512007E+02 -1.755555E+04  2.386156E+03  1.359858E+04  5.244662E-02
         7   8 -2.231734E+06  5.647283E+02 -3.036115E+04 -1.063804E+03  2.885601E+04 -4.961590E-02
         7   9 -2.234414E+06 -1.295451E+04 -5.645851E+04 -4.513847E+03  4.411339E+04 -3.218405E-01
         7  10 -2.234384E+06  7.511508E+02 -1.755590E+04 -2.386156E+03 -7.292512E-10  3.407400E-10
         7  11 -2.231735E+06  5.645038E+02 -3.036273E+04  1.063804E+03 -3.409903E-09 -5.019229E-10
         7  12 -2.234417E+06 -1.295503E+04 -5.646218E+04  4.513846E+03 -5.906699E-10 -9.237773E-10
         7  13 -2.234384E+06  7.511401E+02 -1.755590E+04  1.964671E-09  2.683881E-10  4.653402E-11
         7  14 -2.231735E+06  5.645016E+02 -3.036273E+04  6.908998E-09 -2.252556E-09 -5.223406E-10
         7  15 -2.234417E+06 -1.295507E+04 -5.646219E+04  2.219500E-09  1.436986E-09 -1.041728E-09
         7  16 -2.234384E+06  7.511508E+02 -1.755590E+04  2.386156E+03  9.224190E-10 -2.051740E-10
         7  17 -2.231735E+06  5.645038E+02 -3.036273E+04 -1.063804E+03  1.240450E-09 -5.010034E-10
         7  18 -2.234417E+06 -1.295503E+04 -5.646218E+04 -4.513846E+03 -1.198186E-10 -1.148640E-09
         7  19 -2.234384E+06  7.512007E+02 -1.755555E+04 -2.386156E+03 -1.359858E+04  5.244662E-02
         7  20 -2.231734E+06  5.647283E+02 -3.036115E+04  1.063804E+03 -2.885601E+04 -4.961590E-02
         7  21 -2.234414E+06 -1.295451E+04 -5.645851E+04  4.513847E+03 -4.411339E+04 -3.218405E-01
         7  22 -2.234384E+06  7.511899E+02 -1.755556E+04  8.326259E-09 -1.359858E+04 -1.363803E-10
         7  23 -2.231734E+06  5.647262E+02 -3.036116E+04  1.003418E-08 -2.885601E+04 -3.670459E-10
         7  24 -2.234415E+06 -1.295454E+04 -5.645852E+04  2.093567E-09 -4.411339E+04 -1.421804E-09
         7  25 -2.234384E+06  7.512007E+02 -1.755555E+04  2.386156E+03 -1.359858E+04 -5.244662E-02
         7  26 -2.231734E+06  5.647283E+02 -3.036115E+04 -1.063804E+03 -2.885601E+04  4.961590E-02
         7  27 -2.234414E+06 -1.295451E+04 -5.645851E+04 -4.513847E+03 -4.411339E+04  3.218405E-01
         8   1 -2.247052E+06  1.124178E+04 -7.080458E+04 -3.189311E+04  5.423106E+04 -2.795615E+00
         8   2 -2.215973E+06  4.191940E+03 -1.198710E+05  3.438887E+04  1.178495E+05  6.550210E+00
         8   3 -2.247289E+06 -2.190253E+05 -2.644954E+05  1.006665E+05  1.814686E+05  2.952611E+01
         8   4 -2.247053E+06  1.123986E+04 -7.080485E+04  6.668010E-09  5.423106E+04 -3.475781E-10
         8   5 -2.215975E+06  4.189710E+03 -1.198714E+05  7.494702E-09  1.178495E+05  2.678921E-10
         8   6 -2.247300E+06 -2.190444E+05 -2.644982E+05  1.180037E-08  1.814686E+05  6.114334E-11
         8   7 -2.247052E+06  1.124178E+04 -7.080458E+04  3.189311E+04  5.423106E+04  2.795615E+00
         8   8 -2.215973E+06  4.191940E+03 -1.198710E+05 -3.438887E+04  1.178495E+05 -6.550210E+00
         8   9 -2.247289E+06 -2.190253E+05 -2.644954E+05 -1.006665E+05  1.814686E+05 -2.952611E+01
         8  10 -2.247055E+06  1.124098E+04 -7.081013E+04 -3.189311E+04 -1.525319E-10 -4.939555E-10
         8  11 -2.215988E+06  4.188195E+03 -1.198972E+05  3.438886E+04  1.910145E-09  7.885805E-11
         8  12 -2.247324E+06 -2.190342E+05 -2.645575E+05  1.006665E+05  4.005567E-10  1.976886E-10
         8  13 -2.247056E+06  1.123906E+04 -7.081040E+04  4.761615E-09 -8.288359E-27 -7.938955E-10
         8  14 -2.215990E+06  4.185964E+03 -1.198976E+05  2.202531E-09 -1.514758E-09  1.194499E-10
         8  15 -2.247335E+06 -2.190533E+05 -2.645603E+05  2.316742E-09 -6.971894E-10  1.705710E-10
         8  16 -2.247055E+06  1.124098E+04 -7.081013E+04  3.189311E+04  9.966503E-10 -9.823944E-10
         8  17 -2.215988E+06  4.188195E+03 -1.198972E+05 -3.438886E+04  2.133381E-10  1.227769E-10
         8  18 -2.247324E+06 -2.190342E+05 -2.645575E+05 -1.006665E+05 -1.070718E-09  1.603304E-10
         8  19 -2.247052E+06  1.124178E+04 -7.080458E+04 -3.189311E+04 -5.423106E+04  2.795615E+00
         8  20 -2.215973E+06  4.191940E+03 -1.198710E+05  3.438887E+04 -1.178495E+05 -6.550210E+00
         8  21 -2.247289E+06 -2.190253E+05 -2.644954E+05  1.006665E+05 -1.814686E+05 -2.952611E+01
         8  22 -2.247053E+06  1.123986E+04 -7.080485E+04  7.174113E-09 -5.423106E+04 -1.252073E-09
         8  23 -2.215975E+06  4.189710E+03 -1.198714E+05 -9.437764E-10 -1.178495E+05 -3.027481E-11
         8  24 -2.247300E+06 -2.190444E+05 -2.644982E+05  7.116365E-09 -1.814686E+05  2.535770E-10
         8  25 -2.247052E+06  1.124178E+04 -7.080458E+04  3.189311E+04 -5.423106E+04 -2.795615E+00
         8  26 -2.215973E+06  4.191940E+03 -1.198710E+05 -3.438887E+04 -1.178495E+05  6.550210E+00
         8  27 -2.247289E+06 -2.190253E+05 -2.644954E+05 -1.006665E+05 -1.814686E+05  2.952611E+01
         9   1  1.783479E+06  5.801856E+06  1.742211E+06 -1.096076E+06  8.040381E+04  5.536502E+05
         9   2  1.319910E+06  4.720249E+06  1.184799E+06 -9.046905E+05  2.570259E+05  2.490405E+05
         9   3  1.032498E+06  3.725708E+06  8.691499E+05 -9.600622E+05  2.729300E+05 -5.501743E+04
         9   4  2.008391E+05 -6.126846E+05  2.249156E+05 -9.640753E+05  8.133390E+04  1.563809E+05
         9   5  3.621584E+04 -6.327371E+05  1.076222E+05 -8.409781E+05  2.576501E+05  1.012346E+05
         9   6  5.508780E+03 -6.092133E+05  6.026301E+04 -9.646169E+05  2.726817E+05  4.608152E+04
         9   7 -1.384603E+06 -6.989248E+06 -1.294640E+06 -8.333909E+05  8.210367E+04 -2.368404E+05
         9   8 -1.249222E+06 -5.958473E+06 -9.709406E+05 -7.777869E+05  2.582480E+05 -4.533155E+04
         9   9 -1.022557E+06 -4.925989E+06 -7.493910E+05 -9.691087E+05  2.724308E+05  1.464947E+05
         9  10  1.783390E+06  5.801527E+06  1.741628E+06 -1.096112E+06  5.045643E-11  3.432088E-09
         9  11  1.319822E+06  4.720165E+06  1.184559E+06 -9.047419E+05  1.400488E-09 -9.971281E-09
         9  12  1.032417E+06  3.725684E+06  8.690044E+05 -9.600502E+05  4.701236E-10 -2.164893E-08
         9  13  2.008254E+05 -6.127126E+05  2.248571E+05 -9.640856E+05  2.170050E-09  6.600958E-11
         9  14  3.614178E+04 -6.327660E+05  1.074780E+05 -8.409991E+05 -3.989551E-10  6.325374E-11
         9  15  5.428362E+03 -6.092355E+05  6.011924E+04 -9.646270E+05  1.725609E-09  4.801531E-11
         9  16 -1.384625E+06 -6.989311E+06 -1.294759E+06 -8.333752E+05  2.714127E-09 -3.405919E-09
         9  17 -1.249294E+06 -5.958493E+06 -9.710697E+05 -7.777774E+05  4.195339E-10  9.831294E-09
         9  18 -1.022643E+06 -4.926032E+06 -7.495714E+05 -9.691409E+05  2.286205E-09  2.146726E-08
         9  19  1.783479E+06  5.801856E+06  1.742211E+06 -1.096076E+06 -8.040381E+04 -5.536502E+05
         9  20  1.319910E+06  4.720249E+06  1.184799E+06 -9.046905E+05 -2.570259E+05 -2.490405E+05
         9  21  1.032498E+06  3.725708E+06  8.691499E+05 -9.600622E+05 -2.729300E+05  5.501743E+04
         9  22  2.008391E+05 -6.126846E+05  2.249156E+05 -9.640753E+05 -8.133390E+04 -1.563809E+05
         9  23  3.621584E+04 -6.327371E+05  1.076222E+05 -8.409781E+05 -2.576501E+05 -1.012346E+05
         9  24  5.508780E+03 -6.092133E+05  6.026301E+04 -9.646169E+05 -2.726817E+05 -4.608152E+04
         9  25 -1.384603E+06 -6.989248E+06 -1.294640E+06 -8.333909E+05 -8.210367E+04  2.368404E+05
         9  26 -1.249222E+06 -5.958473E+06 -9.709406E+05 -7.777869E+05 -2.582480E+05  4.533155E+04
         9  27 -1.022557E+06 -4.925989E+06 -7.493910E+05 -9.691087E+05 -2.724308E+05 -1.464947E+05
        10   1  8.739454E+05  3.018545E+06  7.210354E+05 -9.804277E+05  2.328176E+05 -3.900361E+04
        10   2  6.195631E+05  1.978278E+06  4.961003E+05 -8.474281E+05  1.780852E+05 -6.684714E+04
        10   3  3.759360E+05  9.441999E+05  2.915592E+05 -9.711699E+05  1.136067E+05 -9.480795E+04
        10   4  1.281704E+04 -6.172428E+05  4.609908E+04 -9.667880E+05  2.325847E+05  3.792107E+04
        10   5  6.649792E+03 -6.176564E+05  2.542955E+04 -8.384031E+05  1.776947E+05  2.511053E+04
        10   6  8.712280E+03 -6.154949E+05  1.479616E+04 -9.668207E+05  1.130364E+05  1.213811E+04
        10   7 -8.490661E+05 -4.240247E+06 -6.293741E+05 -9.532069E+05  2.323543E+05  1.144080E+05
        10   8 -6.066374E+05 -3.207026E+06 -4.454769E+05 -8.294051E+05  1.773059E+05  1.166950E+05
        10   9 -3.586394E+05 -2.172790E+06 -2.620147E+05 -9.624780E+05  1.124668E+05  1.188235E+05
        10  10  8.738869E+05  3.018528E+06  7.209308E+05 -9.804205E+05 -2.360096E-11  2.130413E-08
        10  11  6.195279E+05  1.978265E+06  4.960325E+05 -8.474185E+05 -2.554272E-09  8.528726E-09
        10  12  3.759198E+05  9.441868E+05  2.915182E+05 -9.711612E+05 -3.461083E-10 -5.495173E-09
        10  13  1.275857E+04 -6.172589E+05  4.599468E+04 -9.667951E+05  2.969283E-10 -1.069506E-10
        10  14  6.615718E+03 -6.176655E+05  2.536901E+04 -8.384067E+05 -1.277381E-10 -5.298556E-11
        10  15  8.698521E+03 -6.154985E+05  1.477187E+04 -9.668218E+05 -1.017706E-09  2.473671E-11
        10  16 -8.491277E+05 -4.240276E+06 -6.295004E+05 -9.532284E+05  6.402578E-10 -2.122675E-08
        10  17 -6.066748E+05 -3.207050E+06 -4.455618E+05 -8.294218E+05  6.870745E-10 -8.504768E-09
        10  18 -3.586568E+05 -2.172809E+06 -2.620652E+05 -9.624888E+05 -1.455893E-09  5.390148E-09
        10  19  8.739454E+05  3.018545E+06  7.210354E+05 -9.804277E+05 -2.328176E+05  3.900361E+04
        10  20  6.195631E+05  1.978278E+06  4.961003E+05 -8.474281E+05 -1.780852E+05  6.684714E+04
        10  21  3.759360E+05  9.441999E+05  2.915592E+05 -9.711699E+05 -1.136067E+05  9.480795E+04
        10  22  1.281704E+04 -6.172428E+05  4.609908E+04 -9.667880E+05 -2.325847E+05 -3.792107E+04
        10  23  6.649792E+03 -6.176564E+05  2.542955E+04 -8.384031E+05 -1.776947E+05 -2.511053E+04
        10  24  8.712280E+03 -6.154949E+05  1.479616E+04 -9.668207E+05 -1.130364E+05 -1.213811E+04
        10  25 -8.490661E+05 -4.240247E+06 -6.293741E+05 -9.532069E+05 -2.323543E+05 -1.144080E+05
        10  26 -6.066374E+05 -3.207026E+06 -4.454769E+05 -8.294051E+05 -1.773059E+05 -1.166950E+05
        10  27 -3.586394E+05 -2.172790E+06 -2.620147E+05 -9.624780E+05 -1.124668E+05 -1.188235E+05
        11   1  2.121663E+05  2.511141E+05  1.581202E+05 -9.693099E+05  7.050037E+04 -1.010557E+05
        11   2 -3.581983E+04 -7.801523E+05 -5.081553E+04 -8.367527E+05  1.627573E+04 -4.874972E+04
        11   3 -2.891136E+05 -1.820911E+06 -2.958762E+05 -9.596036E+05 -1.688355E+03  3.586456E+03
        11   4  9.341620E+03 -6.159256E+05  1.122823E+04 -9.665022E+05  6.987749E+04  9.608358E+03
        11   5  8.584110E+03 -6.155545E+05  6.368543E+03 -8.388016E+05  1.596936E+04  6.190486E+03
        11   6  1.225394E+04 -6.160330E+05  4.108310E+03 -9.664897E+05 -1.684222E+03  2.889300E+03
        11   7 -1.935162E+05 -1.482199E+06 -1.356421E+05 -9.636971E+05  6.925503E+04  1.201229E+05
        11   8  5.298689E+04 -4.509282E+05  6.356106E+04 -8.408509E+05  1.566268E+04  6.114584E+04
        11   9  3.135122E+05  5.901655E+05  3.039838E+05 -9.733864E+05 -1.680078E+03  2.190785E+03
        11  10  2.121582E+05  2.511018E+05  1.580918E+05 -9.693041E+05 -2.634258E-09  1.762188E-09
        11  11 -3.582075E+04 -7.801549E+05 -5.082050E+04 -8.367521E+05 -2.323677E-09  1.264621E-09
        11  12 -2.891136E+05 -1.820911E+06 -2.958762E+05 -9.596036E+05 -9.844606E-10  1.522263E-10
        11  13  9.336352E+03 -6.159270E+05  1.121887E+04 -9.665027E+05 -2.792950E-09  6.320669E-11
        11  14  8.583826E+03 -6.155546E+05  6.367991E+03 -8.388017E+05 -2.863657E-09  6.851021E-11
        11  15  1.225393E+04 -6.160331E+05  4.108289E+03 -9.664897E+05  4.608901E-11 -4.045566E-12
        11  16 -1.935253E+05 -1.482216E+06 -1.356783E+05 -9.637038E+05 -7.741130E-10 -1.906445E-09
        11  17  5.298562E+04 -4.509323E+05  6.355356E+04 -8.408517E+05  2.008044E-10 -1.499206E-09
        11  18  3.135122E+05  5.901655E+05  3.039838E+05 -9.733864E+05  3.733228E-10 -2.820358E-11
        11  19  2.121663E+05  2.511141E+05  1.581202E+05 -9.693099E+05 -7.050037E+04  1.010557E+05
        11  20 -3.581983E+04 -7.801523E+05 -5.081553E+04 -8.367527E+05 -1.627573E+04  4.874972E+04
        11  21 -2.891136E+05 -1.820911E+06 -2.958762E+05 -9.596036E+05  1.688355E+03 -3.586456E+03
        11  22  9.341620E+03 -6.159256E+05  1.122823E+04 -9.665022E+05 -6.987749E+04 -9.608358E+03
        11  23  8.584110E+03 -6.155545E+05  6.368543E+03 -8.388016E+05 -1.596936E+04 -6.190486E+03
        11  24  1.225394E+04 -6.160330E+05  4.108310E+03 -9.664897E+05  1.684222E+03 -2.889300E+03
        11  25 -1.935162E+05 -1.482199E+06 -1.356421E+05 -9.636971E+05 -6.925503E+04 -1.201229E+05
        11  26  5.298689E+04 -4.509282E+05  6.356106E+04 -8.408509E+05 -1.566268E+04 -6.114584E+04
        11  27  3.135122E+05  5.901655E+05  3.039838E+05 -9.733864E+05  1.680078E+03 -2.190785E+03
        12   1 -2.969921E+06 -7.931066E+05 -3.684572E+05 -1.141274E+06 -2.188971E+05 -8.051687E+04
        12   2 -2.924057E+06 -4.610281E+05 -1.656908E+05 -1.146418E+06 -1.386086E+05 -4.781815E+04
        12   3 -2.976547E+06 -4.021836E+05 -9.528379E+04 -1.097063E+06 -5.701839E+04 -1.857497E+04
        12   4 -2.937841E+06 -6.697120E+05 -3.380233E+05 -1.017934E+06 -2.156449E+05 -7.934709E+04
        12   5 -2.870562E+06 -4.040493E+05 -1.456195E+05 -1.093576E+06 -1.381574E+05 -4.765942E+04
        12   6 -2.901071E+06 -4.110734E+05 -8.334282E+04 -1.114729E+06 -5.936472E+04 -1.945030E+04
        12   7 -2.905729E+06 -5.462473E+05 -3.075827E+05 -8.945783E+05 -2.123927E+05 -7.817578E+04
        12   8 -2.817060E+06 -3.470602E+05 -1.255478E+05 -1.040729E+06 -1.377062E+05 -4.750060E+04
        12   9 -2.825586E+06 -4.199594E+05 -7.140104E+04 -1.132399E+06 -6.171138E+04 -2.032540E+04
        12  10 -2.969974E+06 -7.931266E+05 -3.685600E+05 -1.141288E+06 -9.065552E-10 -5.153016E-11
        12  11 -2.924079E+06 -4.610358E+05 -1.657314E+05 -1.146423E+06 -4.347569E-09 -7.812546E-12
        12  12 -2.976551E+06 -4.021849E+05 -9.529059E+04 -1.097064E+06  1.735554E-09  3.871719E-10
        12  13 -2.937892E+06 -6.697314E+05 -3.381231E+05 -1.017947E+06 -2.197492E-09 -1.867381E-11
        12  14 -2.870583E+06 -4.040569E+05 -1.456598E+05 -1.093582E+06  4.027579E-12 -2.472838E-11
        12  15 -2.901075E+06 -4.110748E+05 -8.335019E+04 -1.114730E+06  3.219531E-09  4.992041E-11
        12  16 -2.905779E+06 -5.462661E+05 -3.076794E+05 -8.945917E+05 -1.069349E-12  6.821369E-11
        12  17 -2.817081E+06 -3.470678E+05 -1.255879E+05 -1.040734E+06  5.323914E-10  1.586918E-10
        12  18 -2.825590E+06 -4.199608E+05 -7.140902E+04 -1.132400E+06  3.732477E-09 -1.148433E-10
        12  19 -2.969921E+06 -7.931066E+05 -3.684572E+05 -1.141274E+06  2.188971E+05  8.051687E+04
        12  20 -2.924057E+06 -4.610281E+05 -1.656908E+05 -1.146418E+06  1.386086E+05  4.781815E+04
        12  21 -2.976547E+06 -4.021836E+05 -9.528379E+04 -1.097063E+06  5.701839E+04  1.857497E+04
        12  22 -2.937841E+06 -6.697120E+05 -3.380233E+05 -1.017934E+06  2.156449E+05  7.934709E+04
        12  23 -2.870562E+06 -4.040493E+05 -1.456195E+05 -1.093576E+06  1.381574E+05  4.765942E+04
        12  24 -2.901071E+06 -4.110734E+05 -8.334282E+04 -1.114729E+06  5.936472E+04  1.945030E+04
        12  25 -2.905729E+06 -5.462473E+05 -3.075827E+05 -8.945783E+05  2.123927E+05  7.817578E+04
        12  26 -2.817060E+06 -3.470602E+05 -1.255478E+05 -1.040729E+06  1.377062E+05  4.750060E+04
        12  27 -2.825586E+06 -4.199594E+05 -7.140104E+04 -1.132399E+06  6.171138E+04  2.032540E+04
        13   1 -2.906023E+06 -4.495783E+05 -7.120681E+04 -1.108633E+06 -4.677119E+04 -1.638432E+04
        13   2 -2.876644E+06 -4.116340E+05 -3.071701E+04 -1.094965E+06 -2.882987E+04 -1.157356E+04
        13   3 -2.845114E+06 -4.024100E+05 -7.929686E+03 -1.090015E+06 -1.082836E+04 -6.918772E+03
        13   4 -2.890337E+06 -4.379725E+05 -6.631193E+04 -1.098395E+06 -4.806056E+04 -1.686820E+04
        13   5 -2.890221E+06 -4.152352E+05 -3.377536E+04 -1.097169E+06 -3.024498E+04 -1.210413E+04
        13   6 -2.887930E+06 -4.211931E+05 -1.884012E+04 -1.104663E+06 -1.237015E+04 -7.496682E+03
        13   7 -2.874651E+06 -4.263664E+05 -6.141706E+04 -1.088156E+06 -4.934996E+04 -1.735213E+04
        13   8 -2.903798E+06 -4.188364E+05 -3.683369E+04 -1.099374E+06 -3.166005E+04 -1.263469E+04
        13   9 -2.930743E+06 -4.399757E+05 -2.975058E+04 -1.119310E+06 -1.391181E+04 -8.074525E+03
        13  10 -2.906026E+06 -4.495792E+05 -7.121145E+04 -1.108634E+06  3.434481E-09  2.124237E-10
        13  11 -2.876645E+06 -4.116344E+05 -3.071883E+04 -1.094965E+06  3.196596E-10 -8.439865E-10
        13  12 -2.845114E+06 -4.024101E+05 -7.929998E+03 -1.090016E+06 -2.717216E-09 -6.379798E-11
        13  13 -2.890340E+06 -4.379734E+05 -6.631683E+04 -1.098395E+06  1.749539E-10 -1.569752E-10
        13  14 -2.890222E+06 -4.152356E+05 -3.377736E+04 -1.097170E+06  1.258681E-09 -5.308118E-10
        13  15 -2.887930E+06 -4.211932E+05 -1.884052E+04 -1.104663E+06 -4.389710E-09  3.224899E-10
        13  16 -2.874653E+06 -4.263674E+05 -6.142223E+04 -1.088156E+06  1.546050E-09 -6.789896E-10
        13  17 -2.903799E+06 -4.188368E+05 -3.683589E+04 -1.099374E+06 -6.967853E-10 -2.052844E-10
        13  18 -2.930743E+06 -4.399758E+05 -2.975107E+04 -1.119310E+06 -2.191906E-09  8.222971E-10
        13  19 -2.906023E+06 -4.495783E+05 -7.120681E+04 -1.108633E+06  4.677119E+04  1.638432E+04
        13  20 -2.876644E+06 -4.116340E+05 -3.071701E+04 -1.094965E+06  2.882987E+04  1.157356E+04
        13  21 -2.845114E+06 -4.024100E+05 -7.929686E+03 -1.090015E+06  1.082836E+04  6.918772E+03
        13  22 -2.890337E+06 -4.379725E+05 -6.631193E+04 -1.098395E+06  4.806056E+04  1.686820E+04
        13  23 -2.890221E+06 -4.152352E+05 -3.377536E+04 -1.097169E+06  3.024498E+04  1.210413E+04
        13  24 -2.887930E+06 -4.211931E+05 -1.884012E+04 -1.104663E+06  1.237015E+04  7.496682E+03
        13  25 -2.874651E+06 -4.263664E+05 -6.141706E+04 -1.088156E+06  4.934996E+04  1.735213E+04
        13  26 -2.903798E+06 -4.188364E+05 -3.683369E+04 -1.099374E+06  3.166005E+04  1.263469E+04
        13  27 -2.930743E+06 -4.399757E+05 -2.975058E+04 -1.119310E+06  1.391181E+04  8.074525E+03
        14   1 -2.813541E+06 -3.954497E+05  3.755223E+03 -1.083406E+06 -7.818422E+03 -7.046674E+03
        14   2 -2.786544E+06 -3.768840E+05  1.805578E+04 -1.068555E+06 -3.215883E+03 -7.423985E+03
        14   3 -2.749627E+06 -3.704151E+05  2.912192E+04 -1.066028E+06  1.384332E+03 -7.793573E+03
        14   4 -2.886963E+06 -4.228396E+05 -1.438554E+04 -1.103466E+06 -9.306002E+03 -7.604378E+03
        14   5 -2.891849E+06 -4.162881E+05 -7.826637E+03 -1.097491E+06 -4.697802E+03 -7.979707E+03
        14   6 -2.886815E+06 -4.218346E+05 -4.506483E+03 -1.103840E+06 -9.215453E+01 -8.347393E+03
        14   7 -2.960380E+06 -4.502294E+05 -3.252692E+04 -1.123524E+06 -1.079340E+04 -8.162016E+03
        14   8 -2.997143E+06 -4.556917E+05 -3.371013E+04 -1.126423E+06 -6.179457E+03 -8.535329E+03
        14   9 -3.023985E+06 -4.732531E+05 -3.813653E+04 -1.141645E+06 -1.568292E+03 -8.901080E+03
        14  10 -2.813541E+06 -3.954498E+05  3.755014E+03 -1.083406E+06 -1.268873E-09  1.028954E-09
        14  11 -2.786544E+06 -3.768841E+05  1.805566E+04 -1.068555E+06  5.983235E-10  9.559613E-10
        14  12 -2.749627E+06 -3.704151E+05  2.912180E+04 -1.066028E+06  1.169657E-09  6.106323E-10
        14  13 -2.886963E+06 -4.228397E+05 -1.438581E+04 -1.103466E+06 -2.586280E-09  9.421480E-10
        14  14 -2.891849E+06 -4.162881E+05 -7.826799E+03 -1.097491E+06 -2.667026E-09  1.122861E-09
        14  15 -2.886815E+06 -4.218347E+05 -4.506614E+03 -1.103840E+06  2.594303E-09  4.394281E-10
        14  16 -2.960380E+06 -4.502295E+05 -3.252726E+04 -1.123524E+06 -2.023763E-09  8.641343E-10
        14  17 -2.997143E+06 -4.556917E+05 -3.371034E+04 -1.126423E+06 -4.076332E-09  1.099572E-09
        14  18 -3.023985E+06 -4.732531E+05 -3.813668E+04 -1.141645E+06 -3.000613E-09  4.420640E-10
        14  19 -2.813541E+06 -3.954497E+05  3.755223E+03 -1.083406E+06  7.818422E+03  7.046674E+03
        14  20 -2.786544E+06 -3.768840E+05  1.805578E+04 -1.068555E+06  3.215883E+03  7.423985E+03
        14  21 -2.749627E+06 -3.704151E+05  2.912192E+04 -1.066028E+06 -1.384332E+03  7.793573E+03
        14  22 -2.886963E+06 -4.228396E+05 -1.438554E+04 -1.103466E+06  9.306002E+03  7.604378E+03
        14  23 -2.891849E+06 -4.162881E+05 -7.826637E+03 -1.097491E+06  4.697802E+03  7.979707E+03
        14  24 -2.886815E+06 -4.218346E+05 -4.506483E+03 -1.103840E+06  9.215453E+01  8.347393E+03
        14  25 -2.960380E+06 -4.502294E+05 -3.252692E+04 -1.123524E+06  1.079340E+04  8.162016E+03
        14  26 -2.997143E+06 -4.556917E+05 -3.371013E+04 -1.126423E+06  6.179457E+03  8.535329E+03
        14  27 -3.023985E+06 -4.732531E+05 -3.813653E+04 -1.141645E+06  1.568292E+03  8.901080E+03
        15   1 -2.721581E+06 -3.601337E+05  3.715325E+04 -1.058400E+06  2.427878E+03 -8.612836E+03
        15   2 -2.695733E+06 -3.432652E+05  4.580569E+04 -1.043885E+06  4.272920E+03 -9.974045E+03
        15   3 -2.659514E+06 -3.370337E+05  5.356767E+04 -1.041463E+06  6.109467E+03 -1.131074E+04
        15   4 -2.886766E+06 -4.218482E+05 -3.542994E+03 -1.103664E+06  9.679147E+02 -9.160576E+03
        15   5 -2.891948E+06 -4.165115E+05 -2.388546E+03 -1.097623E+06  2.832241E+03 -1.051478E+04
        15   6 -2.886764E+06 -4.218158E+05 -2.140061E+03 -1.103677E+06  4.688015E+03 -1.184449E+04
        15   7 -3.051923E+06 -4.835603E+05 -4.424092E+04 -1.148916E+06 -4.916106E+02 -9.708150E+03
        15   8 -3.088124E+06 -4.897549E+05 -5.058555E+04 -1.151346E+06  1.392065E+03 -1.105533E+04
        15   9 -3.113963E+06 -5.065946E+05 -5.785190E+04 -1.165870E+06  3.267129E+03 -1.237803E+04
        15  10 -2.721581E+06 -3.601337E+05  3.715310E+04 -1.058400E+06 -1.221878E-10  2.176785E-11
        15  11 -2.695733E+06 -3.432654E+05  4.580547E+04 -1.043885E+06  4.130411E-10 -8.551005E-10
        15  12 -2.659514E+06 -3.370338E+05  5.356736E+04 -1.041463E+06 -3.417537E-09 -1.362101E-09
        15  13 -2.886766E+06 -4.218483E+05 -3.543153E+03 -1.103664E+06  9.789922E-10 -1.620821E-10
        15  14 -2.891948E+06 -4.165116E+05 -2.388769E+03 -1.097623E+06  1.636644E-09 -6.649568E-10
        15  15 -2.886764E+06 -4.218159E+05 -2.140366E+03 -1.103677E+06 -1.413204E-09 -1.315321E-09
        15  16 -3.051923E+06 -4.835604E+05 -4.424109E+04 -1.148916E+06 -7.130452E-10 -1.207920E-10
        15  17 -3.088124E+06 -4.897551E+05 -5.058579E+04 -1.151346E+06  2.226592E-10 -8.227294E-10
        15  18 -3.113963E+06 -5.065947E+05 -5.785221E+04 -1.165870E+06 -1.715704E-09 -1.212100E-09
        15  19 -2.721581E+06 -3.601337E+05  3.715325E+04 -1.058400E+06 -2.427878E+03  8.612836E+03
        15  20 -2.695733E+06 -3.432652E+05  4.580569E+04 -1.043885E+06 -4.272920E+03  9.974045E+03
        15  21 -2.659514E+06 -3.370337E+05  5.356767E+04 -1.041463E+06 -6.109467E+03  1.131074E+04
        15  22 -2.886766E+06 -4.218482E+05 -3.542994E+03 -1.103664E+06 -9.679147E+02  9.160576E+03
        15  23 -2.891948E+06 -4.165115E+05 -2.388546E+03 -1.097623E+06 -2.832241E+03  1.051478E+04
        15  24 -2.886764E+06 -4.218158E+05 -2.140061E+03 -1.103677E+06 -4.688015E+03  1.184449E+04
        15  25 -3.051923E+06 -4.835603E+05 -4.424092E+04 -1.148916E+06  4.916106E+02  9.708150E+03
        15  26 -3.088124E+06 -4.897549E+05 -5.058555E+04 -1.151346E+06 -1.392065E+03  1.105533E+04
        15  27 -3.113963E+06 -5.065946E+05 -5.785190E+04 -1.165870E+06 -3.267129E+03  1.237803E+04
        16   1 -2.632856E+06 -3.269098E+05  6.020447E+04 -1.034043E+06  6.836655E+03 -1.220000E+04
        16   2 -2.608276E+06 -3.109033E+05  6.635789E+04 -1.020216E+06  9.076531E+03 -1.331775E+04
        16   3 -2.573895E+06 -3.050657E+05  7.129655E+04 -1.017884E+06  1.130322E+04 -1.439791E+04
        16   4 -2.886893E+06 -4.217000E+05 -2.294633E+03 -1.103550E+06  5.437900E+03 -1.272541E+04
        16   5 -2.891800E+06 -4.166593E+05 -3.263379E+03 -1.097786E+06  7.707188E+03 -1.383245E+04
        16   6 -2.886913E+06 -4.217936E+05 -5.470594E+03 -1.103518E+06  9.963213E+03 -1.490191E+04
        16   7 -3.140865E+06 -5.164854E+05 -6.479834E+04 -1.173031E+06  4.039778E+03 -1.325059E+04
        16   8 -3.175244E+06 -5.224098E+05 -7.289076E+04 -1.175325E+06  6.338530E+03 -1.434690E+04
        16   9 -3.199835E+06 -5.385154E+05 -8.224558E+04 -1.189113E+06  8.623938E+03 -1.540564E+04
        16  10 -2.632857E+06 -3.269099E+05  6.020410E+04 -1.034043E+06 -4.624519E-09 -1.267868E-09
        16  11 -2.608276E+06 -3.109035E+05  6.635740E+04 -1.020216E+06 -2.628617E-09  4.092966E-10
        16  12 -2.573895E+06 -3.050659E+05  7.129592E+04 -1.017884E+06  1.102427E-10  9.834818E-10
        16  13 -2.886893E+06 -4.217002E+05 -2.294993E+03 -1.103550E+06 -1.906069E-09 -7.729968E-10
        16  14 -2.891800E+06 -4.166595E+05 -3.263849E+03 -1.097786E+06 -2.360181E-09  6.304846E-11
        16  15 -2.886913E+06 -4.217938E+05 -5.471197E+03 -1.103518E+06 -8.104535E-10  5.954498E-10
        16  16 -3.140865E+06 -5.164856E+05 -6.479870E+04 -1.173031E+06 -1.123759E-09 -1.248325E-10
        16  17 -3.175244E+06 -5.224101E+05 -7.289122E+04 -1.175325E+06 -6.280975E-10  7.217052E-10
        16  18 -3.199835E+06 -5.385157E+05 -8.224617E+04 -1.189113E+06  3.722301E-10  1.676448E-10
        16  19 -2.632856E+06 -3.269098E+05  6.020447E+04 -1.034043E+06 -6.836655E+03  1.220000E+04
        16  20 -2.608276E+06 -3.109033E+05  6.635789E+04 -1.020216E+06 -9.076531E+03  1.331775E+04
        16  21 -2.573895E+06 -3.050657E+05  7.129655E+04 -1.017884E+06 -1.130322E+04  1.439791E+04
        16  22 -2.886893E+06 -4.217000E+05 -2.294633E+03 -1.103550E+06 -5.437900E+03  1.272541E+04
        16  23 -2.891800E+06 -4.166593E+05 -3.263379E+03 -1.097786E+06 -7.707188E+03  1.383245E+04
        16  24 -2.886913E+06 -4.217936E+05 -5.470594E+03 -1.103518E+06 -9.963213E+03  1.490191E+04
        16  25 -3.140865E+06 -5.164854E+05 -6.479834E+04 -1.173031E+06 -4.039778E+03  1.325059E+04
        16  26 -3.175244E+06 -5.224098E+05 -7.289076E+04 -1.175325E+06 -6.338530E+03  1.434690E+04
        16  27 -3.199835E+06 -5.385154E+05 -8.224558E+04 -1.189113E+06 -8.623938E+03  1.540564E+04
        17   1 -2.548888E+06 -2.955530E+05  7.599914E+04 -1.011220E+06  1.267922E+04 -1.497658E+04
        17   2 -2.525758E+06 -2.803300E+05  7.700732E+04 -9.979604E+05  1.960085E+04 -1.419498E+04
        17   3 -2.494800E+06 -2.764253E+05  7.279486E+04 -9.951145E+05  2.649425E+04 -1.333505E+04
        17   4 -2.887278E+06 -4.214936E+05 -7.149268E+03 -1.103489E+06  1.136118E+04 -1.547255E+04
        17   5 -2.891315E+06 -4.166727E+05 -1.275430E+04 -1.097969E+06  1.834207E+04 -1.466908E+04
        17   6 -2.887537E+06 -4.231835E+05 -2.362940E+04 -1.102863E+06  2.529440E+04 -1.378737E+04
        17   7 -3.225555E+06 -5.474265E+05 -9.030638E+04 -1.195712E+06  1.004394E+04 -1.596824E+04
        17   8 -3.256738E+06 -5.530060E+05 -1.025258E+05 -1.197923E+06  1.708410E+04 -1.514288E+04
        17   9 -3.280118E+06 -5.699304E+05 -1.200649E+05 -1.210548E+06  2.409539E+04 -1.423937E+04
        17  10 -2.548888E+06 -2.955533E+05  7.599842E+04 -1.011220E+06 -5.826465E-10  4.698124E-10
        17  11 -2.525758E+06 -2.803303E+05  7.700622E+04 -9.979602E+05 -1.136476E-09 -7.285743E-10
        17  12 -2.494801E+06 -2.764257E+05  7.279320E+04 -9.951142E+05 -1.700481E-09 -7.146702E-10
        17  13 -2.887278E+06 -4.214939E+05 -7.149960E+03 -1.103489E+06  1.388670E-09  1.727568E-10
        17  14 -2.891315E+06 -4.166730E+05 -1.275533E+04 -1.097968E+06 -1.889418E-09 -6.262599E-10
        17  15 -2.887537E+06 -4.231839E+05 -2.363096E+04 -1.102862E+06 -3.855491E-09 -5.845076E-10
        17  16 -3.225555E+06 -5.474268E+05 -9.030705E+04 -1.195712E+06 -2.124283E-09  1.076169E-11
        17  17 -3.256738E+06 -5.530063E+05 -1.025268E+05 -1.197923E+06 -5.043021E-10  2.052338E-10
        17  18 -3.280119E+06 -5.699307E+05 -1.200664E+05 -1.210548E+06  1.804699E-09 -5.126065E-10
        17  19 -2.548888E+06 -2.955530E+05  7.599914E+04 -1.011220E+06 -1.267922E+04  1.497658E+04
        17  20 -2.525758E+06 -2.803300E+05  7.700732E+04 -9.979604E+05 -1.960085E+04  1.419498E+04
        17  21 -2.494800E+06 -2.764253E+05  7.279486E+04 -9.951145E+05 -2.649425E+04  1.333505E+04
        17  22 -2.887278E+06 -4.214936E+05 -7.149268E+03 -1.103489E+06 -1.136118E+04  1.547255E+04
        17  23 -2.891315E+06 -4.166727E+05 -1.275430E+04 -1.097969E+06 -1.834207E+04  1.466908E+04
        17  24 -2.887537E+06 -4.231835E+05 -2.362940E+04 -1.102863E+06 -2.529440E+04  1.378737E+04
        17  25 -3.225555E+06 -5.474265E+05 -9.030638E+04 -1.195712E+06 -1.004394E+04  1.596824E+04
        17  26 -3.256738E+06 -5.530060E+05 -1.025258E+05 -1.197923E+06 -1.708410E+04  1.514288E+04
        17  27 -3.280118E+06 -5.699304E+05 -1.200649E+05 -1.210548E+06 -2.409539E+04  1.423937E+04
        18   1 -2.470112E+06 -2.682139E+05  7.125878E+04 -9.943632E+05  3.137628E+04 -1.258124E+04
        18   2 -2.449586E+06 -2.488142E+05  5.264891E+04 -9.748602E+05  5.960067E+04 -3.465725E+03
        18   3 -2.434974E+06 -2.668315E+05  5.539752E+03 -9.585091E+05  8.754864E+04  6.389125E+03
        18   4 -2.889369E+06 -4.202251E+05 -3.098907E+04 -1.104553E+06  3.000760E+04 -1.309710E+04
        18   5 -2.888352E+06 -4.152785E+05 -5.564562E+04 -1.097792E+06  5.880741E+04 -3.765977E+03
        18   6 -2.893374E+06 -4.478791E+05 -1.092750E+05 -1.094183E+06  8.732970E+04  6.303561E+03
        18   7 -3.308453E+06 -5.722276E+05 -1.332507E+05 -1.214677E+06  2.863992E+04 -1.361261E+04
        18   8 -3.326928E+06 -5.817284E+05 -1.639553E+05 -1.220645E+06  5.801476E+04 -4.065995E+03
        18   9 -3.351566E+06 -6.289055E+05 -2.241063E+05 -1.229764E+06  8.711092E+04  6.218062E+03
        18  10 -2.470113E+06 -2.682143E+05  7.125663E+04 -9.943629E+05 -8.475217E-10 -2.212238E-10
        18  11 -2.449590E+06 -2.488152E+05  5.264219E+04 -9.748600E+05  1.827797E-09 -4.008930E-10
        18  12 -2.434982E+06 -2.668336E+05  5.525213E+03 -9.585096E+05 -1.210385E-09  1.383437E-10
        18  13 -2.889370E+06 -4.202255E+05 -3.099108E+04 -1.104553E+06 -3.218855E-09 -6.389661E-10
        18  14 -2.888356E+06 -4.152794E+05 -5.565218E+04 -1.097792E+06 -2.972565E-09 -3.565918E-10
        18  15 -2.893382E+06 -4.478812E+05 -1.092894E+05 -1.094184E+06 -6.486516E-10  2.930888E-10
        18  16 -3.308454E+06 -5.722281E+05 -1.332525E+05 -1.214676E+06  1.859063E-09 -1.187099E-09
        18  17 -3.326931E+06 -5.817294E+05 -1.639617E+05 -1.220644E+06 -3.100604E-09 -5.918159E-10
        18  18 -3.351574E+06 -6.289076E+05 -2.241207E+05 -1.229764E+06 -2.539604E-09 -1.121493E-10
        18  19 -2.470112E+06 -2.682139E+05  7.125878E+04 -9.943632E+05 -3.137628E+04  1.258124E+04
        18  20 -2.449586E+06 -2.488142E+05  5.264891E+04 -9.748602E+05 -5.960067E+04  3.465725E+03
        18  21 -2.434974E+06 -2.668315E+05  5.539752E+03 -9.585091E+05 -8.754864E+04 -6.389125E+03
        18  22 -2.889369E+06 -4.202251E+05 -3.098907E+04 -1.104553E+06 -3.000760E+04  1.309710E+04
        18  23 -2.888352E+06 -4.152785E+05 -5.564562E+04 -1.097792E+06 -5.880741E+04  3.765977E+03
        18  24 -2.893374E+06 -4.478791E+05 -1.092750E+05 -1.094183E+06 -8.732970E+04 -6.303561E+03
        18  25 -3.308453E+06 -5.722276E+05 -1.332507E+05 -1.214677E+06 -2.863992E+04  1.361261E+04
        18  26 -3.326928E+06 -5.817284E+05 -1.639553E+05 -1.220645E+06 -5.801476E+04  4.065995E+03
        18  27 -3.351566E+06 -6.289055E+05 -2.241063E+05 -1.229764E+06 -8.711092E+04 -6.218062E+03
        19   1 -2.380402E+06 -2.661771E+05 -1.814212E+04 -1.038163E+06  1.106077E+05  1.240164E+04
        19   2 -2.393313E+06 -1.626523E+05 -1.140562E+05 -9.022144E+05  2.271883E+05  5.827985E+04
        19   3 -2.576018E+06 -4.945756E+05 -4.148241E+05 -6.634800E+05  3.381669E+05  1.190411E+05
        19   4 -2.911243E+06 -4.033611E+05 -1.373444E+05 -1.120896E+06  1.059246E+05  1.064845E+04
        19   5 -2.855655E+06 -3.971743E+05 -2.399785E+05 -1.092223E+06  2.343764E+05  6.096013E+04
        19   6 -2.972406E+06 -8.290659E+05 -5.570283E+05 -9.607078E+05  3.572355E+05  1.261066E+05
        19   7 -3.441797E+06 -5.405509E+05 -2.565614E+05 -1.203580E+06  1.012458E+05  8.895761E+03
        19   8 -3.317773E+06 -6.316216E+05 -3.659180E+05 -1.282084E+06  2.415587E+05  6.363638E+04
        19   9 -3.368553E+06 -1.163267E+06 -6.992343E+05 -1.257702E+06  3.762909E+05  1.331527E+05
        19  10 -2.380415E+06 -2.661805E+05 -1.816549E+04 -1.038164E+06 -1.679086E-09  2.691795E-10
        19  11 -2.393370E+06 -1.626699E+05 -1.141601E+05 -9.022251E+05  3.314888E-10 -5.242725E-11
        19  12 -2.576146E+06 -4.946217E+05 -4.150667E+05 -6.635125E+05  1.815770E-10 -1.497279E-10
        19  13 -2.911255E+06 -4.033643E+05 -1.373658E+05 -1.120897E+06 -2.912926E-10  4.658600E-10
        19  14 -2.855716E+06 -3.971931E+05 -2.400893E+05 -1.092234E+06  2.894475E-09  5.482303E-11
        19  15 -2.972548E+06 -8.291176E+05 -5.572995E+05 -9.607442E+05 -4.802773E-10  6.754698E-10
        19  16 -3.441808E+06 -5.405537E+05 -2.565809E+05 -1.203581E+06  1.049019E-09 -1.489805E-10
        19  17 -3.317838E+06 -6.316417E+05 -3.660360E+05 -1.282096E+06 -2.542961E-10 -6.123335E-10
        19  18 -3.368711E+06 -1.163324E+06 -6.995355E+05 -1.257743E+06 -2.995828E-10  5.071545E-11
        19  19 -2.380402E+06 -2.661771E+05 -1.814212E+04 -1.038163E+06 -1.106077E+05 -1.240164E+04
        19  20 -2.393313E+06 -1.626523E+05 -1.140562E+05 -9.022144E+05 -2.271883E+05 -5.827985E+04
        19  21 -2.576018E+06 -4.945756E+05 -4.148241E+05 -6.634800E+05 -3.381669E+05 -1.190411E+05
        19  22 -2.911243E+06 -4.033611E+05 -1.373444E+05 -1.120896E+06 -1.059246E+05 -1.064845E+04
        19  23 -2.855655E+06 -3.971743E+05 -2.399785E+05 -1.092223E+06 -2.343764E+05 -6.096013E+04
        19  24 -2.972406E+06 -8.290659E+05 -5.570283E+05 -9.607078E+05 -3.572355E+05 -1.261066E+05
        19  25 -3.441797E+06 -5.405509E+05 -2.565614E+05 -1.203580E+06 -1.012458E+05 -8.895761E+03
        19  26 -3.317773E+06 -6.316216E+05 -3.659180E+05 -1.282084E+06 -2.415587E+05 -6.363638E+04
        19  27 -3.368553E+06 -1.163267E+06 -6.992343E+05 -1.257702E+06 -3.762909E+05 -1.331527E+05
        20   1 -7.716363E+05  3.441422E+04  4.156644E+04  1.583920E+04  2.854550E+04  7.291483E-01
        20   2 -7.765408E+05 -6.517420E+02  1.884455E+04  5.411482E+03  1.854336E+04  1.618270E-01
        20   3 -7.716505E+05 -1.765083E+03  1.112892E+04 -5.015978E+03  8.541344E+03 -6.909152E-02
        20   4 -7.716365E+05  3.441375E+04  4.156637E+04  5.648842E-09  2.854550E+04  5.646248E-10
        20   5 -7.765409E+05 -6.517971E+02  1.884454E+04 -8.577234E-09  1.854336E+04  1.063504E-09
        20   6 -7.716506E+05 -1.765130E+03  1.112892E+04 -3.435483E-09  8.541344E+03 -8.586418E-10
        20   7 -7.716363E+05  3.441422E+04  4.156644E+04 -1.583920E+04  2.854550E+04 -7.291483E-01
        20   8 -7.765408E+05 -6.517420E+02  1.884455E+04 -5.411482E+03  1.854336E+04 -1.618270E-01
        20   9 -7.716505E+05 -1.765083E+03  1.112892E+04  5.015978E+03  8.541344E+03  6.909152E-02
        20  10 -7.716371E+05  3.441400E+04  4.156491E+04  1.583920E+04 -5.465796E-10 -9.262544E-11
        20  11 -7.765412E+05 -6.518345E+02  1.884391E+04  5.411482E+03 -5.117500E-10 -3.520765E-10
        20  12 -7.716506E+05 -1.765102E+03  1.112879E+04 -5.015978E+03 -6.087185E-10 -4.530789E-10
        20  13 -7.716374E+05  3.441353E+04  4.156484E+04 -2.828792E-09  8.732186E-11  2.319629E-10
        20  14 -7.765412E+05 -6.518896E+02  1.884390E+04 -1.090251E-09 -1.076654E-09  4.588673E-10
        20  15 -7.716506E+05 -1.765150E+03  1.112878E+04 -4.726529E-09 -4.136767E-09 -2.654933E-10
        20  16 -7.716371E+05  3.441400E+04  4.156491E+04 -1.583920E+04  9.480965E-10  5.784305E-10
        20  17 -7.765412E+05 -6.518345E+02  1.884391E+04 -5.411482E+03 -1.371144E-10  1.255103E-09
        20  18 -7.716506E+05 -1.765102E+03  1.112879E+04  5.015978E+03 -1.121189E-09 -5.177533E-11
        20  19 -7.716363E+05  3.441422E+04  4.156644E+04  1.583920E+04 -2.854550E+04 -7.291483E-01
        20  20 -7.765408E+05 -6.517420E+02  1.884455E+04  5.411482E+03 -1.854336E+04 -1.618270E-01
        20  21 -7.716505E+05 -1.765083E+03  1.112892E+04 -5.015978E+03 -8.541344E+03  6.909152E-02
        20  22 -7.716365E+05  3.441375E+04  4.156637E+04  5.916855E-09 -2.854550E+04 -1.040462E-10
        20  23 -7.765409E+05 -6.517971E+02  1.884454E+04 -6.517535E-09 -1.854336E+04 -1.851725E-10
        20  24 -7.716506E+05 -1.765130E+03  1.112892E+04  4.411640E-10 -8.541344E+03  3.219887E-10
        20  25 -7.716363E+05  3.441422E+04  4.156644E+04 -1.583920E+04 -2.854550E+04  7.291483E-01
        20  26 -7.765408E+05 -6.517420E+02  1.884455E+04 -5.411482E+03 -1.854336E+04  1.618270E-01
        20  27 -7.716505E+05 -1.765083E+03  1.112892E+04  5.015978E+03 -8.541344E+03 -6.909152E-02
        21   1 -7.736391E+05  2.033613E+03  8.872000E+03  7.090530E+02  6.948824E+03  7.945737E-03
        21   2 -7.740578E+05 -8.825036E+01  4.766548E+03  1.665674E+02  4.552418E+03  1.222859E-03
        21   3 -7.736408E+05 -1.177476E+02  2.745873E+03 -3.759272E+02  2.155983E+03 -1.307052E-03
        21   4 -7.736391E+05  2.033612E+03  8.872000E+03 -4.542667E-09  6.948824E+03 -1.323362E-09
        21   5 -7.740578E+05 -8.825041E+01  4.766548E+03 -5.943404E-09  4.552418E+03 -1.870495E-10
        21   6 -7.736408E+05 -1.177479E+02  2.745873E+03  5.041374E-09  2.155983E+03 -2.781785E-10
        21   7 -7.736391E+05  2.033613E+03  8.872000E+03 -7.090530E+02  6.948824E+03 -7.945740E-03
        21   8 -7.740578E+05 -8.825036E+01  4.766548E+03 -1.665674E+02  4.552418E+03 -1.222859E-03
        21   9 -7.736408E+05 -1.177476E+02  2.745873E+03  3.759272E+02  2.155983E+03  1.307052E-03
        21  10 -7.736391E+05  2.033600E+03  8.871909E+03  7.090530E+02 -2.030694E-09 -3.439816E-10
        21  11 -7.740578E+05 -8.825593E+01  4.766509E+03  1.665674E+02 -2.280987E-09 -1.188254E-10
        21  12 -7.736408E+05 -1.177489E+02  2.745864E+03 -3.759272E+02 -4.542200E-10 -3.643929E-11
        21  13 -7.736391E+05  2.033599E+03  8.871909E+03 -2.292688E-09 -4.149697E-09 -4.779958E-10
        21  14 -7.740578E+05 -8.825599E+01  4.766509E+03 -4.846797E-09 -1.895099E-09 -1.652508E-10
        21  15 -7.736408E+05 -1.177491E+02  2.745864E+03 -9.326844E-10 -1.843826E-10 -2.867364E-10
        21  16 -7.736391E+05  2.033600E+03  8.871909E+03 -7.090530E+02 -6.945535E-10 -6.207623E-10
        21  17 -7.740578E+05 -8.825593E+01  4.766509E+03 -1.665674E+02  5.826853E-10 -1.966357E-10
        21  18 -7.736408E+05 -1.177489E+02  2.745864E+03  3.759272E+02 -3.330322E-11 -4.837142E-10
        21  19 -7.736391E+05  2.033613E+03  8.872000E+03  7.090530E+02 -6.948824E+03 -7.945738E-03
        21  20 -7.740578E+05 -8.825036E+01  4.766548E+03  1.665674E+02 -4.552418E+03 -1.222859E-03
        21  21 -7.736408E+05 -1.177476E+02  2.745873E+03 -3.759272E+02 -2.155983E+03  1.307052E-03
        21  22 -7.736391E+05  2.033612E+03  8.872000E+03  2.101095E-09 -6.948824E+03  3.635947E-10
        21  23 -7.740578E+05 -8.825041E+01  4.766548E+03 -5.907667E-09 -4.552418E+03 -1.625146E-10
        21  24 -7.736408E+05 -1.177479E+02  2.745873E+03  4.651342E-09 -2.155983E+03 -3.037211E-10
        21  25 -7.736391E+05  2.033613E+03  8.872000E+03 -7.090530E+02 -6.948824E+03  7.945738E-03
        21  26 -7.740578E+05 -8.825036E+01  4.766548E+03 -1.665674E+02 -4.552418E+03  1.222858E-03
        21  27 -7.736408E+05 -1.177476E+02  2.745873E+03  3.759272E+02 -2.155983E+03 -1.307053E-03
        22   1 -7.738025E+05  1.054456E+02  2.098974E+03 -2.232705E+01  1.729934E+03 -6.228765E-05
        22   2 -7.738565E+05 -1.703094E+01  1.161741E+03 -3.215031E+01  1.153660E+03 -5.981341E-05
        22   3 -7.738028E+05 -9.018770E+00  6.326619E+02 -4.197358E+01  5.773870E+02 -3.908306E-05
        22   4 -7.738025E+05  1.054456E+02  2.098974E+03  8.883607E-09  1.729934E+03  8.026413E-11
        22   5 -7.738565E+05 -1.703094E+01  1.161741E+03 -6.226152E-09  1.153660E+03  9.387298E-10
        22   6 -7.738028E+05 -9.018773E+00  6.326619E+02 -5.994878E-09  5.773870E+02 -1.404969E-10
        22   7 -7.738025E+05  1.054456E+02  2.098974E+03  2.232705E+01  1.729934E+03  6.228775E-05
        22   8 -7.738565E+05 -1.703094E+01  1.161741E+03  3.215031E+01  1.153660E+03  5.981513E-05
        22   9 -7.738028E+05 -9.018770E+00  6.326619E+02  4.197358E+01  5.773870E+02  3.908286E-05
        22  10 -7.738025E+05  1.054448E+02  2.098969E+03 -2.232705E+01 -7.749681E-10  4.963245E-10
        22  11 -7.738565E+05 -1.703130E+01  1.161738E+03 -3.215031E+01 -1.480623E-09  1.043804E-09
        22  12 -7.738028E+05 -9.018859E+00  6.326613E+02 -4.197358E+01  2.095758E-09 -2.140447E-10
        22  13 -7.738025E+05  1.054448E+02  2.098969E+03  2.713879E-09  5.886036E-11  1.199991E-10
        22  14 -7.738565E+05 -1.703130E+01  1.161738E+03 -9.485497E-09 -1.405104E-09  8.119078E-10
        22  15 -7.738028E+05 -9.018863E+00  6.326613E+02 -1.414000E-08  3.373672E-10 -2.071000E-10
        22  16 -7.738025E+05  1.054448E+02  2.098969E+03  2.232705E+01  6.769276E-10 -2.317200E-10
        22  17 -7.738565E+05 -1.703130E+01  1.161738E+03  3.215031E+01  1.753987E-09  5.608626E-10
        22  18 -7.738028E+05 -9.018859E+00  6.326613E+02  4.197358E+01 -5.679034E-10 -1.362712E-10
        22  19 -7.738025E+05  1.054456E+02  2.098974E+03 -2.232705E+01 -1.729934E+03  6.228861E-05
        22  20 -7.738565E+05 -1.703094E+01  1.161741E+03 -3.215031E+01 -1.153660E+03  5.981581E-05
        22  21 -7.738028E+05 -9.018770E+00  6.326619E+02 -4.197358E+01 -5.773870E+02  3.908260E-05
        22  22 -7.738025E+05  1.054456E+02  2.098974E+03  9.446984E-09 -1.729934E+03  1.279338E-10
        22  23 -7.738565E+05 -1.703094E+01  1.161741E+03 -5.207325E-09 -1.153660E+03  6.782129E-10
        22  24 -7.738028E+05 -9.018773E+00  6.326619E+02 -1.287400E-08 -5.773870E+02 -2.853735E-10
        22  25 -7.738025E+05  1.054456E+02  2.098974E+03  2.232705E+01 -1.729934E+03 -6.228828E-05
        22  26 -7.738565E+05 -1.703094E+01  1.161741E+03  3.215031E+01 -1.153660E+03 -5.981422E-05
        22  27 -7.738028E+05 -9.018770E+00  6.326619E+02  4.197358E+01 -5.773870E+02 -3.908322E-05
        23   1 -7.738238E+05  1.997963E+00  4.511623E+02 -1.991062E+01  4.798496E+02 -1.540826E-05
        23   2 -7.738305E+05 -2.434747E+00  1.760004E+02 -1.743597E+01  3.927989E+02 -1.104509E-05
        23   3 -7.738239E+05  6.143148E-01 -4.056687E+01 -1.496136E+01  3.057495E+02 -7.376894E-06
        23   4 -7.738238E+05  1.997962E+00  4.511623E+02 -2.008899E-09  4.798496E+02 -5.123155E-10
        23   5 -7.738305E+05 -2.434748E+00  1.760004E+02 -2.579546E-09  3.927989E+02  8.682498E-11
        23   6 -7.738239E+05  6.143143E-01 -4.056687E+01  1.274809E-08  3.057495E+02 -1.376141E-10
        23   7 -7.738238E+05  1.997963E+00  4.511623E+02  1.991062E+01  4.798496E+02  1.540725E-05
        23   8 -7.738305E+05 -2.434747E+00  1.760004E+02  1.743597E+01  3.927989E+02  1.104509E-05
        23   9 -7.738239E+05  6.143148E-01 -4.056687E+01  1.496136E+01  3.057495E+02  7.376726E-06
        23  10 -7.738238E+05  1.997901E+00  4.511619E+02 -1.991062E+01 -1.306046E-09 -8.010909E-10
        23  11 -7.738305E+05 -2.434789E+00  1.760001E+02 -1.743597E+01  2.064260E-10 -2.099366E-10
        23  12 -7.738239E+05  6.142896E-01 -4.056704E+01 -1.496136E+01 -4.135655E-11 -1.148127E-10
        23  13 -7.738238E+05  1.997900E+00  4.511619E+02 -6.140973E-09  9.451832E-10 -4.944094E-10
        23  14 -7.738305E+05 -2.434789E+00  1.760001E+02 -9.017303E-09 -1.475095E-09  5.336925E-11
        23  15 -7.738239E+05  6.142892E-01 -4.056704E+01  1.023926E-09  1.015781E-09 -2.631648E-10
        23  16 -7.738238E+05  1.997901E+00  4.511619E+02  1.991062E+01  3.734755E-10 -1.798120E-10
        23  17 -7.738305E+05 -2.434789E+00  1.760001E+02  1.743597E+01  4.759608E-10  3.165678E-10
        23  18 -7.738239E+05  6.142896E-01 -4.056704E+01  1.496136E+01 -2.444245E-09 -3.511471E-10
        23  19 -7.738238E+05  1.997963E+00  4.511623E+02 -1.991062E+01 -4.798496E+02  1.540687E-05
        23  20 -7.738305E+05 -2.434747E+00  1.760004E+02 -1.743597E+01 -3.927989E+02  1.104484E-05
        23  21 -7.738239E+05  6.143148E-01 -4.056687E+01 -1.496136E+01 -3.057495E+02  7.376772E-06
        23  22 -7.738238E+05  1.997962E+00  4.511623E+02 -5.970699E-09 -4.798496E+02 -4.842891E-10
        23  23 -7.738305E+05 -2.434748E+00  1.760004E+02 -8.995231E-09 -3.927989E+02  2.884616E-11
        23  24 -7.738239E+05  6.143143E-01 -4.056687E+01  5.995012E-09 -3.057495E+02 -3.938714E-10
        23  25 -7.738238E+05  1.997963E+00  4.511623E+02  1.991062E+01 -4.798496E+02 -1.540794E-05
        23  26 -7.738305E+05 -2.434747E+00  1.760004E+02  1.743597E+01 -3.927989E+02 -1.104466E-05
        23  27 -7.738239E+05  6.143148E-01 -4.056687E+01  1.496136E+01 -3.057495E+02 -7.377546E-06
        24   1 -7.738335E+05  8.334148E-01 -1.491980E+02 -1.591886E+01  3.229418E+02 -8.290464E-06
        24   2 -7.738187E+05  5.635823E+00 -4.108101E+02 -2.302625E+01  5.260442E+02 -1.953375E-05
        24   3 -7.738337E+05 -2.898333E+00 -8.081060E+02 -3.013375E+01  7.291497E+02 -3.543237E-05
        24   4 -7.738335E+05  8.334143E-01 -1.491980E+02 -6.581464E-09  3.229418E+02 -3.284341E-10
        24   5 -7.738187E+05  5.635822E+00 -4.108101E+02 -5.521308E-09  5.260442E+02  1.909762E-10
        24   6 -7.738337E+05 -2.898334E+00 -8.081060E+02 -3.927036E-09  7.291497E+02  1.294311E-09
        24   7 -7.738335E+05  8.334148E-01 -1.491980E+02  1.591886E+01  3.229418E+02  8.289913E-06
        24   8 -7.738187E+05  5.635823E+00 -4.108101E+02  2.302625E+01  5.260442E+02  1.953397E-05
        24   9 -7.738337E+05 -2.898333E+00 -8.081060E+02  3.013375E+01  7.291497E+02  3.543487E-05
        24  10 -7.738335E+05  8.333867E-01 -1.491982E+02 -1.591886E+01 -6.028671E-10 -4.259516E-11
        24  11 -7.738187E+05  5.635748E+00 -4.108107E+02 -2.302625E+01  6.287065E-10  2.210992E-10
        24  12 -7.738337E+05 -2.898476E+00 -8.081070E+02 -3.013375E+01 -5.094878E-10  1.099736E-10
        24  13 -7.738335E+05  8.333862E-01 -1.491982E+02 -8.563416E-09 -1.076638E-09 -2.438958E-10
        24  14 -7.738187E+05  5.635747E+00 -4.108107E+02  9.837198E-10 -7.396705E-10  2.903804E-10
        24  15 -7.738337E+05 -2.898477E+00 -8.081070E+02 -6.684852E-09 -7.453035E-10  2.197158E-10
        24  16 -7.738335E+05  8.333867E-01 -1.491982E+02  1.591886E+01  1.833654E-10 -4.364917E-10
        24  17 -7.738187E+05  5.635748E+00 -4.108107E+02  2.302625E+01  1.126091E-09  3.441360E-10
        24  18 -7.738337E+05 -2.898476E+00 -8.081070E+02  3.013375E+01  1.474162E-09  2.767743E-10
        24  19 -7.738335E+05  8.334148E-01 -1.491980E+02 -1.591886E+01 -3.229418E+02  8.290537E-06
        24  20 -7.738187E+05  5.635823E+00 -4.108101E+02 -2.302625E+01 -5.260442E+02  1.953441E-05
        24  21 -7.738337E+05 -2.898333E+00 -8.081060E+02 -3.013375E+01 -7.291497E+02  3.543251E-05
        24  22 -7.738335E+05  8.334142E-01 -1.491980E+02 -1.959587E-09 -3.229418E+02 -1.913422E-10
        24  23 -7.738187E+05  5.635822E+00 -4.108101E+02 -5.435120E-09 -5.260442E+02  3.697602E-10
        24  24 -7.738337E+05 -2.898334E+00 -8.081060E+02  6.158086E-09 -7.291497E+02 -8.770711E-10
        24  25 -7.738335E+05  8.334148E-01 -1.491980E+02  1.591886E+01 -3.229418E+02 -8.290976E-06
        24  26 -7.738187E+05  5.635823E+00 -4.108101E+02  2.302625E+01 -5.260442E+02 -1.953360E-05
        24  27 -7.738337E+05 -2.898333E+00 -8.081060E+02  3.013375E+01 -7.291497E+02 -3.543426E-05
        25   1 -7.738666E+05  1.535410E+01 -1.087619E+03 -6.641202E+01  8.998435E+02 -9.637268E-05
        25   2 -7.737778E+05  2.824911E+01 -1.929503E+03 -5.116209E+01  1.856899E+03 -1.532084E-04
        25   3 -7.738672E+05 -1.722790E+02 -3.448405E+03 -3.591214E+01  2.813954E+03 -1.629684E-04
        25   4 -7.738666E+05  1.535409E+01 -1.087619E+03 -3.275558E-10  8.998435E+02  8.251443E-10
        25   5 -7.737778E+05  2.824911E+01 -1.929503E+03  4.337037E-09  1.856899E+03 -1.042585E-09
        25   6 -7.738672E+05 -1.722790E+02 -3.448405E+03  7.115413E-09  2.813954E+03 -1.090842E-09
        25   7 -7.738666E+05  1.535410E+01 -1.087619E+03  6.641202E+01  8.998435E+02  9.637449E-05
        25   8 -7.737778E+05  2.824911E+01 -1.929503E+03  5.116209E+01  1.856899E+03  1.532062E-04
        25   9 -7.738672E+05 -1.722790E+02 -3.448405E+03  3.591214E+01  2.813954E+03  1.629663E-04
        25  10 -7.738666E+05  1.535389E+01 -1.087620E+03 -6.641202E+01  4.906315E-10  4.439601E-11
        25  11 -7.737778E+05  2.824819E+01 -1.929509E+03 -5.116209E+01  1.848683E-09  1.800717E-10
        25  12 -7.738672E+05 -1.722811E+02 -3.448420E+03 -3.591214E+01  1.187044E-09 -6.483562E-11
        25  13 -7.738666E+05  1.535388E+01 -1.087620E+03  1.801547E-09  1.650043E-10  7.029184E-11
        25  14 -7.737778E+05  2.824818E+01 -1.929509E+03 -2.186913E-09 -3.369689E-09 -1.335058E-10
        25  15 -7.738672E+05 -1.722811E+02 -3.448420E+03  2.433537E-09 -9.256014E-11 -5.941120E-10
        25  16 -7.738666E+05  1.535389E+01 -1.087620E+03  6.641202E+01  1.166368E-09  6.061559E-11
        25  17 -7.737778E+05  2.824819E+01 -1.929509E+03  5.116209E+01 -1.838285E-09 -4.298162E-10
        25  18 -7.738672E+05 -1.722811E+02 -3.448420E+03  3.591214E+01  3.599522E-10 -1.076916E-09
        25  19 -7.738666E+05  1.535410E+01 -1.087619E+03 -6.641202E+01 -8.998435E+02  9.637290E-05
        25  20 -7.737778E+05  2.824911E+01 -1.929503E+03 -5.116209E+01 -1.856899E+03  1.532090E-04
        25  21 -7.738672E+05 -1.722790E+02 -3.448405E+03 -3.591214E+01 -2.813954E+03  1.629684E-04
        25  22 -7.738666E+05  1.535409E+01 -1.087619E+03  3.956927E-09 -8.998435E+02 -6.773526E-10
        25  23 -7.737778E+05  2.824911E+01 -1.929503E+03 -4.396951E-09 -1.856899E+03  7.858953E-10
        25  24 -7.738672E+05 -1.722790E+02 -3.448405E+03  2.595488E-09 -2.813954E+03 -9.879793E-11
        25  25 -7.738666E+05  1.535410E+01 -1.087619E+03  6.641202E+01 -8.998435E+02 -9.637419E-05
        25  26 -7.737778E+05  2.824911E+01 -1.929503E+03  5.116209E+01 -1.856899E+03 -1.532073E-04
        25  27 -7.738672E+05 -1.722790E+02 -3.448405E+03  3.591214E+01 -2.813954E+03 -1.629685E-04
        26   1 -7.741311E+05  1.926385E+02 -4.501506E+03 -6.139407E+02  3.513141E+03 -3.478292E-03
        26   2 -7.734492E+05  1.443638E+02 -7.798563E+03  2.726339E+02  7.434005E+03  3.268484E-03
        26   3 -7.741339E+05 -3.324140E+03 -1.450563E+04  1.159197E+03  1.135479E+04  2.122660E-02
        26   4 -7.741311E+05  1.926378E+02 -4.501506E+03  1.392971E-09  3.513141E+03 -7.829987E-11
        26   5 -7.734492E+05  1.443636E+02 -7.798563E+03 -9.192320E-09  7.434005E+03  1.121327E-09
        26   6 -7.741339E+05 -3.324142E+03 -1.450563E+04 -9.321851E-10  1.135479E+04  5.529790E-10
        26   7 -7.741311E+05  1.926385E+02 -4.501506E+03  6.139407E+02  3.513141E+03  3.478292E-03
        26   8 -7.734492E+05  1.443638E+02 -7.798563E+03 -2.726339E+02  7.434005E+03 -3.268482E-03
        26   9 -7.741339E+05 -3.324140E+03 -1.450563E+04 -1.159197E+03  1.135479E+04 -2.122659E-02
        26  10 -7.741311E+05  1.926352E+02 -4.501529E+03 -6.139407E+02 -2.500072E-09 -1.518727E-11
        26  11 -7.734493E+05  1.443489E+02 -7.798667E+03  2.726339E+02 -1.732135E-09  2.556283E-10
        26  12 -7.741340E+05 -3.324174E+03 -1.450588E+04  1.159197E+03  3.231497E-10 -1.602850E-10
        26  13 -7.741311E+05  1.926345E+02 -4.501529E+03  1.601085E-09 -1.681720E-11 -3.859869E-10
        26  14 -7.734493E+05  1.443488E+02 -7.798667E+03 -3.767073E-09 -2.592955E-10  3.062623E-10
        26  15 -7.741340E+05 -3.324177E+03 -1.450588E+04 -3.226318E-09  1.067597E-09  4.300589E-11
        26  16 -7.741311E+05  1.926352E+02 -4.501529E+03  6.139407E+02  8.767117E-10 -7.578306E-10
        26  17 -7.734493E+05  1.443489E+02 -7.798667E+03 -2.726339E+02  2.026308E-09  3.892500E-10
        26  18 -7.741340E+05 -3.324174E+03 -1.450588E+04 -1.159197E+03 -3.069543E-10  2.149329E-10
        26  19 -7.741311E+05  1.926385E+02 -4.501506E+03 -6.139407E+02 -3.513141E+03  3.478293E-03
        26  20 -7.734492E+05  1.443638E+02 -7.798563E+03  2.726339E+02 -7.434005E+03 -3.268484E-03
        26  21 -7.741339E+05 -3.324140E+03 -1.450563E+04  1.159197E+03 -1.135479E+04 -2.122660E-02
        26  22 -7.741311E+05  1.926378E+02 -4.501506E+03  1.043809E-08 -3.513141E+03 -6.797980E-10
        26  23 -7.734492E+05  1.443636E+02 -7.798563E+03 -5.014068E-10 -7.434005E+03 -5.260909E-10
        26  24 -7.741339E+05 -3.324142E+03 -1.450563E+04 -2.565984E-09 -1.135479E+04 -4.917918E-10
        26  25 -7.741311E+05  1.926385E+02 -4.501506E+03  6.139407E+02 -3.513141E+03 -3.478294E-03
        26  26 -7.734492E+05  1.443638E+02 -7.798563E+03 -2.726339E+02 -7.434005E+03  3.268483E-03
        26  27 -7.741339E+05 -3.324140E+03 -1.450563E+04 -1.159197E+03 -1.135479E+04  2.122659E-02
        27   1 -7.773839E+05  2.885528E+03 -1.819319E+04 -8.199000E+03  1.395825E+04 -1.845602E-01
        27   2 -7.693901E+05  1.065589E+03 -3.080092E+04  8.845955E+03  3.030848E+04  4.323636E-01
        27   3 -7.774054E+05 -5.625039E+04 -6.793623E+04  2.589087E+04  4.665900E+04  1.948162E+00
        27   4 -7.773840E+05  2.885401E+03 -1.819321E+04  4.233685E-09  1.395825E+04 -4.443306E-10
        27   5 -7.693902E+05  1.065441E+03 -3.080094E+04 -6.133783E-09  3.030848E+04 -1.174457E-09
        27   6 -7.774061E+05 -5.625165E+04 -6.793641E+04  9.954303E-10  4.665900E+04 -5.207504E-10
        27   7 -7.773839E+05  2.885528E+03 -1.819319E+04  8.199000E+03  1.395825E+04  1.845602E-01
        27   8 -7.693901E+05  1.065589E+03 -3.080092E+04 -8.845955E+03  3.030848E+04 -4.323636E-01
        27   9 -7.774054E+05 -5.625039E+04 -6.793623E+04 -2.589087E+04  4.665900E+04 -1.948162E+00
        27  10 -7.773841E+05  2.885475E+03 -1.819356E+04 -8.199000E+03 -1.237999E-09 -1.835959E-10
        27  11 -7.693911E+05  1.065342E+03 -3.080265E+04  8.845955E+03  1.820118E-12  4.126475E-11
        27  12 -7.774077E+05 -5.625097E+04 -6.794033E+04  2.589087E+04 -2.376862E-10  2.515713E-11
        27  13 -7.773842E+05  2.885349E+03 -1.819358E+04 -2.198865E-09 -2.843585E-10 -1.698326E-10
        27  14 -7.693912E+05  1.065194E+03 -3.080267E+04 -5.042384E-09  6.626878E-10 -5.908790E-11
        27  15 -7.774084E+05 -5.625224E+04 -6.794051E+04  7.336530E-10 -1.319668E-09 -5.835319E-12
        27  16 -7.773841E+05  2.885475E+03 -1.819356E+04  8.199000E+03  5.011351E-10 -1.516934E-10
        27  17 -7.693911E+05  1.065342E+03 -3.080265E+04 -8.845955E+03  1.309454E-09 -1.680985E-10
        27  18 -7.774077E+05 -5.625097E+04 -6.794033E+04 -2.589087E+04  1.528391E-09 -4.577227E-11
        27  19 -7.773839E+05  2.885528E+03 -1.819319E+04 -8.199000E+03 -1.395825E+04  1.845602E-01
        27  20 -7.693901E+05  1.065589E+03 -3.080092E+04  8.845955E+03 -3.030848E+04 -4.323636E-01
        27  21 -7.774054E+05 -5.625039E+04 -6.793623E+04  2.589087E+04 -4.665900E+04 -1.948162E+00
        27  22 -7.773840E+05  2.885401E+03 -1.819321E+04  8.593883E-09 -1.395825E+04  8.999198E-11
        27  23 -7.693902E+05  1.065441E+03 -3.080094E+04  2.509940E-09 -3.030848E+04  9.991960E-10
        27  24 -7.774061E+05 -5.625165E+04 -6.793641E+04  2.888971E-09 -4.665900E+04  5.012796E-10
        27  25 -7.773839E+05  2.885528E+03 -1.819319E+04  8.199000E+03 -1.395825E+04 -1.845602E-01
        27  26 -7.693901E+05  1.065589E+03 -3.080092E+04 -8.845955E+03 -3.030848E+04  4.323636E-01
        27  27 -7.774054E+05 -5.625039E+04 -6.793623E+04 -2.589087E+04 -4.665900E+04  1.948162E+00
        28   1  6.395033E+05  2.095744E+06  6.890097E+05 -2.496015E+05  1.815463E+04  2.700893E+05
        28   2  3.076422E+05  1.856329E+06  4.424792E+05 -1.248883E+05  5.575163E+04  1.541422E+05
        28   3  2.513239E+05  1.701312E+06  3.402588E+05 -8.461238E+04  5.421409E+04  3.822316E+04
        28   4  2.722919E+05  6.166707E+05  3.301197E+05 -1.230935E+05  1.822961E+04  2.203249E+05
        28   5 -5.420944E+03  5.774588E+05  1.546495E+05 -8.097359E+04  5.578251E+04  1.384388E+05
        28   6 -1.319997E+04  6.168861E+05  1.000744E+05 -1.232689E+05  5.419561E+04  5.653882E+04
        28   7 -9.501872E+04 -8.603706E+05 -2.891050E+04  3.113441E+03  1.828451E+04  1.706780E+05
        28   8 -3.185888E+05 -6.998898E+05 -1.332825E+05 -3.714962E+04  5.581123E+04  1.227671E+05
        28   9 -2.777971E+05 -4.664407E+05 -1.401807E+05 -1.618568E+05  5.417483E+04  7.482285E+04
        28  10  6.394834E+05  2.095666E+06  6.888725E+05 -2.496054E+05  1.309404E-09  8.522919E-10
        28  11  3.076326E+05  1.856303E+06  4.424288E+05 -1.248952E+05  4.124725E-10  4.716224E-10
        28  12  2.513203E+05  1.701310E+06  3.402505E+05 -8.461405E+04 -3.802945E-11 -6.545544E-10
        28  13  2.722786E+05  6.166186E+05  3.300279E+05 -1.230967E+05 -8.090870E-10 -3.931103E-11
        28  14 -5.429426E+03  5.774374E+05  1.546077E+05 -8.097981E+04 -4.371690E-10 -1.527348E-10
        28  15 -1.320398E+04  6.168819E+05  1.000629E+05 -1.232713E+05  8.108332E-10 -5.957797E-10
        28  16 -9.502691E+04 -8.604020E+05 -2.896595E+04  3.110927E+03  1.355134E-09 -8.378648E-10
        28  17 -3.185962E+05 -6.999068E+05 -1.333167E+05 -3.715514E+04  1.178847E-09 -4.876218E-10
        28  18 -2.778018E+05 -4.664475E+05 -1.401967E+05 -1.618601E+05  2.048229E-09  6.701868E-10
        28  19  6.395033E+05  2.095744E+06  6.890097E+05 -2.496015E+05 -1.815463E+04 -2.700893E+05
        28  20  3.076422E+05  1.856329E+06  4.424792E+05 -1.248883E+05 -5.575163E+04 -1.541422E+05
        28  21  2.513239E+05  1.701312E+06  3.402588E+05 -8.461238E+04 -5.421409E+04 -3.822316E+04
        28  22  2.722919E+05  6.166707E+05  3.301197E+05 -1.230935E+05 -1.822961E+04 -2.203249E+05
        28  23 -5.420944E+03  5.774588E+05  1.546495E+05 -8.097359E+04 -5.578251E+04 -1.384388E+05
        28  24 -1.319997E+04  6.168861E+05  1.000744E+05 -1.232689E+05 -5.419561E+04 -5.653882E+04
        28  25 -9.501872E+04 -8.603706E+05 -2.891050E+04  3.113441E+03 -1.828451E+04 -1.706780E+05
        28  26 -3.185888E+05 -6.998898E+05 -1.332825E+05 -3.714962E+04 -5.581123E+04 -1.227671E+05
        28  27 -2.777971E+05 -4.664407E+05 -1.401807E+05 -1.618568E+05 -5.417483E+04 -7.482285E+04
        29   1  2.397615E+05  1.519948E+06  2.906490E+05 -1.323887E+05  4.418629E+04  3.474332E+04
        29   2  1.751585E+05  1.318047E+06  2.266470E+05 -8.182931E+04  3.566856E+04 -1.294973E+02
        29   3  1.405801E+05  1.128098E+06  1.927923E+05 -1.168235E+05  2.555052E+04 -3.500341E+04
        29   4  1.552088E+04  6.020682E+05  8.634859E+04 -1.234638E+05  4.418171E+04  4.142848E+04
        29   5 -1.077936E+03  5.962669E+05  6.646973E+04 -8.068750E+04  3.565797E+04  7.979734E+03
        29   6  1.212450E+04  6.021511E+05  7.577933E+04 -1.234685E+05  2.553380E+04 -2.548079E+04
        29   7 -2.087765E+05 -3.150273E+05 -1.180043E+05 -1.145518E+05  4.417731E+04  4.810385E+04
        29   8 -1.773496E+05 -1.250276E+05 -9.373968E+04 -7.954679E+04  3.564741E+04  1.607965E+04
        29   9 -1.163496E+05  7.646180E+04 -4.125050E+04 -1.301076E+05  2.551688E+04 -1.596613E+04
        29  10  2.397591E+05  1.519946E+06  2.906431E+05 -1.323900E+05 -1.878144E-09 -9.143452E-11
        29  11  1.751572E+05  1.318046E+06  2.266446E+05 -8.182931E+04 -2.861393E-10  4.913399E-10
        29  12  1.405791E+05  1.128097E+06  1.927887E+05 -1.168228E+05 -6.759610E-10  1.402964E-10
        29  13  1.551832E+04  6.020659E+05  8.634169E+04 -1.234653E+05 -1.556578E-10 -3.521622E-10
        29  14 -1.079318E+03  5.962665E+05  6.646722E+04 -8.068773E+04  1.950750E-09 -3.986472E-10
        29  15  1.212363E+04  6.021503E+05  7.577689E+04 -1.234680E+05  1.925333E-10 -8.791770E-10
        29  16 -2.087792E+05 -3.150304E+05 -1.180123E+05 -1.145535E+05 -1.359574E-09  7.825176E-12
        29  17 -1.773510E+05 -1.250282E+05 -9.374256E+04 -7.954725E+04 -2.203150E-09 -5.232167E-10
        29  18 -1.163504E+05  7.646135E+04 -4.125220E+04 -1.301073E+05 -2.467564E-09  9.933048E-12
        29  19  2.397615E+05  1.519948E+06  2.906490E+05 -1.323887E+05 -4.418629E+04 -3.474332E+04
        29  20  1.751585E+05  1.318047E+06  2.266470E+05 -8.182931E+04 -3.566856E+04  1.294973E+02
        29  21  1.405801E+05  1.128098E+06  1.927923E+05 -1.168235E+05 -2.555052E+04  3.500341E+04
        29  22  1.552088E+04  6.020682E+05  8.634859E+04 -1.234638E+05 -4.418171E+04 -4.142848E+04
        29  23 -1.077936E+03  5.962669E+05  6.646973E+04 -8.068750E+04 -3.565797E+04 -7.979734E+03
        29  24  1.212450E+04  6.021511E+05  7.577933E+04 -1.234685E+05 -2.553380E+04  2.548079E+04
        29  25 -2.087765E+05 -3.150273E+05 -1.180043E+05 -1.145518E+05 -4.417731E+04 -4.810385E+04
        29  26 -1.773496E+05 -1.250276E+05 -9.373968E+04 -7.954679E+04 -3.564741E+04 -1.607965E+04
        29  27 -1.163496E+05  7.646180E+04 -4.125050E+04 -1.301076E+05 -2.551688E+04  1.596613E+04
        30   1  7.847888E+04  9.739644E+05  1.639947E+05 -1.549739E+05  1.889431E+04 -4.839514E+04
        30   2  3.645026E+04  7.483686E+05  1.605397E+05 -4.697867E+04  9.038793E+03 -1.116847E+05
        30   3  2.060530E+05  5.835753E+05  2.510908E+05 -2.403585E+04  1.937894E+03 -1.749507E+05
        30   4 -9.678208E+03  6.131897E+05  8.442685E+04 -1.234737E+05  1.887251E+04 -3.856068E+04
        30   5 -3.799393E+03  5.825925E+05  1.241171E+05 -8.073038E+04  9.029598E+03 -1.042311E+05
        30   6  2.141311E+05  6.131514E+05  2.594662E+05 -1.230237E+05  1.954784E+03 -1.698968E+05
        30   7 -9.784033E+04  2.525387E+05  4.851909E+03 -9.199186E+04  1.885170E+04 -2.873185E+04
        30   8 -4.404655E+04  4.168447E+05  8.769371E+04 -1.144730E+05  9.019593E+03 -9.677945E+04
        30   9  2.222459E+05  6.427493E+05  2.678468E+05 -2.220162E+05  1.970062E+03 -1.648426E+05
        30  10  7.847787E+04  9.739618E+05  1.639896E+05 -1.549732E+05  4.987207E-10  3.742397E-09
        30  11  3.644683E+04  7.483552E+05  1.605162E+05 -4.697785E+04  1.961704E-09  1.556396E-09
        30  12  2.060448E+05  5.835424E+05  2.510333E+05 -2.403558E+04  4.496978E-10 -2.631040E-09
        30  13 -9.678989E+03  6.131880E+05  8.442339E+04 -1.234731E+05  3.672884E-09 -4.302366E-10
        30  14 -3.802394E+03  5.825808E+05  1.240966E+05 -8.072962E+04  1.775245E-10 -5.827460E-10
        30  15  2.141234E+05  6.131204E+05  2.594120E+05 -1.230234E+05  1.130776E-09 -1.101050E-09
        30  16 -9.784093E+04  2.525377E+05  4.849691E+03 -9.199142E+04  3.716312E-10 -3.744570E-09
        30  17 -4.404915E+04  4.168346E+05  8.767597E+04 -1.144723E+05  2.255713E-09 -1.571893E-09
        30  18  2.222386E+05  6.427201E+05  2.677958E+05 -2.220159E+05  5.521716E-10  2.654331E-09
        30  19  7.847888E+04  9.739644E+05  1.639947E+05 -1.549739E+05 -1.889431E+04  4.839514E+04
        30  20  3.645026E+04  7.483686E+05  1.605397E+05 -4.697867E+04 -9.038793E+03  1.116847E+05
        30  21  2.060530E+05  5.835753E+05  2.510908E+05 -2.403585E+04 -1.937894E+03  1.749507E+05
        30  22 -9.678208E+03  6.131897E+05  8.442685E+04 -1.234737E+05 -1.887251E+04  3.856068E+04
        30  23 -3.799393E+03  5.825925E+05  1.241171E+05 -8.073038E+04 -9.029598E+03  1.042311E+05
        30  24  2.141311E+05  6.131514E+05  2.594662E+05 -1.230237E+05 -1.954784E+03  1.698968E+05
        30  25 -9.784033E+04  2.525387E+05  4.851909E+03 -9.199186E+04 -1.885170E+04  2.873185E+04
        30  26 -4.404655E+04  4.168447E+05  8.769371E+04 -1.144730E+05 -9.019593E+03  9.677945E+04
        30  27  2.222459E+05  6.427493E+05  2.678468E+05 -2.220162E+05 -1.970062E+03  1.648426E+05
        31   1 -1.340374E+06 -3.147430E+05 -1.222557E+05 -5.102873E+05 -6.651621E+04 -2.372360E+04
        31   2 -1.320858E+06 -2.128697E+05 -5.973725E+04 -5.085081E+05 -4.216216E+04 -1.226279E+04
        31   3 -1.328146E+06 -1.940385E+05 -3.712355E+04 -4.933928E+05 -1.686966E+04 -3.303571E+03
        31   4 -1.279721E+06 -2.590725E+05 -9.957271E+04 -4.599578E+05 -6.385884E+04 -2.273157E+04
        31   5 -1.261140E+06 -1.796736E+05 -4.292149E+04 -4.808921E+05 -4.152434E+04 -1.202459E+04
        31   6 -1.268959E+06 -1.829127E+05 -2.456972E+04 -4.884918E+05 -1.825134E+04 -3.821229E+03
        31   7 -1.219062E+06 -2.033942E+05 -7.689000E+04 -4.096228E+05 -6.120123E+04 -2.173910E+04
        31   8 -1.201419E+06 -1.464761E+05 -2.610618E+04 -4.532736E+05 -4.088647E+04 -1.178634E+04
        31   9 -1.209769E+06 -1.717870E+05 -1.201602E+04 -4.835907E+05 -1.963316E+04 -4.338880E+03
        31  10 -1.340379E+06 -3.147448E+05 -1.222651E+05 -5.102886E+05 -2.960048E-09 -4.546017E-10
        31  11 -1.320860E+06 -2.128703E+05 -5.974088E+04 -5.085085E+05  4.858390E-09  3.715840E-09
        31  12 -1.328146E+06 -1.940385E+05 -3.712411E+04 -4.933929E+05  1.575089E-08  8.146962E-09
        31  13 -1.279725E+06 -2.590742E+05 -9.958136E+04 -4.599589E+05 -1.450333E-09 -1.342407E-10
        31  14 -1.261142E+06 -1.796742E+05 -4.292501E+04 -4.808925E+05 -2.086114E-10  5.644341E-10
        31  15 -1.268960E+06 -1.829128E+05 -2.457038E+04 -4.884919E+05  5.140578E-09  3.382587E-09
        31  16 -1.219066E+06 -2.033957E+05 -7.689794E+04 -4.096239E+05  1.322406E-09  8.669763E-11
        31  17 -1.201421E+06 -1.464767E+05 -2.610959E+04 -4.532740E+05 -5.457855E-09 -2.728655E-09
        31  18 -1.209770E+06 -1.717871E+05 -1.201678E+04 -4.835907E+05 -3.626397E-09 -1.526557E-09
        31  19 -1.340374E+06 -3.147430E+05 -1.222557E+05 -5.102873E+05  6.651621E+04  2.372360E+04
        31  20 -1.320858E+06 -2.128697E+05 -5.973725E+04 -5.085081E+05  4.216216E+04  1.226279E+04
        31  21 -1.328146E+06 -1.940385E+05 -3.712355E+04 -4.933928E+05  1.686966E+04  3.303571E+03
        31  22 -1.279721E+06 -2.590725E+05 -9.957271E+04 -4.599578E+05  6.385884E+04  2.273157E+04
        31  23 -1.261140E+06 -1.796736E+05 -4.292149E+04 -4.808921E+05  4.152434E+04  1.202459E+04
        31  24 -1.268959E+06 -1.829127E+05 -2.456972E+04 -4.884918E+05  1.825134E+04  3.821229E+03
        31  25 -1.219062E+06 -2.033942E+05 -7.689000E+04 -4.096228E+05  6.120123E+04  2.173910E+04
        31  26 -1.201419E+06 -1.464761E+05 -2.610618E+04 -4.532736E+05  4.088647E+04  1.178634E+04
        31  27 -1.209769E+06 -1.717870E+05 -1.201602E+04 -4.835907E+05  1.963316E+04  4.338880E+03
        32   1 -1.301017E+06 -2.056702E+05 -2.852360E+04 -4.950927E+05 -1.414407E+04 -3.218611E+03
        32   2 -1.286401E+06 -1.906100E+05 -1.481655E+04 -4.877078E+05 -8.668568E+03 -2.106836E+03
        32   3 -1.268730E+06 -1.864411E+05 -6.365962E+03 -4.856760E+05 -3.149463E+03 -1.110479E+03
        32   4 -1.265776E+06 -1.908420E+05 -1.954996E+04 -4.836961E+05 -1.476411E+04 -3.451114E+03
        32   5 -1.266963E+06 -1.829373E+05 -9.964962E+03 -4.819434E+05 -9.381594E+03 -2.374150E+03
        32   6 -1.265076E+06 -1.859053E+05 -5.562371E+03 -4.855439E+05 -3.955678E+03 -1.412697E+03
        32   7 -1.230533E+06 -1.760135E+05 -1.057634E+04 -4.722988E+05 -1.538419E+04 -3.683636E+03
        32   8 -1.247524E+06 -1.752645E+05 -5.113417E+03 -4.761787E+05 -1.009464E+04 -2.641474E+03
        32   9 -1.261422E+06 -1.853695E+05 -4.758789E+03 -4.854118E+05 -4.761887E+03 -1.714911E+03
        32  10 -1.301018E+06 -2.056703E+05 -2.852400E+04 -4.950928E+05 -5.036537E-09 -9.968564E-11
        32  11 -1.286402E+06 -1.906100E+05 -1.481670E+04 -4.877078E+05 -6.924111E-09 -2.214940E-09
        32  12 -1.268730E+06 -1.864411E+05 -6.365983E+03 -4.856760E+05  7.910537E-10 -5.772979E-10
        32  13 -1.265776E+06 -1.908421E+05 -1.955040E+04 -4.836962E+05  3.959487E-09  3.363995E-09
        32  14 -1.266963E+06 -1.829373E+05 -9.965139E+03 -4.819434E+05  5.478339E-10  3.646944E-10
        32  15 -1.265076E+06 -1.859053E+05 -5.562404E+03 -4.855439E+05 -4.770827E-10 -1.157293E-09
        32  16 -1.230534E+06 -1.760136E+05 -1.057681E+04 -4.722988E+05  1.603593E-08  6.965458E-09
        32  17 -1.247524E+06 -1.752645E+05 -5.113622E+03 -4.761788E+05  6.314964E-09  2.658819E-09
        32  18 -1.261422E+06 -1.853695E+05 -4.758837E+03 -4.854118E+05 -2.018196E-09 -1.901123E-09
        32  19 -1.301017E+06 -2.056702E+05 -2.852360E+04 -4.950927E+05  1.414407E+04  3.218611E+03
        32  20 -1.286401E+06 -1.906100E+05 -1.481655E+04 -4.877078E+05  8.668568E+03  2.106836E+03
        32  21 -1.268730E+06 -1.864411E+05 -6.365962E+03 -4.856760E+05  3.149463E+03  1.110479E+03
        32  22 -1.265776E+06 -1.908420E+05 -1.954996E+04 -4.836961E+05  1.476411E+04  3.451114E+03
        32  23 -1.266963E+06 -1.829373E+05 -9.964962E+03 -4.819434E+05  9.381594E+03  2.374150E+03
        32  24 -1.265076E+06 -1.859053E+05 -5.562371E+03 -4.855439E+05  3.955678E+03  1.412697E+03
        32  25 -1.230533E+06 -1.760135E+05 -1.057634E+04 -4.722988E+05  1.538419E+04  3.683636E+03
        32  26 -1.247524E+06 -1.752645E+05 -5.113417E+03 -4.761787E+05  1.009464E+04  2.641474E+03
        32  27 -1.261422E+06 -1.853695E+05 -4.758789E+03 -4.854118E+05  4.761887E+03  1.714911E+03
        33   1 -1.253058E+06 -1.820243E+05 -1.320298E+03 -4.820000E+05 -2.185066E+03 -1.402703E+03
        33   2 -1.239053E+06 -1.726185E+05  4.649602E+03 -4.742157E+05 -6.635454E+02 -1.923465E+03
        33   3 -1.219663E+06 -1.692423E+05  9.660326E+03 -4.728896E+05  8.591957E+02 -2.447238E+03
        33   4 -1.264783E+06 -1.863978E+05 -4.249123E+03 -4.852015E+05 -2.956377E+03 -1.691843E+03
        33   5 -1.267455E+06 -1.832350E+05 -2.317260E+03 -4.820277E+05 -1.437338E+03 -2.213558E+03
        33   6 -1.264740E+06 -1.861014E+05 -1.342524E+03 -4.853122E+05  8.289285E+01 -2.738297E+03
        33   7 -1.276508E+06 -1.907713E+05 -7.177975E+03 -4.884031E+05 -3.727676E+03 -1.980978E+03
        33   8 -1.295856E+06 -1.938516E+05 -9.284265E+03 -4.898395E+05 -2.211100E+03 -2.503640E+03
        33   9 -1.309816E+06 -2.029606E+05 -1.234571E+04 -4.977341E+05 -6.933602E+02 -3.029337E+03
        33  10 -1.253058E+06 -1.820243E+05 -1.320311E+03 -4.820000E+05 -2.066075E-09 -1.173963E-09
        33  11 -1.239053E+06 -1.726185E+05  4.649594E+03 -4.742157E+05 -4.576225E-09 -4.879166E-10
        33  12 -1.219663E+06 -1.692423E+05  9.660313E+03 -4.728896E+05 -3.329070E-09  7.889845E-10
        33  13 -1.264783E+06 -1.863978E+05 -4.249144E+03 -4.852015E+05  3.989086E-10 -1.077957E-09
        33  14 -1.267455E+06 -1.832350E+05 -2.317274E+03 -4.820277E+05  2.344396E-09 -1.410801E-10
        33  15 -1.264740E+06 -1.861014E+05 -1.342538E+03 -4.853122E+05 -3.599881E-10  1.693014E-09
        33  16 -1.276508E+06 -1.907713E+05 -7.178008E+03 -4.884031E+05  1.550117E-09 -1.039526E-09
        33  17 -1.295856E+06 -1.938516E+05 -9.284286E+03 -4.898395E+05  2.132973E-09  2.166138E-10
        33  18 -1.309816E+06 -2.029606E+05 -1.234573E+04 -4.977341E+05  3.437842E-09  2.284778E-09
        33  19 -1.253058E+06 -1.820243E+05 -1.320298E+03 -4.820000E+05  2.185066E+03  1.402703E+03
        33  20 -1.239053E+06 -1.726185E+05  4.649602E+03 -4.742157E+05  6.635454E+02  1.923465E+03
        33  21 -1.219663E+06 -1.692423E+05  9.660326E+03 -4.728896E+05 -8.591957E+02  2.447238E+03
        33  22 -1.264783E+06 -1.863978E+05 -4.249123E+03 -4.852015E+05  2.956377E+03  1.691843E+03
        33  23 -1.267455E+06 -1.832350E+05 -2.317260E+03 -4.820277E+05  1.437338E+03  2.213558E+03
        33  24 -1.264740E+06 -1.861014E+05 -1.342524E+03 -4.853122E+05 -8.289285E+01  2.738297E+03
        33  25 -1.276508E+06 -1.907713E+05 -7.177975E+03 -4.884031E+05  3.727676E+03  1.980978E+03
        33  26 -1.295856E+06 -1.938516E+05 -9.284265E+03 -4.898395E+05  2.211100E+03  2.503640E+03
        33  27 -1.309816E+06 -2.029606E+05 -1.234571E+04 -4.977341E+05  6.933602E+02  3.029337E+03
        34   1 -1.204944E+06 -1.638184E+05  1.365060E+04 -4.688934E+05  1.262823E+03 -2.932738E+03
        34   2 -1.191163E+06 -1.548392E+05  1.797696E+04 -4.611451E+05  1.982920E+03 -3.751642E+03
        34   3 -1.171821E+06 -1.515081E+05  2.202706E+04 -4.598426E+05  2.701766E+03 -4.566896E+03
        34   4 -1.264716E+06 -1.861159E+05 -1.061979E+03 -4.852726E+05  4.903696E+02 -3.222376E+03
        34   5 -1.267496E+06 -1.832860E+05 -7.326860E+02 -4.820519E+05  1.213354E+03 -4.040240E+03
        34   6 -1.264715E+06 -1.861048E+05 -6.818619E+02 -4.852770E+05  1.935080E+03 -4.854459E+03
        34   7 -1.324484E+06 -2.084128E+05 -1.577460E+04 -5.016501E+05 -2.819922E+02 -3.511978E+03
        34   8 -1.343822E+06 -2.117322E+05 -1.944260E+04 -5.029562E+05  4.438977E+02 -4.328796E+03
        34   9 -1.357601E+06 -2.207007E+05 -2.339139E+04 -5.107078E+05  1.168521E+03 -5.141974E+03
        34  10 -1.204944E+06 -1.638184E+05  1.365058E+04 -4.688934E+05  2.142001E-09  2.587008E-09
        34  11 -1.191163E+06 -1.548392E+05  1.797692E+04 -4.611451E+05 -4.483421E-09 -3.399708E-09
        34  12 -1.171821E+06 -1.515082E+05  2.202701E+04 -4.598426E+05 -1.122112E-08 -6.923714E-09
        34  13 -1.264716E+06 -1.861159E+05 -1.061999E+03 -4.852726E+05 -9.652156E-10  1.441171E-09
        34  14 -1.267496E+06 -1.832860E+05 -7.327195E+02 -4.820519E+05  3.325264E-09 -6.309738E-10
        34  15 -1.264715E+06 -1.861048E+05 -6.819132E+02 -4.852770E+05  9.422578E-10 -2.242442E-09
        34  16 -1.324484E+06 -2.084128E+05 -1.577463E+04 -5.016501E+05 -2.249722E-09  2.464081E-10
        34  17 -1.343822E+06 -2.117322E+05 -1.944264E+04 -5.029562E+05  7.039863E-09  1.590994E-09
        34  18 -1.357601E+06 -2.207008E+05 -2.339144E+04 -5.107078E+05  1.186920E-08  2.762688E-09
        34  19 -1.204944E+06 -1.638184E+05  1.365060E+04 -4.688934E+05 -1.262823E+03  2.932738E+03
        34  20 -1.191163E+06 -1.548392E+05  1.797696E+04 -4.611451E+05 -1.982920E+03  3.751642E+03
        34  21 -1.171821E+06 -1.515081E+05  2.202706E+04 -4.598426E+05 -2.701766E+03  4.566896E+03
        34  22 -1.264716E+06 -1.861159E+05 -1.061979E+03 -4.852726E+05 -4.903696E+02  3.222376E+03
        34  23 -1.267496E+06 -1.832860E+05 -7.326860E+02 -4.820519E+05 -1.213354E+03  4.040240E+03
        34  24 -1.264715E+06 -1.861048E+05 -6.818619E+02 -4.852770E+05 -1.935080E+03  4.854459E+03
        34  25 -1.324484E+06 -2.084128E+05 -1.577460E+04 -5.016501E+05  2.819922E+02  3.511978E+03
        34  26 -1.343822E+06 -2.117322E+05 -1.944260E+04 -5.029562E+05 -4.438977E+02  4.328796E+03
        34  27 -1.357601E+06 -2.207007E+05 -2.339139E+04 -5.107078E+05 -1.168521E+03  5.141974E+03
        35   1 -1.157345E+06 -1.460729E+05  2.563501E+04 -4.558670E+05  3.022727E+03 -5.075163E+03
        35   2 -1.143789E+06 -1.372560E+05  2.922412E+04 -4.482427E+05  3.908776E+03 -5.815366E+03
        35   3 -1.124791E+06 -1.340105E+05  3.240639E+04 -4.469536E+05  4.792148E+03 -6.547825E+03
        35   4 -1.264742E+06 -1.860833E+05 -7.439072E+02 -4.852545E+05  2.260183E+03 -5.361213E+03
        35   5 -1.267464E+06 -1.833113E+05 -1.082677E+03 -4.820816E+05  3.152332E+03 -6.099208E+03
        35   6 -1.264748E+06 -1.861124E+05 -1.833250E+03 -4.852443E+05  4.041787E+03 -6.829462E+03
        35   7 -1.372127E+06 -2.260930E+05 -2.712384E+04 -5.146374E+05  1.497780E+03 -5.647211E+03
        35   8 -1.391125E+06 -2.293657E+05 -3.139071E+04 -5.159145E+05  2.396051E+03 -6.382989E+03
        35   9 -1.404685E+06 -2.382128E+05 -3.607438E+04 -5.235272E+05  3.291611E+03 -7.111030E+03
        35  10 -1.157346E+06 -1.460730E+05  2.563494E+04 -4.558670E+05  1.206798E-08  2.772929E-09
        35  11 -1.143789E+06 -1.372560E+05  2.922402E+04 -4.482427E+05  5.338844E-09  2.016141E-09
        35  12 -1.124791E+06 -1.340106E+05  3.240627E+04 -4.469536E+05 -2.145000E-09 -2.784275E-10
        35  13 -1.264742E+06 -1.860833E+05 -7.439708E+02 -4.852545E+05  2.712536E-09 -1.902949E-09
        35  14 -1.267464E+06 -1.833113E+05 -1.082765E+03 -4.820816E+05  1.626913E-10 -2.576251E-10
        35  15 -1.264748E+06 -1.861124E+05 -1.833368E+03 -4.852443E+05  1.767181E-09  1.212020E-10
        35  16 -1.372127E+06 -2.260930E+05 -2.712391E+04 -5.146374E+05 -1.358228E-08 -6.317245E-09
        35  17 -1.391125E+06 -2.293657E+05 -3.139080E+04 -5.159145E+05 -5.030958E-09 -2.811415E-09
        35  18 -1.404685E+06 -2.382129E+05 -3.607449E+04 -5.235271E+05  2.841745E-09  5.598383E-10
        35  19 -1.157345E+06 -1.460729E+05  2.563501E+04 -4.558670E+05 -3.022727E+03  5.075163E+03
        35  20 -1.143789E+06 -1.372560E+05  2.922412E+04 -4.482427E+05 -3.908776E+03  5.815366E+03
        35  21 -1.124791E+06 -1.340105E+05  3.240639E+04 -4.469536E+05 -4.792148E+03  6.547825E+03
        35  22 -1.264742E+06 -1.860833E+05 -7.439072E+02 -4.852545E+05 -2.260183E+03  5.361213E+03
        35  23 -1.267464E+06 -1.833113E+05 -1.082677E+03 -4.820816E+05 -3.152332E+03  6.099208E+03
        35  24 -1.264748E+06 -1.861124E+05 -1.833250E+03 -4.852443E+05 -4.041787E+03  6.829462E+03
        35  25 -1.372127E+06 -2.260930E+05 -2.712384E+04 -5.146374E+05 -1.497780E+03  5.647211E+03
        35  26 -1.391125E+06 -2.293657E+05 -3.139071E+04 -5.159145E+05 -2.396051E+03  6.382989E+03
        35  27 -1.404685E+06 -2.382128E+05 -3.607438E+04 -5.235272E+05 -3.291611E+03  7.111030E+03
        36   1 -1.110639E+06 -1.287035E+05  3.542767E+04 -4.431785E+05  5.342569E+03 -6.958264E+03
        36   2 -1.097320E+06 -1.199907E+05  3.737015E+04 -4.356068E+05  7.812879E+03 -7.074609E+03
        36   3 -1.079124E+06 -1.173351E+05  3.755805E+04 -4.341247E+05  1.027390E+04 -7.165347E+03
        36   4 -1.264848E+06 -1.860342E+05 -2.400691E+03 -4.852602E+05  4.593356E+03 -7.239527E+03
        36   5 -1.267326E+06 -1.832859E+05 -4.287901E+03 -4.821102E+05  7.083706E+03 -7.348456E+03
        36   6 -1.264931E+06 -1.865989E+05 -7.945949E+03 -4.850498E+05  9.564719E+03 -7.431793E+03
        36   7 -1.419033E+06 -2.433631E+05 -4.023066E+04 -5.273323E+05  3.844349E+03 -7.520712E+03
        36   8 -1.437304E+06 -2.465791E+05 -4.594814E+04 -5.286020E+05  6.354750E+03 -7.622220E+03
        36   9 -1.450705E+06 -2.558606E+05 -5.345279E+04 -5.359612E+05  8.855764E+03 -7.698154E+03
        36  10 -1.110639E+06 -1.287036E+05  3.542753E+04 -4.431785E+05  8.803857E-10 -3.925818E-10
        36  11 -1.097320E+06 -1.199907E+05  3.736994E+04 -4.356068E+05  8.763411E-09  2.469516E-09
        36  12 -1.079124E+06 -1.173352E+05  3.755775E+04 -4.341246E+05  1.043700E-08  5.424043E-09
        36  13 -1.264849E+06 -1.860343E+05 -2.400829E+03 -4.852602E+05  2.666805E-09  2.970790E-10
        36  14 -1.267326E+06 -1.832859E+05 -4.288097E+03 -4.821102E+05  1.436144E-09  4.444453E-10
        36  15 -1.264931E+06 -1.865989E+05 -7.946224E+03 -4.850497E+05 -6.690127E-09  5.252960E-10
        36  16 -1.419033E+06 -2.433632E+05 -4.023079E+04 -5.273323E+05  1.835961E-09  1.021061E-09
        36  17 -1.437304E+06 -2.465792E+05 -4.594833E+04 -5.286020E+05 -6.797438E-09 -1.541726E-09
        36  18 -1.450706E+06 -2.558607E+05 -5.345305E+04 -5.359612E+05 -1.908369E-08 -4.384283E-09
        36  19 -1.110639E+06 -1.287035E+05  3.542767E+04 -4.431785E+05 -5.342569E+03  6.958264E+03
        36  20 -1.097320E+06 -1.199907E+05  3.737015E+04 -4.356068E+05 -7.812879E+03  7.074609E+03
        36  21 -1.079124E+06 -1.173351E+05  3.755805E+04 -4.341247E+05 -1.027390E+04  7.165347E+03
        36  22 -1.264848E+06 -1.860342E+05 -2.400691E+03 -4.852602E+05 -4.593356E+03  7.239527E+03
        36  23 -1.267326E+06 -1.832859E+05 -4.287901E+03 -4.821102E+05 -7.083706E+03  7.348456E+03
        36  24 -1.264931E+06 -1.865989E+05 -7.945949E+03 -4.850498E+05 -9.564719E+03  7.431793E+03
        36  25 -1.419033E+06 -2.433631E+05 -4.023066E+04 -5.273323E+05 -3.844349E+03  7.520712E+03
        36  26 -1.437304E+06 -2.465791E+05 -4.594814E+04 -5.286020E+05 -6.354750E+03  7.622220E+03
        36  27 -1.450705E+06 -2.558606E+05 -5.345279E+04 -5.359612E+05 -8.855764E+03  7.698154E+03
        37   1 -1.064809E+06 -1.123664E+05  3.854547E+04 -4.322630E+05  1.205069E+04 -7.136796E+03
        37   2 -1.052091E+06 -1.020785E+05  3.399159E+04 -4.224424E+05  2.159126E+04 -4.487346E+03
        37   3 -1.038975E+06 -1.066957E+05  1.994430E+04 -4.164075E+05  3.099644E+04 -1.476344E+03
        37   4 -1.265524E+06 -1.856315E+05 -1.042157E+04 -4.856442E+05  1.124296E+04 -7.440281E+03
        37   5 -1.266354E+06 -1.827866E+05 -1.870644E+04 -4.820130E+05  2.107227E+04 -4.682603E+03
        37   6 -1.266846E+06 -1.949066E+05 -3.671638E+04 -4.821675E+05  3.076591E+04 -1.563489E+03
        37   7 -1.466199E+06 -2.588942E+05 -5.939163E+04 -5.390100E+05  1.043552E+04 -7.743665E+03
        37   8 -1.480572E+06 -2.634911E+05 -7.140783E+04 -5.415646E+05  2.055347E+04 -4.877784E+03
        37   9 -1.494665E+06 -2.831125E+05 -9.338080E+04 -5.479048E+05  3.053548E+04 -1.650598E+03
        37  10 -1.064809E+06 -1.123665E+05  3.854510E+04 -4.322629E+05 -1.761886E-08 -4.273026E-09
        37  11 -1.052091E+06 -1.020787E+05  3.399067E+04 -4.224423E+05 -7.697108E-09 -1.830757E-09
        37  12 -1.038976E+06 -1.066960E+05  1.994249E+04 -4.164075E+05  6.235530E-09  9.938405E-10
        37  13 -1.265524E+06 -1.856316E+05 -1.042192E+04 -4.856442E+05 -4.237832E-09  1.722995E-10
        37  14 -1.266355E+06 -1.827867E+05 -1.870732E+04 -4.820129E+05  9.951858E-10  4.586153E-11
        37  15 -1.266847E+06 -1.949069E+05 -3.671817E+04 -4.821675E+05  3.734567E-09  5.918662E-10
        37  16 -1.466199E+06 -2.588943E+05 -5.939195E+04 -5.390099E+05  8.315956E-09  4.810521E-09
        37  17 -1.480573E+06 -2.634912E+05 -7.140867E+04 -5.415645E+05  1.098334E-08  2.138258E-09
        37  18 -1.494666E+06 -2.831128E+05 -9.338256E+04 -5.479048E+05  2.090388E-09 -1.069811E-10
        37  19 -1.064809E+06 -1.123664E+05  3.854547E+04 -4.322630E+05 -1.205069E+04  7.136796E+03
        37  20 -1.052091E+06 -1.020785E+05  3.399159E+04 -4.224424E+05 -2.159126E+04  4.487346E+03
        37  21 -1.038975E+06 -1.066957E+05  1.994430E+04 -4.164075E+05 -3.099644E+04  1.476344E+03
        37  22 -1.265524E+06 -1.856315E+05 -1.042157E+04 -4.856442E+05 -1.124296E+04  7.440281E+03
        37  23 -1.266354E+06 -1.827866E+05 -1.870644E+04 -4.820130E+05 -2.107227E+04  4.682603E+03
        37  24 -1.266846E+06 -1.949066E+05 -3.671638E+04 -4.821675E+05 -3.076591E+04  1.563489E+03
        37  25 -1.466199E+06 -2.588942E+05 -5.939163E+04 -5.390100E+05 -1.043552E+04  7.743665E+03
        37  26 -1.480572E+06 -2.634911E+05 -7.140783E+04 -5.415646E+05 -2.055347E+04  4.877784E+03
        37  27 -1.494665E+06 -2.831125E+05 -9.338080E+04 -5.479048E+05 -3.053548E+04  1.650598E+03
        38   1 -1.014326E+06 -1.041221E+05  1.342761E+04 -4.414395E+05  3.977210E+04  3.323102E+02
        38   2 -1.012580E+06 -6.549560E+04 -1.673683E+04 -3.923602E+05  7.675635E+04  1.500035E+04
        38   3 -1.064896E+06 -1.750765E+05 -1.139341E+05 -3.116318E+05  1.108727E+05  3.730512E+04
        38   4 -1.272865E+06 -1.799709E+05 -4.614707E+04 -4.911278E+05  3.722419E+04 -6.238244E+02
        38   5 -1.255358E+06 -1.767246E+05 -8.062259E+04 -4.801105E+05  8.035774E+04  1.635022E+04
        38   6 -1.293161E+06 -3.229501E+05 -1.870312E+05 -4.374373E+05  1.206233E+05  4.095651E+04
        38   7 -1.531340E+06 -2.558207E+05 -1.057262E+05 -5.408004E+05  3.467743E+04 -1.579741E+03
        38   8 -1.498077E+06 -2.879407E+05 -1.445133E+05 -5.678267E+05  8.395759E+04  1.769922E+04
        38   9 -1.521364E+06 -4.707809E+05 -2.601319E+05 -5.631907E+05  1.303699E+05  4.460397E+04
        38  10 -1.014328E+06 -1.041226E+05  1.342463E+04 -4.414395E+05  4.614113E-09  1.450111E-10
        38  11 -1.012586E+06 -6.549743E+04 -1.674835E+04 -3.923612E+05  1.512970E-09 -1.046239E-09
        38  12 -1.064909E+06 -1.750813E+05 -1.139599E+05 -3.116352E+05 -2.185416E-09 -8.376819E-10
        38  13 -1.272867E+06 -1.799713E+05 -4.614968E+04 -4.911278E+05  2.662029E-09  5.055250E-10
        38  14 -1.255365E+06 -1.767267E+05 -8.063526E+04 -4.801116E+05  1.375704E-09 -7.307706E-10
        38  15 -1.293177E+06 -3.229559E+05 -1.870618E+05 -4.374413E+05 -5.984788E-10 -3.585882E-10
        38  16 -1.531341E+06 -2.558210E+05 -1.057285E+05 -5.408003E+05 -8.847402E-10 -4.297455E-10
        38  17 -1.498085E+06 -2.879429E+05 -1.445272E+05 -5.678279E+05  5.591879E-10 -1.003757E-09
        38  18 -1.521383E+06 -4.707876E+05 -2.601677E+05 -5.631954E+05  8.527350E-11  2.088193E-10
        38  19 -1.014326E+06 -1.041221E+05  1.342761E+04 -4.414395E+05 -3.977210E+04 -3.323102E+02
        38  20 -1.012580E+06 -6.549560E+04 -1.673683E+04 -3.923602E+05 -7.675635E+04 -1.500035E+04
        38  21 -1.064896E+06 -1.750765E+05 -1.139341E+05 -3.116318E+05 -1.108727E+05 -3.730512E+04
        38  22 -1.272865E+06 -1.799709E+05 -4.614707E+04 -4.911278E+05 -3.722419E+04  6.238244E+02
        38  23 -1.255358E+06 -1.767246E+05 -8.062259E+04 -4.801105E+05 -8.035774E+04 -1.635022E+04
        38  24 -1.293161E+06 -3.229501E+05 -1.870312E+05 -4.374373E+05 -1.206233E+05 -4.095651E+04
        38  25 -1.531340E+06 -2.558207E+05 -1.057262E+05 -5.408004E+05 -3.467743E+04  1.579741E+03
        38  26 -1.498077E+06 -2.879407E+05 -1.445133E+05 -5.678267E+05 -8.395759E+04 -1.769922E+04
        38  27 -1.521364E+06 -4.707809E+05 -2.601319E+05 -5.631907E+05 -1.303699E+05 -4.460397E+04
        39   1 -1.349103E+05  5.396762E+04  6.518482E+04  2.485498E+04  4.478546E+04  1.793367E+00
        39   2 -1.425898E+05 -1.017933E+03  2.955911E+04  8.492601E+03  2.909364E+04  3.980707E-01
        39   3 -1.349153E+05 -2.767628E+03  1.746104E+04 -7.869511E+03  1.340178E+04 -1.699128E-01
        39   4 -1.349110E+05  5.396645E+04  6.518466E+04  1.335984E-08  4.478546E+04 -5.685522E-10
        39   5 -1.425899E+05 -1.018068E+03  2.955910E+04 -2.088996E-09  2.909364E+04 -1.273193E-09
        39   6 -1.349153E+05 -2.767744E+03  1.746102E+04 -3.586086E-11  1.340178E+04 -5.408387E-10
        39   7 -1.349103E+05  5.396762E+04  6.518482E+04 -2.485498E+04  4.478546E+04 -1.793367E+00
        39   8 -1.425898E+05 -1.017933E+03  2.955911E+04 -8.492601E+03  2.909364E+04 -3.980707E-01
        39   9 -1.349153E+05 -2.767628E+03  1.746104E+04  7.869511E+03  1.340178E+04  1.699128E-01
        39  10 -1.349125E+05  5.396708E+04  6.518105E+04  2.485498E+04  9.690603E-10 -1.827360E-10
        39  11 -1.425907E+05 -1.018160E+03  2.955752E+04  8.492601E+03 -3.431527E-09 -4.461922E-10
        39  12 -1.349155E+05 -2.767676E+03  1.746070E+04 -7.869511E+03 -1.639979E-09 -9.134358E-11
        39  13 -1.349132E+05  5.396592E+04  6.518089E+04  6.798354E-09  4.206492E-12 -1.753020E-10
        39  14 -1.425908E+05 -1.018296E+03  2.955750E+04 -2.088966E-09 -4.580713E-10 -4.381106E-10
        39  15 -1.349155E+05 -2.767793E+03  1.746068E+04  8.696239E-10 -3.356143E-09 -1.760818E-10
        39  16 -1.349125E+05  5.396708E+04  6.518105E+04 -2.485498E+04  6.484659E-10 -1.721041E-10
        39  17 -1.425907E+05 -1.018160E+03  2.955752E+04 -8.492601E+03  2.414887E-09 -4.615444E-10
        39  18 -1.349155E+05 -2.767676E+03  1.746070E+04  7.869511E+03  2.043323E-09 -2.997210E-10
        39  19 -1.349103E+05  5.396762E+04  6.518482E+04  2.485498E+04 -4.478546E+04 -1.793367E+00
        39  20 -1.425898E+05 -1.017933E+03  2.955911E+04  8.492601E+03 -2.909364E+04 -3.980707E-01
        39  21 -1.349153E+05 -2.767628E+03  1.746104E+04 -7.869511E+03 -1.340178E+04  1.699128E-01
        39  22 -1.349110E+05  5.396645E+04  6.518466E+04  1.316215E-08 -4.478546E+04  2.141233E-10
        39  23 -1.425899E+05 -1.018068E+03  2.955910E+04  7.602586E-09 -2.909364E+04  3.923963E-10
        39  24 -1.349153E+05 -2.767744E+03  1.746102E+04  6.350898E-09 -1.340178E+04  1.814273E-10
        39  25 -1.349103E+05  5.396762E+04  6.518482E+04 -2.485498E+04 -4.478546E+04  1.793367E+00
        39  26 -1.425898E+05 -1.017933E+03  2.955911E+04 -8.492601E+03 -2.909364E+04  3.980707E-01
        39  27 -1.349153E+05 -2.767628E+03  1.746104E+04  7.869511E+03 -1.340178E+04 -1.699128E-01
        40   1 -1.380354E+05  3.188016E+03  1.392272E+04  1.112274E+03  1.090155E+04  1.953522E-02
        40   2 -1.386908E+05 -1.382788E+02  7.488677E+03  2.616213E+02  7.135854E+03  3.007719E-03
        40   3 -1.380359E+05 -1.848279E+02  4.326625E+03 -5.890211E+02  3.370231E+03 -3.198218E-03
        40   4 -1.380354E+05  3.188014E+03  1.392272E+04  3.596374E-09  1.090155E+04  4.730920E-10
        40   5 -1.386908E+05 -1.382789E+02  7.488677E+03  2.895991E-09  7.135854E+03  1.104962E-09
        40   6 -1.380359E+05 -1.848286E+02  4.326625E+03  1.389628E-09  3.370231E+03  2.612277E-10
        40   7 -1.380354E+05  3.188016E+03  1.392272E+04 -1.112274E+03  1.090155E+04 -1.953522E-02
        40   8 -1.386908E+05 -1.382788E+02  7.488677E+03 -2.616213E+02  7.135854E+03 -3.007717E-03
        40   9 -1.380359E+05 -1.848279E+02  4.326625E+03  5.890211E+02  3.370231E+03  3.198218E-03
        40  10 -1.380355E+05  3.187984E+03  1.392249E+04  1.112274E+03 -7.349706E-10 -1.090941E-11
        40  11 -1.386909E+05 -1.382925E+02  7.488581E+03  2.616213E+02 -9.759823E-10 -3.378106E-11
        40  12 -1.380359E+05 -1.848310E+02  4.326604E+03 -5.890211E+02 -8.605682E-11  6.230773E-10
        40  13 -1.380355E+05  3.187982E+03  1.392249E+04  1.492236E-09  1.072719E-09  7.614915E-11
        40  14 -1.386909E+05 -1.382926E+02  7.488581E+03  2.925825E-09 -5.384603E-10  2.914417E-10
        40  15 -1.380359E+05 -1.848316E+02  4.326603E+03 -3.177917E-09 -1.709919E-09  3.949756E-10
        40  16 -1.380355E+05  3.187984E+03  1.392249E+04 -1.112274E+03 -1.954232E-09  1.729052E-10
        40  17 -1.386909E+05 -1.382925E+02  7.488581E+03 -2.616213E+02  1.527106E-09  6.225055E-10
        40  18 -1.380359E+05 -1.848310E+02  4.326604E+03  5.890211E+02 -4.318569E-10  1.649082E-10
        40  19 -1.380354E+05  3.188016E+03  1.392272E+04  1.112274E+03 -1.090155E+04 -1.953522E-02
        40  20 -1.386908E+05 -1.382788E+02  7.488677E+03  2.616213E+02 -7.135854E+03 -3.007719E-03
        40  21 -1.380359E+05 -1.848279E+02  4.326625E+03 -5.890211E+02 -3.370231E+03  3.198219E-03
        40  22 -1.380354E+05  3.188014E+03  1.392272E+04  1.539693E-09 -1.090155E+04 -3.198468E-10
        40  23 -1.386908E+05 -1.382789E+02  7.488677E+03 -5.661327E-09 -7.135854E+03 -5.275222E-10
        40  24 -1.380359E+05 -1.848286E+02  4.326625E+03 -7.484247E-10 -3.370231E+03  5.318879E-10
        40  25 -1.380354E+05  3.188016E+03  1.392272E+04 -1.112274E+03 -1.090155E+04  1.953522E-02
        40  26 -1.386908E+05 -1.382788E+02  7.488677E+03 -2.616213E+02 -7.135854E+03  3.007718E-03
        40  27 -1.380359E+05 -1.848279E+02  4.326625E+03  5.890211E+02 -3.370231E+03 -3.198218E-03
        41   1 -1.382889E+05  1.651044E+02  3.317436E+03 -3.438322E+01  2.697472E+03 -1.494238E-04
        41   2 -1.383748E+05 -2.726359E+01  1.864721E+03 -4.864420E+01  1.772387E+03 -1.389010E-04
        41   3 -1.382890E+05 -1.497342E+01  1.065559E+03 -6.290540E+01  8.472886E+02 -8.586936E-05
        41   4 -1.382889E+05  1.651044E+02  3.317436E+03  7.855563E-10  2.697472E+03  2.715473E-10
        41   5 -1.383748E+05 -2.726360E+01  1.864721E+03 -9.464519E-10  1.772387E+03  8.380564E-10
        41   6 -1.382890E+05 -1.497343E+01  1.065559E+03  2.974282E-09  8.472886E+02 -5.268344E-10
        41   7 -1.382889E+05  1.651044E+02  3.317436E+03  3.438322E+01  2.697472E+03  1.494244E-04
        41   8 -1.383748E+05 -2.726359E+01  1.864721E+03  4.864420E+01  1.772387E+03  1.389026E-04
        41   9 -1.382890E+05 -1.497342E+01  1.065559E+03  6.290540E+01  8.472886E+02  8.586831E-05
        41  10 -1.382889E+05  1.651024E+02  3.317422E+03 -3.438322E+01 -5.304298E-10  6.414390E-10
        41  11 -1.383748E+05 -2.726444E+01  1.864716E+03 -4.864420E+01  3.191553E-10  1.396777E-10
        41  12 -1.382890E+05 -1.497361E+01  1.065558E+03 -6.290540E+01 -2.603165E-09  5.498862E-10
        41  13 -1.382889E+05  1.651024E+02  3.317422E+03  5.085846E-09 -1.068504E-09  3.946003E-10
        41  14 -1.383748E+05 -2.726444E+01  1.864716E+03  3.350684E-09 -5.614263E-10  3.448797E-10
        41  15 -1.382890E+05 -1.497362E+01  1.065558E+03  8.078580E-09  3.934105E-10  2.756832E-10
        41  16 -1.382889E+05  1.651024E+02  3.317422E+03  3.438322E+01 -1.125791E-09  1.562488E-10
        41  17 -1.383748E+05 -2.726444E+01  1.864716E+03  4.864420E+01 -3.306395E-10  5.443877E-10
        41  18 -1.382890E+05 -1.497361E+01  1.065558E+03  6.290540E+01  1.378122E-09  5.465939E-12
        41  19 -1.382889E+05  1.651044E+02  3.317436E+03 -3.438322E+01 -2.697472E+03  1.494251E-04
        41  20 -1.383748E+05 -2.726359E+01  1.864721E+03 -4.864420E+01 -1.772387E+03  1.389013E-04
        41  21 -1.382890E+05 -1.497342E+01  1.065559E+03 -6.290540E+01 -8.472886E+02  8.587045E-05
        41  22 -1.382889E+05  1.651044E+02  3.317436E+03  5.077169E-09 -2.697472E+03  5.101768E-10
        41  23 -1.383748E+05 -2.726360E+01  1.864721E+03  7.648347E-09 -1.772387E+03 -1.564198E-10
        41  24 -1.382890E+05 -1.497343E+01  1.065559E+03  1.775937E-08 -8.472886E+02  1.075121E-09
        41  25 -1.382889E+05  1.651044E+02  3.317436E+03  3.438322E+01 -2.697472E+03 -1.494241E-04
        41  26 -1.383748E+05 -2.726359E+01  1.864721E+03  4.864420E+01 -1.772387E+03 -1.389016E-04
        41  27 -1.382890E+05 -1.497342E+01  1.065559E+03  6.290540E+01 -8.472886E+02 -8.586833E-05
        42   1 -1.383201E+05  2.617550E+00  8.039446E+02 -2.801378E+01  6.788315E+02 -3.063810E-05
        42   2 -1.383360E+05 -6.064222E+00  4.431720E+02 -1.997064E+01  4.597006E+02 -1.479094E-05
        42   3 -1.383201E+05 -1.524712E+00  2.283926E+02 -1.192750E+01  2.405699E+02 -4.622211E-06
        42   4 -1.383201E+05  2.617549E+00  8.039446E+02  3.136921E-09  6.788315E+02 -9.075987E-10
        42   5 -1.383360E+05 -6.064223E+00  4.431720E+02 -1.508482E-09  4.597006E+02  7.657304E-11
        42   6 -1.383201E+05 -1.524712E+00  2.283926E+02 -5.615824E-09  2.405699E+02  5.492689E-10
        42   7 -1.383201E+05  2.617550E+00  8.039446E+02  2.801378E+01  6.788315E+02  3.063628E-05
        42   8 -1.383360E+05 -6.064222E+00  4.431720E+02  1.997064E+01  4.597006E+02  1.479108E-05
        42   9 -1.383201E+05 -1.524712E+00  2.283926E+02  1.192750E+01  2.405699E+02  4.623318E-06
        42  10 -1.383201E+05  2.617426E+00  8.039437E+02 -2.801378E+01 -1.356266E-09  1.002072E-10
        42  11 -1.383360E+05 -6.064279E+00  4.431716E+02 -1.997064E+01  2.453681E-10 -9.798144E-10
        42  12 -1.383201E+05 -1.524727E+00  2.283925E+02 -1.192750E+01 -2.672953E-09  9.959287E-11
        42  13 -1.383201E+05  2.617425E+00  8.039437E+02  1.157556E-08 -1.026887E-09 -6.660281E-11
        42  14 -1.383360E+05 -6.064280E+00  4.431716E+02 -4.210519E-10 -2.501399E-11 -5.116003E-10
        42  15 -1.383201E+05 -1.524728E+00  2.283925E+02 -3.210426E-11  1.138068E-10  5.274624E-11
        42  16 -1.383201E+05  2.617426E+00  8.039437E+02  2.801378E+01  2.395660E-09 -2.372712E-10
        42  17 -1.383360E+05 -6.064279E+00  4.431716E+02  1.997064E+01  1.420032E-09 -4.718236E-11
        42  18 -1.383201E+05 -1.524727E+00  2.283925E+02  1.192750E+01  2.124120E-09 -6.006045E-12
        42  19 -1.383201E+05  2.617550E+00  8.039446E+02 -2.801378E+01 -6.788315E+02  3.063833E-05
        42  20 -1.383360E+05 -6.064222E+00  4.431720E+02 -1.997064E+01 -4.597006E+02  1.478903E-05
        42  21 -1.383201E+05 -1.524712E+00  2.283926E+02 -1.192750E+01 -2.405699E+02  4.622448E-06
        42  22 -1.383201E+05  2.617549E+00  8.039446E+02  1.355206E-08 -6.788315E+02  7.725099E-10
        42  23 -1.383360E+05 -6.064223E+00  4.431720E+02 -4.100095E-10 -4.597006E+02 -1.105232E-09
        42  24 -1.383201E+05 -1.524712E+00  2.283926E+02  3.398839E-09 -2.405699E+02 -4.428653E-10
        42  25 -1.383201E+05  2.617550E+00  8.039446E+02  2.801378E+01 -6.788315E+02 -3.063680E-05
        42  26 -1.383360E+05 -6.064222E+00  4.431720E+02  1.997064E+01 -4.597006E+02 -1.479122E-05
        42  27 -1.383201E+05 -1.524712E+00  2.283926E+02  1.192750E+01 -2.405699E+02 -4.623342E-06
        43   1 -1.383269E+05 -1.370788E+00  1.512598E+02 -1.001339E+01  2.061579E+02 -3.325475E-06
        43   2 -1.383276E+05 -3.358844E-01  2.655420E+01 -8.781179E+00  1.930760E+02 -2.732416E-06
        43   3 -1.383269E+05 -8.333500E-01 -9.001730E+01 -7.548983E+00  1.799944E+02 -2.189672E-06
        43   4 -1.383269E+05 -1.370788E+00  1.512598E+02 -1.287046E-09  2.061579E+02  2.001972E-10
        43   5 -1.383276E+05 -3.358846E-01  2.655420E+01 -2.850189E-09  1.930760E+02 -5.116530E-10
        43   6 -1.383269E+05 -8.333501E-01 -9.001730E+01  2.314621E-09  1.799944E+02 -2.495781E-10
        43   7 -1.383269E+05 -1.370788E+00  1.512598E+02  1.001339E+01  2.061579E+02  3.325870E-06
        43   8 -1.383276E+05 -3.358844E-01  2.655420E+01  8.781179E+00  1.930760E+02  2.731383E-06
        43   9 -1.383269E+05 -8.333500E-01 -9.001730E+01  7.548983E+00  1.799944E+02  2.189201E-06
        43  10 -1.383269E+05 -1.370799E+00  1.512597E+02 -1.001339E+01 -1.849982E-09  4.368527E-10
        43  11 -1.383276E+05 -3.358944E-01  2.655413E+01 -8.781179E+00 -2.251715E-09 -3.998927E-10
        43  12 -1.383269E+05 -8.333587E-01 -9.001736E+01 -7.548983E+00 -1.593750E-09 -4.336304E-10
        43  13 -1.383269E+05 -1.370799E+00  1.512597E+02 -1.350274E-09 -1.029022E-09  2.952699E-10
        43  14 -1.383276E+05 -3.358946E-01  2.655413E+01  8.959717E-09 -2.642290E-09  1.710616E-11
        43  15 -1.383269E+05 -8.333588E-01 -9.001736E+01  1.502728E-09 -2.228820E-09 -8.895818E-11
        43  16 -1.383269E+05 -1.370799E+00  1.512597E+02  1.001339E+01 -3.106821E-10  1.557964E-10
        43  17 -1.383276E+05 -3.358944E-01  2.655413E+01  8.781179E+00  1.228844E-10  4.468180E-10
        43  18 -1.383269E+05 -8.333587E-01 -9.001736E+01  7.548983E+00 -1.880079E-10  2.609939E-10
        43  19 -1.383269E+05 -1.370788E+00  1.512598E+02 -1.001339E+01 -2.061579E+02  3.326362E-06
        43  20 -1.383276E+05 -3.358844E-01  2.655420E+01 -8.781179E+00 -1.930760E+02  2.731630E-06
        43  21 -1.383269E+05 -8.333500E-01 -9.001730E+01 -7.548983E+00 -1.799944E+02  2.188836E-06
        43  22 -1.383269E+05 -1.370788E+00  1.512598E+02  1.366014E-08 -2.061579E+02  3.928300E-10
        43  23 -1.383276E+05 -3.358845E-01  2.655420E+01  5.693483E-09 -1.930760E+02  5.451337E-10
        43  24 -1.383269E+05 -8.333501E-01 -9.001730E+01  8.226081E-09 -1.799944E+02  6.862706E-11
        43  25 -1.383269E+05 -1.370788E+00  1.512598E+02  1.001339E+01 -2.061579E+02 -3.325580E-06
        43  26 -1.383276E+05 -3.358844E-01  2.655420E+01  8.781179E+00 -1.930760E+02 -2.730531E-06
        43  27 -1.383269E+05 -8.333500E-01 -9.001730E+01  7.548983E+00 -1.799944E+02 -2.188700E-06
        44   1 -1.383341E+05  2.315266E+00 -1.556499E+02 -1.403753E+01  2.020584E+02 -4.569330E-06
        44   2 -1.383186E+05  4.851113E+00 -3.294451E+02 -1.057387E+01  3.655556E+02 -6.226306E-06
        44   3 -1.383341E+05 -3.169459E+01 -6.194706E+02 -7.110165E+00  5.290553E+02 -6.060263E-06
        44   4 -1.383341E+05  2.315266E+00 -1.556499E+02  2.932441E-09  2.020584E+02  2.782647E-10
        44   5 -1.383186E+05  4.851113E+00 -3.294451E+02 -3.266283E-09  3.655556E+02  5.675340E-10
        44   6 -1.383341E+05 -3.169459E+01 -6.194706E+02 -4.080437E-09  5.290553E+02 -1.137355E-10
        44   7 -1.383341E+05  2.315266E+00 -1.556499E+02  1.403753E+01  2.020584E+02  4.569879E-06
        44   8 -1.383186E+05  4.851113E+00 -3.294451E+02  1.057387E+01  3.655556E+02  6.227425E-06
        44   9 -1.383341E+05 -3.169459E+01 -6.194706E+02  7.110165E+00  5.290553E+02  6.060038E-06
        44  10 -1.383341E+05  2.315255E+00 -1.556500E+02 -1.403753E+01 -1.204065E-09  2.385968E-11
        44  11 -1.383186E+05  4.851078E+00 -3.294454E+02 -1.057387E+01 -2.305580E-09  6.378932E-10
        44  12 -1.383341E+05 -3.169467E+01 -6.194711E+02 -7.110165E+00 -1.009876E-09  4.779687E-10
        44  13 -1.383341E+05  2.315255E+00 -1.556500E+02  5.121893E-09 -1.131087E-09 -3.186779E-11
        44  14 -1.383186E+05  4.851077E+00 -3.294454E+02  3.222676E-09 -1.692424E-09  1.451325E-10
        44  15 -1.383341E+05 -3.169467E+01 -6.194711E+02  5.631642E-09  2.168358E-09  2.763745E-10
        44  16 -1.383341E+05  2.315255E+00 -1.556500E+02  1.403753E+01  7.296436E-10 -1.023319E-10
        44  17 -1.383186E+05  4.851078E+00 -3.294454E+02  1.057387E+01  3.335391E-10 -3.596589E-10
        44  18 -1.383341E+05 -3.169467E+01 -6.194711E+02  7.110165E+00  2.808924E-09  6.297628E-11
        44  19 -1.383341E+05  2.315266E+00 -1.556499E+02 -1.403753E+01 -2.020584E+02  4.569406E-06
        44  20 -1.383186E+05  4.851113E+00 -3.294451E+02 -1.057387E+01 -3.655556E+02  6.227617E-06
        44  21 -1.383341E+05 -3.169459E+01 -6.194706E+02 -7.110165E+00 -5.290553E+02  6.061235E-06
        44  22 -1.383341E+05  2.315266E+00 -1.556499E+02  1.162084E-08 -2.020584E+02 -3.423562E-10
        44  23 -1.383186E+05  4.851113E+00 -3.294451E+02  1.402048E-08 -3.655556E+02 -2.821701E-10
        44  24 -1.383341E+05 -3.169459E+01 -6.194706E+02  1.318910E-08 -5.290553E+02  6.674044E-10
        44  25 -1.383341E+05  2.315266E+00 -1.556499E+02  1.403753E+01 -2.020584E+02 -4.570077E-06
        44  26 -1.383186E+05  4.851113E+00 -3.294451E+02  1.057387E+01 -3.655556E+02 -6.228172E-06
        44  27 -1.383341E+05 -3.169459E+01 -6.194706E+02  7.110165E+00 -5.290553E+02 -6.059918E-06
        45   1 -1.383829E+05  3.525184E+01 -8.166101E+02 -1.133060E+02  6.553593E+02 -1.196331E-04
        45   2 -1.382577E+05  2.639521E+01 -1.427352E+03  4.978446E+01  1.373179E+03  1.101384E-04
        45   3 -1.383830E+05 -6.105552E+02 -2.662524E+03  2.128750E+02  2.090998E+03  7.171267E-04
        45   4 -1.383829E+05  3.525182E+01 -8.166101E+02  6.492297E-10  6.553593E+02 -2.703772E-10
        45   5 -1.382577E+05  2.639521E+01 -1.427352E+03 -2.129988E-09  1.373179E+03  2.448057E-10
        45   6 -1.383830E+05 -6.105553E+02 -2.662524E+03  6.935935E-09  2.090998E+03  3.212323E-10
        45   7 -1.383829E+05  3.525184E+01 -8.166101E+02  1.133060E+02  6.553593E+02  1.196325E-04
        45   8 -1.382577E+05  2.639521E+01 -1.427352E+03 -4.978446E+01  1.373179E+03 -1.101379E-04
        45   9 -1.383830E+05 -6.105552E+02 -2.662524E+03 -2.128750E+02  2.090998E+03 -7.171260E-04
        45  10 -1.383829E+05  3.525173E+01 -8.166109E+02 -1.133060E+02 -1.298551E-10 -1.595269E-10
        45  11 -1.382577E+05  2.639470E+01 -1.427355E+03  4.978446E+01  1.119910E-10 -9.145514E-10
        45  12 -1.383830E+05 -6.105564E+02 -2.662532E+03  2.128750E+02 -1.899887E-09 -5.542708E-10
        45  13 -1.383829E+05  3.525170E+01 -8.166109E+02 -1.722547E-09  1.079017E-09 -7.893297E-11
        45  14 -1.382577E+05  2.639470E+01 -1.427355E+03 -1.072003E-09 -3.255672E-09 -7.210263E-10
        45  15 -1.383830E+05 -6.105565E+02 -2.662532E+03  5.499995E-09 -1.329543E-09 -2.918302E-10
        45  16 -1.383829E+05  3.525173E+01 -8.166109E+02  1.133060E+02 -4.537361E-10 -8.126837E-12
        45  17 -1.382577E+05  2.639470E+01 -1.427355E+03 -4.978446E+01 -6.504475E-10 -5.185135E-10
        45  18 -1.383830E+05 -6.105564E+02 -2.662532E+03 -2.128750E+02  1.356210E-09 -2.878758E-11
        45  19 -1.383829E+05  3.525184E+01 -8.166101E+02 -1.133060E+02 -6.553593E+02  1.196328E-04
        45  20 -1.382577E+05  2.639521E+01 -1.427352E+03  4.978446E+01 -1.373179E+03 -1.101402E-04
        45  21 -1.383830E+05 -6.105552E+02 -2.662524E+03  2.128750E+02 -2.090998E+03 -7.171278E-04
        45  22 -1.383829E+05  3.525182E+01 -8.166101E+02  6.675085E-09 -6.553593E+02  1.109806E-10
        45  23 -1.382577E+05  2.639521E+01 -1.427352E+03 -1.480375E-11 -1.373179E+03 -1.686535E-09
        45  24 -1.383830E+05 -6.105553E+02 -2.662524E+03  2.986090E-09 -2.090998E+03 -9.050372E-10
        45  25 -1.383829E+05  3.525184E+01 -8.166101E+02  1.133060E+02 -6.553593E+02 -1.196326E-04
        45  26 -1.382577E+05  2.639521E+01 -1.427352E+03 -4.978446E+01 -1.373179E+03  1.101369E-04
        45  27 -1.383830E+05 -6.105552E+02 -2.662524E+03 -2.128750E+02 -2.090998E+03  7.171259E-04
        46   1 -1.389806E+05  5.300405E+02 -3.341111E+03 -1.507257E+03  2.569184E+03 -6.238796E-03
        46   2 -1.375108E+05  1.949662E+02 -5.659140E+03  1.626378E+03  5.573773E+03  1.460453E-02
        46   3 -1.389813E+05 -1.033504E+04 -1.248232E+04  4.759957E+03  8.578318E+03  6.578436E-02
        46   4 -1.389806E+05  5.300362E+02 -3.341112E+03  8.615448E-09  2.569184E+03  1.194515E-10
        46   5 -1.375108E+05  1.949612E+02 -5.659141E+03 -8.748876E-10  5.573773E+03 -1.566489E-10
        46   6 -1.389813E+05 -1.033508E+04 -1.248233E+04 -4.053288E-10  8.578318E+03 -9.058740E-11
        46   7 -1.389806E+05  5.300405E+02 -3.341111E+03  1.507257E+03  2.569184E+03  6.238796E-03
        46   8 -1.375108E+05  1.949662E+02 -5.659140E+03 -1.626378E+03  5.573773E+03 -1.460453E-02
        46   9 -1.389813E+05 -1.033504E+04 -1.248232E+04 -4.759957E+03  8.578318E+03 -6.578436E-02
        46  10 -1.389806E+05  5.300387E+02 -3.341124E+03 -1.507257E+03 -5.525381E-10  4.087384E-12
        46  11 -1.375109E+05  1.949578E+02 -5.659199E+03  1.626378E+03 -1.053892E-09  4.066790E-10
        46  12 -1.389813E+05 -1.033506E+04 -1.248246E+04  4.759957E+03  2.060305E-09  1.827051E-10
        46  13 -1.389806E+05  5.300344E+02 -3.341124E+03  2.163943E-09 -2.055215E-09  5.073927E-11
        46  14 -1.375109E+05  1.949528E+02 -5.659199E+03 -4.107742E-09 -3.230729E-09  6.772002E-11
        46  15 -1.389814E+05 -1.033510E+04 -1.248247E+04 -8.763477E-09 -1.062626E-09  2.471971E-11
        46  16 -1.389806E+05  5.300387E+02 -3.341124E+03  1.507257E+03 -1.574003E-09  1.084204E-10
        46  17 -1.375109E+05  1.949578E+02 -5.659199E+03 -1.626378E+03 -2.139859E-09 -2.668504E-10
        46  18 -1.389813E+05 -1.033506E+04 -1.248246E+04 -4.759957E+03 -2.422230E-10 -1.346104E-10
        46  19 -1.389806E+05  5.300405E+02 -3.341111E+03 -1.507257E+03 -2.569184E+03  6.238796E-03
        46  20 -1.375108E+05  1.949662E+02 -5.659140E+03  1.626378E+03 -5.573773E+03 -1.460453E-02
        46  21 -1.389813E+05 -1.033504E+04 -1.248232E+04  4.759957E+03 -8.578318E+03 -6.578436E-02
        46  22 -1.389806E+05  5.300362E+02 -3.341112E+03  4.327239E-09 -2.569184E+03 -1.840105E-11
        46  23 -1.375108E+05  1.949612E+02 -5.659141E+03 -9.494695E-09 -5.573773E+03  2.956843E-10
        46  24 -1.389813E+05 -1.033508E+04 -1.248233E+04 -7.018987E-10 -8.578318E+03  1.437035E-10
        46  25 -1.389806E+05  5.300405E+02 -3.341111E+03  1.507257E+03 -2.569184E+03 -6.238796E-03
        46  26 -1.375108E+05  1.949662E+02 -5.659140E+03 -1.626378E+03 -5.573773E+03  1.460453E-02
        46  27 -1.389813E+05 -1.033504E+04 -1.248232E+04 -4.759957E+03 -8.578318E+03  6.578436E-02
        47   1  2.408527E+05  5.738138E+05  2.427480E+05 -1.013452E+05  1.022096E+04  5.118922E+04
        47   2  1.723902E+05  4.274695E+05  1.769057E+05 -6.214055E+04  3.067199E+04  2.213070E+04
        47   3  1.373464E+05  2.934177E+05  1.383549E+05 -8.318979E+04  2.833329E+04 -6.925855E+03
        47   4  3.005877E+04 -2.741238E+05  3.656330E+04 -8.724183E+04  1.022933E+04  2.364334E+04
        47   5 -6.433532E+02 -2.785316E+05  1.768466E+04 -5.711950E+04  3.067819E+04  1.430357E+04
        47   6 -1.326593E+03 -2.740716E+05  1.242445E+04 -8.725300E+04  2.832658E+04  4.959072E+03
        47   7 -1.807869E+05 -1.121403E+06 -1.696705E+05 -7.315765E+04  1.023645E+04 -3.865068E+03
        47   8 -1.737110E+05 -9.840692E+05 -1.415680E+05 -5.210413E+04  3.068426E+04  6.485231E+03
        47   9 -1.400212E+05 -8.412601E+05 -1.135255E+05 -9.131239E+04  2.831972E+04  1.683326E+04
        47  10  2.408519E+05  5.738109E+05  2.427429E+05 -1.013457E+05  1.321005E-09  6.913977E-10
        47  11  1.723891E+05  4.274688E+05  1.769030E+05 -6.214110E+04  6.569420E-10 -6.583104E-10
        47  12  1.373455E+05  2.934175E+05  1.383533E+05 -8.318963E+04 -1.440267E-09 -2.515918E-09
        47  13  3.005851E+04 -2.741244E+05  3.656205E+04 -8.724203E+04 -7.923973E-10  9.684404E-11
        47  14 -6.444187E+02 -2.785321E+05  1.768250E+04 -5.711985E+04  1.710121E-09  2.765525E-12
        47  15 -1.327461E+03 -2.740719E+05  1.242289E+04 -8.725312E+04 -5.143136E-10  3.813346E-10
        47  16 -1.807870E+05 -1.121403E+06 -1.696707E+05 -7.315762E+04 -2.951098E-10 -6.880157E-10
        47  17 -1.737121E+05 -9.840695E+05 -1.415699E+05 -5.210429E+04 -1.231513E-09  5.283302E-10
        47  18 -1.400222E+05 -8.412606E+05 -1.135275E+05 -9.131277E+04  1.062967E-09  2.193131E-09
        47  19  2.408527E+05  5.738138E+05  2.427480E+05 -1.013452E+05 -1.022096E+04 -5.118922E+04
        47  20  1.723902E+05  4.274695E+05  1.769057E+05 -6.214055E+04 -3.067199E+04 -2.213070E+04
        47  21  1.373464E+05  2.934177E+05  1.383549E+05 -8.318979E+04 -2.833329E+04  6.925855E+03
        47  22  3.005877E+04 -2.741238E+05  3.656330E+04 -8.724183E+04 -1.022933E+04 -2.364334E+04
        47  23 -6.433532E+02 -2.785316E+05  1.768466E+04 -5.711950E+04 -3.067819E+04 -1.430357E+04
        47  24 -1.326593E+03 -2.740716E+05  1.242445E+04 -8.725300E+04 -2.832658E+04 -4.959072E+03
        47  25 -1.807869E+05 -1.121403E+06 -1.696705E+05 -7.315765E+04 -1.023645E+04  3.865068E+03
        47  26 -1.737110E+05 -9.840692E+05 -1.415680E+05 -5.210413E+04 -3.068426E+04 -6.485231E+03
        47  27 -1.400212E+05 -8.412601E+05 -1.135255E+05 -9.131239E+04 -2.831972E+04 -1.683326E+04
        48   1  1.114651E+05  1.731509E+05  1.114074E+05 -8.888706E+04  2.163887E+04 -2.200462E+03
        48   2  7.529641E+04  3.198059E+04  7.919130E+04 -5.694871E+04  1.527253E+04 -8.162033E+03
        48   3  4.406042E+04 -1.072438E+05  5.206896E+04 -8.629445E+04  8.210878E+03 -1.412578E+04
        48   4  1.702690E+03 -2.756087E+05  1.138430E+04 -8.747855E+04  2.163567E+04  3.003413E+03
        48   5 -1.178840E+02 -2.765078E+05  1.064661E+04 -5.683515E+04  1.526777E+04 -2.355086E+03
        48   6  2.892095E+03 -2.755835E+05  1.458629E+04 -8.747742E+04  8.204351E+03 -7.717065E+03
        48   7 -1.080733E+05 -7.241805E+05 -8.865129E+04 -8.607103E+04  2.163249E+04  8.203566E+03
        48   8 -7.553860E+04 -5.849074E+05 -5.790389E+04 -5.672163E+04  1.526300E+04  3.449009E+03
        48   9 -3.827812E+04 -4.438966E+05 -2.289800E+04 -8.866007E+04  8.197799E+03 -1.310069E+03
        48  10  1.114646E+05  1.731508E+05  1.114065E+05 -8.888702E+04 -4.287806E-10 -8.160406E-09
        48  11  7.529614E+04  3.198046E+04  7.919073E+04 -5.694860E+04  1.039225E-09  2.633378E-11
        48  12  4.406029E+04 -1.072441E+05  5.206846E+04 -8.629435E+04  1.547264E-09  8.314048E-09
        48  13  1.702185E+03 -2.756088E+05  1.138340E+04 -8.747861E+04 -3.681829E-10  7.923283E-10
        48  14 -1.181358E+02 -2.765079E+05  1.064616E+04 -5.683512E+04  3.235642E-09  3.334637E-11
        48  15  2.892007E+03 -2.755836E+05  1.458605E+04 -8.747737E+04 -4.768023E-10  5.486646E-10
        48  16 -1.080739E+05 -7.241807E+05 -8.865229E+04 -8.607117E+04  1.704110E-09  8.168113E-09
        48  17 -7.553885E+04 -5.849075E+05 -5.790435E+04 -5.672167E+04  2.628512E-09 -3.340243E-10
        48  18 -3.827819E+04 -4.438966E+05 -2.289813E+04 -8.866006E+04 -4.453659E-11 -8.884441E-09
        48  19  1.114651E+05  1.731509E+05  1.114074E+05 -8.888706E+04 -2.163887E+04  2.200462E+03
        48  20  7.529641E+04  3.198059E+04  7.919130E+04 -5.694871E+04 -1.527253E+04  8.162033E+03
        48  21  4.406042E+04 -1.072438E+05  5.206896E+04 -8.629445E+04 -8.210878E+03  1.412578E+04
        48  22  1.702690E+03 -2.756087E+05  1.138430E+04 -8.747855E+04 -2.163567E+04 -3.003413E+03
        48  23 -1.178840E+02 -2.765078E+05  1.064661E+04 -5.683515E+04 -1.526777E+04  2.355086E+03
        48  24  2.892095E+03 -2.755835E+05  1.458629E+04 -8.747742E+04 -8.204351E+03  7.717065E+03
        48  25 -1.080733E+05 -7.241805E+05 -8.865129E+04 -8.607103E+04 -2.163249E+04 -8.203566E+03
        48  26 -7.553860E+04 -5.849074E+05 -5.790389E+04 -5.672163E+04 -1.526300E+04 -3.449009E+03
        48  27 -3.827812E+04 -4.438966E+05 -2.289800E+04 -8.866007E+04 -8.197799E+03  1.310069E+03
        49   1  9.964909E+03 -2.231295E+05  2.796103E+04 -9.441383E+04  2.934206E+03 -1.855546E+04
        49   2 -2.295872E+04 -3.696283E+05  6.178049E+03 -4.927315E+04 -3.011581E+03 -2.657499E+04
        49   3 -9.589472E+03 -5.036130E+05  1.162119E+03 -6.515827E+04 -1.706302E+03 -3.458608E+04
        49   4 -2.188317E+03 -2.729671E+05  1.713389E+04 -8.743220E+04  2.925160E+03 -1.028225E+04
        49   5 -8.051349E+02 -2.797549E+05  2.694868E+04 -5.689733E+04 -3.013263E+03 -2.456704E+04
        49   6  4.795404E+04 -2.729672E+05  5.787912E+04 -8.738434E+04 -1.700742E+03 -3.884514E+04
        49   7 -1.434149E+04 -3.228022E+05  6.306877E+03 -8.045114E+04  2.916300E+03 -2.009701E+03
        49   8  2.134810E+04 -1.898740E+05  4.771882E+04 -6.452262E+04 -3.014995E+03 -2.255881E+04
        49   9  1.054954E+05 -4.227195E+04  1.145925E+05 -1.096187E+05 -1.694879E+03 -4.310577E+04
        49  10  9.964808E+03 -2.231299E+05  2.796037E+04 -9.441379E+04  4.150931E-10  2.856485E-09
        49  11 -2.295892E+04 -3.696290E+05  6.176704E+03 -4.927322E+04  5.470342E-10  2.189566E-10
        49  12 -9.589797E+03 -5.036143E+05  1.159863E+03 -6.515832E+04 -3.859741E-10 -8.151838E-10
        49  13 -2.188355E+03 -2.729672E+05  1.713367E+04 -8.743218E+04 -9.515974E-10  1.018859E-09
        49  14 -8.053068E+02 -2.797556E+05  2.694753E+04 -5.689739E+04 -2.614010E-09 -1.613730E-11
        49  15  4.795363E+04 -2.729689E+05  5.787628E+04 -8.738439E+04  4.362061E-10  5.495095E-10
        49  16 -1.434150E+04 -3.228022E+05  6.306853E+03 -8.045113E+04 -4.827093E-10 -2.852001E-09
        49  17  2.134796E+04 -1.898745E+05  4.771784E+04 -6.452268E+04  2.500175E-09 -6.223133E-10
        49  18  1.054949E+05 -4.227394E+04  1.145890E+05 -1.096187E+05  1.427841E-09  2.896789E-10
        49  19  9.964909E+03 -2.231295E+05  2.796103E+04 -9.441383E+04 -2.934206E+03  1.855546E+04
        49  20 -2.295872E+04 -3.696283E+05  6.178049E+03 -4.927315E+04  3.011581E+03  2.657499E+04
        49  21 -9.589472E+03 -5.036130E+05  1.162119E+03 -6.515827E+04  1.706302E+03  3.458608E+04
        49  22 -2.188317E+03 -2.729671E+05  1.713389E+04 -8.743220E+04 -2.925160E+03  1.028225E+04
        49  23 -8.051349E+02 -2.797549E+05  2.694868E+04 -5.689733E+04  3.013263E+03  2.456704E+04
        49  24  4.795404E+04 -2.729672E+05  5.787912E+04 -8.738434E+04  1.700742E+03  3.884514E+04
        49  25 -1.434149E+04 -3.228022E+05  6.306877E+03 -8.045114E+04 -2.916300E+03  2.009701E+03
        49  26  2.134810E+04 -1.898740E+05  4.771882E+04 -6.452262E+04  3.014995E+03  2.255881E+04
        49  27  1.054954E+05 -4.227195E+04  1.145925E+05 -1.096187E+05  1.694879E+03  4.310577E+04
        50   1 -6.122445E+05 -1.469959E+05 -5.682968E+04 -2.318182E+05 -2.381054E+04 -7.556008E+03
        50   2 -5.975979E+05 -1.087588E+05 -3.300913E+04 -2.267084E+05 -1.510772E+04 -1.576122E+03
        50   3 -5.885520E+05 -1.007018E+05 -2.319074E+04 -2.210893E+05 -5.386920E+03  1.689686E+03
        50   4 -5.268305E+05 -1.043372E+05 -3.189353E+04 -1.977266E+05 -2.079006E+04 -6.423921E+03
        50   5 -5.225298E+05 -7.726910E+04 -1.375216E+04 -2.025524E+05 -1.428024E+04 -1.266010E+03
        50   6 -5.233938E+05 -7.994489E+04 -7.873250E+03 -2.068695E+05 -6.752620E+03  1.177692E+03
        50   7 -4.414103E+05 -6.167672E+04 -6.958396E+03 -1.636307E+05 -1.776917E+04 -5.291551E+03
        50   8 -4.474564E+05 -4.577874E+04  5.504264E+03 -1.783937E+05 -1.345265E+04 -9.558450E+02
        50   9 -4.582310E+05 -5.918780E+04  7.444080E+03 -1.926483E+05 -8.118486E+03  6.656556E+02
        50  10 -6.122452E+05 -1.469961E+05 -5.683085E+04 -2.318183E+05 -2.628485E-10 -3.518896E-11
        50  11 -5.975982E+05 -1.087588E+05 -3.300956E+04 -2.267084E+05  2.797736E-09 -2.179410E-10
        50  12 -5.885520E+05 -1.007018E+05 -2.319080E+04 -2.210893E+05  5.699675E-10 -5.604037E-10
        50  13 -5.268310E+05 -1.043373E+05 -3.189442E+04 -1.977267E+05  1.083412E-09 -9.061241E-11
        50  14 -5.225300E+05 -7.726915E+04 -1.375255E+04 -2.025524E+05 -1.679149E-09 -3.777604E-11
        50  15 -5.233939E+05 -7.994490E+04 -7.873338E+03 -2.068695E+05  1.210772E-09 -2.795030E-10
        50  16 -4.414106E+05 -6.167684E+04 -6.959042E+03 -1.636308E+05 -6.479314E-10 -1.009013E-10
        50  17 -4.474566E+05 -4.577879E+04  5.503922E+03 -1.783937E+05  8.883437E-10 -1.226743E-10
        50  18 -4.582311E+05 -5.918782E+04  7.443955E+03 -1.926483E+05  1.856129E-12 -7.581693E-11
        50  19 -6.122445E+05 -1.469959E+05 -5.682968E+04 -2.318182E+05  2.381054E+04  7.556008E+03
        50  20 -5.975979E+05 -1.087588E+05 -3.300913E+04 -2.267084E+05  1.510772E+04  1.576122E+03
        50  21 -5.885520E+05 -1.007018E+05 -2.319074E+04 -2.210893E+05  5.386920E+03 -1.689686E+03
        50  22 -5.268305E+05 -1.043372E+05 -3.189353E+04 -1.977266E+05  2.079006E+04  6.423921E+03
        50  23 -5.225298E+05 -7.726910E+04 -1.375216E+04 -2.025524E+05  1.428024E+04  1.266010E+03
        50  24 -5.233938E+05 -7.994489E+04 -7.873250E+03 -2.068695E+05  6.752620E+03 -1.177692E+03
        50  25 -4.414103E+05 -6.167672E+04 -6.958396E+03 -1.636307E+05  1.776917E+04  5.291551E+03
        50  26 -4.474564E+05 -4.577874E+04  5.504264E+03 -1.783937E+05  1.345265E+04  9.558450E+02
        50  27 -4.582310E+05 -5.918780E+04  7.444080E+03 -1.926483E+05  8.118486E+03 -6.656556E+02
        51   1 -5.711223E+05 -1.012031E+05 -1.834953E+04 -2.192592E+05 -4.897391E+03  9.669840E+02
        51   2 -5.582245E+05 -9.102073E+04 -1.151123E+04 -2.122694E+05 -2.896144E+03  8.875308E+02
        51   3 -5.410143E+05 -8.768563E+04 -6.413073E+03 -2.108299E+05 -8.480038E+02  6.829787E+02
        51   4 -5.223590E+05 -8.249775E+04 -6.265362E+03 -2.053496E+05 -5.435103E+03  7.653836E+02
        51   5 -5.244134E+05 -7.829356E+04 -3.196062E+03 -2.028706E+05 -3.534841E+03  6.480944E+02
        51   6 -5.221356E+05 -8.091642E+04 -1.786718E+03 -2.059419E+05 -1.587753E+03  4.056899E+02
        51   7 -4.735933E+05 -6.379219E+04  5.818666E+03 -1.914390E+05 -5.972862E+03  5.637642E+02
        51   8 -4.906014E+05 -6.556641E+04  5.118946E+03 -1.934715E+05 -4.173572E+03  4.086454E+02
        51   9 -5.032568E+05 -7.414731E+04  2.839517E+03 -2.010539E+05 -2.327514E+03  1.283977E+02
        51  10 -5.711223E+05 -1.012031E+05 -1.834958E+04 -2.192592E+05  3.130568E-10 -2.600597E-10
        51  11 -5.582245E+05 -9.102073E+04 -1.151125E+04 -2.122694E+05  1.312491E-09  1.060897E-10
        51  12 -5.410143E+05 -8.768563E+04 -6.413075E+03 -2.108299E+05 -6.953067E-10 -3.244600E-10
        51  13 -5.223590E+05 -8.249776E+04 -6.265418E+03 -2.053496E+05 -8.566828E-10  5.723631E-11
        51  14 -5.244134E+05 -7.829357E+04 -3.196086E+03 -2.028706E+05 -3.757443E-09 -1.537384E-11
        51  15 -5.221356E+05 -8.091642E+04 -1.786723E+03 -2.059419E+05  1.333403E-09 -2.172625E-10
        51  16 -4.735933E+05 -6.379220E+04  5.818598E+03 -1.914390E+05 -1.871239E-09 -8.076103E-11
        51  17 -4.906015E+05 -6.556642E+04  5.118913E+03 -1.934715E+05 -2.729426E-09 -2.654166E-10
        51  18 -5.032568E+05 -7.414731E+04  2.839507E+03 -2.010539E+05  2.438269E-09 -2.842725E-10
        51  19 -5.711223E+05 -1.012031E+05 -1.834953E+04 -2.192592E+05  4.897391E+03 -9.669840E+02
        51  20 -5.582245E+05 -9.102073E+04 -1.151123E+04 -2.122694E+05  2.896144E+03 -8.875308E+02
        51  21 -5.410143E+05 -8.768563E+04 -6.413073E+03 -2.108299E+05  8.480038E+02 -6.829787E+02
        51  22 -5.223590E+05 -8.249775E+04 -6.265362E+03 -2.053496E+05  5.435103E+03 -7.653836E+02
        51  23 -5.244134E+05 -7.829356E+04 -3.196062E+03 -2.028706E+05  3.534841E+03 -6.480944E+02
        51  24 -5.221356E+05 -8.091642E+04 -1.786718E+03 -2.059419E+05  1.587753E+03 -4.056899E+02
        51  25 -4.735933E+05 -6.379219E+04  5.818666E+03 -1.914390E+05  5.972862E+03 -5.637642E+02
        51  26 -4.906014E+05 -6.556641E+04  5.118946E+03 -1.934715E+05  4.173572E+03 -4.086454E+02
        51  27 -5.032568E+05 -7.414731E+04  2.839517E+03 -2.010539E+05  2.327514E+03 -1.283977E+02
        52   1 -5.272726E+05 -8.301660E+04 -2.598653E+03 -2.072719E+05 -4.368461E+02  2.393893E+02
        52   2 -5.145642E+05 -7.464847E+04  1.700188E+03 -2.001431E+05  2.704959E+02 -4.888799E+02
        52   3 -4.967775E+05 -7.156634E+04  5.685729E+03 -1.989282E+05  9.798110E+02 -1.222280E+03
        52   4 -5.220404E+05 -8.107597E+04 -1.367127E+03 -2.058346E+05 -1.138900E+03 -2.376515E+01
        52   5 -5.245730E+05 -7.838588E+04 -7.520515E+02 -2.028952E+05 -4.357236E+02 -7.536092E+02
        52   6 -5.220267E+05 -8.098111E+04 -4.469945E+02 -2.058700E+05  2.694144E+02 -1.488586E+03
        52   7 -5.168080E+05 -7.913530E+04 -1.355778E+02 -2.043973E+05 -1.840972E+03 -2.869261E+02
        52   8 -5.345818E+05 -8.212332E+04 -3.204332E+03 -2.056474E+05 -1.141940E+03 -1.018337E+03
        52   9 -5.472756E+05 -9.039593E+04 -6.579839E+03 -2.128116E+05 -4.409583E+02 -1.754883E+03
        52  10 -5.272726E+05 -8.301660E+04 -2.598654E+03 -2.072719E+05 -3.926394E-10 -7.258029E-10
        52  11 -5.145642E+05 -7.464847E+04  1.700187E+03 -2.001431E+05  1.299128E-09 -1.236511E-09
        52  12 -4.967775E+05 -7.156634E+04  5.685724E+03 -1.989282E+05  2.385922E-10 -5.023376E-10
        52  13 -5.220404E+05 -8.107597E+04 -1.367129E+03 -2.058346E+05  1.469351E-09 -3.715286E-10
        52  14 -5.245730E+05 -7.838588E+04 -7.520530E+02 -2.028952E+05 -1.393640E-09 -9.867973E-10
        52  15 -5.220267E+05 -8.098111E+04 -4.469988E+02 -2.058700E+05 -4.422958E-10 -7.576964E-10
        52  16 -5.168080E+05 -7.913530E+04 -1.355843E+02 -2.043973E+05  1.322965E-09 -5.158417E-10
        52  17 -5.345818E+05 -8.212332E+04 -3.204337E+03 -2.056474E+05 -1.359634E-09 -7.218603E-10
        52  18 -5.472756E+05 -9.039594E+04 -6.579845E+03 -2.128116E+05  6.913387E-10 -7.904277E-10
        52  19 -5.272726E+05 -8.301660E+04 -2.598653E+03 -2.072719E+05  4.368461E+02 -2.393893E+02
        52  20 -5.145642E+05 -7.464847E+04  1.700188E+03 -2.001431E+05 -2.704959E+02  4.888799E+02
        52  21 -4.967775E+05 -7.156634E+04  5.685729E+03 -1.989282E+05 -9.798110E+02  1.222280E+03
        52  22 -5.220404E+05 -8.107597E+04 -1.367127E+03 -2.058346E+05  1.138900E+03  2.376515E+01
        52  23 -5.245730E+05 -7.838588E+04 -7.520515E+02 -2.028952E+05  4.357236E+02  7.536092E+02
        52  24 -5.220267E+05 -8.098111E+04 -4.469945E+02 -2.058700E+05 -2.694144E+02  1.488586E+03
        52  25 -5.168080E+05 -7.913530E+04 -1.355778E+02 -2.043973E+05  1.840972E+03  2.869261E+02
        52  26 -5.345818E+05 -8.212332E+04 -3.204332E+03 -2.056474E+05  1.141940E+03  1.018337E+03
        52  27 -5.472756E+05 -9.039593E+04 -6.579839E+03 -2.128116E+05  4.409583E+02  1.754883E+03
        53   1 -4.833395E+05 -6.657239E+04  9.163339E+03 -1.952665E+05  1.235929E+03 -1.708950E+03
        53   2 -4.706906E+05 -5.833418E+04  1.292193E+04 -1.881426E+05  1.700489E+03 -2.533432E+03
        53   3 -4.529047E+05 -5.526501E+04  1.657682E+04 -1.869343E+05  2.164779E+03 -3.356996E+03
        53   4 -5.220189E+05 -8.098683E+04 -3.625846E+02 -2.058587E+05  5.277144E+02 -1.974448E+03
        53   5 -5.245871E+05 -7.840093E+04 -2.749773E+02 -2.029015E+05  9.929849E+02 -2.798690E+03
        53   6 -5.220187E+05 -8.098405E+04 -2.915928E+02 -2.058598E+05  1.457986E+03 -3.622019E+03
        53   7 -5.606961E+05 -9.540090E+04 -9.888427E+03 -2.164502E+05 -1.804388E+02 -2.239924E+03
        53   8 -5.784804E+05 -9.846736E+04 -1.347203E+04 -2.176592E+05  2.855519E+02 -3.063922E+03
        53   9 -5.911284E+05 -1.067030E+05 -1.716051E+04 -2.247836E+05  7.512729E+02 -3.887012E+03
        53  10 -4.833395E+05 -6.657239E+04  9.163331E+03 -1.952665E+05 -1.654312E-09  5.384287E-11
        53  11 -4.706906E+05 -5.833419E+04  1.292191E+04 -1.881426E+05 -1.773105E-10  8.456396E-10
        53  12 -4.529047E+05 -5.526502E+04  1.657679E+04 -1.869343E+05 -4.748897E-10  4.831645E-10
        53  13 -5.220189E+05 -8.098683E+04 -3.625925E+02 -2.058587E+05  3.554564E-12  3.136957E-11
        53  14 -5.245871E+05 -7.840094E+04 -2.749939E+02 -2.029015E+05  2.435971E-09  7.044216E-10
        53  15 -5.220187E+05 -8.098407E+04 -2.916215E+02 -2.058598E+05  1.056121E-09  2.063720E-10
        53  16 -5.606961E+05 -9.540091E+04 -9.888436E+03 -2.164502E+05  1.046654E-09 -2.261222E-10
        53  17 -5.784804E+05 -9.846737E+04 -1.347204E+04 -2.176592E+05 -1.013431E-11  4.364677E-10
        53  18 -5.911284E+05 -1.067030E+05 -1.716054E+04 -2.247836E+05 -6.252944E-10  2.566037E-11
        53  19 -4.833395E+05 -6.657239E+04  9.163339E+03 -1.952665E+05 -1.235929E+03  1.708950E+03
        53  20 -4.706906E+05 -5.833418E+04  1.292193E+04 -1.881426E+05 -1.700489E+03  2.533432E+03
        53  21 -4.529047E+05 -5.526501E+04  1.657682E+04 -1.869343E+05 -2.164779E+03  3.356996E+03
        53  22 -5.220189E+05 -8.098683E+04 -3.625846E+02 -2.058587E+05 -5.277144E+02  1.974448E+03
        53  23 -5.245871E+05 -7.840093E+04 -2.749773E+02 -2.029015E+05 -9.929849E+02  2.798690E+03
        53  24 -5.220187E+05 -8.098405E+04 -2.915928E+02 -2.058598E+05 -1.457986E+03  3.622019E+03
        53  25 -5.606961E+05 -9.540090E+04 -9.888427E+03 -2.164502E+05  1.804388E+02  2.239924E+03
        53  26 -5.784804E+05 -9.846736E+04 -1.347203E+04 -2.176592E+05 -2.855519E+02  3.063922E+03
        53  27 -5.911284E+05 -1.067030E+05 -1.716051E+04 -2.247836E+05 -7.512729E+02  3.887012E+03
        54   1 -4.395427E+05 -5.026520E+04  1.991423E+04 -1.832779E+05  2.406269E+03 -3.846316E+03
        54   2 -4.269612E+05 -4.207673E+04  2.337495E+04 -1.761919E+05  2.991828E+03 -4.620415E+03
        54   3 -4.092907E+05 -3.904243E+04  2.663795E+04 -1.749876E+05  3.576456E+03 -5.391655E+03
        54   4 -5.220295E+05 -8.097745E+04 -3.358766E+02 -2.058539E+05  1.700776E+03 -4.110881E+03
        54   5 -5.245754E+05 -7.840784E+04 -5.238141E+02 -2.029103E+05  2.288582E+03 -4.884193E+03
        54   6 -5.220328E+05 -8.099292E+04 -9.112352E+02 -2.058486E+05  2.875449E+03 -5.654648E+03
        54   7 -6.045095E+05 -1.116892E+05 -2.058649E+04 -2.284272E+05  9.953861E+02 -4.375407E+03
        54   8 -6.221799E+05 -1.147382E+05 -2.442323E+04 -2.296248E+05  1.585459E+03 -5.147926E+03
        54   9 -6.347618E+05 -1.229423E+05 -2.846123E+04 -2.367044E+05  2.174584E+03 -5.917587E+03
        54  10 -4.395428E+05 -5.026522E+04  1.991419E+04 -1.832779E+05  3.740782E-10 -8.424175E-11
        54  11 -4.269612E+05 -4.207675E+04  2.337490E+04 -1.761919E+05  2.923562E-09  1.027764E-09
        54  12 -4.092908E+05 -3.904247E+04  2.663787E+04 -1.749876E+05  3.552358E-09  1.090679E-10
        54  13 -5.220295E+05 -8.097747E+04 -3.359138E+02 -2.058539E+05  2.025675E-09  3.103003E-10
        54  14 -5.245754E+05 -7.840787E+04 -5.238687E+02 -2.029103E+05  3.768249E-09  8.175328E-10
        54  15 -5.220328E+05 -8.099295E+04 -9.113108E+02 -2.058486E+05  9.638672E-10 -2.389088E-11
        54  16 -6.045096E+05 -1.116893E+05 -2.058653E+04 -2.284272E+05  3.193090E-09  7.719664E-10
        54  17 -6.221799E+05 -1.147382E+05 -2.442329E+04 -2.296248E+05  2.816093E-09  9.990294E-10
        54  18 -6.347618E+05 -1.229424E+05 -2.846131E+04 -2.367044E+05 -3.659209E-10 -3.253282E-11
        54  19 -4.395427E+05 -5.026520E+04  1.991423E+04 -1.832779E+05 -2.406269E+03  3.846316E+03
        54  20 -4.269612E+05 -4.207673E+04  2.337495E+04 -1.761919E+05 -2.991828E+03  4.620415E+03
        54  21 -4.092907E+05 -3.904243E+04  2.663795E+04 -1.749876E+05 -3.576456E+03  5.391655E+03
        54  22 -5.220295E+05 -8.097745E+04 -3.358766E+02 -2.058539E+05 -1.700776E+03  4.110881E+03
        54  23 -5.245754E+05 -7.840784E+04 -5.238141E+02 -2.029103E+05 -2.288582E+03  4.884193E+03
        54  24 -5.220328E+05 -8.099292E+04 -9.112352E+02 -2.058486E+05 -2.875449E+03  5.654648E+03
        54  25 -6.045095E+05 -1.116892E+05 -2.058649E+04 -2.284272E+05 -9.953861E+02  4.375407E+03
        54  26 -6.221799E+05 -1.147382E+05 -2.442323E+04 -2.296248E+05 -1.585459E+03  5.147926E+03
        54  27 -6.347618E+05 -1.229423E+05 -2.846123E+04 -2.367044E+05 -2.174584E+03  5.917587E+03
        55   1 -3.960265E+05 -3.408408E+04  2.970609E+04 -1.714143E+05  3.942449E+03 -5.831514E+03
        55   2 -3.835101E+05 -2.591228E+04  3.236828E+04 -1.643238E+05  5.330151E+03 -6.293057E+03
        55   3 -3.661637E+05 -2.315738E+04  3.415379E+04 -1.630139E+05  6.711534E+03 -6.737055E+03
        55   4 -5.220782E+05 -8.095827E+04 -1.199467E+03 -2.058615E+05  3.239199E+03 -6.095391E+03
        55   5 -5.245126E+05 -7.839080E+04 -2.153344E+03 -2.029180E+05  4.640789E+03 -6.551808E+03
        55   6 -5.221201E+05 -8.124333E+04 -3.995135E+03 -2.057553E+05  6.036028E+03 -6.990687E+03
        55   7 -6.481149E+05 -1.278316E+05 -3.210639E+04 -2.403025E+05  2.536101E+03 -6.359212E+03
        55   8 -6.654958E+05 -1.308681E+05 -3.667657E+04 -2.415042E+05  3.951596E+03 -6.810496E+03
        55   9 -6.780526E+05 -1.393276E+05 -4.214591E+04 -2.484870E+05  5.360708E+03 -7.244250E+03
        55  10 -3.960265E+05 -3.408412E+04  2.970599E+04 -1.714142E+05 -1.308875E-11 -9.644322E-10
        55  11 -3.835102E+05 -2.591233E+04  3.236815E+04 -1.643238E+05 -4.933142E-10  8.803632E-11
        55  12 -3.661637E+05 -2.315744E+04  3.415363E+04 -1.630139E+05  6.376398E-10 -6.421645E-10
        55  13 -5.220782E+05 -8.095831E+04 -1.199556E+03 -2.058615E+05 -1.005668E-09 -2.927569E-10
        55  14 -5.245126E+05 -7.839085E+04 -2.153465E+03 -2.029179E+05 -1.352087E-09  4.307456E-11
        55  15 -5.221202E+05 -8.124339E+04 -3.995295E+03 -2.057553E+05  6.308326E-10 -1.112269E-09
        55  16 -6.481149E+05 -1.278317E+05 -3.210648E+04 -2.403025E+05 -4.290559E-10  4.194146E-10
        55  17 -6.654959E+05 -1.308682E+05 -3.667668E+04 -2.415042E+05 -1.666983E-09 -9.650782E-11
        55  18 -6.780526E+05 -1.393277E+05 -4.214606E+04 -2.484869E+05 -6.777809E-10 -1.385291E-09
        55  19 -3.960265E+05 -3.408408E+04  2.970609E+04 -1.714143E+05 -3.942449E+03  5.831514E+03
        55  20 -3.835101E+05 -2.591228E+04  3.236828E+04 -1.643238E+05 -5.330151E+03  6.293057E+03
        55  21 -3.661637E+05 -2.315738E+04  3.415379E+04 -1.630139E+05 -6.711534E+03  6.737055E+03
        55  22 -5.220782E+05 -8.095827E+04 -1.199467E+03 -2.058615E+05 -3.239199E+03  6.095391E+03
        55  23 -5.245126E+05 -7.839080E+04 -2.153344E+03 -2.029180E+05 -4.640789E+03  6.551808E+03
        55  24 -5.221201E+05 -8.124333E+04 -3.995135E+03 -2.057553E+05 -6.036028E+03  6.990687E+03
        55  25 -6.481149E+05 -1.278316E+05 -3.210639E+04 -2.403025E+05 -2.536101E+03  6.359212E+03
        55  26 -6.654958E+05 -1.308681E+05 -3.667657E+04 -2.415042E+05 -3.951596E+03  6.810496E+03
        55  27 -6.780526E+05 -1.393276E+05 -4.214591E+04 -2.484870E+05 -5.360708E+03  7.244250E+03
        56   1 -3.527524E+05 -1.834694E+04  3.620961E+04 -1.603851E+05  7.741337E+03 -6.956629E+03
        56   2 -3.404743E+05 -9.337781E+03  3.564189E+04 -1.521264E+05  1.257788E+04 -6.044417E+03
        56   3 -3.255675E+05 -1.019666E+04  3.038877E+04 -1.485196E+05  1.729728E+04 -4.819233E+03
        56   4 -5.224125E+05 -8.076307E+04 -5.241025E+03 -2.060604E+05  6.974300E+03 -7.244659E+03
        56   5 -5.240318E+05 -7.813496E+04 -9.409157E+03 -2.028602E+05  1.206243E+04 -6.238140E+03
        56   6 -5.230731E+05 -8.542574E+04 -1.846320E+04 -2.043119E+05  1.703332E+04 -4.918659E+03
        56   7 -6.920435E+05 -1.431771E+05 -4.669361E+04 -2.517243E+05  6.207495E+03 -7.532603E+03
        56   8 -7.075560E+05 -1.469297E+05 -5.446276E+04 -2.535803E+05  1.154715E+04 -6.431800E+03
        56   9 -7.205411E+05 -1.606521E+05 -6.731843E+04 -2.600881E+05  1.676945E+04 -5.018051E+03
        56  10 -3.527524E+05 -1.834700E+04  3.620940E+04 -1.603851E+05 -1.776670E-09 -1.511379E-09
        56  11 -3.404745E+05 -9.337863E+03  3.564152E+04 -1.521263E+05  3.074396E-10 -5.028466E-11
        56  12 -3.255678E+05 -1.019676E+04  3.038816E+04 -1.485195E+05 -4.764506E-10  1.204913E-09
        56  13 -5.224126E+05 -8.076313E+04 -5.241215E+03 -2.060604E+05  4.331009E-10 -1.152025E-09
        56  14 -5.240319E+05 -7.813504E+04 -9.409504E+03 -2.028601E+05 -1.890564E-09  2.529230E-10
        56  15 -5.230734E+05 -8.542584E+04 -1.846379E+04 -2.043118E+05 -1.492267E-09  8.177470E-10
        56  16 -6.920436E+05 -1.431772E+05 -4.669378E+04 -2.517242E+05  1.583168E-09 -8.751106E-10
        56  17 -7.075561E+05 -1.469298E+05 -5.446309E+04 -2.535803E+05 -6.855860E-10  5.972488E-11
        56  18 -7.205414E+05 -1.606522E+05 -6.731900E+04 -2.600881E+05 -8.330095E-10  1.120605E-09
        56  19 -3.527524E+05 -1.834694E+04  3.620961E+04 -1.603851E+05 -7.741337E+03  6.956629E+03
        56  20 -3.404743E+05 -9.337781E+03  3.564189E+04 -1.521264E+05 -1.257788E+04  6.044417E+03
        56  21 -3.255675E+05 -1.019666E+04  3.038877E+04 -1.485196E+05 -1.729728E+04  4.819233E+03
        56  22 -5.224125E+05 -8.076307E+04 -5.241025E+03 -2.060604E+05 -6.974300E+03  7.244659E+03
        56  23 -5.240318E+05 -7.813496E+04 -9.409157E+03 -2.028602E+05 -1.206243E+04  6.238140E+03
        56  24 -5.230731E+05 -8.542574E+04 -1.846320E+04 -2.043119E+05 -1.703332E+04  4.918659E+03
        56  25 -6.920435E+05 -1.431771E+05 -4.669361E+04 -2.517243E+05 -6.207495E+03  7.532603E+03
        56  26 -7.075560E+05 -1.469297E+05 -5.446276E+04 -2.535803E+05 -1.154715E+04  6.431800E+03
        56  27 -7.205411E+05 -1.606521E+05 -6.731843E+04 -2.600881E+05 -1.676945E+04  5.018051E+03
        57   1 -3.068588E+05 -6.556524E+03  2.853126E+04 -1.593472E+05  2.280663E+04 -4.119013E+03
        57   2 -3.001413E+05  1.670228E+04  1.539805E+04 -1.314043E+05  3.899550E+04  2.539417E+03
        57   3 -3.177577E+05 -3.641421E+04 -2.955804E+04 -9.025148E+04  5.265325E+04  1.593708E+04
        57   4 -5.261157E+05 -7.790893E+04 -2.320541E+04 -2.088018E+05  2.048781E+04 -4.989616E+03
        57   5 -5.184851E+05 -7.510969E+04 -4.053924E+04 -2.019149E+05  4.211867E+04  3.711335E+03
        57   6 -5.362783E+05 -1.497820E+05 -9.401858E+04 -1.818155E+05  6.121762E+04  1.915121E+04
        57   7 -7.453252E+05 -1.492606E+05 -7.494535E+04 -2.582417E+05  1.816989E+04 -5.859981E+03
        57   8 -7.367811E+05 -1.669145E+05 -9.648020E+04 -2.724015E+05  4.524064E+04  4.882668E+03
        57   9 -7.547487E+05 -2.631319E+05 -1.584830E+05 -2.733457E+05  6.977866E+04  2.236300E+04
        57  10 -3.068593E+05 -6.556682E+03  2.853025E+04 -1.593472E+05 -1.370335E-09  9.521400E-10
        57  11 -3.001429E+05  1.670186E+04  1.539518E+04 -1.314044E+05 -1.373854E-09  6.804983E-10
        57  12 -3.177607E+05 -3.641523E+04 -2.956373E+04 -9.025215E+04 -4.475294E-10  2.601490E-11
        57  13 -5.261162E+05 -7.790907E+04 -2.320624E+04 -2.088017E+05 -1.076859E-09  4.531585E-10
        57  14 -5.184870E+05 -7.511018E+04 -4.054260E+04 -2.019150E+05 -1.194513E-09  8.724626E-11
        57  15 -5.362824E+05 -1.497834E+05 -9.402632E+04 -1.818165E+05 -1.268916E-09  3.777624E-11
        57  16 -7.453255E+05 -1.492608E+05 -7.494603E+04 -2.582416E+05 -8.438013E-10  2.200198E-10
        57  17 -7.367833E+05 -1.669150E+05 -9.648409E+04 -2.724017E+05 -1.668594E-10 -4.126676E-10
        57  18 -7.547541E+05 -2.631337E+05 -1.584931E+05 -2.733469E+05  1.626009E-09  3.868134E-11
        57  19 -3.068588E+05 -6.556524E+03  2.853126E+04 -1.593472E+05 -2.280663E+04  4.119013E+03
        57  20 -3.001413E+05  1.670228E+04  1.539805E+04 -1.314043E+05 -3.899550E+04 -2.539417E+03
        57  21 -3.177577E+05 -3.641421E+04 -2.955804E+04 -9.025148E+04 -5.265325E+04 -1.593708E+04
        57  22 -5.261157E+05 -7.790893E+04 -2.320541E+04 -2.088018E+05 -2.048781E+04  4.989616E+03
        57  23 -5.184851E+05 -7.510969E+04 -4.053924E+04 -2.019149E+05 -4.211867E+04 -3.711335E+03
        57  24 -5.362783E+05 -1.497820E+05 -9.401858E+04 -1.818155E+05 -6.121762E+04 -1.915121E+04
        57  25 -7.453252E+05 -1.492606E+05 -7.494535E+04 -2.582417E+05 -1.816989E+04  5.859981E+03
        57  26 -7.367811E+05 -1.669145E+05 -9.648020E+04 -2.724015E+05 -4.524064E+04 -4.882668E+03
        57  27 -7.547487E+05 -2.631319E+05 -1.584830E+05 -2.733457E+05 -6.977866E+04 -2.236300E+04
        58   1 -2.858614E+03  1.300650E+04  1.570862E+04  5.990976E+03  1.079972E+04  1.042168E-01
        58   2 -4.708519E+03 -2.450899E+02  7.119601E+03  2.046854E+03  7.019657E+03  2.314361E-02
        58   3 -2.858699E+03 -6.669300E+02  4.199120E+03 -1.897311E+03  3.239539E+03 -9.900306E-03
        58   4 -2.858652E+03  1.300643E+04  1.570861E+04  6.975221E-09  1.079972E+04 -5.360095E-10
        58   5 -4.708524E+03 -2.450978E+02  7.119600E+03 -1.193979E-09  7.019657E+03 -1.064020E-09
        58   6 -2.858703E+03 -6.669368E+02  4.199119E+03 -2.362640E-09  3.239539E+03  2.737208E-10
        58   7 -2.858614E+03  1.300650E+04  1.570862E+04 -5.990976E+03  1.079972E+04 -1.042168E-01
        58   8 -4.708519E+03 -2.450899E+02  7.119601E+03 -2.046854E+03  7.019657E+03 -2.314361E-02
        58   9 -2.858699E+03 -6.669300E+02  4.199120E+03  1.897311E+03  3.239539E+03  9.900307E-03
        58  10 -2.858739E+03  1.300647E+04  1.570840E+04  5.990976E+03  4.514290E-10 -4.664419E-10
        58  11 -4.708572E+03 -2.451032E+02  7.119508E+03  2.046854E+03  1.073869E-09 -1.227449E-09
        58  12 -2.858710E+03 -6.669328E+02  4.199100E+03 -1.897311E+03 -2.468343E-09 -7.091464E-10
        58  13 -2.858778E+03  1.300640E+04  1.570839E+04  2.565956E-09 -2.158264E-09 -1.826480E-10
        58  14 -4.708577E+03 -2.451110E+02  7.119507E+03 -1.172674E-10 -1.079177E-09 -4.555870E-10
        58  15 -2.858714E+03 -6.669396E+02  4.199099E+03  9.691708E-10  2.426723E-09 -1.830033E-10
        58  16 -2.858739E+03  1.300647E+04  1.570840E+04 -5.990976E+03  6.233982E-10  9.606098E-11
        58  17 -4.708572E+03 -2.451032E+02  7.119508E+03 -2.046854E+03 -5.408792E-10  3.151070E-10
        58  18 -2.858710E+03 -6.669328E+02  4.199100E+03  1.897311E+03  1.122692E-09  3.435288E-10
        58  19 -2.858614E+03  1.300650E+04  1.570862E+04  5.990976E+03 -1.079972E+04 -1.042168E-01
        58  20 -4.708519E+03 -2.450899E+02  7.119601E+03  2.046854E+03 -7.019657E+03 -2.314361E-02
        58  21 -2.858699E+03 -6.669300E+02  4.199120E+03 -1.897311E+03 -3.239539E+03  9.900305E-03
        58  22 -2.858652E+03  1.300643E+04  1.570861E+04  2.464791E-09 -1.079972E+04  1.706007E-10
        58  23 -4.708524E+03 -2.450978E+02  7.119600E+03 -1.194106E-09 -7.019657E+03  1.504231E-10
        58  24 -2.858703E+03 -6.669368E+02  4.199119E+03  4.031807E-09 -3.239539E+03 -6.397047E-10
        58  25 -2.858614E+03  1.300650E+04  1.570862E+04 -5.990976E+03 -1.079972E+04  1.042168E-01
        58  26 -4.708519E+03 -2.450899E+02  7.119601E+03 -2.046854E+03 -7.019657E+03  2.314361E-02
        58  27 -2.858699E+03 -6.669300E+02  4.199120E+03  1.897311E+03 -3.239539E+03 -9.900306E-03
        59   1 -3.611013E+03  7.683465E+02  3.342895E+03  2.676083E+02  2.638894E+03  1.137495E-03
        59   2 -3.768161E+03 -3.301080E+01  1.781966E+03  6.196496E+01  1.742573E+03  1.739269E-04
        59   3 -3.611019E+03 -4.404865E+01  1.002168E+03 -1.436785E+02  8.462534E+02 -1.958482E-04
        59   4 -3.611013E+03  7.683464E+02  3.342895E+03  1.937080E-09  2.638894E+03  1.198345E-09
        59   5 -3.768161E+03 -3.301081E+01  1.781966E+03  2.476737E-10  1.742573E+03  1.083052E-09
        59   6 -3.611019E+03 -4.404869E+01  1.002168E+03 -2.787939E-09  8.462534E+02 -2.133336E-10
        59   7 -3.611013E+03  7.683465E+02  3.342895E+03 -2.676083E+02  2.638894E+03 -1.137492E-03
        59   8 -3.768161E+03 -3.301080E+01  1.781966E+03 -6.196496E+01  1.742573E+03 -1.739248E-04
        59   9 -3.611019E+03 -4.404865E+01  1.002168E+03  1.436785E+02  8.462534E+02  1.958478E-04
        59  10 -3.611020E+03  7.683446E+02  3.342882E+03  2.676083E+02 -3.044568E-10 -2.203001E-10
        59  11 -3.768165E+03 -3.301162E+01  1.781960E+03  6.196496E+01  1.364514E-09  2.349036E-10
        59  12 -3.611019E+03 -4.404884E+01  1.002167E+03 -1.436785E+02 -1.337886E-09  9.040444E-10
        59  13 -3.611020E+03  7.683445E+02  3.342882E+03 -2.301979E-09  1.076013E-09  1.103102E-10
        59  14 -3.768165E+03 -3.301162E+01  1.781960E+03  3.038410E-10  1.074742E-09  4.472550E-10
        59  15 -3.611019E+03 -4.404888E+01  1.002167E+03 -8.597220E-10 -5.369985E-10  7.171470E-10
        59  16 -3.611020E+03  7.683446E+02  3.342882E+03 -2.676083E+02  3.052008E-10  4.419020E-10
        59  17 -3.768165E+03 -3.301162E+01  1.781960E+03 -6.196496E+01 -1.366615E-09  6.609630E-10
        59  18 -3.611019E+03 -4.404884E+01  1.002167E+03  1.436785E+02  2.631254E-10  5.300430E-10
        59  19 -3.611013E+03  7.683465E+02  3.342895E+03  2.676083E+02 -2.638894E+03 -1.137495E-03
        59  20 -3.768161E+03 -3.301080E+01  1.781966E+03  6.196496E+01 -1.742573E+03 -1.739265E-04
        59  21 -3.611019E+03 -4.404865E+01  1.002168E+03 -1.436785E+02 -8.462534E+02  1.958500E-04
        59  22 -3.611013E+03  7.683464E+02  3.342895E+03  6.382546E-09 -2.638894E+03 -9.780426E-10
        59  23 -3.768161E+03 -3.301081E+01  1.781966E+03 -7.178825E-09 -1.742573E+03 -1.881705E-10
        59  24 -3.611019E+03 -4.404869E+01  1.002168E+03 -2.700925E-09 -8.462534E+02  1.647373E-09
        59  25 -3.611013E+03  7.683465E+02  3.342895E+03 -2.676083E+02 -2.638894E+03  1.137493E-03
        59  26 -3.768161E+03 -3.301080E+01  1.781966E+03 -6.196496E+01 -1.742573E+03  1.739261E-04
        59  27 -3.611019E+03 -4.404865E+01  1.002168E+03  1.436785E+02 -8.462534E+02 -1.958467E-04
        60   1 -3.673035E+03  4.004085E+01  7.457415E+02 -1.008345E+01  6.926753E+02 -1.125073E-05
        60   2 -3.690644E+03 -5.311347E+00  3.553910E+02 -1.600896E+01  5.161516E+02 -1.330977E-05
        60   3 -3.673036E+03 -1.729277E+00  9.219528E+01 -2.193439E+01  3.396307E+02 -1.199928E-05
        60   4 -3.673035E+03  4.004085E+01  7.457415E+02 -3.382323E-09  6.926753E+02 -7.899827E-10
        60   5 -3.690644E+03 -5.311347E+00  3.553910E+02 -7.681461E-09  5.161516E+02 -4.701064E-10
        60   6 -3.673036E+03 -1.729278E+00  9.219528E+01 -1.749320E-09  3.396307E+02  2.346076E-10
        60   7 -3.673035E+03  4.004085E+01  7.457415E+02  1.008345E+01  6.926753E+02  1.124915E-05
        60   8 -3.690644E+03 -5.311347E+00  3.553910E+02  1.600896E+01  5.161516E+02  1.330883E-05
        60   9 -3.673036E+03 -1.729277E+00  9.219528E+01  2.193439E+01  3.396307E+02  1.199975E-05
        60  10 -3.673036E+03  4.004072E+01  7.457406E+02 -1.008345E+01 -5.434657E-10  7.930721E-10
        60  11 -3.690644E+03 -5.311418E+00  3.553905E+02 -1.600896E+01  5.428635E-10 -6.201707E-11
        60  12 -3.673036E+03 -1.729308E+00  9.219506E+01 -2.193439E+01  2.784990E-10 -3.987030E-10
        60  13 -3.673036E+03  4.004072E+01  7.457406E+02  6.844703E-10  1.078069E-09  3.623275E-10
        60  14 -3.690644E+03 -5.311419E+00  3.553905E+02 -2.357657E-09  1.615459E-09 -4.540964E-10
        60  15 -3.673036E+03 -1.729309E+00  9.219506E+01 -4.861183E-09  6.762205E-10 -2.974523E-10
        60  16 -3.673036E+03  4.004072E+01  7.457406E+02  1.008345E+01 -5.312716E-10 -6.843080E-11
        60  17 -3.690644E+03 -5.311418E+00  3.553905E+02  1.600896E+01  5.384936E-10 -8.461549E-10
        60  18 -3.673036E+03 -1.729308E+00  9.219506E+01  2.193439E+01  1.249496E-10 -1.960348E-10
        60  19 -3.673035E+03  4.004085E+01  7.457415E+02 -1.008345E+01 -6.926753E+02  1.125233E-05
        60  20 -3.690644E+03 -5.311347E+00  3.553910E+02 -1.600896E+01 -5.161516E+02  1.330965E-05
        60  21 -3.673036E+03 -1.729277E+00  9.219528E+01 -2.193439E+01 -3.396307E+02  1.199849E-05
        60  22 -3.673035E+03  4.004085E+01  7.457415E+02  4.751237E-09 -6.926753E+02  1.514632E-09
        60  23 -3.690644E+03 -5.311347E+00  3.553910E+02 -4.572614E-09 -5.161516E+02 -4.381242E-10
        60  24 -3.673036E+03 -1.729278E+00  9.219528E+01  2.258177E-09 -3.396307E+02 -8.295339E-10
        60  25 -3.673035E+03  4.004085E+01  7.457415E+02  1.008345E+01 -6.926753E+02 -1.124928E-05
        60  26 -3.690644E+03 -5.311347E+00  3.553910E+02  1.600896E+01 -5.161516E+02 -1.331053E-05
        60  27 -3.673036E+03 -1.729277E+00  9.219528E+01  2.193439E+01 -3.396307E+02 -1.200014E-05
        61   1 -3.684762E+03  1.760207E+00 -2.368733E+01 -1.418387E+01  3.337091E+02 -7.624057E-06
        61   2 -3.675987E+03  3.631177E+00 -2.721267E+02 -2.167458E+01  4.681068E+02 -1.634265E-05
        61   3 -3.684763E+03  5.289033E+00 -6.081161E+02 -2.916540E+01  6.025065E+02 -2.830409E-05
        61   4 -3.684762E+03  1.760207E+00 -2.368733E+01 -4.912208E-09  3.337091E+02  4.351174E-10
        61   5 -3.675987E+03  3.631176E+00 -2.721267E+02 -6.073872E-09  4.681068E+02  2.111617E-10
        61   6 -3.684763E+03  5.289031E+00 -6.081161E+02  8.418422E-10  6.025065E+02  4.582471E-11
        61   7 -3.684762E+03  1.760207E+00 -2.368733E+01  1.418387E+01  3.337091E+02  7.624923E-06
        61   8 -3.675987E+03  3.631177E+00 -2.721267E+02  2.167458E+01  4.681068E+02  1.634306E-05
        61   9 -3.684763E+03  5.289033E+00 -6.081161E+02  2.916540E+01  6.025065E+02  2.830419E-05
        61  10 -3.684762E+03  1.760178E+00 -2.368754E+01 -1.418387E+01 -5.242195E-11 -1.848748E-10
        61  11 -3.675987E+03  3.631118E+00 -2.721271E+02 -2.167458E+01 -8.889134E-10  2.464090E-10
        61  12 -3.684763E+03  5.288935E+00 -6.081168E+02 -2.916540E+01 -4.472358E-10  2.042439E-10
        61  13 -3.684762E+03  1.760177E+00 -2.368754E+01 -2.625371E-09  1.076973E-09  1.800966E-10
        61  14 -3.675987E+03  3.631117E+00 -2.721271E+02  3.458743E-10  1.077627E-09  4.256284E-10
        61  15 -3.684763E+03  5.288934E+00 -6.081168E+02  1.163159E-09 -2.424726E-09 -2.749088E-10
        61  16 -3.684762E+03  1.760178E+00 -2.368754E+01  1.418387E+01  5.902208E-10  5.452352E-10
        61  17 -3.675987E+03  3.631118E+00 -2.721271E+02  2.167458E+01 -1.867499E-10  6.049202E-10
        61  18 -3.684763E+03  5.288935E+00 -6.081168E+02  2.916540E+01 -4.273127E-10 -7.539942E-10
        61  19 -3.684762E+03  1.760207E+00 -2.368733E+01 -1.418387E+01 -3.337091E+02  7.623687E-06
        61  20 -3.675987E+03  3.631177E+00 -2.721267E+02 -2.167458E+01 -4.681068E+02  1.634314E-05
        61  21 -3.684763E+03  5.289033E+00 -6.081161E+02 -2.916540E+01 -6.025065E+02  2.830450E-05
        61  22 -3.684762E+03  1.760207E+00 -2.368733E+01 -3.384113E-10 -3.337091E+02 -7.492344E-11
        61  23 -3.675987E+03  3.631176E+00 -2.721267E+02  2.457734E-09 -4.681068E+02  6.401528E-10
        61  24 -3.684763E+03  5.289031E+00 -6.081161E+02  4.715394E-09 -6.025065E+02 -5.956316E-10
        61  25 -3.684762E+03  1.760207E+00 -2.368733E+01  1.418387E+01 -3.337091E+02 -7.623838E-06
        61  26 -3.675987E+03  3.631177E+00 -2.721267E+02  2.167458E+01 -4.681068E+02 -1.634186E-05
        61  27 -3.684763E+03  5.289033E+00 -6.081161E+02  2.916540E+01 -6.025065E+02 -2.830569E-05
        62   1 -3.705044E+03  5.748899E+00 -8.387864E+02 -3.645985E+01  7.336702E+02 -4.308662E-05
        62   2 -3.650636E+03  2.076103E+01 -1.518016E+03 -6.432278E+01  1.484288E+03 -1.537846E-04
        62   3 -3.705044E+03 -8.545904E+00 -2.697009E+03 -9.218573E+01  2.234906E+03 -3.318561E-04
        62   4 -3.705044E+03  5.748897E+00 -8.387864E+02 -3.254946E-09  7.336702E+02 -3.240635E-10
        62   5 -3.650636E+03  2.076102E+01 -1.518016E+03 -2.066064E-09  1.484288E+03 -6.020850E-10
        62   6 -3.705044E+03 -8.545920E+00 -2.697009E+03  5.315439E-09  2.234906E+03  4.483906E-10
        62   7 -3.705044E+03  5.748899E+00 -8.387864E+02  3.645985E+01  7.336702E+02  4.308597E-05
        62   8 -3.650636E+03  2.076103E+01 -1.518016E+03  6.432278E+01  1.484288E+03  1.537834E-04
        62   9 -3.705044E+03 -8.545904E+00 -2.697009E+03  9.218573E+01  2.234906E+03  3.318570E-04
        62  10 -3.705044E+03  5.748755E+00 -8.387874E+02 -3.645985E+01  1.061382E-10 -3.237351E-10
        62  11 -3.650638E+03  2.076044E+01 -1.518020E+03 -6.432278E+01 -2.284072E-09 -6.503301E-10
        62  12 -3.705049E+03 -8.547245E+00 -2.697019E+03 -9.218573E+01 -1.104493E-09  7.880163E-10
        62  13 -3.705044E+03  5.748752E+00 -8.387874E+02  1.029348E-09  2.151341E-09 -7.334512E-10
        62  14 -3.650638E+03  2.076043E+01 -1.518020E+03  2.382762E-10 -2.445863E-12 -3.908765E-10
        62  15 -3.705049E+03 -8.547261E+00 -2.697019E+03 -2.168306E-09  3.365134E-09  8.921462E-10
        62  16 -3.705044E+03  5.748755E+00 -8.387874E+02  3.645985E+01 -6.451347E-10 -1.142990E-09
        62  17 -3.650638E+03  2.076044E+01 -1.518020E+03  6.432278E+01  1.475872E-09 -1.310414E-10
        62  18 -3.705049E+03 -8.547245E+00 -2.697019E+03  9.218573E+01  1.441703E-09  9.955675E-10
        62  19 -3.705044E+03  5.748899E+00 -8.387864E+02 -3.645985E+01 -7.336702E+02  4.308596E-05
        62  20 -3.650636E+03  2.076103E+01 -1.518016E+03 -6.432278E+01 -1.484288E+03  1.537833E-04
        62  21 -3.705044E+03 -8.545904E+00 -2.697009E+03 -9.218573E+01 -2.234906E+03  3.318577E-04
        62  22 -3.705044E+03  5.748897E+00 -8.387864E+02  5.313666E-09 -7.336702E+02 -1.142728E-09
        62  23 -3.650636E+03  2.076102E+01 -1.518016E+03  3.886287E-10 -1.484288E+03 -1.796621E-10
        62  24 -3.705044E+03 -8.545920E+00 -2.697009E+03  1.054126E-08 -2.234906E+03  1.331363E-09
        62  25 -3.705044E+03  5.748899E+00 -8.387864E+02  3.645985E+01 -7.336702E+02 -4.308827E-05
        62  26 -3.650636E+03  2.076103E+01 -1.518016E+03  6.432278E+01 -1.484288E+03 -1.537837E-04
        62  27 -3.705044E+03 -8.545904E+00 -2.697009E+03  9.218573E+01 -2.234906E+03 -3.318551E-04
        63   1 -3.807715E+03  4.996710E+01 -3.559708E+03 -2.081648E+02  2.798782E+03 -9.384334E-04
        63   2 -3.522285E+03  9.071287E+01 -6.205818E+03 -1.611187E+02  5.877698E+03 -1.525388E-03
        63   3 -3.807688E+03 -5.482802E+02 -1.102633E+04 -1.140731E+02  8.956552E+03 -1.645703E-03
        63   4 -3.807715E+03  4.996702E+01 -3.559708E+03  3.661636E-09  2.798782E+03  7.403403E-10
        63   5 -3.522285E+03  9.071282E+01 -6.205818E+03 -6.053939E-09  5.877698E+03  1.955572E-10
        63   6 -3.807688E+03 -5.482802E+02 -1.102633E+04 -2.038107E-09  8.956552E+03  1.679554E-10
        63   7 -3.807715E+03  4.996710E+01 -3.559708E+03  2.081648E+02  2.798782E+03  9.384348E-04
        63   8 -3.522285E+03  9.071287E+01 -6.205818E+03  1.611187E+02  5.877698E+03  1.525388E-03
        63   9 -3.807688E+03 -5.482802E+02 -1.102633E+04  1.140731E+02  8.956552E+03  1.645703E-03
        63  10 -3.807723E+03  4.996499E+01 -3.559722E+03 -2.081648E+02  2.385143E-09  9.140026E-10
        63  11 -3.522322E+03  9.070360E+01 -6.205883E+03 -1.611187E+02  9.407154E-10 -4.042075E-10
        63  12 -3.807775E+03 -5.483018E+02 -1.102648E+04 -1.140731E+02 -1.248046E-09 -4.248084E-10
        63  13 -3.807723E+03  4.996491E+01 -3.559722E+03 -9.406814E-10  1.314660E-12  9.469079E-10
        63  14 -3.522322E+03  9.070355E+01 -6.205883E+03 -4.050707E-09  5.395775E-10 -2.553617E-10
        63  15 -3.807775E+03 -5.483018E+02 -1.102648E+04  1.993496E-09  5.375824E-10 -6.811574E-10
        63  16 -3.807723E+03  4.996499E+01 -3.559722E+03  2.081648E+02 -7.699308E-10  9.806034E-10
        63  17 -3.522322E+03  9.070360E+01 -6.205883E+03  1.611187E+02 -6.687835E-10 -1.049161E-10
        63  18 -3.807775E+03 -5.483018E+02 -1.102648E+04  1.140731E+02  9.777982E-10 -9.413667E-10
        63  19 -3.807715E+03  4.996710E+01 -3.559708E+03 -2.081648E+02 -2.798782E+03  9.384352E-04
        63  20 -3.522285E+03  9.071287E+01 -6.205818E+03 -1.611187E+02 -5.877698E+03  1.525387E-03
        63  21 -3.807688E+03 -5.482802E+02 -1.102633E+04 -1.140731E+02 -8.956552E+03  1.645702E-03
        63  22 -3.807715E+03  4.996702E+01 -3.559708E+03  9.192479E-10 -2.798782E+03  1.153324E-09
        63  23 -3.522285E+03  9.071282E+01 -6.205818E+03 -6.355093E-09 -5.877698E+03 -7.056173E-10
        63  24 -3.807688E+03 -5.482802E+02 -1.102633E+04  1.986712E-09 -8.956552E+03 -1.511981E-09
        63  25 -3.807715E+03  4.996710E+01 -3.559708E+03  2.081648E+02 -2.798782E+03 -9.384329E-04
        63  26 -3.522285E+03  9.071287E+01 -6.205818E+03  1.611187E+02 -5.877698E+03 -1.525388E-03
        63  27 -3.807688E+03 -5.482802E+02 -1.102633E+04  1.140731E+02 -8.956552E+03 -1.645705E-03
        64   1 -4.647909E+03  6.139958E+02 -1.437682E+04 -1.956448E+03  1.119258E+04 -3.527167E-02
        64   2 -2.471745E+03  4.592423E+02 -2.487660E+04  8.691553E+02  2.370309E+04  3.318396E-02
        64   3 -4.647392E+03 -1.058845E+04 -4.624346E+04  3.694820E+03  3.621359E+04  2.155219E-01
        64   4 -4.647913E+03  6.139886E+02 -1.437682E+04  4.253483E-09  1.119258E+04  4.434687E-10
        64   5 -2.471746E+03  4.592409E+02 -2.487660E+04 -9.508348E-09  2.370309E+04  6.897602E-10
        64   6 -4.647406E+03 -1.058847E+04 -4.624346E+04 -1.142322E-08  3.621359E+04  2.281248E-10
        64   7 -4.647909E+03  6.139958E+02 -1.437682E+04  1.956448E+03  1.119258E+04  3.527167E-02
        64   8 -2.471745E+03  4.592423E+02 -2.487660E+04 -8.691553E+02  2.370309E+04 -3.318396E-02
        64   9 -4.647392E+03 -1.058845E+04 -4.624346E+04 -3.694820E+03  3.621359E+04 -2.155219E-01
        64  10 -4.648043E+03  6.139622E+02 -1.437706E+04 -1.956448E+03 -6.974886E-10 -1.744844E-10
        64  11 -2.472349E+03  4.590915E+02 -2.487765E+04  8.691553E+02 -1.480531E-09  2.376304E-11
        64  12 -4.648800E+03 -1.058880E+04 -4.624592E+04  3.694820E+03 -1.045907E-09  4.329623E-10
        64  13 -4.648047E+03  6.139550E+02 -1.437706E+04  8.718662E-09  2.103445E-12 -3.956702E-10
        64  14 -2.472349E+03  4.590900E+02 -2.487765E+04 -2.954412E-09 -4.846281E-09  2.776581E-10
        64  15 -4.648815E+03 -1.058883E+04 -4.624593E+04 -8.165920E-09 -1.078604E-09  5.908215E-10
        64  16 -4.648043E+03  6.139622E+02 -1.437706E+04  1.956448E+03  1.518190E-10 -6.236812E-10
        64  17 -2.472349E+03  4.590915E+02 -2.487765E+04 -8.691553E+02  4.083872E-10  5.349580E-10
        64  18 -4.648800E+03 -1.058880E+04 -4.624592E+04 -3.694820E+03  8.585877E-10  7.391228E-10
        64  19 -4.647909E+03  6.139958E+02 -1.437682E+04 -1.956448E+03 -1.119258E+04  3.527167E-02
        64  20 -2.471745E+03  4.592423E+02 -2.487660E+04  8.691553E+02 -2.370309E+04 -3.318396E-02
        64  21 -4.647392E+03 -1.058845E+04 -4.624346E+04  3.694820E+03 -3.621359E+04 -2.155219E-01
        64  22 -4.647913E+03  6.139886E+02 -1.437682E+04  2.413755E-09 -1.119258E+04 -1.234807E-09
        64  23 -2.471746E+03  4.592409E+02 -2.487660E+04 -9.325093E-09 -2.370309E+04 -1.383613E-10
        64  24 -4.647406E+03 -1.058847E+04 -4.624346E+04 -5.178247E-09 -3.621359E+04  9.476413E-10
        64  25 -4.647909E+03  6.139958E+02 -1.437682E+04  1.956448E+03 -1.119258E+04 -3.527168E-02
        64  26 -2.471745E+03  4.592423E+02 -2.487660E+04 -8.691553E+02 -2.370309E+04  3.318396E-02
        64  27 -4.647392E+03 -1.058845E+04 -4.624346E+04 -3.694820E+03 -3.621359E+04  2.155219E-01
        65   1 -1.500919E+04  9.194847E+03 -5.799211E+04 -2.614155E+04  4.451725E+04 -1.874534E+00
        65   2  1.048604E+04  3.379981E+03 -9.815433E+04  2.821491E+04  9.664455E+04  4.392090E+00
        65   3 -1.499804E+04 -1.792291E+05 -2.164428E+05  8.256845E+04  1.487723E+05  1.978608E+01
        65   4 -1.500992E+04  9.193563E+03 -5.799229E+04 -3.785880E-09  4.451725E+04 -3.308368E-10
        65   5  1.048519E+04  3.378485E+03 -9.815455E+04  2.174105E-09  9.664455E+04 -7.537389E-10
        65   6 -1.500536E+04 -1.792419E+05 -2.164447E+05  3.256027E-10  1.487723E+05 -9.465021E-10
        65   7 -1.500919E+04  9.194847E+03 -5.799211E+04  2.614155E+04  4.451725E+04  1.874534E+00
        65   8  1.048604E+04  3.379981E+03 -9.815433E+04 -2.821491E+04  9.664455E+04 -4.392090E+00
        65   9 -1.499804E+04 -1.792291E+05 -2.164428E+05 -8.256845E+04  1.487723E+05 -1.978608E+01
        65  10 -1.501132E+04  9.194315E+03 -5.799583E+04 -2.614155E+04  4.132293E-10  7.976667E-11
        65  11  1.047601E+04  3.377473E+03 -9.817189E+04  2.821491E+04 -8.702572E-11 -8.783498E-10
        65  12 -1.502181E+04 -1.792351E+05 -2.164844E+05  8.256845E+04 -7.610931E-10 -3.844885E-10
        65  13 -1.501205E+04  9.193031E+03 -5.799602E+04  1.933482E-10 -1.087791E-09  3.014444E-11
        65  14  1.047516E+04  3.375978E+03 -9.817210E+04  4.283446E-09  5.661502E-10 -9.732630E-10
        65  15 -1.502913E+04 -1.792479E+05 -2.164862E+05 -4.550203E-09 -3.373812E-09 -4.425537E-10
        65  16 -1.501132E+04  9.194315E+03 -5.799583E+04  2.614155E+04 -2.545963E-09  1.250717E-11
        65  17  1.047601E+04  3.377473E+03 -9.817189E+04 -2.821491E+04  9.042860E-10 -1.140116E-09
        65  18 -1.502181E+04 -1.792351E+05 -2.164844E+05 -8.256845E+04 -3.313742E-10 -4.990570E-10
        65  19 -1.500919E+04  9.194847E+03 -5.799211E+04 -2.614155E+04 -4.451725E+04  1.874534E+00
        65  20  1.048604E+04  3.379981E+03 -9.815433E+04  2.821491E+04 -9.664455E+04 -4.392090E+00
        65  21 -1.499804E+04 -1.792291E+05 -2.164428E+05  8.256845E+04 -1.487723E+05 -1.978608E+01
        65  22 -1.500992E+04  9.193563E+03 -5.799229E+04  4.176479E-09 -4.451725E+04  3.851680E-10
        65  23  1.048519E+04  3.378485E+03 -9.815455E+04 -5.453164E-09 -9.664455E+04 -1.191131E-09
        65  24 -1.500536E+04 -1.792419E+05 -2.164447E+05  8.044815E-10 -1.487723E+05 -2.371228E-10
        65  25 -1.500919E+04  9.194847E+03 -5.799211E+04  2.614155E+04 -4.451725E+04 -1.874534E+00
        65  26  1.048604E+04  3.379981E+03 -9.815433E+04 -2.821491E+04 -9.664455E+04  4.392090E+00
        65  27 -1.499804E+04 -1.792291E+05 -2.164428E+05 -8.256845E+04 -1.487723E+05  1.978608E+01
        66   1  1.259050E+05  4.325095E+05  1.237552E+05 -4.334370E+04  6.135315E+03  1.826747E+04
        66   2  1.047243E+05  3.634731E+05  9.816057E+04 -2.811175E+04  1.870828E+04  5.931454E+03
        66   3  8.814672E+04  2.972527E+05  8.175679E+04 -4.184039E+04  1.808687E+04 -6.404633E+03
        66   4  2.539235E+03 -6.382837E+04  3.151099E+03 -4.209260E+04  6.137646E+03  1.696759E+03
        66   5 -7.881235E+01 -6.423726E+04  1.777189E+03 -2.761206E+04  1.871054E+04  7.686787E+02
        66   6 -7.140889E+01 -6.381200E+04  1.676280E+03 -4.209313E+04  1.808501E+04 -1.607097E+02
        66   7 -1.208445E+05 -5.599409E+05 -1.174698E+05 -4.084249E+04  6.139913E+03 -1.486074E+04
        66   8 -1.048944E+05 -4.917775E+05 -9.461778E+04 -2.711271E+04  1.871278E+04 -4.390577E+03
        66   9 -8.829832E+04 -4.247549E+05 -7.841218E+04 -4.234571E+04  1.808315E+04  6.079624E+03
        66  10  1.259049E+05  4.325091E+05  1.237545E+05 -4.334379E+04 -6.475261E-10  1.285678E-09
        66  11  1.047239E+05  3.634730E+05  9.815985E+04 -2.811184E+04 -5.567218E-10  2.435165E-10
        66  12  8.814636E+04  2.972525E+05  8.175610E+04 -4.184030E+04  1.044385E-09 -5.525967E-10
        66  13  2.539194E+03 -6.382838E+04  3.151023E+03 -4.209261E+04 -1.728088E-09 -4.126172E-12
        66  14 -7.918842E+01 -6.423735E+04  1.776530E+03 -2.761207E+04  5.129600E-10  1.952479E-12
        66  15 -7.176010E+01 -6.381209E+04  1.675665E+03 -4.209313E+04  9.246467E-10  6.187096E-11
        66  16 -1.208446E+05 -5.599411E+05 -1.174703E+05 -4.084242E+04  4.215223E-10 -1.318097E-09
        66  17 -1.048948E+05 -4.917776E+05 -9.461848E+04 -2.711264E+04  1.047453E-09 -5.403656E-10
        66  18 -8.829869E+04 -4.247550E+05 -7.841286E+04 -4.234580E+04 -7.026356E-10  9.324205E-11
        66  19  1.259050E+05  4.325095E+05  1.237552E+05 -4.334370E+04 -6.135315E+03 -1.826747E+04
        66  20  1.047243E+05  3.634731E+05  9.816057E+04 -2.811175E+04 -1.870828E+04 -5.931454E+03
        66  21  8.814672E+04  2.972527E+05  8.175679E+04 -4.184039E+04 -1.808687E+04  6.404633E+03
        66  22  2.539235E+03 -6.382837E+04  3.151099E+03 -4.209260E+04 -6.137646E+03 -1.696759E+03
        66  23 -7.881235E+01 -6.423726E+04  1.777189E+03 -2.761206E+04 -1.871054E+04 -7.686787E+02
        66  24 -7.140889E+01 -6.381200E+04  1.676280E+03 -4.209313E+04 -1.808501E+04  1.607097E+02
        66  25 -1.208445E+05 -5.599409E+05 -1.174698E+05 -4.084249E+04 -6.139913E+03  1.486074E+04
        66  26 -1.048944E+05 -4.917775E+05 -9.461778E+04 -2.711271E+04 -1.871278E+04  4.390577E+03
        66  27 -8.829832E+04 -4.247549E+05 -7.841218E+04 -4.234571E+04 -1.808315E+04 -6.079624E+03
        67   1  7.441662E+04  2.399250E+05  6.950554E+04 -4.254112E+04  1.466008E+04 -2.793749E+03
        67   2  5.771482E+04  1.721415E+05  5.488302E+04 -2.749232E+04  1.169073E+04 -4.462827E+03
        67   3  4.219261E+04  1.048597E+05  4.163821E+04 -4.196132E+04  8.189241E+03 -6.133076E+03
        67   4  1.187275E+02 -6.389584E+04  1.804374E+03 -4.221681E+04  1.465945E+04 -4.566249E+02
        67   5 -2.641464E+01 -6.410003E+04  2.401507E+03 -2.745735E+04  1.168948E+04 -1.665507E+03
        67   6  9.286493E+02 -6.388662E+04  4.057234E+03 -4.221635E+04  8.187271E+03 -2.875735E+03
        67   7 -7.418542E+04 -3.676306E+05 -6.590255E+04 -4.189265E+04  1.465883E+04  1.879368E+03
        67   8 -5.777142E+04 -3.002894E+05 -5.008345E+04 -2.742239E+04  1.168824E+04  1.130760E+03
        67   9 -4.033723E+04 -2.326063E+05 -3.352549E+04 -4.247131E+04  8.185297E+03  3.807290E+02
        67  10  7.441639E+04  2.399249E+05  6.950512E+04 -4.254109E+04  4.782851E-10  3.883329E-10
        67  11  5.771467E+04  1.721414E+05  5.488272E+04 -2.749228E+04 -1.433804E-09 -5.563579E-10
        67  12  4.219252E+04  1.048596E+05  4.163802E+04 -4.196128E+04 -1.785401E-09 -1.120171E-10
        67  13  1.184967E+02 -6.389590E+04  1.803969E+03 -4.221681E+04  2.057952E-09  1.631629E-11
        67  14 -2.656211E+01 -6.410007E+04  2.401245E+03 -2.745734E+04 -3.221067E-10  2.687855E-11
        67  15  9.285751E+02 -6.388664E+04  4.057092E+03 -4.221634E+04  1.750822E-09  9.539398E-11
        67  16 -7.418566E+04 -3.676306E+05 -6.590296E+04 -4.189268E+04 -1.675847E-09 -6.117392E-10
        67  17 -5.777157E+04 -3.002895E+05 -5.008371E+04 -2.742240E+04  9.157142E-10 -1.392324E-10
        67  18 -4.033731E+04 -2.326063E+05 -3.352561E+04 -4.247131E+04  1.879216E-09 -6.851057E-10
        67  19  7.441662E+04  2.399250E+05  6.950554E+04 -4.254112E+04 -1.466008E+04  2.793749E+03
        67  20  5.771482E+04  1.721415E+05  5.488302E+04 -2.749232E+04 -1.169073E+04  4.462827E+03
        67  21  4.219261E+04  1.048597E+05  4.163821E+04 -4.196132E+04 -8.189241E+03  6.133076E+03
        67  22  1.187275E+02 -6.389584E+04  1.804374E+03 -4.221681E+04 -1.465945E+04  4.566249E+02
        67  23 -2.641464E+01 -6.410003E+04  2.401507E+03 -2.745735E+04 -1.168948E+04  1.665507E+03
        67  24  9.286493E+02 -6.388662E+04  4.057234E+03 -4.221635E+04 -8.187271E+03  2.875735E+03
        67  25 -7.418542E+04 -3.676306E+05 -6.590255E+04 -4.189265E+04 -1.465883E+04 -1.879368E+03
        67  26 -5.777142E+04 -3.002894E+05 -5.008345E+04 -2.742239E+04 -1.168824E+04 -1.130760E+03
        67  27 -4.033723E+04 -2.326063E+05 -3.352549E+04 -4.247131E+04 -8.185297E+03 -3.807290E+02
        68   1  2.656699E+04  4.869914E+04  2.964174E+04 -4.445729E+04  5.848030E+03 -7.071145E+03
        68   2  1.054177E+04 -2.087063E+04  1.797491E+04 -2.511682E+04  2.474157E+03 -1.036808E+04
        68   3  9.192783E+03 -8.638126E+04  1.211330E+04 -3.526516E+04  3.796096E+02 -1.366405E+04
        68   4 -7.123534E+02 -6.303242E+04  4.994882E+03 -4.221265E+04  5.845709E+03 -3.601161E+03
        68   5 -2.480348E+02 -6.515395E+04  8.292026E+03 -2.746322E+04  2.472584E+03 -8.003442E+03
        68   6  1.508471E+04 -6.303016E+04  1.816183E+04 -4.220216E+04  3.788609E+02 -1.240509E+04
        68   7 -2.799251E+04 -1.747523E+05 -1.965270E+04 -3.996842E+04  5.843412E+03 -1.317949E+02
        68   8 -1.103795E+04 -1.094354E+05 -1.390948E+03 -2.980944E+04  2.470993E+03 -5.638975E+03
        68   9  2.097678E+04 -3.967847E+04  2.421034E+04 -4.913942E+04  3.780842E+02 -1.114609E+04
        68  10  2.656694E+04  4.869907E+04  2.964158E+04 -4.445725E+04 -1.902910E-10 -8.432854E-10
        68  11  1.054174E+04 -2.087075E+04  1.797469E+04 -2.511680E+04 -1.016207E-10 -2.065751E-09
        68  12  9.192733E+03 -8.638146E+04  1.211295E+04 -3.526515E+04  4.139834E-10 -8.621065E-10
        68  13 -7.123936E+02 -6.303244E+04  4.994793E+03 -4.221263E+04  8.640835E-10  1.146261E-11
        68  14 -2.480586E+02 -6.515402E+04  8.291895E+03 -2.746320E+04  1.469142E-09  1.495248E-11
        68  15  1.508467E+04 -6.303033E+04  1.816154E+04 -4.220215E+04  5.061223E-10  8.458832E-11
        68  16 -2.799255E+04 -1.747523E+05 -1.965276E+04 -3.996842E+04  1.329091E-09  5.034442E-10
        68  17 -1.103796E+04 -1.094354E+05 -1.391019E+03 -2.980943E+04  1.898761E-10  1.205163E-09
        68  18  2.097674E+04 -3.967860E+04  2.421011E+04 -4.913941E+04 -1.969574E-10 -1.631951E-11
        68  19  2.656699E+04  4.869914E+04  2.964174E+04 -4.445729E+04 -5.848030E+03  7.071145E+03
        68  20  1.054177E+04 -2.087063E+04  1.797491E+04 -2.511682E+04 -2.474157E+03  1.036808E+04
        68  21  9.192783E+03 -8.638126E+04  1.211330E+04 -3.526516E+04 -3.796096E+02  1.366405E+04
        68  22 -7.123534E+02 -6.303242E+04  4.994882E+03 -4.221265E+04 -5.845709E+03  3.601161E+03
        68  23 -2.480348E+02 -6.515395E+04  8.292026E+03 -2.746322E+04 -2.472584E+03  8.003442E+03
        68  24  1.508471E+04 -6.303016E+04  1.816183E+04 -4.220216E+04 -3.788609E+02  1.240509E+04
        68  25 -2.799251E+04 -1.747523E+05 -1.965270E+04 -3.996842E+04 -5.843412E+03  1.317949E+02
        68  26 -1.103795E+04 -1.094354E+05 -1.390948E+03 -2.980944E+04 -2.470993E+03  5.638975E+03
        68  27  2.097678E+04 -3.967847E+04  2.421034E+04 -4.913942E+04 -3.780842E+02  1.114609E+04
        69   1 -8.030004E+04 -1.722709E+04 -3.069794E+03 -3.503573E+04 -3.093609E+03 -1.397098E+03
        69   2 -7.562138E+04 -8.973753E+03  1.358317E+03 -3.289570E+04 -1.702642E+03 -1.526328E+03
        69   3 -7.098187E+04 -7.001203E+03  3.683267E+03 -3.166077E+04 -3.950089E+02 -1.433254E+03
        69   4 -9.220399E+04 -1.976897E+04 -5.839376E+03 -3.629293E+04 -3.644995E+03 -1.603880E+03
        69   5 -9.185250E+04 -1.437832E+04 -2.520295E+03 -3.667749E+04 -2.074248E+03 -1.665687E+03
        69   6 -9.157588E+04 -1.530415E+04 -1.446843E+03 -3.796719E+04 -5.868333E+02 -1.505193E+03
        69   7 -1.041077E+05 -2.231084E+04 -8.608940E+03 -3.755010E+04 -4.196365E+03 -1.810660E+03
        69   8 -1.080833E+05 -1.978287E+04 -6.398913E+03 -4.045919E+04 -2.445843E+03 -1.805042E+03
        69   9 -1.121695E+05 -2.360707E+04 -6.577003E+03 -4.427342E+04 -7.786514E+02 -1.577128E+03
        69  10 -8.030005E+04 -1.722710E+04 -3.069815E+03 -3.503573E+04  6.592328E-10 -1.793725E-10
        69  11 -7.562138E+04 -8.973757E+03  1.358307E+03 -3.289570E+04 -1.602572E-09 -1.219954E-09
        69  12 -7.098187E+04 -7.001206E+03  3.683263E+03 -3.166078E+04  5.043305E-11 -1.811323E-10
        69  13 -9.220400E+04 -1.976898E+04 -5.839406E+03 -3.629293E+04  1.614095E-10 -4.614665E-10
        69  14 -9.185250E+04 -1.437833E+04 -2.520308E+03 -3.667750E+04 -1.219983E-10 -1.067186E-09
        69  15 -9.157588E+04 -1.530415E+04 -1.446848E+03 -3.796719E+04  3.361369E-09 -2.008987E-10
        69  16 -1.041077E+05 -2.231085E+04 -8.608979E+03 -3.755011E+04 -1.445888E-09 -7.507252E-10
        69  17 -1.080833E+05 -1.978288E+04 -6.398931E+03 -4.045920E+04  2.401778E-09 -9.292249E-10
        69  18 -1.121695E+05 -2.360707E+04 -6.577009E+03 -4.427342E+04  4.964388E-09 -2.211526E-10
        69  19 -8.030004E+04 -1.722709E+04 -3.069794E+03 -3.503573E+04  3.093609E+03  1.397098E+03
        69  20 -7.562138E+04 -8.973753E+03  1.358317E+03 -3.289570E+04  1.702642E+03  1.526328E+03
        69  21 -7.098187E+04 -7.001203E+03  3.683267E+03 -3.166077E+04  3.950089E+02  1.433254E+03
        69  22 -9.220399E+04 -1.976897E+04 -5.839376E+03 -3.629293E+04  3.644995E+03  1.603880E+03
        69  23 -9.185250E+04 -1.437832E+04 -2.520295E+03 -3.667749E+04  2.074248E+03  1.665687E+03
        69  24 -9.157588E+04 -1.530415E+04 -1.446843E+03 -3.796719E+04  5.868333E+02  1.505193E+03
        69  25 -1.041077E+05 -2.231084E+04 -8.608940E+03 -3.755010E+04  4.196365E+03  1.810660E+03
        69  26 -1.080833E+05 -1.978287E+04 -6.398913E+03 -4.045919E+04  2.445843E+03  1.805042E+03
        69  27 -1.121695E+05 -2.360707E+04 -6.577003E+03 -4.427342E+04  7.786514E+02  1.577128E+03
        70   1 -6.561143E+04 -6.263684E+03  5.164548E+03 -3.072465E+04 -8.175537E+01 -1.490830E+03
        70   2 -6.118543E+04 -3.057093E+03  6.986113E+03 -2.827706E+04  3.330357E+02 -1.695638E+03
        70   3 -5.512064E+04 -1.943957E+03  8.505479E+03 -2.781350E+04  7.439867E+02 -1.890157E+03
        70   4 -9.139238E+04 -1.576558E+04 -1.154320E+03 -3.768216E+04 -3.414444E+02 -1.588222E+03
        70   5 -9.219067E+04 -1.457349E+04 -5.984062E+02 -3.674437E+04  8.165394E+01 -1.789921E+03
        70   6 -9.135188E+04 -1.547654E+04 -3.512896E+02 -3.779063E+04  5.009081E+02 -1.981331E+03
        70   7 -1.171726E+05 -2.526742E+04 -7.473225E+03 -4.463941E+04 -6.011212E+02 -1.685611E+03
        70   8 -1.231948E+05 -2.608976E+04 -8.182952E+03 -4.521125E+04 -1.697128E+02 -1.884198E+03
        70   9 -1.275815E+05 -2.900890E+04 -9.208068E+03 -4.776715E+04  2.578472E+02 -2.072499E+03
        70  10 -6.561144E+04 -6.263686E+03  5.164544E+03 -3.072465E+04  1.605630E-09  7.847481E-10
        70  11 -6.118543E+04 -3.057096E+03  6.986107E+03 -2.827706E+04 -5.843947E-10 -7.909889E-11
        70  12 -5.512064E+04 -1.943961E+03  8.505471E+03 -2.781350E+04  9.485144E-10 -5.129191E-10
        70  13 -9.139238E+04 -1.576559E+04 -1.154325E+03 -3.768216E+04  1.939384E-09  3.152633E-10
        70  14 -9.219067E+04 -1.457349E+04 -5.984122E+02 -3.674437E+04 -2.118778E-09  4.636183E-11
        70  15 -9.135189E+04 -1.547654E+04 -3.512975E+02 -3.779063E+04  1.322414E-09 -3.409226E-10
        70  16 -1.171726E+05 -2.526743E+04 -7.473231E+03 -4.463941E+04  2.522782E-09 -1.681708E-10
        70  17 -1.231948E+05 -2.608976E+04 -8.182959E+03 -4.521125E+04 -1.197920E-09  2.878359E-10
        70  18 -1.275815E+05 -2.900891E+04 -9.208076E+03 -4.776715E+04 -2.253111E-09 -1.841897E-10
        70  19 -6.561143E+04 -6.263684E+03  5.164548E+03 -3.072465E+04  8.175537E+01  1.490830E+03
        70  20 -6.118543E+04 -3.057093E+03  6.986113E+03 -2.827706E+04 -3.330357E+02  1.695638E+03
        70  21 -5.512064E+04 -1.943957E+03  8.505479E+03 -2.781350E+04 -7.439867E+02  1.890157E+03
        70  22 -9.139238E+04 -1.576558E+04 -1.154320E+03 -3.768216E+04  3.414444E+02  1.588222E+03
        70  23 -9.219067E+04 -1.457349E+04 -5.984062E+02 -3.674437E+04 -8.165394E+01  1.789921E+03
        70  24 -9.135188E+04 -1.547654E+04 -3.512896E+02 -3.779063E+04 -5.009081E+02  1.981331E+03
        70  25 -1.171726E+05 -2.526742E+04 -7.473225E+03 -4.463941E+04  6.011212E+02  1.685611E+03
        70  26 -1.231948E+05 -2.608976E+04 -8.182952E+03 -4.521125E+04  1.697128E+02  1.884198E+03
        70  27 -1.275815E+05 -2.900890E+04 -9.208068E+03 -4.776715E+04 -2.578472E+02  2.072499E+03
        71   1 -5.042174E+04 -2.718484E+02  9.749807E+03 -2.656331E+04  8.637412E+02 -2.045497E+03
        71   2 -4.603520E+04  2.601658E+03  1.110679E+04 -2.409667E+04  1.075241E+03 -2.312761E+03
        71   3 -3.988012E+04  3.666467E+03  1.238622E+04 -2.367624E+04  1.286507E+03 -2.579327E+03
        71   4 -9.133552E+04 -1.550499E+04 -2.823995E+02 -3.776988E+04  6.176798E+02 -2.137794E+03
        71   5 -9.221860E+04 -1.459168E+04 -1.962106E+02 -3.675012E+04  8.297353E+02 -2.404861E+03
        71   6 -9.133316E+04 -1.548719E+04 -1.879866E+02 -3.777661E+04  1.041555E+03 -2.671230E+03
        71   7 -1.322481E+05 -3.073818E+04 -1.031485E+04 -4.897589E+04  3.716336E+02 -2.230087E+03
        71   8 -1.384003E+05 -3.178501E+04 -1.149948E+04 -4.940282E+04  5.842472E+02 -2.496955E+03
        71   9 -1.427839E+05 -3.464078E+04 -1.276248E+04 -5.187601E+04  7.966237E+02 -2.763125E+03
        71  10 -5.042174E+04 -2.718531E+02  9.749797E+03 -2.656331E+04 -2.397408E-09 -8.591830E-10
        71  11 -4.603520E+04  2.601652E+03  1.110678E+04 -2.409666E+04 -4.707259E-09 -9.312812E-10
        71  12 -3.988013E+04  3.666459E+03  1.238621E+04 -2.367623E+04 -8.025738E-09 -2.101897E-10
        71  13 -9.133552E+04 -1.550499E+04 -2.824088E+02 -3.776987E+04 -4.095162E-09 -5.977996E-10
        71  14 -9.221860E+04 -1.459169E+04 -1.962227E+02 -3.675012E+04 -3.176679E-09 -2.031906E-10
        71  15 -9.133316E+04 -1.548720E+04 -1.880021E+02 -3.777661E+04 -2.695015E-09  7.707518E-10
        71  16 -1.322481E+05 -3.073818E+04 -1.031486E+04 -4.897588E+04 -3.621006E-09 -3.570715E-10
        71  17 -1.384003E+05 -3.178502E+04 -1.149949E+04 -4.940282E+04 -4.188405E-09  2.480553E-10
        71  18 -1.427839E+05 -3.464079E+04 -1.276249E+04 -5.187601E+04  3.745511E-09  1.600985E-09
        71  19 -5.042174E+04 -2.718484E+02  9.749807E+03 -2.656331E+04 -8.637412E+02  2.045497E+03
        71  20 -4.603520E+04  2.601658E+03  1.110679E+04 -2.409667E+04 -1.075241E+03  2.312761E+03
        71  21 -3.988012E+04  3.666467E+03  1.238622E+04 -2.367624E+04 -1.286507E+03  2.579327E+03
        71  22 -9.133552E+04 -1.550499E+04 -2.823995E+02 -3.776988E+04 -6.176798E+02  2.137794E+03
        71  23 -9.221860E+04 -1.459168E+04 -1.962106E+02 -3.675012E+04 -8.297353E+02  2.404861E+03
        71  24 -9.133316E+04 -1.548719E+04 -1.879866E+02 -3.777661E+04 -1.041555E+03  2.671230E+03
        71  25 -1.322481E+05 -3.073818E+04 -1.031485E+04 -4.897589E+04 -3.716336E+02  2.230087E+03
        71  26 -1.384003E+05 -3.178501E+04 -1.149948E+04 -4.940282E+04 -5.842472E+02  2.496955E+03
        71  27 -1.427839E+05 -3.464078E+04 -1.276248E+04 -5.187601E+04 -7.966237E+02  2.763125E+03
        72   1 -3.524321E+04  5.395158E+03  1.353823E+04 -2.240957E+04  1.385519E+03 -2.743195E+03
        72   2 -3.086052E+04  8.242458E+03  1.470689E+04 -1.994810E+04  1.652261E+03 -2.988386E+03
        72   3 -2.471536E+04  9.299224E+03  1.576075E+04 -1.953421E+04  1.918927E+03 -3.233283E+03
        72   4 -9.133567E+04 -1.548864E+04 -2.083103E+02 -3.777498E+04  1.140569E+03 -2.835104E+03
        72   5 -9.221668E+04 -1.459242E+04 -3.080872E+02 -3.675157E+04  1.407526E+03 -3.080226E+03
        72   6 -9.133542E+04 -1.548675E+04 -5.228652E+02 -3.777570E+04  1.674407E+03 -3.325055E+03
        72   7 -1.474245E+05 -3.637205E+04 -1.395495E+04 -5.313900E+04  8.956450E+02 -2.927003E+03
        72   8 -1.535690E+05 -3.742698E+04 -1.532330E+04 -5.355349E+04  1.162818E+03 -3.172056E+03
        72   9 -1.579513E+05 -4.027249E+04 -1.680687E+04 -5.601548E+04  1.429915E+03 -3.416815E+03
        72  10 -3.524321E+04  5.395149E+03  1.353821E+04 -2.240957E+04 -1.745507E-08 -5.214702E-09
        72  11 -3.086052E+04  8.242448E+03  1.470687E+04 -1.994810E+04  4.823187E-09 -1.810489E-09
        72  12 -2.471536E+04  9.299212E+03  1.576072E+04 -1.953420E+04  1.751059E-08  3.939226E-09
        72  13 -9.133567E+04 -1.548865E+04 -2.083279E+02 -3.777498E+04 -2.444844E-10  1.406722E-10
        72  14 -9.221669E+04 -1.459243E+04 -3.081088E+02 -3.675157E+04  1.866790E-09 -2.143406E-09
        72  15 -9.133543E+04 -1.548676E+04 -5.228913E+02 -3.777570E+04  1.617646E-09 -1.890644E-09
        72  16 -1.474245E+05 -3.637206E+04 -1.395497E+04 -5.313900E+04  1.851440E-08  5.689395E-09
        72  17 -1.535690E+05 -3.742699E+04 -1.532333E+04 -5.355349E+04  2.516041E-09 -1.676022E-09
        72  18 -1.579513E+05 -4.027251E+04 -1.680690E+04 -5.601548E+04 -1.738115E-08 -8.457813E-09
        72  19 -3.524321E+04  5.395158E+03  1.353823E+04 -2.240957E+04 -1.385519E+03  2.743195E+03
        72  20 -3.086052E+04  8.242458E+03  1.470689E+04 -1.994810E+04 -1.652261E+03  2.988386E+03
        72  21 -2.471536E+04  9.299224E+03  1.576075E+04 -1.953421E+04 -1.918927E+03  3.233283E+03
        72  22 -9.133567E+04 -1.548864E+04 -2.083103E+02 -3.777498E+04 -1.140569E+03  2.835104E+03
        72  23 -9.221668E+04 -1.459242E+04 -3.080872E+02 -3.675157E+04 -1.407526E+03  3.080226E+03
        72  24 -9.133542E+04 -1.548675E+04 -5.228652E+02 -3.777570E+04 -1.674407E+03  3.325055E+03
        72  25 -1.474245E+05 -3.637205E+04 -1.395495E+04 -5.313900E+04 -8.956450E+02  2.927003E+03
        72  26 -1.535690E+05 -3.742698E+04 -1.532330E+04 -5.355349E+04 -1.162818E+03  3.172056E+03
        72  27 -1.579513E+05 -4.027249E+04 -1.680687E+04 -5.601548E+04 -1.429915E+03  3.416815E+03
        73   1 -2.010036E+04  1.102295E+04  1.676484E+04 -1.828137E+04  2.085534E+03 -3.371408E+03
        73   2 -1.568613E+04  1.386888E+04  1.748508E+04 -1.582337E+04  2.813141E+03 -3.442664E+03
        73   3 -9.591788E+03  1.487077E+04  1.773456E+04 -1.541666E+04  3.540533E+03 -3.513230E+03
        73   4 -9.135224E+04 -1.548600E+04 -6.883253E+02 -3.778140E+04  1.841110E+03 -3.463152E+03
        73   5 -9.219440E+04 -1.457930E+04 -1.233163E+03 -3.675004E+04  2.569192E+03 -3.534245E+03
        73   6 -9.135665E+04 -1.551669E+04 -2.249181E+03 -3.776992E+04  3.297055E+03 -3.604649E+03
        73   7 -1.625988E+05 -4.199449E+04 -1.814178E+04 -5.727932E+04  1.596717E+03 -3.554884E+03
        73   8 -1.686969E+05 -4.302708E+04 -1.995185E+04 -5.767437E+04  2.325274E+03 -3.625813E+03
        73   9 -1.731153E+05 -4.590385E+04 -2.223353E+04 -6.012063E+04  3.053611E+03 -3.696056E+03
        73  10 -2.010037E+04  1.102294E+04  1.676481E+04 -1.828136E+04  2.787725E-09 -5.522646E-10
        73  11 -1.568614E+04  1.386886E+04  1.748504E+04 -1.582337E+04 -2.452317E-10  1.269951E-09
        73  12 -9.591805E+03  1.487075E+04  1.773452E+04 -1.541665E+04  2.010354E-09  6.567614E-10
        73  13 -9.135225E+04 -1.548602E+04 -6.883542E+02 -3.778140E+04 -7.681830E-10 -8.252544E-10
        73  14 -9.219441E+04 -1.457931E+04 -1.233199E+03 -3.675003E+04 -2.886472E-10  6.946182E-10
        73  15 -9.135667E+04 -1.551671E+04 -2.249226E+03 -3.776992E+04 -5.082864E-10  7.825462E-10
        73  16 -1.625988E+05 -4.199451E+04 -1.814181E+04 -5.727931E+04 -1.602702E-09 -1.173733E-09
        73  17 -1.686969E+05 -4.302710E+04 -1.995189E+04 -5.767437E+04 -1.335573E-09  8.252679E-10
        73  18 -1.731153E+05 -4.590386E+04 -2.223358E+04 -6.012062E+04 -1.038474E-09 -1.842666E-10
        73  19 -2.010036E+04  1.102295E+04  1.676484E+04 -1.828137E+04 -2.085534E+03  3.371408E+03
        73  20 -1.568613E+04  1.386888E+04  1.748508E+04 -1.582337E+04 -2.813141E+03  3.442664E+03
        73  21 -9.591788E+03  1.487077E+04  1.773456E+04 -1.541666E+04 -3.540533E+03  3.513230E+03
        73  22 -9.135224E+04 -1.548600E+04 -6.883253E+02 -3.778140E+04 -1.841110E+03  3.463152E+03
        73  23 -9.219440E+04 -1.457930E+04 -1.233163E+03 -3.675004E+04 -2.569192E+03  3.534245E+03
        73  24 -9.135665E+04 -1.551669E+04 -2.249181E+03 -3.776992E+04 -3.297055E+03  3.604649E+03
        73  25 -1.625988E+05 -4.199449E+04 -1.814178E+04 -5.727932E+04 -1.596717E+03  3.554884E+03
        73  26 -1.686969E+05 -4.302708E+04 -1.995185E+04 -5.767437E+04 -2.325274E+03  3.625813E+03
        73  27 -1.731153E+05 -4.590385E+04 -2.223353E+04 -6.012063E+04 -3.053611E+03  3.696056E+03
        74   1 -4.976793E+03  1.656021E+04  1.816028E+04 -1.432766E+04  4.040467E+03 -3.526469E+03
        74   2 -4.310070E+02  1.954119E+04  1.700427E+04 -1.170666E+04  6.855517E+03 -2.811420E+03
        74   3  5.232719E+03  1.988982E+04  1.361854E+04 -1.102636E+04  9.667644E+03 -2.088475E+03
        74   4 -9.144886E+04 -1.545620E+04 -2.989144E+03 -3.783406E+04  3.794958E+03 -3.618661E+03
        74   5 -9.205721E+04 -1.449227E+04 -5.406700E+03 -3.673134E+04  6.616005E+03 -2.901379E+03
        74   6 -9.154887E+04 -1.616204E+04 -1.005898E+04 -3.756939E+04  9.434098E+03 -2.176213E+03
        74   7 -1.779136E+05 -4.747212E+04 -2.413913E+04 -6.133750E+04  3.549485E+03 -3.710839E+03
        74   8 -1.836749E+05 -4.852509E+04 -2.781824E+04 -6.175261E+04  6.376532E+03 -2.991324E+03
        74   9 -1.883208E+05 -5.221308E+04 -3.373708E+04 -6.410854E+04  9.200592E+03 -2.263936E+03
        74  10 -4.976814E+03  1.656019E+04  1.816023E+04 -1.432765E+04  1.286352E-10 -9.025877E-10
        74  11 -4.310596E+02  1.954117E+04  1.700417E+04 -1.170664E+04  6.485605E-09  3.366627E-09
        74  12  5.232617E+03  1.988979E+04  1.361836E+04 -1.102635E+04  9.890748E-09  6.121124E-09
        74  13 -9.144888E+04 -1.545622E+04 -2.989196E+03 -3.783405E+04 -3.464470E-10 -4.624372E-10
        74  14 -9.205726E+04 -1.449229E+04 -5.406798E+03 -3.673133E+04  9.488476E-10  5.892482E-10
        74  15 -9.154897E+04 -1.616207E+04 -1.005916E+04 -3.756937E+04 -2.425410E-09  2.128967E-09
        74  16 -1.779136E+05 -4.747214E+04 -2.413918E+04 -6.133749E+04  2.745390E-10 -2.812044E-11
        74  17 -1.836750E+05 -4.852511E+04 -2.781834E+04 -6.175260E+04 -6.623396E-09 -2.817567E-09
        74  18 -1.883209E+05 -5.221311E+04 -3.373725E+04 -6.410852E+04 -1.333610E-08 -1.754706E-09
        74  19 -4.976793E+03  1.656021E+04  1.816028E+04 -1.432766E+04 -4.040467E+03  3.526469E+03
        74  20 -4.310070E+02  1.954119E+04  1.700427E+04 -1.170666E+04 -6.855517E+03  2.811420E+03
        74  21  5.232719E+03  1.988982E+04  1.361854E+04 -1.102636E+04 -9.667644E+03  2.088475E+03
        74  22 -9.144886E+04 -1.545620E+04 -2.989144E+03 -3.783406E+04 -3.794958E+03  3.618661E+03
        74  23 -9.205721E+04 -1.449227E+04 -5.406700E+03 -3.673134E+04 -6.616005E+03  2.901379E+03
        74  24 -9.154887E+04 -1.616204E+04 -1.005898E+04 -3.756939E+04 -9.434098E+03  2.176213E+03
        74  25 -1.779136E+05 -4.747212E+04 -2.413913E+04 -6.133750E+04 -3.549485E+03  3.710839E+03
        74  26 -1.836749E+05 -4.852509E+04 -2.781824E+04 -6.175261E+04 -6.376532E+03  2.991324E+03
        74  27 -1.883208E+05 -5.221308E+04 -3.373708E+04 -6.410854E+04 -9.200592E+03  2.263936E+03
        75   1  1.058554E+04  2.132534E+04  1.162769E+04 -1.224255E+04  1.165054E+04 -1.562586E+03
        75   2  1.495479E+04  2.666192E+04  2.398072E+03 -6.450979E+03  2.369353E+04  2.654030E+03
        75   3  1.495583E+04  1.789466E+04 -1.903982E+04  4.278080E+01  3.567579E+04  7.033024E+03
        75   4 -9.224825E+04 -1.499022E+04 -1.320253E+04 -3.838124E+04  1.136789E+04 -1.668731E+03
        75   5 -9.087801E+04 -1.378854E+04 -2.370453E+04 -3.653087E+04  2.354006E+04  2.596279E+03
        75   6 -9.390269E+04 -2.671799E+04 -4.651879E+04 -3.397836E+04  3.565141E+04  7.023503E+03
        75   7 -1.950721E+05 -5.130550E+04 -3.803366E+04 -6.451625E+04  1.108529E+04 -1.774861E+03
        75   8 -1.967000E+05 -5.423819E+04 -4.980807E+04 -6.660612E+04  2.338662E+04  2.538539E+03
        75   9 -2.027495E+05 -7.132913E+04 -7.399871E+04 -6.799384E+04  3.562703E+04  7.013984E+03
        75  10  1.058539E+04  2.132530E+04  1.162743E+04 -1.224253E+04 -1.293011E-08 -2.620809E-09
        75  11  1.495418E+04  2.666176E+04  2.397004E+03 -6.451030E+03 -7.212251E-09 -1.668980E-09
        75  12  1.495445E+04  1.789426E+04 -1.904231E+04  4.257872E+01  4.214445E-09 -2.892810E-10
        75  13 -9.224839E+04 -1.499025E+04 -1.320277E+04 -3.838123E+04 -2.217901E-09  2.298048E-09
        75  14 -9.087860E+04 -1.378870E+04 -2.370559E+04 -3.653092E+04 -1.393432E-09  4.674435E-10
        75  15 -9.390407E+04 -2.671838E+04 -4.652127E+04 -3.397856E+04  2.328935E-09 -3.956544E-10
        75  16 -1.950723E+05 -5.130553E+04 -3.803389E+04 -6.451624E+04  8.565535E-09  7.564572E-09
        75  17 -1.967006E+05 -5.423834E+04 -4.980911E+04 -6.660617E+04  6.390944E-09  3.584006E-09
        75  18 -2.027509E+05 -7.132952E+04 -7.400119E+04 -6.799404E+04  1.270106E-09  6.115922E-10
        75  19  1.058554E+04  2.132534E+04  1.162769E+04 -1.224255E+04 -1.165054E+04  1.562586E+03
        75  20  1.495479E+04  2.666192E+04  2.398072E+03 -6.450979E+03 -2.369353E+04 -2.654030E+03
        75  21  1.495583E+04  1.789466E+04 -1.903982E+04  4.278080E+01 -3.567579E+04 -7.033024E+03
        75  22 -9.224825E+04 -1.499022E+04 -1.320253E+04 -3.838124E+04 -1.136789E+04  1.668731E+03
        75  23 -9.087801E+04 -1.378854E+04 -2.370453E+04 -3.653087E+04 -2.354006E+04 -2.596279E+03
        75  24 -9.390269E+04 -2.671799E+04 -4.651879E+04 -3.397836E+04 -3.565141E+04 -7.023503E+03
        75  25 -1.950721E+05 -5.130550E+04 -3.803366E+04 -6.451625E+04 -1.108529E+04  1.774861E+03
        75  26 -1.967000E+05 -5.423819E+04 -4.980807E+04 -6.660612E+04 -2.338662E+04 -2.538539E+03
        75  27 -2.027495E+05 -7.132913E+04 -7.399871E+04 -6.799384E+04 -3.562703E+04 -7.013984E+03
        76   1  3.397783E+04  1.648227E+04 -3.003236E+04 -3.520076E+04  4.452882E+04  9.735581E+03
        76   2  2.540591E+04  5.826594E+04 -7.207426E+04  2.101742E+04  9.652055E+04  2.973276E+04
        76   3 -5.693054E+04 -8.425723E+04 -2.029000E+05  1.222497E+05  1.471885E+05  5.325945E+04
        76   4 -1.014410E+05 -7.915194E+03 -5.846715E+04 -4.544344E+04  4.342797E+04  9.324306E+03
        76   5 -7.704029E+04 -5.993566E+03 -1.021186E+05 -3.395247E+04  9.825943E+04  3.038076E+04
        76   6 -1.269884E+05 -1.889719E+05 -2.368157E+05  2.255907E+04  1.517694E+05  5.495693E+04
        76   7 -2.368405E+05 -3.231272E+04 -8.690247E+04 -5.568565E+04  4.232738E+04  8.913013E+03
        76   8 -1.794735E+05 -7.024456E+04 -1.321633E+05 -8.891181E+04  9.999797E+04  3.102846E+04
        76   9 -1.970252E+05 -2.936448E+05 -2.707282E+05 -7.711317E+04  1.563497E+05  5.665272E+04
        76  10  3.397568E+04  1.648163E+04 -3.003627E+04 -3.520111E+04  1.819529E-09 -8.545189E-10
        76  11  2.539567E+04  5.826249E+04 -7.209342E+04  2.101511E+04 -4.106055E-09 -4.277974E-10
        76  12 -5.695457E+04 -8.426609E+04 -2.029461E+05  1.222434E+05 -3.561159E-09 -5.122470E-10
        76  13 -1.014431E+05 -7.915793E+03 -5.847085E+04 -4.544377E+04  3.452026E-09 -1.834673E-09
        76  14 -7.705091E+04 -5.997151E+03 -1.021384E+05 -3.395488E+04 -4.536618E-09 -1.735243E-10
        76  15 -1.270140E+05 -1.889813E+05 -2.368647E+05  2.255235E+04 -1.279313E-09 -2.680480E-10
        76  16 -2.368424E+05 -3.231328E+04 -8.690599E+04 -5.568596E+04  6.320088E-10  2.673833E-10
        76  17 -1.794845E+05 -7.024828E+04 -1.321839E+05 -8.891431E+04 -4.526775E-09 -1.291275E-09
        76  18 -1.970523E+05 -2.936548E+05 -2.707802E+05 -7.712031E+04  4.316179E-10 -2.684114E-10
        76  19  3.397783E+04  1.648227E+04 -3.003236E+04 -3.520076E+04 -4.452882E+04 -9.735581E+03
        76  20  2.540591E+04  5.826594E+04 -7.207426E+04  2.101742E+04 -9.652055E+04 -2.973276E+04
        76  21 -5.693054E+04 -8.425723E+04 -2.029000E+05  1.222497E+05 -1.471885E+05 -5.325945E+04
        76  22 -1.014410E+05 -7.915194E+03 -5.846715E+04 -4.544344E+04 -4.342797E+04 -9.324306E+03
        76  23 -7.704029E+04 -5.993566E+03 -1.021186E+05 -3.395247E+04 -9.825943E+04 -3.038076E+04
        76  24 -1.269884E+05 -1.889719E+05 -2.368157E+05  2.255907E+04 -1.517694E+05 -5.495693E+04
        76  25 -2.368405E+05 -3.231272E+04 -8.690247E+04 -5.568565E+04 -4.232738E+04 -8.913013E+03
        76  26 -1.794735E+05 -7.024456E+04 -1.321633E+05 -8.891181E+04 -9.999797E+04 -3.102846E+04
        76  27 -1.970252E+05 -2.936448E+05 -2.707282E+05 -7.711317E+04 -1.563497E+05 -5.665272E+04
        77   1  1.943245E+05  1.948667E+06  2.021478E+05 -6.185572E+04  5.940224E+03  1.038014E+05
        77   2  1.104710E+05  1.935459E+06  1.314162E+05 -2.832917E+04  2.034223E+04  6.071962E+04
        77   3  9.227009E+04  1.944265E+06  1.050923E+05  5.275257E+03  2.536351E+04  1.763917E+04
        77   4  9.819050E+04  1.558625E+06  1.107770E+05 -2.040261E+03  5.951199E+03  7.439173E+04
        77   5  1.808560E+04  1.548901E+06  5.531756E+04 -2.086445E+03  2.034734E+04  4.576263E+04
        77   6  1.147061E+03  1.558697E+06  3.426183E+04 -2.054027E+03  2.536473E+04  1.713363E+04
        77   7  2.059568E+03  1.168732E+06  1.940102E+04  5.773749E+04  5.956529E+03  4.500040E+04
        77   8 -7.430616E+04  1.162488E+06 -2.078718E+04  2.413965E+04  2.035119E+04  3.081472E+04
        77   9 -8.998420E+04  1.173274E+06 -3.657475E+04 -9.378645E+03  2.536597E+04  1.662840E+04
        77  10  1.943216E+05  1.948655E+06  2.021276E+05 -6.185621E+04 -2.853222E-10  9.936129E-10
        77  11  1.104696E+05  1.935455E+06  1.314085E+05 -2.833017E+04  1.064518E-09 -3.998569E-10
        77  12  9.226932E+04  1.944264E+06  1.050905E+05  5.274897E+03 -3.633204E-10 -1.128584E-09
        77  13  9.818898E+04  1.558619E+06  1.107666E+05 -2.040618E+03  1.417485E-10 -4.326590E-11
        77  14  1.808460E+04  1.548899E+06  5.531286E+04 -2.087194E+03  3.343149E-09 -1.329619E-10
        77  15  1.146291E+03  1.558697E+06  3.426007E+04 -2.054377E+03  7.475903E-10  1.585271E-10
        77  16  2.058987E+03  1.168730E+06  1.939716E+04  5.773727E+04 -4.037015E-10 -1.026106E-09
        77  17 -7.430686E+04  1.162487E+06 -2.078974E+04  2.413914E+04  1.081612E-09  1.084707E-10
        77  18 -8.998496E+04  1.173273E+06 -3.657648E+04 -9.378984E+03 -6.378530E-10  1.167755E-09
        77  19  1.943245E+05  1.948667E+06  2.021478E+05 -6.185572E+04 -5.940224E+03 -1.038014E+05
        77  20  1.104710E+05  1.935459E+06  1.314162E+05 -2.832917E+04 -2.034223E+04 -6.071962E+04
        77  21  9.227009E+04  1.944265E+06  1.050923E+05  5.275257E+03 -2.536351E+04 -1.763917E+04
        77  22  9.819050E+04  1.558625E+06  1.107770E+05 -2.040261E+03 -5.951199E+03 -7.439173E+04
        77  23  1.808560E+04  1.548901E+06  5.531756E+04 -2.086445E+03 -2.034734E+04 -4.576263E+04
        77  24  1.147061E+03  1.558697E+06  3.426183E+04 -2.054027E+03 -2.536473E+04 -1.713363E+04
        77  25  2.059568E+03  1.168732E+06  1.940102E+04  5.773749E+04 -5.956529E+03 -4.500040E+04
        77  26 -7.430616E+04  1.162488E+06 -2.078718E+04  2.413965E+04 -2.035119E+04 -3.081472E+04
        77  27 -8.998420E+04  1.173274E+06 -3.657475E+04 -9.378645E+03 -2.536597E+04 -1.662840E+04
        78   1  9.449340E+04  1.938881E+06  9.942461E+04 -4.428685E+03  2.550662E+04  1.430685E+04
        78   2  9.089980E+04  1.935328E+06  9.356529E+04 -2.033733E+03  2.611962E+04 -8.488412E+01
        78   3  9.359935E+04  1.935233E+06  9.863321E+04 -8.987395E+01  2.530496E+04 -1.447703E+04
        78   4  3.824140E+03  1.555037E+06  2.916564E+04 -2.170197E+03  2.550848E+04  1.226379E+04
        78   5  8.560722E+02  1.553498E+06  2.441863E+04 -1.944839E+03  2.612096E+04  7.698381E+01
        78   6  3.801523E+03  1.555037E+06  2.907478E+04 -2.170585E+03  2.530544E+04 -1.211028E+04
        78   7 -8.685342E+04  1.171335E+06 -4.109932E+04  8.686906E+01  2.551032E+04  1.022195E+04
        78   8 -8.919581E+04  1.171809E+06 -4.473380E+04 -1.855991E+03  2.612230E+04  2.387552E+02
        78   9 -8.600444E+04  1.174982E+06 -4.048950E+04 -4.249979E+03  2.530591E+04 -9.744924E+03
        78  10  9.449264E+04  1.938881E+06  9.942300E+04 -4.428979E+03  1.017182E-09  1.991181E-09
        78  11  9.089907E+04  1.935328E+06  9.356401E+04 -2.033731E+03  1.496635E-09 -1.555837E-09
        78  12  9.359860E+04  1.935233E+06  9.863161E+04 -8.957915E+01 -1.193953E-09 -3.256944E-09
        78  13  3.823401E+03  1.555037E+06  2.916413E+04 -2.170449E+03  1.401653E-09  2.704873E-10
        78  14  8.553390E+02  1.553498E+06  2.441735E+04 -1.944841E+03  4.230638E-09 -4.242068E-10
        78  15  3.800796E+03  1.555037E+06  2.907330E+04 -2.170339E+03  1.321532E-09  5.842582E-10
        78  16 -8.685415E+04  1.171335E+06 -4.110074E+04  8.665912E+01 -2.270793E-10 -1.971884E-09
        78  17 -8.919654E+04  1.171809E+06 -4.473508E+04 -1.855996E+03  1.598458E-09  8.315324E-10
        78  18 -8.600516E+04  1.174982E+06 -4.049088E+04 -4.249780E+03  7.822036E-10  3.675241E-09
        78  19  9.449340E+04  1.938881E+06  9.942461E+04 -4.428685E+03 -2.550662E+04 -1.430685E+04
        78  20  9.089980E+04  1.935328E+06  9.356529E+04 -2.033733E+03 -2.611962E+04  8.488412E+01
        78  21  9.359935E+04  1.935233E+06  9.863321E+04 -8.987395E+01 -2.530496E+04  1.447703E+04
        78  22  3.824140E+03  1.555037E+06  2.916564E+04 -2.170197E+03 -2.550848E+04 -1.226379E+04
        78  23  8.560722E+02  1.553498E+06  2.441863E+04 -1.944839E+03 -2.612096E+04 -7.698381E+01
        78  24  3.801523E+03  1.555037E+06  2.907478E+04 -2.170585E+03 -2.530544E+04  1.211028E+04
        78  25 -8.685342E+04  1.171335E+06 -4.109932E+04  8.686906E+01 -2.551032E+04 -1.022195E+04
        78  26 -8.919581E+04  1.171809E+06 -4.473380E+04 -1.855991E+03 -2.612230E+04 -2.387552E+02
        78  27 -8.600444E+04  1.174982E+06 -4.048950E+04 -4.249979E+03 -2.530591E+04  9.744924E+03
        79   1  9.082435E+04  1.938133E+06  1.037864E+05 -9.743029E+03  2.501746E+04 -1.784226E+04
        79   2  1.079991E+05  1.925812E+06  1.291251E+05  2.412654E+04  1.995300E+04 -6.023779E+04
        79   3  1.903695E+05  1.935299E+06  1.983102E+05  5.705846E+04  5.855134E+03 -1.026397E+05
        79   4  1.142379E+03  1.558673E+06  3.412037E+04 -2.286377E+03  2.501818E+04 -1.696390E+04
        79   5  1.798206E+04  1.548934E+06  5.502342E+04 -1.795374E+03  1.994918E+04 -4.544323E+04
        79   6  9.762312E+04  1.558602E+06  1.101393E+05 -2.242552E+03  5.848807E+03 -7.392801E+04
        79   7 -8.854755E+04  1.179352E+06 -3.555153E+04  5.165623E+03  2.501892E+04 -1.608605E+04
        79   8 -7.204094E+04  1.172193E+06 -1.908395E+04 -2.770125E+04  1.994413E+04 -3.065743E+04
        79   9  4.880346E+03  1.182044E+06  2.196377E+04 -6.150744E+04  5.837010E+03 -4.523360E+04
        79  10  9.082360E+04  1.938133E+06  1.037846E+05 -9.742669E+03  6.395787E-11  8.694588E-10
        79  11  1.079977E+05  1.925808E+06  1.291175E+05  2.412751E+04  2.025385E-09 -5.476962E-10
        79  12  1.903666E+05  1.935288E+06  1.982904E+05  5.705894E+04  7.169685E-10  4.932932E-10
        79  13  1.141630E+03  1.558672E+06  3.411865E+04 -2.286036E+03 -1.342282E-10  4.147585E-10
        79  14  1.798108E+04  1.548932E+06  5.501881E+04 -1.794645E+03  1.212639E-11 -5.310361E-10
        79  15  9.762162E+04  1.558596E+06  1.101290E+05 -2.242204E+03  4.529663E-10  6.752983E-10
        79  16 -8.854829E+04  1.179352E+06 -3.555319E+04  5.165947E+03  1.486267E-09 -7.051274E-10
        79  17 -7.204162E+04  1.172192E+06 -1.908646E+04 -2.770075E+04  1.802145E-09 -6.585081E-10
        79  18  4.879762E+03  1.182042E+06  2.195987E+04 -6.150723E+04  4.949589E-10 -1.452266E-10
        79  19  9.082435E+04  1.938133E+06  1.037864E+05 -9.743029E+03 -2.501746E+04  1.784226E+04
        79  20  1.079991E+05  1.925812E+06  1.291251E+05  2.412654E+04 -1.995300E+04  6.023779E+04
        79  21  1.903695E+05  1.935299E+06  1.983102E+05  5.705846E+04 -5.855134E+03  1.026397E+05
        79  22  1.142379E+03  1.558673E+06  3.412037E+04 -2.286377E+03 -2.501818E+04  1.696390E+04
        79  23  1.798206E+04  1.548934E+06  5.502342E+04 -1.795374E+03 -1.994918E+04  4.544323E+04
        79  24  9.762312E+04  1.558602E+06  1.101393E+05 -2.242552E+03 -5.848807E+03  7.392801E+04
        79  25 -8.854755E+04  1.179352E+06 -3.555153E+04  5.165623E+03 -2.501892E+04  1.608605E+04
        79  26 -7.204094E+04  1.172193E+06 -1.908395E+04 -2.770125E+04 -1.994413E+04  3.065743E+04
        79  27  4.880346E+03  1.182044E+06  2.196377E+04 -6.150744E+04 -5.837010E+03  4.523360E+04
        80   1 -2.052595E+06 -4.373060E+05 -3.848842E+05 -4.921889E+04  6.181784E+04  3.226701E+04
        80   2 -1.871629E+06 -5.615130E+05 -4.133370E+05 -5.857111E+04  6.522072E+04  1.006729E+05
        80   3 -1.646258E+06 -5.172091E+05 -4.014475E+05 -1.542792E+05  6.886012E+04  1.045801E+05
        80   4  4.253803E+05  1.784510E+05  2.170503E+05 -1.254790E+05  1.489614E+05  3.255960E+04
        80   5  3.985899E+05 -4.917723E+03  9.816306E+04 -8.203196E+04  9.662995E+04  1.007311E+05
        80   6  4.256723E+05 -1.043441E+04  5.819525E+04 -1.249112E+05  4.453792E+04  1.045103E+05
        80   7  2.909003E+06  7.937843E+05  8.185734E+05 -2.020496E+05  2.364517E+05  3.283019E+04
        80   8  2.673614E+06  5.513271E+05  6.093383E+05 -1.055827E+05  1.281526E+05  1.007869E+05
        80   9  2.501618E+06  4.960534E+05  5.175741E+05 -9.544543E+04  2.013511E+04  1.044384E+05
        80  10 -2.052600E+06 -4.373081E+05 -3.848934E+05 -4.922049E+04  9.128103E-10 -4.562238E-10
        80  11 -1.871637E+06 -5.615250E+05 -4.133640E+05 -5.857641E+04 -1.173841E-09 -1.173935E-09
        80  12 -1.646266E+06 -5.172221E+05 -4.014770E+05 -1.542850E+05  2.234583E-10 -2.298066E-10
        80  13  4.253562E+05  1.784439E+05  2.170067E+05 -1.254829E+05  1.822615E-11 -3.940915E-10
        80  14  3.985772E+05 -4.931127E+03  9.812645E+04 -8.203980E+04  2.159241E-09 -9.233348E-10
        80  15  4.256673E+05 -1.044668E+04  5.817099E+04 -1.249149E+05  1.154756E-09 -1.063607E-10
        80  16  2.908943E+06  7.937682E+05  8.184667E+05 -2.020558E+05 -3.811539E-10 -2.526280E-10
        80  17  2.673593E+06  5.513119E+05  6.092884E+05 -1.055931E+05  3.128080E-10 -7.407857E-10
        80  18  2.501615E+06  4.960416E+05  5.175528E+05 -9.544712E+04  4.446996E-11 -4.018362E-10
        80  19 -2.052595E+06 -4.373060E+05 -3.848842E+05 -4.921889E+04 -6.181784E+04 -3.226701E+04
        80  20 -1.871629E+06 -5.615130E+05 -4.133370E+05 -5.857111E+04 -6.522072E+04 -1.006729E+05
        80  21 -1.646258E+06 -5.172091E+05 -4.014475E+05 -1.542792E+05 -6.886012E+04 -1.045801E+05
        80  22  4.253803E+05  1.784510E+05  2.170503E+05 -1.254790E+05 -1.489614E+05 -3.255960E+04
        80  23  3.985899E+05 -4.917723E+03  9.816306E+04 -8.203196E+04 -9.662995E+04 -1.007311E+05
        80  24  4.256723E+05 -1.043441E+04  5.819525E+04 -1.249112E+05 -4.453792E+04 -1.045103E+05
        80  25  2.909003E+06  7.937843E+05  8.185734E+05 -2.020496E+05 -2.364517E+05 -3.283019E+04
        80  26  2.673614E+06  5.513271E+05  6.093383E+05 -1.055827E+05 -1.281526E+05 -1.007869E+05
        80  27  2.501618E+06  4.960534E+05  5.175741E+05 -9.544543E+04 -2.013511E+04 -1.044384E+05
        81   1 -1.485776E+06 -4.556868E+05 -3.775072E+05 -1.240553E+05  4.139243E+04  9.190892E+04
        81   2 -1.287508E+06 -4.169444E+05 -3.529036E+05 -8.197155E+04  3.141271E+04  8.437029E+04
        81   3 -1.083890E+06 -3.677105E+05 -3.188519E+05 -1.277831E+05  2.141091E+04  7.397578E+04
        81   4  4.151235E+05  9.520092E+03  4.636753E+04 -1.254101E+05  3.621081E+04  9.188043E+04
        81   5  4.123574E+05 -1.225334E+03  2.485652E+04 -8.146414E+04  2.373301E+04  8.434604E+04
        81   6  4.153241E+05 -1.060368E+03  1.450728E+04 -1.253982E+05  1.123633E+04  7.395943E+04
        81   7  2.319395E+06  4.744816E+05  4.700159E+05 -1.267700E+05  3.101334E+04  9.185201E+04
        81   8  2.114922E+06  4.142982E+05  4.024369E+05 -8.095582E+04  1.603242E+04  8.432181E+04
        81   9  1.916637E+06  3.654377E+05  3.477267E+05 -1.230074E+05  1.037398E+03  7.394303E+04
        81  10 -1.485780E+06 -4.556963E+05 -3.775263E+05 -1.240584E+05  8.335832E-09  8.177165E-10
        81  11 -1.287511E+06 -4.169523E+05 -3.529188E+05 -8.197368E+04 -1.087020E-09  1.145004E-09
        81  12 -1.083892E+06 -3.677165E+05 -3.188631E+05 -1.277843E+05 -9.111355E-09  1.695175E-10
        81  13  4.151198E+05  9.510673E+03  4.634920E+04 -1.254127E+05  1.074541E-09  4.717314E-10
        81  14  4.123549E+05 -1.233126E+03  2.484209E+04 -8.146576E+04  1.061333E-09  1.454864E-09
        81  15  4.153225E+05 -1.066277E+03  1.449676E+04 -1.253988E+05  1.491907E-09  8.767114E-10
        81  16  2.319392E+06  4.744723E+05  4.699983E+05 -1.267722E+05 -6.916700E-09  6.012073E-10
        81  17  2.114919E+06  4.142905E+05  4.024230E+05 -8.095691E+04  1.582571E-09  1.814987E-09
        81  18  1.916636E+06  3.654318E+05  3.477165E+05 -1.230075E+05  8.490930E-09  1.263996E-09
        81  19 -1.485776E+06 -4.556868E+05 -3.775072E+05 -1.240553E+05 -4.139243E+04 -9.190892E+04
        81  20 -1.287508E+06 -4.169444E+05 -3.529036E+05 -8.197155E+04 -3.141271E+04 -8.437029E+04
        81  21 -1.083890E+06 -3.677105E+05 -3.188519E+05 -1.277831E+05 -2.141091E+04 -7.397578E+04
        81  22  4.151235E+05  9.520092E+03  4.636753E+04 -1.254101E+05 -3.621081E+04 -9.188043E+04
        81  23  4.123574E+05 -1.225334E+03  2.485652E+04 -8.146414E+04 -2.373301E+04 -8.434604E+04
        81  24  4.153241E+05 -1.060368E+03  1.450728E+04 -1.253982E+05 -1.123633E+04 -7.395943E+04
        81  25  2.319395E+06  4.744816E+05  4.700159E+05 -1.267700E+05 -3.101334E+04 -9.185201E+04
        81  26  2.114922E+06  4.142982E+05  4.024369E+05 -8.095582E+04 -1.603242E+04 -8.432181E+04
        81  27  1.916637E+06  3.654377E+05  3.477267E+05 -1.230074E+05 -1.037398E+03 -7.394303E+04
        82   1 -9.158497E+05 -3.249742E+05 -2.837106E+05 -1.255955E+05  1.828886E+04  6.727697E+04
        82   2 -7.164081E+05 -2.766139E+05 -2.446125E+05 -8.153832E+04  1.527997E+04  5.642079E+04
        82   3 -5.158817E+05 -2.275172E+05 -2.032623E+05 -1.250266E+05  1.225354E+04  4.545150E+04
        82   4  4.143971E+05  1.323609E+02  1.111931E+04 -1.253249E+05  8.981140E+03  6.726601E+04
        82   5  4.139292E+05 -3.152602E+02  6.293357E+03 -8.155709E+04  5.867231E+03  5.641626E+04
        82   6  4.145280E+05 -5.967162E+00  3.790845E+03 -1.253251E+05  2.736739E+03  4.545363E+04
        82   7  1.746297E+06  3.251195E+05  3.058399E+05 -1.250536E+05 -3.463287E+02  6.725506E+04
        82   8  1.545459E+06  2.758971E+05  2.571202E+05 -8.157573E+04 -3.562473E+03  5.641173E+04
        82   9  1.345745E+06  2.274466E+05  2.107902E+05 -1.256238E+05 -6.794180E+03  4.545577E+04
        82  10 -9.158512E+05 -3.249791E+05 -2.837198E+05 -1.255965E+05 -2.034539E-09 -4.246682E-10
        82  11 -7.164092E+05 -2.766174E+05 -2.446190E+05 -8.153901E+04  2.215320E-10 -5.765438E-10
        82  12 -5.158824E+05 -2.275194E+05 -2.032664E+05 -1.250271E+05 -3.911179E-10 -5.634879E-10
        82  13  4.143958E+05  1.274794E+02  1.111065E+04 -1.253254E+05  7.517522E-12  1.915330E-10
        82  14  4.139283E+05 -3.186879E+02  6.287310E+03 -8.155736E+04  5.427304E-10 -6.322699E-10
        82  15  4.145275E+05 -8.188193E+00  3.786948E+03 -1.253252E+05  4.937012E-12 -7.547524E-10
        82  16  1.746296E+06  3.251147E+05  3.058314E+05 -1.250536E+05  1.291850E-09  1.792168E-10
        82  17  1.545459E+06  2.758937E+05  2.571142E+05 -8.157557E+04 -7.489906E-10 -1.319805E-09
        82  18  1.345745E+06  2.274444E+05  2.107863E+05 -1.256236E+05  5.868315E-10 -8.081601E-10
        82  19 -9.158497E+05 -3.249742E+05 -2.837106E+05 -1.255955E+05 -1.828886E+04 -6.727697E+04
        82  20 -7.164081E+05 -2.766139E+05 -2.446125E+05 -8.153832E+04 -1.527997E+04 -5.642079E+04
        82  21 -5.158817E+05 -2.275172E+05 -2.032623E+05 -1.250266E+05 -1.225354E+04 -4.545150E+04
        82  22  4.143971E+05  1.323609E+02  1.111931E+04 -1.253249E+05 -8.981140E+03 -6.726601E+04
        82  23  4.139292E+05 -3.152602E+02  6.293357E+03 -8.155709E+04 -5.867231E+03 -5.641626E+04
        82  24  4.145280E+05 -5.967162E+00  3.790845E+03 -1.253251E+05 -2.736739E+03 -4.545363E+04
        82  25  1.746297E+06  3.251195E+05  3.058399E+05 -1.250536E+05  3.463287E+02 -6.725506E+04
        82  26  1.545459E+06  2.758971E+05  2.571202E+05 -8.157573E+04  3.562473E+03 -5.641173E+04
        82  27  1.345745E+06  2.274466E+05  2.107902E+05 -1.256238E+05  6.794180E+03 -4.545577E+04
        83   1 -3.476992E+05 -1.860590E+05 -1.655921E+05 -1.248884E+05  1.159269E+04  3.904623E+04
        83   2 -1.483222E+05 -1.374196E+05 -1.229027E+05 -8.125654E+04  1.062454E+04  2.807999E+04
        83   3  5.120147E+04 -8.858369E+04 -7.955256E+04 -1.249215E+05  9.647784E+03  1.711568E+04
        83   4  4.143801E+05  6.662763E+01  2.957212E+03 -1.252709E+05  2.121585E+03  3.905140E+04
        83   5  4.143594E+05  7.352915E+01  1.948626E+03 -8.162485E+04  1.152621E+03  2.808834E+04
        83   6  4.144448E+05  2.786021E+02  1.601321E+03 -1.252708E+05  1.753508E+02  1.712736E+04
        83   7  1.177002E+06  1.861532E+05  1.714710E+05 -1.256537E+05 -7.361017E+03  3.905658E+04
        83   8  9.773367E+05  1.375453E+05  1.267806E+05 -8.199340E+04 -8.327790E+03  2.809670E+04
        83   9  7.778112E+05  8.913197E+04  8.274725E+04 -1.256202E+05 -9.302565E+03  1.713904E+04
        83  10 -3.476998E+05 -1.860607E+05 -1.655952E+05 -1.248887E+05 -1.075184E-09 -1.622828E-10
        83  11 -1.483226E+05 -1.374205E+05 -1.229044E+05 -8.125678E+04  1.095759E-10  1.186741E-10
        83  12  5.120129E+04 -8.858403E+04 -7.955329E+04 -1.249217E+05  7.032831E-10  7.984363E-11
        83  13  4.143797E+05  6.498849E+01  2.954337E+03 -1.252710E+05 -2.148384E-09 -4.534946E-10
        83  14  4.143592E+05  7.268143E+01  1.947141E+03 -8.162487E+04 -1.095345E-09  3.669863E-10
        83  15  4.144447E+05  2.782870E+02  1.600770E+03 -1.252708E+05 -3.884494E-10  4.071404E-10
        83  16  1.177002E+06  1.861515E+05  1.714680E+05 -1.256535E+05  1.755597E-09 -3.679257E-10
        83  17  9.773364E+05  1.375445E+05  1.267790E+05 -8.199321E+04 -3.131032E-10  1.451825E-10
        83  18  7.778111E+05  8.913164E+04  8.274653E+04 -1.256201E+05 -8.647589E-10  2.456830E-10
        83  19 -3.476992E+05 -1.860590E+05 -1.655921E+05 -1.248884E+05 -1.159269E+04 -3.904623E+04
        83  20 -1.483222E+05 -1.374196E+05 -1.229027E+05 -8.125654E+04 -1.062454E+04 -2.807999E+04
        83  21  5.120147E+04 -8.858369E+04 -7.955256E+04 -1.249215E+05 -9.647784E+03 -1.711568E+04
        83  22  4.143801E+05  6.662763E+01  2.957212E+03 -1.252709E+05 -2.121585E+03 -3.905140E+04
        83  23  4.143594E+05  7.352915E+01  1.948626E+03 -8.162485E+04 -1.152621E+03 -2.808834E+04
        83  24  4.144448E+05  2.786021E+02  1.601321E+03 -1.252708E+05 -1.753508E+02 -1.712736E+04
        83  25  1.177002E+06  1.861532E+05  1.714710E+05 -1.256537E+05  7.361017E+03 -3.905658E+04
        83  26  9.773367E+05  1.375453E+05  1.267806E+05 -8.199340E+04  8.327790E+03 -2.809670E+04
        83  27  7.778112E+05  8.913197E+04  8.274725E+04 -1.256202E+05  9.302565E+03 -1.713904E+04
        84   1  2.192612E+05 -4.728316E+04 -4.113367E+04 -1.250644E+05  9.345272E+03  1.073684E+04
        84   2  4.186002E+05  1.190932E+03  2.892216E+03 -8.160731E+04  8.354400E+03 -2.168558E+02
        84   3  6.179133E+05  4.988694E+04  4.755520E+04 -1.253507E+05  7.363283E+03 -1.116635E+04
        84   4  4.144287E+05  2.827833E+02  1.594534E+03 -1.252505E+05 -1.250383E+02  1.074953E+04
        84   5  4.144602E+05  1.797037E+02  1.973346E+03 -8.165019E+04 -1.113688E+03 -2.042695E+02
        84   6  4.144281E+05  3.005915E+02  2.989162E+03 -1.252504E+05 -2.102274E+03 -1.115372E+04
        84   7  6.096320E+05  4.784623E+04  4.432077E+04 -1.254366E+05 -9.598288E+03  1.076222E+04
        84   8  4.103203E+05 -8.314776E+02  1.054812E+03 -8.169307E+04 -1.058171E+04 -1.916818E+02
        84   9  2.109818E+05 -4.928848E+04 -4.157905E+04 -1.251502E+05 -1.156477E+04 -1.114109E+04
        84  10  2.192611E+05 -4.728330E+04 -4.113405E+04 -1.250645E+05  1.731140E-10 -1.475765E-10
        84  11  4.186001E+05  1.190913E+03  2.892085E+03 -8.160731E+04 -5.713532E-10 -5.922770E-10
        84  12  6.179132E+05  4.988680E+04  4.755486E+04 -1.253507E+05 -1.825723E-09 -2.752983E-10
        84  13  4.144287E+05  2.826592E+02  1.594317E+03 -1.252505E+05 -2.894826E-11  1.535914E-10
        84  14  4.144602E+05  1.797033E+02  1.973344E+03 -8.165019E+04 -2.328621E-11 -5.218695E-10
        84  15  4.144280E+05  3.004567E+02  2.988920E+03 -1.252505E+05  9.439482E-10 -3.101530E-10
        84  16  6.096319E+05  4.784608E+04  4.432038E+04 -1.254365E+05 -4.200767E-10 -9.906676E-11
        84  17  4.103202E+05 -8.315077E+02  1.054602E+03 -8.169308E+04  6.041471E-10 -2.791449E-10
        84  18  2.109816E+05 -4.928865E+04 -4.157953E+04 -1.251503E+05  6.330391E-10 -9.858102E-10
        84  19  2.192612E+05 -4.728316E+04 -4.113367E+04 -1.250644E+05 -9.345272E+03 -1.073684E+04
        84  20  4.186002E+05  1.190932E+03  2.892216E+03 -8.160731E+04 -8.354400E+03  2.168558E+02
        84  21  6.179133E+05  4.988694E+04  4.755520E+04 -1.253507E+05 -7.363283E+03  1.116635E+04
        84  22  4.144287E+05  2.827833E+02  1.594534E+03 -1.252505E+05  1.250383E+02 -1.074953E+04
        84  23  4.144602E+05  1.797037E+02  1.973346E+03 -8.165019E+04  1.113688E+03  2.042695E+02
        84  24  4.144281E+05  3.005915E+02  2.989162E+03 -1.252504E+05  2.102274E+03  1.115372E+04
        84  25  6.096320E+05  4.784623E+04  4.432077E+04 -1.254366E+05  9.598288E+03 -1.076222E+04
        84  26  4.103203E+05 -8.314776E+02  1.054812E+03 -8.169307E+04  1.058171E+04  1.916818E+02
        84  27  2.109818E+05 -4.928848E+04 -4.157905E+04 -1.251502E+05  1.156477E+04  1.114109E+04
        85   1  7.861983E+05  9.111206E+04  8.679571E+04 -1.254305E+05  6.772968E+03 -1.755156E+04
        85   2  9.854971E+05  1.395006E+05  1.330736E+05 -8.188419E+04  3.505528E+03 -2.848538E+04
        85   3  1.185402E+06  1.887385E+05  1.816638E+05 -1.256234E+05  2.455584E+02 -3.932674E+04
        85   4  4.145442E+05  2.360488E+02  3.813965E+03 -1.252706E+05 -2.726474E+03 -1.753993E+04
        85   5  4.142315E+05  3.630698E+00  6.393896E+03 -8.162506E+04 -5.912548E+03 -2.847721E+04
        85   6  4.144778E+05  6.103809E+02  1.123390E+04 -1.252699E+05 -9.090130E+03 -3.932185E+04
        85   7  4.301882E+04 -9.064930E+04 -7.917612E+04 -1.251107E+05 -1.222030E+04 -1.752829E+04
        85   8 -1.567298E+05 -1.395153E+05 -1.203057E+05 -8.136607E+04 -1.532206E+04 -2.846905E+04
        85   9 -3.558923E+05 -1.875577E+05 -1.592323E+05 -1.249168E+05 -1.841437E+04 -3.931697E+04
        85  10  7.861982E+05  9.111172E+04  8.679505E+04 -1.254304E+05 -4.095352E-10 -5.234249E-10
        85  11  9.854969E+05  1.394997E+05  1.330720E+05 -8.188411E+04 -8.656409E-10 -2.594077E-10
        85  12  1.185402E+06  1.887368E+05  1.816609E+05 -1.256233E+05 -1.186042E-10  9.992540E-10
        85  13  4.145441E+05  2.357163E+02  3.813373E+03 -1.252706E+05 -1.027929E-09 -1.028422E-09
        85  14  4.142312E+05  2.750302E+00  6.392306E+03 -8.162520E+04 -1.578746E-09 -5.498877E-10
        85  15  4.144773E+05  6.086980E+02  1.123084E+04 -1.252702E+05 -2.545142E-10  7.173858E-10
        85  16  4.301858E+04 -9.064967E+04 -7.917698E+04 -1.251109E+05  7.429573E-10 -9.630160E-10
        85  17 -1.567303E+05 -1.395162E+05 -1.203077E+05 -8.136643E+04 -7.073827E-10 -5.462229E-10
        85  18 -3.558931E+05 -1.875594E+05 -1.592359E+05 -1.249174E+05  1.145073E-09  1.038758E-09
        85  19  7.861983E+05  9.111206E+04  8.679571E+04 -1.254305E+05 -6.772968E+03  1.755156E+04
        85  20  9.854971E+05  1.395006E+05  1.330736E+05 -8.188419E+04 -3.505528E+03  2.848538E+04
        85  21  1.185402E+06  1.887385E+05  1.816638E+05 -1.256234E+05 -2.455584E+02  3.932674E+04
        85  22  4.145442E+05  2.360488E+02  3.813965E+03 -1.252706E+05  2.726474E+03  1.753993E+04
        85  23  4.142315E+05  3.630698E+00  6.393896E+03 -8.162506E+04  5.912548E+03  2.847721E+04
        85  24  4.144778E+05  6.103809E+02  1.123390E+04 -1.252699E+05  9.090130E+03  3.932185E+04
        85  25  4.301882E+04 -9.064930E+04 -7.917612E+04 -1.251107E+05  1.222030E+04  1.752829E+04
        85  26 -1.567298E+05 -1.395153E+05 -1.203057E+05 -8.136607E+04  1.532206E+04  2.846905E+04
        85  27 -3.558923E+05 -1.875577E+05 -1.592323E+05 -1.249168E+05  1.841437E+04  3.931697E+04
        86   1  1.354952E+06  2.288988E+05  2.234514E+05 -1.238183E+05 -1.363423E+03 -4.592805E+04
        86   2  1.552615E+06  2.775750E+05  2.780589E+05 -8.263119E+04 -1.597472E+04 -5.638826E+04
        86   3  1.755554E+06  3.376988E+05  3.451214E+05 -1.288865E+05 -3.057555E+04 -6.462504E+04
        86   4  4.153787E+05 -5.825345E+02  1.463758E+04 -1.253066E+05 -1.137536E+04 -4.592577E+04
        86   5  4.128561E+05 -6.939655E+02  2.517142E+04 -8.157967E+04 -2.404171E+04 -5.639339E+04
        86   6  4.152436E+05  1.031964E+04  4.682868E+04 -1.253042E+05 -3.669296E+04 -6.463569E+04
        86   7 -5.233727E+05 -2.301235E+05 -1.942309E+05 -1.267924E+05 -2.137232E+04 -4.592344E+04
        86   8 -7.256928E+05 -2.790506E+05 -2.277965E+05 -8.052994E+04 -3.209406E+04 -5.639856E+04
        86   9 -9.233953E+05 -3.171810E+05 -2.515761E+05 -1.217296E+05 -4.279726E+04 -6.464643E+04
        86  10  1.354952E+06  2.288965E+05  2.234475E+05 -1.238184E+05  2.070363E-09  5.656329E-10
        86  11  1.552614E+06  2.775715E+05  2.780524E+05 -8.263192E+04  1.752256E-10 -8.175243E-10
        86  12  1.755552E+06  3.376940E+05  3.451118E+05 -1.288881E+05 -1.030995E-09  3.324844E-10
        86  13  4.153780E+05 -5.848346E+02  1.463337E+04 -1.253070E+05  1.040607E-09  9.918495E-10
        86  14  4.128547E+05 -6.975364E+02  2.516436E+04 -8.158076E+04 -5.201874E-10 -3.141667E-10
        86  15  4.152410E+05  1.031480E+04  4.681830E+04 -1.253061E+05 -3.050343E-09  2.205052E-10
        86  16 -5.233737E+05 -2.301259E+05 -1.942357E+05 -1.267932E+05 -7.994095E-10  9.952065E-10
        86  17 -7.256948E+05 -2.790542E+05 -2.278044E+05 -8.053140E+04 -8.512422E-10  3.702722E-10
        86  18 -9.233984E+05 -3.171860E+05 -2.515874E+05 -1.217318E+05  2.625200E-09  1.713326E-10
        86  19  1.354952E+06  2.288988E+05  2.234514E+05 -1.238183E+05  1.363423E+03  4.592805E+04
        86  20  1.552615E+06  2.775750E+05  2.780589E+05 -8.263119E+04  1.597472E+04  5.638826E+04
        86  21  1.755554E+06  3.376988E+05  3.451214E+05 -1.288865E+05  3.057555E+04  6.462504E+04
        86  22  4.153787E+05 -5.825345E+02  1.463758E+04 -1.253066E+05  1.137536E+04  4.592577E+04
        86  23  4.128561E+05 -6.939655E+02  2.517142E+04 -8.157967E+04  2.404171E+04  5.639339E+04
        86  24  4.152436E+05  1.031964E+04  4.682868E+04 -1.253042E+05  3.669296E+04  6.463569E+04
        86  25 -5.233727E+05 -2.301235E+05 -1.942309E+05 -1.267924E+05  2.137232E+04  4.592344E+04
        86  26 -7.256928E+05 -2.790506E+05 -2.277965E+05 -8.052994E+04  3.209406E+04  5.639856E+04
        86  27 -9.233953E+05 -3.171810E+05 -2.515761E+05 -1.217296E+05  4.279726E+04  6.464643E+04
        87   1  1.936526E+06  3.588653E+05  3.932499E+05 -9.792144E+04 -2.405462E+04 -7.582977E+04
        87   2  2.108187E+06  4.139088E+05  4.835810E+05 -1.093065E+05 -1.202494E+05 -7.523755E+04
        87   3  2.340358E+06  6.556423E+05  6.833578E+05 -2.067632E+05 -2.165647E+05 -2.454991E+04
        87   4  4.258458E+05 -9.781212E+03  5.875818E+04 -1.249400E+05 -4.511706E+04 -7.584977E+04
        87   5  3.991882E+05 -4.189597E+03  9.924674E+04 -8.202072E+04 -9.778742E+04 -7.523526E+04
        87   6  4.256171E+05  1.808169E+05  2.191612E+05 -1.251655E+05 -1.505416E+05 -2.448044E+04
        87   7 -1.082707E+06 -3.785786E+05 -2.758728E+05 -1.518923E+05 -6.612884E+04 -7.586798E+04
        87   8 -1.307097E+06 -4.224844E+05 -2.852711E+05 -5.481114E+04 -7.538624E+04 -7.523101E+04
        87   9 -1.485760E+06 -2.942492E+05 -2.452795E+05 -4.382026E+04 -8.472031E+04 -2.439361E+04
        87  10  1.936524E+06  3.588590E+05  3.932380E+05 -9.792291E+04  6.117974E-11  9.499710E-10
        87  11  2.108170E+06  4.138988E+05  4.835433E+05 -1.093137E+05 -4.750416E-10  5.988278E-11
        87  12  2.340308E+06  6.556291E+05  6.832688E+05 -2.067675E+05 -1.123551E-09 -3.473508E-10
        87  13  4.258421E+05 -9.787938E+03  5.874354E+04 -1.249428E+05 -1.092310E-09  5.769986E-10
        87  14  3.991764E+05 -4.198242E+03  9.921814E+04 -8.202665E+04 -2.171751E-09  4.088243E-11
        87  15  4.255926E+05  1.808102E+05  2.191175E+05 -1.251684E+05  5.226327E-10  4.328988E-11
        87  16 -1.082713E+06 -3.785859E+05 -2.758918E+05 -1.518963E+05 -1.534235E-09  3.742738E-10
        87  17 -1.307105E+06 -4.224920E+05 -2.852924E+05 -5.481571E+04 -4.717869E-10  7.202140E-10
        87  18 -1.485768E+06 -2.942518E+05 -2.452942E+05 -4.382193E+04 -8.337887E-10  7.198728E-11
        87  19  1.936526E+06  3.588653E+05  3.932499E+05 -9.792144E+04  2.405462E+04  7.582977E+04
        87  20  2.108187E+06  4.139088E+05  4.835810E+05 -1.093065E+05  1.202494E+05  7.523755E+04
        87  21  2.340358E+06  6.556423E+05  6.833578E+05 -2.067632E+05  2.165647E+05  2.454991E+04
        87  22  4.258458E+05 -9.781212E+03  5.875818E+04 -1.249400E+05  4.511706E+04  7.584977E+04
        87  23  3.991882E+05 -4.189597E+03  9.924674E+04 -8.202072E+04  9.778742E+04  7.523526E+04
        87  24  4.256171E+05  1.808169E+05  2.191612E+05 -1.251655E+05  1.505416E+05  2.448044E+04
        87  25 -1.082707E+06 -3.785786E+05 -2.758728E+05 -1.518923E+05  6.612884E+04  7.586798E+04
        87  26 -1.307097E+06 -4.224844E+05 -2.852711E+05 -5.481114E+04  7.538624E+04  7.523101E+04
        87  27 -1.485760E+06 -2.942492E+05 -2.452795E+05 -4.382026E+04  8.472031E+04  2.439361E+04
        88   1  2.108294E+04 -4.007232E+05  3.868895E+04 -1.382392E+05 -5.250356E+03  5.288760E+04
        88   2 -1.005221E+05 -5.759180E+05 -4.781428E+04 -7.769100E+04 -1.957506E+04  3.378355E+04
        88   3 -1.433376E+05 -7.295345E+05 -1.023442E+05 -8.917763E+04 -2.947255E+04  1.470595E+04
        88   4  8.091670E+04 -1.576871E+05  9.656734E+04 -1.021773E+05 -5.306758E+03  6.726298E+04
        88   5 -1.008648E+03 -1.688190E+05  4.304578E+04 -6.633104E+04 -1.961541E+04  4.432741E+04
        88   6 -3.502560E+03 -1.577350E+05  2.415558E+04 -1.025098E+05 -2.949678E+04  2.141381E+04
        88   7  1.407513E+05  8.540667E+04  1.544431E+05 -6.610116E+04 -5.361478E+03  8.164397E+04
        88   8  9.849409E+04  2.384351E+05  1.338959E+05 -5.496338E+04 -1.965535E+04  5.487810E+04
        88   9  1.363110E+05  4.143706E+05  1.506354E+05 -1.158541E+05 -2.952129E+04  2.812777E+04
        88  10  2.108216E+04 -4.007262E+05  3.868364E+04 -1.382390E+05  1.254312E-09  1.849517E-09
        88  11 -1.005228E+05 -5.759193E+05 -4.781714E+04 -7.769047E+04  1.200326E-09 -1.287552E-10
        88  12 -1.433385E+05 -7.295350E+05 -1.023463E+05 -8.917728E+04  3.208812E-10 -1.984702E-09
        88  13  8.091545E+04 -1.576919E+05  9.655878E+04 -1.021770E+05 -1.955160E-09 -5.956028E-12
        88  14 -1.009588E+03 -1.688212E+05  4.304137E+04 -6.633034E+04  3.304959E-09  3.224357E-11
        88  15 -3.503618E+03 -1.577357E+05  2.415308E+04 -1.025093E+05  2.016142E-09  7.855973E-11
        88  16  1.407495E+05  8.539951E+04  1.544305E+05 -6.610081E+04 -4.176256E-11 -1.866004E-09
        88  17  9.849286E+04  2.384318E+05  1.338896E+05 -5.496252E+04  6.248229E-10  1.776577E-10
        88  18  1.363099E+05  4.143695E+05  1.506323E+05 -1.158535E+05  5.776676E-10  1.956361E-09
        88  19  2.108294E+04 -4.007232E+05  3.868895E+04 -1.382392E+05  5.250356E+03 -5.288760E+04
        88  20 -1.005221E+05 -5.759180E+05 -4.781428E+04 -7.769100E+04  1.957506E+04 -3.378355E+04
        88  21 -1.433376E+05 -7.295345E+05 -1.023442E+05 -8.917763E+04  2.947255E+04 -1.470595E+04
        88  22  8.091670E+04 -1.576871E+05  9.656734E+04 -1.021773E+05  5.306758E+03 -6.726298E+04
        88  23 -1.008648E+03 -1.688190E+05  4.304578E+04 -6.633104E+04  1.961541E+04 -4.432741E+04
        88  24 -3.502560E+03 -1.577350E+05  2.415558E+04 -1.025098E+05  2.949678E+04 -2.141381E+04
        88  25  1.407513E+05  8.540667E+04  1.544431E+05 -6.610116E+04  5.361478E+03 -8.164397E+04
        88  26  9.849409E+04  2.384351E+05  1.338959E+05 -5.496338E+04  1.965535E+04 -5.487810E+04
        88  27  1.363110E+05  4.143706E+05  1.506354E+05 -1.158541E+05  2.952129E+04 -2.812777E+04
        89   1 -1.683721E+05 -8.731056E+05 -1.400856E+05 -1.017162E+05 -3.447580E+04  9.519420E+03
        89   2 -2.138435E+05 -1.037918E+06 -1.876584E+05 -6.476980E+04 -4.334364E+04  7.747132E+03
        89   3 -2.560383E+05 -1.201944E+06 -2.333337E+05 -9.974691E+04 -5.023860E+04  5.991452E+03
        89   4  5.515921E+03 -1.624765E+05  1.830605E+04 -1.023873E+05 -3.450476E+04  1.804481E+04
        89   5  1.612062E+02 -1.630474E+05  6.849334E+03 -6.644086E+04 -4.336237E+04  1.456690E+04
        89   6 -1.620125E+03 -1.625607E+05 -1.523478E+03 -1.024115E+05 -5.024847E+04  1.110516E+04
        89   7  1.793697E+05  5.486242E+05  1.766663E+05 -1.030587E+05 -3.453372E+04  2.657986E+04
        89   8  2.141141E+05  7.125380E+05  2.013095E+05 -6.811366E+04 -4.338113E+04  2.139617E+04
        89   9  2.527246E+05  8.778314E+05  2.302191E+05 -1.050797E+05 -5.025838E+04  1.622733E+04
        89  10 -1.683734E+05 -8.731060E+05 -1.400880E+05 -1.017160E+05 -8.148168E-10  7.099481E-10
        89  11 -2.138456E+05 -1.037918E+06 -1.876620E+05 -6.476953E+04 -2.061422E-10  2.092280E-10
        89  12 -2.560410E+05 -1.201945E+06 -2.333385E+05 -9.974667E+04  2.286743E-10  7.356517E-11
        89  13  5.514556E+03 -1.624771E+05  1.830320E+04 -1.023868E+05  1.165423E-09  9.517169E-11
        89  14  1.591304E+02 -1.630481E+05  6.845402E+03 -6.644035E+04  9.767312E-11  1.097246E-10
        89  15 -1.622870E+03 -1.625615E+05 -1.528454E+03 -1.024110E+05  8.608154E-10  1.168301E-10
        89  16  1.793683E+05  5.486231E+05  1.766628E+05 -1.030580E+05  2.491810E-11 -7.095117E-10
        89  17  2.141120E+05  7.125370E+05  2.013051E+05 -6.811292E+04  7.323020E-10 -1.173160E-10
        89  18  2.527218E+05  8.778305E+05  2.302139E+05 -1.050790E+05 -7.055952E-13  1.381921E-10
        89  19 -1.683721E+05 -8.731056E+05 -1.400856E+05 -1.017162E+05  3.447580E+04 -9.519420E+03
        89  20 -2.138435E+05 -1.037918E+06 -1.876584E+05 -6.476980E+04  4.334364E+04 -7.747132E+03
        89  21 -2.560383E+05 -1.201944E+06 -2.333337E+05 -9.974691E+04  5.023860E+04 -5.991452E+03
        89  22  5.515921E+03 -1.624765E+05  1.830605E+04 -1.023873E+05  3.450476E+04 -1.804481E+04
        89  23  1.612062E+02 -1.630474E+05  6.849334E+03 -6.644086E+04  4.336237E+04 -1.456690E+04
        89  24 -1.620125E+03 -1.625607E+05 -1.523478E+03 -1.024115E+05  5.024847E+04 -1.110516E+04
        89  25  1.793697E+05  5.486242E+05  1.766663E+05 -1.030587E+05  3.453372E+04 -2.657986E+04
        89  26  2.141141E+05  7.125380E+05  2.013095E+05 -6.811366E+04  4.338113E+04 -2.139617E+04
        89  27  2.527246E+05  8.778314E+05  2.302191E+05 -1.050797E+05  5.025838E+04 -1.622733E+04
        90   1 -2.861931E+05 -1.343326E+06 -2.666783E+05 -9.508967E+04 -5.923922E+04 -5.448990E+03
        90   2 -3.282486E+05 -1.500962E+06 -3.164711E+05 -6.912546E+04 -5.911968E+04  3.649068E+04
        90   3 -4.046344E+05 -1.672334E+06 -4.021245E+05 -1.133495E+05 -1.923947E+04  7.849137E+04
        90   4  2.127943E+03 -1.645947E+05 -5.053314E+03 -1.019986E+05 -5.928000E+04  1.150813E+04
        90   5  4.704376E+02 -1.607691E+05 -1.429971E+04 -6.694269E+04 -5.906900E+04  1.918248E+04
        90   6 -2.952098E+04 -1.647226E+05 -3.555888E+04 -1.020697E+05 -1.913452E+04  2.693057E+04
        90   7  2.903552E+05  1.015436E+06  2.564864E+05 -1.089199E+05 -5.932111E+04  2.849712E+04
        90   8  3.290663E+05  1.181098E+06  2.877580E+05 -6.475408E+04 -5.901851E+04  1.837180E+03
        90   9  3.454271E+05  1.344973E+06  3.308523E+05 -9.076118E+04 -1.903158E+04 -2.475542E+04
        90  10 -2.861968E+05 -1.343327E+06 -2.666849E+05 -9.508993E+04  3.973227E-10 -1.402423E-10
        90  11 -3.282527E+05 -1.500965E+06 -3.164802E+05 -6.912372E+04  3.315967E-11  9.691640E-11
        90  12 -4.046365E+05 -1.672341E+06 -4.021368E+05 -1.133483E+05  5.477247E-10  3.682358E-10
        90  13  2.124134E+03 -1.645958E+05 -5.060165E+03 -1.019981E+05 -1.690755E-09  1.254633E-11
        90  14  4.665925E+02 -1.607705E+05 -1.430696E+04 -6.694177E+04 -8.418145E-10 -5.117277E-11
        90  15 -2.952156E+04 -1.647235E+05 -3.556093E+04 -1.020693E+05 -9.728076E-10  1.601715E-11
        90  16  2.903512E+05  1.015434E+06  2.564782E+05 -1.089185E+05  6.522301E-10  1.317427E-10
        90  17  3.290626E+05  1.181097E+06  2.877515E+05 -6.475399E+04 -1.457876E-10 -4.968844E-11
        90  18  3.454265E+05  1.344972E+06  3.308505E+05 -9.076156E+04  3.827655E-10 -4.131930E-10
        90  19 -2.861931E+05 -1.343326E+06 -2.666783E+05 -9.508967E+04  5.923922E+04  5.448990E+03
        90  20 -3.282486E+05 -1.500962E+06 -3.164711E+05 -6.912546E+04  5.911968E+04 -3.649068E+04
        90  21 -4.046344E+05 -1.672334E+06 -4.021245E+05 -1.133495E+05  1.923947E+04 -7.849137E+04
        90  22  2.127943E+03 -1.645947E+05 -5.053314E+03 -1.019986E+05  5.928000E+04 -1.150813E+04
        90  23  4.704376E+02 -1.607691E+05 -1.429971E+04 -6.694269E+04  5.906900E+04 -1.918248E+04
        90  24 -2.952098E+04 -1.647226E+05 -3.555888E+04 -1.020697E+05  1.913452E+04 -2.693057E+04
        90  25  2.903552E+05  1.015436E+06  2.564864E+05 -1.089199E+05  5.932111E+04 -2.849712E+04
        90  26  3.290663E+05  1.181098E+06  2.877580E+05 -6.475408E+04  5.901851E+04 -1.837180E+03
        90  27  3.454271E+05  1.344973E+06  3.308523E+05 -9.076118E+04  1.903158E+04  2.475542E+04
        91   1 -3.648791E+06 -1.345499E+06 -8.177518E+05 -1.293241E+06 -2.730255E+05 -7.339167E+04
        91   2 -3.510072E+06 -9.735326E+05 -5.680619E+05 -1.248209E+06 -1.795674E+05  2.603412E+04
        91   3 -3.431653E+06 -8.951092E+05 -4.713363E+05 -1.193720E+06 -6.574947E+04  7.189467E+04
        91   4 -1.830825E+06 -5.527658E+05 -3.092658E+05 -6.892688E+05 -2.068088E+05 -4.834716E+04
        91   5 -1.787979E+06 -2.924498E+05 -1.335040E+05 -7.385564E+05 -1.562580E+05  3.482170E+04
        91   6 -1.796620E+06 -3.167294E+05 -7.626257E+04 -7.784687E+05 -8.540280E+04  6.445813E+04
        91   7 -9.623030E+03  2.404841E+05  1.989244E+05 -8.358449E+04 -1.403776E+05 -2.319359E+04
        91   8 -6.295032E+04  3.889270E+05  3.008178E+05 -2.275795E+05 -1.328773E+05  4.363960E+04
        91   9 -1.589362E+05  2.617676E+05  3.186179E+05 -3.622474E+05 -1.051129E+05  5.700292E+04
        91  10 -3.648873E+06 -1.345525E+06 -8.179030E+05 -1.293257E+06 -4.045996E-10  1.444628E-10
        91  11 -3.510107E+06 -9.735420E+05 -5.681241E+05 -1.248205E+06 -1.523717E-09  3.362219E-10
        91  12 -3.431659E+06 -8.951159E+05 -4.713541E+05 -1.193716E+06 -1.671841E-09  9.480210E-11
        91  13 -1.830872E+06 -5.527798E+05 -3.093508E+05 -6.892769E+05 -1.844453E-11 -6.398401E-11
        91  14 -1.788006E+06 -2.924577E+05 -1.335523E+05 -7.385520E+05 -4.733434E-10  3.578988E-10
        91  15 -1.796629E+06 -3.167358E+05 -7.628409E+04 -7.784643E+05  1.035281E-09  4.614599E-10
        91  16 -9.644334E+03  2.404782E+05  1.988864E+05 -8.358711E+04 -9.095961E-10 -2.472477E-10
        91  17 -6.296978E+04  3.889202E+05  3.007811E+05 -2.275748E+05 -1.093539E-09 -1.420450E-10
        91  18 -1.589489E+05  2.617611E+05  3.185910E+05 -3.622426E+05  2.437221E-09  8.069930E-10
        91  19 -3.648791E+06 -1.345499E+06 -8.177518E+05 -1.293241E+06  2.730255E+05  7.339167E+04
        91  20 -3.510072E+06 -9.735326E+05 -5.680619E+05 -1.248209E+06  1.795674E+05 -2.603412E+04
        91  21 -3.431653E+06 -8.951092E+05 -4.713363E+05 -1.193720E+06  6.574947E+04 -7.189467E+04
        91  22 -1.830825E+06 -5.527658E+05 -3.092658E+05 -6.892688E+05  2.068088E+05  4.834716E+04
        91  23 -1.787979E+06 -2.924498E+05 -1.335040E+05 -7.385564E+05  1.562580E+05 -3.482170E+04
        91  24 -1.796620E+06 -3.167294E+05 -7.626257E+04 -7.784687E+05  8.540280E+04 -6.445813E+04
        91  25 -9.623030E+03  2.404841E+05  1.989244E+05 -8.358449E+04  1.403776E+05  2.319359E+04
        91  26 -6.295032E+04  3.889270E+05  3.008178E+05 -2.275795E+05  1.328773E+05 -4.363960E+04
        91  27 -1.589362E+05  2.617676E+05  3.186179E+05 -3.622474E+05  1.051129E+05 -5.700292E+04
        92   1 -3.264759E+06 -9.010941E+05 -4.265439E+05 -1.176452E+06 -6.815509E+04  5.904983E+04
        92   2 -3.141047E+06 -8.015946E+05 -3.593681E+05 -1.108672E+06 -4.826840E+04  6.026759E+04
        92   3 -2.974795E+06 -7.685166E+05 -3.097082E+05 -1.094120E+06 -2.742694E+04  5.891693E+04
        92   4 -1.786147E+06 -3.420041E+05 -6.071173E+04 -7.644223E+05 -7.162125E+04  5.772629E+04
        92   5 -1.806430E+06 -3.011325E+05 -3.102505E+04 -7.407418E+05 -5.376364E+04  5.818534E+04
        92   6 -1.783772E+06 -3.262486E+05 -1.720817E+04 -7.702934E+05 -3.495676E+04  5.607684E+04
        92   7 -3.053784E+05  2.172461E+05  3.049498E+05 -3.514935E+05 -7.509637E+04  5.639934E+04
        92   8 -4.700484E+05  1.994554E+05  2.971820E+05 -3.720883E+05 -5.927179E+04  5.609822E+04
        92   9 -5.913404E+05  1.161143E+05  2.751857E+05 -4.459003E+05 -4.250245E+04  5.323088E+04
        92  10 -3.264765E+06 -9.010991E+05 -4.265592E+05 -1.176449E+06  1.276379E-09  1.099747E-09
        92  11 -3.141051E+06 -8.015991E+05 -3.593793E+05 -1.108670E+06 -4.344953E-09 -2.755908E-09
        92  12 -2.974797E+06 -7.685205E+05 -3.097162E+05 -1.094118E+06 -1.509140E-08 -6.555189E-09
        92  13 -1.786153E+06 -3.420090E+05 -6.072763E+04 -7.644189E+05 -6.827326E-10  6.233507E-10
        92  14 -1.806434E+06 -3.011369E+05 -3.103684E+04 -7.407393E+05  1.942407E-09 -6.035407E-10
        92  15 -1.783774E+06 -3.262523E+05 -1.721637E+04 -7.702918E+05 -3.537421E-09 -2.210602E-09
        92  16 -3.053853E+05  2.172412E+05  3.049333E+05 -3.514901E+05 -3.766375E-10 -1.332544E-10
        92  17 -4.700531E+05  1.994511E+05  2.971695E+05 -3.720856E+05  4.923357E-09  1.749037E-09
        92  18 -5.913431E+05  1.161108E+05  2.751770E+05 -4.458985E+05  7.946363E-09  2.454362E-09
        92  19 -3.264759E+06 -9.010941E+05 -4.265439E+05 -1.176452E+06  6.815509E+04 -5.904983E+04
        92  20 -3.141047E+06 -8.015946E+05 -3.593681E+05 -1.108672E+06  4.826840E+04 -6.026759E+04
        92  21 -2.974795E+06 -7.685166E+05 -3.097082E+05 -1.094120E+06  2.742694E+04 -5.891693E+04
        92  22 -1.786147E+06 -3.420041E+05 -6.071173E+04 -7.644223E+05  7.162125E+04 -5.772629E+04
        92  23 -1.806430E+06 -3.011325E+05 -3.102505E+04 -7.407418E+05  5.376364E+04 -5.818534E+04
        92  24 -1.783772E+06 -3.262486E+05 -1.720817E+04 -7.702934E+05  3.495676E+04 -5.607684E+04
        92  25 -3.053784E+05  2.172461E+05  3.049498E+05 -3.514935E+05  7.509637E+04 -5.639934E+04
        92  26 -4.700484E+05  1.994554E+05  2.971820E+05 -3.720883E+05  5.927179E+04 -5.609822E+04
        92  27 -5.913404E+05  1.161143E+05  2.751857E+05 -4.459003E+05  4.250245E+04 -5.323088E+04
        93   1 -2.839754E+06 -7.226969E+05 -2.722864E+05 -1.059399E+06 -2.369594E+04  5.428580E+04
        93   2 -2.713706E+06 -6.389119E+05 -2.294584E+05 -9.883038E+05 -1.673271E+04  4.710398E+04
        93   3 -2.536524E+06 -6.077673E+05 -1.896014E+05 -9.760103E+05 -9.711187E+03  3.973157E+04
        93   4 -1.782567E+06 -3.281404E+05 -1.315976E+04 -7.696684E+05 -3.054814E+04  5.170442E+04
        93   5 -1.808005E+06 -3.012121E+05 -7.172581E+03 -7.404820E+05 -2.373136E+04  4.447279E+04
        93   6 -1.782305E+06 -3.268893E+05 -4.035422E+03 -7.700998E+05 -1.685737E+04  3.705044E+04
        93   7 -7.242741E+05  6.649290E+04  2.458822E+05 -4.794877E+05 -3.741312E+04  4.911825E+04
        93   8 -9.014947E+05  3.654256E+04  2.150505E+05 -4.923312E+05 -3.074117E+04  4.183743E+04
        93   9 -1.027527E+06 -4.597452E+04  1.814863E+05 -5.639624E+05 -2.401302E+04  3.436578E+04
        93  10 -2.839755E+06 -7.227002E+05 -2.722930E+05 -1.059398E+06  8.806356E-09  3.003905E-09
        93  11 -2.713707E+06 -6.389143E+05 -2.294631E+05 -9.883032E+05  2.438985E-09  7.042929E-10
        93  12 -2.536524E+06 -6.077690E+05 -1.896045E+05 -9.760100E+05 -8.631749E-09 -3.167474E-09
        93  13 -1.782569E+06 -3.281435E+05 -1.316653E+04 -7.696672E+05 -4.823726E-09 -2.135217E-09
        93  14 -1.808006E+06 -3.012144E+05 -7.177352E+03 -7.404812E+05  4.972596E-10 -6.527511E-10
        93  15 -1.782305E+06 -3.268909E+05 -4.038532E+03 -7.700993E+05 -1.178985E-09 -8.370910E-10
        93  16 -7.242762E+05  6.648994E+04  2.458751E+05 -4.794862E+05 -1.544465E-08 -6.664725E-09
        93  17 -9.014962E+05  3.654043E+04  2.150454E+05 -4.923301E+05 -2.841021E-09 -2.202335E-09
        93  18 -1.027528E+06 -4.597594E+04  1.814830E+05 -5.639617E+05  5.783462E-09  2.092586E-09
        93  19 -2.839754E+06 -7.226969E+05 -2.722864E+05 -1.059399E+06  2.369594E+04 -5.428580E+04
        93  20 -2.713706E+06 -6.389119E+05 -2.294584E+05 -9.883038E+05  1.673271E+04 -4.710398E+04
        93  21 -2.536524E+06 -6.077673E+05 -1.896014E+05 -9.760103E+05  9.711187E+03 -3.973157E+04
        93  22 -1.782567E+06 -3.281404E+05 -1.315976E+04 -7.696684E+05  3.054814E+04 -5.170442E+04
        93  23 -1.808005E+06 -3.012121E+05 -7.172581E+03 -7.404820E+05  2.373136E+04 -4.447279E+04
        93  24 -1.782305E+06 -3.268893E+05 -4.035422E+03 -7.700998E+05  1.685737E+04 -3.705044E+04
        93  25 -7.242741E+05  6.649290E+04  2.458822E+05 -4.794877E+05  3.741312E+04 -4.911825E+04
        93  26 -9.014947E+05  3.654256E+04  2.150505E+05 -4.923312E+05  3.074117E+04 -4.183743E+04
        93  27 -1.027527E+06 -4.597452E+04  1.814863E+05 -5.639624E+05  2.401302E+04 -3.436578E+04
        94   1 -2.400711E+06 -5.574960E+05 -1.543835E+05 -9.393539E+05 -7.177008E+03  3.478759E+04
        94   2 -2.272215E+06 -4.735585E+05 -1.158347E+05 -8.669366E+05 -2.798652E+03  2.628479E+04
        94   3 -2.091290E+06 -4.421694E+05 -7.806319E+04 -8.547385E+05  1.589372E+03  1.773705E+04
        94   4 -1.782023E+06 -3.271855E+05 -3.155637E+03 -7.702801E+05 -1.433217E+04  3.210567E+04
        94   5 -1.808187E+06 -3.008081E+05 -2.028287E+03 -7.401972E+05 -9.989016E+03  2.359236E+04
        94   6 -1.781948E+06 -3.269718E+05 -1.650491E+03 -7.703402E+05 -5.636549E+03  1.503418E+04
        94   7 -1.162951E+06 -9.684722E+04  1.480448E+05 -6.010513E+05 -2.149519E+04  2.942080E+04
        94   8 -1.343948E+06 -1.280436E+05  1.117616E+05 -6.133719E+05 -1.718524E+04  2.089774E+04
        94   9 -1.472515E+06 -2.117694E+05  7.475393E+04 -6.859048E+05 -1.286631E+04  1.232987E+04
        94  10 -2.400712E+06 -5.574973E+05 -1.543858E+05 -9.393537E+05  2.882981E-09  1.571611E-09
        94  11 -2.272215E+06 -4.735593E+05 -1.158360E+05 -8.669365E+05  5.253650E-09  1.732545E-09
        94  12 -2.091290E+06 -4.421697E+05 -7.806378E+04 -8.547385E+05  4.088978E-10 -2.348866E-10
        94  13 -1.782023E+06 -3.271867E+05 -3.157958E+03 -7.702797E+05 -1.267097E-09 -2.476059E-10
        94  14 -1.808188E+06 -3.008087E+05 -2.029520E+03 -7.401970E+05  5.579648E-10  6.032155E-10
        94  15 -1.781948E+06 -3.269720E+05 -1.650975E+03 -7.703402E+05  8.654599E-10  3.312705E-10
        94  16 -1.162952E+06 -9.684827E+04  1.480423E+05 -6.010508E+05 -7.699038E-09 -2.609922E-09
        94  17 -1.343948E+06 -1.280441E+05  1.117603E+05 -6.133716E+05 -3.100876E-09 -5.952222E-10
        94  18 -1.472515E+06 -2.117696E+05  7.475333E+04 -6.859046E+05  7.560936E-10  1.714554E-10
        94  19 -2.400711E+06 -5.574960E+05 -1.543835E+05 -9.393539E+05  7.177008E+03 -3.478759E+04
        94  20 -2.272215E+06 -4.735585E+05 -1.158347E+05 -8.669366E+05  2.798652E+03 -2.628479E+04
        94  21 -2.091290E+06 -4.421694E+05 -7.806319E+04 -8.547385E+05 -1.589372E+03 -1.773705E+04
        94  22 -1.782023E+06 -3.271855E+05 -3.155637E+03 -7.702801E+05  1.433217E+04 -3.210567E+04
        94  23 -1.808187E+06 -3.008081E+05 -2.028287E+03 -7.401972E+05  9.989016E+03 -2.359236E+04
        94  24 -1.781948E+06 -3.269718E+05 -1.650491E+03 -7.703402E+05  5.636549E+03 -1.503418E+04
        94  25 -1.162951E+06 -9.684722E+04  1.480448E+05 -6.010513E+05  2.149519E+04 -2.942080E+04
        94  26 -1.343948E+06 -1.280436E+05  1.117616E+05 -6.133719E+05  1.718524E+04 -2.089774E+04
        94  27 -1.472515E+06 -2.117694E+05  7.475393E+04 -6.859048E+05  1.286631E+04 -1.232987E+04
        95   1 -1.953989E+06 -3.910149E+05 -4.335073E+04 -8.174824E+05  3.834093E+03  1.262511E+04
        95   2 -1.824476E+06 -3.067374E+05 -6.272593E+03 -7.445920E+05  8.320659E+03  4.073636E+03
        95   3 -1.642370E+06 -2.753495E+05  2.992965E+04 -7.323634E+05  1.280629E+04 -4.474792E+03
        95   4 -1.781896E+06 -3.270464E+05 -1.704923E+03 -7.704342E+05 -3.407644E+03  9.917248E+03
        95   5 -1.808183E+06 -3.006228E+05 -2.269345E+03 -7.400895E+05  1.080487E+03  1.366357E+03
        95   6 -1.781899E+06 -3.270911E+05 -3.709546E+03 -7.704164E+05  5.567351E+03 -7.181520E+03
        95   7 -1.609772E+06 -2.630754E+05  3.993920E+04 -7.233739E+05 -1.065162E+04  7.208549E+03
        95   8 -1.791889E+06 -2.945081E+05  1.734157E+03 -7.355867E+05 -6.159970E+03 -1.341031E+03
        95   9 -1.921411E+06 -3.788320E+05 -3.735054E+04 -8.084621E+05 -1.669922E+03 -9.887626E+03
        95  10 -1.953989E+06 -3.910151E+05 -4.335106E+04 -8.174824E+05 -4.735615E-10 -5.146808E-10
        95  11 -1.824476E+06 -3.067374E+05 -6.272755E+03 -7.445920E+05  5.267527E-10 -3.719882E-10
        95  12 -1.642370E+06 -2.753496E+05  2.992931E+04 -7.323634E+05 -9.074554E-10 -6.651536E-10
        95  13 -1.781896E+06 -3.270465E+05 -1.705130E+03 -7.704342E+05  1.556377E-09 -2.383788E-10
        95  14 -1.808183E+06 -3.006228E+05 -2.269351E+03 -7.400895E+05  2.960951E-09  6.579163E-10
        95  15 -1.781899E+06 -3.270911E+05 -3.709701E+03 -7.704164E+05 -2.377398E-09 -8.745828E-10
        95  16 -1.609772E+06 -2.630754E+05  3.993889E+04 -7.233738E+05  1.553285E-10  2.419804E-10
        95  17 -1.791889E+06 -2.945081E+05  1.734082E+03 -7.355867E+05 -8.973911E-10 -1.020208E-11
        95  18 -1.921411E+06 -3.788321E+05 -3.735073E+04 -8.084621E+05 -4.983769E-09 -1.691346E-09
        95  19 -1.953989E+06 -3.910149E+05 -4.335073E+04 -8.174824E+05 -3.834093E+03 -1.262511E+04
        95  20 -1.824476E+06 -3.067374E+05 -6.272593E+03 -7.445920E+05 -8.320659E+03 -4.073636E+03
        95  21 -1.642370E+06 -2.753495E+05  2.992965E+04 -7.323634E+05 -1.280629E+04  4.474792E+03
        95  22 -1.781896E+06 -3.270464E+05 -1.704923E+03 -7.704342E+05  3.407644E+03 -9.917248E+03
        95  23 -1.808183E+06 -3.006228E+05 -2.269345E+03 -7.400895E+05 -1.080487E+03 -1.366357E+03
        95  24 -1.781899E+06 -3.270911E+05 -3.709546E+03 -7.704164E+05 -5.567351E+03  7.181520E+03
        95  25 -1.609772E+06 -2.630754E+05  3.993920E+04 -7.233739E+05  1.065162E+04 -7.208549E+03
        95  26 -1.791889E+06 -2.945081E+05  1.734157E+03 -7.355867E+05  6.159970E+03  1.341031E+03
        95  27 -1.921411E+06 -3.788320E+05 -3.735054E+04 -8.084621E+05  1.669922E+03  9.887626E+03
        96   1 -1.505118E+06 -2.240940E+05  6.357905E+04 -6.951688E+05  1.547687E+04 -9.436503E+03
        96   2 -1.376189E+06 -1.400699E+05  9.725754E+04 -6.223169E+05  2.301016E+04 -1.678948E+04
        96   3 -1.195691E+06 -1.098749E+05  1.274809E+05 -6.095721E+05  3.050507E+04 -2.401888E+04
        96   4 -1.782094E+06 -3.269312E+05 -4.816692E+03 -7.704400E+05  8.223195E+03 -1.214953E+04
        96   5 -1.807971E+06 -3.006419E+05 -8.565781E+03 -7.401527E+05  1.585117E+04 -1.946965E+04
        96   6 -1.782318E+06 -3.282043E+05 -1.584538E+04 -7.699837E+05  2.343962E+04 -2.666651E+04
        96   7 -2.058991E+06 -4.297620E+05 -7.321706E+04 -8.456796E+05  9.731574E+02 -1.486120E+04
        96   8 -2.239564E+06 -4.612001E+05 -1.144021E+05 -8.579130E+05  8.697675E+03 -2.214777E+04
        96   9 -2.368604E+06 -5.465098E+05 -1.591971E+05 -9.302569E+05  1.638147E+04 -2.931139E+04
        96  10 -1.505119E+06 -2.240941E+05  6.357843E+04 -6.951687E+05 -3.033768E-09 -1.045212E-09
        96  11 -1.376190E+06 -1.400703E+05  9.725601E+04 -6.223166E+05 -4.841410E-10  1.110198E-10
        96  12 -1.195692E+06 -1.098758E+05  1.274781E+05 -6.095715E+05 -2.053697E-11  8.281585E-10
        96  13 -1.782094E+06 -3.269314E+05 -4.817096E+03 -7.704399E+05 -2.525600E-09 -7.202800E-10
        96  14 -1.807971E+06 -3.006423E+05 -8.566965E+03 -7.401524E+05 -6.780125E-10 -4.089955E-10
        96  15 -1.782319E+06 -3.282052E+05 -1.584775E+04 -7.699832E+05  2.085184E-09  5.145173E-10
        96  16 -2.058991E+06 -4.297622E+05 -7.321748E+04 -8.456796E+05 -1.555713E-09 -8.128829E-10
        96  17 -2.239565E+06 -4.612006E+05 -1.144032E+05 -8.579128E+05 -7.458821E-10  3.305914E-11
        96  18 -2.368605E+06 -5.465108E+05 -1.591993E+05 -9.302565E+05  5.150089E-10  7.401818E-10
        96  19 -1.505118E+06 -2.240940E+05  6.357905E+04 -6.951688E+05 -1.547687E+04  9.436503E+03
        96  20 -1.376189E+06 -1.400699E+05  9.725754E+04 -6.223169E+05 -2.301016E+04  1.678948E+04
        96  21 -1.195691E+06 -1.098749E+05  1.274809E+05 -6.095721E+05 -3.050507E+04  2.401888E+04
        96  22 -1.782094E+06 -3.269312E+05 -4.816692E+03 -7.704400E+05 -8.223195E+03  1.214953E+04
        96  23 -1.807971E+06 -3.006419E+05 -8.565781E+03 -7.401527E+05 -1.585117E+04  1.946965E+04
        96  24 -1.782318E+06 -3.282043E+05 -1.584538E+04 -7.699837E+05 -2.343962E+04  2.666651E+04
        96  25 -2.058991E+06 -4.297620E+05 -7.321706E+04 -8.456796E+05 -9.731574E+02  1.486120E+04
        96  26 -2.239564E+06 -4.612001E+05 -1.144021E+05 -8.579130E+05 -8.697675E+03  2.214777E+04
        96  27 -2.368604E+06 -5.465098E+05 -1.591971E+05 -9.302569E+05 -1.638147E+04  2.931139E+04
        97   1 -1.058884E+06 -5.934115E+04  1.568369E+05 -5.761013E+05  3.597791E+04 -2.807848E+04
        97   2 -9.328413E+05  2.703621E+04  1.772213E+05 -4.993839E+05  5.655868E+04 -2.996288E+04
        97   3 -7.641891E+05  4.274831E+04  1.795590E+05 -4.773528E+05  7.641382E+04 -2.986617E+04
        97   4 -1.783591E+06 -3.261421E+05 -2.075422E+04 -7.710005E+05  2.836971E+04 -3.093169E+04
        97   5 -1.806101E+06 -3.000338E+05 -3.731963E+04 -7.401500E+05  5.052063E+04 -3.223296E+04
        97   6 -1.786349E+06 -3.449320E+05 -7.319976E+04 -7.640024E+05  7.194084E+04 -3.155364E+04
        97   7 -2.507785E+06 -5.929120E+05 -1.983858E+05 -9.656949E+05  2.077118E+04 -3.378138E+04
        97   8 -2.678609E+06 -6.270509E+05 -2.519191E+05 -9.806077E+05  4.449182E+04 -3.449953E+04
        97   9 -2.807477E+06 -7.325320E+05 -3.260391E+05 -1.050219E+06  6.747586E+04 -3.323801E+04
        97  10 -1.058885E+06 -5.934235E+04  1.568329E+05 -5.761005E+05  1.523280E-09  2.360596E-10
        97  11 -9.328450E+05  2.703439E+04  1.772136E+05 -4.993825E+05 -1.161662E-10 -3.873626E-10
        97  12 -7.641956E+05  4.274578E+04  1.795463E+05 -4.773510E+05 -1.124981E-10 -3.806545E-10
        97  13 -1.783593E+06 -3.261433E+05 -2.075753E+04 -7.709998E+05  8.637982E-10  2.260142E-10
        97  14 -1.806104E+06 -3.000356E+05 -3.732639E+04 -7.401487E+05  1.478416E-09 -2.375698E-10
        97  15 -1.786355E+06 -3.449344E+05 -7.321137E+04 -7.640006E+05 -1.932331E-10 -1.045006E-10
        97  16 -2.507786E+06 -5.929134E+05 -1.983888E+05 -9.656944E+05  6.465970E-11  4.213535E-10
        97  17 -2.678611E+06 -6.270527E+05 -2.519251E+05 -9.806064E+05  1.004944E-09 -1.433654E-10
        97  18 -2.807482E+06 -7.325344E+05 -3.260497E+05 -1.050217E+06 -7.962841E-11  2.925051E-10
        97  19 -1.058884E+06 -5.934115E+04  1.568369E+05 -5.761013E+05 -3.597791E+04  2.807848E+04
        97  20 -9.328413E+05  2.703621E+04  1.772213E+05 -4.993839E+05 -5.655868E+04  2.996288E+04
        97  21 -7.641891E+05  4.274831E+04  1.795590E+05 -4.773528E+05 -7.641382E+04  2.986617E+04
        97  22 -1.783591E+06 -3.261421E+05 -2.075422E+04 -7.710005E+05 -2.836971E+04  3.093169E+04
        97  23 -1.806101E+06 -3.000338E+05 -3.731963E+04 -7.401500E+05 -5.052063E+04  3.223296E+04
        97  24 -1.786349E+06 -3.449320E+05 -7.319976E+04 -7.640024E+05 -7.194084E+04  3.155364E+04
        97  25 -2.507785E+06 -5.929120E+05 -1.983858E+05 -9.656949E+05 -2.077118E+04  3.378138E+04
        97  26 -2.678609E+06 -6.270509E+05 -2.519191E+05 -9.806077E+05 -4.449182E+04  3.449953E+04
        97  27 -2.807477E+06 -7.325320E+05 -3.260391E+05 -1.050219E+06 -6.747586E+04  3.323801E+04
        98   1 -6.087336E+05  8.807143E+04  1.919897E+05 -4.972721E+05  1.044480E+05 -3.005911E+04
        98   2 -5.089364E+05  2.290139E+05  1.630011E+05 -3.446783E+05  1.576295E+05 -1.032592E+04
        98   3 -4.722995E+05  4.002393E+04  1.754544E+04 -1.737083E+05  1.951542E+05  5.100609E+04
        98   4 -1.798688E+06 -3.147591E+05 -9.197050E+04 -7.813574E+05  8.734882E+04 -3.648629E+04
        98   5 -1.784061E+06 -2.888228E+05 -1.608297E+05 -7.369708E+05  1.739922E+05 -4.191118E+03
        98   6 -1.839501E+06 -5.998770E+05 -3.729197E+05 -6.741723E+05  2.449485E+05  6.972318E+04
        98   7 -2.987240E+06 -7.175501E+05 -3.760288E+05 -1.064972E+06  7.028546E+04 -4.290289E+04
        98   8 -3.057573E+06 -8.064665E+05 -4.847904E+05 -1.128500E+06  1.903180E+05  1.926987E+03
        98   9 -3.204848E+06 -1.239352E+06 -7.635532E+05 -1.173539E+06  2.946221E+05  8.836972E+04
        98  10 -6.087456E+05  8.806753E+04  1.919675E+05 -4.972695E+05 -3.715551E-10  8.988427E-11
        98  11 -5.089631E+05  2.290071E+05  1.629542E+05 -3.446770E+05 -6.648409E-11  3.541287E-10
        98  12 -4.723411E+05  4.001090E+04  1.746892E+04 -1.737164E+05  6.096192E-10  2.110905E-11
        98  13 -1.798697E+06 -3.147626E+05 -9.198736E+04 -7.813549E+05 -2.041448E-10  2.064539E-10
        98  14 -1.784093E+06 -2.888310E+05 -1.608868E+05 -7.369702E+05  9.855456E-10  6.549777E-11
        98  15 -1.839567E+06 -5.998984E+05 -3.730420E+05 -6.741861E+05  1.252443E-09 -1.311660E-10
        98  16 -2.987246E+06 -7.175534E+05 -3.760415E+05 -1.064970E+06  6.762494E-10  7.267056E-12
        98  17 -3.057612E+06 -8.064763E+05 -4.848588E+05 -1.128500E+06  5.832012E-10 -7.019028E-10
        98  18 -3.204944E+06 -1.239384E+06 -7.637320E+05 -1.173560E+06 -2.608866E-10 -4.378159E-10
        98  19 -6.087336E+05  8.807143E+04  1.919897E+05 -4.972721E+05 -1.044480E+05  3.005911E+04
        98  20 -5.089364E+05  2.290139E+05  1.630011E+05 -3.446783E+05 -1.576295E+05  1.032592E+04
        98  21 -4.722995E+05  4.002393E+04  1.754544E+04 -1.737083E+05 -1.951542E+05 -5.100609E+04
        98  22 -1.798688E+06 -3.147591E+05 -9.197050E+04 -7.813574E+05 -8.734882E+04  3.648629E+04
        98  23 -1.784061E+06 -2.888228E+05 -1.608297E+05 -7.369708E+05 -1.739922E+05  4.191118E+03
        98  24 -1.839501E+06 -5.998770E+05 -3.729197E+05 -6.741723E+05 -2.449485E+05 -6.972318E+04
        98  25 -2.987240E+06 -7.175501E+05 -3.760288E+05 -1.064972E+06 -7.028546E+04  4.290289E+04
        98  26 -3.057573E+06 -8.064665E+05 -4.847904E+05 -1.128500E+06 -1.903180E+05 -1.926987E+03
        98  27 -3.204848E+06 -1.239352E+06 -7.635532E+05 -1.173539E+06 -2.946221E+05 -8.836972E+04
        99   1 -1.306374E+06 -2.177111E+05 -1.867579E+05 -1.695559E+04  4.570717E+04  1.718947E+04
        99   2 -1.213188E+06 -2.997745E+05 -2.123158E+05 -2.748175E+04  4.308574E+04  5.374059E+04
        99   3 -1.092701E+06 -2.770260E+05 -2.098371E+05 -8.326760E+04  4.052469E+04  5.589593E+04
        99   4  1.549179E+04  1.108509E+05  1.342909E+05 -6.646636E+04  9.221161E+04  1.726347E+04
        99   5 -6.713978E+02 -2.518093E+03  6.082149E+04 -4.375697E+04  5.986813E+04  5.375396E+04
        99   6  1.556321E+04 -6.026166E+03  3.598901E+04 -6.629923E+04  2.758766E+04  5.587851E+04
        99   7  1.338965E+06  4.392950E+05  4.552229E+05 -1.160836E+05  1.388148E+05  1.732997E+04
        99   8  1.213216E+06  2.946387E+05  3.338662E+05 -6.006474E+04  7.668293E+04  5.376645E+04
        99   9  1.124976E+06  2.648917E+05  2.817397E+05 -4.930036E+04  1.462774E+04  5.586040E+04
        99  10 -1.306376E+06 -2.177120E+05 -1.867624E+05 -1.695622E+04  1.351821E-09  1.466898E-10
        99  11 -1.213191E+06 -2.997781E+05 -2.123247E+05 -2.748362E+04 -5.203728E-10 -7.582521E-10
        99  12 -1.092703E+06 -2.770297E+05 -2.098461E+05 -8.326943E+04 -1.286898E-09  3.386911E-10
        99  13  1.548258E+04  1.108483E+05  1.342744E+05 -6.646764E+04  1.070517E-09 -7.870829E-10
        99  14 -6.760223E+02 -2.522158E+03  6.080933E+04 -4.375956E+04 -5.463186E-10 -5.766309E-10
        99  15  1.556155E+04 -6.029723E+03  3.598172E+04 -6.630047E+04  1.024255E-09  2.651619E-10
        99  16  1.338944E+06  4.392896E+05  4.551862E+05 -1.160856E+05 -6.751828E-11  3.264125E-10
        99  17  1.213209E+06  2.946340E+05  3.338497E+05 -6.006806E+04 -1.117998E-09 -1.003616E-09
        99  18  1.124975E+06  2.648883E+05  2.817334E+05 -4.930102E+04  1.296063E-09  3.942422E-10
        99  19 -1.306374E+06 -2.177111E+05 -1.867579E+05 -1.695559E+04 -4.570717E+04 -1.718947E+04
        99  20 -1.213188E+06 -2.997745E+05 -2.123158E+05 -2.748175E+04 -4.308574E+04 -5.374059E+04
        99  21 -1.092701E+06 -2.770260E+05 -2.098371E+05 -8.326760E+04 -4.052469E+04 -5.589593E+04
        99  22  1.549179E+04  1.108509E+05  1.342909E+05 -6.646636E+04 -9.221161E+04 -1.726347E+04
        99  23 -6.713978E+02 -2.518093E+03  6.082149E+04 -4.375697E+04 -5.986813E+04 -5.375396E+04
        99  24  1.556321E+04 -6.026166E+03  3.598901E+04 -6.629923E+04 -2.758766E+04 -5.587851E+04
        99  25  1.338965E+06  4.392950E+05  4.552229E+05 -1.160836E+05 -1.388148E+05 -1.732997E+04
        99  26  1.213216E+06  2.946387E+05  3.338662E+05 -6.006474E+04 -7.668293E+04 -5.376645E+04
        99  27  1.124976E+06  2.648917E+05  2.817397E+05 -4.930036E+04 -1.462774E+04 -5.586040E+04
       100   1 -1.008756E+06 -2.428009E+05 -1.982635E+05 -6.487809E+04  2.516664E+04  4.919000E+04
       100   2 -9.037543E+05 -2.233594E+05 -1.871099E+05 -4.309331E+04  1.875987E+04  4.522345E+04
       100   3 -7.958914E+05 -1.973725E+05 -1.700571E+05 -6.785526E+04  1.234632E+04  3.972121E+04
       100   4  9.091216E+03  6.278980E+03  2.868780E+04 -6.663062E+04  2.243483E+04  4.918232E+04
       100   5  7.580606E+03 -4.891681E+02  1.541090E+04 -4.335811E+04  1.469120E+04  4.521721E+04
       100   6  9.146821E+03 -4.854845E+02  8.954200E+03 -6.662784E+04  6.941854E+03  3.971746E+04
       100   7  1.027905E+06  2.552885E+05  2.555742E+05 -6.838616E+04  1.969855E+04  4.917466E+04
       100   8  9.196911E+05  2.223248E+05  2.178800E+05 -4.362334E+04  1.061660E+04  4.521099E+04
       100   9  8.147902E+05  1.963576E+05  1.879252E+05 -6.539879E+04  1.530445E+03  3.971370E+04
       100  10 -1.008757E+06 -2.428037E+05 -1.982692E+05 -6.487909E+04  7.838421E-10  2.591517E-10
       100  11 -9.037552E+05 -2.233617E+05 -1.871144E+05 -4.309400E+04  6.016377E-10 -5.672758E-10
       100  12 -7.958920E+05 -1.973742E+05 -1.700604E+05 -6.785565E+04  8.641377E-10 -1.161218E-10
       100  13  9.090026E+03  6.276247E+03  2.868230E+04 -6.663151E+04  1.073642E-09 -5.243087E-11
       100  14  7.579825E+03 -4.914216E+02  1.540665E+04 -4.335864E+04  2.692009E-09 -7.906705E-11
       100  15  9.146346E+03 -4.871914E+02  8.951145E+03 -6.662806E+04  9.705353E-10 -3.973202E-10
       100  16  1.027904E+06  2.552858E+05  2.555689E+05 -6.838694E+04  1.518286E-09  1.006453E-09
       100  17  9.196905E+05  2.223226E+05  2.178759E+05 -4.362372E+04  2.328485E-09  1.174566E-10
       100  18  8.147897E+05  1.963560E+05  1.879222E+05 -6.539884E+04  2.049929E-09 -6.778179E-10
       100  19 -1.008756E+06 -2.428009E+05 -1.982635E+05 -6.487809E+04 -2.516664E+04 -4.919000E+04
       100  20 -9.037543E+05 -2.233594E+05 -1.871099E+05 -4.309331E+04 -1.875987E+04 -4.522345E+04
       100  21 -7.958914E+05 -1.973725E+05 -1.700571E+05 -6.785526E+04 -1.234632E+04 -3.972121E+04
       100  22  9.091216E+03  6.278980E+03  2.868780E+04 -6.663062E+04 -2.243483E+04 -4.918232E+04
       100  23  7.580606E+03 -4.891681E+02  1.541090E+04 -4.335811E+04 -1.469120E+04 -4.521721E+04
       100  24  9.146821E+03 -4.854845E+02  8.954200E+03 -6.662784E+04 -6.941854E+03 -3.971746E+04
       100  25  1.027905E+06  2.552885E+05  2.555742E+05 -6.838616E+04 -1.969855E+04 -4.917466E+04
       100  26  9.196911E+05  2.223248E+05  2.178800E+05 -4.362334E+04 -1.061660E+04 -4.521099E+04
       100  27  8.147902E+05  1.963576E+05  1.879252E+05 -6.539879E+04 -1.530445E+03 -3.971370E+04
       101   1 -7.066506E+05 -1.745765E+05 -1.516726E+05 -6.665860E+04  1.049760E+04  3.616492E+04
       101   2 -6.004618E+05 -1.489517E+05 -1.312716E+05 -4.330875E+04  8.628128E+03  3.039322E+04
       101   3 -4.937895E+05 -1.228773E+05 -1.095135E+05 -6.655169E+04  6.753560E+03  2.455326E+04
       101   4  8.601794E+03  2.434603E+02  6.871687E+03 -6.663916E+04  5.548586E+03  3.616263E+04
       101   5  8.379051E+03 -1.064754E+02  3.894946E+03 -4.334423E+04  3.617768E+03  3.039278E+04
       101   6  8.639090E+03  4.131369E+00  2.316931E+03 -6.663930E+04  1.682172E+03  2.455475E+04
       101   7  7.243322E+05  1.750289E+05  1.653844E+05 -6.661966E+04  5.939225E+02  3.616034E+04
       101   8  6.175660E+05  1.487137E+05  1.390385E+05 -4.337970E+04 -1.397456E+03  3.039234E+04
       101   9  5.113033E+05  1.228684E+05  1.141317E+05 -6.672694E+04 -3.393278E+03  2.455623E+04
       101  10 -7.066511E+05 -1.745780E+05 -1.516753E+05 -6.665891E+04  1.126358E-09  4.701751E-10
       101  11 -6.004621E+05 -1.489527E+05 -1.312735E+05 -4.330896E+04  3.391397E-10 -4.464146E-11
       101  12 -4.937897E+05 -1.228779E+05 -1.095147E+05 -6.655183E+04 -9.377112E-10  3.536608E-10
       101  13  8.601410E+03  2.420478E+02  6.869171E+03 -6.663933E+04 -2.635744E-12  7.600608E-11
       101  14  8.378789E+03 -1.074709E+02  3.893186E+03 -4.334431E+04  2.690492E-09  4.442355E-10
       101  15  8.638925E+03  3.483153E+00  2.315793E+03 -6.663933E+04 -1.019441E-10  9.281933E-10
       101  16  7.243318E+05  1.750275E+05  1.653819E+05 -6.661968E+04  9.994303E-10 -2.205954E-10
       101  17  6.175658E+05  1.487127E+05  1.390368E+05 -4.337966E+04  1.284445E-09  5.977989E-10
       101  18  5.113031E+05  1.228678E+05  1.141306E+05 -6.672687E+04  2.116539E-10  4.742031E-10
       101  19 -7.066506E+05 -1.745765E+05 -1.516726E+05 -6.665860E+04 -1.049760E+04 -3.616492E+04
       101  20 -6.004618E+05 -1.489517E+05 -1.312716E+05 -4.330875E+04 -8.628128E+03 -3.039322E+04
       101  21 -4.937895E+05 -1.228773E+05 -1.095135E+05 -6.655169E+04 -6.753560E+03 -2.455326E+04
       101  22  8.601794E+03  2.434603E+02  6.871687E+03 -6.663916E+04 -5.548586E+03 -3.616263E+04
       101  23  8.379051E+03 -1.064754E+02  3.894946E+03 -4.334423E+04 -3.617768E+03 -3.039278E+04
       101  24  8.639090E+03  4.131369E+00  2.316931E+03 -6.663930E+04 -1.682172E+03 -2.455475E+04
       101  25  7.243322E+05  1.750289E+05  1.653844E+05 -6.661966E+04 -5.939225E+02 -3.616034E+04
       101  26  6.175660E+05  1.487137E+05  1.390385E+05 -4.337970E+04  1.397456E+03 -3.039234E+04
       101  27  5.113033E+05  1.228684E+05  1.141317E+05 -6.672694E+04  3.393278E+03 -2.455623E+04
       102   1 -4.040940E+05 -1.007659E+05 -8.949042E+04 -6.649950E+04  6.359538E+03  2.113873E+04
       102   2 -2.976827E+05 -7.482216E+04 -6.679903E+04 -4.321204E+04  5.782088E+03  1.528769E+04
       102   3 -1.912049E+05 -4.879034E+04 -4.372003E+04 -6.651269E+04  5.202140E+03  9.433737E+03
       102   4  8.563609E+03  4.471529E+01  1.805631E+03 -6.663853E+04  1.308033E+03  2.114109E+04
       102   5  8.543988E+03  2.768870E+01  1.169208E+03 -4.334517E+04  7.273784E+02  1.529098E+04
       102   6  8.582374E+03  1.003385E+02  9.232126E+02 -6.663852E+04  1.443216E+02  9.437996E+03
       102   7  4.213803E+05  1.008439E+05  9.309125E+04 -6.677763E+04 -3.746794E+03  2.114346E+04
       102   8  3.148583E+05  7.487121E+04  6.913171E+04 -4.347835E+04 -4.329798E+03  1.529427E+04
       102   9  2.084069E+05  4.898831E+04  4.556404E+04 -6.676438E+04 -4.915107E+03  9.442256E+03
       102  10 -4.040941E+05 -1.007664E+05 -8.949133E+04 -6.649961E+04  1.243662E-09  6.706528E-10
       102  11 -2.976828E+05 -7.482242E+04 -6.679953E+04 -4.321211E+04  3.910844E-10  1.714475E-11
       102  12 -1.912049E+05 -4.879044E+04 -4.372025E+04 -6.651273E+04 -2.357065E-09 -7.324624E-10
       102  13  8.563487E+03  4.423488E+01  1.804787E+03 -6.663856E+04  1.117765E-12 -2.858540E-10
       102  14  8.543924E+03  2.743748E+01  1.168768E+03 -4.334518E+04 -1.078631E-09  8.261718E-12
       102  15  8.582350E+03  1.002428E+02  9.230452E+02 -6.663852E+04 -4.356476E-10 -1.955928E-10
       102  16  4.213802E+05  1.008434E+05  9.309038E+04 -6.677756E+04 -7.040226E-12 -7.009033E-11
       102  17  3.148582E+05  7.487095E+04  6.913123E+04 -4.347830E+04  4.117991E-10 -3.273041E-10
       102  18  2.084068E+05  4.898821E+04  4.556383E+04 -6.676434E+04  2.079592E-09  1.031106E-10
       102  19 -4.040940E+05 -1.007659E+05 -8.949042E+04 -6.649950E+04 -6.359538E+03 -2.113873E+04
       102  20 -2.976827E+05 -7.482216E+04 -6.679903E+04 -4.321204E+04 -5.782088E+03 -1.528769E+04
       102  21 -1.912049E+05 -4.879034E+04 -4.372003E+04 -6.651269E+04 -5.202140E+03 -9.433737E+03
       102  22  8.563609E+03  4.471529E+01  1.805631E+03 -6.663853E+04 -1.308033E+03 -2.114109E+04
       102  23  8.543988E+03  2.768870E+01  1.169208E+03 -4.334517E+04 -7.273784E+02 -1.529098E+04
       102  24  8.582374E+03  1.003385E+02  9.232126E+02 -6.663852E+04 -1.443216E+02 -9.437996E+03
       102  25  4.213803E+05  1.008439E+05  9.309125E+04 -6.677763E+04  3.746794E+03 -2.114346E+04
       102  26  3.148583E+05  7.487121E+04  6.913171E+04 -4.347835E+04  4.329798E+03 -1.529427E+04
       102  27  2.084069E+05  4.898831E+04  4.556404E+04 -6.676438E+04  4.915107E+03 -9.442256E+03
       103   1 -1.014176E+05 -2.671997E+04 -2.320406E+04 -6.656743E+04  5.032994E+03  6.025971E+03
       103   2  5.038188E+03 -8.040814E+02  2.970554E+02 -4.331887E+04  4.491888E+03  1.730242E+02
       103   3  1.115072E+05  2.520576E+04  2.415113E+04 -6.665877E+04  3.950658E+03 -5.677653E+03
       103   4  8.576051E+03  1.016427E+02  9.036694E+02 -6.663891E+04 -2.495092E+01  6.030530E+03
       103   5  8.575788E+03  6.044661E+01  1.081828E+03 -4.334468E+04 -5.645418E+02  1.775717E+02
       103   6  8.576268E+03  1.132254E+02  1.611871E+03 -6.663888E+04 -1.104167E+03 -5.673075E+03
       103   7  1.185811E+05  2.692246E+04  2.501076E+04 -6.671039E+04 -5.083781E+03  6.035090E+03
       103   8  1.211345E+04  9.249875E+02  1.866696E+03 -4.337049E+04 -5.621000E+03  1.821196E+02
       103   9 -9.434473E+04 -2.498000E+04 -2.092793E+04 -6.661900E+04 -6.158165E+03 -5.668497E+03
       103  10 -1.014176E+05 -2.672001E+04 -2.320418E+04 -6.656746E+04 -9.601616E-10  1.824167E-10
       103  11  5.038166E+03 -8.040869E+02  2.970175E+02 -4.331887E+04 -1.454813E-09  1.601939E-09
       103  12  1.115072E+05  2.520572E+04  2.415104E+04 -6.665875E+04 -3.297927E-10 -2.436436E-10
       103  13  8.576041E+03  1.016037E+02  9.036010E+02 -6.663891E+04  1.768576E-13  2.190929E-10
       103  14  8.575787E+03  6.044649E+01  1.081827E+03 -4.334468E+04 -1.074892E-09 -5.650692E-10
       103  15  8.576258E+03  1.131906E+02  1.611808E+03 -6.663889E+04  3.624127E-10  1.041798E-10
       103  16  1.185811E+05  2.692241E+04  2.501065E+04 -6.671037E+04  1.336748E-09  6.033680E-10
       103  17  1.211342E+04  9.249790E+02  1.866636E+03 -4.337049E+04  2.020602E-09 -9.215295E-10
       103  18 -9.434478E+04 -2.498004E+04 -2.092806E+04 -6.661903E+04  1.205357E-10 -3.364498E-10
       103  19 -1.014176E+05 -2.671997E+04 -2.320406E+04 -6.656743E+04 -5.032994E+03 -6.025971E+03
       103  20  5.038188E+03 -8.040814E+02  2.970554E+02 -4.331887E+04 -4.491888E+03 -1.730242E+02
       103  21  1.115072E+05  2.520576E+04  2.415113E+04 -6.665877E+04 -3.950658E+03  5.677653E+03
       103  22  8.576051E+03  1.016427E+02  9.036694E+02 -6.663891E+04  2.495092E+01 -6.030530E+03
       103  23  8.575788E+03  6.044661E+01  1.081828E+03 -4.334468E+04  5.645418E+02 -1.775717E+02
       103  24  8.576268E+03  1.132254E+02  1.611871E+03 -6.663888E+04  1.104167E+03  5.673075E+03
       103  25  1.185811E+05  2.692246E+04  2.501076E+04 -6.671039E+04  5.083781E+03 -6.035090E+03
       103  26  1.211345E+04  9.249875E+02  1.866696E+03 -4.337049E+04  5.621000E+03 -1.821196E+02
       103  27 -9.434473E+04 -2.498000E+04 -2.092793E+04 -6.661900E+04  6.158165E+03  5.668497E+03
       104   1  2.013827E+05  4.723866E+04  4.511642E+04 -6.665930E+04  3.633167E+03 -9.089260E+03
       104   2  3.077164E+05  7.311027E+04  6.982364E+04 -4.342130E+04  1.882453E+03 -1.492888E+04
       104   3  4.143550E+05  9.941838E+04  9.576692E+04 -6.676947E+04  1.338209E+02 -2.071551E+04
       104   4  8.633673E+03  7.976320E+01  2.046185E+03 -6.663876E+04 -1.437694E+03 -9.084954E+03
       104   5  8.481231E+03 -4.928469E+00  3.425901E+03 -4.334486E+04 -3.142248E+03 -1.492555E+04
       104   6  8.615346E+03  3.397635E+02  6.010592E+03 -6.663850E+04 -4.844428E+03 -2.071311E+04
       104   7 -1.840807E+05 -4.708165E+04 -4.102629E+04 -6.661821E+04 -6.506997E+03 -9.080649E+03
       104   8 -2.906703E+05 -7.312616E+04 -6.297731E+04 -4.326844E+04 -8.164556E+03 -1.492223E+04
       104   9 -3.969705E+05 -9.874993E+04 -8.375582E+04 -6.650758E+04 -9.819462E+03 -2.071072E+04
       104  10  2.013826E+05  4.723857E+04  4.511624E+04 -6.665928E+04 -4.787884E-10 -1.080371E-09
       104  11  3.077163E+05  7.311003E+04  6.982321E+04 -4.342128E+04 -8.817775E-10 -9.539756E-10
       104  12  4.143549E+05  9.941792E+04  9.576612E+04 -6.676947E+04  2.287742E-10  2.388913E-10
       104  13  8.633649E+03  7.967401E+01  2.046026E+03 -6.663877E+04 -2.154350E-09  6.791411E-11
       104  14  8.481160E+03 -5.170343E+00  3.425464E+03 -4.334490E+04  2.155018E-09 -7.453460E-10
       104  15  8.615205E+03  3.392964E+02  6.009742E+03 -6.663858E+04 -1.196261E-09 -6.116983E-10
       104  16 -1.840807E+05 -4.708175E+04 -4.102653E+04 -6.661826E+04  6.879740E-10  3.789106E-10
       104  17 -2.906705E+05 -7.312642E+04 -6.297785E+04 -4.326854E+04  1.292856E-09  1.047630E-09
       104  18 -3.969708E+05 -9.875042E+04 -8.375681E+04 -6.650775E+04 -2.810687E-10 -7.263075E-10
       104  19  2.013827E+05  4.723866E+04  4.511642E+04 -6.665930E+04 -3.633167E+03  9.089260E+03
       104  20  3.077164E+05  7.311027E+04  6.982364E+04 -4.342130E+04 -1.882453E+03  1.492888E+04
       104  21  4.143550E+05  9.941838E+04  9.576692E+04 -6.676947E+04 -1.338209E+02  2.071551E+04
       104  22  8.633673E+03  7.976320E+01  2.046185E+03 -6.663876E+04  1.437694E+03  9.084954E+03
       104  23  8.481231E+03 -4.928469E+00  3.425901E+03 -4.334486E+04  3.142248E+03  1.492555E+04
       104  24  8.615346E+03  3.397635E+02  6.010592E+03 -6.663850E+04  4.844428E+03  2.071311E+04
       104  25 -1.840807E+05 -4.708165E+04 -4.102629E+04 -6.661821E+04  6.506997E+03  9.080649E+03
       104  26 -2.906703E+05 -7.312616E+04 -6.297731E+04 -4.326844E+04  8.164556E+03  1.492223E+04
       104  27 -3.969705E+05 -9.874993E+04 -8.375582E+04 -6.650758E+04  9.819462E+03  2.071072E+04
       105   1  5.046967E+05  1.208424E+05  1.180551E+05 -6.578368E+04 -7.332951E+02 -2.423509E+04
       105   2  6.098849E+05  1.468100E+05  1.471661E+05 -4.396635E+04 -8.545661E+03 -2.980783E+04
       105   3  7.177383E+05  1.788986E+05  1.829113E+05 -6.869268E+04 -1.635468E+04 -3.419359E+04
       105   4  9.084249E+03 -2.945596E+02  7.823564E+03 -6.662994E+04 -6.064875E+03 -2.423336E+04
       105   5  7.825674E+03 -2.955187E+02  1.347698E+04 -4.335589E+04 -1.284514E+04 -2.980839E+04
       105   6  9.047521E+03  5.650221E+03  2.505380E+04 -6.662804E+04 -1.962075E+04 -3.419592E+04
       105   7 -4.862992E+05 -1.214481E+05 -1.024232E+05 -6.747548E+04 -1.139225E+04 -2.423161E+04
       105   8 -5.938955E+05 -1.474255E+05 -1.202346E+05 -4.274598E+04 -1.714049E+04 -2.980897E+04
       105   9 -6.991753E+05 -1.676322E+05 -1.328351E+05 -6.456573E+04 -2.288313E+04 -3.419827E+04
       105  10  5.046966E+05  1.208418E+05  1.180540E+05 -6.578369E+04  6.031952E-10  5.944682E-10
       105  11  6.098846E+05  1.468090E+05  1.471643E+05 -4.396656E+04 -1.478772E-09 -6.872139E-10
       105  12  7.177377E+05  1.788973E+05  1.829086E+05 -6.869313E+04 -2.167637E-09  4.396777E-10
       105  13  9.084052E+03 -2.952001E+02  7.822391E+03 -6.663006E+04 -1.074152E-09 -1.395423E-10
       105  14  7.825258E+03 -2.965171E+02  1.347500E+04 -4.335620E+04  1.076928E-09  1.481618E-10
       105  15  9.046793E+03  5.648861E+03  2.505088E+04 -6.662858E+04 -1.627529E-09  5.747900E-10
       105  16 -4.862995E+05 -1.214488E+05 -1.024245E+05 -6.747570E+04 -1.056233E-09 -8.933066E-10
       105  17 -5.938961E+05 -1.474266E+05 -1.202368E+05 -4.274640E+04  1.071829E-09 -1.154520E-10
       105  18 -6.991762E+05 -1.676336E+05 -1.328383E+05 -6.456636E+04  1.684745E-09  7.091462E-10
       105  19  5.046967E+05  1.208424E+05  1.180551E+05 -6.578368E+04  7.332951E+02  2.423509E+04
       105  20  6.098849E+05  1.468100E+05  1.471661E+05 -4.396635E+04  8.545661E+03  2.980783E+04
       105  21  7.177383E+05  1.788986E+05  1.829113E+05 -6.869268E+04  1.635468E+04  3.419359E+04
       105  22  9.084249E+03 -2.945596E+02  7.823564E+03 -6.662994E+04  6.064875E+03  2.423336E+04
       105  23  7.825674E+03 -2.955187E+02  1.347698E+04 -4.335589E+04  1.284514E+04  2.980839E+04
       105  24  9.047521E+03  5.650221E+03  2.505380E+04 -6.662804E+04  1.962075E+04  3.419592E+04
       105  25 -4.862992E+05 -1.214481E+05 -1.024232E+05 -6.747548E+04  1.139225E+04  2.423161E+04
       105  26 -5.938955E+05 -1.474255E+05 -1.202346E+05 -4.274598E+04  1.714049E+04  2.980897E+04
       105  27 -6.991753E+05 -1.676322E+05 -1.328351E+05 -6.456573E+04  2.288313E+04  3.419827E+04
       106   1  8.138155E+05  1.900814E+05  2.085271E+05 -5.219373E+04 -1.295526E+04 -4.013853E+04
       106   2  9.046467E+05  2.193559E+05  2.566247E+05 -5.871759E+04 -6.416844E+04 -3.980048E+04
       106   3  1.027452E+06  3.484529E+05  3.630647E+05 -1.107348E+05 -1.154109E+05 -1.290075E+04
       106   4  1.469064E+04 -5.085751E+03  3.142650E+04 -6.638382E+04 -2.412477E+04 -4.014189E+04
       106   5  6.569600E+02 -2.030319E+03  5.313417E+04 -4.366015E+04 -5.232639E+04 -3.980228E+04
       106   6  1.463700E+04  9.693084E+04  1.172575E+05 -6.642711E+04 -8.054657E+04 -1.288850E+04
       106   7 -7.838378E+05 -2.002952E+05 -1.457131E+05 -8.055544E+04 -3.528006E+04 -4.014474E+04
       106   8 -9.025725E+05 -2.234715E+05 -1.504078E+05 -2.862486E+04 -4.050134E+04 -3.980351E+04
       106   9 -9.972355E+05 -1.546584E+05 -1.286181E+05 -2.219188E+04 -4.573878E+04 -1.287127E+04
       106  10  8.138148E+05  1.900797E+05  2.085237E+05 -5.219414E+04  7.053747E-10  7.527606E-10
       106  11  9.046418E+05  2.193530E+05  2.566140E+05 -5.871965E+04  1.026823E-09  2.373568E-11
       106  12  1.027438E+06  3.484491E+05  3.630394E+05 -1.107360E+05 -5.484449E-10 -2.639035E-10
       106  13  1.468958E+04 -5.087638E+03  3.142238E+04 -6.638460E+04  2.160378E-11  6.806205E-10
       106  14  6.535945E+02 -2.032755E+03  5.312604E+04 -4.366182E+04 -1.080215E-09  5.158811E-10
       106  15  1.462999E+04  9.692892E+04  1.172450E+05 -6.642794E+04  2.966664E-10 -2.141304E-10
       106  16 -7.838396E+05 -2.002973E+05 -1.457185E+05 -8.055658E+04 -1.284785E-09  4.993069E-10
       106  17 -9.025747E+05 -2.234736E+05 -1.504139E+05 -2.862616E+04 -4.179928E-10 -1.762335E-10
       106  18 -9.972378E+05 -1.546592E+05 -1.286224E+05 -2.219236E+04 -4.223232E-10 -4.126648E-10
       106  19  8.138155E+05  1.900814E+05  2.085271E+05 -5.219373E+04  1.295526E+04  4.013853E+04
       106  20  9.046467E+05  2.193559E+05  2.566247E+05 -5.871759E+04  6.416844E+04  3.980048E+04
       106  21  1.027452E+06  3.484529E+05  3.630647E+05 -1.107348E+05  1.154109E+05  1.290075E+04
       106  22  1.469064E+04 -5.085751E+03  3.142650E+04 -6.638382E+04  2.412477E+04  4.014189E+04
       106  23  6.569600E+02 -2.030319E+03  5.313417E+04 -4.366015E+04  5.232639E+04  3.980228E+04
       106  24  1.463700E+04  9.693084E+04  1.172575E+05 -6.642711E+04  8.054657E+04  1.288850E+04
       106  25 -7.838378E+05 -2.002952E+05 -1.457131E+05 -8.055544E+04  3.528006E+04  4.014474E+04
       106  26 -9.025725E+05 -2.234715E+05 -1.504078E+05 -2.862486E+04  4.050134E+04  3.980351E+04
       106  27 -9.972355E+05 -1.546584E+05 -1.286181E+05 -2.219188E+04  4.573878E+04  1.287127E+04
       107   1  5.111329E+05  1.612946E+06  5.142969E+05 -4.587764E+05  1.569837E+04  1.881608E+05
       107   2  2.869672E+05  1.199488E+06  3.007288E+05 -3.611876E+05  4.707263E+04  8.806368E+04
       107   3  1.664144E+05  8.246812E+05  1.780635E+05 -3.589473E+05  4.029779E+04 -1.204470E+04
       107   4  1.460865E+05  1.404649E+05  1.626790E+05 -3.681364E+05  1.593211E+04  1.108287E+05
       107   5  2.810551E+04  1.264017E+05  7.995586E+04 -3.206631E+05  4.713672E+04  6.952364E+04
       107   6  3.656831E+03  1.407444E+05  4.745663E+04 -3.685157E+05  4.017816E+04  2.814053E+04
       107   7 -2.190836E+05 -1.330002E+06 -1.890650E+05 -2.777100E+05  1.614364E+04  3.367857E+04
       107   8 -2.308227E+05 -9.455890E+05 -1.408768E+05 -2.802088E+05  4.719846E+04  5.101496E+04
       107   9 -1.591270E+05 -5.427385E+05 -8.316532E+04 -3.780729E+05  4.005721E+04  6.828257E+04
       107  10  5.111232E+05  1.612908E+06  5.142301E+05 -4.587788E+05  3.667809E-11 -3.353070E-10
       107  11  2.869627E+05  1.199479E+06  3.007101E+05 -3.611909E+05 -1.533941E-09 -9.669749E-10
       107  12  1.664126E+05  8.246806E+05  1.780602E+05 -3.589469E+05 -2.524350E-10 -1.398564E-10
       107  13  1.460830E+05  1.404516E+05  1.626555E+05 -3.681378E+05  7.127475E-10  1.088331E-09
       107  14  2.810182E+04  1.263959E+05  7.994259E+04 -3.206657E+05 -3.943187E-10  6.158470E-10
       107  15  3.654883E+03  1.407431E+05  4.745211E+04 -3.685166E+05  8.207790E-11  7.910133E-10
       107  16 -2.190841E+05 -1.330003E+06 -1.890676E+05 -2.777105E+05 -4.820371E-10  2.379809E-10
       107  17 -2.308258E+05 -9.455924E+05 -1.408859E+05 -2.802107E+05  1.073398E-09  3.393925E-10
       107  18 -1.591299E+05 -5.427439E+05 -8.317711E+04 -3.780751E+05  3.604939E-10 -5.390234E-11
       107  19  5.111329E+05  1.612946E+06  5.142969E+05 -4.587764E+05 -1.569837E+04 -1.881608E+05
       107  20  2.869672E+05  1.199488E+06  3.007288E+05 -3.611876E+05 -4.707263E+04 -8.806368E+04
       107  21  1.664144E+05  8.246812E+05  1.780635E+05 -3.589473E+05 -4.029779E+04  1.204470E+04
       107  22  1.460865E+05  1.404649E+05  1.626790E+05 -3.681364E+05 -1.593211E+04 -1.108287E+05
       107  23  2.810551E+04  1.264017E+05  7.995586E+04 -3.206631E+05 -4.713672E+04 -6.952364E+04
       107  24  3.656831E+03  1.407444E+05  4.745663E+04 -3.685157E+05 -4.017816E+04 -2.814053E+04
       107  25 -2.190836E+05 -1.330002E+06 -1.890650E+05 -2.777100E+05 -1.614364E+04 -3.367857E+04
       107  26 -2.308227E+05 -9.455890E+05 -1.408768E+05 -2.802088E+05 -4.719846E+04 -5.101496E+04
       107  27 -1.591270E+05 -5.427385E+05 -8.316532E+04 -3.780729E+05 -4.005721E+04 -6.828257E+04
       108   1  1.078031E+05  5.549190E+05  1.193147E+05 -3.726270E+05  2.449494E+04 -1.324296E+04
       108   2  8.937801E+03  1.594355E+05  3.331040E+04 -3.204043E+05  1.854575E+03 -2.773318E+04
       108   3 -8.248039E+04 -2.327426E+05 -4.157264E+04 -3.657971E+05 -2.088373E+04 -4.221538E+04
       108   4  7.778880E+03  1.351834E+05  3.887542E+04 -3.689681E+05  2.438708E+04  2.153739E+04
       108   5  2.837325E+03  1.336207E+05  2.862493E+04 -3.201651E+05  1.746131E+03  7.193548E+03
       108   6  5.326550E+03  1.351902E+05  2.939965E+04 -3.689757E+05 -2.099298E+04 -7.150953E+03
       108   7 -9.225502E+04 -2.843802E+05 -4.156741E+04 -3.653115E+05  2.427958E+04  5.629478E+04
       108   8 -3.262534E+03  1.078093E+05  2.394403E+04 -3.199258E+05  1.637710E+03  4.211887E+04
       108   9  9.312614E+04  5.032559E+05  1.003703E+05 -3.721561E+05 -2.110255E+04  2.793378E+04
       108  10  1.078024E+05  5.549187E+05  1.193133E+05 -3.726267E+05 -7.121156E-10  2.197638E-09
       108  11  8.937591E+03  1.594346E+05  3.330894E+04 -3.204043E+05 -4.672633E-10 -3.758304E-10
       108  12 -8.248134E+04 -2.327447E+05 -4.157681E+04 -3.657978E+05  2.512547E-10 -1.293960E-09
       108  13  7.778116E+03  1.351827E+05  3.887343E+04 -3.689685E+05  5.923665E-10  1.410637E-09
       108  14  2.837307E+03  1.336207E+05  2.862483E+04 -3.201651E+05  1.794072E-09  8.935880E-10
       108  15  5.326063E+03  1.351900E+05  2.939873E+04 -3.689759E+05  1.544475E-09  8.434940E-10
       108  16 -9.225650E+04 -2.843837E+05 -4.157448E+04 -3.653126E+05 -1.431940E-09 -2.123210E-09
       108  17 -3.263013E+03  1.078074E+05  2.394069E+04 -3.199259E+05  1.239935E-09 -8.349592E-11
       108  18  9.312545E+04  5.032549E+05  1.003680E+05 -3.721557E+05 -7.253425E-11  1.297660E-09
       108  19  1.078031E+05  5.549190E+05  1.193147E+05 -3.726270E+05 -2.449494E+04  1.324296E+04
       108  20  8.937801E+03  1.594355E+05  3.331040E+04 -3.204043E+05 -1.854575E+03  2.773318E+04
       108  21 -8.248039E+04 -2.327426E+05 -4.157264E+04 -3.657971E+05  2.088373E+04  4.221538E+04
       108  22  7.778880E+03  1.351834E+05  3.887542E+04 -3.689681E+05 -2.438708E+04 -2.153739E+04
       108  23  2.837325E+03  1.336207E+05  2.862493E+04 -3.201651E+05 -1.746131E+03 -7.193548E+03
       108  24  5.326550E+03  1.351902E+05  2.939965E+04 -3.689757E+05  2.099298E+04  7.150953E+03
       108  25 -9.225502E+04 -2.843802E+05 -4.156741E+04 -3.653115E+05 -2.427958E+04 -5.629478E+04
       108  26 -3.262534E+03  1.078093E+05  2.394403E+04 -3.199258E+05 -1.637710E+03 -4.211887E+04
       108  27  9.312614E+04  5.032559E+05  1.003703E+05 -3.721561E+05  2.110255E+04 -2.793378E+04
       109   1 -1.475481E+05 -4.936156E+05 -8.839801E+04 -3.733498E+05 -3.669817E+04 -5.230501E+04
       109   2 -2.293701E+05 -8.909238E+05 -1.613982E+05 -2.957990E+05 -4.455732E+04 -2.102980E+04
       109   3 -2.655512E+05 -1.281110E+06 -2.434633E+05 -3.137305E+05 -1.545948E+04  1.030247E+04
       109   4  3.021638E+03  1.381747E+05  3.271073E+04 -3.685274E+05 -3.682000E+04 -1.205155E+04
       109   5  1.713102E+04  1.296476E+05  4.927170E+04 -3.206877E+05 -4.450391E+04 -3.750539E+04
       109   6  8.669244E+04  1.379113E+05  9.615774E+04 -3.683029E+05 -1.526154E+04 -6.288250E+04
       109   7  1.535688E+05  7.703531E+05  1.538073E+05 -3.636996E+05 -3.694112E+04  2.824194E+04
       109   8  2.635685E+05  1.151209E+06  2.598866E+05 -3.456172E+05 -4.444923E+04 -5.400759E+04
       109   9  4.388036E+05  1.558798E+06  4.356581E+05 -4.229990E+05 -1.505100E+04 -1.362342E+05
       109  10 -1.475503E+05 -4.936189E+05 -8.840570E+04 -3.733513E+05 -7.814784E-10  5.645714E-10
       109  11 -2.293723E+05 -8.909248E+05 -1.614027E+05 -2.957997E+05 -6.258667E-10 -7.318301E-11
       109  12 -2.655515E+05 -1.281111E+06 -2.434639E+05 -3.137304E+05  2.060434E-10  7.642563E-10
       109  13  3.020143E+03  1.381742E+05  3.270791E+04 -3.685277E+05 -1.852173E-09  1.300527E-09
       109  14  1.712851E+04  1.296456E+05  4.926533E+04 -3.206891E+05 -1.423061E-09  7.551443E-10
       109  15  8.669113E+04  1.379070E+05  9.614987E+04 -3.683036E+05 -5.803506E-10  7.488082E-10
       109  16  1.535671E+05  7.703519E+05  1.538033E+05 -3.636988E+05 -1.596440E-09 -5.675308E-10
       109  17  2.635656E+05  1.151206E+06  2.598774E+05 -3.456192E+05 -9.840587E-10 -3.583143E-10
       109  18  4.387983E+05  1.558778E+06  4.356229E+05 -4.230006E+05  1.852941E-10 -5.889823E-10
       109  19 -1.475481E+05 -4.936156E+05 -8.839801E+04 -3.733498E+05  3.669817E+04  5.230501E+04
       109  20 -2.293701E+05 -8.909238E+05 -1.613982E+05 -2.957990E+05  4.455732E+04  2.102980E+04
       109  21 -2.655512E+05 -1.281110E+06 -2.434633E+05 -3.137305E+05  1.545948E+04 -1.030247E+04
       109  22  3.021638E+03  1.381747E+05  3.271073E+04 -3.685274E+05  3.682000E+04  1.205155E+04
       109  23  1.713102E+04  1.296476E+05  4.927170E+04 -3.206877E+05  4.450391E+04  3.750539E+04
       109  24  8.669244E+04  1.379113E+05  9.615774E+04 -3.683029E+05  1.526154E+04  6.288250E+04
       109  25  1.535688E+05  7.703531E+05  1.538073E+05 -3.636996E+05  3.694112E+04 -2.824194E+04
       109  26  2.635685E+05  1.151209E+06  2.598866E+05 -3.456172E+05  4.444923E+04  5.400759E+04
       109  27  4.388036E+05  1.558798E+06  4.356581E+05 -4.229990E+05  1.505100E+04  1.362342E+05
       110   1 -3.046203E+06 -1.076380E+06 -6.411715E+05 -1.112062E+06 -2.688418E+05 -8.446792E+04
       110   2 -2.952663E+06 -6.954713E+05 -3.959680E+05 -1.094834E+06 -1.740035E+05 -1.308855E+04
       110   3 -2.949802E+06 -6.223507E+05 -3.067631E+05 -1.038870E+06 -6.775830E+04  2.810038E+04
       110   4 -2.066385E+06 -5.883845E+05 -3.553115E+05 -7.238932E+05 -2.317679E+05 -7.055624E+04
       110   5 -2.004098E+06 -3.012454E+05 -1.531838E+05 -7.943044E+05 -1.611433E+05 -8.265117E+03
       110   6 -2.027504E+06 -3.168396E+05 -8.763202E+04 -8.260301E+05 -7.913107E+04  2.382130E+04
       110   7 -1.085592E+06 -1.000976E+05 -6.953679E+04 -3.350956E+05 -1.946293E+05 -5.660237E+04
       110   8 -1.054638E+06  9.310146E+04  8.952706E+04 -4.933342E+05 -1.482615E+05 -3.431455E+03
       110   9 -1.104370E+06 -1.131386E+04  1.314388E+05 -6.129221E+05 -9.052225E+04  1.953711E+04
       110  10 -3.046282E+06 -1.076407E+06 -6.413215E+05 -1.112080E+06  1.487136E-09  3.567248E-10
       110  11 -2.952696E+06 -6.954797E+05 -3.960255E+05 -1.094836E+06  7.172193E-10  2.205947E-10
       110  12 -2.949807E+06 -6.223528E+05 -3.067732E+05 -1.038868E+06  7.370930E-10 -2.118514E-10
       110  13 -2.066444E+06 -5.884044E+05 -3.554222E+05 -7.239064E+05  8.635216E-11 -7.242779E-10
       110  14 -2.004126E+06 -3.012524E+05 -1.532329E+05 -7.943054E+05  3.561809E-10  7.311404E-10
       110  15 -2.027511E+06 -3.168419E+05 -8.764488E+04 -8.260286E+05 -1.667732E-09 -1.753244E-10
       110  16 -1.085633E+06 -1.001112E+05 -6.961414E+04 -3.351045E+05 -1.282526E-09 -2.544055E-10
       110  17 -1.054662E+06  9.309553E+04  8.948566E+04 -4.933346E+05  7.975738E-10 -3.904423E-10
       110  18 -1.104379E+06 -1.131647E+04  1.314226E+05 -6.129206E+05  5.992734E-10  1.425325E-10
       110  19 -3.046203E+06 -1.076380E+06 -6.411715E+05 -1.112062E+06  2.688418E+05  8.446792E+04
       110  20 -2.952663E+06 -6.954713E+05 -3.959680E+05 -1.094834E+06  1.740035E+05  1.308855E+04
       110  21 -2.949802E+06 -6.223507E+05 -3.067631E+05 -1.038870E+06  6.775830E+04 -2.810038E+04
       110  22 -2.066385E+06 -5.883845E+05 -3.553115E+05 -7.238932E+05  2.317679E+05  7.055624E+04
       110  23 -2.004098E+06 -3.012454E+05 -1.531838E+05 -7.943044E+05  1.611433E+05  8.265117E+03
       110  24 -2.027504E+06 -3.168396E+05 -8.763202E+04 -8.260301E+05  7.913107E+04 -2.382130E+04
       110  25 -1.085592E+06 -1.000976E+05 -6.953679E+04 -3.350956E+05  1.946293E+05  5.660237E+04
       110  26 -1.054638E+06  9.310146E+04  8.952706E+04 -4.933342E+05  1.482615E+05  3.431455E+03
       110  27 -1.104370E+06 -1.131386E+04  1.314388E+05 -6.129221E+05  9.052225E+04 -1.953711E+04
       111   1 -2.827758E+06 -6.549636E+05 -2.710308E+05 -1.038204E+06 -6.327889E+04  2.283429E+04
       111   2 -2.751298E+06 -5.848401E+05 -2.142322E+05 -9.980035E+05 -4.274655E+04  2.661162E+04
       111   3 -2.653791E+06 -5.637391E+05 -1.767900E+05 -9.882437E+05 -2.167135E+04  2.893911E+04
       111   4 -2.015824E+06 -3.455077E+05 -6.973634E+04 -8.093632E+05 -6.552240E+04  2.198563E+04
       111   5 -2.025171E+06 -3.122380E+05 -3.555070E+04 -7.974603E+05 -4.613494E+04  2.533518E+04
       111   6 -2.013243E+06 -3.277462E+05 -1.979143E+04 -8.160008E+05 -2.620790E+04  2.723431E+04
       111   7 -1.203233E+06 -3.599818E+04  1.315081E+05 -5.802450E+05 -6.776909E+04  2.113572E+04
       111   8 -1.298521E+06 -3.959750E+04  1.430910E+05 -5.967019E+05 -4.952765E+04  2.405710E+04
       111   9 -1.372289E+06 -9.172809E+04  1.371762E+05 -6.435970E+05 -3.074956E+04  2.552764E+04
       111  10 -2.827763E+06 -6.549652E+05 -2.710393E+05 -1.038203E+06  4.316409E-10 -3.469074E-10
       111  11 -2.751300E+06 -5.848413E+05 -2.142370E+05 -9.980025E+05  2.537425E-09 -1.107829E-09
       111  12 -2.653792E+06 -5.637401E+05 -1.767924E+05 -9.882432E+05  1.911795E-09 -1.359930E-09
       111  13 -2.015829E+06 -3.455094E+05 -6.974533E+04 -8.093621E+05 -2.956279E-11 -1.559698E-10
       111  14 -2.025174E+06 -3.122392E+05 -3.555591E+04 -7.974593E+05 -3.465302E-09 -4.709443E-10
       111  15 -2.013244E+06 -3.277472E+05 -1.979411E+04 -8.160003E+05 -7.020061E-10 -1.005768E-09
       111  16 -1.203238E+06 -3.599989E+04  1.314986E+05 -5.802439E+05  1.722739E-10 -1.259066E-10
       111  17 -1.298524E+06 -3.959878E+04  1.430853E+05 -5.967010E+05 -5.317675E-10 -3.838155E-10
       111  18 -1.372290E+06 -9.172904E+04  1.371732E+05 -6.435964E+05 -2.832500E-09 -9.275103E-10
       111  19 -2.827758E+06 -6.549636E+05 -2.710308E+05 -1.038204E+06  6.327889E+04 -2.283429E+04
       111  20 -2.751298E+06 -5.848401E+05 -2.142322E+05 -9.980035E+05  4.274655E+04 -2.661162E+04
       111  21 -2.653791E+06 -5.637391E+05 -1.767900E+05 -9.882437E+05  2.167135E+04 -2.893911E+04
       111  22 -2.015824E+06 -3.455077E+05 -6.973634E+04 -8.093632E+05  6.552240E+04 -2.198563E+04
       111  23 -2.025171E+06 -3.122380E+05 -3.555070E+04 -7.974603E+05  4.613494E+04 -2.533518E+04
       111  24 -2.013243E+06 -3.277462E+05 -1.979143E+04 -8.160008E+05  2.620790E+04 -2.723431E+04
       111  25 -1.203233E+06 -3.599818E+04  1.315081E+05 -5.802450E+05  6.776909E+04 -2.113572E+04
       111  26 -1.298521E+06 -3.959750E+04  1.430910E+05 -5.967019E+05  4.952765E+04 -2.405710E+04
       111  27 -1.372289E+06 -9.172809E+04  1.371762E+05 -6.435970E+05  3.074956E+04 -2.552764E+04
       112   1 -2.570414E+06 -5.379186E+05 -1.519002E+05 -9.678776E+05 -1.806955E+04  2.665262E+04
       112   2 -2.493765E+06 -4.867439E+05 -1.227023E+05 -9.249726E+05 -1.193484E+04  2.302133E+04
       112   3 -2.386822E+06 -4.680425E+05 -9.693271E+04 -9.176471E+05 -5.763908E+03  1.928352E+04
       112   4 -2.012005E+06 -3.297184E+05 -1.510941E+04 -8.150308E+05 -2.222546E+04  2.509188E+04
       112   5 -2.027059E+06 -3.129080E+05 -8.193389E+03 -7.974517E+05 -1.617278E+04  2.143145E+04
       112   6 -2.011811E+06 -3.285530E+05 -4.637712E+03 -8.154542E+05 -1.008455E+04  1.766431E+04
       112   7 -1.453289E+06 -1.214978E+05  1.216571E+05 -6.620592E+05 -2.638543E+04  2.352962E+04
       112   8 -1.560137E+06 -1.390574E+05  1.062991E+05 -6.698435E+05 -2.041420E+04  1.984026E+04
       112   9 -1.636658E+06 -1.890535E+05  8.764709E+04 -7.132046E+05 -1.440807E+04  1.604403E+04
       112  10 -2.570414E+06 -5.379195E+05 -1.519022E+05 -9.678772E+05 -2.753733E-10 -1.265139E-09
       112  11 -2.493766E+06 -4.867445E+05 -1.227036E+05 -9.249723E+05 -6.134539E-09 -1.731677E-09
       112  12 -2.386822E+06 -4.680429E+05 -9.693347E+04 -9.176470E+05 -4.233528E-09 -2.300239E-10
       112  13 -2.012005E+06 -3.297192E+05 -1.511152E+04 -8.150303E+05 -1.716512E-09 -1.266959E-09
       112  14 -2.027059E+06 -3.129086E+05 -8.194743E+03 -7.974515E+05 -4.094422E-09 -1.617369E-09
       112  15 -2.011811E+06 -3.285533E+05 -4.638489E+03 -8.154540E+05 -2.612170E-09  3.195732E-10
       112  16 -1.453290E+06 -1.214986E+05  1.216548E+05 -6.620587E+05 -4.144488E-09 -1.674737E-09
       112  17 -1.560138E+06 -1.390580E+05  1.062975E+05 -6.698432E+05 -2.629079E-09 -1.326119E-09
       112  18 -1.636658E+06 -1.890538E+05  8.764622E+04 -7.132044E+05  9.399010E-10  3.447118E-11
       112  19 -2.570414E+06 -5.379186E+05 -1.519002E+05 -9.678776E+05  1.806955E+04 -2.665262E+04
       112  20 -2.493765E+06 -4.867439E+05 -1.227023E+05 -9.249726E+05  1.193484E+04 -2.302133E+04
       112  21 -2.386822E+06 -4.680425E+05 -9.693271E+04 -9.176471E+05  5.763908E+03 -1.928352E+04
       112  22 -2.012005E+06 -3.297184E+05 -1.510941E+04 -8.150308E+05  2.222546E+04 -2.509188E+04
       112  23 -2.027059E+06 -3.129080E+05 -8.193389E+03 -7.974517E+05  1.617278E+04 -2.143145E+04
       112  24 -2.011811E+06 -3.285530E+05 -4.637712E+03 -8.154542E+05  1.008455E+04 -1.766431E+04
       112  25 -1.453289E+06 -1.214978E+05  1.216571E+05 -6.620592E+05  2.638543E+04 -2.352962E+04
       112  26 -1.560137E+06 -1.390574E+05  1.062991E+05 -6.698435E+05  2.041420E+04 -1.984026E+04
       112  27 -1.636658E+06 -1.890535E+05  8.764709E+04 -7.132046E+05  1.440807E+04 -1.604403E+04
       113   1 -2.304570E+06 -4.377677E+05 -7.513845E+04 -8.955132E+05 -3.914053E+03  1.641550E+04
       113   2 -2.226896E+06 -3.871081E+05 -5.122274E+04 -8.518069E+05 -7.516718E+02  1.147426E+04
       113   3 -2.117703E+06 -3.682319E+05 -2.818481E+04 -8.444810E+05  2.417076E+03  6.511157E+03
       113   4 -2.011577E+06 -3.287585E+05 -3.598289E+03 -8.154926E+05 -8.238161E+03  1.479574E+04
       113   5 -2.027321E+06 -3.128223E+05 -2.274243E+03 -7.973161E+05 -5.092944E+03  9.848778E+03
       113   6 -2.011552E+06 -3.286655E+05 -1.813821E+03 -8.155220E+05 -1.941586E+03  4.879943E+03
       113   7 -1.718499E+06 -2.197433E+05  6.793570E+04 -7.354374E+05 -1.256451E+04  1.317515E+04
       113   8 -1.827708E+06 -2.385344E+05  4.667088E+04 -7.428098E+05 -9.435709E+03  8.222737E+03
       113   9 -1.905392E+06 -2.890990E+05  2.455584E+04 -7.865591E+05 -6.300984E+03  3.248454E+03
       113  10 -2.304570E+06 -4.377680E+05 -7.513898E+04 -8.955131E+05  3.470134E-10  1.339830E-09
       113  11 -2.226896E+06 -3.871082E+05 -5.122299E+04 -8.518069E+05 -1.968799E-09 -8.936571E-10
       113  12 -2.117703E+06 -3.682320E+05 -2.818490E+04 -8.444810E+05 -2.600354E-09 -8.063249E-10
       113  13 -2.011578E+06 -3.287588E+05 -3.598827E+03 -8.154925E+05 -1.173716E-09  3.109791E-11
       113  14 -2.027321E+06 -3.128224E+05 -2.274474E+03 -7.973161E+05 -9.354668E-10 -8.969649E-10
       113  15 -2.011552E+06 -3.286655E+05 -1.813873E+03 -8.155220E+05 -2.378294E-09 -1.367064E-10
       113  16 -1.718500E+06 -2.197435E+05  6.793508E+04 -7.354373E+05 -1.086142E-09 -9.083818E-10
       113  17 -1.827709E+06 -2.385345E+05  4.667058E+04 -7.428098E+05 -3.565561E-10 -9.237409E-10
       113  18 -1.905392E+06 -2.890990E+05  2.455574E+04 -7.865591E+05  9.767896E-10  1.212828E-10
       113  19 -2.304570E+06 -4.377677E+05 -7.513845E+04 -8.955132E+05  3.914053E+03 -1.641550E+04
       113  20 -2.226896E+06 -3.871081E+05 -5.122274E+04 -8.518069E+05  7.516718E+02 -1.147426E+04
       113  21 -2.117703E+06 -3.682319E+05 -2.818481E+04 -8.444810E+05 -2.417076E+03 -6.511157E+03
       113  22 -2.011577E+06 -3.287585E+05 -3.598289E+03 -8.154926E+05  8.238161E+03 -1.479574E+04
       113  23 -2.027321E+06 -3.128223E+05 -2.274243E+03 -7.973161E+05  5.092944E+03 -9.848778E+03
       113  24 -2.011552E+06 -3.286655E+05 -1.813821E+03 -8.155220E+05  1.941586E+03 -4.879943E+03
       113  25 -1.718499E+06 -2.197433E+05  6.793570E+04 -7.354374E+05  1.256451E+04 -1.317515E+04
       113  26 -1.827708E+06 -2.385344E+05  4.667088E+04 -7.428098E+05  9.435709E+03 -8.222737E+03
       113  27 -1.905392E+06 -2.890990E+05  2.455584E+04 -7.865591E+05  6.300984E+03 -3.248454E+03
       114   1 -2.034897E+06 -3.373488E+05 -7.231998E+03 -8.219758E+05  3.901870E+03  3.478099E+03
       114   2 -1.956946E+06 -2.866210E+05  1.487564E+04 -7.781050E+05  7.101718E+03 -1.485093E+03
       114   3 -1.847405E+06 -2.677775E+05  3.607962E+04 -7.707386E+05  1.029882E+04 -6.438206E+03
       114   4 -2.011535E+06 -3.286879E+05 -1.834363E+03 -8.155499E+05 -4.615275E+02  1.845265E+03
       114   5 -2.027331E+06 -3.127781E+05 -2.377583E+03 -7.972836E+05  2.745826E+03 -3.115436E+03
       114   6 -2.011548E+06 -3.287558E+05 -3.830403E+03 -8.155261E+05  5.950218E+03 -8.066086E+03
       114   7 -1.988172E+06 -3.200269E+05  3.563417E+03 -8.091238E+05 -4.825170E+03  2.123388E+02
       114   8 -2.097712E+06 -3.389352E+05 -1.963136E+04 -8.164604E+05 -1.609582E+03 -4.745599E+03
       114   9 -2.175667E+06 -3.897330E+05 -4.374285E+04 -8.603033E+05  1.602830E+03 -9.693515E+03
       114  10 -2.034897E+06 -3.373488E+05 -7.232050E+03 -8.219758E+05 -5.757612E-10  2.306108E-10
       114  11 -1.956946E+06 -2.866210E+05  1.487554E+04 -7.781050E+05 -3.921990E-10 -5.975198E-10
       114  12 -1.847405E+06 -2.677776E+05  3.607934E+04 -7.707386E+05 -2.549497E-10 -1.760989E-10
       114  13 -2.011535E+06 -3.286879E+05 -1.834370E+03 -8.155499E+05 -8.562849E-10 -3.268963E-10
       114  14 -2.027331E+06 -3.127781E+05 -2.377615E+03 -7.972836E+05  1.496083E-09  9.988531E-10
       114  15 -2.011548E+06 -3.287559E+05 -3.830592E+03 -8.155261E+05  1.116993E-09 -3.623646E-10
       114  16 -1.988172E+06 -3.200269E+05  3.563373E+03 -8.091238E+05 -5.501484E-11  1.778435E-10
       114  17 -2.097712E+06 -3.389352E+05 -1.963140E+04 -8.164604E+05 -9.048102E-10  2.836984E-10
       114  18 -2.175667E+06 -3.897331E+05 -4.374303E+04 -8.603033E+05  1.303054E-09 -2.041002E-10
       114  19 -2.034897E+06 -3.373488E+05 -7.231998E+03 -8.219758E+05 -3.901870E+03 -3.478099E+03
       114  20 -1.956946E+06 -2.866210E+05  1.487564E+04 -7.781050E+05 -7.101718E+03  1.485093E+03
       114  21 -1.847405E+06 -2.677775E+05  3.607962E+04 -7.707386E+05 -1.029882E+04  6.438206E+03
       114  22 -2.011535E+06 -3.286879E+05 -1.834363E+03 -8.155499E+05  4.615275E+02 -1.845265E+03
       114  23 -2.027331E+06 -3.127781E+05 -2.377583E+03 -7.972836E+05 -2.745826E+03  3.115436E+03
       114  24 -2.011548E+06 -3.287558E+05 -3.830403E+03 -8.155261E+05 -5.950218E+03  8.066086E+03
       114  25 -1.988172E+06 -3.200269E+05  3.563417E+03 -8.091238E+05  4.825170E+03 -2.123388E+02
       114  26 -2.097712E+06 -3.389352E+05 -1.963136E+04 -8.164604E+05  1.609582E+03  4.745599E+03
       114  27 -2.175667E+06 -3.897330E+05 -4.374285E+04 -8.603033E+05 -1.602830E+03  9.693515E+03
       115   1 -1.765039E+06 -2.369684E+05  5.582473E+04 -7.484656E+05  1.220151E+04 -9.306526E+03
       115   2 -1.687695E+06 -1.864998E+05  7.442691E+04 -7.047075E+05  1.853428E+04 -1.303410E+04
       115   3 -1.579882E+06 -1.688691E+05  8.946000E+04 -6.968896E+05  2.483806E+04 -1.667390E+04
       115   4 -2.011757E+06 -3.285880E+05 -4.960184E+03 -8.155483E+05  7.848848E+03 -1.093638E+04
       115   5 -2.027077E+06 -3.127703E+05 -8.782052E+03 -7.973536E+05  1.424909E+04 -1.463989E+04
       115   6 -2.011951E+06 -3.298053E+05 -1.622761E+04 -8.151028E+05  2.061968E+04 -1.825583E+04
       115   7 -2.258410E+06 -4.202020E+05 -6.574844E+04 -8.826055E+05  3.498160E+03 -1.256550E+04
       115   8 -2.366344E+06 -4.390323E+05 -9.199918E+04 -8.899531E+05  9.966482E+03 -1.624471E+04
       115   9 -2.443839E+06 -4.907300E+05 -1.219302E+05 -9.332420E+05  1.640448E+04 -1.983658E+04
       115  10 -1.765039E+06 -2.369685E+05  5.582429E+04 -7.484655E+05  5.538883E-10  7.972391E-11
       115  11 -1.687696E+06 -1.865000E+05  7.442594E+04 -7.047073E+05  3.748636E-09  8.528222E-10
       115  12 -1.579883E+06 -1.688695E+05  8.945832E+04 -6.968893E+05  2.015385E-09  2.576138E-10
       115  13 -2.011757E+06 -3.285882E+05 -4.960524E+03 -8.155482E+05  2.256660E-09  1.630175E-10
       115  14 -2.027078E+06 -3.127705E+05 -8.782836E+03 -7.973535E+05  5.093043E-09  7.845289E-10
       115  15 -2.011952E+06 -3.298057E+05 -1.622903E+04 -8.151025E+05  7.458146E-10 -2.157930E-10
       115  16 -2.258410E+06 -4.202022E+05 -6.574876E+04 -8.826055E+05  3.482870E-09  5.470738E-10
       115  17 -2.366344E+06 -4.390326E+05 -9.199986E+04 -8.899530E+05  4.648888E-09  9.872547E-10
       115  18 -2.443839E+06 -4.907305E+05 -1.219314E+05 -9.332418E+05  3.201094E-10 -2.617615E-10
       115  19 -1.765039E+06 -2.369684E+05  5.582473E+04 -7.484656E+05 -1.220151E+04  9.306526E+03
       115  20 -1.687695E+06 -1.864998E+05  7.442691E+04 -7.047075E+05 -1.853428E+04  1.303410E+04
       115  21 -1.579882E+06 -1.688691E+05  8.946000E+04 -6.968896E+05 -2.483806E+04  1.667390E+04
       115  22 -2.011757E+06 -3.285880E+05 -4.960184E+03 -8.155483E+05 -7.848848E+03  1.093638E+04
       115  23 -2.027077E+06 -3.127703E+05 -8.782052E+03 -7.973536E+05 -1.424909E+04  1.463989E+04
       115  24 -2.011951E+06 -3.298053E+05 -1.622761E+04 -8.151028E+05 -2.061968E+04  1.825583E+04
       115  25 -2.258410E+06 -4.202020E+05 -6.574844E+04 -8.826055E+05 -3.498160E+03  1.256550E+04
       115  26 -2.366344E+06 -4.390323E+05 -9.199918E+04 -8.899531E+05 -9.966482E+03  1.624471E+04
       115  27 -2.443839E+06 -4.907300E+05 -1.219302E+05 -9.332420E+05 -1.640448E+04  1.983658E+04
       116   1 -1.497720E+06 -1.388148E+05  1.048938E+05 -6.785122E+05  2.938196E+04 -1.863338E+04
       116   2 -1.422615E+06 -8.565989E+04  1.099890E+05 -6.306025E+05  4.966702E+04 -1.672705E+04
       116   3 -1.326333E+06 -8.295280E+04  9.608333E+04 -6.134479E+05  6.947437E+04 -1.352703E+04
       116   4 -2.013230E+06 -3.277459E+05 -2.126431E+04 -8.162158E+05  2.481773E+04 -2.034588E+04
       116   5 -2.025086E+06 -3.119407E+05 -3.818376E+04 -7.972763E+05  4.612682E+04 -1.805789E+04
       116   6 -2.015985E+06 -3.468039E+05 -7.493240E+04 -8.090974E+05  6.695511E+04 -1.447697E+04
       116   7 -2.528478E+06 -5.166612E+05 -1.474424E+05 -9.538161E+05  2.025764E+04 -2.205689E+04
       116   8 -2.627196E+06 -5.381948E+05 -1.863838E+05 -9.638018E+05  4.259038E+04 -1.938730E+04
       116   9 -2.705164E+06 -6.106149E+05 -2.459841E+05 -1.004546E+06  6.443890E+04 -1.542571E+04
       116  10 -1.497721E+06 -1.388154E+05  1.048916E+05 -6.785117E+05 -6.046965E-10 -3.692459E-10
       116  11 -1.422617E+06 -8.566085E+04  1.099839E+05 -6.306019E+05 -7.858961E-10 -6.859126E-11
       116  12 -1.326338E+06 -8.295429E+04  9.607391E+04 -6.134471E+05  1.359514E-09  5.357527E-10
       116  13 -2.013231E+06 -3.277465E+05 -2.126625E+04 -8.162154E+05 -7.496951E-11  6.371337E-11
       116  14 -2.025088E+06 -3.119416E+05 -3.818838E+04 -7.972756E+05  3.903187E-10 -3.148582E-10
       116  15 -2.015990E+06 -3.468053E+05 -7.494124E+04 -8.090967E+05  2.333707E-09  2.946253E-10
       116  16 -2.528478E+06 -5.166619E+05 -1.474441E+05 -9.538158E+05  5.031095E-11 -2.580233E-10
       116  17 -2.627198E+06 -5.381957E+05 -1.863880E+05 -9.638011E+05  9.815678E-10 -4.822102E-10
       116  18 -2.705168E+06 -6.106162E+05 -2.459923E+05 -1.004545E+06  2.934267E-09 -8.490738E-11
       116  19 -1.497720E+06 -1.388148E+05  1.048938E+05 -6.785122E+05 -2.938196E+04  1.863338E+04
       116  20 -1.422615E+06 -8.565989E+04  1.099890E+05 -6.306025E+05 -4.966702E+04  1.672705E+04
       116  21 -1.326333E+06 -8.295280E+04  9.608333E+04 -6.134479E+05 -6.947437E+04  1.352703E+04
       116  22 -2.013230E+06 -3.277459E+05 -2.126431E+04 -8.162158E+05 -2.481773E+04  2.034588E+04
       116  23 -2.025086E+06 -3.119407E+05 -3.818376E+04 -7.972763E+05 -4.612682E+04  1.805789E+04
       116  24 -2.015985E+06 -3.468039E+05 -7.493240E+04 -8.090974E+05 -6.695511E+04  1.447697E+04
       116  25 -2.528478E+06 -5.166612E+05 -1.474424E+05 -9.538161E+05 -2.025764E+04  2.205689E+04
       116  26 -2.627196E+06 -5.381948E+05 -1.863838E+05 -9.638018E+05 -4.259038E+04  1.938730E+04
       116  27 -2.705164E+06 -6.106149E+05 -2.459841E+05 -1.004546E+06 -6.443890E+04  1.542571E+04
       117   1 -1.224353E+06 -5.808760E+04  9.524539E+04 -6.499589E+05  9.200923E+04 -1.170765E+04
       117   2 -1.174007E+06  5.171061E+04  4.864261E+04 -5.232960E+05  1.587364E+05  1.376173E+04
       117   3 -1.212707E+06 -1.580211E+05 -1.273844E+05 -3.537524E+05  2.153071E+05  6.626426E+04
       117   4 -2.028460E+06 -3.160802E+05 -9.416544E+04 -8.271090E+05  8.130501E+04 -1.572597E+04
       117   5 -2.002523E+06 -2.999686E+05 -1.645746E+05 -7.937460E+05  1.697427E+05  1.788288E+04
       117   6 -2.070127E+06 -6.079885E+05 -3.817897E+05 -7.174730E+05  2.480097E+05  7.851764E+04
       117   7 -2.831934E+06 -5.740684E+05 -2.836214E+05 -1.004069E+06  7.061584E+04 -1.974045E+04
       117   8 -2.830353E+06 -6.515425E+05 -3.778471E+05 -1.063846E+06  1.807329E+05  2.199604E+04
       117   9 -2.926778E+06 -1.057672E+06 -6.362569E+05 -1.080665E+06  2.806622E+05  9.073531E+04
       117  10 -1.224362E+06 -5.809002E+04  9.522919E+04 -6.499580E+05  1.207610E-08  3.939237E-09
       117  11 -1.174034E+06  5.170362E+04  4.859481E+04 -5.232978E+05  3.244986E-09  1.869704E-09
       117  12 -1.212758E+06 -1.580383E+05 -1.274800E+05 -3.537640E+05 -6.062218E-09 -1.614094E-09
       117  13 -2.028467E+06 -3.160823E+05 -9.417835E+04 -8.271079E+05  3.750594E-09  9.148891E-10
       117  14 -2.002554E+06 -2.999767E+05 -1.646295E+05 -7.937485E+05  2.651339E-09  4.784700E-10
       117  15 -2.070195E+06 -6.080117E+05 -3.819174E+05 -7.174887E+05 -5.700652E-10  7.353002E-10
       117  16 -2.831939E+06 -5.740702E+05 -2.836316E+05 -1.004068E+06 -5.105914E-09 -2.628861E-09
       117  17 -2.830388E+06 -6.515518E+05 -3.779097E+05 -1.063850E+06  1.794497E-10  8.141141E-10
       117  18 -2.926865E+06 -1.057703E+06 -6.364213E+05 -1.080686E+06  6.247843E-09  3.255696E-09
       117  19 -1.224353E+06 -5.808760E+04  9.524539E+04 -6.499589E+05 -9.200923E+04  1.170765E+04
       117  20 -1.174007E+06  5.171061E+04  4.864261E+04 -5.232960E+05 -1.587364E+05 -1.376173E+04
       117  21 -1.212707E+06 -1.580211E+05 -1.273844E+05 -3.537524E+05 -2.153071E+05 -6.626426E+04
       117  22 -2.028460E+06 -3.160802E+05 -9.416544E+04 -8.271090E+05 -8.130501E+04  1.572597E+04
       117  23 -2.002523E+06 -2.999686E+05 -1.645746E+05 -7.937460E+05 -1.697427E+05 -1.788288E+04
       117  24 -2.070127E+06 -6.079885E+05 -3.817897E+05 -7.174730E+05 -2.480097E+05 -7.851764E+04
       117  25 -2.831934E+06 -5.740684E+05 -2.836214E+05 -1.004069E+06 -7.061584E+04  1.974045E+04
       117  26 -2.830353E+06 -6.515425E+05 -3.778471E+05 -1.063846E+06 -1.807329E+05 -2.199604E+04
       117  27 -2.926778E+06 -1.057672E+06 -6.362569E+05 -1.080665E+06 -2.806622E+05 -9.073531E+04
       118   1 -4.069444E+05 -1.990360E+04  9.273090E+03  2.540661E+04  8.285093E+04  7.532378E+03
       118   2 -3.727794E+05 -1.318647E+05 -5.088686E+04 -1.359778E+03  5.979098E+04  2.338065E+04
       118   3 -3.053511E+05 -1.234131E+05 -6.589358E+04 -4.969582E+04  3.673957E+04  2.411132E+04
       118   4  1.732715E+05  1.242157E+05  1.501265E+05 -3.151734E+04  1.031495E+05  7.539091E+03
       118   5  1.555335E+05 -2.421301E+03  6.806998E+04 -2.069431E+04  6.700371E+04  2.338134E+04
       118   6  1.732949E+05 -6.434827E+03  4.022408E+04 -3.143851E+04  3.086933E+04  2.410895E+04
       118   7  7.538028E+05  2.683227E+05  2.909589E+05 -8.849471E+04  1.234670E+05  7.542080E+03
       118   8  6.841070E+05  1.270045E+05  1.870094E+05 -4.004550E+04  7.422251E+04  2.338157E+04
       118   9  6.521556E+05  1.105293E+05  1.463278E+05 -1.316697E+04  2.499461E+04  2.410623E+04
       118  10 -4.069518E+05 -1.990551E+04  9.260076E+03  2.540610E+04 -8.902114E-10  4.757768E-10
       118  11 -3.727833E+05 -1.318663E+05 -5.089461E+04 -1.360905E+03  3.051908E-10  8.586160E-11
       118  12 -3.053527E+05 -1.234141E+05 -6.589721E+04 -4.969653E+04  7.903531E-10 -6.756372E-10
       118  13  1.732600E+05  1.242128E+05  1.501064E+05 -3.151797E+04 -8.484079E-12  8.556852E-11
       118  14  1.555285E+05 -2.423093E+03  6.806052E+04 -2.069558E+04 -2.231168E-09 -8.133851E-10
       118  15  1.732937E+05 -6.435707E+03  4.022120E+04 -3.143911E+04  2.248177E-09 -2.938253E-10
       118  16  7.537864E+05  2.683186E+05  2.909302E+05 -8.849546E+04  1.057944E-09 -3.044549E-10
       118  17  6.841009E+05  1.270024E+05  1.869980E+05 -4.004690E+04 -1.490091E-09 -5.547591E-10
       118  18  6.521547E+05  1.105285E+05  1.463256E+05 -1.316746E+04 -2.868351E-10 -1.157248E-10
       118  19 -4.069444E+05 -1.990360E+04  9.273090E+03  2.540661E+04 -8.285093E+04 -7.532378E+03
       118  20 -3.727794E+05 -1.318647E+05 -5.088686E+04 -1.359778E+03 -5.979098E+04 -2.338065E+04
       118  21 -3.053511E+05 -1.234131E+05 -6.589358E+04 -4.969582E+04 -3.673957E+04 -2.411132E+04
       118  22  1.732715E+05  1.242157E+05  1.501265E+05 -3.151734E+04 -1.031495E+05 -7.539091E+03
       118  23  1.555335E+05 -2.421301E+03  6.806998E+04 -2.069431E+04 -6.700371E+04 -2.338134E+04
       118  24  1.732949E+05 -6.434827E+03  4.022408E+04 -3.143851E+04 -3.086933E+04 -2.410895E+04
       118  25  7.538028E+05  2.683227E+05  2.909589E+05 -8.849471E+04 -1.234670E+05 -7.542080E+03
       118  26  6.841070E+05  1.270045E+05  1.870094E+05 -4.004550E+04 -7.422251E+04 -2.338157E+04
       118  27  6.521556E+05  1.105293E+05  1.463278E+05 -1.316697E+04 -2.499461E+04 -2.410623E+04
       119   1 -2.696304E+05 -9.928561E+04 -6.503097E+04 -2.910319E+04  2.648442E+04  2.104631E+04
       119   2 -2.206338E+05 -9.451013E+04 -6.830558E+04 -1.998154E+04  1.839554E+04  1.910011E+04
       119   3 -1.686492E+05 -8.228055E+04 -6.443291E+04 -3.292449E+04  1.030508E+04  1.648061E+04
       119   4  1.660988E+05  7.286242E+03  3.207309E+04 -3.156984E+04  2.510786E+04  2.104478E+04
       119   5  1.645621E+05 -3.551299E+02  1.725469E+04 -2.053740E+04  1.643182E+04  1.909897E+04
       119   6  1.661110E+05 -4.431575E+02  9.987657E+03 -3.156860E+04  7.754845E+03  1.648001E+04
       119   7  6.020050E+05  1.138452E+05  1.291653E+05 -3.403824E+04  2.373035E+04  2.104325E+04
       119   8  5.498964E+05  9.378983E+04  1.028057E+05 -2.109362E+04  1.446690E+04  1.909783E+04
       119   9  5.009758E+05  8.138665E+04  8.440127E+04 -3.021197E+04  5.203254E+03  1.647940E+04
       119  10 -2.696313E+05 -9.928628E+04 -6.503313E+04 -2.910364E+04  5.533557E-10 -6.548705E-10
       119  11 -2.206342E+05 -9.451061E+04 -6.830690E+04 -1.998182E+04 -5.984442E-09  5.457759E-10
       119  12 -1.686494E+05 -8.228087E+04 -6.443362E+04 -3.292463E+04 -7.372852E-09 -1.140949E-09
       119  13  1.660980E+05  7.285597E+03  3.207107E+04 -3.157026E+04 -3.285116E-12 -1.557559E-10
       119  14  1.645617E+05 -3.555941E+02  1.725350E+04 -2.053766E+04 -5.380586E-10  2.823015E-10
       119  15  1.661109E+05 -4.434653E+02  9.987033E+03 -3.156871E+04 -9.714656E-10 -6.132582E-10
       119  16  6.020043E+05  1.138446E+05  1.291634E+05 -3.403864E+04  1.495125E-10  4.384588E-10
       119  17  5.498960E+05  9.378938E+04  1.028047E+05 -2.109385E+04  3.051859E-09 -1.696341E-13
       119  18  5.009757E+05  8.138636E+04  8.440070E+04 -3.021204E+04  5.049535E-09 -9.264625E-11
       119  19 -2.696304E+05 -9.928561E+04 -6.503097E+04 -2.910319E+04 -2.648442E+04 -2.104631E+04
       119  20 -2.206338E+05 -9.451013E+04 -6.830558E+04 -1.998154E+04 -1.839554E+04 -1.910011E+04
       119  21 -1.686492E+05 -8.228055E+04 -6.443291E+04 -3.292449E+04 -1.030508E+04 -1.648061E+04
       119  22  1.660988E+05  7.286242E+03  3.207309E+04 -3.156984E+04 -2.510786E+04 -2.104478E+04
       119  23  1.645621E+05 -3.551299E+02  1.725469E+04 -2.053740E+04 -1.643182E+04 -1.909897E+04
       119  24  1.661110E+05 -4.431575E+02  9.987657E+03 -3.156860E+04 -7.754845E+03 -1.648001E+04
       119  25  6.020050E+05  1.138452E+05  1.291653E+05 -3.403824E+04 -2.373035E+04 -2.104325E+04
       119  26  5.498964E+05  9.378983E+04  1.028057E+05 -2.109362E+04 -1.446690E+04 -1.909783E+04
       119  27  5.009758E+05  8.138665E+04  8.440127E+04 -3.021197E+04 -5.203254E+03 -1.647940E+04
       120   1 -1.266870E+05 -7.102272E+04 -5.705915E+04 -3.163567E+04  8.548872E+03  1.480146E+04
       120   2 -7.649633E+04 -5.916387E+04 -4.932677E+04 -2.062698E+04  6.423524E+03  1.206652E+04
       120   3 -2.588989E+04 -4.683140E+04 -4.008795E+04 -3.167538E+04  4.297083E+03  9.302749E+03
       120   4  1.655240E+05  3.641545E+02  7.666467E+03 -3.156735E+04  6.200461E+03  1.480112E+04
       120   5  1.653192E+05 -6.994864E+01  4.336641E+03 -2.053911E+04  4.049169E+03  1.206653E+04
       120   6  1.655312E+05 -2.618407E+01  2.530531E+03 -3.156744E+04  1.896953E+03  9.303123E+03
       120   7  4.578147E+05  7.174527E+04  7.238682E+04 -3.149900E+04  3.850956E+03  1.480078E+04
       120   8  4.071893E+05  5.902002E+04  5.799644E+04 -2.045120E+04  1.673899E+03  1.206654E+04
       120   9  3.569866E+05  4.677655E+04  4.514674E+04 -3.145946E+04 -5.039091E+02  9.303497E+03
       120  10 -1.266871E+05 -7.102297E+04 -5.705970E+04 -3.163578E+04  6.279026E-09 -1.642731E-09
       120  11 -7.649641E+04 -5.916404E+04 -4.932712E+04 -2.062704E+04  4.870234E-10 -2.862472E-10
       120  12 -2.588993E+04 -4.683150E+04 -4.008815E+04 -3.167542E+04 -1.853103E-09  8.596749E-10
       120  13  1.655239E+05  3.639090E+02  7.665983E+03 -3.156743E+04 -1.986976E-12 -1.020931E-09
       120  14  1.653192E+05 -7.010941E+01  4.336336E+03 -2.053915E+04 -5.109429E-10 -3.753605E-10
       120  15  1.655312E+05 -2.627798E+01  2.530361E+03 -3.156746E+04  7.758604E-10  8.284191E-10
       120  16  4.578147E+05  7.174503E+04  7.238638E+04 -3.149905E+04 -5.761257E-09 -4.486367E-10
       120  17  4.071893E+05  5.901987E+04  5.799616E+04 -2.045122E+04 -4.758140E-09 -4.194385E-10
       120  18  3.569865E+05  4.677646E+04  4.514658E+04 -3.145946E+04  1.991487E-09  1.162029E-09
       120  19 -1.266870E+05 -7.102272E+04 -5.705915E+04 -3.163567E+04 -8.548872E+03 -1.480146E+04
       120  20 -7.649633E+04 -5.916387E+04 -4.932677E+04 -2.062698E+04 -6.423524E+03 -1.206652E+04
       120  21 -2.588989E+04 -4.683140E+04 -4.008795E+04 -3.167538E+04 -4.297083E+03 -9.302749E+03
       120  22  1.655240E+05  3.641545E+02  7.666467E+03 -3.156735E+04 -6.200461E+03 -1.480112E+04
       120  23  1.653192E+05 -6.994864E+01  4.336641E+03 -2.053911E+04 -4.049169E+03 -1.206653E+04
       120  24  1.655312E+05 -2.618407E+01  2.530531E+03 -3.156744E+04 -1.896953E+03 -9.303123E+03
       120  25  4.578147E+05  7.174527E+04  7.238682E+04 -3.149900E+04 -3.850956E+03 -1.480078E+04
       120  26  4.071893E+05  5.902002E+04  5.799644E+04 -2.045120E+04 -1.673899E+03 -1.206654E+04
       120  27  3.569866E+05  4.677655E+04  4.514674E+04 -3.145946E+04  5.039091E+02 -9.303497E+03
       121   1  1.652130E+04 -3.635055E+04 -3.095584E+04 -3.159570E+04  3.883074E+03  7.687883E+03
       121   2  6.683695E+04 -2.409593E+04 -2.068407E+04 -2.056313E+04  3.294712E+03  4.920613E+03
       121   3  1.172320E+05 -1.179935E+04 -1.002136E+04 -3.156545E+04  2.705937E+03  2.152560E+03
       121   4  1.654591E+05  1.531616E+01  1.949958E+03 -3.156256E+04  1.492490E+03  7.688411E+03
       121   5  1.654220E+05 -6.464995E+00  1.190657E+03 -2.054522E+04  9.032354E+02  4.921280E+03
       121   6  1.654620E+05  1.400625E+01  8.229049E+02 -3.156257E+04  3.136142E+02  2.153376E+03
       121   7  3.144176E+05  3.637969E+04  3.485441E+04 -3.152941E+04 -8.986609E+02  7.688938E+03
       121   8  2.640161E+05  2.408235E+04  2.306480E+04 -2.052731E+04 -1.488617E+03  4.921947E+03
       121   9  2.136942E+05  1.182720E+04  1.166705E+04 -3.155968E+04 -2.078893E+03  2.154192E+03
       121  10  1.652127E+04 -3.635061E+04 -3.095598E+04 -3.159572E+04  2.266593E-11  8.644826E-10
       121  11  6.683693E+04 -2.409596E+04 -2.068414E+04 -2.056314E+04 -2.202216E-09  6.049871E-10
       121  12  1.172319E+05 -1.179935E+04 -1.002139E+04 -3.156546E+04 -7.927975E-10  2.652828E-10
       121  13  1.654591E+05  1.525208E+01  1.949843E+03 -3.156257E+04 -1.126022E-09  1.162568E-09
       121  14  1.654220E+05 -6.491223E+00  1.190610E+03 -2.054522E+04 -1.047240E-09 -2.577484E-10
       121  15  1.654620E+05  1.400124E+01  8.228960E+02 -3.156257E+04  2.420246E-10 -4.719740E-10
       121  16  3.144176E+05  3.637963E+04  3.485430E+04 -3.152940E+04 -1.061997E-09  7.444118E-10
       121  17  2.640161E+05  2.408232E+04  2.306475E+04 -2.052731E+04  2.652824E-10 -4.881492E-10
       121  18  2.136942E+05  1.182720E+04  1.166703E+04 -3.155968E+04  1.179787E-09 -9.812756E-10
       121  19  1.652130E+04 -3.635055E+04 -3.095584E+04 -3.159570E+04 -3.883074E+03 -7.687883E+03
       121  20  6.683695E+04 -2.409593E+04 -2.068407E+04 -2.056313E+04 -3.294712E+03 -4.920613E+03
       121  21  1.172320E+05 -1.179935E+04 -1.002136E+04 -3.156545E+04 -2.705937E+03 -2.152560E+03
       121  22  1.654591E+05  1.531616E+01  1.949958E+03 -3.156256E+04 -1.492490E+03 -7.688411E+03
       121  23  1.654220E+05 -6.464995E+00  1.190657E+03 -2.054522E+04 -9.032354E+02 -4.921280E+03
       121  24  1.654620E+05  1.400625E+01  8.229049E+02 -3.156257E+04 -3.136142E+02 -2.153376E+03
       121  25  3.144176E+05  3.637969E+04  3.485441E+04 -3.152941E+04  8.986609E+02 -7.688938E+03
       121  26  2.640161E+05  2.408235E+04  2.306480E+04 -2.052731E+04  1.488617E+03 -4.921947E+03
       121  27  2.136942E+05  1.182720E+04  1.166705E+04 -3.155968E+04  2.078893E+03 -2.154192E+03
       122   1  1.596886E+05 -1.365865E+03 -3.968596E+02 -3.156921E+04  2.563554E+03  5.413511E+02
       122   2  2.100198E+05  1.089612E+04  1.063270E+04 -2.054883E+04  2.195928E+03 -2.226256E+03
       122   3  2.603926E+05  2.318481E+04  2.190429E+04 -3.155988E+04  1.828444E+03 -4.992949E+03
       122   4  1.654543E+05  1.427549E+01  7.392621E+02 -3.156187E+04  1.712830E+02  5.421917E+02
       122   5  1.654337E+05  2.325147E+00  7.403993E+02 -2.054610E+04 -1.956093E+02 -2.225486E+03
       122   6  1.654530E+05  1.730626E+01  9.833417E+02 -3.156186E+04 -5.623301E+02 -4.992239E+03
       122   7  1.712200E+05  1.394417E+03  1.875404E+03 -3.155452E+04 -2.221010E+03  5.430323E+02
       122   8  1.208494E+05 -1.089160E+04 -9.152008E+03 -2.054337E+04 -2.586977E+03 -2.224715E+03
       122   9  7.052174E+04 -2.315080E+04 -1.993813E+04 -3.156384E+04 -2.952744E+03 -4.991530E+03
       122  10  1.596886E+05 -1.365867E+03 -3.968725E+02 -3.156921E+04 -1.351994E-09  3.071647E-10
       122  11  2.100198E+05  1.089611E+04  1.063269E+04 -2.054883E+04 -2.179970E-09  3.768032E-10
       122  12  2.603926E+05  2.318478E+04  2.190423E+04 -3.155988E+04  4.672729E-10 -6.889040E-10
       122  13  1.654543E+05  1.427516E+01  7.392615E+02 -3.156187E+04  1.008959E-09  4.462341E-10
       122  14  1.654337E+05  2.319818E+00  7.403899E+02 -2.054610E+04 -5.980654E-10  9.163480E-10
       122  15  1.654529E+05  1.727941E+01  9.832943E+02 -3.156186E+04  1.644514E-10 -3.374163E-10
       122  16  1.712200E+05  1.394416E+03  1.875394E+03 -3.155452E+04  1.567081E-09 -1.268920E-10
       122  17  1.208494E+05 -1.089160E+04 -9.152030E+03 -2.054337E+04  1.081650E-09  9.226747E-10
       122  18  7.052172E+04 -2.315083E+04 -1.993820E+04 -3.156385E+04  1.634939E-09  7.318845E-10
       122  19  1.596886E+05 -1.365865E+03 -3.968596E+02 -3.156921E+04 -2.563554E+03 -5.413511E+02
       122  20  2.100198E+05  1.089612E+04  1.063270E+04 -2.054883E+04 -2.195928E+03  2.226256E+03
       122  21  2.603926E+05  2.318481E+04  2.190429E+04 -3.155988E+04 -1.828444E+03  4.992949E+03
       122  22  1.654543E+05  1.427549E+01  7.392621E+02 -3.156187E+04 -1.712830E+02 -5.421917E+02
       122  23  1.654337E+05  2.325147E+00  7.403993E+02 -2.054610E+04  1.956093E+02  2.225486E+03
       122  24  1.654530E+05  1.730626E+01  9.833417E+02 -3.156186E+04  5.623301E+02  4.992239E+03
       122  25  1.712200E+05  1.394417E+03  1.875404E+03 -3.155452E+04  2.221010E+03 -5.430323E+02
       122  26  1.208494E+05 -1.089160E+04 -9.152008E+03 -2.054337E+04  2.586977E+03  2.224715E+03
       122  27  7.052174E+04 -2.315080E+04 -1.993813E+04 -3.156384E+04  2.952744E+03  4.991530E+03
       123   1  3.029047E+05  3.360139E+04  3.183971E+04 -3.153585E+04  1.638703E+03 -6.606832E+03
       123   2  3.531989E+05  4.585730E+04  4.363332E+04 -2.052461E+04  6.401358E+02 -9.369549E+03
       123   3  4.036853E+05  5.833349E+04  5.613230E+04 -3.155575E+04 -3.578263E+02 -1.210577E+04
       123   4  1.654830E+05 -1.575942E+00  1.209589E+03 -3.156438E+04 -7.608079E+02 -6.606226E+03
       123   5  1.653876E+05 -2.743695E+01  1.964856E+03 -2.054296E+04 -1.736311E+03 -9.369228E+03
       123   6  1.654774E+05  1.630233E+02  3.409548E+03 -3.156433E+04 -2.711129E+03 -1.210572E+04
       123   7  2.807888E+04 -3.360582E+04 -2.942170E+04 -3.159290E+04 -3.159793E+03 -6.605620E+03
       123   8 -2.239076E+04 -4.591455E+04 -3.970578E+04 -2.056130E+04 -4.112046E+03 -9.368907E+03
       123   9 -7.267753E+04 -5.801127E+04 -4.931669E+04 -3.157289E+04 -5.063539E+03 -1.210567E+04
       123  10  3.029046E+05  3.360135E+04  3.183963E+04 -3.153584E+04  1.035586E-09 -5.655891E-10
       123  11  3.531989E+05  4.585720E+04  4.363316E+04 -2.052461E+04 -1.110123E-09 -1.539557E-10
       123  12  4.036853E+05  5.833334E+04  5.613202E+04 -3.155576E+04 -1.347239E-09 -4.833279E-11
       123  13  1.654829E+05 -1.622966E+00  1.209506E+03 -3.156438E+04  1.128182E-09 -6.070932E-10
       123  14  1.653876E+05 -2.753203E+01  1.964685E+03 -2.054297E+04  1.704916E-09 -7.997369E-10
       123  15  1.654774E+05  1.628640E+02  3.409258E+03 -3.156435E+04  1.159505E-09 -2.345039E-11
       123  16  2.807886E+04 -3.360587E+04 -2.942180E+04 -3.159291E+04  1.530161E-09  2.831373E-10
       123  17 -2.239080E+04 -4.591465E+04 -3.970598E+04 -2.056133E+04  2.789191E-09 -1.133224E-09
       123  18 -7.267759E+04 -5.801143E+04 -4.931702E+04 -3.157294E+04  1.019733E-09 -1.501738E-10
       123  19  3.029047E+05  3.360139E+04  3.183971E+04 -3.153585E+04 -1.638703E+03  6.606832E+03
       123  20  3.531989E+05  4.585730E+04  4.363332E+04 -2.052461E+04 -6.401358E+02  9.369549E+03
       123  21  4.036853E+05  5.833349E+04  5.613230E+04 -3.155575E+04  3.578263E+02  1.210577E+04
       123  22  1.654830E+05 -1.575942E+00  1.209589E+03 -3.156438E+04  7.608079E+02  6.606226E+03
       123  23  1.653876E+05 -2.743695E+01  1.964856E+03 -2.054296E+04  1.736311E+03  9.369228E+03
       123  24  1.654774E+05  1.630233E+02  3.409548E+03 -3.156433E+04  2.711129E+03  1.210572E+04
       123  25  2.807888E+04 -3.360582E+04 -2.942170E+04 -3.159290E+04  3.159793E+03  6.605620E+03
       123  26 -2.239076E+04 -4.591455E+04 -3.970578E+04 -2.056130E+04  4.112046E+03  9.368907E+03
       123  27 -7.267753E+04 -5.801127E+04 -4.931669E+04 -3.157289E+04  5.063539E+03  1.210567E+04
       124   1  4.464892E+05  6.841943E+04  6.683895E+04 -3.099126E+04 -8.640676E+02 -1.377741E+04
       124   2  4.962274E+05  8.075412E+04  8.115081E+04 -2.079730E+04 -5.226069E+03 -1.640668E+04
       124   3  5.474369E+05  9.651253E+04  9.916646E+04 -3.265453E+04 -9.587361E+03 -1.842278E+04
       124   4  1.657374E+05 -1.935127E+02  4.425925E+03 -3.156632E+04 -3.401371E+03 -1.377757E+04
       124   5  1.650435E+05 -1.642754E+02  7.615736E+03 -2.054046E+04 -7.231461E+03 -1.640735E+04
       124   6  1.657272E+05  3.197680E+03  1.414164E+04 -3.156644E+04 -1.106049E+04 -1.842380E+04
       124   7 -1.149410E+05 -6.881179E+04 -5.799199E+04 -3.214112E+04 -5.937540E+03 -1.377773E+04
       124   8 -1.660382E+05 -8.109008E+04 -6.592614E+04 -2.028375E+04 -9.235794E+03 -1.640801E+04
       124   9 -2.158467E+05 -9.012704E+04 -7.089229E+04 -3.047902E+04 -1.253273E+04 -1.842481E+04
       124  10  4.464892E+05  6.841923E+04  6.683859E+04 -3.099127E+04  5.395345E-11 -6.202302E-10
       124  11  4.962273E+05  8.075382E+04  8.115025E+04 -2.079737E+04 -8.543869E-10 -9.621556E-10
       124  12  5.474367E+05  9.651214E+04  9.916565E+04 -3.265468E+04  1.435692E-09 -2.387042E-10
       124  13  1.657373E+05 -1.937197E+02  4.425546E+03 -3.156636E+04  1.081251E-09 -1.487449E-10
       124  14  1.650433E+05 -1.645786E+02  7.615132E+03 -2.054055E+04 -5.089328E-10 -6.383127E-10
       124  15  1.657270E+05  3.197283E+03  1.414077E+04 -3.156660E+04  5.471450E-10 -3.359807E-10
       124  16 -1.149411E+05 -6.881200E+04 -5.799242E+04 -3.214119E+04 -1.076790E-09  2.291336E-10
       124  17 -1.660383E+05 -8.109039E+04 -6.592681E+04 -2.028387E+04 -6.402831E-11 -3.984439E-10
       124  18 -2.158469E+05 -9.012744E+04 -7.089323E+04 -3.047920E+04 -4.679995E-10 -3.176547E-10
       124  19  4.464892E+05  6.841943E+04  6.683895E+04 -3.099126E+04  8.640676E+02  1.377741E+04
       124  20  4.962274E+05  8.075412E+04  8.115081E+04 -2.079730E+04  5.226069E+03  1.640668E+04
       124  21  5.474369E+05  9.651253E+04  9.916646E+04 -3.265453E+04  9.587361E+03  1.842278E+04
       124  22  1.657374E+05 -1.935127E+02  4.425925E+03 -3.156632E+04  3.401371E+03  1.377757E+04
       124  23  1.650435E+05 -1.642754E+02  7.615736E+03 -2.054046E+04  7.231461E+03  1.640735E+04
       124  24  1.657272E+05  3.197680E+03  1.414164E+04 -3.156644E+04  1.106049E+04  1.842380E+04
       124  25 -1.149410E+05 -6.881179E+04 -5.799199E+04 -3.214112E+04  5.937540E+03  1.377773E+04
       124  26 -1.660382E+05 -8.109008E+04 -6.592614E+04 -2.028375E+04  9.235794E+03  1.640801E+04
       124  27 -2.158467E+05 -9.012704E+04 -7.089229E+04 -3.047902E+04  1.253273E+04  1.842481E+04
       125   1  5.935154E+05  1.008562E+05  1.118292E+05 -2.338623E+04 -8.034446E+03 -2.135206E+04
       125   2  6.353705E+05  1.150709E+05  1.367526E+05 -2.917156E+04 -3.586067E+04 -2.092716E+04
       125   3  6.949767E+05  1.853864E+05  1.938278E+05 -5.651651E+04 -6.369706E+04 -6.748404E+03
       125   4  1.689022E+05 -2.852453E+03  1.773285E+04 -3.145056E+04 -1.360087E+04 -2.135416E+04
       125   5  1.610449E+05 -1.094322E+03  2.999345E+04 -2.068333E+04 -2.952374E+04 -2.092638E+04
       125   6  1.688844E+05  5.472165E+04  6.615689E+04 -3.147521E+04 -4.545420E+04 -6.741539E+03
       125   7 -2.555425E+05 -1.065730E+05 -7.637451E+04 -3.950933E+04 -1.916354E+04 -2.135611E+04
       125   8 -3.130714E+05 -1.172746E+05 -7.677987E+04 -1.220166E+04 -2.319159E+04 -2.092543E+04
       125   9 -3.569534E+05 -7.596089E+04 -6.153238E+04 -6.455204E+03 -2.722673E+04 -6.733200E+03
       125  10  5.935152E+05  1.008557E+05  1.118282E+05 -2.338636E+04  7.783719E-09  5.614347E-10
       125  11  6.353690E+05  1.150701E+05  1.367494E+05 -2.917216E+04 -5.975725E-10  1.028924E-09
       125  12  6.949723E+05  1.853853E+05  1.938201E+05 -5.651685E+04 -6.987701E-09  6.475373E-10
       125  13  1.689019E+05 -2.852992E+03  1.773165E+04 -3.145079E+04 -2.268602E-09 -1.620504E-10
       125  14  1.610439E+05 -1.095026E+03  2.999099E+04 -2.068382E+04 -5.377397E-10  8.029463E-10
       125  15  1.688821E+05  5.472105E+04  6.615292E+04 -3.147546E+04 -2.930668E-10  8.993011E-11
       125  16 -2.555431E+05 -1.065736E+05 -7.637606E+04 -3.950966E+04 -8.097106E-09 -2.279194E-11
       125  17 -3.130721E+05 -1.172752E+05 -7.678170E+04 -1.220205E+04 -4.897616E-10  2.876735E-10
       125  18 -3.569542E+05 -7.596113E+04 -6.153386E+04 -6.455352E+03  7.311722E-09  6.976541E-10
       125  19  5.935154E+05  1.008562E+05  1.118292E+05 -2.338623E+04  8.034446E+03  2.135206E+04
       125  20  6.353705E+05  1.150709E+05  1.367526E+05 -2.917156E+04  3.586067E+04  2.092716E+04
       125  21  6.949767E+05  1.853864E+05  1.938278E+05 -5.651651E+04  6.369706E+04  6.748404E+03
       125  22  1.689022E+05 -2.852453E+03  1.773285E+04 -3.145056E+04  1.360087E+04  2.135416E+04
       125  23  1.610449E+05 -1.094322E+03  2.999345E+04 -2.068333E+04  2.952374E+04  2.092638E+04
       125  24  1.688844E+05  5.472165E+04  6.615689E+04 -3.147521E+04  4.545420E+04  6.741539E+03
       125  25 -2.555425E+05 -1.065730E+05 -7.637451E+04 -3.950933E+04  1.916354E+04  2.135611E+04
       125  26 -3.130714E+05 -1.172746E+05 -7.677987E+04 -1.220166E+04  2.319159E+04  2.092543E+04
       125  27 -3.569534E+05 -7.596089E+04 -6.153238E+04 -6.455204E+03  2.722673E+04  6.733200E+03
       126   1  5.479095E+05  1.730837E+06  5.463685E+05 -3.152566E+05  2.287497E+04  9.742190E+04
       126   2  3.790829E+05  1.250109E+06  3.750848E+05 -2.002427E+05  6.608423E+04  3.587628E+04
       126   3  2.638480E+05  7.911093E+05  2.572265E+05 -2.880064E+05  5.358254E+04 -2.570320E+04
       126   4  4.493506E+04 -2.929580E+05  5.381184E+04 -2.923731E+05  2.297681E+04  3.591857E+04
       126   5 -6.482866E+02 -2.993617E+05  2.515943E+04 -1.910137E+05  6.612260E+04  2.266469E+04
       126   6 -9.229297E+02 -2.925496E+05  1.651020E+04 -2.924521E+05  5.349794E+04  9.329605E+03
       126   7 -4.583371E+05 -2.313013E+06 -4.390276E+05 -2.695620E+05  2.307433E+04 -2.538535E+04
       126   8 -3.805441E+05 -1.846603E+06 -3.249193E+05 -1.818065E+05  6.616063E+04  9.485653E+03
       126   9 -2.657725E+05 -1.375111E+06 -2.242746E+05 -2.968890E+05  5.341276E+04  4.430199E+04
       126  10  5.479064E+05  1.730827E+06  5.463498E+05 -3.152584E+05 -1.223815E-09 -1.075076E-09
       126  11  3.790779E+05  1.250106E+06  3.750742E+05 -2.002446E+05 -8.425792E-10 -1.023867E-09
       126  12  2.638447E+05  7.911078E+05  2.572198E+05 -2.880053E+05  6.456580E-10 -2.568216E-10
       126  13  4.493415E+04 -2.929595E+05  5.380842E+04 -2.923737E+05 -2.902561E-09  1.112334E-09
       126  14 -6.531195E+02 -2.993635E+05  2.515025E+04 -1.910149E+05 -1.262043E-09  3.683533E-11
       126  15 -9.260263E+02 -2.925505E+05  1.650466E+04 -2.924525E+05 -6.710154E-10  1.348065E-09
       126  16 -4.583379E+05 -2.313014E+06 -4.390298E+05 -2.695615E+05  1.051721E-10  1.021658E-09
       126  17 -3.805488E+05 -1.846604E+06 -3.249277E+05 -1.818070E+05 -2.837906E-09  3.115650E-10
       126  18 -2.657761E+05 -1.375114E+06 -2.242836E+05 -2.968909E+05 -1.377276E-09 -9.267119E-10
       126  19  5.479095E+05  1.730837E+06  5.463685E+05 -3.152566E+05 -2.287497E+04 -9.742190E+04
       126  20  3.790829E+05  1.250109E+06  3.750848E+05 -2.002427E+05 -6.608423E+04 -3.587628E+04
       126  21  2.638480E+05  7.911093E+05  2.572265E+05 -2.880064E+05 -5.358254E+04  2.570320E+04
       126  22  4.493506E+04 -2.929580E+05  5.381184E+04 -2.923731E+05 -2.297681E+04 -3.591857E+04
       126  23 -6.482866E+02 -2.993617E+05  2.515943E+04 -1.910137E+05 -6.612260E+04 -2.266469E+04
       126  24 -9.229297E+02 -2.925496E+05  1.651020E+04 -2.924521E+05 -5.349794E+04 -9.329605E+03
       126  25 -4.583371E+05 -2.313013E+06 -4.390276E+05 -2.695620E+05 -2.307433E+04  2.538535E+04
       126  26 -3.805441E+05 -1.846603E+06 -3.249193E+05 -1.818065E+05 -6.616063E+04 -9.485653E+03
       126  27 -2.657725E+05 -1.375111E+06 -2.242746E+05 -2.968890E+05 -5.341276E+04 -4.430199E+04
       127   1  1.716887E+05  3.910698E+05  1.672411E+05 -2.956052E+05  3.301047E+04 -1.226113E+04
       127   2  5.373625E+04 -7.903456E+04  5.925486E+04 -1.908115E+05  1.076721E+04 -1.833213E+04
       127   3 -5.832907E+04 -5.478475E+05 -4.360769E+04 -2.912478E+05 -1.196394E+04 -2.440673E+04
       127   4  3.858203E+03 -2.950990E+05  1.426130E+04 -2.929696E+05  3.295985E+04  6.761926E+03
       127   5  7.939570E+02 -2.955765E+05  1.113581E+04 -1.903535E+05  1.071321E+04  1.110042E+03
       127   6  3.559330E+03 -2.950406E+05  1.285481E+04 -2.929705E+05 -1.202213E+04 -4.549871E+03
       127   7 -1.640041E+05 -9.808281E+05 -1.387467E+05 -2.903364E+05  3.290936E+04  2.576419E+04
       127   8 -5.215130E+04 -5.120738E+05 -3.698474E+04 -1.898957E+05  1.065923E+04  2.054551E+04
       127   9  6.544361E+04 -4.217332E+04  6.931478E+04 -2.946939E+05 -1.208041E+04  1.531499E+04
       127  10  1.716875E+05  3.910694E+05  1.672388E+05 -2.956049E+05  3.444152E-10  5.441710E-10
       127  11  5.373603E+04 -7.903495E+04  5.925401E+04 -1.908113E+05  1.567130E-09 -9.359716E-10
       127  12 -5.832939E+04 -5.478482E+05 -4.360908E+04 -2.912480E+05  7.111427E-11 -7.104461E-10
       127  13  3.857024E+03 -2.950993E+05  1.425917E+04 -2.929697E+05 -8.309057E-10  2.537960E-09
       127  14  7.938334E+02 -2.955765E+05  1.113559E+04 -1.903535E+05 -7.441575E-10  8.544743E-11
       127  15  3.559169E+03 -2.950407E+05  1.285450E+04 -2.929706E+05  5.722271E-10  1.553354E-09
       127  16 -1.640054E+05 -9.808291E+05 -1.387500E+05 -2.903371E+05 -3.943304E-10 -5.823304E-10
       127  17 -5.215154E+04 -5.120743E+05 -3.698575E+04 -1.898959E+05  1.962875E-09 -5.889342E-11
       127  18  6.544339E+04 -4.217362E+04  6.931406E+04 -2.946938E+05  2.862871E-10 -6.366936E-10
       127  19  1.716887E+05  3.910698E+05  1.672411E+05 -2.956052E+05 -3.301047E+04  1.226113E+04
       127  20  5.373625E+04 -7.903456E+04  5.925486E+04 -1.908115E+05 -1.076721E+04  1.833213E+04
       127  21 -5.832907E+04 -5.478475E+05 -4.360769E+04 -2.912478E+05  1.196394E+04  2.440673E+04
       127  22  3.858203E+03 -2.950990E+05  1.426130E+04 -2.929696E+05 -3.295985E+04 -6.761926E+03
       127  23  7.939570E+02 -2.955765E+05  1.113581E+04 -1.903535E+05 -1.071321E+04 -1.110042E+03
       127  24  3.559330E+03 -2.950406E+05  1.285481E+04 -2.929705E+05  1.202213E+04  4.549871E+03
       127  25 -1.640041E+05 -9.808281E+05 -1.387467E+05 -2.903364E+05 -3.290936E+04 -2.576419E+04
       127  26 -5.215130E+04 -5.120738E+05 -3.698474E+04 -1.898957E+05 -1.065923E+04 -2.054551E+04
       127  27  6.544361E+04 -4.217332E+04  6.931478E+04 -2.946939E+05  1.208041E+04 -1.531499E+04
       128   1 -1.592036E+05 -9.427265E+05 -1.303558E+05 -2.965235E+05 -3.147999E+04 -3.930210E+04
       128   2 -2.740367E+05 -1.413823E+06 -2.317304E+05 -1.831626E+05 -4.674000E+04 -1.175782E+04
       128   3 -3.581632E+05 -1.881108E+06 -3.435306E+05 -2.731833E+05 -1.710396E+04  1.585395E+04
       128   4 -2.552934E+02 -2.930565E+05  1.439880E+04 -2.925750E+05 -3.157068E+04 -6.843947E+03
       128   5 -1.126210E+02 -2.983618E+05  2.111359E+04 -1.908593E+05 -4.671898E+04 -1.803935E+04
       128   6  3.744929E+04 -2.933507E+05  4.432498E+04 -2.924941E+05 -1.700835E+04 -2.914618E+04
       128   7  1.586650E+05  3.570099E+05  1.591309E+05 -2.886220E+05 -3.166090E+04  2.564785E+04
       128   8  2.737258E+05  8.182575E+05  2.738775E+05 -1.985692E+05 -4.669782E+04 -2.433205E+04
       128   9  4.328777E+05  1.296715E+06  4.320044E+05 -3.118530E+05 -1.691008E+04 -7.426132E+04
       128  10 -1.592051E+05 -9.427284E+05 -1.303605E+05 -2.965245E+05 -2.182218E-09 -8.306437E-11
       128  11 -2.740391E+05 -1.413824E+06 -2.317348E+05 -1.831630E+05 -1.403750E-10 -8.474482E-10
       128  12 -3.581636E+05 -1.881108E+06 -3.435316E+05 -2.731830E+05 -6.047877E-10  4.798591E-10
       128  13 -2.563763E+02 -2.930568E+05  1.439684E+04 -2.925752E+05 -1.498505E-09  2.564602E-09
       128  14 -1.150523E+02 -2.983627E+05  2.110888E+04 -1.908600E+05 -1.253337E-09  3.822190E-11
       128  15  3.744875E+04 -2.933517E+05  4.432283E+04 -2.924945E+05  6.644979E-10  9.519123E-10
       128  16  1.586637E+05  3.570089E+05  1.591278E+05 -2.886213E+05  1.086110E-09  1.182318E-10
       128  17  2.737233E+05  8.182563E+05  2.738722E+05 -1.985701E+05 -3.070013E-10  2.600917E-11
       128  18  4.328759E+05  1.296709E+06  4.319936E+05 -3.118540E+05 -5.752527E-10 -1.472466E-09
       128  19 -1.592036E+05 -9.427265E+05 -1.303558E+05 -2.965235E+05  3.147999E+04  3.930210E+04
       128  20 -2.740367E+05 -1.413823E+06 -2.317304E+05 -1.831626E+05  4.674000E+04  1.175782E+04
       128  21 -3.581632E+05 -1.881108E+06 -3.435306E+05 -2.731833E+05  1.710396E+04 -1.585395E+04
       128  22 -2.552934E+02 -2.930565E+05  1.439880E+04 -2.925750E+05  3.157068E+04  6.843947E+03
       128  23 -1.126210E+02 -2.983618E+05  2.111359E+04 -1.908593E+05  4.671898E+04  1.803935E+04
       128  24  3.744929E+04 -2.933507E+05  4.432498E+04 -2.924941E+05  1.700835E+04  2.914618E+04
       128  25  1.586650E+05  3.570099E+05  1.591309E+05 -2.886220E+05  3.166090E+04 -2.564785E+04
       128  26  2.737258E+05  8.182575E+05  2.738775E+05 -1.985692E+05  4.669782E+04  2.433205E+04
       128  27  4.328777E+05  1.296715E+06  4.320044E+05 -3.118530E+05  1.691008E+04  7.426132E+04
       129   1 -1.698339E+06 -5.550290E+05 -3.112955E+05 -6.282910E+05 -1.363661E+05 -4.385834E+04
       129   2 -1.650236E+06 -3.577272E+05 -1.856807E+05 -6.192727E+05 -8.782299E+04 -1.014394E+04
       129   3 -1.648984E+06 -3.199457E+05 -1.396640E+05 -5.902416E+05 -3.422557E+04  1.013904E+04
       129   4 -1.269728E+06 -3.324683E+05 -1.845857E+05 -4.487577E+05 -1.200524E+05 -3.774402E+04
       129   5 -1.237381E+06 -1.832430E+05 -7.957900E+04 -4.852469E+05 -8.232683E+04 -8.083897E+03
       129   6 -1.249699E+06 -1.913388E+05 -4.554545E+04 -5.017358E+05 -3.955092E+04  8.139686E+03
       129   7 -8.409292E+05 -1.098417E+05 -5.789270E+04 -2.690963E+05 -1.037264E+05 -3.162101E+04
       129   8 -8.243560E+05 -8.733300E+03  2.650890E+04 -3.511349E+05 -7.682667E+04 -6.021889E+03
       129   9 -8.502554E+05 -6.272948E+04  4.856282E+04 -4.131820E+05 -4.488003E+04  6.139355E+03
       129  10 -1.698359E+06 -5.550360E+05 -3.113342E+05 -6.282958E+05  1.070236E-10  6.356871E-11
       129  11 -1.650244E+06 -3.577293E+05 -1.856954E+05 -6.192735E+05  4.706022E-09  5.185363E-10
       129  12 -1.648985E+06 -3.199462E+05 -1.396664E+05 -5.902414E+05  1.397812E-09  2.652476E-10
       129  13 -1.269744E+06 -3.324738E+05 -1.846156E+05 -4.487614E+05  7.740946E-10  3.810945E-10
       129  14 -1.237388E+06 -1.832449E+05 -7.959188E+04 -4.852474E+05  4.467526E-09  1.920846E-11
       129  15 -1.249701E+06 -1.913393E+05 -4.554852E+04 -5.017355E+05  3.416563E-09  1.787509E-10
       129  16 -8.409410E+05 -1.098457E+05 -5.791483E+04 -2.690989E+05  1.861342E-09  3.355342E-10
       129  17 -8.243623E+05 -8.734927E+03  2.649772E+04 -3.511353E+05  4.092340E-09  7.489715E-10
       129  18 -8.502576E+05 -6.273006E+04  4.855896E+04 -4.131818E+05  1.135042E-09  3.090360E-11
       129  19 -1.698339E+06 -5.550290E+05 -3.112955E+05 -6.282910E+05  1.363661E+05  4.385834E+04
       129  20 -1.650236E+06 -3.577272E+05 -1.856807E+05 -6.192727E+05  8.782299E+04  1.014394E+04
       129  21 -1.648984E+06 -3.199457E+05 -1.396640E+05 -5.902416E+05  3.422557E+04 -1.013904E+04
       129  22 -1.269728E+06 -3.324683E+05 -1.845857E+05 -4.487577E+05  1.200524E+05  3.774402E+04
       129  23 -1.237381E+06 -1.832430E+05 -7.957900E+04 -4.852469E+05  8.232683E+04  8.083897E+03
       129  24 -1.249699E+06 -1.913388E+05 -4.554545E+04 -5.017358E+05  3.955092E+04 -8.139686E+03
       129  25 -8.409292E+05 -1.098417E+05 -5.789270E+04 -2.690963E+05  1.037264E+05  3.162101E+04
       129  26 -8.243560E+05 -8.733300E+03  2.650890E+04 -3.511349E+05  7.682667E+04  6.021889E+03
       129  27 -8.502554E+05 -6.272948E+04  4.856282E+04 -4.131820E+05  4.488003E+04 -6.139355E+03
       130   1 -1.586460E+06 -3.371521E+05 -1.211910E+05 -5.901164E+05 -3.132656E+04  7.918329E+03
       130   2 -1.547758E+06 -3.015559E+05 -9.209756E+04 -5.698812E+05 -2.072398E+04  9.792679E+03
       130   3 -1.498666E+06 -2.909470E+05 -7.300280E+04 -5.649677E+05 -9.884709E+03  1.103530E+04
       130   4 -1.243695E+06 -2.061449E+05 -3.624201E+04 -4.929731E+05 -3.257116E+04  7.450154E+03
       130   5 -1.248284E+06 -1.891141E+05 -1.847591E+04 -4.870299E+05 -2.247338E+04  9.135600E+03
       130   6 -1.242383E+06 -1.969662E+05 -1.030319E+04 -4.964086E+05 -1.213972E+04  1.018910E+04
       130   7 -9.008140E+05 -7.512826E+04  4.869790E+04 -3.957805E+05 -3.381652E+04  6.981683E+03
       130   8 -9.487229E+05 -7.666606E+04  5.513871E+04 -4.041423E+05 -2.422369E+04  8.478172E+03
       130   9 -9.860361E+05 -1.029820E+05  5.239114E+04 -4.278243E+05 -1.439574E+04  9.342537E+03
       130  10 -1.586461E+06 -3.371524E+05 -1.211930E+05 -5.901162E+05 -9.635807E-10 -4.023644E-10
       130  11 -1.547758E+06 -3.015562E+05 -9.209855E+04 -5.698811E+05 -4.843310E-10  1.859886E-10
       130  12 -1.498666E+06 -2.909472E+05 -7.300322E+04 -5.649677E+05 -2.538786E-10 -2.768135E-10
       130  13 -1.243696E+06 -2.061453E+05 -3.624411E+04 -4.929729E+05  6.402034E-10 -3.661430E-10
       130  14 -1.248285E+06 -1.891143E+05 -1.847701E+04 -4.870297E+05  2.313569E-09 -3.539701E-10
       130  15 -1.242383E+06 -1.969664E+05 -1.030366E+04 -4.964085E+05 -1.379623E-10 -5.713844E-10
       130  16 -9.008153E+05 -7.512862E+04  4.869566E+04 -3.957803E+05  2.564259E-11 -1.031850E-10
       130  17 -9.487236E+05 -7.666629E+04  5.513747E+04 -4.041421E+05  7.322554E-10 -9.497948E-10
       130  18 -9.860363E+05 -1.029822E+05  5.239059E+04 -4.278242E+05  2.519627E-10 -9.704713E-10
       130  19 -1.586460E+06 -3.371521E+05 -1.211910E+05 -5.901164E+05  3.132656E+04 -7.918329E+03
       130  20 -1.547758E+06 -3.015559E+05 -9.209756E+04 -5.698812E+05  2.072398E+04 -9.792679E+03
       130  21 -1.498666E+06 -2.909470E+05 -7.300280E+04 -5.649677E+05  9.884709E+03 -1.103530E+04
       130  22 -1.243695E+06 -2.061449E+05 -3.624201E+04 -4.929731E+05  3.257116E+04 -7.450154E+03
       130  23 -1.248284E+06 -1.891141E+05 -1.847591E+04 -4.870299E+05  2.247338E+04 -9.135600E+03
       130  24 -1.242383E+06 -1.969662E+05 -1.030319E+04 -4.964086E+05  1.213972E+04 -1.018910E+04
       130  25 -9.008140E+05 -7.512826E+04  4.869790E+04 -3.957805E+05  3.381652E+04 -6.981683E+03
       130  26 -9.487229E+05 -7.666606E+04  5.513871E+04 -4.041423E+05  2.422369E+04 -8.478172E+03
       130  27 -9.860361E+05 -1.029820E+05  5.239114E+04 -4.278243E+05  1.439574E+04 -9.342537E+03
       131   1 -1.456947E+06 -2.780868E+05 -6.047498E+04 -5.547582E+05 -8.015390E+03  9.928000E+03
       131   2 -1.418827E+06 -2.526877E+05 -4.584093E+04 -5.334599E+05 -4.870714E+03  8.153151E+03
       131   3 -1.365732E+06 -2.434455E+05 -3.299609E+04 -5.298291E+05 -1.712543E+03  6.340803E+03
       131   4 -1.241792E+06 -1.979334E+05 -7.869081E+03 -4.958377E+05 -1.009254E+04  9.148751E+03
       131   5 -1.249237E+06 -1.895729E+05 -4.281157E+03 -4.871089E+05 -6.977426E+03  7.363100E+03
       131   6 -1.241705E+06 -1.973634E+05 -2.458629E+03 -4.960484E+05 -3.849001E+03  5.539900E+03
       131   7 -1.026590E+06 -1.177765E+05  4.473363E+04 -4.368984E+05 -1.217049E+04  8.369202E+03
       131   8 -1.079618E+06 -1.264559E+05  3.727657E+04 -4.407463E+05 -9.084771E+03  6.572812E+03
       131   9 -1.117662E+06 -1.512803E+05  2.807768E+04 -4.622615E+05 -5.985925E+03  4.738823E+03
       131  10 -1.456947E+06 -2.780869E+05 -6.047529E+04 -5.547581E+05  1.877367E-09 -4.630457E-10
       131  11 -1.418827E+06 -2.526877E+05 -4.584110E+04 -5.334598E+05  3.643559E-09  9.174288E-11
       131  12 -1.365732E+06 -2.434456E+05 -3.299617E+04 -5.298291E+05  4.593096E-09  7.107273E-10
       131  13 -1.241792E+06 -1.979335E+05 -7.869430E+03 -4.958376E+05  2.753162E-09 -2.657200E-10
       131  14 -1.249237E+06 -1.895729E+05 -4.281350E+03 -4.871089E+05  1.908735E-09 -1.768183E-10
       131  15 -1.241705E+06 -1.973635E+05 -2.458714E+03 -4.960484E+05  3.017003E-10 -4.443286E-10
       131  16 -1.026590E+06 -1.177766E+05  4.473322E+04 -4.368983E+05  1.404371E-09 -5.078713E-10
       131  17 -1.079619E+06 -1.264560E+05  3.727634E+04 -4.407463E+05  8.344140E-10 -5.203966E-10
       131  18 -1.117662E+06 -1.512803E+05  2.807757E+04 -4.622615E+05 -2.726111E-09 -9.050180E-10
       131  19 -1.456947E+06 -2.780868E+05 -6.047498E+04 -5.547582E+05  8.015390E+03 -9.928000E+03
       131  20 -1.418827E+06 -2.526877E+05 -4.584093E+04 -5.334599E+05  4.870714E+03 -8.153151E+03
       131  21 -1.365732E+06 -2.434455E+05 -3.299609E+04 -5.298291E+05  1.712543E+03 -6.340803E+03
       131  22 -1.241792E+06 -1.979334E+05 -7.869081E+03 -4.958377E+05  1.009254E+04 -9.148751E+03
       131  23 -1.249237E+06 -1.895729E+05 -4.281157E+03 -4.871089E+05  6.977426E+03 -7.363100E+03
       131  24 -1.241705E+06 -1.973634E+05 -2.458629E+03 -4.960484E+05  3.849001E+03 -5.539900E+03
       131  25 -1.026590E+06 -1.177765E+05  4.473363E+04 -4.368984E+05  1.217049E+04 -8.369202E+03
       131  26 -1.079618E+06 -1.264559E+05  3.727657E+04 -4.407463E+05  9.084771E+03 -6.572812E+03
       131  27 -1.117662E+06 -1.512803E+05  2.807768E+04 -4.622615E+05  5.985925E+03 -4.738823E+03
       132   1 -1.325166E+06 -2.284857E+05 -2.223811E+04 -5.188587E+05 -7.781482E+02  4.934998E+03
       132   2 -1.286960E+06 -2.035876E+05 -1.050121E+04 -4.973630E+05  8.568261E+02  2.534257E+03
       132   3 -1.233276E+06 -1.943262E+05  7.428346E+02 -4.937425E+05  2.492995E+03  1.299219E+02
       132   4 -1.241618E+06 -1.974331E+05 -1.929970E+03 -4.960246E+05 -2.910500E+03  4.135750E+03
       132   5 -1.249353E+06 -1.896000E+05 -1.287756E+03 -4.870920E+05 -1.278412E+03  1.733993E+03
       132   6 -1.241613E+06 -1.974032E+05 -1.136080E+03 -4.960353E+05  3.548108E+02 -6.713643E+02
       132   7 -1.158063E+06 -1.663801E+05  1.837763E+04 -4.731877E+05 -5.043162E+03  3.336386E+03
       132   8 -1.211745E+06 -1.756124E+05  7.925556E+03 -4.768204E+05 -3.413781E+03  9.336800E+02
       132   9 -1.249949E+06 -2.004802E+05 -3.014960E+03 -4.983281E+05 -1.783324E+03 -1.472632E+03
       132  10 -1.325166E+06 -2.284858E+05 -2.223815E+04 -5.188587E+05  1.503465E-08  6.124451E-09
       132  11 -1.286960E+06 -2.035876E+05 -1.050122E+04 -4.973630E+05  1.910537E-09  4.103290E-09
       132  12 -1.233276E+06 -1.943262E+05  7.428229E+02 -4.937425E+05 -1.761256E-08 -5.208294E-09
       132  13 -1.241618E+06 -1.974331E+05 -1.930018E+03 -4.960246E+05  2.725678E-10  1.493414E-09
       132  14 -1.249353E+06 -1.896000E+05 -1.287764E+03 -4.870920E+05 -6.745294E-10  3.202284E-09
       132  15 -1.241613E+06 -1.974032E+05 -1.136082E+03 -4.960353E+05 -2.098487E-09  7.259325E-10
       132  16 -1.158063E+06 -1.663801E+05  1.837756E+04 -4.731877E+05 -1.506025E-08 -4.498607E-09
       132  17 -1.211745E+06 -1.756125E+05  7.925532E+03 -4.768204E+05  1.428404E-09  2.576081E-09
       132  18 -1.249949E+06 -2.004802E+05 -3.014970E+03 -4.983281E+05  1.427007E-08  6.099971E-09
       132  19 -1.325166E+06 -2.284857E+05 -2.223811E+04 -5.188587E+05  7.781482E+02 -4.934998E+03
       132  20 -1.286960E+06 -2.035876E+05 -1.050121E+04 -4.973630E+05 -8.568261E+02 -2.534257E+03
       132  21 -1.233276E+06 -1.943262E+05  7.428346E+02 -4.937425E+05 -2.492995E+03 -1.299219E+02
       132  22 -1.241618E+06 -1.974331E+05 -1.929970E+03 -4.960246E+05  2.910500E+03 -4.135750E+03
       132  23 -1.249353E+06 -1.896000E+05 -1.287756E+03 -4.870920E+05  1.278412E+03 -1.733993E+03
       132  24 -1.241613E+06 -1.974032E+05 -1.136080E+03 -4.960353E+05 -3.548108E+02  6.713643E+02
       132  25 -1.158063E+06 -1.663801E+05  1.837763E+04 -4.731877E+05  5.043162E+03 -3.336386E+03
       132  26 -1.211745E+06 -1.756124E+05  7.925556E+03 -4.768204E+05  3.413781E+03 -9.336800E+02
       132  27 -1.249949E+06 -2.004802E+05 -3.014960E+03 -4.983281E+05  1.783324E+03  1.472632E+03
       133   1 -1.192753E+06 -1.791871E+05  1.092896E+04 -4.826890E+05  3.263880E+03 -1.338428E+03
       133   2 -1.154604E+06 -1.543616E+05  2.151015E+04 -4.612160E+05  5.095244E+03 -3.665608E+03
       133   3 -1.101034E+06 -1.451686E+05  3.144770E+04 -4.575878E+05  6.924466E+03 -5.985648E+03
       133   4 -1.241625E+06 -1.973971E+05 -1.209143E+03 -4.960309E+05  1.126848E+03 -2.139315E+03
       133   5 -1.249339E+06 -1.896044E+05 -1.698644E+03 -4.870995E+05  2.963715E+03 -4.464617E+03
       133   6 -1.241635E+06 -1.974454E+05 -2.835888E+03 -4.960140E+05  4.798366E+03 -6.782793E+03
       133   7 -1.290495E+06 -2.156071E+05 -1.334755E+04 -5.093720E+05 -1.010023E+03 -2.940141E+03
       133   8 -1.344066E+06 -2.248468E+05 -2.490831E+04 -5.129797E+05  8.325239E+02 -5.263500E+03
       133   9 -1.382217E+06 -2.497211E+05 -3.712117E+04 -5.344326E+05  2.672779E+03 -7.579747E+03
       133  10 -1.192753E+06 -1.791871E+05  1.092894E+04 -4.826890E+05 -7.480798E-09 -3.018194E-09
       133  11 -1.154604E+06 -1.543617E+05  2.151007E+04 -4.612160E+05 -1.243890E-09 -1.698103E-09
       133  12 -1.101034E+06 -1.451687E+05  3.144755E+04 -4.575877E+05  8.961004E-10 -1.013690E-09
       133  13 -1.241625E+06 -1.973971E+05 -1.209154E+03 -4.960309E+05 -3.849087E-09 -1.061354E-09
       133  14 -1.249339E+06 -1.896044E+05 -1.698698E+03 -4.870995E+05 -1.261898E-09 -1.267006E-09
       133  15 -1.241635E+06 -1.974455E+05 -2.836018E+03 -4.960140E+05  6.377812E-10 -7.287400E-10
       133  16 -1.290495E+06 -2.156071E+05 -1.334757E+04 -5.093720E+05  2.694881E-09  8.079683E-10
       133  17 -1.344066E+06 -2.248468E+05 -2.490836E+04 -5.129797E+05 -3.448896E-10  1.535803E-11
       133  18 -1.382217E+06 -2.497212E+05 -3.712129E+04 -5.344325E+05  7.375823E-10 -1.013133E-09
       133  19 -1.192753E+06 -1.791871E+05  1.092896E+04 -4.826890E+05 -3.263880E+03  1.338428E+03
       133  20 -1.154604E+06 -1.543616E+05  2.151015E+04 -4.612160E+05 -5.095244E+03  3.665608E+03
       133  21 -1.101034E+06 -1.451686E+05  3.144770E+04 -4.575878E+05 -6.924466E+03  5.985648E+03
       133  22 -1.241625E+06 -1.973971E+05 -1.209143E+03 -4.960309E+05 -1.126848E+03  2.139315E+03
       133  23 -1.249339E+06 -1.896044E+05 -1.698644E+03 -4.870995E+05 -2.963715E+03  4.464617E+03
       133  24 -1.241635E+06 -1.974454E+05 -2.835888E+03 -4.960140E+05 -4.798366E+03  6.782793E+03
       133  25 -1.290495E+06 -2.156071E+05 -1.334755E+04 -5.093720E+05  1.010023E+03  2.940141E+03
       133  26 -1.344066E+06 -2.248468E+05 -2.490831E+04 -5.129797E+05 -8.325239E+02  5.263500E+03
       133  27 -1.382217E+06 -2.497211E+05 -3.712117E+04 -5.344326E+05 -2.672779E+03  7.579747E+03
       134   1 -1.060797E+06 -1.301256E+05  4.077202E+04 -4.467604E+05  8.041044E+03 -7.316857E+03
       134   2 -1.022873E+06 -1.053618E+05  4.884142E+04 -4.252771E+05  1.228968E+04 -8.704462E+03
       134   3 -9.703197E+05 -9.703200E+04  5.421623E+04 -4.213201E+05  1.652312E+04 -1.004798E+04
       134   4 -1.241776E+06 -1.973380E+05 -3.701827E+03 -4.960526E+05  5.911887E+03 -8.115324E+03
       134   5 -1.249152E+06 -1.895581E+05 -6.595368E+03 -4.871254E+05  1.019461E+04 -9.490535E+03
       134   6 -1.241908E+06 -1.982200E+05 -1.221142E+04 -4.957256E+05  1.446191E+04 -1.082174E+04
       134   7 -1.422720E+06 -2.645476E+05 -4.817772E+04 -5.453313E+05  3.783426E+03 -8.913531E+03
       134   8 -1.475379E+06 -2.737508E+05 -6.203584E+04 -5.489530E+05  8.100388E+03 -1.027629E+04
       134   9 -1.513425E+06 -2.994033E+05 -7.864485E+04 -5.701017E+05  1.240168E+04 -1.159513E+04
       134  10 -1.060797E+06 -1.301257E+05  4.077180E+04 -4.467604E+05 -7.689777E-10 -8.381739E-10
       134  11 -1.022873E+06 -1.053619E+05  4.884099E+04 -4.252770E+05 -2.303650E-09 -6.593548E-10
       134  12 -9.703200E+05 -9.703218E+04  5.421552E+04 -4.213200E+05  1.102385E-09  5.508616E-10
       134  13 -1.241776E+06 -1.973381E+05 -3.702016E+03 -4.960525E+05  2.766237E-10 -8.633796E-10
       134  14 -1.249152E+06 -1.895583E+05 -6.595733E+03 -4.871253E+05 -1.657751E-09 -4.444020E-10
       134  15 -1.241909E+06 -1.982202E+05 -1.221203E+04 -4.957255E+05  2.082508E-09  7.160528E-10
       134  16 -1.422720E+06 -2.645477E+05 -4.817789E+04 -5.453312E+05  9.257045E-10 -8.230459E-10
       134  17 -1.475379E+06 -2.737509E+05 -6.203616E+04 -5.489529E+05  8.599557E-10  2.266435E-10
       134  18 -1.513425E+06 -2.994035E+05 -7.864539E+04 -5.701016E+05  4.325438E-09  1.007054E-09
       134  19 -1.060797E+06 -1.301256E+05  4.077202E+04 -4.467604E+05 -8.041044E+03  7.316857E+03
       134  20 -1.022873E+06 -1.053618E+05  4.884142E+04 -4.252771E+05 -1.228968E+04  8.704462E+03
       134  21 -9.703197E+05 -9.703200E+04  5.421623E+04 -4.213201E+05 -1.652312E+04  1.004798E+04
       134  22 -1.241776E+06 -1.973380E+05 -3.701827E+03 -4.960526E+05 -5.911887E+03  8.115324E+03
       134  23 -1.249152E+06 -1.895581E+05 -6.595368E+03 -4.871254E+05 -1.019461E+04  9.490535E+03
       134  24 -1.241908E+06 -1.982200E+05 -1.221142E+04 -4.957256E+05 -1.446191E+04  1.082174E+04
       134  25 -1.422720E+06 -2.645476E+05 -4.817772E+04 -5.453313E+05 -3.783426E+03  8.913531E+03
       134  26 -1.475379E+06 -2.737508E+05 -6.203584E+04 -5.489530E+05 -8.100388E+03  1.027629E+04
       134  27 -1.513425E+06 -2.994033E+05 -7.864485E+04 -5.701017E+05 -1.240168E+04  1.159513E+04
       135   1 -9.297427E+05 -8.245231E+04  6.043036E+04 -4.133805E+05  1.956903E+04 -1.070874E+04
       135   2 -8.927522E+05 -5.524568E+04  5.853101E+04 -3.884176E+05  3.455664E+04 -7.865946E+03
       135   3 -8.479525E+05 -5.804430E+04  4.214935E+04 -3.774349E+05  4.928245E+04 -4.319447E+03
       135   4 -1.242815E+06 -1.967344E+05 -1.601159E+04 -4.966386E+05  1.731111E+04 -1.155655E+04
       135   5 -1.247680E+06 -1.888101E+05 -2.874226E+04 -4.869743E+05  3.285835E+04 -8.504463E+03
       135   6 -1.244853E+06 -2.110090E+05 -5.640599E+04 -4.912913E+05  4.814276E+04 -4.749030E+03
       135   7 -1.555789E+06 -3.110103E+05 -9.246050E+04 -5.798586E+05  1.505444E+04 -1.240392E+04
       135   8 -1.602484E+06 -3.223654E+05 -1.160251E+05 -5.854796E+05  3.116112E+04 -9.142576E+03
       135   9 -1.641601E+06 -3.639608E+05 -1.549741E+05 -6.050810E+05  4.700385E+04 -5.178296E+03
       135  10 -9.297432E+05 -8.245253E+04  6.042942E+04 -4.133803E+05  3.011619E-09  1.334411E-09
       135  11 -8.927535E+05 -5.524607E+04  5.852864E+04 -3.884174E+05  1.733073E-09  7.004250E-11
       135  12 -8.479551E+05 -5.804497E+04  4.214474E+04 -3.774347E+05  5.824577E-10  5.517476E-10
       135  13 -1.242815E+06 -1.967346E+05 -1.601241E+04 -4.966384E+05  3.871699E-09  1.023205E-09
       135  14 -1.247681E+06 -1.888105E+05 -2.874443E+04 -4.869741E+05  1.176375E-09  1.013335E-09
       135  15 -1.244856E+06 -2.110096E+05 -5.641039E+04 -4.912911E+05  6.598606E-10  2.306541E-10
       135  16 -1.555790E+06 -3.110106E+05 -9.246121E+04 -5.798584E+05  2.799413E-09  8.935696E-10
       135  17 -1.602485E+06 -3.223657E+05 -1.160271E+05 -5.854794E+05 -3.748931E-10  1.122396E-09
       135  18 -1.641603E+06 -3.639614E+05 -1.549783E+05 -6.050808E+05 -1.185540E-09  7.605611E-10
       135  19 -9.297427E+05 -8.245231E+04  6.043036E+04 -4.133805E+05 -1.956903E+04  1.070874E+04
       135  20 -8.927522E+05 -5.524568E+04  5.853101E+04 -3.884176E+05 -3.455664E+04  7.865946E+03
       135  21 -8.479525E+05 -5.804430E+04  4.214935E+04 -3.774349E+05 -4.928245E+04  4.319447E+03
       135  22 -1.242815E+06 -1.967344E+05 -1.601159E+04 -4.966386E+05 -1.731111E+04  1.155655E+04
       135  23 -1.247680E+06 -1.888101E+05 -2.874226E+04 -4.869743E+05 -3.285835E+04  8.504463E+03
       135  24 -1.244853E+06 -2.110090E+05 -5.640599E+04 -4.912913E+05 -4.814276E+04  4.749030E+03
       135  25 -1.555789E+06 -3.110103E+05 -9.246050E+04 -5.798586E+05 -1.505444E+04  1.240392E+04
       135  26 -1.602484E+06 -3.223654E+05 -1.160251E+05 -5.854796E+05 -3.116112E+04  9.142576E+03
       135  27 -1.641601E+06 -3.639608E+05 -1.549741E+05 -6.050810E+05 -4.700385E+04  5.178296E+03
       136   1 -7.915429E+05 -4.713536E+04  3.664636E+04 -4.107444E+05  6.412369E+04 -2.214896E+03
       136   2 -7.717323E+05  2.349911E+04 -4.326359E+03 -3.256513E+05  1.186054E+05  1.880176E+04
       136   3 -8.273738E+05 -1.399388E+05 -1.462007E+05 -1.999095E+05  1.674828E+05  5.473860E+04
       136   4 -1.254129E+06 -1.880347E+05 -7.089043E+04 -5.050175E+05  5.845172E+04 -4.343505E+03
       136   5 -1.230776E+06 -1.795666E+05 -1.238537E+05 -4.840984E+05  1.249361E+05  2.117277E+04
       136   6 -1.285335E+06 -4.076748E+05 -2.873013E+05 -4.225147E+05  1.858121E+05  6.159993E+04
       136   7 -1.716505E+06 -3.289351E+05 -1.784414E+05 -5.992346E+05  5.278435E+04 -6.471116E+03
       136   8 -1.689604E+06 -3.825907E+05 -2.433972E+05 -6.424289E+05  1.312617E+05  2.354101E+04
       136   9 -1.743059E+06 -6.752852E+05 -4.284162E+05 -6.449375E+05  2.041262E+05  6.844846E+04
       136  10 -7.915473E+05 -4.713647E+04  3.663861E+04 -4.107443E+05  1.384717E-09 -1.668418E-10
       136  11 -7.717475E+05  2.349494E+04 -4.353497E+03 -3.256531E+05  3.257471E-10  1.470068E-10
       136  12 -8.274047E+05 -1.399496E+05 -1.462592E+05 -1.999169E+05 -2.713735E-10  3.487319E-11
       136  13 -1.254133E+06 -1.880357E+05 -7.089690E+04 -5.050173E+05  1.267096E-09 -1.433042E-10
       136  14 -1.230793E+06 -1.795713E+05 -1.238839E+05 -4.841005E+05  1.219288E-09  3.564582E-10
       136  15 -1.285373E+06 -4.076882E+05 -2.873735E+05 -4.225240E+05 -1.007356E-09  2.092309E-10
       136  16 -1.716508E+06 -3.289359E+05 -1.784467E+05 -5.992344E+05 -7.960331E-10  4.197657E-10
       136  17 -1.689623E+06 -3.825960E+05 -2.434307E+05 -6.424314E+05 -1.525808E-09  5.294017E-10
       136  18 -1.743105E+06 -6.753014E+05 -4.285036E+05 -6.449488E+05  4.582358E-10 -2.783548E-10
       136  19 -7.915429E+05 -4.713536E+04  3.664636E+04 -4.107444E+05 -6.412369E+04  2.214896E+03
       136  20 -7.717323E+05  2.349911E+04 -4.326359E+03 -3.256513E+05 -1.186054E+05 -1.880176E+04
       136  21 -8.273738E+05 -1.399388E+05 -1.462007E+05 -1.999095E+05 -1.674828E+05 -5.473860E+04
       136  22 -1.254129E+06 -1.880347E+05 -7.089043E+04 -5.050175E+05 -5.845172E+04  4.343505E+03
       136  23 -1.230776E+06 -1.795666E+05 -1.238537E+05 -4.840984E+05 -1.249361E+05 -2.117277E+04
       136  24 -1.285335E+06 -4.076748E+05 -2.873013E+05 -4.225147E+05 -1.858121E+05 -6.159993E+04
       136  25 -1.716505E+06 -3.289351E+05 -1.784414E+05 -5.992346E+05 -5.278435E+04  6.471116E+03
       136  26 -1.689604E+06 -3.825907E+05 -2.433972E+05 -6.424289E+05 -1.312617E+05 -2.354101E+04
       136  27 -1.743059E+06 -6.752852E+05 -4.284162E+05 -6.449375E+05 -2.041262E+05 -6.844846E+04
       137   1 -1.227824E+05 -2.054822E+04 -5.956365E+03  9.755415E+03  3.926003E+04  4.243528E+03
       137   2 -1.013608E+05 -7.429384E+04 -3.372784E+04 -2.463253E+03  2.890277E+04  1.319576E+04
       137   3 -6.378464E+04 -6.903382E+04 -3.999446E+04 -2.720494E+04  1.854970E+04  1.357608E+04
       137   4  2.057936E+05  6.107432E+04  7.380271E+04 -1.824877E+04  5.072053E+04  4.248252E+03
       137   5  1.970835E+05 -1.180317E+03  3.346251E+04 -1.197144E+04  3.294999E+04  1.319680E+04
       137   6  2.058044E+05 -3.159274E+03  1.976635E+04 -1.821606E+04  1.518430E+04  1.357467E+04
       137   7  5.344702E+05  1.426920E+05  1.535549E+05 -4.626784E+04  6.218708E+04  4.251941E+03
       137   8  4.956109E+05  7.192746E+04  1.006473E+05 -2.148425E+04  3.699914E+04  1.319773E+04
       137   9  4.754615E+05  6.271067E+04  7.952273E+04 -9.223229E+03  1.181745E+04  1.357317E+04
       137  10 -1.227841E+05 -2.054865E+04 -5.959296E+03  9.755280E+03 -9.712064E-10 -4.968692E-10
       137  11 -1.013618E+05 -7.429425E+04 -3.372974E+04 -2.463560E+03 -8.436571E-10  1.647719E-10
       137  12 -6.378506E+04 -6.903411E+04 -3.999546E+04 -2.720515E+04 -8.595453E-10 -1.008998E-09
       137  13  2.057909E+05  6.107361E+04  7.379784E+04 -1.824895E+04 -1.010390E-09  5.352422E-10
       137  14  1.970823E+05 -1.180795E+03  3.346014E+04 -1.197179E+04 -2.081076E-09  2.250941E-10
       137  15  2.058041E+05 -3.159534E+03  1.976557E+04 -1.821622E+04 -6.643802E-10 -6.440289E-10
       137  16  5.344661E+05  1.426909E+05  1.535476E+05 -4.626805E+04 -7.546154E-11  5.536089E-10
       137  17  4.956094E+05  7.192691E+04  1.006444E+05 -2.148465E+04  1.219429E-09  5.548386E-10
       137  18  4.754613E+05  6.271043E+04  7.952213E+04 -9.223359E+03  9.211783E-10  1.038953E-09
       137  19 -1.227824E+05 -2.054822E+04 -5.956365E+03  9.755415E+03 -3.926003E+04 -4.243528E+03
       137  20 -1.013608E+05 -7.429384E+04 -3.372784E+04 -2.463253E+03 -2.890277E+04 -1.319576E+04
       137  21 -6.378464E+04 -6.903382E+04 -3.999446E+04 -2.720494E+04 -1.854970E+04 -1.357608E+04
       137  22  2.057936E+05  6.107432E+04  7.380271E+04 -1.824877E+04 -5.072053E+04 -4.248252E+03
       137  23  1.970835E+05 -1.180317E+03  3.346251E+04 -1.197144E+04 -3.294999E+04 -1.319680E+04
       137  24  2.058044E+05 -3.159274E+03  1.976635E+04 -1.821606E+04 -1.518430E+04 -1.357467E+04
       137  25  5.344702E+05  1.426920E+05  1.535549E+05 -4.626784E+04 -6.218708E+04 -4.251941E+03
       137  26  4.956109E+05  7.192746E+04  1.006473E+05 -2.148425E+04 -3.699914E+04 -1.319773E+04
       137  27  4.754615E+05  6.271067E+04  7.952273E+04 -9.223229E+03 -1.181745E+04 -1.357317E+04
       138   1 -4.239860E+04 -5.624648E+04 -3.876033E+04 -1.709132E+04  1.317031E+04  1.181657E+04
       138   2 -1.381232E+04 -5.279784E+04 -3.936078E+04 -1.163089E+04  9.246535E+03  1.067582E+04
       138   3  1.622579E+04 -4.569737E+04 -3.648734E+04 -1.898031E+04  5.322291E+03  9.153264E+03
       138   4  2.022677E+05  3.585352E+03  1.575631E+04 -1.828906E+04  1.235402E+04  1.181595E+04
       138   5  2.015160E+05 -1.718386E+02  8.461999E+03 -1.188380E+04  8.098829E+03  1.067527E+04
       138   6  2.022721E+05 -2.204395E+02  4.870647E+03 -1.828807E+04  3.843343E+03  9.152826E+03
       138   7  4.469898E+05  6.341312E+04  7.026920E+04 -1.948727E+04  1.153742E+04  1.181533E+04
       138   8  4.168875E+05  5.245103E+04  5.628190E+04 -1.213680E+04  6.950729E+03  1.067472E+04
       138   9  3.883506E+05  4.525415E+04  4.622648E+04 -1.759563E+04  2.363956E+03  9.152386E+03
       138  10 -4.239882E+04 -5.624667E+04 -3.876091E+04 -1.709145E+04 -1.391353E-09 -7.334291E-10
       138  11 -1.381244E+04 -5.279799E+04 -3.936115E+04 -1.163097E+04 -1.116187E-09  6.061059E-10
       138  12  1.622574E+04 -4.569747E+04 -3.648755E+04 -1.898035E+04  1.354905E-10  2.718204E-10
       138  13  2.022675E+05  3.585161E+03  1.575576E+04 -1.828918E+04 -2.087210E-09  2.702053E-10
       138  14  2.015159E+05 -1.719786E+02  8.461662E+03 -1.188387E+04 -1.507335E-09  4.709517E-10
       138  15  2.022720E+05 -2.205334E+02  4.870461E+03 -1.828810E+04 -1.770519E-09 -2.262233E-10
       138  16  4.469896E+05  6.341294E+04  7.026869E+04 -1.948738E+04  1.989236E-09  4.765759E-10
       138  17  4.168874E+05  5.245090E+04  5.628159E+04 -1.213686E+04 -7.059541E-10 -1.418196E-10
       138  18  3.883506E+05  4.525406E+04  4.622631E+04 -1.759565E+04 -8.512455E-10 -2.879202E-10
       138  19 -4.239860E+04 -5.624648E+04 -3.876033E+04 -1.709132E+04 -1.317031E+04 -1.181657E+04
       138  20 -1.381232E+04 -5.279784E+04 -3.936078E+04 -1.163089E+04 -9.246535E+03 -1.067582E+04
       138  21  1.622579E+04 -4.569737E+04 -3.648734E+04 -1.898031E+04 -5.322291E+03 -9.153264E+03
       138  22  2.022677E+05  3.585352E+03  1.575631E+04 -1.828906E+04 -1.235402E+04 -1.181595E+04
       138  23  2.015160E+05 -1.718386E+02  8.461999E+03 -1.188380E+04 -8.098829E+03 -1.067527E+04
       138  24  2.022721E+05 -2.204395E+02  4.870647E+03 -1.828807E+04 -3.843343E+03 -9.152826E+03
       138  25  4.469898E+05  6.341312E+04  7.026920E+04 -1.948727E+04 -1.153742E+04 -1.181533E+04
       138  26  4.168875E+05  5.245103E+04  5.628190E+04 -1.213680E+04 -6.950729E+03 -1.067472E+04
       138  27  3.883506E+05  4.525415E+04  4.622648E+04 -1.759563E+04 -2.363956E+03 -9.152386E+03
       139   1  4.063327E+04 -3.923623E+04 -3.201444E+04 -1.834358E+04  4.451904E+03  8.179624E+03
       139   2  6.978398E+04 -3.231465E+04 -2.727118E+04 -1.195578E+04  3.453584E+03  6.591892E+03
       139   3  9.913227E+04 -2.516673E+04 -2.181911E+04 -1.836508E+04  2.454952E+03  4.987879E+03
       139   4  2.019833E+05  1.759704E+02  3.717083E+03 -1.828556E+04  3.087682E+03  8.179293E+03
       139   5  2.018847E+05 -3.584224E+01  2.041356E+03 -1.188709E+04  2.075031E+03  6.591669E+03
       139   6  2.019856E+05 -1.871423E+01  1.084374E+03 -1.828555E+04  1.062114E+03  4.987768E+03
       139   7  3.633576E+05  3.958641E+04  3.944700E+04 -1.822752E+04  1.723109E+03  8.178961E+03
       139   8  3.340016E+05  3.224179E+04  3.135282E+04 -1.181839E+04  6.961877E+02  6.591445E+03
       139   9  3.048489E+05  2.512859E+04  2.398721E+04 -1.820601E+04 -3.309512E+02  4.987657E+03
       139  10  4.063323E+04 -3.923630E+04 -3.201460E+04 -1.834361E+04  9.596050E-11 -2.630040E-10
       139  11  6.978395E+04 -3.231470E+04 -2.727129E+04 -1.195580E+04  1.061821E-09 -9.736742E-10
       139  12  9.913225E+04 -2.516676E+04 -2.181917E+04 -1.836509E+04  1.938960E-09 -7.938530E-10
       139  13  2.019832E+05  1.758960E+02  3.716940E+03 -1.828558E+04  1.000053E-09 -1.780709E-10
       139  14  2.018846E+05 -3.589006E+01  2.041266E+03 -1.188710E+04  2.690583E-09 -3.191876E-10
       139  15  2.019856E+05 -1.874125E+01  1.084325E+03 -1.828555E+04 -8.096790E-10 -8.777896E-10
       139  16  3.633576E+05  3.958634E+04  3.944687E+04 -1.822754E+04 -4.705421E-10  5.311725E-11
       139  17  3.340016E+05  3.224175E+04  3.135273E+04 -1.181839E+04 -1.559897E-09  1.384012E-10
       139  18  3.048489E+05  2.512856E+04  2.398716E+04 -1.820601E+04 -1.238450E-09 -7.629683E-10
       139  19  4.063327E+04 -3.923623E+04 -3.201444E+04 -1.834358E+04 -4.451904E+03 -8.179624E+03
       139  20  6.978398E+04 -3.231465E+04 -2.727118E+04 -1.195578E+04 -3.453584E+03 -6.591892E+03
       139  21  9.913227E+04 -2.516673E+04 -2.181911E+04 -1.836508E+04 -2.454952E+03 -4.987879E+03
       139  22  2.019833E+05  1.759704E+02  3.717083E+03 -1.828556E+04 -3.087682E+03 -8.179293E+03
       139  23  2.018847E+05 -3.584224E+01  2.041356E+03 -1.188709E+04 -2.075031E+03 -6.591669E+03
       139  24  2.019856E+05 -1.871423E+01  1.084374E+03 -1.828555E+04 -1.062114E+03 -4.987768E+03
       139  25  3.633576E+05  3.958641E+04  3.944700E+04 -1.822752E+04 -1.723109E+03 -8.178961E+03
       139  26  3.340016E+05  3.224179E+04  3.135282E+04 -1.181839E+04 -6.961877E+02 -6.591445E+03
       139  27  3.048489E+05  2.512859E+04  2.398721E+04 -1.820601E+04  3.309512E+02 -4.987657E+03
       140   1  1.237460E+05 -1.909009E+04 -1.652001E+04 -1.832237E+04  2.284427E+03  4.050890E+03
       140   2  1.529550E+05 -1.197206E+04 -1.064944E+04 -1.192634E+04  2.176850E+03  2.445165E+03
       140   3  1.821842E+05 -4.842857E+03 -4.705546E+03 -1.831585E+04  2.069162E+03  8.390084E+02
       140   4  2.019465E+05  8.417079E-01  7.480258E+02 -1.828301E+04  8.971200E+02  4.050827E+03
       140   5  2.019375E+05 -3.916987E+00  2.183795E+02 -1.189028E+04  7.891097E+02  2.445142E+03
       140   6  2.019474E+05  2.502418E+00 -2.377593E+02 -1.828302E+04  6.809922E+02  8.390285E+02
       140   7  2.801528E+05  1.909136E+04  1.801569E+04 -1.824365E+04 -4.903594E+02  4.050764E+03
       140   8  2.509222E+05  1.196406E+04  1.108605E+04 -1.185421E+04 -5.987390E+02  2.445119E+03
       140   9  2.217110E+05  4.847836E+03  4.230009E+03 -1.825018E+04 -7.072210E+02  8.390485E+02
       140  10  1.237460E+05 -1.909011E+04 -1.652005E+04 -1.832238E+04 -3.256941E-09 -4.256742E-10
       140  11  1.529550E+05 -1.197207E+04 -1.064946E+04 -1.192635E+04  1.645392E-09  4.350396E-10
       140  12  1.821842E+05 -4.842859E+03 -4.705555E+03 -1.831585E+04  5.555910E-09  7.551123E-10
       140  13  2.019465E+05  8.238694E-01  7.479934E+02 -1.828302E+04 -1.064438E-09 -5.662686E-10
       140  14  2.019375E+05 -3.923575E+00  2.183671E+02 -1.189028E+04  5.020362E-10  3.230090E-10
       140  15  2.019474E+05  2.501538E+00 -2.377615E+02 -1.828302E+04 -9.911927E-10  1.033003E-09
       140  16  2.801528E+05  1.909134E+04  1.801566E+04 -1.824364E+04  1.694480E-09 -7.879306E-10
       140  17  2.509222E+05  1.196406E+04  1.108604E+04 -1.185421E+04 -3.865829E-09  3.852776E-10
       140  18  2.217110E+05  4.847835E+03  4.230007E+03 -1.825018E+04 -5.893614E-09  1.219736E-09
       140  19  1.237460E+05 -1.909009E+04 -1.652001E+04 -1.832237E+04 -2.284427E+03 -4.050890E+03
       140  20  1.529550E+05 -1.197206E+04 -1.064944E+04 -1.192634E+04 -2.176850E+03 -2.445165E+03
       140  21  1.821842E+05 -4.842857E+03 -4.705546E+03 -1.831585E+04 -2.069162E+03 -8.390084E+02
       140  22  2.019465E+05  8.417079E-01  7.480258E+02 -1.828301E+04 -8.971200E+02 -4.050827E+03
       140  23  2.019375E+05 -3.916987E+00  2.183795E+02 -1.189028E+04 -7.891097E+02 -2.445142E+03
       140  24  2.019474E+05  2.502418E+00 -2.377593E+02 -1.828302E+04 -6.809922E+02 -8.390285E+02
       140  25  2.801528E+05  1.909136E+04  1.801569E+04 -1.824365E+04  4.903594E+02 -4.050764E+03
       140  26  2.509222E+05  1.196406E+04  1.108605E+04 -1.185421E+04  5.987390E+02 -2.445119E+03
       140  27  2.217110E+05  4.847836E+03  4.230009E+03 -1.825018E+04  7.072210E+02 -8.390485E+02
       141   1  2.068021E+05  1.211056E+03  6.807953E+02 -1.831989E+04  2.134533E+03 -9.587440E+01
       141   2  2.360596E+05  8.344871E+03  6.452229E+03 -1.194689E+04  2.684156E+03 -1.701860E+03
       141   3  2.652388E+05  1.544291E+04  1.185718E+04 -1.835789E+04  3.233877E+03 -3.307388E+03
       141   4  2.019257E+05  3.008488E+00 -4.841313E+02 -1.828270E+04  7.463829E+02 -9.585031E+01
       141   5  2.019650E+05  1.478904E+01 -1.112030E+03 -1.189068E+04  1.296339E+03 -1.701866E+03
       141   6  2.019252E+05 -9.223654E+00 -2.106645E+03 -1.828270E+04  1.846367E+03 -3.307422E+03
       141   7  1.970493E+05 -1.205040E+03 -1.649052E+03 -1.824550E+04 -6.417558E+02 -9.582639E+01
       141   8  1.678716E+05 -8.315370E+03 -8.676354E+03 -1.183448E+04 -9.140344E+01 -1.701873E+03
       141   9  1.386154E+05 -1.546163E+04 -1.607071E+04 -1.820753E+04  4.589966E+02 -3.307455E+03
       141  10  2.068021E+05  1.211055E+03  6.807867E+02 -1.831989E+04 -7.612160E-09  2.271608E-10
       141  11  2.360596E+05  8.344866E+03  6.452210E+03 -1.194689E+04 -4.675103E-09 -6.421544E-10
       141  12  2.652388E+05  1.544290E+04  1.185714E+04 -1.835788E+04  6.212967E-10 -2.358636E-10
       141  13  2.019257E+05  3.008329E+00 -4.841324E+02 -1.828270E+04  1.503877E-10  6.773349E-10
       141  14  2.019650E+05  1.478547E+01 -1.112039E+03 -1.189068E+04 -3.625674E-09 -3.861027E-10
       141  15  2.019252E+05 -9.236317E+00 -2.106672E+03 -1.828270E+04 -1.442805E-09 -3.230261E-10
       141  16  1.970493E+05 -1.205040E+03 -1.649053E+03 -1.824550E+04  7.341018E-09  9.833578E-10
       141  17  1.678716E+05 -8.315373E+03 -8.676359E+03 -1.183448E+04  2.556440E-09 -1.242968E-10
       141  18  1.386154E+05 -1.546164E+04 -1.607073E+04 -1.820753E+04 -2.505761E-10 -3.561801E-10
       141  19  2.068021E+05  1.211056E+03  6.807953E+02 -1.831989E+04 -2.134533E+03  9.587440E+01
       141  20  2.360596E+05  8.344871E+03  6.452229E+03 -1.194689E+04 -2.684156E+03  1.701860E+03
       141  21  2.652388E+05  1.544291E+04  1.185718E+04 -1.835789E+04 -3.233877E+03  3.307388E+03
       141  22  2.019257E+05  3.008488E+00 -4.841313E+02 -1.828270E+04 -7.463829E+02  9.585031E+01
       141  23  2.019650E+05  1.478904E+01 -1.112030E+03 -1.189068E+04 -1.296339E+03  1.701866E+03
       141  24  2.019252E+05 -9.223654E+00 -2.106645E+03 -1.828270E+04 -1.846367E+03  3.307422E+03
       141  25  1.970493E+05 -1.205040E+03 -1.649052E+03 -1.824550E+04  6.417558E+02  9.582639E+01
       141  26  1.678716E+05 -8.315370E+03 -8.676354E+03 -1.183448E+04  9.140344E+01  1.701873E+03
       141  27  1.386154E+05 -1.546163E+04 -1.607071E+04 -1.820753E+04 -4.589966E+02  3.307455E+03
       142   1  2.898078E+05  2.154523E+04  1.678271E+04 -1.845300E+04  3.682801E+03 -4.244004E+03
       142   2  3.192773E+05  2.870415E+04  2.104034E+04 -1.201094E+04  6.133021E+03 -5.847257E+03
       142   3  3.483003E+05  3.531686E+04  2.356855E+04 -1.836450E+04  8.583559E+03 -7.434800E+03
       142   4  2.018421E+05  3.742165E+01 -2.815318E+03 -1.828532E+04  2.289933E+03 -4.244077E+03
       142   5  2.020660E+05  6.791067E+01 -4.964562E+03 -1.188744E+04  4.753289E+03 -5.847430E+03
       142   6  2.018405E+05 -4.500389E+02 -8.852491E+03 -1.828531E+04  7.216850E+03 -7.435069E+03
       142   7  1.138837E+05 -2.147091E+04 -2.241382E+04 -1.811767E+04  8.972605E+02 -4.244151E+03
       142   8  8.486750E+04 -2.856925E+04 -3.097031E+04 -1.176395E+04  3.373814E+03 -5.847604E+03
       142   9  5.540080E+04 -3.621838E+04 -4.127485E+04 -1.820614E+04  5.850459E+03 -7.435339E+03
       142  10  2.898078E+05  2.154521E+04  1.678265E+04 -1.845298E+04 -5.429600E-11  1.989997E-10
       142  11  3.192772E+05  2.870410E+04  2.104020E+04 -1.201091E+04  2.203538E-10 -2.670757E-10
       142  12  3.483002E+05  3.531678E+04  2.356831E+04 -1.836444E+04 -2.284594E-10 -5.096831E-10
       142  13  2.018421E+05  3.740090E+01 -2.815361E+03 -1.828531E+04 -1.079168E-09  2.161774E-11
       142  14  2.020659E+05  6.786788E+01 -4.964669E+03 -1.188741E+04 -1.146225E-09 -9.577645E-12
       142  15  2.018405E+05 -4.501123E+02 -8.852693E+03 -1.828526E+04 -9.405161E-10 -5.334266E-10
       142  16  1.138837E+05 -2.147093E+04 -2.241385E+04 -1.811767E+04  1.433632E-09  4.426182E-12
       142  17  8.486748E+04 -2.856929E+04 -3.097039E+04 -1.176394E+04 -2.133851E-09 -4.388856E-11
       142  18  5.540075E+04 -3.621845E+04 -4.127502E+04 -1.820610E+04  8.258605E-11 -4.867747E-10
       142  19  2.898078E+05  2.154523E+04  1.678271E+04 -1.845300E+04 -3.682801E+03  4.244004E+03
       142  20  3.192773E+05  2.870415E+04  2.104034E+04 -1.201094E+04 -6.133021E+03  5.847257E+03
       142  21  3.483003E+05  3.531686E+04  2.356855E+04 -1.836450E+04 -8.583559E+03  7.434800E+03
       142  22  2.018421E+05  3.742165E+01 -2.815318E+03 -1.828532E+04 -2.289933E+03  4.244077E+03
       142  23  2.020660E+05  6.791067E+01 -4.964562E+03 -1.188744E+04 -4.753289E+03  5.847430E+03
       142  24  2.018405E+05 -4.500389E+02 -8.852491E+03 -1.828531E+04 -7.216850E+03  7.435069E+03
       142  25  1.138837E+05 -2.147091E+04 -2.241382E+04 -1.811767E+04 -8.972605E+02  4.244151E+03
       142  26  8.486750E+04 -2.856925E+04 -3.097031E+04 -1.176395E+04 -3.373814E+03  5.847604E+03
       142  27  5.540080E+04 -3.621838E+04 -4.127485E+04 -1.820614E+04 -5.850459E+03  7.435339E+03
       143   1  3.723227E+05  4.231256E+04  2.649608E+04 -1.984255E+04  1.049014E+04 -8.405774E+03
       143   2  4.033398E+05  4.933011E+04  2.450428E+04 -1.115286E+04  2.023591E+04 -9.927663E+03
       143   3  4.309384E+05  4.764303E+04  1.400050E+04 -1.526289E+04  2.998246E+04 -1.108306E+04
       143   4  2.011661E+05  4.838331E+02 -1.155014E+04 -1.828687E+04  9.013079E+03 -8.406118E+03
       143   5  2.029034E+05  3.554209E+02 -2.000130E+04 -1.188579E+04  1.907262E+04 -9.928165E+03
       143   6  2.011649E+05 -8.533943E+03 -3.718450E+04 -1.828485E+04  2.913250E+04 -1.108373E+04
       143   7  3.003677E+04 -4.134687E+04 -4.959818E+04 -1.673162E+04  7.536425E+03 -8.406469E+03
       143   8  2.504494E+03 -4.862198E+04 -6.450936E+04 -1.261849E+04  1.790971E+04 -9.928665E+03
       143   9 -2.855930E+04 -6.471446E+04 -8.837280E+04 -2.130568E+04  2.828285E+04 -1.108440E+04
       143  10  3.723225E+05  4.231245E+04  2.649574E+04 -1.984248E+04 -1.282932E-09 -3.459842E-10
       143  11  4.033394E+05  4.932989E+04  2.450332E+04 -1.115270E+04 -9.894905E-10 -3.746892E-11
       143  12  4.309374E+05  4.764266E+04  1.399858E+04 -1.526262E+04 -6.634568E-10 -7.728264E-10
       143  13  2.011660E+05  4.837354E+02 -1.155043E+04 -1.828681E+04  8.474880E-12 -3.289429E-10
       143  14  2.029030E+05  3.552174E+02 -2.000216E+04 -1.188564E+04  5.385198E-10  2.670194E-11
       143  15  2.011640E+05 -8.534302E+03 -3.718633E+04 -1.828459E+04 -5.715974E-10 -8.132571E-10
       143  16  3.003669E+04 -4.134696E+04 -4.959842E+04 -1.673157E+04  1.665998E-09 -2.985517E-10
       143  17  2.504123E+03 -4.862217E+04 -6.451015E+04 -1.261835E+04 -2.438466E-10  7.899054E-10
       143  18 -2.856019E+04 -6.471481E+04 -8.837454E+04 -2.130543E+04  4.380344E-10 -7.338823E-10
       143  19  3.723227E+05  4.231256E+04  2.649608E+04 -1.984255E+04 -1.049014E+04  8.405774E+03
       143  20  4.033398E+05  4.933011E+04  2.450428E+04 -1.115286E+04 -2.023591E+04  9.927663E+03
       143  21  4.309384E+05  4.764303E+04  1.400050E+04 -1.526289E+04 -2.998246E+04  1.108306E+04
       143  22  2.011661E+05  4.838331E+02 -1.155014E+04 -1.828687E+04 -9.013079E+03  8.406118E+03
       143  23  2.029034E+05  3.554209E+02 -2.000130E+04 -1.188579E+04 -1.907262E+04  9.928165E+03
       143  24  2.011649E+05 -8.533943E+03 -3.718450E+04 -1.828485E+04 -2.913250E+04  1.108373E+04
       143  25  3.003677E+04 -4.134687E+04 -4.959818E+04 -1.673162E+04 -7.536425E+03  8.406469E+03
       143  26  2.504494E+03 -4.862198E+04 -6.450936E+04 -1.261849E+04 -1.790971E+04  9.928665E+03
       143  27 -2.855930E+04 -6.471446E+04 -8.837280E+04 -2.130568E+04 -2.828285E+04  1.108440E+04
       144   1  4.475535E+05  6.956693E+04  9.814270E+03 -3.918648E+04  3.910409E+04 -1.280227E+04
       144   2  4.968490E+05  7.215839E+04 -1.511298E+04  1.082196E+04  7.394687E+04 -1.247919E+04
       144   3  5.064523E+05 -6.613277E+04 -9.791522E+04  4.838910E+04  1.087878E+05 -3.944226E+03
       144   4  1.928335E+05  7.369018E+03 -4.663263E+04 -1.822455E+04  3.581118E+04 -1.280241E+04
       144   5  2.133126E+05  2.685586E+03 -7.893593E+04 -1.196880E+04  7.773289E+04 -1.248066E+04
       144   6  1.928470E+05 -1.441511E+05 -1.740474E+05 -1.815472E+04  1.196504E+05 -3.950258E+03
       144   7 -6.182503E+04 -5.483161E+04 -1.030833E+05  2.728679E+03  3.251961E+04 -1.280277E+04
       144   8 -7.014793E+04 -6.679077E+04 -1.427637E+05 -3.474906E+04  8.151720E+04 -1.248241E+04
       144   9 -1.206589E+05 -2.221601E+05 -2.501839E+05 -8.466486E+04  1.305076E+05 -3.958621E+03
       144  10  4.475518E+05  6.956634E+04  9.811091E+03 -3.918608E+04 -1.860083E-09 -1.478875E-09
       144  11  4.968431E+05  7.215675E+04 -1.512354E+04  1.082270E+04 -9.842945E-10 -2.201105E-09
       144  12  5.064396E+05 -6.613597E+04 -9.793747E+04  4.838944E+04 -8.396224E-10 -6.229049E-10
       144  13  1.928320E+05  7.368497E+03 -4.663535E+04 -1.822418E+04 -2.553394E-10 -2.515875E-09
       144  14  2.133061E+05  2.683797E+03 -7.894757E+04 -1.196801E+04  2.478564E-10  3.709699E-10
       144  15  1.928316E+05 -1.441550E+05 -1.740743E+05 -1.815434E+04 -7.718882E-10  5.945737E-12
       144  16 -6.182621E+04 -5.483207E+04 -1.030856E+05  2.729014E+03  1.086961E-09 -1.150872E-09
       144  17 -7.015511E+04 -6.679272E+04 -1.427765E+05 -3.474824E+04  1.805908E-09  6.433002E-10
       144  18 -1.206772E+05 -2.221647E+05 -2.502159E+05 -8.466444E+04  1.388513E-09 -2.680292E-10
       144  19  4.475535E+05  6.956693E+04  9.814270E+03 -3.918648E+04 -3.910409E+04  1.280227E+04
       144  20  4.968490E+05  7.215839E+04 -1.511298E+04  1.082196E+04 -7.394687E+04  1.247919E+04
       144  21  5.064523E+05 -6.613277E+04 -9.791522E+04  4.838910E+04 -1.087878E+05  3.944226E+03
       144  22  1.928335E+05  7.369018E+03 -4.663263E+04 -1.822455E+04 -3.581118E+04  1.280241E+04
       144  23  2.133126E+05  2.685586E+03 -7.893593E+04 -1.196880E+04 -7.773289E+04  1.248066E+04
       144  24  1.928470E+05 -1.441511E+05 -1.740474E+05 -1.815472E+04 -1.196504E+05  3.950258E+03
       144  25 -6.182503E+04 -5.483161E+04 -1.030833E+05  2.728679E+03 -3.251961E+04  1.280277E+04
       144  26 -7.014793E+04 -6.679077E+04 -1.427637E+05 -3.474906E+04 -8.151720E+04  1.248241E+04
       144  27 -1.206589E+05 -2.221601E+05 -2.501839E+05 -8.466486E+04 -1.305076E+05  3.958621E+03
       145   1  3.591610E+05  1.310762E+06  3.536617E+05 -2.073714E+05  1.595166E+04  5.103825E+04
       145   2  2.641113E+05  9.826708E+05  2.485748E+05 -1.344837E+05  4.603123E+04  1.487816E+04
       145   3  1.851149E+05  6.634425E+05  1.710257E+05 -2.012881E+05  3.745065E+04 -2.130445E+04
       145   4  1.003377E+04 -9.394761E+04  1.174610E+04 -2.016966E+05  1.600207E+04  8.310597E+03
       145   5 -7.038261E+01 -9.533799E+04  5.123003E+03 -1.318503E+05  4.605026E+04  5.620492E+03
       145   6  9.684908E+01 -9.374906E+04  2.838377E+03 -2.017092E+05  3.740864E+04  2.889097E+03
       145   7 -3.392376E+05 -1.496855E+06 -3.303057E+05 -1.960339E+05  1.605177E+04 -3.432080E+04
       145   8 -2.643318E+05 -1.172267E+06 -2.384030E+05 -1.292211E+05  4.606922E+04 -3.621280E+03
       145   9 -1.849597E+05 -8.504048E+05 -1.653825E+05 -2.021294E+05  3.736657E+04  2.705349E+04
       145  10  3.591600E+05  1.310759E+06  3.536563E+05 -2.073720E+05 -2.151462E-10  7.261085E-09
       145  11  2.641090E+05  9.826700E+05  2.485704E+05 -1.344842E+05  9.395235E-10 -2.064276E-09
       145  12  1.851133E+05  6.634417E+05  1.710222E+05 -2.012875E+05 -1.861225E-09 -7.501945E-09
       145  13  1.003348E+04 -9.394776E+04  1.174549E+04 -2.016967E+05 -5.699636E-10  1.050645E-11
       145  14 -7.266825E+01 -9.533859E+04  5.118959E+03 -1.318506E+05 -2.107918E-09  1.310217E-11
       145  15  9.534413E+01 -9.374944E+04  2.835731E+03 -2.017093E+05 -1.315453E-09  2.455036E-10
       145  16 -3.392382E+05 -1.496856E+06 -3.303085E+05 -1.960335E+05 -3.837130E-10 -7.573139E-09
       145  17 -2.643341E+05 -1.172268E+06 -2.384070E+05 -1.292210E+05 -1.662573E-09  4.307138E-10
       145  18 -1.849614E+05 -8.504059E+05 -1.653865E+05 -2.021302E+05 -1.565021E-09  5.417135E-09
       145  19  3.591610E+05  1.310762E+06  3.536617E+05 -2.073714E+05 -1.595166E+04 -5.103825E+04
       145  20  2.641113E+05  9.826708E+05  2.485748E+05 -1.344837E+05 -4.603123E+04 -1.487816E+04
       145  21  1.851149E+05  6.634425E+05  1.710257E+05 -2.012881E+05 -3.745065E+04  2.130445E+04
       145  22  1.003377E+04 -9.394761E+04  1.174610E+04 -2.016966E+05 -1.600207E+04 -8.310597E+03
       145  23 -7.038261E+01 -9.533799E+04  5.123003E+03 -1.318503E+05 -4.605026E+04 -5.620492E+03
       145  24  9.684908E+01 -9.374906E+04  2.838377E+03 -2.017092E+05 -3.740864E+04 -2.889097E+03
       145  25 -3.392376E+05 -1.496855E+06 -3.303057E+05 -1.960339E+05 -1.605177E+04  3.432080E+04
       145  26 -2.643318E+05 -1.172267E+06 -2.384030E+05 -1.292211E+05 -4.606922E+04  3.621280E+03
       145  27 -1.849597E+05 -8.504048E+05 -1.653825E+05 -2.021294E+05 -3.736657E+04 -2.705349E+04
       146   1  1.195296E+05  3.891573E+05  1.098431E+05 -2.028555E+05  2.326282E+04 -1.060780E+04
       146   2  3.965967E+04  6.604631E+04  3.609797E+04 -1.317127E+05  7.951909E+03 -1.119082E+04
       146   3 -3.950466E+04 -2.573001E+05 -3.723986E+04 -2.018616E+05 -7.720323E+03 -1.177767E+04
       146   4  1.270728E+03 -9.441915E+04  2.044534E+03 -2.020579E+05  2.323794E+04  2.469159E+03
       146   5  4.861777E+02 -9.421108E+04  4.932760E+02 -1.314120E+05  7.925255E+03  2.195796E+03
       146   6  3.603006E+02 -9.438948E+04 -8.607461E+02 -2.020598E+05 -7.749151E+03  1.918312E+03
       146   7 -1.170040E+05 -5.777773E+05 -1.057681E+05 -2.012608E+05  2.321307E+04  1.553604E+04
       146   8 -3.868895E+04 -2.544441E+05 -3.511234E+04 -1.311113E+05  7.898610E+03  1.557899E+04
       146   9  4.022355E+04  6.854625E+04  3.551740E+04 -2.022580E+05 -7.777983E+03  1.561786E+04
       146  10  1.195290E+05  3.891571E+05  1.098419E+05 -2.028553E+05 -2.125897E-09  7.525444E-09
       146  11  3.965957E+04  6.604616E+04  3.609761E+04 -1.317126E+05 -1.706758E-09 -2.895254E-09
       146  12 -3.950476E+04 -2.573002E+05 -3.724023E+04 -2.018617E+05 -1.372094E-09 -7.960534E-09
       146  13  1.270146E+03 -9.441930E+04  2.043508E+03 -2.020580E+05  2.954385E-11  3.069315E-11
       146  14  4.861089E+02 -9.421110E+04  4.931489E+02 -1.314120E+05  1.595914E-10  2.330949E-11
       146  15  3.602352E+02 -9.438950E+04 -8.608659E+02 -2.020598E+05 -5.938917E-10  2.602776E-10
       146  16 -1.170046E+05 -5.777777E+05 -1.057695E+05 -2.012611E+05 -5.495947E-11 -8.473545E-09
       146  17 -3.868909E+04 -2.544444E+05 -3.511291E+04 -1.311114E+05 -8.376512E-10  4.743121E-10
       146  18  4.022342E+04  6.854597E+04  3.551683E+04 -2.022579E+05 -1.233981E-09  5.627319E-09
       146  19  1.195296E+05  3.891573E+05  1.098431E+05 -2.028555E+05 -2.326282E+04  1.060780E+04
       146  20  3.965967E+04  6.604631E+04  3.609797E+04 -1.317127E+05 -7.951909E+03  1.119082E+04
       146  21 -3.950466E+04 -2.573001E+05 -3.723986E+04 -2.018616E+05  7.720323E+03  1.177767E+04
       146  22  1.270728E+03 -9.441915E+04  2.044534E+03 -2.020579E+05 -2.323794E+04 -2.469159E+03
       146  23  4.861777E+02 -9.421108E+04  4.932760E+02 -1.314120E+05 -7.925255E+03 -2.195796E+03
       146  24  3.603006E+02 -9.438948E+04 -8.607461E+02 -2.020598E+05  7.749151E+03 -1.918312E+03
       146  25 -1.170040E+05 -5.777773E+05 -1.057681E+05 -2.012608E+05 -2.321307E+04 -1.553604E+04
       146  26 -3.868895E+04 -2.544441E+05 -3.511234E+04 -1.311113E+05 -7.898610E+03 -1.557899E+04
       146  27  4.022355E+04  6.854625E+04  3.551740E+04 -2.022580E+05  7.777983E+03 -1.561786E+04
       147   1 -1.056017E+05 -5.309079E+05 -9.862733E+04 -2.001980E+05 -2.114158E+04 -2.023831E+04
       147   2 -1.853865E+05 -8.509773E+05 -1.748165E+05 -1.318055E+05 -3.170945E+04  7.919890E+03
       147   3 -2.754516E+05 -1.177463E+06 -2.720035E+05 -2.035065E+05 -1.165325E+04  3.610721E+04
       147   4  1.096780E+03 -9.476751E+04 -1.466923E+03 -2.017875E+05 -2.118626E+04  2.056033E+03
       147   5  4.266185E+02 -9.387826E+04 -3.264318E+03 -1.317510E+05 -3.169954E+04  3.784415E+03
       147   6 -5.919840E+03 -9.490797E+04 -7.685709E+03 -2.017983E+05 -1.160531E+04  5.557132E+03
       147   7  1.077826E+05  3.415515E+05  9.568345E+04 -2.033781E+05 -2.123103E+04  2.436587E+04
       147   8  1.862003E+05  6.637537E+05  1.682510E+05 -1.316961E+05 -3.168964E+04 -3.560637E+02
       147   9  2.635259E+05  9.887190E+05  2.565502E+05 -2.000865E+05 -1.155759E+04 -2.504618E+04
       147  10 -1.056023E+05 -5.309085E+05 -9.862894E+04 -2.001983E+05 -1.099512E-09 -4.753585E-10
       147  11 -1.853876E+05 -8.509776E+05 -1.748185E+05 -1.318053E+05  4.514399E-10 -2.624737E-09
       147  12 -2.754521E+05 -1.177464E+06 -2.720062E+05 -2.035062E+05  4.955608E-11  6.021194E-11
       147  13  1.096297E+03 -9.476763E+04 -1.467774E+03 -2.017875E+05  9.082958E-11  5.086553E-11
       147  14  4.255357E+02 -9.387854E+04 -3.266233E+03 -1.317509E+05 -1.887678E-09  2.033887E-11
       147  15 -5.919993E+03 -9.490804E+04 -7.686020E+03 -2.017983E+05 -3.703865E-10  1.419406E-10
       147  16  1.077820E+05  3.415507E+05  9.568149E+04 -2.033776E+05 -8.342533E-10 -4.547179E-10
       147  17  1.861992E+05  6.637534E+05  1.682491E+05 -1.316961E+05 -1.782219E-09  6.351779E-10
       147  18  2.635256E+05  9.887183E+05  2.565488E+05 -2.000868E+05  7.985851E-11 -1.623234E-09
       147  19 -1.056017E+05 -5.309079E+05 -9.862733E+04 -2.001980E+05  2.114158E+04  2.023831E+04
       147  20 -1.853865E+05 -8.509773E+05 -1.748165E+05 -1.318055E+05  3.170945E+04 -7.919890E+03
       147  21 -2.754516E+05 -1.177463E+06 -2.720035E+05 -2.035065E+05  1.165325E+04 -3.610721E+04
       147  22  1.096780E+03 -9.476751E+04 -1.466923E+03 -2.017875E+05  2.118626E+04 -2.056033E+03
       147  23  4.266185E+02 -9.387826E+04 -3.264318E+03 -1.317510E+05  3.169954E+04 -3.784415E+03
       147  24 -5.919840E+03 -9.490797E+04 -7.685709E+03 -2.017983E+05  1.160531E+04 -5.557132E+03
       147  25  1.077826E+05  3.415515E+05  9.568345E+04 -2.033781E+05  2.123103E+04 -2.436587E+04
       147  26  1.862003E+05  6.637537E+05  1.682510E+05 -1.316961E+05  3.168964E+04  3.560637E+02
       147  27  2.635259E+05  9.887190E+05  2.565502E+05 -2.000865E+05  1.155759E+04  2.504618E+04
       148   1 -7.862734E+05 -2.933317E+05 -1.727931E+05 -2.912165E+05 -6.119678E+04 -1.733679E+04
       148   2 -7.434119E+05 -1.989359E+05 -1.121383E+05 -2.747617E+05 -3.936179E+04  2.442336E+03
       148   3 -7.107049E+05 -1.781618E+05 -8.654340E+04 -2.609873E+05 -1.352704E+04  1.158249E+04
       148   4 -4.330768E+05 -1.360278E+05 -7.348058E+04 -1.699554E+05 -4.871563E+04 -1.265173E+04
       148   5 -4.248832E+05 -7.198415E+04 -3.169177E+04 -1.791579E+05 -3.546921E+04  3.902677E+03
       148   6 -4.251306E+05 -7.984255E+04 -1.813980E+04 -1.910453E+05 -1.822613E+04  9.818353E+03
       148   7 -7.975576E+04  2.129924E+04  2.582137E+04 -4.862632E+04 -3.622662E+04 -7.962473E+03
       148   8 -1.062534E+05  5.497869E+04  4.874692E+04 -8.350793E+04 -3.157443E+04  5.363970E+03
       148   9 -1.394759E+05  1.847943E+04  5.025804E+04 -1.210753E+05 -2.292758E+04  8.053484E+03
       148  10 -7.862775E+05 -2.933330E+05 -1.728007E+05 -2.912174E+05  1.316026E-09  1.629626E-10
       148  11 -7.434135E+05 -1.989363E+05 -1.121412E+05 -2.747616E+05  1.106088E-09 -8.691002E-10
       148  12 -7.107051E+05 -1.781620E+05 -8.654399E+04 -2.609872E+05 -9.149829E-10 -6.043098E-10
       148  13 -4.330794E+05 -1.360287E+05 -7.348534E+04 -1.699559E+05 -9.702575E-10 -3.542560E-10
       148  14 -4.248845E+05 -7.198451E+04 -3.169416E+04 -1.791578E+05 -5.962501E-10 -1.041677E-09
       148  15 -4.251310E+05 -7.984274E+04 -1.814061E+04 -1.910451E+05 -1.150245E-09  5.285315E-11
       148  16 -7.975719E+04  2.129882E+04  2.581878E+04 -4.862655E+04 -8.995837E-10 -3.202707E-10
       148  17 -1.062545E+05  5.497840E+04  4.874499E+04 -8.350780E+04  1.894932E-10 -7.671827E-10
       148  18 -1.394765E+05  1.847922E+04  5.025693E+04 -1.210751E+05  1.547621E-09  1.473670E-09
       148  19 -7.862734E+05 -2.933317E+05 -1.727931E+05 -2.912165E+05  6.119678E+04  1.733679E+04
       148  20 -7.434119E+05 -1.989359E+05 -1.121383E+05 -2.747617E+05  3.936179E+04 -2.442336E+03
       148  21 -7.107049E+05 -1.781618E+05 -8.654340E+04 -2.609873E+05  1.352704E+04 -1.158249E+04
       148  22 -4.330768E+05 -1.360278E+05 -7.348058E+04 -1.699554E+05  4.871563E+04  1.265173E+04
       148  23 -4.248832E+05 -7.198415E+04 -3.169177E+04 -1.791579E+05  3.546921E+04 -3.902677E+03
       148  24 -4.251306E+05 -7.984255E+04 -1.813980E+04 -1.910453E+05  1.822613E+04 -9.818353E+03
       148  25 -7.975576E+04  2.129924E+04  2.582137E+04 -4.862632E+04  3.622662E+04  7.962473E+03
       148  26 -1.062534E+05  5.497869E+04  4.874692E+04 -8.350793E+04  3.157443E+04 -5.363970E+03
       148  27 -1.394759E+05  1.847943E+04  5.025804E+04 -1.210753E+05  2.292758E+04 -8.053484E+03
       149   1 -6.612093E+05 -1.758993E+05 -7.330517E+04 -2.542226E+05 -1.343201E+04  8.603633E+03
       149   2 -6.227445E+05 -1.466786E+05 -5.485746E+04 -2.331843E+05 -8.519217E+03  8.119029E+03
       149   3 -5.707785E+05 -1.368400E+05 -4.054528E+04 -2.290079E+05 -3.422741E+03  7.143616E+03
       149   4 -4.227164E+05 -8.575620E+04 -1.443728E+04 -1.875853E+05 -1.488578E+04  8.057665E+03
       149   5 -4.292447E+05 -7.427506E+04 -7.367759E+03 -1.798392E+05 -1.036825E+04  7.425051E+03
       149   6 -4.221949E+05 -8.209672E+04 -4.119070E+03 -1.889556E+05 -5.667363E+03  6.301578E+03
       149   7 -1.841684E+05  4.390748E+03  4.442595E+04 -1.209249E+05 -1.634016E+04  7.511464E+03
       149   8 -2.357079E+05 -1.868884E+03  4.011911E+04 -1.264788E+05 -1.221791E+04  6.730835E+03
       149   9 -2.735888E+05 -2.735183E+04  3.230568E+04 -1.488943E+05 -7.912582E+03  5.459322E+03
       149  10 -6.612095E+05 -1.758994E+05 -7.330565E+04 -2.542225E+05  1.016569E-09  6.655775E-10
       149  11 -6.227446E+05 -1.466787E+05 -5.485772E+04 -2.331843E+05  1.638880E-09 -8.266796E-10
       149  12 -5.707786E+05 -1.368400E+05 -4.054540E+04 -2.290079E+05  8.229891E-10 -3.251917E-10
       149  13 -4.227166E+05 -8.575633E+04 -1.443782E+04 -1.875852E+05 -2.471967E-12  1.869412E-10
       149  14 -4.292448E+05 -7.427515E+04 -7.368065E+03 -1.798391E+05  1.667455E-09 -9.831919E-10
       149  15 -4.221949E+05 -8.209677E+04 -4.119205E+03 -1.889555E+05  2.155342E-09  3.848275E-10
       149  16 -1.841687E+05  4.390616E+03  4.442534E+04 -1.209248E+05 -1.359363E-09  2.689199E-10
       149  17 -2.357081E+05 -1.868972E+03  4.011874E+04 -1.264788E+05  1.331711E-09 -5.916993E-10
       149  18 -2.735888E+05 -2.735188E+04  3.230551E+04 -1.488943E+05  1.185946E-09  9.996326E-10
       149  19 -6.612093E+05 -1.758993E+05 -7.330517E+04 -2.542226E+05  1.343201E+04 -8.603633E+03
       149  20 -6.227445E+05 -1.466786E+05 -5.485746E+04 -2.331843E+05  8.519217E+03 -8.119029E+03
       149  21 -5.707785E+05 -1.368400E+05 -4.054528E+04 -2.290079E+05  3.422741E+03 -7.143616E+03
       149  22 -4.227164E+05 -8.575620E+04 -1.443728E+04 -1.875853E+05  1.488578E+04 -8.057665E+03
       149  23 -4.292447E+05 -7.427506E+04 -7.367759E+03 -1.798392E+05  1.036825E+04 -7.425051E+03
       149  24 -4.221949E+05 -8.209672E+04 -4.119070E+03 -1.889556E+05  5.667363E+03 -6.301578E+03
       149  25 -1.841684E+05  4.390748E+03  4.442595E+04 -1.209249E+05  1.634016E+04 -7.511464E+03
       149  26 -2.357079E+05 -1.868884E+03  4.011911E+04 -1.264788E+05  1.221791E+04 -6.730835E+03
       149  27 -2.735888E+05 -2.735183E+04  3.230568E+04 -1.488943E+05  7.912582E+03 -5.459322E+03
       150   1 -5.298180E+05 -1.226139E+05 -2.941969E+04 -2.182735E+05 -2.394086E+03  5.724087E+03
       150   2 -4.917127E+05 -9.756534E+04 -1.694530E+04 -1.968679E+05 -5.254592E+02  3.451859E+03
       150   3 -4.382955E+05 -8.830883E+04 -5.203356E+03 -1.932135E+05  1.351743E+03  1.156048E+03
       150   4 -4.219693E+05 -8.247248E+04 -3.154597E+03 -1.887180E+05 -4.491840E+03  4.937272E+03
       150   5 -4.296093E+05 -7.446504E+04 -1.741190E+03 -1.798842E+05 -2.642151E+03  2.658047E+03
       150   6 -4.219356E+05 -8.224575E+04 -1.044926E+03 -1.888021E+05 -7.839634E+02  3.552245E+02
       150   7 -3.141091E+05 -4.233025E+04  2.310964E+04 -1.591578E+05 -6.589992E+03  4.150308E+03
       150   8 -3.675022E+05 -5.136453E+04  1.346261E+04 -1.628990E+05 -4.759068E+03  1.864150E+03
       150   9 -4.055754E+05 -7.618267E+04  3.113481E+03 -1.843907E+05 -2.919721E+03 -4.456181E+02
       150  10 -5.298181E+05 -1.226140E+05 -2.941976E+04 -2.182734E+05  2.513166E-09  1.063710E-09
       150  11 -4.917127E+05 -9.756535E+04 -1.694532E+04 -1.968679E+05  4.148853E-10 -1.208466E-10
       150  12 -4.382955E+05 -8.830884E+04 -5.203362E+03 -1.932135E+05 -2.822870E-10 -4.337696E-10
       150  13 -4.219694E+05 -8.247251E+04 -3.154680E+03 -1.887179E+05  8.459178E-10  6.399177E-10
       150  14 -4.296093E+05 -7.446505E+04 -1.741216E+03 -1.798842E+05  1.402040E-09 -3.647165E-10
       150  15 -4.219356E+05 -8.224575E+04 -1.044927E+03 -1.888021E+05 -1.364753E-09 -1.566830E-10
       150  16 -3.141092E+05 -4.233028E+04  2.310952E+04 -1.591578E+05 -1.068606E-09  2.510381E-10
       150  17 -3.675022E+05 -5.136454E+04  1.346256E+04 -1.628990E+05 -2.292124E-09 -4.330804E-10
       150  18 -4.055754E+05 -7.618267E+04  3.113464E+03 -1.843907E+05  2.172506E-10  1.149694E-10
       150  19 -5.298180E+05 -1.226139E+05 -2.941969E+04 -2.182735E+05  2.394086E+03 -5.724087E+03
       150  20 -4.917127E+05 -9.756534E+04 -1.694530E+04 -1.968679E+05  5.254592E+02 -3.451859E+03
       150  21 -4.382955E+05 -8.830883E+04 -5.203356E+03 -1.932135E+05 -1.351743E+03 -1.156048E+03
       150  22 -4.219693E+05 -8.247248E+04 -3.154597E+03 -1.887180E+05  4.491840E+03 -4.937272E+03
       150  23 -4.296093E+05 -7.446504E+04 -1.741190E+03 -1.798842E+05  2.642151E+03 -2.658047E+03
       150  24 -4.219356E+05 -8.224575E+04 -1.044926E+03 -1.888021E+05  7.839634E+02 -3.552245E+02
       150  25 -3.141091E+05 -4.233025E+04  2.310964E+04 -1.591578E+05  6.589992E+03 -4.150308E+03
       150  26 -3.675022E+05 -5.136453E+04  1.346261E+04 -1.628990E+05  4.759068E+03 -1.864150E+03
       150  27 -4.055754E+05 -7.618267E+04  3.113481E+03 -1.843907E+05  2.919721E+03  4.456181E+02
       151   1 -3.978998E+05 -7.328512E+04  5.187813E+03 -1.822051E+05  2.077605E+03 -3.236558E+02
       151   2 -3.598606E+05 -4.850288E+04  1.641485E+04 -1.607729E+05  3.399440E+03 -2.831043E+03
       151   3 -3.063496E+05 -3.926656E+04  2.738770E+04 -1.571267E+05  4.721448E+03 -5.337971E+03
       151   4 -4.219114E+05 -8.226520E+04 -8.558760E+02 -1.887827E+05 -5.128611E+01 -1.121930E+03
       151   5 -4.296466E+05 -7.448986E+04 -6.717346E+02 -1.798902E+05  1.270755E+03 -3.629371E+03
       151   6 -4.219132E+05 -8.226134E+04 -7.422145E+02 -1.887852E+05  2.592931E+03 -6.136340E+03
       151   7 -4.459226E+05 -9.124530E+04 -6.899643E+03 -1.953600E+05 -2.180103E+03 -1.920176E+03
       151   8 -4.994276E+05 -1.004764E+05 -1.775861E+04 -1.990055E+05 -8.576631E+02 -4.427598E+03
       151   9 -5.374622E+05 -1.252546E+05 -2.887268E+04 -2.204379E+05  4.648742E+02 -6.934537E+03
       151  10 -3.978998E+05 -7.328513E+04  5.187805E+03 -1.822051E+05  1.101201E-09 -1.067818E-10
       151  11 -3.598606E+05 -4.850289E+04  1.641481E+04 -1.607729E+05  1.013829E-09 -4.917652E-10
       151  12 -3.063496E+05 -3.926660E+04  2.738760E+04 -1.571266E+05  3.537251E-11  1.993514E-10
       151  13 -4.219114E+05 -8.226520E+04 -8.558783E+02 -1.887827E+05 -9.146168E-10  6.410866E-11
       151  14 -4.296466E+05 -7.448987E+04 -6.717624E+02 -1.798902E+05  1.993157E-09 -1.775632E-10
       151  15 -4.219133E+05 -8.226138E+04 -7.422978E+02 -1.887852E+05 -7.322795E-10 -2.385965E-10
       151  16 -4.459226E+05 -9.124531E+04 -6.899658E+03 -1.953600E+05 -2.236004E-09  1.715933E-10
       151  17 -4.994276E+05 -1.004764E+05 -1.775865E+04 -1.990055E+05 -5.239446E-10 -8.202343E-11
       151  18 -5.374622E+05 -1.252547E+05 -2.887277E+04 -2.204379E+05  6.217252E-10 -6.917460E-10
       151  19 -3.978998E+05 -7.328512E+04  5.187813E+03 -1.822051E+05 -2.077605E+03  3.236558E+02
       151  20 -3.598606E+05 -4.850288E+04  1.641485E+04 -1.607729E+05 -3.399440E+03  2.831043E+03
       151  21 -3.063496E+05 -3.926656E+04  2.738770E+04 -1.571267E+05 -4.721448E+03  5.337971E+03
       151  22 -4.219114E+05 -8.226520E+04 -8.558760E+02 -1.887827E+05  5.128611E+01  1.121930E+03
       151  23 -4.296466E+05 -7.448986E+04 -6.717346E+02 -1.798902E+05 -1.270755E+03  3.629371E+03
       151  24 -4.219132E+05 -8.226134E+04 -7.422145E+02 -1.887852E+05 -2.592931E+03  6.136340E+03
       151  25 -4.459226E+05 -9.124530E+04 -6.899643E+03 -1.953600E+05  2.180103E+03  1.920176E+03
       151  26 -4.994276E+05 -1.004764E+05 -1.775861E+04 -1.990055E+05  8.576631E+02  4.427598E+03
       151  27 -5.374622E+05 -1.252546E+05 -2.887268E+04 -2.204379E+05 -4.648742E+02  6.934537E+03
       152   1 -2.660743E+05 -2.420989E+04  3.745127E+04 -1.461159E+05  5.427726E+03 -6.819988E+03
       152   2 -2.281352E+05  5.010944E+02  4.794761E+04 -1.247255E+05  7.096405E+03 -9.190676E+03
       152   3 -1.748019E+05  9.667413E+03  5.792630E+04 -1.210676E+05  8.763842E+03 -1.155528E+04
       152   4 -4.219311E+05 -8.225138E+04 -8.667065E+02 -1.887779E+05  3.300902E+03 -7.617868E+03
       152   5 -4.296332E+05 -7.450566E+04 -1.379707E+03 -1.799018E+05  4.974054E+03 -9.987246E+03
       152   6 -4.219433E+05 -8.230585E+04 -2.413747E+03 -1.887594E+05  6.645912E+03 -1.235055E+04
       152   7 -5.777649E+05 -1.402916E+05 -3.918677E+04 -2.314304E+05  1.174647E+03 -8.415534E+03
       152   8 -6.310932E+05 -1.495105E+05 -5.071067E+04 -2.350624E+05  2.852432E+03 -1.078354E+04
       152   9 -6.690281E+05 -1.742764E+05 -6.275941E+04 -2.564278E+05  4.528869E+03 -1.314550E+04
       152  10 -2.660744E+05 -2.420995E+04  3.745113E+04 -1.461159E+05 -1.233187E-09  4.203331E-10
       152  11 -2.281353E+05  5.009902E+02  4.794736E+04 -1.247254E+05  1.308759E-09  2.563775E-10
       152  12 -1.748020E+05  9.667249E+03  5.792590E+04 -1.210675E+05  1.103305E-09 -6.380061E-10
       152  13 -4.219311E+05 -8.225144E+04 -8.668360E+02 -1.887778E+05 -9.068319E-11  2.178830E-10
       152  14 -4.296332E+05 -7.450577E+04 -1.379940E+03 -1.799017E+05 -1.682758E-09  3.860453E-10
       152  15 -4.219433E+05 -8.230603E+04 -2.414117E+03 -1.887593E+05 -3.052462E-09 -4.511182E-10
       152  16 -5.777649E+05 -1.402917E+05 -3.918691E+04 -2.314303E+05 -2.193615E-10  6.365940E-11
       152  17 -6.310933E+05 -1.495106E+05 -5.071090E+04 -2.350624E+05  1.631691E-10  8.788255E-10
       152  18 -6.690282E+05 -1.742766E+05 -6.275977E+04 -2.564277E+05 -5.080526E-09 -9.516221E-10
       152  19 -2.660743E+05 -2.420989E+04  3.745127E+04 -1.461159E+05 -5.427726E+03  6.819988E+03
       152  20 -2.281352E+05  5.010944E+02  4.794761E+04 -1.247255E+05 -7.096405E+03  9.190676E+03
       152  21 -1.748019E+05  9.667413E+03  5.792630E+04 -1.210676E+05 -8.763842E+03  1.155528E+04
       152  22 -4.219311E+05 -8.225138E+04 -8.667065E+02 -1.887779E+05 -3.300902E+03  7.617868E+03
       152  23 -4.296332E+05 -7.450566E+04 -1.379707E+03 -1.799018E+05 -4.974054E+03  9.987246E+03
       152  24 -4.219433E+05 -8.230585E+04 -2.413747E+03 -1.887594E+05 -6.645912E+03  1.235055E+04
       152  25 -5.777649E+05 -1.402916E+05 -3.918677E+04 -2.314304E+05 -1.174647E+03  8.415534E+03
       152  26 -6.310932E+05 -1.495105E+05 -5.071067E+04 -2.350624E+05 -2.852432E+03  1.078354E+04
       152  27 -6.690281E+05 -1.742764E+05 -6.275941E+04 -2.564278E+05 -4.528869E+03  1.314550E+04
       153   1 -1.347173E+05  2.464683E+04  6.729839E+04 -1.102511E+05  9.806096E+03 -1.290731E+04
       153   2 -9.688251E+04  4.938642E+04  7.570558E+04 -8.878288E+04  1.361622E+04 -1.444923E+04
       153   3 -4.428776E+04  5.783380E+04  8.178724E+04 -8.481745E+04  1.741127E+04 -1.594651E+04
       153   4 -4.220577E+05 -8.222341E+04 -3.181276E+03 -1.888053E+05  7.680475E+03 -1.370577E+04
       153   5 -4.294929E+05 -7.446353E+04 -5.722569E+03 -1.799091E+05  1.152487E+04 -1.523539E+04
       153   6 -4.221768E+05 -8.300313E+04 -1.061720E+04 -1.885166E+05  1.535398E+04 -1.672043E+04
       153   7 -7.093129E+05 -1.890866E+05 -7.366611E+04 -2.673255E+05  5.555957E+03 -1.450382E+04
       153   8 -7.619917E+05 -1.983050E+05 -8.715835E+04 -2.709904E+05  9.434754E+03 -1.602108E+04
       153   9 -7.999244E+05 -2.238300E+05 -1.030322E+05 -2.921582E+05  1.329805E+04 -1.749384E+04
       153  10 -1.347175E+05  2.464662E+04  6.729790E+04 -1.102510E+05 -2.202248E-09 -1.607698E-09
       153  11 -9.688276E+04  4.938615E+04  7.570484E+04 -8.878272E+04 -5.043909E-09 -1.190762E-09
       153  12 -4.428815E+04  5.783345E+04  8.178620E+04 -8.481722E+04 -2.267367E-09 -7.274947E-10
       153  13 -4.220578E+05 -8.222363E+04 -3.181740E+03 -1.888052E+05 -3.852579E-09 -1.626667E-09
       153  14 -4.294931E+05 -7.446381E+04 -5.723255E+03 -1.799090E+05 -3.974051E-09 -8.229489E-10
       153  15 -4.221772E+05 -8.300350E+04 -1.061817E+04 -1.885164E+05 -1.109834E-09 -7.608860E-10
       153  16 -7.093130E+05 -1.890869E+05 -7.366656E+04 -2.673254E+05 -5.688751E-09 -1.438253E-09
       153  17 -7.619919E+05 -1.983053E+05 -8.715900E+04 -2.709902E+05 -2.691211E-09 -1.528331E-09
       153  18 -7.999247E+05 -2.238304E+05 -1.030331E+05 -2.921580E+05  1.393725E-09 -9.143928E-11
       153  19 -1.347173E+05  2.464683E+04  6.729839E+04 -1.102511E+05 -9.806096E+03  1.290731E+04
       153  20 -9.688251E+04  4.938642E+04  7.570558E+04 -8.878288E+04 -1.361622E+04  1.444923E+04
       153  21 -4.428776E+04  5.783380E+04  8.178724E+04 -8.481745E+04 -1.741127E+04  1.594651E+04
       153  22 -4.220577E+05 -8.222341E+04 -3.181276E+03 -1.888053E+05 -7.680475E+03  1.370577E+04
       153  23 -4.294929E+05 -7.446353E+04 -5.722569E+03 -1.799091E+05 -1.152487E+04  1.523539E+04
       153  24 -4.221768E+05 -8.300313E+04 -1.061720E+04 -1.885166E+05 -1.535398E+04  1.672043E+04
       153  25 -7.093129E+05 -1.890866E+05 -7.366611E+04 -2.673255E+05 -5.555957E+03  1.450382E+04
       153  26 -7.619917E+05 -1.983050E+05 -8.715835E+04 -2.709904E+05 -9.434754E+03  1.602108E+04
       153  27 -7.999244E+05 -2.238300E+05 -1.030322E+05 -2.921582E+05 -1.329805E+04  1.749384E+04
       154   1 -3.694490E+03  7.247624E+04  8.850238E+04 -7.645723E+04  2.022063E+04 -1.671515E+04
       154   2  3.355634E+04  9.951875E+04  8.834887E+04 -5.181766E+04  3.320511E+04 -1.460313E+04
       154   3  7.979805E+04  9.842677E+04  7.576077E+04 -4.169073E+04  4.588019E+04 -1.166037E+04
       154   4 -4.229387E+05 -8.173389E+04 -1.392569E+04 -1.893329E+05  1.791825E+04 -1.758155E+04
       154   5 -4.282516E+05 -7.380385E+04 -2.501319E+04 -1.797454E+05  3.156478E+04 -1.522155E+04
       154   6 -4.247120E+05 -9.414809E+04 -4.906768E+04 -1.846724E+05  4.490087E+04 -1.203099E+04
       154   7 -8.420119E+05 -2.359340E+05 -1.163675E+05 -3.021404E+05  1.561756E+04 -1.844734E+04
       154   8 -8.898505E+05 -2.471116E+05 -1.383918E+05 -3.075867E+05  2.992577E+04 -1.583947E+04
       154   9 -9.289714E+05 -2.867024E+05 -1.739158E+05 -3.275474E+05  4.392241E+04 -1.240127E+04
       154  10 -3.695004E+03  7.247583E+04  8.850109E+04 -7.645696E+04  5.773743E-10 -1.341642E-10
       154  11  3.355510E+04  9.951823E+04  8.834640E+04 -5.181727E+04  7.608085E-10  1.617974E-10
       154  12  7.979576E+04  9.842606E+04  7.575656E+04 -4.169030E+04  2.316202E-09 -2.039280E-10
       154  13 -4.229391E+05 -8.173430E+04 -1.392687E+04 -1.893327E+05  1.361345E-10 -4.701387E-10
       154  14 -4.282527E+05 -7.380437E+04 -2.501550E+04 -1.797450E+05 -1.108922E-09 -4.402566E-11
       154  15 -4.247142E+05 -9.414878E+04 -4.907174E+04 -1.846720E+05  3.181994E-09  3.614280E-10
       154  16 -8.420123E+05 -2.359344E+05 -1.163686E+05 -3.021402E+05  4.835522E-10  4.223927E-11
       154  17 -8.898515E+05 -2.471121E+05 -1.383939E+05 -3.075864E+05 -1.497999E-09  1.722206E-09
       154  18 -9.289735E+05 -2.867031E+05 -1.739197E+05 -3.275470E+05  2.192213E-09  3.710654E-09
       154  19 -3.694490E+03  7.247624E+04  8.850238E+04 -7.645723E+04 -2.022063E+04  1.671515E+04
       154  20  3.355634E+04  9.951875E+04  8.834887E+04 -5.181766E+04 -3.320511E+04  1.460313E+04
       154  21  7.979805E+04  9.842677E+04  7.576077E+04 -4.169073E+04 -4.588019E+04  1.166037E+04
       154  22 -4.229387E+05 -8.173389E+04 -1.392569E+04 -1.893329E+05 -1.791825E+04  1.758155E+04
       154  23 -4.282516E+05 -7.380385E+04 -2.501319E+04 -1.797454E+05 -3.156478E+04  1.522155E+04
       154  24 -4.247120E+05 -9.414809E+04 -4.906768E+04 -1.846724E+05 -4.490087E+04  1.203099E+04
       154  25 -8.420119E+05 -2.359340E+05 -1.163675E+05 -3.021404E+05 -1.561756E+04  1.844734E+04
       154  26 -8.898505E+05 -2.471116E+05 -1.383918E+05 -3.075867E+05 -2.992577E+04  1.583947E+04
       154  27 -9.289714E+05 -2.867024E+05 -1.739158E+05 -3.275474E+05 -4.392241E+04  1.240127E+04
       155   1  1.346328E+05  1.099508E+05  7.210873E+04 -6.903418E+04  6.059100E+04 -9.977867E+03
       155   2  1.570456E+05  1.750437E+05  3.858576E+04  7.956736E+03  1.037704E+05  7.449414E+03
       155   3  1.168427E+05  3.542907E+04 -7.945432E+04  1.179812E+05  1.402119E+05  4.277058E+04
       155   4 -4.327645E+05 -7.420204E+04 -6.166637E+04 -1.966298E+05  5.415091E+04 -1.240113E+04
       155   5 -4.135606E+05 -6.578898E+04 -1.077387E+05 -1.772165E+05  1.117550E+05  1.044913E+04
       155   6 -4.599096E+05 -2.650680E+05 -2.498241E+05 -1.247534E+05  1.626157E+05  5.119090E+04
       155   7 -9.998438E+05 -2.583504E+05 -1.954633E+05 -3.241278E+05  4.771724E+04 -1.482270E+04
       155   8 -9.838390E+05 -3.065717E+05 -2.540883E+05 -3.622247E+05  1.197315E+05  1.344491E+04
       155   9 -1.036312E+06 -5.654387E+05 -4.202205E+05 -3.672505E+05  1.849964E+05  5.959497E+04
       155  10  1.346288E+05  1.099497E+05  7.210165E+04 -6.903369E+04  5.550228E-09  1.325742E-09
       155  11  1.570340E+05  1.750407E+05  3.856542E+04  7.956114E+03  2.243838E-09  1.519778E-09
       155  12  1.168211E+05  3.542183E+04 -7.949469E+04  1.179764E+05 -1.153981E-09 -2.609773E-11
       155  13 -4.327677E+05 -7.420299E+04 -6.167217E+04 -1.966293E+05  3.122876E-09 -2.488907E-09
       155  14 -4.135740E+05 -6.579245E+04 -1.077624E+05 -1.772175E+05 -1.007727E-09  2.556475E-09
       155  15 -4.599388E+05 -2.650779E+05 -2.498787E+05 -1.247601E+05  4.141322E-10  2.053646E-10
       155  16 -9.998463E+05 -2.583512E+05 -1.954680E+05 -3.241272E+05 -8.847058E-11  1.503511E-09
       155  17 -9.838545E+05 -3.065757E+05 -2.541156E+05 -3.622260E+05  1.540925E-10 -9.903217E-10
       155  18 -1.036350E+06 -5.654517E+05 -4.202917E+05 -3.672594E+05  3.084094E-10 -5.888129E-10
       155  19  1.346328E+05  1.099508E+05  7.210873E+04 -6.903418E+04 -6.059100E+04  9.977867E+03
       155  20  1.570456E+05  1.750437E+05  3.858576E+04  7.956736E+03 -1.037704E+05 -7.449414E+03
       155  21  1.168427E+05  3.542907E+04 -7.945432E+04  1.179812E+05 -1.402119E+05 -4.277058E+04
       155  22 -4.327645E+05 -7.420204E+04 -6.166637E+04 -1.966298E+05 -5.415091E+04  1.240113E+04
       155  23 -4.135606E+05 -6.578898E+04 -1.077387E+05 -1.772165E+05 -1.117550E+05 -1.044913E+04
       155  24 -4.599096E+05 -2.650680E+05 -2.498241E+05 -1.247534E+05 -1.626157E+05 -5.119090E+04
       155  25 -9.998438E+05 -2.583504E+05 -1.954633E+05 -3.241278E+05 -4.771724E+04  1.482270E+04
       155  26 -9.838390E+05 -3.065717E+05 -2.540883E+05 -3.622247E+05 -1.197315E+05 -1.344491E+04
       155  27 -1.036312E+06 -5.654387E+05 -4.202205E+05 -3.672505E+05 -1.849964E+05 -5.959497E+04
       156   1  2.260487E+05  2.072992E+06  2.305680E+05  3.391310E+03  9.363903E+03  1.149890E+05
       156   2  1.619573E+05  2.126742E+06  1.713987E+05  2.617528E+04  3.362946E+04  6.801846E+04
       156   3  1.603105E+05  2.202278E+06  1.583848E+05  6.588093E+04  4.523712E+04  2.103959E+04
       156   4  9.164952E+04  1.527048E+06  1.037670E+05  5.966939E+04  9.399445E+03  6.788722E+04
       156   5  1.674674E+04  1.517860E+06  5.316098E+04  5.117464E+04  3.365280E+04  4.042383E+04
       156   6  9.361473E+02  1.527086E+06  3.520597E+04  5.960030E+04  4.524729E+04  1.295522E+04
       156   7 -4.275758E+04  9.813888E+05 -2.304397E+04  1.158978E+05  9.426491E+03  2.082640E+04
       156   8 -1.284832E+05  9.093364E+05 -6.509112E+04  7.614905E+04  3.367394E+04  1.285558E+04
       156   9 -1.584637E+05  8.523358E+05 -8.799101E+04  5.332671E+04  4.525764E+04  4.879372E+03
       156  10  2.260450E+05  2.072978E+06  2.305431E+05  3.390443E+03  1.214791E-09 -3.261130E-10
       156  11  1.619548E+05  2.126737E+06  1.713880E+05  2.617344E+04 -1.921215E-10  7.821441E-09
       156  12  1.603082E+05  2.202277E+06  1.583801E+05  6.588017E+04 -1.666538E-09  1.785974E-08
       156  13  9.164819E+04  1.527043E+06  1.037582E+05  5.966888E+04  5.379436E-10  8.250340E-10
       156  14  1.674509E+04  1.517858E+06  5.315579E+04  5.117354E+04 -9.564777E-11 -1.072339E-09
       156  15  9.339025E+02  1.527086E+06  3.520180E+04  5.959983E+04  2.375992E-10  8.147476E-10
       156  16 -4.275779E+04  9.813883E+05 -2.304495E+04  1.158977E+05  3.247188E-10  7.043765E-10
       156  17 -1.284845E+05  9.093359E+05 -6.509356E+04  7.614870E+04  1.728256E-09 -9.595803E-09
       156  18 -1.584659E+05  8.523352E+05 -8.799491E+04  5.332654E+04 -3.343270E-10 -1.718170E-08
       156  19  2.260487E+05  2.072992E+06  2.305680E+05  3.391310E+03 -9.363903E+03 -1.149890E+05
       156  20  1.619573E+05  2.126742E+06  1.713987E+05  2.617528E+04 -3.362946E+04 -6.801846E+04
       156  21  1.603105E+05  2.202278E+06  1.583848E+05  6.588093E+04 -4.523712E+04 -2.103959E+04
       156  22  9.164952E+04  1.527048E+06  1.037670E+05  5.966939E+04 -9.399445E+03 -6.788722E+04
       156  23  1.674674E+04  1.517860E+06  5.316098E+04  5.117464E+04 -3.365280E+04 -4.042383E+04
       156  24  9.361473E+02  1.527086E+06  3.520597E+04  5.960030E+04 -4.524729E+04 -1.295522E+04
       156  25 -4.275758E+04  9.813888E+05 -2.304397E+04  1.158978E+05 -9.426491E+03 -2.082640E+04
       156  26 -1.284832E+05  9.093364E+05 -6.509112E+04  7.614905E+04 -3.367394E+04 -1.285558E+04
       156  27 -1.584637E+05  8.523358E+05 -8.799101E+04  5.332671E+04 -4.525764E+04 -4.879372E+03
       157   1  1.727601E+05  2.241780E+06  1.623961E+05  5.639375E+04  4.829889E+04  1.805246E+04
       157   2  1.854563E+05  2.304700E+06  1.724515E+05  5.092564E+04  5.354058E+04 -1.791093E+03
       157   3  2.063483E+05  2.372369E+06  1.974738E+05  6.162065E+04  5.585713E+04 -2.163753E+04
       157   4  3.323653E+03  1.523858E+06  3.161836E+04  5.944204E+04  4.831247E+04  7.745281E+03
       157   5  8.821199E+02  1.521855E+06  3.071205E+04  5.136079E+04  5.355223E+04 -7.575357E+03
       157   6  5.859451E+03  1.523820E+06  4.164927E+04  5.944366E+04  5.586519E+04 -2.289687E+04
       157   7 -1.661417E+05  8.064351E+05 -9.917971E+04  6.248679E+04  4.832596E+04 -2.550342E+03
       157   8 -1.837263E+05  7.396047E+05 -1.110515E+05  5.179550E+04  5.356388E+04 -1.335254E+04
       157   9 -1.946701E+05  6.759669E+05 -1.142048E+05  5.726987E+04  5.587327E+04 -2.415453E+04
       157  10  1.727575E+05  2.241779E+06  1.623911E+05  5.639305E+04 -2.394256E-09 -1.857644E-08
       157  11  1.854532E+05  2.304699E+06  1.724461E+05  5.092571E+04  1.002634E-09 -1.122364E-08
       157  12  2.063448E+05  2.372368E+06  1.974671E+05  6.162162E+04 -5.010225E-10  3.310241E-09
       157  13  3.321129E+03  1.523857E+06  3.161386E+04  5.944173E+04 -9.168002E-10  8.109318E-10
       157  14  8.790229E+02  1.521854E+06  3.070655E+04  5.136111E+04  1.454830E-09 -1.190863E-09
       157  15  5.855957E+03  1.523818E+06  4.164242E+04  5.944469E+04  5.882790E-10  1.408966E-09
       157  16 -1.661442E+05  8.064344E+05 -9.918411E+04  6.248689E+04 -8.748866E-10  1.882041E-08
       157  17 -1.837294E+05  7.396037E+05 -1.110572E+05  5.179608E+04  2.505611E-09  8.287852E-09
       157  18 -1.946737E+05  6.759655E+05 -1.142118E+05  5.727096E+04 -3.204662E-11 -2.773400E-09
       157  19  1.727601E+05  2.241780E+06  1.623961E+05  5.639375E+04 -4.829889E+04 -1.805246E+04
       157  20  1.854563E+05  2.304700E+06  1.724515E+05  5.092564E+04 -5.354058E+04  1.791093E+03
       157  21  2.063483E+05  2.372369E+06  1.974738E+05  6.162065E+04 -5.585713E+04  2.163753E+04
       157  22  3.323653E+03  1.523858E+06  3.161836E+04  5.944204E+04 -4.831247E+04 -7.745281E+03
       157  23  8.821199E+02  1.521855E+06  3.071205E+04  5.136079E+04 -5.355223E+04  7.575357E+03
       157  24  5.859451E+03  1.523820E+06  4.164927E+04  5.944366E+04 -5.586519E+04  2.289687E+04
       157  25 -1.661417E+05  8.064351E+05 -9.917971E+04  6.248679E+04 -4.832596E+04  2.550342E+03
       157  26 -1.837263E+05  7.396047E+05 -1.110515E+05  5.179550E+04 -5.356388E+04  1.335254E+04
       157  27 -1.946701E+05  6.759669E+05 -1.142048E+05  5.726987E+04 -5.587327E+04  2.415453E+04
       158   1  2.127799E+05  2.423058E+06  2.156337E+05  4.640513E+04  5.803534E+04 -2.467719E+04
       158   2  2.568654E+05  2.470684E+06  2.752764E+05  9.185026E+04  4.902789E+04 -1.076924E+05
       158   3  4.069925E+05  2.555736E+06  4.153714E+05  1.521804E+05  1.495287E+04 -1.907674E+05
       158   4  1.526615E+03  1.529773E+06  5.082151E+04  5.912035E+04  5.804854E+04 -2.991321E+04
       158   5  2.824146E+04  1.514310E+06  8.563756E+04  5.178839E+04  4.899238E+04 -7.426464E+04
       158   6  1.543799E+05  1.529622E+06  1.741683E+05  5.933467E+04  1.486513E+04 -1.186625E+05
       158   7 -2.097715E+05  6.372594E+05 -1.140237E+05  7.181706E+04  5.806155E+04 -3.514191E+04
       158   8 -2.004313E+05  5.588138E+05 -1.040415E+05  1.178955E+04  4.895255E+04 -4.088704E+04
       158   9 -9.827200E+04  5.045026E+05 -6.708279E+04 -3.335700E+04  1.475584E+04 -4.667553E+04
       158  10  2.127762E+05  2.423056E+06  2.156262E+05  4.640629E+04 -1.015159E-09  8.498639E-11
       158  11  2.568597E+05  2.470671E+06  2.752502E+05  9.185451E+04 -1.375746E-09 -3.846471E-09
       158  12  4.069825E+05  2.555697E+06  4.153028E+05  1.521827E+05 -1.711163E-10 -4.493918E-10
       158  13  1.522755E+03  1.529771E+06  5.081349E+04  5.912175E+04 -2.103246E-09  1.584088E-09
       158  14  2.823741E+04  1.514304E+06  8.562271E+04  5.179132E+04 -1.259615E-09 -1.673329E-09
       158  15  1.543759E+05  1.529607E+06  1.741415E+05  5.933609E+04 -8.870840E-10  2.229463E-09
       158  16 -2.097755E+05  6.372571E+05 -1.140324E+05  7.181870E+04 -1.268607E-09  3.747820E-10
       158  17 -2.004343E+05  5.588113E+05 -1.040492E+05  1.179116E+04 -2.116559E-09  5.230648E-11
       158  18 -9.827282E+04  5.045002E+05 -6.708729E+04 -3.335645E+04 -4.278548E-10  1.155430E-09
       158  19  2.127799E+05  2.423058E+06  2.156337E+05  4.640513E+04 -5.803534E+04  2.467719E+04
       158  20  2.568654E+05  2.470684E+06  2.752764E+05  9.185026E+04 -4.902789E+04  1.076924E+05
       158  21  4.069925E+05  2.555736E+06  4.153714E+05  1.521804E+05 -1.495287E+04  1.907674E+05
       158  22  1.526615E+03  1.529773E+06  5.082151E+04  5.912035E+04 -5.804854E+04  2.991321E+04
       158  23  2.824146E+04  1.514310E+06  8.563756E+04  5.178839E+04 -4.899238E+04  7.426464E+04
       158  24  1.543799E+05  1.529622E+06  1.741683E+05  5.933467E+04 -1.486513E+04  1.186625E+05
       158  25 -2.097715E+05  6.372594E+05 -1.140237E+05  7.181706E+04 -5.806155E+04  3.514191E+04
       158  26 -2.004313E+05  5.588138E+05 -1.040415E+05  1.178955E+04 -4.895255E+04  4.088704E+04
       158  27 -9.827200E+04  5.045026E+05 -6.708279E+04 -3.335700E+04 -1.475584E+04  4.667553E+04
       159   1 -1.898690E+05 -1.273412E+05 -8.436048E+04  6.469013E+03  1.017369E+05  1.557670E+04
       159   2 -9.507181E+04 -2.703489E+05 -1.504376E+05 -2.053650E+04  7.874478E+04  4.809642E+04
       159   3  4.491428E+04 -2.471257E+05 -1.598686E+05 -9.756254E+04  5.579089E+04  4.903184E+04
       159   4  1.019194E+06  1.727599E+05  2.090407E+05 -7.204187E+04  1.436919E+05  1.561957E+04
       159   5  9.943586E+05 -3.585806E+03  9.476629E+04 -4.693499E+04  9.333501E+04  4.810182E+04
       159   6  1.019352E+06 -9.122368E+03  5.604438E+04 -7.183667E+04  4.302302E+04  4.902071E+04
       159   7  2.229608E+06  4.727782E+05  5.023464E+05 -1.507065E+05  1.857280E+05  1.565181E+04
       159   8  2.084894E+06  2.630989E+05  3.398958E+05 -7.338050E+04  1.079505E+05  4.810598E+04
       159   9  1.994677E+06  2.288195E+05  2.718995E+05 -4.607007E+04  3.023530E+04  4.900852E+04
       159  10 -1.898801E+05 -1.273442E+05 -8.438039E+04  6.467736E+03 -8.264976E-10  1.105560E-10
       159  11 -9.507909E+04 -2.703531E+05 -1.504536E+05 -2.053955E+04 -3.587270E-10  3.442480E-10
       159  12  4.491029E+04 -2.471291E+05 -1.598790E+05 -9.756474E+04 -8.974734E-10  4.541601E-10
       159  13  1.019172E+06  1.727541E+05  2.090015E+05 -7.204367E+04  4.282289E-10  1.439856E-10
       159  14  9.943487E+05 -3.590626E+03  9.474559E+04 -4.693860E+04 -4.351482E-10  2.815362E-10
       159  15  1.019349E+06 -9.125446E+03  5.603639E+04 -7.183837E+04  4.052271E-10  3.429821E-10
       159  16  2.229571E+06  4.727688E+05  5.022814E+05 -1.507088E+05  7.783715E-10  1.004614E-10
       159  17  2.084881E+06  2.630933E+05  3.398696E+05 -7.338468E+04  8.497969E-10  2.696291E-10
       159  18  1.994675E+06  2.288166E+05  2.718933E+05 -4.607126E+04  8.366625E-10  1.682002E-10
       159  19 -1.898690E+05 -1.273412E+05 -8.436048E+04  6.469013E+03 -1.017369E+05 -1.557670E+04
       159  20 -9.507181E+04 -2.703489E+05 -1.504376E+05 -2.053650E+04 -7.874478E+04 -4.809642E+04
       159  21  4.491428E+04 -2.471257E+05 -1.598686E+05 -9.756254E+04 -5.579089E+04 -4.903184E+04
       159  22  1.019194E+06  1.727599E+05  2.090407E+05 -7.204187E+04 -1.436919E+05 -1.561957E+04
       159  23  9.943586E+05 -3.585806E+03  9.476629E+04 -4.693499E+04 -9.333501E+04 -4.810182E+04
       159  24  1.019352E+06 -9.122368E+03  5.604438E+04 -7.183667E+04 -4.302302E+04 -4.902071E+04
       159  25  2.229608E+06  4.727782E+05  5.023464E+05 -1.507065E+05 -1.857280E+05 -1.565181E+04
       159  26  2.084894E+06  2.630989E+05  3.398958E+05 -7.338050E+04 -1.079505E+05 -4.810598E+04
       159  27  1.994677E+06  2.288195E+05  2.718995E+05 -4.607007E+04 -3.023530E+04 -4.900852E+04
       160   1  1.332863E+05 -2.041124E+05 -1.504010E+05 -6.873229E+04  3.834331E+04  4.228970E+04
       160   2  2.465458E+05 -1.863545E+05 -1.447724E+05 -4.606487E+04  2.746602E+04  3.767172E+04
       160   3  3.640762E+05 -1.582819E+05 -1.294236E+05 -7.382334E+04  1.658148E+04  3.166669E+04
       160   4  1.009296E+06  9.998686E+03  4.468574E+04 -7.198268E+04  3.498884E+04  4.228376E+04
       160   5  1.007096E+06 -5.814535E+02  2.404808E+04 -4.677068E+04  2.289706E+04  3.766754E+04
       160   6  1.009357E+06 -6.437826E+02  1.396255E+04 -7.198029E+04  1.080002E+04  3.166500E+04
       160   7  1.886021E+06  2.240578E+05  2.397246E+05 -7.523774E+04  3.162967E+04  4.227787E+04
       160   8  1.768185E+06  1.851525E+05  1.928327E+05 -4.747736E+04  1.832256E+04  3.766338E+04
       160   9  1.655026E+06  1.569662E+05  1.573229E+05 -7.013527E+04  5.012620E+03  3.166328E+04
       160  10  1.332842E+05 -2.041147E+05 -1.504072E+05 -6.873360E+04  6.765365E-10  9.059893E-11
       160  11  2.465446E+05 -1.863562E+05 -1.447764E+05 -4.606570E+04  8.426533E-10 -5.495736E-10
       160  12  3.640756E+05 -1.582830E+05 -1.294260E+05 -7.382376E+04 -4.776040E-10  6.848152E-11
       160  13  1.009294E+06  9.996437E+03  4.468008E+04 -7.198387E+04  1.269652E-10  8.226526E-11
       160  14  1.007095E+06 -5.831184E+02  2.404443E+04 -4.677137E+04  4.518409E-10 -3.040628E-10
       160  15  1.009357E+06 -6.448911E+02  1.396044E+04 -7.198056E+04 -2.545071E-10  6.454927E-11
       160  16  1.886019E+06  2.240556E+05  2.397194E+05 -7.523882E+04 -6.775266E-10  1.279788E-10
       160  17  1.768184E+06  1.851509E+05  1.928294E+05 -4.747792E+04 -6.206604E-10  4.242564E-11
       160  18  1.655026E+06  1.569651E+05  1.573210E+05 -7.013540E+04  3.389922E-10  5.264651E-11
       160  19  1.332863E+05 -2.041124E+05 -1.504010E+05 -6.873229E+04 -3.834331E+04 -4.228970E+04
       160  20  2.465458E+05 -1.863545E+05 -1.447724E+05 -4.606487E+04 -2.746602E+04 -3.767172E+04
       160  21  3.640762E+05 -1.582819E+05 -1.294236E+05 -7.382334E+04 -1.658148E+04 -3.166669E+04
       160  22  1.009296E+06  9.998686E+03  4.468574E+04 -7.198268E+04 -3.498884E+04 -4.228376E+04
       160  23  1.007096E+06 -5.814535E+02  2.404808E+04 -4.677068E+04 -2.289706E+04 -3.766754E+04
       160  24  1.009357E+06 -6.437826E+02  1.396255E+04 -7.198029E+04 -1.080002E+04 -3.166500E+04
       160  25  1.886021E+06  2.240578E+05  2.397246E+05 -7.523774E+04 -3.162967E+04 -4.227787E+04
       160  26  1.768185E+06  1.851525E+05  1.928327E+05 -4.747736E+04 -1.832256E+04 -3.766338E+04
       160  27  1.655026E+06  1.569662E+05  1.573229E+05 -7.013527E+04 -5.012620E+03 -3.166328E+04
       161   1  4.600127E+05 -1.334006E+05 -1.106128E+05 -7.192794E+04  1.397028E+04  2.785941E+04
       161   2  5.740767E+05 -1.061083E+05 -9.014143E+04 -4.693176E+04  1.097540E+04  2.164468E+04
       161   3  6.887526E+05 -7.813896E+04 -6.754353E+04 -7.195735E+04  7.976366E+03  1.538086E+04
       161   4  1.008527E+06  4.841857E+02  1.073290E+04 -7.189156E+04  8.623089E+03  2.785886E+04
       161   5  1.008238E+06 -9.735925E+01  6.127157E+03 -4.688188E+04  5.582894E+03  2.164555E+04
       161   6  1.008557E+06  6.611543E+00  3.678619E+03 -7.189184E+04  2.539095E+03  1.538321E+04
       161   7  1.557322E+06  1.343487E+05  1.320601E+05 -7.185512E+04  3.271227E+03  2.785832E+04
       161   8  1.442575E+06  1.059009E+05  1.023842E+05 -4.683195E+04  1.866652E+02  2.164642E+04
       161   9  1.328457E+06  7.814527E+04  7.489448E+04 -7.182628E+04 -2.900944E+03  1.538556E+04
       161  10  4.600123E+05 -1.334015E+05 -1.106146E+05 -7.192826E+04 -2.394107E-11  3.451734E-10
       161  11  5.740765E+05 -1.061088E+05 -9.014254E+04 -4.693195E+04  1.168231E-09 -6.509746E-11
       161  12  6.887525E+05 -7.813923E+04 -6.754409E+04 -7.195745E+04 -3.449158E-10 -1.293330E-10
       161  13  1.008527E+06  4.833319E+02  1.073131E+04 -7.189176E+04  5.053461E-10  1.968838E-10
       161  14  1.008238E+06 -9.787097E+01  6.126218E+03 -4.688198E+04  8.423738E-10 -1.330314E-11
       161  15  1.008557E+06  6.355576E+00  3.678162E+03 -7.189187E+04 -4.536408E-10 -5.392103E-11
       161  16  1.557321E+06  1.343479E+05  1.320586E+05 -7.185519E+04 -1.023055E-09  7.100420E-11
       161  17  1.442575E+06  1.059004E+05  1.023833E+05 -4.683195E+04  3.220624E-10  6.206247E-11
       161  18  1.328457E+06  7.814501E+04  7.489402E+04 -7.182624E+04  9.337467E-10 -5.800685E-11
       161  19  4.600127E+05 -1.334006E+05 -1.106128E+05 -7.192794E+04 -1.397028E+04 -2.785941E+04
       161  20  5.740767E+05 -1.061083E+05 -9.014143E+04 -4.693176E+04 -1.097540E+04 -2.164468E+04
       161  21  6.887526E+05 -7.813896E+04 -6.754353E+04 -7.195735E+04 -7.976366E+03 -1.538086E+04
       161  22  1.008527E+06  4.841857E+02  1.073290E+04 -7.189156E+04 -8.623089E+03 -2.785886E+04
       161  23  1.008238E+06 -9.735925E+01  6.127157E+03 -4.688188E+04 -5.582894E+03 -2.164555E+04
       161  24  1.008557E+06  6.611543E+00  3.678619E+03 -7.189184E+04 -2.539095E+03 -1.538321E+04
       161  25  1.557322E+06  1.343487E+05  1.320601E+05 -7.185512E+04 -3.271227E+03 -2.785832E+04
       161  26  1.442575E+06  1.059009E+05  1.023842E+05 -4.683195E+04 -1.866652E+02 -2.164642E+04
       161  27  1.328457E+06  7.814527E+04  7.489448E+04 -7.182628E+04  2.900944E+03 -1.538556E+04
       162   1  7.847880E+05 -5.447496E+04 -4.634954E+04 -7.183809E+04  7.353420E+03  1.172770E+04
       162   2  8.986551E+05 -2.677013E+04 -2.233546E+04 -4.693044E+04  6.364056E+03  5.470625E+03
       162   3  1.012630E+06  1.024828E+03  2.330174E+03 -7.184441E+04  5.373578E+03 -7.856509E+02
       162   4  1.008455E+06  6.641530E+01  2.912295E+03 -7.184766E+04  1.941521E+03  1.173059E+04
       162   5  1.008412E+06  2.408671E+01  1.995165E+03 -4.693712E+04  9.520602E+02  5.473857E+03
       162   6  1.008463E+06  7.219794E+01  1.729419E+03 -7.184769E+04 -3.833689E+01 -7.820337E+02
       162   7  1.232169E+06  5.460445E+04  5.217117E+04 -7.185722E+04 -3.472302E+03  1.173348E+04
       162   8  1.118180E+06  2.681751E+04  2.632515E+04 -4.694381E+04 -4.460880E+03  5.477088E+03
       162   9  1.004295E+06 -8.804175E+02  1.128774E+03 -7.185096E+04 -5.450217E+03 -7.784165E+02
       162  10  7.847879E+05 -5.447512E+04 -4.634990E+04 -7.183816E+04 -1.857660E-10 -9.888542E-11
       162  11  8.986550E+05 -2.677018E+04 -2.233559E+04 -4.693046E+04 -1.069616E-10 -1.689426E-11
       162  12  1.012630E+06  1.024820E+03  2.330118E+03 -7.184441E+04  8.076534E-10 -1.414481E-10
       162  13  1.008455E+06  6.626645E+01  2.912029E+03 -7.184768E+04 -7.928207E-11 -1.198972E-10
       162  14  1.008412E+06  2.405428E+01  1.995107E+03 -4.693713E+04  8.301137E-10  4.133423E-11
       162  15  1.008463E+06  7.219728E+01  1.729418E+03 -7.184769E+04 -3.751958E-10  3.728553E-11
       162  16  1.232169E+06  5.460430E+04  5.217089E+04 -7.185719E+04  2.859514E-10 -1.304774E-10
       162  17  1.118180E+06  2.681747E+04  2.632506E+04 -4.694379E+04 -4.887520E-10 -2.856802E-10
       162  18  1.004295E+06 -8.804261E+02  1.128717E+03 -7.185096E+04 -6.397941E-11 -2.089809E-12
       162  19  7.847880E+05 -5.447496E+04 -4.634954E+04 -7.183809E+04 -7.353420E+03 -1.172770E+04
       162  20  8.986551E+05 -2.677013E+04 -2.233546E+04 -4.693044E+04 -6.364056E+03 -5.470625E+03
       162  21  1.012630E+06  1.024828E+03  2.330174E+03 -7.184441E+04 -5.373578E+03  7.856509E+02
       162  22  1.008455E+06  6.641530E+01  2.912295E+03 -7.184766E+04 -1.941521E+03 -1.173059E+04
       162  23  1.008412E+06  2.408671E+01  1.995165E+03 -4.693712E+04 -9.520602E+02 -5.473857E+03
       162  24  1.008463E+06  7.219794E+01  1.729419E+03 -7.184769E+04  3.833689E+01  7.820337E+02
       162  25  1.232169E+06  5.460445E+04  5.217117E+04 -7.185722E+04  3.472302E+03 -1.173348E+04
       162  26  1.118180E+06  2.681751E+04  2.632515E+04 -4.694381E+04  4.460880E+03 -5.477088E+03
       162  27  1.004295E+06 -8.804175E+02  1.128774E+03 -7.185096E+04  5.450217E+03  7.784165E+02
       163   1  1.108641E+06  2.458699E+04  2.432314E+04 -7.188943E+04  5.052225E+03 -4.426619E+03
       163   2  1.222601E+06  5.229050E+04  4.983588E+04 -4.694352E+04  3.884640E+03 -1.068503E+04
       163   3  1.336712E+06  8.009321E+04  7.612099E+04 -7.185666E+04  2.718645E+03 -1.694745E+04
       163   4  1.008470E+06  7.162882E+01  1.798257E+03 -7.185635E+04 -3.615141E+02 -4.423109E+03
       163   5  1.008394E+06  7.698246E+00  2.360358E+03 -4.692629E+04 -1.532688E+03 -1.068224E+04
       163   6  1.008456E+06  4.442808E+01  3.698013E+03 -7.185632E+04 -2.702062E+03 -1.694535E+04
       163   7  9.083090E+05 -2.444440E+04 -2.072715E+04 -7.182328E+04 -5.774389E+03 -4.419599E+03
       163   8  7.942289E+05 -5.227818E+04 -4.511790E+04 -4.690905E+04 -6.948170E+03 -1.067946E+04
       163   9  6.803002E+05 -8.001157E+04 -6.873148E+04 -7.185596E+04 -8.119941E+03 -1.694325E+04
       163  10  1.108641E+06  2.458696E+04  2.432306E+04 -7.188941E+04  3.094068E-10 -2.343044E-10
       163  11  1.222601E+06  5.229038E+04  4.983564E+04 -4.694349E+04  3.124574E-10  9.219664E-12
       163  12  1.336712E+06  8.009290E+04  7.612044E+04 -7.185662E+04 -2.005696E-10  5.337331E-10
       163  13  1.008470E+06  7.160777E+01  1.798220E+03 -7.185635E+04  2.881148E-10  5.157465E-11
       163  14  1.008394E+06  7.575022E+00  2.360139E+03 -4.692630E+04  1.631808E-09  3.661274E-11
       163  15  1.008456E+06  4.411763E+01  3.697460E+03 -7.185636E+04 -1.908343E-10  4.335583E-10
       163  16  9.083090E+05 -2.444443E+04 -2.072725E+04 -7.182330E+04 -6.025489E-10 -1.722014E-11
       163  17  7.942288E+05 -5.227832E+04 -4.511820E+04 -4.690911E+04 -7.561756E-10 -4.933243E-11
       163  18  6.803001E+05 -8.001190E+04 -6.873214E+04 -7.185607E+04  7.135651E-10  2.740137E-10
       163  19  1.108641E+06  2.458699E+04  2.432314E+04 -7.188943E+04 -5.052225E+03  4.426619E+03
       163  20  1.222601E+06  5.229050E+04  4.983588E+04 -4.694352E+04 -3.884640E+03  1.068503E+04
       163  21  1.336712E+06  8.009321E+04  7.612099E+04 -7.185666E+04 -2.718645E+03  1.694745E+04
       163  22  1.008470E+06  7.162882E+01  1.798257E+03 -7.185635E+04  3.615141E+02  4.423109E+03
       163  23  1.008394E+06  7.698246E+00  2.360358E+03 -4.692629E+04  1.532688E+03  1.068224E+04
       163  24  1.008456E+06  4.442808E+01  3.698013E+03 -7.185632E+04  2.702062E+03  1.694535E+04
       163  25  9.083090E+05 -2.444440E+04 -2.072715E+04 -7.182328E+04  5.774389E+03  4.419599E+03
       163  26  7.942289E+05 -5.227818E+04 -4.511790E+04 -4.690905E+04  6.948170E+03  1.067946E+04
       163  27  6.803002E+05 -8.001157E+04 -6.873148E+04 -7.185596E+04  8.119941E+03  1.694325E+04
       164   1  1.433198E+06  1.036514E+05  9.916774E+04 -7.179354E+04  1.984186E+03 -2.060564E+04
       164   2  1.547478E+06  1.314512E+05  1.275678E+05 -4.671052E+04 -2.061340E+03 -2.687840E+04
       164   3  1.662616E+06  1.601483E+05  1.588397E+05 -7.177170E+04 -6.103012E+03 -3.310052E+04
       164   4  1.008595E+06 -3.446163E+01  4.754105E+03 -7.192009E+04 -3.466968E+03 -2.060430E+04
       164   5  1.008155E+06 -1.598156E+02  8.052739E+03 -4.684653E+04 -7.465927E+03 -2.687889E+04
       164   6  1.008557E+06  6.059886E+02  1.419401E+04 -7.191983E+04 -1.146031E+04 -3.310276E+04
       164   7  5.841597E+05 -1.037325E+05 -8.967066E+04 -7.204653E+04 -8.914441E+03 -2.060297E+04
       164   8  4.691037E+05 -1.317904E+05 -1.114802E+05 -4.698239E+04 -1.286588E+04 -2.687937E+04
       164   9  3.548960E+05 -1.589651E+05 -1.304780E+05 -7.206777E+04 -1.681203E+04 -3.310500E+04
       164  10  1.433198E+06  1.036509E+05  9.916693E+04 -7.179351E+04 -5.512234E-10  5.241821E-10
       164  11  1.547478E+06  1.314505E+05  1.275664E+05 -4.671056E+04 -5.925346E-10  1.289210E-10
       164  12  1.662616E+06  1.601471E+05  1.588376E+05 -7.177187E+04 -4.738370E-10 -5.806192E-11
       164  13  1.008595E+06 -3.492095E+01  4.753284E+03 -7.192015E+04 -5.626806E-10  4.424864E-10
       164  14  1.008155E+06 -1.606068E+02  8.051276E+03 -4.684669E+04 -4.326633E-10  1.706694E-10
       164  15  1.008556E+06  6.047761E+02  1.419170E+04 -7.192013E+04 -5.636872E-10 -2.806651E-10
       164  16  5.841595E+05 -1.037330E+05 -8.967161E+04 -7.204668E+04  5.811049E-11  4.065926E-10
       164  17  4.691033E+05 -1.317913E+05 -1.114819E+05 -4.698267E+04 -2.888736E-10  1.165367E-10
       164  18  3.548954E+05 -1.589663E+05 -1.304806E+05 -7.206822E+04  4.398252E-10 -5.466953E-10
       164  19  1.433198E+06  1.036514E+05  9.916774E+04 -7.179354E+04 -1.984186E+03  2.060564E+04
       164  20  1.547478E+06  1.314512E+05  1.275678E+05 -4.671052E+04  2.061340E+03  2.687840E+04
       164  21  1.662616E+06  1.601483E+05  1.588397E+05 -7.177170E+04  6.103012E+03  3.310052E+04
       164  22  1.008595E+06 -3.446163E+01  4.754105E+03 -7.192009E+04  3.466968E+03  2.060430E+04
       164  23  1.008155E+06 -1.598156E+02  8.052739E+03 -4.684653E+04  7.465927E+03  2.687889E+04
       164  24  1.008557E+06  6.059886E+02  1.419401E+04 -7.191983E+04  1.146031E+04  3.310276E+04
       164  25  5.841597E+05 -1.037325E+05 -8.967066E+04 -7.204653E+04  8.914441E+03  2.060297E+04
       164  26  4.691037E+05 -1.317904E+05 -1.114802E+05 -4.698239E+04  1.286588E+04  2.687937E+04
       164  27  3.548960E+05 -1.589651E+05 -1.304780E+05 -7.206777E+04  1.681203E+04  3.310500E+04
       165   1  1.760909E+06  1.824739E+05  1.852287E+05 -6.945175E+04 -8.508687E+03 -3.692927E+04
       165   2  1.873791E+06  2.108137E+05  2.241594E+05 -4.752477E+04 -2.586332E+04 -4.292939E+04
       165   3  1.992830E+06  2.533046E+05  2.779791E+05 -7.620464E+04 -4.321586E+04 -4.742793E+04
       165   4  1.009656E+06 -8.889594E+02  1.848614E+04 -7.202107E+04 -1.433989E+04 -3.693299E+04
       165   5  1.006658E+06 -7.833347E+02  3.187886E+04 -4.671912E+04 -3.037426E+04 -4.293563E+04
       165   6  1.009584E+06  1.325727E+04  5.926063E+04 -7.202771E+04 -4.640334E+04 -4.743588E+04
       165   7  2.589284E+05 -1.842898E+05 -1.482914E+05 -7.458724E+04 -2.016413E+04 -3.693666E+04
       165   8  1.402248E+05 -2.124310E+05 -1.604482E+05 -4.591465E+04 -3.487896E+04 -4.294189E+04
       165   9  2.723798E+04 -2.268554E+05 -1.595181E+05 -6.785755E+04 -4.958579E+04 -4.744387E+04
       165  10  1.760908E+06  1.824724E+05  1.852260E+05 -6.945200E+04 -9.455795E-10 -1.387534E-10
       165  11  1.873789E+06  2.108115E+05  2.241546E+05 -4.752566E+04  5.977243E-10 -2.135469E-10
       165  12  1.992827E+06  2.533017E+05  2.779714E+05 -7.620629E+04  3.813852E-10 -5.820904E-10
       165  13  1.009655E+06 -8.904800E+02  1.848319E+04 -7.202150E+04 -8.957327E-11 -4.740124E-10
       165  14  1.006656E+06 -7.855625E+02  3.187366E+04 -4.672017E+04 -1.372450E-09 -1.125685E-10
       165  15  1.009581E+06  1.325427E+04  5.925236E+04 -7.202948E+04 -1.405606E-10 -5.585250E-10
       165  16  2.589276E+05 -1.842914E+05 -1.482947E+05 -7.458784E+04  5.914637E-10 -5.761447E-10
       165  17  1.402230E+05 -2.124333E+05 -1.604540E+05 -4.591586E+04 -1.002335E-09 -2.778915E-10
       165  18  2.723474E+04 -2.268585E+05 -1.595270E+05 -6.785945E+04 -5.838075E-10 -1.929743E-10
       165  19  1.760909E+06  1.824739E+05  1.852287E+05 -6.945175E+04  8.508687E+03  3.692927E+04
       165  20  1.873791E+06  2.108137E+05  2.241594E+05 -4.752477E+04  2.586332E+04  4.292939E+04
       165  21  1.992830E+06  2.533046E+05  2.779791E+05 -7.620464E+04  4.321586E+04  4.742793E+04
       165  22  1.009656E+06 -8.889594E+02  1.848614E+04 -7.202107E+04  1.433989E+04  3.693299E+04
       165  23  1.006658E+06 -7.833347E+02  3.187886E+04 -4.671912E+04  3.037426E+04  4.293563E+04
       165  24  1.009584E+06  1.325727E+04  5.926063E+04 -7.202771E+04  4.640334E+04  4.743588E+04
       165  25  2.589284E+05 -1.842898E+05 -1.482914E+05 -7.458724E+04  2.016413E+04  3.693666E+04
       165  26  1.402248E+05 -2.124310E+05 -1.604482E+05 -4.591465E+04  3.487896E+04  4.294189E+04
       165  27  2.723798E+04 -2.268554E+05 -1.595181E+05 -6.785755E+04  4.958579E+04  4.744387E+04
       166   1  2.105237E+06  2.519598E+05  3.138288E+05 -3.754454E+04 -4.363235E+04 -5.443910E+04
       166   2  2.187903E+06  2.881922E+05  3.949455E+05 -8.186545E+04 -1.401463E+05 -5.298490E+04
       166   3  2.341638E+06  5.558807E+05  5.967665E+05 -1.764840E+05 -2.367458E+05 -1.727321E+04
       166   4  1.022915E+06 -1.209817E+04  7.432698E+04 -7.185996E+04 -5.705690E+04 -5.445582E+04
       166   5  9.898067E+05 -4.725869E+03  1.257069E+05 -4.689471E+04 -1.237910E+05 -5.297816E+04
       166   6  1.022723E+06  2.291666E+05  2.772816E+05 -7.221453E+04 -1.905875E+05 -1.723494E+04
       166   7 -5.831459E+04 -2.762305E+05 -1.652460E+05 -1.061152E+05 -7.045831E+04 -5.447108E+04
       166   8 -2.069546E+05 -2.977371E+05 -1.436212E+05 -1.199233E+04 -1.074666E+05 -5.296958E+04
       166   9 -2.945790E+05 -9.763221E+04 -4.231445E+04  3.183289E+04 -1.445264E+05 -1.718119E+04
       166  10  2.105234E+06  2.519561E+05  3.138197E+05 -3.754645E+04  1.301958E-11 -1.039941E-10
       166  11  2.187881E+06  2.881840E+05  3.949034E+05 -8.187142E+04  6.085719E-10  2.879447E-10
       166  12  2.341578E+06  5.558654E+05  5.966610E+05 -1.764873E+05  1.233480E-09 -8.909660E-11
       166  13  1.022910E+06 -1.210223E+04  7.431530E+04 -7.186246E+04 -2.662275E-10 -2.281932E-10
       166  14  9.897895E+05 -4.732990E+03  1.256729E+05 -4.689999E+04  2.975301E-10  1.852507E-10
       166  15  1.022684E+06  2.291566E+05  2.772129E+05 -7.221717E+04 -7.705293E-11  2.781325E-10
       166  16 -5.832072E+04 -2.762350E+05 -1.652609E+05 -1.061183E+05  6.162543E-10  6.294285E-12
       166  17 -2.069678E+05 -2.977432E+05 -1.436481E+05 -1.199692E+04 -6.742747E-10  1.245446E-09
       166  18 -2.946015E+05 -9.763814E+04 -4.235428E+04  3.183089E+04 -1.510323E-09  3.252547E-10
       166  19  2.105237E+06  2.519598E+05  3.138288E+05 -3.754454E+04  4.363235E+04  5.443910E+04
       166  20  2.187903E+06  2.881922E+05  3.949455E+05 -8.186545E+04  1.401463E+05  5.298490E+04
       166  21  2.341638E+06  5.558807E+05  5.967665E+05 -1.764840E+05  2.367458E+05  1.727321E+04
       166  22  1.022915E+06 -1.209817E+04  7.432698E+04 -7.185996E+04  5.705690E+04  5.445582E+04
       166  23  9.898067E+05 -4.725869E+03  1.257069E+05 -4.689471E+04  1.237910E+05  5.297816E+04
       166  24  1.022723E+06  2.291666E+05  2.772816E+05 -7.221453E+04  1.905875E+05  1.723494E+04
       166  25 -5.831459E+04 -2.762305E+05 -1.652460E+05 -1.061152E+05  7.045831E+04  5.447108E+04
       166  26 -2.069546E+05 -2.977371E+05 -1.436212E+05 -1.199233E+04  1.074666E+05  5.296958E+04
       166  27 -2.945790E+05 -9.763221E+04 -4.231445E+04  3.183289E+04  1.445264E+05  1.718119E+04
       167   1  1.470020E+05  6.933792E+05  1.559326E+05 -1.128895E+05  3.670408E+03  5.289336E+04
       167   2  5.741268E+04  5.448203E+05  8.309782E+04 -6.640213E+04  9.586760E+03  2.790046E+04
       167   3  2.154683E+04  4.127130E+05  3.990546E+04 -8.074683E+04  4.541961E+03  2.893673E+03
       167   4  5.279552E+04  3.150698E+05  6.350988E+04 -8.814878E+04  3.690353E+03  4.306473E+04
       167   5 -7.975237E+02  3.076830E+05  2.925766E+04 -5.778332E+04  9.588029E+03  2.755822E+04
       167   6 -2.298939E+03  3.150966E+05  1.807683E+04 -8.824773E+04  4.523964E+03  1.203218E+04
       167   7 -4.141926E+04 -6.310784E+04 -2.892261E+04 -6.342313E+04  3.709521E+03  3.324207E+04
       167   8 -5.901133E+04  7.059797E+04 -2.458610E+04 -4.916781E+04  9.589289E+03  2.721612E+04
       167   9 -2.614510E+04  2.174895E+05 -3.752069E+03 -9.574743E+04  4.505744E+03  2.116927E+04
       167  10  1.470013E+05  6.933762E+05  1.559273E+05 -1.128896E+05 -2.400929E-10  4.074717E-10
       167  11  5.741237E+04  5.448194E+05  8.309619E+04 -6.640234E+04 -1.997202E-10 -1.657105E-10
       167  12  2.154681E+04  4.127130E+05  3.990541E+04 -8.074684E+04 -8.248281E-10 -1.004606E-09
       167  13  5.279501E+04  3.150678E+05  6.350637E+04 -8.814891E+04  1.190906E-09 -2.904141E-11
       167  14 -7.978262E+02  3.076821E+05  2.925606E+04 -5.778353E+04  8.267605E-10  6.513905E-11
       167  15 -2.299000E+03  3.150965E+05  1.807651E+04 -8.824777E+04  2.760946E-10  5.155119E-11
       167  16 -4.141957E+04 -6.310903E+04 -2.892471E+04 -6.342323E+04  1.656919E-10 -3.490455E-10
       167  17 -5.901163E+04  7.059715E+04 -2.458767E+04 -4.916802E+04  1.856308E-09  3.668988E-10
       167  18 -2.614524E+04  2.174890E+05 -3.752949E+03 -9.574751E+04  4.519350E-10  9.178537E-10
       167  19  1.470020E+05  6.933792E+05  1.559326E+05 -1.128895E+05 -3.670408E+03 -5.289336E+04
       167  20  5.741268E+04  5.448203E+05  8.309782E+04 -6.640213E+04 -9.586760E+03 -2.790046E+04
       167  21  2.154683E+04  4.127130E+05  3.990546E+04 -8.074683E+04 -4.541961E+03 -2.893673E+03
       167  22  5.279552E+04  3.150698E+05  6.350988E+04 -8.814878E+04 -3.690353E+03 -4.306473E+04
       167  23 -7.975237E+02  3.076830E+05  2.925766E+04 -5.778332E+04 -9.588029E+03 -2.755822E+04
       167  24 -2.298939E+03  3.150966E+05  1.807683E+04 -8.824773E+04 -4.523964E+03 -1.203218E+04
       167  25 -4.141926E+04 -6.310784E+04 -2.892261E+04 -6.342313E+04 -3.709521E+03 -3.324207E+04
       167  26 -5.901133E+04  7.059797E+04 -2.458610E+04 -4.916781E+04 -9.589289E+03 -2.721612E+04
       167  27 -2.614510E+04  2.174895E+05 -3.752069E+03 -9.574743E+04 -4.505744E+03 -2.116927E+04
       168   1 -1.734406E+03  2.912207E+05  1.038381E+04 -8.958598E+04 -1.075966E+03  3.240402E+03
       168   2 -3.935522E+04  1.502275E+05 -2.589897E+04 -5.760862E+04 -7.968682E+03 -1.436821E+03
       168   3 -7.242544E+04  1.073797E+04 -5.806335E+04 -8.692857E+04 -1.450028E+04 -6.110842E+03
       168   4  3.369705E+03  3.121504E+05  1.501179E+04 -8.832240E+04 -1.088072E+03  9.362118E+03
       168   5  2.439568E+01  3.113744E+05  9.893524E+03 -5.767636E+04 -7.979557E+03  4.371926E+03
       168   6  1.284862E+03  3.121381E+05  9.111915E+03 -8.832636E+04 -1.451002E+04 -6.160857E+02
       168   7  8.473813E+03  3.330807E+05  1.963988E+04 -8.705879E+04 -1.100153E+03  1.548404E+04
       168   8  3.940228E+04  4.725456E+05  4.568453E+04 -5.774411E+04 -7.990431E+03  1.018216E+04
       168   9  7.498903E+04  6.136229E+05  7.628161E+04 -8.972480E+04 -1.451978E+04  4.881309E+03
       168  10 -1.734410E+03  2.912207E+05  1.038379E+04 -8.958598E+04 -6.925726E-10  1.123208E-10
       168  11 -3.935529E+04  1.502275E+05 -2.589909E+04 -5.760863E+04 -5.176072E-10 -2.540499E-10
       168  12 -7.242568E+04  1.073788E+04 -5.806382E+04 -8.692864E+04 -1.782562E-10 -5.686136E-10
       168  13  3.369680E+03  3.121503E+05  1.501162E+04 -8.832240E+04 -5.531049E-10  7.055064E-11
       168  14  2.432218E+01  3.113744E+05  9.893369E+03 -5.767634E+04 -3.892986E-10  1.034044E-10
       168  15  1.284635E+03  3.121380E+05  9.111519E+03 -8.832637E+04 -1.204203E-09  3.830476E-11
       168  16  8.473747E+03  3.330804E+05  1.963942E+04 -8.705877E+04 -3.969177E-10 -1.102547E-10
       168  17  3.940218E+04  4.725455E+05  4.568422E+04 -5.774405E+04 -4.064219E-10  5.010374E-10
       168  18  7.498879E+04  6.136229E+05  7.628117E+04 -8.972474E+04 -7.262311E-10  6.235114E-10
       168  19 -1.734406E+03  2.912207E+05  1.038381E+04 -8.958598E+04  1.075966E+03 -3.240402E+03
       168  20 -3.935522E+04  1.502275E+05 -2.589897E+04 -5.760862E+04  7.968682E+03  1.436821E+03
       168  21 -7.242544E+04  1.073797E+04 -5.806335E+04 -8.692857E+04  1.450028E+04  6.110842E+03
       168  22  3.369705E+03  3.121504E+05  1.501179E+04 -8.832240E+04  1.088072E+03 -9.362118E+03
       168  23  2.439568E+01  3.113744E+05  9.893524E+03 -5.767636E+04  7.979557E+03 -4.371926E+03
       168  24  1.284862E+03  3.121381E+05  9.111915E+03 -8.832636E+04  1.451002E+04  6.160857E+02
       168  25  8.473813E+03  3.330807E+05  1.963988E+04 -8.705879E+04  1.100153E+03 -1.548404E+04
       168  26  3.940228E+04  4.725456E+05  4.568453E+04 -5.774411E+04  7.990431E+03 -1.018216E+04
       168  27  7.498903E+04  6.136229E+05  7.628161E+04 -8.972480E+04  1.451978E+04 -4.881309E+03
       169   1 -1.032357E+05 -1.070696E+05 -8.389731E+04 -9.047423E+04 -2.084945E+04 -1.319643E+04
       169   2 -1.373940E+05 -2.490816E+05 -1.140577E+05 -5.403154E+04 -2.409016E+04 -3.121535E+03
       169   3 -1.544163E+05 -3.881958E+05 -1.465170E+05 -7.819387E+04 -8.220814E+03  6.977298E+03
       169   4 -5.749320E+02  3.130520E+05  9.378934E+03 -8.817954E+04 -2.086826E+04 -2.160309E+03
       169   5 -2.821418E+02  3.101589E+05  1.219958E+04 -5.786406E+04 -2.408001E+04 -8.594786E+03
       169   6  2.000470E+04  3.130043E+05  2.418222E+04 -8.814901E+04 -8.189581E+03 -1.500288E+04
       169   7  1.020740E+05  7.333386E+05  1.026447E+05 -8.588320E+04 -2.088699E+04  8.883195E+03
       169   8  1.368083E+05  8.696901E+05  1.384370E+05 -6.169994E+04 -2.406979E+04 -1.407292E+04
       169   9  1.943901E+05  1.014654E+06  1.948476E+05 -9.811524E+04 -8.157663E+03 -3.700781E+04
       169  10 -1.032362E+05 -1.070699E+05 -8.389846E+04 -9.047445E+04 -4.759742E-10  4.623433E-10
       169  11 -1.373946E+05 -2.490817E+05 -1.140588E+05 -5.403160E+04 -8.381195E-11  5.499069E-10
       169  12 -1.544163E+05 -3.881959E+05 -1.465172E+05 -7.819383E+04 -2.482150E-11  8.689652E-11
       169  13 -5.754010E+02  3.130519E+05  9.378107E+03 -8.817958E+04 -1.207068E-10 -3.258803E-11
       169  14 -2.827844E+02  3.101587E+05  1.219835E+04 -5.786423E+04  1.402907E-11  6.714104E-11
       169  15  2.000457E+04  3.130041E+05  2.418167E+04 -8.814911E+04  4.581077E-11  3.083682E-12
       169  16  1.020735E+05  7.333384E+05  1.026437E+05 -8.588305E+04 -1.542355E-09 -3.745435E-10
       169  17  1.368076E+05  8.696898E+05  1.384355E+05 -6.170022E+04  2.031180E-10 -5.614400E-10
       169  18  1.943896E+05  1.014653E+06  1.948450E+05 -9.811548E+04  4.881668E-10 -2.083340E-10
       169  19 -1.032357E+05 -1.070696E+05 -8.389731E+04 -9.047423E+04  2.084945E+04  1.319643E+04
       169  20 -1.373940E+05 -2.490816E+05 -1.140577E+05 -5.403154E+04  2.409016E+04  3.121535E+03
       169  21 -1.544163E+05 -3.881958E+05 -1.465170E+05 -7.819387E+04  8.220814E+03 -6.977298E+03
       169  22 -5.749320E+02  3.130520E+05  9.378934E+03 -8.817954E+04  2.086826E+04  2.160309E+03
       169  23 -2.821418E+02  3.101589E+05  1.219958E+04 -5.786406E+04  2.408001E+04  8.594786E+03
       169  24  2.000470E+04  3.130043E+05  2.418222E+04 -8.814901E+04  8.189581E+03  1.500288E+04
       169  25  1.020740E+05  7.333386E+05  1.026447E+05 -8.588320E+04  2.088699E+04 -8.883195E+03
       169  26  1.368083E+05  8.696901E+05  1.384370E+05 -6.169994E+04  2.406979E+04  1.407292E+04
       169  27  1.943901E+05  1.014654E+06  1.948476E+05 -9.811524E+04  8.157663E+03  3.700781E+04
       170   1 -1.584983E+06 -6.332037E+05 -4.083586E+05 -5.733136E+05 -1.736431E+05 -5.488887E+04
       170   2 -1.529000E+06 -3.892026E+05 -2.512597E+05 -5.646299E+05 -1.124533E+05 -9.524863E+03
       170   3 -1.533616E+06 -3.429130E+05 -1.948052E+05 -5.287714E+05 -4.420535E+04  1.713127E+04
       170   4 -9.767405E+05 -3.272590E+05 -2.305748E+05 -3.288258E+05 -1.504048E+05 -4.616210E+04
       170   5 -9.354278E+05 -1.418482E+05 -9.942531E+04 -3.755486E+05 -1.042740E+05 -6.453813E+03
       170   6 -9.516571E+05 -1.510652E+05 -5.689973E+04 -3.951193E+05 -5.109187E+04  1.454037E+04
       170   7 -3.681261E+05 -2.119911E+04 -5.282530E+04 -8.409391E+04 -1.271417E+05 -3.741874E+04
       170   8 -3.415065E+05  1.055541E+05  5.238030E+04 -1.862944E+05 -9.608613E+04 -3.378688E+03
       170   9 -3.693620E+05  4.078923E+04  8.098284E+04 -2.613607E+05 -5.798546E+04  1.194752E+04
       170  10 -1.585017E+06 -6.332151E+05 -4.084211E+05 -5.733213E+05  1.063979E-10  1.174782E-10
       170  11 -1.529014E+06 -3.892061E+05 -2.512837E+05 -5.646308E+05 -7.878545E-10  2.063392E-10
       170  12 -1.533618E+06 -3.429138E+05 -1.948094E+05 -5.287708E+05  1.886033E-10 -2.958599E-10
       170  13 -9.767654E+05 -3.272673E+05 -2.306214E+05 -3.288314E+05 -9.884270E-10  9.424576E-11
       170  14 -9.354395E+05 -1.418512E+05 -9.944586E+04 -3.755492E+05  9.952493E-10  9.892539E-11
       170  15 -9.516600E+05 -1.510661E+05 -5.690504E+04 -3.951187E+05  2.975406E-10 -3.752499E-10
       170  16 -3.681438E+05 -2.120496E+04 -5.285832E+04 -8.409775E+04 -9.934398E-11  1.061554E-10
       170  17 -3.415164E+05  1.055516E+05  5.236292E+04 -1.862947E+05  4.872908E-10 -1.164903E-11
       170  18 -3.693656E+05  4.078817E+04  8.097625E+04 -2.613601E+05 -7.392928E-10 -5.088523E-10
       170  19 -1.584983E+06 -6.332037E+05 -4.083586E+05 -5.733136E+05  1.736431E+05  5.488887E+04
       170  20 -1.529000E+06 -3.892026E+05 -2.512597E+05 -5.646299E+05  1.124533E+05  9.524863E+03
       170  21 -1.533616E+06 -3.429130E+05 -1.948052E+05 -5.287714E+05  4.420535E+04 -1.713127E+04
       170  22 -9.767405E+05 -3.272590E+05 -2.305748E+05 -3.288258E+05  1.504048E+05  4.616210E+04
       170  23 -9.354278E+05 -1.418482E+05 -9.942531E+04 -3.755486E+05  1.042740E+05  6.453813E+03
       170  24 -9.516571E+05 -1.510652E+05 -5.689973E+04 -3.951193E+05  5.109187E+04 -1.454037E+04
       170  25 -3.681261E+05 -2.119911E+04 -5.282530E+04 -8.409391E+04  1.271417E+05  3.741874E+04
       170  26 -3.415065E+05  1.055541E+05  5.238030E+04 -1.862944E+05  9.608613E+04  3.378688E+03
       170  27 -3.693620E+05  4.078923E+04  8.098284E+04 -2.613607E+05  5.798546E+04 -1.194752E+04
       171   1 -1.460055E+06 -3.661138E+05 -1.729979E+05 -5.297788E+05 -4.116279E+04  1.410928E+04
       171   2 -1.416101E+06 -3.244168E+05 -1.378505E+05 -5.069285E+05 -2.800073E+04  1.689214E+04
       171   3 -1.360886E+06 -3.121747E+05 -1.152331E+05 -5.011512E+05 -1.450954E+04  1.879720E+04
       171   4 -9.441637E+05 -1.695486E+05 -4.527659E+04 -3.841650E+05 -4.235951E+04  1.365712E+04
       171   5 -9.490430E+05 -1.491564E+05 -2.308314E+04 -3.777789E+05 -2.989647E+04  1.617811E+04
       171   6 -9.425191E+05 -1.580737E+05 -1.285666E+04 -3.884668E+05 -1.710542E+04  1.782111E+04
       171   7 -4.280123E+05  2.703692E+04  8.242350E+04 -2.384406E+05 -4.355730E+04  1.320455E+04
       171   8 -4.817692E+05  2.611959E+04  9.166765E+04 -2.485406E+05 -3.179376E+04  1.546350E+04
       171   9 -5.239774E+05 -3.961202E+03  8.950716E+04 -2.757134E+05 -1.970323E+04  1.684432E+04
       171  10 -1.460057E+06 -3.661145E+05 -1.730015E+05 -5.297783E+05 -6.960374E-10 -8.097980E-10
       171  11 -1.416102E+06 -3.244173E+05 -1.378526E+05 -5.069282E+05  1.413226E-09 -1.637925E-10
       171  12 -1.360887E+06 -3.121751E+05 -1.152342E+05 -5.011509E+05  7.987484E-10 -4.189293E-11
       171  13 -9.441657E+05 -1.695492E+05 -4.528031E+04 -3.841645E+05  1.858496E-10 -5.348218E-10
       171  14 -9.490440E+05 -1.491569E+05 -2.308531E+04 -3.777785E+05  3.711757E-10 -1.027197E-10
       171  15 -9.425195E+05 -1.580741E+05 -1.285780E+04 -3.884666E+05 -2.729455E-10  1.256813E-10
       171  16 -4.280144E+05  2.703622E+04  8.241961E+04 -2.384401E+05  6.869165E-10 -1.142837E-10
       171  17 -4.817703E+05  2.611906E+04  9.166530E+04 -2.485402E+05  1.809684E-10  6.122562E-11
       171  18 -5.239779E+05 -3.961611E+03  8.950590E+04 -2.757131E+05  4.834103E-11  9.073026E-11
       171  19 -1.460055E+06 -3.661138E+05 -1.729979E+05 -5.297788E+05  4.116279E+04 -1.410928E+04
       171  20 -1.416101E+06 -3.244168E+05 -1.378505E+05 -5.069285E+05  2.800073E+04 -1.689214E+04
       171  21 -1.360886E+06 -3.121747E+05 -1.152331E+05 -5.011512E+05  1.450954E+04 -1.879720E+04
       171  22 -9.441637E+05 -1.695486E+05 -4.527659E+04 -3.841650E+05  4.235951E+04 -1.365712E+04
       171  23 -9.490430E+05 -1.491564E+05 -2.308314E+04 -3.777789E+05  2.989647E+04 -1.617811E+04
       171  24 -9.425191E+05 -1.580737E+05 -1.285666E+04 -3.884668E+05  1.710542E+04 -1.782111E+04
       171  25 -4.280123E+05  2.703692E+04  8.242350E+04 -2.384406E+05  4.355730E+04 -1.320455E+04
       171  26 -4.817692E+05  2.611959E+04  9.166765E+04 -2.485406E+05  3.179376E+04 -1.546350E+04
       171  27 -5.239774E+05 -3.961202E+03  8.950716E+04 -2.757134E+05  1.970323E+04 -1.684432E+04
       172   1 -1.313425E+06 -2.978288E+05 -1.007596E+05 -4.896403E+05 -1.226585E+04  1.757055E+04
       172   2 -1.270168E+06 -2.688845E+05 -8.371620E+04 -4.654551E+05 -8.464793E+03  1.565551E+04
       172   3 -1.209922E+06 -2.583579E+05 -6.888686E+04 -4.612902E+05 -4.645175E+03  1.368703E+04
       172   4 -9.417803E+05 -1.592815E+05 -9.809944E+03 -3.877538E+05 -1.461260E+04  1.668847E+04
       172   5 -9.502209E+05 -1.497137E+05 -5.311270E+03 -3.778775E+05 -1.085299E+04  1.475850E+04
       172   6 -9.416660E+05 -1.585541E+05 -2.992527E+03 -3.880216E+05 -7.075081E+03  1.277502E+04
       172   7 -5.699994E+05 -2.072475E+04  8.112927E+04 -2.858118E+05 -1.696089E+04  1.580583E+04
       172   8 -6.301734E+05 -3.053621E+04  7.308571E+04 -2.902590E+05 -1.324253E+04  1.386099E+04
       172   9 -6.733407E+05 -5.874605E+04  6.289599E+04 -3.147245E+05 -9.506123E+03  1.186258E+04
       172  10 -1.313425E+06 -2.978292E+05 -1.007605E+05 -4.896401E+05  6.330196E-10 -1.208103E-10
       172  11 -1.270168E+06 -2.688848E+05 -8.371680E+04 -4.654550E+05 -1.479095E-10 -3.246593E-10
       172  12 -1.209922E+06 -2.583581E+05 -6.888725E+04 -4.612902E+05 -7.382731E-10  3.544926E-12
       172  13 -9.417806E+05 -1.592818E+05 -9.810868E+03 -3.877536E+05 -6.892074E-10 -2.108958E-10
       172  14 -9.502211E+05 -1.497140E+05 -5.311900E+03 -3.778773E+05  1.215940E-10 -3.592538E-10
       172  15 -9.416661E+05 -1.585543E+05 -2.992927E+03 -3.880215E+05 -9.323188E-10  1.040365E-10
       172  16 -5.699997E+05 -2.072510E+04  8.112826E+04 -2.858116E+05  3.069720E-10 -3.220573E-10
       172  17 -6.301736E+05 -3.053647E+04  7.308502E+04 -2.902589E+05 -4.472882E-10 -4.641645E-10
       172  18 -6.733409E+05 -5.874622E+04  6.289556E+04 -3.147244E+05  6.501907E-10  2.702744E-10
       172  19 -1.313425E+06 -2.978288E+05 -1.007596E+05 -4.896403E+05  1.226585E+04 -1.757055E+04
       172  20 -1.270168E+06 -2.688845E+05 -8.371620E+04 -4.654551E+05  8.464793E+03 -1.565551E+04
       172  21 -1.209922E+06 -2.583579E+05 -6.888686E+04 -4.612902E+05  4.645175E+03 -1.368703E+04
       172  22 -9.417803E+05 -1.592815E+05 -9.809944E+03 -3.877538E+05  1.461260E+04 -1.668847E+04
       172  23 -9.502209E+05 -1.497137E+05 -5.311270E+03 -3.778775E+05  1.085299E+04 -1.475850E+04
       172  24 -9.416660E+05 -1.585541E+05 -2.992527E+03 -3.880216E+05  7.075081E+03 -1.277502E+04
       172  25 -5.699994E+05 -2.072475E+04  8.112927E+04 -2.858118E+05  1.696089E+04 -1.580583E+04
       172  26 -6.301734E+05 -3.053621E+04  7.308571E+04 -2.902590E+05  1.324253E+04 -1.386099E+04
       172  27 -6.733407E+05 -5.874605E+04  6.289599E+04 -3.147245E+05  9.506123E+03 -1.186258E+04
       173   1 -1.163780E+06 -2.413682E+05 -5.657322E+04 -4.488255E+05 -3.556084E+03  1.209799E+04
       173   2 -1.120270E+06 -2.129774E+05 -4.304531E+04 -4.243269E+05 -1.713656E+03  9.358387E+03
       173   3 -1.059101E+06 -2.024089E+05 -3.006063E+04 -4.201816E+05  1.313036E+02  6.609752E+03
       173   4 -9.415467E+05 -1.586536E+05 -2.307055E+03 -3.880073E+05 -5.981931E+03  1.118781E+04
       173   5 -9.503681E+05 -1.497173E+05 -1.419126E+03 -3.778385E+05 -4.146556E+03  8.445891E+03
       173   6 -9.415335E+05 -1.586019E+05 -1.068933E+03 -3.880241E+05 -2.308723E+03  5.694929E+03
       173   7 -7.192634E+05 -7.593536E+04  5.195571E+04 -3.271690E+05 -8.408737E+03  1.027727E+04
       173   8 -7.804371E+05 -8.645503E+04  4.020502E+04 -3.313385E+05 -6.580190E+03  7.533120E+03
       173   9 -8.239520E+05 -1.147941E+05  2.792174E+04 -3.558610E+05 -4.749256E+03  4.779916E+03
       173  10 -1.163780E+06 -2.413683E+05 -5.657352E+04 -4.488254E+05  9.438599E-11  5.237053E-10
       173  11 -1.120270E+06 -2.129775E+05 -4.304548E+04 -4.243269E+05 -1.963643E-10 -5.308343E-11
       173  12 -1.059101E+06 -2.024089E+05 -3.006072E+04 -4.201816E+05  3.263081E-10 -3.856798E-10
       173  13 -9.415468E+05 -1.586538E+05 -2.307357E+03 -3.880072E+05 -2.541257E-10  4.122221E-10
       173  14 -9.503681E+05 -1.497174E+05 -1.419293E+03 -3.778385E+05 -2.581197E-10  8.032245E-11
       173  15 -9.415335E+05 -1.586020E+05 -1.069004E+03 -3.880241E+05 -1.301420E-10 -4.706044E-11
       173  16 -7.192635E+05 -7.593549E+04  5.195538E+04 -3.271689E+05 -5.146430E-10  2.008395E-10
       173  17 -7.804372E+05 -8.645510E+04  4.020483E+04 -3.313384E+05 -5.456829E-10  1.099855E-10
       173  18 -8.239520E+05 -1.147941E+05  2.792165E+04 -3.558610E+05 -9.051205E-10  2.243840E-10
       173  19 -1.163780E+06 -2.413682E+05 -5.657322E+04 -4.488255E+05  3.556084E+03 -1.209799E+04
       173  20 -1.120270E+06 -2.129774E+05 -4.304531E+04 -4.243269E+05  1.713656E+03 -9.358387E+03
       173  21 -1.059101E+06 -2.024089E+05 -3.006063E+04 -4.201816E+05 -1.313036E+02 -6.609752E+03
       173  22 -9.415467E+05 -1.586536E+05 -2.307055E+03 -3.880073E+05  5.981931E+03 -1.118781E+04
       173  23 -9.503681E+05 -1.497173E+05 -1.419126E+03 -3.778385E+05  4.146556E+03 -8.445891E+03
       173  24 -9.415335E+05 -1.586019E+05 -1.068933E+03 -3.880241E+05  2.308723E+03 -5.694929E+03
       173  25 -7.192634E+05 -7.593536E+04  5.195571E+04 -3.271690E+05  8.408737E+03 -1.027727E+04
       173  26 -7.804371E+05 -8.645503E+04  4.020502E+04 -3.313385E+05  6.580190E+03 -7.533120E+03
       173  27 -8.239520E+05 -1.147941E+05  2.792174E+04 -3.558610E+05  4.749256E+03 -4.779916E+03
       174   1 -1.012821E+06 -1.851462E+05 -1.832820E+04 -4.075783E+05  9.692801E+02  4.917169E+03
       174   2 -9.691273E+05 -1.566959E+05 -5.871200E+03 -3.829745E+05  2.737435E+03  2.131012E+03
       174   3 -9.077145E+05 -1.461256E+05  6.099797E+03 -3.788091E+05  4.505360E+03 -6.547500E+02
       174   4 -9.415182E+05 -1.586173E+05 -1.044408E+03 -3.880412E+05 -1.473857E+03  4.001303E+03
       174   5 -9.503780E+05 -1.496891E+05 -1.273513E+03 -3.778170E+05  2.945449E+02  1.215273E+03
       174   6 -9.415212E+05 -1.586411E+05 -1.988721E+03 -3.880322E+05  2.062661E+03 -1.570377E+03
       174   7 -8.702111E+05 -1.320882E+05  1.623894E+04 -3.685022E+05 -3.917289E+03  3.085325E+03
       174   8 -9.316284E+05 -1.426822E+05  3.324174E+03 -3.726593E+05 -2.148426E+03  2.995035E+02
       174   9 -9.753270E+05 -1.711566E+05 -1.007734E+04 -3.972548E+05 -3.799052E+02 -2.485954E+03
       174  10 -1.012821E+06 -1.851462E+05 -1.832825E+04 -4.075783E+05 -1.663471E-10 -5.067389E-10
       174  11 -9.691273E+05 -1.566959E+05 -5.871223E+03 -3.829745E+05 -4.049905E-09 -1.185250E-09
       174  12 -9.077145E+05 -1.461256E+05  6.099758E+03 -3.788091E+05 -2.723400E-09 -7.611420E-10
       174  13 -9.415182E+05 -1.586173E+05 -1.044442E+03 -3.880412E+05 -1.677641E-09 -5.108273E-10
       174  14 -9.503780E+05 -1.496891E+05 -1.273516E+03 -3.778170E+05 -3.438282E-09 -1.270429E-09
       174  15 -9.415212E+05 -1.586411E+05 -1.988733E+03 -3.880322E+05 -1.797830E-09 -4.216903E-10
       174  16 -8.702111E+05 -1.320882E+05  1.623890E+04 -3.685022E+05 -2.464678E-09 -6.341066E-10
       174  17 -9.316284E+05 -1.426822E+05  3.324165E+03 -3.726593E+05 -3.273218E-09 -1.233654E-09
       174  18 -9.753270E+05 -1.711566E+05 -1.007735E+04 -3.972548E+05 -2.301812E-10 -2.690604E-10
       174  19 -1.012821E+06 -1.851462E+05 -1.832820E+04 -4.075783E+05 -9.692801E+02 -4.917169E+03
       174  20 -9.691273E+05 -1.566959E+05 -5.871200E+03 -3.829745E+05 -2.737435E+03 -2.131012E+03
       174  21 -9.077145E+05 -1.461256E+05  6.099797E+03 -3.788091E+05 -4.505360E+03  6.547500E+02
       174  22 -9.415182E+05 -1.586173E+05 -1.044408E+03 -3.880412E+05  1.473857E+03 -4.001303E+03
       174  23 -9.503780E+05 -1.496891E+05 -1.273513E+03 -3.778170E+05 -2.945449E+02 -1.215273E+03
       174  24 -9.415212E+05 -1.586411E+05 -1.988721E+03 -3.880322E+05 -2.062661E+03  1.570377E+03
       174  25 -8.702111E+05 -1.320882E+05  1.623894E+04 -3.685022E+05  3.917289E+03 -3.085325E+03
       174  26 -9.316284E+05 -1.426822E+05  3.324174E+03 -3.726593E+05  2.148426E+03 -2.995035E+02
       174  27 -9.753270E+05 -1.711566E+05 -1.007734E+04 -3.972548E+05  3.799052E+02  2.485954E+03
       175   1 -8.614179E+05 -1.288441E+05  1.724457E+04 -3.662967E+05  5.547961E+03 -2.275055E+03
       175   2 -8.177247E+05 -1.003458E+05  2.796457E+04 -3.416005E+05  8.902117E+03 -4.455506E+03
       175   3 -7.567864E+05 -9.032877E+04  3.684926E+04 -3.372004E+05  1.224417E+04 -6.601383E+03
       175   4 -9.416017E+05 -1.585822E+05 -2.558751E+03 -3.880738E+05  3.098245E+03 -3.193386E+03
       175   5 -9.502654E+05 -1.496373E+05 -4.494946E+03 -3.778144E+05  6.479630E+03 -5.363899E+03
       175   6 -9.416917E+05 -1.591794E+05 -8.288201E+03 -3.878526E+05  9.848696E+03 -7.499899E+03
       175   7 -1.021779E+06 -1.883199E+05 -2.236254E+04 -4.098484E+05  6.488753E+02 -4.111589E+03
       175   8 -1.082788E+06 -1.989274E+05 -3.695568E+04 -4.140213E+05  4.057714E+03 -6.272079E+03
       175   9 -1.126562E+06 -2.280274E+05 -5.342797E+04 -4.384908E+05  7.454013E+03 -8.398118E+03
       175  10 -8.614179E+05 -1.288441E+05  1.724451E+04 -3.662967E+05 -4.012765E-10  3.625699E-10
       175  11 -8.177248E+05 -1.003459E+05  2.796439E+04 -3.416005E+05 -1.386828E-09  2.067920E-10
       175  12 -7.567865E+05 -9.032886E+04  3.684890E+04 -3.372004E+05  1.739550E-09  6.081433E-10
       175  13 -9.416018E+05 -1.585822E+05 -2.558788E+03 -3.880738E+05  1.605880E-10 -1.389888E-11
       175  14 -9.502655E+05 -1.496373E+05 -4.495079E+03 -3.778144E+05 -1.465150E-10 -5.406962E-11
       175  15 -9.416918E+05 -1.591795E+05 -8.288489E+03 -3.878525E+05  2.924330E-09  7.754025E-10
       175  16 -1.021779E+06 -1.883199E+05 -2.236257E+04 -4.098484E+05 -3.825777E-10 -3.406302E-10
       175  17 -1.082788E+06 -1.989274E+05 -3.695578E+04 -4.140213E+05  6.396275E-10 -1.826372E-10
       175  18 -1.126562E+06 -2.280275E+05 -5.342820E+04 -4.384907E+05  4.102291E-09  1.042963E-09
       175  19 -8.614179E+05 -1.288441E+05  1.724457E+04 -3.662967E+05 -5.547961E+03  2.275055E+03
       175  20 -8.177247E+05 -1.003458E+05  2.796457E+04 -3.416005E+05 -8.902117E+03  4.455506E+03
       175  21 -7.567864E+05 -9.032877E+04  3.684926E+04 -3.372004E+05 -1.224417E+04  6.601383E+03
       175  22 -9.416017E+05 -1.585822E+05 -2.558751E+03 -3.880738E+05 -3.098245E+03  3.193386E+03
       175  23 -9.502654E+05 -1.496373E+05 -4.494946E+03 -3.778144E+05 -6.479630E+03  5.363899E+03
       175  24 -9.416917E+05 -1.591794E+05 -8.288201E+03 -3.878526E+05 -9.848696E+03  7.499899E+03
       175  25 -1.021779E+06 -1.883199E+05 -2.236254E+04 -4.098484E+05 -6.488753E+02  4.111589E+03
       175  26 -1.082788E+06 -1.989274E+05 -3.695568E+04 -4.140213E+05 -4.057714E+03  6.272079E+03
       175  27 -1.126562E+06 -2.280274E+05 -5.342797E+04 -4.384908E+05 -7.454013E+03  8.398118E+03
       176   1 -7.101317E+05 -7.330515E+04  4.589791E+04 -3.265957E+05  1.464331E+04 -7.773986E+03
       176   2 -6.669956E+05 -4.310192E+04  4.988741E+04 -2.994965E+05  2.512078E+04 -7.118035E+03
       176   3 -6.111653E+05 -4.056817E+04  4.417452E+04 -2.903189E+05  3.535882E+04 -5.817578E+03
       176   4 -9.422975E+05 -1.581795E+05 -1.085818E+04 -3.884763E+05  1.206127E+04 -8.742699E+03
       176   5 -9.492807E+05 -1.491288E+05 -1.947702E+04 -3.777032E+05  2.305455E+04 -7.893887E+03
       176   6 -9.436779E+05 -1.678548E+05 -3.821133E+04 -3.848540E+05  3.380750E+04 -6.400814E+03
       176   7 -1.174411E+06 -2.430511E+05 -6.761861E+04 -4.503364E+05  9.480275E+03 -9.711038E+03
       176   8 -1.231488E+06 -2.551501E+05 -8.884770E+04 -4.558776E+05  2.098934E+04 -8.669350E+03
       176   9 -1.276081E+06 -2.951323E+05 -1.206058E+05 -4.793424E+05  3.225709E+04 -6.983690E+03
       176  10 -7.101319E+05 -7.330527E+04  4.589739E+04 -3.265956E+05  3.518608E-09  1.003209E-09
       176  11 -6.669963E+05 -4.310215E+04  4.988613E+04 -2.994963E+05  8.120796E-10 -4.426467E-11
       176  12 -6.111666E+05 -4.056854E+04  4.417211E+04 -2.903187E+05 -5.363667E-10 -6.411947E-11
       176  13 -9.422976E+05 -1.581796E+05 -1.085860E+04 -3.884762E+05  3.189543E-09  7.538288E-10
       176  14 -9.492813E+05 -1.491290E+05 -1.947814E+04 -3.777030E+05 -5.029750E-11  5.980898E-11
       176  15 -9.436791E+05 -1.678551E+05 -3.821356E+04 -3.848538E+05 -3.447923E-10  9.250201E-11
       176  16 -1.174411E+06 -2.430512E+05 -6.761896E+04 -4.503363E+05  1.531463E-09  4.566583E-10
       176  17 -1.231488E+06 -2.551503E+05 -8.884867E+04 -4.558775E+05 -1.306228E-09  2.104357E-10
       176  18 -1.276083E+06 -2.951326E+05 -1.206078E+05 -4.793422E+05  5.061293E-11  1.525219E-10
       176  19 -7.101317E+05 -7.330515E+04  4.589791E+04 -3.265957E+05 -1.464331E+04  7.773986E+03
       176  20 -6.669956E+05 -4.310192E+04  4.988741E+04 -2.994965E+05 -2.512078E+04  7.118035E+03
       176  21 -6.111653E+05 -4.056817E+04  4.417452E+04 -2.903189E+05 -3.535882E+04  5.817578E+03
       176  22 -9.422975E+05 -1.581795E+05 -1.085818E+04 -3.884763E+05 -1.206127E+04  8.742699E+03
       176  23 -9.492807E+05 -1.491288E+05 -1.947702E+04 -3.777032E+05 -2.305455E+04  7.893887E+03
       176  24 -9.436779E+05 -1.678548E+05 -3.821133E+04 -3.848540E+05 -3.380750E+04  6.400814E+03
       176  25 -1.174411E+06 -2.430511E+05 -6.761861E+04 -4.503364E+05 -9.480275E+03  9.711038E+03
       176  26 -1.231488E+06 -2.551501E+05 -8.884770E+04 -4.558776E+05 -2.098934E+04  8.669350E+03
       176  27 -1.276081E+06 -2.951323E+05 -1.206058E+05 -4.793424E+05 -3.225709E+04  6.983690E+03
       177   1 -5.537110E+05 -2.598579E+04  4.509315E+04 -3.075714E+05  4.696743E+04 -5.086755E+03
       177   2 -5.223405E+05  3.357670E+04  2.298086E+04 -2.398478E+05  8.107297E+04  7.498595E+03
       177   3 -5.341482E+05 -7.208120E+04 -6.508413E+04 -1.529511E+05  1.099954E+05  3.388888E+04
       177   4 -9.499859E+05 -1.522736E+05 -4.802085E+04 -3.941207E+05  4.121368E+04 -7.246136E+03
       177   5 -9.378135E+05 -1.429149E+05 -8.389883E+04 -3.757822E+05  8.644731E+04  9.512844E+03
       177   6 -9.710743E+05 -3.010574E+05 -1.945910E+05 -3.382625E+05  1.264940E+05  4.007482E+04
       177   7 -1.346104E+06 -2.785596E+05 -1.411449E+05 -4.806240E+05  3.546397E+04 -9.404502E+03
       177   8 -1.353115E+06 -3.193800E+05 -1.907925E+05 -5.116286E+05  9.181771E+04  1.152514E+04
       177   9 -1.407805E+06 -5.299623E+05 -3.241152E+05 -5.234387E+05  1.429799E+05  4.625167E+04
       177  10 -5.537134E+05 -2.598641E+04  4.508895E+04 -3.075712E+05 -5.257359E-10  3.073135E-10
       177  11 -5.223475E+05  3.357488E+04  2.296839E+04 -2.398483E+05 -4.488252E-10  1.874286E-10
       177  12 -5.341615E+05 -7.208569E+04 -6.510905E+04 -1.529541E+05 -1.450189E-10 -1.216443E-11
       177  13 -9.499877E+05 -1.522741E+05 -4.802414E+04 -3.941205E+05  6.833649E-10  2.750578E-10
       177  14 -9.378216E+05 -1.429170E+05 -8.391306E+04 -3.757828E+05  1.878840E-09  1.137528E-10
       177  15 -9.710919E+05 -3.010634E+05 -1.946242E+05 -3.382666E+05 -1.577616E-10  2.963016E-10
       177  16 -1.346105E+06 -2.785600E+05 -1.411474E+05 -4.806237E+05  2.373608E-10 -2.844640E-11
       177  17 -1.353124E+06 -3.193824E+05 -1.908086E+05 -5.116295E+05  4.907457E-10 -1.381146E-10
       177  18 -1.407828E+06 -5.299701E+05 -3.241578E+05 -5.234441E+05 -5.922517E-10  6.010889E-11
       177  19 -5.537110E+05 -2.598579E+04  4.509315E+04 -3.075714E+05 -4.696743E+04  5.086755E+03
       177  20 -5.223405E+05  3.357670E+04  2.298086E+04 -2.398478E+05 -8.107297E+04 -7.498595E+03
       177  21 -5.341482E+05 -7.208120E+04 -6.508413E+04 -1.529511E+05 -1.099954E+05 -3.388888E+04
       177  22 -9.499859E+05 -1.522736E+05 -4.802085E+04 -3.941207E+05 -4.121368E+04  7.246136E+03
       177  23 -9.378135E+05 -1.429149E+05 -8.389883E+04 -3.757822E+05 -8.644731E+04 -9.512844E+03
       177  24 -9.710743E+05 -3.010574E+05 -1.945910E+05 -3.382625E+05 -1.264940E+05 -4.007482E+04
       177  25 -1.346104E+06 -2.785596E+05 -1.411449E+05 -4.806240E+05 -3.546397E+04  9.404502E+03
       177  26 -1.353115E+06 -3.193800E+05 -1.907925E+05 -5.116286E+05 -9.181771E+04 -1.152514E+04
       177  27 -1.407805E+06 -5.299623E+05 -3.241152E+05 -5.234387E+05 -1.429799E+05 -4.625167E+04
       178   1 -1.027774E+06 -2.405169E+05 -2.021118E+05 -2.003697E+04  6.341437E+04  1.985330E+04
       178   2 -9.108753E+05 -3.455252E+05 -2.373911E+05 -3.355670E+04  5.695518E+04  6.180607E+04
       178   3 -7.587414E+05 -3.169259E+05 -2.348875E+05 -1.042110E+05  5.056467E+04  6.376160E+04
       178   4  5.065724E+05  1.406824E+05  1.704424E+05 -8.309515E+04  1.170821E+05  1.993542E+04
       178   5  4.860733E+05 -3.195929E+03  7.720290E+04 -5.443169E+04  7.603110E+04  6.181789E+04
       178   6  5.067118E+05 -7.629042E+03  4.569176E+04 -8.289018E+04  3.505326E+04  6.374254E+04
       178   7  2.043084E+06  5.217257E+05  5.428397E+05 -1.463106E+05  1.708820E+05  2.000656E+04
       178   8  1.884840E+06  3.390016E+05  3.916741E+05 -7.535465E+04  9.514942E+04  6.182843E+04
       178   9  1.773662E+06  3.015615E+05  3.261729E+05 -6.152554E+04  1.951050E+04  6.372244E+04
       178  10 -1.027778E+06 -2.405184E+05 -2.021201E+05 -2.003799E+04 -6.208910E-11  3.937558E-10
       178  11 -9.108798E+05 -3.455302E+05 -2.374044E+05 -3.355954E+04  2.004837E-10 -3.224979E-10
       178  12 -7.587453E+05 -3.169310E+05 -2.349000E+05 -1.042136E+05 -8.234501E-10 -3.576029E-10
       178  13  5.065576E+05  1.406783E+05  1.704159E+05 -8.309703E+04 -6.093043E-10 -4.695288E-10
       178  14  4.860660E+05 -3.201584E+03  7.718486E+04 -5.443547E+04 -1.804560E-10 -5.743905E-11
       178  15  5.067094E+05 -7.633736E+03  4.568181E+04 -8.289198E+04  2.826630E-10 -3.974876E-10
       178  16  2.043053E+06  5.217174E+05  5.427842E+05 -1.463133E+05  5.434272E-10  6.810246E-10
       178  17  1.884829E+06  3.389951E+05  3.916499E+05 -7.535938E+04 -4.233527E-11 -4.782834E-10
       178  18  1.773660E+06  3.015570E+05  3.261645E+05 -6.152654E+04 -2.662639E-10 -5.336252E-10
       178  19 -1.027774E+06 -2.405169E+05 -2.021118E+05 -2.003697E+04 -6.341437E+04 -1.985330E+04
       178  20 -9.108753E+05 -3.455252E+05 -2.373911E+05 -3.355670E+04 -5.695518E+04 -6.180607E+04
       178  21 -7.587414E+05 -3.169259E+05 -2.348875E+05 -1.042110E+05 -5.056467E+04 -6.376160E+04
       178  22  5.065724E+05  1.406824E+05  1.704424E+05 -8.309515E+04 -1.170821E+05 -1.993542E+04
       178  23  4.860733E+05 -3.195929E+03  7.720290E+04 -5.443169E+04 -7.603110E+04 -6.181789E+04
       178  24  5.067118E+05 -7.629042E+03  4.569176E+04 -8.289018E+04 -3.505326E+04 -6.374254E+04
       178  25  2.043084E+06  5.217257E+05  5.428397E+05 -1.463106E+05 -1.708820E+05 -2.000656E+04
       178  26  1.884840E+06  3.390016E+05  3.916741E+05 -7.535465E+04 -9.514942E+04 -6.182843E+04
       178  27  1.773662E+06  3.015615E+05  3.261729E+05 -6.152554E+04 -1.951050E+04 -6.372244E+04
       179   1 -6.536785E+05 -2.738286E+05 -2.203560E+05 -8.073954E+04  3.212813E+04  5.565485E+04
       179   2 -5.224692E+05 -2.496916E+05 -2.067814E+05 -5.357080E+04  2.383521E+04  5.052887E+04
       179   3 -3.876262E+05 -2.172039E+05 -1.856131E+05 -8.456800E+04  1.553207E+04  4.363255E+04
       179   4  4.984876E+05  7.989481E+03  3.642241E+04 -8.317432E+04  2.850598E+04  5.564552E+04
       179   5  4.965905E+05 -5.954467E+02  1.957544E+04 -5.409359E+04  1.866781E+04  5.052209E+04
       179   6  4.985697E+05 -5.695177E+02  1.138400E+04 -8.317249E+04  8.821157E+03  4.362967E+04
       179   7  1.651892E+06  2.897175E+05  2.931178E+05 -8.561375E+04  2.487713E+04  5.563623E+04
       179   8  1.516619E+06  2.484305E+05  2.458678E+05 -5.461725E+04  1.349201E+04  5.051533E+04
       179   9  1.385498E+06  2.160117E+05  2.083323E+05 -8.177488E+04  2.100761E+03  4.362676E+04
       179  10 -6.536805E+05 -2.738322E+05 -2.203638E+05 -8.074098E+04 -1.683247E-09 -3.295230E-10
       179  11 -5.224705E+05 -2.496945E+05 -2.067873E+05 -5.357177E+04 -3.104672E-11  3.427642E-10
       179  12 -3.876270E+05 -2.172060E+05 -1.856171E+05 -8.456854E+04  1.224573E-10  4.235900E-10
       179  13  4.984859E+05  7.985937E+03  3.641506E+04 -8.317560E+04  9.841249E-11 -3.940491E-10
       179  14  4.965894E+05 -5.982818E+02  1.956999E+04 -5.409435E+04 -4.017254E-10  4.024722E-10
       179  15  4.985691E+05 -5.715832E+02  1.138028E+04 -8.317280E+04 -1.711749E-10  1.329344E-10
       179  16  1.651890E+06  2.897140E+05  2.931108E+05 -8.561486E+04  1.136424E-09  7.490965E-12
       179  17  1.516618E+06  2.484277E+05  2.458627E+05 -5.461780E+04 -9.955506E-10  3.779771E-10
       179  18  1.385498E+06  2.160097E+05  2.083287E+05 -8.177496E+04  8.650128E-10 -1.712725E-10
       179  19 -6.536785E+05 -2.738286E+05 -2.203560E+05 -8.073954E+04 -3.212813E+04 -5.565485E+04
       179  20 -5.224692E+05 -2.496916E+05 -2.067814E+05 -5.357080E+04 -2.383521E+04 -5.052887E+04
       179  21 -3.876262E+05 -2.172039E+05 -1.856131E+05 -8.456800E+04 -1.553207E+04 -4.363255E+04
       179  22  4.984876E+05  7.989481E+03  3.642241E+04 -8.317432E+04 -2.850598E+04 -5.564552E+04
       179  23  4.965905E+05 -5.954467E+02  1.957544E+04 -5.409359E+04 -1.866781E+04 -5.052209E+04
       179  24  4.985697E+05 -5.695177E+02  1.138400E+04 -8.317249E+04 -8.821157E+03 -4.362967E+04
       179  25  1.651892E+06  2.897175E+05  2.931178E+05 -8.561375E+04 -2.487713E+04 -5.563623E+04
       179  26  1.516619E+06  2.484305E+05  2.458678E+05 -5.461725E+04 -1.349201E+04 -5.051533E+04
       179  27  1.385498E+06  2.160117E+05  2.083323E+05 -8.177488E+04 -2.100761E+03 -4.362676E+04
       180   1 -2.764755E+05 -1.888024E+05 -1.627654E+05 -8.300801E+04  1.321768E+04  3.921541E+04
       180   2 -1.444260E+05 -1.569764E+05 -1.374848E+05 -5.402294E+04  1.081136E+04  3.203077E+04
       180   3 -1.180645E+04 -1.245557E+05 -1.104683E+05 -8.295209E+04  8.398267E+03  2.477673E+04
       180   4  4.978760E+05  3.559308E+02  8.742545E+03 -8.311753E+04  7.047054E+03  3.921436E+04
       180   5  4.976190E+05 -9.634222E+01  4.977771E+03 -5.416239E+04  4.577377E+03  3.203216E+04
       180   6  4.979257E+05  5.744522E+01  2.991747E+03 -8.311781E+04  2.101428E+03  2.478066E+04
       180   7  1.272787E+06  1.894738E+05  1.802135E+05 -8.322709E+04  8.688128E+02  3.921332E+04
       180   8  1.140049E+06  1.567558E+05  1.474149E+05 -5.430190E+04 -1.662984E+03  3.203356E+04
       180   9  1.007900E+06  1.246530E+05  1.164357E+05 -8.328361E+04 -4.200526E+03  2.478458E+04
       180  10 -2.764761E+05 -1.888041E+05 -1.627686E+05 -8.300842E+04 -6.195780E-11  8.155468E-11
       180  11 -1.444264E+05 -1.569775E+05 -1.374870E+05 -5.402322E+04 -7.424843E-10 -5.297840E-10
       180  12 -1.180669E+04 -1.245564E+05 -1.104696E+05 -8.295226E+04  1.376721E-09 -6.685487E-10
       180  13  4.978756E+05  3.542658E+02  8.739561E+03 -8.311775E+04 -8.969422E-11 -2.288674E-10
       180  14  4.976187E+05 -9.744992E+01  4.975802E+03 -5.416250E+04 -6.977377E-11  2.962051E-10
       180  15  4.979255E+05  5.678445E+01  2.990584E+03 -8.311785E+04 -2.151650E-09  2.637503E-10
       180  16  1.272787E+06  1.894722E+05  1.802106E+05 -8.322712E+04  3.254647E-10 -2.774751E-11
       180  17  1.140048E+06  1.567547E+05  1.474130E+05 -5.430186E+04 -3.692423E-10  1.075408E-10
       180  18  1.007900E+06  1.246524E+05  1.164345E+05 -8.328352E+04 -5.467988E-10 -5.963027E-10
       180  19 -2.764755E+05 -1.888024E+05 -1.627654E+05 -8.300801E+04 -1.321768E+04 -3.921541E+04
       180  20 -1.444260E+05 -1.569764E+05 -1.374848E+05 -5.402294E+04 -1.081136E+04 -3.203077E+04
       180  21 -1.180645E+04 -1.245557E+05 -1.104683E+05 -8.295209E+04 -8.398267E+03 -2.477673E+04
       180  22  4.978760E+05  3.559308E+02  8.742545E+03 -8.311753E+04 -7.047054E+03 -3.921436E+04
       180  23  4.976190E+05 -9.634222E+01  4.977771E+03 -5.416239E+04 -4.577377E+03 -3.203216E+04
       180  24  4.979257E+05  5.744522E+01  2.991747E+03 -8.311781E+04 -2.101428E+03 -2.478066E+04
       180  25  1.272787E+06  1.894738E+05  1.802135E+05 -8.322709E+04 -8.688128E+02 -3.921332E+04
       180  26  1.140049E+06  1.567558E+05  1.474149E+05 -5.430190E+04  1.662984E+03 -3.203356E+04
       180  27  1.007900E+06  1.246530E+05  1.164357E+05 -8.328361E+04  4.200526E+03 -2.478458E+04
       181   1  9.948188E+04 -9.713544E+04 -8.563902E+04 -8.288031E+04  7.882373E+03  2.054166E+04
       181   2  2.314341E+05 -6.500614E+04 -5.749435E+04 -5.405102E+04  7.087449E+03  1.328858E+04
       181   3  3.634367E+05 -3.274280E+04 -2.882430E+04 -8.296409E+04  6.289776E+03  6.036262E+03
       181   4  4.978317E+05  1.088832E+02  2.357858E+03 -8.308002E+04  1.614342E+03  2.054665E+04
       181   5  4.978239E+05  6.933116E+01  1.597752E+03 -5.420959E+04  8.190769E+02  1.329456E+04
       181   6  4.978521E+05  1.653463E+02  1.364101E+03 -8.308001E+04  2.122744E+01  6.043291E+03
       181   7  8.963298E+05  9.734256E+04  9.034511E+04 -8.327982E+04 -4.657663E+03  2.055164E+04
       181   8  7.642800E+05  6.514003E+04  6.068559E+04 -5.436821E+04 -5.451953E+03  1.330054E+04
       181   9  6.322843E+05  3.307228E+04  3.155150E+04 -8.319595E+04 -6.248664E+03  6.050321E+03
       181  10  9.948170E+04 -9.713591E+04 -8.563993E+04 -8.288044E+04 -6.246334E-10 -1.291976E-11
       181  11  2.314340E+05 -6.500634E+04 -5.749478E+04 -5.405109E+04 -3.490229E-10  1.716082E-10
       181  12  3.634367E+05 -3.274285E+04 -2.882444E+04 -8.296413E+04  3.831717E-11  5.979517E-11
       181  13  4.978316E+05  1.084291E+02  2.357060E+03 -8.308005E+04 -1.261541E-10 -9.146417E-10
       181  14  4.978239E+05  6.914114E+01  1.597419E+03 -5.420960E+04 -2.386325E-10  5.924131E-10
       181  15  4.978521E+05  1.653070E+02  1.364032E+03 -8.308001E+04 -2.934528E-10 -3.367342E-10
       181  16  8.963297E+05  9.734210E+04  9.034427E+04 -8.327974E+04  8.060650E-10 -3.337045E-10
       181  17  7.642799E+05  6.513983E+04  6.068521E+04 -5.436815E+04  1.752432E-10  3.813262E-10
       181  18  6.322842E+05  3.307223E+04  3.155136E+04 -8.319591E+04 -5.296091E-10 -8.933466E-10
       181  19  9.948188E+04 -9.713544E+04 -8.563902E+04 -8.288031E+04 -7.882373E+03 -2.054166E+04
       181  20  2.314341E+05 -6.500614E+04 -5.749435E+04 -5.405102E+04 -7.087449E+03 -1.328858E+04
       181  21  3.634367E+05 -3.274280E+04 -2.882430E+04 -8.296409E+04 -6.289776E+03 -6.036262E+03
       181  22  4.978317E+05  1.088832E+02  2.357858E+03 -8.308002E+04 -1.614342E+03 -2.054665E+04
       181  23  4.978239E+05  6.933116E+01  1.597752E+03 -5.420959E+04 -8.190769E+02 -1.329456E+04
       181  24  4.978521E+05  1.653463E+02  1.364101E+03 -8.308001E+04 -2.122744E+01 -6.043291E+03
       181  25  8.963298E+05  9.734256E+04  9.034511E+04 -8.327982E+04  4.657663E+03 -2.055164E+04
       181  26  7.642800E+05  6.514003E+04  6.068559E+04 -5.436821E+04  5.451953E+03 -1.330054E+04
       181  27  6.322843E+05  3.307228E+04  3.155150E+04 -8.319595E+04  6.248664E+03 -6.050321E+03
       182   1  4.746672E+05 -5.422039E+03 -3.365766E+03 -8.304774E+04  6.032572E+03  1.816297E+03
       182   2  6.065896E+05  2.664667E+04  2.593115E+04 -5.425375E+04  5.127970E+03 -5.431968E+03
       182   3  7.385501E+05  5.886271E+04  5.581975E+04 -8.317188E+04  4.224229E+03 -1.267889E+04
       182   4  4.978525E+05  1.660449E+02  1.401758E+03 -8.307377E+04 -2.353905E+02  1.823514E+03
       182   5  4.978384E+05  8.627283E+01  1.812584E+03 -5.421739E+04 -1.139353E+03 -5.425201E+03
       182   6  4.978440E+05  1.543032E+02  2.814852E+03 -8.307374E+04 -2.042268E+03 -1.267250E+04
       182   7  5.210383E+05  5.754116E+03  6.169400E+03 -8.309979E+04 -6.503582E+03  1.830731E+03
       182   8  3.890983E+05 -2.647490E+04 -2.230657E+04 -5.418103E+04 -7.405591E+03 -5.418434E+03
       182   9  2.571921E+05 -5.855797E+04 -5.019345E+04 -8.297562E+04 -8.306368E+03 -1.266612E+04
       182  10  4.746672E+05 -5.422052E+03 -3.365840E+03 -8.304775E+04 -9.003630E-11  6.832204E-10
       182  11  6.065896E+05  2.664663E+04  2.593105E+04 -5.425373E+04  4.729971E-10  1.174367E-09
       182  12  7.385501E+05  5.886253E+04  5.581941E+04 -8.317184E+04  5.653041E-10 -7.330211E-10
       182  13  4.978525E+05  1.660413E+02  1.401751E+03 -8.307377E+04 -8.090862E-10 -1.809070E-10
       182  14  4.978384E+05  8.624087E+01  1.812527E+03 -5.421740E+04 -5.433795E-10 -8.026573E-10
       182  15  4.978440E+05  1.541295E+02  2.814542E+03 -8.307376E+04 -6.882970E-10  3.615417E-10
       182  16  5.210383E+05  5.754101E+03  6.169314E+03 -8.309978E+04  2.588792E-10 -4.026232E-10
       182  17  3.890982E+05 -2.647495E+04 -2.230673E+04 -5.418106E+04 -5.463391E-10 -5.791770E-10
       182  18  2.571920E+05 -5.855816E+04 -5.019388E+04 -8.297570E+04 -3.573028E-10  4.169618E-10
       182  19  4.746672E+05 -5.422039E+03 -3.365766E+03 -8.304774E+04 -6.032572E+03 -1.816297E+03
       182  20  6.065896E+05  2.664667E+04  2.593115E+04 -5.425375E+04 -5.127970E+03  5.431968E+03
       182  21  7.385501E+05  5.886271E+04  5.581975E+04 -8.317188E+04 -4.224229E+03  1.267889E+04
       182  22  4.978525E+05  1.660449E+02  1.401758E+03 -8.307377E+04  2.353905E+02 -1.823514E+03
       182  23  4.978384E+05  8.627283E+01  1.812584E+03 -5.421739E+04  1.139353E+03  5.425201E+03
       182  24  4.978440E+05  1.543032E+02  2.814852E+03 -8.307374E+04  2.042268E+03  1.267250E+04
       182  25  5.210383E+05  5.754116E+03  6.169400E+03 -8.309979E+04  6.503582E+03 -1.830731E+03
       182  26  3.890983E+05 -2.647490E+04 -2.230657E+04 -5.418103E+04  7.405591E+03  5.418434E+03
       182  27  2.571921E+05 -5.855797E+04 -5.019345E+04 -8.297562E+04  8.306368E+03  1.266612E+04
       183   1  8.500037E+05  8.613757E+04  8.204939E+04 -8.316828E+04  3.664752E+03 -1.690693E+04
       183   2  9.819328E+05  1.181992E+05  1.134890E+05 -5.431035E+04  5.724056E+02 -2.414750E+04
       183   3  1.114458E+06  1.510132E+05  1.471210E+05 -8.327185E+04 -2.515847E+03 -3.132425E+04
       183   4  4.979513E+05  9.391276E+01  3.612183E+03 -8.309820E+04 -2.627224E+03 -1.690123E+04
       183   5  4.976470E+05 -5.293693E+01  6.103429E+03 -5.418686E+04 -5.662807E+03 -2.414374E+04
       183   6  4.979136E+05  5.443577E+02  1.074967E+04 -8.309769E+04 -8.693655E+03 -3.132234E+04
       183   7  1.460145E+05 -8.595812E+04 -7.483263E+04 -8.302813E+04 -8.915675E+03 -1.689553E+04
       183   8  1.357987E+04 -1.183209E+05 -1.012966E+05 -5.406341E+04 -1.189322E+04 -2.413998E+04
       183   9 -1.182765E+05 -1.499501E+05 -1.256450E+05 -8.292364E+04 -1.486540E+04 -3.132042E+04
       183  10  8.500036E+05  8.613726E+04  8.204883E+04 -8.316823E+04  6.043140E-10 -7.675944E-10
       183  11  9.819326E+05  1.181986E+05  1.134879E+05 -5.431033E+04  1.152656E-09  2.057251E-11
       183  12  1.114458E+06  1.510122E+05  1.471191E+05 -8.327191E+04 -8.373088E-10  4.716458E-10
       183  13  4.979513E+05  9.360409E+01  3.611633E+03 -8.309824E+04 -8.616159E-10  4.204360E-10
       183  14  4.976468E+05 -5.357164E+01  6.102273E+03 -5.418697E+04  1.917902E-10 -4.486832E-10
       183  15  4.979132E+05  5.432836E+02  1.074768E+04 -8.309791E+04  1.431124E-10 -6.925447E-11
       183  16  1.460143E+05 -8.595845E+04 -7.483332E+04 -8.302825E+04 -7.065160E-10  5.752277E-10
       183  17  1.357956E+04 -1.183215E+05 -1.012980E+05 -5.406364E+04 -5.067076E-10  9.186962E-10
       183  18 -1.182770E+05 -1.499512E+05 -1.256472E+05 -8.292401E+04  7.586079E-10 -3.399265E-11
       183  19  8.500037E+05  8.613757E+04  8.204939E+04 -8.316828E+04 -3.664752E+03  1.690693E+04
       183  20  9.819328E+05  1.181992E+05  1.134890E+05 -5.431035E+04 -5.724056E+02  2.414750E+04
       183  21  1.114458E+06  1.510132E+05  1.471210E+05 -8.327185E+04  2.515847E+03  3.132425E+04
       183  22  4.979513E+05  9.391276E+01  3.612183E+03 -8.309820E+04  2.627224E+03  1.690123E+04
       183  23  4.976470E+05 -5.293693E+01  6.103429E+03 -5.418686E+04  5.662807E+03  2.414374E+04
       183  24  4.979136E+05  5.443577E+02  1.074967E+04 -8.309769E+04  8.693655E+03  3.132234E+04
       183  25  1.460145E+05 -8.595812E+04 -7.483263E+04 -8.302813E+04  8.915675E+03  1.689553E+04
       183  26  1.357987E+04 -1.183209E+05 -1.012966E+05 -5.406341E+04  1.189322E+04  2.413998E+04
       183  27 -1.182765E+05 -1.499501E+05 -1.256450E+05 -8.292364E+04  1.486540E+04  3.132042E+04
       184   1  1.227068E+06  1.772859E+05  1.758087E+05 -8.152701E+04 -4.212700E+03 -3.571153E+04
       184   2  1.357531E+06  2.096617E+05  2.151869E+05 -5.507338E+04 -1.774330E+04 -4.262118E+04
       184   3  1.492750E+06  2.528873E+05  2.661292E+05 -8.663163E+04 -3.126897E+04 -4.794112E+04
       184   4  4.987544E+05 -5.911125E+02  1.400243E+04 -8.314150E+04 -1.087657E+04 -3.571096E+04
       184   5  4.964647E+05 -5.789186E+02  2.413086E+04 -5.413249E+04 -2.301640E+04 -4.262435E+04
       184   6  4.986838E+05  1.005289E+04  4.487155E+04 -8.313980E+04 -3.514848E+04 -4.794707E+04
       184   7 -2.290655E+05 -1.785040E+05 -1.478367E+05 -8.475399E+04 -1.753271E+04 -3.571035E+04
       184   8 -3.639112E+05 -2.108695E+05 -1.669712E+05 -5.319286E+04 -2.828226E+04 -4.262754E+04
       184   9 -4.944631E+05 -2.328483E+05 -1.764477E+05 -7.965357E+04 -3.902182E+04 -4.795308E+04
       184  10  1.227068E+06  1.772846E+05  1.758063E+05 -8.152713E+04 -8.226790E-10  5.862849E-10
       184  11  1.357530E+06  2.096596E+05  2.151829E+05 -5.507399E+04 -3.620195E-11 -1.054575E-10
       184  12  1.492749E+06  2.528846E+05  2.661230E+05 -8.663283E+04  1.641647E-10 -4.116427E-10
       184  13  4.987539E+05 -5.925140E+02  1.399981E+04 -8.314182E+04 -2.250373E-09  3.369720E-10
       184  14  4.964636E+05 -5.810122E+02  2.412645E+04 -5.413328E+04 -1.243458E-09  5.284205E-11
       184  15  4.986818E+05  1.005009E+04  4.486491E+04 -8.314116E+04  6.307245E-10 -3.360941E-10
       184  16 -2.290662E+05 -1.785054E+05 -1.478397E+05 -8.475449E+04 -6.644438E-10  1.095039E-10
       184  17 -3.639125E+05 -2.108717E+05 -1.669761E+05 -5.319383E+04  7.638415E-10  8.992577E-11
       184  18 -4.944653E+05 -2.328512E+05 -1.764549E+05 -7.965508E+04 -3.262282E-10 -3.182990E-10
       184  19  1.227068E+06  1.772859E+05  1.758087E+05 -8.152701E+04  4.212700E+03  3.571153E+04
       184  20  1.357531E+06  2.096617E+05  2.151869E+05 -5.507338E+04  1.774330E+04  4.262118E+04
       184  21  1.492750E+06  2.528873E+05  2.661292E+05 -8.663163E+04  3.126897E+04  4.794112E+04
       184  22  4.987544E+05 -5.911125E+02  1.400243E+04 -8.314150E+04  1.087657E+04  3.571096E+04
       184  23  4.964647E+05 -5.789186E+02  2.413086E+04 -5.413249E+04  2.301640E+04  4.262435E+04
       184  24  4.986838E+05  1.005289E+04  4.487155E+04 -8.313980E+04  3.514848E+04  4.794707E+04
       184  25 -2.290655E+05 -1.785040E+05 -1.478367E+05 -8.475399E+04  1.753271E+04  3.571035E+04
       184  26 -3.639112E+05 -2.108695E+05 -1.669712E+05 -5.319286E+04  2.828226E+04  4.262754E+04
       184  27 -4.944631E+05 -2.328483E+05 -1.764477E+05 -7.965357E+04  3.902182E+04  4.795308E+04
       185   1  1.615973E+06  2.610487E+05  3.014470E+05 -5.721911E+04 -2.863256E+04 -5.563252E+04
       185   2  1.722362E+06  2.994321E+05  3.737487E+05 -8.113369E+04 -1.103077E+05 -5.462562E+04
       185   3  1.884275E+06  5.147403E+05  5.435070E+05 -1.621238E+05 -1.920496E+05 -1.772565E+04
       185   4  5.087930E+05 -9.168529E+03  5.628646E+04 -8.288966E+04 -4.321690E+04 -5.564265E+04
       185   5  4.836222E+05 -3.668225E+03  9.516570E+04 -5.443549E+04 -9.372950E+04 -5.462591E+04
       185   6  5.086589E+05  1.735353E+05  2.099961E+05 -8.304818E+04 -1.442870E+05 -1.769781E+04
       185   7 -5.972434E+05 -2.794657E+05 -1.889488E+05 -1.085140E+05 -5.777552E+04 -5.565159E+04
       185   8 -7.536915E+05 -3.068706E+05 -1.835135E+05 -2.779117E+04 -7.718386E+04 -5.462478E+04
       185   9 -8.652147E+05 -1.677834E+05 -1.236393E+05 -4.148256E+03 -9.662946E+04 -1.765783E+04
       185  10  1.615972E+06  2.610451E+05  3.014397E+05 -5.722039E+04 -4.945570E-10 -6.134023E-11
       185  11  1.722349E+06  2.994257E+05  3.737202E+05 -8.113854E+04  9.824802E-10  6.521351E-11
       185  12  1.884236E+06  5.147301E+05  5.434373E+05 -1.621265E+05  3.995777E-10 -1.845342E-10
       185  13  5.087902E+05 -9.172356E+03  5.627714E+04 -8.289160E+04  8.314790E-10  1.463503E-10
       185  14  4.836120E+05 -3.673786E+03  9.514360E+04 -5.443961E+04  9.426933E-10  1.324738E-09
       185  15  5.086365E+05  1.735294E+05  2.099564E+05 -8.305023E+04  3.042165E-10 -8.472021E-11
       185  16 -5.972479E+05 -2.794700E+05 -1.889609E+05 -1.085166E+05  5.038465E-10 -2.611132E-10
       185  17 -7.536987E+05 -3.068754E+05 -1.835303E+05 -2.779456E+04 -8.860068E-10  1.221058E-10
       185  18 -8.652248E+05 -1.677862E+05 -1.236575E+05 -4.149631E+03 -1.138632E-10 -3.695773E-10
       185  19  1.615973E+06  2.610487E+05  3.014470E+05 -5.721911E+04  2.863256E+04  5.563252E+04
       185  20  1.722362E+06  2.994321E+05  3.737487E+05 -8.113369E+04  1.103077E+05  5.462562E+04
       185  21  1.884275E+06  5.147403E+05  5.435070E+05 -1.621238E+05  1.920496E+05  1.772565E+04
       185  22  5.087930E+05 -9.168529E+03  5.628646E+04 -8.288966E+04  4.321690E+04  5.564265E+04
       185  23  4.836222E+05 -3.668225E+03  9.516570E+04 -5.443549E+04  9.372950E+04  5.462591E+04
       185  24  5.086589E+05  1.735353E+05  2.099961E+05 -8.304818E+04  1.442870E+05  1.769781E+04
       185  25 -5.972434E+05 -2.794657E+05 -1.889488E+05 -1.085140E+05  5.777552E+04  5.565159E+04
       185  26 -7.536915E+05 -3.068706E+05 -1.835135E+05 -2.779117E+04  7.718386E+04  5.462478E+04
       185  27 -8.652147E+05 -1.677834E+05 -1.236393E+05 -4.148256E+03  9.662946E+04  1.765783E+04
       186   1  3.079052E+05  1.074609E+06  3.214434E+05 -2.558835E+05  8.380652E+03  9.360337E+04
       186   2  1.307566E+05  7.186099E+05  1.716022E+05 -1.546652E+05  2.153339E+04  4.511356E+04
       186   3  4.495000E+04  3.911158E+05  7.597422E+04 -2.016383E+05  9.025063E+03 -3.409391E+03
       186   4  8.863986E+04  1.939754E+05  1.062556E+05 -2.137485E+05  8.442359E+03  7.117920E+04
       186   5 -1.046640E+03  1.817365E+05  4.961923E+04 -1.397671E+05  2.153621E+04  4.492159E+04
       186   6 -3.190357E+03  1.940872E+05  3.182170E+04 -2.139701E+05  8.963204E+03  1.860398E+04
       186   7 -1.306760E+05 -6.859479E+05 -1.089860E+05 -1.716728E+05  8.501077E+03  4.878666E+04
       186   8 -1.328690E+05 -3.548692E+05 -7.238226E+04 -1.248818E+05  2.153901E+04  4.472977E+04
       186   9 -5.133251E+04 -2.903874E+03 -1.233137E+04 -2.262979E+05  8.900460E+03  4.061045E+04
       186  10  3.079027E+05  1.074600E+06  3.214268E+05 -2.558841E+05  7.415900E-11  1.674637E-09
       186  11  1.307555E+05  7.186076E+05  1.715975E+05 -1.546659E+05 -1.591127E-09 -2.208333E-09
       186  12  4.494991E+04  3.911158E+05  7.597404E+04 -2.016383E+05 -7.702856E-10 -7.951370E-09
       186  13  8.863843E+04  1.939699E+05  1.062459E+05 -2.137490E+05  1.003926E-09 -5.387889E-10
       186  14 -1.047680E+03  1.817342E+05  4.961457E+04 -1.397678E+05  4.691260E-11 -5.639907E-10
       186  15 -3.190536E+03  1.940868E+05  3.182090E+04 -2.139702E+05 -3.474864E-10 -1.298728E-09
       186  16 -1.306767E+05 -6.859505E+05 -1.089906E+05 -1.716731E+05  3.569434E-10 -1.571732E-09
       186  17 -1.328700E+05 -3.548715E+05 -7.238690E+04 -1.248826E+05  2.623684E-09  2.482078E-09
       186  18 -5.133304E+04 -2.905666E+03 -1.233462E+04 -2.262982E+05 -5.450143E-10  8.194722E-09
       186  19  3.079052E+05  1.074609E+06  3.214434E+05 -2.558835E+05 -8.380652E+03 -9.360337E+04
       186  20  1.307566E+05  7.186099E+05  1.716022E+05 -1.546652E+05 -2.153339E+04 -4.511356E+04
       186  21  4.495000E+04  3.911158E+05  7.597422E+04 -2.016383E+05 -9.025063E+03  3.409391E+03
       186  22  8.863986E+04  1.939754E+05  1.062556E+05 -2.137485E+05 -8.442359E+03 -7.117920E+04
       186  23 -1.046640E+03  1.817365E+05  4.961923E+04 -1.397671E+05 -2.153621E+04 -4.492159E+04
       186  24 -3.190357E+03  1.940872E+05  3.182170E+04 -2.139701E+05 -8.963204E+03 -1.860398E+04
       186  25 -1.306760E+05 -6.859479E+05 -1.089860E+05 -1.716728E+05 -8.501077E+03 -4.878666E+04
       186  26 -1.328690E+05 -3.548692E+05 -7.238226E+04 -1.248818E+05 -2.153901E+04 -4.472977E+04
       186  27 -5.133251E+04 -2.903874E+03 -1.233137E+04 -2.262979E+05 -8.900460E+03 -4.061045E+04
       187   1 -1.626475E+04  9.764414E+04  6.925540E+03 -2.164099E+05 -4.567274E+03 -1.201482E+03
       187   2 -1.055658E+05 -2.452584E+05 -7.582505E+04 -1.388377E+05 -2.139746E+04 -1.065381E+04
       187   3 -1.853059E+05 -5.852133E+05 -1.502320E+05 -2.105417E+05 -3.725686E+04 -2.008885E+04
       187   4  6.112929E+03  1.892915E+05  2.725986E+04 -2.141478E+05 -4.609695E+03  1.378402E+04
       187   5  2.848916E+02  1.877571E+05  2.038166E+04 -1.395162E+05 -2.143345E+04  3.486506E+03
       187   6  4.169034E+03  1.892067E+05  2.243758E+04 -2.141528E+05 -3.728705E+04 -6.798744E+03
       187   7  2.849019E+04  2.809472E+05  4.759450E+04 -2.118854E+05 -4.652003E+03  2.877172E+04
       187   8  1.061230E+05  6.209479E+05  1.165774E+05 -1.401951E+05 -2.146945E+04  1.763658E+04
       187   9  1.936034E+05  9.641865E+05  1.950703E+05 -2.177681E+05 -3.731738E+04  6.507772E+03
       187  10 -1.626478E+04  9.764413E+04  6.925498E+03 -2.164099E+05 -1.663157E-09  6.981512E-09
       187  11 -1.055663E+05 -2.452586E+05 -7.582613E+04 -1.388379E+05 -9.296369E-10  4.731418E-09
       187  12 -1.853075E+05 -5.852141E+05 -1.502354E+05 -2.105423E+05 -4.879708E-10 -1.900027E-09
       187  13  6.112856E+03  1.892913E+05  2.725946E+04 -2.141477E+05 -1.033898E-09 -6.687892E-10
       187  14  2.843950E+02  1.877569E+05  2.038077E+04 -1.395162E+05  1.287593E-10 -6.265400E-10
       187  15  4.167528E+03  1.892063E+05  2.243488E+04 -2.141530E+05 -5.334823E-10 -1.225006E-09
       187  16  2.848994E+04  2.809463E+05  4.759291E+04 -2.118853E+05 -1.357289E-09 -6.988912E-09
       187  17  1.061224E+05  6.209474E+05  1.165760E+05 -1.401948E+05 -2.127915E-09 -4.640072E-09
       187  18  1.936019E+05  9.641861E+05  1.950676E+05 -2.177679E+05 -5.953422E-10  2.056504E-09
       187  19 -1.626475E+04  9.764414E+04  6.925540E+03 -2.164099E+05  4.567274E+03  1.201482E+03
       187  20 -1.055658E+05 -2.452584E+05 -7.582505E+04 -1.388377E+05  2.139746E+04  1.065381E+04
       187  21 -1.853059E+05 -5.852133E+05 -1.502320E+05 -2.105417E+05  3.725686E+04  2.008885E+04
       187  22  6.112929E+03  1.892915E+05  2.725986E+04 -2.141478E+05  4.609695E+03 -1.378402E+04
       187  23  2.848916E+02  1.877571E+05  2.038166E+04 -1.395162E+05  2.143345E+04 -3.486506E+03
       187  24  4.169034E+03  1.892067E+05  2.243758E+04 -2.141528E+05  3.728705E+04  6.798744E+03
       187  25  2.849019E+04  2.809472E+05  4.759450E+04 -2.118854E+05  4.652003E+03 -2.877172E+04
       187  26  1.061230E+05  6.209479E+05  1.165774E+05 -1.401951E+05  2.146945E+04 -1.763658E+04
       187  27  1.936034E+05  9.641865E+05  1.950703E+05 -2.177681E+05  3.731738E+04 -6.507772E+03
       188   1 -2.620504E+05 -8.709249E+05 -2.114317E+05 -2.208416E+05 -5.280200E+04 -3.778647E+04
       188   2 -3.449990E+05 -1.218376E+06 -2.809574E+05 -1.284743E+05 -6.047057E+04 -1.557083E+04
       188   3 -3.734270E+05 -1.554737E+06 -3.512947E+05 -1.835969E+05 -2.056511E+04  6.694758E+03
       188   4 -2.091118E+03  1.924394E+05  2.475832E+04 -2.137797E+05 -5.285936E+04 -1.070538E+04
       188   5 -1.123788E+03  1.832626E+05  3.565055E+04 -1.399994E+05 -6.043562E+04 -2.955886E+04
       188   6  6.143494E+04  1.921605E+05  7.424035E+04 -2.136798E+05 -2.048717E+04 -4.835031E+04
       188   7  2.577922E+05  1.256861E+06  2.608808E+05 -2.067048E+05 -5.291605E+04  1.642164E+04
       188   8  3.426170E+05  1.586730E+06  3.521333E+05 -1.515498E+05 -6.040021E+04 -4.357814E+04
       188   9  4.960767E+05  1.941854E+06  4.995657E+05 -2.438463E+05 -2.040402E+04 -1.035500E+05
       188  10 -2.620537E+05 -8.709272E+05 -2.114396E+05 -2.208432E+05 -6.313676E-10  5.776210E-10
       188  11 -3.450030E+05 -1.218378E+06 -2.809647E+05 -1.284750E+05  1.173826E-09  1.403976E-09
       188  12 -3.734274E+05 -1.554737E+06 -3.512956E+05 -1.835968E+05  2.986702E-10 -4.857946E-10
       188  13 -2.094150E+03  1.924385E+05  2.475285E+04 -2.137802E+05  3.197258E-10 -4.749489E-10
       188  14 -1.127945E+03  1.832607E+05  3.564204E+04 -1.400008E+05  7.972104E-11 -3.827500E-10
       188  15  6.143386E+04  1.921579E+05  7.423517E+04 -2.136806E+05  3.173435E-10 -5.783239E-10
       188  16  2.577892E+05  1.256860E+06  2.608750E+05 -2.067041E+05 -1.483877E-09 -4.960599E-10
       188  17  3.426125E+05  1.586727E+06  3.521229E+05 -1.515520E+05  3.216663E-10 -1.350711E-09
       188  18  4.960734E+05  1.941843E+06  4.995448E+05 -2.438480E+05  5.676895E-10  3.510648E-10
       188  19 -2.620504E+05 -8.709249E+05 -2.114317E+05 -2.208416E+05  5.280200E+04  3.778647E+04
       188  20 -3.449990E+05 -1.218376E+06 -2.809574E+05 -1.284743E+05  6.047057E+04  1.557083E+04
       188  21 -3.734270E+05 -1.554737E+06 -3.512947E+05 -1.835969E+05  2.056511E+04 -6.694758E+03
       188  22 -2.091118E+03  1.924394E+05  2.475832E+04 -2.137797E+05  5.285936E+04  1.070538E+04
       188  23 -1.123788E+03  1.832626E+05  3.565055E+04 -1.399994E+05  6.043562E+04  2.955886E+04
       188  24  6.143494E+04  1.921605E+05  7.424035E+04 -2.136798E+05  2.048717E+04  4.835031E+04
       188  25  2.577922E+05  1.256861E+06  2.608808E+05 -2.067048E+05  5.291605E+04 -1.642164E+04
       188  26  3.426170E+05  1.586730E+06  3.521333E+05 -1.515498E+05  6.040021E+04  4.357814E+04
       188  27  4.960767E+05  1.941854E+06  4.995657E+05 -2.438463E+05  2.040402E+04  1.035500E+05
       189   1 -2.825137E+06 -1.061421E+06 -6.567299E+05 -1.025975E+06 -2.705611E+05 -8.413705E+04
       189   2 -2.726962E+06 -6.784889E+05 -4.096473E+05 -1.006121E+06 -1.752667E+05 -1.049734E+04
       189   3 -2.717415E+06 -6.043680E+05 -3.191569E+05 -9.498593E+05 -6.789024E+04  3.116848E+04
       189   4 -1.781733E+06 -5.498522E+05 -3.539687E+05 -6.207992E+05 -2.313014E+05 -6.940050E+04
       189   5 -1.720707E+06 -2.628675E+05 -1.526283E+05 -6.898600E+05 -1.616568E+05 -5.392290E+03
       189   6 -1.743033E+06 -2.793405E+05 -8.731117E+04 -7.225669E+05 -7.995181E+04  2.662984E+04
       189   7 -7.372275E+05 -3.797444E+04 -5.130443E+04 -2.149287E+05 -1.919687E+05 -5.461767E+04
       189   8 -7.134469E+05  1.528853E+05  1.043086E+05 -3.731087E+05 -1.480226E+05 -2.758983E+02
       189   9 -7.677171E+05  4.570567E+04  1.444670E+05 -4.949706E+05 -9.203402E+04  2.208535E+04
       189  10 -2.825218E+06 -1.061448E+06 -6.568816E+05 -1.025994E+06  2.488667E-10 -2.308538E-10
       189  11 -2.726995E+06 -6.784973E+05 -4.097055E+05 -1.006123E+06 -1.238709E-09 -3.946165E-10
       189  12 -2.717421E+06 -6.043703E+05 -3.191674E+05 -9.498576E+05 -1.312499E-09 -2.969428E-10
       189  13 -1.781791E+06 -5.498718E+05 -3.540787E+05 -6.208122E+05  8.207978E-10 -1.031883E-09
       189  14 -1.720735E+06 -2.628746E+05 -1.526776E+05 -6.898607E+05 -1.158889E-10 -6.556953E-10
       189  15 -1.743040E+06 -2.793430E+05 -8.732453E+04 -7.225652E+05  9.659688E-10 -4.991779E-11
       189  16 -7.372680E+05 -3.798755E+04 -5.137939E+04 -2.149372E+05 -7.714863E-10  4.797748E-11
       189  17 -7.134704E+05  1.528794E+05  1.042674E+05 -3.731087E+05  9.275297E-10  2.329155E-10
       189  18 -7.677263E+05  4.570287E+04  1.444502E+05 -4.949690E+05  4.110022E-10  8.652178E-10
       189  19 -2.825137E+06 -1.061421E+06 -6.567299E+05 -1.025975E+06  2.705611E+05  8.413705E+04
       189  20 -2.726962E+06 -6.784889E+05 -4.096473E+05 -1.006121E+06  1.752667E+05  1.049734E+04
       189  21 -2.717415E+06 -6.043680E+05 -3.191569E+05 -9.498593E+05  6.789024E+04 -3.116848E+04
       189  22 -1.781733E+06 -5.498522E+05 -3.539687E+05 -6.207992E+05  2.313014E+05  6.940050E+04
       189  23 -1.720707E+06 -2.628675E+05 -1.526283E+05 -6.898600E+05  1.616568E+05  5.392290E+03
       189  24 -1.743033E+06 -2.793405E+05 -8.731117E+04 -7.225669E+05  7.995181E+04 -2.662984E+04
       189  25 -7.372275E+05 -3.797444E+04 -5.130443E+04 -2.149287E+05  1.919687E+05  5.461767E+04
       189  26 -7.134469E+05  1.528853E+05  1.043086E+05 -3.731087E+05  1.480226E+05  2.758983E+02
       189  27 -7.677171E+05  4.570567E+04  1.444670E+05 -4.949706E+05  9.203402E+04 -2.208535E+04
       190   1 -2.590820E+06 -6.349730E+05 -2.824061E+05 -9.477948E+05 -6.386398E+04  2.531375E+04
       190   2 -2.510069E+06 -5.620930E+05 -2.244247E+05 -9.051441E+05 -4.325613E+04  2.888666E+04
       190   3 -2.406456E+06 -5.399233E+05 -1.857682E+05 -8.949579E+05 -2.207718E+04  3.093298E+04
       190   4 -1.731408E+06 -3.078833E+05 -6.948222E+04 -7.059529E+05 -6.624371E+04  2.441341E+04
       190   5 -1.741673E+06 -2.738024E+05 -3.542512E+04 -6.930280E+05 -4.684162E+04  2.753593E+04
       190   6 -1.728835E+06 -2.901743E+05 -1.971373E+04 -7.125701E+05 -2.687193E+04  2.913132E+04
       190   7 -8.712603E+05  1.926592E+04  1.433856E+05 -4.638016E+05 -6.862702E+04  2.351167E+04
       190   8 -9.726909E+05  1.453089E+04  1.535299E+05 -4.806713E+05 -5.043196E+04  2.618337E+04
       190   9 -1.050760E+06 -4.039688E+04  1.463061E+05 -5.300019E+05 -3.167241E+04  2.732758E+04
       190  10 -2.590825E+06 -6.349748E+05 -2.824150E+05 -9.477934E+05  1.075345E-09  1.528779E-10
       190  11 -2.510072E+06 -5.620944E+05 -2.244298E+05 -9.051431E+05 -1.185544E-10 -5.722625E-11
       190  12 -2.406457E+06 -5.399245E+05 -1.857709E+05 -8.949574E+05 -1.428712E-09 -8.336403E-10
       190  13 -1.731412E+06 -3.078852E+05 -6.949160E+04 -7.059516E+05 -7.272403E-10  5.208805E-10
       190  14 -1.741676E+06 -2.738038E+05 -3.543067E+04 -6.930270E+05 -2.157034E-09  2.432562E-10
       190  15 -1.728836E+06 -2.901754E+05 -1.971668E+04 -7.125695E+05 -2.815859E-09 -1.063670E-09
       190  16 -8.712655E+05  1.926407E+04  1.433757E+05 -4.638003E+05 -1.207503E-09  5.176593E-10
       190  17 -9.726938E+05  1.452947E+04  1.535239E+05 -4.806703E+05 -1.612418E-09  2.846282E-11
       190  18 -1.050761E+06 -4.039795E+04  1.463028E+05 -5.300012E+05 -3.947860E-09 -1.304343E-09
       190  19 -2.590820E+06 -6.349730E+05 -2.824061E+05 -9.477948E+05  6.386398E+04 -2.531375E+04
       190  20 -2.510069E+06 -5.620930E+05 -2.244247E+05 -9.051441E+05  4.325613E+04 -2.888666E+04
       190  21 -2.406456E+06 -5.399233E+05 -1.857682E+05 -8.949579E+05  2.207718E+04 -3.093298E+04
       190  22 -1.731408E+06 -3.078833E+05 -6.948222E+04 -7.059529E+05  6.624371E+04 -2.441341E+04
       190  23 -1.741673E+06 -2.738024E+05 -3.542512E+04 -6.930280E+05  4.684162E+04 -2.753593E+04
       190  24 -1.728835E+06 -2.901743E+05 -1.971373E+04 -7.125701E+05  2.687193E+04 -2.913132E+04
       190  25 -8.712603E+05  1.926592E+04  1.433856E+05 -4.638016E+05  6.862702E+04 -2.351167E+04
       190  26 -9.726909E+05  1.453089E+04  1.535299E+05 -4.806713E+05  5.043196E+04 -2.618337E+04
       190  27 -1.050760E+06 -4.039688E+04  1.463061E+05 -5.300019E+05  3.167241E+04 -2.732758E+04
       191   1 -2.318660E+06 -5.124090E+05 -1.597760E+05 -8.733490E+05 -1.844799E+04  2.845374E+04
       191   2 -2.237892E+06 -4.585545E+05 -1.293991E+05 -8.281168E+05 -1.223019E+04  2.453111E+04
       191   3 -2.125137E+06 -4.388384E+05 -1.024276E+05 -8.203906E+05 -5.976546E+03  2.050165E+04
       191   4 -1.727620E+06 -2.921218E+05 -1.504661E+04 -7.115859E+05 -2.283343E+04  2.680702E+04
       191   5 -1.743519E+06 -2.744754E+05 -8.147083E+03 -6.930444E+05 -1.669772E+04  2.285543E+04
       191   6 -1.727423E+06 -2.909493E+05 -4.584860E+03 -7.120110E+05 -1.052687E+04  1.879681E+04
       191   7 -1.136238E+06 -7.181190E+04  1.296556E+05 -5.496832E+05 -2.722342E+04  2.515861E+04
       191   8 -1.248905E+06 -9.037987E+04  1.130865E+05 -5.578740E+05 -2.116914E+04  2.117829E+04
       191   9 -1.329552E+06 -1.430490E+05  9.324645E+04 -6.035677E+05 -1.508040E+04  1.709078E+04
       191  10 -2.318661E+06 -5.124099E+05 -1.597781E+05 -8.733485E+05 -4.142295E-09 -1.548685E-09
       191  11 -2.237893E+06 -4.585551E+05 -1.294005E+05 -8.281165E+05 -1.250792E-09 -6.374446E-10
       191  12 -2.125137E+06 -4.388388E+05 -1.024285E+05 -8.203905E+05 -6.630915E-10 -4.538469E-10
       191  13 -1.727621E+06 -2.921227E+05 -1.504894E+04 -7.115854E+05 -3.895937E-09 -1.224724E-09
       191  14 -1.743520E+06 -2.744760E+05 -8.148587E+03 -6.930441E+05  1.016184E-09 -3.678048E-12
       191  15 -1.727424E+06 -2.909497E+05 -4.585732E+03 -7.120108E+05  1.128149E-09  6.981410E-10
       191  16 -1.136239E+06 -7.181278E+04  1.296530E+05 -5.496826E+05 -1.982669E-09 -8.803160E-10
       191  17 -1.248906E+06 -9.038047E+04  1.130848E+05 -5.578737E+05  6.717743E-10  3.831367E-10
       191  18 -1.329553E+06 -1.430494E+05  9.324547E+04 -6.035675E+05  2.901712E-10  4.753797E-10
       191  19 -2.318660E+06 -5.124090E+05 -1.597760E+05 -8.733490E+05  1.844799E+04 -2.845374E+04
       191  20 -2.237892E+06 -4.585545E+05 -1.293991E+05 -8.281168E+05  1.223019E+04 -2.453111E+04
       191  21 -2.125137E+06 -4.388384E+05 -1.024276E+05 -8.203906E+05  5.976546E+03 -2.050165E+04
       191  22 -1.727620E+06 -2.921218E+05 -1.504661E+04 -7.115859E+05  2.283343E+04 -2.680702E+04
       191  23 -1.743519E+06 -2.744754E+05 -8.147083E+03 -6.930444E+05  1.669772E+04 -2.285543E+04
       191  24 -1.727423E+06 -2.909493E+05 -4.584860E+03 -7.120110E+05  1.052687E+04 -1.879681E+04
       191  25 -1.136238E+06 -7.181190E+04  1.296556E+05 -5.496832E+05  2.722342E+04 -2.515861E+04
       191  26 -1.248905E+06 -9.037987E+04  1.130865E+05 -5.578740E+05  2.116914E+04 -2.117829E+04
       191  27 -1.329552E+06 -1.430490E+05  9.324645E+04 -6.035677E+05  1.508040E+04 -1.709078E+04
       192   1 -2.038601E+06 -4.069587E+05 -7.954545E+04 -7.970767E+05 -4.077930E+03  1.746540E+04
       192   2 -1.956900E+06 -3.536937E+05 -5.443156E+04 -7.511064E+05 -8.611013E+02  1.222734E+04
       192   3 -1.842042E+06 -3.338373E+05 -3.015796E+04 -7.433964E+05  2.361217E+03  6.969083E+03
       192   4 -1.727201E+06 -2.911449E+05 -3.537436E+03 -7.120390E+05 -8.628861E+03  1.576117E+04
       192   5 -1.743762E+06 -2.743936E+05 -2.177823E+03 -6.929229E+05 -5.427847E+03  1.051797E+04
       192   6 -1.727174E+06 -2.910473E+05 -1.645160E+03 -7.120697E+05 -2.221554E+03  5.254558E+03
       192   7 -1.415705E+06 -1.753245E+05  7.246335E+04 -6.269624E+05 -1.318229E+04  1.405601E+04
       192   8 -1.530580E+06 -1.950907E+05  5.007240E+04 -6.347213E+05 -9.996296E+03  8.807970E+03
       192   9 -1.612294E+06 -2.482566E+05  2.686655E+04 -6.807378E+05 -6.805230E+03  3.539695E+03
       192  10 -2.038601E+06 -4.069591E+05 -7.954605E+04 -7.970767E+05 -7.912819E-09 -3.485697E-09
       192  11 -1.956900E+06 -3.536939E+05 -5.443184E+04 -7.511064E+05 -3.108376E-09 -1.839678E-09
       192  12 -1.842042E+06 -3.338373E+05 -3.015806E+04 -7.433964E+05  5.930123E-09  1.017262E-09
       192  13 -1.727201E+06 -2.911452E+05 -3.538042E+03 -7.120389E+05 -2.901985E-10 -4.833221E-10
       192  14 -1.743762E+06 -2.743938E+05 -2.178086E+03 -6.929228E+05 -2.052416E-09 -1.590221E-09
       192  15 -1.727174E+06 -2.910473E+05 -1.645221E+03 -7.120697E+05 -1.131815E-09 -9.248674E-10
       192  16 -1.415705E+06 -1.753247E+05  7.246265E+04 -6.269622E+05  6.001357E-09  2.088982E-09
       192  17 -1.530580E+06 -1.950908E+05  5.007207E+04 -6.347212E+05 -2.192656E-09 -1.703849E-09
       192  18 -1.612294E+06 -2.482567E+05  2.686644E+04 -6.807378E+05 -8.494916E-09 -4.505935E-09
       192  19 -2.038601E+06 -4.069587E+05 -7.954545E+04 -7.970767E+05  4.077930E+03 -1.746540E+04
       192  20 -1.956900E+06 -3.536937E+05 -5.443156E+04 -7.511064E+05  8.611013E+02 -1.222734E+04
       192  21 -1.842042E+06 -3.338373E+05 -3.015796E+04 -7.433964E+05 -2.361217E+03 -6.969083E+03
       192  22 -1.727201E+06 -2.911449E+05 -3.537436E+03 -7.120390E+05  8.628861E+03 -1.576117E+04
       192  23 -1.743762E+06 -2.743936E+05 -2.177823E+03 -6.929229E+05  5.427847E+03 -1.051797E+04
       192  24 -1.727174E+06 -2.910473E+05 -1.645160E+03 -7.120697E+05  2.221554E+03 -5.254558E+03
       192  25 -1.415705E+06 -1.753245E+05  7.246335E+04 -6.269624E+05  1.318229E+04 -1.405601E+04
       192  26 -1.530580E+06 -1.950907E+05  5.007240E+04 -6.347213E+05  9.996296E+03 -8.807970E+03
       192  27 -1.612294E+06 -2.482566E+05  2.686655E+04 -6.807378E+05  6.805230E+03 -3.539695E+03
       193   1 -1.755035E+06 -3.013975E+05 -8.096853E+03 -7.197461E+05  3.872763E+03  3.763530E+03
       193   2 -1.673077E+06 -2.480784E+05  1.534920E+04 -6.736185E+05  6.976561E+03 -1.550232E+03
       193   3 -1.557877E+06 -2.282449E+05  3.804395E+04 -6.658689E+05  1.007810E+04 -6.855607E+03
       193   4 -1.727153E+06 -2.910690E+05 -1.611462E+03 -7.120939E+05 -7.144515E+02  2.047514E+03
       193   5 -1.743775E+06 -2.743535E+05 -1.975749E+03 -6.928927E+05  2.395495E+03 -3.264249E+03
       193   6 -1.727166E+06 -2.911268E+05 -3.096436E+03 -7.120743E+05  5.502995E+03 -8.567642E+03
       193   7 -1.699271E+06 -2.807403E+05  4.874003E+03 -7.044414E+05 -5.301912E+03  3.314057E+02
       193   8 -1.814468E+06 -3.006284E+05 -1.930104E+04 -7.121649E+05 -2.185012E+03 -4.978059E+03
       193   9 -1.896427E+06 -3.540068E+05 -4.423888E+04 -7.582683E+05  9.292511E+02 -1.027917E+04
       193  10 -1.755035E+06 -3.013975E+05 -8.096908E+03 -7.197461E+05 -1.578816E-10 -1.041602E-10
       193  11 -1.673077E+06 -2.480784E+05  1.534910E+04 -6.736185E+05 -5.019355E-10 -4.516456E-10
       193  12 -1.557877E+06 -2.282450E+05  3.804367E+04 -6.658689E+05  2.515855E-13  1.075968E-10
       193  13 -1.727154E+06 -2.910690E+05 -1.611471E+03 -7.120939E+05  3.820339E-10 -8.109631E-10
       193  14 -1.743775E+06 -2.743535E+05 -1.975780E+03 -6.928927E+05 -9.170495E-10  1.643102E-09
       193  15 -1.727166E+06 -2.911269E+05 -3.096631E+03 -7.120743E+05 -1.674167E-09  6.947443E-11
       193  16 -1.699271E+06 -2.807404E+05  4.873950E+03 -7.044414E+05 -1.035741E-09 -7.783195E-10
       193  17 -1.814468E+06 -3.006284E+05 -1.930109E+04 -7.121649E+05 -9.955144E-10  8.727175E-10
       193  18 -1.896427E+06 -3.540069E+05 -4.423908E+04 -7.582682E+05 -1.161645E-09  5.818775E-10
       193  19 -1.755035E+06 -3.013975E+05 -8.096853E+03 -7.197461E+05 -3.872763E+03 -3.763530E+03
       193  20 -1.673077E+06 -2.480784E+05  1.534920E+04 -6.736185E+05 -6.976561E+03  1.550232E+03
       193  21 -1.557877E+06 -2.282449E+05  3.804395E+04 -6.658689E+05 -1.007810E+04  6.855607E+03
       193  22 -1.727153E+06 -2.910690E+05 -1.611462E+03 -7.120939E+05  7.144515E+02 -2.047514E+03
       193  23 -1.743775E+06 -2.743535E+05 -1.975749E+03 -6.928927E+05 -2.395495E+03  3.264249E+03
       193  24 -1.727166E+06 -2.911268E+05 -3.096436E+03 -7.120743E+05 -5.502995E+03  8.567642E+03
       193  25 -1.699271E+06 -2.807403E+05  4.874003E+03 -7.044414E+05  5.301912E+03 -3.314057E+02
       193  26 -1.814468E+06 -3.006284E+05 -1.930104E+04 -7.121649E+05  2.185012E+03  4.978059E+03
       193  27 -1.896427E+06 -3.540068E+05 -4.423888E+04 -7.582683E+05 -9.292511E+02  1.027917E+04
       194   1 -1.471195E+06 -1.958369E+05  5.911318E+04 -6.423758E+05  1.190295E+04 -9.938799E+03
       194   2 -1.389816E+06 -1.427713E+05  7.968912E+04 -5.963656E+05  1.745550E+04 -1.427919E+04
       194   3 -1.276089E+06 -1.239133E+05  9.743070E+04 -5.882381E+05  2.297919E+04 -1.853151E+04
       194   4 -1.727334E+06 -2.909863E+05 -3.983515E+03 -7.120823E+05  7.321663E+03 -1.165365E+04
       194   5 -1.743579E+06 -2.743703E+05 -7.015405E+03 -6.929580E+05  1.294231E+04 -1.596989E+04
       194   6 -1.727498E+06 -2.919779E+05 -1.293656E+04 -7.117217E+05  1.853351E+04 -2.019823E+04
       194   7 -1.983408E+06 -3.861309E+05 -6.708482E+04 -7.817624E+05  2.742465E+03 -1.336772E+04
       194   8 -2.097217E+06 -4.059609E+05 -9.372933E+04 -7.895004E+05  8.431932E+03 -1.765954E+04
       194   9 -2.178706E+06 -4.600294E+05 -1.233197E+05 -8.351240E+05  1.409134E+04 -2.186363E+04
       194  10 -1.471195E+06 -1.958370E+05  5.911273E+04 -6.423757E+05 -1.137958E-09 -2.229835E-10
       194  11 -1.389817E+06 -1.427716E+05  7.968816E+04 -5.963654E+05 -6.289276E-10 -2.157376E-11
       194  12 -1.276090E+06 -1.239138E+05  9.742906E+04 -5.882378E+05 -6.167547E-10 -1.938288E-10
       194  13 -1.727334E+06 -2.909864E+05 -3.983871E+03 -7.120822E+05 -1.118115E-09  3.647177E-11
       194  14 -1.743579E+06 -2.743706E+05 -7.016198E+03 -6.929579E+05 -1.496515E-09  1.433033E-10
       194  15 -1.727498E+06 -2.919784E+05 -1.293797E+04 -7.117214E+05 -1.305527E-10 -5.284052E-10
       194  16 -1.983408E+06 -3.861311E+05 -6.708517E+04 -7.817623E+05  7.925953E-11  4.557455E-10
       194  17 -2.097217E+06 -4.059612E+05 -9.373005E+04 -7.895003E+05  7.607202E-10  4.798637E-10
       194  18 -2.178707E+06 -4.600299E+05 -1.233210E+05 -8.351237E+05  4.323335E-10  1.021396E-11
       194  19 -1.471195E+06 -1.958369E+05  5.911318E+04 -6.423758E+05 -1.190295E+04  9.938799E+03
       194  20 -1.389816E+06 -1.427713E+05  7.968912E+04 -5.963656E+05 -1.745550E+04  1.427919E+04
       194  21 -1.276089E+06 -1.239133E+05  9.743070E+04 -5.882381E+05 -2.297919E+04  1.853151E+04
       194  22 -1.727334E+06 -2.909863E+05 -3.983515E+03 -7.120823E+05 -7.321663E+03  1.165365E+04
       194  23 -1.743579E+06 -2.743703E+05 -7.015405E+03 -6.929580E+05 -1.294231E+04  1.596989E+04
       194  24 -1.727498E+06 -2.919779E+05 -1.293656E+04 -7.117217E+05 -1.853351E+04  2.019823E+04
       194  25 -1.983408E+06 -3.861309E+05 -6.708482E+04 -7.817624E+05 -2.742465E+03  1.336772E+04
       194  26 -2.097217E+06 -4.059609E+05 -9.372933E+04 -7.895004E+05 -8.431932E+03  1.765954E+04
       194  27 -2.178706E+06 -4.600294E+05 -1.233197E+05 -8.351240E+05 -1.409134E+04  2.186363E+04
       195   1 -1.189745E+06 -9.214563E+04  1.149988E+05 -5.678592E+05  2.700356E+04 -2.088442E+04
       195   2 -1.110395E+06 -3.705079E+04  1.247754E+05 -5.186364E+05  4.339433E+04 -2.075892E+04
       195   3 -1.006082E+06 -3.004873E+04  1.196390E+05 -5.030506E+05  5.928592E+04 -1.928170E+04
       195   4 -1.728530E+06 -2.903197E+05 -1.694322E+04 -7.125834E+05  2.218933E+04 -2.269031E+04
       195   5 -1.741999E+06 -2.737645E+05 -3.042366E+04 -6.929232E+05  3.965466E+04 -2.216444E+04
       195   6 -1.730734E+06 -3.055304E+05 -5.968215E+04 -7.069061E+05  5.661815E+04 -2.028725E+04
       195   7 -2.267029E+06 -4.884760E+05 -1.489071E+05 -8.571941E+05  1.737967E+04 -2.449454E+04
       195   8 -2.373207E+06 -5.104494E+05 -1.856526E+05 -8.670476E+05  3.591913E+04 -2.356839E+04
       195   9 -2.454863E+06 -5.809697E+05 -2.390429E+05 -9.105419E+05  5.395377E+04 -2.129148E+04
       195  10 -1.189746E+06 -9.214629E+04  1.149967E+05 -5.678588E+05 -7.552637E-10 -1.340073E-10
       195  11 -1.110397E+06 -3.705175E+04  1.247710E+05 -5.186357E+05  8.760256E-12  8.260206E-12
       195  12 -1.006086E+06 -3.005007E+04  1.196317E+05 -5.030497E+05  1.263093E-10 -1.408445E-10
       195  13 -1.728531E+06 -2.903204E+05 -1.694511E+04 -7.125830E+05  6.746265E-10  6.486747E-10
       195  14 -1.742001E+06 -2.737655E+05 -3.042754E+04 -6.929225E+05  7.784936E-10  3.516772E-10
       195  15 -1.730737E+06 -3.055317E+05 -5.968895E+04 -7.069052E+05 -2.443784E-10 -5.369947E-11
       195  16 -2.267029E+06 -4.884768E+05 -1.489088E+05 -8.571938E+05  1.178524E-09  2.522492E-10
       195  17 -2.373209E+06 -5.104503E+05 -1.856561E+05 -8.670469E+05 -1.340092E-10  4.013436E-10
       195  18 -2.454867E+06 -5.809709E+05 -2.390492E+05 -9.105410E+05 -5.802195E-10  2.849757E-10
       195  19 -1.189745E+06 -9.214563E+04  1.149988E+05 -5.678592E+05 -2.700356E+04  2.088442E+04
       195  20 -1.110395E+06 -3.705079E+04  1.247754E+05 -5.186364E+05 -4.339433E+04  2.075892E+04
       195  21 -1.006082E+06 -3.004873E+04  1.196390E+05 -5.030506E+05 -5.928592E+04  1.928170E+04
       195  22 -1.728530E+06 -2.903197E+05 -1.694322E+04 -7.125834E+05 -2.218933E+04  2.269031E+04
       195  23 -1.741999E+06 -2.737645E+05 -3.042366E+04 -6.929232E+05 -3.965466E+04  2.216444E+04
       195  24 -1.730734E+06 -3.055304E+05 -5.968215E+04 -7.069061E+05 -5.661815E+04  2.028725E+04
       195  25 -2.267029E+06 -4.884760E+05 -1.489071E+05 -8.571941E+05 -1.737967E+04  2.449454E+04
       195  26 -2.373207E+06 -5.104494E+05 -1.856526E+05 -8.670476E+05 -3.591913E+04  2.356839E+04
       195  27 -2.454863E+06 -5.809697E+05 -2.390429E+05 -9.105419E+05 -5.395377E+04  2.129148E+04
       196   1 -9.041645E+05 -2.462203E+03  1.238037E+05 -5.262987E+05  7.990199E+04 -1.855145E+04
       196   2 -8.451891E+05  9.744783E+04  9.297985E+04 -4.147667E+05  1.274763E+05 -3.263117E+02
       196   3 -8.481854E+05 -6.356173E+04 -3.643844E+04 -2.778423E+05  1.643720E+05  4.630904E+04
       196   4 -1.740737E+06 -2.809992E+05 -7.499555E+04 -7.211570E+05  6.861622E+04 -2.279002E+04
       196   5 -1.723984E+06 -2.643791E+05 -1.310892E+05 -6.902112E+05  1.390496E+05  4.011577E+03
       196   6 -1.773890E+06 -5.134545E+05 -3.040387E+05 -6.338527E+05  1.987895E+05  5.922806E+04
       196   7 -2.576625E+06 -5.595235E+05 -2.738450E+05 -9.157927E+05  5.734696E+04 -2.702393E+04
       196   8 -2.602011E+06 -6.261061E+05 -3.552199E+05 -9.652833E+05  1.506049E+05  8.341100E+03
       196   9 -2.698723E+06 -9.631085E+05 -5.717125E+05 -9.893214E+05  2.331503E+05  7.211157E+04
       196  10 -9.041714E+05 -2.464287E+03  1.237911E+05 -5.262975E+05 -1.312988E-10 -4.637710E-10
       196  11 -8.452065E+05  9.744346E+04  9.294927E+04 -4.147667E+05 -1.329716E-09  2.251223E-10
       196  12 -8.482150E+05 -6.357131E+04 -3.649332E+04 -2.778485E+05 -9.429531E-10  2.581973E-10
       196  13 -1.740742E+06 -2.810010E+05 -7.500539E+04 -7.211558E+05 -1.940483E-10 -1.119039E-12
       196  14 -1.724005E+06 -2.643843E+05 -1.311257E+05 -6.902116E+05 -6.889960E-10  2.148243E-10
       196  15 -1.773934E+06 -5.134689E+05 -3.041198E+05 -6.338622E+05 -6.548164E-10  1.488214E-10
       196  16 -2.576629E+06 -5.595251E+05 -2.738526E+05 -9.157915E+05  1.263538E-10 -4.238707E-10
       196  17 -2.602036E+06 -6.261123E+05 -3.552628E+05 -9.652843E+05 -4.276854E-10 -6.718005E-10
       196  18 -2.698783E+06 -9.631288E+05 -5.718250E+05 -9.893350E+05  4.696006E-10  2.406101E-10
       196  19 -9.041645E+05 -2.462203E+03  1.238037E+05 -5.262987E+05 -7.990199E+04  1.855145E+04
       196  20 -8.451891E+05  9.744783E+04  9.297985E+04 -4.147667E+05 -1.274763E+05  3.263117E+02
       196  21 -8.481854E+05 -6.356173E+04 -3.643844E+04 -2.778423E+05 -1.643720E+05 -4.630904E+04
       196  22 -1.740737E+06 -2.809992E+05 -7.499555E+04 -7.211570E+05 -6.861622E+04  2.279002E+04
       196  23 -1.723984E+06 -2.643791E+05 -1.310892E+05 -6.902112E+05 -1.390496E+05 -4.011577E+03
       196  24 -1.773890E+06 -5.134545E+05 -3.040387E+05 -6.338527E+05 -1.987895E+05 -5.922806E+04
       196  25 -2.576625E+06 -5.595235E+05 -2.738450E+05 -9.157927E+05 -5.734696E+04  2.702393E+04
       196  26 -2.602011E+06 -6.261061E+05 -3.552199E+05 -9.652833E+05 -1.506049E+05 -8.341100E+03
       196  27 -2.698723E+06 -9.631085E+05 -5.717125E+05 -9.893214E+05 -2.331503E+05 -7.211157E+04
       197   1 -1.074836E+05 -7.273316E+03  4.751274E+04  5.469330E+04  1.620340E+05  1.284211E+04
       197   2 -5.242071E+04 -2.233592E+05 -7.142955E+04  1.853144E+03  1.153778E+05  3.954557E+04
       197   3  6.659015E+04 -2.097162E+05 -1.024710E+05 -8.802492E+04  6.874453E+04  4.070714E+04
       197   4  8.745782E+05  2.363471E+05  2.857608E+05 -5.338852E+04  1.964150E+05  1.285505E+04
       197   5  8.408102E+05 -4.666199E+03  1.295818E+05 -3.474512E+04  1.275924E+05  3.954613E+04
       197   6  8.747189E+05 -1.230430E+04  7.658812E+04 -5.313251E+04  5.880240E+04  4.070103E+04
       197   7  1.857548E+06  4.799416E+05  5.239501E+05 -1.616420E+05  2.308501E+05  1.285604E+04
       197   8  1.734786E+06  2.139774E+05  3.305437E+05 -7.139672E+04  1.398243E+05  3.954526E+04
       197   9  1.683460E+06  1.850682E+05  2.556078E+05 -1.819425E+04  4.884743E+04  4.069381E+04
       197  10 -1.075118E+05 -7.280542E+03  4.746308E+04  5.469163E+04  1.463770E-10  4.502803E-10
       197  11 -5.243542E+04 -2.233644E+05 -7.145750E+04  1.849469E+03 -1.173500E-10 -2.464808E-10
       197  12  6.658463E+04 -2.097193E+05 -1.024830E+05 -8.802718E+04  5.092266E-10  3.687528E-10
       197  13  8.745368E+05  2.363366E+05  2.856881E+05 -5.339055E+04 -1.699094E-10  1.839354E-10
       197  14  8.407923E+05 -4.672242E+03  1.295483E+05 -3.474918E+04 -1.118452E-09 -1.229655E-09
       197  15  8.747147E+05 -1.230700E+04  7.657852E+04 -5.313444E+04  7.046541E-10  3.017965E-11
       197  16  1.857491E+06  4.799272E+05  5.238499E+05 -1.616444E+05  1.291307E-10 -6.199992E-11
       197  17  1.734765E+06  2.139705E+05  3.305041E+05 -7.140117E+04 -6.820962E-10 -2.702267E-10
       197  18  1.683457E+06  1.850658E+05  2.556002E+05 -1.819585E+04 -4.253013E-10 -6.897130E-10
       197  19 -1.074836E+05 -7.273316E+03  4.751274E+04  5.469330E+04 -1.620340E+05 -1.284211E+04
       197  20 -5.242071E+04 -2.233592E+05 -7.142955E+04  1.853144E+03 -1.153778E+05 -3.954557E+04
       197  21  6.659015E+04 -2.097162E+05 -1.024710E+05 -8.802492E+04 -6.874453E+04 -4.070714E+04
       197  22  8.745782E+05  2.363471E+05  2.857608E+05 -5.338852E+04 -1.964150E+05 -1.285505E+04
       197  23  8.408102E+05 -4.666199E+03  1.295818E+05 -3.474512E+04 -1.275924E+05 -3.954613E+04
       197  24  8.747189E+05 -1.230430E+04  7.658812E+04 -5.313251E+04 -5.880240E+04 -4.070103E+04
       197  25  1.857548E+06  4.799416E+05  5.239501E+05 -1.616420E+05 -2.308501E+05 -1.285604E+04
       197  26  1.734786E+06  2.139774E+05  3.305437E+05 -7.139672E+04 -1.398243E+05 -3.954526E+04
       197  27  1.683460E+06  1.850682E+05  2.556078E+05 -1.819425E+04 -4.884743E+04 -4.069381E+04
       198   1  1.258289E+05 -1.658913E+05 -1.026662E+05 -4.867516E+04  5.015441E+04  3.550304E+04
       198   2  2.084616E+05 -1.593962E+05 -1.113392E+05 -3.358399E+04  3.461753E+04  3.219476E+04
       198   3  2.968710E+05 -1.386944E+05 -1.063009E+05 -5.585589E+04  1.907581E+04  2.776381E+04
       198   4  8.610051E+05  1.380955E+04  6.106836E+04 -5.327405E+04  4.782471E+04  3.549856E+04
       198   5  8.580599E+05 -7.101624E+02  3.286037E+04 -3.459190E+04  3.129963E+04  3.219146E+04
       198   6  8.610491E+05 -8.607937E+02  1.903732E+04 -5.326994E+04  1.477183E+04  2.776208E+04
       198   7  1.596685E+06  1.934739E+05  2.247692E+05 -5.787848E+04  4.549226E+04  3.549413E+04
       198   8  1.508052E+06  1.579473E+05  1.770337E+05 -3.560089E+04  2.797828E+04  3.218818E+04
       198   9  1.425524E+06  1.369513E+05  1.443558E+05 -5.068159E+04  1.046397E+04  2.776031E+04
       198  10  1.258259E+05 -1.658934E+05 -1.026733E+05 -4.867660E+04 -6.867978E-10  1.563135E-11
       198  11  2.084600E+05 -1.593976E+05 -1.113434E+05 -3.358489E+04 -1.298085E-09  3.015489E-10
       198  12  2.968704E+05 -1.386953E+05 -1.063030E+05 -5.585632E+04 -6.263661E-10 -1.000852E-10
       198  13  8.610023E+05  1.380758E+04  6.106170E+04 -5.327542E+04 -3.982304E-10 -1.103957E-10
       198  14  8.580585E+05 -7.115382E+02  3.285659E+04 -3.459271E+04  4.950240E-10  1.327998E-10
       198  15  8.610487E+05 -8.616802E+02  1.903546E+04 -5.327027E+04 -6.371758E-10 -4.746252E-11
       198  16  1.596682E+06  1.934720E+05  2.247629E+05 -5.787978E+04  6.716118E-10 -1.187683E-10
       198  17  1.508050E+06  1.579460E+05  1.770303E+05 -3.560161E+04  6.059753E-10 -1.284172E-10
       198  18  1.425524E+06  1.369505E+05  1.443541E+05 -5.068183E+04  7.887656E-10  7.229443E-11
       198  19  1.258289E+05 -1.658913E+05 -1.026662E+05 -4.867516E+04 -5.015441E+04 -3.550304E+04
       198  20  2.084616E+05 -1.593962E+05 -1.113392E+05 -3.358399E+04 -3.461753E+04 -3.219476E+04
       198  21  2.968710E+05 -1.386944E+05 -1.063009E+05 -5.585589E+04 -1.907581E+04 -2.776381E+04
       198  22  8.610051E+05  1.380955E+04  6.106836E+04 -5.327405E+04 -4.782471E+04 -3.549856E+04
       198  23  8.580599E+05 -7.101624E+02  3.286037E+04 -3.459190E+04 -3.129963E+04 -3.219146E+04
       198  24  8.610491E+05 -8.607937E+02  1.903732E+04 -5.326994E+04 -1.477183E+04 -2.776208E+04
       198  25  1.596685E+06  1.934739E+05  2.247692E+05 -5.787848E+04 -4.549226E+04 -3.549413E+04
       198  26  1.508052E+06  1.579473E+05  1.770337E+05 -3.560089E+04 -2.797828E+04 -3.218818E+04
       198  27  1.425524E+06  1.369513E+05  1.443558E+05 -5.068159E+04 -1.046397E+04 -2.776031E+04
       199   1  3.674746E+05 -1.195502E+05 -9.438627E+04 -5.333167E+04  1.576031E+04  2.493237E+04
       199   2  4.518044E+05 -9.971192E+04 -8.213100E+04 -3.482071E+04  1.168501E+04  2.033198E+04
       199   3  5.369502E+05 -7.896550E+04 -6.698486E+04 -5.338145E+04  7.606596E+03  1.569205E+04
       199   4  8.599279E+05  6.762690E+02  1.461883E+04 -5.320657E+04  1.180652E+04  2.493138E+04
       199   5  8.595323E+05 -1.405195E+02  8.289285E+03 -3.467160E+04  7.693800E+03  2.033196E+04
       199   6  8.599502E+05 -4.325544E+01  4.874503E+03 -5.320684E+04  3.578495E+03  1.569305E+04
       199   7  1.352607E+06  1.208864E+05  1.236090E+05 -5.308136E+04  7.849641E+03  2.493038E+04
       199   8  1.267415E+06  9.941968E+04  9.869931E+04 -3.452237E+04  3.699996E+03  2.033195E+04
       199   9  1.183047E+06  7.887194E+04  7.672742E+04 -5.303212E+04 -4.516770E+02  1.569406E+04
       199  10  3.674742E+05 -1.195509E+05 -9.438791E+04 -5.333199E+04 -3.508119E-10 -2.438444E-10
       199  11  4.518041E+05 -9.971240E+04 -8.213203E+04 -3.482090E+04  7.117750E-10 -3.670844E-11
       199  12  5.369501E+05 -7.896578E+04 -6.698543E+04 -5.338155E+04 -5.615379E-10  3.111227E-10
       199  13  8.599276E+05  6.755639E+02  1.461740E+04 -5.320681E+04 -1.072432E-09 -2.288914E-11
       199  14  8.595321E+05 -1.409795E+02  8.288397E+03 -3.467172E+04  7.063306E-10  5.104906E-11
       199  15  8.599501E+05 -4.352344E+01  4.874016E+03 -5.320689E+04  1.368674E-09  8.915472E-11
       199  16  1.352607E+06  1.208857E+05  1.236077E+05 -5.308152E+04  7.549944E-10  2.857694E-11
       199  17  1.267415E+06  9.941923E+04  9.869851E+04 -3.452243E+04  6.184846E-11  2.815833E-10
       199  18  1.183047E+06  7.887167E+04  7.672696E+04 -5.303212E+04  7.838009E-10  4.740082E-10
       199  19  3.674746E+05 -1.195502E+05 -9.438627E+04 -5.333167E+04 -1.576031E+04 -2.493237E+04
       199  20  4.518044E+05 -9.971192E+04 -8.213100E+04 -3.482071E+04 -1.168501E+04 -2.033198E+04
       199  21  5.369502E+05 -7.896550E+04 -6.698486E+04 -5.338145E+04 -7.606596E+03 -1.569205E+04
       199  22  8.599279E+05  6.762690E+02  1.461883E+04 -5.320657E+04 -1.180652E+04 -2.493138E+04
       199  23  8.595323E+05 -1.405195E+02  8.289285E+03 -3.467160E+04 -7.693800E+03 -2.033196E+04
       199  24  8.599502E+05 -4.325544E+01  4.874503E+03 -5.320684E+04 -3.578495E+03 -1.569305E+04
       199  25  1.352607E+06  1.208864E+05  1.236090E+05 -5.308136E+04 -7.849641E+03 -2.493038E+04
       199  26  1.267415E+06  9.941968E+04  9.869931E+04 -3.452237E+04 -3.699996E+03 -2.033195E+04
       199  27  1.183047E+06  7.887194E+04  7.672742E+04 -5.303212E+04  4.516770E+02 -1.569406E+04
       200   1  6.080233E+05 -6.139847E+04 -5.180633E+04 -5.320193E+04  6.802855E+03  1.298545E+04
       200   2  6.922721E+05 -4.089714E+04 -3.474439E+04 -3.473430E+04  5.619402E+03  8.352266E+03
       200   3  7.766767E+05 -2.030584E+04 -1.689706E+04 -5.315054E+04  4.434751E+03  3.721471E+03
       200   4  8.598119E+05  3.645715E+01  3.783632E+03 -5.316524E+04  2.795937E+03  1.298689E+04
       200   5  8.597419E+05 -5.680315E+00  2.387235E+03 -3.472362E+04  1.613880E+03  8.354098E+03
       200   6  8.598205E+05  4.225644E+01  1.775189E+03 -5.316527E+04  4.307839E+02  3.723724E+03
       200   7  1.111660E+06  6.146713E+04  5.936976E+04 -5.312853E+04 -1.212587E+03  1.298833E+04
       200   8  1.027238E+06  4.088390E+04  3.951718E+04 -3.471294E+04 -2.392708E+03  8.355930E+03
       200   9  9.429708E+05  2.038989E+04  2.044706E+04 -5.318001E+04 -3.573714E+03  3.725976E+03
       200  10  6.080232E+05 -6.139866E+04 -5.180674E+04 -5.320200E+04  1.412781E-10  2.637032E-10
       200  11  6.922720E+05 -4.089722E+04 -3.474458E+04 -3.473433E+04  2.048823E-10  3.512898E-10
       200  12  7.766766E+05 -2.030586E+04 -1.689713E+04 -5.315055E+04 -8.556372E-10 -2.766214E-10
       200  13  8.598119E+05  3.627387E+01  3.783301E+03 -5.316527E+04  2.294784E-09  5.496845E-10
       200  14  8.597418E+05 -5.755988E+00  2.387099E+03 -3.472363E+04 -5.966257E-10 -4.441883E-10
       200  15  8.598205E+05  4.224150E+01  1.775162E+03 -5.316527E+04 -1.921591E-09 -7.536175E-10
       200  16  1.111660E+06  6.146695E+04  5.936944E+04 -5.312851E+04  1.229140E-09 -4.615502E-10
       200  17  1.027238E+06  4.088382E+04  3.951704E+04 -3.471292E+04 -9.476782E-10 -2.453804E-10
       200  18  9.429708E+05  2.038987E+04  2.044701E+04 -5.318000E+04  8.800088E-10 -9.094384E-10
       200  19  6.080233E+05 -6.139847E+04 -5.180633E+04 -5.320193E+04 -6.802855E+03 -1.298545E+04
       200  20  6.922721E+05 -4.089714E+04 -3.474439E+04 -3.473430E+04 -5.619402E+03 -8.352266E+03
       200  21  7.766767E+05 -2.030584E+04 -1.689706E+04 -5.315054E+04 -4.434751E+03 -3.721471E+03
       200  22  8.598119E+05  3.645715E+01  3.783632E+03 -5.316524E+04 -2.795937E+03 -1.298689E+04
       200  23  8.597419E+05 -5.680315E+00  2.387235E+03 -3.472362E+04 -1.613880E+03 -8.354098E+03
       200  24  8.598205E+05  4.225644E+01  1.775189E+03 -5.316527E+04 -4.307839E+02 -3.723724E+03
       200  25  1.111660E+06  6.146713E+04  5.936976E+04 -5.312853E+04  1.212587E+03 -1.298833E+04
       200  26  1.027238E+06  4.088390E+04  3.951718E+04 -3.471294E+04  2.392708E+03 -8.355930E+03
       200  27  9.429708E+05  2.038989E+04  2.044706E+04 -5.318001E+04  3.573714E+03 -3.725976E+03
       201   1  8.476842E+05 -2.870200E+03 -7.682610E+02 -5.316046E+04  4.118390E+03  1.027599E+03
       201   2  9.319003E+05  1.762117E+04  1.787684E+04 -3.472584E+04  3.184594E+03 -3.600103E+03
       201   3  1.016221E+06  3.818584E+04  3.713675E+04 -5.314376E+04  2.251135E+03 -8.227848E+03
       201   4  8.598111E+05  4.273502E+01  1.681153E+03 -5.315850E+04  1.152995E+02  1.029923E+03
       201   5  8.597595E+05  8.918151E+00  1.883834E+03 -3.473209E+04 -8.186817E+02 -3.597967E+03
       201   6  8.598074E+05  4.919855E+01  2.702103E+03 -5.315848E+04 -1.752201E+03 -8.225875E+03
       201   7  8.719382E+05  2.955670E+03  4.130620E+03 -5.315654E+04 -3.887868E+03  1.032248E+03
       201   8  7.876236E+05 -1.760368E+04 -1.410943E+04 -3.473833E+04 -4.821498E+03 -3.595832E+03
       201   9  7.034164E+05 -3.808908E+04 -3.173399E+04 -5.317319E+04 -5.754542E+03 -8.223902E+03
       201  10  8.476842E+05 -2.870206E+03 -7.682948E+02 -5.316047E+04 -1.425641E-09 -3.617258E-10
       201  11  9.319003E+05  1.762115E+04  1.787679E+04 -3.472583E+04  2.103074E-10  1.956832E-10
       201  12  1.016221E+06  3.818577E+04  3.713662E+04 -5.314375E+04 -2.297093E-10  1.250134E-10
       201  13  8.598111E+05  4.273388E+01  1.681151E+03 -5.315850E+04 -4.247033E-10  3.445824E-10
       201  14  8.597595E+05  8.904065E+00  1.883808E+03 -3.473209E+04 -2.672209E-09  8.725233E-10
       201  15  8.598074E+05  4.912504E+01  2.701971E+03 -5.315849E+04 -8.576383E-10 -4.579214E-10
       201  16  8.719382E+05  2.955665E+03  4.130590E+03 -5.315654E+04  5.803901E-10 -5.613326E-11
       201  17  7.876235E+05 -1.760370E+04 -1.410950E+04 -3.473835E+04 -1.204212E-09  7.906395E-10
       201  18  7.034163E+05 -3.808916E+04 -3.173417E+04 -5.317323E+04  7.607402E-10  1.362955E-10
       201  19  8.476842E+05 -2.870200E+03 -7.682610E+02 -5.316046E+04 -4.118390E+03 -1.027599E+03
       201  20  9.319003E+05  1.762117E+04  1.787684E+04 -3.472584E+04 -3.184594E+03  3.600103E+03
       201  21  1.016221E+06  3.818584E+04  3.713675E+04 -5.314376E+04 -2.251135E+03  8.227848E+03
       201  22  8.598111E+05  4.273502E+01  1.681153E+03 -5.315850E+04 -1.152995E+02 -1.029923E+03
       201  23  8.597595E+05  8.918151E+00  1.883834E+03 -3.473209E+04  8.186817E+02  3.597967E+03
       201  24  8.598074E+05  4.919855E+01  2.702103E+03 -5.315848E+04  1.752201E+03  8.225875E+03
       201  25  8.719382E+05  2.955670E+03  4.130620E+03 -5.315654E+04  3.887868E+03 -1.032248E+03
       201  26  7.876236E+05 -1.760368E+04 -1.410943E+04 -3.473833E+04  4.821498E+03  3.595832E+03
       201  27  7.034164E+05 -3.808908E+04 -3.173399E+04 -5.317319E+04  5.754542E+03  8.223902E+03
       202   1  1.087436E+06  5.558782E+04  5.407082E+04 -5.309264E+04  1.717235E+03 -1.092875E+04
       202   2  1.171729E+06  7.610792E+04  7.482219E+04 -3.463830E+04 -1.115530E+03 -1.555759E+04
       202   3  1.256567E+06  9.725866E+04  9.757390E+04 -5.315435E+04 -3.946777E+03 -2.014894E+04
       202   4  8.598971E+05 -4.878430E+00  3.395644E+03 -5.318492E+04 -2.304273E+03 -1.092706E+04
       202   5  8.596229E+05 -7.858676E+01  5.636968E+03 -3.469904E+04 -5.103605E+03 -1.555669E+04
       202   6  8.598803E+05  4.729929E+02  9.856233E+03 -5.318468E+04 -7.901040E+03 -2.014880E+04
       202   7  6.324066E+05 -5.560107E+04 -4.728271E+04 -5.327716E+04 -6.324327E+03 -1.092537E+04
       202   8  5.476078E+05 -7.627165E+04 -6.355424E+04 -3.475973E+04 -9.089700E+03 -1.555579E+04
       202   9  4.633406E+05 -9.632325E+04 -7.787109E+04 -5.321496E+04 -1.185281E+04 -2.014865E+04
       202  10  1.087436E+06  5.558769E+04  5.407059E+04 -5.309263E+04 -1.204599E-09  1.627188E-10
       202  11  1.171729E+06  7.610766E+04  7.482174E+04 -3.463831E+04 -7.253613E-10 -6.445938E-10
       202  12  1.256567E+06  9.725821E+04  9.757311E+04 -5.315442E+04 -8.926721E-10  1.024419E-10
       202  13  8.598970E+05 -5.008123E+00  3.395410E+03 -5.318494E+04 -1.951262E-09 -4.016212E-10
       202  14  8.596229E+05 -7.885373E+01  5.636464E+03 -3.469910E+04  1.311828E-09 -5.718352E-10
       202  15  8.598802E+05  4.725401E+02  9.855352E+03 -5.318480E+04  3.371754E-10  1.263290E-11
       202  16  6.324065E+05 -5.560121E+04 -4.728301E+04 -5.327721E+04  2.441451E-10  5.006290E-10
       202  17  5.476076E+05 -7.627193E+04 -6.355485E+04 -3.475985E+04  2.653002E-09 -2.665842E-10
       202  18  4.633404E+05 -9.632372E+04 -7.787212E+04 -5.321516E+04  1.305272E-09 -3.157923E-10
       202  19  1.087436E+06  5.558782E+04  5.407082E+04 -5.309264E+04 -1.717235E+03  1.092875E+04
       202  20  1.171729E+06  7.610792E+04  7.482219E+04 -3.463830E+04  1.115530E+03  1.555759E+04
       202  21  1.256567E+06  9.725866E+04  9.757390E+04 -5.315435E+04  3.946777E+03  2.014894E+04
       202  22  8.598971E+05 -4.878430E+00  3.395644E+03 -5.318492E+04  2.304273E+03  1.092706E+04
       202  23  8.596229E+05 -7.858676E+01  5.636968E+03 -3.469904E+04  5.103605E+03  1.555669E+04
       202  24  8.598803E+05  4.729929E+02  9.856233E+03 -5.318468E+04  7.901040E+03  2.014880E+04
       202  25  6.324066E+05 -5.560107E+04 -4.728271E+04 -5.327716E+04  6.324327E+03  1.092537E+04
       202  26  5.476078E+05 -7.627165E+04 -6.355424E+04 -3.475973E+04  9.089700E+03  1.555579E+04
       202  27  4.633406E+05 -9.632325E+04 -7.787109E+04 -5.321496E+04  1.185281E+04  2.014865E+04
       203   1  1.328869E+06  1.137695E+05  1.168114E+05 -5.156544E+04 -5.628302E+03 -2.295875E+04
       203   2  1.412019E+06  1.346159E+05  1.448421E+05 -3.537605E+04 -1.762356E+04 -2.738997E+04
       203   3  1.499312E+06  1.652682E+05  1.831478E+05 -5.639813E+04 -2.961756E+04 -3.080493E+04
       203   4  8.606343E+05 -5.598828E+02  1.281418E+04 -5.323829E+04 -9.899165E+03 -2.295920E+04
       203   5  8.586233E+05 -4.728284E+02  2.208039E+04 -3.463198E+04 -2.100608E+04 -2.739183E+04
       203   6  8.605989E+05  9.272084E+03  4.101267E+04 -5.323886E+04 -3.211012E+04 -3.080787E+04
       203   7  3.926043E+05 -1.149040E+05 -9.119659E+04 -5.490984E+04 -1.416685E+04 -2.295962E+04
       203   8  3.055130E+05 -1.355822E+05 -1.007003E+05 -3.388857E+04 -2.438562E+04 -2.739371E+04
       203   9  2.222656E+05 -1.467516E+05 -1.011479E+05 -5.008286E+04 -3.460015E+04 -3.081084E+04
       203  10  1.328868E+06  1.137689E+05  1.168103E+05 -5.156554E+04 -5.364391E-10 -9.393503E-11
       203  11  1.412018E+06  1.346150E+05  1.448401E+05 -3.537644E+04 -6.235856E-10 -1.935827E-10
       203  12  1.499311E+06  1.652670E+05  1.831444E+05 -5.639887E+04 -7.637245E-10  1.647672E-10
       203  13  8.606341E+05 -5.604753E+02  1.281300E+04 -5.323847E+04 -5.203279E-10  1.930748E-11
       203  14  8.586227E+05 -4.737527E+02  2.207816E+04 -3.463244E+04  1.756053E-09  4.561102E-11
       203  15  8.605976E+05  9.270788E+03  4.100895E+04 -5.323965E+04  7.270852E-12 -1.601422E-10
       203  16  3.926039E+05 -1.149046E+05 -9.119796E+04 -5.491011E+04  5.334627E-10 -5.968671E-11
       203  17  3.055121E+05 -1.355831E+05 -1.007028E+05 -3.388911E+04  8.532080E-10  9.573768E-11
       203  18  2.222641E+05 -1.467530E+05 -1.011520E+05 -5.008372E+04 -5.087937E-10 -1.645422E-10
       203  19  1.328869E+06  1.137695E+05  1.168114E+05 -5.156544E+04  5.628302E+03  2.295875E+04
       203  20  1.412019E+06  1.346159E+05  1.448421E+05 -3.537605E+04  1.762356E+04  2.738997E+04
       203  21  1.499312E+06  1.652682E+05  1.831478E+05 -5.639813E+04  2.961756E+04  3.080493E+04
       203  22  8.606343E+05 -5.598828E+02  1.281418E+04 -5.323829E+04  9.899165E+03  2.295920E+04
       203  23  8.586233E+05 -4.728284E+02  2.208039E+04 -3.463198E+04  2.100608E+04  2.739183E+04
       203  24  8.605989E+05  9.272084E+03  4.101267E+04 -5.323886E+04  3.211012E+04  3.080787E+04
       203  25  3.926043E+05 -1.149040E+05 -9.119659E+04 -5.490984E+04  1.416685E+04  2.295962E+04
       203  26  3.055130E+05 -1.355822E+05 -1.007003E+05 -3.388857E+04  2.438562E+04  2.739371E+04
       203  27  2.222656E+05 -1.467516E+05 -1.011479E+05 -5.008286E+04  3.460015E+04  3.081084E+04
       204   1  1.581214E+06  1.653375E+05  2.089292E+05 -2.972393E+04 -3.010071E+04 -3.575062E+04
       204   2  1.643228E+06  1.916327E+05  2.660350E+05 -5.942311E+04 -9.631725E+04 -3.511178E+04
       204   3  1.754146E+06  3.780175E+05  4.062603E+05 -1.259400E+05 -1.625659E+05 -1.139248E+04
       204   4  8.698113E+05 -8.265907E+03  5.143157E+04 -5.311866E+04 -3.948287E+04 -3.575567E+04
       204   5  8.470152E+05 -3.154262E+03  8.699740E+04 -3.477258E+04 -8.567114E+04 -3.511205E+04
       204   6  8.697054E+05  1.586786E+05  1.918562E+05 -5.323857E+04 -1.318805E+05 -1.138498E+04
       204   7  1.588814E+05 -1.819013E+05 -1.060967E+05 -7.648636E+04 -4.885440E+04 -3.576002E+04
       204   8  5.139256E+04 -1.979822E+05 -9.207979E+04 -1.015398E+04 -7.503846E+04 -3.511149E+04
       204   9 -1.400864E+04 -6.069717E+04 -2.259791E+04  1.935911E+04 -1.012384E+05 -1.137031E+04
       204  10  1.581213E+06  1.653359E+05  2.089251E+05 -2.972480E+04  1.143063E-09  1.411573E-10
       204  11  1.643218E+06  1.916289E+05  2.660153E+05 -5.942583E+04  2.190613E-09 -1.652472E-10
       204  12  1.754117E+06  3.780103E+05  4.062106E+05 -1.259415E+05  1.444386E-09  3.216814E-10
       204  13  8.698093E+05 -8.267698E+03  5.142624E+04 -5.311980E+04  6.591916E-11 -7.425899E-10
       204  14  8.470070E+05 -3.157554E+03  8.698131E+04 -3.477500E+04  1.519179E-09  1.748204E-10
       204  15  8.696867E+05  1.586738E+05  1.918233E+05 -5.323978E+04  9.985363E-10 -3.151778E-10
       204  16  1.588785E+05 -1.819033E+05 -1.061036E+05 -7.648776E+04 -8.712569E-10 -2.678030E-10
       204  17  5.138618E+04 -1.979850E+05 -9.209268E+04 -1.015610E+04 -2.026913E-09 -5.953909E-11
       204  18 -1.401968E+04 -6.070006E+04 -2.261741E+04  1.935818E+04 -1.014274E-09  9.767171E-10
       204  19  1.581214E+06  1.653375E+05  2.089292E+05 -2.972393E+04  3.010071E+04  3.575062E+04
       204  20  1.643228E+06  1.916327E+05  2.660350E+05 -5.942311E+04  9.631725E+04  3.511178E+04
       204  21  1.754146E+06  3.780175E+05  4.062603E+05 -1.259400E+05  1.625659E+05  1.139248E+04
       204  22  8.698113E+05 -8.265907E+03  5.143157E+04 -5.311866E+04  3.948287E+04  3.575567E+04
       204  23  8.470152E+05 -3.154262E+03  8.699740E+04 -3.477258E+04  8.567114E+04  3.511205E+04
       204  24  8.697054E+05  1.586786E+05  1.918562E+05 -5.323857E+04  1.318805E+05  1.138498E+04
       204  25  1.588814E+05 -1.819013E+05 -1.060967E+05 -7.648636E+04  4.885440E+04  3.576002E+04
       204  26  5.139256E+04 -1.979822E+05 -9.207979E+04 -1.015398E+04  7.503846E+04  3.511149E+04
       204  27 -1.400864E+04 -6.069717E+04 -2.259791E+04  1.935911E+04  1.012384E+05  1.137031E+04
       205   1  5.360782E+05  1.744219E+06  5.269151E+05 -5.249135E+05  2.007300E+04  1.504513E+05
       205   2  3.406426E+05  1.217409E+06  3.185737E+05 -4.379512E+05  5.911449E+04  5.501438E+04
       205   3  2.044031E+05  7.177388E+05  1.869955E+05 -4.752574E+05  4.957452E+04 -4.041523E+04
       205   4  7.234510E+04 -1.279859E+05  7.970600E+04 -4.787369E+05  2.031226E+04  5.325191E+04
       205   5  1.455760E+04 -1.347607E+05  3.999609E+04 -4.166851E+05  5.918277E+04  3.266417E+04
       205   6  3.082692E+03 -1.275449E+05  2.521706E+04 -4.788980E+05  4.943100E+04  1.200276E+04
       205   7 -3.916290E+05 -1.996958E+06 -3.677136E+05 -4.326969E+05  2.053756E+04 -4.365648E+04
       205   8 -3.116410E+05 -1.485196E+06 -2.386779E+05 -3.954645E+05  5.924961E+04  1.036165E+04
       205   9 -1.982783E+05 -9.721349E+05 -1.365837E+05 -4.825327E+05  4.928675E+04  6.435110E+04
       205  10  5.360717E+05  1.744195E+06  5.268719E+05 -5.249159E+05  4.516132E-10  5.873958E-10
       205  11  3.406380E+05  1.217405E+06  3.185615E+05 -4.379538E+05 -6.772515E-11 -6.134094E-10
       205  12  2.044000E+05  7.177363E+05  1.869879E+05 -4.752558E+05 -8.227498E-10 -9.125557E-10
       205  13  7.234390E+04 -1.279891E+05  7.969989E+04 -4.787377E+05  2.403242E-09  8.925613E-10
       205  14  1.455355E+04 -1.347628E+05  3.998749E+04 -4.166867E+05 -4.142849E-10 -9.965509E-10
       205  15  3.080029E+03 -1.275457E+05  2.521219E+04 -4.788984E+05  8.898478E-10  8.106107E-10
       205  16 -3.916300E+05 -1.996961E+06 -3.677180E+05 -4.326961E+05 -3.525748E-10 -5.869607E-10
       205  17 -3.116448E+05 -1.485197E+06 -2.386847E+05 -3.954650E+05  2.318554E-09  1.262059E-10
       205  18 -1.982821E+05 -9.721400E+05 -1.365960E+05 -4.825353E+05 -6.690145E-10 -6.129590E-10
       205  19  5.360782E+05  1.744219E+06  5.269151E+05 -5.249135E+05 -2.007300E+04 -1.504513E+05
       205  20  3.406426E+05  1.217409E+06  3.185737E+05 -4.379512E+05 -5.911449E+04 -5.501438E+04
       205  21  2.044031E+05  7.177388E+05  1.869955E+05 -4.752574E+05 -4.957452E+04  4.041523E+04
       205  22  7.234510E+04 -1.279859E+05  7.970600E+04 -4.787369E+05 -2.031226E+04 -5.325191E+04
       205  23  1.455760E+04 -1.347607E+05  3.999609E+04 -4.166851E+05 -5.918277E+04 -3.266417E+04
       205  24  3.082692E+03 -1.275449E+05  2.521706E+04 -4.788980E+05 -4.943100E+04 -1.200276E+04
       205  25 -3.916290E+05 -1.996958E+06 -3.677136E+05 -4.326969E+05 -2.053756E+04  4.365648E+04
       205  26 -3.116410E+05 -1.485196E+06 -2.386779E+05 -3.954645E+05 -5.924961E+04 -1.036165E+04
       205  27 -1.982783E+05 -9.721349E+05 -1.365837E+05 -4.825327E+05 -4.928675E+04 -6.435110E+04
       206   1  1.247121E+05  3.712891E+05  1.182227E+05 -4.821350E+05  2.895766E+04 -3.723211E+04
       206   2  9.217755E+01 -1.423997E+05  1.681959E+04 -4.159065E+05 -6.412273E+02 -4.663784E+04
       206   3 -1.194347E+05 -6.539619E+05 -7.737634E+04 -4.767697E+05 -3.019678E+04 -5.603587E+04
       206   4  5.128766E+03 -1.301448E+05  2.172933E+04 -4.795036E+05  2.882602E+04  8.313001E+03
       206   5  2.765486E+03 -1.310889E+05  1.886880E+04 -4.159582E+05 -7.720398E+02 -1.173600E+03
       206   6  5.522012E+03 -1.301485E+05  2.327289E+04 -4.795024E+05 -3.032730E+04 -1.065984E+04
       206   7 -1.144683E+05 -6.313324E+05 -7.476783E+04 -4.768741E+05  2.869469E+04  5.382218E+04
       206   8  5.439898E+03 -1.197736E+05  2.092578E+04 -4.160099E+05 -9.028583E+02  4.429144E+04
       206   9  1.304636E+05  3.939336E+05  1.239172E+05 -4.822372E+05 -3.045816E+04  3.475362E+04
       206  10  1.247108E+05  3.712874E+05  1.182185E+05 -4.821342E+05 -4.564747E-10  5.177176E-10
       206  11  9.159301E+01 -1.424020E+05  1.681550E+04 -4.159065E+05  3.704139E-10 -1.149675E-09
       206  12 -1.194366E+05 -6.539655E+05 -7.738397E+04 -4.767711E+05  3.929132E-11 -1.084745E-09
       206  13  5.127855E+03 -1.301451E+05  2.172763E+04 -4.795038E+05  2.476803E-11  1.353917E-09
       206  14  2.765485E+03 -1.310889E+05  1.886880E+04 -4.159582E+05 -3.356461E-09 -1.236567E-09
       206  15  5.520994E+03 -1.301488E+05  2.327095E+04 -4.795027E+05 -2.324933E-11  8.709935E-10
       206  16 -1.144700E+05 -6.313357E+05 -7.477484E+04 -4.768753E+05 -5.276666E-11 -4.646100E-10
       206  17  5.439370E+03 -1.197758E+05  2.092210E+04 -4.160099E+05 -7.445307E-11 -3.186664E-11
       206  18  1.304623E+05  3.939321E+05  1.239132E+05 -4.822364E+05  1.976623E-10 -4.942573E-10
       206  19  1.247121E+05  3.712891E+05  1.182227E+05 -4.821350E+05 -2.895766E+04  3.723211E+04
       206  20  9.217755E+01 -1.423997E+05  1.681959E+04 -4.159065E+05  6.412273E+02  4.663784E+04
       206  21 -1.194347E+05 -6.539619E+05 -7.737634E+04 -4.767697E+05  3.019678E+04  5.603587E+04
       206  22  5.128766E+03 -1.301448E+05  2.172933E+04 -4.795036E+05 -2.882602E+04 -8.313001E+03
       206  23  2.765486E+03 -1.310889E+05  1.886880E+04 -4.159582E+05  7.720398E+02  1.173600E+03
       206  24  5.522012E+03 -1.301485E+05  2.327289E+04 -4.795024E+05  3.032730E+04  1.065984E+04
       206  25 -1.144683E+05 -6.313324E+05 -7.476783E+04 -4.768741E+05 -2.869469E+04 -5.382218E+04
       206  26  5.439898E+03 -1.197736E+05  2.092578E+04 -4.160099E+05  9.028583E+02 -4.429144E+04
       206  27  1.304636E+05  3.939336E+05  1.239172E+05 -4.822372E+05  3.045816E+04 -3.475362E+04
       207   1 -2.035475E+05 -9.943620E+05 -1.383520E+05 -4.832753E+05 -5.077466E+04 -6.692936E+04
       207   2 -3.152897E+05 -1.508283E+06 -2.381345E+05 -3.929176E+05 -6.043363E+04 -1.469436E+04
       207   3 -3.875836E+05 -2.019143E+06 -3.621928E+05 -4.268219E+05 -2.087177E+04  3.757108E+04
       207   4  3.176716E+03 -1.271290E+05  2.761956E+04 -4.788908E+05 -5.091819E+04 -1.462685E+04
       207   5  1.633165E+04 -1.352992E+05  4.499410E+04 -4.166880E+05 -6.036425E+04 -3.788170E+04
       207   6  8.200925E+04 -1.275767E+05  9.054402E+04 -4.787083E+05 -2.064390E+04 -6.106285E+04
       207   7  2.098582E+05  7.408352E+05  1.935672E+05 -4.744994E+05 -5.106085E+04  3.774710E+04
       207   8  3.478360E+05  1.239478E+06  3.280234E+05 -4.405103E+05 -6.029319E+04 -6.111944E+04
       207   9  5.513572E+05  1.767302E+06  5.430659E+05 -5.307509E+05 -2.039995E+04 -1.599965E+05
       207  10 -2.035515E+05 -9.943675E+05 -1.383653E+05 -4.832781E+05  3.674643E-10  8.570370E-10
       207  11 -3.152937E+05 -1.508285E+06 -2.381418E+05 -3.929183E+05  5.023003E-10 -3.576509E-10
       207  12 -3.875845E+05 -2.019144E+06 -3.621962E+05 -4.268212E+05 -1.652478E-10 -5.940911E-10
       207  13  3.173874E+03 -1.271299E+05  2.761429E+04 -4.788914E+05  8.876192E-10  1.094053E-09
       207  14  1.632735E+04 -1.353017E+05  4.498455E+04 -4.166898E+05 -2.314815E-09 -1.207014E-09
       207  15  8.200779E+04 -1.275808E+05  9.053620E+04 -4.787093E+05  2.203158E-10  4.628442E-10
       207  16  2.098550E+05  7.408330E+05  1.935596E+05 -4.744978E+05 -9.854377E-10 -5.826954E-10
       207  17  3.478311E+05  1.239473E+06  3.280096E+05 -4.405132E+05  7.105191E-10 -7.089979E-10
       207  18  5.513499E+05  1.767274E+06  5.430171E+05 -5.307535E+05  5.544626E-10 -7.965505E-10
       207  19 -2.035475E+05 -9.943620E+05 -1.383520E+05 -4.832753E+05  5.077466E+04  6.692936E+04
       207  20 -3.152897E+05 -1.508283E+06 -2.381345E+05 -3.929176E+05  6.043363E+04  1.469436E+04
       207  21 -3.875836E+05 -2.019143E+06 -3.621928E+05 -4.268219E+05  2.087177E+04 -3.757108E+04
       207  22  3.176716E+03 -1.271290E+05  2.761956E+04 -4.788908E+05  5.091819E+04  1.462685E+04
       207  23  1.633165E+04 -1.352992E+05  4.499410E+04 -4.166880E+05  6.036425E+04  3.788170E+04
       207  24  8.200925E+04 -1.275767E+05  9.054402E+04 -4.787083E+05  2.064390E+04  6.106285E+04
       207  25  2.098582E+05  7.408352E+05  1.935672E+05 -4.744994E+05  5.106085E+04 -3.774710E+04
       207  26  3.478360E+05  1.239478E+06  3.280234E+05 -4.405103E+05  6.029319E+04  6.111944E+04
       207  27  5.513572E+05  1.767302E+06  5.430659E+05 -5.307509E+05  2.039995E+04  1.599965E+05
       208   1 -2.277205E+06 -8.950645E+05 -4.924821E+05 -8.709390E+05 -1.947025E+05 -5.088461E+04
       208   2 -2.162857E+06 -6.951376E+05 -3.270041E+05 -8.248245E+05 -1.236101E+05  2.641488E+04
       208   3 -2.072903E+06 -6.120373E+05 -2.525261E+05 -7.827655E+05 -3.903444E+04  6.799476E+04
       208   4 -1.023692E+06 -3.515156E+05 -1.525286E+05 -4.539770E+05 -1.057171E+05 -1.742916E+04
       208   5 -1.008133E+06 -2.387989E+05 -6.971941E+04 -4.742474E+05 -8.577034E+04  4.062430E+04
       208   6 -1.006736E+06 -2.326512E+05 -3.719815E+04 -4.986009E+05 -5.237276E+04  6.297077E+04
       208   7  2.313581E+05  1.922787E+05  1.873099E+05 -3.620362E+04 -1.653655E+04  1.612595E+04
       208   8  1.479487E+05  2.176999E+05  1.874866E+05 -1.230503E+05 -4.785454E+04  5.486706E+04
       208   9  6.061545E+04  1.468208E+05  1.780777E+05 -2.139874E+05 -6.573594E+04  5.793806E+04
       208  10 -2.277246E+06 -8.950775E+05 -4.925585E+05 -8.709471E+05  2.409544E-10 -4.150714E-10
       208  11 -2.162873E+06 -6.951424E+05 -3.270342E+05 -8.248218E+05 -3.232140E-10 -1.117642E-09
       208  12 -2.072906E+06 -6.120426E+05 -2.525376E+05 -7.827634E+05 -4.365509E-10 -8.165226E-10
       208  13 -1.023704E+06 -3.515189E+05 -1.525502E+05 -4.539785E+05  1.330550E-09  5.083156E-10
       208  14 -1.008141E+06 -2.388027E+05 -6.973635E+04 -4.742446E+05 -6.973824E-10  2.333080E-10
       208  15 -1.006740E+06 -2.326562E+05 -3.721075E+04 -4.985982E+05  1.556057E-09 -3.502391E-10
       208  16  2.313577E+05  1.922783E+05  1.873089E+05 -3.620341E+04  2.005417E-10 -2.738448E-11
       208  17  1.479455E+05  2.176961E+05  1.874766E+05 -1.230482E+05  9.802860E-10  5.005649E-10
       208  18  6.060991E+04  1.468161E+05  1.780633E+05 -2.139844E+05  8.608273E-10  5.551689E-10
       208  19 -2.277205E+06 -8.950645E+05 -4.924821E+05 -8.709390E+05  1.947025E+05  5.088461E+04
       208  20 -2.162857E+06 -6.951376E+05 -3.270041E+05 -8.248245E+05  1.236101E+05 -2.641488E+04
       208  21 -2.072903E+06 -6.120373E+05 -2.525261E+05 -7.827655E+05  3.903444E+04 -6.799476E+04
       208  22 -1.023692E+06 -3.515156E+05 -1.525286E+05 -4.539770E+05  1.057171E+05  1.742916E+04
       208  23 -1.008133E+06 -2.387989E+05 -6.971941E+04 -4.742474E+05  8.577034E+04 -4.062430E+04
       208  24 -1.006736E+06 -2.326512E+05 -3.719815E+04 -4.986009E+05  5.237276E+04 -6.297077E+04
       208  25  2.313581E+05  1.922787E+05  1.873099E+05 -3.620362E+04  1.653655E+04 -1.612595E+04
       208  26  1.479487E+05  2.176999E+05  1.874866E+05 -1.230503E+05  4.785454E+04 -5.486706E+04
       208  27  6.061545E+04  1.468208E+05  1.780777E+05 -2.139874E+05  6.573594E+04 -5.793806E+04
       209   1 -1.973718E+06 -5.942737E+05 -2.259727E+05 -7.664926E+05 -3.949973E+04  6.161909E+04
       209   2 -1.861063E+06 -5.311028E+05 -1.844619E+05 -7.187921E+05 -2.623166E+04  5.999284E+04
       209   3 -1.727529E+06 -4.962555E+05 -1.523653E+05 -6.976531E+05 -1.203856E+04  5.589148E+04
       209   4 -1.001851E+06 -2.369330E+05 -2.839446E+04 -4.953733E+05 -4.605174E+04  5.914727E+04
       209   5 -1.012251E+06 -2.206764E+05 -1.501149E+04 -4.829924E+05 -3.632077E+04  5.619718E+04
       209   6 -1.001082E+06 -2.320349E+05 -8.225246E+03 -4.971761E+05 -2.566787E+04  5.077293E+04
       209   7 -2.901002E+04  1.204911E+05  1.691365E+05 -2.238598E+05 -5.261480E+04  5.667126E+04
       209   8 -1.626965E+05  8.981195E+04  1.544038E+05 -2.468944E+05 -4.642469E+04  5.239594E+04
       209   9 -2.740944E+05  3.222852E+04  1.358890E+05 -2.964835E+05 -3.931423E+04  4.564803E+04
       209  10 -1.973721E+06 -5.942782E+05 -2.259828E+05 -7.664907E+05  1.857273E-09 -7.263933E-11
       209  11 -1.861064E+06 -5.311069E+05 -1.844699E+05 -7.187908E+05  6.695500E-10 -7.844761E-10
       209  12 -1.727530E+06 -4.962589E+05 -1.523714E+05 -6.976526E+05  4.934654E-11 -5.345803E-10
       209  13 -1.001855E+06 -2.369373E+05 -2.840501E+04 -4.953711E+05 -6.778625E-10 -1.979651E-10
       209  14 -1.012253E+06 -2.206801E+05 -1.501990E+04 -4.829907E+05  2.440979E-09 -9.842910E-10
       209  15 -1.001083E+06 -2.320379E+05 -8.231325E+03 -4.971751E+05  9.557394E-10 -1.334972E-10
       209  16 -2.901386E+04  1.204869E+05  1.691252E+05 -2.238574E+05 -3.510130E-10 -3.740794E-10
       209  17 -1.626996E+05  8.980842E+04  1.543946E+05 -2.468924E+05  4.775564E-11 -8.143095E-10
       209  18 -2.740966E+05  3.222587E+04  1.358822E+05 -2.964820E+05  1.433887E-09  2.984049E-10
       209  19 -1.973718E+06 -5.942737E+05 -2.259727E+05 -7.664926E+05  3.949973E+04 -6.161909E+04
       209  20 -1.861063E+06 -5.311028E+05 -1.844619E+05 -7.187921E+05  2.623166E+04 -5.999284E+04
       209  21 -1.727529E+06 -4.962555E+05 -1.523653E+05 -6.976531E+05  1.203856E+04 -5.589148E+04
       209  22 -1.001851E+06 -2.369330E+05 -2.839446E+04 -4.953733E+05  4.605174E+04 -5.914727E+04
       209  23 -1.012251E+06 -2.206764E+05 -1.501149E+04 -4.829924E+05  3.632077E+04 -5.619718E+04
       209  24 -1.001082E+06 -2.320349E+05 -8.225246E+03 -4.971761E+05  2.566787E+04 -5.077293E+04
       209  25 -2.901002E+04  1.204911E+05  1.691365E+05 -2.238598E+05  5.261480E+04 -5.667126E+04
       209  26 -1.626965E+05  8.981195E+04  1.544038E+05 -2.468944E+05  4.642469E+04 -5.239594E+04
       209  27 -2.740944E+05  3.222852E+04  1.358890E+05 -2.964835E+05  3.931423E+04 -4.564803E+04
       210   1 -1.642546E+06 -4.660308E+05 -1.329631E+05 -6.746998E+05 -9.257653E+03  5.062173E+04
       210   2 -1.530094E+06 -4.085351E+05 -1.057133E+05 -6.265280E+05 -3.814519E+03  4.208333E+04
       210   3 -1.393891E+06 -3.752865E+05 -7.996618E+04 -6.058895E+05  1.691921E+03  3.336356E+04
       210   4 -1.000703E+06 -2.322250E+05 -6.196769E+03 -4.970269E+05 -2.243822E+04  4.567431E+04
       210   5 -1.012556E+06 -2.200226E+05 -3.418445E+03 -4.832862E+05 -1.725396E+04  3.704237E+04
       210   6 -1.000627E+06 -2.320169E+05 -1.938147E+03 -4.970843E+05 -1.200687E+04  2.822904E+04
       210   7 -3.584267E+05  1.618844E+03  1.205526E+05 -3.191820E+05 -3.563355E+04  4.072137E+04
       210   8 -4.947380E+05 -3.148570E+04  9.886534E+04 -3.399330E+05 -3.070550E+04  3.199689E+04
       210   9 -6.072018E+05 -8.873374E+04  7.608344E+04 -3.882150E+05 -2.571499E+04  2.309103E+04
       210  10 -1.642546E+06 -4.660336E+05 -1.329680E+05 -6.746994E+05  1.217372E-09  1.228100E-10
       210  11 -1.530095E+06 -4.085370E+05 -1.057166E+05 -6.265279E+05 -3.749516E-10 -4.709723E-10
       210  12 -1.393891E+06 -3.752877E+05 -7.996828E+04 -6.058896E+05 -1.571332E-09  2.312308E-10
       210  13 -1.000704E+06 -2.322274E+05 -6.201633E+03 -4.970260E+05  5.718314E-10 -1.063054E-10
       210  14 -1.012557E+06 -2.200241E+05 -3.421581E+03 -4.832857E+05  1.932559E-10 -7.619516E-10
       210  15 -1.000627E+06 -2.320178E+05 -1.939915E+03 -4.970840E+05 -1.032325E-09  1.464969E-11
       210  16 -3.584285E+05  1.616724E+03  1.205471E+05 -3.191808E+05 -1.614055E-09 -5.173177E-10
       210  17 -4.947392E+05 -3.148706E+04  9.886164E+04 -3.399322E+05  2.546608E-10 -7.291501E-10
       210  18 -6.072027E+05 -8.873449E+04  7.608120E+04 -3.882145E+05  1.402277E-09 -1.330323E-10
       210  19 -1.642546E+06 -4.660308E+05 -1.329631E+05 -6.746998E+05  9.257653E+03 -5.062173E+04
       210  20 -1.530094E+06 -4.085351E+05 -1.057133E+05 -6.265280E+05  3.814519E+03 -4.208333E+04
       210  21 -1.393891E+06 -3.752865E+05 -7.996618E+04 -6.058895E+05 -1.691921E+03 -3.336356E+04
       210  22 -1.000703E+06 -2.322250E+05 -6.196769E+03 -4.970269E+05  2.243822E+04 -4.567431E+04
       210  23 -1.012556E+06 -2.200226E+05 -3.418445E+03 -4.832862E+05  1.725396E+04 -3.704237E+04
       210  24 -1.000627E+06 -2.320169E+05 -1.938147E+03 -4.970843E+05  1.200687E+04 -2.822904E+04
       210  25 -3.584267E+05  1.618844E+03  1.205526E+05 -3.191820E+05  3.563355E+04 -4.072137E+04
       210  26 -4.947380E+05 -3.148570E+04  9.886534E+04 -3.399330E+05  3.070550E+04 -3.199689E+04
       210  27 -6.072018E+05 -8.873374E+04  7.608344E+04 -3.882150E+05  2.571499E+04 -2.309103E+04
       211   1 -1.309405E+06 -3.444325E+05 -6.213854E+04 -5.825884E+05  4.038586E+03  2.790531E+04
       211   2 -1.196765E+06 -2.870486E+05 -3.734643E+04 -5.342682E+05  8.122435E+03  1.856124E+04
       211   3 -1.060102E+06 -2.537494E+05 -1.293496E+04 -5.135560E+05  1.221018E+04  9.201754E+03
       211   4 -1.000568E+06 -2.320223E+05 -1.505939E+03 -4.970837E+05 -9.639238E+03  2.278014E+04
       211   5 -1.012563E+06 -2.199674E+05 -9.794748E+02 -4.832788E+05 -5.578308E+03  1.342879E+04
       211   6 -1.000549E+06 -2.319938E+05 -8.159764E+02 -4.970878E+05 -1.513581E+03  4.061977E+03
       211   7 -6.916331E+05 -1.196046E+05  5.912240E+04 -4.115402E+05 -2.332426E+04  1.765228E+04
       211   8 -8.283260E+05 -1.528830E+05  3.538671E+04 -4.322753E+05 -1.928342E+04  8.294708E+03
       211   9 -9.409904E+05 -2.102376E+05  1.130377E+04 -4.806179E+05 -1.523887E+04 -1.078373E+03
       211  10 -1.309406E+06 -3.444334E+05 -6.214004E+04 -5.825885E+05 -9.761540E-10  1.154693E-09
       211  11 -1.196765E+06 -2.870490E+05 -3.734720E+04 -5.342683E+05  3.997767E-10  1.126638E-09
       211  12 -1.060102E+06 -2.537495E+05 -1.293540E+04 -5.135561E+05  7.845314E-10 -3.109754E-10
       211  13 -1.000568E+06 -2.320229E+05 -1.507088E+03 -4.970836E+05 -9.824523E-10  1.287086E-10
       211  14 -1.012563E+06 -2.199676E+05 -9.798719E+02 -4.832788E+05 -8.040281E-10  1.346031E-10
       211  15 -1.000549E+06 -2.319938E+05 -8.160117E+02 -4.970878E+05 -7.909625E-10 -5.568015E-11
       211  16 -6.916338E+05 -1.196051E+05  5.912079E+04 -4.115399E+05 -4.794727E-10 -8.012725E-10
       211  17 -8.283264E+05 -1.528832E+05  3.538588E+04 -4.322752E+05  3.690291E-10  1.577658E-10
       211  18 -9.409906E+05 -2.102376E+05  1.130333E+04 -4.806179E+05 -1.475921E-09 -7.088739E-10
       211  19 -1.309405E+06 -3.444325E+05 -6.213854E+04 -5.825884E+05 -4.038586E+03 -2.790531E+04
       211  20 -1.196765E+06 -2.870486E+05 -3.734643E+04 -5.342682E+05 -8.122435E+03 -1.856124E+04
       211  21 -1.060102E+06 -2.537494E+05 -1.293496E+04 -5.135560E+05 -1.221018E+04 -9.201754E+03
       211  22 -1.000568E+06 -2.320223E+05 -1.505939E+03 -4.970837E+05  9.639238E+03 -2.278014E+04
       211  23 -1.012563E+06 -2.199674E+05 -9.794748E+02 -4.832788E+05  5.578308E+03 -1.342879E+04
       211  24 -1.000549E+06 -2.319938E+05 -8.159764E+02 -4.970878E+05  1.513581E+03 -4.061977E+03
       211  25 -6.916331E+05 -1.196046E+05  5.912240E+04 -4.115402E+05  2.332426E+04 -1.765228E+04
       211  26 -8.283260E+05 -1.528830E+05  3.538671E+04 -4.322753E+05  1.928342E+04 -8.294708E+03
       211  27 -9.409904E+05 -2.102376E+05  1.130377E+04 -4.806179E+05  1.523887E+04  1.078373E+03
       212   1 -9.755602E+05 -2.228440E+05  4.448678E+03 -4.902094E+05  1.443364E+04  3.690718E+03
       212   2 -8.628709E+05 -1.654810E+05  2.840045E+04 -4.418726E+05  1.856188E+04 -5.652098E+03
       212   3 -7.261673E+05 -1.322006E+05  5.194126E+04 -4.211512E+05  2.268630E+04 -1.498085E+04
       212   4 -1.000551E+06 -2.319939E+05 -8.456532E+02 -4.970897E+05  7.084556E+02 -1.449533E+03
       212   5 -1.012556E+06 -2.199556E+05 -1.143183E+03 -4.832796E+05  4.855076E+03 -1.078653E+04
       212   6 -1.000566E+06 -2.320054E+05 -1.866404E+03 -4.970915E+05  8.997732E+03 -2.010944E+04
       212   7 -1.025540E+06 -2.411435E+05 -6.139208E+03 -5.039697E+05 -1.301613E+04 -6.589559E+03
       212   8 -1.162217E+06 -2.744278E+05 -3.068686E+04 -5.246770E+05 -8.848122E+03 -1.591960E+04
       212   9 -1.274884E+06 -3.318026E+05 -5.567604E+04 -5.729999E+05 -4.684228E+03 -2.523557E+04
       212  10 -9.755604E+05 -2.228441E+05  4.448260E+03 -4.902094E+05 -7.547818E-10 -1.225852E-09
       212  11 -8.628713E+05 -1.654811E+05  2.839974E+04 -4.418725E+05  4.287958E-11 -8.598495E-10
       212  12 -7.261679E+05 -1.322010E+05  5.193988E+04 -4.211509E+05  7.094328E-10 -3.292874E-10
       212  13 -1.000551E+06 -2.319939E+05 -8.456581E+02 -4.970897E+05 -4.015699E-10 -1.013235E-10
       212  14 -1.012556E+06 -2.199557E+05 -1.143446E+03 -4.832795E+05 -1.471891E-09  3.581032E-10
       212  15 -1.000566E+06 -2.320059E+05 -1.867315E+03 -4.970914E+05 -3.623895E-10  1.269722E-10
       212  16 -1.025540E+06 -2.411436E+05 -6.139609E+03 -5.039697E+05  1.427578E-09  1.322446E-09
       212  17 -1.162217E+06 -2.744281E+05 -3.068748E+04 -5.246771E+05  5.544966E-10  1.612345E-09
       212  18 -1.274884E+06 -3.318033E+05 -5.567728E+04 -5.730000E+05 -5.064715E-10  3.017402E-10
       212  19 -9.755602E+05 -2.228440E+05  4.448678E+03 -4.902094E+05 -1.443364E+04 -3.690718E+03
       212  20 -8.628709E+05 -1.654810E+05  2.840045E+04 -4.418726E+05 -1.856188E+04  5.652098E+03
       212  21 -7.261673E+05 -1.322006E+05  5.194126E+04 -4.211512E+05 -2.268630E+04  1.498085E+04
       212  22 -1.000551E+06 -2.319939E+05 -8.456532E+02 -4.970897E+05 -7.084556E+02  1.449533E+03
       212  23 -1.012556E+06 -2.199556E+05 -1.143183E+03 -4.832796E+05 -4.855076E+03  1.078653E+04
       212  24 -1.000566E+06 -2.320054E+05 -1.866404E+03 -4.970915E+05 -8.997732E+03  2.010944E+04
       212  25 -1.025540E+06 -2.411435E+05 -6.139208E+03 -5.039697E+05  1.301613E+04  6.589559E+03
       212  26 -1.162217E+06 -2.744278E+05 -3.068686E+04 -5.246770E+05  8.848122E+03  1.591960E+04
       212  27 -1.274884E+06 -3.318026E+05 -5.567604E+04 -5.729999E+05  4.684228E+03  2.523557E+04
       213   1 -6.417185E+05 -1.013294E+05  6.877063E+04 -3.978392E+05  2.514870E+04 -2.039448E+04
       213   2 -5.291521E+05 -4.406740E+04  9.113032E+04 -3.495587E+05  3.060986E+04 -2.913014E+04
       213   3 -3.928216E+05 -1.100614E+04  1.120325E+05 -3.288271E+05  3.601008E+04 -3.768934E+04
       213   4 -1.000636E+06 -2.319972E+05 -2.434905E+03 -4.970985E+05  1.143693E+04 -2.553310E+04
       213   5 -1.012522E+06 -2.199816E+05 -4.343473E+03 -4.832871E+05  1.714714E+04 -3.417887E+04
       213   6 -1.000710E+06 -2.322206E+05 -7.908781E+03 -4.970337E+05  2.279595E+04 -4.264821E+04
       213   7 -1.359423E+06 -3.626549E+05 -7.364656E+04 -5.963054E+05 -2.266443E+03 -3.066859E+04
       213   8 -1.495651E+06 -3.958763E+05 -9.982796E+04 -6.169196E+05  3.695614E+03 -3.922342E+04
       213   9 -1.608216E+06 -4.534030E+05 -1.278665E+05 -6.650878E+05  9.595709E+03 -4.760189E+04
       213  10 -6.417193E+05 -1.013300E+05  6.876866E+04 -3.978388E+05  5.022052E-10 -4.923627E-10
       213  11 -5.291533E+05 -4.406856E+04  9.112697E+04 -3.495579E+05  4.298399E-10 -4.817737E-10
       213  12 -3.928233E+05 -1.100802E+04  1.120274E+05 -3.288260E+05 -2.560583E-10 -5.602719E-10
       213  13 -1.000636E+06 -2.319980E+05 -2.436375E+03 -4.970983E+05  1.298845E-09 -7.335040E-10
       213  14 -1.012522E+06 -2.199830E+05 -4.346220E+03 -4.832866E+05  3.440719E-10 -8.221566E-10
       213  15 -1.000711E+06 -2.322227E+05 -7.913173E+03 -4.970330E+05 -6.932732E-10 -7.411988E-10
       213  16 -1.359423E+06 -3.626560E+05 -7.364833E+04 -5.963054E+05  8.961434E-10 -2.566454E-10
       213  17 -1.495651E+06 -3.958780E+05 -9.983088E+04 -6.169195E+05  1.185113E-10  2.054320E-10
       213  18 -1.608217E+06 -4.534055E+05 -1.278709E+05 -6.650875E+05 -5.505109E-10 -4.200641E-10
       213  19 -6.417185E+05 -1.013294E+05  6.877063E+04 -3.978392E+05 -2.514870E+04  2.039448E+04
       213  20 -5.291521E+05 -4.406740E+04  9.113032E+04 -3.495587E+05 -3.060986E+04  2.913014E+04
       213  21 -3.928216E+05 -1.100614E+04  1.120325E+05 -3.288271E+05 -3.601008E+04  3.768934E+04
       213  22 -1.000636E+06 -2.319972E+05 -2.434905E+03 -4.970985E+05 -1.143693E+04  2.553310E+04
       213  23 -1.012522E+06 -2.199816E+05 -4.343473E+03 -4.832871E+05 -1.714714E+04  3.417887E+04
       213  24 -1.000710E+06 -2.322206E+05 -7.908781E+03 -4.970337E+05 -2.279595E+04  4.264821E+04
       213  25 -1.359423E+06 -3.626549E+05 -7.364656E+04 -5.963054E+05  2.266443E+03  3.066859E+04
       213  26 -1.495651E+06 -3.958763E+05 -9.982796E+04 -6.169196E+05 -3.695614E+03  3.922342E+04
       213  27 -1.608216E+06 -4.534030E+05 -1.278665E+05 -6.650878E+05 -9.595709E+03  4.760189E+04
       214   1 -3.084212E+05  1.952933E+04  1.268041E+05 -3.063373E+05  4.000069E+04 -4.250303E+04
       214   2 -1.969465E+05  7.727658E+04  1.434182E+05 -2.562730E+05  4.931351E+04 -4.846665E+04
       214   3 -6.387838E+04  1.070016E+05  1.543252E+05 -2.326174E+05  5.772934E+04 -5.201982E+04
       214   4 -1.001186E+06 -2.319870E+05 -1.050947E+04 -4.972506E+05  2.634581E+04 -4.762981E+04
       214   5 -1.012105E+06 -2.207318E+05 -1.917906E+04 -4.828948E+05  3.910901E+04 -5.230427E+04
       214   6 -1.002133E+06 -2.381907E+05 -3.629870E+04 -4.949558E+05  5.097331E+04 -5.456707E+04
       214   7 -1.693449E+06 -4.834604E+05 -1.478432E+05 -6.879655E+05  1.270741E+04 -5.275048E+04
       214   8 -1.826577E+06 -5.186818E+05 -1.818076E+05 -7.092408E+05  2.891889E+04 -5.613648E+04
       214   9 -1.939489E+06 -5.833077E+05 -2.269688E+05 -7.569287E+05  4.422818E+04 -5.711019E+04
       214  10 -3.084234E+05  1.952696E+04  1.267977E+05 -3.063359E+05  1.322504E-10 -6.647244E-10
       214  11 -1.969497E+05  7.727340E+04  1.434092E+05 -2.562711E+05 -2.708700E-10 -7.853534E-10
       214  12 -6.388268E+04  1.069978E+05  1.543139E+05 -2.326149E+05 -9.055181E-10 -3.817265E-10
       214  13 -1.001188E+06 -2.319896E+05 -1.051504E+04 -4.972496E+05  5.289274E-12 -6.404934E-10
       214  14 -1.012107E+06 -2.207352E+05 -1.918707E+04 -4.828931E+05 -6.795229E-10 -7.268961E-10
       214  15 -1.002137E+06 -2.381946E+05 -3.630917E+04 -4.949535E+05 -1.607807E-10  5.498353E-10
       214  16 -1.693450E+06 -4.834634E+05 -1.478488E+05 -6.879650E+05 -3.872958E-10 -4.094924E-10
       214  17 -1.826578E+06 -5.186854E+05 -1.818151E+05 -7.092395E+05  6.069742E-10 -4.701105E-10
       214  18 -1.939492E+06 -5.833117E+05 -2.269786E+05 -7.569267E+05  1.353594E-09  1.821864E-10
       214  19 -3.084212E+05  1.952933E+04  1.268041E+05 -3.063373E+05 -4.000069E+04  4.250303E+04
       214  20 -1.969465E+05  7.727658E+04  1.434182E+05 -2.562730E+05 -4.931351E+04  4.846665E+04
       214  21 -6.387838E+04  1.070016E+05  1.543252E+05 -2.326174E+05 -5.772934E+04  5.201982E+04
       214  22 -1.001186E+06 -2.319870E+05 -1.050947E+04 -4.972506E+05 -2.634581E+04  4.762981E+04
       214  23 -1.012105E+06 -2.207318E+05 -1.917906E+04 -4.828948E+05 -3.910901E+04  5.230427E+04
       214  24 -1.002133E+06 -2.381907E+05 -3.629870E+04 -4.949558E+05 -5.097331E+04  5.456707E+04
       214  25 -1.693449E+06 -4.834604E+05 -1.478432E+05 -6.879655E+05 -1.270741E+04  5.275048E+04
       214  26 -1.826577E+06 -5.186818E+05 -1.818076E+05 -7.092408E+05 -2.891889E+04  5.613648E+04
       214  27 -1.939489E+06 -5.833077E+05 -2.269688E+05 -7.569287E+05 -4.422818E+04  5.711019E+04
       215   1  2.711899E+04  1.318340E+05  1.608113E+05 -2.267485E+05  7.187834E+04 -5.290899E+04
       215   2  1.089579E+05  2.064184E+05  1.607472E+05 -1.227715E+05  6.565406E+04 -4.597792E+04
       215   3  1.764679E+05  1.607987E+05  1.360444E+05 -1.708689E+04  4.633584E+04 -4.264646E+03
       215   4 -1.008258E+06 -2.328167E+05 -4.755655E+04 -4.992209E+05  5.848941E+04 -5.794909E+04
       215   5 -1.006924E+06 -2.436829E+05 -8.911580E+04 -4.715545E+05  1.022442E+05 -3.223779E+04
       215   6 -1.029917E+06 -3.847975E+05 -1.950005E+05 -4.421742E+05  1.328888E+05  2.828715E+04
       215   7 -2.042533E+06 -5.973957E+05 -2.559764E+05 -7.712816E+05  4.512447E+04 -6.298096E+04
       215   8 -2.121525E+06 -6.936112E+05 -3.390493E+05 -8.197332E+05  1.387631E+05 -1.853028E+04
       215   9 -2.234831E+06 -9.300912E+05 -5.261408E+05 -8.664392E+05  2.192568E+05  6.073686E+04
       215  10  2.711270E+04  1.318296E+05  1.607964E+05 -2.267455E+05  3.536411E-10  1.209873E-10
       215  11  1.089527E+05  2.064150E+05  1.607352E+05 -1.227691E+05  5.538323E-11 -1.135799E-09
       215  12  1.764656E+05  1.607981E+05  1.360403E+05 -1.708674E+04 -2.193714E-10  1.521489E-09
       215  13 -1.008263E+06 -2.328212E+05 -4.756929E+04 -4.992182E+05  1.928647E-09 -4.549590E-10
       215  14 -1.006935E+06 -2.436868E+05 -8.913742E+04 -4.715518E+05 -9.984243E-10 -1.036649E-09
       215  15 -1.029937E+06 -3.848031E+05 -1.950353E+05 -4.421773E+05  3.941520E-10 -7.261197E-11
       215  16 -2.042536E+06 -5.974005E+05 -2.559876E+05 -7.712793E+05  8.900454E-10 -1.487591E-10
       215  17 -2.121546E+06 -6.936167E+05 -3.390862E+05 -8.197311E+05 -1.196818E-09  1.256392E-09
       215  18 -2.234883E+06 -9.301081E+05 -5.262384E+05 -8.664500E+05 -9.692449E-10  7.284197E-10
       215  19  2.711899E+04  1.318340E+05  1.608113E+05 -2.267485E+05 -7.187834E+04  5.290899E+04
       215  20  1.089579E+05  2.064184E+05  1.607472E+05 -1.227715E+05 -6.565406E+04  4.597792E+04
       215  21  1.764679E+05  1.607987E+05  1.360444E+05 -1.708689E+04 -4.633584E+04  4.264646E+03
       215  22 -1.008258E+06 -2.328167E+05 -4.755655E+04 -4.992209E+05 -5.848941E+04  5.794909E+04
       215  23 -1.006924E+06 -2.436829E+05 -8.911580E+04 -4.715545E+05 -1.022442E+05  3.223779E+04
       215  24 -1.029917E+06 -3.847975E+05 -1.950005E+05 -4.421742E+05 -1.328888E+05 -2.828715E+04
       215  25 -2.042533E+06 -5.973957E+05 -2.559764E+05 -7.712816E+05 -4.512447E+04  6.298096E+04
       215  26 -2.121525E+06 -6.936112E+05 -3.390493E+05 -8.197332E+05 -1.387631E+05  1.853028E+04
       215  27 -2.234831E+06 -9.300912E+05 -5.261408E+05 -8.664392E+05 -2.192568E+05 -6.073686E+04
       216   1 -3.452309E+05 -1.246069E+05 -9.174928E+04 -2.252386E+04  5.040944E+04  1.581795E+04
       216   2 -2.276651E+05 -2.170509E+05 -1.178564E+05 -6.276027E+04  4.915345E+04  5.135835E+04
       216   3 -8.544499E+04 -2.124557E+05 -1.188579E+05 -1.334180E+05  4.792607E+04  5.804458E+04
       216   4  8.173689E+05  1.625850E+05  1.830234E+05 -1.204439E+05  1.272911E+05  1.587081E+04
       216   5  8.013044E+05  2.977898E+04  8.796825E+04 -1.051894E+05  8.167521E+04  5.136848E+04
       216   6  8.175168E+05  1.608306E+03  4.876632E+04 -1.203460E+05  3.609088E+04  5.803358E+04
       216   7  1.981244E+06  4.497196E+05  4.577299E+05 -2.185485E+05  2.043159E+05  1.589939E+04
       216   8  1.831290E+06  2.765513E+05  2.937445E+05 -1.476903E+05  1.142497E+05  5.137417E+04
       216   9  1.721269E+06  2.156263E+05  2.163567E+05 -1.072546E+05  2.423889E+04  5.802208E+04
       216  10 -3.452337E+05 -1.246079E+05 -9.175452E+04 -2.252451E+04  2.139884E-09 -7.476522E-10
       216  11 -2.276684E+05 -2.170544E+05 -1.178659E+05 -6.276230E+04  5.989474E-10  8.658131E-10
       216  12 -8.544837E+04 -2.124600E+05 -1.188685E+05 -1.334202E+05 -2.861046E-09  3.364736E-10
       216  13  8.173515E+05  1.625804E+05  1.829925E+05 -1.204455E+05  8.343417E-10  7.075414E-10
       216  14  8.012965E+05  2.977436E+04  8.795077E+04 -1.051928E+05  2.782957E-10  3.929210E-10
       216  15  8.175145E+05  1.604339E+03  4.875755E+04 -1.203477E+05  9.945687E-10  3.395582E-10
       216  16  1.981200E+06  4.497082E+05  4.576512E+05 -2.185511E+05 -9.383835E-10  5.510183E-10
       216  17  1.831276E+06  2.765450E+05  2.937150E+05 -1.476950E+05  1.155210E-09  3.843578E-10
       216  18  1.721267E+06  2.156225E+05  2.163493E+05 -1.072557E+05  3.255421E-09  2.064583E-09
       216  19 -3.452309E+05 -1.246069E+05 -9.174928E+04 -2.252386E+04 -5.040944E+04 -1.581795E+04
       216  20 -2.276651E+05 -2.170509E+05 -1.178564E+05 -6.276027E+04 -4.915345E+04 -5.135835E+04
       216  21 -8.544499E+04 -2.124557E+05 -1.188579E+05 -1.334180E+05 -4.792607E+04 -5.804458E+04
       216  22  8.173689E+05  1.625850E+05  1.830234E+05 -1.204439E+05 -1.272911E+05 -1.587081E+04
       216  23  8.013044E+05  2.977898E+04  8.796825E+04 -1.051894E+05 -8.167521E+04 -5.136848E+04
       216  24  8.175168E+05  1.608306E+03  4.876632E+04 -1.203460E+05 -3.609088E+04 -5.803358E+04
       216  25  1.981244E+06  4.497196E+05  4.577299E+05 -2.185485E+05 -2.043159E+05 -1.589939E+04
       216  26  1.831290E+06  2.765513E+05  2.937445E+05 -1.476903E+05 -1.142497E+05 -5.137417E+04
       216  27  1.721269E+06  2.156263E+05  2.163567E+05 -1.072546E+05 -2.423889E+04 -5.802208E+04
       217   1 -4.666552E+03 -1.868219E+05 -1.132043E+05 -1.186256E+05  3.713220E+04  5.325103E+04
       217   2  1.235068E+05 -1.614310E+05 -1.035902E+05 -1.043275E+05  3.033665E+04  4.725785E+04
       217   3  2.537532E+05 -1.317330E+05 -8.844978E+04 -1.220372E+05  2.353649E+04  3.900836E+04
       217   4  8.109569E+05  6.347355E+03  3.736954E+04 -1.207202E+05  2.968932E+04  5.324264E+04
       217   5  8.096612E+05  5.707475E+02  2.060656E+04 -1.047172E+05  1.941507E+04  4.725131E+04
       217   6  8.110214E+05 -2.983026E+02  1.177664E+04 -1.207195E+05  9.137619E+03  3.900489E+04
       217   7  1.627225E+06  1.994787E+05  1.879159E+05 -1.228176E+05  2.223689E+04  5.323431E+04
       217   8  1.496274E+06  1.625462E+05  1.447852E+05 -1.051073E+05  8.481752E+03  4.724478E+04
       217   9  1.368592E+06  1.311192E+05  1.119918E+05 -1.194006E+05 -5.273817E+03  3.900136E+04
       217  10 -4.668794E+03 -1.868253E+05 -1.132122E+05 -1.186272E+05  6.078839E-10  4.788035E-10
       217  11  1.235052E+05 -1.614337E+05 -1.035961E+05 -1.043286E+05  2.034991E-10  4.413562E-10
       217  12  2.537522E+05 -1.317347E+05 -8.845368E+04 -1.220380E+05 -4.126047E-10 -5.509467E-10
       217  13  8.109552E+05  6.344074E+03  3.736256E+04 -1.207215E+05 -1.325738E-09  1.558791E-09
       217  14  8.096602E+05  5.682478E+02  2.060165E+04 -1.047179E+05 -1.179675E-09  5.629523E-10
       217  15  8.110209E+05 -2.999594E+02  1.177362E+04 -1.207198E+05 -1.763313E-09 -4.840765E-10
       217  16  1.627224E+06  1.994755E+05  1.879097E+05 -1.228186E+05 -1.395940E-09  1.631171E-09
       217  17  1.496273E+06  1.625438E+05  1.447808E+05 -1.051077E+05  3.704369E-10  3.391538E-10
       217  18  1.368592E+06  1.311175E+05  1.119889E+05 -1.194004E+05 -8.287416E-12 -1.841311E-10
       217  19 -4.666552E+03 -1.868219E+05 -1.132043E+05 -1.186256E+05 -3.713220E+04 -5.325103E+04
       217  20  1.235068E+05 -1.614310E+05 -1.035902E+05 -1.043275E+05 -3.033665E+04 -4.725785E+04
       217  21  2.537532E+05 -1.317330E+05 -8.844978E+04 -1.220372E+05 -2.353649E+04 -3.900836E+04
       217  22  8.109569E+05  6.347355E+03  3.736954E+04 -1.207202E+05 -2.968932E+04 -5.324264E+04
       217  23  8.096612E+05  5.707475E+02  2.060656E+04 -1.047172E+05 -1.941507E+04 -4.725131E+04
       217  24  8.110214E+05 -2.983026E+02  1.177664E+04 -1.207195E+05 -9.137619E+03 -3.900489E+04
       217  25  1.627225E+06  1.994787E+05  1.879159E+05 -1.228176E+05 -2.223689E+04 -5.323431E+04
       217  26  1.496274E+06  1.625462E+05  1.447852E+05 -1.051073E+05 -8.481752E+03 -4.724478E+04
       217  27  1.368592E+06  1.311192E+05  1.119918E+05 -1.194006E+05  5.273817E+03 -3.900136E+04
       218   1  3.392454E+05 -1.110667E+05 -7.527046E+04 -1.212215E+05  2.136583E+04  3.353041E+04
       218   2  4.680303E+05 -8.082408E+04 -5.612402E+04 -1.050435E+05  1.911677E+04  2.429895E+04
       218   3  5.971953E+05 -5.040035E+04 -3.546193E+04 -1.209475E+05  1.686481E+04  1.489382E+04
       218   4  8.105401E+05 -2.397070E+01  8.946065E+03 -1.207367E+05  7.317040E+03  3.352858E+04
       218   5  8.103493E+05 -1.654153E+02  5.093363E+03 -1.046963E+05  4.798044E+03  2.429897E+04
       218   6  8.105703E+05 -7.814537E+01  2.942504E+03 -1.207369E+05  2.276597E+03  1.489576E+04
       218   7  1.282052E+06  1.110066E+05  9.315488E+04 -1.202516E+05 -6.742102E+03  3.352673E+04
       218   8  1.152783E+06  8.048687E+04  6.630704E+04 -1.043490E+05 -9.528347E+03  2.429897E+04
       218   9  1.023990E+06  5.024164E+04  4.134597E+04 -1.205263E+05 -1.231649E+04  1.489770E+04
       218  10  3.392446E+05 -1.110681E+05 -7.527343E+04 -1.212221E+05  1.089314E-10 -4.873429E-10
       218  11  4.680297E+05 -8.082481E+04 -5.612581E+04 -1.050439E+05 -8.110640E-10  2.055779E-10
       218  12  5.971950E+05 -5.040066E+04 -3.546288E+04 -1.209477E+05  5.090106E-10 -6.254731E-11
       218  13  8.105397E+05 -2.519273E+01  8.943851E+03 -1.207369E+05 -8.394624E-10 -3.960064E-10
       218  14  8.103491E+05 -1.660557E+02  5.092210E+03 -1.046964E+05  5.386493E-10  1.170563E-10
       218  15  8.105702E+05 -7.838513E+01  2.942077E+03 -1.207369E+05 -9.734040E-10  2.994536E-10
       218  16  1.282051E+06  1.110054E+05  9.315268E+04 -1.202514E+05 -6.883558E-10 -1.860089E-10
       218  17  1.152783E+06  8.048621E+04  6.630576E+04 -1.043488E+05  2.312379E-10 -6.292261E-11
       218  18  1.023990E+06  5.024136E+04  4.134527E+04 -1.205261E+05  1.104090E-09  2.581054E-10
       218  19  3.392454E+05 -1.110667E+05 -7.527046E+04 -1.212215E+05 -2.136583E+04 -3.353041E+04
       218  20  4.680303E+05 -8.082408E+04 -5.612402E+04 -1.050435E+05 -1.911677E+04 -2.429895E+04
       218  21  5.971953E+05 -5.040035E+04 -3.546193E+04 -1.209475E+05 -1.686481E+04 -1.489382E+04
       218  22  8.105401E+05 -2.397070E+01  8.946065E+03 -1.207367E+05 -7.317040E+03 -3.352858E+04
       218  23  8.103493E+05 -1.654153E+02  5.093363E+03 -1.046963E+05 -4.798044E+03 -2.429897E+04
       218  24  8.105703E+05 -7.814537E+01  2.942504E+03 -1.207369E+05 -2.276597E+03 -1.489576E+04
       218  25  1.282052E+06  1.110066E+05  9.315488E+04 -1.202516E+05  6.742102E+03 -3.352673E+04
       218  26  1.152783E+06  8.048687E+04  6.630704E+04 -1.043490E+05  9.528347E+03 -2.429897E+04
       218  27  1.023990E+06  5.024164E+04  4.134597E+04 -1.205263E+05  1.231649E+04 -1.489770E+04
       219   1  6.829333E+05 -3.004281E+04 -2.025183E+04 -1.208909E+05  1.636593E+04  9.368906E+03
       219   2  8.118010E+05  2.780904E+02  1.541247E+03 -1.048036E+05  1.573832E+04 -1.081493E+02
       219   3  9.407753E+05  3.060494E+04  2.374477E+04 -1.207900E+05  1.511059E+04 -9.597838E+03
       219   4  8.105050E+05 -5.123923E+01  2.241790E+03 -1.207353E+05  1.806069E+03  9.371409E+03
       219   5  8.104592E+05 -3.599010E+01  1.311182E+03 -1.046985E+05  1.157371E+03 -1.056674E+02
       219   6  8.105052E+05 -1.104183E+01  8.045051E+02 -1.207353E+05  5.086770E+02 -9.595347E+03
       219   7  9.380929E+05  2.993956E+04  2.473561E+04 -1.205797E+05 -1.275669E+04  9.373904E+03
       219   8  8.091179E+05 -3.499567E+02  1.081916E+03 -1.045934E+05 -1.342355E+04 -1.031904E+02
       219   9  6.802521E+05 -3.062784E+04 -2.213558E+04 -1.206807E+05 -1.409027E+04 -9.592859E+03
       219  10  6.829330E+05 -3.004298E+04 -2.025250E+04 -1.208910E+05 -1.000622E-09 -2.717129E-10
       219  11  8.118008E+05  2.780240E+02  1.540782E+03 -1.048036E+05 -1.324210E-09  7.037535E-11
       219  12  9.407750E+05  3.060478E+04  2.374417E+04 -1.207899E+05 -1.864453E-09  3.652005E-10
       219  13  8.105049E+05 -5.133445E+01  2.241619E+03 -1.207353E+05 -8.435231E-12  1.466114E-10
       219  14  8.104592E+05 -3.599047E+01  1.311180E+03 -1.046985E+05 -6.850754E-10  4.432098E-10
       219  15  8.105051E+05 -1.114080E+01  8.043315E+02 -1.207353E+05 -3.012754E-09  3.158600E-10
       219  16  9.380927E+05  2.993942E+04  2.473514E+04 -1.205796E+05  5.745281E-10  5.734534E-10
       219  17  8.091177E+05 -3.500050E+02  1.081578E+03 -1.045934E+05 -4.367600E-10  9.164194E-10
       219  18  6.802518E+05 -3.062799E+04 -2.213613E+04 -1.206808E+05  1.163474E-10  5.120005E-10
       219  19  6.829333E+05 -3.004281E+04 -2.025183E+04 -1.208909E+05 -1.636593E+04 -9.368906E+03
       219  20  8.118010E+05  2.780904E+02  1.541247E+03 -1.048036E+05 -1.573832E+04  1.081493E+02
       219  21  9.407753E+05  3.060494E+04  2.374477E+04 -1.207900E+05 -1.511059E+04  9.597838E+03
       219  22  8.105050E+05 -5.123923E+01  2.241790E+03 -1.207353E+05 -1.806069E+03 -9.371409E+03
       219  23  8.104592E+05 -3.599010E+01  1.311182E+03 -1.046985E+05 -1.157371E+03  1.056674E+02
       219  24  8.105052E+05 -1.104183E+01  8.045051E+02 -1.207353E+05 -5.086770E+02  9.595347E+03
       219  25  9.380929E+05  2.993956E+04  2.473561E+04 -1.205797E+05  1.275669E+04 -9.373904E+03
       219  26  8.091179E+05 -3.499567E+02  1.081916E+03 -1.045934E+05  1.342355E+04  1.031904E+02
       219  27  6.802521E+05 -3.062784E+04 -2.213558E+04 -1.206807E+05  1.409027E+04  9.592859E+03
       220   1  1.026585E+06  5.092636E+04  3.949575E+04 -1.207929E+05  1.498129E+04 -1.512557E+04
       220   2  1.155579E+06  8.121599E+04  6.205225E+04 -1.047039E+05  1.472507E+04 -2.461562E+04
       220   3  1.284650E+06  1.115058E+05  8.478079E+04 -1.207080E+05  1.447138E+04 -3.409310E+04
       220   4  8.104917E+05 -1.563186E+01  6.519133E+02 -1.207399E+05  3.750442E+02 -1.512366E+04
       220   5  8.104485E+05 -4.641162E+01  4.810018E+02 -1.046928E+05  1.368234E+02 -2.461564E+04
       220   6  8.104627E+05 -7.948382E+01  4.692559E+02 -1.207399E+05 -9.881580E+01 -3.409502E+04
       220   7  5.944443E+05 -5.096011E+04 -3.819293E+04 -1.206869E+05 -1.422626E+04 -1.512174E+04
       220   8  4.654343E+05 -8.131528E+04 -6.109396E+04 -1.046818E+05 -1.444356E+04 -2.461566E+04
       220   9  3.364947E+05 -1.116770E+05 -8.384992E+04 -1.207718E+05 -1.465823E+04 -3.409694E+04
       220  10  1.026585E+06  5.092605E+04  3.949490E+04 -1.207927E+05 -2.005004E-09  4.684378E-10
       220  11  1.155579E+06  8.121528E+04  6.205071E+04 -1.047036E+05  4.295003E-10  2.767350E-10
       220  12  1.284650E+06  1.115045E+05  8.477821E+04 -1.207076E+05 -1.546641E-09 -5.113179E-10
       220  13  8.104917E+05 -1.587760E+01  6.514831E+02 -1.207399E+05 -1.038831E-09  2.067128E-10
       220  14  8.104483E+05 -4.706253E+01  4.798627E+02 -1.046928E+05  5.771662E-10  1.746862E-10
       220  15  8.104623E+05 -8.073259E+01  4.670705E+02 -1.207399E+05 -1.116557E-09 -3.205380E-10
       220  16  5.944440E+05 -5.096041E+04 -3.819374E+04 -1.206871E+05 -2.681641E-10  4.068013E-11
       220  17  4.654339E+05 -8.131599E+04 -6.109550E+04 -1.046821E+05  7.290564E-10 -1.850834E-10
       220  18  3.364941E+05 -1.116783E+05 -8.385251E+04 -1.207722E+05  7.303206E-10  1.411775E-11
       220  19  1.026585E+06  5.092636E+04  3.949575E+04 -1.207929E+05 -1.498129E+04  1.512557E+04
       220  20  1.155579E+06  8.121599E+04  6.205225E+04 -1.047039E+05 -1.472507E+04  2.461562E+04
       220  21  1.284650E+06  1.115058E+05  8.478079E+04 -1.207080E+05 -1.447138E+04  3.409310E+04
       220  22  8.104917E+05 -1.563186E+01  6.519133E+02 -1.207399E+05 -3.750442E+02  1.512366E+04
       220  23  8.104485E+05 -4.641162E+01  4.810018E+02 -1.046928E+05 -1.368234E+02  2.461564E+04
       220  24  8.104627E+05 -7.948382E+01  4.692559E+02 -1.207399E+05  9.881580E+01  3.409502E+04
       220  25  5.944443E+05 -5.096011E+04 -3.819293E+04 -1.206869E+05  1.422626E+04  1.512174E+04
       220  26  4.654343E+05 -8.131528E+04 -6.109396E+04 -1.046818E+05  1.444356E+04  2.461566E+04
       220  27  3.364947E+05 -1.116770E+05 -8.384992E+04 -1.207718E+05  1.465823E+04  3.409694E+04
       221   1  1.370623E+06  1.318361E+05  1.007601E+05 -1.206867E+05  1.442657E+04 -3.962154E+04
       221   2  1.499821E+06  1.621579E+05  1.238493E+05 -1.044946E+05  1.373170E+04 -4.900843E+04
       221   3  1.629238E+06  1.925554E+05  1.474311E+05 -1.204450E+05  1.304169E+04 -5.817484E+04
       221   4  8.104646E+05 -1.028290E+02  5.183811E+02 -1.207511E+05 -1.875741E+02 -3.962517E+04
       221   5  8.103631E+05 -1.742025E+02  7.255302E+02 -1.046788E+05 -5.440499E+02 -4.901584E+04
       221   6  8.104062E+05 -2.273345E+02  1.191079E+03 -1.207511E+05 -8.955228E+02 -5.818586E+04
       221   7  2.506123E+05 -1.320590E+05 -9.973457E+04 -1.208155E+05 -1.478893E+04 -3.962880E+04
       221   8  1.213678E+05 -1.625325E+05 -1.224156E+05 -1.048628E+05 -1.480442E+04 -4.902324E+04
       221   9 -7.772726E+03 -1.930471E+05 -1.450738E+05 -1.210568E+05 -1.481491E+04 -5.819689E+04
       221  10  1.370622E+06  1.318343E+05  1.007568E+05 -1.206862E+05 -2.388767E-09 -3.072013E-10
       221  11  1.499821E+06  1.621553E+05  1.238445E+05 -1.044940E+05 -2.145898E-09 -4.672157E-10
       221  12  1.629237E+06  1.925518E+05  1.474245E+05 -1.204443E+05 -1.538221E-10 -8.787008E-10
       221  13  8.104641E+05 -1.045157E+02  5.154293E+02 -1.207511E+05 -1.111013E-09  3.061315E-11
       221  14  8.103624E+05 -1.767835E+02  7.210130E+02 -1.046788E+05  1.314751E-09  7.550887E-11
       221  15  8.104053E+05 -2.309717E+02  1.184713E+03 -1.207511E+05  2.911707E-10 -8.008125E-10
       221  16  2.506116E+05 -1.320608E+05 -9.973793E+04 -1.208160E+05  1.804790E-09  2.479850E-10
       221  17  1.213669E+05 -1.625351E+05 -1.224205E+05 -1.048634E+05 -6.820609E-10  4.701058E-10
       221  18 -7.773872E+03 -1.930508E+05 -1.450805E+05 -1.210575E+05 -1.355570E-09 -1.008287E-10
       221  19  1.370623E+06  1.318361E+05  1.007601E+05 -1.206867E+05 -1.442657E+04  3.962154E+04
       221  20  1.499821E+06  1.621579E+05  1.238493E+05 -1.044946E+05 -1.373170E+04  4.900843E+04
       221  21  1.629238E+06  1.925554E+05  1.474311E+05 -1.204450E+05 -1.304169E+04  5.817484E+04
       221  22  8.104646E+05 -1.028290E+02  5.183811E+02 -1.207511E+05  1.875741E+02  3.962517E+04
       221  23  8.103631E+05 -1.742025E+02  7.255302E+02 -1.046788E+05  5.440499E+02  4.901584E+04
       221  24  8.104062E+05 -2.273345E+02  1.191079E+03 -1.207511E+05  8.955228E+02  5.818586E+04
       221  25  2.506123E+05 -1.320590E+05 -9.973457E+04 -1.208155E+05  1.478893E+04  3.962880E+04
       221  26  1.213678E+05 -1.625325E+05 -1.224156E+05 -1.048628E+05  1.480442E+04  4.902324E+04
       221  27 -7.772726E+03 -1.930471E+05 -1.450738E+05 -1.210568E+05  1.481491E+04  5.819689E+04
       222   1  1.715635E+06  2.129358E+05  1.638585E+05 -1.202347E+05  1.326476E+04 -6.364527E+04
       222   2  1.844743E+06  2.436688E+05  1.893404E+05 -1.042056E+05  7.477299E+03 -7.154652E+04
       222   3  1.975171E+06  2.757913E+05  2.189801E+05 -1.202302E+05  1.692299E+03 -7.654046E+04
       222   4  8.104623E+05 -2.958144E+02  1.547176E+03 -1.207315E+05 -1.132193E+03 -6.365927E+04
       222   5  8.101540E+05 -2.692241E+02  2.643432E+03 -1.047032E+05 -2.441855E+03 -7.156309E+04
       222   6  8.103742E+05  3.722937E+02  4.794795E+03 -1.207319E+05 -3.747826E+03 -7.655719E+04
       222   7 -9.391358E+04 -2.135728E+05 -1.607949E+05 -1.212275E+05 -1.550879E+04 -6.367325E+04
       222   8 -2.233950E+05 -2.442669E+05 -1.840951E+05 -1.052000E+05 -1.234498E+04 -7.157967E+04
       222   9 -3.531100E+05 -2.751237E+05 -2.094463E+05 -1.212327E+05 -9.178035E+03 -7.657394E+04
       222  10  1.715634E+06  2.129314E+05  1.638505E+05 -1.202341E+05 -2.140780E-09 -1.244786E-09
       222  11  1.844741E+06  2.436633E+05  1.893307E+05 -1.042052E+05  1.272038E-09 -1.220199E-09
       222  12  1.975170E+06  2.757850E+05  2.189691E+05 -1.202301E+05  3.785831E-10 -2.032159E-09
       222  13  8.104612E+05 -3.001681E+02  1.539556E+03 -1.207315E+05 -1.034626E-09 -1.032567E-09
       222  14  8.101526E+05 -2.747272E+02  2.633794E+03 -1.047034E+05 -5.294644E-10 -9.420116E-10
       222  15  8.103726E+05  3.659937E+02  4.783750E+03 -1.207321E+05 -1.915097E-09 -1.504501E-09
       222  16 -9.391492E+04 -2.135772E+05 -1.608030E+05 -1.212283E+05  1.287576E-09 -4.022548E-10
       222  17 -2.233965E+05 -2.442725E+05 -1.841050E+05 -1.052007E+05 -1.808475E-09  1.291656E-09
       222  18 -3.531117E+05 -2.751301E+05 -2.094575E+05 -1.212333E+05 -1.510042E-09 -5.231052E-10
       222  19  1.715635E+06  2.129358E+05  1.638585E+05 -1.202347E+05 -1.326476E+04  6.364527E+04
       222  20  1.844743E+06  2.436688E+05  1.893404E+05 -1.042056E+05 -7.477299E+03  7.154652E+04
       222  21  1.975171E+06  2.757913E+05  2.189801E+05 -1.202302E+05 -1.692299E+03  7.654046E+04
       222  22  8.104623E+05 -2.958144E+02  1.547176E+03 -1.207315E+05  1.132193E+03  6.365927E+04
       222  23  8.101540E+05 -2.692241E+02  2.643432E+03 -1.047032E+05  2.441855E+03  7.156309E+04
       222  24  8.103742E+05  3.722937E+02  4.794795E+03 -1.207319E+05  3.747826E+03  7.655719E+04
       222  25 -9.391358E+04 -2.135728E+05 -1.607949E+05 -1.212275E+05  1.550879E+04  6.367325E+04
       222  26 -2.233950E+05 -2.442669E+05 -1.840951E+05 -1.052000E+05  1.234498E+04  7.157967E+04
       222  27 -3.531100E+05 -2.751237E+05 -2.094463E+05 -1.212327E+05  9.178035E+03  7.657394E+04
       223   1  2.064254E+06  2.962262E+05  2.378645E+05 -1.176070E+05  6.570340E+03 -8.112324E+04
       223   2  2.187696E+06  3.333958E+05  2.855810E+05 -1.095104E+05 -5.655846E+04 -6.982144E+04
       223   3  2.325554E+06  3.940362E+05  3.802427E+05 -1.313346E+05 -1.197735E+05 -2.131902E+04
       223   4  8.112144E+05 -2.884065E+02  6.258081E+03 -1.202522E+05 -4.566398E+03 -8.114792E+04
       223   5  8.089088E+05  3.265939E+03  1.123575E+04 -1.053048E+05 -1.037207E+04 -6.977650E+04
       223   6  8.110934E+05  2.038446E+04  2.344507E+04 -1.202772E+05 -1.624794E+04 -2.116820E+04
       223   7 -4.403069E+05 -2.968925E+05 -2.254135E+05 -1.228922E+05 -1.568129E+04 -8.117254E+04
       223   8 -5.680624E+05 -3.269787E+05 -2.631964E+05 -1.011091E+05  3.571413E+04 -6.973090E+04
       223   9 -7.012407E+05 -3.534245E+05 -3.334703E+05 -1.092474E+05  8.702726E+04 -2.101354E+04
       223  10  2.064252E+06  2.962192E+05  2.378521E+05 -1.176066E+05 -6.503360E-10 -2.769708E-09
       223  11  2.187691E+06  3.333897E+05  2.855658E+05 -1.095135E+05 -8.458169E-10 -4.059248E-09
       223  12  2.325539E+06  3.940318E+05  3.802150E+05 -1.313366E+05 -2.760534E-09 -1.180104E-09
       223  13  8.112126E+05 -2.954860E+02  6.245662E+03 -1.202525E+05 -8.421984E-10 -5.800491E-09
       223  14  8.089074E+05  3.260679E+03  1.122639E+04 -1.053053E+05  2.480288E-09  2.354144E-09
       223  15  8.110930E+05  2.038391E+04  2.344373E+04 -1.202774E+05 -7.392680E-10 -2.667264E-10
       223  16 -4.403089E+05 -2.968997E+05 -2.254263E+05 -1.228932E+05 -7.349069E-10 -1.695186E-09
       223  17 -5.680651E+05 -3.269843E+05 -2.632079E+05 -1.011071E+05  1.195076E-09  1.332193E-09
       223  18 -7.012490E+05 -3.534270E+05 -3.334853E+05 -1.092459E+05  1.555341E-09 -1.692366E-09
       223  19  2.064254E+06  2.962262E+05  2.378645E+05 -1.176070E+05 -6.570340E+03  8.112324E+04
       223  20  2.187696E+06  3.333958E+05  2.855810E+05 -1.095104E+05  5.655846E+04  6.982144E+04
       223  21  2.325554E+06  3.940362E+05  3.802427E+05 -1.313346E+05  1.197735E+05  2.131902E+04
       223  22  8.112144E+05 -2.884065E+02  6.258081E+03 -1.202522E+05  4.566398E+03  8.114792E+04
       223  23  8.089088E+05  3.265939E+03  1.123575E+04 -1.053048E+05  1.037207E+04  6.977650E+04
       223  24  8.110934E+05  2.038446E+04  2.344507E+04 -1.202772E+05  1.624794E+04  2.116820E+04
       223  25 -4.403069E+05 -2.968925E+05 -2.254135E+05 -1.228922E+05  1.568129E+04  8.117254E+04
       223  26 -5.680624E+05 -3.269787E+05 -2.631964E+05 -1.011091E+05 -3.571413E+04  6.973090E+04
       223  27 -7.012407E+05 -3.534245E+05 -3.334703E+05 -1.092474E+05 -8.702726E+04  2.101354E+04
       224   1  5.259789E+05  2.101089E+06  5.104433E+05 -4.861362E+05  2.239713E+04  1.293929E+05
       224   2  3.667788E+05  1.592635E+06  3.240341E+05 -4.153786E+05  6.709394E+04  4.095200E+04
       224   3  2.410604E+05  1.104134E+06  2.034246E+05 -4.649831E+05  6.022779E+04 -4.747642E+04
       224   4  3.067644E+04  9.944704E+04  3.331367E+04 -4.652739E+05  2.261659E+04  2.111680E+04
       224   5  6.561272E+03  9.668608E+04  1.760309E+04 -4.051175E+05  6.717040E+04  1.213286E+04
       224   6  2.219018E+03  9.992642E+04  1.265996E+04 -4.653317E+05  6.010749E+04  3.088973E+03
       224   7 -4.649075E+05 -1.898503E+06 -4.440531E+05 -4.444760E+05  2.282925E+04 -8.681276E+04
       224   8 -3.537959E+05 -1.397139E+06 -2.889437E+05 -3.948798E+05  6.724603E+04 -1.661825E+04
       224   9 -2.366800E+05 -9.033041E+05 -1.781403E+05 -4.656787E+05  5.998701E+04  5.357465E+04
       224  10  5.259739E+05  2.101071E+06  5.104110E+05 -4.861385E+05  3.043182E-10  2.667547E-08
       224  11  3.667735E+05  1.592632E+06  3.240224E+05 -4.153808E+05 -8.078600E-10 -4.454985E-09
       224  12  2.410559E+05  1.104130E+06  2.034136E+05 -4.649808E+05 -1.855748E-09 -3.057326E-08
       224  13  3.067577E+04  9.944642E+04  3.331187E+04 -4.652743E+05  1.133169E-09  1.974636E-12
       224  14  6.556386E+03  9.668471E+04  1.759433E+04 -4.051182E+05 -1.670034E-10 -8.670268E-10
       224  15  2.215135E+03  9.992544E+04  1.265315E+04 -4.653318E+05 -8.608790E-10 -2.231470E-10
       224  16 -4.649101E+05 -1.898511E+06 -4.440683E+05 -4.444744E+05  6.801083E-10 -2.593093E-08
       224  17 -3.538009E+05 -1.397141E+06 -2.889527E+05 -3.948789E+05  3.711323E-10  2.620821E-09
       224  18 -2.366846E+05 -9.033081E+05 -1.781524E+05 -4.656813E+05 -2.504797E-09  3.157997E-08
       224  19  5.259789E+05  2.101089E+06  5.104433E+05 -4.861362E+05 -2.239713E+04 -1.293929E+05
       224  20  3.667788E+05  1.592635E+06  3.240341E+05 -4.153786E+05 -6.709394E+04 -4.095200E+04
       224  21  2.410604E+05  1.104134E+06  2.034246E+05 -4.649831E+05 -6.022779E+04  4.747642E+04
       224  22  3.067644E+04  9.944704E+04  3.331367E+04 -4.652739E+05 -2.261659E+04 -2.111680E+04
       224  23  6.561272E+03  9.668608E+04  1.760309E+04 -4.051175E+05 -6.717040E+04 -1.213286E+04
       224  24  2.219018E+03  9.992642E+04  1.265996E+04 -4.653317E+05 -6.010749E+04 -3.088973E+03
       224  25 -4.649075E+05 -1.898503E+06 -4.440531E+05 -4.444760E+05 -2.282925E+04  8.681276E+04
       224  26 -3.537959E+05 -1.397139E+06 -2.889437E+05 -3.948798E+05 -6.724603E+04  1.661825E+04
       224  27 -2.366800E+05 -9.033041E+05 -1.781403E+05 -4.656787E+05 -5.998701E+04 -5.357465E+04
       225   1  1.625348E+05  7.691768E+05  1.392361E+05 -4.681904E+05  4.032121E+04 -4.209492E+04
       225   2  4.299592E+04  2.706541E+05  4.439552E+04 -4.044663E+05  1.193610E+04 -4.969056E+04
       225   3 -7.272491E+04 -2.262183E+05 -4.470829E+04 -4.640962E+05 -1.709452E+04 -5.728580E+04
       225   4  3.104067E+03  9.897645E+04  1.197937E+04 -4.659876E+05  4.021076E+04  1.069367E+03
       225   5  2.299282E+03  9.838529E+04  1.313966E+04 -4.043077E+05  1.182047E+04 -5.547791E+03
       225   6  5.154486E+03  9.903221E+04  1.935717E+04 -4.659825E+05 -1.721596E+04 -1.217031E+04
       225   7 -1.563519E+05 -5.707871E+05 -1.152905E+05 -4.637868E+05  4.010054E+04  4.418822E+04
       225   8 -3.839798E+04 -7.385042E+04 -1.811005E+04 -4.041491E+05  1.170484E+04  3.858307E+04
       225   9  8.302858E+04  4.243884E+05  8.342513E+04 -4.678696E+05 -1.733764E+04  3.296833E+04
       225  10  1.625325E+05  7.691745E+05  1.392298E+05 -4.681890E+05 -4.800895E-10  3.076221E-09
       225  11  4.299511E+04  2.706514E+05  4.439062E+04 -4.044658E+05  1.012042E-09 -3.388019E-09
       225  12 -7.272611E+04 -2.262219E+05 -4.471501E+04 -4.640970E+05  2.404549E-10 -2.880332E-09
       225  13  3.102331E+03  9.897601E+04  1.197633E+04 -4.659876E+05 -1.569625E-10 -7.041192E-12
       225  14  2.299124E+03  9.838522E+04  1.313934E+04 -4.043076E+05  1.393189E-09 -1.069435E-09
       225  15  5.154128E+03  9.903197E+04  1.935633E+04 -4.659826E+05 -5.097443E-10 -2.489709E-10
       225  16 -1.563542E+05 -5.707896E+05 -1.152972E+05 -4.637882E+05 -9.076504E-10 -1.973933E-09
       225  17 -3.839853E+04 -7.385206E+04 -1.811311E+04 -4.041495E+05  1.583334E-09  1.435699E-10
       225  18  8.302797E+04  4.243872E+05  8.342252E+04 -4.678692E+05  3.777924E-10  4.027127E-09
       225  19  1.625348E+05  7.691768E+05  1.392361E+05 -4.681904E+05 -4.032121E+04  4.209492E+04
       225  20  4.299592E+04  2.706541E+05  4.439552E+04 -4.044663E+05 -1.193610E+04  4.969056E+04
       225  21 -7.272491E+04 -2.262183E+05 -4.470829E+04 -4.640962E+05  1.709452E+04  5.728580E+04
       225  22  3.104067E+03  9.897645E+04  1.197937E+04 -4.659876E+05 -4.021076E+04 -1.069367E+03
       225  23  2.299282E+03  9.838529E+04  1.313966E+04 -4.043077E+05 -1.182047E+04  5.547791E+03
       225  24  5.154486E+03  9.903221E+04  1.935717E+04 -4.659825E+05  1.721596E+04  1.217031E+04
       225  25 -1.563519E+05 -5.707871E+05 -1.152905E+05 -4.637868E+05 -4.010054E+04 -4.418822E+04
       225  26 -3.839798E+04 -7.385042E+04 -1.811005E+04 -4.041491E+05 -1.170484E+04 -3.858307E+04
       225  27  8.302858E+04  4.243884E+05  8.342513E+04 -4.678696E+05  1.733764E+04 -3.296833E+04
       226   1 -1.542436E+05 -5.565015E+05 -1.031739E+05 -4.700925E+05 -3.717451E+04 -6.663506E+04
       226   2 -2.626222E+05 -1.055806E+06 -1.972300E+05 -3.830339E+05 -4.895480E+04 -2.161158E+04
       226   3 -3.332215E+05 -1.551558E+06 -3.112681E+05 -4.168949E+05 -1.739870E+04  2.343740E+04
       226   4  2.922145E+03  1.019898E+05  2.412944E+04 -4.654565E+05 -3.730749E+04 -1.551498E+04
       226   5  1.540986E+04  9.438782E+04  4.149610E+04 -4.049340E+05 -4.891055E+04 -3.699540E+04
       226   6  7.719405E+04  1.016180E+05  8.506812E+04 -4.652963E+05 -1.721772E+04 -5.841426E+04
       226   7  1.600636E+05  7.609037E+05  1.514224E+05 -4.608151E+05 -3.743961E+04  3.565814E+04
       226   8  2.933596E+05  1.245837E+06  2.801511E+05 -4.268743E+05 -4.886527E+04 -5.240722E+04
       226   9  4.874230E+05  1.757320E+06  4.812371E+05 -5.138252E+05 -1.702427E+04 -1.404832E+05
       226  10 -1.542463E+05 -5.565066E+05 -1.031848E+05 -4.700945E+05  5.630911E-10  3.668590E-09
       226  11 -2.626249E+05 -1.055807E+06 -1.972354E+05 -3.830348E+05  1.663334E-09 -1.774100E-09
       226  12 -3.332220E+05 -1.551559E+06 -3.112697E+05 -4.168946E+05  7.817794E-10 -1.941519E-09
       226  13  2.920585E+03  1.019891E+05  2.412637E+04 -4.654570E+05  1.109800E-09 -7.797921E-12
       226  14  1.540692E+04  9.438571E+04  4.148903E+04 -4.049355E+05  3.103417E-10 -9.035321E-10
       226  15  7.719282E+04  1.016142E+05  8.506114E+04 -4.652972E+05  4.245111E-10 -1.591137E-10
       226  16  1.600618E+05  7.609019E+05  1.514174E+05 -4.608140E+05 -1.076402E-09 -2.477234E-09
       226  17  2.933563E+05  1.245834E+06  2.801415E+05 -4.268763E+05  1.131980E-10 -5.758683E-10
       226  18  4.874174E+05  1.757299E+06  4.811996E+05 -5.138271E+05  1.889606E-10  3.013362E-09
       226  19 -1.542436E+05 -5.565015E+05 -1.031739E+05 -4.700925E+05  3.717451E+04  6.663506E+04
       226  20 -2.626222E+05 -1.055806E+06 -1.972300E+05 -3.830339E+05  4.895480E+04  2.161158E+04
       226  21 -3.332215E+05 -1.551558E+06 -3.112681E+05 -4.168949E+05  1.739870E+04 -2.343740E+04
       226  22  2.922145E+03  1.019898E+05  2.412944E+04 -4.654565E+05  3.730749E+04  1.551498E+04
       226  23  1.540986E+04  9.438782E+04  4.149610E+04 -4.049340E+05  4.891055E+04  3.699540E+04
       226  24  7.719405E+04  1.016180E+05  8.506812E+04 -4.652963E+05  1.721772E+04  5.841426E+04
       226  25  1.600636E+05  7.609037E+05  1.514224E+05 -4.608151E+05  3.743961E+04 -3.565814E+04
       226  26  2.933596E+05  1.245837E+06  2.801511E+05 -4.268743E+05  4.886527E+04  5.240722E+04
       226  27  4.874230E+05  1.757320E+06  4.812371E+05 -5.138252E+05  1.702427E+04  1.404832E+05
       227   1 -1.382636E+06 -6.196119E+05 -3.555091E+05 -5.569061E+05 -1.569113E+05 -4.639175E+04
       227   2 -1.304224E+06 -4.353288E+05 -2.181055E+05 -5.234727E+05 -9.821500E+04  3.678631E+03
       227   3 -1.254069E+06 -3.611302E+05 -1.568869E+05 -4.859602E+05 -3.170830E+04  3.303389E+04
       227   4 -6.840234E+05 -2.817062E+05 -1.592857E+05 -2.883766E+05 -1.068795E+05 -2.760319E+04
       227   5 -6.640518E+05 -1.675605E+05 -7.278858E+04 -3.137209E+05 -7.789176E+04  1.130778E+04
       227   6 -6.664028E+05 -1.575544E+05 -3.885734E+04 -3.350033E+05 -4.110754E+04  2.949938E+04
       227   7  1.507775E+04  5.633039E+04  3.690112E+04 -1.954300E+04 -5.678666E+04 -8.776340E+03
       227   8 -2.346054E+04  1.002739E+05  7.250327E+04 -1.037586E+05 -5.754593E+04  1.894806E+04
       227   9 -7.837821E+04  4.604293E+04  7.915657E+04 -1.839172E+05 -5.051642E+04  2.596170E+04
       227  10 -1.382663E+06 -6.196208E+05 -3.555595E+05 -5.569120E+05  4.850741E-11 -5.606824E-10
       227  11 -1.304235E+06 -4.353314E+05 -2.181237E+05 -5.234724E+05  7.260058E-10  4.604815E-10
       227  12 -1.254070E+06 -3.611316E+05 -1.568908E+05 -4.859594E+05 -1.406484E-10 -8.505664E-10
       227  13 -6.840359E+05 -2.817101E+05 -1.593087E+05 -2.883790E+05 -7.774051E-10  1.060503E-09
       227  14 -6.640584E+05 -1.675623E+05 -7.280023E+04 -3.137202E+05 -2.845829E-10 -4.244535E-11
       227  15 -6.664048E+05 -1.575558E+05 -3.886215E+04 -3.350023E+05 -1.645185E-09  6.108757E-10
       227  16  1.507427E+04  5.632944E+04  3.689492E+04 -1.954341E+04  3.829953E-10  4.105983E-10
       227  17 -2.346419E+04  1.002727E+05  7.249637E+04 -1.037577E+05 -8.387473E-10  1.658512E-09
       227  18 -7.838113E+04  4.604153E+04  7.915051E+04 -1.839162E+05 -1.500189E-09  1.002459E-09
       227  19 -1.382636E+06 -6.196119E+05 -3.555091E+05 -5.569061E+05  1.569113E+05  4.639175E+04
       227  20 -1.304224E+06 -4.353288E+05 -2.181055E+05 -5.234727E+05  9.821500E+04 -3.678631E+03
       227  21 -1.254069E+06 -3.611302E+05 -1.568869E+05 -4.859602E+05  3.170830E+04 -3.303389E+04
       227  22 -6.840234E+05 -2.817062E+05 -1.592857E+05 -2.883766E+05  1.068795E+05  2.760319E+04
       227  23 -6.640518E+05 -1.675605E+05 -7.278858E+04 -3.137209E+05  7.789176E+04 -1.130778E+04
       227  24 -6.664028E+05 -1.575544E+05 -3.885734E+04 -3.350033E+05  4.110754E+04 -2.949938E+04
       227  25  1.507775E+04  5.633039E+04  3.690112E+04 -1.954300E+04  5.678666E+04  8.776340E+03
       227  26 -2.346054E+04  1.002739E+05  7.250327E+04 -1.037586E+05  5.754593E+04 -1.894806E+04
       227  27 -7.837821E+04  4.604293E+04  7.915657E+04 -1.839172E+05  5.051642E+04 -2.596170E+04
       228   1 -1.179895E+06 -3.532633E+05 -1.352938E+05 -4.769195E+05 -2.974446E+04  2.941160E+04
       228   2 -1.100677E+06 -3.073423E+05 -1.020852E+05 -4.435119E+05 -1.812010E+04  2.863679E+04
       228   3 -1.007600E+06 -2.825501E+05 -7.742370E+04 -4.285322E+05 -5.959171E+03  2.643113E+04
       228   4 -6.614932E+05 -1.618700E+05 -2.965750E+04 -3.314059E+05 -3.519751E+04  2.736029E+04
       228   5 -6.682571E+05 -1.490158E+05 -1.566975E+04 -3.231208E+05 -2.562130E+04  2.581794E+04
       228   6 -6.607617E+05 -1.568818E+05 -8.599072E+03 -3.332661E+05 -1.551012E+04  2.284472E+04
       228   7 -1.428181E+05  2.954603E+04  7.596419E+04 -1.857806E+05 -4.065541E+04  2.530712E+04
       228   8 -2.356442E+05  9.327236E+03  7.073698E+04 -2.026519E+05 -3.312812E+04  2.299698E+04
       228   9 -3.137960E+05 -3.120224E+04  6.022107E+04 -2.379501E+05 -2.506689E+04  1.925616E+04
       228  10 -1.179897E+06 -3.532644E+05 -1.352971E+05 -4.769188E+05 -2.107799E-10 -1.094851E-09
       228  11 -1.100677E+06 -3.073433E+05 -1.020874E+05 -4.435115E+05 -2.665466E-10  1.242375E-11
       228  12 -1.007600E+06 -2.825509E+05 -7.742508E+04 -4.285320E+05  4.870021E-10 -1.701486E-10
       228  13 -6.614947E+05 -1.618711E+05 -2.966123E+04 -3.314051E+05 -1.029057E-09 -1.467162E-11
       228  14 -6.682580E+05 -1.490167E+05 -1.567223E+04 -3.231203E+05 -1.128033E-09  6.083512E-10
       228  15 -6.607621E+05 -1.568824E+05 -8.600504E+03 -3.332658E+05  8.503391E-10 -1.838124E-10
       228  16 -1.428201E+05  2.954490E+04  7.595988E+04 -1.857797E+05 -6.390705E-10  5.554797E-10
       228  17 -2.356455E+05  9.326374E+03  7.073392E+04 -2.026513E+05  1.272176E-09  1.097871E-09
       228  18 -3.137968E+05 -3.120281E+04  6.021919E+04 -2.379497E+05 -7.975600E-11 -1.390924E-10
       228  19 -1.179895E+06 -3.532633E+05 -1.352938E+05 -4.769195E+05  2.974446E+04 -2.941160E+04
       228  20 -1.100677E+06 -3.073423E+05 -1.020852E+05 -4.435119E+05  1.812010E+04 -2.863679E+04
       228  21 -1.007600E+06 -2.825501E+05 -7.742370E+04 -4.285322E+05  5.959171E+03 -2.643113E+04
       228  22 -6.614932E+05 -1.618700E+05 -2.965750E+04 -3.314059E+05  3.519751E+04 -2.736029E+04
       228  23 -6.682571E+05 -1.490158E+05 -1.566975E+04 -3.231208E+05  2.562130E+04 -2.581794E+04
       228  24 -6.607617E+05 -1.568818E+05 -8.599072E+03 -3.332661E+05  1.551012E+04 -2.284472E+04
       228  25 -1.428181E+05  2.954603E+04  7.596419E+04 -1.857806E+05  4.065541E+04 -2.530712E+04
       228  26 -2.356442E+05  9.327236E+03  7.073698E+04 -2.026519E+05  3.312812E+04 -2.299698E+04
       228  27 -3.137960E+05 -3.120224E+04  6.022107E+04 -2.379501E+05  2.506689E+04 -1.925616E+04
       229   1 -9.478462E+05 -2.616233E+05 -6.315231E+04 -4.125499E+05 -3.565625E+03  2.291172E+04
       229   2 -8.691090E+05 -2.214218E+05 -4.317929E+04 -3.788693E+05  8.047920E+02  1.712001E+04
       229   3 -7.738771E+05 -1.982503E+05 -2.468905E+04 -3.644481E+05  5.211955E+03  1.122720E+04
       229   4 -6.603945E+05 -1.570695E+05 -6.475270E+03 -3.330661E+05 -1.285072E+04  1.942600E+04
       229   5 -6.686372E+05 -1.485066E+05 -3.570865E+03 -3.234558E+05 -8.625048E+03  1.358094E+04
       229   6 -6.603643E+05 -1.569451E+05 -2.034051E+03 -3.331071E+05 -4.362939E+03  7.634717E+03
       229   7 -3.728571E+05 -5.250851E+04  5.019829E+04 -2.535483E+05 -2.214043E+04  1.593857E+04
       229   8 -4.681245E+05 -7.558826E+04  3.603582E+04 -2.680259E+05 -1.805812E+04  1.004067E+04
       229   9 -5.468390E+05 -1.156391E+05  2.062045E+04 -3.017611E+05 -1.393963E+04  4.041565E+03
       229  10 -9.478463E+05 -2.616238E+05 -6.315332E+04 -4.125498E+05  1.865710E-09  1.175060E-10
       229  11 -8.691091E+05 -2.214221E+05 -4.317984E+04 -3.788694E+05  7.084219E-10 -4.101866E-10
       229  12 -7.738771E+05 -1.982505E+05 -2.468934E+04 -3.644481E+05 -5.761655E-10 -7.497309E-11
       229  13 -6.603948E+05 -1.570699E+05 -6.476289E+03 -3.330659E+05 -9.723960E-10 -2.412531E-10
       229  14 -6.686374E+05 -1.485068E+05 -3.571352E+03 -3.234557E+05 -1.269512E-09 -3.173175E-11
       229  15 -6.603643E+05 -1.569452E+05 -2.034196E+03 -3.331071E+05  3.376950E-10 -5.418656E-10
       229  16 -3.728577E+05 -5.250891E+04  5.019689E+04 -2.535480E+05 -1.501752E-09 -8.490089E-10
       229  17 -4.681249E+05 -7.558846E+04  3.603502E+04 -2.680257E+05  8.299428E-10 -1.292530E-09
       229  18 -5.468392E+05 -1.156391E+05  2.062006E+04 -3.017610E+05  8.446805E-10 -6.110052E-10
       229  19 -9.478462E+05 -2.616233E+05 -6.315231E+04 -4.125499E+05  3.565625E+03 -2.291172E+04
       229  20 -8.691090E+05 -2.214218E+05 -4.317929E+04 -3.788693E+05 -8.047920E+02 -1.712001E+04
       229  21 -7.738771E+05 -1.982503E+05 -2.468905E+04 -3.644481E+05 -5.211955E+03 -1.122720E+04
       229  22 -6.603945E+05 -1.570695E+05 -6.475270E+03 -3.330661E+05  1.285072E+04 -1.942600E+04
       229  23 -6.686372E+05 -1.485066E+05 -3.570865E+03 -3.234558E+05  8.625048E+03 -1.358094E+04
       229  24 -6.603643E+05 -1.569451E+05 -2.034051E+03 -3.331071E+05  4.362939E+03 -7.634717E+03
       229  25 -3.728571E+05 -5.250851E+04  5.019829E+04 -2.535483E+05  2.214043E+04 -1.593857E+04
       229  26 -4.681245E+05 -7.558826E+04  3.603582E+04 -2.680259E+05  1.805812E+04 -1.004067E+04
       229  27 -5.468390E+05 -1.156391E+05  2.062045E+04 -3.017611E+05  1.393963E+04 -4.041565E+03
       230   1 -7.148369E+05 -1.767054E+05 -1.209181E+04 -3.481448E+05  6.950934E+03  7.453959E+03
       230   2 -6.361998E+05 -1.366574E+05  5.378679E+03 -3.143929E+05  9.972615E+03  9.953106E+02
       230   3 -5.408104E+05 -1.134398E+05  2.245740E+04 -2.999008E+05  1.299661E+04 -5.468771E+03
       230   4 -6.603182E+05 -1.569524E+05 -1.581843E+03 -3.330898E+05 -2.607331E+03  3.867964E+03
       230   5 -6.686924E+05 -1.485473E+05 -1.036056E+03 -3.234545E+05  4.057322E+02 -2.594110E+03
       230   6 -6.603225E+05 -1.569725E+05 -8.759367E+02 -3.330829E+05  3.421014E+03 -9.061619E+03
       230   7 -6.057957E+05 -1.371990E+05  8.928513E+03 -3.180334E+05 -1.216658E+04  2.816047E+02
       230   8 -7.011838E+05 -1.604371E+05 -7.450487E+03 -3.325157E+05 -9.160655E+03 -6.183343E+03
       230   9 -7.798195E+05 -2.005039E+05 -2.420953E+04 -3.662590E+05 -6.152602E+03 -1.265373E+04
       230  10 -7.148370E+05 -1.767054E+05 -1.209200E+04 -3.481448E+05  1.276551E-09 -7.808786E-11
       230  11 -6.361999E+05 -1.366575E+05  5.378490E+03 -3.143929E+05  3.864085E-09 -3.234340E-10
       230  12 -5.408106E+05 -1.134399E+05  2.245703E+04 -2.999008E+05  1.056615E-09 -1.861560E-09
       230  13 -6.603182E+05 -1.569524E+05 -1.581884E+03 -3.330898E+05  1.436171E-09  1.182337E-10
       230  14 -6.686924E+05 -1.485473E+05 -1.036069E+03 -3.234545E+05  8.575992E-10 -2.792991E-10
       230  15 -6.603225E+05 -1.569726E+05 -8.761129E+02 -3.330829E+05 -4.607359E-09 -2.527301E-09
       230  16 -6.057959E+05 -1.371990E+05  8.928235E+03 -3.180334E+05  3.922713E-10  1.776375E-10
       230  17 -7.011839E+05 -1.604372E+05 -7.450716E+03 -3.325157E+05 -1.923587E-09  3.533577E-11
       230  18 -7.798196E+05 -2.005041E+05 -2.420991E+04 -3.662590E+05 -1.083396E-08 -2.895137E-09
       230  19 -7.148369E+05 -1.767054E+05 -1.209181E+04 -3.481448E+05 -6.950934E+03 -7.453959E+03
       230  20 -6.361998E+05 -1.366574E+05  5.378679E+03 -3.143929E+05 -9.972615E+03 -9.953106E+02
       230  21 -5.408104E+05 -1.134398E+05  2.245740E+04 -2.999008E+05 -1.299661E+04  5.468771E+03
       230  22 -6.603182E+05 -1.569524E+05 -1.581843E+03 -3.330898E+05  2.607331E+03 -3.867964E+03
       230  23 -6.686924E+05 -1.485473E+05 -1.036056E+03 -3.234545E+05 -4.057322E+02  2.594110E+03
       230  24 -6.603225E+05 -1.569725E+05 -8.759367E+02 -3.330829E+05 -3.421014E+03  9.061619E+03
       230  25 -6.057957E+05 -1.371990E+05  8.928513E+03 -3.180334E+05  1.216658E+04 -2.816047E+02
       230  26 -7.011838E+05 -1.604371E+05 -7.450487E+03 -3.325157E+05  9.160655E+03  6.183343E+03
       230  27 -7.798195E+05 -2.005039E+05 -2.420953E+04 -3.662590E+05  6.152602E+03  1.265373E+04
       231   1 -4.818560E+05 -9.187062E+04  3.456034E+04 -2.835831E+05  1.459948E+04 -9.291614E+03
       231   2 -4.032849E+05 -5.184844E+04  5.112983E+04 -2.498495E+05  1.769872E+04 -1.572058E+04
       231   3 -3.079762E+05 -2.864151E+04  6.725300E+04 -2.353570E+05  2.079485E+04 -2.213627E+04
       231   4 -6.603312E+05 -1.569736E+05 -9.123947E+02 -3.330792E+05  5.025667E+03 -1.288422E+04
       231   5 -6.687031E+05 -1.485725E+05 -1.243544E+03 -3.234570E+05  8.142578E+03 -1.930786E+04
       231   6 -6.603484E+05 -1.569911E+05 -2.035009E+03 -3.330791E+05  1.125629E+04 -2.571825E+04
       231   7 -8.387717E+05 -2.220732E+05 -3.638583E+04 -3.825616E+05 -4.545108E+03 -1.647569E+04
       231   8 -9.340482E+05 -2.452904E+05 -5.361979E+04 -3.970352E+05 -1.409182E+03 -2.289349E+04
       231   9 -1.012595E+06 -2.853308E+05 -7.132914E+04 -4.307507E+05  1.723462E+03 -2.929809E+04
       231  10 -4.818563E+05 -9.187077E+04  3.455978E+04 -2.835830E+05 -1.489035E-08 -6.782685E-09
       231  11 -4.032853E+05 -5.184879E+04  5.112878E+04 -2.498493E+05  5.817316E-09  4.735115E-09
       231  12 -3.079768E+05 -2.864216E+04  6.725126E+04 -2.353566E+05  3.711286E-08  1.643368E-08
       231  13 -6.603313E+05 -1.569738E+05 -9.127540E+02 -3.330791E+05 -7.926317E-09 -3.697507E-09
       231  14 -6.687033E+05 -1.485729E+05 -1.244368E+03 -3.234568E+05 -8.465808E-09 -1.106326E-09
       231  15 -6.603487E+05 -1.569918E+05 -2.036489E+03 -3.330789E+05  5.325184E-09  2.687080E-09
       231  16 -8.387718E+05 -2.220735E+05 -3.638638E+04 -3.825617E+05 -7.625001E-10 -6.688926E-10
       231  17 -9.340484E+05 -2.452909E+05 -5.362078E+04 -3.970352E+05 -2.084469E-08 -8.532604E-09
       231  18 -1.012595E+06 -2.853317E+05 -7.133075E+04 -4.307506E+05 -2.717323E-08 -1.053757E-08
       231  19 -4.818560E+05 -9.187062E+04  3.456034E+04 -2.835831E+05 -1.459948E+04  9.291614E+03
       231  20 -4.032849E+05 -5.184844E+04  5.112983E+04 -2.498495E+05 -1.769872E+04  1.572058E+04
       231  21 -3.079762E+05 -2.864151E+04  6.725300E+04 -2.353570E+05 -2.079485E+04  2.213627E+04
       231  22 -6.603312E+05 -1.569736E+05 -9.123947E+02 -3.330792E+05 -5.025667E+03  1.288422E+04
       231  23 -6.687031E+05 -1.485725E+05 -1.243544E+03 -3.234570E+05 -8.142578E+03  1.930786E+04
       231  24 -6.603484E+05 -1.569911E+05 -2.035009E+03 -3.330791E+05 -1.125629E+04  2.571825E+04
       231  25 -8.387717E+05 -2.220732E+05 -3.638583E+04 -3.825616E+05  4.545108E+03  1.647569E+04
       231  26 -9.340482E+05 -2.452904E+05 -5.361979E+04 -3.970352E+05  1.409182E+03  2.289349E+04
       231  27 -1.012595E+06 -2.853308E+05 -7.132914E+04 -4.307507E+05 -1.723462E+03  2.929809E+04
       232   1 -2.491457E+05 -7.115103E+03  7.875141E+04 -2.190993E+05  2.265739E+04 -2.585326E+04
       232   2 -1.706339E+05  3.284615E+04  9.359203E+04 -1.854167E+05  2.728738E+04 -3.161829E+04
       232   3 -7.566813E+04  5.582458E+04  1.067863E+05 -1.709333E+05  3.186728E+04 -3.724025E+04
       232   4 -6.604221E+05 -1.569839E+05 -2.657089E+03 -3.330943E+05  1.309978E+04 -2.944353E+04
       232   5 -6.686557E+05 -1.485723E+05 -4.736677E+03 -3.234617E+05  1.793206E+04 -3.513502E+04
       232   6 -6.604825E+05 -1.571855E+05 -8.623815E+03 -3.330327E+05  2.271388E+04 -4.068347E+04
       232   7 -1.071523E+06 -3.068378E+05 -8.407307E+04 -4.470192E+05  3.548973E+03 -3.303125E+04
       232   8 -1.166418E+06 -3.299681E+05 -1.030759E+05 -4.614036E+05  8.584836E+03 -3.864872E+04
       232   9 -1.244938E+06 -3.701637E+05 -1.240480E+05 -4.949895E+05  1.356982E+04 -4.412321E+04
       232  10 -2.491464E+05 -7.115958E+03  7.874919E+04 -2.190989E+05 -3.207823E-08 -1.125374E-08
       232  11 -1.706350E+05  3.284488E+04  9.358875E+04 -1.854160E+05 -5.831524E-09 -2.817832E-09
       232  12 -7.566959E+04  5.582282E+04  1.067817E+05 -1.709324E+05  2.175284E-08  9.557071E-09
       232  13 -6.604225E+05 -1.569849E+05 -2.659039E+03 -3.330940E+05  7.604055E-09  4.309098E-09
       232  14 -6.686564E+05 -1.485737E+05 -4.739600E+03 -3.234612E+05  1.223198E-09  1.149818E-09
       232  15 -6.604835E+05 -1.571874E+05 -8.627893E+03 -3.330320E+05 -7.875211E-09 -2.392179E-09
       232  16 -1.071523E+06 -3.068390E+05 -8.407515E+04 -4.470191E+05  4.746277E-08  1.906995E-08
       232  17 -1.166419E+06 -3.299698E+05 -1.030789E+05 -4.614034E+05  6.089381E-09  2.795143E-09
       232  18 -1.244938E+06 -3.701659E+05 -1.240520E+05 -4.949890E+05 -3.723734E-08 -1.283277E-08
       232  19 -2.491457E+05 -7.115103E+03  7.875141E+04 -2.190993E+05 -2.265739E+04  2.585326E+04
       232  20 -1.706339E+05  3.284615E+04  9.359203E+04 -1.854167E+05 -2.728738E+04  3.161829E+04
       232  21 -7.566813E+04  5.582458E+04  1.067863E+05 -1.709333E+05 -3.186728E+04  3.724025E+04
       232  22 -6.604221E+05 -1.569839E+05 -2.657089E+03 -3.330943E+05 -1.309978E+04  2.944353E+04
       232  23 -6.686557E+05 -1.485723E+05 -4.736677E+03 -3.234617E+05 -1.793206E+04  3.513502E+04
       232  24 -6.604825E+05 -1.571855E+05 -8.623815E+03 -3.330327E+05 -2.271388E+04  4.068347E+04
       232  25 -1.071523E+06 -3.068378E+05 -8.407307E+04 -4.470192E+05 -3.548973E+03  3.303125E+04
       232  26 -1.166418E+06 -3.299681E+05 -1.030759E+05 -4.614036E+05 -8.584836E+03  3.864872E+04
       232  27 -1.244938E+06 -3.701637E+05 -1.240480E+05 -4.949895E+05 -1.356982E+04  4.412321E+04
       233   1 -1.678812E+04  7.699828E+04  1.160582E+05 -1.555818E+05  3.528905E+04 -4.035250E+04
       233   2  6.084478E+04  1.175696E+05  1.243909E+05 -1.198549E+05  4.509861E+04 -4.308940E+04
       233   3  1.524355E+05  1.367591E+05  1.257562E+05 -1.021756E+05  5.417150E+04 -4.385334E+04
       233   4 -6.609758E+05 -1.569338E+05 -1.145920E+04 -3.332887E+05  2.577092E+04 -4.393452E+04
       233   5 -6.681652E+05 -1.492954E+05 -2.090202E+04 -3.230189E+05  3.840423E+04 -4.561323E+04
       233   6 -6.619689E+05 -1.636065E+05 -3.955881E+04 -3.308025E+05  5.029924E+04 -4.531816E+04
       233   7 -1.304740E+06 -3.908327E+05 -1.389972E+05 -5.108268E+05  1.626331E+04 -4.751263E+04
       233   8 -1.396629E+06 -4.161145E+05 -1.662210E+05 -5.259628E+05  3.171825E+04 -4.813388E+04
       233   9 -1.475690E+06 -4.639123E+05 -2.049070E+05 -5.591512E+05  4.643243E+04 -4.678090E+04
       233  10 -1.678989E+04  7.699620E+04  1.160528E+05 -1.555806E+05 -2.876337E-08 -9.163797E-09
       233  11  6.084209E+04  1.175670E+05  1.243836E+05 -1.198534E+05 -1.127139E-08 -2.745328E-09
       233  12  1.524319E+05  1.367562E+05  1.257471E+05 -1.021737E+05  6.468651E-09  8.738407E-11
       233  13 -6.609770E+05 -1.569361E+05 -1.146407E+04 -3.332878E+05 -7.399175E-09 -2.111299E-09
       233  14 -6.681673E+05 -1.492980E+05 -2.090870E+04 -3.230175E+05  1.005656E-09  7.647588E-10
       233  15 -6.619722E+05 -1.636094E+05 -3.956742E+04 -3.308006E+05  4.361993E-10 -4.870405E-10
       233  16 -1.304741E+06 -3.908352E+05 -1.390020E+05 -5.108262E+05  1.715370E-08  6.356290E-09
       233  17 -1.396631E+06 -4.161173E+05 -1.662273E+05 -5.259616E+05  9.856726E-09  3.864377E-09
       233  18 -1.475693E+06 -4.639152E+05 -2.049152E+05 -5.591495E+05 -4.014358E-09 -9.522581E-10
       233  19 -1.678812E+04  7.699828E+04  1.160582E+05 -1.555818E+05 -3.528905E+04  4.035250E+04
       233  20  6.084478E+04  1.175696E+05  1.243909E+05 -1.198549E+05 -4.509861E+04  4.308940E+04
       233  21  1.524355E+05  1.367591E+05  1.257562E+05 -1.021756E+05 -5.417150E+04  4.385334E+04
       233  22 -6.609758E+05 -1.569338E+05 -1.145920E+04 -3.332887E+05 -2.577092E+04  4.393452E+04
       233  23 -6.681652E+05 -1.492954E+05 -2.090202E+04 -3.230189E+05 -3.840423E+04  4.561323E+04
       233  24 -6.619689E+05 -1.636065E+05 -3.955881E+04 -3.308025E+05 -5.029924E+04  4.531816E+04
       233  25 -1.304740E+06 -3.908327E+05 -1.389972E+05 -5.108268E+05 -1.626331E+04  4.751263E+04
       233  26 -1.396629E+06 -4.161145E+05 -1.662210E+05 -5.259628E+05 -3.171825E+04  4.813388E+04
       233  27 -1.475690E+06 -4.639123E+05 -2.049070E+05 -5.591512E+05 -4.643243E+04  4.678090E+04
       234   1  2.184721E+05  1.515045E+05  1.259207E+05 -1.051304E+05  6.700725E+04 -4.334039E+04
       234   2  2.649123E+05  2.104407E+05  1.117692E+05 -9.708230E+03  7.407247E+04 -3.175323E+04
       234   3  2.840652E+05  1.445276E+05  6.005906E+04  9.775363E+04  7.038900E+04  8.354579E+03
       234   4 -6.685231E+05 -1.578469E+05 -5.182983E+04 -3.355906E+05  5.769048E+04 -4.685414E+04
       234   5 -6.625714E+05 -1.740432E+05 -9.709565E+04 -3.104872E+05  1.057320E+05 -1.984398E+04
       234   6 -6.921094E+05 -3.233378E+05 -2.124611E+05 -2.733341E+05  1.430118E+05  3.570449E+04
       234   7 -1.554709E+06 -4.671485E+05 -2.296179E+05 -5.657540E+05  4.838803E+04 -5.036310E+04
       234   8 -1.589159E+06 -5.583861E+05 -3.060067E+05 -6.108253E+05  1.373401E+05 -7.959604E+03
       234   9 -1.667290E+06 -7.909372E+05 -4.850377E+05 -6.438214E+05  2.155081E+05  6.297699E+04
       234  10  2.184668E+05  1.515012E+05  1.259087E+05 -1.051281E+05  3.574283E-10 -3.359066E-09
       234  11  2.649061E+05  2.104382E+05  1.117570E+05 -9.706337E+03 -1.193854E-10  1.628904E-09
       234  12  2.840598E+05  1.445262E+05  6.004962E+04  9.775316E+04 -2.617155E-10 -1.507221E-10
       234  13 -6.685273E+05 -1.578501E+05 -5.184020E+04 -3.355884E+05  1.242544E-09 -2.558772E-09
       234  14 -6.625835E+05 -1.740467E+05 -9.711742E+04 -3.104855E+05  9.750870E-11  1.414470E-09
       234  15 -6.921317E+05 -3.233447E+05 -2.125020E+05 -2.733382E+05  3.252816E-10  1.571808E-09
       234  16 -1.554712E+06 -4.671518E+05 -2.296270E+05 -5.657520E+05 -1.177602E-09  7.002871E-10
       234  17 -1.589179E+06 -5.583912E+05 -3.060423E+05 -6.108244E+05 -1.250738E-10  1.681036E-09
       234  18 -1.667341E+06 -7.909540E+05 -4.851328E+05 -6.438324E+05 -6.634687E-10 -3.915833E-10
       234  19  2.184721E+05  1.515045E+05  1.259207E+05 -1.051304E+05 -6.700725E+04  4.334039E+04
       234  20  2.649123E+05  2.104407E+05  1.117692E+05 -9.708230E+03 -7.407247E+04  3.175323E+04
       234  21  2.840652E+05  1.445276E+05  6.005906E+04  9.775363E+04 -7.038900E+04 -8.354579E+03
       234  22 -6.685231E+05 -1.578469E+05 -5.182983E+04 -3.355906E+05 -5.769048E+04  4.685414E+04
       234  23 -6.625714E+05 -1.740432E+05 -9.709565E+04 -3.104872E+05 -1.057320E+05  1.984398E+04
       234  24 -6.921094E+05 -3.233378E+05 -2.124611E+05 -2.733341E+05 -1.430118E+05 -3.570449E+04
       234  25 -1.554709E+06 -4.671485E+05 -2.296179E+05 -5.657540E+05 -4.838803E+04  5.036310E+04
       234  26 -1.589159E+06 -5.583861E+05 -3.060067E+05 -6.108253E+05 -1.373401E+05  7.959604E+03
       234  27 -1.667290E+06 -7.909372E+05 -4.850377E+05 -6.438214E+05 -2.155081E+05 -6.297699E+04
       235   1  1.317850E+06  1.801554E+05  1.574963E+05  1.139434E+04  9.993856E+03 -1.537008E+04
       235   2  1.257854E+06  2.242049E+05  1.533062E+05  3.281524E+04 -6.576441E+03 -5.144378E+04
       235   3  1.188443E+06  2.216684E+05  1.483038E+05  6.854690E+04 -2.319048E+04 -6.142803E+04
       235   4  2.486724E+05 -8.358588E+04 -9.411955E+04  6.051624E+04 -6.545160E+04 -1.551860E+04
       235   5  2.568870E+05 -1.541559E+04 -4.526304E+04  5.326865E+04 -4.190236E+04 -5.152660E+04
       235   6  2.487021E+05 -8.353872E+02 -2.507114E+04  6.033344E+04 -1.839798E+04 -6.142443E+04
       235   7 -8.194370E+05 -3.473963E+05 -3.457912E+05  1.095527E+05 -1.407680E+05 -1.567918E+04
       235   8 -7.431198E+05 -2.550947E+05 -2.438770E+05  7.368794E+04 -7.717256E+04 -5.161183E+04
       235   9 -6.901834E+05 -2.233893E+05 -1.984827E+05  5.213221E+04 -1.361251E+04 -6.142095E+04
       235  10  1.317849E+06  1.801551E+05  1.574957E+05  1.139447E+04  3.589653E-09 -1.233332E-09
       235  11  1.257853E+06  2.242020E+05  1.533011E+05  3.281497E+04  7.076200E-10 -5.716677E-09
       235  12  1.188441E+06  2.216642E+05  1.482957E+05  6.854575E+04 -7.570633E-10 -4.592326E-09
       235  13  2.486677E+05 -8.358729E+04 -9.412805E+04  6.051542E+04  1.047115E-10  1.292982E-09
       235  14  2.568844E+05 -1.541891E+04 -4.527133E+04  5.326691E+04 -5.332093E-10 -2.973441E-09
       235  15  2.487007E+05 -8.395300E+02 -2.507887E+04  6.033253E+04  1.963249E-10 -2.453219E-10
       235  16 -8.194584E+05 -3.474019E+05 -3.458290E+05  1.095509E+05 -3.391269E-09  5.523758E-10
       235  17 -7.431269E+05 -2.550992E+05 -2.438932E+05  7.368473E+04 -1.104020E-09 -5.899604E-09
       235  18 -6.901846E+05 -2.233934E+05 -1.984901E+05  5.213153E+04 -3.227092E-10 -6.413191E-09
       235  19  1.317850E+06  1.801554E+05  1.574963E+05  1.139434E+04 -9.993856E+03  1.537008E+04
       235  20  1.257854E+06  2.242049E+05  1.533062E+05  3.281524E+04  6.576441E+03  5.144378E+04
       235  21  1.188443E+06  2.216684E+05  1.483038E+05  6.854690E+04  2.319048E+04  6.142803E+04
       235  22  2.486724E+05 -8.358588E+04 -9.411955E+04  6.051624E+04  6.545160E+04  1.551860E+04
       235  23  2.568870E+05 -1.541559E+04 -4.526304E+04  5.326865E+04  4.190236E+04  5.152660E+04
       235  24  2.487021E+05 -8.353872E+02 -2.507114E+04  6.033344E+04  1.839798E+04  6.142443E+04
       235  25 -8.194370E+05 -3.473963E+05 -3.457912E+05  1.095527E+05  1.407680E+05  1.567918E+04
       235  26 -7.431198E+05 -2.550947E+05 -2.438770E+05  7.368794E+04  7.717256E+04  5.161183E+04
       235  27 -6.901834E+05 -2.233893E+05 -1.984827E+05  5.213221E+04  1.361251E+04  6.142095E+04
       236   1  1.147870E+06  2.086717E+05  1.452503E+05  6.115816E+04 -1.591524E+04 -5.934012E+04
       236   2  1.084026E+06  1.958717E+05  1.392889E+05  5.414219E+04 -1.376073E+04 -5.780198E+04
       236   3  1.019424E+06  1.811933E+05  1.314583E+05  6.296505E+04 -1.161379E+04 -5.422058E+04
       236   4  2.520721E+05 -3.230029E+03 -1.921549E+04  6.070194E+04 -1.511329E+04 -5.934550E+04
       236   5  2.527423E+05 -2.353315E+02 -1.060466E+04  5.277702E+04 -9.822291E+03 -5.779837E+04
       236   6  2.521055E+05  3.353530E+02 -6.042545E+03  6.069232E+04 -4.538581E+03 -5.420664E+04
       236   7 -6.429485E+05 -2.151773E+05 -1.837142E+05  6.024590E+04 -1.431245E+04 -5.935089E+04
       236   8 -5.778695E+05 -1.963809E+05 -1.605252E+05  5.141329E+04 -5.888965E+03 -5.779477E+04
       236   9 -5.146394E+05 -1.805553E+05 -1.435658E+05  5.842206E+04  2.528143E+03 -5.419274E+04
       236  10  1.147869E+06  2.086679E+05  1.452432E+05  6.115740E+04 -7.916726E-09 -5.110240E-09
       236  11  1.084025E+06  1.958681E+05  1.392823E+05  5.414155E+04 -1.820418E-09  2.409087E-09
       236  12  1.019423E+06  1.811901E+05  1.314525E+05  6.296455E+04 -6.772977E-10  3.001364E-09
       236  13  2.520709E+05 -3.233873E+03 -1.922254E+04  6.070121E+04 -1.083611E-09 -2.899851E-09
       236  14  2.527413E+05 -2.389451E+02 -1.061112E+04  5.277657E+04 -2.159686E-09  1.353654E-09
       236  15  2.521047E+05  3.321918E+02 -6.048106E+03  6.069212E+04 -1.052164E-09 -2.397128E-09
       236  16 -6.429497E+05 -2.151812E+05 -1.837212E+05  6.024521E+04  7.003474E-09  2.244711E-10
       236  17 -5.778704E+05 -1.963845E+05 -1.605315E+05  5.141301E+04  3.959695E-09  2.915010E-09
       236  18 -5.146402E+05 -1.805584E+05 -1.435713E+05  5.842217E+04 -4.232875E-10  6.214639E-10
       236  19  1.147870E+06  2.086717E+05  1.452503E+05  6.115816E+04  1.591524E+04  5.934012E+04
       236  20  1.084026E+06  1.958717E+05  1.392889E+05  5.414219E+04  1.376073E+04  5.780198E+04
       236  21  1.019424E+06  1.811933E+05  1.314583E+05  6.296505E+04  1.161379E+04  5.422058E+04
       236  22  2.520721E+05 -3.230029E+03 -1.921549E+04  6.070194E+04  1.511329E+04  5.934550E+04
       236  23  2.527423E+05 -2.353315E+02 -1.060466E+04  5.277702E+04  9.822291E+03  5.779837E+04
       236  24  2.521055E+05  3.353530E+02 -6.042545E+03  6.069232E+04  4.538581E+03  5.420664E+04
       236  25 -6.429485E+05 -2.151773E+05 -1.837142E+05  6.024590E+04  1.431245E+04  5.935089E+04
       236  26 -5.778695E+05 -1.963809E+05 -1.605252E+05  5.141329E+04  5.888965E+03  5.779477E+04
       236  27 -5.146394E+05 -1.805553E+05 -1.435658E+05  5.842206E+04 -2.528143E+03  5.419274E+04
       237   1  9.768830E+05  1.709300E+05  1.249232E+05  6.252394E+04 -1.036883E+04 -5.152133E+04
       237   2  9.128925E+05  1.558858E+05  1.153663E+05  5.442186E+04 -9.330634E+03 -4.704690E+04
       237   3  8.487164E+05  1.408683E+05  1.051248E+05  6.225062E+04 -8.295398E+03 -4.241455E+04
       237   4  2.523570E+05  2.209666E+02 -4.588035E+03  6.071439E+04 -3.610603E+03 -5.150710E+04
       237   5  2.524867E+05  2.946642E+02 -2.605157E+03  5.274829E+04 -2.331201E+03 -4.703022E+04
       237   6  2.523845E+05  3.532262E+02 -1.474995E+03  6.071402E+04 -1.054661E+03 -4.239533E+04
       237   7 -4.716576E+05 -1.705171E+05 -1.341191E+05  5.890663E+04  3.139978E+03 -5.149290E+04
       237   8 -4.074941E+05 -1.553206E+05 -1.205930E+05  5.107622E+04  4.661008E+03 -4.701357E+04
       237   9 -3.436008E+05 -1.401815E+05 -1.080882E+05  5.917865E+04  6.179326E+03 -4.237613E+04
       237  10  9.768822E+05  1.709271E+05  1.249180E+05  6.252351E+04 -3.575554E-09  4.173083E-09
       237  11  9.128919E+05  1.558834E+05  1.153620E+05  5.442151E+04  1.317861E-09  2.970001E-09
       237  12  8.487158E+05  1.408664E+05  1.051213E+05  6.225034E+04  3.430423E-09 -8.684571E-10
       237  13  2.523563E+05  2.181140E+02 -4.593046E+03  6.071424E+04 -1.790928E-10 -3.403106E-09
       237  14  2.524861E+05  2.922874E+02 -2.609324E+03  5.274820E+04 -1.089449E-09  3.924813E-09
       237  15  2.523840E+05  3.512956E+02 -1.478375E+03  6.071398E+04  2.492444E-10  5.756599E-09
       237  16 -4.716583E+05 -1.705200E+05 -1.341241E+05  5.890676E+04  3.698277E-09  1.661238E-09
       237  17 -4.074947E+05 -1.553230E+05 -1.205972E+05  5.107639E+04  2.583177E-11  3.675032E-09
       237  18 -3.436013E+05 -1.401835E+05 -1.080916E+05  5.917886E+04 -4.408908E-09  7.997352E-10
       237  19  9.768830E+05  1.709300E+05  1.249232E+05  6.252394E+04  1.036883E+04  5.152133E+04
       237  20  9.128925E+05  1.558858E+05  1.153663E+05  5.442186E+04  9.330634E+03  4.704690E+04
       237  21  8.487164E+05  1.408683E+05  1.051248E+05  6.225062E+04  8.295398E+03  4.241455E+04
       237  22  2.523570E+05  2.209666E+02 -4.588035E+03  6.071439E+04  3.610603E+03  5.150710E+04
       237  23  2.524867E+05  2.946642E+02 -2.605157E+03  5.274829E+04  2.331201E+03  4.703022E+04
       237  24  2.523845E+05  3.532262E+02 -1.474995E+03  6.071402E+04  1.054661E+03  4.239533E+04
       237  25 -4.716576E+05 -1.705171E+05 -1.341191E+05  5.890663E+04 -3.139978E+03  5.149290E+04
       237  26 -4.074941E+05 -1.553206E+05 -1.205930E+05  5.107622E+04 -4.661008E+03  4.701357E+04
       237  27 -3.436008E+05 -1.401815E+05 -1.080882E+05  5.917865E+04 -6.179326E+03  4.237613E+04
       238   1  8.061179E+05  1.307694E+05  9.758682E+04  6.213888E+04 -8.041608E+03 -3.967250E+04
       238   2  7.421795E+05  1.156841E+05  8.680440E+04  5.403238E+04 -7.774195E+03 -3.497558E+04
       238   3  6.781393E+05  1.007044E+05  7.584804E+04  6.184288E+04 -7.508664E+03 -3.026820E+04
       238   4  2.524213E+05  3.547006E+02 -1.106281E+03  6.071099E+04 -8.285538E+02 -3.965242E+04
       238   5  2.524864E+05  3.168187E+02 -5.990878E+02  5.275211E+04 -5.456989E+02 -3.495411E+04
       238   6  2.524418E+05  3.816142E+02 -2.770946E+02  6.071096E+04 -2.647001E+02 -3.024532E+04
       238   7 -3.009763E+05 -1.300769E+05 -9.981077E+04  5.928416E+04  6.378259E+03 -3.963237E+04
       238   8 -2.369729E+05 -1.150637E+05 -8.801148E+04  5.147268E+04  6.677264E+03 -3.493265E+04
       238   9 -1.730789E+05 -9.995119E+04 -7.640894E+04  5.957968E+04  6.974442E+03 -3.022246E+04
       238  10  8.061174E+05  1.307677E+05  9.758374E+04  6.213862E+04  4.112243E-11 -2.850624E-10
       238  11  7.421791E+05  1.156828E+05  8.680199E+04  5.403216E+04  1.514733E-09  1.025791E-08
       238  12  6.781390E+05  1.007034E+05  7.584621E+04  6.184270E+04 -1.476679E-09  6.849330E-09
       238  13  2.524209E+05  3.530119E+02 -1.109237E+03  6.071096E+04  1.057385E-09  9.343814E-10
       238  14  2.524860E+05  3.155065E+02 -6.013846E+02  5.275210E+04  1.243339E-09  8.725381E-09
       238  15  2.524416E+05  3.806317E+02 -2.788140E+02  6.071095E+04 -1.083391E-09  3.866446E-10
       238  16 -3.009768E+05 -1.300786E+05 -9.981380E+04  5.928436E+04  6.289639E-10  9.451569E-10
       238  17 -2.369733E+05 -1.150651E+05 -8.801386E+04  5.147287E+04  2.889798E-09  1.739377E-09
       238  18 -1.730792E+05 -9.995218E+04 -7.641075E+04  5.957985E+04 -1.123314E-09 -1.005150E-09
       238  19  8.061179E+05  1.307694E+05  9.758682E+04  6.213888E+04  8.041608E+03  3.967250E+04
       238  20  7.421795E+05  1.156841E+05  8.680440E+04  5.403238E+04  7.774195E+03  3.497558E+04
       238  21  6.781393E+05  1.007044E+05  7.584804E+04  6.184288E+04  7.508664E+03  3.026820E+04
       238  22  2.524213E+05  3.547006E+02 -1.106281E+03  6.071099E+04  8.285538E+02  3.965242E+04
       238  23  2.524864E+05  3.168187E+02 -5.990878E+02  5.275211E+04  5.456989E+02  3.495411E+04
       238  24  2.524418E+05  3.816142E+02 -2.770946E+02  6.071096E+04  2.647001E+02  3.024532E+04
       238  25 -3.009763E+05 -1.300769E+05 -9.981077E+04  5.928416E+04 -6.378259E+03  3.963237E+04
       238  26 -2.369729E+05 -1.150637E+05 -8.801148E+04  5.147268E+04 -6.677264E+03  3.493265E+04
       238  27 -1.730789E+05 -9.995119E+04 -7.640894E+04  5.957968E+04 -6.974442E+03  3.022246E+04
       239   1  6.355754E+05  9.062334E+04  6.807488E+04  6.173937E+04 -7.474207E+03 -2.752586E+04
       239   2  5.716981E+05  7.554646E+04  5.702543E+04  5.363406E+04 -7.511308E+03 -2.281777E+04
       239   3  5.077323E+05  6.058118E+04  4.599395E+04  6.143601E+04 -7.549581E+03 -1.811318E+04
       239   4  2.524528E+05  3.878932E+02 -1.572406E+02  6.070875E+04 -2.339814E+02 -2.750232E+04
       239   5  2.525048E+05  3.407857E+02  5.575873E+01  5.275487E+04 -2.767518E+02 -2.279338E+04
       239   6  2.524662E+05  4.066673E+02  2.908289E+02  6.070874E+04 -3.206968E+02 -1.808793E+04
       239   7 -1.305264E+05 -8.985563E+04 -6.839470E+04  5.967867E+04  7.001908E+03 -2.747881E+04
       239   8 -6.658906E+04 -7.487050E+04 -5.691758E+04  5.187607E+04  6.954194E+03 -2.276900E+04
       239   9 -2.736308E+03 -5.977143E+04 -4.541459E+04  5.998171E+04  6.905302E+03 -1.806268E+04
       239  10  6.355751E+05  9.062251E+04  6.807335E+04  6.173920E+04  1.212306E-08  8.581569E-12
       239  11  5.716978E+05  7.554588E+04  5.702434E+04  5.363392E+04  1.580871E-09 -3.394450E-09
       239  12  5.077322E+05  6.058081E+04  4.599322E+04  6.143590E+04 -1.008775E-08 -3.228993E-09
       239  13  2.524526E+05  3.870809E+02 -1.586622E+02  6.070875E+04  1.769378E-10  8.511506E-09
       239  14  2.525046E+05  3.402277E+02  5.478216E+01  5.275487E+04  6.304324E-10  4.760878E-10
       239  15  2.524661E+05  4.063159E+02  2.902138E+02  6.070873E+04 -2.015448E-09 -2.567510E-09
       239  16 -1.305267E+05 -8.985645E+04 -6.839621E+04  5.967882E+04 -1.197687E-08  3.109091E-09
       239  17 -6.658925E+04 -7.487107E+04 -5.691864E+04  5.187620E+04 -8.826292E-10 -1.117252E-09
       239  18 -2.736447E+03 -5.977180E+04 -4.541529E+04  5.998181E+04  6.963916E-09 -2.741324E-09
       239  19  6.355754E+05  9.062334E+04  6.807488E+04  6.173937E+04  7.474207E+03  2.752586E+04
       239  20  5.716981E+05  7.554646E+04  5.702543E+04  5.363406E+04  7.511308E+03  2.281777E+04
       239  21  5.077323E+05  6.058118E+04  4.599395E+04  6.143601E+04  7.549581E+03  1.811318E+04
       239  22  2.524528E+05  3.878932E+02 -1.572406E+02  6.070875E+04  2.339814E+02  2.750232E+04
       239  23  2.525048E+05  3.407857E+02  5.575873E+01  5.275487E+04  2.767518E+02  2.279338E+04
       239  24  2.524662E+05  4.066673E+02  2.908289E+02  6.070874E+04  3.206968E+02  1.808793E+04
       239  25 -1.305264E+05 -8.985563E+04 -6.839470E+04  5.967867E+04 -7.001908E+03  2.747881E+04
       239  26 -6.658906E+04 -7.487050E+04 -5.691758E+04  5.187607E+04 -6.954194E+03  2.276900E+04
       239  27 -2.736308E+03 -5.977143E+04 -4.541459E+04  5.998171E+04 -6.905302E+03  1.806268E+04
       240   1  4.652100E+05  5.050174E+04  3.824968E+04  6.133094E+04 -7.629491E+03 -1.537371E+04
       240   2  4.013553E+05  3.541749E+04  2.737769E+04  5.322996E+04 -7.997072E+03 -1.068899E+04
       240   3  3.374488E+05  2.047521E+04  1.674236E+04  6.102384E+04 -8.365026E+03 -6.045653E+03
       240   4  2.524803E+05  4.076833E+02  4.347515E+02  6.070597E+04 -3.959482E+02 -1.534805E+04
       240   5  2.525057E+05  3.487202E+02  8.386328E+02  5.275837E+04 -8.273922E+02 -1.066316E+04
       240   6  2.524865E+05  4.429785E+02  1.523422E+03  6.070585E+04 -1.259243E+03 -6.019643E+03
       240   7  3.979489E+04 -4.968884E+04 -3.738168E+04  6.008117E+04  6.835189E+03 -1.532240E+04
       240   8  1.036779E+05 -3.472124E+04 -2.570107E+04  5.228687E+04  6.340619E+03 -1.063733E+04
       240   9  1.675313E+05 -1.958963E+04 -1.369561E+04  6.038789E+04  5.845596E+03 -5.993639E+03
       240  10  4.652098E+05  5.050147E+04  3.824913E+04  6.133085E+04 -2.953548E-09  4.018467E-09
       240  11  4.013552E+05  3.541735E+04  2.737735E+04  5.322989E+04 -1.993442E-09  2.600646E-09
       240  12  3.374487E+05  2.047515E+04  1.674216E+04  6.102380E+04 -5.528753E-09  3.493768E-09
       240  13  2.524802E+05  4.074303E+02  4.343084E+02  6.070596E+04 -3.575649E-12 -6.048279E-11
       240  14  2.525057E+05  3.485979E+02  8.384178E+02  5.275836E+04 -1.216951E-11  3.358940E-09
       240  15  2.524865E+05  4.429392E+02  1.523351E+03  6.070584E+04  1.039448E-11  3.955385E-09
       240  16  3.979478E+04 -4.968911E+04 -3.738221E+04  6.008125E+04  3.301320E-09  3.813123E-09
       240  17  1.036779E+05 -3.472138E+04 -2.570135E+04  5.228693E+04  5.123688E-09 -7.612028E-09
       240  18  1.675312E+05 -1.958968E+04 -1.369574E+04  6.038792E+04  4.163034E-09  2.201989E-10
       240  19  4.652100E+05  5.050174E+04  3.824968E+04  6.133094E+04  7.629491E+03  1.537371E+04
       240  20  4.013553E+05  3.541749E+04  2.737769E+04  5.322996E+04  7.997072E+03  1.068899E+04
       240  21  3.374488E+05  2.047521E+04  1.674236E+04  6.102384E+04  8.365026E+03  6.045653E+03
       240  22  2.524803E+05  4.076833E+02  4.347515E+02  6.070597E+04  3.959482E+02  1.534805E+04
       240  23  2.525057E+05  3.487202E+02  8.386328E+02  5.275837E+04  8.273922E+02  1.066316E+04
       240  24  2.524865E+05  4.429785E+02  1.523422E+03  6.070585E+04  1.259243E+03  6.019643E+03
       240  25  3.979489E+04 -4.968884E+04 -3.738168E+04  6.008117E+04 -6.835189E+03  1.532240E+04
       240  26  1.036779E+05 -3.472124E+04 -2.570107E+04  5.228687E+04 -6.340619E+03  1.063733E+04
       240  27  1.675313E+05 -1.958963E+04 -1.369561E+04  6.038789E+04 -5.845596E+03  5.993639E+03
       241   1  2.949963E+05  1.034828E+04  9.333348E+03  6.103765E+04 -8.764775E+03 -3.320613E+03
       241   2  2.310322E+05 -4.613532E+03 -6.601188E+02  5.261699E+04 -9.753442E+03  1.091358E+03
       241   3  1.672652E+05 -1.875067E+04 -9.842292E+03  6.005539E+04 -1.074010E+04  4.982671E+03
       241   4  2.525710E+05  4.003897E+02  2.018086E+03  6.069862E+04 -1.580242E+03 -3.294207E+03
       241   5  2.524049E+05  5.038703E+02  3.554564E+03  5.276700E+04 -3.369344E+03  1.114765E+03
       241   6  2.525698E+05  1.570804E+03  6.457520E+03  6.069432E+04 -5.156522E+03  5.003094E+03
       241   7  2.101475E+05 -9.547571E+03 -5.297043E+03  6.035962E+04  5.603815E+03 -3.267808E+03
       241   8  2.737782E+05  5.621267E+03  7.769377E+03  5.291700E+04  3.014969E+03  1.138174E+03
       241   9  3.378814E+05  2.189187E+04  2.275712E+04  6.133334E+04  4.278072E+02  5.023527E+03
       241  10  2.949962E+05  1.034825E+04  9.333183E+03  6.103763E+04 -6.626352E-09  6.707662E-09
       241  11  2.310321E+05 -4.613559E+03 -6.602998E+02  5.261700E+04  3.112254E-09 -2.934509E-10
       241  12  1.672651E+05 -1.875072E+04 -9.842556E+03  6.005543E+04  1.124846E-08  4.761615E-09
       241  13  2.525710E+05  4.003773E+02  2.018061E+03  6.069862E+04 -1.089669E-09  5.844090E-09
       241  14  2.524049E+05  5.038659E+02  3.554540E+03  5.276700E+04 -2.709304E-09  4.138467E-09
       241  15  2.525697E+05  1.570770E+03  6.457423E+03  6.069434E+04  7.887473E-10 -2.524951E-09
       241  16  2.101475E+05 -9.547591E+03 -5.297122E+03  6.035963E+04  7.708972E-09  4.516107E-09
       241  17  2.737782E+05  5.621263E+03  7.769358E+03  5.291700E+04 -1.716587E-09 -8.369642E-10
       241  18  3.378814E+05  2.189184E+04  2.275707E+04  6.133334E+04 -1.318976E-08 -8.193807E-09
       241  19  2.949963E+05  1.034828E+04  9.333348E+03  6.103765E+04  8.764775E+03  3.320613E+03
       241  20  2.310322E+05 -4.613532E+03 -6.601188E+02  5.261699E+04  9.753442E+03 -1.091358E+03
       241  21  1.672652E+05 -1.875067E+04 -9.842292E+03  6.005539E+04  1.074010E+04 -4.982671E+03
       241  22  2.525710E+05  4.003897E+02  2.018086E+03  6.069862E+04  1.580242E+03  3.294207E+03
       241  23  2.524049E+05  5.038703E+02  3.554564E+03  5.276700E+04  3.369344E+03 -1.114765E+03
       241  24  2.525698E+05  1.570804E+03  6.457520E+03  6.069432E+04  5.156522E+03 -5.003094E+03
       241  25  2.101475E+05 -9.547571E+03 -5.297043E+03  6.035962E+04 -5.603815E+03  3.267808E+03
       241  26  2.737782E+05  5.621267E+03  7.769377E+03  5.291700E+04 -3.014969E+03 -1.138174E+03
       241  27  3.378814E+05  2.189187E+04  2.275712E+04  6.133334E+04 -4.278072E+02 -5.023527E+03
       242   1  1.255730E+05 -2.973617E+04 -1.600485E+04  6.246171E+04 -1.286670E+04  7.541021E+03
       242   2  5.987121E+04 -4.055173E+04 -2.400584E+04  4.490929E+04 -1.055448E+04  8.523769E+03
       242   3 -2.150166E+03 -3.493366E+04 -2.943208E+04  4.276755E+04 -8.219274E+03  2.866746E+03
       242   4  2.537049E+05  7.540152E+02  8.429359E+03  6.061096E+04 -6.271865E+03  7.565051E+03
       242   5  2.509766E+05  5.573205E+03  1.521415E+04  5.285617E+04 -1.416069E+04  8.510410E+03
       242   6  2.536940E+05  2.859377E+04  3.165505E+04  6.051101E+04 -2.202654E+04  2.817003E+03
       242   7  3.818527E+05  3.124327E+04  3.286299E+04  5.875981E+04  3.243013E+02  7.589040E+03
       242   8  4.421167E+05  5.169607E+04  5.443227E+04  6.080550E+04 -1.776799E+04  8.496961E+03
       242   9  5.095992E+05  9.211771E+04  9.273844E+04  7.826175E+04 -3.583947E+04  2.766481E+03
       242  10  1.255728E+05 -2.973627E+04 -1.600527E+04  6.246178E+04  2.265700E-08  4.821218E-09
       242  11  5.987107E+04 -4.055183E+04 -2.400619E+04  4.490937E+04  1.573463E-09 -3.358429E-10
       242  12 -2.150240E+03 -3.493369E+04 -2.943222E+04  4.276757E+04 -2.251028E-08 -1.703979E-09
       242  13  2.537048E+05  7.539432E+02  8.429177E+03  6.061100E+04  1.932305E-10  8.595379E-09
       242  14  2.509763E+05  5.573073E+03  1.521364E+04  5.285626E+04  9.545286E-10 -5.292358E-09
       242  15  2.536934E+05  2.859363E+04  3.165412E+04  6.051106E+04  5.353378E-10  2.893612E-09
       242  16  3.818527E+05  3.124321E+04  3.286288E+04  5.875981E+04 -2.218375E-08  9.151784E-10
       242  17  4.421164E+05  5.169591E+04  5.443154E+04  6.080562E+04  5.425400E-10  1.106856E-09
       242  18  5.095978E+05  9.211735E+04  9.273601E+04  7.826183E+04  2.143762E-08 -6.501241E-10
       242  19  1.255730E+05 -2.973617E+04 -1.600485E+04  6.246171E+04  1.286670E+04 -7.541021E+03
       242  20  5.987121E+04 -4.055173E+04 -2.400584E+04  4.490929E+04  1.055448E+04 -8.523769E+03
       242  21 -2.150166E+03 -3.493366E+04 -2.943208E+04  4.276755E+04  8.219274E+03 -2.866746E+03
       242  22  2.537049E+05  7.540152E+02  8.429359E+03  6.061096E+04  6.271865E+03 -7.565051E+03
       242  23  2.509766E+05  5.573205E+03  1.521415E+04  5.285617E+04  1.416069E+04 -8.510410E+03
       242  24  2.536940E+05  2.859377E+04  3.165505E+04  6.051101E+04  2.202654E+04 -2.817003E+03
       242  25  3.818527E+05  3.124327E+04  3.286299E+04  5.875981E+04 -3.243013E+02 -7.589040E+03
       242  26  4.421167E+05  5.169607E+04  5.443227E+04  6.080550E+04  1.776799E+04 -8.496961E+03
       242  27  5.095992E+05  9.211771E+04  9.273844E+04  7.826175E+04  3.583947E+04 -2.766481E+03
       243   1  1.955462E+05  1.556109E+06  1.970532E+05 -1.800777E+05  6.135798E+03  6.772713E+04
       243   2  1.104612E+05  1.393826E+06  1.176741E+05 -1.430407E+05  1.821099E+04  2.832359E+04
       243   3  6.378108E+04  1.246124E+06  7.348448E+04 -1.434963E+05  1.544164E+04 -1.109726E+04
       243   4  5.363641E+04  9.832837E+05  6.029995E+04 -1.466514E+05  6.201436E+03  3.783535E+04
       243   5  1.022472E+04  9.780094E+05  3.211913E+04 -1.279607E+05  1.822760E+04  2.128801E+04
       243   6  1.272942E+03  9.833484E+05  2.329506E+04 -1.467596E+05  1.540700E+04  4.713336E+03
       243   7 -8.829255E+04  4.107628E+05 -7.647244E+04 -1.132558E+05  6.263896E+03  7.970970E+03
       243   8 -9.002180E+04  5.623572E+05 -5.344484E+04 -1.128909E+05  1.824387E+04  1.425705E+04
       243   9 -6.123908E+04  7.206397E+05 -2.689654E+04 -1.500215E+05  1.537218E+04  2.051741E+04
       243  10  1.955450E+05  1.556104E+06  1.970445E+05 -1.800781E+05  2.934092E-10  2.451572E-09
       243  11  1.104606E+05  1.393825E+06  1.176720E+05 -1.430411E+05  6.944055E-10 -6.097973E-09
       243  12  6.378080E+04  1.246124E+06  7.348380E+04 -1.434962E+05 -1.986156E-10 -4.648469E-09
       243  13  5.363598E+04  9.832822E+05  6.029719E+04 -1.466516E+05  2.363536E-09  1.758688E-09
       243  14  1.022425E+04  9.780088E+05  3.211766E+04 -1.279610E+05  2.631637E-09 -2.072077E-09
       243  15  1.272681E+03  9.833483E+05  2.329457E+04 -1.467597E+05 -1.255337E-10  2.202080E-09
       243  16 -8.829261E+04  4.107627E+05 -7.647263E+04 -1.132559E+05 -7.681274E-11 -1.528247E-09
       243  17 -9.002221E+04  5.623569E+05 -5.344585E+04 -1.128911E+05  3.390070E-09  5.186459E-10
       243  18 -6.123945E+04  7.206391E+05 -2.689778E+04 -1.500218E+05  2.576269E-10  5.275921E-09
       243  19  1.955462E+05  1.556109E+06  1.970532E+05 -1.800777E+05 -6.135798E+03 -6.772713E+04
       243  20  1.104612E+05  1.393826E+06  1.176741E+05 -1.430407E+05 -1.821099E+04 -2.832359E+04
       243  21  6.378108E+04  1.246124E+06  7.348448E+04 -1.434963E+05 -1.544164E+04  1.109726E+04
       243  22  5.363641E+04  9.832837E+05  6.029995E+04 -1.466514E+05 -6.201436E+03 -3.783535E+04
       243  23  1.022472E+04  9.780094E+05  3.211913E+04 -1.279607E+05 -1.822760E+04 -2.128801E+04
       243  24  1.272942E+03  9.833484E+05  2.329506E+04 -1.467596E+05 -1.540700E+04 -4.713336E+03
       243  25 -8.829255E+04  4.107628E+05 -7.647244E+04 -1.132558E+05 -6.263896E+03 -7.970970E+03
       243  26 -9.002180E+04  5.623572E+05 -5.344484E+04 -1.128909E+05 -1.824387E+04 -1.425705E+04
       243  27 -6.123908E+04  7.206397E+05 -2.689654E+04 -1.500215E+05 -1.537218E+04 -2.051741E+04
       244   1  4.045278E+04  1.140636E+06  5.277855E+04 -1.491438E+05  9.233018E+03 -1.263063E+04
       244   2  2.421683E+03  9.843203E+05  2.574537E+04 -1.274735E+05  3.410459E+02 -2.514263E+04
       244   3 -2.940276E+04  8.310169E+05  8.349898E+03 -1.441491E+05 -8.565760E+03 -3.765184E+04
       244   4  2.585981E+03  9.816591E+05  2.228491E+04 -1.469349E+05  9.202272E+03  1.076527E+03
       244   5  1.442562E+03  9.801650E+05  2.499196E+04 -1.277579E+05  3.103072E+02 -1.141378E+04
       244   6  6.502852E+03  9.816548E+05  3.732106E+04 -1.469261E+05 -8.596451E+03 -2.390426E+04
       244   7 -3.528219E+04  8.227072E+05 -8.209177E+03 -1.447266E+05  9.171618E+03  1.478026E+04
       244   8  4.635416E+02  9.760102E+05  2.423926E+04 -1.280422E+05  2.795558E+02  2.314978E+03
       244   9  4.240725E+04  1.132315E+06  6.629189E+04 -1.497038E+05 -8.627260E+03 -1.015341E+04
       244  10  4.045264E+04  1.140635E+06  5.277809E+04 -1.491437E+05 -1.507235E-09  2.737112E-09
       244  11  2.421513E+03  9.843196E+05  2.574418E+04 -1.274735E+05  1.817105E-09 -5.073985E-09
       244  12 -2.940322E+04  8.310154E+05  8.347100E+03 -1.441494E+05 -1.289018E-09 -1.722732E-09
       244  13  2.585890E+03  9.816591E+05  2.228475E+04 -1.469349E+05 -5.247467E-10  2.148881E-09
       244  14  1.442527E+03  9.801649E+05  2.499171E+04 -1.277579E+05  1.834549E-09 -2.614636E-09
       244  15  6.502619E+03  9.816542E+05  3.731985E+04 -1.469263E+05 -2.838424E-09  1.902770E-09
       244  16 -3.528234E+04  8.227070E+05 -8.209745E+03 -1.447267E+05 -7.948639E-10 -1.856483E-09
       244  17  4.635401E+02  9.760102E+05  2.423925E+04 -1.280422E+05 -1.207654E-09 -1.456730E-10
       244  18  4.240714E+04  1.132315E+06  6.629155E+04 -1.497039E+05 -1.602204E-09  2.925770E-09
       244  19  4.045278E+04  1.140636E+06  5.277855E+04 -1.491438E+05 -9.233018E+03  1.263063E+04
       244  20  2.421683E+03  9.843203E+05  2.574537E+04 -1.274735E+05 -3.410459E+02  2.514263E+04
       244  21 -2.940276E+04  8.310169E+05  8.349898E+03 -1.441491E+05  8.565760E+03  3.765184E+04
       244  22  2.585981E+03  9.816591E+05  2.228491E+04 -1.469349E+05 -9.202272E+03 -1.076527E+03
       244  23  1.442562E+03  9.801650E+05  2.499196E+04 -1.277579E+05 -3.103072E+02  1.141378E+04
       244  24  6.502852E+03  9.816548E+05  3.732106E+04 -1.469261E+05  8.596451E+03  2.390426E+04
       244  25 -3.528219E+04  8.227072E+05 -8.209177E+03 -1.447266E+05 -9.171618E+03 -1.478026E+04
       244  26  4.635416E+02  9.760102E+05  2.423926E+04 -1.280422E+05 -2.795558E+02 -2.314978E+03
       244  27  4.240725E+04  1.132315E+06  6.629189E+04 -1.497038E+05  8.627260E+03  1.015341E+04
       245   1 -5.818443E+04  7.330153E+05 -1.968404E+03 -1.577205E+05 -1.476369E+04 -4.605562E+04
       245   2 -7.066004E+04  5.656342E+05 -3.123567E+03 -8.825289E+04 -1.769724E+04 -6.538638E+04
       245   3  7.827944E+03  4.233916E+05  3.101017E+04 -5.622527E+04 -5.988310E+03 -8.468407E+04
       245   4  2.323915E+03  9.874320E+05  4.669246E+04 -1.467694E+05 -1.479932E+04 -3.024504E+04
       245   5  2.770219E+04  9.728836E+05  8.080526E+04 -1.279048E+05 -1.767787E+04 -7.210921E+04
       245   6  1.479073E+05  9.873229E+05  1.658175E+05 -1.464677E+05 -5.915174E+03 -1.139460E+05
       245   7  6.282905E+04  1.241912E+06  9.535138E+04 -1.358136E+05 -1.483439E+04 -1.442814E+04
       245   8  1.260598E+05  1.380294E+06  1.647262E+05 -1.675830E+05 -1.765765E+04 -7.883636E+04
       245   9  2.879945E+05  1.551564E+06  3.006100E+05 -2.367922E+05 -5.833579E+03 -1.432343E+05
       245  10 -5.818523E+04  7.330130E+05 -1.972796E+03 -1.577210E+05  6.476142E-10  2.953989E-09
       245  11 -7.066152E+04  5.656296E+05 -3.132183E+03 -8.825382E+04  2.952756E-10 -4.588768E-09
       245  12  7.825982E+03  4.233839E+05  3.099663E+04 -5.622568E+04 -3.745277E-10 -1.625953E-09
       245  13  2.323435E+03  9.874310E+05  4.669033E+04 -1.467697E+05  1.305485E-11  1.922258E-09
       245  14  2.770046E+04  9.728780E+05  8.079492E+04 -1.279058E+05 -1.406563E-09 -2.055142E-09
       245  15  1.479038E+05  9.873090E+05  1.657931E+05 -1.464682E+05  8.414062E-10  1.953903E-09
       245  16  6.282876E+04  1.241912E+06  9.535058E+04 -1.358138E+05 -1.372216E-09 -1.658341E-09
       245  17  1.260578E+05  1.380287E+06  1.647139E+05 -1.675841E+05 -1.523903E-09 -4.592637E-10
       245  18  2.879890E+05  1.551542E+06  3.005715E+05 -2.367929E+05 -5.919961E-10  2.768950E-09
       245  19 -5.818443E+04  7.330153E+05 -1.968404E+03 -1.577205E+05  1.476369E+04  4.605562E+04
       245  20 -7.066004E+04  5.656342E+05 -3.123567E+03 -8.825289E+04  1.769724E+04  6.538638E+04
       245  21  7.827944E+03  4.233916E+05  3.101017E+04 -5.622527E+04  5.988310E+03  8.468407E+04
       245  22  2.323915E+03  9.874320E+05  4.669246E+04 -1.467694E+05  1.479932E+04  3.024504E+04
       245  23  2.770219E+04  9.728836E+05  8.080526E+04 -1.279048E+05  1.767787E+04  7.210921E+04
       245  24  1.479073E+05  9.873229E+05  1.658175E+05 -1.464677E+05  5.915174E+03  1.139460E+05
       245  25  6.282905E+04  1.241912E+06  9.535138E+04 -1.358136E+05  1.483439E+04  1.442814E+04
       245  26  1.260598E+05  1.380294E+06  1.647262E+05 -1.675830E+05  1.765765E+04  7.883636E+04
       245  27  2.879945E+05  1.551564E+06  3.006100E+05 -2.367922E+05  5.833579E+03  1.432343E+05
       246   1  1.429824E+06  4.532809E+05  2.255377E+05  5.043030E+05  5.482448E+04  3.432839E+03
       246   2  1.356617E+06  4.375583E+05  1.838643E+05  4.784160E+05  3.679692E+04 -4.291227E+04
       246   3  1.270695E+06  4.255152E+05  1.625245E+05  4.717011E+05  8.691654E+03 -6.251079E+04
       246   4  4.296808E+05  9.204445E+04 -3.097462E+04  2.447775E+05 -1.430761E+04 -2.264934E+04
       246   5  4.415957E+05  1.060606E+05 -1.417787E+04  2.306552E+05  6.210509E+03 -5.446578E+04
       246   6  4.331584E+05  1.161200E+05 -7.556918E+03  2.357077E+05  1.663813E+04 -5.951738E+04
       246   7 -5.694531E+05 -2.691324E+05 -2.875396E+05 -1.436896E+04 -8.331558E+04 -4.868879E+04
       246   8 -4.725615E+05 -2.253709E+05 -2.122611E+05 -1.676981E+04 -2.432672E+04 -6.600150E+04
       246   9 -4.036556E+05 -1.932106E+05 -1.776728E+05  9.236989E+00  2.457310E+04 -5.652840E+04
       246  10  1.429821E+06  4.532800E+05  2.255321E+05  5.043029E+05 -2.090520E-09 -2.026722E-09
       246  11  1.356615E+06  4.375560E+05  1.838583E+05  4.784173E+05  1.192185E-08 -3.172300E-09
       246  12  1.270694E+06  4.255110E+05  1.625170E+05  4.717015E+05  8.467753E-09 -2.205363E-09
       246  13  4.296804E+05  9.204384E+04 -3.097597E+04  2.447772E+05  5.549298E-09  6.004255E-09
       246  14  4.415949E+05  1.060574E+05 -1.418352E+04  2.306555E+05  9.071196E-09  2.978050E-09
       246  15  4.331571E+05  1.161161E+05 -7.564097E+03  2.357085E+05 -6.914960E-10 -8.569503E-10
       246  16 -5.694612E+05 -2.691368E+05 -2.875571E+05 -1.437223E+04  8.462006E-09  4.273637E-09
       246  17 -4.725633E+05 -2.253758E+05 -2.122704E+05 -1.677110E+04  2.359711E-09  2.597528E-09
       246  18 -4.036571E+05 -1.932142E+05 -1.776800E+05  1.035616E+01 -1.046144E-08 -1.386235E-09
       246  19  1.429824E+06  4.532809E+05  2.255377E+05  5.043030E+05 -5.482448E+04 -3.432839E+03
       246  20  1.356617E+06  4.375583E+05  1.838643E+05  4.784160E+05 -3.679692E+04  4.291227E+04
       246  21  1.270695E+06  4.255152E+05  1.625245E+05  4.717011E+05 -8.691654E+03  6.251079E+04
       246  22  4.296808E+05  9.204445E+04 -3.097462E+04  2.447775E+05  1.430761E+04  2.264934E+04
       246  23  4.415957E+05  1.060606E+05 -1.417787E+04  2.306552E+05 -6.210509E+03  5.446578E+04
       246  24  4.331584E+05  1.161200E+05 -7.556918E+03  2.357077E+05 -1.663813E+04  5.951738E+04
       246  25 -5.694531E+05 -2.691324E+05 -2.875396E+05 -1.436896E+04  8.331558E+04  4.868879E+04
       246  26 -4.725615E+05 -2.253709E+05 -2.122611E+05 -1.676981E+04  2.432672E+04  6.600150E+04
       246  27 -4.036556E+05 -1.932106E+05 -1.776728E+05  9.236989E+00 -2.457310E+04  5.652840E+04
       247   1  1.221938E+06  4.043129E+05  1.536236E+05  4.563596E+05  1.346499E+04 -5.701962E+04
       247   2  1.155011E+06  3.707788E+05  1.389854E+05  4.277930E+05  1.127816E+04 -5.456320E+04
       247   3  1.073968E+06  3.512599E+05  1.251166E+05  4.155307E+05  8.395363E+03 -5.027381E+04
       247   4  4.338205E+05  1.156028E+05 -5.768394E+03  2.367372E+05  1.628939E+04 -5.595982E+04
       247   5  4.412334E+05  1.093793E+05 -3.051944E+03  2.283948E+05  1.674261E+04 -5.250379E+04
       247   6  4.340031E+05  1.166489E+05 -1.657493E+03  2.363562E+05  1.649935E+04 -4.721365E+04
       247   7 -3.536653E+05 -1.730559E+05 -1.651931E+05  1.736981E+04  1.910998E+04 -5.490146E+04
       247   8 -2.720216E+05 -1.519760E+05 -1.451143E+05  2.920749E+04  2.220036E+04 -5.044692E+04
       247   9 -2.055393E+05 -1.179252E+05 -1.284505E+05  5.735238E+04  2.459437E+04 -4.415690E+04
       247  10  1.221937E+06  4.043094E+05  1.536171E+05  4.563602E+05 -1.246841E-08 -9.139361E-09
       247  11  1.155010E+06  3.707755E+05  1.389796E+05  4.277935E+05 -1.663042E-09  3.466831E-09
       247  12  1.073968E+06  3.512572E+05  1.251117E+05  4.155311E+05  1.088596E-09  2.916602E-09
       247  13  4.338193E+05  1.155994E+05 -5.774779E+03  2.367379E+05 -7.315215E-09 -1.139814E-08
       247  14  4.412324E+05  1.093763E+05 -3.057653E+03  2.283955E+05  1.246844E-09  8.899840E-09
       247  15  4.340022E+05  1.166464E+05 -1.662195E+03  2.363568E+05  3.890622E-10  1.276814E-09
       247  16 -3.536665E+05 -1.730593E+05 -1.651994E+05  1.737065E+04  3.455875E-09  4.159776E-09
       247  17 -2.720228E+05 -1.519789E+05 -1.451200E+05  2.920840E+04  1.909239E-09  1.464327E-09
       247  18 -2.055405E+05 -1.179275E+05 -1.284553E+05  5.735325E+04  1.514413E-10 -1.217524E-09
       247  19  1.221938E+06  4.043129E+05  1.536236E+05  4.563596E+05 -1.346499E+04  5.701962E+04
       247  20  1.155011E+06  3.707788E+05  1.389854E+05  4.277930E+05 -1.127816E+04  5.456320E+04
       247  21  1.073968E+06  3.512599E+05  1.251166E+05  4.155307E+05 -8.395363E+03  5.027381E+04
       247  22  4.338205E+05  1.156028E+05 -5.768394E+03  2.367372E+05 -1.628939E+04  5.595982E+04
       247  23  4.412334E+05  1.093793E+05 -3.051944E+03  2.283948E+05 -1.674261E+04  5.250379E+04
       247  24  4.340031E+05  1.166489E+05 -1.657493E+03  2.363562E+05 -1.649935E+04  4.721365E+04
       247  25 -3.536653E+05 -1.730559E+05 -1.651931E+05  1.736981E+04 -1.910998E+04  5.490146E+04
       247  26 -2.720216E+05 -1.519760E+05 -1.451143E+05  2.920749E+04 -2.220036E+04  5.044692E+04
       247  27 -2.055393E+05 -1.179252E+05 -1.284505E+05  5.735238E+04 -2.459437E+04  4.415690E+04
       248   1  1.024142E+06  3.328202E+05  1.152452E+05  4.015577E+05  7.750200E+03 -4.677656E+04
       248   2  9.577585E+05  2.988302E+05  1.013355E+05  3.729025E+05  5.851693E+03 -4.128113E+04
       248   3  8.771129E+05  2.791376E+05  8.732254E+04  3.604332E+05  3.904577E+03 -3.566511E+04
       248   4  4.340642E+05  1.166380E+05 -1.241444E+03  2.364038E+05  1.549407E+04 -4.385114E+04
       248   5  4.412365E+05  1.095496E+05 -6.619533E+02  2.283011E+05  1.376924E+04 -3.828792E+04
       248   6  4.341046E+05  1.167246E+05 -3.243272E+02  2.363834E+05  1.199579E+04 -3.260401E+04
       248   7 -1.556484E+05 -9.951093E+04 -1.177426E+05  7.139642E+04  2.322999E+04 -4.092874E+04
       248   8 -7.500963E+04 -7.970683E+04 -1.026716E+05  8.381098E+04  2.167972E+04 -3.529739E+04
       248   9 -8.704457E+03 -4.567204E+04 -8.798110E+04  1.124145E+05  2.008087E+04 -2.954523E+04
       248  10  1.024141E+06  3.328178E+05  1.152410E+05  4.015580E+05  7.468660E-10  4.903486E-09
       248  11  9.577580E+05  2.988284E+05  1.013323E+05  3.729027E+05 -3.536726E-09 -3.307286E-10
       248  12  8.771125E+05  2.791363E+05  8.732012E+04  3.604333E+05 -2.532110E-09  2.530544E-12
       248  13  4.340634E+05  1.166359E+05 -1.245510E+03  2.364044E+05  2.047261E-10  8.964276E-10
       248  14  4.412359E+05  1.095480E+05 -6.650652E+02  2.283015E+05 -2.224052E-09 -3.617187E-09
       248  15  4.341041E+05  1.167235E+05 -3.265958E+02  2.363837E+05 -2.096541E-09  2.638948E-09
       248  16 -1.556494E+05 -9.951287E+04 -1.177468E+05  7.139718E+04 -1.636017E-09  1.024473E-09
       248  17 -7.501047E+04 -7.970830E+04 -1.026748E+05  8.381159E+04 -2.466516E-09  1.330824E-09
       248  18 -8.705124E+03 -4.567309E+04 -8.798350E+04  1.124149E+05  1.756714E-10  3.849606E-09
       248  19  1.024142E+06  3.328202E+05  1.152452E+05  4.015577E+05 -7.750200E+03  4.677656E+04
       248  20  9.577585E+05  2.988302E+05  1.013355E+05  3.729025E+05 -5.851693E+03  4.128113E+04
       248  21  8.771129E+05  2.791376E+05  8.732254E+04  3.604332E+05 -3.904577E+03  3.566511E+04
       248  22  4.340642E+05  1.166380E+05 -1.241444E+03  2.364038E+05 -1.549407E+04  4.385114E+04
       248  23  4.412365E+05  1.095496E+05 -6.619533E+02  2.283011E+05 -1.376924E+04  3.828792E+04
       248  24  4.341046E+05  1.167246E+05 -3.243272E+02  2.363834E+05 -1.199579E+04  3.260401E+04
       248  25 -1.556484E+05 -9.951093E+04 -1.177426E+05  7.139642E+04 -2.322999E+04  4.092874E+04
       248  26 -7.500963E+04 -7.970683E+04 -1.026716E+05  8.381098E+04 -2.167972E+04  3.529739E+04
       248  27 -8.704457E+03 -4.567204E+04 -8.798110E+04  1.124145E+05 -2.008087E+04  2.954523E+04
       249   1  8.273928E+05  2.608529E+05  7.719597E+04  3.465394E+05  2.742011E+03 -3.236822E+04
       249   2  7.611944E+05  2.269057E+05  6.311231E+04  3.179254E+05  6.315231E+02 -2.676391E+04
       249   3  6.807431E+05  2.072340E+05  4.902594E+04  3.054609E+05 -1.482533E+03 -2.115492E+04
       249   4  4.341219E+05  1.167278E+05 -2.144685E+02  2.363780E+05  1.080325E+04 -2.931742E+04
       249   5  4.412624E+05  1.096079E+05 -3.225472E+01  2.283013E+05  8.699387E+03 -2.370929E+04
       249   6  4.341423E+05  1.167616E+05  1.413612E+02  2.363721E+05  6.591955E+03 -1.809648E+04
       249   7  4.101117E+04 -2.738318E+04 -7.763171E+04  1.262812E+05  1.885901E+04 -2.626870E+04
       249   8  1.214378E+05 -7.680019E+03 -6.318089E+04  1.387204E+05  1.676275E+04 -2.065638E+04
       249   9  1.876067E+05  2.629562E+04 -4.874520E+04  1.673094E+05  1.466293E+04 -1.503937E+04
       249  10  8.273926E+05  2.608518E+05  7.719398E+04  3.465395E+05  1.866299E-09  9.070691E-09
       249  11  7.611942E+05  2.269050E+05  6.311096E+04  3.179254E+05 -6.802151E-09 -2.117256E-09
       249  12  6.807430E+05  2.072335E+05  4.902509E+04  3.054609E+05 -1.636976E-08 -5.872875E-09
       249  13  4.341215E+05  1.167269E+05 -2.163035E+02  2.363783E+05 -1.239684E-10  4.891616E-09
       249  14  4.412622E+05  1.096073E+05 -3.345360E+01  2.283015E+05 -1.364569E-09 -5.504167E-10
       249  15  4.341422E+05  1.167612E+05  1.406640E+02  2.363722E+05 -2.054663E-09  2.887738E-09
       249  16  4.101060E+04 -2.738402E+04 -7.763368E+04  1.262816E+05 -2.767303E-09  4.605475E-09
       249  17  1.214374E+05 -7.680552E+03 -6.318222E+04  1.387207E+05  2.679681E-09  3.626291E-09
       249  18  1.876064E+05  2.629532E+04 -4.874603E+04  1.673095E+05  8.812337E-09  3.216865E-09
       249  19  8.273928E+05  2.608529E+05  7.719597E+04  3.465394E+05 -2.742011E+03  3.236822E+04
       249  20  7.611944E+05  2.269057E+05  6.311231E+04  3.179254E+05 -6.315231E+02  2.676391E+04
       249  21  6.807431E+05  2.072340E+05  4.902594E+04  3.054609E+05  1.482533E+03  2.115492E+04
       249  22  4.341219E+05  1.167278E+05 -2.144685E+02  2.363780E+05 -1.080325E+04  2.931742E+04
       249  23  4.412624E+05  1.096079E+05 -3.225472E+01  2.283013E+05 -8.699387E+03  2.370929E+04
       249  24  4.341423E+05  1.167616E+05  1.413612E+02  2.363721E+05 -6.591955E+03  1.809648E+04
       249  25  4.101117E+04 -2.738318E+04 -7.763171E+04  1.262812E+05 -1.885901E+04  2.626870E+04
       249  26  1.214378E+05 -7.680019E+03 -6.318089E+04  1.387204E+05 -1.676275E+04  2.065638E+04
       249  27  1.876067E+05  2.629562E+04 -4.874520E+04  1.673094E+05 -1.466293E+04  1.503937E+04
       250   1  6.311146E+05  1.889704E+05  3.890153E+04  2.915882E+05 -2.746818E+03 -1.790170E+04
       250   2  5.649901E+05  1.550394E+05  2.493380E+04  2.630128E+05 -5.114820E+03 -1.239102E+04
       250   3  4.846441E+05  1.353785E+05  1.114939E+04  2.505744E+05 -7.481284E+03 -6.886127E+03
       250   4  4.341565E+05  1.167643E+05  2.378504E+02  2.363708E+05  5.323593E+03 -1.484425E+04
       250   5  4.412711E+05  1.096274E+05  5.104582E+02  2.283046E+05  2.947012E+03 -9.336289E+03
       250   6  4.341617E+05  1.167626E+05  9.734022E+02  2.363738E+05  5.719399E+02 -3.834135E+03
       250   7  2.372370E+05  4.456102E+04 -3.842779E+04  1.811692E+05  1.339133E+04 -1.178781E+04
       250   8  3.175676E+05  6.421670E+04 -2.391347E+04  1.936027E+05  1.100716E+04 -6.282203E+03
       250   9  3.836821E+05  9.814698E+04 -9.202435E+03  2.221744E+05  8.624463E+03 -7.824108E+02
       250  10  6.311145E+05  1.889701E+05  3.890092E+04  2.915882E+05  1.612815E-08 -2.455534E-11
       250  11  5.649900E+05  1.550393E+05  2.493346E+04  2.630128E+05  1.217479E-08  4.785183E-09
       250  12  4.846440E+05  1.353784E+05  1.114919E+04  2.505744E+05 -2.653189E-09 -9.715411E-09
       250  13  4.341564E+05  1.167640E+05  2.373829E+02  2.363709E+05 -3.072418E-09 -2.496839E-09
       250  14  4.412711E+05  1.096273E+05  5.102781E+02  2.283046E+05  3.477824E-10  4.347991E-09
       250  15  4.341617E+05  1.167626E+05  9.733739E+02  2.363738E+05  3.244564E-09  9.314905E-10
       250  16  2.372368E+05  4.456083E+04 -3.842839E+04  1.811693E+05 -2.240383E-08 -6.354894E-09
       250  17  3.175675E+05  6.421663E+04 -2.391377E+04  1.936027E+05 -8.534516E-09 -2.302546E-09
       250  18  3.836820E+05  9.814696E+04 -9.202576E+03  2.221744E+05  6.207886E-09  7.774741E-10
       250  19  6.311146E+05  1.889704E+05  3.890153E+04  2.915882E+05  2.746818E+03  1.790170E+04
       250  20  5.649901E+05  1.550394E+05  2.493380E+04  2.630128E+05  5.114820E+03  1.239102E+04
       250  21  4.846441E+05  1.353785E+05  1.114939E+04  2.505744E+05  7.481284E+03  6.886127E+03
       250  22  4.341565E+05  1.167643E+05  2.378504E+02  2.363708E+05 -5.323593E+03  1.484425E+04
       250  23  4.412711E+05  1.096274E+05  5.104582E+02  2.283046E+05 -2.947012E+03  9.336289E+03
       250  24  4.341617E+05  1.167626E+05  9.734022E+02  2.363738E+05 -5.719399E+02  3.834135E+03
       250  25  2.372370E+05  4.456102E+04 -3.842779E+04  1.811692E+05 -1.339133E+04  1.178781E+04
       250  26  3.175676E+05  6.421670E+04 -2.391347E+04  1.936027E+05 -1.100716E+04  6.282203E+03
       250  27  3.836821E+05  9.814698E+04 -9.202435E+03  2.221744E+05 -8.624463E+03  7.824108E+02
       251   1  4.350651E+05  1.171346E+05  1.271503E+03  2.367466E+05 -8.919769E+03 -3.700962E+03
       251   2  3.688635E+05  8.318866E+04 -1.191991E+04  2.081900E+05 -1.212061E+04  1.455920E+03
       251   3  2.885924E+05  6.361906E+04 -2.427350E+04  1.957806E+05 -1.529433E+04  6.542973E+03
       251   4  4.341953E+05  1.167579E+05  1.309933E+03  2.363884E+05 -8.538379E+02 -6.440983E+02
       251   5  4.412245E+05  1.095853E+05  2.391914E+03  2.283056E+05 -4.155984E+03  4.474075E+03
       251   6  4.341983E+05  1.168082E+05  4.391661E+03  2.363673E+05 -7.431176E+03  9.522403E+03
       251   7  4.333257E+05  1.163813E+05  1.348645E+03  2.360302E+05  7.212016E+03  2.412733E+03
       251   8  5.135910E+05  1.359825E+05  1.670376E+04  2.484233E+05  3.809635E+03  7.492603E+03
       251   9  5.798274E+05  1.699998E+05  3.305644E+04  2.769632E+05  4.340227E+02  1.250260E+04
       251  10  4.350650E+05  1.171345E+05  1.271328E+03  2.367465E+05  3.808736E-10 -5.853825E-09
       251  11  3.688634E+05  8.318862E+04 -1.192019E+04  2.081900E+05  1.242380E-09 -8.190427E-09
       251  12  2.885922E+05  6.361895E+04 -2.427402E+04  1.957806E+05  4.277273E-09 -3.466410E-09
       251  13  4.341953E+05  1.167579E+05  1.309931E+03  2.363884E+05 -2.502655E-10 -1.161349E-09
       251  14  4.412245E+05  1.095853E+05  2.391844E+03  2.283056E+05  3.791073E-09 -2.849880E-09
       251  15  4.341982E+05  1.168081E+05  4.391386E+03  2.363674E+05  3.085145E-09 -3.214879E-09
       251  16  4.333257E+05  1.163813E+05  1.348537E+03  2.360302E+05  9.811289E-10  5.692458E-09
       251  17  5.135910E+05  1.359824E+05  1.670363E+04  2.484233E+05 -1.054665E-10 -3.355393E-09
       251  18  5.798274E+05  1.699996E+05  3.305615E+04  2.769632E+05 -1.840355E-09 -3.881575E-09
       251  19  4.350651E+05  1.171346E+05  1.271503E+03  2.367466E+05  8.919769E+03  3.700962E+03
       251  20  3.688635E+05  8.318866E+04 -1.191991E+04  2.081900E+05  1.212061E+04 -1.455920E+03
       251  21  2.885924E+05  6.361906E+04 -2.427350E+04  1.957806E+05  1.529433E+04 -6.542973E+03
       251  22  4.341953E+05  1.167579E+05  1.309933E+03  2.363884E+05  8.538379E+02  6.440983E+02
       251  23  4.412245E+05  1.095853E+05  2.391914E+03  2.283056E+05  4.155984E+03 -4.474075E+03
       251  24  4.341983E+05  1.168082E+05  4.391661E+03  2.363673E+05  7.431176E+03 -9.522403E+03
       251  25  4.333257E+05  1.163813E+05  1.348645E+03  2.360302E+05 -7.212016E+03 -2.412733E+03
       251  26  5.135910E+05  1.359825E+05  1.670376E+04  2.484233E+05 -3.809635E+03 -7.492603E+03
       251  27  5.798274E+05  1.699998E+05  3.305644E+04  2.769632E+05 -4.340227E+02 -1.250260E+04
       252   1  2.388645E+05  4.553301E+04 -3.305106E+04  1.824198E+05 -1.754670E+04  9.418950E+03
       252   2  1.728569E+05  1.117956E+04 -4.300749E+04  1.527823E+05 -2.336015E+04  1.303883E+04
       252   3  9.405625E+04 -6.504569E+03 -4.941720E+04  1.387765E+05 -2.878415E+04  1.563560E+04
       252   4  4.344385E+05  1.166783E+05  5.846767E+03  2.365162E+05 -9.486260E+03  1.247274E+04
       252   5  4.409221E+05  1.098517E+05  1.066259E+04  2.280723E+05 -1.677490E+04  1.553265E+04
       252   6  4.348985E+05  1.199846E+05  2.019281E+04  2.352571E+05 -2.367464E+04  1.756951E+04
       252   7  6.300521E+05  1.878268E+05  4.474304E+04  2.906284E+05 -1.423096E+03  1.552754E+04
       252   8  7.090605E+05  2.085299E+05  6.432906E+04  3.033920E+05 -1.018662E+04  1.802762E+04
       252   9  7.758574E+05  2.464834E+05  8.979622E+04  3.317860E+05 -1.856216E+04  1.950457E+04
       252  10  2.388641E+05  4.553284E+04 -3.305181E+04  1.824199E+05  2.037803E-09 -2.644238E-09
       252  11  1.728562E+05  1.117923E+04 -4.300883E+04  1.527825E+05  1.094262E-09  4.040018E-09
       252  12  9.405529E+04 -6.505055E+03 -4.941922E+04  1.387769E+05  1.869852E-09  4.555160E-09
       252  13  4.344384E+05  1.166781E+05  5.846306E+03  2.365163E+05  4.002868E-10  3.838898E-09
       252  14  4.409218E+05  1.098513E+05  1.066161E+04  2.280725E+05  3.956186E-09  1.314840E-08
       252  15  4.348978E+05  1.199841E+05  2.019118E+04  2.352574E+05  2.435112E-09 -6.373828E-09
       252  16  6.300521E+05  1.878266E+05  4.474258E+04  2.906284E+05  1.798389E-09  3.456466E-09
       252  17  7.090603E+05  2.085295E+05  6.432825E+04  3.033922E+05 -1.154439E-09  2.986242E-09
       252  18  7.758569E+05  2.464829E+05  8.979485E+04  3.317863E+05  4.314967E-10 -3.061901E-09
       252  19  2.388645E+05  4.553301E+04 -3.305106E+04  1.824198E+05  1.754670E+04 -9.418950E+03
       252  20  1.728569E+05  1.117956E+04 -4.300749E+04  1.527823E+05  2.336015E+04 -1.303883E+04
       252  21  9.405625E+04 -6.504569E+03 -4.941720E+04  1.387765E+05  2.878415E+04 -1.563560E+04
       252  22  4.344385E+05  1.166783E+05  5.846767E+03  2.365162E+05  9.486260E+03 -1.247274E+04
       252  23  4.409221E+05  1.098517E+05  1.066259E+04  2.280723E+05  1.677490E+04 -1.553265E+04
       252  24  4.348985E+05  1.199846E+05  2.019281E+04  2.352571E+05  2.367464E+04 -1.756951E+04
       252  25  6.300521E+05  1.878268E+05  4.474304E+04  2.906284E+05  1.423096E+03 -1.552754E+04
       252  26  7.090605E+05  2.085299E+05  6.432906E+04  3.033920E+05  1.018662E+04 -1.802762E+04
       252  27  7.758574E+05  2.464834E+05  8.979622E+04  3.317860E+05  1.856216E+04 -1.950457E+04
       253   1  4.041189E+04 -2.131662E+04 -5.359628E+04  1.347329E+05 -3.590422E+04  1.663560E+04
       253   2 -9.950239E+03 -6.529304E+04 -5.236199E+04  7.458747E+04 -3.971085E+04  1.300550E+04
       253   3 -5.205832E+04 -3.975512E+04 -3.233971E+04  1.475092E+04 -3.787677E+04 -5.531315E+03
       253   4  4.382168E+05  1.170516E+05  2.646164E+04  2.377354E+05 -2.795057E+04  1.964637E+04
       253   5  4.379946E+05  1.223276E+05  4.954498E+04  2.216170E+05 -5.321008E+04  7.891736E+03
       253   6  4.502552E+05  2.013375E+05  1.084097E+05  2.058092E+05 -7.283278E+04 -1.876508E+04
       253   7  8.361891E+05  2.554311E+05  1.065134E+05  3.407983E+05 -1.999132E+04  2.265901E+04
       253   8  8.861443E+05  3.099808E+05  1.514396E+05  3.687496E+05 -6.671979E+04  2.772816E+03
       253   9  9.528166E+05  4.424934E+05  2.491390E+05  3.970209E+05 -1.078191E+05 -3.201762E+04
       253  10  4.041043E+04 -2.131727E+04 -5.359922E+04  1.347334E+05  3.864127E-09  3.966969E-09
       253  11 -9.951978E+03 -6.529365E+04 -5.236527E+04  7.458789E+04 -8.823478E-10  2.219679E-10
       253  12 -5.205987E+04 -3.975554E+04 -3.234246E+04  1.475075E+04 -5.197289E-09 -2.611810E-09
       253  13  4.382159E+05  1.170509E+05  2.645944E+04  2.377358E+05  4.140180E-09 -5.601948E-09
       253  14  4.379915E+05  1.223268E+05  4.953954E+04  2.216173E+05 -1.648842E-09 -6.402882E-09
       253  15  4.502494E+05  2.013357E+05  1.083991E+05  2.058081E+05  2.271795E-09  4.343968E-09
       253  16  8.361885E+05  2.554305E+05  1.065117E+05  3.407986E+05 -7.462262E-10 -2.283399E-09
       253  17  8.861395E+05  3.099796E+05  1.514313E+05  3.687497E+05  2.652572E-09 -3.664930E-09
       253  18  9.528039E+05  4.424892E+05  2.491153E+05  3.970181E+05  4.446418E-09 -1.321522E-09
       253  19  4.041189E+04 -2.131662E+04 -5.359628E+04  1.347329E+05  3.590422E+04 -1.663560E+04
       253  20 -9.950239E+03 -6.529304E+04 -5.236199E+04  7.458747E+04  3.971085E+04 -1.300550E+04
       253  21 -5.205832E+04 -3.975512E+04 -3.233971E+04  1.475092E+04  3.787677E+04  5.531315E+03
       253  22  4.382168E+05  1.170516E+05  2.646164E+04  2.377354E+05  2.795057E+04 -1.964637E+04
       253  23  4.379946E+05  1.223276E+05  4.954498E+04  2.216170E+05  5.321008E+04 -7.891736E+03
       253  24  4.502552E+05  2.013375E+05  1.084097E+05  2.058092E+05  7.283278E+04  1.876508E+04
       253  25  8.361891E+05  2.554311E+05  1.065134E+05  3.407983E+05  1.999132E+04 -2.265901E+04
       253  26  8.861443E+05  3.099808E+05  1.514396E+05  3.687496E+05  6.671979E+04 -2.772816E+03
       253  27  9.528166E+05  4.424934E+05  2.491390E+05  3.970209E+05  1.078191E+05  3.201762E+04
       254   1  6.095340E+04 -3.220617E+03 -6.824915E+03 -1.797272E+03 -1.165430E+04 -6.637130E+02
       254   2  5.448312E+04  1.084101E+04  8.945763E+02  1.147777E+03 -8.181989E+03 -1.895169E+03
       254   3  4.362799E+04  9.295233E+03  2.448333E+03  7.841136E+03 -4.714588E+03 -1.734510E+03
       254   4  9.203219E+03 -1.602387E+04 -1.939864E+04  5.466193E+03 -1.332940E+04 -6.696901E+02
       254   5  1.150043E+04  3.273371E+02 -8.796447E+03  3.562541E+03 -8.654604E+03 -1.896864E+03
       254   6  9.203532E+03  8.616793E+02 -5.195405E+03  5.407257E+03 -3.984661E+03 -1.731934E+03
       254   7 -4.254439E+04 -2.882711E+04 -3.197252E+04  1.272905E+04 -1.500436E+04 -6.757067E+02
       254   8 -3.148053E+04 -1.018644E+04 -1.848758E+04  5.977135E+03 -9.127186E+03 -1.898563E+03
       254   9 -2.521981E+04 -7.571933E+03 -1.283921E+04  2.973514E+03 -3.254774E+03 -1.729364E+03
       254  10  6.095325E+04 -3.220654E+03 -6.825171E+03 -1.797278E+03 -9.515626E-09  1.504782E-09
       254  11  5.448305E+04  1.084099E+04  8.944437E+02  1.147765E+03  6.378882E-09  1.052331E-08
       254  12  4.362797E+04  9.295224E+03  2.448285E+03  7.841129E+03  1.438510E-08  6.163247E-09
       254  13  9.203028E+03 -1.602392E+04 -1.939897E+04  5.466185E+03  9.209773E-10 -7.610310E-09
       254  14  1.150035E+04  3.273131E+02 -8.796595E+03  3.562528E+03  5.861565E-10 -9.654776E-09
       254  15  9.203514E+03  8.616718E+02 -5.195440E+03  5.407252E+03 -1.787094E-09 -3.248040E-10
       254  16 -4.254463E+04 -2.882717E+04 -3.197294E+04  1.272904E+04  8.933646E-09 -5.882470E-10
       254  17 -3.148062E+04 -1.018647E+04 -1.848775E+04  5.977121E+03 -6.785809E-09  9.410214E-09
       254  18 -2.521982E+04 -7.571939E+03 -1.283924E+04  2.973510E+03 -1.590043E-08  1.465166E-09
       254  19  6.095340E+04 -3.220617E+03 -6.824915E+03 -1.797272E+03  1.165430E+04  6.637130E+02
       254  20  5.448312E+04  1.084101E+04  8.945763E+02  1.147777E+03  8.181989E+03  1.895169E+03
       254  21  4.362799E+04  9.295233E+03  2.448333E+03  7.841136E+03  4.714588E+03  1.734510E+03
       254  22  9.203219E+03 -1.602387E+04 -1.939864E+04  5.466193E+03  1.332940E+04  6.696901E+02
       254  23  1.150043E+04  3.273371E+02 -8.796447E+03  3.562541E+03  8.654604E+03  1.896864E+03
       254  24  9.203532E+03  8.616793E+02 -5.195405E+03  5.407257E+03  3.984661E+03  1.731934E+03
       254  25 -4.254439E+04 -2.882711E+04 -3.197252E+04  1.272905E+04  1.500436E+04  6.757067E+02
       254  26 -3.148053E+04 -1.018644E+04 -1.848758E+04  5.977135E+03  9.127186E+03  1.898563E+03
       254  27 -2.521981E+04 -7.571933E+03 -1.283921E+04  2.973514E+03  3.254774E+03  1.729364E+03
       255   1  3.727909E+04  5.726022E+03  1.907661E+03  5.170596E+03 -3.558312E+03 -1.321922E+03
       255   2  2.886601E+04  4.594346E+03  1.892567E+03  3.515015E+03 -2.494265E+03 -9.213138E+02
       255   3  2.004641E+04  2.522527E+03  9.422762E+02  5.627976E+03 -1.430477E+03 -4.584504E+02
       255   4  1.013203E+04 -9.106564E+02 -4.141883E+03  5.429479E+03 -3.242218E+03 -1.320815E+03
       255   5  1.034011E+04  6.610171E+01 -2.225427E+03  3.543430E+03 -2.124432E+03 -9.200125E+02
       255   6  1.013212E+04  9.333538E+01 -1.281557E+03  5.425937E+03 -1.006891E+03 -4.569540E+02
       255   7 -1.701435E+04 -7.547385E+03 -1.019147E+04  5.688350E+03 -2.926138E+03 -1.319708E+03
       255   8 -8.185469E+03 -4.462165E+03 -6.343442E+03  3.571843E+03 -1.754610E+03 -9.187111E+02
       255   9  2.179128E+02 -2.335862E+03 -3.505396E+03  5.223900E+03 -5.833116E+02 -4.554579E+02
       255  10  3.727908E+04  5.726017E+03  1.907634E+03  5.170592E+03 -1.408202E-08 -1.077401E-09
       255  11  2.886601E+04  4.594343E+03  1.892553E+03  3.515013E+03 -3.541271E-09  3.457962E-09
       255  12  2.004641E+04  2.522526E+03  9.422720E+02  5.627976E+03  6.902138E-09  9.080053E-09
       255  13  1.013201E+04 -9.106611E+02 -4.141906E+03  5.429475E+03 -2.274099E-09  1.252105E-08
       255  14  1.034011E+04  6.609959E+01 -2.225437E+03  3.543428E+03 -2.082594E-09 -2.198658E-08
       255  15  1.013212E+04  9.333488E+01 -1.281560E+03  5.425936E+03  1.557620E-09  1.018774E-08
       255  16 -1.701436E+04 -7.547389E+03 -1.019149E+04  5.688347E+03  1.305513E-08 -6.125457E-09
       255  17 -8.185472E+03 -4.462167E+03 -6.343449E+03  3.571842E+03  3.900620E-09 -3.011015E-09
       255  18  2.179124E+02 -2.335863E+03 -3.505397E+03  5.223900E+03 -6.857366E-09  2.196398E-09
       255  19  3.727909E+04  5.726022E+03  1.907661E+03  5.170596E+03  3.558312E+03  1.321922E+03
       255  20  2.886601E+04  4.594346E+03  1.892567E+03  3.515015E+03  2.494265E+03  9.213138E+02
       255  21  2.004641E+04  2.522527E+03  9.422762E+02  5.627976E+03  1.430477E+03  4.584504E+02
       255  22  1.013203E+04 -9.106564E+02 -4.141883E+03  5.429479E+03  3.242218E+03  1.320815E+03
       255  23  1.034011E+04  6.610171E+01 -2.225427E+03  3.543430E+03  2.124432E+03  9.200125E+02
       255  24  1.013212E+04  9.333538E+01 -1.281557E+03  5.425937E+03  1.006891E+03  4.569540E+02
       255  25 -1.701435E+04 -7.547385E+03 -1.019147E+04  5.688350E+03  2.926138E+03  1.319708E+03
       255  26 -8.185469E+03 -4.462165E+03 -6.343442E+03  3.571843E+03  1.754610E+03  9.187111E+02
       255  27  2.179128E+02 -2.335862E+03 -3.505396E+03  5.223900E+03  5.833116E+02  4.554579E+02
       256   1  1.285566E+04  6.320626E+02 -4.137461E+02  5.444729E+03 -1.214003E+03 -1.760820E+02
       256   2  4.280143E+03 -1.424759E+03 -1.864143E+03  3.541718E+03 -9.498104E+02  2.950769E+02
       256   3 -4.371698E+03 -3.515532E+03 -3.502777E+03  5.407878E+03 -6.856231E+02  7.690148E+02
       256   4  1.020756E+04 -1.075183E+01 -9.791573E+02  5.427154E+03 -8.089333E+02 -1.746505E+02
       256   5  1.024588E+04  3.302690E+01 -5.405989E+02  3.542473E+03 -5.423410E+02  2.965154E+02
       256   6  1.020752E+04  4.247488E+01 -2.919114E+02  5.426960E+03 -2.757505E+02  7.704604E+02
       256   7  7.559461E+03 -6.535666E+02 -1.544568E+03  5.409579E+03 -4.038652E+02 -1.732189E+02
       256   8  1.621166E+04  1.490811E+03  7.829433E+02  3.543227E+03 -1.348677E+02  2.979538E+02
       256   9  2.478694E+04  3.600467E+03  2.918942E+03  5.446042E+03  1.341316E+02  7.719059E+02
       256  10  1.285566E+04  6.320621E+02 -4.137489E+02  5.444728E+03  3.471709E-09 -5.614699E-09
       256  11  4.280142E+03 -1.424760E+03 -1.864145E+03  3.541719E+03  2.371200E-09 -1.161384E-09
       256  12 -4.371699E+03 -3.515532E+03 -3.502779E+03  5.407878E+03 -4.048225E-09 -3.371929E-09
       256  13  1.020756E+04 -1.075204E+01 -9.791586E+02  5.427153E+03  9.569979E-10 -2.359196E-09
       256  14  1.024588E+04  3.302673E+01 -5.405996E+02  3.542473E+03 -9.999255E-10 -8.742339E-09
       256  15  1.020752E+04  4.247423E+01 -2.919127E+02  5.426960E+03  2.240638E-10 -2.399540E-09
       256  16  7.559461E+03 -6.535667E+02 -1.544569E+03  5.409579E+03 -4.255429E-09 -8.321205E-09
       256  17  1.621166E+04  1.490811E+03  7.829431E+02  3.543227E+03 -1.175042E-09  3.153804E-09
       256  18  2.478694E+04  3.600467E+03  2.918940E+03  5.446042E+03  2.450744E-09  1.065655E-08
       256  19  1.285566E+04  6.320626E+02 -4.137461E+02  5.444729E+03  1.214003E+03  1.760820E+02
       256  20  4.280143E+03 -1.424759E+03 -1.864143E+03  3.541718E+03  9.498104E+02 -2.950769E+02
       256  21 -4.371698E+03 -3.515532E+03 -3.502777E+03  5.407878E+03  6.856231E+02 -7.690148E+02
       256  22  1.020756E+04 -1.075183E+01 -9.791573E+02  5.427154E+03  8.089333E+02  1.746505E+02
       256  23  1.024588E+04  3.302690E+01 -5.405989E+02  3.542473E+03  5.423410E+02 -2.965154E+02
       256  24  1.020752E+04  4.247488E+01 -2.919114E+02  5.426960E+03  2.757505E+02 -7.704604E+02
       256  25  7.559461E+03 -6.535666E+02 -1.544568E+03  5.409579E+03  4.038652E+02  1.732189E+02
       256  26  1.621166E+04  1.490811E+03  7.829433E+02  3.543227E+03  1.348677E+02 -2.979538E+02
       256  27  2.478694E+04  3.600467E+03  2.918942E+03  5.446042E+03 -1.341316E+02 -7.719059E+02
       257   1 -1.162751E+04 -5.306255E+03 -5.078065E+03  5.378390E+03 -6.409448E+02  1.045106E+03
       257   2 -2.022551E+04 -7.418094E+03 -6.833147E+03  3.470110E+03 -6.061588E+02  1.518749E+03
       257   3 -2.885510E+04 -9.506891E+03 -8.612738E+03  5.331295E+03 -5.713543E+02  1.992511E+03
       257   4  1.021746E+04  3.734272E+01 -2.059177E+02  5.427084E+03 -2.318968E+02  1.046546E+03
       257   5  1.023322E+04  2.582413E+01 -7.384494E+01  3.542355E+03 -1.970100E+02  1.520182E+03
       257   6  1.021730E+04  3.733315E+01  3.365109E+01  5.427078E+03 -1.621043E+02  1.993936E+03
       257   7  3.206288E+04  5.380908E+03  4.666200E+03  5.475780E+03  1.771656E+02  1.047986E+03
       257   8  4.069282E+04  7.469679E+03  6.685400E+03  3.614602E+03  2.121586E+02  1.521614E+03
       257   9  4.929114E+04  9.581455E+03  8.679947E+03  5.522866E+03  2.471711E+02  1.995361E+03
       257  10 -1.162751E+04 -5.306256E+03 -5.078068E+03  5.378390E+03 -1.348988E-10 -9.823464E-09
       257  11 -2.022551E+04 -7.418096E+03 -6.833152E+03  3.470111E+03 -5.874749E-09  2.545743E-09
       257  12 -2.885510E+04 -9.506896E+03 -8.612747E+03  5.331296E+03 -1.342471E-08 -4.221795E-09
       257  13  1.021746E+04  3.734153E+01 -2.059198E+02  5.427084E+03 -1.209480E-09  4.717570E-09
       257  14  1.023322E+04  2.582164E+01 -7.384936E+01  3.542355E+03 -3.153297E-09 -1.445925E-08
       257  15  1.021730E+04  3.732888E+01  3.364357E+01  5.427078E+03  2.201639E-10 -4.767193E-09
       257  16  3.206288E+04  5.380907E+03  4.666198E+03  5.475780E+03 -2.285092E-09  1.999009E-09
       257  17  4.069282E+04  7.469677E+03  6.685396E+03  3.614602E+03  6.382004E-09  6.315821E-09
       257  18  4.929113E+04  9.581451E+03  8.679939E+03  5.522866E+03  1.213267E-08  7.043825E-09
       257  19 -1.162751E+04 -5.306255E+03 -5.078065E+03  5.378390E+03  6.409448E+02 -1.045106E+03
       257  20 -2.022551E+04 -7.418094E+03 -6.833147E+03  3.470110E+03  6.061588E+02 -1.518749E+03
       257  21 -2.885510E+04 -9.506891E+03 -8.612738E+03  5.331295E+03  5.713543E+02 -1.992511E+03
       257  22  1.021746E+04  3.734272E+01 -2.059177E+02  5.427084E+03  2.318968E+02 -1.046546E+03
       257  23  1.023322E+04  2.582413E+01 -7.384494E+01  3.542355E+03  1.970100E+02 -1.520182E+03
       257  24  1.021730E+04  3.733315E+01  3.365109E+01  5.427078E+03  1.621043E+02 -1.993936E+03
       257  25  3.206288E+04  5.380908E+03  4.666200E+03  5.475780E+03 -1.771656E+02 -1.047986E+03
       257  26  4.069282E+04  7.469679E+03  6.685400E+03  3.614602E+03 -2.121586E+02 -1.521614E+03
       257  27  4.929114E+04  9.581455E+03  8.679947E+03  5.522866E+03 -2.471711E+02 -1.995361E+03
       258   1 -3.611629E+04 -1.129271E+04 -1.021877E+04  5.313111E+03 -5.835125E+02  2.268198E+03
       258   2 -4.472634E+04 -1.340934E+04 -1.196962E+04  3.410156E+03 -6.964332E+02  2.741439E+03
       258   3 -5.334485E+04 -1.549253E+04 -1.364593E+04  5.277482E+03 -8.093148E+02  3.214389E+03
       258   4  1.022228E+04  3.719313E+01  8.915994E+01  5.427264E+03 -1.741981E+02  2.269617E+03
       258   5  1.022645E+04  2.099094E+01  2.255622E+02  3.542128E+03 -2.873856E+02  2.742843E+03
       258   6  1.022200E+04  3.825564E+01  4.366639E+02  5.427254E+03 -4.005354E+02  3.215778E+03
       258   7  5.656286E+04  1.136695E+04  1.039695E+04  5.541424E+03  2.351465E+02  2.271036E+03
       258   8  6.518206E+04  1.345112E+04  1.242056E+04  3.674111E+03  1.216978E+02  2.744247E+03
       258   9  7.379263E+04  1.556877E+04  1.451901E+04  5.577038E+03  8.285318E+00  3.217168E+03
       258  10 -3.611629E+04 -1.129271E+04 -1.021878E+04  5.313112E+03 -5.974299E-09 -5.118836E-09
       258  11 -4.472635E+04 -1.340935E+04 -1.196964E+04  3.410157E+03 -5.303928E-09 -6.785520E-09
       258  12 -5.334486E+04 -1.549254E+04 -1.364595E+04  5.277484E+03 -1.121319E-08 -2.614218E-09
       258  13  1.022228E+04  3.718759E+01  8.915020E+01  5.427265E+03 -1.221599E-09  7.732736E-09
       258  14  1.022645E+04  2.098284E+01  2.255479E+02  3.542129E+03 -4.607965E-10 -1.713621E-09
       258  15  1.022200E+04  3.824450E+01  4.366441E+02  5.427255E+03 -1.540831E-09 -2.128093E-09
       258  16  5.656286E+04  1.136694E+04  1.039694E+04  5.541424E+03  4.103547E-09  7.208805E-09
       258  17  6.518206E+04  1.345111E+04  1.242055E+04  3.674110E+03  6.769547E-09 -1.216669E-08
       258  18  7.379263E+04  1.556876E+04  1.451899E+04  5.577038E+03  1.080184E-08 -7.360930E-09
       258  19 -3.611629E+04 -1.129271E+04 -1.021877E+04  5.313111E+03  5.835125E+02 -2.268198E+03
       258  20 -4.472634E+04 -1.340934E+04 -1.196962E+04  3.410156E+03  6.964332E+02 -2.741439E+03
       258  21 -5.334485E+04 -1.549253E+04 -1.364593E+04  5.277482E+03  8.093148E+02 -3.214389E+03
       258  22  1.022228E+04  3.719313E+01  8.915994E+01  5.427264E+03  1.741981E+02 -2.269617E+03
       258  23  1.022645E+04  2.099094E+01  2.255622E+02  3.542128E+03  2.873856E+02 -2.742843E+03
       258  24  1.022200E+04  3.825564E+01  4.366639E+02  5.427254E+03  4.005354E+02 -3.215778E+03
       258  25  5.656286E+04  1.136695E+04  1.039695E+04  5.541424E+03 -2.351465E+02 -2.271036E+03
       258  26  6.518206E+04  1.345112E+04  1.242056E+04  3.674111E+03 -1.216978E+02 -2.744247E+03
       258  27  7.379263E+04  1.556877E+04  1.451901E+04  5.577038E+03 -8.285318E+00 -3.217168E+03
       259   1 -6.059420E+04 -1.728809E+04 -1.515798E+04  5.278441E+03 -9.045387E+02  3.490464E+03
       259   2 -6.924539E+04 -1.940962E+04 -1.659597E+04  3.365107E+03 -1.414180E+03  3.960861E+03
       259   3 -7.782532E+04 -2.139192E+04 -1.767428E+04  5.221000E+03 -1.923749E+03  4.424210E+03
       259   4  1.023977E+04  2.842190E+01  5.860284E+02  5.427130E+03 -4.936378E+02  3.491850E+03
       259   5  1.020338E+04  7.804090E+00  1.036379E+03  3.542358E+03 -1.009428E+03  3.962207E+03
       259   6  1.023936E+04  1.275073E+02  1.850674E+03  5.426784E+03 -1.525151E+03  4.425515E+03
       259   7  8.107842E+04  1.734459E+04  1.632973E+04  5.575832E+03 -8.269044E+01  3.493236E+03
       259   8  8.965804E+04  1.942480E+04  1.866833E+04  3.719627E+03 -6.046238E+02  3.963552E+03
       259   9  9.831129E+04  2.164641E+04  2.137515E+04  5.632592E+03 -1.126498E+03  4.426820E+03
       259  10 -6.059420E+04 -1.728810E+04 -1.515801E+04  5.278444E+03 -5.567550E-09 -1.621629E-09
       259  11 -6.924540E+04 -1.940963E+04 -1.659600E+04  3.365111E+03 -7.466558E-10 -1.959013E-09
       259  12 -7.782533E+04 -2.139194E+04 -1.767432E+04  5.221007E+03  2.332966E-09 -2.667758E-09
       259  13  1.023977E+04  2.840874E+01  5.860050E+02  5.427131E+03  9.120085E-10 -5.410562E-10
       259  14  1.020337E+04  7.786958E+00  1.036347E+03  3.542361E+03  6.048633E-10  1.839198E-09
       259  15  1.023935E+04  1.274857E+02  1.850633E+03  5.426790E+03 -6.133939E-10  6.897039E-09
       259  16  8.107841E+04  1.734458E+04  1.632970E+04  5.575832E+03  5.319288E-09  8.960518E-09
       259  17  8.965803E+04  1.942478E+04  1.866830E+04  3.719629E+03  4.351723E-10 -2.276890E-09
       259  18  9.831128E+04  2.164639E+04  2.137511E+04  5.632596E+03 -3.233819E-09  8.003247E-09
       259  19 -6.059420E+04 -1.728809E+04 -1.515798E+04  5.278441E+03  9.045387E+02 -3.490464E+03
       259  20 -6.924539E+04 -1.940962E+04 -1.659597E+04  3.365107E+03  1.414180E+03 -3.960861E+03
       259  21 -7.782532E+04 -2.139192E+04 -1.767428E+04  5.221000E+03  1.923749E+03 -4.424210E+03
       259  22  1.023977E+04  2.842190E+01  5.860284E+02  5.427130E+03  4.936378E+02 -3.491850E+03
       259  23  1.020338E+04  7.804090E+00  1.036379E+03  3.542358E+03  1.009428E+03 -3.962207E+03
       259  24  1.023936E+04  1.275073E+02  1.850674E+03  5.426784E+03  1.525151E+03 -4.425515E+03
       259  25  8.107842E+04  1.734459E+04  1.632973E+04  5.575832E+03  8.269044E+01 -3.493236E+03
       259  26  8.965804E+04  1.942480E+04  1.866833E+04  3.719627E+03  6.046238E+02 -3.963552E+03
       259  27  9.831129E+04  2.164641E+04  2.137515E+04  5.632592E+03  1.126498E+03 -4.426820E+03
       260   1 -8.495660E+04 -2.337064E+04 -1.876377E+04  5.513395E+03 -2.347277E+03  4.713692E+03
       260   2 -9.391570E+04 -2.546431E+04 -1.890262E+04  3.136037E+03 -4.315024E+03  5.144038E+03
       260   3 -1.021871E+05 -2.572358E+04 -1.730788E+04  4.519259E+03 -6.282166E+03  5.416033E+03
       260   4  1.038103E+04 -6.805815E+01  2.415468E+03  5.426782E+03 -1.901596E+03  4.715143E+03
       260   5  1.002511E+04 -5.577836E+01  4.182734E+03  3.543382E+03 -4.006460E+03  5.145002E+03
       260   6  1.038052E+04  1.814530E+03  7.778611E+03  5.420516E+03 -6.110746E+03  5.416520E+03
       260   7  1.057271E+05  2.323391E+04  2.359414E+04  5.340148E+03 -1.455847E+03  4.716593E+03
       260   8  1.139760E+05  2.535202E+04  2.726742E+04  3.950787E+03 -3.697845E+03  5.145967E+03
       260   9  1.229599E+05  2.935178E+04  3.286430E+04  6.321929E+03 -5.939295E+03  5.417008E+03
       260  10 -8.495661E+04 -2.337066E+04 -1.876382E+04  5.513404E+03  1.061929E-08 -1.466877E-09
       260  11 -9.391573E+04 -2.546434E+04 -1.890271E+04  3.136054E+03 -3.031493E-09  5.146607E-09
       260  12 -1.021871E+05 -2.572362E+04 -1.730801E+04  4.519286E+03 -1.350912E-08 -5.475709E-09
       260  13  1.038102E+04 -6.808299E+01  2.415420E+03  5.426789E+03  9.098956E-10 -9.742909E-09
       260  14  1.002509E+04 -5.581110E+01  4.182654E+03  3.543398E+03 -2.054313E-09  8.020639E-09
       260  15  1.038047E+04  1.814488E+03  7.778486E+03  5.420543E+03 -4.902548E-10 -1.321611E-10
       260  16  1.057271E+05  2.323388E+04  2.359409E+04  5.340154E+03 -1.172706E-08 -1.886741E-09
       260  17  1.139760E+05  2.535199E+04  2.726734E+04  3.950803E+03  2.848330E-09 -1.383716E-08
       260  18  1.229599E+05  2.935174E+04  3.286418E+04  6.321955E+03  1.309849E-08  1.977073E-09
       260  19 -8.495660E+04 -2.337064E+04 -1.876377E+04  5.513395E+03  2.347277E+03 -4.713692E+03
       260  20 -9.391570E+04 -2.546431E+04 -1.890262E+04  3.136037E+03  4.315024E+03 -5.144038E+03
       260  21 -1.021871E+05 -2.572358E+04 -1.730788E+04  4.519259E+03  6.282166E+03 -5.416033E+03
       260  22  1.038103E+04 -6.805815E+01  2.415468E+03  5.426782E+03  1.901596E+03 -4.715143E+03
       260  23  1.002511E+04 -5.577836E+01  4.182734E+03  3.543382E+03  4.006460E+03 -5.145002E+03
       260  24  1.038052E+04  1.814530E+03  7.778611E+03  5.420516E+03  6.110746E+03 -5.416520E+03
       260  25  1.057271E+05  2.323391E+04  2.359414E+04  5.340148E+03  1.455847E+03 -4.716593E+03
       260  26  1.139760E+05  2.535202E+04  2.726742E+04  3.950787E+03  3.697845E+03 -5.145967E+03
       260  27  1.229599E+05  2.935178E+04  3.286430E+04  6.321929E+03  5.939295E+03 -5.417008E+03
       261   1 -1.078202E+05 -3.078593E+04 -1.682150E+04  9.505844E+03 -8.734244E+03  6.021997E+03
       261   2 -1.204305E+05 -3.201785E+04 -1.235966E+04 -1.479792E+03 -1.443830E+04  5.650546E+03
       261   3 -1.250090E+05 -4.009232E+03  3.123226E+03 -8.912903E+03 -2.013090E+04  1.736171E+03
       261   4  1.212454E+04 -1.513421E+03  9.755868E+03  5.405048E+03 -7.509828E+03  6.025980E+03
       261   5  7.843658E+03 -5.485272E+02  1.651426E+04  3.577940E+03 -1.627615E+04  5.644425E+03
       261   6  1.212419E+04  3.018497E+04  3.641870E+04  5.303158E+03 -2.503109E+04  1.720105E+03
       261   7  1.320827E+05  2.775818E+04  3.633236E+04  1.303441E+03 -6.285178E+03  6.029946E+03
       261   8  1.361332E+05  3.091976E+04  4.538716E+04  8.636715E+03 -1.811436E+04  5.638274E+03
       261   9  1.492751E+05  6.437856E+04  6.971302E+04  1.952236E+04 -2.993237E+04  1.703816E+03
       261  10 -1.078203E+05 -3.078599E+04 -1.682171E+04  9.505886E+03 -1.242964E-09 -4.862900E-09
       261  11 -1.204307E+05 -3.201794E+04 -1.236012E+04 -1.479727E+03  9.095275E-09 -3.548573E-09
       261  12 -1.250095E+05 -4.009344E+03  3.122458E+03 -8.912875E+03  1.151477E-08  3.887488E-09
       261  13  1.212447E+04 -1.513475E+03  9.755694E+03  5.405085E+03 -2.366146E-10  5.367274E-10
       261  14  7.843365E+03 -5.486325E+02  1.651370E+04  3.578014E+03 -1.546595E-09  7.205650E-09
       261  15  1.212352E+04  3.018480E+04  3.641752E+04  5.303193E+03  4.375821E-10  3.784320E-09
       261  16  1.320827E+05  2.775813E+04  3.633222E+04  1.303471E+03 -1.028934E-09  5.684845E-09
       261  17  1.361328E+05  3.091964E+04  4.538648E+04  8.636798E+03 -8.396588E-09  1.269893E-08
       261  18  1.492741E+05  6.437831E+04  6.971133E+04  1.952240E+04 -1.183726E-08  1.009947E-09
       261  19 -1.078202E+05 -3.078593E+04 -1.682150E+04  9.505844E+03  8.734244E+03 -6.021997E+03
       261  20 -1.204305E+05 -3.201785E+04 -1.235966E+04 -1.479792E+03  1.443830E+04 -5.650546E+03
       261  21 -1.250090E+05 -4.009232E+03  3.123226E+03 -8.912903E+03  2.013090E+04 -1.736171E+03
       261  22  1.212454E+04 -1.513421E+03  9.755868E+03  5.405048E+03  7.509828E+03 -6.025980E+03
       261  23  7.843658E+03 -5.485272E+02  1.651426E+04  3.577940E+03  1.627615E+04 -5.644425E+03
       261  24  1.212419E+04  3.018497E+04  3.641870E+04  5.303158E+03  2.503109E+04 -1.720105E+03
       261  25  1.320827E+05  2.775818E+04  3.633236E+04  1.303441E+03  6.285178E+03 -6.029946E+03
       261  26  1.361332E+05  3.091976E+04  4.538716E+04  8.636715E+03  1.811436E+04 -5.638274E+03
       261  27  1.492751E+05  6.437856E+04  6.971302E+04  1.952236E+04  2.993237E+04 -1.703816E+03
       262   1 -3.065679E+05 -1.277379E+06 -3.188215E+05  1.510946E+05 -1.013069E+04 -9.622012E+04
       262   2 -1.733713E+05 -1.089351E+06 -2.088646E+05  8.748519E+04 -3.053694E+04 -4.987385E+04
       262   3 -1.280532E+05 -9.285484E+05 -1.509860E+05  9.895704E+04 -2.675398E+04 -3.434901E+03
       262   4 -8.549680E+04 -3.905809E+05 -1.027055E+05  1.098540E+05 -1.021281E+04 -6.836451E+04
       262   5  1.087927E+03 -3.787383E+05 -4.829475E+04  7.244899E+04 -3.055430E+04 -4.285103E+04
       262   6  3.471674E+03 -3.904937E+05 -3.143829E+04  1.101287E+05 -2.671504E+04 -1.725924E+04
       262   7  1.355227E+05  4.969406E+05  1.133571E+05  6.855467E+04 -1.029858E+04 -4.046908E+04
       262   8  1.755132E+05  3.323444E+05  1.122430E+05  5.739572E+04 -3.057198E+04 -3.582021E+04
       262   9  1.349775E+05  1.478323E+05  8.809221E+04  1.213103E+05 -2.667662E+04 -3.109544E+04
       262  10 -3.065705E+05 -1.277389E+06 -3.188391E+05  1.510938E+05 -7.802926E-10  2.324721E-09
       262  11 -1.733730E+05 -1.089353E+06 -2.088711E+05  8.748396E+04 -3.521204E-09 -7.516892E-09
       262  12 -1.280539E+05 -9.285486E+05 -1.509874E+05  9.895696E+04  2.170878E-09 -1.896339E-08
       262  13 -8.549817E+04 -3.905859E+05 -1.027145E+05  1.098534E+05  2.467298E-09  2.992860E-11
       262  14  1.086432E+03 -3.787405E+05 -4.829995E+04  7.244794E+04  3.027228E-09  2.069144E-08
       262  15  3.470828E+03 -3.904942E+05 -3.144019E+04  1.101283E+05  2.912631E-09  5.936919E-09
       262  16  1.355222E+05  4.969388E+05  1.133538E+05  6.855433E+04  1.118597E-09 -4.138572E-09
       262  17  1.755119E+05  3.323428E+05  1.122388E+05  5.739483E+04  5.188516E-09  8.100921E-09
       262  18  1.349765E+05  1.478310E+05  8.808906E+04  1.213096E+05 -9.906497E-10  1.675168E-08
       262  19 -3.065679E+05 -1.277379E+06 -3.188215E+05  1.510946E+05  1.013069E+04  9.622012E+04
       262  20 -1.733713E+05 -1.089351E+06 -2.088646E+05  8.748519E+04  3.053694E+04  4.987385E+04
       262  21 -1.280532E+05 -9.285484E+05 -1.509860E+05  9.895704E+04  2.675398E+04  3.434901E+03
       262  22 -8.549680E+04 -3.905809E+05 -1.027055E+05  1.098540E+05  1.021281E+04  6.836451E+04
       262  23  1.087927E+03 -3.787383E+05 -4.829475E+04  7.244899E+04  3.055430E+04  4.285103E+04
       262  24  3.471674E+03 -3.904937E+05 -3.143829E+04  1.101287E+05  2.671504E+04  1.725924E+04
       262  25  1.355227E+05  4.969406E+05  1.133571E+05  6.855467E+04  1.029858E+04  4.046908E+04
       262  26  1.755132E+05  3.323444E+05  1.122430E+05  5.739572E+04  3.057198E+04  3.582021E+04
       262  27  1.349775E+05  1.478323E+05  8.809221E+04  1.213103E+05  2.667662E+04  3.109544E+04
       263   1 -1.009066E+05 -7.761497E+05 -1.143473E+05  1.136764E+05 -1.879060E+04 -5.668582E+03
       263   2 -5.268968E+04 -5.997679E+05 -6.939626E+04  7.263768E+04 -1.068327E+04  5.582907E+03
       263   3 -1.453177E+04 -4.267959E+05 -3.417192E+04  1.079808E+05 -2.087037E+03  1.683626E+04
       263   4 -5.392142E+03 -3.859690E+05 -2.730933E+04  1.103392E+05 -1.877197E+04 -1.248599E+04
       263   5  1.503354E+01 -3.842760E+05 -2.149346E+04  7.214982E+04 -1.066448E+04 -1.652540E+03
       263   6 -4.559947E+03 -3.859471E+05 -2.510909E+04  1.103414E+05 -2.068183E+03  9.179697E+03
       263   7  9.011198E+04  4.353900E+03  5.971924E+04  1.070000E+05 -1.875327E+04 -1.930763E+04
       263   8  5.271663E+04 -1.687406E+05  2.640663E+04  7.166181E+04 -1.064569E+04 -8.890473E+03
       263   9  5.411821E+03 -3.450965E+05 -1.604613E+04  1.127022E+05 -2.049389E+03  1.522636E+03
       263  10 -1.009069E+05 -7.761499E+05 -1.143480E+05  1.136763E+05  2.180845E-09  1.029995E-08
       263  11 -5.268981E+04 -5.997679E+05 -6.939653E+04  7.263773E+04 -2.013384E-10  7.983678E-09
       263  12 -1.453185E+04 -4.267962E+05 -3.417247E+04  1.079808E+05  1.464097E-10 -8.916780E-09
       263  13 -5.392562E+03 -3.859693E+05 -2.731028E+04  1.103390E+05  7.889488E-10 -1.096052E-09
       263  14  1.491070E+01 -3.842760E+05 -2.149368E+04  7.214980E+04 -5.175215E-10  1.455232E-08
       263  15 -4.559974E+03 -3.859472E+05 -2.510926E+04  1.103414E+05 -1.167173E-09  9.688566E-10
       263  16  9.011150E+04  4.353405E+03  5.971788E+04  1.069997E+05  7.504960E-10 -1.184504E-08
       263  17  5.271648E+04 -1.687407E+05  2.640627E+04  7.166173E+04  3.223514E-09 -5.286538E-09
       263  18  5.411816E+03 -3.450965E+05 -1.604615E+04  1.127022E+05 -8.276421E-10  4.760375E-09
       263  19 -1.009066E+05 -7.761497E+05 -1.143473E+05  1.136764E+05  1.879060E+04  5.668582E+03
       263  20 -5.268968E+04 -5.997679E+05 -6.939626E+04  7.263768E+04  1.068327E+04 -5.582907E+03
       263  21 -1.453177E+04 -4.267959E+05 -3.417192E+04  1.079808E+05  2.087037E+03 -1.683626E+04
       263  22 -5.392142E+03 -3.859690E+05 -2.730933E+04  1.103392E+05  1.877197E+04  1.248599E+04
       263  23  1.503354E+01 -3.842760E+05 -2.149346E+04  7.214982E+04  1.066448E+04  1.652540E+03
       263  24 -4.559947E+03 -3.859471E+05 -2.510909E+04  1.103414E+05  2.068183E+03 -9.179697E+03
       263  25  9.011198E+04  4.353900E+03  5.971924E+04  1.070000E+05  1.875327E+04  1.930763E+04
       263  26  5.271663E+04 -1.687406E+05  2.640663E+04  7.166181E+04  1.064569E+04  8.890473E+03
       263  27  5.411821E+03 -3.450965E+05 -1.604613E+04  1.127022E+05  2.049389E+03 -1.522636E+03
       264   1  2.903114E+04 -2.827638E+05 -4.236264E+03  1.205734E+05  4.865971E+03  2.483546E+04
       264   2  6.999897E+04 -9.885443E+04  2.188909E+04  6.020118E+04  1.126977E+04  3.555709E+04
       264   3  4.068519E+04  6.667905E+04  2.358463E+04  7.555634E+04  4.370752E+03  4.624568E+04
       264   4  2.897439E+03 -3.897352E+05 -2.820517E+04  1.102552E+05  4.893414E+03  1.353103E+04
       264   5  1.008259E+03 -3.795498E+05 -4.192861E+04  7.228606E+04  1.127033E+04  3.573489E+04
       264   6 -7.317518E+04 -3.897772E+05 -8.806856E+04  1.100519E+05  4.342494E+03  5.790233E+04
       264   7 -2.323657E+04 -4.966955E+05 -5.217426E+04  9.993879E+04  4.921236E+03  2.228517E+03
       264   8 -6.798738E+04 -6.601718E+05 -1.057514E+05  8.436546E+04  1.127090E+04  3.591261E+04
       264   9 -1.870465E+05 -8.460408E+05 -1.997359E+05  1.445222E+05  4.315523E+03  6.955042E+04
       264  10  2.903095E+04 -2.827645E+05 -4.237468E+03  1.205733E+05  1.539970E-09  5.296297E-10
       264  11  6.999850E+04 -9.885582E+04  2.188648E+04  6.020086E+04  2.927102E-09  1.864673E-09
       264  12  4.068460E+04  6.667675E+04  2.358058E+04  7.555618E+04  7.031333E-10 -7.442417E-09
       264  13  2.897364E+03 -3.897354E+05 -2.820556E+04  1.102551E+05  9.289449E-10  2.187331E-09
       264  14  1.007780E+03 -3.795513E+05 -4.193125E+04  7.228574E+04 -2.288314E-10  1.309005E-08
       264  15 -7.317610E+04 -3.897808E+05 -8.807490E+04  1.100517E+05  9.902267E-10  3.089674E-09
       264  16 -2.323659E+04 -4.966955E+05 -5.217431E+04  9.993878E+04 -2.177054E-09 -3.648958E-09
       264  17 -6.798786E+04 -6.601732E+05 -1.057540E+05  8.436514E+04  4.098005E-09  3.794893E-10
       264  18 -1.870479E+05 -8.460460E+05 -1.997450E+05  1.445219E+05  2.438520E-09  1.972212E-09
       264  19  2.903114E+04 -2.827638E+05 -4.236264E+03  1.205734E+05 -4.865971E+03 -2.483546E+04
       264  20  6.999897E+04 -9.885443E+04  2.188909E+04  6.020118E+04 -1.126977E+04 -3.555709E+04
       264  21  4.068519E+04  6.667905E+04  2.358463E+04  7.555634E+04 -4.370752E+03 -4.624568E+04
       264  22  2.897439E+03 -3.897352E+05 -2.820517E+04  1.102552E+05 -4.893414E+03 -1.353103E+04
       264  23  1.008259E+03 -3.795498E+05 -4.192861E+04  7.228606E+04 -1.127033E+04 -3.573489E+04
       264  24 -7.317518E+04 -3.897772E+05 -8.806856E+04  1.100519E+05 -4.342494E+03 -5.790233E+04
       264  25 -2.323657E+04 -4.966955E+05 -5.217426E+04  9.993879E+04 -4.921236E+03 -2.228517E+03
       264  26 -6.798738E+04 -6.601718E+05 -1.057514E+05  8.436546E+04 -1.127090E+04 -3.591261E+04
       264  27 -1.870465E+05 -8.460408E+05 -1.997359E+05  1.445222E+05 -4.315523E+03 -6.955042E+04
       265   1  3.400536E+05  1.130271E+05  6.209746E+04  1.341130E+05  3.627561E+04  1.343832E+04
       265   2  3.309063E+05  5.721531E+04  2.811458E+04  1.341709E+05  2.293857E+04  7.855857E+03
       265   3  3.373419E+05  4.701383E+04  1.601185E+04  1.259151E+05  9.323825E+03  3.006906E+03
       265   4  3.297666E+05  9.054830E+04  5.570371E+04  1.123520E+05  3.560561E+04  1.318305E+04
       265   5  3.189870E+05  4.656217E+04  2.402468E+04  1.245603E+05  2.286191E+04  7.826520E+03
       265   6  3.236730E+05  4.806836E+04  1.375578E+04  1.284546E+05  9.840401E+03  3.202797E+03
       265   7  3.194808E+05  6.807192E+04  4.931024E+04  9.059197E+04  3.493563E+04  1.292784E+04
       265   8  3.070680E+05  3.590938E+04  1.993479E+04  1.149499E+05  2.278525E+04  7.797185E+03
       265   9  3.100043E+05  4.912299E+04  1.149972E+04  1.309940E+05  1.035697E+04  3.398697E+03
       265  10  3.400522E+05  1.130265E+05  6.209465E+04  1.341126E+05 -5.704274E-09 -5.138275E-09
       265  11  3.309058E+05  5.721511E+04  2.811348E+04  1.341708E+05  3.363166E-09  5.751496E-09
       265  12  3.373418E+05  4.701379E+04  1.601166E+04  1.259150E+05  6.444924E-09  1.475662E-08
       265  13  3.297652E+05  9.054777E+04  5.570101E+04  1.123516E+05  7.977731E-10 -4.978274E-09
       265  14  3.189864E+05  4.656196E+04  2.402358E+04  1.245601E+05 -9.439580E-10 -1.668107E-09
       265  15  3.236729E+05  4.806832E+04  1.375558E+04  1.284545E+05 -1.181467E-09  5.114756E-09
       265  16  3.194794E+05  6.807141E+04  4.930763E+04  9.059161E+04  3.032457E-09  1.334639E-08
       265  17  3.070674E+05  3.590917E+04  1.993370E+04  1.149497E+05 -8.240669E-09  3.962053E-09
       265  18  3.100042E+05  4.912295E+04  1.149950E+04  1.309940E+05 -1.015413E-08  6.010027E-09
       265  19  3.400536E+05  1.130271E+05  6.209746E+04  1.341130E+05 -3.627561E+04 -1.343832E+04
       265  20  3.309063E+05  5.721531E+04  2.811458E+04  1.341709E+05 -2.293857E+04 -7.855857E+03
       265  21  3.373419E+05  4.701383E+04  1.601185E+04  1.259151E+05 -9.323825E+03 -3.006906E+03
       265  22  3.297666E+05  9.054830E+04  5.570371E+04  1.123520E+05 -3.560561E+04 -1.318305E+04
       265  23  3.189870E+05  4.656217E+04  2.402468E+04  1.245603E+05 -2.286191E+04 -7.826520E+03
       265  24  3.236730E+05  4.806836E+04  1.375578E+04  1.284546E+05 -9.840401E+03 -3.202797E+03
       265  25  3.194808E+05  6.807192E+04  4.931024E+04  9.059197E+04 -3.493563E+04 -1.292784E+04
       265  26  3.070680E+05  3.590938E+04  1.993479E+04  1.149499E+05 -2.278525E+04 -7.797185E+03
       265  27  3.100043E+05  4.912299E+04  1.149972E+04  1.309940E+05 -1.035697E+04 -3.398697E+03
       266   1  3.239785E+05  5.420137E+04  1.162309E+04  1.272879E+05  7.645418E+03  2.737516E+03
       266   2  3.175418E+05  4.688283E+04  4.478111E+03  1.241236E+05  4.634982E+03  2.029076E+03
       266   3  3.100749E+05  4.496231E+04  2.524052E+02  1.231282E+05  1.611856E+03  1.354341E+03
       266   4  3.219168E+05  5.247089E+04  1.094574E+04  1.257378E+05  7.937893E+03  2.848347E+03
       266   5  3.222375E+05  4.839937E+04  5.582569E+03  1.251748E+05  4.954713E+03  2.150248E+03
       266   6  3.215226E+05  4.972042E+04  3.117086E+03  1.267806E+05  1.958816E+03  1.485834E+03
       266   7  3.198550E+05  5.074042E+04  1.026839E+04  1.241878E+05  8.230366E+03  2.959177E+03
       266   8  3.269333E+05  4.991590E+04  6.687022E+03  1.262260E+05  5.274445E+03  2.271420E+03
       266   9  3.329704E+05  5.447853E+04  5.981742E+03  1.304331E+05  2.305781E+03  1.617330E+03
       266  10  3.239784E+05  5.420135E+04  1.162297E+04  1.272879E+05 -1.395309E-08  3.656759E-09
       266  11  3.175418E+05  4.688282E+04  4.478063E+03  1.241236E+05 -2.659391E-09  1.114150E-08
       266  12  3.100749E+05  4.496231E+04  2.523969E+02  1.231282E+05  1.146252E-08  7.915896E-09
       266  13  3.219167E+05  5.247087E+04  1.094561E+04  1.257378E+05 -3.568402E-09  1.181773E-08
       266  14  3.222375E+05  4.839936E+04  5.582514E+03  1.251748E+05 -6.985026E-09 -1.385120E-08
       266  15  3.215226E+05  4.972042E+04  3.117075E+03  1.267806E+05 -1.431735E-09  2.269996E-09
       266  16  3.198549E+05  5.074039E+04  1.026824E+04  1.241877E+05  8.960580E-09  6.445101E-09
       266  17  3.269332E+05  4.991589E+04  6.686960E+03  1.262260E+05 -2.102070E-09  1.176751E-08
       266  18  3.329704E+05  5.447853E+04  5.981727E+03  1.304331E+05 -9.239396E-09 -2.912423E-09
       266  19  3.239785E+05  5.420137E+04  1.162309E+04  1.272879E+05 -7.645418E+03 -2.737516E+03
       266  20  3.175418E+05  4.688283E+04  4.478111E+03  1.241236E+05 -4.634982E+03 -2.029076E+03
       266  21  3.100749E+05  4.496231E+04  2.524052E+02  1.231282E+05 -1.611856E+03 -1.354341E+03
       266  22  3.219168E+05  5.247089E+04  1.094574E+04  1.257378E+05 -7.937893E+03 -2.848347E+03
       266  23  3.222375E+05  4.839937E+04  5.582569E+03  1.251748E+05 -4.954713E+03 -2.150248E+03
       266  24  3.215226E+05  4.972042E+04  3.117086E+03  1.267806E+05 -1.958816E+03 -1.485834E+03
       266  25  3.198550E+05  5.074042E+04  1.026839E+04  1.241878E+05 -8.230366E+03 -2.959177E+03
       266  26  3.269333E+05  4.991590E+04  6.687022E+03  1.262260E+05 -5.274445E+03 -2.271420E+03
       266  27  3.329704E+05  5.447853E+04  5.981742E+03  1.304331E+05 -2.305781E+03 -1.617330E+03
       267   1  3.031580E+05  4.317137E+04 -2.104075E+03  1.215559E+05  1.088383E+03  1.438654E+03
       267   2  2.970450E+05  3.899858E+04 -4.947539E+03  1.181535E+05  2.791567E+02  1.609010E+03
       267   3  2.885970E+05  3.752122E+04 -7.254332E+03  1.175474E+05 -5.307627E+02  1.781243E+03
       267   4  3.213592E+05  4.999510E+04  2.381123E+03  1.265887E+05  1.425263E+03  1.566323E+03
       267   5  3.225150E+05  4.856446E+04  1.298319E+03  1.252220E+05  6.175370E+02  1.737241E+03
       267   6  3.213354E+05  4.982900E+04  7.510380E+02  1.266517E+05 -1.908887E+02  1.910034E+03
       267   7  3.395609E+05  5.681888E+04  6.866321E+03  1.316217E+05  1.762155E+03  1.693997E+03
       267   8  3.479856E+05  5.813041E+04  7.544146E+03  1.322909E+05  9.559333E+02  1.865478E+03
       267   9  3.540749E+05  6.213686E+04  8.756329E+03  1.357565E+05  1.490049E+02  2.038832E+03
       267  10  3.031580E+05  4.317136E+04 -2.104082E+03  1.215559E+05 -3.570664E-09 -6.170641E-09
       267  11  2.970450E+05  3.899858E+04 -4.947544E+03  1.181535E+05 -1.675897E-09  5.048023E-09
       267  12  2.885970E+05  3.752121E+04 -7.254338E+03  1.175474E+05  2.722104E-09  5.615170E-09
       267  13  3.213592E+05  4.999509E+04  2.381115E+03  1.265887E+05 -8.850120E-10 -4.662806E-10
       267  14  3.225150E+05  4.856446E+04  1.298313E+03  1.252220E+05 -6.131915E-10  7.143022E-09
       267  15  3.213354E+05  4.982899E+04  7.510311E+02  1.266517E+05 -7.524281E-10  4.192359E-09
       267  16  3.395609E+05  5.681888E+04  6.866310E+03  1.316217E+05  2.652694E-09 -1.280193E-09
       267  17  3.479856E+05  5.813040E+04  7.544138E+03  1.322909E+05 -3.624201E-10  3.522772E-09
       267  18  3.540749E+05  6.213686E+04  8.756321E+03  1.357565E+05 -6.467047E-09  2.608629E-09
       267  19  3.031580E+05  4.317137E+04 -2.104075E+03  1.215559E+05 -1.088383E+03 -1.438654E+03
       267  20  2.970450E+05  3.899858E+04 -4.947539E+03  1.181535E+05 -2.791567E+02 -1.609010E+03
       267  21  2.885970E+05  3.752122E+04 -7.254332E+03  1.175474E+05  5.307627E+02 -1.781243E+03
       267  22  3.213592E+05  4.999510E+04  2.381123E+03  1.265887E+05 -1.425263E+03 -1.566323E+03
       267  23  3.225150E+05  4.856446E+04  1.298319E+03  1.252220E+05 -6.175370E+02 -1.737241E+03
       267  24  3.213354E+05  4.982900E+04  7.510380E+02  1.266517E+05  1.908887E+02 -1.910034E+03
       267  25  3.395609E+05  5.681888E+04  6.866321E+03  1.316217E+05 -1.762155E+03 -1.693997E+03
       267  26  3.479856E+05  5.813041E+04  7.544146E+03  1.322909E+05 -9.559333E+02 -1.865478E+03
       267  27  3.540749E+05  6.213686E+04  8.756329E+03  1.357565E+05 -1.490049E+02 -2.038832E+03
       268   1  2.821305E+05  3.514529E+04 -9.038106E+03  1.157877E+05 -7.341522E+02  1.983696E+03
       268   2  2.760469E+05  3.115067E+04 -1.099189E+04  1.123538E+05 -1.095802E+03  2.327232E+03
       268   3  2.674952E+05  2.967651E+04 -1.279077E+04  1.117538E+05 -1.457681E+03  2.671493E+03
       268   4  3.213137E+05  4.984535E+04  5.930071E+02  1.266391E+05 -3.943230E+02  2.112463E+03
       268   5  3.225471E+05  4.858093E+04  4.054120E+02  1.252237E+05 -7.554060E+02  2.456200E+03
       268   6  3.213122E+05  4.983679E+04  3.722648E+02  1.266422E+05 -1.116724E+03  2.800661E+03
       268   7  3.604983E+05  6.454544E+04  1.022395E+04  1.374910E+05 -5.447184E+01  2.241238E+03
       268   8  3.690494E+05  6.601133E+04  1.180255E+04  1.380945E+05 -4.149826E+02  2.585178E+03
       268   9  3.751324E+05  6.999738E+04  1.353515E+04  1.415318E+05 -7.757317E+02  2.929843E+03
       268  10  2.821305E+05  3.514529E+04 -9.038115E+03  1.157877E+05  6.225537E-09 -3.589325E-09
       268  11  2.760469E+05  3.115067E+04 -1.099190E+04  1.123538E+05  2.363061E-09  1.137707E-08
       268  12  2.674952E+05  2.967650E+04 -1.279079E+04  1.117538E+05 -8.025778E-10 -2.059487E-09
       268  13  3.213137E+05  4.984534E+04  5.929984E+02  1.266391E+05 -7.545753E-11 -4.553500E-09
       268  14  3.225471E+05  4.858092E+04  4.053996E+02  1.252237E+05  1.170749E-09 -1.663033E-08
       268  15  3.213122E+05  4.983678E+04  3.722477E+02  1.266422E+05 -4.591163E-10 -1.279055E-08
       268  16  3.604983E+05  6.454543E+04  1.022394E+04  1.374910E+05 -6.154786E-09 -3.310450E-09
       268  17  3.690494E+05  6.601132E+04  1.180253E+04  1.380945E+05 -8.832041E-10 -1.674959E-08
       268  18  3.751324E+05  6.999737E+04  1.353514E+04  1.415318E+05  1.962753E-09 -4.764770E-09
       268  19  2.821305E+05  3.514529E+04 -9.038106E+03  1.157877E+05  7.341522E+02 -1.983696E+03
       268  20  2.760469E+05  3.115067E+04 -1.099189E+04  1.123538E+05  1.095802E+03 -2.327232E+03
       268  21  2.674952E+05  2.967651E+04 -1.279077E+04  1.117538E+05  1.457681E+03 -2.671493E+03
       268  22  3.213137E+05  4.984535E+04  5.930071E+02  1.266391E+05  3.943230E+02 -2.112463E+03
       268  23  3.225471E+05  4.858093E+04  4.054120E+02  1.252237E+05  7.554060E+02 -2.456200E+03
       268  24  3.213122E+05  4.983679E+04  3.722648E+02  1.266422E+05  1.116724E+03 -2.800661E+03
       268  25  3.604983E+05  6.454544E+04  1.022395E+04  1.374910E+05  5.447184E+01 -2.241238E+03
       268  26  3.690494E+05  6.601133E+04  1.180255E+04  1.380945E+05  4.149826E+02 -2.585178E+03
       268  27  3.751324E+05  6.999738E+04  1.353515E+04  1.415318E+05  7.757317E+02 -2.929843E+03
       269   1  2.610397E+05  2.725784E+04 -1.439244E+04  1.099827E+05 -1.615844E+03  2.892241E+03
       269   2  2.549139E+05  2.324805E+04 -1.599109E+04  1.065275E+05 -2.065801E+03  3.204846E+03
       269   3  2.463231E+05  2.178390E+04 -1.736665E+04  1.059245E+05 -2.515934E+03  3.518092E+03
       269   4  3.213125E+05  4.984003E+04  4.038985E+02  1.266471E+05 -1.274219E+03  3.021653E+03
       269   5  3.225457E+05  4.857305E+04  5.811673E+02  1.252187E+05 -1.723704E+03  3.334417E+03
       269   6  3.213139E+05  4.985161E+04  9.811198E+02  1.266426E+05 -2.173367E+03  3.647821E+03
       269   7  3.815888E+05  7.242248E+04  1.519996E+04  1.433129E+05 -9.325571E+02  3.151078E+03
       269   8  3.901819E+05  7.389832E+04  1.715303E+04  1.439118E+05 -1.381566E+03  3.464004E+03
       269   9  3.963098E+05  7.791958E+04  1.932837E+04  1.473629E+05 -1.830757E+03  3.777566E+03
       269  10  2.610397E+05  2.725783E+04 -1.439247E+04  1.099828E+05  4.913963E-09  6.918538E-09
       269  11  2.549138E+05  2.324803E+04 -1.599112E+04  1.065275E+05 -3.850636E-09 -5.565045E-09
       269  12  2.463231E+05  2.178389E+04 -1.736669E+04  1.059245E+05 -5.852088E-09 -2.690318E-09
       269  13  3.213125E+05  4.984002E+04  4.038783E+02  1.266471E+05 -7.538054E-10  7.076916E-09
       269  14  3.225457E+05  4.857304E+04  5.811408E+02  1.252187E+05 -3.792687E-09  2.685129E-09
       269  15  3.213139E+05  4.985159E+04  9.810859E+02  1.266426E+05  5.371754E-09 -2.352419E-09
       269  16  3.815888E+05  7.242247E+04  1.519994E+04  1.433129E+05 -3.984726E-09 -7.354179E-09
       269  17  3.901819E+05  7.389831E+04  1.715301E+04  1.439118E+05  5.458167E-09 -1.188259E-08
       269  18  3.963098E+05  7.791956E+04  1.932834E+04  1.473629E+05  1.515623E-08  3.741446E-09
       269  19  2.610397E+05  2.725784E+04 -1.439244E+04  1.099827E+05  1.615844E+03 -2.892241E+03
       269  20  2.549139E+05  2.324805E+04 -1.599109E+04  1.065275E+05  2.065801E+03 -3.204846E+03
       269  21  2.463231E+05  2.178390E+04 -1.736665E+04  1.059245E+05  2.515934E+03 -3.518092E+03
       269  22  3.213125E+05  4.984003E+04  4.038985E+02  1.266471E+05  1.274219E+03 -3.021653E+03
       269  23  3.225457E+05  4.857305E+04  5.811673E+02  1.252187E+05  1.723704E+03 -3.334417E+03
       269  24  3.213139E+05  4.985161E+04  9.811198E+02  1.266426E+05  2.173367E+03 -3.647821E+03
       269  25  3.815888E+05  7.242248E+04  1.519996E+04  1.433129E+05  9.325571E+02 -3.151078E+03
       269  26  3.901819E+05  7.389832E+04  1.715303E+04  1.439118E+05  1.381566E+03 -3.464004E+03
       269  27  3.963098E+05  7.791958E+04  1.932837E+04  1.473629E+05  1.830757E+03 -3.777566E+03
       270   1  2.398187E+05  1.936145E+04 -1.870809E+04  1.042101E+05 -2.799836E+03  3.694047E+03
       270   2  2.335847E+05  1.526159E+04 -1.949370E+04  1.006580E+05 -4.100155E+03  3.686417E+03
       270   3  2.250995E+05  1.405632E+04 -1.933733E+04  9.993453E+04 -5.397812E+03  3.671919E+03
       270   4  3.213470E+05  4.983066E+04  1.283908E+03  1.266746E+05 -2.453941E+03  3.825023E+03
       270   5  3.224929E+05  4.852983E+04  2.288714E+03  1.252044E+05 -3.759985E+03  3.815200E+03
       270   6  3.213886E+05  5.012473E+04  4.239996E+03  1.265629E+05 -5.063380E+03  3.798504E+03
       270   7  4.028823E+05  8.030049E+04  2.127551E+04  1.491418E+05 -2.107995E+03  3.956018E+03
       270   8  4.114090E+05  8.179870E+04  2.407059E+04  1.497541E+05 -3.419762E+03  3.944003E+03
       270   9  4.176869E+05  8.619380E+04  2.781662E+04  1.531951E+05 -4.728892E+03  3.925111E+03
       270  10  2.398187E+05  1.936143E+04 -1.870813E+04  1.042101E+05 -3.618433E-09 -6.947095E-09
       270  11  2.335847E+05  1.526157E+04 -1.949376E+04  1.006580E+05  2.443910E-09 -6.945881E-09
       270  12  2.250995E+05  1.405629E+04 -1.933741E+04  9.993454E+04  1.311407E-08  9.039517E-09
       270  13  3.213470E+05  4.983065E+04  1.283869E+03  1.266746E+05  3.967981E-09 -7.990582E-10
       270  14  3.224928E+05  4.852981E+04  2.288660E+03  1.252044E+05  2.620324E-09  9.970057E-09
       270  15  3.213886E+05  5.012471E+04  4.239921E+03  1.265629E+05  1.021475E-09  8.641708E-10
       270  16  4.028823E+05  8.030047E+04  2.127547E+04  1.491418E+05  1.087146E-08  6.081081E-09
       270  17  4.114090E+05  8.179868E+04  2.407054E+04  1.497541E+05 -2.903144E-09 -3.313764E-09
       270  18  4.176869E+05  8.619378E+04  2.781655E+04  1.531951E+05 -1.397448E-08 -1.406349E-08
       270  19  2.398187E+05  1.936145E+04 -1.870809E+04  1.042101E+05  2.799836E+03 -3.694047E+03
       270  20  2.335847E+05  1.526159E+04 -1.949370E+04  1.006580E+05  4.100155E+03 -3.686417E+03
       270  21  2.250995E+05  1.405632E+04 -1.933733E+04  9.993453E+04  5.397812E+03 -3.671919E+03
       270  22  3.213470E+05  4.983066E+04  1.283908E+03  1.266746E+05  2.453941E+03 -3.825023E+03
       270  23  3.224929E+05  4.852983E+04  2.288714E+03  1.252044E+05  3.759985E+03 -3.815200E+03
       270  24  3.213886E+05  5.012473E+04  4.239996E+03  1.265629E+05  5.063380E+03 -3.798504E+03
       270  25  4.028823E+05  8.030049E+04  2.127551E+04  1.491418E+05  2.107995E+03 -3.956018E+03
       270  26  4.114090E+05  8.179870E+04  2.407059E+04  1.497541E+05  3.419762E+03 -3.944003E+03
       270  27  4.176869E+05  8.619380E+04  2.781662E+04  1.531951E+05  4.728892E+03 -3.925111E+03
       271   1  2.182164E+05  1.172634E+04 -1.966443E+04  9.917357E+04 -6.338786E+03  3.621934E+03
       271   2  2.119982E+05  6.586944E+03 -1.707604E+04  9.425800E+04 -1.141942E+04  2.148869E+03
       271   3  2.058034E+05  9.168877E+03 -9.419628E+03  9.108412E+04 -1.643325E+04  4.996522E+02
       271   4  3.216759E+05  4.963987E+04  5.560887E+03  1.269133E+05 -5.948877E+03  3.769517E+03
       271   5  3.220015E+05  4.822412E+04  9.974808E+03  1.251110E+05 -1.117297E+04  2.242085E+03
       271   6  3.223785E+05  5.455735E+04  1.956977E+04  1.250503E+05 -1.633035E+04  5.384616E+02
       271   7  4.251454E+05  8.755387E+04  3.078527E+04  1.546570E+05 -5.558898E+03  3.917126E+03
       271   8  4.320167E+05  8.986222E+04  3.702473E+04  1.559690E+05 -1.092647E+04  2.335320E+03
       271   9  4.389675E+05  9.994728E+04  4.855826E+04  1.590226E+05 -1.622742E+04  5.772799E+02
       271  10  2.182164E+05  1.172631E+04 -1.966453E+04  9.917359E+04  1.275397E-09  5.991611E-09
       271  11  2.119981E+05  6.586904E+03 -1.707629E+04  9.425802E+04  1.268419E-09 -1.594925E-10
       271  12  2.058031E+05  9.168805E+03 -9.420136E+03  9.108413E+04  6.699591E-09 -8.967871E-10
       271  13  3.216758E+05  4.963985E+04  5.560793E+03  1.269133E+05 -1.126490E-09 -8.299423E-09
       271  14  3.220013E+05  4.822408E+04  9.974564E+03  1.251110E+05  1.504393E-09  6.418209E-09
       271  15  3.223782E+05  5.455727E+04  1.956927E+04  1.250503E+05  1.687012E-09 -2.220566E-09
       271  16  4.251453E+05  8.755384E+04  3.078518E+04  1.546570E+05  2.822445E-10 -5.120452E-09
       271  17  4.320165E+05  8.986218E+04  3.702450E+04  1.559690E+05 -2.508379E-09 -6.031602E-09
       271  18  4.389672E+05  9.994721E+04  4.855776E+04  1.590226E+05 -3.837561E-09  4.817653E-09
       271  19  2.182164E+05  1.172634E+04 -1.966443E+04  9.917357E+04  6.338786E+03 -3.621934E+03
       271  20  2.119982E+05  6.586944E+03 -1.707604E+04  9.425800E+04  1.141942E+04 -2.148869E+03
       271  21  2.058034E+05  9.168877E+03 -9.419628E+03  9.108412E+04  1.643325E+04 -4.996522E+02
       271  22  3.216759E+05  4.963987E+04  5.560887E+03  1.269133E+05  5.948877E+03 -3.769517E+03
       271  23  3.220015E+05  4.822412E+04  9.974808E+03  1.251110E+05  1.117297E+04 -2.242085E+03
       271  24  3.223785E+05  5.455735E+04  1.956977E+04  1.250503E+05  1.633035E+04 -5.384616E+02
       271  25  4.251454E+05  8.755387E+04  3.078527E+04  1.546570E+05  5.558898E+03 -3.917126E+03
       271  26  4.320167E+05  8.986222E+04  3.702473E+04  1.559690E+05  1.092647E+04 -2.335320E+03
       271  27  4.389675E+05  9.994728E+04  4.855826E+04  1.590226E+05  1.622742E+04 -5.772799E+02
       272   1  1.929952E+05  8.082914E+03 -5.843667E+03  1.045579E+05 -2.105881E+04 -4.963398E+02
       272   2  1.923407E+05 -1.250565E+04  1.028987E+04  7.853644E+04 -4.088278E+04 -8.390080E+03
       272   3  2.206663E+05  4.572400E+04  6.222252E+04  3.547541E+04 -5.923617E+04 -2.016869E+04
       272   4  3.255344E+05  4.667041E+04  2.459635E+04  1.298926E+05 -1.976560E+04 -6.493913E+00
       272   5  3.161721E+05  4.495069E+04  4.296059E+04  1.240285E+05 -4.273884E+04 -9.093558E+03
       272   6  3.364060E+05  1.226611E+05  9.961492E+04  1.011275E+05 -6.424129E+04 -2.206668E+04
       272   7  4.580913E+05  8.525785E+04  5.503537E+04  1.552314E+05 -1.847209E+04  4.834101E+02
       272   8  4.400181E+05  1.024102E+05  7.562977E+04  1.695292E+05 -4.459529E+04 -9.797266E+03
       272   9  4.521596E+05  1.996087E+05  1.370057E+05  1.667922E+05 -6.924734E+04 -2.396569E+04
       272  10  1.929947E+05  8.082795E+03 -5.844500E+03  1.045579E+05  6.451982E-09 -5.884758E-09
       272  11  1.923389E+05 -1.250617E+04  1.028660E+04  7.853616E+04  2.272757E-09 -7.478526E-09
       272  12  2.206624E+05  4.572262E+04  6.221516E+04  3.547445E+04 -2.512534E-09 -2.721467E-09
       272  13  3.255339E+05  4.667031E+04  2.459561E+04  1.298926E+05  9.787533E-10 -1.864383E-09
       272  14  3.161701E+05  4.495011E+04  4.295700E+04  1.240282E+05 -1.306098E-10 -8.286926E-09
       272  15  3.364015E+05  1.226595E+05  9.960625E+04  1.011263E+05 -4.453434E-12  5.156258E-09
       272  16  4.580910E+05  8.525775E+04  5.503473E+04  1.552314E+05 -3.007727E-09  1.073342E-11
       272  17  4.400160E+05  1.024096E+05  7.562585E+04  1.695289E+05  2.711938E-10 -2.989292E-09
       272  18  4.521543E+05  1.996068E+05  1.369956E+05  1.667909E+05  2.953088E-09 -1.213390E-09
       272  19  1.929952E+05  8.082914E+03 -5.843667E+03  1.045579E+05  2.105881E+04  4.963398E+02
       272  20  1.923407E+05 -1.250565E+04  1.028987E+04  7.853644E+04  4.088278E+04  8.390080E+03
       272  21  2.206663E+05  4.572400E+04  6.222252E+04  3.547541E+04  5.923617E+04  2.016869E+04
       272  22  3.255344E+05  4.667041E+04  2.459635E+04  1.298926E+05  1.976560E+04  6.493913E+00
       272  23  3.161721E+05  4.495069E+04  4.296059E+04  1.240285E+05  4.273884E+04  9.093558E+03
       272  24  3.364060E+05  1.226611E+05  9.961492E+04  1.011275E+05  6.424129E+04  2.206668E+04
       272  25  4.580913E+05  8.525785E+04  5.503537E+04  1.552314E+05  1.847209E+04 -4.834101E+02
       272  26  4.400181E+05  1.024102E+05  7.562977E+04  1.695292E+05  4.459529E+04  9.797266E+03
       272  27  4.521596E+05  1.996087E+05  1.370057E+05  1.667922E+05  6.924734E+04  2.396569E+04
       273   1 -6.439740E+04 -4.780265E+05 -7.014036E+04  2.647260E+04 -1.570474E+03 -2.911338E+04
       273   2 -2.789182E+04 -4.559780E+05 -4.416730E+04  1.336810E+04 -5.028551E+03 -1.652138E+04
       273   3 -2.272079E+04 -4.433439E+05 -3.422481E+04  7.641070E+03 -4.939811E+03 -3.917680E+03
       273   4 -3.109096E+04 -3.445699E+05 -3.767203E+04  1.180438E+04 -1.583790E+03 -2.463283E+04
       273   5  5.519409E+02 -3.401259E+05 -1.804036E+04  8.165826E+03 -5.032738E+03 -1.510185E+04
       273   6  1.394891E+03 -3.445632E+05 -1.231052E+04  1.190517E+04 -4.934781E+03 -5.559631E+03
       273   7  2.214964E+03 -2.110965E+05 -5.204809E+03 -2.866993E+03 -1.597316E+03 -2.015131E+04
       273   8  2.899488E+04 -2.242612E+05  8.085736E+03  2.962583E+03 -5.036948E+03 -1.368206E+04
       273   9  2.550998E+04 -2.457734E+05  9.603185E+03  1.616996E+04 -4.929774E+03 -7.201841E+03
       273  10 -6.439763E+04 -4.780274E+05 -7.014196E+04  2.647256E+04  2.730300E-09  6.975133E-09
       273  11 -2.789192E+04 -4.559783E+05 -4.416786E+04  1.336803E+04  9.131264E-09  5.058617E-09
       273  12 -2.272082E+04 -4.433440E+05 -3.422488E+04  7.641054E+03 -1.083701E-09 -3.798766E-09
       273  13 -3.109113E+04 -3.445705E+05 -3.767318E+04  1.180435E+04  2.757100E-09  4.340801E-09
       273  14  5.518524E+02 -3.401261E+05 -1.804084E+04  8.165765E+03  4.034024E-09  7.648142E-09
       273  15  1.394857E+03 -3.445633E+05 -1.231062E+04  1.190515E+04  8.194921E-11 -1.798109E-09
       273  16  2.214852E+03 -2.110970E+05 -5.205577E+03 -2.867019E+03  2.196958E-09 -8.183500E-09
       273  17  2.899480E+04 -2.242614E+05  8.085336E+03  2.962527E+03  5.896203E-09  4.392242E-09
       273  18  2.550994E+04 -2.457734E+05  9.603042E+03  1.616993E+04 -2.314913E-10  8.618645E-09
       273  19 -6.439740E+04 -4.780265E+05 -7.014036E+04  2.647260E+04  1.570474E+03  2.911338E+04
       273  20 -2.789182E+04 -4.559780E+05 -4.416730E+04  1.336810E+04  5.028551E+03  1.652138E+04
       273  21 -2.272079E+04 -4.433439E+05 -3.422481E+04  7.641070E+03  4.939811E+03  3.917680E+03
       273  22 -3.109096E+04 -3.445699E+05 -3.767203E+04  1.180438E+04  1.583790E+03  2.463283E+04
       273  23  5.519409E+02 -3.401259E+05 -1.804036E+04  8.165826E+03  5.032738E+03  1.510185E+04
       273  24  1.394891E+03 -3.445632E+05 -1.231052E+04  1.190517E+04  4.934781E+03  5.559631E+03
       273  25  2.214964E+03 -2.110965E+05 -5.204809E+03 -2.866993E+03  1.597316E+03  2.015131E+04
       273  26  2.899488E+04 -2.242612E+05  8.085736E+03  2.962583E+03  5.036948E+03  1.368206E+04
       273  27  2.550998E+04 -2.457734E+05  9.603185E+03  1.616996E+04  4.929774E+03  7.201841E+03
       274   1 -2.232718E+04 -4.269595E+05 -2.980290E+04  1.320814E+04 -4.046316E+03 -3.059410E+03
       274   2 -1.614515E+04 -4.086973E+05 -2.458701E+04  8.229585E+03 -3.301536E+03  1.996516E+03
       274   3 -1.438480E+04 -3.921395E+05 -2.375633E+04  1.085907E+04 -2.406026E+03  7.052954E+03
       274   4 -1.766392E+03 -3.429638E+05 -1.107418E+04  1.192836E+04 -4.044480E+03 -3.651014E+03
       274   5  1.350621E+02 -3.421225E+05 -9.789888E+03  8.123459E+03 -3.299342E+03  1.275253E+03
       274   6 -2.362354E+03 -3.429633E+05 -1.280038E+04  1.192658E+04 -2.403463E+03  6.201893E+03
       274   7  1.879392E+04 -2.589615E+05  7.654110E+03  1.064841E+04 -4.042642E+03 -4.242697E+03
       274   8  1.641497E+04 -2.755436E+05  5.006961E+03  8.017325E+03 -3.297147E+03  5.539125E+02
       274   9  9.659937E+03 -2.937849E+05 -1.844584E+03  1.299417E+04 -2.400903E+03  5.350765E+03
       274  10 -2.232720E+04 -4.269595E+05 -2.980295E+04  1.320813E+04 -9.560362E-10  1.129257E-08
       274  11 -1.614516E+04 -4.086973E+05 -2.458704E+04  8.229591E+03  6.528331E-09  9.481094E-10
       274  12 -1.438482E+04 -3.921396E+05 -2.375643E+04  1.085908E+04 -3.496258E-09 -1.327279E-09
       274  13 -1.766413E+03 -3.429638E+05 -1.107423E+04  1.192835E+04 -1.326997E-09 -2.171941E-09
       274  14  1.350500E+02 -3.421225E+05 -9.789912E+03  8.123463E+03  3.527567E-09 -1.031408E-09
       274  15 -2.362370E+03 -3.429634E+05 -1.280047E+04  1.192659E+04 -3.758617E-09 -7.287567E-09
       274  16  1.879390E+04 -2.589615E+05  7.654046E+03  1.064839E+04 -2.543894E-09 -1.566411E-08
       274  17  1.641496E+04 -2.755436E+05  5.006940E+03  8.017326E+03 -4.345822E-09  1.208920E-09
       274  18  9.659923E+03 -2.937849E+05 -1.844649E+03  1.299418E+04 -1.288513E-09  8.224514E-10
       274  19 -2.232718E+04 -4.269595E+05 -2.980290E+04  1.320814E+04  4.046316E+03  3.059410E+03
       274  20 -1.614515E+04 -4.086973E+05 -2.458701E+04  8.229585E+03  3.301536E+03 -1.996516E+03
       274  21 -1.438480E+04 -3.921395E+05 -2.375633E+04  1.085907E+04  2.406026E+03 -7.052954E+03
       274  22 -1.766392E+03 -3.429638E+05 -1.107418E+04  1.192836E+04  4.044480E+03  3.651014E+03
       274  23  1.350621E+02 -3.421225E+05 -9.789888E+03  8.123459E+03  3.299342E+03 -1.275253E+03
       274  24 -2.362354E+03 -3.429633E+05 -1.280038E+04  1.192658E+04  2.403463E+03 -6.201893E+03
       274  25  1.879392E+04 -2.589615E+05  7.654110E+03  1.064841E+04  4.042642E+03  4.242697E+03
       274  26  1.641497E+04 -2.755436E+05  5.006961E+03  8.017325E+03  3.297147E+03 -5.539125E+02
       274  27  9.659937E+03 -2.937849E+05 -1.844584E+03  1.299417E+04  2.400903E+03 -5.350765E+03
       275   1 -6.532523E+03 -3.795811E+05 -2.246643E+04  1.792186E+04 -1.820558E+03  9.302020E+03
       275   2 -3.386168E+03 -3.564362E+05 -2.678761E+04  1.726733E+03 -9.518935E+02  2.134065E+04
       275   3 -4.042431E+04 -3.448496E+05 -4.898232E+04 -6.928336E+03 -2.725055E+02  3.337886E+04
       275   4  1.917922E+03 -3.451628E+05 -1.485800E+04  1.194796E+04 -1.818075E+03  8.439332E+03
       275   5  7.337632E+02 -3.393728E+05 -2.302931E+04  8.114622E+03 -9.495946E+02  2.064127E+04
       275   6 -4.066330E+04 -3.451699E+05 -4.918755E+04  1.182134E+04 -2.699095E+02  3.284248E+04
       275   7  1.036842E+04 -3.107434E+05 -7.249628E+03  5.973729E+03 -1.815577E+03  7.576597E+03
       275   8  4.853830E+03 -3.223090E+05 -1.927101E+04  1.450269E+04 -9.473101E+02  1.994188E+04
       275   9 -4.090098E+04 -3.454894E+05 -4.939259E+04  3.057100E+04 -2.673459E+02  3.230609E+04
       275  10 -6.532549E+03 -3.795812E+05 -2.246660E+04  1.792187E+04 -4.675276E-09  1.485887E-08
       275  11 -3.386292E+03 -3.564367E+05 -2.678847E+04  1.726750E+03  6.878830E-09  2.134512E-09
       275  12 -4.042461E+04 -3.448508E+05 -4.898442E+04 -6.928329E+03  2.673889E-09 -1.877382E-09
       275  13  1.917899E+03 -3.451629E+05 -1.485814E+04  1.194797E+04 -1.551224E-09 -4.277014E-09
       275  14  7.336477E+02 -3.393732E+05 -2.303012E+04  8.114638E+03  3.071645E-09  4.301113E-09
       275  15 -4.066359E+04 -3.451710E+05 -4.918958E+04  1.182134E+04  2.468456E-09  1.106252E-11
       275  16  1.036840E+04 -3.107434E+05 -7.249742E+03  5.973740E+03 -1.122266E-09 -1.601607E-08
       275  17  4.853722E+03 -3.223094E+05 -1.927176E+04  1.450270E+04  1.063872E-09 -4.753743E-09
       275  18 -4.090126E+04 -3.454905E+05 -4.939456E+04  3.057100E+04 -6.359534E-10  7.600657E-09
       275  19 -6.532523E+03 -3.795811E+05 -2.246643E+04  1.792186E+04  1.820558E+03 -9.302020E+03
       275  20 -3.386168E+03 -3.564362E+05 -2.678761E+04  1.726733E+03  9.518935E+02 -2.134065E+04
       275  21 -4.042431E+04 -3.448496E+05 -4.898232E+04 -6.928336E+03  2.725055E+02 -3.337886E+04
       275  22  1.917922E+03 -3.451628E+05 -1.485800E+04  1.194796E+04  1.818075E+03 -8.439332E+03
       275  23  7.337632E+02 -3.393728E+05 -2.302931E+04  8.114622E+03  9.495946E+02 -2.064127E+04
       275  24 -4.066330E+04 -3.451699E+05 -4.918755E+04  1.182134E+04  2.699095E+02 -3.284248E+04
       275  25  1.036842E+04 -3.107434E+05 -7.249628E+03  5.973729E+03  1.815577E+03 -7.576597E+03
       275  26  4.853830E+03 -3.223090E+05 -1.927101E+04  1.450269E+04  9.473101E+02 -1.994188E+04
       275  27 -4.090098E+04 -3.454894E+05 -4.939259E+04  3.057100E+04  2.673459E+02 -3.230609E+04
       276   1 -2.329730E+05 -1.274588E+05 -1.139564E+05 -1.636240E+04  1.327907E+04  8.964278E+03
       276   2 -1.785052E+05 -1.562764E+05 -1.179043E+05 -1.730706E+04  1.574140E+04  2.803226E+04
       276   3 -1.136320E+05 -1.430602E+05 -1.129129E+05 -4.353530E+04  1.822358E+04  2.899603E+04
       276   4  4.619790E+05  4.519756E+04  5.471792E+04 -3.669678E+04  3.759412E+04  8.988759E+03
       276   5  4.554426E+05 -9.762083E+02  2.479773E+04 -2.403481E+04  2.440897E+04  2.803731E+04
       276   6  4.620108E+05 -2.424162E+03  1.467018E+04 -3.665389E+04  1.124354E+04  2.899004E+04
       276   7  1.157374E+06  2.178204E+05  2.233598E+05 -5.705410E+04  6.193630E+04  9.011634E+03
       276   8  1.089764E+06  1.542967E+05  1.674744E+05 -3.076957E+04  3.308529E+04  2.804218E+04
       276   9  1.037963E+06  1.381897E+05  1.422329E+05 -2.976607E+04  4.257094E+03  2.898391E+04
       276  10 -2.329732E+05 -1.274590E+05 -1.139569E+05 -1.636249E+04 -9.368961E-11 -5.428378E-11
       276  11 -1.785057E+05 -1.562773E+05 -1.179062E+05 -1.730742E+04 -3.111813E-10 -1.560023E-10
       276  12 -1.136326E+05 -1.430612E+05 -1.129151E+05 -4.353572E+04 -9.182814E-10  3.424087E-11
       276  13  4.619774E+05  4.519709E+04  5.471511E+04 -3.669705E+04 -1.177584E-10 -5.068970E-11
       276  14  4.554417E+05 -9.772124E+02  2.479513E+04 -2.403536E+04 -3.672491E-10 -4.562462E-11
       276  15  4.620104E+05 -2.425099E+03  1.466836E+04 -3.665415E+04 -2.118352E-10  2.639478E-11
       276  16  1.157370E+06  2.178193E+05  2.233525E+05 -5.705455E+04  2.161762E-10 -5.426914E-11
       276  17  1.089763E+06  1.542956E+05  1.674709E+05 -3.077031E+04 -1.392770E-10 -9.294573E-11
       276  18  1.037963E+06  1.381888E+05  1.422313E+05 -2.976617E+04  1.295222E-10  6.061402E-11
       276  19 -2.329730E+05 -1.274588E+05 -1.139564E+05 -1.636240E+04 -1.327907E+04 -8.964278E+03
       276  20 -1.785052E+05 -1.562764E+05 -1.179043E+05 -1.730706E+04 -1.574140E+04 -2.803226E+04
       276  21 -1.136320E+05 -1.430602E+05 -1.129129E+05 -4.353530E+04 -1.822358E+04 -2.899603E+04
       276  22  4.619790E+05  4.519756E+04  5.471792E+04 -3.669678E+04 -3.759412E+04 -8.988759E+03
       276  23  4.554426E+05 -9.762083E+02  2.479773E+04 -2.403481E+04 -2.440897E+04 -2.803731E+04
       276  24  4.620108E+05 -2.424162E+03  1.467018E+04 -3.665389E+04 -1.124354E+04 -2.899004E+04
       276  25  1.157374E+06  2.178204E+05  2.233598E+05 -5.705410E+04 -6.193630E+04 -9.011634E+03
       276  26  1.089764E+06  1.542967E+05  1.674744E+05 -3.076957E+04 -3.308529E+04 -2.804218E+04
       276  27  1.037963E+06  1.381897E+05  1.422329E+05 -2.976607E+04 -4.257094E+03 -2.898391E+04
       277   1 -6.595222E+04 -1.258677E+05 -1.053416E+05 -3.605352E+04  1.073552E+04  2.536768E+04
       277   2 -7.451811E+03 -1.141093E+05 -9.723449E+04 -2.378945E+04  8.267095E+03  2.311513E+04
       277   3  5.214049E+04 -9.972397E+04 -8.683841E+04 -3.732722E+04  5.796957E+03  2.005983E+04
       277   4  4.593779E+05  2.584683E+03  1.169789E+04 -3.678105E+04  9.142516E+03  2.536533E+04
       277   5  4.587823E+05 -1.779719E+02  6.295933E+03 -2.388025E+04  5.978111E+03  2.311310E+04
       277   6  4.593951E+05 -1.939594E+02  3.664679E+03 -3.678003E+04  2.812224E+03  2.005840E+04
       277   7  9.849653E+05  1.310183E+05  1.287201E+05 -3.750924E+04  7.548178E+03  2.536299E+04
       277   8  9.252192E+05  1.137387E+05  1.098129E+05 -2.397113E+04  3.687427E+03  2.311106E+04
       277   9  8.668043E+05  9.932484E+04  9.415747E+04 -3.623247E+04 -1.744459E+02  2.005695E+04
       277  10 -6.595251E+04 -1.258684E+05 -1.053430E+05 -3.605374E+04 -3.784877E-10  1.432685E-10
       277  11 -7.452028E+03 -1.141099E+05 -9.723563E+04 -2.378961E+04 -3.223836E-10  3.338574E-11
       277  12  5.214035E+04 -9.972442E+04 -8.683923E+04 -3.732732E+04  1.664301E-10 -1.868931E-10
       277  13  4.593777E+05  2.583970E+03  1.169652E+04 -3.678124E+04 -5.658298E-10  7.446295E-11
       277  14  4.587821E+05 -1.785552E+02  6.294862E+03 -2.388036E+04 -4.059204E-10 -2.212648E-11
       277  15  4.593949E+05 -1.943937E+02  3.663908E+03 -3.678007E+04  3.752824E-10 -3.632703E-11
       277  16  9.849651E+05  1.310176E+05  1.287188E+05 -3.750939E+04  1.351145E-10  1.472999E-10
       277  17  9.252190E+05  1.137381E+05  1.098118E+05 -2.397119E+04 -5.554766E-11  1.221809E-10
       277  18  8.668042E+05  9.932441E+04  9.415672E+04 -3.623247E+04 -1.782162E-10  2.809694E-11
       277  19 -6.595222E+04 -1.258677E+05 -1.053416E+05 -3.605352E+04 -1.073552E+04 -2.536768E+04
       277  20 -7.451811E+03 -1.141093E+05 -9.723449E+04 -2.378945E+04 -8.267095E+03 -2.311513E+04
       277  21  5.214049E+04 -9.972397E+04 -8.683841E+04 -3.732722E+04 -5.796957E+03 -2.005983E+04
       277  22  4.593779E+05  2.584683E+03  1.169789E+04 -3.678105E+04 -9.142516E+03 -2.536533E+04
       277  23  4.587823E+05 -1.779719E+02  6.295933E+03 -2.388025E+04 -5.978111E+03 -2.311310E+04
       277  24  4.593951E+05 -1.939594E+02  3.664679E+03 -3.678003E+04 -2.812224E+03 -2.005840E+04
       277  25  9.849653E+05  1.310183E+05  1.287201E+05 -3.750924E+04 -7.548178E+03 -2.536299E+04
       277  26  9.252192E+05  1.137387E+05  1.098129E+05 -2.397113E+04 -3.687427E+03 -2.311106E+04
       277  27  8.668043E+05  9.932484E+04  9.415747E+04 -3.623247E+04  1.744459E+02 -2.005695E+04
       278   1  1.015747E+05 -8.723584E+04 -7.637113E+04 -3.681685E+04  4.980827E+03  1.809841E+04
       278   2  1.602258E+05 -7.305595E+04 -6.467669E+04 -2.395148E+04  4.202688E+03  1.491087E+04
       278   3  2.190607E+05 -5.870829E+04 -5.242537E+04 -3.678509E+04  3.423201E+03  1.169153E+04
       278   4  4.591765E+05  1.020217E+02  2.822462E+03 -3.675757E+04  2.241073E+03  1.809742E+04
       278   5  4.590887E+05 -4.257203E+01  1.626677E+03 -2.390846E+04  1.434939E+03  1.491037E+04
       278   6  4.591869E+05 -1.420750E+01  1.007295E+03 -3.675758E+04  6.275292E+02  1.169155E+04
       278   7  8.168978E+05  8.743126E+04  8.200817E+04 -3.669826E+04 -5.002403E+02  1.809642E+04
       278   8  7.580349E+05  7.296477E+04  6.792453E+04 -2.386542E+04 -1.334127E+03  1.490988E+04
       278   9  6.993668E+05  5.867598E+04  5.443638E+04 -3.673006E+04 -2.169212E+03  1.169157E+04
       278  10  1.015746E+05 -8.723620E+04 -7.637179E+04 -3.681692E+04 -1.355486E-10 -2.663625E-10
       278  11  1.602258E+05 -7.305619E+04 -6.467714E+04 -2.395153E+04  4.212155E-11 -3.381379E-11
       278  12  2.190606E+05 -5.870844E+04 -5.242565E+04 -3.678512E+04  1.374193E-10  5.735526E-11
       278  13  4.591765E+05  1.016686E+02  2.821837E+03 -3.675760E+04  2.275518E-12 -1.501101E-10
       278  14  4.590886E+05 -4.281137E+01  1.626255E+03 -2.390848E+04 -5.557216E-10  4.329022E-11
       278  15  4.591868E+05 -1.435442E+01  1.007037E+03 -3.675759E+04  2.093204E-10 -8.081534E-11
       278  16  8.168977E+05  8.743091E+04  8.200755E+04 -3.669825E+04 -3.326424E-10  2.881437E-11
       278  17  7.580348E+05  7.296453E+04  6.792411E+04 -2.386541E+04  2.160025E-10  9.000863E-11
       278  18  6.993668E+05  5.867583E+04  5.443612E+04 -3.673004E+04 -1.741416E-10 -1.105476E-10
       278  19  1.015747E+05 -8.723584E+04 -7.637113E+04 -3.681685E+04 -4.980827E+03 -1.809841E+04
       278  20  1.602258E+05 -7.305595E+04 -6.467669E+04 -2.395148E+04 -4.202688E+03 -1.491087E+04
       278  21  2.190607E+05 -5.870829E+04 -5.242537E+04 -3.678509E+04 -3.423201E+03 -1.169153E+04
       278  22  4.591765E+05  1.020217E+02  2.822462E+03 -3.675757E+04 -2.241073E+03 -1.809742E+04
       278  23  4.590887E+05 -4.257203E+01  1.626677E+03 -2.390846E+04 -1.434939E+03 -1.491037E+04
       278  24  4.591869E+05 -1.420750E+01  1.007295E+03 -3.675758E+04 -6.275292E+02 -1.169155E+04
       278  25  8.168978E+05  8.743126E+04  8.200817E+04 -3.669826E+04  5.002403E+02 -1.809642E+04
       278  26  7.580349E+05  7.296477E+04  6.792453E+04 -2.386542E+04  1.334127E+03 -1.490988E+04
       278  27  6.993668E+05  5.867598E+04  5.443638E+04 -3.673006E+04  2.169212E+03 -1.169157E+04
       279   1  2.684808E+05 -4.654486E+04 -4.131084E+04 -3.674118E+04  3.244614E+03  9.811880E+03
       279   2  3.270354E+05 -3.227349E+04 -2.867930E+04 -2.391597E+04  2.935801E+03  6.592681E+03
       279   3  3.856368E+05 -1.798214E+04 -1.584254E+04 -3.672023E+04  2.626383E+03  3.373878E+03
       279   4  4.591599E+05  2.027996E+00  8.204294E+02 -3.674223E+04  4.621766E+02  9.812127E+03
       279   5  4.591408E+05 -3.195430E+00  6.239868E+02 -2.392766E+04  1.534890E+02  6.593146E+03
       279   6  4.591644E+05  1.150539E+01  6.325223E+02 -3.674223E+04 -1.557748E+02  3.374574E+03
       279   7  6.498730E+05  4.654648E+04  4.294948E+04 -3.674328E+04 -2.321105E+03  9.812373E+03
       279   8  5.912625E+05  3.226592E+04  2.992622E+04 -2.393935E+04 -2.629408E+03  6.593611E+03
       279   9  5.326969E+05  1.800478E+04  1.710727E+04 -3.676424E+04 -2.938258E+03  3.375269E+03
       279  10  2.684807E+05 -4.654497E+04 -4.131104E+04 -3.674120E+04 -8.158202E-11  2.009162E-10
       279  11  3.270354E+05 -3.227354E+04 -2.867940E+04 -2.391598E+04  4.001626E-10  6.998539E-11
       279  12  3.856368E+05 -1.798215E+04 -1.584258E+04 -3.672023E+04  4.674314E-10 -9.077923E-11
       279  13  4.591599E+05  1.924530E+00  8.202480E+02 -3.674223E+04  2.494394E-11 -3.527369E-11
       279  14  4.591408E+05 -3.242126E+00  6.239050E+02 -2.392766E+04 -1.155355E-10  1.505715E-10
       279  15  4.591644E+05  1.149315E+01  6.325009E+02 -3.674223E+04  2.725956E-10  3.054636E-11
       279  16  6.498729E+05  4.654637E+04  4.294929E+04 -3.674326E+04  3.548046E-10 -1.273511E-10
       279  17  5.912625E+05  3.226587E+04  2.992613E+04 -2.393934E+04  7.958969E-10  1.390950E-10
       279  18  5.326969E+05  1.800477E+04  1.710724E+04 -3.676423E+04 -9.206045E-11  2.942820E-11
       279  19  2.684808E+05 -4.654486E+04 -4.131084E+04 -3.674118E+04 -3.244614E+03 -9.811880E+03
       279  20  3.270354E+05 -3.227349E+04 -2.867930E+04 -2.391597E+04 -2.935801E+03 -6.592681E+03
       279  21  3.856368E+05 -1.798214E+04 -1.584254E+04 -3.672023E+04 -2.626383E+03 -3.373878E+03
       279  22  4.591599E+05  2.027996E+00  8.204294E+02 -3.674223E+04 -4.621766E+02 -9.812127E+03
       279  23  4.591408E+05 -3.195430E+00  6.239868E+02 -2.392766E+04 -1.534890E+02 -6.593146E+03
       279  24  4.591644E+05  1.150539E+01  6.325223E+02 -3.674223E+04  1.557748E+02 -3.374574E+03
       279  25  6.498730E+05  4.654648E+04  4.294948E+04 -3.674328E+04  2.321105E+03 -9.812373E+03
       279  26  5.912625E+05  3.226592E+04  2.992622E+04 -2.393935E+04  2.629408E+03 -6.593611E+03
       279  27  5.326969E+05  1.800478E+04  1.710727E+04 -3.676424E+04  2.938258E+03 -3.375269E+03
       280   1  4.350079E+05 -5.857037E+03 -4.485505E+03 -3.672079E+04  2.503634E+03  1.500950E+03
       280   2  4.935207E+05  8.394795E+03  8.657353E+03 -2.390454E+04  1.992316E+03 -1.716168E+03
       280   3  5.521003E+05  2.268212E+04  2.213850E+04 -3.669953E+04  1.481100E+03 -4.932455E+03
       280   4  4.591701E+05  1.157165E+01  7.073510E+02 -3.673827E+04 -2.779633E+02  1.501697E+03
       280   5  4.591377E+05 -3.324959E+00  1.031270E+03 -2.393260E+04 -7.886576E+02 -1.715485E+03
       280   6  4.591689E+05  1.738472E+01  1.693199E+03 -3.673826E+04 -1.299203E+03 -4.931825E+03
       280   7  4.833329E+05  5.880146E+03  5.900202E+03 -3.675576E+04 -3.059668E+03  1.502445E+03
       280   8  4.247559E+05 -8.401521E+03 -6.594857E+03 -2.396066E+04 -3.569479E+03 -1.714803E+03
       280   9  3.662455E+05 -2.264793E+04 -1.875260E+04 -3.677698E+04 -4.079095E+03 -4.931195E+03
       280  10  4.350079E+05 -5.857041E+03 -4.485521E+03 -3.672079E+04  1.472700E-10 -1.694725E-10
       280  11  4.935207E+05  8.394791E+03  8.657340E+03 -2.390454E+04  4.809859E-10 -1.037386E-10
       280  12  5.521003E+05  2.268210E+04  2.213845E+04 -3.669953E+04 -1.606544E-11  5.708354E-13
       280  13  4.591701E+05  1.156921E+01  7.073466E+02 -3.673827E+04  2.320253E-10 -3.232429E-11
       280  14  4.591377E+05 -3.328287E+00  1.031264E+03 -2.393260E+04 -1.036003E-10  4.268868E-11
       280  15  4.591688E+05  1.735814E+01  1.693150E+03 -3.673827E+04 -9.083660E-11  4.462732E-11
       280  16  4.833329E+05  5.880141E+03  5.900181E+03 -3.675576E+04  1.298865E-10 -8.406892E-11
       280  17  4.247558E+05 -8.401527E+03 -6.594887E+03 -2.396067E+04 -3.278653E-10  7.423037E-11
       280  18  3.662455E+05 -2.264796E+04 -1.875268E+04 -3.677700E+04 -3.250837E-10 -3.740634E-12
       280  19  4.350079E+05 -5.857037E+03 -4.485505E+03 -3.672079E+04 -2.503634E+03 -1.500950E+03
       280  20  4.935207E+05  8.394795E+03  8.657353E+03 -2.390454E+04 -1.992316E+03  1.716168E+03
       280  21  5.521003E+05  2.268212E+04  2.213850E+04 -3.669953E+04 -1.481100E+03  4.932455E+03
       280  22  4.591701E+05  1.157165E+01  7.073510E+02 -3.673827E+04  2.779633E+02 -1.501697E+03
       280  23  4.591377E+05 -3.324959E+00  1.031270E+03 -2.393260E+04  7.886576E+02  1.715485E+03
       280  24  4.591689E+05  1.738472E+01  1.693199E+03 -3.673826E+04  1.299203E+03  4.931825E+03
       280  25  4.833329E+05  5.880146E+03  5.900202E+03 -3.675576E+04  3.059668E+03 -1.502445E+03
       280  26  4.247559E+05 -8.401521E+03 -6.594857E+03 -2.396066E+04  3.569479E+03  1.714803E+03
       280  27  3.662455E+05 -2.264793E+04 -1.875260E+04 -3.677698E+04  4.079095E+03  4.931195E+03
       281   1  6.015595E+05  3.477607E+04  3.392934E+04 -3.664716E+04  1.140275E+03 -6.808748E+03
       281   2  6.600222E+05  4.902637E+04  4.834326E+04 -2.384218E+04 -7.556784E+02 -1.002247E+04
       281   3  7.188487E+05  6.369474E+04  6.409641E+04 -3.668892E+04 -2.650915E+03 -1.320802E+04
       281   4  4.592314E+05 -1.860941E+01  2.198470E+03 -3.674736E+04 -1.650758E+03 -6.808241E+03
       281   5  4.590491E+05 -5.746170E+01  3.769670E+03 -2.392122E+04 -3.521896E+03 -1.002231E+04
       281   6  4.592241E+05  3.180246E+02  6.663621E+03 -3.674728E+04 -5.392142E+03 -1.320820E+04
       281   7  3.169223E+05 -3.481466E+04 -2.953364E+04 -3.684754E+04 -4.441158E+03 -6.807733E+03
       281   8  2.581137E+05 -4.914402E+04 -4.080640E+04 -2.400022E+04 -6.287229E+03 -1.002216E+04
       281   9  1.996624E+05 -6.306322E+04 -5.077330E+04 -3.680563E+04 -8.132238E+03 -1.320838E+04
       281  10  6.015594E+05  3.477602E+04  3.392925E+04 -3.664715E+04  2.730154E-10  6.274738E-11
       281  11  6.600222E+05  4.902626E+04  4.834307E+04 -2.384219E+04  1.818638E-10  7.039450E-11
       281  12  7.188486E+05  6.369455E+04  6.409606E+04 -3.668894E+04  1.997253E-10 -6.456262E-11
       281  13  4.592314E+05 -1.865993E+01  2.198378E+03 -3.674737E+04  3.191166E-10 -7.758863E-11
       281  14  4.590491E+05 -5.757291E+01  3.769458E+03 -2.392124E+04  6.029731E-10 -6.988812E-11
       281  15  4.592240E+05  3.178294E+02  6.663238E+03 -3.674734E+04  2.696359E-10 -3.093228E-11
       281  16  3.169222E+05 -3.481471E+04 -2.953376E+04 -3.684757E+04 -1.050644E-10 -8.452859E-11
       281  17  2.581136E+05 -4.914414E+04 -4.080666E+04 -2.400027E+04 -7.185074E-10 -2.047193E-10
       281  18  1.996622E+05 -6.306343E+04 -5.077375E+04 -3.680571E+04  8.520572E-11  6.318285E-11
       281  19  6.015595E+05  3.477607E+04  3.392934E+04 -3.664716E+04 -1.140275E+03  6.808748E+03
       281  20  6.600222E+05  4.902637E+04  4.834326E+04 -2.384218E+04  7.556784E+02  1.002247E+04
       281  21  7.188487E+05  6.369474E+04  6.409641E+04 -3.668892E+04  2.650915E+03  1.320802E+04
       281  22  4.592314E+05 -1.860941E+01  2.198470E+03 -3.674736E+04  1.650758E+03  6.808241E+03
       281  23  4.590491E+05 -5.746170E+01  3.769670E+03 -2.392122E+04  3.521896E+03  1.002231E+04
       281  24  4.592241E+05  3.180246E+02  6.663621E+03 -3.674728E+04  5.392142E+03  1.320820E+04
       281  25  3.169223E+05 -3.481466E+04 -2.953364E+04 -3.684754E+04  4.441158E+03  6.807733E+03
       281  26  2.581137E+05 -4.914402E+04 -4.080640E+04 -2.400022E+04  6.287229E+03  1.002216E+04
       281  27  1.996624E+05 -6.306322E+04 -5.077330E+04 -3.680563E+04  8.132238E+03  1.320838E+04
       282   1  7.689120E+05  7.515175E+04  7.739783E+04 -3.558563E+04 -3.791861E+03 -1.515304E+04
       282   2  8.263977E+05  8.957483E+04  9.668178E+04 -2.438683E+04 -1.193604E+04 -1.822344E+04
       282   3  8.866748E+05  1.106604E+05  1.229420E+05 -3.890502E+04 -2.007984E+04 -2.060261E+04
       282   4  4.597350E+05 -3.836149E+02  8.681705E+03 -3.676160E+04 -6.743718E+03 -1.515351E+04
       282   5  4.583848E+05 -3.107100E+02  1.499684E+04 -2.390319E+04 -1.428612E+04 -1.822451E+04
       282   6  4.597196E+05  6.322779E+03  2.787369E+04 -3.676253E+04 -2.182737E+04 -2.060411E+04
       282   7  1.506471E+05 -7.592543E+04 -6.004034E+04 -3.793697E+04 -9.694122E+03 -1.515397E+04
       282   8  9.049815E+04 -9.020539E+04 -6.669650E+04 -2.341983E+04 -1.663481E+04 -1.822558E+04
       282   9  3.293417E+04 -9.802717E+04 -6.720602E+04 -3.462153E+04 -2.357371E+04 -2.060563E+04
       282  10  7.689119E+05  7.515150E+04  7.739737E+04 -3.558568E+04  2.467777E-10 -1.770130E-10
       282  11  8.263975E+05  8.957443E+04  9.668089E+04 -2.438700E+04  7.876585E-11 -6.975668E-12
       282  12  8.866742E+05  1.106598E+05  1.229405E+05 -3.890535E+04 -3.137406E-10  1.888432E-10
       282  13  4.597349E+05 -3.838737E+02  8.681188E+03 -3.676168E+04 -2.430679E-11 -2.246961E-11
       282  14  4.583845E+05 -3.111215E+02  1.499583E+04 -2.390340E+04 -2.953564E-10  3.812092E-13
       282  15  4.597189E+05  6.322195E+03  2.787200E+04 -3.676289E+04  4.776893E-11  8.817620E-11
       282  16  1.506470E+05 -7.592570E+04 -6.004095E+04 -3.793709E+04 -2.395117E-10  1.131679E-10
       282  17  9.049776E+04 -9.020582E+04 -6.669765E+04 -2.342008E+04 -6.071445E-10 -9.781457E-11
       282  18  3.293346E+04 -9.802778E+04 -6.720786E+04 -3.462192E+04  7.410516E-11 -4.410911E-11
       282  19  7.689120E+05  7.515175E+04  7.739783E+04 -3.558563E+04  3.791861E+03  1.515304E+04
       282  20  8.263977E+05  8.957483E+04  9.668178E+04 -2.438683E+04  1.193604E+04  1.822344E+04
       282  21  8.866748E+05  1.106604E+05  1.229420E+05 -3.890502E+04  2.007984E+04  2.060261E+04
       282  22  4.597350E+05 -3.836149E+02  8.681705E+03 -3.676160E+04  6.743718E+03  1.515351E+04
       282  23  4.583848E+05 -3.107100E+02  1.499684E+04 -2.390319E+04  1.428612E+04  1.822451E+04
       282  24  4.597196E+05  6.322779E+03  2.787369E+04 -3.676253E+04  2.182737E+04  2.060411E+04
       282  25  1.506471E+05 -7.592543E+04 -6.004034E+04 -3.793697E+04  9.694122E+03  1.515397E+04
       282  26  9.049815E+04 -9.020539E+04 -6.669650E+04 -2.341983E+04  1.663481E+04  1.822558E+04
       282  27  3.293417E+04 -9.802717E+04 -6.720602E+04 -3.462153E+04  2.357371E+04  2.060563E+04
       283   1  9.430327E+05  1.108841E+05  1.406411E+05 -2.076093E+04 -2.044509E+04 -2.398011E+04
       283   2  9.858491E+05  1.289319E+05  1.796034E+05 -4.083638E+04 -6.535129E+04 -2.360918E+04
       283   3  1.061851E+06  2.558254E+05  2.750125E+05 -8.620497E+04 -1.102742E+05 -7.653234E+03
       283   4  4.659766E+05 -5.600641E+03  3.495783E+04 -3.664991E+04 -2.683585E+04 -2.398302E+04
       283   5  4.505219E+05 -2.115003E+03  5.915111E+04 -2.403786E+04 -5.823910E+04 -2.360867E+04
       283   6  4.659347E+05  1.079214E+05  1.304501E+05 -3.671599E+04 -8.965376E+04 -7.647995E+03
       283   7 -1.086667E+04 -1.220998E+05 -7.073927E+04 -5.252657E+04 -3.322174E+04 -2.398561E+04
       283   8 -8.453833E+04 -1.331804E+05 -6.131907E+04 -7.253978E+03 -5.113297E+04 -2.360776E+04
       283   9 -1.296518E+05 -3.999925E+04 -1.413491E+04  1.272538E+04 -6.905303E+04 -7.639474E+03
       283  10  9.430321E+05  1.108834E+05  1.406393E+05 -2.076133E+04  2.491867E-10  3.496142E-10
       283  11  9.858444E+05  1.289302E+05  1.795943E+05 -4.083763E+04  3.348281E-10  3.854011E-11
       283  12  1.061838E+06  2.558221E+05  2.749896E+05 -8.620565E+04 -1.760078E-10 -1.420045E-10
       283  13  4.659757E+05 -5.601452E+03  3.495540E+04 -3.665043E+04 -5.386353E-10  7.367862E-11
       283  14  4.505182E+05 -2.116511E+03  5.914369E+04 -2.403897E+04 -7.154707E-10 -2.361314E-10
       283  15  4.659261E+05  1.079192E+05  1.304349E+05 -3.671654E+04 -2.897131E-10 -1.185462E-10
       283  16 -1.086801E+04 -1.221007E+05 -7.074242E+04 -5.252721E+04 -1.159959E-10 -6.907732E-11
       283  17 -8.454129E+04 -1.331817E+05 -6.132503E+04 -7.254951E+03 -1.085164E-09 -1.288106E-11
       283  18 -1.296569E+05 -4.000059E+04 -1.414398E+04  1.272496E+04  2.091791E-10 -9.579370E-11
       283  19  9.430327E+05  1.108841E+05  1.406411E+05 -2.076093E+04  2.044509E+04  2.398011E+04
       283  20  9.858491E+05  1.289319E+05  1.796034E+05 -4.083638E+04  6.535129E+04  2.360918E+04
       283  21  1.061851E+06  2.558254E+05  2.750125E+05 -8.620497E+04  1.102742E+05  7.653234E+03
       283  22  4.659766E+05 -5.600641E+03  3.495783E+04 -3.664991E+04  2.683585E+04  2.398302E+04
       283  23  4.505219E+05 -2.115003E+03  5.915111E+04 -2.403786E+04  5.823910E+04  2.360867E+04
       283  24  4.659347E+05  1.079214E+05  1.304501E+05 -3.671599E+04  8.965376E+04  7.647995E+03
       283  25 -1.086667E+04 -1.220998E+05 -7.073927E+04 -5.252657E+04  3.322174E+04  2.398561E+04
       283  26 -8.453833E+04 -1.331804E+05 -6.131907E+04 -7.253978E+03  5.113297E+04  2.360776E+04
       283  27 -1.296518E+05 -3.999925E+04 -1.413491E+04  1.272538E+04  6.905303E+04  7.639474E+03
       284   1  1.597150E+05  9.455752E+05  1.696561E+05 -1.025051E+05  4.257133E+03  6.099345E+04
       284   2  6.876492E+04  8.174424E+05  9.613044E+04 -5.882455E+04  1.185826E+04  3.425413E+04
       284   3  3.773966E+04  7.076339E+05  5.495006E+04 -6.661138E+04  8.068947E+03  7.504678E+03
       284   4  5.913266E+04  5.413076E+05  7.110093E+04 -7.495568E+04  4.275438E+03  4.950734E+04
       284   5 -9.804574E+02  5.330178E+05  3.177137E+04 -4.926530E+04  1.186147E+04  3.263022E+04
       284   6 -2.862447E+03  5.413429E+05  1.795865E+04 -7.504024E+04  8.056271E+03  1.573777E+04
       284   7 -4.145884E+04  1.371908E+05 -2.746526E+04 -4.742421E+04  4.292732E+03  3.802866E+04
       284   8 -7.073107E+04  2.486684E+05 -3.259284E+04 -3.971044E+04  1.186463E+04  3.100705E+04
       284   9 -4.346612E+04  3.750780E+05 -1.903420E+04 -8.346681E+04  8.043370E+03  2.396868E+04
       284  10  1.597140E+05  9.455713E+05  1.696491E+05 -1.025053E+05 -2.352042E-10 -2.953437E-10
       284  11  6.876446E+04  8.174412E+05  9.612797E+04 -5.882488E+04 -2.389784E-10  7.135219E-11
       284  12  3.773958E+04  7.076339E+05  5.494984E+04 -6.661142E+04  9.541558E-10  4.322216E-10
       284  13  5.913198E+04  5.413050E+05  7.109629E+04 -7.495585E+04  5.150921E-10 -8.434049E-11
       284  14 -9.808941E+02  5.330166E+05  3.176911E+04 -4.926562E+04 -1.643590E-09  1.366742E-10
       284  15 -2.862583E+03  5.413427E+05  1.795806E+04 -7.504034E+04  1.085950E-10  2.007292E-11
       284  16 -4.145925E+04  1.371892E+05 -2.746802E+04 -4.742434E+04  3.329610E-11  2.477622E-10
       284  17 -7.073148E+04  2.486673E+05 -3.259491E+04 -3.971074E+04 -2.519781E-10 -7.058363E-11
       284  18 -4.346634E+04  3.750774E+05 -1.903540E+04 -8.346697E+04 -7.151899E-11 -4.822274E-10
       284  19  1.597150E+05  9.455752E+05  1.696561E+05 -1.025051E+05 -4.257133E+03 -6.099345E+04
       284  20  6.876492E+04  8.174424E+05  9.613044E+04 -5.882455E+04 -1.185826E+04 -3.425413E+04
       284  21  3.773966E+04  7.076339E+05  5.495006E+04 -6.661138E+04 -8.068947E+03 -7.504678E+03
       284  22  5.913266E+04  5.413076E+05  7.110093E+04 -7.495568E+04 -4.275438E+03 -4.950734E+04
       284  23 -9.804574E+02  5.330178E+05  3.177137E+04 -4.926530E+04 -1.186147E+04 -3.263022E+04
       284  24 -2.862447E+03  5.413429E+05  1.795865E+04 -7.504024E+04 -8.056271E+03 -1.573777E+04
       284  25 -4.145884E+04  1.371908E+05 -2.746526E+04 -4.742421E+04 -4.292732E+03 -3.802866E+04
       284  26 -7.073107E+04  2.486684E+05 -3.259284E+04 -3.971044E+04 -1.186463E+04 -3.100705E+04
       284  27 -4.346612E+04  3.750780E+05 -1.903420E+04 -8.346681E+04 -8.043370E+03 -2.396868E+04
       285   1  1.986660E+04  6.036627E+05  2.838117E+04 -7.618852E+04  3.118340E+03  8.205239E+03
       285   2 -1.289342E+04  4.844619E+05 -6.290251E+03 -4.947246E+04 -2.627678E+03  5.546691E+03
       285   3 -4.310174E+04  3.660741E+05 -3.863902E+04 -7.466858E+04 -8.255799E+03  2.889246E+03
       285   4  3.768507E+03  5.378350E+05  1.369564E+04 -7.511346E+04  3.110493E+03  1.322753E+04
       285   5  4.396075E+01  5.374254E+05  5.469633E+03 -4.916130E+04 -2.635189E+03  1.046732E+04
       285   6 -1.110028E+03  5.378341E+05 -3.614433E+02 -7.512091E+04 -8.263020E+03  7.707719E+03
       285   7 -1.232986E+04  4.720115E+05 -9.900673E+02 -7.403852E+04  3.102663E+03  1.824930E+04
       285   8  1.298117E+04  5.903915E+05  1.722943E+04 -4.885011E+04 -2.642694E+03  1.538836E+04
       285   9  4.087970E+04  7.096216E+05  3.791438E+04 -7.557335E+04 -8.270248E+03  1.252751E+04
       285  10  1.986657E+04  6.036626E+05  2.838102E+04 -7.618854E+04  3.868397E-10 -4.294935E-10
       285  11 -1.289344E+04  4.844619E+05 -6.290322E+03 -4.947245E+04  3.736483E-10 -2.715966E-10
       285  12 -4.310182E+04  3.660741E+05 -3.863917E+04 -7.466856E+04 -5.844929E-10 -8.700365E-11
       285  13  3.768449E+03  5.378348E+05  1.369529E+04 -7.511349E+04  1.535087E-10  6.773836E-11
       285  14  4.392391E+01  5.374253E+05  5.469414E+03 -4.916128E+04  1.024669E-09 -9.421052E-11
       285  15 -1.110117E+03  5.378340E+05 -3.616831E+02 -7.512086E+04  1.115391E-09 -1.311407E-10
       285  16 -1.232996E+04  4.720111E+05 -9.907108E+02 -7.403856E+04  2.327405E-10  4.966692E-10
       285  17  1.298109E+04  5.903912E+05  1.722898E+04 -4.885008E+04 -3.755984E-10  2.962234E-10
       285  18  4.087958E+04  7.096214E+05  3.791395E+04 -7.557326E+04 -4.111990E-10  1.313830E-10
       285  19  1.986660E+04  6.036627E+05  2.838117E+04 -7.618852E+04 -3.118340E+03 -8.205239E+03
       285  20 -1.289342E+04  4.844619E+05 -6.290251E+03 -4.947246E+04  2.627678E+03 -5.546691E+03
       285  21 -4.310174E+04  3.660741E+05 -3.863902E+04 -7.466858E+04  8.255799E+03 -2.889246E+03
       285  22  3.768507E+03  5.378350E+05  1.369564E+04 -7.511346E+04 -3.110493E+03 -1.322753E+04
       285  23  4.396075E+01  5.374254E+05  5.469633E+03 -4.916130E+04  2.635189E+03 -1.046732E+04
       285  24 -1.110028E+03  5.378341E+05 -3.614433E+02 -7.512091E+04  8.263020E+03 -7.707719E+03
       285  25 -1.232986E+04  4.720115E+05 -9.900673E+02 -7.403852E+04 -3.102663E+03 -1.824930E+04
       285  26  1.298117E+04  5.903915E+05  1.722943E+04 -4.885011E+04  2.642694E+03 -1.538836E+04
       285  27  4.087970E+04  7.096216E+05  3.791438E+04 -7.557335E+04  8.270248E+03 -1.252751E+04
       286   1 -6.517363E+04  2.642066E+05 -6.325478E+04 -7.189458E+04 -1.344560E+04 -9.778849E+02
       286   2 -9.523142E+04  1.487876E+05 -9.703012E+04 -5.182631E+04 -1.668302E+04  1.593864E+04
       286   3 -1.457479E+05  2.596750E+04 -1.469550E+05 -8.321611E+04 -5.843470E+03  3.286831E+04
       286   4  1.358890E+03  5.364632E+05 -2.782004E+03 -7.501061E+04 -1.345834E+04  7.884390E+03
       286   5  4.282640E+02  5.391030E+05 -8.860692E+03 -4.929468E+04 -1.667782E+04  1.263938E+04
       286   6 -1.884279E+04  5.364425E+05 -2.264185E+04 -7.503610E+04 -5.823959E+03  1.741110E+04
       286   7  6.788647E+04  8.087891E+05  5.768646E+04 -7.812798E+04 -1.347118E+04  1.675051E+04
       286   8  9.607752E+04  9.295599E+05  7.929902E+04 -4.676141E+04 -1.667265E+04  9.338069E+03
       286   9  1.080435E+05  1.047156E+06  1.016533E+05 -6.684926E+04 -5.804864E+03  1.941215E+03
       286  10 -6.517382E+04  2.642065E+05 -6.325513E+04 -7.189459E+04  3.448889E-12 -7.604206E-11
       286  11 -9.523179E+04  1.487872E+05 -9.703112E+04 -5.182609E+04  2.982503E-10  2.526376E-11
       286  12 -1.457482E+05  2.596633E+04 -1.469571E+05 -8.321595E+04 -2.049338E-10  1.134464E-10
       286  13  1.358679E+03  5.364631E+05 -2.782462E+03 -7.501052E+04 -8.666684E-10  7.175959E-11
       286  14  4.279224E+02  5.391027E+05 -8.861515E+03 -4.929452E+04  4.574593E-10 -8.068553E-11
       286  15 -1.884291E+04  5.364421E+05 -2.264248E+04 -7.503601E+04 -2.956167E-10  3.224429E-11
       286  16  6.788620E+04  8.087887E+05  5.768559E+04 -7.812780E+04  3.218068E-10  3.135130E-11
       286  17  9.607720E+04  9.295598E+05  7.929833E+04 -4.676128E+04  7.273081E-11 -1.456530E-10
       286  18  1.080435E+05  1.047156E+06  1.016533E+05 -6.684925E+04 -3.727866E-10 -2.938475E-11
       286  19 -6.517363E+04  2.642066E+05 -6.325478E+04 -7.189458E+04  1.344560E+04  9.778849E+02
       286  20 -9.523142E+04  1.487876E+05 -9.703012E+04 -5.182631E+04  1.668302E+04 -1.593864E+04
       286  21 -1.457479E+05  2.596750E+04 -1.469550E+05 -8.321611E+04  5.843470E+03 -3.286831E+04
       286  22  1.358890E+03  5.364632E+05 -2.782004E+03 -7.501061E+04  1.345834E+04 -7.884390E+03
       286  23  4.282640E+02  5.391030E+05 -8.860692E+03 -4.929468E+04  1.667782E+04 -1.263938E+04
       286  24 -1.884279E+04  5.364425E+05 -2.264185E+04 -7.503610E+04  5.823959E+03 -1.741110E+04
       286  25  6.788647E+04  8.087891E+05  5.768646E+04 -7.812798E+04  1.347118E+04 -1.675051E+04
       286  26  9.607752E+04  9.295599E+05  7.929902E+04 -4.676141E+04  1.667265E+04 -9.338069E+03
       286  27  1.080435E+05  1.047156E+06  1.016533E+05 -6.684926E+04  5.804864E+03 -1.941215E+03
       287   1 -8.547703E+05 -3.831816E+05 -2.632577E+05 -3.044452E+05 -1.111778E+05 -3.491404E+04
       287   2 -8.203198E+05 -2.286653E+05 -1.634043E+05 -2.995635E+05 -7.212213E+04 -5.477907E+03
       287   3 -8.249879E+05 -1.995152E+05 -1.277954E+05 -2.768592E+05 -2.846247E+04  1.173419E+04
       287   4 -4.545812E+05 -1.837472E+05 -1.467390E+05 -1.453067E+05 -9.584121E+04 -2.915460E+04
       287   5 -4.280650E+05 -6.598993E+04 -6.328113E+04 -1.752966E+05 -6.664507E+04 -3.421395E+03
       287   6 -4.386841E+05 -7.160404E+04 -3.622102E+04 -1.874736E+05 -3.284771E+04  1.008552E+04
       287   7 -5.423306E+04  1.573449E+04 -3.023537E+04  1.393535E+04 -8.049388E+04 -2.338809E+04
       287   8 -3.565852E+04  9.670565E+04  3.682936E+04 -5.095490E+04 -6.116423E+04 -1.363103E+03
       287   9 -5.223192E+04  5.631037E+04  5.534334E+04 -9.804053E+04 -3.723594E+04  8.436002E+03
       287  10 -8.547839E+05 -3.831862E+05 -2.632833E+05 -3.044484E+05 -1.194327E-10 -7.093143E-12
       287  11 -8.203254E+05 -2.286667E+05 -1.634141E+05 -2.995639E+05 -7.236490E-10  9.896020E-11
       287  12 -8.249888E+05 -1.995155E+05 -1.277972E+05 -2.768589E+05 -2.002135E-10  2.165293E-10
       287  13 -4.545913E+05 -1.837506E+05 -1.467578E+05 -1.453090E+05  2.040477E-10  7.770190E-11
       287  14 -4.280698E+05 -6.599114E+04 -6.328951E+04 -1.752968E+05  2.118587E-10  1.616808E-10
       287  15 -4.386852E+05 -7.160444E+04 -3.622324E+04 -1.874733E+05 -6.968288E-10  1.028981E-10
       287  16 -5.424016E+04  1.573216E+04 -3.024857E+04  1.393384E+04 -2.377385E-10  1.331021E-10
       287  17 -3.566254E+04  9.670465E+04  3.682233E+04 -5.095497E+04  1.339930E-10  2.141997E-10
       287  18 -5.223342E+04  5.630992E+04  5.534060E+04 -9.804028E+04 -4.948755E-11  1.258396E-11
       287  19 -8.547703E+05 -3.831816E+05 -2.632577E+05 -3.044452E+05  1.111778E+05  3.491404E+04
       287  20 -8.203198E+05 -2.286653E+05 -1.634043E+05 -2.995635E+05  7.212213E+04  5.477907E+03
       287  21 -8.249879E+05 -1.995152E+05 -1.277954E+05 -2.768592E+05  2.846247E+04 -1.173419E+04
       287  22 -4.545812E+05 -1.837472E+05 -1.467390E+05 -1.453067E+05  9.584121E+04  2.915460E+04
       287  23 -4.280650E+05 -6.598993E+04 -6.328113E+04 -1.752966E+05  6.664507E+04  3.421395E+03
       287  24 -4.386841E+05 -7.160404E+04 -3.622102E+04 -1.874736E+05  3.284771E+04 -1.008552E+04
       287  25 -5.423306E+04  1.573449E+04 -3.023537E+04  1.393535E+04  8.049388E+04  2.338809E+04
       287  26 -3.565852E+04  9.670565E+04  3.682936E+04 -5.095490E+04  6.116423E+04  1.363103E+03
       287  27 -5.223192E+04  5.631037E+04  5.534334E+04 -9.804053E+04  3.723594E+04 -8.436002E+03
       288   1 -7.796450E+05 -2.148224E+05 -1.143130E+05 -2.778942E+05 -2.663653E+04  9.793752E+03
       288   2 -7.531679E+05 -1.893032E+05 -9.238191E+04 -2.642143E+05 -1.829249E+04  1.168913E+04
       288   3 -7.201714E+05 -1.819024E+05 -7.843361E+04 -2.606942E+05 -9.735923E+03  1.301788E+04
       288   4 -4.339326E+05 -8.334040E+04 -2.882146E+04 -1.804730E+05 -2.729390E+04  9.545749E+03
       288   5 -4.367196E+05 -7.068363E+04 -1.469557E+04 -1.767600E+05 -1.940363E+04  1.127099E+04
       288   6 -4.328960E+05 -7.605240E+04 -8.189167E+03 -1.832072E+05 -1.130126E+04  1.242954E+04
       288   7 -8.810390E+04  4.815034E+04  5.666040E+04 -8.300241E+04 -2.795165E+04  9.297591E+03
       288   8 -1.201726E+05  4.794311E+04  6.298317E+04 -8.926504E+04 -2.051539E+04  1.085261E+04
       288   9 -1.455378E+05  2.980323E+04  6.204943E+04 -1.056876E+05 -1.286740E+04  1.184090E+04
       288  10 -7.796458E+05 -2.148227E+05 -1.143145E+05 -2.778940E+05 -3.819715E-10  8.739466E-11
       288  11 -7.531683E+05 -1.893035E+05 -9.238280E+04 -2.642142E+05  4.041268E-10 -4.392428E-11
       288  12 -7.201716E+05 -1.819026E+05 -7.843411E+04 -2.606941E+05  5.766433E-10 -1.235924E-11
       288  13 -4.339334E+05 -8.334070E+04 -2.882303E+04 -1.804728E+05 -1.513144E-10 -3.083395E-11
       288  14 -4.367201E+05 -7.068387E+04 -1.469651E+04 -1.767598E+05 -3.602165E-10 -7.317537E-11
       288  15 -4.328961E+05 -7.605260E+04 -8.189697E+03 -1.832071E+05  4.901383E-11 -3.735753E-11
       288  16 -8.810476E+04  4.815004E+04  5.665877E+04 -8.300220E+04  2.977334E-10 -1.599012E-11
       288  17 -1.201730E+05  4.794287E+04  6.298216E+04 -8.926486E+04 -1.822386E-10  8.117688E-12
       288  18 -1.455381E+05  2.980304E+04  6.204885E+04 -1.056875E+05 -3.658133E-10 -4.563968E-11
       288  19 -7.796450E+05 -2.148224E+05 -1.143130E+05 -2.778942E+05  2.663653E+04 -9.793752E+03
       288  20 -7.531679E+05 -1.893032E+05 -9.238191E+04 -2.642143E+05  1.829249E+04 -1.168913E+04
       288  21 -7.201714E+05 -1.819024E+05 -7.843361E+04 -2.606942E+05  9.735923E+03 -1.301788E+04
       288  22 -4.339326E+05 -8.334040E+04 -2.882146E+04 -1.804730E+05  2.729390E+04 -9.545749E+03
       288  23 -4.367196E+05 -7.068363E+04 -1.469557E+04 -1.767600E+05  1.940363E+04 -1.127099E+04
       288  24 -4.328960E+05 -7.605240E+04 -8.189167E+03 -1.832072E+05  1.130126E+04 -1.242954E+04
       288  25 -8.810390E+04  4.815034E+04  5.666040E+04 -8.300241E+04  2.795165E+04 -9.297591E+03
       288  26 -1.201726E+05  4.794311E+04  6.298317E+04 -8.926504E+04  2.051539E+04 -1.085261E+04
       288  27 -1.455378E+05  2.980323E+04  6.204943E+04 -1.056876E+05  1.286740E+04 -1.184090E+04
       289   1 -6.917358E+05 -1.734170E+05 -6.967213E+04 -2.538263E+05 -8.339325E+03  1.230015E+04
       289   2 -6.659378E+05 -1.561466E+05 -5.933826E+04 -2.394175E+05 -5.964883E+03  1.120210E+04
       289   3 -6.300495E+05 -1.498814E+05 -5.041408E+04 -2.369327E+05 -3.579679E+03  1.007362E+04
       289   4 -4.324439E+05 -7.680062E+04 -6.248798E+03 -1.827300E+05 -9.737607E+03  1.177473E+04
       289   5 -4.374565E+05 -7.107364E+04 -3.386116E+03 -1.768522E+05 -7.386996E+03  1.066800E+04
       289   6 -4.323750E+05 -7.634639E+04 -1.913684E+03 -1.828984E+05 -5.025722E+03  9.530807E+03
       289   7 -1.730858E+05  1.982029E+04  5.716945E+04 -1.116068E+05 -1.113653E+04  1.124906E+04
       289   8 -2.089243E+05  1.400270E+04  5.256193E+04 -1.142662E+05 -8.809676E+03  1.013368E+04
       289   9 -2.346630E+05 -2.809145E+03  4.658349E+04 -1.288486E+05 -6.472261E+03  8.987811E+03
       289  10 -6.917359E+05 -1.734171E+05 -6.967254E+04 -2.538262E+05  3.205488E-10 -4.015411E-11
       289  11 -6.659378E+05 -1.561468E+05 -5.933856E+04 -2.394174E+05 -1.591016E-10 -1.884438E-10
       289  12 -6.300496E+05 -1.498815E+05 -5.041429E+04 -2.369327E+05 -2.555207E-10 -1.216903E-10
       289  13 -4.324440E+05 -7.680080E+04 -6.249237E+03 -1.827299E+05  5.503777E-10 -4.583223E-11
       289  14 -4.374566E+05 -7.107377E+04 -3.386433E+03 -1.768522E+05 -3.235529E-10  1.015439E-10
       289  15 -4.323751E+05 -7.634650E+04 -1.913902E+03 -1.828983E+05 -4.128787E-10 -1.419917E-11
       289  16 -1.730859E+05  1.982012E+04  5.716898E+04 -1.116067E+05 -3.440112E-10 -4.357917E-12
       289  17 -2.089244E+05  1.400257E+04  5.256159E+04 -1.142662E+05 -8.612026E-12 -1.579965E-12
       289  18 -2.346631E+05 -2.809243E+03  4.658326E+04 -1.288486E+05  2.416825E-10  7.381337E-12
       289  19 -6.917358E+05 -1.734170E+05 -6.967213E+04 -2.538263E+05  8.339325E+03 -1.230015E+04
       289  20 -6.659378E+05 -1.561466E+05 -5.933826E+04 -2.394175E+05  5.964883E+03 -1.120210E+04
       289  21 -6.300495E+05 -1.498814E+05 -5.041408E+04 -2.369327E+05  3.579679E+03 -1.007362E+04
       289  22 -4.324439E+05 -7.680062E+04 -6.248798E+03 -1.827300E+05  9.737607E+03 -1.177473E+04
       289  23 -4.374565E+05 -7.107364E+04 -3.386116E+03 -1.768522E+05  7.386996E+03 -1.066800E+04
       289  24 -4.323750E+05 -7.634639E+04 -1.913684E+03 -1.828984E+05  5.025722E+03 -9.530807E+03
       289  25 -1.730858E+05  1.982029E+04  5.716945E+04 -1.116068E+05  1.113653E+04 -1.124906E+04
       289  26 -2.089243E+05  1.400270E+04  5.256193E+04 -1.142662E+05  8.809676E+03 -1.013368E+04
       289  27 -2.346630E+05 -2.809145E+03  4.658349E+04 -1.288486E+05  6.472261E+03 -8.987811E+03
       290   1 -6.026381E+05 -1.397877E+05 -4.307597E+04 -2.295145E+05 -2.914920E+03  9.136209E+03
       290   2 -5.768140E+05 -1.229438E+05 -3.502246E+04 -2.149751E+05 -1.783387E+03  7.525128E+03
       290   3 -5.405177E+05 -1.166762E+05 -2.731947E+04 -2.125095E+05 -6.508007E+02  5.910108E+03
       290   4 -4.323099E+05 -7.639835E+04 -1.478850E+03 -1.828760E+05 -4.355869E+03  8.595448E+03
       290   5 -4.375418E+05 -7.109559E+04 -9.209745E+02 -1.768439E+05 -3.227387E+03  6.983382E+03
       290   6 -4.323028E+05 -7.636858E+04 -7.112996E+02 -1.828859E+05 -2.097880E+03  5.367372E+03
       290   7 -2.619522E+05 -1.300677E+04  4.011632E+04 -1.362257E+05 -5.797255E+03  8.054523E+03
       290   8 -2.982502E+05 -1.924594E+04  3.317915E+04 -1.387048E+05 -4.671743E+03  6.441501E+03
       290   9 -3.240763E+05 -3.606017E+04  2.589599E+04 -1.532576E+05 -3.545235E+03  4.824534E+03
       290  10 -6.026381E+05 -1.397877E+05 -4.307614E+04 -2.295145E+05 -6.381657E-11 -9.942964E-11
       290  11 -5.768140E+05 -1.229439E+05 -3.502257E+04 -2.149751E+05 -3.584642E-10 -1.620388E-11
       290  12 -5.405177E+05 -1.166762E+05 -2.731954E+04 -2.125095E+05 -1.585561E-10 -5.554261E-11
       290  13 -4.323099E+05 -7.639844E+04 -1.479025E+03 -1.828760E+05  2.230406E-11 -4.785295E-11
       290  14 -4.375418E+05 -7.109565E+04 -9.210857E+02 -1.768438E+05  2.529052E-10 -2.678990E-11
       290  15 -4.323028E+05 -7.636861E+04 -7.113620E+02 -1.828859E+05 -4.562320E-10  9.763599E-12
       290  16 -2.619522E+05 -1.300685E+04  4.011613E+04 -1.362257E+05  2.262939E-10 -1.492656E-10
       290  17 -2.982502E+05 -1.924599E+04  3.317903E+04 -1.387048E+05 -2.016371E-10 -1.823309E-10
       290  18 -3.240763E+05 -3.606020E+04  2.589592E+04 -1.532576E+05  3.156355E-11  3.056693E-10
       290  19 -6.026381E+05 -1.397877E+05 -4.307597E+04 -2.295145E+05  2.914920E+03 -9.136209E+03
       290  20 -5.768140E+05 -1.229438E+05 -3.502246E+04 -2.149751E+05  1.783387E+03 -7.525128E+03
       290  21 -5.405177E+05 -1.166762E+05 -2.731947E+04 -2.125095E+05  6.508007E+02 -5.910108E+03
       290  22 -4.323099E+05 -7.639835E+04 -1.478850E+03 -1.828760E+05  4.355869E+03 -8.595448E+03
       290  23 -4.375418E+05 -7.109559E+04 -9.209745E+02 -1.768439E+05  3.227387E+03 -6.983382E+03
       290  24 -4.323028E+05 -7.636858E+04 -7.112996E+02 -1.828859E+05  2.097880E+03 -5.367372E+03
       290  25 -2.619522E+05 -1.300677E+04  4.011632E+04 -1.362257E+05  5.797255E+03 -8.054523E+03
       290  26 -2.982502E+05 -1.924594E+04  3.317915E+04 -1.387048E+05  4.671743E+03 -6.441501E+03
       290  27 -3.240763E+05 -3.606017E+04  2.589599E+04 -1.532576E+05  3.545235E+03 -4.824534E+03
       291   1 -5.130947E+05 -1.064466E+05 -2.038002E+04 -2.050351E+05 -1.408872E+02  4.912267E+03
       291   2 -4.871825E+05 -8.958062E+04 -1.304106E+04 -1.904466E+05  9.719194E+02  3.285694E+03
       291   3 -4.507757E+05 -8.331918E+04 -6.038863E+03 -1.879723E+05  2.084714E+03  1.658727E+03
       291   4 -4.322965E+05 -7.637564E+04 -7.055363E+02 -1.828941E+05 -1.589317E+03  4.369098E+03
       291   5 -4.375440E+05 -7.108068E+04 -8.838513E+02 -1.768339E+05 -4.768083E+02  2.742472E+03
       291   6 -4.322978E+05 -7.639028E+04 -1.398650E+03 -1.828883E+05  6.356665E+02  1.115444E+03
       291   7 -3.514922E+05 -4.630436E+04  1.896836E+04 -1.607505E+05 -3.037945E+03  3.825854E+03
       291   8 -3.879031E+05 -5.258057E+04  1.127318E+04 -1.632202E+05 -1.925662E+03  2.199203E+03
       291   9 -4.138196E+05 -6.946132E+04  3.241569E+03 -1.778040E+05 -8.134351E+02  5.721410E+02
       291  10 -5.130947E+05 -1.064466E+05 -2.038006E+04 -2.050351E+05  5.190098E-11  6.324882E-11
       291  11 -4.871825E+05 -8.958063E+04 -1.304108E+04 -1.904466E+05 -1.763408E-10 -3.244737E-11
       291  12 -4.507757E+05 -8.331919E+04 -6.038877E+03 -1.879723E+05 -1.764649E-10 -4.329892E-11
       291  13 -4.322965E+05 -7.637566E+04 -7.055769E+02 -1.828940E+05 -3.486229E-10  4.402123E-11
       291  14 -4.375440E+05 -7.108068E+04 -8.838658E+02 -1.768339E+05 -2.564043E-10 -1.139540E-10
       291  15 -4.322978E+05 -7.639028E+04 -1.398653E+03 -1.828883E+05  7.238477E-11 -4.075964E-11
       291  16 -3.514922E+05 -4.630437E+04  1.896832E+04 -1.607505E+05 -3.829887E-10  1.214846E-10
       291  17 -3.879031E+05 -5.258057E+04  1.127317E+04 -1.632202E+05 -1.890385E-10 -1.750199E-10
       291  18 -4.138196E+05 -6.946132E+04  3.241568E+03 -1.778040E+05  3.525055E-10 -2.370521E-11
       291  19 -5.130947E+05 -1.064466E+05 -2.038002E+04 -2.050351E+05  1.408872E+02 -4.912267E+03
       291  20 -4.871825E+05 -8.958062E+04 -1.304106E+04 -1.904466E+05 -9.719194E+02 -3.285694E+03
       291  21 -4.507757E+05 -8.331918E+04 -6.038863E+03 -1.879723E+05 -2.084714E+03 -1.658727E+03
       291  22 -4.322965E+05 -7.637564E+04 -7.055363E+02 -1.828941E+05  1.589317E+03 -4.369098E+03
       291  23 -4.375440E+05 -7.108068E+04 -8.838513E+02 -1.768339E+05  4.768083E+02 -2.742472E+03
       291  24 -4.322978E+05 -7.639028E+04 -1.398650E+03 -1.828883E+05 -6.356665E+02 -1.115444E+03
       291  25 -3.514922E+05 -4.630436E+04  1.896836E+04 -1.607505E+05  3.037945E+03 -3.825854E+03
       291  26 -3.879031E+05 -5.258057E+04  1.127318E+04 -1.632202E+05  1.925662E+03 -2.199203E+03
       291  27 -4.138196E+05 -6.946132E+04  3.241569E+03 -1.778040E+05  8.134351E+02 -5.721410E+02
       292   1 -4.233140E+05 -7.308195E+04  4.978650E+02 -1.805722E+05  2.745461E+03  7.140407E+02
       292   2 -3.973178E+05 -5.613382E+04  6.642748E+03 -1.658808E+05  4.996734E+03 -4.835864E+02
       292   3 -3.611415E+05 -5.024785E+04  1.148387E+04 -1.632422E+05  7.242263E+03 -1.665428E+03
       292   4 -4.323489E+05 -7.635555E+04 -1.805516E+03 -1.829260E+05  1.291745E+03  1.690102E+02
       292   5 -4.374670E+05 -7.102995E+04 -3.179342E+03 -1.768221E+05  3.555619E+03 -1.023941E+03
       292   6 -4.324084E+05 -7.676911E+04 -5.866932E+03 -1.827715E+05  5.813656E+03 -2.201134E+03
       292   7 -4.413836E+05 -7.962915E+04 -4.108895E+03 -1.852796E+05 -1.619474E+02 -3.760121E+02
       292   8 -4.776145E+05 -8.592594E+04 -1.300152E+04 -1.877627E+05  2.114609E+03 -1.564257E+03
       292   9 -5.036700E+05 -1.032899E+05 -2.321801E+04 -2.022987E+05  4.385235E+03 -2.736771E+03
       292  10 -4.233140E+05 -7.308195E+04  4.978499E+02 -1.805722E+05  7.767065E-11 -2.107040E-11
       292  11 -3.973178E+05 -5.613382E+04  6.642701E+03 -1.658808E+05 -9.069296E-11 -5.445189E-11
       292  12 -3.611415E+05 -5.024787E+04  1.148377E+04 -1.632422E+05 -8.995620E-11  1.476980E-10
       292  13 -4.323489E+05 -7.635555E+04 -1.805520E+03 -1.829260E+05 -2.530966E-10 -5.063109E-11
       292  14 -4.374670E+05 -7.102995E+04 -3.179368E+03 -1.768221E+05 -5.842204E-11 -1.706954E-10
       292  15 -4.324084E+05 -7.676912E+04 -5.867005E+03 -1.827715E+05  2.838372E-11  7.970587E-12
       292  16 -4.413836E+05 -7.962915E+04 -4.108895E+03 -1.852796E+05 -3.543221E-11 -4.174706E-11
       292  17 -4.776145E+05 -8.592594E+04 -1.300153E+04 -1.877627E+05 -1.741723E-10 -1.931930E-10
       292  18 -5.036700E+05 -1.032899E+05 -2.321806E+04 -2.022987E+05 -1.140284E-10 -4.049302E-11
       292  19 -4.233140E+05 -7.308195E+04  4.978650E+02 -1.805722E+05 -2.745461E+03 -7.140407E+02
       292  20 -3.973178E+05 -5.613382E+04  6.642748E+03 -1.658808E+05 -4.996734E+03  4.835864E+02
       292  21 -3.611415E+05 -5.024785E+04  1.148387E+04 -1.632422E+05 -7.242263E+03  1.665428E+03
       292  22 -4.323489E+05 -7.635555E+04 -1.805516E+03 -1.829260E+05 -1.291745E+03 -1.690102E+02
       292  23 -4.374670E+05 -7.102995E+04 -3.179342E+03 -1.768221E+05 -3.555619E+03  1.023941E+03
       292  24 -4.324084E+05 -7.676911E+04 -5.866932E+03 -1.827715E+05 -5.813656E+03  2.201134E+03
       292  25 -4.413836E+05 -7.962915E+04 -4.108895E+03 -1.852796E+05  1.619474E+02  3.760121E+02
       292  26 -4.776145E+05 -8.592594E+04 -1.300152E+04 -1.877627E+05 -2.114609E+03  1.564257E+03
       292  27 -5.036700E+05 -1.032899E+05 -2.321801E+04 -2.022987E+05 -4.385235E+03  2.736771E+03
       293   1 -3.332769E+05 -4.015656E+04  1.657992E+04 -1.571747E+05  8.830282E+03 -2.298416E+03
       293   2 -3.074603E+05 -2.188154E+04  1.801060E+04 -1.406778E+05  1.623121E+04 -1.488286E+03
       293   3 -2.746385E+05 -2.127218E+04  1.249199E+04 -1.346571E+05  2.350855E+04 -3.463166E+02
       293   4 -4.328212E+05 -7.608010E+04 -7.688417E+03 -1.832347E+05  7.302292E+03 -2.871436E+03
       293   5 -4.367794E+05 -7.063545E+04 -1.378769E+04 -1.767163E+05  1.496984E+04 -1.961509E+03
       293   6 -4.337876E+05 -8.291110E+04 -2.704903E+04 -1.806750E+05  2.251342E+04 -7.198825E+02
       293   7 -5.323562E+05 -1.120033E+05 -3.195761E+04 -2.092911E+05  5.774562E+03 -3.444367E+03
       293   8 -5.660823E+05 -1.193882E+05 -4.558734E+04 -2.127480E+05  1.370875E+04 -2.434622E+03
       293   9 -5.929118E+05 -1.445478E+05 -6.659202E+04 -2.266820E+05  2.151857E+04 -1.093335E+03
       293  10 -3.332770E+05 -4.015658E+04  1.657976E+04 -1.571747E+05 -1.877018E-10  5.678139E-11
       293  11 -3.074606E+05 -2.188161E+04  1.801010E+04 -1.406778E+05  8.981201E-11  2.580268E-11
       293  12 -2.746391E+05 -2.127233E+04  1.249095E+04 -1.346571E+05 -1.205133E-10  9.047248E-11
       293  13 -4.328212E+05 -7.608012E+04 -7.688532E+03 -1.832347E+05 -6.702840E-11  5.260614E-11
       293  14 -4.367797E+05 -7.063552E+04 -1.378812E+04 -1.767163E+05 -2.146867E-10  5.949012E-11
       293  15 -4.337881E+05 -8.291123E+04 -2.704998E+04 -1.806750E+05 -2.555413E-10  1.898947E-10
       293  16 -5.323562E+05 -1.120033E+05 -3.195770E+04 -2.092911E+05 -2.650474E-10 -4.982844E-11
       293  17 -5.660825E+05 -1.193883E+05 -4.558770E+04 -2.127480E+05 -1.660280E-10  7.949716E-11
       293  18 -5.929123E+05 -1.445479E+05 -6.659289E+04 -2.266820E+05 -2.391224E-10  1.223509E-10
       293  19 -3.332769E+05 -4.015656E+04  1.657992E+04 -1.571747E+05 -8.830282E+03  2.298416E+03
       293  20 -3.074603E+05 -2.188154E+04  1.801060E+04 -1.406778E+05 -1.623121E+04  1.488286E+03
       293  21 -2.746385E+05 -2.127218E+04  1.249199E+04 -1.346571E+05 -2.350855E+04  3.463166E+02
       293  22 -4.328212E+05 -7.608010E+04 -7.688417E+03 -1.832347E+05 -7.302292E+03  2.871436E+03
       293  23 -4.367794E+05 -7.063545E+04 -1.378769E+04 -1.767163E+05 -1.496984E+04  1.961509E+03
       293  24 -4.337876E+05 -8.291110E+04 -2.704903E+04 -1.806750E+05 -2.251342E+04  7.198825E+02
       293  25 -5.323562E+05 -1.120033E+05 -3.195761E+04 -2.092911E+05 -5.774562E+03  3.444367E+03
       293  26 -5.660823E+05 -1.193882E+05 -4.558734E+04 -2.127480E+05 -1.370875E+04  2.434622E+03
       293  27 -5.929118E+05 -1.445478E+05 -6.659202E+04 -2.266820E+05 -2.151857E+04  1.093335E+03
       294   1 -2.388932E+05 -1.283320E+04  1.204109E+04 -1.483042E+05  3.077692E+04  3.347260E+02
       294   2 -2.209443E+05  2.644442E+04 -5.155468E+03 -1.027658E+05  5.707203E+04  9.812152E+03
       294   3 -2.357349E+05 -4.992701E+04 -7.068662E+04 -4.171076E+04  8.067094E+04  2.647939E+04
       294   4 -4.382165E+05 -7.192790E+04 -3.399427E+04 -1.872831E+05  2.758791E+04 -8.610844E+02
       294   5 -4.286936E+05 -6.616919E+04 -5.938132E+04 -1.752879E+05  5.968546E+04  1.079091E+04
       294   6 -4.530781E+05 -1.772370E+05 -1.377150E+05 -1.477741E+05  8.908546E+04  2.963036E+04
       294   7 -6.375004E+05 -1.310229E+05 -8.003207E+04 -2.262522E+05  2.440002E+04 -2.056670E+03
       294   8 -6.363982E+05 -1.587736E+05 -1.136103E+05 -2.477856E+05  6.229792E+04  1.176915E+04
       294   9 -6.703669E+05 -3.045179E+05 -2.047463E+05 -2.537958E+05  9.749666E+04  3.277852E+04
       294  10 -2.388942E+05 -1.283345E+04  1.203931E+04 -1.483042E+05  6.408485E-11  1.800422E-10
       294  11 -2.209478E+05  2.644344E+04 -5.161773E+03 -1.027662E+05  1.932218E-10 -1.153401E-11
       294  12 -2.357421E+05 -4.992951E+04 -7.070017E+04 -4.171249E+04 -2.051585E-10 -1.260479E-10
       294  13 -4.382174E+05 -7.192811E+04 -3.399570E+04 -1.872831E+05 -2.191814E-10  1.459319E-10
       294  14 -4.286975E+05 -6.617028E+04 -5.938824E+04 -1.752884E+05  3.547363E-11  2.320087E-11
       294  15 -4.530869E+05 -1.772401E+05 -1.377315E+05 -1.477763E+05 -8.681972E-11 -6.012485E-12
       294  16 -6.375010E+05 -1.310230E+05 -8.003320E+04 -2.262521E+05 -3.608506E-10  3.969131E-11
       294  17 -6.364024E+05 -1.587748E+05 -1.136178E+05 -2.477862E+05  2.201825E-10 -9.342596E-12
       294  18 -6.703774E+05 -3.045216E+05 -2.047662E+05 -2.537984E+05  5.727626E-11  1.704634E-11
       294  19 -2.388932E+05 -1.283320E+04  1.204109E+04 -1.483042E+05 -3.077692E+04 -3.347260E+02
       294  20 -2.209443E+05  2.644442E+04 -5.155468E+03 -1.027658E+05 -5.707203E+04 -9.812152E+03
       294  21 -2.357349E+05 -4.992701E+04 -7.068662E+04 -4.171076E+04 -8.067094E+04 -2.647939E+04
       294  22 -4.382165E+05 -7.192790E+04 -3.399427E+04 -1.872831E+05 -2.758791E+04  8.610844E+02
       294  23 -4.286936E+05 -6.616919E+04 -5.938132E+04 -1.752879E+05 -5.968546E+04 -1.079091E+04
       294  24 -4.530781E+05 -1.772370E+05 -1.377150E+05 -1.477741E+05 -8.908546E+04 -2.963036E+04
       294  25 -6.375004E+05 -1.310229E+05 -8.003207E+04 -2.262522E+05 -2.440002E+04  2.056670E+03
       294  26 -6.363982E+05 -1.587736E+05 -1.136103E+05 -2.477856E+05 -6.229792E+04 -1.176915E+04
       294  27 -6.703669E+05 -3.045179E+05 -2.047463E+05 -2.537958E+05 -9.749666E+04 -3.277852E+04
       295   1 -5.407965E+05 -1.371282E+05 -1.116277E+05 -1.424060E+04  4.757730E+04  1.200012E+04
       295   2 -4.590251E+05 -2.087598E+05 -1.372319E+05 -2.330067E+04  4.081194E+04  3.721029E+04
       295   3 -3.531236E+05 -1.887536E+05 -1.354554E+05 -7.230121E+04  3.406150E+04  3.780881E+04
       295   4  3.986379E+05  9.632919E+04  1.165088E+05 -5.823694E+04  8.005709E+04  1.201617E+04
       295   5  3.847796E+05 -1.990060E+03  5.280710E+04 -3.824719E+04  5.200767E+04  3.720967E+04
       295   6  3.987010E+05 -5.047041E+03  3.123214E+04 -5.819222E+04  2.397560E+04  3.780585E+04
       295   7  1.338885E+06  3.297297E+05  3.445865E+05 -1.023002E+05  1.125859E+05  1.202760E+04
       295   8  1.229247E+06  2.047318E+05  2.428013E+05 -5.321429E+04  6.321843E+04  3.720850E+04
       295   9  1.151054E+06  1.786221E+05  1.978851E+05 -4.406594E+04  1.387760E+04  3.780243E+04
       295  10 -5.407989E+05 -1.371290E+05 -1.116322E+05 -1.424106E+04  3.670085E-10  1.817260E-10
       295  11 -4.590273E+05 -2.087617E+05 -1.372377E+05 -2.330189E+04 -4.843525E-10 -5.080223E-11
       295  12 -3.531252E+05 -1.887554E+05 -1.354603E+05 -7.230224E+04  1.483929E-10 -2.496258E-10
       295  13  3.986310E+05  9.632732E+04  1.164965E+05 -5.823771E+04  2.333948E-10 -1.866859E-10
       295  14  3.847763E+05 -1.992273E+03  5.279942E+04 -3.824875E+04 -5.274496E-10 -6.130367E-13
       295  15  3.987000E+05 -5.048730E+03  3.122838E+04 -5.819295E+04  3.575243E-10 -1.126007E-10
       295  16  1.338871E+06  3.297261E+05  3.445625E+05 -1.023013E+05  1.110025E-10  2.518428E-10
       295  17  1.229243E+06  2.047292E+05  2.427912E+05 -5.321618E+04 -1.186494E-10 -2.810069E-10
       295  18  1.151053E+06  1.786205E+05  1.978821E+05 -4.406636E+04  8.853005E-11  2.619709E-11
       295  19 -5.407965E+05 -1.371282E+05 -1.116277E+05 -1.424060E+04 -4.757730E+04 -1.200012E+04
       295  20 -4.590251E+05 -2.087598E+05 -1.372319E+05 -2.330067E+04 -4.081194E+04 -3.721029E+04
       295  21 -3.531236E+05 -1.887536E+05 -1.354554E+05 -7.230121E+04 -3.406150E+04 -3.780881E+04
       295  22  3.986379E+05  9.632919E+04  1.165088E+05 -5.823694E+04 -8.005709E+04 -1.201617E+04
       295  23  3.847796E+05 -1.990060E+03  5.280710E+04 -3.824719E+04 -5.200767E+04 -3.720967E+04
       295  24  3.987010E+05 -5.047041E+03  3.123214E+04 -5.819222E+04 -2.397560E+04 -3.780585E+04
       295  25  1.338885E+06  3.297297E+05  3.445865E+05 -1.023002E+05 -1.125859E+05 -1.202760E+04
       295  26  1.229247E+06  2.047318E+05  2.428013E+05 -5.321429E+04 -6.321843E+04 -3.720850E+04
       295  27  1.151054E+06  1.786221E+05  1.978851E+05 -4.406594E+04 -1.387760E+04 -3.780243E+04
       296   1 -2.795464E+05 -1.588867E+05 -1.249843E+05 -5.635326E+04  2.226605E+04  3.247166E+04
       296   2 -1.875889E+05 -1.419220E+05 -1.153026E+05 -3.744506E+04  1.647804E+04  2.870513E+04
       296   3 -9.332248E+04 -1.192200E+05 -1.003911E+05 -5.924354E+04  1.068532E+04  2.384576E+04
       296   4  3.930970E+05  5.615397E+03  2.490225E+04 -5.837344E+04  1.949831E+04  3.246934E+04
       296   5  3.918829E+05 -2.962506E+02  1.340212E+04 -3.802215E+04  1.275954E+04  2.870427E+04
       296   6  3.931302E+05 -3.089982E+02  7.787204E+03 -5.837497E+04  6.016887E+03  2.384682E+04
       296   7  1.066162E+06  1.700868E+05  1.747605E+05 -6.039580E+04  1.672760E+04  3.246705E+04
       296   8  9.716680E+05  1.413068E+05  1.420860E+05 -3.859976E+04  9.037593E+03  2.870341E+04
       296   9  8.798037E+05  1.185860E+05  1.159508E+05 -5.750568E+04  1.344832E+03  2.384787E+04
       296  10 -2.795472E+05 -1.588880E+05 -1.249872E+05 -5.635384E+04  8.462767E-11 -2.829785E-10
       296  11 -1.875894E+05 -1.419229E+05 -1.153047E+05 -3.744544E+04  1.145744E-10 -1.972778E-10
       296  12 -9.332276E+04 -1.192207E+05 -1.003924E+05 -5.924374E+04  2.728535E-10  4.106513E-10
       296  13  3.930963E+05  5.614163E+03  2.489955E+04 -5.837395E+04 -3.311870E-10 -1.751689E-10
       296  14  3.918825E+05 -2.971792E+02  1.340027E+04 -3.802245E+04  4.689730E-10 -5.968967E-10
       296  15  3.931300E+05 -3.096187E+02  7.786067E+03 -5.837509E+04  1.619859E-10  1.765883E-10
       296  16  1.066162E+06  1.700856E+05  1.747580E+05 -6.039624E+04 -5.534499E-11  6.048286E-11
       296  17  9.716677E+05  1.413059E+05  1.420843E+05 -3.859997E+04  2.849405E-10 -2.250574E-10
       296  18  8.798035E+05  1.185854E+05  1.159498E+05 -5.750570E+04  3.162343E-10  2.667524E-11
       296  19 -2.795464E+05 -1.588867E+05 -1.249843E+05 -5.635326E+04 -2.226605E+04 -3.247166E+04
       296  20 -1.875889E+05 -1.419220E+05 -1.153026E+05 -3.744506E+04 -1.647804E+04 -2.870513E+04
       296  21 -9.332248E+04 -1.192200E+05 -1.003911E+05 -5.924354E+04 -1.068532E+04 -2.384576E+04
       296  22  3.930970E+05  5.615397E+03  2.490225E+04 -5.837344E+04 -1.949831E+04 -3.246934E+04
       296  23  3.918829E+05 -2.962506E+02  1.340212E+04 -3.802215E+04 -1.275954E+04 -2.870427E+04
       296  24  3.931302E+05 -3.089982E+02  7.787204E+03 -5.837497E+04 -6.016887E+03 -2.384682E+04
       296  25  1.066162E+06  1.700868E+05  1.747605E+05 -6.039580E+04 -1.672760E+04 -3.246705E+04
       296  26  9.716680E+05  1.413068E+05  1.420860E+05 -3.859976E+04 -9.037593E+03 -2.870341E+04
       296  27  8.798037E+05  1.185860E+05  1.159508E+05 -5.750568E+04 -1.344832E+03 -2.384787E+04
       297   1 -1.540140E+04 -9.934000E+04 -8.432232E+04 -5.824198E+04  9.139109E+03  2.076679E+04
       297   2  7.726467E+04 -7.704549E+04 -6.651526E+04 -3.797533E+04  7.474432E+03  1.572259E+04
       297   3  1.702350E+05 -5.434148E+04 -4.752795E+04 -5.832253E+04  5.807336E+03  1.063316E+04
       297   4  3.926665E+05  3.204695E+02  5.990176E+03 -5.835412E+04  4.801599E+03  2.076842E+04
       297   5  3.925238E+05 -1.968934E+01  3.432822E+03 -3.804793E+04  3.096527E+03  1.572507E+04
       297   6  3.926838E+05  5.693858E+01  2.083342E+03 -5.835435E+04  1.389279E+03  1.063654E+04
       297   7  8.008900E+05  9.996973E+04  9.629245E+04 -5.846629E+04  4.612696E+02  2.077006E+04
       297   8  7.078757E+05  7.699941E+04  7.337480E+04 -3.812056E+04 -1.283576E+03  1.572755E+04
       297   9  6.151788E+05  5.445201E+04  5.169160E+04 -5.838617E+04 -3.030343E+03  1.063991E+04
       297  10 -1.540161E+04 -9.934049E+04 -8.432329E+04 -5.824213E+04  8.307666E-10  1.023196E-10
       297  11  7.726455E+04 -7.704577E+04 -6.651583E+04 -3.797542E+04  2.468288E-10 -5.509397E-11
       297  12  1.702349E+05 -5.434161E+04 -4.752822E+04 -5.832258E+04 -3.844450E-10 -4.480974E-10
       297  13  3.926664E+05  3.200000E+02  5.989322E+03 -5.835420E+04  2.778052E-10  2.186408E-10
       297  14  3.925237E+05 -1.995750E+01  3.432339E+03 -3.804797E+04  3.274925E-10  3.073808E-10
       297  15  3.926838E+05  5.681655E+01  2.083126E+03 -5.835437E+04 -3.545613E-12  3.746158E-10
       297  16  8.008899E+05  9.996926E+04  9.629164E+04 -5.846630E+04 -3.102617E-11  2.672616E-10
       297  17  7.078756E+05  7.699915E+04  7.337434E+04 -3.812055E+04  3.119349E-10 -3.185534E-10
       297  18  6.151787E+05  5.445189E+04  5.169137E+04 -5.838615E+04 -1.999203E-10 -5.588802E-10
       297  19 -1.540140E+04 -9.934000E+04 -8.432232E+04 -5.824198E+04 -9.139109E+03 -2.076679E+04
       297  20  7.726467E+04 -7.704549E+04 -6.651526E+04 -3.797533E+04 -7.474432E+03 -1.572259E+04
       297  21  1.702350E+05 -5.434148E+04 -4.752795E+04 -5.832253E+04 -5.807336E+03 -1.063316E+04
       297  22  3.926665E+05  3.204695E+02  5.990176E+03 -5.835412E+04 -4.801599E+03 -2.076842E+04
       297  23  3.925238E+05 -1.968934E+01  3.432822E+03 -3.804793E+04 -3.096527E+03 -1.572507E+04
       297  24  3.926838E+05  5.693858E+01  2.083342E+03 -5.835435E+04 -1.389279E+03 -1.063654E+04
       297  25  8.008900E+05  9.996973E+04  9.629245E+04 -5.846629E+04 -4.612696E+02 -2.077006E+04
       297  26  7.078757E+05  7.699941E+04  7.337480E+04 -3.812056E+04  1.283576E+03 -1.572755E+04
       297  27  6.151788E+05  5.445201E+04  5.169160E+04 -5.838617E+04  3.030343E+03 -1.063991E+04
       298   1  2.483795E+05 -3.509643E+04 -3.006948E+04 -5.829734E+04  5.449896E+03  7.661533E+03
       298   2  3.410755E+05 -1.254447E+04 -1.024336E+04 -3.804909E+04  4.859224E+03  2.568056E+03
       298   3  4.337986E+05  1.009161E+04  9.968838E+03 -5.836074E+04  4.268121E+03 -2.526928E+03
       298   4  3.926277E+05  9.046324E+01  1.667540E+03 -5.834253E+04  1.047940E+03  7.665204E+03
       298   5  3.926188E+05  4.670787E+01  1.190268E+03 -3.806269E+04  4.555938E+02  2.571850E+03
       298   6  3.926305E+05  8.821043E+01  1.100814E+03 -5.834254E+04 -1.370975E+02 -2.522978E+03
       298   7  5.368954E+05  3.527598E+04  3.340336E+04 -5.838772E+04 -3.355026E+03  7.668874E+03
       298   8  4.441646E+05  1.263772E+04  1.262380E+04 -3.807629E+04 -3.948398E+03  2.575645E+03
       298   9  3.514641E+05 -9.915288E+03 -7.767236E+03 -5.832434E+04 -4.542029E+03 -2.519028E+03
       298  10  2.483794E+05 -3.509651E+04 -3.006964E+04 -5.829737E+04  6.680110E-11 -8.585857E-11
       298  11  3.410755E+05 -1.254449E+04 -1.024341E+04 -3.804910E+04  5.855581E-10 -1.404211E-10
       298  12  4.337986E+05  1.009160E+04  9.968792E+03 -5.836073E+04  9.404076E-11 -1.550580E-10
       298  13  3.926277E+05  9.039984E+01  1.667428E+03 -5.834253E+04  8.730528E-11 -8.053907E-10
       298  14  3.926188E+05  4.670071E+01  1.190255E+03 -3.806269E+04 -1.352355E-10  1.268703E-10
       298  15  3.926305E+05  8.820359E+01  1.100802E+03 -5.834254E+04 -1.495358E-10 -2.227456E-10
       298  16  5.368954E+05  3.527591E+04  3.340323E+04 -5.838770E+04 -6.206101E-11 -2.552665E-10
       298  17  4.441646E+05  1.263771E+04  1.262376E+04 -3.807628E+04 -4.295082E-10 -7.453115E-11
       298  18  3.514640E+05 -9.915300E+03 -7.767287E+03 -5.832435E+04 -1.362790E-10 -3.562000E-10
       298  19  2.483795E+05 -3.509643E+04 -3.006948E+04 -5.829734E+04 -5.449896E+03 -7.661533E+03
       298  20  3.410755E+05 -1.254447E+04 -1.024336E+04 -3.804909E+04 -4.859224E+03 -2.568056E+03
       298  21  4.337986E+05  1.009161E+04  9.968838E+03 -5.836074E+04 -4.268121E+03  2.526928E+03
       298  22  3.926277E+05  9.046324E+01  1.667540E+03 -5.834253E+04 -1.047940E+03 -7.665204E+03
       298  23  3.926188E+05  4.670787E+01  1.190268E+03 -3.806269E+04 -4.555938E+02 -2.571850E+03
       298  24  3.926305E+05  8.821043E+01  1.100814E+03 -5.834254E+04  1.370975E+02  2.522978E+03
       298  25  5.368954E+05  3.527598E+04  3.340336E+04 -5.838772E+04  3.355026E+03 -7.668874E+03
       298  26  4.441646E+05  1.263772E+04  1.262380E+04 -3.807629E+04  3.948398E+03 -2.575645E+03
       298  27  3.514641E+05 -9.915288E+03 -7.767236E+03 -5.832434E+04  4.542029E+03  2.519028E+03
       299   1  5.119991E+05  2.929456E+04  2.792066E+04 -5.841018E+04  4.059036E+03 -5.492857E+03
       299   2  6.047363E+05  5.184041E+04  4.868031E+04 -3.812715E+04  3.248899E+03 -1.058890E+04
       299   3  6.975586E+05  7.448350E+04  6.997732E+04 -5.842526E+04  2.440085E+03 -1.568517E+04
       299   4  3.926399E+05  8.749020E+01  1.183791E+03 -5.834750E+04 -3.473852E+02 -5.489041E+03
       299   5  3.925963E+05  2.642123E+01  1.630199E+03 -3.805650E+04 -1.157805E+03 -1.058567E+04
       299   6  3.926284E+05  6.284174E+01  2.614261E+03 -5.834748E+04 -1.966784E+03 -1.568250E+04
       299   7  2.732939E+05 -2.912054E+04 -2.555391E+04 -5.828482E+04 -4.752969E+03 -5.485226E+03
       299   8  1.804983E+05 -5.179060E+04 -4.542263E+04 -3.798586E+04 -5.563021E+03 -1.058245E+04
       299   9  8.778500E+04 -7.436406E+04 -6.475446E+04 -5.826973E+04 -6.371515E+03 -1.567982E+04
       299  10  5.119991E+05  2.929452E+04  2.792057E+04 -5.841016E+04  2.759032E-10  5.343286E-10
       299  11  6.047363E+05  5.184029E+04  4.868008E+04 -3.812713E+04  5.890089E-10  1.068829E-09
       299  12  6.975586E+05  7.448323E+04  6.997685E+04 -5.842523E+04  8.178518E-10 -6.595937E-10
       299  13  3.926399E+05  8.745781E+01  1.183734E+03 -5.834750E+04 -1.676131E-11  1.323545E-10
       299  14  3.925963E+05  2.630052E+01  1.629986E+03 -3.805651E+04 -5.120979E-10 -6.377916E-10
       299  15  3.926283E+05  6.257655E+01  2.613791E+03 -5.834751E+04 -5.063294E-10  3.570876E-11
       299  16  2.732939E+05 -2.912058E+04 -2.555400E+04 -5.828484E+04  2.439453E-10  9.544201E-11
       299  17  1.804982E+05 -5.179073E+04 -4.542290E+04 -3.798590E+04 -8.358157E-10 -6.270716E-10
       299  18  8.778489E+04 -7.436433E+04 -6.475499E+04 -5.826981E+04 -1.025365E-09 -1.083701E-10
       299  19  5.119991E+05  2.929456E+04  2.792066E+04 -5.841018E+04 -4.059036E+03  5.492857E+03
       299  20  6.047363E+05  5.184041E+04  4.868031E+04 -3.812715E+04 -3.248899E+03  1.058890E+04
       299  21  6.975586E+05  7.448350E+04  6.997732E+04 -5.842526E+04 -2.440085E+03  1.568517E+04
       299  22  3.926399E+05  8.749020E+01  1.183791E+03 -5.834750E+04  3.473852E+02  5.489041E+03
       299  23  3.925963E+05  2.642123E+01  1.630199E+03 -3.805650E+04  1.157805E+03  1.058567E+04
       299  24  3.926284E+05  6.284174E+01  2.614261E+03 -5.834748E+04  1.966784E+03  1.568250E+04
       299  25  2.732939E+05 -2.912054E+04 -2.555391E+04 -5.828482E+04  4.752969E+03  5.485226E+03
       299  26  1.804983E+05 -5.179060E+04 -4.542263E+04 -3.798586E+04  5.563021E+03  1.058245E+04
       299  27  8.778500E+04 -7.436406E+04 -6.475446E+04 -5.826973E+04  6.371515E+03  1.567982E+04
       300   1  7.759898E+05  9.365783E+04  8.863442E+04 -5.837132E+04  1.917801E+03 -1.866017E+04
       300   2  8.687168E+05  1.162181E+05  1.113783E+05 -3.803839E+04 -9.858981E+02 -2.375335E+04
       300   3  9.620451E+05  1.394500E+05  1.361870E+05 -5.838703E+04 -3.886760E+03 -2.879556E+04
       300   4  3.927294E+05  6.222140E+00  3.379342E+03 -5.837012E+04 -2.509676E+03 -1.865806E+04
       300   5  3.924233E+05 -9.645371E+01  5.753268E+03 -3.802823E+04 -5.367609E+03 -2.375256E+04
       300   6  3.927032E+05  4.656185E+02  1.016193E+04 -5.836982E+04 -8.222281E+03 -2.879604E+04
       300   7  9.605847E+03 -9.365532E+04 -8.188483E+04 -5.836889E+04 -6.934453E+03 -1.865595E+04
       300   8 -8.365866E+04 -1.164263E+05 -9.988574E+04 -3.801804E+04 -9.746000E+03 -2.375178E+04
       300   9 -1.763364E+05 -1.385406E+05 -1.158831E+05 -5.835259E+04 -1.255387E+04 -2.879653E+04
       300  10  7.759897E+05  9.365746E+04  8.863376E+04 -5.837129E+04  7.056437E-10 -8.244097E-10
       300  11  8.687166E+05  1.162175E+05  1.113772E+05 -3.803840E+04  5.334144E-10 -1.049016E-10
       300  12  9.620449E+05  1.394491E+05  1.361854E+05 -5.838712E+04 -1.837597E-10  1.672392E-10
       300  13  3.927293E+05  5.846553E+00  3.378676E+03 -5.837015E+04 -3.359210E-10 -1.718506E-10
       300  14  3.924231E+05 -9.706739E+01  5.752153E+03 -3.802833E+04  4.136325E-11 -4.321065E-10
       300  15  3.927029E+05  4.647098E+02  1.016024E+04 -5.837001E+04 -2.481056E-10 -3.147805E-11
       300  16  9.605701E+03 -9.365571E+04 -8.188557E+04 -5.836899E+04 -2.710590E-10  1.540181E-10
       300  17 -8.365891E+04 -1.164269E+05 -9.988698E+04 -3.801823E+04 -2.603056E-11  5.890473E-10
       300  18 -1.763367E+05 -1.385415E+05 -1.158850E+05 -5.835288E+04 -3.412235E-10  8.446764E-11
       300  19  7.759898E+05  9.365783E+04  8.863442E+04 -5.837132E+04 -1.917801E+03  1.866017E+04
       300  20  8.687168E+05  1.162181E+05  1.113783E+05 -3.803839E+04  9.858981E+02  2.375335E+04
       300  21  9.620451E+05  1.394500E+05  1.361870E+05 -5.838703E+04  3.886760E+03  2.879556E+04
       300  22  3.927294E+05  6.222140E+00  3.379342E+03 -5.837012E+04  2.509676E+03  1.865806E+04
       300  23  3.924233E+05 -9.645371E+01  5.753268E+03 -3.802823E+04  5.367609E+03  2.375256E+04
       300  24  3.927032E+05  4.656185E+02  1.016193E+04 -5.836982E+04  8.222281E+03  2.879604E+04
       300  25  9.605847E+03 -9.365532E+04 -8.188483E+04 -5.836889E+04  6.934453E+03  1.865595E+04
       300  26 -8.365866E+04 -1.164263E+05 -9.988574E+04 -3.801804E+04  9.746000E+03  2.375178E+04
       300  27 -1.763364E+05 -1.385406E+05 -1.158831E+05 -5.835259E+04  1.255387E+04  2.879653E+04
       301   1  1.041481E+06  1.576667E+05  1.571581E+05 -5.669558E+04 -5.561126E+03 -3.189799E+04
       301   2  1.132730E+06  1.805060E+05  1.873604E+05 -3.872405E+04 -1.816117E+04 -3.672806E+04
       301   3  1.228402E+06  2.135519E+05  2.283559E+05 -6.156902E+04 -3.075870E+04 -4.028747E+04
       301   4  3.934911E+05 -6.067027E+02  1.323972E+04 -5.839976E+04 -1.028376E+04 -3.189941E+04
       301   5  3.913545E+05 -5.420329E+02  2.284167E+04 -3.799078E+04 -2.177214E+04 -3.673151E+04
       301   6  3.934477E+05  9.544872E+03  4.247544E+04 -5.840095E+04 -3.325615E+04 -4.029232E+04
       301   7 -2.541074E+05 -1.589085E+05 -1.307047E+05 -6.010212E+04 -1.500152E+04 -3.190081E+04
       301   8 -3.495087E+05 -1.816272E+05 -1.417112E+05 -3.725838E+04 -2.537884E+04 -3.673497E+04
       301   9 -4.408576E+05 -1.945093E+05 -1.434485E+05 -5.523721E+04 -3.575027E+04 -4.029721E+04
       301  10  1.041481E+06  1.576656E+05  1.571561E+05 -5.669572E+04 -1.861349E-10  3.532431E-10
       301  11  1.132729E+06  1.805044E+05  1.873573E+05 -3.872459E+04 -1.936551E-11  9.327863E-11
       301  12  1.228401E+06  2.135499E+05  2.283510E+05 -6.157002E+04 -6.233273E-10  1.094556E-11
       301  13  3.934907E+05 -6.078240E+02  1.323760E+04 -5.840003E+04 -4.200320E-12  2.442564E-10
       301  14  3.913537E+05 -5.436092E+02  2.283824E+04 -3.799142E+04 -5.873424E-10 -4.985539E-11
       301  15  3.934461E+05  9.542831E+03  4.247031E+04 -5.840203E+04 -1.352934E-11 -7.861951E-11
       301  16 -2.541079E+05 -1.589097E+05 -1.307070E+05 -6.010250E+04 -7.035622E-10  1.305222E-10
       301  17 -3.495098E+05 -1.816288E+05 -1.417149E+05 -3.725913E+04 -3.906985E-10 -2.569026E-10
       301  18 -4.408594E+05 -1.945114E+05 -1.434540E+05 -5.523837E+04 -2.896760E-11 -2.981161E-11
       301  19  1.041481E+06  1.576667E+05  1.571581E+05 -5.669558E+04  5.561126E+03  3.189799E+04
       301  20  1.132730E+06  1.805060E+05  1.873604E+05 -3.872405E+04  1.816117E+04  3.672806E+04
       301  21  1.228402E+06  2.135519E+05  2.283559E+05 -6.156902E+04  3.075870E+04  4.028747E+04
       301  22  3.934911E+05 -6.067027E+02  1.323972E+04 -5.839976E+04  1.028376E+04  3.189941E+04
       301  23  3.913545E+05 -5.420329E+02  2.284167E+04 -3.799078E+04  2.177214E+04  3.673151E+04
       301  24  3.934477E+05  9.544872E+03  4.247544E+04 -5.840095E+04  3.325615E+04  4.029232E+04
       301  25 -2.541074E+05 -1.589085E+05 -1.307047E+05 -6.010212E+04  1.500152E+04  3.190081E+04
       301  26 -3.495087E+05 -1.816272E+05 -1.417112E+05 -3.725838E+04  2.537884E+04  3.673497E+04
       301  27 -4.408576E+05 -1.945093E+05 -1.434485E+05 -5.523721E+04  3.575027E+04  4.029721E+04
       302   1  1.317576E+06  2.146332E+05  2.558103E+05 -3.378401E+04 -2.984879E+04 -4.602562E+04
       302   2  1.386187E+06  2.430357E+05  3.165508E+05 -6.352345E+04 -1.025548E+05 -4.454065E+04
       302   3  1.506368E+06  4.380814E+05  4.663199E+05 -1.332979E+05 -1.753123E+05 -1.438915E+04
       302   4  4.029984E+05 -8.638865E+03  5.327588E+04 -5.818179E+04 -4.088980E+04 -4.603485E+04
       302   5  3.792953E+05 -3.371866E+03  9.011233E+04 -3.825126E+04 -8.872209E+04 -4.453805E+04
       302   6  4.029156E+05  1.643616E+05  1.988020E+05 -5.834847E+04 -1.365916E+05 -1.436554E+04
       302   7 -5.107977E+05 -2.319650E+05 -1.493096E+05 -8.254335E+04 -5.191472E+04 -4.604322E+04
       302   8 -6.266534E+05 -2.498462E+05 -1.363896E+05 -1.302057E+04 -7.491145E+04 -4.453434E+04
       302   9 -6.994116E+05 -1.094253E+05 -6.879496E+04  1.646733E+04 -9.793909E+04 -1.433260E+04
       302  10  1.317574E+06  2.146307E+05  2.558047E+05 -3.378512E+04 -6.235150E-10  3.613002E-10
       302  11  1.386176E+06  2.430307E+05  3.165273E+05 -6.352713E+04  4.541204E-11  3.368152E-10
       302  12  1.506335E+06  4.380730E+05  4.662619E+05 -1.332999E+05  3.714882E-10 -1.648599E-10
       302  13  4.029961E+05 -8.641589E+03  5.326875E+04 -5.818331E+04  1.239346E-10  7.900179E-10
       302  14  3.792864E+05 -3.376108E+03  9.009382E+04 -3.825445E+04  4.723084E-10  1.605986E-09
       302  15  4.028955E+05  1.643564E+05  1.987666E+05 -5.835005E+04 -7.501298E-10  8.546557E-11
       302  16 -5.108012E+05 -2.319680E+05 -1.493186E+05 -8.254528E+04 -5.591302E-11  2.125864E-10
       302  17 -6.266600E+05 -2.498498E+05 -1.364038E+05 -1.302326E+04 -3.447942E-10  2.488120E-10
       302  18 -6.994219E+05 -1.094281E+05 -6.881339E+04  1.646620E+04 -3.023270E-11 -4.606903E-10
       302  19  1.317576E+06  2.146332E+05  2.558103E+05 -3.378401E+04  2.984879E+04  4.602562E+04
       302  20  1.386187E+06  2.430357E+05  3.165508E+05 -6.352345E+04  1.025548E+05  4.454065E+04
       302  21  1.506368E+06  4.380814E+05  4.663199E+05 -1.332979E+05  1.753123E+05  1.438915E+04
       302  22  4.029984E+05 -8.638865E+03  5.327588E+04 -5.818179E+04  4.088980E+04  4.603485E+04
       302  23  3.792953E+05 -3.371866E+03  9.011233E+04 -3.825126E+04  8.872209E+04  4.453805E+04
       302  24  4.029156E+05  1.643616E+05  1.988020E+05 -5.834847E+04  1.365916E+05  1.436554E+04
       302  25 -5.107977E+05 -2.319650E+05 -1.493096E+05 -8.254335E+04  5.191472E+04  4.604322E+04
       302  26 -6.266534E+05 -2.498462E+05 -1.363896E+05 -1.302057E+04  7.491145E+04  4.453434E+04
       302  27 -6.994116E+05 -1.094253E+05 -6.879496E+04  1.646733E+04  9.793909E+04  1.433260E+04
       303   1  2.317844E+05  8.796735E+05  2.412989E+05 -1.665364E+05  7.018625E+03  7.041020E+04
       303   2  1.114658E+05  6.499650E+05  1.382970E+05 -9.993533E+04  1.896365E+04  3.541499E+04
       303   3  5.597124E+04  4.408811E+05  7.422512E+04 -1.283643E+05  1.156219E+04  4.113824E+02
       303   4  6.275035E+04  2.002140E+05  7.552390E+04 -1.371515E+05  7.043311E+03  5.171779E+04
       303   5 -1.012728E+03  1.913952E+05  3.439911E+04 -8.967485E+04  1.896761E+04  3.347397E+04
       303   6 -2.825501E+03  2.002772E+05  2.060691E+04 -1.372258E+05  1.154117E+04  1.520924E+04
       303   7 -1.063144E+05 -4.788225E+05 -9.028293E+04 -1.077987E+05  7.066247E+03  3.304574E+04
       303   8 -1.135053E+05 -2.669793E+05 -6.951232E+04 -7.942194E+04  1.897151E+04  3.153435E+04
       303   9 -6.162575E+04 -4.027214E+04 -3.301406E+04 -1.460838E+05  1.151973E+04  3.000143E+04
       303  10  2.317830E+05  8.796682E+05  2.412895E+05 -1.665368E+05 -5.340930E-11  1.844792E-10
       303  11  1.114650E+05  6.499635E+05  1.382940E+05 -9.993587E+04  1.170701E-10  6.003742E-10
       303  12  5.597110E+04  4.408810E+05  7.422487E+04 -1.283643E+05  7.336719E-10 -2.640730E-10
       303  13  6.274958E+04  2.002111E+05  7.551878E+04 -1.371518E+05  4.366876E-10 -2.997377E-10
       303  14 -1.013415E+03  1.913939E+05  3.439633E+04 -8.967536E+04 -1.105279E-09 -2.099546E-10
       303  15 -2.825706E+03  2.002769E+05  2.060622E+04 -1.372259E+05  6.992076E-10 -6.855133E-10
       303  16 -1.063147E+05 -4.788237E+05 -9.028508E+04 -1.077989E+05 -1.854261E-10 -1.704227E-10
       303  17 -1.135060E+05 -2.669804E+05 -6.951487E+04 -7.942243E+04  2.712798E-10 -5.851998E-10
       303  18 -6.162613E+04 -4.027314E+04 -3.301601E+04 -1.460840E+05 -1.131486E-10  2.511135E-10
       303  19  2.317844E+05  8.796735E+05  2.412989E+05 -1.665364E+05 -7.018625E+03 -7.041020E+04
       303  20  1.114658E+05  6.499650E+05  1.382970E+05 -9.993533E+04 -1.896365E+04 -3.541499E+04
       303  21  5.597124E+04  4.408811E+05  7.422512E+04 -1.283643E+05 -1.156219E+04 -4.113824E+02
       303  22  6.275035E+04  2.002140E+05  7.552390E+04 -1.371515E+05 -7.043311E+03 -5.171779E+04
       303  23 -1.012728E+03  1.913952E+05  3.439911E+04 -8.967485E+04 -1.896761E+04 -3.347397E+04
       303  24 -2.825501E+03  2.002772E+05  2.060691E+04 -1.372258E+05 -1.154117E+04 -1.520924E+04
       303  25 -1.063144E+05 -4.788225E+05 -9.028293E+04 -1.077987E+05 -7.066247E+03 -3.304574E+04
       303  26 -1.135053E+05 -2.669793E+05 -6.951232E+04 -7.942194E+04 -1.897151E+04 -3.153435E+04
       303  27 -6.162575E+04 -4.027214E+04 -3.301406E+04 -1.460838E+05 -1.151973E+04 -3.000143E+04
       304   1  1.757052E+04  2.519750E+05  2.899954E+04 -1.387863E+05  2.577822E+03  2.823510E+03
       304   2 -3.998869E+04  3.210623E+04 -2.683426E+04 -8.958492E+04 -8.102848E+03 -1.681047E+03
       304   3 -9.315222E+04 -1.863014E+05 -7.870764E+04 -1.361763E+05 -1.841642E+04 -6.181184E+03
       304   4  4.036393E+03  1.966823E+05  1.663170E+04 -1.373732E+05  2.564012E+03  1.221812E+04
       304   5  5.138290E+01  1.959361E+05  9.558892E+03 -8.948027E+04 -8.115185E+03  7.395430E+03
       304   6  5.202928E+02  1.966623E+05  6.670628E+03 -1.373781E+05 -1.842748E+04  2.575618E+03
       304   7 -9.497889E+03  1.413926E+05  4.263988E+03 -1.359603E+05  2.550244E+03  2.161191E+04
       304   8  4.008968E+04  3.597911E+05  4.595069E+04 -8.937558E+04 -8.127517E+03  1.647427E+04
       304   9  9.418290E+04  5.797629E+05  9.203999E+04 -1.385805E+05 -1.843857E+04  1.133776E+04
       304  10  1.757051E+04  2.519750E+05  2.899951E+04 -1.387863E+05  2.516576E-10 -6.612699E-10
       304  11 -3.998876E+04  3.210621E+04 -2.683439E+04 -8.958493E+04  2.805767E-10  3.950357E-10
       304  12 -9.315260E+04 -1.863015E+05 -7.870835E+04 -1.361764E+05 -5.777067E-10 -2.056295E-10
       304  13  4.036346E+03  1.966821E+05  1.663140E+04 -1.373733E+05  4.327539E-10 -3.697307E-10
       304  14  5.129751E+01  1.959360E+05  9.558666E+03 -8.948022E+04  7.626515E-10 -3.497755E-10
       304  15  5.199263E+02  1.966622E+05  6.669977E+03 -1.373780E+05  8.162791E-10 -7.009198E-10
       304  16 -9.498021E+03  1.413921E+05  4.263098E+03 -1.359604E+05  2.205217E-10  6.054730E-10
       304  17  4.008954E+04  3.597908E+05  4.595005E+04 -8.937547E+04 -3.560254E-10 -4.203734E-10
       304  18  9.418250E+04  5.797627E+05  9.203911E+04 -1.385803E+05 -7.784114E-11  2.276038E-10
       304  19  1.757052E+04  2.519750E+05  2.899954E+04 -1.387863E+05 -2.577822E+03 -2.823510E+03
       304  20 -3.998869E+04  3.210623E+04 -2.683426E+04 -8.958492E+04  8.102848E+03  1.681047E+03
       304  21 -9.315222E+04 -1.863014E+05 -7.870764E+04 -1.361763E+05  1.841642E+04  6.181184E+03
       304  22  4.036393E+03  1.966823E+05  1.663170E+04 -1.373732E+05 -2.564012E+03 -1.221812E+04
       304  23  5.138290E+01  1.959361E+05  9.558892E+03 -8.948027E+04  8.115185E+03 -7.395430E+03
       304  24  5.202928E+02  1.966623E+05  6.670628E+03 -1.373781E+05  1.842748E+04 -2.575618E+03
       304  25 -9.497889E+03  1.413926E+05  4.263988E+03 -1.359603E+05 -2.550244E+03 -2.161191E+04
       304  26  4.008968E+04  3.597911E+05  4.595069E+04 -8.937558E+04  8.127517E+03 -1.647427E+04
       304  27  9.418290E+04  5.797629E+05  9.203999E+04 -1.385805E+05  1.843857E+04 -1.133776E+04
       305   1 -1.388469E+05 -3.715399E+05 -1.203449E+05 -1.376557E+05 -2.814325E+04 -1.523627E+04
       305   2 -1.928286E+05 -5.901511E+05 -1.719244E+05 -8.801191E+04 -3.371228E+04  5.712179E+03
       305   3 -2.432039E+05 -8.104764E+05 -2.362417E+05 -1.331333E+05 -1.163706E+04  2.667141E+04
       305   4  9.101089E+01  1.968243E+05  5.921071E+03 -1.371490E+05 -2.816247E+04  1.486516E+03
       305   5 -1.332833E+02  1.955833E+05  5.599435E+03 -8.976736E+04 -3.370252E+04 -1.432693E+03
       305   6  7.393211E+03  1.967252E+05  9.120580E+03 -1.371431E+05 -1.161408E+04 -4.333274E+03
       305   7  1.390073E+05  7.654906E+05  1.321680E+05 -1.366416E+05 -2.818165E+04  1.822444E+04
       305   8  1.925197E+05  9.818918E+05  1.830838E+05 -9.152488E+04 -3.369272E+04 -8.586526E+03
       305   9  2.579161E+05  1.204855E+06  2.544128E+05 -1.411591E+05 -1.159073E+04 -3.538817E+04
       305  10 -1.388479E+05 -3.715404E+05 -1.203468E+05 -1.376561E+05  2.127851E-10  3.181493E-11
       305  11 -1.928298E+05 -5.901514E+05 -1.719266E+05 -8.801175E+04  3.852885E-10  5.345765E-10
       305  12 -2.432042E+05 -8.104772E+05 -2.362432E+05 -1.331331E+05 -6.187820E-12 -2.077697E-10
       305  13  9.015856E+01  1.968241E+05  5.919577E+03 -1.371489E+05 -9.606698E-10 -2.440219E-10
       305  14 -1.345037E+02  1.955830E+05  5.597297E+03 -8.976740E+04  4.709981E-10 -3.342085E-10
       305  15  7.393062E+03  1.967252E+05  9.120291E+03 -1.371431E+05 -2.195307E-10 -2.641670E-10
       305  16  1.390063E+05  7.654900E+05  1.321659E+05 -1.366412E+05  2.860691E-10 -7.632956E-11
       305  17  1.925184E+05  9.818914E+05  1.830815E+05 -9.152512E+04  1.521202E-10 -6.340346E-10
       305  18  2.579156E+05  1.204854E+06  2.544102E+05 -1.411595E+05 -2.779612E-10  2.150312E-10
       305  19 -1.388469E+05 -3.715399E+05 -1.203449E+05 -1.376557E+05  2.814325E+04  1.523627E+04
       305  20 -1.928286E+05 -5.901511E+05 -1.719244E+05 -8.801191E+04  3.371228E+04 -5.712179E+03
       305  21 -2.432039E+05 -8.104764E+05 -2.362417E+05 -1.331333E+05  1.163706E+04 -2.667141E+04
       305  22  9.101089E+01  1.968243E+05  5.921071E+03 -1.371490E+05  2.816247E+04 -1.486516E+03
       305  23 -1.332833E+02  1.955833E+05  5.599435E+03 -8.976736E+04  3.370252E+04  1.432693E+03
       305  24  7.393211E+03  1.967252E+05  9.120580E+03 -1.371431E+05  1.161408E+04  4.333274E+03
       305  25  1.390073E+05  7.654906E+05  1.321680E+05 -1.366416E+05  2.818165E+04 -1.822444E+04
       305  26  1.925197E+05  9.818918E+05  1.830838E+05 -9.152488E+04  3.369272E+04  8.586526E+03
       305  27  2.579161E+05  1.204855E+06  2.544128E+05 -1.411591E+05  1.159073E+04  3.538817E+04
       306   1 -1.372096E+06 -5.059716E+05 -3.125344E+05 -5.023886E+05 -1.412085E+05 -4.603217E+04
       306   2 -1.332064E+06 -3.060447E+05 -1.849899E+05 -4.986188E+05 -9.112970E+04 -1.229889E+04
       306   3 -1.345020E+06 -2.689430E+05 -1.398799E+05 -4.691542E+05 -3.633606E+04  8.903000E+03
       306   4 -9.738758E+05 -2.919500E+05 -1.934827E+05 -3.280714E+05 -1.256442E+05 -4.020085E+04
       306   5 -9.379188E+05 -1.376041E+05 -8.342133E+04 -3.686829E+05 -8.566226E+04 -1.024980E+04
       306   6 -9.529106E+05 -1.440282E+05 -4.774642E+04 -3.836112E+05 -4.096846E+04  7.163923E+03
       306   7 -5.754893E+05 -7.786196E+04 -7.444467E+04 -1.536364E+05 -1.100689E+05 -3.436135E+04
       306   8 -5.436196E+05  3.086073E+04  1.813440E+04 -2.386673E+05 -8.019102E+04 -8.198805E+03
       306   9 -5.606508E+05 -1.911270E+04  4.437626E+04 -2.980238E+05 -4.560404E+04  5.424055E+03
       306  10 -1.372119E+06 -5.059793E+05 -3.125760E+05 -5.023939E+05  3.303547E-10  8.949340E-11
       306  11 -1.332073E+06 -3.060471E+05 -1.850058E+05 -4.986197E+05 -6.344882E-10 -8.659307E-11
       306  12 -1.345022E+06 -2.689435E+05 -1.398826E+05 -4.691539E+05 -1.910782E-10 -1.384628E-10
       306  13 -9.738932E+05 -2.919560E+05 -1.935155E+05 -3.280755E+05  8.087280E-10 -1.675490E-10
       306  14 -9.379267E+05 -1.376062E+05 -8.343534E+04 -3.686836E+05 -2.267590E-10 -1.708735E-10
       306  15 -9.529124E+05 -1.440287E+05 -4.774967E+04 -3.836109E+05 -6.761900E-11 -1.455717E-10
       306  16 -5.755026E+05 -7.786649E+04 -7.446968E+04 -1.536394E+05 -2.896140E-10 -1.880004E-11
       306  17 -5.436266E+05  3.085893E+04  1.812218E+04 -2.386678E+05  1.622916E-10  3.500165E-11
       306  18 -5.606530E+05 -1.911329E+04  4.437230E+04 -2.980236E+05  4.167353E-11 -6.665193E-11
       306  19 -1.372096E+06 -5.059716E+05 -3.125344E+05 -5.023886E+05  1.412085E+05  4.603217E+04
       306  20 -1.332064E+06 -3.060447E+05 -1.849899E+05 -4.986188E+05  9.112970E+04  1.229889E+04
       306  21 -1.345020E+06 -2.689430E+05 -1.398799E+05 -4.691542E+05  3.633606E+04 -8.903000E+03
       306  22 -9.738758E+05 -2.919500E+05 -1.934827E+05 -3.280714E+05  1.256442E+05  4.020085E+04
       306  23 -9.379188E+05 -1.376041E+05 -8.342133E+04 -3.686829E+05  8.566226E+04  1.024980E+04
       306  24 -9.529106E+05 -1.440282E+05 -4.774642E+04 -3.836112E+05  4.096846E+04 -7.163923E+03
       306  25 -5.754893E+05 -7.786196E+04 -7.444467E+04 -1.536364E+05  1.100689E+05  3.436135E+04
       306  26 -5.436196E+05  3.086073E+04  1.813440E+04 -2.386673E+05  8.019102E+04  8.198805E+03
       306  27 -5.606508E+05 -1.911270E+04  4.437626E+04 -2.980238E+05  4.560404E+04 -5.424055E+03
       307   1 -1.290502E+06 -2.910547E+05 -1.232065E+05 -4.720049E+05 -3.304660E+04  7.331381E+03
       307   2 -1.260386E+06 -2.605755E+05 -9.580100E+04 -4.566787E+05 -2.223313E+04  9.911836E+03
       307   3 -1.223635E+06 -2.520082E+05 -7.882486E+04 -4.525293E+05 -1.119922E+04  1.190506E+04
       307   4 -9.466457E+05 -1.595156E+05 -3.799154E+04 -3.743903E+05 -3.386664E+04  7.022524E+03
       307   5 -9.493257E+05 -1.438025E+05 -1.936366E+04 -3.706013E+05 -2.352210E+04  9.427440E+03
       307   6 -9.452763E+05 -1.499045E+05 -1.078867E+04 -3.779897E+05 -1.295779E+04  1.124494E+04
       307   7 -6.026706E+05 -2.796617E+04  4.721475E+04 -2.767253E+05 -3.468718E+04  6.713471E+03
       307   8 -6.381688E+05 -2.702216E+04  5.706652E+04 -2.844844E+05 -2.481177E+04  8.942775E+03
       307   9 -6.668414E+05 -4.779616E+04  5.724170E+04 -3.034200E+05 -1.471722E+04  1.058451E+04
       307  10 -1.290504E+06 -2.910551E+05 -1.232087E+05 -4.720047E+05 -2.475370E-11 -8.969435E-11
       307  11 -1.260387E+06 -2.605758E+05 -9.580211E+04 -4.566786E+05  3.375926E-10  9.842876E-11
       307  12 -1.223635E+06 -2.520084E+05 -7.882536E+04 -4.525292E+05 -6.160066E-11 -1.932743E-11
       307  13 -9.466470E+05 -1.595160E+05 -3.799379E+04 -3.743901E+05 -2.592268E-10  3.563986E-12
       307  14 -9.493264E+05 -1.438027E+05 -1.936487E+04 -3.706012E+05 -1.833578E-10  1.288900E-10
       307  15 -9.452765E+05 -1.499047E+05 -1.078922E+04 -3.779896E+05 -1.609209E-10 -1.211681E-10
       307  16 -6.026719E+05 -2.796654E+04  4.721240E+04 -2.767252E+05  1.276825E-10 -2.949541E-12
       307  17 -6.381695E+05 -2.702241E+04  5.706521E+04 -2.844842E+05 -2.324669E-10  2.540141E-10
       307  18 -6.668417E+05 -4.779634E+04  5.724109E+04 -3.034199E+05 -3.159619E-11  5.166584E-11
       307  19 -1.290502E+06 -2.910547E+05 -1.232065E+05 -4.720049E+05  3.304660E+04 -7.331381E+03
       307  20 -1.260386E+06 -2.605755E+05 -9.580100E+04 -4.566787E+05  2.223313E+04 -9.911836E+03
       307  21 -1.223635E+06 -2.520082E+05 -7.882486E+04 -4.525293E+05  1.119922E+04 -1.190506E+04
       307  22 -9.466457E+05 -1.595156E+05 -3.799154E+04 -3.743903E+05  3.386664E+04 -7.022524E+03
       307  23 -9.493257E+05 -1.438025E+05 -1.936366E+04 -3.706013E+05  2.352210E+04 -9.427440E+03
       307  24 -9.452763E+05 -1.499045E+05 -1.078867E+04 -3.779897E+05  1.295779E+04 -1.124494E+04
       307  25 -6.026706E+05 -2.796617E+04  4.721475E+04 -2.767253E+05  3.468718E+04 -6.713471E+03
       307  26 -6.381688E+05 -2.702216E+04  5.706652E+04 -2.844844E+05  2.481177E+04 -8.942775E+03
       307  27 -6.668414E+05 -4.779616E+04  5.724170E+04 -3.034200E+05  1.471722E+04 -1.058451E+04
       308   1 -1.191103E+06 -2.427008E+05 -6.851838E+04 -4.448673E+05 -9.384460E+03  1.118382E+04
       308   2 -1.161702E+06 -2.229633E+05 -5.623581E+04 -4.284907E+05 -6.382357E+03  1.004382E+04
       308   3 -1.120910E+06 -2.158422E+05 -4.580947E+04 -4.256871E+05 -3.367616E+03  8.868443E+03
       308   4 -9.446647E+05 -1.509063E+05 -8.229955E+03 -3.773773E+05 -1.097616E+04  1.058649E+04
       308   5 -9.503183E+05 -1.443034E+05 -4.451437E+03 -3.707010E+05 -8.001726E+03  9.436398E+03
       308   6 -9.445756E+05 -1.503111E+05 -2.506586E+03 -3.775981E+05 -5.014780E+03  8.250885E+03
       308   7 -6.981676E+05 -5.910815E+04  5.205358E+04 -3.098633E+05 -1.256855E+04  9.988908E+03
       308   8 -7.388900E+05 -6.564045E+04  4.732956E+04 -3.128935E+05 -9.621697E+03  8.828749E+03
       308   9 -7.682095E+05 -8.477754E+04  4.079417E+04 -3.294965E+05 -6.662462E+03  7.633134E+03
       308  10 -1.191103E+06 -2.427010E+05 -6.851878E+04 -4.448672E+05 -1.712667E-10 -2.368158E-10
       308  11 -1.161703E+06 -2.229635E+05 -5.623607E+04 -4.284906E+05 -5.092145E-10 -2.327701E-10
       308  12 -1.120910E+06 -2.158423E+05 -4.580964E+04 -4.256870E+05  2.838979E-11  1.456798E-10
       308  13 -9.446648E+05 -1.509065E+05 -8.230392E+03 -3.773772E+05  4.295541E-11 -7.530506E-11
       308  14 -9.503183E+05 -1.443035E+05 -4.451724E+03 -3.707010E+05  2.811462E-12  1.284980E-10
       308  15 -9.445756E+05 -1.503111E+05 -2.506761E+03 -3.775981E+05  1.197655E-10  1.326407E-10
       308  16 -6.981678E+05 -5.910830E+04  5.205309E+04 -3.098632E+05  5.000217E-10  8.934810E-11
       308  17 -7.388901E+05 -6.564055E+04  4.732924E+04 -3.128934E+05  5.551940E-10  1.783507E-10
       308  18 -7.682096E+05 -8.477762E+04  4.079397E+04 -3.294964E+05 -5.333448E-11 -2.152360E-10
       308  19 -1.191103E+06 -2.427008E+05 -6.851838E+04 -4.448673E+05  9.384460E+03 -1.118382E+04
       308  20 -1.161702E+06 -2.229633E+05 -5.623581E+04 -4.284907E+05  6.382357E+03 -1.004382E+04
       308  21 -1.120910E+06 -2.158422E+05 -4.580947E+04 -4.256871E+05  3.367616E+03 -8.868443E+03
       308  22 -9.446647E+05 -1.509063E+05 -8.229955E+03 -3.773773E+05  1.097616E+04 -1.058649E+04
       308  23 -9.503183E+05 -1.443034E+05 -4.451437E+03 -3.707010E+05  8.001726E+03 -9.436398E+03
       308  24 -9.445756E+05 -1.503111E+05 -2.506586E+03 -3.775981E+05  5.014780E+03 -8.250885E+03
       308  25 -6.981676E+05 -5.910815E+04  5.205358E+04 -3.098633E+05  1.256855E+04 -9.988908E+03
       308  26 -7.388900E+05 -6.564045E+04  4.732956E+04 -3.128935E+05  9.621697E+03 -8.828749E+03
       308  27 -7.682095E+05 -8.477754E+04  4.079417E+04 -3.294965E+05  6.662462E+03 -7.633134E+03
       309   1 -1.089607E+06 -2.043589E+05 -3.735211E+04 -4.172513E+05 -2.560603E+03  7.817369E+03
       309   2 -1.060098E+06 -1.851281E+05 -2.803510E+04 -4.006554E+05 -1.205930E+03  6.000581E+03
       309   3 -1.018652E+06 -1.779765E+05 -1.916866E+04 -3.978604E+05  1.505710E+02  4.177833E+03
       309   4 -9.444800E+05 -1.503859E+05 -1.927879E+03 -3.775751E+05 -4.204814E+03  7.201053E+03
       309   5 -9.504443E+05 -1.443295E+05 -1.176058E+03 -3.706805E+05 -2.854802E+03  5.382666E+03
       309   6 -9.444725E+05 -1.503510E+05 -8.709294E+02 -3.775870E+05 -1.503002E+03  3.558313E+03
       309   7 -7.993324E+05 -9.641153E+04  3.349477E+04 -3.378904E+05 -5.849444E+03  6.584581E+03
       309   8 -8.407793E+05 -1.035301E+05  2.568201E+04 -3.407008E+05 -4.503987E+03  4.764634E+03
       309   9 -8.702880E+05 -1.227253E+05  1.742629E+04 -3.573115E+05 -3.156783E+03  2.938714E+03
       309  10 -1.089607E+06 -2.043590E+05 -3.735223E+04 -4.172513E+05 -3.429882E-10  1.677479E-10
       309  11 -1.060098E+06 -1.851282E+05 -2.803517E+04 -4.006554E+05 -5.621194E-10  6.054644E-11
       309  12 -1.018652E+06 -1.779765E+05 -1.916869E+04 -3.978605E+05  7.854388E-12 -1.111790E-10
       309  13 -9.444801E+05 -1.503860E+05 -1.928009E+03 -3.775750E+05 -8.602741E-12 -8.928781E-11
       309  14 -9.504443E+05 -1.443295E+05 -1.176128E+03 -3.706804E+05 -9.257844E-10  7.340220E-12
       309  15 -9.444725E+05 -1.503510E+05 -8.709574E+02 -3.775870E+05 -5.812735E-11  2.067744E-10
       309  16 -7.993324E+05 -9.641158E+04  3.349462E+04 -3.378904E+05  1.203017E-10 -1.490091E-10
       309  17 -8.407794E+05 -1.035301E+05  2.568193E+04 -3.407008E+05  1.870541E-10 -6.458852E-12
       309  18 -8.702880E+05 -1.227254E+05  1.742626E+04 -3.573115E+05 -1.760715E-10  9.959990E-11
       309  19 -1.089607E+06 -2.043589E+05 -3.735211E+04 -4.172513E+05  2.560603E+03 -7.817369E+03
       309  20 -1.060098E+06 -1.851281E+05 -2.803510E+04 -4.006554E+05  1.205930E+03 -6.000581E+03
       309  21 -1.018652E+06 -1.779765E+05 -1.916866E+04 -3.978604E+05 -1.505710E+02 -4.177833E+03
       309  22 -9.444800E+05 -1.503859E+05 -1.927879E+03 -3.775751E+05  4.204814E+03 -7.201053E+03
       309  23 -9.504443E+05 -1.443295E+05 -1.176058E+03 -3.706805E+05  2.854802E+03 -5.382666E+03
       309  24 -9.444725E+05 -1.503510E+05 -8.709294E+02 -3.775870E+05  1.503002E+03 -3.558313E+03
       309  25 -7.993324E+05 -9.641153E+04  3.349477E+04 -3.378904E+05  5.849444E+03 -6.584581E+03
       309  26 -8.407793E+05 -1.035301E+05  2.568201E+04 -3.407008E+05  4.503987E+03 -4.764634E+03
       309  27 -8.702880E+05 -1.227253E+05  1.742629E+04 -3.573115E+05  3.156783E+03 -2.938714E+03
       310   1 -9.872820E+05 -1.662823E+05 -1.120457E+04 -3.893234E+05  7.411080E+02  3.039546E+03
       310   2 -9.576718E+05 -1.470200E+05 -2.775119E+03 -3.726603E+05  2.008576E+03  1.178118E+03
       310   3 -9.160764E+05 -1.398677E+05  5.272078E+03 -3.698489E+05  3.275807E+03 -6.826749E+02
       310   4 -9.444616E+05 -1.503607E+05 -8.409521E+02 -3.775971E+05 -9.142778E+02  2.419396E+03
       310   5 -9.504546E+05 -1.443153E+05 -1.004027E+03 -3.706672E+05  3.536511E+02  5.581439E+02
       310   6 -9.444643E+05 -1.503806E+05 -1.549888E+03 -3.775897E+05  1.621308E+03 -1.302478E+03
       310   7 -9.016392E+05 -1.344388E+05  9.522602E+03 -3.658701E+05 -2.569796E+03  1.799197E+03
       310   8 -9.432372E+05 -1.416107E+05  7.670789E+02 -3.686741E+05 -1.301299E+03 -6.183955E+01
       310   9 -9.728515E+05 -1.608934E+05 -8.371903E+03 -3.853301E+05 -3.310850E+01 -1.922250E+03
       310  10 -9.872820E+05 -1.662823E+05 -1.120459E+04 -3.893234E+05  1.935568E-10 -1.261558E-10
       310  11 -9.576718E+05 -1.470200E+05 -2.775130E+03 -3.726603E+05 -1.177058E-10 -3.522359E-10
       310  12 -9.160764E+05 -1.398677E+05  5.272057E+03 -3.698489E+05  2.818389E-10 -2.521706E-11
       310  13 -9.444616E+05 -1.503607E+05 -8.409646E+02 -3.775971E+05  5.590727E-11 -2.660832E-10
       310  14 -9.504546E+05 -1.443153E+05 -1.004027E+03 -3.706672E+05 -4.200195E-10 -5.202307E-10
       310  15 -9.444643E+05 -1.503806E+05 -1.549896E+03 -3.775897E+05  1.646797E-10 -1.055670E-10
       310  16 -9.016392E+05 -1.344388E+05  9.522584E+03 -3.658701E+05 -1.554662E-10 -2.200774E-11
       310  17 -9.432372E+05 -1.416107E+05  7.670757E+02 -3.686741E+05  2.671636E-11 -6.856404E-11
       310  18 -9.728515E+05 -1.608934E+05 -8.371910E+03 -3.853301E+05  1.097510E-10  1.273621E-11
       310  19 -9.872820E+05 -1.662823E+05 -1.120457E+04 -3.893234E+05 -7.411080E+02 -3.039546E+03
       310  20 -9.576718E+05 -1.470200E+05 -2.775119E+03 -3.726603E+05 -2.008576E+03 -1.178118E+03
       310  21 -9.160764E+05 -1.398677E+05  5.272078E+03 -3.698489E+05 -3.275807E+03  6.826749E+02
       310  22 -9.444616E+05 -1.503607E+05 -8.409521E+02 -3.775971E+05  9.142778E+02 -2.419396E+03
       310  23 -9.504546E+05 -1.443153E+05 -1.004027E+03 -3.706672E+05 -3.536511E+02 -5.581439E+02
       310  24 -9.444643E+05 -1.503806E+05 -1.549888E+03 -3.775897E+05 -1.621308E+03  1.302478E+03
       310  25 -9.016392E+05 -1.344388E+05  9.522602E+03 -3.658701E+05  2.569796E+03 -1.799197E+03
       310  26 -9.432372E+05 -1.416107E+05  7.670789E+02 -3.686741E+05  1.301299E+03  6.183955E+01
       310  27 -9.728515E+05 -1.608934E+05 -8.371903E+03 -3.853301E+05  3.310850E+01  1.922250E+03
       311   1 -8.847183E+05 -1.281690E+05  1.276703E+04 -3.613919E+05  4.019672E+03 -1.766050E+03
       311   2 -8.551019E+05 -1.088647E+05  1.984280E+04 -3.446570E+05  6.510871E+03 -3.160826E+03
       311   3 -8.138678E+05 -1.021380E+05  2.549425E+04 -3.416665E+05  8.993520E+03 -4.531630E+03
       311   4 -9.445264E+05 -1.503351E+05 -1.988925E+03 -3.776224E+05  2.360354E+03 -2.387694E+03
       311   5 -9.503664E+05 -1.442733E+05 -3.484390E+03 -3.706648E+05  4.870527E+03 -3.775491E+03
       311   6 -9.445937E+05 -1.507931E+05 -6.419372E+03 -3.774522E+05  7.372052E+03 -5.139350E+03
       311   7 -1.004331E+06 -1.725009E+05 -1.674507E+04 -3.938515E+05  7.012181E+02 -3.009270E+03
       311   8 -1.045622E+06 -1.796813E+05 -2.681226E+04 -3.966689E+05  3.230458E+03 -4.390053E+03
       311   9 -1.075303E+06 -1.994473E+05 -3.833444E+04 -4.132311E+05  5.750949E+03 -5.746934E+03
       311  10 -8.847183E+05 -1.281690E+05  1.276699E+04 -3.613919E+05 -3.585727E-10 -6.415140E-11
       311  11 -8.551020E+05 -1.088647E+05  1.984270E+04 -3.446570E+05 -2.700821E-10  1.076154E-10
       311  12 -8.138679E+05 -1.021381E+05  2.549406E+04 -3.416665E+05 -1.375293E-10 -1.201609E-10
       311  13 -9.445264E+05 -1.503351E+05 -1.988946E+03 -3.776224E+05 -1.525305E-10  1.264650E-10
       311  14 -9.503664E+05 -1.442733E+05 -3.484462E+03 -3.706648E+05 -2.435279E-10  2.725654E-10
       311  15 -9.445938E+05 -1.507932E+05 -6.419523E+03 -3.774521E+05 -1.949439E-10 -2.248123E-10
       311  16 -1.004331E+06 -1.725009E+05 -1.674508E+04 -3.938515E+05  3.221458E-10  2.948962E-10
       311  17 -1.045622E+06 -1.796813E+05 -2.681231E+04 -3.966689E+05  3.056808E-10  5.392235E-10
       311  18 -1.075303E+06 -1.994473E+05 -3.833456E+04 -4.132311E+05 -3.123244E-11  1.682859E-10
       311  19 -8.847183E+05 -1.281690E+05  1.276703E+04 -3.613919E+05 -4.019672E+03  1.766050E+03
       311  20 -8.551019E+05 -1.088647E+05  1.984280E+04 -3.446570E+05 -6.510871E+03  3.160826E+03
       311  21 -8.138678E+05 -1.021380E+05  2.549425E+04 -3.416665E+05 -8.993520E+03  4.531630E+03
       311  22 -9.445264E+05 -1.503351E+05 -1.988925E+03 -3.776224E+05 -2.360354E+03  2.387694E+03
       311  23 -9.503664E+05 -1.442733E+05 -3.484390E+03 -3.706648E+05 -4.870527E+03  3.775491E+03
       311  24 -9.445937E+05 -1.507931E+05 -6.419372E+03 -3.774522E+05 -7.372052E+03  5.139350E+03
       311  25 -1.004331E+06 -1.725009E+05 -1.674507E+04 -3.938515E+05 -7.012181E+02  3.009270E+03
       311  26 -1.045622E+06 -1.796813E+05 -2.681226E+04 -3.966689E+05 -3.230458E+03  4.390053E+03
       311  27 -1.075303E+06 -1.994473E+05 -3.833444E+04 -4.132311E+05 -5.750949E+03  5.746934E+03
       312   1 -7.822240E+05 -9.063995E+04  3.136911E+04 -3.346920E+05  1.076895E+04 -5.270114E+03
       312   2 -7.530001E+05 -7.000087E+04  3.323549E+04 -3.160848E+05  1.882021E+04 -4.467598E+03
       312   3 -7.156910E+05 -6.908094E+04  2.754979E+04 -3.094080E+05  2.670644E+04 -3.222221E+03
       312   4 -9.450621E+05 -1.500221E+05 -8.409534E+03 -3.779395E+05  9.019389E+03 -5.925946E+03
       312   5 -9.495999E+05 -1.438674E+05 -1.507957E+04 -3.705740E+05  1.742590E+04 -4.990578E+03
       312   6 -9.461253E+05 -1.575045E+05 -2.958535E+04 -3.751396E+05  2.566690E+04 -3.612498E+03
       312   7 -1.107874E+06 -2.094028E+05 -4.819016E+04 -4.211768E+05  7.270326E+03 -6.581600E+03
       312   8 -1.146161E+06 -2.177310E+05 -6.339743E+04 -4.250472E+05  1.603207E+04 -5.513373E+03
       312   9 -1.176506E+06 -2.459233E+05 -8.672430E+04 -4.408484E+05  2.462778E+04 -4.002604E+03
       312  10 -7.822242E+05 -9.064001E+04  3.136884E+04 -3.346920E+05 -1.410627E-10 -3.633836E-10
       312  11 -7.530005E+05 -7.000099E+04  3.323479E+04 -3.160848E+05 -9.364625E-11 -2.772127E-10
       312  12 -7.156918E+05 -6.908114E+04  2.754843E+04 -3.094080E+05 -5.206346E-10 -1.683316E-10
       312  13 -9.450622E+05 -1.500222E+05 -8.409753E+03 -3.779395E+05  4.495398E-10  2.749137E-10
       312  14 -9.496003E+05 -1.438675E+05 -1.508019E+04 -3.705739E+05 -9.479729E-11 -4.410101E-12
       312  15 -9.461260E+05 -1.575047E+05 -2.958662E+04 -3.751396E+05 -2.383904E-10  8.093288E-12
       312  16 -1.107874E+06 -2.094029E+05 -4.819034E+04 -4.211767E+05  3.196390E-10  1.896516E-10
       312  17 -1.146161E+06 -2.177311E+05 -6.339797E+04 -4.250471E+05  6.003628E-12  4.573718E-11
       312  18 -1.176507E+06 -2.459234E+05 -8.672547E+04 -4.408483E+05  3.434253E-10  2.781861E-10
       312  19 -7.822240E+05 -9.063995E+04  3.136911E+04 -3.346920E+05 -1.076895E+04  5.270114E+03
       312  20 -7.530001E+05 -7.000087E+04  3.323549E+04 -3.160848E+05 -1.882021E+04  4.467598E+03
       312  21 -7.156910E+05 -6.908094E+04  2.754979E+04 -3.094080E+05 -2.670644E+04  3.222221E+03
       312  22 -9.450621E+05 -1.500221E+05 -8.409534E+03 -3.779395E+05 -9.019389E+03  5.925946E+03
       312  23 -9.495999E+05 -1.438674E+05 -1.507957E+04 -3.705740E+05 -1.742590E+04  4.990578E+03
       312  24 -9.461253E+05 -1.575045E+05 -2.958535E+04 -3.751396E+05 -2.566690E+04  3.612498E+03
       312  25 -1.107874E+06 -2.094028E+05 -4.819016E+04 -4.211768E+05 -7.270326E+03  6.581600E+03
       312  26 -1.146161E+06 -2.177310E+05 -6.339743E+04 -4.250472E+05 -1.603207E+04  5.513373E+03
       312  27 -1.176506E+06 -2.459233E+05 -8.672430E+04 -4.408484E+05 -2.462778E+04  4.002604E+03
       313   1 -6.756580E+05 -5.944659E+04  2.720810E+04 -3.240169E+05  3.522109E+04 -2.502138E+03
       313   2 -6.553915E+05 -1.605540E+04  8.766173E+03 -2.738785E+05  6.256930E+04  7.638436E+03
       313   3 -6.704279E+05 -9.916365E+04 -6.151599E+04 -2.070421E+05  8.635759E+04  2.727401E+04
       313   4 -9.510027E+05 -1.454472E+05 -3.718111E+04 -3.823223E+05  3.129184E+04 -3.975161E+03
       313   5 -9.407232E+05 -1.390301E+05 -6.495659E+04 -3.690711E+05  6.629698E+04  9.034379E+03
       313   6 -9.672907E+05 -2.606718E+05 -1.506641E+05 -3.391190E+05  9.774022E+04  3.153702E+04
       313   7 -1.226274E+06 -2.314481E+05 -1.015758E+05 -4.406071E+05  2.736446E+04 -5.447745E+03
       313   8 -1.225973E+06 -2.619911E+05 -1.386859E+05 -4.642210E+05  7.002278E+04  1.042936E+04
       313   9 -1.264058E+06 -4.221396E+05 -2.398190E+05 -4.711278E+05  1.091168E+05  3.579545E+04
       313  10 -6.756593E+05 -5.944693E+04  2.720575E+04 -3.240168E+05 -3.755934E-10  1.792074E-11
       313  11 -6.553957E+05 -1.605651E+04  8.758698E+03 -2.738789E+05 -3.431077E-10  1.477028E-10
       313  12 -6.704361E+05 -9.916645E+04 -6.153142E+04 -2.070440E+05 -2.252482E-11  2.254142E-10
       313  13 -9.510038E+05 -1.454475E+05 -3.718298E+04 -3.823222E+05 -2.276654E-10 -1.362774E-10
       313  14 -9.407279E+05 -1.390314E+05 -6.496502E+04 -3.690716E+05 -3.136443E-11  6.501210E-11
       313  15 -9.673012E+05 -2.606754E+05 -1.506840E+05 -3.391215E+05 -1.617597E-10  9.630683E-11
       313  16 -1.226275E+06 -2.314484E+05 -1.015773E+05 -4.406070E+05  5.313228E-10  1.750416E-10
       313  17 -1.225978E+06 -2.619925E+05 -1.386953E+05 -4.642216E+05 -2.451079E-10  1.134890E-11
       313  18 -1.264071E+06 -4.221441E+05 -2.398438E+05 -4.711310E+05 -3.254185E-10 -3.524356E-11
       313  19 -6.756580E+05 -5.944659E+04  2.720810E+04 -3.240169E+05 -3.522109E+04  2.502138E+03
       313  20 -6.553915E+05 -1.605540E+04  8.766173E+03 -2.738785E+05 -6.256930E+04 -7.638436E+03
       313  21 -6.704279E+05 -9.916365E+04 -6.151599E+04 -2.070421E+05 -8.635759E+04 -2.727401E+04
       313  22 -9.510027E+05 -1.454472E+05 -3.718111E+04 -3.823223E+05 -3.129184E+04  3.975161E+03
       313  23 -9.407232E+05 -1.390301E+05 -6.495659E+04 -3.690711E+05 -6.629698E+04 -9.034379E+03
       313  24 -9.672907E+05 -2.606718E+05 -1.506641E+05 -3.391190E+05 -9.774022E+04 -3.153702E+04
       313  25 -1.226274E+06 -2.314481E+05 -1.015758E+05 -4.406071E+05 -2.736446E+04  5.447745E+03
       313  26 -1.225973E+06 -2.619911E+05 -1.386859E+05 -4.642210E+05 -7.002278E+04 -1.042936E+04
       313  27 -1.264058E+06 -4.221396E+05 -2.398190E+05 -4.711278E+05 -1.091168E+05 -3.579545E+04
       314   1  1.267130E+05  3.908499E+04  1.054581E+05  7.572120E+04  2.066003E+05  1.331310E+04
       314   2  1.812584E+05 -2.311627E+05 -4.753281E+04  7.806507E+03  1.447813E+05  4.075658E+04
       314   3  3.152845E+05 -2.175652E+05 -8.921588E+04 -1.002977E+05  8.298158E+04  4.173065E+04
       314   4  1.143993E+06  2.913035E+05  3.521914E+05 -5.770564E+04  2.421161E+05  1.331010E+04
       314   5  1.102437E+06 -5.699905E+03  1.597267E+05 -3.746216E+04  1.572903E+05  4.075293E+04
       314   6  1.144199E+06 -1.512704E+04  9.440254E+04 -5.740010E+04  7.249704E+04  4.172638E+04
       314   7  2.162258E+06  5.435141E+05  5.988646E+05 -1.913519E+05  2.776897E+05  1.329188E+04
       314   8  2.024408E+06  2.197128E+05  3.669339E+05 -8.279880E+04  1.698174E+05  4.074747E+04
       314   9  1.973758E+06  1.872718E+05  2.779798E+05 -1.444468E+04  6.199861E+04  4.172066E+04
       314  10  1.266671E+05  3.907335E+04  1.053776E+05  7.571899E+04 -7.176774E-10  2.802165E-10
       314  11  1.812355E+05 -2.311701E+05 -4.757531E+04  7.801755E+03 -1.709550E-11 -6.623427E-10
       314  12  3.152766E+05 -2.175689E+05 -8.923209E+04 -1.003005E+05  3.399745E-10 -5.506654E-11
       314  13  1.143930E+06  2.912876E+05  3.520811E+05 -5.770824E+04  5.471189E-10  1.264979E-10
       314  14  1.102410E+06 -5.708316E+03  1.596772E+05 -3.746732E+04 -7.218994E-10 -1.395628E-09
       314  15  1.144193E+06 -1.513032E+04  9.438941E+04 -5.740253E+04 -5.069251E-10 -7.014120E-11
       314  16  2.162175E+06  5.434932E+05  5.987198E+05 -1.913549E+05  2.092167E-10 -1.295477E-10
       314  17  2.024377E+06  2.197033E+05  3.668768E+05 -8.280436E+04 -6.639376E-11 -2.446433E-10
       314  18  1.973753E+06  1.872689E+05  2.779693E+05 -1.444676E+04 -3.079191E-10 -4.262195E-10
       314  19  1.267130E+05  3.908499E+04  1.054581E+05  7.572120E+04 -2.066003E+05 -1.331310E+04
       314  20  1.812584E+05 -2.311627E+05 -4.753281E+04  7.806507E+03 -1.447813E+05 -4.075658E+04
       314  21  3.152845E+05 -2.175652E+05 -8.921588E+04 -1.002977E+05 -8.298158E+04 -4.173065E+04
       314  22  1.143993E+06  2.913035E+05  3.521914E+05 -5.770564E+04 -2.421161E+05 -1.331010E+04
       314  23  1.102437E+06 -5.699905E+03  1.597267E+05 -3.746216E+04 -1.572903E+05 -4.075293E+04
       314  24  1.144199E+06 -1.512704E+04  9.440254E+04 -5.740010E+04 -7.249704E+04 -4.172638E+04
       314  25  2.162258E+06  5.435141E+05  5.988646E+05 -1.913519E+05 -2.776897E+05 -1.329188E+04
       314  26  2.024408E+06  2.197128E+05  3.669339E+05 -8.279880E+04 -1.698174E+05 -4.074747E+04
       314  27  1.973758E+06  1.872718E+05  2.779798E+05 -1.444468E+04 -6.199861E+04 -4.172066E+04
       315   1  3.772064E+05 -1.662442E+05 -9.173123E+04 -5.176113E+04  6.154724E+04  3.621430E+04
       315   2  4.659874E+05 -1.614694E+05 -1.054417E+05 -3.604927E+04  4.219392E+04  3.258080E+04
       315   3  5.618776E+05 -1.391549E+05 -1.021257E+05 -6.067247E+04  2.283487E+04  2.778899E+04
       315   4  1.127297E+06  1.704872E+04  7.527551E+04 -5.751456E+04  5.896142E+04  3.620952E+04
       315   5  1.123689E+06 -8.500536E+02  4.051652E+04 -3.734660E+04  3.858404E+04  3.257753E+04
       315   6  1.127352E+06 -1.042876E+03  2.347893E+04 -5.751043E+04  1.820376E+04  2.778755E+04
       315   7  1.877912E+06  2.003036E+05  2.422471E+05 -6.327504E+04  5.637249E+04  3.620479E+04
       315   8  1.781795E+06  1.597401E+05  1.864480E+05 -3.864533E+04  3.497036E+04  3.257428E+04
       315   9  1.693123E+06  1.370476E+05  1.490638E+05 -5.434546E+04  1.356847E+04  2.778606E+04
       315  10  3.772020E+05 -1.662466E+05 -9.174081E+04 -5.176293E+04 -2.218723E-10 -4.115654E-10
       315  11  4.659852E+05 -1.614710E+05 -1.054471E+05 -3.605038E+04 -6.177117E-10 -3.707567E-11
       315  12  5.618768E+05 -1.391559E+05 -1.021282E+05 -6.067298E+04 -1.200253E-09  3.246136E-11
       315  13  1.127293E+06  1.704638E+04  7.526652E+04 -5.751628E+04 -7.995504E-10 -3.320903E-10
       315  14  1.123688E+06 -8.515926E+02  4.051173E+04 -3.734761E+04 -7.481544E-10 -3.246838E-10
       315  15  1.127351E+06 -1.043795E+03  2.347686E+04 -5.751084E+04 -9.936539E-10 -5.554013E-11
       315  16  1.877908E+06  2.003014E+05  2.422387E+05 -6.327668E+04 -2.294548E-11 -1.047160E-10
       315  17  1.781793E+06  1.597387E+05  1.864437E+05 -3.864624E+04 -7.357639E-10 -6.576778E-10
       315  18  1.693123E+06  1.370467E+05  1.490620E+05 -5.434576E+04  1.198742E-10 -1.295176E-10
       315  19  3.772064E+05 -1.662442E+05 -9.173123E+04 -5.176113E+04 -6.154724E+04 -3.621430E+04
       315  20  4.659874E+05 -1.614694E+05 -1.054417E+05 -3.604927E+04 -4.219392E+04 -3.258080E+04
       315  21  5.618776E+05 -1.391549E+05 -1.021257E+05 -6.067247E+04 -2.283487E+04 -2.778899E+04
       315  22  1.127297E+06  1.704872E+04  7.527551E+04 -5.751456E+04 -5.896142E+04 -3.620952E+04
       315  23  1.123689E+06 -8.500536E+02  4.051652E+04 -3.734660E+04 -3.858404E+04 -3.257753E+04
       315  24  1.127352E+06 -1.042876E+03  2.347893E+04 -5.751043E+04 -1.820376E+04 -2.778755E+04
       315  25  1.877912E+06  2.003036E+05  2.422471E+05 -6.327504E+04 -5.637249E+04 -3.620479E+04
       315  26  1.781795E+06  1.597401E+05  1.864480E+05 -3.864533E+04 -3.497036E+04 -3.257428E+04
       315  27  1.693123E+06  1.370476E+05  1.490638E+05 -5.434546E+04 -1.356847E+04 -2.778606E+04
       316   1  6.378320E+05 -1.182834E+05 -8.996029E+04 -5.756450E+04  1.880986E+04  2.474105E+04
       316   2  7.286520E+05 -9.704557E+04 -7.773041E+04 -3.763893E+04  1.376129E+04  1.978167E+04
       316   3  8.204597E+05 -7.468802E+04 -6.192651E+04 -5.765352E+04  8.709285E+03  1.478396E+04
       316   4  1.125972E+06  8.502961E+02  1.803731E+04 -5.742411E+04  1.454478E+04  2.474035E+04
       316   5  1.125493E+06 -1.623609E+02  1.024871E+04 -3.745500E+04  9.459080E+03  1.978200E+04
       316   6  1.125997E+06 -4.958380E+01  6.057323E+03 -5.742450E+04  4.370675E+03  1.478536E+04
       316   7  1.614335E+06  1.199680E+05  1.260203E+05 -5.728358E+04  1.027638E+04  2.473965E+04
       316   8  1.522481E+06  9.671024E+04  9.821812E+04 -3.727094E+04  5.154155E+03  1.978233E+04
       316   9  1.431621E+06  7.458255E+04  7.403540E+04 -5.719535E+04  2.995565E+01  1.478676E+04
       316  10  6.378315E+05 -1.182842E+05 -8.996210E+04 -5.756488E+04  8.355229E-11  3.082064E-10
       316  11  7.286517E+05 -9.704604E+04 -7.773150E+04 -3.763915E+04  9.858151E-10  1.844682E-10
       316  12  8.204596E+05 -7.468828E+04 -6.192706E+04 -5.765362E+04  9.692624E-10  4.501733E-11
       316  13  1.125972E+06  8.495818E+02  1.803576E+04 -5.742440E+04 -3.198922E-10  1.986543E-10
       316  14  1.125493E+06 -1.628053E+02  1.024780E+04 -3.745515E+04 -9.380890E-10  1.199953E-10
       316  15  1.125997E+06 -4.982379E+01  6.056876E+03 -5.742455E+04  6.932085E-11 -1.948891E-10
       316  16  1.614335E+06  1.199673E+05  1.260189E+05 -5.728379E+04 -3.035631E-10  1.565603E-10
       316  17  1.522480E+06  9.670982E+04  9.821734E+04 -3.727102E+04  3.204503E-10  2.902956E-10
       316  18  1.431621E+06  7.458231E+04  7.403499E+04 -5.719535E+04 -7.001224E-10  2.625144E-10
       316  19  6.378320E+05 -1.182834E+05 -8.996029E+04 -5.756450E+04 -1.880986E+04 -2.474105E+04
       316  20  7.286520E+05 -9.704557E+04 -7.773041E+04 -3.763893E+04 -1.376129E+04 -1.978167E+04
       316  21  8.204597E+05 -7.468802E+04 -6.192651E+04 -5.765352E+04 -8.709285E+03 -1.478396E+04
       316  22  1.125972E+06  8.502961E+02  1.803731E+04 -5.742411E+04 -1.454478E+04 -2.474035E+04
       316  23  1.125493E+06 -1.623609E+02  1.024871E+04 -3.745500E+04 -9.459080E+03 -1.978200E+04
       316  24  1.125997E+06 -4.958380E+01  6.057323E+03 -5.742450E+04 -4.370675E+03 -1.478536E+04
       316  25  1.614335E+06  1.199680E+05  1.260203E+05 -5.728358E+04 -1.027638E+04 -2.473965E+04
       316  26  1.522481E+06  9.671024E+04  9.821812E+04 -3.727094E+04 -5.154155E+03 -1.978233E+04
       316  27  1.431621E+06  7.458255E+04  7.403540E+04 -5.719535E+04 -2.995565E+01 -1.478676E+04
       317   1  8.969752E+05 -5.576519E+04 -4.574135E+04 -5.743557E+04  7.711079E+03  1.187006E+04
       317   2  9.876897E+05 -3.370540E+04 -2.754392E+04 -3.754690E+04  6.196777E+03  6.881995E+03
       317   3  1.078600E+06 -1.153709E+04 -8.343825E+03 -5.737037E+04  4.681336E+03  1.896585E+03
       317   4  1.125830E+06  4.839110E+01  4.728857E+03 -5.737397E+04  3.395530E+03  1.187189E+04
       317   5  1.125740E+06 -8.030491E+00  3.055027E+03 -3.751819E+04  1.882752E+03  6.884173E+03
       317   6  1.125838E+06  4.421250E+01  2.382718E+03 -5.737401E+04  3.690512E+02  1.899140E+03
       317   7  1.354733E+06  5.585846E+04  5.519592E+04 -5.731233E+04 -9.215885E+02  1.187372E+04
       317   8  1.263808E+06  3.368807E+04  3.365286E+04 -3.748947E+04 -2.432221E+03  6.886351E+03
       317   9  1.173078E+06  1.162537E+04  1.310919E+04 -5.737766E+04 -3.943559E+03  1.901695E+03
       317  10  8.969751E+05 -5.576535E+04 -4.574173E+04 -5.743564E+04 -7.140746E-11 -8.587992E-11
       317  11  9.876897E+05 -3.370546E+04 -2.754408E+04 -3.754693E+04  7.914188E-11  5.451366E-10
       317  12  1.078600E+06 -1.153710E+04 -8.343873E+03 -5.737037E+04 -4.866411E-10  3.884295E-10
       317  13  1.125830E+06  4.823658E+01  4.728570E+03 -5.737400E+04 -4.233233E-10  3.031181E-10
       317  14  1.125740E+06 -8.082359E+00  3.054931E+03 -3.751820E+04  5.921708E-10 -4.052231E-10
       317  15  1.125838E+06  4.420859E+01  2.382711E+03 -5.737401E+04  4.205527E-10 -4.701158E-10
       317  16  1.354733E+06  5.585831E+04  5.519565E+04 -5.731233E+04  7.455331E-10 -7.099787E-10
       317  17  1.263808E+06  3.368801E+04  3.365276E+04 -3.748945E+04 -4.783160E-10 -2.532829E-10
       317  18  1.173078E+06  1.162536E+04  1.310915E+04 -5.737765E+04  4.403021E-10 -9.043237E-10
       317  19  8.969752E+05 -5.576519E+04 -4.574135E+04 -5.743557E+04 -7.711079E+03 -1.187006E+04
       317  20  9.876897E+05 -3.370540E+04 -2.754392E+04 -3.754690E+04 -6.196777E+03 -6.881995E+03
       317  21  1.078600E+06 -1.153709E+04 -8.343825E+03 -5.737037E+04 -4.681336E+03 -1.896585E+03
       317  22  1.125830E+06  4.839110E+01  4.728857E+03 -5.737397E+04 -3.395530E+03 -1.187189E+04
       317  23  1.125740E+06 -8.030491E+00  3.055027E+03 -3.751819E+04 -1.882752E+03 -6.884173E+03
       317  24  1.125838E+06  4.421250E+01  2.382718E+03 -5.737401E+04 -3.690512E+02 -1.899140E+03
       317  25  1.354733E+06  5.585846E+04  5.519592E+04 -5.731233E+04  9.215885E+02 -1.187372E+04
       317  26  1.263808E+06  3.368807E+04  3.365286E+04 -3.748947E+04  2.432221E+03 -6.886351E+03
       317  27  1.173078E+06  1.162537E+04  1.310919E+04 -5.737766E+04  3.943559E+03 -1.901695E+03
       318   1  1.155070E+06  7.231663E+03  9.066314E+03 -5.738355E+04  4.251593E+03 -1.003804E+03
       318   2  1.245793E+06  2.929554E+04  2.937321E+04 -3.750532E+04  2.881330E+03 -5.987900E+03
       318   3  1.336687E+06  5.145714E+04  5.058449E+04 -5.733133E+04  1.511694E+03 -1.097413E+04
       318   4  1.125833E+06  4.437463E+01  2.329580E+03 -5.737248E+04 -6.070543E+01 -1.001234E+03
       318   5  1.125747E+06 -2.541396E+00  2.768976E+03 -3.752011E+04 -1.432863E+03 -5.985661E+03
       318   6  1.125826E+06  4.948403E+01  4.114873E+03 -5.737244E+04 -2.804199E+03 -1.097219E+04
       318   7  1.096597E+06 -7.142963E+03 -4.407141E+03 -5.736141E+04 -4.372802E+03 -9.986647E+02
       318   8  1.005715E+06 -2.930158E+04 -2.383608E+04 -3.753489E+04 -5.746233E+03 -5.983421E+03
       318   9  9.150063E+05 -5.136114E+04 -4.235740E+04 -5.741353E+04 -7.118645E+03 -1.097025E+04
       318  10  1.155069E+06  7.231657E+03  9.066278E+03 -5.738354E+04 -6.473276E-11 -8.444326E-11
       318  11  1.245793E+06  2.929550E+04  2.937313E+04 -3.750531E+04  1.192005E-09 -2.292512E-10
       318  12  1.336687E+06  5.145701E+04  5.058426E+04 -5.733132E+04 -1.281385E-10 -3.160919E-11
       318  13  1.125833E+06  4.437355E+01  2.329578E+03 -5.737248E+04 -3.559464E-10  4.981499E-10
       318  14  1.125747E+06 -2.580440E+00  2.768905E+03 -3.752011E+04  5.235497E-10  5.063594E-10
       318  15  1.125826E+06  4.935258E+01  4.114632E+03 -5.737247E+04  4.231928E-10 -7.182532E-10
       318  16  1.096597E+06 -7.142970E+03 -4.407179E+03 -5.736141E+04 -1.248481E-10 -1.616020E-10
       318  17  1.005715E+06 -2.930163E+04 -2.383621E+04 -3.753491E+04 -7.777181E-10  6.943709E-10
       318  18  9.150062E+05 -5.136128E+04 -4.235772E+04 -5.741360E+04  2.803563E-10 -2.057310E-10
       318  19  1.155070E+06  7.231663E+03  9.066314E+03 -5.738355E+04 -4.251593E+03  1.003804E+03
       318  20  1.245793E+06  2.929554E+04  2.937321E+04 -3.750532E+04 -2.881330E+03  5.987900E+03
       318  21  1.336687E+06  5.145714E+04  5.058449E+04 -5.733133E+04 -1.511694E+03  1.097413E+04
       318  22  1.125833E+06  4.437463E+01  2.329580E+03 -5.737248E+04  6.070543E+01  1.001234E+03
       318  23  1.125747E+06 -2.541396E+00  2.768976E+03 -3.752011E+04  1.432863E+03  5.985661E+03
       318  24  1.125826E+06  4.948403E+01  4.114873E+03 -5.737244E+04  2.804199E+03  1.097219E+04
       318  25  1.096597E+06 -7.142963E+03 -4.407141E+03 -5.736141E+04  4.372802E+03  9.986647E+02
       318  26  1.005715E+06 -2.930158E+04 -2.383608E+04 -3.753489E+04  5.746233E+03  5.983421E+03
       318  27  9.150063E+05 -5.136114E+04 -4.235740E+04 -5.741353E+04  7.118645E+03  1.097025E+04
       319   1  1.413519E+06  7.018864E+04  6.919260E+04 -5.723976E+04  6.903215E+02 -1.388603E+04
       319   2  1.504398E+06  9.231500E+04  9.269653E+04 -3.732374E+04 -3.685588E+03 -1.887942E+04
       319   3  1.596130E+06  1.154064E+05  1.192911E+05 -5.731512E+04 -8.059669E+03 -2.383469E+04
       319   4  1.125967E+06 -3.418187E+01  5.218335E+03 -5.741789E+04 -3.648450E+03 -1.388449E+04
       319   5  1.125536E+06 -1.356341E+02  8.742525E+03 -3.746327E+04 -7.989288E+03 -1.887890E+04
       319   6  1.125943E+06  7.225936E+02  1.533460E+04 -5.741754E+04 -1.232767E+04 -2.383516E+04
       319   7  8.384913E+05 -7.026259E+04 -5.876102E+04 -5.759593E+04 -7.985237E+03 -1.388295E+04
       319   8  7.468081E+05 -9.259593E+04 -7.522031E+04 -3.760271E+04 -1.229040E+04 -1.887839E+04
       319   9  6.559632E+05 -1.139760E+05 -8.863549E+04 -5.751986E+04 -1.659248E+04 -2.383562E+04
       319  10  1.413519E+06  7.018844E+04  6.919224E+04 -5.723975E+04 -4.083845E-10  6.684948E-10
       319  11  1.504398E+06  9.231462E+04  9.269584E+04 -3.732380E+04  1.353479E-09  2.275838E-10
       319  12  1.596129E+06  1.154057E+05  1.192899E+05 -5.731528E+04 -4.684649E-10  6.121769E-10
       319  13  1.125966E+06 -3.439256E+01  5.217947E+03 -5.741793E+04 -1.495107E-10 -3.144755E-10
       319  14  1.125536E+06 -1.360341E+02  8.741735E+03 -3.746340E+04 -4.075336E-10 -2.802160E-10
       319  15  1.125943E+06  7.219425E+02  1.533325E+04 -5.741778E+04  2.200168E-10  1.285238E-10
       319  16  8.384912E+05 -7.026281E+04 -5.876150E+04 -5.759602E+04  1.264993E-10  2.596444E-10
       319  17  7.468079E+05 -9.259635E+04 -7.522126E+04 -3.760290E+04  1.073798E-10 -3.387735E-10
       319  18  6.559628E+05 -1.139767E+05 -8.863707E+04 -5.752018E+04 -4.488904E-10 -1.364064E-10
       319  19  1.413519E+06  7.018864E+04  6.919260E+04 -5.723976E+04 -6.903215E+02  1.388603E+04
       319  20  1.504398E+06  9.231500E+04  9.269653E+04 -3.732374E+04  3.685588E+03  1.887942E+04
       319  21  1.596130E+06  1.154064E+05  1.192911E+05 -5.731512E+04  8.059669E+03  2.383469E+04
       319  22  1.125967E+06 -3.418187E+01  5.218335E+03 -5.741789E+04  3.648450E+03  1.388449E+04
       319  23  1.125536E+06 -1.356341E+02  8.742525E+03 -3.746327E+04  7.989288E+03  1.887890E+04
       319  24  1.125943E+06  7.225936E+02  1.533460E+04 -5.741754E+04  1.232767E+04  2.383516E+04
       319  25  8.384913E+05 -7.026259E+04 -5.876102E+04 -5.759593E+04  7.985237E+03  1.388295E+04
       319  26  7.468081E+05 -9.259593E+04 -7.522031E+04 -3.760271E+04  1.229040E+04  1.887839E+04
       319  27  6.559632E+05 -1.139760E+05 -8.863549E+04 -5.751986E+04  1.659248E+04  2.383562E+04
       320   1  1.674648E+06  1.327568E+05  1.414936E+05 -5.483447E+04 -1.080893E+04 -2.687663E+04
       320   2  1.763774E+06  1.553904E+05  1.762683E+05 -3.846372E+04 -2.911355E+04 -3.166363E+04
       320   3  1.859261E+06  1.932183E+05  2.267734E+05 -6.239017E+04 -4.741755E+04 -3.531228E+04
       320   4  1.127115E+06 -8.849276E+02  1.994789E+04 -5.750358E+04 -1.543735E+04 -2.687786E+04
       320   5  1.123996E+06 -7.296752E+02  3.439778E+04 -3.735540E+04 -3.274046E+04 -3.166658E+04
       320   6  1.127065E+06  1.445664E+04  6.389614E+04 -5.750643E+04 -5.004029E+04 -3.531659E+04
       320   7  5.798612E+05 -1.345468E+05 -1.016164E+05 -6.017029E+04 -2.006174E+04 -2.687906E+04
       320   8  4.845990E+05 -1.568773E+05 -1.074981E+05 -3.624823E+04 -3.636368E+04 -3.166954E+04
       320   9  3.953672E+05 -1.643412E+05 -9.901453E+04 -5.262853E+04 -5.265996E+04 -3.532095E+04
       320  10  1.674648E+06  1.327560E+05  1.414920E+05 -5.483470E+04  1.185645E-09  1.184415E-10
       320  11  1.763773E+06  1.553891E+05  1.762649E+05 -3.846446E+04 -3.801119E-10 -6.256476E-10
       320  12  1.859258E+06  1.932164E+05  2.267668E+05 -6.239152E+04 -2.748406E-10 -6.891489E-10
       320  13  1.127115E+06 -8.857676E+02  1.994609E+04 -5.750391E+04  5.387421E-10 -4.117787E-11
       320  14  1.123995E+06 -7.310398E+02  3.439388E+04 -3.735623E+04  6.769794E-10 -4.533207E-10
       320  15  1.127062E+06  1.445463E+04  6.388909E+04 -5.750786E+04  5.299800E-10 -4.601608E-10
       320  16  5.798606E+05 -1.345477E+05 -1.016185E+05 -6.017073E+04 -7.211873E-10 -4.150424E-10
       320  17  4.845973E+05 -1.568787E+05 -1.075025E+05 -3.624915E+04 -1.426399E-10 -6.109772E-10
       320  18  3.953639E+05 -1.643433E+05 -9.902208E+04 -5.263002E+04 -5.258280E-11  2.258762E-10
       320  19  1.674648E+06  1.327568E+05  1.414936E+05 -5.483447E+04  1.080893E+04  2.687663E+04
       320  20  1.763774E+06  1.553904E+05  1.762683E+05 -3.846372E+04  2.911355E+04  3.166363E+04
       320  21  1.859261E+06  1.932183E+05  2.267734E+05 -6.239017E+04  4.741755E+04  3.531228E+04
       320  22  1.127115E+06 -8.849276E+02  1.994789E+04 -5.750358E+04  1.543735E+04  2.687786E+04
       320  23  1.123996E+06 -7.296752E+02  3.439778E+04 -3.735540E+04  3.274046E+04  3.166658E+04
       320  24  1.127065E+06  1.445664E+04  6.389614E+04 -5.750643E+04  5.004029E+04  3.531659E+04
       320  25  5.798612E+05 -1.345468E+05 -1.016164E+05 -6.017029E+04  2.006174E+04  2.687906E+04
       320  26  4.845990E+05 -1.568773E+05 -1.074981E+05 -3.624823E+04  3.636368E+04  3.166954E+04
       320  27  3.953672E+05 -1.643412E+05 -9.901453E+04 -5.262853E+04  5.265996E+04  3.532095E+04
       321   1  1.952477E+06  1.850197E+05  2.596179E+05 -2.092132E+04 -5.113453E+04 -4.077679E+04
       321   2  2.009282E+06  2.160153E+05  3.385928E+05 -7.590589E+04 -1.457117E+05 -3.989155E+04
       321   3  2.140678E+06  4.948518E+05  5.410553E+05 -1.710041E+05 -2.403363E+05 -1.299127E+04
       321   4  1.141413E+06 -1.285612E+04  8.012920E+04 -5.739802E+04 -6.152933E+04 -4.078301E+04
       321   5  1.105939E+06 -4.863951E+03  1.355600E+05 -3.746941E+04 -1.334979E+05 -3.989442E+04
       321   6  1.141230E+06  2.472267E+05  2.989121E+05 -5.764202E+04 -2.054960E+05 -1.299665E+04
       321   7  3.309656E+05 -2.107712E+05 -9.939907E+04 -9.382669E+04 -7.191070E+04 -4.078802E+04
       321   8  2.033558E+05 -2.257933E+05 -6.752340E+04  9.105968E+02 -1.213014E+05 -3.989580E+04
       321   9  1.427224E+05 -4.222708E+02  5.670845E+04  5.553734E+04 -1.707113E+05 -1.298937E+04
       321  10  1.952473E+06  1.850173E+05  2.596099E+05 -2.092300E+04  2.394568E-10 -2.214862E-10
       321  11  2.009259E+06  2.160080E+05  3.385501E+05 -7.591057E+04  1.129747E-09  3.596484E-10
       321  12  2.140616E+06  4.948362E+05  5.409468E+05 -1.710066E+05  9.176815E-10  7.206335E-10
       321  13  1.141409E+06 -1.285892E+04  8.011897E+04 -5.740004E+04 -1.865498E-09 -9.806071E-10
       321  14  1.105919E+06 -4.870435E+03  1.355235E+05 -3.747370E+04  5.554362E-10  4.621795E-10
       321  15  1.141185E+06  2.472153E+05  2.988325E+05 -5.764417E+04 -4.614403E-11 -2.995468E-10
       321  16  3.309596E+05 -2.107744E+05 -9.941191E+04 -9.382905E+04 -5.007606E-10  2.694273E-10
       321  17  2.033396E+05 -2.257989E+05 -6.755403E+04  9.066990E+02 -8.510108E-10 -2.667022E-10
       321  18  1.426911E+05 -4.302725E+02  5.665338E+04  5.553556E+04 -3.536572E-10  1.147356E-09
       321  19  1.952477E+06  1.850197E+05  2.596179E+05 -2.092132E+04  5.113453E+04  4.077679E+04
       321  20  2.009282E+06  2.160153E+05  3.385928E+05 -7.590589E+04  1.457117E+05  3.989155E+04
       321  21  2.140678E+06  4.948518E+05  5.410553E+05 -1.710041E+05  2.403363E+05  1.299127E+04
       321  22  1.141413E+06 -1.285612E+04  8.012920E+04 -5.739802E+04  6.152933E+04  4.078301E+04
       321  23  1.105939E+06 -4.863951E+03  1.355600E+05 -3.746941E+04  1.334979E+05  3.989442E+04
       321  24  1.141230E+06  2.472267E+05  2.989121E+05 -5.764202E+04  2.054960E+05  1.299665E+04
       321  25  3.309656E+05 -2.107712E+05 -9.939907E+04 -9.382669E+04  7.191070E+04  4.078802E+04
       321  26  2.033558E+05 -2.257933E+05 -6.752340E+04  9.105968E+02  1.213014E+05  3.989580E+04
       321  27  1.427224E+05 -4.222708E+02  5.670845E+04  5.553734E+04  1.707113E+05  1.298937E+04
       322   1  2.441228E+05  7.223862E+05  2.776686E+05 -1.925129E+05  2.148296E+03  1.401923E+05
       322   2  2.821099E+04  5.141885E+05  1.235481E+05 -1.020403E+05  4.216757E+03  8.175437E+04
       322   3 -2.167133E+04  3.548212E+05  4.888584E+04 -9.141989E+04 -3.432165E+03  2.331789E+04
       322   4  1.664493E+05  4.116598E+05  2.013319E+05 -1.153425E+05  2.175363E+03  1.342668E+05
       322   5 -2.938909E+03  3.879975E+05  9.444785E+04 -7.556070E+04  4.216182E+03  8.424743E+04
       322   6 -7.737958E+03  4.117026E+05  6.121068E+04 -1.156152E+05 -3.451795E+03  3.421234E+04
       322   7  8.879087E+04  1.010340E+05  1.249913E+05 -3.821068E+04  2.200968E+03  1.283443E+05
       322   8 -3.408730E+04  2.618227E+05  6.534693E+04 -4.908648E+04  4.215820E+03  8.674000E+04
       322   9  6.197457E+03  4.685885E+05  7.353608E+04 -1.398129E+05 -3.472273E+03  4.510778E+04
       322  10  2.441175E+05  7.223652E+05  2.776317E+05 -1.925132E+05 -5.725132E-10 -1.501037E-10
       322  11  2.820918E+04  5.141813E+05  1.235355E+05 -1.020406E+05 -7.743048E-10  6.792772E-11
       322  12 -2.167149E+04  3.548206E+05  4.888480E+04 -9.141983E+04  1.525536E-09  1.246434E-09
       322  13  1.664445E+05  4.116405E+05  2.012980E+05 -1.153427E+05  3.035402E-10  1.536432E-09
       322  14 -2.940832E+03  3.879898E+05  9.443449E+04 -7.556099E+04 -1.175922E-09 -6.802147E-11
       322  15 -7.738285E+03  4.117013E+05  6.120846E+04 -1.156152E+05  9.967646E-10  9.775093E-10
       322  16  8.878645E+04  1.010163E+05  1.249604E+05 -3.821091E+04 -3.526259E-11  2.080286E-10
       322  17 -3.408934E+04  2.618146E+05  6.533277E+04 -4.908677E+04  7.239522E-10 -7.510531E-10
       322  18  6.196898E+03  4.685864E+05  7.353224E+04 -1.398127E+05  3.987103E-10 -2.157185E-09
       322  19  2.441228E+05  7.223862E+05  2.776686E+05 -1.925129E+05 -2.148296E+03 -1.401923E+05
       322  20  2.821099E+04  5.141885E+05  1.235481E+05 -1.020403E+05 -4.216757E+03 -8.175437E+04
       322  21 -2.167133E+04  3.548212E+05  4.888584E+04 -9.141989E+04  3.432165E+03 -2.331789E+04
       322  22  1.664493E+05  4.116598E+05  2.013319E+05 -1.153425E+05 -2.175363E+03 -1.342668E+05
       322  23 -2.938909E+03  3.879975E+05  9.444785E+04 -7.556070E+04 -4.216182E+03 -8.424743E+04
       322  24 -7.737958E+03  4.117026E+05  6.121068E+04 -1.156152E+05  3.451795E+03 -3.421234E+04
       322  25  8.879087E+04  1.010340E+05  1.249913E+05 -3.821068E+04 -2.200968E+03 -1.283443E+05
       322  26 -3.408730E+04  2.618227E+05  6.534693E+04 -4.908648E+04 -4.215820E+03 -8.674000E+04
       322  27  6.197457E+03  4.685885E+05  7.353608E+04 -1.398129E+05  3.472273E+03 -4.510778E+04
       323   1 -4.212891E+04  1.905165E+05  5.706318E+03 -1.202838E+05 -1.036038E+04  1.656931E+04
       323   2 -9.735878E+04  3.124721E+03 -4.697011E+04 -7.519648E+04 -1.958503E+04 -3.299341E+03
       323   3 -1.342911E+05 -1.772835E+05 -8.219292E+04 -1.104936E+05 -2.792676E+04 -2.315611E+04
       323   4  9.726252E+03  4.027347E+05  5.292757E+04 -1.156598E+05 -1.037420E+04  2.495859E+04
       323   5 -5.709256E+02  3.991727E+05  4.100001E+04 -7.547173E+04 -1.959572E+04  4.317463E+03
       323   6  7.559648E+03  4.026935E+05  4.705903E+04 -1.156634E+05 -2.793439E+04 -1.631748E+04
       323   7  6.157849E+04  6.149950E+05  1.001463E+05 -1.110343E+05 -1.038789E+04  3.335070E+04
       323   8  9.620636E+04  7.953672E+05  1.289606E+05 -7.574709E+04 -1.960641E+04  1.193907E+04
       323   9  1.493877E+05  9.829841E+05  1.762901E+05 -1.208380E+05 -2.794213E+04 -9.472528E+03
       323  10 -4.212910E+04  1.905162E+05  5.705600E+03 -1.202836E+05  7.743829E-10 -8.283571E-10
       323  11 -9.735920E+04  3.124606E+03 -4.697086E+04 -7.519654E+04  6.278970E-10 -1.209332E-09
       323  12 -1.342920E+05 -1.772842E+05 -8.219539E+04 -1.104941E+05 -6.384027E-10 -4.742586E-10
       323  13  9.725970E+03  4.027340E+05  5.292620E+04 -1.156596E+05  1.085971E-09  1.631938E-09
       323  14 -5.713429E+02  3.991726E+05  4.099926E+04 -7.547166E+04  1.207117E-09 -2.339592E-12
       323  15  7.558738E+03  4.026930E+05  4.705706E+04 -1.156638E+05  5.744082E-10  6.379947E-10
       323  16  6.157808E+04  6.149938E+05  1.001440E+05 -1.110340E+05  5.822763E-10  8.124217E-10
       323  17  9.620591E+04  7.953669E+05  1.289596E+05 -7.574690E+04 -7.863543E-10  6.390295E-10
       323  18  1.493868E+05  9.829838E+05  1.762885E+05 -1.208382E+05 -2.982714E-10 -2.401303E-10
       323  19 -4.212891E+04  1.905165E+05  5.706318E+03 -1.202838E+05  1.036038E+04 -1.656931E+04
       323  20 -9.735878E+04  3.124721E+03 -4.697011E+04 -7.519648E+04  1.958503E+04  3.299341E+03
       323  21 -1.342911E+05 -1.772835E+05 -8.219292E+04 -1.104936E+05  2.792676E+04  2.315611E+04
       323  22  9.726252E+03  4.027347E+05  5.292757E+04 -1.156598E+05  1.037420E+04 -2.495859E+04
       323  23 -5.709256E+02  3.991727E+05  4.100001E+04 -7.547173E+04  1.959572E+04 -4.317463E+03
       323  24  7.559648E+03  4.026935E+05  4.705903E+04 -1.156634E+05  2.793439E+04  1.631748E+04
       323  25  6.157849E+04  6.149950E+05  1.001463E+05 -1.110343E+05  1.038789E+04 -3.335070E+04
       323  26  9.620636E+04  7.953672E+05  1.289606E+05 -7.574709E+04  1.960641E+04 -1.193907E+04
       323  27  1.493877E+05  9.829841E+05  1.762901E+05 -1.208380E+05  2.794213E+04  9.472528E+03
       324   1 -1.859072E+05 -3.261492E+05 -1.107016E+05 -1.341535E+05 -3.667497E+04 -3.999835E+04
       324   2 -2.277332E+05 -5.278272E+05 -1.296519E+05 -5.388580E+04 -3.983211E+04 -5.527514E+04
       324   3 -1.411342E+05 -6.951661E+05 -1.064969E+05 -5.298656E+04 -1.327786E+04 -7.052754E+04
       324   4 -6.143994E+03  4.096779E+05  5.257650E+04 -1.154679E+05 -3.669296E+04 -2.445348E+04
       324   5 -2.621022E+03  3.902665E+05  7.746751E+04 -7.573644E+04 -3.981663E+04 -6.543406E+04
       324   6  1.336795E+05  4.095570E+05  1.622590E+05 -1.153562E+05 -1.324656E+04 -1.063960E+05
       324   7  1.735841E+05  1.146012E+06  2.158221E+05 -9.675958E+04 -3.671001E+04 -8.890377E+03
       324   8  2.224351E+05  1.309145E+06  2.845336E+05 -9.761951E+04 -3.980046E+04 -7.560782E+04
       324   9  4.084185E+05  1.515405E+06  4.309333E+05 -1.778370E+05 -1.320809E+04 -1.423280E+05
       324  10 -1.859091E+05 -3.261513E+05 -1.107071E+05 -1.341547E+05 -1.045901E-10  3.238826E-11
       324  11 -2.277357E+05 -5.278309E+05 -1.296606E+05 -5.388758E+04  5.367675E-10 -1.004582E-10
       324  12 -1.411357E+05 -6.951715E+05 -1.065065E+05 -5.298731E+04 -1.305700E-10  1.611536E-10
       324  13 -6.145601E+03  4.096769E+05  5.257285E+04 -1.154686E+05 -1.025351E-09  1.286529E-09
       324  14 -2.623874E+03  3.902615E+05  7.745649E+04 -7.573854E+04  1.450602E-10  1.004576E-11
       324  15  1.336762E+05  4.095448E+05  1.622374E+05 -1.153574E+05 -1.101329E-10  2.862552E-10
       324  16  1.735826E+05  1.146011E+06  2.158194E+05 -9.675984E+04  5.051273E-10 -8.492566E-11
       324  17  2.224319E+05  1.309139E+06  2.845199E+05 -9.762193E+04 -2.229863E-10 -3.868544E-10
       324  18  4.084128E+05  1.515383E+06  4.308950E+05 -1.778385E+05 -4.298332E-10 -3.487884E-10
       324  19 -1.859072E+05 -3.261492E+05 -1.107016E+05 -1.341535E+05  3.667497E+04  3.999835E+04
       324  20 -2.277332E+05 -5.278272E+05 -1.296519E+05 -5.388580E+04  3.983211E+04  5.527514E+04
       324  21 -1.411342E+05 -6.951661E+05 -1.064969E+05 -5.298656E+04  1.327786E+04  7.052754E+04
       324  22 -6.143994E+03  4.096779E+05  5.257650E+04 -1.154679E+05  3.669296E+04  2.445348E+04
       324  23 -2.621022E+03  3.902665E+05  7.746751E+04 -7.573644E+04  3.981663E+04  6.543406E+04
       324  24  1.336795E+05  4.095570E+05  1.622590E+05 -1.153562E+05  1.324656E+04  1.063960E+05
       324  25  1.735841E+05  1.146012E+06  2.158221E+05 -9.675958E+04  3.671001E+04  8.890377E+03
       324  26  2.224351E+05  1.309145E+06  2.845336E+05 -9.761951E+04  3.980046E+04  7.560782E+04
       324  27  4.084185E+05  1.515405E+06  4.309333E+05 -1.778370E+05  1.320809E+04  1.423280E+05
       325   1 -2.647106E+06 -1.023425E+06 -5.649794E+05 -1.033002E+06 -2.714919E+05 -8.489124E+04
       325   2 -2.573021E+06 -7.109753E+05 -3.376703E+05 -9.996048E+05 -1.721863E+05 -8.340191E+03
       325   3 -2.565076E+06 -5.913417E+05 -2.424324E+05 -9.408177E+05 -6.263564E+04  4.108463E+04
       325   4 -1.758391E+06 -5.441403E+05 -3.062202E+05 -6.410683E+05 -2.029903E+05 -5.918845E+04
       325   5 -1.712212E+06 -3.323213E+05 -1.398823E+05 -6.985685E+05 -1.425025E+05  2.798802E+03
       325   6 -1.724357E+06 -3.054820E+05 -7.466262E+04 -7.307145E+05 -7.178798E+04  3.763802E+04
       325   7 -8.688543E+05 -6.452223E+04 -4.751717E+04 -2.485468E+05 -1.343828E+05 -3.340531E+04
       325   8 -8.506360E+05  4.648617E+04  5.786101E+04 -3.971156E+05 -1.127742E+05  1.396194E+04
       325   9 -8.828996E+05 -1.958252E+04  9.307634E+04 -5.203554E+05 -8.095379E+04  3.418719E+04
       325  10 -2.647187E+06 -1.023453E+06 -5.651322E+05 -1.033020E+06  8.967091E-10 -3.009534E-10
       325  11 -2.573053E+06 -7.109834E+05 -3.377263E+05 -9.996060E+05  1.438933E-09 -7.258464E-10
       325  12 -2.565080E+06 -5.913445E+05 -2.424429E+05 -9.408157E+05  1.593971E-09 -5.119259E-10
       325  13 -1.758437E+06 -5.441552E+05 -3.063045E+05 -6.410780E+05  6.566262E-10  4.863726E-10
       325  14 -1.712234E+06 -3.323268E+05 -1.399206E+05 -6.985682E+05 -7.407964E-10  2.272966E-10
       325  15 -1.724363E+06 -3.054849E+05 -7.467497E+04 -7.307124E+05 -5.084103E-10 -4.153968E-10
       325  16 -8.688740E+05 -6.452829E+04 -4.755325E+04 -2.485505E+05 -1.020437E-10 -1.964974E-10
       325  17 -8.506497E+05  4.648254E+04  5.783671E+04 -3.971144E+05  1.939258E-10  1.706679E-10
       325  18 -8.829069E+05 -1.958553E+04  9.306182E+04 -5.203532E+05 -2.123892E-10  2.206043E-10
       325  19 -2.647106E+06 -1.023425E+06 -5.649794E+05 -1.033002E+06  2.714919E+05  8.489124E+04
       325  20 -2.573021E+06 -7.109753E+05 -3.376703E+05 -9.996048E+05  1.721863E+05  8.340191E+03
       325  21 -2.565076E+06 -5.913417E+05 -2.424324E+05 -9.408177E+05  6.263564E+04 -4.108463E+04
       325  22 -1.758391E+06 -5.441403E+05 -3.062202E+05 -6.410683E+05  2.029903E+05  5.918845E+04
       325  23 -1.712212E+06 -3.323213E+05 -1.398823E+05 -6.985685E+05  1.425025E+05 -2.798802E+03
       325  24 -1.724357E+06 -3.054820E+05 -7.466262E+04 -7.307145E+05  7.178798E+04 -3.763802E+04
       325  25 -8.688543E+05 -6.452223E+04 -4.751717E+04 -2.485468E+05  1.343828E+05  3.340531E+04
       325  26 -8.506360E+05  4.648617E+04  5.786101E+04 -3.971156E+05  1.127742E+05 -1.396194E+04
       325  27 -8.828996E+05 -1.958252E+04  9.307634E+04 -5.203554E+05  8.095379E+04 -3.418719E+04
       326   1 -2.478707E+06 -5.966893E+05 -2.125421E+05 -9.388360E+05 -5.780326E+04  3.865385E+04
       326   2 -2.400478E+06 -5.463513E+05 -1.660242E+05 -9.062781E+05 -3.858405E+04  4.164054E+04
       326   3 -2.311119E+06 -5.206191E+05 -1.349492E+05 -8.911140E+05 -1.865575E+04  4.273845E+04
       326   4 -1.715032E+06 -3.137017E+05 -5.698205E+04 -7.236701E+05 -6.180401E+04  3.714313E+04
       326   5 -1.720158E+06 -2.968881E+05 -3.009591E+04 -7.167543E+05 -4.527332E+04  3.912210E+04
       326   6 -1.713620E+06 -3.041378E+05 -1.650190E+04 -7.272336E+05 -2.803662E+04  3.921227E+04
       326   7 -9.507545E+05 -3.066016E+04  9.854855E+04 -5.082571E+05 -6.581004E+04  3.563038E+04
       326   8 -1.039361E+06 -4.738479E+04  1.058096E+05 -5.270381E+05 -5.197046E+04  3.660069E+04
       326   9 -1.115756E+06 -8.762854E+04  1.019276E+05 -5.632085E+05 -3.742714E+04  3.568254E+04
       326  10 -2.478711E+06 -5.966918E+05 -2.125512E+05 -9.388342E+05  6.363587E-10  1.324861E-11
       326  11 -2.400480E+06 -5.463535E+05 -1.660303E+05 -9.062768E+05  2.327705E-11  4.246046E-10
       326  12 -2.311120E+06 -5.206212E+05 -1.349533E+05 -8.911134E+05  3.157017E-10  3.377877E-10
       326  13 -1.715037E+06 -3.137042E+05 -5.699183E+04 -7.236682E+05  1.551568E-10  1.171462E-10
       326  14 -1.720161E+06 -2.968903E+05 -3.010263E+04 -7.167529E+05  2.671843E-10 -1.362258E-10
       326  15 -1.713621E+06 -3.041396E+05 -1.650627E+04 -7.272327E+05 -9.394213E-11  2.158034E-10
       326  16 -9.507595E+05 -3.066269E+04  9.853803E+04 -5.082552E+05 -1.137722E-09  5.941815E-10
       326  17 -1.039364E+06 -4.738695E+04  1.058020E+05 -5.270366E+05  1.122721E-10 -2.423387E-10
       326  18 -1.115758E+06 -8.763028E+04  1.019226E+05 -5.632075E+05 -2.153563E-10  3.261070E-10
       326  19 -2.478707E+06 -5.966893E+05 -2.125421E+05 -9.388360E+05  5.780326E+04 -3.865385E+04
       326  20 -2.400478E+06 -5.463513E+05 -1.660242E+05 -9.062781E+05  3.858405E+04 -4.164054E+04
       326  21 -2.311119E+06 -5.206191E+05 -1.349492E+05 -8.911140E+05  1.865575E+04 -4.273845E+04
       326  22 -1.715032E+06 -3.137017E+05 -5.698205E+04 -7.236701E+05  6.180401E+04 -3.714313E+04
       326  23 -1.720158E+06 -2.968881E+05 -3.009591E+04 -7.167543E+05  4.527332E+04 -3.912210E+04
       326  24 -1.713620E+06 -3.041378E+05 -1.650190E+04 -7.272336E+05  2.803662E+04 -3.921227E+04
       326  25 -9.507545E+05 -3.066016E+04  9.854855E+04 -5.082571E+05  6.581004E+04 -3.563038E+04
       326  26 -1.039361E+06 -4.738479E+04  1.058096E+05 -5.270381E+05  5.197046E+04 -3.660069E+04
       326  27 -1.115756E+06 -8.762854E+04  1.019276E+05 -5.632085E+05  3.742714E+04 -3.568254E+04
       327   1 -2.251533E+06 -5.006139E+05 -1.188856E+05 -8.757048E+05 -1.524361E+04  3.966928E+04
       327   2 -2.173704E+06 -4.607912E+05 -9.637131E+04 -8.425335E+05 -9.240397E+03  3.464194E+04
       327   3 -2.079848E+06 -4.379767E+05 -7.663234E+04 -8.284101E+05 -3.185271E+03  2.946974E+04
       327   4 -1.712908E+06 -3.045127E+05 -1.241903E+04 -7.268634E+05 -2.429343E+04  3.626898E+04
       327   5 -1.720904E+06 -2.959047E+05 -6.826378E+03 -7.173778E+05 -1.849519E+04  3.116684E+04
       327   6 -1.712841E+06 -3.042645E+05 -3.845320E+03 -7.269423E+05 -1.264560E+04  2.591973E+04
       327   7 -1.173977E+06 -1.083845E+05  9.403565E+04 -5.779008E+05 -3.335179E+04  3.286551E+04
       327   8 -1.267888E+06 -1.309997E+05  8.270992E+04 -5.921367E+05 -2.775728E+04  2.768902E+04
       327   9 -1.345695E+06 -1.705405E+05  6.893578E+04 -6.254188E+05 -2.211195E+04  2.236746E+04
       327  10 -2.251534E+06 -5.006157E+05 -1.188890E+05 -8.757043E+05 -7.488751E-10  1.832801E-10
       327  11 -2.173704E+06 -4.607925E+05 -9.637372E+04 -8.425333E+05 -6.262873E-10 -1.399407E-10
       327  12 -2.079848E+06 -4.379776E+05 -7.663399E+04 -8.284100E+05 -9.669139E-10 -2.219332E-11
       327  13 -1.712909E+06 -3.045142E+05 -1.242261E+04 -7.268627E+05 -3.774410E-10  2.182475E-10
       327  14 -1.720904E+06 -2.959059E+05 -6.828844E+03 -7.173773E+05  2.155530E-11 -8.729725E-11
       327  15 -1.712841E+06 -3.042652E+05 -3.846881E+03 -7.269421E+05  2.101753E-10  5.609543E-11
       327  16 -1.173978E+06 -1.083860E+05  9.403153E+04 -5.778999E+05  2.749171E-10  1.344429E-10
       327  17 -1.267889E+06 -1.310008E+05  8.270703E+04 -5.921360E+05  1.247231E-10  1.378706E-10
       327  18 -1.345695E+06 -1.705411E+05  6.893393E+04 -6.254184E+05  8.371012E-10  2.087038E-10
       327  19 -2.251533E+06 -5.006139E+05 -1.188856E+05 -8.757048E+05  1.524361E+04 -3.966928E+04
       327  20 -2.173704E+06 -4.607912E+05 -9.637131E+04 -8.425335E+05  9.240397E+03 -3.464194E+04
       327  21 -2.079848E+06 -4.379767E+05 -7.663234E+04 -8.284101E+05  3.185271E+03 -2.946974E+04
       327  22 -1.712908E+06 -3.045127E+05 -1.241903E+04 -7.268634E+05  2.429343E+04 -3.626898E+04
       327  23 -1.720904E+06 -2.959047E+05 -6.826378E+03 -7.173778E+05  1.849519E+04 -3.116684E+04
       327  24 -1.712841E+06 -3.042645E+05 -3.845320E+03 -7.269423E+05  1.264560E+04 -2.591973E+04
       327  25 -1.173977E+06 -1.083845E+05  9.403565E+04 -5.779008E+05  3.335179E+04 -3.286551E+04
       327  26 -1.267888E+06 -1.309997E+05  8.270992E+04 -5.921367E+05  2.775728E+04 -2.768902E+04
       327  27 -1.345695E+06 -1.705405E+05  6.893578E+04 -6.254188E+05  2.211195E+04 -2.236746E+04
       328   1 -2.021351E+06 -4.166815E+05 -6.370723E+04 -8.123207E+05 -1.188351E+03  2.583505E+04
       328   2 -1.943361E+06 -3.769643E+05 -4.578115E+04 -7.788968E+05  2.227345E+03  1.958922E+04
       328   3 -1.848809E+06 -3.539532E+05 -2.855735E+04 -7.646043E+05  5.647824E+03  1.332664E+04
       328   4 -1.712732E+06 -3.042877E+05 -2.956909E+03 -7.269262E+05 -1.064021E+04  2.228921E+04
       328   5 -1.721006E+06 -2.959361E+05 -1.842105E+03 -7.173566E+05 -7.248461E+03  1.603550E+04
       328   6 -1.712719E+06 -3.042864E+05 -1.410639E+03 -7.269211E+05 -3.852057E+03  9.764976E+03
       328   7 -1.404017E+06 -1.918865E+05  5.778870E+04 -6.414929E+05 -2.009704E+04  1.874151E+04
       328   8 -1.498598E+06 -2.149036E+05  4.209503E+04 -6.557958E+05 -1.672792E+04  1.248041E+04
       328   9 -1.576610E+06 -2.546175E+05  2.573589E+04 -6.892298E+05 -1.335426E+04  6.202442E+03
       328  10 -2.021352E+06 -4.166823E+05 -6.370848E+04 -8.123207E+05 -7.401509E-10  1.109576E-10
       328  11 -1.943361E+06 -3.769647E+05 -4.578188E+04 -7.788969E+05 -1.453987E-10  2.844521E-10
       328  12 -1.848809E+06 -3.539534E+05 -2.855775E+04 -7.646043E+05 -1.083928E-09 -5.029588E-11
       328  13 -1.712733E+06 -3.042883E+05 -2.958054E+03 -7.269260E+05 -1.013175E-10  2.557775E-10
       328  14 -1.721006E+06 -2.959364E+05 -1.842686E+03 -7.173565E+05  2.054942E-10  3.279765E-10
       328  15 -1.712719E+06 -3.042865E+05 -1.410846E+03 -7.269210E+05 -1.765374E-10  3.332239E-10
       328  16 -1.404017E+06 -1.918870E+05  5.778728E+04 -6.414926E+05  1.476745E-10  6.778974E-11
       328  17 -1.498599E+06 -2.149038E+05  4.209421E+04 -6.557957E+05 -4.720006E-10  3.407963E-10
       328  18 -1.576610E+06 -2.546176E+05  2.573548E+04 -6.892298E+05  4.299139E-10  7.269769E-10
       328  19 -2.021351E+06 -4.166815E+05 -6.370723E+04 -8.123207E+05  1.188351E+03 -2.583505E+04
       328  20 -1.943361E+06 -3.769643E+05 -4.578115E+04 -7.788968E+05 -2.227345E+03 -1.958922E+04
       328  21 -1.848809E+06 -3.539532E+05 -2.855735E+04 -7.646043E+05 -5.647824E+03 -1.332664E+04
       328  22 -1.712732E+06 -3.042877E+05 -2.956909E+03 -7.269262E+05  1.064021E+04 -2.228921E+04
       328  23 -1.721006E+06 -2.959361E+05 -1.842105E+03 -7.173566E+05  7.248461E+03 -1.603550E+04
       328  24 -1.712719E+06 -3.042864E+05 -1.410639E+03 -7.269211E+05  3.852057E+03 -9.764976E+03
       328  25 -1.404017E+06 -1.918865E+05  5.778870E+04 -6.414929E+05  2.009704E+04 -1.874151E+04
       328  26 -1.498598E+06 -2.149036E+05  4.209503E+04 -6.557958E+05  1.672792E+04 -1.248041E+04
       328  27 -1.576610E+06 -2.546175E+05  2.573589E+04 -6.892298E+05  1.335426E+04 -6.202442E+03
       329   1 -1.790235E+06 -3.325291E+05 -1.646109E+04 -7.484376E+05  7.332000E+03  9.559810E+03
       329   2 -1.712098E+06 -2.927439E+05  2.475895E+01 -7.149655E+05  1.066565E+04  3.256845E+03
       329   3 -1.617370E+06 -2.696833E+05  1.587400E+04 -7.006580E+05  1.399692E+04 -3.039595E+03
       329   4 -1.712711E+06 -3.042894E+05 -1.390871E+03 -7.269281E+05 -2.172790E+03  5.996608E+03
       329   5 -1.721001E+06 -2.959122E+05 -1.727467E+03 -7.173498E+05  1.169564E+03 -3.031349E+02
       329   6 -1.712709E+06 -3.042621E+05 -2.707744E+03 -7.269390E+05  4.509397E+03 -6.596373E+03
       329   7 -1.635180E+06 -2.760491E+05  1.367947E+04 -7.054160E+05 -1.167885E+04  2.432929E+03
       329   8 -1.729903E+06 -2.990805E+05 -3.479297E+03 -7.197339E+05 -8.326335E+03 -3.863047E+03
       329   9 -1.808037E+06 -3.388396E+05 -2.128927E+04 -7.532160E+05 -4.976479E+03 -1.015254E+04
       329  10 -1.790235E+06 -3.325292E+05 -1.646137E+04 -7.484377E+05 -5.283262E-11 -1.015589E-10
       329  11 -1.712098E+06 -2.927439E+05  2.452450E+01 -7.149655E+05 -1.965993E-09 -1.073453E-09
       329  12 -1.617370E+06 -2.696834E+05  1.587361E+04 -7.006580E+05 -1.959540E-09 -6.088870E-10
       329  13 -1.712711E+06 -3.042894E+05 -1.390948E+03 -7.269281E+05 -2.386371E-10  1.488113E-10
       329  14 -1.721001E+06 -2.959122E+05 -1.727469E+03 -7.173498E+05 -3.976242E-10 -2.948551E-10
       329  15 -1.712709E+06 -3.042621E+05 -2.707864E+03 -7.269390E+05  6.065403E-10  4.568864E-10
       329  16 -1.635180E+06 -2.760491E+05  1.367920E+04 -7.054160E+05  5.737319E-10  7.464535E-10
       329  17 -1.729903E+06 -2.990805E+05 -3.479456E+03 -7.197340E+05  1.696666E-09  5.362564E-10
       329  18 -1.808037E+06 -3.388398E+05 -2.128952E+04 -7.532161E+05  1.036250E-09  3.900370E-10
       329  19 -1.790235E+06 -3.325291E+05 -1.646109E+04 -7.484376E+05 -7.332000E+03 -9.559810E+03
       329  20 -1.712098E+06 -2.927439E+05  2.475895E+01 -7.149655E+05 -1.066565E+04 -3.256845E+03
       329  21 -1.617370E+06 -2.696833E+05  1.587400E+04 -7.006580E+05 -1.399692E+04  3.039595E+03
       329  22 -1.712711E+06 -3.042894E+05 -1.390871E+03 -7.269281E+05  2.172790E+03 -5.996608E+03
       329  23 -1.721001E+06 -2.959122E+05 -1.727467E+03 -7.173498E+05 -1.169564E+03  3.031349E+02
       329  24 -1.712709E+06 -3.042621E+05 -2.707744E+03 -7.269390E+05 -4.509397E+03  6.596373E+03
       329  25 -1.635180E+06 -2.760491E+05  1.367947E+04 -7.054160E+05  1.167885E+04 -2.432929E+03
       329  26 -1.729903E+06 -2.990805E+05 -3.479297E+03 -7.197339E+05  8.326335E+03  3.863047E+03
       329  27 -1.808037E+06 -3.388396E+05 -2.128927E+04 -7.532160E+05  4.976479E+03  1.015254E+04
       330   1 -1.558831E+06 -2.482774E+05  2.715632E+04 -6.845509E+05  1.597157E+04 -6.696204E+03
       330   2 -1.480631E+06 -2.085532E+05  4.130671E+04 -6.511329E+05  2.135883E+04 -1.216465E+04
       330   3 -1.386232E+06 -1.858080E+05  5.320992E+04 -6.368616E+05  2.670659E+04 -1.752207E+04
       330   4 -1.712794E+06 -3.042460E+05 -3.503183E+03 -7.269663E+05  6.469878E+03 -1.025866E+04
       330   5 -1.720896E+06 -2.958388E+05 -6.183504E+03 -7.173576E+05  1.201390E+04 -1.566952E+04
       330   6 -1.712840E+06 -3.044441E+05 -1.123698E+04 -7.269001E+05  1.751796E+04 -2.096948E+04
       330   7 -1.866734E+06 -3.602131E+05 -3.416380E+04 -7.693723E+05 -3.029357E+03 -1.382020E+04
       330   8 -1.961102E+06 -3.831198E+05 -5.367633E+04 -7.835589E+05  2.672811E+03 -1.917296E+04
       330   9 -2.039338E+06 -4.230710E+05 -7.568850E+04 -8.168947E+05  8.334514E+03 -2.441495E+04
       330  10 -1.558832E+06 -2.482775E+05  2.715576E+04 -6.845508E+05 -1.735260E-10  2.704849E-10
       330  11 -1.480631E+06 -2.085535E+05  4.130557E+04 -6.511327E+05 -6.589279E-10 -7.103462E-11
       330  12 -1.386233E+06 -1.858085E+05  5.320800E+04 -6.368612E+05 -1.040777E-09 -3.134797E-10
       330  13 -1.712794E+06 -3.042462E+05 -3.503459E+03 -7.269663E+05 -8.106196E-10 -1.037324E-10
       330  14 -1.720896E+06 -2.958391E+05 -6.184237E+03 -7.173575E+05 -1.106095E-09 -4.754681E-10
       330  15 -1.712840E+06 -3.044446E+05 -1.123839E+04 -7.268998E+05 -1.176189E-09 -3.172108E-10
       330  16 -1.866734E+06 -3.602133E+05 -3.416418E+04 -7.693723E+05 -4.637800E-10 -1.237109E-10
       330  17 -1.961102E+06 -3.831202E+05 -5.367703E+04 -7.835589E+05  8.180578E-10  4.268303E-10
       330  18 -2.039338E+06 -4.230716E+05 -7.568975E+04 -8.168945E+05  1.821209E-10  8.177340E-11
       330  19 -1.558831E+06 -2.482774E+05  2.715632E+04 -6.845509E+05 -1.597157E+04  6.696204E+03
       330  20 -1.480631E+06 -2.085532E+05  4.130671E+04 -6.511329E+05 -2.135883E+04  1.216465E+04
       330  21 -1.386232E+06 -1.858080E+05  5.320992E+04 -6.368616E+05 -2.670659E+04  1.752207E+04
       330  22 -1.712794E+06 -3.042460E+05 -3.503183E+03 -7.269663E+05 -6.469878E+03  1.025866E+04
       330  23 -1.720896E+06 -2.958388E+05 -6.183504E+03 -7.173576E+05 -1.201390E+04  1.566952E+04
       330  24 -1.712840E+06 -3.044441E+05 -1.123698E+04 -7.269001E+05 -1.751796E+04  2.096948E+04
       330  25 -1.866734E+06 -3.602131E+05 -3.416380E+04 -7.693723E+05  3.029357E+03  1.382020E+04
       330  26 -1.961102E+06 -3.831198E+05 -5.367633E+04 -7.835589E+05 -2.672811E+03  1.917296E+04
       330  27 -2.039338E+06 -4.230710E+05 -7.568850E+04 -8.168947E+05 -8.334514E+03  2.441495E+04
       331   1 -1.327644E+06 -1.648978E+05  6.156708E+04 -6.219807E+05  3.050687E+04 -2.047370E+04
       331   2 -1.250483E+06 -1.244554E+05  6.671312E+04 -5.858557E+05  4.424129E+04 -2.197716E+04
       331   3 -1.160670E+06 -1.070740E+05  6.153303E+04 -5.674525E+05  5.741652E+04 -2.197952E+04
       331   4 -1.713476E+06 -3.041136E+05 -1.492936E+04 -7.272519E+05  2.104925E+04 -2.402296E+04
       331   5 -1.720214E+06 -2.966828E+05 -2.721344E+04 -7.167803E+05  3.692648E+04 -2.472470E+04
       331   6 -1.714737E+06 -3.127440E+05 -5.153182E+04 -7.240344E+05  5.224271E+04 -2.392542E+04
       331   7 -2.099151E+06 -4.433161E+05 -9.143153E+04 -8.324620E+05  1.159803E+04 -2.756988E+04
       331   8 -2.189718E+06 -4.688905E+05 -1.211504E+05 -8.476128E+05  2.961762E+04 -2.746999E+04
       331   9 -2.268493E+06 -5.183871E+05 -1.646134E+05 -8.804872E+05  4.707381E+04 -2.586942E+04
       331  10 -1.327645E+06 -1.648985E+05  6.156454E+04 -6.219802E+05  7.596252E-11 -1.321173E-10
       331  11 -1.250485E+06 -1.244564E+05  6.670853E+04 -5.858549E+05 -9.867533E-10 -2.611956E-10
       331  12 -1.160673E+06 -1.070754E+05  6.152592E+04 -5.674515E+05 -2.052360E-09  7.579270E-11
       331  13 -1.713477E+06 -3.041144E+05 -1.493127E+04 -7.272515E+05  9.201495E-11 -9.956498E-11
       331  14 -1.720216E+06 -2.966838E+05 -2.721715E+04 -7.167796E+05 -1.847922E-11 -2.526275E-10
       331  15 -1.714741E+06 -3.127453E+05 -5.153803E+04 -7.240334E+05 -1.682867E-09  3.947228E-10
       331  16 -2.099152E+06 -4.433169E+05 -9.143321E+04 -8.324617E+05  2.981765E-10 -5.850861E-11
       331  17 -2.189719E+06 -4.688916E+05 -1.211534E+05 -8.476121E+05 -3.344275E-11 -6.680591E-11
       331  18 -2.268495E+06 -5.183884E+05 -1.646188E+05 -8.804862E+05  2.181102E-09  3.433274E-10
       331  19 -1.327644E+06 -1.648978E+05  6.156708E+04 -6.219807E+05 -3.050687E+04  2.047370E+04
       331  20 -1.250483E+06 -1.244554E+05  6.671312E+04 -5.858557E+05 -4.424129E+04  2.197716E+04
       331  21 -1.160670E+06 -1.070740E+05  6.153303E+04 -5.674525E+05 -5.741652E+04  2.197952E+04
       331  22 -1.713476E+06 -3.041136E+05 -1.492936E+04 -7.272519E+05 -2.104925E+04  2.402296E+04
       331  23 -1.720214E+06 -2.966828E+05 -2.721344E+04 -7.167803E+05 -3.692648E+04  2.472470E+04
       331  24 -1.714737E+06 -3.127440E+05 -5.153182E+04 -7.240344E+05 -5.224271E+04  2.392542E+04
       331  25 -2.099151E+06 -4.433161E+05 -9.143153E+04 -8.324620E+05 -1.159803E+04  2.756988E+04
       331  26 -2.189718E+06 -4.688905E+05 -1.211504E+05 -8.476128E+05 -2.961762E+04  2.746999E+04
       331  27 -2.268493E+06 -5.183871E+05 -1.646134E+05 -8.804872E+05 -4.707381E+04  2.586942E+04
       332   1 -1.093342E+06 -9.492391E+04  5.779129E+04 -5.768340E+05  7.070958E+04 -2.129320E+04
       332   2 -1.055607E+06 -3.119663E+04  2.624303E+04 -4.616195E+05  1.044941E+05 -3.609369E+03
       332   3 -1.062532E+06 -1.304343E+05 -7.211859E+04 -3.257084E+05  1.301586E+05  3.569887E+04
       332   4 -1.723137E+06 -3.053372E+05 -6.752118E+04 -7.304420E+05  6.142409E+04 -2.478154E+04
       332   5 -1.713047E+06 -3.286741E+05 -1.264950E+05 -7.002991E+05  1.261918E+05  4.526483E+03
       332   6 -1.753856E+06 -5.212608E+05 -2.769355E+05 -6.494520E+05  1.828279E+05  5.545722E+04
       332   7 -2.352527E+06 -5.157339E+05 -1.928530E+05 -8.839134E+05  5.214870E+04 -2.826684E+04
       332   8 -2.370025E+06 -6.260439E+05 -2.792557E+05 -9.387196E+05  1.478643E+05  1.264799E+04
       332   9 -2.444635E+06 -9.118250E+05 -4.817742E+05 -9.727951E+05  2.354313E+05  7.516270E+04
       332  10 -1.093347E+06 -9.492574E+04  5.778103E+04 -5.768328E+05 -2.259793E-09  5.424566E-10
       332  11 -1.055619E+06 -3.119958E+04  2.622245E+04 -4.616192E+05 -1.061468E-09  6.596813E-11
       332  12 -1.062551E+06 -1.304403E+05 -7.215288E+04 -3.257121E+05  1.412052E-10  5.991231E-10
       332  13 -1.723141E+06 -3.053389E+05 -6.752943E+04 -7.304407E+05  1.127608E-11  3.497110E-10
       332  14 -1.713064E+06 -3.286784E+05 -1.265251E+05 -7.002996E+05  1.348042E-09  2.723462E-11
       332  15 -1.753893E+06 -5.212732E+05 -2.770043E+05 -6.494602E+05  1.579115E-10  1.707219E-10
       332  16 -2.352530E+06 -5.157355E+05 -1.928596E+05 -8.839123E+05  2.124704E-09  3.982750E-10
       332  17 -2.370048E+06 -6.260500E+05 -2.792973E+05 -9.387211E+05 -8.379645E-10  9.668503E-10
       332  18 -2.444696E+06 -9.118460E+05 -4.818895E+05 -9.728094E+05 -1.909182E-09  1.878205E-10
       332  19 -1.093342E+06 -9.492391E+04  5.779129E+04 -5.768340E+05 -7.070958E+04  2.129320E+04
       332  20 -1.055607E+06 -3.119663E+04  2.624303E+04 -4.616195E+05 -1.044941E+05  3.609369E+03
       332  21 -1.062532E+06 -1.304343E+05 -7.211859E+04 -3.257084E+05 -1.301586E+05 -3.569887E+04
       332  22 -1.723137E+06 -3.053372E+05 -6.752118E+04 -7.304420E+05 -6.142409E+04  2.478154E+04
       332  23 -1.713047E+06 -3.286741E+05 -1.264950E+05 -7.002991E+05 -1.261918E+05 -4.526483E+03
       332  24 -1.753856E+06 -5.212608E+05 -2.769355E+05 -6.494520E+05 -1.828279E+05 -5.545722E+04
       332  25 -2.352527E+06 -5.157339E+05 -1.928530E+05 -8.839134E+05 -5.214870E+04  2.826684E+04
       332  26 -2.370025E+06 -6.260439E+05 -2.792557E+05 -9.387196E+05 -1.478643E+05 -1.264799E+04
       332  27 -2.444635E+06 -9.118250E+05 -4.817742E+05 -9.727951E+05 -2.354313E+05 -7.516270E+04
       333   1  7.057272E+04  5.496903E+03  5.019851E+04  4.210291E+04  1.350521E+05  9.858514E+03
       333   2  1.206133E+05 -1.709975E+05 -4.724267E+04 -2.801230E+02  9.574966E+04  3.017408E+04
       333   3  2.232698E+05 -1.586500E+05 -7.182998E+04 -7.525337E+04  5.646392E+04  3.060490E+04
       333   4  8.312784E+05  1.942000E+05  2.347812E+05 -4.677686E+04  1.613841E+05  9.869631E+03
       333   5  8.035663E+05 -3.800695E+03  1.064732E+05 -3.037919E+04  1.048347E+05  3.017577E+04
       333   6  8.313846E+05 -1.009442E+04  6.292403E+04 -4.656550E+04  4.830839E+04  3.059951E+04
       333   7  1.592531E+06  3.828909E+05  4.193290E+05 -1.357659E+05  1.877483E+05  9.873216E+03
       333   8  1.486955E+06  1.633677E+05  2.601601E+05 -6.051178E+04  1.139295E+05  3.017659E+04
       333   9  1.439846E+06  1.384393E+05  1.976558E+05 -1.784928E+04  4.014494E+04  3.059338E+04
       333  10  7.055311E+04  5.491903E+03  5.016405E+04  4.210184E+04  1.384247E-09 -1.584861E-09
       333  11  1.206032E+05 -1.710009E+05 -4.726160E+04 -2.824501E+02 -9.112458E-10 -4.228870E-10
       333  12  2.232661E+05 -1.586519E+05 -7.183774E+04 -7.525476E+04 -2.990924E-09 -5.351917E-10
       333  13  8.312504E+05  1.941929E+05  2.347321E+05 -4.677814E+04  2.580193E-10  6.043973E-10
       333  14  8.035543E+05 -3.804619E+03  1.064508E+05 -3.038174E+04 -5.339008E-10 -4.857333E-10
       333  15  8.313818E+05 -1.009605E+04  6.291789E+04 -4.656669E+04 -4.155356E-10 -6.376817E-10
       333  16  1.592493E+06  3.828814E+05  4.192627E+05 -1.357674E+05 -9.737815E-10  6.991909E-10
       333  17  1.486941E+06  1.633632E+05  2.601340E+05 -6.051455E+04  8.923968E-10  2.787160E-11
       333  18  1.439844E+06  1.384379E+05  1.976510E+05 -1.785026E+04  3.975006E-09  1.812267E-09
       333  19  7.057272E+04  5.496903E+03  5.019851E+04  4.210291E+04 -1.350521E+05 -9.858514E+03
       333  20  1.206133E+05 -1.709975E+05 -4.724267E+04 -2.801230E+02 -9.574966E+04 -3.017408E+04
       333  21  2.232698E+05 -1.586500E+05 -7.182998E+04 -7.525337E+04 -5.646392E+04 -3.060490E+04
       333  22  8.312784E+05  1.942000E+05  2.347812E+05 -4.677686E+04 -1.613841E+05 -9.869631E+03
       333  23  8.035663E+05 -3.800695E+03  1.064732E+05 -3.037919E+04 -1.048347E+05 -3.017577E+04
       333  24  8.313846E+05 -1.009442E+04  6.292403E+04 -4.656550E+04 -4.830839E+04 -3.059951E+04
       333  25  1.592531E+06  3.828909E+05  4.193290E+05 -1.357659E+05 -1.877483E+05 -9.873216E+03
       333  26  1.486955E+06  1.633677E+05  2.601601E+05 -6.051178E+04 -1.139295E+05 -3.017659E+04
       333  27  1.439846E+06  1.384393E+05  1.976558E+05 -1.784928E+04 -4.014494E+04 -3.059338E+04
       334   1  2.760649E+05 -1.216164E+05 -7.098879E+04 -4.294120E+04  4.152011E+04  2.627708E+04
       334   2  3.489414E+05 -1.150782E+05 -7.705993E+04 -2.947518E+04  2.871049E+04  2.322556E+04
       334   3  4.265339E+05 -9.688395E+04 -7.184964E+04 -4.888552E+04  1.589766E+04  1.929764E+04
       334   4  8.201219E+05  1.135812E+04  5.017393E+04 -4.668839E+04  3.929086E+04  2.627384E+04
       334   5  8.177174E+05 -5.704464E+02  2.700088E+04 -3.024833E+04  2.571267E+04  2.322293E+04
       334   6  8.201518E+05 -7.152493E+02  1.563486E+04 -4.668272E+04  1.213280E+04  1.929582E+04
       334   7  1.364455E+06  1.443126E+05  1.713182E+05 -5.043893E+04  3.705967E+04  2.627062E+04
       334   8  1.286698E+06  1.139225E+05  1.310481E+05 -3.102209E+04  2.271261E+04  2.322030E+04
       334   9  1.213914E+06  9.544300E+04  1.031098E+05 -4.447851E+04  8.365571E+03  1.929398E+04
       334  10  2.760628E+05 -1.216176E+05 -7.099332E+04 -4.294207E+04 -1.737957E-10 -1.987754E-11
       334  11  3.489403E+05 -1.150790E+05 -7.706250E+04 -2.947572E+04  3.745685E-10  2.515134E-10
       334  12  4.265335E+05 -9.688442E+04 -7.185082E+04 -4.888577E+04 -4.542127E-10 -4.711038E-10
       334  13  8.201201E+05  1.135696E+04  5.016973E+04 -4.668922E+04 -8.181867E-10  1.517694E-09
       334  14  8.177166E+05 -5.712030E+02  2.699863E+04 -3.024881E+04 -7.753883E-10  6.400216E-10
       334  15  8.201515E+05 -7.156888E+02  1.563388E+04 -4.668291E+04 -1.626099E-09 -9.192468E-10
       334  16  1.364453E+06  1.443115E+05  1.713143E+05 -5.043972E+04 -8.610805E-10  1.237451E-09
       334  17  1.286698E+06  1.139217E+05  1.310461E+05 -3.102251E+04 -7.878792E-10  2.031664E-10
       334  18  1.213914E+06  9.544258E+04  1.031089E+05 -4.447864E+04 -5.620019E-10 -5.529539E-10
       334  19  2.760649E+05 -1.216164E+05 -7.098879E+04 -4.294120E+04 -4.152011E+04 -2.627708E+04
       334  20  3.489414E+05 -1.150782E+05 -7.705993E+04 -2.947518E+04 -2.871049E+04 -2.322556E+04
       334  21  4.265339E+05 -9.688395E+04 -7.184964E+04 -4.888552E+04 -1.589766E+04 -1.929764E+04
       334  22  8.201219E+05  1.135812E+04  5.017393E+04 -4.668839E+04 -3.929086E+04 -2.627384E+04
       334  23  8.177174E+05 -5.704464E+02  2.700088E+04 -3.024833E+04 -2.571267E+04 -2.322293E+04
       334  24  8.201518E+05 -7.152493E+02  1.563486E+04 -4.668272E+04 -1.213280E+04 -1.929582E+04
       334  25  1.364455E+06  1.443126E+05  1.713182E+05 -5.043893E+04 -3.705967E+04 -2.627062E+04
       334  26  1.286698E+06  1.139225E+05  1.310481E+05 -3.102209E+04 -2.271261E+04 -2.322030E+04
       334  27  1.213914E+06  9.544300E+04  1.031098E+05 -4.447851E+04 -8.365571E+03 -1.929398E+04
       335   1  4.887893E+05 -8.011376E+04 -6.108986E+04 -4.682131E+04  1.319201E+04  1.681487E+04
       335   2  5.631820E+05 -6.256962E+04 -4.990872E+04 -3.050229E+04  9.848852E+03  1.275302E+04
       335   3  6.382349E+05 -4.430562E+04 -3.636339E+04 -4.686497E+04  6.503968E+03  8.658112E+03
       335   4  8.192333E+05  5.467609E+02  1.200443E+04 -4.664136E+04  9.698492E+03  1.681356E+04
       335   5  8.189094E+05 -1.209330E+02  6.801250E+03 -3.030092E+04  6.324929E+03  1.275224E+04
       335   6  8.192462E+05 -6.328236E+01  3.982671E+03 -4.664136E+04  2.950035E+03  8.657897E+03
       335   7  1.149779E+06  8.119994E+04  8.509201E+04 -4.646132E+04  6.203134E+03  1.681225E+04
       335   8  1.074698E+06  6.232335E+04  6.350721E+04 -3.009947E+04  2.799571E+03  1.275146E+04
       335   9  1.000288E+06  4.417684E+04  4.432673E+04 -4.641768E+04 -6.049224E+02  8.657679E+03
       335  10  4.887890E+05 -8.011411E+04 -6.109072E+04 -4.682149E+04 -7.352740E-10 -7.096684E-10
       335  11  5.631818E+05 -6.256982E+04 -4.990921E+04 -3.050239E+04 -2.012318E-10 -4.033646E-10
       335  12  6.382348E+05 -4.430571E+04 -3.636361E+04 -4.686502E+04 -2.280901E-10  3.167358E-10
       335  13  8.192332E+05  5.464320E+02  1.200372E+04 -4.664149E+04 -3.037132E-10 -4.408209E-10
       335  14  8.189093E+05 -1.211185E+02  6.800869E+03 -3.030099E+04  2.197512E-10  2.996506E-11
       335  15  8.192461E+05 -6.336522E+01  3.982513E+03 -4.664138E+04  9.715837E-11  2.816855E-10
       335  16  1.149779E+06  8.119963E+04  8.509141E+04 -4.646140E+04  2.358596E-10 -5.334288E-10
       335  17  1.074698E+06  6.232317E+04  6.350689E+04 -3.009950E+04 -6.815589E-10 -1.536626E-10
       335  18  1.000288E+06  4.417676E+04  4.432658E+04 -4.641768E+04  6.852566E-10  3.629814E-10
       335  19  4.887893E+05 -8.011376E+04 -6.108986E+04 -4.682131E+04 -1.319201E+04 -1.681487E+04
       335  20  5.631820E+05 -6.256962E+04 -4.990872E+04 -3.050229E+04 -9.848852E+03 -1.275302E+04
       335  21  6.382349E+05 -4.430562E+04 -3.636339E+04 -4.686497E+04 -6.503968E+03 -8.658112E+03
       335  22  8.192333E+05  5.467609E+02  1.200443E+04 -4.664136E+04 -9.698492E+03 -1.681356E+04
       335  23  8.189094E+05 -1.209330E+02  6.801250E+03 -3.030092E+04 -6.324929E+03 -1.275224E+04
       335  24  8.192462E+05 -6.328236E+01  3.982671E+03 -4.664136E+04 -2.950035E+03 -8.657897E+03
       335  25  1.149779E+06  8.119994E+04  8.509201E+04 -4.646132E+04 -6.203134E+03 -1.681225E+04
       335  26  1.074698E+06  6.232335E+04  6.350721E+04 -3.009947E+04 -2.799571E+03 -1.275146E+04
       335  27  1.000288E+06  4.417684E+04  4.432673E+04 -4.641768E+04  6.049224E+02 -8.657679E+03
       336   1  7.009923E+05 -2.880385E+04 -2.290299E+04 -4.671937E+04  5.851675E+03  6.269322E+03
       336   2  7.754407E+05 -1.067835E+04 -7.759300E+03 -3.038411E+04  4.906649E+03  2.176051E+03
       336   3  8.500345E+05  7.491047E+03  8.010817E+03 -4.664203E+04  3.961259E+03 -1.917830E+03
       336   4  8.191346E+05  1.474577E+00  3.080996E+03 -4.662187E+04  2.312471E+03  6.269308E+03
       336   5  8.190662E+05 -2.648398E+01  1.913245E+03 -3.032536E+04  1.366535E+03  2.176120E+03
       336   6  8.191369E+05 -1.039466E+01  1.372291E+03 -4.662189E+04  4.203465E+02 -1.917656E+03
       336   7  9.372900E+05  2.880587E+04  2.906418E+04 -4.652435E+04 -1.227397E+03  6.269293E+03
       336   8  8.626935E+05  1.062526E+04  1.158572E+04 -3.026660E+04 -2.173824E+03  2.176189E+03
       336   9  7.882402E+05 -7.511892E+03 -5.266244E+03 -4.660175E+04 -3.120392E+03 -1.917483E+03
       336  10  7.009922E+05 -2.880390E+04 -2.290313E+04 -4.671940E+04  1.072730E-09  1.417801E-10
       336  11  7.754407E+05 -1.067836E+04 -7.759354E+03 -3.038412E+04  1.216394E-10 -2.707304E-10
       336  12  8.500344E+05  7.491039E+03  8.010781E+03 -4.664203E+04 -1.388215E-09  2.024584E-10
       336  13  8.191346E+05  1.430920E+00  3.080912E+03 -4.662188E+04  6.733799E-11  2.281482E-10
       336  14  8.190662E+05 -2.648957E+01  1.913233E+03 -3.032536E+04 -6.995202E-10 -2.103310E-10
       336  15  8.191369E+05 -1.039866E+01  1.372284E+03 -4.662189E+04  5.113212E-10  3.127322E-10
       336  16  9.372900E+05  2.880583E+04  2.906410E+04 -4.652434E+04 -4.046963E-10  1.576653E-10
       336  17  8.626935E+05  1.062525E+04  1.158570E+04 -3.026660E+04 -4.329712E-10 -2.922970E-10
       336  18  7.882401E+05 -7.511898E+03 -5.266269E+03 -4.660175E+04  8.339110E-10  5.148051E-10
       336  19  7.009923E+05 -2.880385E+04 -2.290299E+04 -4.671937E+04 -5.851675E+03 -6.269322E+03
       336  20  7.754407E+05 -1.067835E+04 -7.759300E+03 -3.038411E+04 -4.906649E+03 -2.176051E+03
       336  21  8.500345E+05  7.491047E+03  8.010817E+03 -4.664203E+04 -3.961259E+03  1.917830E+03
       336  22  8.191346E+05  1.474577E+00  3.080996E+03 -4.662187E+04 -2.312471E+03 -6.269308E+03
       336  23  8.190662E+05 -2.648398E+01  1.913245E+03 -3.032536E+04 -1.366535E+03 -2.176120E+03
       336  24  8.191369E+05 -1.039466E+01  1.372291E+03 -4.662189E+04 -4.203465E+02  1.917656E+03
       336  25  9.372900E+05  2.880587E+04  2.906418E+04 -4.652435E+04  1.227397E+03 -6.269293E+03
       336  26  8.626935E+05  1.062526E+04  1.158572E+04 -3.026660E+04  2.173824E+03 -2.176189E+03
       336  27  7.882402E+05 -7.511892E+03 -5.266244E+03 -4.660175E+04  3.120392E+03  1.917483E+03
       337   1  9.128544E+05  2.291419E+04  2.225844E+04 -4.664160E+04  3.722839E+03 -4.300851E+03
       337   2  9.874151E+05  4.107130E+04  3.867044E+04 -3.028614E+04  3.057229E+03 -8.397435E+03
       337   3  1.062093E+06  5.924973E+04  5.552406E+04 -4.656144E+04  2.392469E+03 -1.249650E+04
       337   4  8.191291E+05 -1.053880E+01  1.269021E+03 -4.663039E+04  1.803385E+02 -4.300761E+03
       337   5  8.190694E+05 -2.761847E+01  1.350426E+03 -3.031474E+04 -4.874666E+02 -8.397720E+03
       337   6  8.191218E+05 -2.263887E+01  1.875251E+03 -4.663038E+04 -1.154344E+03 -1.249713E+04
       337   7  7.254120E+05 -2.293586E+04 -1.972091E+04 -4.661918E+04 -3.361633E+03 -4.300672E+03
       337   8  6.507501E+05 -4.112844E+04 -3.597130E+04 -3.034332E+04 -4.031213E+03 -8.398005E+03
       337   9  5.762059E+05 -5.929897E+04 -5.177714E+04 -4.669930E+04 -4.699788E+03 -1.249777E+04
       337  10  9.128543E+05  2.291417E+04  2.225838E+04 -4.664159E+04 -5.100065E-10  3.031100E-10
       337  11  9.874150E+05  4.107122E+04  3.867029E+04 -3.028612E+04  4.193276E-10  3.239856E-10
       337  12  1.062093E+06  5.924956E+04  5.552375E+04 -4.656142E+04 -5.623041E-10 -4.430637E-11
       337  13  8.191291E+05 -1.055868E+01  1.268986E+03 -4.663039E+04  7.825470E-11  7.127627E-10
       337  14  8.190693E+05 -2.769429E+01  1.350293E+03 -3.031474E+04 -5.138847E-10  5.649335E-10
       337  15  8.191217E+05 -2.280700E+01  1.874955E+03 -4.663040E+04  7.848680E-10 -1.592660E-10
       337  16  7.254120E+05 -2.293589E+04 -1.972096E+04 -4.661919E+04  2.341766E-10  9.462215E-10
       337  17  6.507501E+05 -4.112852E+04 -3.597146E+04 -3.034335E+04 -4.512225E-10  7.556478E-10
       337  18  5.762058E+05 -5.929914E+04 -5.177748E+04 -4.669935E+04  2.487795E-10 -3.426289E-10
       337  19  9.128544E+05  2.291419E+04  2.225844E+04 -4.664160E+04 -3.722839E+03  4.300851E+03
       337  20  9.874151E+05  4.107130E+04  3.867044E+04 -3.028614E+04 -3.057229E+03  8.397435E+03
       337  21  1.062093E+06  5.924973E+04  5.552406E+04 -4.656144E+04 -2.392469E+03  1.249650E+04
       337  22  8.191291E+05 -1.053880E+01  1.269021E+03 -4.663039E+04 -1.803385E+02  4.300761E+03
       337  23  8.190694E+05 -2.761847E+01  1.350426E+03 -3.031474E+04  4.874666E+02  8.397720E+03
       337  24  8.191218E+05 -2.263887E+01  1.875251E+03 -4.663038E+04  1.154344E+03  1.249713E+04
       337  25  7.254120E+05 -2.293586E+04 -1.972091E+04 -4.661918E+04  3.361633E+03  4.300672E+03
       337  26  6.507501E+05 -4.112844E+04 -3.597130E+04 -3.034332E+04  4.031213E+03  8.398005E+03
       337  27  5.762059E+05 -5.929897E+04 -5.177714E+04 -4.669930E+04  4.699788E+03  1.249777E+04
       338   1  1.125197E+06  7.468350E+04  7.037987E+04 -4.651668E+04  2.032061E+03 -1.489097E+04
       338   2  1.199991E+06  9.290735E+04  8.830384E+04 -3.008271E+04  9.482377E+01 -1.899590E+04
       338   3  1.275226E+06  1.115271E+05  1.076041E+05 -4.644901E+04 -1.840532E+03 -2.306475E+04
       338   4  8.191847E+05 -6.023905E+01  2.337301E+03 -4.666817E+04 -1.534494E+03 -1.489198E+04
       338   5  8.189604E+05 -1.043933E+02  3.840542E+03 -3.026745E+04 -3.439613E+03 -1.899775E+04
       338   6  8.191672E+05  2.426228E+02  6.698938E+03 -4.666823E+04 -5.342624E+03 -2.306738E+04
       338   7  5.132596E+05 -7.481030E+04 -6.571105E+04 -4.681959E+04 -5.099312E+03 -1.489299E+04
       338   8  4.380648E+05 -9.312592E+04 -8.063172E+04 -3.045208E+04 -6.971909E+03 -1.899959E+04
       338   9  3.633023E+05 -1.110558E+05 -9.421901E+04 -4.688729E+04 -8.842175E+03 -2.307002E+04
       338  10  1.125197E+06  7.468326E+04  7.037944E+04 -4.651666E+04 -9.802237E-09 -2.309272E-10
       338  11  1.199991E+06  9.290696E+04  8.830317E+04 -3.008271E+04 -9.236554E-10 -1.351205E-09
       338  12  1.275226E+06  1.115265E+05  1.076031E+05 -4.644905E+04  9.470646E-09 -3.459683E-10
       338  13  8.191846E+05 -6.047792E+01  2.336880E+03 -4.666819E+04 -5.307849E-10 -5.237840E-10
       338  14  8.189603E+05 -1.047842E+02  3.839842E+03 -3.026750E+04 -1.240677E-10 -9.411555E-10
       338  15  8.191671E+05  2.420436E+02  6.697884E+03 -4.666833E+04  7.033965E-10 -8.815143E-10
       338  16  5.132595E+05 -7.481055E+04 -6.571152E+04 -4.681965E+04  9.452772E-09 -1.013881E-09
       338  17  4.380647E+05 -9.312632E+04 -8.063249E+04 -3.045219E+04 -1.322801E-09 -7.947931E-10
       338  18  3.633020E+05 -1.110564E+05 -9.422016E+04 -4.688746E+04 -9.485921E-09 -4.621996E-10
       338  19  1.125197E+06  7.468350E+04  7.037987E+04 -4.651668E+04 -2.032061E+03  1.489097E+04
       338  20  1.199991E+06  9.290735E+04  8.830384E+04 -3.008271E+04 -9.482377E+01  1.899590E+04
       338  21  1.275226E+06  1.115271E+05  1.076041E+05 -4.644901E+04  1.840532E+03  2.306475E+04
       338  22  8.191847E+05 -6.023905E+01  2.337301E+03 -4.666817E+04  1.534494E+03  1.489198E+04
       338  23  8.189604E+05 -1.043933E+02  3.840542E+03 -3.026745E+04  3.439613E+03  1.899775E+04
       338  24  8.191672E+05  2.426228E+02  6.698938E+03 -4.666823E+04  5.342624E+03  2.306738E+04
       338  25  5.132596E+05 -7.481030E+04 -6.571105E+04 -4.681959E+04  5.099312E+03  1.489299E+04
       338  26  4.380648E+05 -9.312592E+04 -8.063172E+04 -3.045208E+04  6.971909E+03  1.899959E+04
       338  27  3.633023E+05 -1.110558E+05 -9.421901E+04 -4.688729E+04  8.842175E+03  2.307002E+04
       339   1  1.339267E+06  1.264019E+05  1.240590E+05 -4.534470E+04 -2.878487E+03 -2.557123E+04
       339   2  1.413504E+06  1.449104E+05  1.470223E+05 -3.037972E+04 -1.130015E+04 -2.948553E+04
       339   3  1.490711E+06  1.700867E+05  1.771709E+05 -4.846725E+04 -1.972086E+04 -3.238180E+04
       339   4  8.196824E+05 -4.596771E+02  8.705653E+03 -4.672292E+04 -6.698775E+03 -2.557469E+04
       339   5  8.182607E+05 -3.942755E+02  1.498311E+04 -3.019833E+04 -1.423292E+04 -2.948970E+04
       339   6  8.196511E+05  6.189090E+03  2.783518E+04 -4.672799E+04 -2.176510E+04 -3.238627E+04
       339   7  3.003492E+05 -1.273395E+05 -1.066644E+05 -4.809999E+04 -1.051590E+04 -2.557813E+04
       339   8  2.233469E+05 -1.457229E+05 -1.170780E+05 -3.001717E+04 -1.716291E+04 -2.949388E+04
       339   9  1.490103E+05 -1.577390E+05 -1.215287E+05 -4.499071E+04 -2.380715E+04 -3.239075E+04
       339  10  1.339267E+06  1.264012E+05  1.240577E+05 -4.534476E+04  1.401873E-09 -4.156768E-11
       339  11  1.413504E+06  1.449095E+05  1.470204E+05 -3.037999E+04  6.779506E-10 -4.525338E-10
       339  12  1.490710E+06  1.700855E+05  1.771682E+05 -4.846776E+04  1.421371E-09 -1.362848E-09
       339  13  8.196822E+05 -4.603918E+02  8.704339E+03 -4.672305E+04  8.575428E-12 -4.422106E-10
       339  14  8.182603E+05 -3.952640E+02  1.498109E+04 -3.019867E+04 -1.014154E-09 -4.664494E-10
       339  15  8.196503E+05  6.187836E+03  2.783232E+04 -4.672856E+04 -6.104607E-10 -1.083822E-09
       339  16  3.003489E+05 -1.273402E+05 -1.066658E+05 -4.810021E+04 -7.889551E-10 -1.948161E-10
       339  17  2.233464E+05 -1.457239E+05 -1.170802E+05 -3.001758E+04 -6.425602E-10  1.780279E-09
       339  18  1.490094E+05 -1.577403E+05 -1.215317E+05 -4.499133E+04 -8.238109E-10  5.138298E-11
       339  19  1.339267E+06  1.264019E+05  1.240590E+05 -4.534470E+04  2.878487E+03  2.557123E+04
       339  20  1.413504E+06  1.449104E+05  1.470223E+05 -3.037972E+04  1.130015E+04  2.948553E+04
       339  21  1.490711E+06  1.700867E+05  1.771709E+05 -4.846725E+04  1.972086E+04  3.238180E+04
       339  22  8.196824E+05 -4.596771E+02  8.705653E+03 -4.672292E+04  6.698775E+03  2.557469E+04
       339  23  8.182607E+05 -3.942755E+02  1.498311E+04 -3.019833E+04  1.423292E+04  2.948970E+04
       339  24  8.196511E+05  6.189090E+03  2.783518E+04 -4.672799E+04  2.176510E+04  3.238627E+04
       339  25  3.003492E+05 -1.273395E+05 -1.066644E+05 -4.809999E+04  1.051590E+04  2.557813E+04
       339  26  2.233469E+05 -1.457229E+05 -1.170780E+05 -3.001717E+04  1.716291E+04  2.949388E+04
       339  27  1.490103E+05 -1.577390E+05 -1.215287E+05 -4.499071E+04  2.380715E+04  3.239075E+04
       340   1  1.561634E+06  1.738420E+05  1.977769E+05 -3.024488E+04 -1.781854E+04 -3.702417E+04
       340   2  1.621397E+06  1.961529E+05  2.413585E+05 -4.650159E+04 -6.920879E+04 -3.588339E+04
       340   3  1.715626E+06  3.282221E+05  3.458534E+05 -9.542321E+04 -1.206461E+05 -1.162340E+04
       340   4  8.259085E+05 -5.719198E+03  3.490682E+04 -4.659531E+04 -2.676554E+04 -3.703641E+04
       340   5  8.103552E+05 -2.242431E+03  5.902805E+04 -3.034596E+04 -5.810625E+04 -3.587347E+04
       340   6  8.258294E+05  1.075906E+05  1.302027E+05 -4.675872E+04 -8.948609E+04 -1.158316E+04
       340   7  9.068824E+04 -1.853158E+05 -1.279963E+05 -6.292630E+04 -3.570207E+04 -3.704820E+04
       340   8 -7.524324E+01 -2.006816E+05 -1.233436E+05 -1.421180E+04 -4.701799E+04 -3.586296E+04
       340   9 -6.323862E+04 -1.130892E+05 -8.549996E+04  1.835710E+03 -5.837044E+04 -1.153802E+04
       340  10  1.561633E+06  1.738404E+05  1.977738E+05 -3.024542E+04 -7.179253E-11 -2.528003E-09
       340  11  1.621391E+06  1.961502E+05  2.413471E+05 -4.650358E+04 -1.606181E-09 -4.815180E-09
       340  12  1.715611E+06  3.282180E+05  3.458258E+05 -9.542433E+04 -2.298072E-09 -1.602104E-09
       340  13  8.259074E+05 -5.720864E+03  3.490290E+04 -4.659611E+04 -8.519789E-10 -5.698551E-09
       340  14  8.103512E+05 -2.244718E+03  5.901929E+04 -3.034764E+04  1.556554E-09  1.861417E-09
       340  15  8.258208E+05  1.075884E+05  1.301874E+05 -4.675956E+04 -1.425348E-09 -4.926972E-10
       340  16  9.068651E+04 -1.853176E+05 -1.280013E+05 -6.292736E+04 -1.042205E-09 -1.223204E-09
       340  17 -7.796277E+01 -2.006836E+05 -1.233502E+05 -1.421316E+04  1.097062E-09  1.989833E-09
       340  18 -6.324231E+04 -1.130902E+05 -8.550661E+04  1.835168E+03  1.605484E-09 -1.574045E-09
       340  19  1.561634E+06  1.738420E+05  1.977769E+05 -3.024488E+04  1.781854E+04  3.702417E+04
       340  20  1.621397E+06  1.961529E+05  2.413585E+05 -4.650159E+04  6.920879E+04  3.588339E+04
       340  21  1.715626E+06  3.282221E+05  3.458534E+05 -9.542321E+04  1.206461E+05  1.162340E+04
       340  22  8.259085E+05 -5.719198E+03  3.490682E+04 -4.659531E+04  2.676554E+04  3.703641E+04
       340  23  8.103552E+05 -2.242431E+03  5.902805E+04 -3.034596E+04  5.810625E+04  3.587347E+04
       340  24  8.258294E+05  1.075906E+05  1.302027E+05 -4.675872E+04  8.948609E+04  1.158316E+04
       340  25  9.068824E+04 -1.853158E+05 -1.279963E+05 -6.292630E+04  3.570207E+04  3.704820E+04
       340  26 -7.524324E+01 -2.006816E+05 -1.233436E+05 -1.421180E+04  4.701799E+04  3.586296E+04
       340  27 -6.323862E+04 -1.130892E+05 -8.549996E+04  1.835710E+03  5.837044E+04  1.153802E+04
       341   1  8.544618E+05  3.258622E+06  8.525616E+05 -5.765128E+05  3.404817E+04  1.469547E+05
       341   2  5.576099E+05  2.379253E+06  5.571559E+05 -3.678723E+05  9.581034E+04  4.841252E+04
       341   3  3.479402E+05  1.534903E+06  3.473938E+05 -5.315595E+05  6.975031E+04 -5.020116E+04
       341   4  7.284215E+04  1.110667E+05  8.659559E+04 -5.374609E+05  3.430010E+04  5.538371E+04
       341   5 -4.197449E+02  1.009888E+05  4.240867E+04 -3.513698E+05  9.588480E+04  3.315401E+04
       341   6  5.179226E+02  1.121890E+05  3.119863E+04 -5.376595E+05  6.951014E+04  1.071434E+04
       341   7 -7.094967E+05 -3.027460E+06 -6.800568E+05 -4.985973E+05  3.454137E+04 -3.572665E+04
       341   8 -5.588050E+05 -2.172464E+06 -4.726708E+05 -3.349232E+05  9.595863E+04  1.795062E+04
       341   9 -3.470390E+05 -1.308632E+06 -2.851087E+05 -5.437428E+05  6.926844E+04  7.149204E+04
       341  10  8.544548E+05  3.258599E+06  8.525190E+05 -5.765168E+05 -4.559570E-10 -5.667522E-10
       341  11  5.575995E+05  2.379248E+06  5.571343E+05 -3.678760E+05 -1.200468E-09 -2.782867E-09
       341  12  3.479343E+05  1.534899E+06  3.473800E+05 -5.315567E+05  1.616195E-09  3.097041E-09
       341  13  7.284006E+04  1.110631E+05  8.658761E+04 -5.374624E+05  8.447435E-10 -2.910394E-12
       341  14 -4.299154E+02  1.009851E+05  4.238932E+04 -3.513724E+05 -1.159957E-09 -4.805484E-12
       341  15  5.127023E+02  1.121876E+05  3.118933E+04 -5.376601E+05  3.832993E-10  5.069170E-10
       341  16 -7.094983E+05 -3.027462E+06 -6.800615E+05 -4.985963E+05 -3.489315E-10 -3.798908E-10
       341  17 -5.588149E+05 -2.172467E+06 -4.726888E+05 -3.349246E+05  5.492644E-10 -2.873114E-10
       341  18 -3.470456E+05 -1.308639E+06 -2.851274E+05 -5.437468E+05 -1.446934E-09 -7.745049E-09
       341  19  8.544618E+05  3.258622E+06  8.525616E+05 -5.765128E+05 -3.404817E+04 -1.469547E+05
       341  20  5.576099E+05  2.379253E+06  5.571559E+05 -3.678723E+05 -9.581034E+04 -4.841252E+04
       341  21  3.479402E+05  1.534903E+06  3.473938E+05 -5.315595E+05 -6.975031E+04  5.020116E+04
       341  22  7.284215E+04  1.110667E+05  8.659559E+04 -5.374609E+05 -3.430010E+04 -5.538371E+04
       341  23 -4.197449E+02  1.009888E+05  4.240867E+04 -3.513698E+05 -9.588480E+04 -3.315401E+04
       341  24  5.179226E+02  1.121890E+05  3.119863E+04 -5.376595E+05 -6.951014E+04 -1.071434E+04
       341  25 -7.094967E+05 -3.027460E+06 -6.800568E+05 -4.985973E+05 -3.454137E+04  3.572665E+04
       341  26 -5.588050E+05 -2.172464E+06 -4.726708E+05 -3.349232E+05 -9.595863E+04 -1.795062E+04
       341  27 -3.470390E+05 -1.308632E+06 -2.851087E+05 -5.437428E+05 -6.926844E+04 -7.149204E+04
       342   1  1.776524E+05  8.031819E+05  1.841091E+05 -5.433361E+05  3.335053E+04 -3.041274E+04
       342   2 -3.819036E+04 -5.810036E+04 -7.655123E+03 -3.496671E+05 -7.984470E+03 -4.482155E+04
       342   3 -2.390220E+05 -9.161505E+05 -1.871060E+05 -5.318053E+05 -4.894245E+04 -5.920036E+04
       342   4  7.745492E+03  1.083889E+05  2.918407E+04 -5.383642E+05  3.319623E+04  5.531462E+03
       342   5  2.182946E+03  1.070516E+05  2.903330E+04 -3.504588E+05 -8.132175E+03 -9.223387E+03
       342   6  1.173449E+04  1.083071E+05  4.146301E+04 -5.383474E+05 -4.908596E+04 -2.396746E+04
       342   7 -1.621934E+05 -5.859517E+05 -1.257664E+05 -5.333972E+05  3.304240E+04  4.143591E+04
       342   8  4.255509E+04  2.722317E+05  6.572479E+04 -3.512507E+05 -8.279949E+03  2.638415E+04
       342   9  2.624205E+05  1.133746E+06  2.699708E+05 -5.448991E+05 -4.923007E+04  1.132305E+04
       342  10  1.776509E+05  8.031806E+05  1.841053E+05 -5.433353E+05  6.052099E-10  1.175008E-09
       342  11 -3.819097E+04 -5.810254E+04 -7.659019E+03 -3.496674E+05  8.894054E-10 -4.621455E-09
       342  12 -2.390255E+05 -9.161549E+05 -1.871171E+05 -5.318076E+05 -9.513645E-10  1.993555E-09
       342  13  7.744300E+03  1.083886E+05  2.918194E+04 -5.383643E+05  3.188957E-10  3.305729E-11
       342  14  2.182853E+03  1.070515E+05  2.903302E+04 -3.504589E+05  3.126830E-09  2.544278E-11
       342  15  1.173175E+04  1.083058E+05  4.145740E+04 -5.383484E+05  3.432746E-09  4.047733E-10
       342  16 -1.621950E+05 -5.859539E+05 -1.257716E+05 -5.333983E+05 -4.885620E-10 -2.964100E-09
       342  17  4.255483E+04  2.722309E+05  6.572336E+04 -3.512505E+05 -1.415035E-09 -2.680980E-10
       342  18  2.624178E+05  1.133746E+06  2.699660E+05 -5.448987E+05 -2.600565E-10 -6.577048E-09
       342  19  1.776524E+05  8.031819E+05  1.841091E+05 -5.433361E+05 -3.335053E+04  3.041274E+04
       342  20 -3.819036E+04 -5.810036E+04 -7.655123E+03 -3.496671E+05  7.984470E+03  4.482155E+04
       342  21 -2.390220E+05 -9.161505E+05 -1.871060E+05 -5.318053E+05  4.894245E+04  5.920036E+04
       342  22  7.745492E+03  1.083889E+05  2.918407E+04 -5.383642E+05 -3.319623E+04 -5.531462E+03
       342  23  2.182946E+03  1.070516E+05  2.903330E+04 -3.504588E+05  8.132175E+03  9.223387E+03
       342  24  1.173449E+04  1.083071E+05  4.146301E+04 -5.383474E+05  4.908596E+04  2.396746E+04
       342  25 -1.621934E+05 -5.859517E+05 -1.257664E+05 -5.333972E+05 -3.304240E+04 -4.143591E+04
       342  26  4.255509E+04  2.722317E+05  6.572479E+04 -3.512507E+05  8.279949E+03 -2.638415E+04
       342  27  2.624205E+05  1.133746E+06  2.699708E+05 -5.448991E+05  4.923007E+04 -1.132305E+04
       343   1 -4.317869E+05 -1.634466E+06 -3.401830E+05 -5.529976E+05 -8.591648E+04 -9.416232E+04
       343   2 -6.415718E+05 -2.507646E+06 -5.114401E+05 -3.242043E+05 -1.106702E+05 -5.227300E+04
       343   3 -7.241371E+05 -3.352965E+06 -6.781635E+05 -4.675852E+05 -3.898372E+04 -1.024698E+04
       343   4 -3.522491E+03  1.164793E+05  4.936820E+04 -5.376166E+05 -8.615027E+04 -3.150354E+04
       343   5 -2.222726E+03  9.511380E+04  7.787748E+04 -3.514304E+05 -1.105760E+05 -7.281180E+04
       343   6  1.404980E+05  1.151936E+05  1.686513E+05 -5.372682E+05 -3.874786E+04 -1.139280E+05
       343   7  4.245375E+05  1.870298E+06  4.387431E+05 -5.221877E+05 -8.638057E+04  3.133046E+04
       343   8  6.366619E+05  2.704185E+06  6.667607E+05 -3.787659E+05 -1.104802E+05 -9.343566E+04
       343   9  1.004266E+06  3.594390E+06  1.014632E+06 -6.073328E+05 -3.848954E+04 -2.181877E+05
       343  10 -4.317973E+05 -1.634477E+06 -3.402136E+05 -5.530041E+05  2.255761E-10 -9.559237E-11
       343  11 -6.415856E+05 -2.507652E+06 -5.114683E+05 -3.242090E+05 -5.337884E-10 -3.783465E-09
       343  12 -7.241387E+05 -3.352966E+06 -6.781666E+05 -4.675855E+05 -7.011857E-10  5.543862E-10
       343  13 -3.530731E+03  1.164762E+05  4.935238E+04 -5.376188E+05 -2.043712E-09  2.050423E-11
       343  14 -2.237285E+03  9.510482E+04  7.784452E+04 -3.514369E+05  4.069858E-10 -1.489683E-11
       343  15  1.404929E+05  1.151793E+05  1.686241E+05 -5.372717E+05 -8.219609E-10  1.793005E-10
       343  16  4.245292E+05  1.870295E+06  4.387272E+05 -5.221855E+05  1.248585E-09 -1.568209E-09
       343  17  6.366465E+05  2.704172E+06  6.667214E+05 -3.787742E+05 -7.792784E-11  4.983132E-10
       343  18  1.004252E+06  3.594339E+06  1.014541E+06 -6.073396E+05 -9.702974E-10 -2.303155E-09
       343  19 -4.317869E+05 -1.634466E+06 -3.401830E+05 -5.529976E+05  8.591648E+04  9.416232E+04
       343  20 -6.415718E+05 -2.507646E+06 -5.114401E+05 -3.242043E+05  1.106702E+05  5.227300E+04
       343  21 -7.241371E+05 -3.352965E+06 -6.781635E+05 -4.675852E+05  3.898372E+04  1.024698E+04
       343  22 -3.522491E+03  1.164793E+05  4.936820E+04 -5.376166E+05  8.615027E+04  3.150354E+04
       343  23 -2.222726E+03  9.511380E+04  7.787748E+04 -3.514304E+05  1.105760E+05  7.281180E+04
       343  24  1.404980E+05  1.151936E+05  1.686513E+05 -5.372682E+05  3.874786E+04  1.139280E+05
       343  25  4.245375E+05  1.870298E+06  4.387431E+05 -5.221877E+05  8.638057E+04 -3.133046E+04
       343  26  6.366619E+05  2.704185E+06  6.667607E+05 -3.787659E+05  1.104802E+05  9.343566E+04
       343  27  1.004266E+06  3.594390E+06  1.014632E+06 -6.073328E+05  3.848954E+04  2.181877E+05
       344   1 -1.772715E+06 -7.230429E+05 -3.996806E+05 -7.057814E+05 -1.825091E+05 -5.537979E+04
       344   2 -1.696047E+06 -5.085044E+05 -2.418694E+05 -6.725617E+05 -1.146465E+05 -1.785724E+02
       344   3 -1.656634E+06 -4.236178E+05 -1.729317E+05 -6.300398E+05 -3.862031E+04  3.339704E+04
       344   4 -1.052017E+06 -3.599213E+05 -1.945141E+05 -4.139965E+05 -1.297763E+05 -3.557002E+04
       344   5 -1.025703E+06 -2.224096E+05 -8.887381E+04 -4.471170E+05 -9.290902E+04  7.985594E+03
       344   6 -1.030441E+06 -2.083348E+05 -4.744164E+04 -4.709554E+05 -4.789400E+04  2.990678E+04
       344   7 -3.307744E+05  3.375909E+03  1.061956E+04 -1.218579E+05 -7.697593E+04 -1.571503E+04
       344   8 -3.548911E+05  6.376836E+04  6.409623E+04 -2.214309E+05 -7.114602E+04  1.616281E+04
       344   9 -4.038436E+05  6.970066E+03  7.802977E+04 -3.117275E+05 -5.717778E+04  2.641326E+04
       344  10 -1.772751E+06 -7.230551E+05 -3.997492E+05 -7.057896E+05 -2.461685E-08 -1.037778E-08
       344  11 -1.696061E+06 -5.085079E+05 -2.418942E+05 -6.725617E+05 -5.322445E-09 -1.089442E-09
       344  12 -1.656636E+06 -4.236194E+05 -1.729366E+05 -6.300387E+05  2.194661E-08  1.003615E-08
       344  13 -1.052036E+06 -3.599272E+05 -1.945482E+05 -4.140003E+05 -2.563633E-09 -2.731513E-10
       344  14 -1.025712E+06 -2.224120E+05 -8.889017E+04 -4.471164E+05 -5.152610E-09 -6.006707E-10
       344  15 -1.030443E+06 -2.083364E+05 -4.744764E+04 -4.709543E+05 -2.626658E-09 -1.525464E-09
       344  16 -3.307808E+05  3.374052E+03  1.060796E+04 -1.218589E+05  2.064718E-08  8.830095E-09
       344  17 -3.548966E+05  6.376672E+04  6.408622E+04 -2.214300E+05 -5.673676E-09 -2.463367E-10
       344  18 -4.038473E+05  6.968440E+03  7.802232E+04 -3.117263E+05 -2.788569E-08 -9.821692E-09
       344  19 -1.772715E+06 -7.230429E+05 -3.996806E+05 -7.057814E+05  1.825091E+05  5.537979E+04
       344  20 -1.696047E+06 -5.085044E+05 -2.418694E+05 -6.725617E+05  1.146465E+05  1.785724E+02
       344  21 -1.656634E+06 -4.236178E+05 -1.729317E+05 -6.300398E+05  3.862031E+04 -3.339704E+04
       344  22 -1.052017E+06 -3.599213E+05 -1.945141E+05 -4.139965E+05  1.297763E+05  3.557002E+04
       344  23 -1.025703E+06 -2.224096E+05 -8.887381E+04 -4.471170E+05  9.290902E+04 -7.985594E+03
       344  24 -1.030441E+06 -2.083348E+05 -4.744164E+04 -4.709554E+05  4.789400E+04 -2.990678E+04
       344  25 -3.307744E+05  3.375909E+03  1.061956E+04 -1.218579E+05  7.697593E+04  1.571503E+04
       344  26 -3.548911E+05  6.376836E+04  6.409623E+04 -2.214309E+05  7.114602E+04 -1.616281E+04
       344  27 -4.038436E+05  6.970066E+03  7.802977E+04 -3.117275E+05  5.717778E+04 -2.641326E+04
       345   1 -1.579990E+06 -4.190760E+05 -1.494434E+05 -6.227988E+05 -3.585855E+04  3.013143E+04
       345   2 -1.501591E+06 -3.723862E+05 -1.132335E+05 -5.898311E+05 -2.246881E+04  3.022027E+04
       345   3 -1.410092E+06 -3.475386E+05 -8.717621E+04 -5.749033E+05 -8.517119E+03  2.881216E+04
       345   4 -1.024481E+06 -2.135794E+05 -3.620859E+04 -4.665227E+05 -4.101627E+04  2.818907E+04
       345   5 -1.030796E+06 -1.998319E+05 -1.912771E+04 -4.586362E+05 -2.976643E+04  2.747547E+04
       345   6 -1.023589E+06 -2.074986E+05 -1.049389E+04 -4.687921E+05 -1.795650E+04  2.526483E+04
       345   7 -4.686586E+05 -8.056265E+03  7.700941E+04 -3.101178E+05 -4.617891E+04  2.624483E+04
       345   8 -5.597704E+05 -2.725793E+04  7.496771E+04 -3.273489E+05 -3.707001E+04  2.472841E+04
       345   9 -6.369273E+05 -6.744499E+04  6.618265E+04 -3.626188E+05 -2.740228E+04  2.171513E+04
       345  10 -1.579992E+06 -4.190773E+05 -1.494475E+05 -6.227979E+05  1.089150E-09  1.444595E-09
       345  11 -1.501592E+06 -3.723873E+05 -1.132362E+05 -5.898305E+05 -6.547023E-10  1.331511E-09
       345  12 -1.410093E+06 -3.475395E+05 -8.717790E+04 -5.749031E+05  4.323851E-10  8.006383E-10
       345  13 -1.024483E+06 -2.135807E+05 -3.621324E+04 -4.665218E+05 -1.848049E-10  4.177025E-10
       345  14 -1.030797E+06 -1.998330E+05 -1.913079E+04 -4.586356E+05 -1.248235E-09  1.505327E-09
       345  15 -1.023589E+06 -2.074994E+05 -1.049570E+04 -4.687917E+05  2.354313E-11  4.062919E-10
       345  16 -4.686611E+05 -8.057576E+03  7.700411E+04 -3.101168E+05 -1.407783E-09 -1.290387E-09
       345  17 -5.597721E+05 -2.725895E+04  7.496398E+04 -3.273482E+05 -1.997981E-09  1.544216E-09
       345  18 -6.369283E+05 -6.744570E+04  6.618036E+04 -3.626184E+05 -9.030705E-10  7.813347E-10
       345  19 -1.579990E+06 -4.190760E+05 -1.494434E+05 -6.227988E+05  3.585855E+04 -3.013143E+04
       345  20 -1.501591E+06 -3.723862E+05 -1.132335E+05 -5.898311E+05  2.246881E+04 -3.022027E+04
       345  21 -1.410092E+06 -3.475386E+05 -8.717621E+04 -5.749033E+05  8.517119E+03 -2.881216E+04
       345  22 -1.024481E+06 -2.135794E+05 -3.620859E+04 -4.665227E+05  4.101627E+04 -2.818907E+04
       345  23 -1.030796E+06 -1.998319E+05 -1.912771E+04 -4.586362E+05  2.976643E+04 -2.747547E+04
       345  24 -1.023589E+06 -2.074986E+05 -1.049389E+04 -4.687921E+05  1.795650E+04 -2.526483E+04
       345  25 -4.686586E+05 -8.056265E+03  7.700941E+04 -3.101178E+05  4.617891E+04 -2.624483E+04
       345  26 -5.597704E+05 -2.725793E+04  7.496771E+04 -3.273489E+05  3.707001E+04 -2.472841E+04
       345  27 -6.369273E+05 -6.744499E+04  6.618265E+04 -3.626188E+05  2.740228E+04 -2.171513E+04
       346   1 -1.350819E+06 -3.269842E+05 -7.256295E+04 -5.591707E+05 -5.881708E+03  2.543197E+04
       346   2 -1.272897E+06 -2.871608E+05 -5.210949E+04 -5.258588E+05 -1.141118E+03  1.986674E+04
       346   3 -1.178713E+06 -2.642453E+05 -3.344505E+04 -5.116064E+05  3.638550E+03  1.419372E+04
       346   4 -1.023140E+06 -2.077298E+05 -7.899874E+03 -4.685485E+05 -1.504716E+04  2.198853E+04
       346   5 -1.031264E+06 -1.992159E+05 -4.350415E+03 -4.590425E+05 -1.046046E+04  1.636667E+04
       346   6 -1.023103E+06 -2.075792E+05 -2.467257E+03 -4.685980E+05 -5.835050E+03  1.063693E+04
       346   7 -6.953493E+05 -8.846614E+04  5.675855E+04 -3.778820E+05 -2.421780E+04  1.854316E+04
       346   8 -7.895717E+05 -1.112662E+05  4.340601E+04 -3.922022E+05 -1.978366E+04  1.286516E+04
       346   9 -8.674687E+05 -1.509113E+05  2.850940E+04 -4.255800E+05 -1.531112E+04  7.079227E+03
       346  10 -1.350819E+06 -3.269849E+05 -7.256423E+04 -5.591706E+05  2.757748E-10  1.166072E-09
       346  11 -1.272897E+06 -2.871612E+05 -5.211023E+04 -5.258588E+05 -2.763526E-10  7.133899E-10
       346  12 -1.178713E+06 -2.642456E+05 -3.344546E+04 -5.116064E+05 -2.858169E-10  2.491107E-10
       346  13 -1.023140E+06 -2.077304E+05 -7.901207E+03 -4.685482E+05 -3.233946E-10  6.316593E-10
       346  14 -1.031265E+06 -1.992162E+05 -4.351124E+03 -4.590423E+05 -2.023002E-09  1.286118E-09
       346  15 -1.023103E+06 -2.075793E+05 -2.467534E+03 -4.685980E+05  3.660184E-10 -3.009292E-10
       346  16 -6.953500E+05 -8.846667E+04  5.675680E+04 -3.778816E+05 -3.619411E-10 -2.744316E-10
       346  17 -7.895722E+05 -1.112665E+05  4.340497E+04 -3.922020E+05 -3.382208E-10 -7.114152E-10
       346  18 -8.674690E+05 -1.509115E+05  2.850887E+04 -4.255799E+05 -1.513120E-11 -2.077171E-10
       346  19 -1.350819E+06 -3.269842E+05 -7.256295E+04 -5.591707E+05  5.881708E+03 -2.543197E+04
       346  20 -1.272897E+06 -2.871608E+05 -5.210949E+04 -5.258588E+05  1.141118E+03 -1.986674E+04
       346  21 -1.178713E+06 -2.642453E+05 -3.344505E+04 -5.116064E+05 -3.638550E+03 -1.419372E+04
       346  22 -1.023140E+06 -2.077298E+05 -7.899874E+03 -4.685485E+05  1.504716E+04 -2.198853E+04
       346  23 -1.031264E+06 -1.992159E+05 -4.350415E+03 -4.590425E+05  1.046046E+04 -1.636667E+04
       346  24 -1.023103E+06 -2.075792E+05 -2.467257E+03 -4.685980E+05  5.835050E+03 -1.063693E+04
       346  25 -6.953493E+05 -8.846614E+04  5.675855E+04 -3.778820E+05  2.421780E+04 -1.854316E+04
       346  26 -7.895717E+05 -1.112662E+05  4.340601E+04 -3.922022E+05  1.978366E+04 -1.286516E+04
       346  27 -8.674687E+05 -1.509113E+05  2.850940E+04 -4.255800E+05  1.531112E+04 -7.079227E+03
       347   1 -1.120257E+06 -2.429148E+05 -2.085890E+04 -4.954696E+05  5.428121E+03  1.048306E+04
       347   2 -1.042414E+06 -2.032494E+05 -3.411280E+03 -4.620573E+05  8.522737E+03  4.126110E+03
       347   3 -9.479885E+05 -1.802612E+05  1.357237E+04 -4.477155E+05  1.161979E+04 -2.237382E+03
       347   4 -1.023044E+06 -2.075893E+05 -1.910129E+03 -4.685791E+05 -4.029966E+03  6.932466E+03
       347   5 -1.031331E+06 -1.992599E+05 -1.226473E+03 -4.590384E+05 -9.454286E+02  5.717566E+02
       347   6 -1.023045E+06 -2.076072E+05 -9.995298E+02 -4.685718E+05  2.141444E+03 -5.795503E+03
       347   7 -9.258195E+05 -1.722626E+05  1.703883E+04 -4.416845E+05 -1.348972E+04  3.381251E+03
       347   8 -1.020249E+06 -1.952703E+05  9.587262E+02 -4.560194E+05 -1.041382E+04 -2.982678E+03
       347   9 -1.098095E+06 -2.349527E+05 -1.557130E+04 -4.894258E+05 -7.335675E+03 -9.353164E+03
       347  10 -1.120257E+06 -2.429149E+05 -2.085916E+04 -4.954696E+05  3.839065E-11 -2.897091E-10
       347  11 -1.042414E+06 -2.032495E+05 -3.411449E+03 -4.620573E+05  5.061404E-11 -5.964541E-11
       347  12 -9.479886E+05 -1.802612E+05  1.357211E+04 -4.477155E+05 -1.109137E-09  6.173213E-11
       347  13 -1.023044E+06 -2.075894E+05 -1.910249E+03 -4.685791E+05  6.225609E-10  6.465246E-12
       347  14 -1.031331E+06 -1.992599E+05 -1.226476E+03 -4.590384E+05 -3.670379E-10 -6.057652E-10
       347  15 -1.023045E+06 -2.076072E+05 -9.996015E+02 -4.685718E+05 -2.687731E-10  4.873110E-10
       347  16 -9.258197E+05 -1.722627E+05  1.703847E+04 -4.416845E+05  3.185101E-10  3.470888E-11
       347  17 -1.020249E+06 -1.952703E+05  9.585052E+02 -4.560194E+05  1.216218E-10  4.567117E-10
       347  18 -1.098095E+06 -2.349528E+05 -1.557157E+04 -4.894258E+05  4.058698E-10  4.153453E-10
       347  19 -1.120257E+06 -2.429148E+05 -2.085890E+04 -4.954696E+05 -5.428121E+03 -1.048306E+04
       347  20 -1.042414E+06 -2.032494E+05 -3.411280E+03 -4.620573E+05 -8.522737E+03 -4.126110E+03
       347  21 -9.479885E+05 -1.802612E+05  1.357237E+04 -4.477155E+05 -1.161979E+04  2.237382E+03
       347  22 -1.023044E+06 -2.075893E+05 -1.910129E+03 -4.685791E+05  4.029966E+03 -6.932466E+03
       347  23 -1.031331E+06 -1.992599E+05 -1.226473E+03 -4.590384E+05  9.454286E+02 -5.717566E+02
       347  24 -1.023045E+06 -2.076072E+05 -9.995298E+02 -4.685718E+05 -2.141444E+03  5.795503E+03
       347  25 -9.258195E+05 -1.722626E+05  1.703883E+04 -4.416845E+05  1.348972E+04 -3.381251E+03
       347  26 -1.020249E+06 -1.952703E+05  9.587262E+02 -4.560194E+05  1.041382E+04  2.982678E+03
       347  27 -1.098095E+06 -2.349527E+05 -1.557130E+04 -4.894258E+05  7.335675E+03  9.353164E+03
       348   1 -8.896180E+05 -1.588929E+05  2.557751E+04 -4.315573E+05  1.322844E+04 -6.015867E+03
       348   2 -8.118431E+05 -1.192548E+05  4.198793E+04 -3.981678E+05  1.635601E+04 -1.236118E+04
       348   3 -7.174998E+05 -9.627579E+04  5.791244E+04 -3.838292E+05  1.948000E+04 -1.869287E+04
       348   4 -1.023052E+06 -2.076068E+05 -1.020899E+03 -4.685678E+05  3.752112E+03 -9.573526E+03
       348   5 -1.031338E+06 -1.992797E+05 -1.348198E+03 -4.590417E+05  6.897933E+03 -1.591304E+04
       348   6 -1.023066E+06 -2.076161E+05 -2.175917E+03 -4.685697E+05  1.004009E+04 -2.223899E+04
       348   7 -1.156467E+06 -2.563187E+05 -2.761946E+04 -5.055705E+05 -5.721954E+03 -1.313033E+04
       348   8 -1.250782E+06 -2.793003E+05 -4.468618E+04 -5.198955E+05 -2.556553E+03 -1.946356E+04
       348   9 -1.328537E+06 -3.189491E+05 -6.226888E+04 -5.532721E+05  6.050962E+02 -2.578327E+04
       348  10 -8.896182E+05 -1.588930E+05  2.557711E+04 -4.315572E+05 -6.020195E-10  2.692415E-10
       348  11 -8.118434E+05 -1.192551E+05  4.198714E+04 -3.981677E+05 -5.413557E-10  9.578332E-10
       348  12 -7.175003E+05 -9.627627E+04  5.791107E+04 -3.838289E+05  2.420773E-10  6.938538E-10
       348  13 -1.023052E+06 -2.076069E+05 -1.021098E+03 -4.685677E+05 -8.241886E-10  6.055880E-10
       348  14 -1.031338E+06 -1.992800E+05 -1.348763E+03 -4.590416E+05 -1.193777E-09  1.151717E-09
       348  15 -1.023066E+06 -2.076166E+05 -2.177035E+03 -4.685695E+05 -2.302836E-10  2.965711E-10
       348  16 -1.156467E+06 -2.563189E+05 -2.761985E+04 -5.055706E+05 -1.990443E-10  9.180533E-10
       348  17 -1.250782E+06 -2.793007E+05 -4.468690E+04 -5.198955E+05 -1.220254E-09  1.507316E-09
       348  18 -1.328537E+06 -3.189498E+05 -6.227013E+04 -5.532720E+05 -9.739858E-10  3.092149E-10
       348  19 -8.896180E+05 -1.588929E+05  2.557751E+04 -4.315573E+05 -1.322844E+04  6.015867E+03
       348  20 -8.118431E+05 -1.192548E+05  4.198793E+04 -3.981678E+05 -1.635601E+04  1.236118E+04
       348  21 -7.174998E+05 -9.627579E+04  5.791244E+04 -3.838292E+05 -1.948000E+04  1.869287E+04
       348  22 -1.023052E+06 -2.076068E+05 -1.020899E+03 -4.685678E+05 -3.752112E+03  9.573526E+03
       348  23 -1.031338E+06 -1.992797E+05 -1.348198E+03 -4.590417E+05 -6.897933E+03  1.591304E+04
       348  24 -1.023066E+06 -2.076161E+05 -2.175917E+03 -4.685697E+05 -1.004009E+04  2.223899E+04
       348  25 -1.156467E+06 -2.563187E+05 -2.761946E+04 -5.055705E+05  5.721954E+03  1.313033E+04
       348  26 -1.250782E+06 -2.793003E+05 -4.468618E+04 -5.198955E+05  2.556553E+03  1.946356E+04
       348  27 -1.328537E+06 -3.189491E+05 -6.226888E+04 -5.532721E+05 -6.050962E+02  2.578327E+04
       349   1 -6.592812E+05 -7.496011E+04  6.925813E+04 -3.677420E+05  2.135095E+04 -2.236270E+04
       349   2 -5.816099E+05 -3.541707E+04  8.379648E+04 -3.344334E+05  2.611150E+04 -2.800436E+04
       349   3 -4.876907E+05 -1.270438E+04  9.656645E+04 -3.201224E+05  3.082330E+04 -3.350750E+04
       349   4 -1.023145E+06 -2.076040E+05 -2.832723E+03 -4.685837E+05  1.189556E+04 -2.591561E+04
       349   5 -1.031275E+06 -1.992690E+05 -5.034114E+03 -4.590516E+05  1.685190E+04 -3.148589E+04
       349   6 -1.023203E+06 -2.078050E+05 -9.160020E+03 -4.685213E+05  2.175911E+04 -3.691770E+04
       349   7 -1.386872E+06 -3.402363E+05 -7.492937E+04 -5.693706E+05  2.446136E+03 -2.946630E+04
       349   8 -1.480729E+06 -3.631025E+05 -9.387320E+04 -5.835857E+05  7.599543E+03 -3.496472E+04
       349   9 -1.558413E+06 -4.028788E+05 -1.148982E+05 -6.168003E+05  1.270339E+04 -4.032474E+04
       349  10 -6.592818E+05 -7.496076E+04  6.925633E+04 -3.677416E+05  7.538348E-10  7.942344E-10
       349  11 -5.816108E+05 -3.541810E+04  8.379373E+04 -3.344328E+05 -9.924848E-11  1.468057E-09
       349  12 -4.876920E+05 -1.270584E+04  9.656256E+04 -3.201215E+05  1.005209E-09  5.119577E-10
       349  13 -1.023145E+06 -2.076048E+05 -2.834250E+03 -4.685834E+05 -7.410537E-10  8.381734E-10
       349  14 -1.031276E+06 -1.992702E+05 -5.036509E+03 -4.590512E+05 -1.316394E-10  6.477024E-10
       349  15 -1.023204E+06 -2.078066E+05 -9.163469E+03 -4.685206E+05 -2.303149E-10 -1.617879E-09
       349  16 -1.386872E+06 -3.402372E+05 -7.493101E+04 -5.693705E+05 -9.760276E-10 -4.609973E-10
       349  17 -1.480729E+06 -3.631038E+05 -9.387560E+04 -5.835855E+05 -2.394337E-10 -2.087894E-09
       349  18 -1.558414E+06 -4.028806E+05 -1.149015E+05 -6.167999E+05 -9.867861E-10 -1.206990E-09
       349  19 -6.592812E+05 -7.496011E+04  6.925813E+04 -3.677420E+05 -2.135095E+04  2.236270E+04
       349  20 -5.816099E+05 -3.541707E+04  8.379648E+04 -3.344334E+05 -2.611150E+04  2.800436E+04
       349  21 -4.876907E+05 -1.270438E+04  9.656645E+04 -3.201224E+05 -3.082330E+04  3.350750E+04
       349  22 -1.023145E+06 -2.076040E+05 -2.832723E+03 -4.685837E+05 -1.189556E+04  2.591561E+04
       349  23 -1.031275E+06 -1.992690E+05 -5.034114E+03 -4.590516E+05 -1.685190E+04  3.148589E+04
       349  24 -1.023203E+06 -2.078050E+05 -9.160020E+03 -4.685213E+05 -2.175911E+04  3.691770E+04
       349  25 -1.386872E+06 -3.402363E+05 -7.492937E+04 -5.693706E+05 -2.446136E+03  2.946630E+04
       349  26 -1.480729E+06 -3.631025E+05 -9.387320E+04 -5.835857E+05 -7.599543E+03  3.496472E+04
       349  27 -1.558413E+06 -4.028788E+05 -1.148982E+05 -6.168003E+05 -1.270339E+04  4.032474E+04
       350   1 -4.294789E+05  8.209954E+03  1.055306E+05 -3.050206E+05  3.430465E+04 -3.654856E+04
       350   2 -3.528108E+05  4.833949E+04  1.130262E+05 -2.695720E+05  4.489479E+04 -3.896142E+04
       350   3 -2.626266E+05  6.691523E+04  1.128644E+05 -2.518893E+05  5.478441E+04 -3.949852E+04
       350   4 -1.023729E+06 -2.075327E+05 -1.217074E+04 -4.687918E+05  2.489935E+04 -4.008855E+04
       350   5 -1.030740E+06 -2.000220E+05 -2.219606E+04 -4.585874E+05  3.817194E+04 -4.149578E+04
       350   6 -1.024780E+06 -2.146051E+05 -4.201471E+04 -4.661547E+05  5.074235E+04 -4.102664E+04
       350   7 -1.617619E+06 -4.232473E+05 -1.298897E+05 -6.324195E+05  1.550364E+04 -4.362500E+04
       350   8 -1.708197E+06 -4.483439E+05 -1.574410E+05 -6.474123E+05  3.145694E+04 -4.402719E+04
       350   9 -1.786334E+06 -4.960727E+05 -1.969230E+05 -6.801757E+05  4.670560E+04 -4.255273E+04
       350  10 -4.294805E+05  8.208205E+03  1.055259E+05 -3.050195E+05 -8.044153E-10  3.048318E-10
       350  11 -3.528134E+05  4.833732E+04  1.130196E+05 -2.695705E+05  4.114814E-10  8.470736E-10
       350  12 -2.626302E+05  6.691275E+04  1.128558E+05 -2.518876E+05  2.594826E-09  4.244110E-10
       350  13 -1.023730E+06 -2.075346E+05 -1.217492E+04 -4.687910E+05  7.153443E-10 -9.651534E-10
       350  14 -1.030742E+06 -2.000243E+05 -2.220203E+04 -4.585861E+05 -7.041295E-10  1.007713E-09
       350  15 -1.024783E+06 -2.146076E+05 -4.202272E+04 -4.661530E+05  6.350050E-10 -3.627781E-10
       350  16 -1.617620E+06 -4.232494E+05 -1.298937E+05 -6.324190E+05  4.436625E-10  1.442235E-11
       350  17 -1.708199E+06 -4.483462E+05 -1.574465E+05 -6.474112E+05 -2.508977E-09  1.440526E-09
       350  18 -1.786337E+06 -4.960752E+05 -1.969305E+05 -6.801741E+05 -1.917586E-09  8.229850E-10
       350  19 -4.294789E+05  8.209954E+03  1.055306E+05 -3.050206E+05 -3.430465E+04  3.654856E+04
       350  20 -3.528108E+05  4.833949E+04  1.130262E+05 -2.695720E+05 -4.489479E+04  3.896142E+04
       350  21 -2.626266E+05  6.691523E+04  1.128644E+05 -2.518893E+05 -5.478441E+04  3.949852E+04
       350  22 -1.023729E+06 -2.075327E+05 -1.217074E+04 -4.687918E+05 -2.489935E+04  4.008855E+04
       350  23 -1.030740E+06 -2.000220E+05 -2.219606E+04 -4.585874E+05 -3.817194E+04  4.149578E+04
       350  24 -1.024780E+06 -2.146051E+05 -4.201471E+04 -4.661547E+05 -5.074235E+04  4.102664E+04
       350  25 -1.617619E+06 -4.232473E+05 -1.298897E+05 -6.324195E+05 -1.550364E+04  4.362500E+04
       350  26 -1.708197E+06 -4.483439E+05 -1.574410E+05 -6.474123E+05 -3.145694E+04  4.402719E+04
       350  27 -1.786334E+06 -4.960727E+05 -1.969230E+05 -6.801757E+05 -4.670560E+04  4.255273E+04
       351   1 -1.970021E+05  8.088371E+04  1.120894E+05 -2.563358E+05  6.768468E+04 -3.890868E+04
       351   2 -1.533559E+05  1.403636E+05  9.413659E+04 -1.572726E+05  8.027460E+04 -2.598429E+04
       351   3 -1.407919E+05  6.736292E+04  3.256946E+04 -4.413398E+04  8.266503E+04  1.400398E+04
       351   4 -1.031714E+06 -2.085038E+05 -5.504865E+04 -4.712737E+05  5.848399E+04 -4.237835E+04
       351   5 -1.024827E+06 -2.262520E+05 -1.031285E+05 -4.452455E+05  1.099279E+05 -1.482835E+04
       351   6 -1.056810E+06 -3.843165E+05 -2.256997E+05 -4.051321E+05  1.511597E+05  3.979922E+04
       351   7 -1.865709E+06 -4.978492E+05 -2.222198E+05 -6.859518E+05  4.929662E+04 -4.584363E+04
       351   8 -1.895503E+06 -5.927338E+05 -3.004344E+05 -7.328189E+05  1.395359E+05 -3.694960E+03
       351   9 -1.971944E+06 -8.357313E+05 -4.840179E+05 -7.655753E+05  2.195421E+05  6.552240E+04
       351  10 -1.970074E+05  8.088085E+04  1.120780E+05 -2.563337E+05  4.098178E-10 -5.462344E-10
       351  11 -1.533630E+05  1.403612E+05  9.412321E+04 -1.572709E+05  1.039640E-09  1.871799E-09
       351  12 -1.407993E+05  6.736088E+04  3.255625E+04 -4.413491E+04  1.376837E-09  1.212484E-10
       351  13 -1.031719E+06 -2.085066E+05 -5.505845E+04 -4.712717E+05  1.239951E-09 -2.204253E-09
       351  14 -1.024840E+06 -2.262555E+05 -1.031516E+05 -4.452442E+05  4.864196E-11  2.068120E-09
       351  15 -1.056835E+06 -3.843243E+05 -2.257457E+05 -4.051370E+05 -8.836733E-10  1.643938E-09
       351  16 -1.865713E+06 -4.978521E+05 -2.222284E+05 -6.859500E+05 -1.094407E-09  2.139052E-09
       351  17 -1.895524E+06 -5.927390E+05 -3.004711E+05 -7.328185E+05 -2.801725E-09  3.424442E-09
       351  18 -1.971997E+06 -8.357489E+05 -4.841169E+05 -7.655869E+05 -2.681798E-09 -3.591464E-10
       351  19 -1.970021E+05  8.088371E+04  1.120894E+05 -2.563358E+05 -6.768468E+04  3.890868E+04
       351  20 -1.533559E+05  1.403636E+05  9.413659E+04 -1.572726E+05 -8.027460E+04  2.598429E+04
       351  21 -1.407919E+05  6.736292E+04  3.256946E+04 -4.413398E+04 -8.266503E+04 -1.400398E+04
       351  22 -1.031714E+06 -2.085038E+05 -5.504865E+04 -4.712737E+05 -5.848399E+04  4.237835E+04
       351  23 -1.024827E+06 -2.262520E+05 -1.031285E+05 -4.452455E+05 -1.099279E+05  1.482835E+04
       351  24 -1.056810E+06 -3.843165E+05 -2.256997E+05 -4.051321E+05 -1.511597E+05 -3.979922E+04
       351  25 -1.865709E+06 -4.978492E+05 -2.222198E+05 -6.859518E+05 -4.929662E+04  4.584363E+04
       351  26 -1.895503E+06 -5.927338E+05 -3.004344E+05 -7.328189E+05 -1.395359E+05  3.694960E+03
       351  27 -1.971944E+06 -8.357313E+05 -4.840179E+05 -7.655753E+05 -2.195421E+05 -6.552240E+04
       352   1  9.539516E+04  3.157397E+04  1.677653E+03 -3.101504E+04 -8.244360E+04 -8.465529E+03
       352   2  6.799797E+04  1.472668E+05  6.380999E+04 -2.054487E+03 -5.982712E+04 -2.637161E+04
       352   3  7.167046E+03  1.407726E+05  8.071370E+04  4.550711E+04 -3.724464E+04 -2.776787E+04
       352   4 -5.415717E+05 -1.265047E+05 -1.528699E+05  2.636231E+04 -1.050083E+05 -8.516996E+03
       352   5 -5.235752E+05  2.394742E+03 -6.933606E+04  1.692338E+04 -6.815918E+04 -2.639293E+04
       352   6 -5.415238E+05  6.566250E+03 -4.095190E+04  2.608802E+04 -3.134154E+04 -2.775479E+04
       352   7 -1.178160E+06 -2.846004E+05 -3.074429E+05  8.368044E+04 -1.275499E+05 -8.572665E+03
       352   8 -1.114822E+06 -1.424999E+05 -2.025040E+05  3.588282E+04 -7.648336E+04 -2.641477E+04
       352   9 -1.089933E+06 -1.276591E+05 -1.626359E+05  6.686132E+03 -2.544360E+04 -2.774206E+04
       352  10  9.538784E+04  3.157207E+04  1.664747E+03 -3.101560E+04  3.522241E-10 -7.880618E-11
       352  11  6.799394E+04  1.472651E+05  6.380196E+04 -2.055757E+03  3.747668E-10 -3.318701E-09
       352  12  7.165350E+03  1.407714E+05  8.070965E+04  4.550628E+04  1.941172E-09 -3.484191E-09
       352  13 -5.415835E+05 -1.265078E+05 -1.528907E+05  2.636158E+04 -1.885090E-10  1.975307E-09
       352  14 -5.235804E+05  2.392746E+03 -6.934611E+04  1.692194E+04 -8.200964E-10 -1.607488E-09
       352  15 -5.415251E+05  6.565159E+03 -4.095520E+04  2.608732E+04 -1.426581E-09  1.057756E-10
       352  16 -1.178177E+06 -2.846049E+05 -3.074737E+05  8.367956E+04 -1.580106E-09  8.500289E-10
       352  17 -1.114828E+06 -1.425022E+05 -2.025163E+05  3.588119E+04 -5.476217E-10 -5.601134E-09
       352  18 -1.089934E+06 -1.276601E+05 -1.626386E+05  6.685563E+03 -2.041360E-09 -6.043944E-09
       352  19  9.539516E+04  3.157397E+04  1.677653E+03 -3.101504E+04  8.244360E+04  8.465529E+03
       352  20  6.799797E+04  1.472668E+05  6.380999E+04 -2.054487E+03  5.982712E+04  2.637161E+04
       352  21  7.167046E+03  1.407726E+05  8.071370E+04  4.550711E+04  3.724464E+04  2.776787E+04
       352  22 -5.415717E+05 -1.265047E+05 -1.528699E+05  2.636231E+04  1.050083E+05  8.516996E+03
       352  23 -5.235752E+05  2.394742E+03 -6.933606E+04  1.692338E+04  6.815918E+04  2.639293E+04
       352  24 -5.415238E+05  6.566250E+03 -4.095190E+04  2.608802E+04  3.134154E+04  2.775479E+04
       352  25 -1.178160E+06 -2.846004E+05 -3.074429E+05  8.368044E+04  1.275499E+05  8.572665E+03
       352  26 -1.114822E+06 -1.424999E+05 -2.025040E+05  3.588282E+04  7.648336E+04  2.641477E+04
       352  27 -1.089933E+06 -1.276591E+05 -1.626359E+05  6.686132E+03  2.544360E+04  2.774206E+04
       353   1 -2.297240E+04  1.176606E+05  8.129772E+04  2.466508E+04 -2.649144E+04 -2.475887E+04
       353   2 -6.577531E+04  1.145215E+05  8.614181E+04  1.694575E+04 -1.829209E+04 -2.321957E+04
       353   3 -1.115501E+05  1.039154E+05  8.377338E+04  2.858362E+04 -1.009634E+04 -2.093288E+04
       353   4 -5.342194E+05 -7.397183E+03 -3.265982E+04  2.634146E+04 -2.548739E+04 -2.475800E+04
       353   5 -5.326679E+05  3.697254E+02 -1.758461E+04  1.665215E+04 -1.664893E+04 -2.321659E+04
       353   6 -5.342034E+05  5.552261E+02 -1.017024E+04  2.632107E+04 -7.813491E+03 -2.092757E+04
       353   7 -1.045223E+06 -1.324727E+05 -1.466337E+05  2.801630E+04 -2.448415E+04 -2.475712E+04
       353   8 -9.993570E+05 -1.137969E+05 -1.213246E+05  1.635864E+04 -1.500699E+04 -2.321360E+04
       353   9 -9.566899E+05 -1.028171E+05 -1.041250E+05  2.405996E+04 -5.532180E+03 -2.092227E+04
       353  10 -2.297331E+04  1.176598E+05  8.129525E+04  2.466456E+04 -4.440610E-09 -5.072952E-09
       353  11 -6.577581E+04  1.145209E+05  8.614017E+04  1.694540E+04 -2.716705E-09  2.564149E-09
       353  12 -1.115503E+05  1.039150E+05  8.377236E+04  2.858345E+04 -1.956083E-09  4.132815E-09
       353  13 -5.342203E+05 -7.398016E+03 -3.266219E+04  2.634096E+04 -1.056326E-09 -3.549503E-09
       353  14 -5.326683E+05  3.690723E+02 -1.758614E+04  1.665184E+04 -1.226226E-09  3.073318E-10
       353  15 -5.342035E+05  5.547395E+02 -1.017117E+04  2.632094E+04 -7.698453E-12 -1.777938E-09
       353  16 -1.045223E+06 -1.324735E+05 -1.466360E+05  2.801581E+04  2.450773E-09 -6.265010E-10
       353  17 -9.993574E+05 -1.137975E+05 -1.213260E+05  1.635836E+04  6.331441E-10  1.447509E-09
       353  18 -9.566900E+05 -1.028176E+05 -1.041258E+05  2.405986E+04  2.037338E-09  2.059067E-09
       353  19 -2.297240E+04  1.176606E+05  8.129772E+04  2.466508E+04  2.649144E+04  2.475887E+04
       353  20 -6.577531E+04  1.145215E+05  8.614181E+04  1.694575E+04  1.829209E+04  2.321957E+04
       353  21 -1.115501E+05  1.039154E+05  8.377338E+04  2.858362E+04  1.009634E+04  2.093288E+04
       353  22 -5.342194E+05 -7.397183E+03 -3.265982E+04  2.634146E+04  2.548739E+04  2.475800E+04
       353  23 -5.326679E+05  3.697254E+02 -1.758461E+04  1.665215E+04  1.664893E+04  2.321659E+04
       353  24 -5.342034E+05  5.552261E+02 -1.017024E+04  2.632107E+04  7.813491E+03  2.092757E+04
       353  25 -1.045223E+06 -1.324727E+05 -1.466337E+05  2.801630E+04  2.448415E+04  2.475712E+04
       353  26 -9.993570E+05 -1.137969E+05 -1.213246E+05  1.635864E+04  1.500699E+04  2.321360E+04
       353  27 -9.566899E+05 -1.028171E+05 -1.041250E+05  2.405996E+04  5.532180E+03  2.092227E+04
       354   1 -1.485069E+05  9.386816E+04  7.757932E+04  2.726904E+04 -8.303674E+03 -1.943439E+04
       354   2 -1.929133E+05  8.338330E+04  7.114676E+04  1.746560E+04 -6.139802E+03 -1.701710E+04
       354   3 -2.377867E+05  7.254381E+04  6.319382E+04  2.719789E+04 -3.977306E+03 -1.456074E+04
       354   4 -5.336161E+05 -2.640054E+02 -7.815707E+03  2.636701E+04 -6.235145E+03 -1.942936E+04
       354   5 -5.333739E+05  1.436430E+02 -4.440775E+03  1.659814E+04 -4.038815E+03 -1.701155E+04
       354   6 -5.336065E+05  1.908618E+02 -2.609481E+03  2.636566E+04 -1.843709E+03 -1.455465E+04
       354   7 -9.185868E+05 -9.440619E+04 -9.321992E+04  2.546544E+04 -4.167884E+03 -1.942434E+04
       354   8 -8.737263E+05 -8.310386E+04 -8.003551E+04  1.573108E+04 -1.938967E+03 -1.700600E+04
       354   9 -8.293447E+05 -7.216802E+04 -6.841823E+04  2.553376E+04  2.888823E+02 -1.454856E+04
       354  10 -1.485070E+05  9.386774E+04  7.757848E+04  2.726891E+04 -1.594331E-09  6.318856E-09
       354  11 -1.929134E+05  8.338298E+04  7.114615E+04  1.746552E+04  9.359455E-10  4.370880E-09
       354  12 -2.377867E+05  7.254358E+04  6.319339E+04  2.719785E+04  3.246807E-09 -1.984979E-09
       354  13 -5.336163E+05 -2.644211E+02 -7.816490E+03  2.636691E+04 -1.544820E-10 -2.687975E-09
       354  14 -5.333740E+05  1.433280E+02 -4.441349E+03  1.659809E+04  2.796825E-10  4.776240E-09
       354  15 -5.336066E+05  1.906334E+02 -2.609885E+03  2.636564E+04 -8.187613E-10  7.246048E-09
       354  16 -9.185869E+05 -9.440660E+04 -9.322067E+04  2.546538E+04  4.865557E-10  3.665094E-09
       354  17 -8.737263E+05 -8.310417E+04 -8.003606E+04  1.573106E+04 -1.410130E-09  5.436282E-09
       354  18 -8.293448E+05 -7.216825E+04 -6.841862E+04  2.553377E+04 -2.895660E-09  3.426261E-09
       354  19 -1.485069E+05  9.386816E+04  7.757932E+04  2.726904E+04  8.303674E+03  1.943439E+04
       354  20 -1.929133E+05  8.338330E+04  7.114676E+04  1.746560E+04  6.139802E+03  1.701710E+04
       354  21 -2.377867E+05  7.254381E+04  6.319382E+04  2.719789E+04  3.977306E+03  1.456074E+04
       354  22 -5.336161E+05 -2.640054E+02 -7.815707E+03  2.636701E+04  6.235145E+03  1.942936E+04
       354  23 -5.333739E+05  1.436430E+02 -4.440775E+03  1.659814E+04  4.038815E+03  1.701155E+04
       354  24 -5.336065E+05  1.908618E+02 -2.609481E+03  2.636566E+04  1.843709E+03  1.455465E+04
       354  25 -9.185868E+05 -9.440619E+04 -9.321992E+04  2.546544E+04  4.167884E+03  1.942434E+04
       354  26 -8.737263E+05 -8.310386E+04 -8.003551E+04  1.573108E+04  1.938967E+03  1.700600E+04
       354  27 -8.293447E+05 -7.216802E+04 -6.841823E+04  2.553376E+04 -2.888823E+02  1.454856E+04
       355   1 -2.755132E+05  6.321324E+04  5.512600E+04  2.706040E+04 -3.557215E+03 -1.312282E+04
       355   2 -3.203054E+05  5.223288E+04  4.601849E+04  1.711648E+04 -2.925271E+03 -1.065548E+04
       355   3 -3.652930E+05  4.134614E+04  3.649070E+04  2.681860E+04 -2.294105E+03 -8.183003E+03
       355   4 -5.335403E+05  1.502063E+02 -2.034629E+03  2.639055E+04 -1.429679E+03 -1.311652E+04
       355   5 -5.334381E+05  1.201007E+02 -1.301761E+03  1.656727E+04 -7.936202E+02 -1.064889E+04
       355   6 -5.335347E+05  1.828215E+02 -9.922834E+02  2.639044E+04 -1.582945E+02 -8.176118E+03
       355   7 -7.915052E+05 -6.291732E+04 -5.919937E+04  2.572093E+04  6.969832E+02 -1.311022E+04
       355   8 -7.465284E+05 -5.199575E+04 -4.862482E+04  1.601823E+04  1.337307E+03 -1.064230E+04
       355   9 -7.017499E+05 -4.098242E+04 -3.847702E+04  2.596238E+04  1.976943E+03 -8.169235E+03
       355  10 -2.755133E+05  6.321305E+04  5.512566E+04  2.706036E+04  4.307612E-09 -2.060279E-09
       355  11 -3.203054E+05  5.223275E+04  4.601826E+04  1.711646E+04 -1.042895E-09  8.455627E-09
       355  12 -3.652930E+05  4.134607E+04  3.649056E+04  2.681858E+04 -2.654207E-09  8.449582E-09
       355  13 -5.335404E+05  1.500211E+02 -2.034956E+03  2.639053E+04  5.269127E-10  1.531652E-09
       355  14 -5.334381E+05  1.199788E+02 -1.301975E+03  1.656727E+04  3.568856E-10  7.539873E-09
       355  15 -5.335347E+05  1.827497E+02 -9.924090E+02  2.639044E+04 -1.287034E-09  1.243762E-09
       355  16 -7.915053E+05 -6.291750E+04 -5.919970E+04  2.572094E+04 -5.079775E-09  2.061927E-09
       355  17 -7.465284E+05 -5.199587E+04 -4.862504E+04  1.601824E+04 -1.955686E-09 -2.353192E-10
       355  18 -7.017499E+05 -4.098249E+04 -3.847716E+04  2.596239E+04  2.371327E-09 -1.965490E-09
       355  19 -2.755132E+05  6.321324E+04  5.512600E+04  2.706040E+04  3.557215E+03  1.312282E+04
       355  20 -3.203054E+05  5.223288E+04  4.601849E+04  1.711648E+04  2.925271E+03  1.065548E+04
       355  21 -3.652930E+05  4.134614E+04  3.649070E+04  2.681860E+04  2.294105E+03  8.183003E+03
       355  22 -5.335403E+05  1.502063E+02 -2.034629E+03  2.639055E+04  1.429679E+03  1.311652E+04
       355  23 -5.334381E+05  1.201007E+02 -1.301761E+03  1.656727E+04  7.936202E+02  1.064889E+04
       355  24 -5.335347E+05  1.828215E+02 -9.922834E+02  2.639044E+04  1.582945E+02  8.176118E+03
       355  25 -7.915052E+05 -6.291732E+04 -5.919937E+04  2.572093E+04 -6.969832E+02  1.311022E+04
       355  26 -7.465284E+05 -5.199575E+04 -4.862482E+04  1.601823E+04 -1.337307E+03  1.064230E+04
       355  27 -7.017499E+05 -4.098242E+04 -3.847702E+04  2.596238E+04 -1.976943E+03  8.169235E+03
       356   1 -4.032462E+05  3.201577E+04  2.784118E+04  2.672966E+04 -2.123907E+03 -6.742323E+03
       356   2 -4.481662E+05  2.097928E+04  1.781538E+04  1.674180E+04 -1.580724E+03 -4.264792E+03
       356   3 -4.932912E+05  1.004537E+04  7.423773E+03  2.646277E+04 -1.037859E+03 -1.786525E+03
       356   4 -5.335337E+05  1.833738E+02 -9.593145E+02  2.640435E+04  1.370530E+01 -6.735309E+03
       356   5 -5.334295E+05  1.303100E+02 -1.116281E+03  1.654986E+04  5.573959E+02 -4.257669E+03
       356   6 -5.335316E+05  1.800343E+02 -1.639176E+03  2.640436E+04  1.100808E+03 -1.779285E+03
       356   7 -6.638053E+05 -3.165016E+04 -2.976084E+04  2.607909E+04  2.150874E+03 -6.728297E+03
       356   8 -6.186860E+05 -2.071915E+04 -2.004837E+04  1.635794E+04  2.695225E+03 -4.250547E+03
       356   9 -5.737705E+05 -9.685411E+03 -1.070221E+04  2.634595E+04  3.239338E+03 -1.772045E+03
       356  10 -4.032462E+05  3.201572E+04  2.784109E+04  2.672965E+04  4.812213E-09  2.735259E-09
       356  11 -4.481662E+05  2.097926E+04  1.781534E+04  1.674179E+04  1.879342E-09  2.143966E-09
       356  12 -4.932912E+05  1.004537E+04  7.423765E+03  2.646277E+04 -1.155157E-09 -5.507369E-09
       356  13 -5.335337E+05  1.833251E+02 -9.593997E+02  2.640435E+04 -9.432112E-10  1.061488E-08
       356  14 -5.334295E+05  1.302905E+02 -1.116316E+03  1.654986E+04 -5.383505E-10 -1.158214E-09
       356  15 -5.335316E+05  1.800306E+02 -1.639184E+03  2.640436E+04 -2.136768E-10 -3.045132E-09
       356  16 -6.638053E+05 -3.165021E+04 -2.976093E+04  2.607911E+04 -6.397007E-09  3.493690E-09
       356  17 -6.186860E+05 -2.071917E+04 -2.004842E+04  1.635795E+04 -3.138876E-09 -2.693059E-09
       356  18 -5.737705E+05 -9.685417E+03 -1.070224E+04  2.634596E+04  2.110286E-09 -2.710466E-09
       356  19 -4.032462E+05  3.201577E+04  2.784118E+04  2.672966E+04  2.123907E+03  6.742323E+03
       356  20 -4.481662E+05  2.097928E+04  1.781538E+04  1.674180E+04  1.580724E+03  4.264792E+03
       356  21 -4.932912E+05  1.004537E+04  7.423773E+03  2.646277E+04  1.037859E+03  1.786525E+03
       356  22 -5.335337E+05  1.833738E+02 -9.593145E+02  2.640435E+04 -1.370530E+01  6.735309E+03
       356  23 -5.334295E+05  1.303100E+02 -1.116281E+03  1.654986E+04 -5.573959E+02  4.257669E+03
       356  24 -5.335316E+05  1.800343E+02 -1.639176E+03  2.640436E+04 -1.100808E+03  1.779285E+03
       356  25 -6.638053E+05 -3.165016E+04 -2.976084E+04  2.607909E+04 -2.150874E+03  6.728297E+03
       356  26 -6.186860E+05 -2.071915E+04 -2.004837E+04  1.635794E+04 -2.695225E+03  4.250547E+03
       356  27 -5.737705E+05 -9.685411E+03 -1.070221E+04  2.634595E+04 -3.239338E+03  1.772045E+03
       357   1 -5.313595E+05  7.304337E+02 -1.705752E+03  2.630191E+04 -7.140343E+02 -3.411733E+02
       357   2 -5.761744E+05 -1.030320E+04 -1.297644E+04  1.635481E+04  1.013769E+03  2.138704E+03
       357   3 -6.214382E+05 -2.158250E+04 -2.547257E+04  2.612434E+04  2.741649E+03  4.599664E+03
       357   4 -5.335849E+05  2.127547E+02 -2.071717E+03  2.640567E+04  1.430279E+03 -3.338966E+02
       357   5 -5.333618E+05  1.675569E+02 -3.467460E+03  1.654797E+04  3.141794E+03  2.145866E+03
       357   6 -5.335867E+05 -1.203083E+02 -6.077130E+03  2.640680E+04  4.853509E+03  4.606720E+03
       357   7 -5.358103E+05 -3.049221E+02 -2.437664E+03  2.650943E+04  3.574585E+03 -3.266192E+02
       357   8 -4.905475E+05  1.063819E+04  6.041421E+03  1.674114E+04  5.269965E+03  2.153029E+03
       357   9 -4.457279E+05  2.134137E+04  1.331785E+04  2.668931E+04  6.965666E+03  4.613777E+03
       357  10 -5.313595E+05  7.304335E+02 -1.705753E+03  2.630191E+04 -5.844711E-09  2.181933E-09
       357  11 -5.761744E+05 -1.030320E+04 -1.297645E+04  1.635481E+04 -1.982378E-09  3.464980E-09
       357  12 -6.214382E+05 -2.158252E+04 -2.547263E+04  2.612432E+04 -5.134483E-10  2.742007E-09
       357  13 -5.335850E+05  2.127540E+02 -2.071721E+03  2.640567E+04  4.709637E-13 -1.416239E-10
       357  14 -5.333618E+05  1.675493E+02 -3.467487E+03  1.654797E+04 -9.079266E-10  3.108326E-09
       357  15 -5.335867E+05 -1.203374E+02 -6.077214E+03  2.640679E+04 -1.078650E-09  3.041631E-09
       357  16 -5.358104E+05 -3.049257E+02 -2.437688E+03  2.650943E+04  5.178772E-09  3.759578E-09
       357  17 -4.905476E+05  1.063818E+04  6.041360E+03  1.674113E+04  1.371051E-09 -8.396031E-09
       357  18 -4.457280E+05  2.134133E+04  1.331772E+04  2.668928E+04  6.269189E-10  1.648900E-09
       357  19 -5.313595E+05  7.304337E+02 -1.705752E+03  2.630191E+04  7.140343E+02  3.411733E+02
       357  20 -5.761744E+05 -1.030320E+04 -1.297644E+04  1.635481E+04 -1.013769E+03 -2.138704E+03
       357  21 -6.214382E+05 -2.158250E+04 -2.547257E+04  2.612434E+04 -2.741649E+03 -4.599664E+03
       357  22 -5.335849E+05  2.127547E+02 -2.071717E+03  2.640567E+04 -1.430279E+03  3.338966E+02
       357  23 -5.333618E+05  1.675569E+02 -3.467460E+03  1.654797E+04 -3.141794E+03 -2.145866E+03
       357  24 -5.335867E+05 -1.203083E+02 -6.077130E+03  2.640680E+04 -4.853509E+03 -4.606720E+03
       357  25 -5.358103E+05 -3.049221E+02 -2.437664E+03  2.650943E+04 -3.574585E+03  3.266192E+02
       357  26 -4.905475E+05  1.063819E+04  6.041421E+03  1.674114E+04 -5.269965E+03 -2.153029E+03
       357  27 -4.457279E+05  2.134137E+04  1.331785E+04  2.668931E+04 -6.965666E+03 -4.613777E+03
       358   1 -6.598761E+05 -3.029008E+04 -3.596764E+04  2.500325E+04  3.846624E+03  6.083589E+03
       358   2 -7.035482E+05 -4.140469E+04 -5.160496E+04  1.662304E+04  1.105047E+04  8.485977E+03
       358   3 -7.497819E+05 -5.842260E+04 -7.344661E+04  2.791230E+04  1.825548E+04  1.047715E+04
       358   4 -5.340447E+05  5.162292E+02 -7.901195E+03  2.639016E+04  6.078364E+03  6.090964E+03
       358   5 -5.327978E+05  3.599868E+02 -1.364055E+04  1.656557E+04  1.292886E+04  8.491949E+03
       358   6 -5.340525E+05 -5.637095E+03 -2.533732E+04  2.641022E+04  1.978105E+04  1.048174E+04
       358   7 -4.081986E+05  3.132147E+04  2.016428E+04  2.777735E+04  8.310551E+03  6.098348E+03
       358   8 -3.620201E+05  4.212269E+04  2.432206E+04  1.650805E+04  1.480777E+04  8.497919E+03
       358   9 -3.182796E+05  4.714526E+04  2.276906E+04  2.490758E+04  2.130714E+04  1.048633E+04
       358  10 -6.598761E+05 -3.029012E+04 -3.596774E+04  2.500323E+04 -4.040873E-09  7.175612E-09
       358  11 -7.035483E+05 -4.140480E+04 -5.160533E+04  1.662297E+04  1.459334E-09  2.963562E-09
       358  12 -7.497823E+05 -5.842281E+04 -7.344745E+04  2.791214E+04  5.344267E-09  5.400645E-09
       358  13 -5.340448E+05  5.161795E+02 -7.901334E+03  2.639013E+04 -7.578789E-12  4.884540E-09
       358  14 -5.327980E+05  3.598644E+02 -1.364100E+04  1.656548E+04 -1.154457E-09  4.304053E-09
       358  15 -5.340529E+05 -5.637318E+03 -2.533827E+04  2.641005E+04 -1.097225E-09 -3.876937E-09
       358  16 -4.081987E+05  3.132141E+04  2.016408E+04  2.777731E+04  2.321985E-09  5.963890E-09
       358  17 -3.620203E+05  4.212255E+04  2.432151E+04  1.650795E+04 -2.080195E-09 -2.172116E-09
       358  18 -3.182801E+05  4.714502E+04  2.276800E+04  2.490740E+04 -5.273009E-09 -7.473099E-09
       358  19 -6.598761E+05 -3.029008E+04 -3.596764E+04  2.500325E+04 -3.846624E+03 -6.083589E+03
       358  20 -7.035482E+05 -4.140469E+04 -5.160496E+04  1.662304E+04 -1.105047E+04 -8.485977E+03
       358  21 -7.497819E+05 -5.842260E+04 -7.344661E+04  2.791230E+04 -1.825548E+04 -1.047715E+04
       358  22 -5.340447E+05  5.162292E+02 -7.901195E+03  2.639016E+04 -6.078364E+03 -6.090964E+03
       358  23 -5.327978E+05  3.599868E+02 -1.364055E+04  1.656557E+04 -1.292886E+04 -8.491949E+03
       358  24 -5.340525E+05 -5.637095E+03 -2.533732E+04  2.641022E+04 -1.978105E+04 -1.048174E+04
       358  25 -4.081986E+05  3.132147E+04  2.016428E+04  2.777735E+04 -8.310551E+03 -6.098348E+03
       358  26 -3.620201E+05  4.212269E+04  2.432206E+04  1.650805E+04 -1.480777E+04 -8.497919E+03
       358  27 -3.182796E+05  4.714526E+04  2.276906E+04  2.490758E+04 -2.130714E+04 -1.048633E+04
       359   1 -7.933887E+05 -5.695025E+04 -8.810018E+04  1.133544E+04  2.008749E+04  1.278929E+04
       359   2 -8.236992E+05 -7.101899E+04 -1.209579E+05  3.147338E+04  5.650751E+04  1.323600E+04
       359   3 -8.834085E+05 -1.832109E+05 -2.021015E+05  7.099040E+04  9.295201E+04  4.553641E+03
       359   4 -5.397219E+05  5.197962E+03 -3.176956E+04  2.625130E+04  2.432121E+04  1.280281E+04
       359   5 -5.257296E+05  1.945400E+03 -5.377711E+04  1.671685E+04  5.287117E+04  1.322302E+04
       359   6 -5.397562E+05 -9.803998E+04 -1.185864E+05  2.656350E+04  8.144862E+04  4.512629E+03
       359   7 -2.859945E+05  6.734263E+04  2.455722E+04  4.117328E+04  2.855663E+04  1.281653E+04
       359   8 -2.276769E+05  7.490456E+04  1.339824E+04  1.953104E+03  4.923310E+04  1.321022E+04
       359   9 -1.959914E+05 -1.287010E+04 -3.507821E+04 -1.788817E+04  6.993885E+04  4.473279E+03
       359  10 -7.933892E+05 -5.695053E+04 -8.810124E+04  1.133524E+04 -4.716308E-09  3.374005E-09
       359  11 -8.237026E+05 -7.102004E+04 -1.209643E+05  3.147277E+04  1.813453E-10  1.312645E-09
       359  12 -8.834178E+05 -1.832133E+05 -2.021178E+05  7.099006E+04  3.206088E-09  1.546254E-09
       359  13 -5.397226E+05  5.197627E+03 -3.177098E+04  2.625105E+04 -3.767115E-10  5.034050E-09
       359  14 -5.257327E+05  1.944461E+03 -5.378269E+04  1.671629E+04 -7.063822E-10 -5.223038E-09
       359  15 -5.397634E+05 -9.804179E+04 -1.185989E+05  2.656320E+04 -1.305529E-09  3.899846E-09
       359  16 -2.859954E+05  6.734224E+04  2.455538E+04  4.117299E+04  3.378169E-09  2.812254E-09
       359  17 -2.276795E+05  7.490372E+04  1.339335E+04  1.952580E+03 -1.654580E-09  2.456411E-09
       359  18 -1.959966E+05 -1.287143E+04 -3.508744E+04 -1.788842E+04 -2.559566E-09  1.258931E-09
       359  19 -7.933887E+05 -5.695025E+04 -8.810018E+04  1.133544E+04 -2.008749E+04 -1.278929E+04
       359  20 -8.236992E+05 -7.101899E+04 -1.209579E+05  3.147338E+04 -5.650751E+04 -1.323600E+04
       359  21 -8.834085E+05 -1.832109E+05 -2.021015E+05  7.099040E+04 -9.295201E+04 -4.553641E+03
       359  22 -5.397219E+05  5.197962E+03 -3.176956E+04  2.625130E+04 -2.432121E+04 -1.280281E+04
       359  23 -5.257296E+05  1.945400E+03 -5.377711E+04  1.671685E+04 -5.287117E+04 -1.322302E+04
       359  24 -5.397562E+05 -9.803998E+04 -1.185864E+05  2.656350E+04 -8.144862E+04 -4.512629E+03
       359  25 -2.859945E+05  6.734263E+04  2.455722E+04  4.117328E+04 -2.855663E+04 -1.281653E+04
       359  26 -2.276769E+05  7.490456E+04  1.339824E+04  1.953104E+03 -4.923310E+04 -1.321022E+04
       359  27 -1.959914E+05 -1.287010E+04 -3.507821E+04 -1.788817E+04 -6.993885E+04 -4.473279E+03
       360   1  4.682848E+05  2.337621E+06  4.915805E+05 -2.799208E+05  1.411539E+04  1.523428E+05
       360   2  2.342775E+05  1.979631E+06  3.019868E+05 -1.636967E+05  4.067544E+04  7.660920E+04
       360   3  1.489000E+05  1.668226E+06  1.986460E+05 -1.919573E+05  3.109171E+04  8.364678E+02
       360   4  1.443690E+05  1.034379E+06  1.744837E+05 -2.110474E+05  1.422166E+04  1.136977E+05
       360   5 -2.285644E+03  1.013933E+06  8.394787E+04 -1.389888E+05  4.070127E+04  6.936318E+04
       360   6 -5.612293E+03  1.034633E+06  5.801368E+04 -2.114035E+05  3.102270E+04  2.494730E+04
       360   7 -1.796536E+05 -2.673068E+05 -1.427282E+05 -1.423175E+05  1.431951E+04  7.513304E+04
       360   8 -2.389106E+05  4.910136E+04 -1.341503E+05 -1.143189E+05  4.072655E+04  6.212822E+04
       360   9 -1.601498E+05  4.014156E+05 -8.264117E+04 -2.308293E+05  3.095216E+04  4.903384E+04
       360  10  4.682784E+05  2.337596E+06  4.915367E+05 -2.799225E+05 -7.254340E-10 -4.399324E-10
       360  11  2.342742E+05  1.979624E+06  3.019727E+05 -1.636992E+05 -3.237450E-10 -8.357217E-09
       360  12  1.488989E+05  1.668225E+06  1.986442E+05 -1.919573E+05  7.123362E-10 -4.716443E-09
       360  13  1.443653E+05  1.034365E+06  1.744590E+05 -2.110487E+05  8.460909E-10  2.212221E-09
       360  14 -2.288714E+03  1.013928E+06  8.393573E+04 -1.389910E+05  6.598844E-10  2.539887E-09
       360  15 -5.613494E+03  1.034632E+06  5.801070E+04 -2.114041E+05  4.389075E-10  2.710238E-09
       360  16 -1.796553E+05 -2.673129E+05 -1.427392E+05 -1.423184E+05  6.276026E-11  1.525331E-09
       360  17 -2.389134E+05  4.909677E+04 -1.341607E+05 -1.143210E+05  1.543291E-09  2.598346E-09
       360  18 -1.601515E+05  4.014127E+05 -8.264749E+04 -2.308305E+05 -1.167408E-09 -8.905297E-10
       360  19  4.682848E+05  2.337621E+06  4.915805E+05 -2.799208E+05 -1.411539E+04 -1.523428E+05
       360  20  2.342775E+05  1.979631E+06  3.019868E+05 -1.636967E+05 -4.067544E+04 -7.660920E+04
       360  21  1.489000E+05  1.668226E+06  1.986460E+05 -1.919573E+05 -3.109171E+04 -8.364678E+02
       360  22  1.443690E+05  1.034379E+06  1.744837E+05 -2.110474E+05 -1.422166E+04 -1.136977E+05
       360  23 -2.285644E+03  1.013933E+06  8.394787E+04 -1.389888E+05 -4.070127E+04 -6.936318E+04
       360  24 -5.612293E+03  1.034633E+06  5.801368E+04 -2.114035E+05 -3.102270E+04 -2.494730E+04
       360  25 -1.796536E+05 -2.673068E+05 -1.427282E+05 -1.423175E+05 -1.431951E+04 -7.513304E+04
       360  26 -2.389106E+05  4.910136E+04 -1.341503E+05 -1.143189E+05 -4.072655E+04 -6.212822E+04
       360  27 -1.601498E+05  4.014156E+05 -8.264117E+04 -2.308293E+05 -3.095216E+04 -4.903384E+04
       361   1  9.479444E+04  1.378468E+06  1.308313E+05 -2.175473E+05  1.681339E+04  2.073251E+03
       361   2  4.219496E+03  1.041058E+06  5.156469E+04 -1.384770E+05  9.374398E+02 -2.198173E+04
       361   3 -6.447395E+04  7.113720E+05 -6.828692E+03 -2.050885E+05 -1.497602E+04 -4.602482E+04
       361   4  8.955708E+03  1.027232E+06  5.259788E+04 -2.115727E+05  1.677197E+04  1.585282E+04
       361   5 -8.343770E+01  1.023425E+06  4.765170E+04 -1.387276E+05  8.959548E+02 -8.167993E+03
       361   6  1.276026E+04  1.027232E+06  6.356176E+04 -2.115613E+05 -1.501751E+04 -3.218943E+04
       361   7 -7.689115E+04  6.761119E+05 -2.564257E+04 -2.056013E+05  1.673081E+04  2.962469E+04
       361   8 -4.386290E+03  1.005794E+06  4.373941E+04 -1.389782E+05  8.544580E+02  5.645354E+03
       361   9  8.998796E+04  1.343185E+06  1.339467E+05 -2.180373E+05 -1.505927E+04 -1.834707E+04
       361  10  9.479413E+04  1.378467E+06  1.308308E+05 -2.175473E+05  2.469783E-10 -9.106171E-10
       361  11  4.219365E+03  1.041057E+06  5.156378E+04 -1.384770E+05  2.401945E-09 -1.015733E-08
       361  12 -6.447476E+04  7.113696E+05 -6.833091E+03 -2.050891E+05 -7.557898E-10 -4.592726E-09
       361  13  8.955338E+03  1.027232E+06  5.259688E+04 -2.115729E+05 -2.756872E-10  2.636059E-09
       361  14 -8.345644E+01  1.023425E+06  4.765158E+04 -1.387276E+05  2.081310E-09  2.623387E-09
       361  15  1.275974E+04  1.027231E+06  6.355940E+04 -2.115617E+05  2.895686E-09  2.804724E-09
       361  16 -7.689169E+04  6.761109E+05 -2.564474E+04 -2.056017E+05 -1.017757E-09  2.214590E-09
       361  17 -4.386299E+03  1.005794E+06  4.373935E+04 -1.389782E+05 -6.705772E-10  3.101942E-09
       361  18  8.998763E+04  1.343185E+06  1.339457E+05 -2.180375E+05 -6.496606E-10 -5.522661E-10
       361  19  9.479444E+04  1.378468E+06  1.308313E+05 -2.175473E+05 -1.681339E+04 -2.073251E+03
       361  20  4.219496E+03  1.041058E+06  5.156469E+04 -1.384770E+05 -9.374398E+02  2.198173E+04
       361  21 -6.447395E+04  7.113720E+05 -6.828692E+03 -2.050885E+05  1.497602E+04  4.602482E+04
       361  22  8.955708E+03  1.027232E+06  5.259788E+04 -2.115727E+05 -1.677197E+04 -1.585282E+04
       361  23 -8.343770E+01  1.023425E+06  4.765170E+04 -1.387276E+05 -8.959548E+02  8.167993E+03
       361  24  1.276026E+04  1.027232E+06  6.356176E+04 -2.115613E+05  1.501751E+04  3.218943E+04
       361  25 -7.689115E+04  6.761119E+05 -2.564257E+04 -2.056013E+05 -1.673081E+04 -2.962469E+04
       361  26 -4.386290E+03  1.005794E+06  4.373941E+04 -1.389782E+05 -8.544580E+02 -5.645354E+03
       361  27  8.998796E+04  1.343185E+06  1.339467E+05 -2.180373E+05  1.505927E+04  1.834707E+04
       362   1 -1.547627E+05  4.404731E+05 -5.864515E+04 -2.398352E+05 -2.910699E+04 -6.724713E+04
       362   2 -2.314088E+05  7.969148E+04 -9.452058E+04 -1.048545E+05 -3.904810E+04 -9.798219E+04
       362   3 -1.101524E+05 -2.279350E+05 -6.100632E+04 -1.143151E+05 -1.371625E+04 -1.286174E+05
       362   4 -8.900639E+03  1.038438E+06  7.419128E+04 -2.114267E+05 -2.917919E+04 -4.338123E+04
       362   5 -3.376594E+03  1.009188E+06  1.156463E+05 -1.389699E+05 -3.902150E+04 -1.046794E+05
       362   6  2.051732E+05  1.038161E+06  2.476039E+05 -2.109109E+05 -1.360829E+04 -1.658961E+05
       362   7  1.369408E+05  1.636739E+06  2.070081E+05 -1.829902E+05 -2.924916E+04 -1.949260E+04
       362   8  2.246005E+05  1.939489E+06  3.257585E+05 -1.731361E+05 -3.899420E+04 -1.113864E+05
       362   9  5.204157E+05  2.305740E+06  5.561076E+05 -3.077033E+05 -1.348887E+04 -2.032504E+05
       362  10 -1.547649E+05  4.404680E+05 -5.865524E+04 -2.398367E+05  4.908973E-10 -1.492886E-09
       362  11 -2.314130E+05  7.968076E+04 -9.454148E+04 -1.048576E+05  1.108140E-09 -8.576558E-09
       362  12 -1.101570E+05 -2.279528E+05 -6.103777E+04 -1.143165E+05 -2.078249E-10 -3.370759E-09
       362  13 -8.902059E+03  1.038436E+06  7.418615E+04 -2.114277E+05 -1.676062E-09  2.970640E-09
       362  14 -3.381167E+03  1.009176E+06  1.156229E+05 -1.389731E+05  1.029812E-09  2.811564E-09
       362  15  2.051656E+05  1.038131E+06  2.475519E+05 -2.109128E+05 -4.629867E-10  2.552804E-09
       362  16  1.369398E+05  1.636739E+06  2.070058E+05 -1.829907E+05  1.344603E-09  2.827569E-09
       362  17  2.245955E+05  1.939476E+06  3.257324E+05 -1.731396E+05  6.029213E-10  2.609269E-09
       362  18  5.204044E+05  2.305696E+06  5.560300E+05 -3.077055E+05 -5.565265E-10 -1.864649E-10
       362  19 -1.547627E+05  4.404731E+05 -5.864515E+04 -2.398352E+05  2.910699E+04  6.724713E+04
       362  20 -2.314088E+05  7.969148E+04 -9.452058E+04 -1.048545E+05  3.904810E+04  9.798219E+04
       362  21 -1.101524E+05 -2.279350E+05 -6.100632E+04 -1.143151E+05  1.371625E+04  1.286174E+05
       362  22 -8.900639E+03  1.038438E+06  7.419128E+04 -2.114267E+05  2.917919E+04  4.338123E+04
       362  23 -3.376594E+03  1.009188E+06  1.156463E+05 -1.389699E+05  3.902150E+04  1.046794E+05
       362  24  2.051732E+05  1.038161E+06  2.476039E+05 -2.109109E+05  1.360829E+04  1.658961E+05
       362  25  1.369408E+05  1.636739E+06  2.070081E+05 -1.829902E+05  2.924916E+04  1.949260E+04
       362  26  2.246005E+05  1.939489E+06  3.257585E+05 -1.731361E+05  3.899420E+04  1.113864E+05
       362  27  5.204157E+05  2.305740E+06  5.561076E+05 -3.077033E+05  1.348887E+04  2.032504E+05
       363   1  5.271631E+05  1.816263E+05  1.041787E+05  1.652043E+05 -5.993550E+03 -1.107758E+04
       363   2  4.948147E+05  1.994568E+05  1.084312E+05  1.446296E+05 -2.027924E+03 -2.837716E+04
       363   3  4.377433E+05  1.983056E+05  1.055434E+05  1.477322E+05 -3.948792E+03 -3.006925E+04
       363   4 -4.048737E+04 -1.773157E+04 -4.472651E+04  2.497446E+04 -2.561270E+04 -1.847865E+04
       363   5 -2.442951E+04  1.009079E+04 -1.930480E+04  6.694378E+03 -9.017778E+03 -3.101719E+04
       363   6 -3.561049E+04  1.641435E+04 -1.103883E+04  1.209567E+04  1.688235E+03 -2.794193E+04
       363   7 -6.078176E+05 -2.170767E+05 -1.936545E+05 -1.151421E+05 -4.521178E+04 -2.587333E+04
       363   8 -5.434043E+05 -1.792584E+05 -1.470598E+05 -1.311364E+05 -1.600118E+04 -3.365493E+04
       363   9 -5.087425E+05 -1.654576E+05 -1.276379E+05 -1.234455E+05  7.320572E+03 -2.581650E+04
       363  10  5.271630E+05  1.816262E+05  1.041784E+05  1.652043E+05  9.784161E-11  1.660725E-09
       363  11  4.948145E+05  1.994559E+05  1.084297E+05  1.446295E+05 -2.301716E-09 -2.996997E-09
       363  12  4.377430E+05  1.983047E+05  1.055416E+05  1.477321E+05  1.249239E-09 -4.811769E-09
       363  13 -4.048817E+04 -1.773212E+04 -4.472838E+04  2.497408E+04  1.013813E-09  1.851485E-09
       363  14 -2.442985E+04  1.008974E+04 -1.930676E+04  6.694153E+03  1.066927E-09 -4.858206E-09
       363  15 -3.561070E+04  1.641351E+04 -1.104031E+04  1.209571E+04  1.232794E-09  4.795684E-09
       363  16 -6.078199E+05 -2.170780E+05 -1.936596E+05 -1.151431E+05  8.563424E-10 -2.748945E-09
       363  17 -5.434049E+05 -1.792597E+05 -1.470624E+05 -1.311369E+05  3.071772E-09  2.238464E-09
       363  18 -5.087427E+05 -1.654583E+05 -1.276392E+05 -1.234453E+05  3.857003E-09  3.249842E-10
       363  19  5.271631E+05  1.816263E+05  1.041787E+05  1.652043E+05  5.993550E+03  1.107758E+04
       363  20  4.948147E+05  1.994568E+05  1.084312E+05  1.446296E+05  2.027924E+03  2.837716E+04
       363  21  4.377433E+05  1.983056E+05  1.055434E+05  1.477322E+05  3.948792E+03  3.006925E+04
       363  22 -4.048737E+04 -1.773157E+04 -4.472651E+04  2.497446E+04  2.561270E+04  1.847865E+04
       363  23 -2.442951E+04  1.009079E+04 -1.930480E+04  6.694378E+03  9.017778E+03  3.101719E+04
       363  24 -3.561049E+04  1.641435E+04 -1.103883E+04  1.209567E+04 -1.688235E+03  2.794193E+04
       363  25 -6.078176E+05 -2.170767E+05 -1.936545E+05 -1.151421E+05  4.521178E+04  2.587333E+04
       363  26 -5.434043E+05 -1.792584E+05 -1.470598E+05 -1.311364E+05  1.600118E+04  3.365493E+04
       363  27 -5.087425E+05 -1.654576E+05 -1.276379E+05 -1.234455E+05 -7.320572E+03  2.581650E+04
       364   1  4.080330E+05  1.777271E+05  9.988087E+04  1.355955E+05  1.134294E+03 -2.476248E+04
       364   2  3.753854E+05  1.588255E+05  9.409950E+04  1.168591E+05  2.302708E+03 -2.270030E+04
       364   3  3.282793E+05  1.512156E+05  8.647137E+04  1.139551E+05  3.199612E+03 -1.992372E+04
       364   4 -3.431058E+04  1.298804E+04 -8.784208E+03  1.438936E+04  1.996867E+03 -2.443804E+04
       364   5 -2.685842E+04  8.522116E+03 -4.482193E+03  6.050704E+03  3.742230E+03 -2.215741E+04
       364   6 -3.398115E+04  1.523317E+04 -2.485291E+03  1.354471E+04  5.216119E+03 -1.916209E+04
       364   7 -4.764638E+05 -1.517387E+05 -1.174648E+05 -1.067392E+05  2.858774E+03 -2.411385E+04
       364   8 -4.289438E+05 -1.417704E+05 -1.030764E+05 -1.046928E+05  5.180740E+03 -2.161490E+04
       364   9 -3.961124E+05 -1.207399E+05 -9.145193E+04 -8.681240E+04  7.231344E+03 -1.840095E+04
       364  10  4.080328E+05  1.777265E+05  9.987972E+04  1.355955E+05  6.834205E-09 -1.679613E-09
       364  11  3.753852E+05  1.588249E+05  9.409852E+04  1.168591E+05 -1.031952E-10  5.881940E-10
       364  12  3.282792E+05  1.512152E+05  8.647060E+04  1.139551E+05 -6.281828E-09 -1.669545E-09
       364  13 -3.431075E+04  1.298740E+04 -8.785338E+03  1.438940E+04  9.656170E-10 -4.266585E-09
       364  14 -2.685856E+04  8.521585E+03 -4.483142E+03  6.050771E+03  3.850701E-09 -3.496410E-09
       364  15 -3.398127E+04  1.523277E+04 -2.486033E+03  1.354479E+04 -1.140284E-09 -2.690417E-09
       364  16 -4.764639E+05 -1.517393E+05 -1.174659E+05 -1.067392E+05 -3.663257E-10  7.158292E-10
       364  17 -4.289440E+05 -1.417709E+05 -1.030773E+05 -1.046927E+05  3.036365E-10 -5.850743E-10
       364  18 -3.961125E+05 -1.207403E+05 -9.145267E+04 -8.681229E+04  5.764250E-09  1.372011E-09
       364  19  4.080330E+05  1.777271E+05  9.988087E+04  1.355955E+05 -1.134294E+03  2.476248E+04
       364  20  3.753854E+05  1.588255E+05  9.409950E+04  1.168591E+05 -2.302708E+03  2.270030E+04
       364  21  3.282793E+05  1.512156E+05  8.647137E+04  1.139551E+05 -3.199612E+03  1.992372E+04
       364  22 -3.431058E+04  1.298804E+04 -8.784208E+03  1.438936E+04 -1.996867E+03  2.443804E+04
       364  23 -2.685842E+04  8.522116E+03 -4.482193E+03  6.050704E+03 -3.742230E+03  2.215741E+04
       364  24 -3.398115E+04  1.523317E+04 -2.485291E+03  1.354471E+04 -5.216119E+03  1.916209E+04
       364  25 -4.764638E+05 -1.517387E+05 -1.174648E+05 -1.067392E+05 -2.858774E+03  2.411385E+04
       364  26 -4.289438E+05 -1.417704E+05 -1.030764E+05 -1.046928E+05 -5.180740E+03  2.161490E+04
       364  27 -3.961124E+05 -1.207399E+05 -9.145193E+04 -8.681240E+04 -7.231344E+03  1.840095E+04
       365   1  2.938018E+05  1.376504E+05  7.828568E+04  1.042034E+05  3.238765E+03 -1.830916E+04
       365   2  2.610100E+05  1.162834E+05  6.958720E+04  8.560094E+04  2.873079E+03 -1.589041E+04
       365   3  2.146173E+05  1.082893E+05  6.050114E+04  8.233745E+04  2.493906E+03 -1.343912E+04
       365   4 -3.386104E+04  1.501835E+04 -1.892873E+03  1.370274E+04  5.036725E+03 -1.762986E+04
       365   5 -2.704175E+04  8.413979E+03 -1.011645E+03  6.004711E+03  4.697227E+03 -1.520078E+04
       365   6 -3.383081E+04  1.517761E+04 -5.390066E+02  1.364575E+04  4.344268E+03 -1.273912E+04
       365   7 -3.614166E+05 -1.076055E+05 -8.207911E+04 -7.675413E+04  6.833642E+03 -1.695095E+04
       365   8 -3.150117E+05 -9.944962E+04 -7.161677E+04 -7.355798E+04  6.520450E+03 -1.451149E+04
       365   9 -2.822193E+05 -7.793015E+04 -6.158416E+04 -5.502130E+04  6.193831E+03 -1.203943E+04
       365  10  2.938017E+05  1.376500E+05  7.828503E+04  1.042034E+05 -3.928335E-09  4.980072E-09
       365  11  2.610099E+05  1.162832E+05  6.958671E+04  8.560097E+04 -9.840173E-10  5.477156E-09
       365  12  2.146172E+05  1.082891E+05  6.050079E+04  8.233747E+04  2.661924E-09  2.270171E-09
       365  13 -3.386115E+04  1.501801E+04 -1.893505E+03  1.370281E+04 -9.519388E-10 -2.968225E-09
       365  14 -2.704184E+04  8.413725E+03 -1.012121E+03  6.004769E+03  6.102949E-10  1.132011E-09
       365  15 -3.383088E+04  1.517743E+04 -5.393470E+02  1.364580E+04 -1.817925E-10 -5.768138E-10
       365  16 -3.614167E+05 -1.076058E+05 -8.207973E+04 -7.675404E+04  1.690389E-09  2.809850E-09
       365  17 -3.150118E+05 -9.944986E+04 -7.161725E+04 -7.355790E+04 -3.735044E-09  1.219378E-09
       365  18 -2.822193E+05 -7.793031E+04 -6.158450E+04 -5.502124E+04 -3.063152E-09  3.226212E-10
       365  19  2.938018E+05  1.376504E+05  7.828568E+04  1.042034E+05 -3.238765E+03  1.830916E+04
       365  20  2.610100E+05  1.162834E+05  6.958720E+04  8.560094E+04 -2.873079E+03  1.589041E+04
       365  21  2.146173E+05  1.082893E+05  6.050114E+04  8.233745E+04 -2.493906E+03  1.343912E+04
       365  22 -3.386104E+04  1.501835E+04 -1.892873E+03  1.370274E+04 -5.036725E+03  1.762986E+04
       365  23 -2.704175E+04  8.413979E+03 -1.011645E+03  6.004711E+03 -4.697227E+03  1.520078E+04
       365  24 -3.383081E+04  1.517761E+04 -5.390066E+02  1.364575E+04 -4.344268E+03  1.273912E+04
       365  25 -3.614166E+05 -1.076055E+05 -8.207911E+04 -7.675413E+04 -6.833642E+03  1.695095E+04
       365  26 -3.150117E+05 -9.944962E+04 -7.161677E+04 -7.355798E+04 -6.520450E+03  1.451149E+04
       365  27 -2.822193E+05 -7.793015E+04 -6.158416E+04 -5.502130E+04 -6.193831E+03  1.203943E+04
       366   1  1.797964E+05  9.516870E+04  5.182701E+04  7.272337E+04  2.077720E+03 -1.207803E+04
       366   2  1.469897E+05  7.362490E+04  4.248514E+04  5.412230E+04  1.303601E+03 -9.770188E+03
       366   3  1.006499E+05  6.560288E+04  3.307874E+04  5.083022E+04  5.282937E+02 -7.460985E+03
       366   4 -3.381737E+04  1.516719E+04 -3.934691E+02  1.365739E+04  3.918094E+03 -1.138159E+04
       366   5 -2.704617E+04  8.417256E+03 -1.766481E+02  5.999946E+03  3.145071E+03 -9.073074E+03
       366   6 -3.381030E+04  1.518879E+04 -2.532431E+01  1.365097E+04  2.370864E+03 -6.763191E+03
       366   7 -2.473861E+05 -6.483106E+04 -5.261737E+04 -4.539012E+04  5.757777E+03 -1.068541E+04
       366   8 -2.010518E+05 -5.678808E+04 -4.284060E+04 -4.211003E+04  4.985973E+03 -8.376175E+03
       366   9 -1.682521E+05 -3.522378E+04 -3.313058E+04 -2.352080E+04  4.212989E+03 -6.065566E+03
       366  10  1.797964E+05  9.516854E+04  5.182673E+04  7.272339E+04  2.828813E-09  1.829000E-09
       366  11  1.469897E+05  7.362480E+04  4.248496E+04  5.412231E+04  4.454662E-09  4.558057E-09
       366  12  1.006499E+05  6.560282E+04  3.307864E+04  5.083022E+04 -2.591952E-10  1.513663E-09
       366  13 -3.381742E+04  1.516705E+04 -3.937413E+02  1.365742E+04  3.511143E-09  8.539547E-10
       366  14 -2.704620E+04  8.417165E+03 -1.768214E+02  5.999969E+03  7.993741E-09  1.675146E-09
       366  15 -3.381032E+04  1.518874E+04 -2.542083E+01  1.365098E+04 -7.196079E-10  1.677909E-09
       366  16 -2.473862E+05 -6.483120E+04 -5.261764E+04 -4.539007E+04 -2.375921E-10  2.976465E-09
       366  17 -2.010518E+05 -5.678816E+04 -4.284078E+04 -4.211000E+04  3.419168E-09  2.355065E-09
       366  18 -1.682521E+05 -3.522382E+04 -3.313068E+04 -2.352078E+04  1.999703E-09 -5.178358E-10
       366  19  1.797964E+05  9.516870E+04  5.182701E+04  7.272337E+04 -2.077720E+03  1.207803E+04
       366  20  1.469897E+05  7.362490E+04  4.248514E+04  5.412230E+04 -1.303601E+03  9.770188E+03
       366  21  1.006499E+05  6.560288E+04  3.307874E+04  5.083022E+04 -5.282937E+02  7.460985E+03
       366  22 -3.381737E+04  1.516719E+04 -3.934691E+02  1.365739E+04 -3.918094E+03  1.138159E+04
       366  23 -2.704617E+04  8.417256E+03 -1.766481E+02  5.999946E+03 -3.145071E+03  9.073074E+03
       366  24 -3.381030E+04  1.518879E+04 -2.532431E+01  1.365097E+04 -2.370864E+03  6.763191E+03
       366  25 -2.473861E+05 -6.483106E+04 -5.261737E+04 -4.539012E+04 -5.757777E+03  1.068541E+04
       366  26 -2.010518E+05 -5.678808E+04 -4.284060E+04 -4.211003E+04 -4.985973E+03  8.376175E+03
       366  27 -1.682521E+05 -3.522378E+04 -3.313058E+04 -2.352080E+04 -4.212989E+03  6.065566E+03
       367   1  6.580773E+04  5.250081E+04  2.432017E+04  4.121853E+04  2.521304E+01 -6.136063E+03
       367   2  3.299888E+04  3.093153E+04  1.491431E+04  2.261286E+04 -9.323366E+02 -3.895435E+03
       367   3 -1.332969E+04  2.291035E+04  5.581536E+03  1.931585E+04 -1.889776E+03 -1.655680E+03
       367   4 -3.380542E+04  1.518960E+04  3.972117E+01  1.365394E+04  1.867536E+03 -5.438251E+03
       367   5 -2.704380E+04  8.420966E+03  1.926684E+02  5.997892E+03  9.092737E+02 -3.197801E+03
       367   6 -3.380260E+04  1.520084E+04  4.195342E+02  1.365021E+04 -4.888638E+01 -9.582224E+02
       367   7 -1.334093E+05 -2.212108E+04 -2.424159E+04 -1.390677E+04  3.709546E+03 -4.740557E+03
       367   8 -8.708306E+04 -1.408940E+04 -1.452928E+04 -1.061566E+04  2.750694E+03 -2.500239E+03
       367   9 -5.427510E+04  7.491363E+03 -4.742488E+03  7.984739E+03  1.791937E+03 -2.607901E+02
       367  10  6.580772E+04  5.250077E+04  2.432010E+04  4.121853E+04 -3.116134E-09  4.528607E-10
       367  11  3.299887E+04  3.093152E+04  1.491428E+04  2.261286E+04 -2.488887E-09  2.015866E-09
       367  12 -1.332969E+04  2.291035E+04  5.581524E+03  1.931585E+04  1.403594E-09  2.605485E-09
       367  13 -3.380543E+04  1.518957E+04  3.965904E+01  1.365394E+04 -6.063100E-10  3.758251E-09
       367  14 -2.704380E+04  8.420954E+03  1.926476E+02  5.997894E+03 -2.077130E-09 -7.303849E-09
       367  15 -3.380260E+04  1.520084E+04  4.195325E+02  1.365021E+04 -2.820507E-09  8.649940E-10
       367  16 -1.334093E+05 -2.212111E+04 -2.424166E+04 -1.390676E+04  9.336393E-10  9.928281E-09
       367  17 -8.708307E+04 -1.408941E+04 -1.452930E+04 -1.061565E+04  2.530981E-09  4.749545E-09
       367  18 -5.427510E+04  7.491362E+03 -4.742494E+03  7.984739E+03 -4.379609E-09 -3.993535E-09
       367  19  6.580773E+04  5.250081E+04  2.432017E+04  4.121853E+04 -2.521304E+01  6.136063E+03
       367  20  3.299888E+04  3.093153E+04  1.491431E+04  2.261286E+04  9.323366E+02  3.895435E+03
       367  21 -1.332969E+04  2.291035E+04  5.581536E+03  1.931585E+04  1.889776E+03  1.655680E+03
       367  22 -3.380542E+04  1.518960E+04  3.972117E+01  1.365394E+04 -1.867536E+03  5.438251E+03
       367  23 -2.704380E+04  8.420966E+03  1.926684E+02  5.997892E+03 -9.092737E+02  3.197801E+03
       367  24 -3.380260E+04  1.520084E+04  4.195342E+02  1.365021E+04  4.888638E+01  9.582224E+02
       367  25 -1.334093E+05 -2.212108E+04 -2.424159E+04 -1.390677E+04 -3.709546E+03  4.740557E+03
       367  26 -8.708306E+04 -1.408940E+04 -1.452928E+04 -1.061566E+04 -2.750694E+03  2.500239E+03
       367  27 -5.427510E+04  7.491363E+03 -4.742488E+03  7.984739E+03 -1.791937E+03  2.607901E+02
       368   1 -4.817105E+04  9.812126E+03 -3.086642E+03  9.734042E+03 -2.480365E+03 -3.616771E+02
       368   2 -8.100928E+04 -1.179114E+04 -1.215670E+04 -8.901744E+03 -3.859072E+03  1.715522E+03
       368   3 -1.272532E+05 -1.969004E+04 -2.079816E+04 -1.224924E+04 -5.230173E+03  3.773416E+03
       368   4 -3.378332E+04  1.518917E+04  5.744947E+02  1.366342E+04 -6.336545E+02  3.379868E+02
       368   5 -2.707234E+04  8.402945E+03  1.065605E+03  5.993825E+03 -2.028129E+03  2.409124E+03
       368   6 -3.376536E+04  1.532395E+04  1.997858E+03  1.361174E+04 -3.415040E+03  4.460954E+03
       368   7 -1.939545E+04  2.056621E+04  4.235611E+03  1.759286E+04  1.213094E+03  1.037665E+03
       368   8  2.686747E+04  2.859724E+04  1.428771E+04  2.089057E+04 -1.970120E+02  3.102792E+03
       368   9  5.973152E+04  5.033872E+04  2.479335E+04  3.947638E+04 -1.599600E+03  5.148609E+03
       368  10 -4.817106E+04  9.812125E+03 -3.086654E+03  9.734042E+03 -2.616016E-09  4.802747E-09
       368  11 -8.100930E+04 -1.179115E+04 -1.215674E+04 -8.901738E+03 -3.392364E-09 -8.606081E-09
       368  12 -1.272532E+05 -1.969006E+04 -2.079824E+04 -1.224922E+04 -4.346483E-09 -6.848966E-09
       368  13 -3.378332E+04  1.518917E+04  5.744937E+02  1.366342E+04 -6.527621E-10  2.090064E-09
       368  14 -2.707235E+04  8.402937E+03  1.065587E+03  5.993829E+03 -1.347877E-09  1.828771E-09
       368  15 -3.376537E+04  1.532392E+04  1.997799E+03  1.361175E+04 -1.826221E-09 -1.343289E-09
       368  16 -1.939545E+04  2.056621E+04  4.235606E+03  1.759286E+04 -2.416856E-10  1.741902E-10
       368  17  2.686747E+04  2.859723E+04  1.428769E+04  2.089057E+04  2.210140E-10  6.708536E-09
       368  18  5.973151E+04  5.033870E+04  2.479330E+04  3.947639E+04  1.667824E-09  4.098222E-09
       368  19 -4.817105E+04  9.812126E+03 -3.086642E+03  9.734042E+03  2.480365E+03  3.616771E+02
       368  20 -8.100928E+04 -1.179114E+04 -1.215670E+04 -8.901744E+03  3.859072E+03 -1.715522E+03
       368  21 -1.272532E+05 -1.969004E+04 -2.079816E+04 -1.224924E+04  5.230173E+03 -3.773416E+03
       368  22 -3.378332E+04  1.518917E+04  5.744947E+02  1.366342E+04  6.336545E+02 -3.379868E+02
       368  23 -2.707234E+04  8.402945E+03  1.065605E+03  5.993825E+03  2.028129E+03 -2.409124E+03
       368  24 -3.376536E+04  1.532395E+04  1.997858E+03  1.361174E+04  3.415040E+03 -4.460954E+03
       368  25 -1.939545E+04  2.056621E+04  4.235611E+03  1.759286E+04 -1.213094E+03 -1.037665E+03
       368  26  2.686747E+04  2.859724E+04  1.428771E+04  2.089057E+04  1.970120E+02 -3.102792E+03
       368  27  5.973152E+04  5.033872E+04  2.479335E+04  3.947638E+04  1.599600E+03 -5.148609E+03
       369   1 -1.622472E+05 -3.273381E+04 -2.896880E+04 -2.137410E+04 -6.247862E+03  4.954126E+03
       369   2 -1.950467E+05 -5.480035E+04 -3.647943E+04 -4.061532E+04 -9.136510E+03  6.367476E+03
       369   3 -2.401844E+05 -6.094785E+04 -4.180469E+04 -4.510143E+04 -1.186447E+04  7.358673E+03
       369   4 -3.362195E+04  1.508953E+04  2.626991E+03  1.377292E+04 -4.303745E+03  5.690421E+03
       369   5 -2.732156E+04  8.254411E+03  4.718464E+03  5.956609E+03 -7.534669E+03  6.973879E+03
       369   6 -3.329342E+04  1.740525E+04  9.266281E+03  1.289445E+04 -1.060506E+04  7.835191E+03
       369   7  9.501955E+04  6.291397E+04  3.422153E+04  4.892652E+04 -2.359188E+03  6.426880E+03
       369   8  1.404309E+05  7.131105E+04  4.591411E+04  5.253987E+04 -5.932359E+03  7.580461E+03
       369   9  1.736387E+05  9.576121E+04  6.033370E+04  7.090770E+04 -9.345198E+03  8.311885E+03
       369  10 -1.622472E+05 -3.273385E+04 -2.896892E+04 -2.137407E+04  7.162895E-09  7.453366E-11
       369  11 -1.950468E+05 -5.480041E+04 -3.647967E+04 -4.061527E+04  3.949471E-09  1.011865E-08
       369  12 -2.401845E+05 -6.094794E+04 -4.180506E+04 -4.510136E+04 -8.536626E-09 -1.379124E-09
       369  13 -3.362198E+04  1.508949E+04  2.626895E+03  1.377294E+04 -2.896709E-09 -2.023204E-09
       369  14 -2.732164E+04  8.254343E+03  4.718266E+03  5.956652E+03  2.698135E-09  6.239234E-09
       369  15 -3.329356E+04  1.740515E+04  9.265954E+03  1.289452E+04 -1.782706E-10  8.804933E-09
       369  16  9.501953E+04  6.291392E+04  3.422144E+04  4.892654E+04 -8.178514E-09 -2.218463E-09
       369  17  1.404308E+05  7.131098E+04  4.591394E+04  5.253991E+04 -1.218305E-09 -1.817768E-09
       369  18  1.736386E+05  9.576111E+04  6.033340E+04  7.090776E+04  9.581383E-09  7.776529E-09
       369  19 -1.622472E+05 -3.273381E+04 -2.896880E+04 -2.137410E+04  6.247862E+03 -4.954126E+03
       369  20 -1.950467E+05 -5.480035E+04 -3.647943E+04 -4.061532E+04  9.136510E+03 -6.367476E+03
       369  21 -2.401844E+05 -6.094785E+04 -4.180469E+04 -4.510143E+04  1.186447E+04 -7.358673E+03
       369  22 -3.362195E+04  1.508953E+04  2.626991E+03  1.377292E+04  4.303745E+03 -5.690421E+03
       369  23 -2.732156E+04  8.254411E+03  4.718464E+03  5.956609E+03  7.534669E+03 -6.973879E+03
       369  24 -3.329342E+04  1.740525E+04  9.266281E+03  1.289445E+04  1.060506E+04 -7.835191E+03
       369  25  9.501955E+04  6.291397E+04  3.422153E+04  4.892652E+04  2.359188E+03 -6.426880E+03
       369  26  1.404309E+05  7.131105E+04  4.591411E+04  5.253987E+04  5.932359E+03 -7.580461E+03
       369  27  1.736387E+05  9.576121E+04  6.033370E+04  7.090770E+04  9.345198E+03 -8.311885E+03
       370   1 -2.780291E+05 -7.340443E+04 -4.771109E+04 -4.758293E+04 -1.706148E+04  8.015236E+03
       370   2 -3.078778E+05 -1.026230E+05 -4.952816E+04 -7.648307E+04 -2.069650E+04  7.135111E+03
       370   3 -3.372044E+05 -8.358806E+04 -3.911129E+04 -9.978242E+04 -2.083985E+04 -2.974204E+03
       370   4 -3.174392E+04  1.361439E+04  1.164904E+04  1.513024E+04 -1.298212E+04  9.559217E+03
       370   5 -3.016781E+04  6.748241E+03  2.034163E+04  5.519190E+03 -2.408420E+04  5.852421E+03
       370   6 -2.659589E+04  4.960584E+04  4.718584E+04  1.510043E+03 -3.169587E+04 -7.081786E+03
       370   7  2.146027E+05  1.006364E+05  7.100527E+04  7.786574E+04 -8.900968E+03  1.110379E+04
       370   8  2.476179E+05  1.161269E+05  9.020525E+04  8.755549E+04 -2.747355E+04  4.569034E+03
       370   9  2.841039E+05  1.828125E+05  1.334737E+05  1.028501E+05 -4.255775E+04 -1.119228E+04
       370  10 -2.780294E+05 -7.340458E+04 -4.771175E+04 -4.758282E+04  1.718636E-09  3.021188E-09
       370  11 -3.078783E+05 -1.026232E+05 -4.952907E+04 -7.648296E+04  2.570087E-09  3.740412E-09
       370  12 -3.372049E+05 -8.358819E+04 -3.911212E+04 -9.978247E+04 -1.001113E-09 -2.725320E-09
       370  13 -3.174412E+04  1.361424E+04  1.164855E+04  1.513034E+04  2.704500E-09  5.923744E-09
       370  14 -3.016845E+04  6.748049E+03  2.034048E+04  5.519304E+03 -1.145540E-09  7.829589E-10
       370  15 -2.659698E+04  4.960552E+04  4.718385E+04  1.509862E+03  7.973605E-10 -6.249755E-09
       370  16  2.146026E+05  1.006363E+05  7.100489E+04  7.786582E+04 -6.458643E-10  6.651501E-09
       370  17  2.476171E+05  1.161267E+05  9.020379E+04  8.755559E+04  7.211916E-10 -1.205920E-10
       370  18  2.841019E+05  1.828119E+05  1.334700E+05  1.028498E+05  1.121777E-09  1.663023E-10
       370  19 -2.780291E+05 -7.340443E+04 -4.771109E+04 -4.758293E+04  1.706148E+04 -8.015236E+03
       370  20 -3.078778E+05 -1.026230E+05 -4.952816E+04 -7.648307E+04  2.069650E+04 -7.135111E+03
       370  21 -3.372044E+05 -8.358806E+04 -3.911129E+04 -9.978242E+04  2.083985E+04  2.974204E+03
       370  22 -3.174392E+04  1.361439E+04  1.164904E+04  1.513024E+04  1.298212E+04 -9.559217E+03
       370  23 -3.016781E+04  6.748241E+03  2.034163E+04  5.519190E+03  2.408420E+04 -5.852421E+03
       370  24 -2.659589E+04  4.960584E+04  4.718584E+04  1.510043E+03  3.169587E+04  7.081786E+03
       370  25  2.146027E+05  1.006364E+05  7.100527E+04  7.786574E+04  8.900968E+03 -1.110379E+04
       370  26  2.476179E+05  1.161269E+05  9.020525E+04  8.755549E+04  2.747355E+04 -4.569034E+03
       370  27  2.841039E+05  1.828125E+05  1.334737E+05  1.028501E+05  4.255775E+04  1.119228E+04
       371   1  1.210682E+05  4.652482E+04  3.280188E+04 -2.754200E+03 -3.124751E+04 -5.336208E+03
       371   2  9.207600E+04  9.197048E+04  5.352077E+04  6.074191E+03 -2.446161E+04 -1.647597E+04
       371   3  4.906246E+04  8.508222E+04  5.675044E+04  3.021444E+04 -1.770764E+04 -1.697129E+04
       371   4 -2.868505E+05 -5.469235E+04 -6.619953E+04  2.158231E+04 -4.546905E+04 -5.379801E+03
       371   5 -2.790286E+05  1.094342E+03 -3.002644E+04  1.383801E+04 -2.949371E+04 -1.649253E+04
       371   6 -2.868348E+05  2.933346E+03 -1.773404E+04  2.140668E+04 -1.354963E+04 -1.695833E+04
       371   7 -6.946155E+05 -1.559193E+05 -1.652119E+05  4.590267E+04 -5.968127E+04 -5.424523E+03
       371   8 -6.500048E+05 -8.979096E+04 -1.135823E+05  2.159704E+04 -3.452283E+04 -1.650922E+04
       371   9 -6.226264E+05 -7.922287E+04 -9.222542E+04  1.260366E+04 -9.393835E+03 -1.694548E+04
       371  10  1.210672E+05  4.652453E+04  3.279999E+04 -2.754334E+03 -8.608410E-09 -3.339306E-10
       371  11  9.207529E+04  9.197002E+04  5.351914E+04  6.073867E+03  6.922569E-09  8.357305E-09
       371  12  4.906204E+04  8.508182E+04  5.674931E+04  3.021420E+04  1.639870E-08  1.356605E-09
       371  13 -2.868527E+05 -5.469294E+04 -6.620348E+04  2.158211E+04 -8.790555E-10 -2.009479E-09
       371  14 -2.790296E+05  1.093816E+03 -3.002858E+04  1.383762E+04  2.202999E-10 -1.055300E-08
       371  15 -2.868350E+05  2.932987E+03 -1.773492E+04  2.140650E+04 -1.259060E-09  1.193038E-09
       371  16 -6.946193E+05 -1.559203E+05 -1.652186E+05  4.590240E+04  6.842925E-09  1.404561E-09
       371  17 -6.500062E+05 -8.979158E+04 -1.135851E+05  2.159658E+04 -8.726655E-09  5.617520E-09
       371  18 -6.226266E+05 -7.922321E+04 -9.222613E+04  1.260353E+04 -1.740779E-08  2.366073E-10
       371  19  1.210682E+05  4.652482E+04  3.280188E+04 -2.754200E+03  3.124751E+04  5.336208E+03
       371  20  9.207600E+04  9.197048E+04  5.352077E+04  6.074191E+03  2.446161E+04  1.647597E+04
       371  21  4.906246E+04  8.508222E+04  5.675044E+04  3.021444E+04  1.770764E+04  1.697129E+04
       371  22 -2.868505E+05 -5.469235E+04 -6.619953E+04  2.158231E+04  4.546905E+04  5.379801E+03
       371  23 -2.790286E+05  1.094342E+03 -3.002644E+04  1.383801E+04  2.949371E+04  1.649253E+04
       371  24 -2.868348E+05  2.933346E+03 -1.773404E+04  2.140668E+04  1.354963E+04  1.695833E+04
       371  25 -6.946155E+05 -1.559193E+05 -1.652119E+05  4.590267E+04  5.968127E+04  5.424523E+03
       371  26 -6.500048E+05 -8.979096E+04 -1.135823E+05  2.159704E+04  3.452283E+04  1.650922E+04
       371  27 -6.226264E+05 -7.922287E+04 -9.222542E+04  1.260366E+04  9.393835E+03  1.694548E+04
       372   1  2.178007E+04  7.159568E+04  5.393268E+04  2.117437E+04 -1.201426E+04 -1.478923E+04
       372   2 -1.351267E+04  6.609206E+04  5.224520E+04  1.410421E+04 -8.602214E+03 -1.338984E+04
       372   3 -5.013854E+04  5.743935E+04  4.752661E+04  2.274840E+04 -5.192637E+03 -1.151173E+04
       372   4 -2.836717E+05 -3.111938E+03 -1.414301E+04  2.154962E+04 -1.101801E+04 -1.478650E+04
       372   5 -2.829648E+05  2.211452E+02 -7.613194E+03  1.368642E+04 -7.194089E+03 -1.338551E+04
       372   6 -2.836651E+05  3.326303E+02 -4.401875E+03  2.153806E+04 -3.372443E+03 -1.150571E+04
       372   7 -5.890364E+05 -7.782589E+04 -8.222453E+04  2.192461E+04 -1.002225E+04 -1.478377E+04
       372   8 -5.523491E+05 -6.565468E+04 -6.747610E+04  1.326876E+04 -5.786567E+03 -1.338118E+04
       372   9 -5.171407E+05 -5.677778E+04 -5.633375E+04  2.032814E+04 -1.552926E+03 -1.149969E+04
       372  10  2.177985E+04  7.159541E+04  5.393199E+04  2.117423E+04 -1.473127E-08 -1.437131E-09
       372  11 -1.351279E+04  6.609185E+04  5.224472E+04  1.410411E+04 -6.544388E-09  5.146603E-09
       372  12 -5.013861E+04  5.743920E+04  4.752631E+04  2.274836E+04  5.315096E-09  7.810419E-09
       372  13 -2.836719E+05 -3.112205E+03 -1.414365E+04  2.154949E+04 -1.997429E-10  9.314114E-09
       372  14 -2.829649E+05  2.209389E+02 -7.613628E+03  1.368634E+04  1.496732E-11 -2.249947E-08
       372  15 -2.836651E+05  3.324851E+02 -4.402145E+03  2.153803E+04 -4.540231E-10  4.929650E-09
       372  16 -5.890366E+05 -7.782615E+04 -8.222513E+04  2.192449E+04  1.391258E-08 -8.569558E-09
       372  17 -5.523492E+05 -6.565488E+04 -6.747650E+04  1.326870E+04  4.757993E-09 -7.603687E-09
       372  18 -5.171408E+05 -5.677792E+04 -5.633400E+04  2.032812E+04 -4.703746E-09 -7.751024E-10
       372  19  2.178007E+04  7.159568E+04  5.393268E+04  2.117437E+04  1.201426E+04  1.478923E+04
       372  20 -1.351267E+04  6.609206E+04  5.224520E+04  1.410421E+04  8.602214E+03  1.338984E+04
       372  21 -5.013854E+04  5.743935E+04  4.752661E+04  2.274840E+04  5.192637E+03  1.151173E+04
       372  22 -2.836717E+05 -3.111938E+03 -1.414301E+04  2.154962E+04  1.101801E+04  1.478650E+04
       372  23 -2.829648E+05  2.211452E+02 -7.613194E+03  1.368642E+04  7.194089E+03  1.338551E+04
       372  24 -2.836651E+05  3.326303E+02 -4.401875E+03  2.153806E+04  3.372443E+03  1.150571E+04
       372  25 -5.890364E+05 -7.782589E+04 -8.222453E+04  2.192461E+04  1.002225E+04  1.478377E+04
       372  26 -5.523491E+05 -6.565468E+04 -6.747610E+04  1.326876E+04  5.786567E+03  1.338118E+04
       372  27 -5.171407E+05 -5.677778E+04 -5.633375E+04  2.032814E+04  1.552926E+03  1.149969E+04
       373   1 -8.027317E+04  4.961667E+04  4.162240E+04  2.212813E+04 -4.371804E+03 -1.031110E+04
       373   2 -1.161891E+05  4.096711E+04  3.517295E+04  1.416350E+04 -3.447524E+03 -8.352287E+03
       373   3 -1.523772E+05  3.222547E+04  2.806859E+04  2.197718E+04 -2.523806E+03 -6.370642E+03
       373   4 -2.834108E+05 -2.199615E+01 -3.381210E+03  2.155578E+04 -2.691684E+03 -1.030543E+04
       373   5 -2.832707E+05  1.234795E+02 -1.915829E+03  1.366614E+04 -1.747996E+03 -8.346374E+03
       373   6 -2.834071E+05  1.736687E+02 -1.118846E+03  2.155508E+04 -8.048171E+02 -6.364482E+03
       373   7 -4.865099E+05 -4.966345E+04 -4.838737E+04  2.098358E+04 -1.012108E+03 -1.029976E+04
       373   8 -4.503264E+05 -4.072203E+04 -3.900634E+04  1.316890E+04 -4.892116E+01 -8.340463E+03
       373   9 -4.144210E+05 -3.187930E+04 -3.030735E+04  2.113305E+04  9.138127E+02 -6.358323E+03
       373  10 -8.027322E+04  4.961655E+04  4.162216E+04  2.212810E+04  4.193349E-09 -5.078656E-09
       373  11 -1.161891E+05  4.096703E+04  3.517280E+04  1.416348E+04 -1.258025E-09 -5.110695E-09
       373  12 -1.523772E+05  3.222543E+04  2.806850E+04  2.197717E+04 -6.280334E-09 -2.146735E-09
       373  13 -2.834108E+05 -2.211212E+01 -3.381423E+03  2.155576E+04  2.913626E-11 -2.337759E-09
       373  14 -2.832708E+05  1.234039E+02 -1.915966E+03  1.366613E+04 -1.372792E-09 -2.266178E-09
       373  15 -2.834071E+05  1.736250E+02 -1.118923E+03  2.155507E+04 -1.312225E-10 -1.039754E-09
       373  16 -4.865099E+05 -4.966356E+04 -4.838757E+04  2.098357E+04 -5.686005E-09 -8.878960E-09
       373  17 -4.503264E+05 -4.072211E+04 -3.900647E+04  1.316890E+04 -9.713753E-11  5.115847E-09
       373  18 -4.144210E+05 -3.187934E+04 -3.030742E+04  2.113306E+04  5.337419E-09  1.174356E-08
       373  19 -8.027317E+04  4.961667E+04  4.162240E+04  2.212813E+04  4.371804E+03  1.031110E+04
       373  20 -1.161891E+05  4.096711E+04  3.517295E+04  1.416350E+04  3.447524E+03  8.352287E+03
       373  21 -1.523772E+05  3.222547E+04  2.806859E+04  2.197718E+04  2.523806E+03  6.370642E+03
       373  22 -2.834108E+05 -2.199615E+01 -3.381210E+03  2.155578E+04  2.691684E+03  1.030543E+04
       373  23 -2.832707E+05  1.234795E+02 -1.915829E+03  1.366614E+04  1.747996E+03  8.346374E+03
       373  24 -2.834071E+05  1.736687E+02 -1.118846E+03  2.155508E+04  8.048171E+02  6.364482E+03
       373  25 -4.865099E+05 -4.966345E+04 -4.838737E+04  2.098358E+04  1.012108E+03  1.029976E+04
       373  26 -4.503264E+05 -4.072203E+04 -3.900634E+04  1.316890E+04  4.892116E+01  8.340463E+03
       373  27 -4.144210E+05 -3.187930E+04 -3.030735E+04  2.113305E+04 -9.138127E+02  6.358323E+03
       374   1 -1.827960E+05  2.472393E+04  2.135881E+04  2.186436E+04 -2.343670E+03 -5.212876E+03
       374   2 -2.188269E+05  1.587258E+04  1.377522E+04  1.385409E+04 -2.086607E+03 -3.227590E+03
       374   3 -2.550081E+05  7.121856E+03  6.016129E+03  2.164626E+04 -1.829736E+03 -1.240817E+03
       374   4 -2.833778E+05  1.560046E+02 -8.660136E+02  2.156063E+04 -6.302020E+02 -5.206659E+03
       374   5 -2.833012E+05  1.107940E+02 -5.368552E+02  1.365934E+04 -3.719372E+02 -3.221304E+03
       374   6 -2.833764E+05  1.660683E+02 -3.840154E+02  2.156059E+04 -1.138499E+02 -1.234457E+03
       374   7 -3.839501E+05 -2.441260E+04 -2.309145E+04  2.125693E+04  1.082992E+03 -5.200444E+03
       374   8 -3.477716E+05 -1.565127E+04 -1.484918E+04  1.346460E+04  1.342556E+03 -3.215019E+03
       374   9 -3.117439E+05 -6.789774E+03 -6.784200E+03  2.147492E+04  1.601958E+03 -1.228097E+03
       374  10 -1.827960E+05  2.472390E+04  2.135875E+04  2.186435E+04  9.818232E-10 -8.273221E-09
       374  11 -2.188269E+05  1.587257E+04  1.377519E+04  1.385408E+04 -6.478221E-09 -4.362499E-09
       374  12 -2.550081E+05  7.121854E+03  6.016119E+03  2.164626E+04 -1.135827E-08 -9.723814E-10
       374  13 -2.833778E+05  1.559753E+02 -8.660653E+02  2.156062E+04  1.370865E-11  3.194074E-09
       374  14 -2.833012E+05  1.107828E+02 -5.368750E+02  1.365933E+04 -2.256326E-10 -3.129845E-09
       374  15 -2.833764E+05  1.660666E+02 -3.840183E+02  2.156059E+04 -1.275231E-09 -4.498763E-09
       374  16 -3.839501E+05 -2.441263E+04 -2.309150E+04  2.125693E+04 -3.117452E-09  6.237781E-09
       374  17 -3.477716E+05 -1.565128E+04 -1.484920E+04  1.346460E+04  3.890961E-09  1.123649E-08
       374  18 -3.117439E+05 -6.789776E+03 -6.784208E+03  2.147492E+04  1.131174E-08  6.500607E-09
       374  19 -1.827960E+05  2.472393E+04  2.135881E+04  2.186436E+04  2.343670E+03  5.212876E+03
       374  20 -2.188269E+05  1.587258E+04  1.377522E+04  1.385409E+04  2.086607E+03  3.227590E+03
       374  21 -2.550081E+05  7.121856E+03  6.016129E+03  2.164626E+04  1.829736E+03  1.240817E+03
       374  22 -2.833778E+05  1.560046E+02 -8.660136E+02  2.156063E+04  6.302020E+02  5.206659E+03
       374  23 -2.833012E+05  1.107940E+02 -5.368552E+02  1.365934E+04  3.719372E+02  3.221304E+03
       374  24 -2.833764E+05  1.660683E+02 -3.840154E+02  2.156059E+04  1.138499E+02  1.234457E+03
       374  25 -3.839501E+05 -2.441260E+04 -2.309145E+04  2.125693E+04 -1.082992E+03  5.200444E+03
       374  26 -3.477716E+05 -1.565127E+04 -1.484918E+04  1.346460E+04 -1.342556E+03  3.215019E+03
       374  27 -3.117439E+05 -6.789774E+03 -6.784200E+03  2.147492E+04 -1.601958E+03  1.228097E+03
       375   1 -2.854769E+05 -3.685955E+02 -9.242974E+02  2.155732E+04 -1.767187E+03 -8.425242E+01
       375   2 -3.215167E+05 -9.232872E+03 -8.861151E+03  1.354700E+04 -1.586575E+03  1.902588E+03
       375   3 -3.576966E+05 -1.799093E+04 -1.692269E+04  2.134230E+04 -1.405870E+03  3.888233E+03
       375   4 -2.833739E+05  1.660519E+02 -3.547009E+02  2.156126E+04 -5.125562E+01 -7.788336E+01
       375   5 -2.833035E+05  1.095143E+02 -3.779919E+02  1.365849E+04  1.282732E+02  1.908911E+03
       375   6 -2.833748E+05  1.593231E+02 -5.253045E+02  2.156128E+04  3.079056E+02  3.894514E+03
       375   7 -2.812710E+05  7.007005E+02  2.149062E+02  2.156520E+04  1.664682E+03 -7.151429E+01
       375   8 -2.450890E+05  9.451803E+03  8.105087E+03  1.376999E+04  1.843226E+03  1.915234E+03
       375   9 -2.090477E+05  1.830921E+04  1.587175E+04  2.178028E+04  2.021884E+03  3.900796E+03
       375  10 -2.854769E+05 -3.685963E+02 -9.243032E+02  2.155732E+04 -1.371200E-08 -2.499241E-10
       375  11 -3.215167E+05 -9.232876E+03 -8.861163E+03  1.354700E+04  8.376579E-09 -6.194833E-09
       375  12 -3.576966E+05 -1.799095E+04 -1.692272E+04  2.134231E+04  2.279984E-08  1.688614E-09
       375  13 -2.833739E+05  1.660519E+02 -3.547009E+02  2.156126E+04 -2.487424E-10  8.252421E-09
       375  14 -2.833035E+05  1.095104E+02 -3.779988E+02  1.365849E+04 -7.302695E-10 -2.694449E-10
       375  15 -2.833748E+05  1.593068E+02 -5.253331E+02  2.156128E+04 -7.649384E-10 -1.407168E-09
       375  16 -2.812710E+05  7.006997E+02  2.149010E+02  2.156520E+04  1.315321E-08  3.774250E-09
       375  17 -2.450890E+05  9.451798E+03  8.105074E+03  1.376999E+04 -1.087807E-08 -1.541546E-08
       375  18 -2.090477E+05  1.830919E+04  1.587171E+04  2.178028E+04 -2.351450E-08 -4.082498E-09
       375  19 -2.854769E+05 -3.685955E+02 -9.242974E+02  2.155732E+04  1.767187E+03  8.425242E+01
       375  20 -3.215167E+05 -9.232872E+03 -8.861151E+03  1.354700E+04  1.586575E+03 -1.902588E+03
       375  21 -3.576966E+05 -1.799093E+04 -1.692269E+04  2.134230E+04  1.405870E+03 -3.888233E+03
       375  22 -2.833739E+05  1.660519E+02 -3.547009E+02  2.156126E+04  5.125562E+01  7.788336E+01
       375  23 -2.833035E+05  1.095143E+02 -3.779919E+02  1.365849E+04 -1.282732E+02 -1.908911E+03
       375  24 -2.833748E+05  1.593231E+02 -5.253045E+02  2.156128E+04 -3.079056E+02 -3.894514E+03
       375  25 -2.812710E+05  7.007005E+02  2.149062E+02  2.156520E+04 -1.664682E+03  7.151429E+01
       375  26 -2.450890E+05  9.451803E+03  8.105087E+03  1.376999E+04 -1.843226E+03 -1.915234E+03
       375  27 -2.090477E+05  1.830921E+04  1.587175E+04  2.178028E+04 -2.021884E+03 -3.900796E+03
       376   1 -3.881651E+05 -2.546802E+04 -2.401657E+04  2.123360E+04 -1.309105E+03  5.046131E+03
       376   2 -4.241267E+05 -3.432049E+04 -3.234843E+04  1.325645E+04 -7.626552E+02  7.028051E+03
       376   3 -4.602944E+05 -4.317806E+04 -4.106901E+04  2.106373E+04 -2.157792E+02  8.988686E+03
       376   4 -2.833898E+05  1.691610E+02 -6.535899E+02  2.155641E+04  4.099060E+02  5.052372E+03
       376   5 -2.832895E+05  1.139489E+02 -1.079382E+03  1.366451E+04  9.380530E+02  7.034076E+03
       376   6 -2.833928E+05  5.704336E+01 -1.880907E+03  2.155681E+04  1.466657E+03  8.994502E+03
       376   7 -1.786042E+05  2.580560E+04  2.270872E+04  2.187927E+04  2.129204E+03  5.058615E+03
       376   8 -1.424339E+05  3.454704E+04  3.018845E+04  1.407264E+04  2.639143E+03  7.040102E+03
       376   9 -1.064620E+05  4.329004E+04  3.730527E+04  2.205001E+04  3.149568E+03  9.000319E+03
       376  10 -3.881651E+05 -2.546805E+04 -2.401662E+04  2.123361E+04 -2.926285E-08  5.138008E-09
       376  11 -4.241267E+05 -3.432054E+04 -3.234853E+04  1.325645E+04 -1.493979E-08 -4.964780E-09
       376  12 -4.602944E+05 -4.317815E+04 -4.106916E+04  2.106373E+04  6.895292E-09 -6.170195E-09
       376  13 -2.833898E+05  1.691335E+02 -6.536382E+02  2.155641E+04 -4.788941E-10  4.163075E-09
       376  14 -2.832896E+05  1.138955E+02 -1.079477E+03  1.366450E+04 -1.243064E-09  9.589711E-09
       376  15 -2.833929E+05  5.695593E+01 -1.881063E+03  2.155680E+04 -1.660084E-09 -3.916015E-09
       376  16 -1.786043E+05  2.580557E+04  2.270866E+04  2.187926E+04  2.827169E-08  9.846926E-09
       376  17 -1.424339E+05  3.454699E+04  3.018834E+04  1.407263E+04  1.226911E-08 -1.391907E-09
       376  18 -1.064621E+05  4.328995E+04  3.730510E+04  2.204999E+04 -6.912968E-09  2.888154E-09
       376  19 -3.881651E+05 -2.546802E+04 -2.401657E+04  2.123360E+04  1.309105E+03 -5.046131E+03
       376  20 -4.241267E+05 -3.432049E+04 -3.234843E+04  1.325645E+04  7.626552E+02 -7.028051E+03
       376  21 -4.602944E+05 -4.317806E+04 -4.106901E+04  2.106373E+04  2.157792E+02 -8.988686E+03
       376  22 -2.833898E+05  1.691610E+02 -6.535899E+02  2.155641E+04 -4.099060E+02 -5.052372E+03
       376  23 -2.832895E+05  1.139489E+02 -1.079382E+03  1.366451E+04 -9.380530E+02 -7.034076E+03
       376  24 -2.833928E+05  5.704336E+01 -1.880907E+03  2.155681E+04 -1.466657E+03 -8.994502E+03
       376  25 -1.786042E+05  2.580560E+04  2.270872E+04  2.187927E+04 -2.129204E+03 -5.058615E+03
       376  26 -1.424339E+05  3.454704E+04  3.018845E+04  1.407264E+04 -2.639143E+03 -7.040102E+03
       376  27 -1.064620E+05  4.329004E+04  3.730527E+04  2.205001E+04 -3.149568E+03 -9.000319E+03
       377   1 -4.908329E+05 -5.045464E+04 -4.856185E+04  2.066116E+04  2.913359E+01  1.018564E+04
       377   2 -5.263664E+05 -5.932016E+04 -5.826938E+04  1.320014E+04  2.528899E+03  1.206994E+04
       377   3 -5.627861E+05 -6.998443E+04 -7.008117E+04  2.146925E+04  5.030627E+03  1.350514E+04
       377   4 -2.835324E+05  2.528705E+02 -2.442004E+03  2.154272E+04  1.842867E+03  1.019179E+04
       377   5 -2.831254E+05  1.628437E+02 -4.214900E+03  1.368109E+04  3.955603E+03  1.207449E+04
       377   6 -2.835380E+05 -1.658162E+03 -7.822517E+03  2.154924E+04  6.070442E+03  1.350819E+04
       377   7 -7.619185E+04  5.095747E+04  4.367517E+04  2.242454E+04  3.657199E+03  1.019795E+04
       377   8 -3.982914E+04  5.964184E+04  4.983590E+04  1.416218E+04  5.382859E+03  1.207905E+04
       377   9 -4.217246E+03  6.666281E+04  5.443125E+04  2.162920E+04  7.110721E+03  1.351124E+04
       377  10 -4.908329E+05 -5.045475E+04 -4.856204E+04  2.066116E+04  3.643660E-09 -7.100189E-09
       377  11 -5.263665E+05 -5.932032E+04 -5.826966E+04  1.320011E+04 -5.179697E-09  5.977600E-09
       377  12 -5.627862E+05 -6.998464E+04 -7.008156E+04  2.146919E+04 -8.473595E-09 -5.087321E-09
       377  13 -2.835324E+05  2.527580E+02 -2.442206E+03  2.154270E+04 -8.506902E-10 -1.449118E-08
       377  14 -2.831255E+05  1.626830E+02 -4.215203E+03  1.368105E+04 -1.501108E-09  8.374321E-09
       377  15 -2.835381E+05 -1.658368E+03 -7.822929E+03  2.154917E+04 -2.375672E-09 -6.762917E-09
       377  16 -7.619189E+04  5.095735E+04  4.367495E+04  2.242451E+04 -5.071297E-09 -5.422751E-09
       377  17 -3.982921E+04  5.964168E+04  4.983557E+04  1.416213E+04  1.859366E-09 -1.403879E-08
       377  18 -4.217349E+03  6.666261E+04  5.443081E+04  2.162912E+04  7.159767E-09  5.079157E-10
       377  19 -4.908329E+05 -5.045464E+04 -4.856185E+04  2.066116E+04 -2.913359E+01 -1.018564E+04
       377  20 -5.263664E+05 -5.932016E+04 -5.826938E+04  1.320014E+04 -2.528899E+03 -1.206994E+04
       377  21 -5.627861E+05 -6.998443E+04 -7.008117E+04  2.146925E+04 -5.030627E+03 -1.350514E+04
       377  22 -2.835324E+05  2.528705E+02 -2.442004E+03  2.154272E+04 -1.842867E+03 -1.019179E+04
       377  23 -2.831254E+05  1.628437E+02 -4.214900E+03  1.368109E+04 -3.955603E+03 -1.207449E+04
       377  24 -2.835380E+05 -1.658162E+03 -7.822517E+03  2.154924E+04 -6.070442E+03 -1.350819E+04
       377  25 -7.619185E+04  5.095747E+04  4.367517E+04  2.242454E+04 -3.657199E+03 -1.019795E+04
       377  26 -3.982914E+04  5.964184E+04  4.983590E+04  1.416218E+04 -5.382859E+03 -1.207905E+04
       377  27 -4.217246E+03  6.666281E+04  5.443125E+04  2.162920E+04 -7.110721E+03 -1.351124E+04
       378   1 -5.950041E+05 -7.407171E+04 -7.851404E+04  1.624191E+04  3.462490E+03  1.560262E+04
       378   2 -6.259052E+05 -8.389591E+04 -9.431210E+04  1.776193E+04  2.090168E+04  1.529947E+04
       378   3 -6.669740E+05 -1.249999E+05 -1.293050E+05  3.459772E+04  3.836966E+04  5.004677E+03
       378   4 -2.852850E+05  1.682682E+03 -9.806768E+03  2.142688E+04  7.467351E+03  1.561528E+04
       378   5 -2.809577E+05  6.378135E+02 -1.660516E+04  1.381874E+04  1.628489E+04  1.528408E+04
       378   6 -2.852967E+05 -3.018011E+04 -3.660257E+04  2.152668E+04  2.513256E+04  4.963210E+03
       378   7  2.452385E+04  7.743068E+04  5.889462E+04  2.661439E+04  1.147419E+04  1.562801E+04
       378   8  6.410068E+04  8.516346E+04  6.109428E+04  9.873251E+03  1.166557E+04  1.526875E+04
       378   9  9.651452E+04  6.462974E+04  5.609014E+04  8.447465E+03  1.188734E+04  4.922313E+03
       378  10 -5.950042E+05 -7.407197E+04 -7.851452E+04  1.624187E+04  7.492054E-09 -2.557713E-09
       378  11 -6.259057E+05 -8.389628E+04 -9.431336E+04  1.776167E+04  9.241563E-09  2.337195E-09
       378  12 -6.669756E+05 -1.250003E+05 -1.293079E+05  3.459757E+04  6.270610E-09  8.968454E-09
       378  13 -2.852851E+05  1.682405E+03 -9.807331E+03  2.142678E+04 -1.095143E-09  1.744056E-09
       378  14 -2.809580E+05  6.374914E+02 -1.660610E+04  1.381854E+04 -1.668762E-09  4.477648E-09
       378  15 -2.852974E+05 -3.018031E+04 -3.660381E+04  2.152658E+04 -6.744854E-11  8.673923E-09
       378  16  2.452364E+04  7.743039E+04  5.889391E+04  2.661424E+04 -9.636104E-09  6.965808E-09
       378  17  6.410047E+04  8.516317E+04  6.109359E+04  9.873108E+03 -1.008009E-08  1.316919E-08
       378  18  9.651436E+04  6.462967E+04  5.608982E+04  8.447418E+03 -6.235868E-09  5.443639E-10
       378  19 -5.950041E+05 -7.407171E+04 -7.851404E+04  1.624191E+04 -3.462490E+03 -1.560262E+04
       378  20 -6.259052E+05 -8.389591E+04 -9.431210E+04  1.776193E+04 -2.090168E+04 -1.529947E+04
       378  21 -6.669740E+05 -1.249999E+05 -1.293050E+05  3.459772E+04 -3.836966E+04 -5.004677E+03
       378  22 -2.852850E+05  1.682682E+03 -9.806768E+03  2.142688E+04 -7.467351E+03 -1.561528E+04
       378  23 -2.809577E+05  6.378135E+02 -1.660516E+04  1.381874E+04 -1.628489E+04 -1.528408E+04
       378  24 -2.852967E+05 -3.018011E+04 -3.660257E+04  2.152668E+04 -2.513256E+04 -4.963210E+03
       378  25  2.452385E+04  7.743068E+04  5.889462E+04  2.661439E+04 -1.147419E+04 -1.562801E+04
       378  26  6.410068E+04  8.516346E+04  6.109428E+04  9.873251E+03 -1.166557E+04 -1.526875E+04
       378  27  9.651452E+04  6.462974E+04  5.609014E+04  8.447465E+03 -1.188734E+04 -4.922313E+03
       379   1 -2.011453E+05 -7.952007E+05 -1.953238E+05  1.877833E+05 -8.195758E+03 -5.342741E+04
       379   2 -1.364746E+05 -6.024553E+05 -1.209178E+05  1.589679E+05 -2.453903E+04 -1.986581E+04
       379   3 -8.761715E+04 -4.176543E+05 -7.229748E+04  1.758101E+05 -2.170590E+04  1.376168E+04
       379   4 -1.741486E+04 -5.427118E+04 -1.831648E+04  1.764912E+05 -8.295520E+03 -1.377215E+04
       379   5 -3.895965E+03 -5.280656E+04 -8.033044E+03  1.536832E+05 -2.456241E+04 -9.628532E+03
       379   6 -1.069918E+03 -5.420394E+04 -3.084458E+03  1.765324E+05 -2.166000E+04 -5.430169E+03
       379   7  1.662771E+05  6.871657E+05  1.586582E+05  1.651857E+05 -8.396671E+03  2.593028E+04
       379   8  1.286638E+05  4.971294E+05  1.048360E+05  1.483939E+05 -2.458595E+04  6.176602E+02
       379   9  8.546975E+04  3.093746E+05  6.612400E+04  1.772552E+05 -2.161415E+04 -2.463299E+04
       379  10 -2.011461E+05 -7.952038E+05 -1.953293E+05  1.877830E+05 -2.771416E-10 -1.225525E-09
       379  11 -1.364754E+05 -6.024558E+05 -1.209197E+05  1.589675E+05 -1.351192E-09 -3.046374E-09
       379  12 -8.761770E+04 -4.176546E+05 -7.229872E+04  1.758103E+05 -5.525955E-10 -5.032137E-09
       379  13 -1.741499E+04 -5.427140E+04 -1.831696E+04  1.764911E+05  1.249321E-09  2.168426E-09
       379  14 -3.896637E+03 -5.280682E+04 -8.034351E+03  1.536830E+05 -6.946111E-10 -2.953051E-09
       379  15 -1.070429E+03 -5.420410E+04 -3.085395E+03  1.765323E+05 -5.500009E-10  2.831662E-09
       379  16  1.662769E+05  6.871650E+05  1.586568E+05  1.651859E+05  1.285821E-10 -1.307094E-09
       379  17  1.286632E+05  4.971293E+05  1.048349E+05  1.483939E+05  1.019150E-09  2.279617E-09
       379  18  8.546909E+04  3.093738E+05  6.612198E+04  1.772548E+05 -1.456363E-09  2.133285E-09
       379  19 -2.011453E+05 -7.952007E+05 -1.953238E+05  1.877833E+05  8.195758E+03  5.342741E+04
       379  20 -1.364746E+05 -6.024553E+05 -1.209178E+05  1.589679E+05  2.453903E+04  1.986581E+04
       379  21 -8.761715E+04 -4.176543E+05 -7.229748E+04  1.758101E+05  2.170590E+04 -1.376168E+04
       379  22 -1.741486E+04 -5.427118E+04 -1.831648E+04  1.764912E+05  8.295520E+03  1.377215E+04
       379  23 -3.895965E+03 -5.280656E+04 -8.033044E+03  1.536832E+05  2.456241E+04  9.628532E+03
       379  24 -1.069918E+03 -5.420394E+04 -3.084458E+03  1.765324E+05  2.166000E+04  5.430169E+03
       379  25  1.662771E+05  6.871657E+05  1.586582E+05  1.651857E+05  8.396671E+03 -2.593028E+04
       379  26  1.286638E+05  4.971294E+05  1.048360E+05  1.483939E+05  2.458595E+04 -6.176602E+02
       379  27  8.546975E+04  3.093746E+05  6.612400E+04  1.772552E+05  2.161415E+04  2.463299E+04
       380   1 -5.800577E+04 -2.903627E+05 -4.640109E+04  1.771587E+05 -1.413955E+04  1.130930E+04
       380   2 -1.205522E+04 -1.019102E+05 -6.310031E+03  1.536356E+05 -3.328903E+03  1.039974E+04
       380   3  3.419454E+04  8.708339E+04  3.452430E+04  1.769006E+05  7.662662E+03  9.489947E+03
       380   4 -1.582075E+03 -5.342970E+04 -1.269174E+03  1.767758E+05 -1.410125E+04 -5.149790E+03
       380   5 -6.624719E+02 -5.370457E+04  2.437713E+03  1.533844E+05 -3.290234E+03 -6.339131E+03
       380   6  6.069283E+02 -5.342359E+04  7.083068E+03  1.767808E+05  7.701608E+03 -7.528446E+03
       380   7  5.483847E+04  1.835580E+05  4.386123E+04  1.763927E+05 -1.406294E+04 -2.161501E+04
       380   8  1.073029E+04 -5.496115E+03  1.118642E+04  1.531331E+05 -3.251554E+03 -2.307927E+04
       380   9 -3.298171E+04 -1.939110E+05 -2.035802E+04  1.766611E+05  7.740565E+03 -2.454307E+04
       380  10 -5.800602E+04 -2.903628E+05 -4.640171E+04  1.771588E+05 -1.866441E-10  2.772834E-11
       380  11 -1.205526E+04 -1.019103E+05 -6.310255E+03  1.536356E+05  1.184862E-09 -1.595844E-09
       380  12  3.419445E+04  8.708328E+04  3.452402E+04  1.769005E+05  1.636976E-09 -4.633989E-09
       380  13 -1.582295E+03 -5.342978E+04 -1.269597E+03  1.767757E+05 -2.573089E-10 -2.150751E-09
       380  14 -6.624943E+02 -5.370462E+04  2.437617E+03  1.533844E+05  3.152172E-09 -3.304750E-09
       380  15  6.068494E+02 -5.342366E+04  7.082850E+03  1.767809E+05  4.565225E-09  1.855099E-09
       380  16  5.483813E+04  1.835574E+05  4.385998E+04  1.763925E+05 -2.543958E-10 -1.751492E-09
       380  17  1.073014E+04 -5.496690E+03  1.118540E+04  1.531331E+05  5.845959E-10  1.553828E-09
       380  18 -3.298194E+04 -1.939117E+05 -2.035927E+04  1.766613E+05  2.757344E-09  4.498342E-09
       380  19 -5.800577E+04 -2.903627E+05 -4.640109E+04  1.771587E+05  1.413955E+04 -1.130930E+04
       380  20 -1.205522E+04 -1.019102E+05 -6.310031E+03  1.536356E+05  3.328903E+03 -1.039974E+04
       380  21  3.419454E+04  8.708339E+04  3.452430E+04  1.769006E+05 -7.662662E+03 -9.489947E+03
       380  22 -1.582075E+03 -5.342970E+04 -1.269174E+03  1.767758E+05  1.410125E+04  5.149790E+03
       380  23 -6.624719E+02 -5.370457E+04  2.437713E+03  1.533844E+05  3.290234E+03  6.339131E+03
       380  24  6.069283E+02 -5.342359E+04  7.083068E+03  1.767808E+05 -7.701608E+03  7.528446E+03
       380  25  5.483847E+04  1.835580E+05  4.386123E+04  1.763927E+05  1.406294E+04  2.161501E+04
       380  26  1.073029E+04 -5.496115E+03  1.118642E+04  1.531331E+05  3.251554E+03  2.307927E+04
       380  27 -3.298171E+04 -1.939110E+05 -2.035802E+04  1.766611E+05 -7.740565E+03  2.454307E+04
       381   1  6.322236E+04  2.150390E+05  6.135008E+04  1.732057E+05  1.527413E+04  1.062479E+04
       381   2  1.152816E+05  3.980693E+05  1.129071E+05  1.622410E+05  1.955046E+04 -2.509687E+04
       381   3  1.946708E+05  5.929493E+05  1.946151E+05  1.971566E+05  6.992460E+03 -6.087618E+04
       381   4 -4.709165E+02 -5.192658E+04  9.910410E+03  1.765630E+05  1.531937E+04 -8.747948E+03
       381   5  5.836081E+03 -5.562244E+04  1.901082E+04  1.536680E+05  1.953625E+04 -1.859446E+04
       381   6  3.499601E+04 -5.198042E+04  4.030643E+04  1.766517E+05  6.914572E+03 -2.848766E+04
       381   7 -6.416818E+04 -3.188228E+05 -4.153115E+04  1.799189E+05  1.536440E+04 -2.811254E+04
       381   8 -1.036221E+05 -5.091189E+05 -7.489645E+04  1.451014E+05  1.952186E+04 -1.209671E+04
       381   9 -1.247067E+05 -6.965260E+05 -1.140274E+05  1.561684E+05  6.834508E+03  3.867399E+03
       381  10  6.322208E+04  2.150388E+05  6.134943E+04  1.732056E+05  2.565586E-09 -4.682725E-09
       381  11  1.152810E+05  3.980686E+05  1.129052E+05  1.622414E+05  9.356694E-10 -2.662975E-10
       381  12  1.946698E+05  5.929453E+05  1.946081E+05  1.971569E+05 -6.485636E-10 -2.365830E-10
       381  13 -4.711891E+02 -5.192673E+04  9.909825E+03  1.765631E+05  6.453925E-10 -1.077145E-09
       381  14  5.835578E+03 -5.562291E+04  1.900945E+04  1.536683E+05  1.479478E-09 -3.961593E-09
       381  15  3.499574E+04 -5.198130E+04  4.030482E+04  1.766519E+05 -4.701647E-10  4.194770E-09
       381  16 -6.416865E+04 -3.188237E+05 -4.153308E+04  1.799192E+05  1.551105E-09 -8.098535E-10
       381  17 -1.036226E+05 -5.091192E+05 -7.489744E+04  1.451016E+05  9.458856E-10 -2.209502E-09
       381  18 -1.247068E+05 -6.965260E+05 -1.140275E+05  1.561683E+05 -6.546679E-10  1.921423E-09
       381  19  6.322236E+04  2.150390E+05  6.135008E+04  1.732057E+05 -1.527413E+04 -1.062479E+04
       381  20  1.152816E+05  3.980693E+05  1.129071E+05  1.622410E+05 -1.955046E+04  2.509687E+04
       381  21  1.946708E+05  5.929493E+05  1.946151E+05  1.971566E+05 -6.992460E+03  6.087618E+04
       381  22 -4.709165E+02 -5.192658E+04  9.910410E+03  1.765630E+05 -1.531937E+04  8.747948E+03
       381  23  5.836081E+03 -5.562244E+04  1.901082E+04  1.536680E+05 -1.953625E+04  1.859446E+04
       381  24  3.499601E+04 -5.198042E+04  4.030643E+04  1.766517E+05 -6.914572E+03  2.848766E+04
       381  25 -6.416818E+04 -3.188228E+05 -4.153115E+04  1.799189E+05 -1.536440E+04  2.811254E+04
       381  26 -1.036221E+05 -5.091189E+05 -7.489645E+04  1.451014E+05 -1.952186E+04  1.209671E+04
       381  27 -1.247067E+05 -6.965260E+05 -1.140274E+05  1.561684E+05 -6.834508E+03 -3.867399E+03
       382   1  6.551270E+05  2.564635E+05  1.612799E+05  2.392389E+05  6.691867E+04  2.100542E+04
       382   2  6.303448E+05  1.613976E+05  1.000943E+05  2.341335E+05  4.332584E+04  2.960794E+03
       382   3  6.273930E+05  1.429356E+05  7.757312E+04  2.202302E+05  1.680386E+04 -7.337252E+03
       382   4  4.011234E+05  1.312362E+05  8.765734E+04  1.396647E+05  5.731011E+04  1.736591E+04
       382   5  3.860462E+05  6.011394E+04  3.780244E+04  1.567224E+05  3.999675E+04  1.699643E+03
       382   6  3.915656E+05  6.436664E+04  2.164654E+04  1.649792E+05  1.975269E+04 -6.220997E+03
       382   7  1.471884E+05  6.029463E+03  1.403021E+04  4.013328E+04  4.770600E+04  1.372921E+04
       382   8  1.418076E+05 -4.116137E+04 -2.449396E+04  7.934051E+04  3.666911E+04  4.391661E+02
       382   9  1.557915E+05 -1.420161E+04 -3.428430E+04  1.097456E+05  2.270032E+04 -5.105084E+03
       382  10  6.551221E+05  2.564618E+05  1.612706E+05  2.392377E+05 -3.307569E-09 -2.763471E-09
       382  11  6.303428E+05  1.613971E+05  1.000908E+05  2.341334E+05 -2.179401E-09  5.670851E-09
       382  12  6.273926E+05  1.429354E+05  7.757249E+04  2.202303E+05 -1.051954E-09  7.608233E-09
       382  13  4.011198E+05  1.312350E+05  8.765061E+04  1.396639E+05  1.555598E-09 -7.844899E-09
       382  14  3.860444E+05  6.011350E+04  3.779943E+04  1.567223E+05 -8.963866E-10 -1.921944E-09
       382  15  3.915652E+05  6.436650E+04  2.164574E+04  1.649793E+05 -1.821000E-09 -5.442852E-10
       382  16  1.471860E+05  6.028650E+03  1.402558E+04  4.013275E+04  2.493534E-09  8.945529E-09
       382  17  1.418062E+05 -4.116174E+04 -2.449649E+04  7.934049E+04 -7.630686E-10  2.863123E-10
       382  18  1.557909E+05 -1.420178E+04 -3.428532E+04  1.097457E+05 -2.112234E-09  2.827865E-09
       382  19  6.551270E+05  2.564635E+05  1.612799E+05  2.392389E+05 -6.691867E+04 -2.100542E+04
       382  20  6.303448E+05  1.613976E+05  1.000943E+05  2.341335E+05 -4.332584E+04 -2.960794E+03
       382  21  6.273930E+05  1.429356E+05  7.757312E+04  2.202302E+05 -1.680386E+04  7.337252E+03
       382  22  4.011234E+05  1.312362E+05  8.765734E+04  1.396647E+05 -5.731011E+04 -1.736591E+04
       382  23  3.860462E+05  6.011394E+04  3.780244E+04  1.567224E+05 -3.999675E+04 -1.699643E+03
       382  24  3.915656E+05  6.436664E+04  2.164654E+04  1.649792E+05 -1.975269E+04  6.220997E+03
       382  25  1.471884E+05  6.029463E+03  1.403021E+04  4.013328E+04 -4.770600E+04 -1.372921E+04
       382  26  1.418076E+05 -4.116137E+04 -2.449396E+04  7.934051E+04 -3.666911E+04 -4.391661E+02
       382  27  1.557915E+05 -1.420161E+04 -3.428430E+04  1.097456E+05 -2.270032E+04  5.105084E+03
       383   1  5.960959E+05  1.505083E+05  6.848978E+04  2.195891E+05  1.577458E+04 -5.917522E+03
       383   2  5.764670E+05  1.327534E+05  5.426947E+04  2.092687E+05  1.068439E+04 -6.827283E+03
       383   3  5.513922E+05  1.274284E+05  4.483621E+04  2.067635E+05  5.461134E+03 -7.385905E+03
       383   4  3.887674E+05  7.132692E+04  1.722304E+04  1.607378E+05  1.635017E+04 -5.699923E+03
       383   5  3.912109E+05  6.298021E+04  8.781022E+03  1.576492E+05  1.154575E+04 -6.501319E+03
       383   6  3.881520E+05  6.700781E+04  4.900811E+03  1.623753E+05  6.608054E+03 -6.951610E+03
       383   7  1.814813E+05 -7.850944E+03 -3.404701E+04  1.019046E+05  1.692555E+04 -5.482407E+03
       383   8  2.059890E+05 -6.790220E+03 -3.670991E+04  1.060438E+05  1.240682E+04 -6.175464E+03
       383   9  2.249389E+05  6.589215E+03 -3.503637E+04  1.179980E+05  7.754640E+03 -6.517439E+03
       383  10  5.960956E+05  1.505082E+05  6.848925E+04  2.195891E+05 -2.131672E-09  6.770881E-09
       383  11  5.764668E+05  1.327533E+05  5.426917E+04  2.092688E+05  6.165527E-10  1.017892E-08
       383  12  5.513921E+05  1.274283E+05  4.483605E+04  2.067635E+05  5.593962E-09  1.044537E-08
       383  13  3.887671E+05  7.132682E+04  1.722248E+04  1.607379E+05 -1.821819E-10  3.463014E-09
       383  14  3.912107E+05  6.298013E+04  8.780692E+03  1.576492E+05 -3.373838E-09 -8.809224E-09
       383  15  3.881520E+05  6.700775E+04  4.900638E+03  1.623754E+05 -1.126216E-09  5.009389E-10
       383  16  1.814810E+05 -7.851053E+03 -3.404760E+04  1.019046E+05 -2.241000E-09 -4.222356E-09
       383  17  2.059889E+05 -6.790303E+03 -3.671027E+04  1.060438E+05 -4.191493E-09  8.421087E-09
       383  18  2.249388E+05  6.589153E+03 -3.503657E+04  1.179980E+05 -4.250865E-09 -2.210059E-09
       383  19  5.960959E+05  1.505083E+05  6.848978E+04  2.195891E+05 -1.577458E+04  5.917522E+03
       383  20  5.764670E+05  1.327534E+05  5.426947E+04  2.092687E+05 -1.068439E+04  6.827283E+03
       383  21  5.513922E+05  1.274284E+05  4.483621E+04  2.067635E+05 -5.461134E+03  7.385905E+03
       383  22  3.887674E+05  7.132692E+04  1.722304E+04  1.607378E+05 -1.635017E+04  5.699923E+03
       383  23  3.912109E+05  6.298021E+04  8.781022E+03  1.576492E+05 -1.154575E+04  6.501319E+03
       383  24  3.881520E+05  6.700781E+04  4.900811E+03  1.623753E+05 -6.608054E+03  6.951610E+03
       383  25  1.814813E+05 -7.850944E+03 -3.404701E+04  1.019046E+05 -1.692555E+04  5.482407E+03
       383  26  2.059890E+05 -6.790220E+03 -3.670991E+04  1.060438E+05 -1.240682E+04  6.175464E+03
       383  27  2.249389E+05  6.589215E+03 -3.503637E+04  1.179980E+05 -7.754640E+03  6.517439E+03
       384   1  5.305455E+05  1.208608E+05  3.862273E+04  2.015295E+05  4.577341E+03 -6.806547E+03
       384   2  5.115991E+05  1.081703E+05  3.141857E+04  1.908892E+05  3.061873E+03 -5.908066E+03
       384   3  4.851378E+05  1.035707E+05  2.506261E+04  1.889990E+05  1.540857E+03 -4.995586E+03
       384   4  3.879033E+05  6.743106E+04  3.740312E+03  1.620630E+05  5.613818E+03 -6.414011E+03
       384   5  3.916446E+05  6.325968E+04  2.030401E+03  1.577364E+05  4.109939E+03 -5.511035E+03
       384   6  3.878686E+05  6.717720E+04  1.159811E+03  1.621599E+05  2.600472E+03 -4.594071E+03
       384   7  2.452805E+05  1.400251E+04 -3.114383E+04  1.226045E+05  6.650040E+03 -6.021572E+03
       384   8  2.717039E+05  1.834999E+04 -2.735893E+04  1.245894E+05  5.157786E+03 -5.114086E+03
       384   9  2.906086E+05  3.078440E+04 -2.274371E+04  1.353247E+05  3.659907E+03 -4.192626E+03
       384  10  5.305455E+05  1.208607E+05  3.862261E+04  2.015296E+05 -2.825268E-09 -6.864532E-09
       384  11  5.115991E+05  1.081702E+05  3.141849E+04  1.908893E+05 -1.775112E-09  8.769056E-09
       384  12  4.851378E+05  1.035706E+05  2.506256E+04  1.889990E+05  5.097744E-09  4.838067E-09
       384  13  3.879033E+05  6.743101E+04  3.740176E+03  1.620630E+05  1.872837E-09 -1.791888E-10
       384  14  3.916446E+05  6.325964E+04  2.030312E+03  1.577365E+05  8.631207E-10  7.273357E-09
       384  15  3.878686E+05  6.717718E+04  1.159758E+03  1.621599E+05 -3.111362E-09  6.283308E-09
       384  16  2.452805E+05  1.400246E+04 -3.114398E+04  1.226045E+05  4.335376E-09 -1.053796E-09
       384  17  2.717039E+05  1.834996E+04 -2.735903E+04  1.245894E+05 -2.674391E-09  1.812428E-10
       384  18  2.906086E+05  3.078438E+04 -2.274377E+04  1.353247E+05 -6.185450E-09 -1.578406E-10
       384  19  5.305455E+05  1.208608E+05  3.862273E+04  2.015295E+05 -4.577341E+03  6.806547E+03
       384  20  5.115991E+05  1.081703E+05  3.141857E+04  1.908892E+05 -3.061873E+03  5.908066E+03
       384  21  4.851378E+05  1.035707E+05  2.506261E+04  1.889990E+05 -1.540857E+03  4.995586E+03
       384  22  3.879033E+05  6.743106E+04  3.740312E+03  1.620630E+05 -5.613818E+03  6.414011E+03
       384  23  3.916446E+05  6.325968E+04  2.030401E+03  1.577364E+05 -4.109939E+03  5.511035E+03
       384  24  3.878686E+05  6.717720E+04  1.159811E+03  1.621599E+05 -2.600472E+03  4.594071E+03
       384  25  2.452805E+05  1.400251E+04 -3.114383E+04  1.226045E+05 -6.650040E+03  6.021572E+03
       384  26  2.717039E+05  1.834999E+04 -2.735893E+04  1.245894E+05 -5.157786E+03  5.114086E+03
       384  27  2.906086E+05  3.078440E+04 -2.274371E+04  1.353247E+05 -3.659907E+03  4.192626E+03
       385   1  4.651271E+05  9.612197E+04  1.975767E+04  1.835010E+05  1.088750E+03 -4.297500E+03
       385   2  4.463370E+05  8.377172E+04  1.397295E+04  1.728636E+05  3.052918E+02 -3.106117E+03
       385   3  4.198495E+05  7.919283E+04  8.409936E+03  1.709841E+05 -4.781595E+02 -1.915004E+03
       385   4  3.878417E+05  6.719358E+04  9.028676E+02  1.621291E+05  2.142290E+03 -3.898242E+03
       385   5  3.916905E+05  6.330338E+04  5.834131E+02  1.577521E+05  1.358642E+03 -2.706887E+03
       385   6  3.878413E+05  6.718464E+04  4.858453E+02  1.621329E+05  5.749873E+02 -1.515801E+03
       385   7  3.105626E+05  3.826574E+04 -1.795228E+04  1.407597E+05  3.195681E+03 -3.499040E+03
       385   8  3.370469E+05  4.283525E+04 -1.280635E+04  1.426417E+05  2.411892E+03 -2.307694E+03
       385   9  3.558340E+05  5.517646E+04 -7.438360E+03  1.532820E+05  1.628080E+03 -1.116618E+03
       385  10  4.651271E+05  9.612195E+04  1.975763E+04  1.835010E+05  2.078204E-08 -6.735862E-10
       385  11  4.463370E+05  8.377171E+04  1.397293E+04  1.728636E+05  6.718775E-09 -1.993776E-09
       385  12  4.198495E+05  7.919283E+04  8.409928E+03  1.709841E+05 -1.364779E-08 -1.459262E-08
       385  13  3.878417E+05  6.719356E+04  9.028304E+02  1.621291E+05  1.510189E-09 -5.632816E-10
       385  14  3.916905E+05  6.330337E+04  5.833958E+02  1.577521E+05  5.260994E-09  1.209053E-09
       385  15  3.878413E+05  6.718463E+04  4.858403E+02  1.621329E+05  2.562203E-09 -9.679847E-09
       385  16  3.105626E+05  3.826572E+04 -1.795232E+04  1.407597E+05 -1.745222E-08 -3.878461E-09
       385  17  3.370469E+05  4.283524E+04 -1.280637E+04  1.426417E+05  6.022767E-09  3.350327E-09
       385  18  3.558340E+05  5.517646E+04 -7.438368E+03  1.532820E+05  1.689663E-08  6.513869E-09
       385  19  4.651271E+05  9.612197E+04  1.975767E+04  1.835010E+05 -1.088750E+03  4.297500E+03
       385  20  4.463370E+05  8.377172E+04  1.397295E+04  1.728636E+05 -3.052918E+02  3.106117E+03
       385  21  4.198495E+05  7.919283E+04  8.409936E+03  1.709841E+05  4.781595E+02  1.915004E+03
       385  22  3.878417E+05  6.719358E+04  9.028676E+02  1.621291E+05 -2.142290E+03  3.898242E+03
       385  23  3.916905E+05  6.330338E+04  5.834131E+02  1.577521E+05 -1.358642E+03  2.706887E+03
       385  24  3.878413E+05  6.718464E+04  4.858453E+02  1.621329E+05 -5.749873E+02  1.515801E+03
       385  25  3.105626E+05  3.826574E+04 -1.795228E+04  1.407597E+05 -3.195681E+03  3.499040E+03
       385  26  3.370469E+05  4.283525E+04 -1.280635E+04  1.426417E+05 -2.411892E+03  2.307694E+03
       385  27  3.558340E+05  5.517646E+04 -7.438360E+03  1.532820E+05 -1.628080E+03  1.116618E+03
       386   1  3.999449E+05  7.171031E+04  3.387604E+03  1.654920E+05 -8.468239E+02 -1.188909E+03
       386   2  3.811714E+05  5.937971E+04 -1.901885E+03  1.548600E+05 -1.674241E+03 -1.527733E+01
       386   3  3.547146E+05  5.481921E+04 -6.935583E+03  1.529783E+05 -2.501456E+03  1.157999E+03
       386   4  3.878444E+05  6.718320E+04  5.017060E+02  1.621317E+05  2.059379E+02 -7.898381E+02
       386   5  3.916873E+05  6.330503E+04  6.724446E+02  1.577540E+05 -6.218105E+02  3.836570E+02
       386   6  3.878463E+05  6.719691E+04  1.099213E+03  1.621264E+05 -1.449368E+03  1.556792E+03
       386   7  3.757441E+05  6.265610E+04 -2.384197E+03  1.587714E+05  1.258677E+03 -3.907756E+02
       386   8  4.022033E+05  6.723035E+04  3.246763E+03  1.606481E+05  4.306373E+02  7.825976E+02
       386   9  4.209789E+05  7.957463E+04  9.133889E+03  1.712749E+05 -3.972247E+02  1.955607E+03
       386  10  3.999449E+05  7.171031E+04  3.387600E+03  1.654920E+05  5.556594E-09  4.869116E-09
       386  11  3.811714E+05  5.937971E+04 -1.901890E+03  1.548600E+05  2.817655E-09 -9.966073E-09
       386  12  3.547146E+05  5.481921E+04 -6.935598E+03  1.529783E+05 -2.867103E-09  1.380006E-09
       386  13  3.878444E+05  6.718320E+04  5.017047E+02  1.621317E+05  1.666695E-09  1.034828E-08
       386  14  3.916873E+05  6.330503E+04  6.724436E+02  1.577540E+05  2.327816E-09 -4.843708E-09
       386  15  3.878463E+05  6.719691E+04  1.099205E+03  1.621264E+05  3.666261E-10 -7.983315E-09
       386  16  3.757441E+05  6.265610E+04 -2.384200E+03  1.587714E+05 -3.655034E-09 -4.234202E-09
       386  17  4.022033E+05  6.723035E+04  3.246762E+03  1.606481E+05  5.593915E-09 -1.537114E-08
       386  18  4.209789E+05  7.957463E+04  9.133882E+03  1.712749E+05  6.662655E-09 -3.726531E-09
       386  19  3.999449E+05  7.171031E+04  3.387604E+03  1.654920E+05  8.468239E+02  1.188909E+03
       386  20  3.811714E+05  5.937971E+04 -1.901885E+03  1.548600E+05  1.674241E+03  1.527733E+01
       386  21  3.547146E+05  5.481921E+04 -6.935583E+03  1.529783E+05  2.501456E+03 -1.157999E+03
       386  22  3.878444E+05  6.718320E+04  5.017060E+02  1.621317E+05 -2.059379E+02  7.898381E+02
       386  23  3.916873E+05  6.330503E+04  6.724446E+02  1.577540E+05  6.218105E+02 -3.836570E+02
       386  24  3.878463E+05  6.719691E+04  1.099213E+03  1.621264E+05  1.449368E+03 -1.556792E+03
       386  25  3.757441E+05  6.265610E+04 -2.384197E+03  1.587714E+05 -1.258677E+03  3.907756E+02
       386  26  4.022033E+05  6.723035E+04  3.246763E+03  1.606481E+05 -4.306373E+02 -7.825976E+02
       386  27  4.209789E+05  7.957463E+04  9.133889E+03  1.712749E+05  3.972247E+02 -1.955607E+03
       387   1  3.347951E+05  4.734901E+04 -1.164626E+04  1.475631E+05 -3.002173E+03  1.835966E+03
       387   2  3.159230E+05  3.493100E+04 -1.601481E+04  1.368367E+05 -4.751461E+03  2.659259E+03
       387   3  2.896108E+05  3.065903E+04 -1.934561E+04  1.348259E+05 -6.495861E+03  3.470220E+03
       387   4  3.878847E+05  6.717206E+04  1.429050E+03  1.621597E+05 -1.945374E+03  2.236522E+03
       387   5  3.916262E+05  6.325899E+04  2.531619E+03  1.577407E+05 -3.704843E+03  3.055892E+03
       387   6  3.879296E+05  6.749404E+04  4.680060E+03  1.620371E+05 -5.459471E+03  3.862914E+03
       387   7  4.409774E+05  8.699541E+04  1.450422E+04  1.767576E+05 -8.884708E+02  2.637117E+03
       387   8  4.673354E+05  9.158745E+04  2.107767E+04  1.786470E+05 -2.658083E+03  3.452579E+03
       387   9  4.862580E+05  1.043297E+05  2.870501E+04  1.892522E+05 -4.422902E+03  4.255676E+03
       387  10  3.347951E+05  4.734900E+04 -1.164628E+04  1.475631E+05 -4.804555E-09 -6.806654E-09
       387  11  3.159229E+05  3.493099E+04 -1.601487E+04  1.368367E+05 -5.563101E-09 -9.369372E-09
       387  12  2.896107E+05  3.065901E+04 -1.934571E+04  1.348259E+05  4.205376E-10  2.900623E-09
       387  13  3.878847E+05  6.717206E+04  1.429033E+03  1.621597E+05 -3.063720E-10  2.264778E-09
       387  14  3.916262E+05  6.325897E+04  2.531576E+03  1.577407E+05 -1.496016E-09  2.056988E-08
       387  15  3.879296E+05  6.749401E+04  4.679975E+03  1.620371E+05 -1.072855E-09  1.827141E-10
       387  16  4.409773E+05  8.699540E+04  1.450420E+04  1.767576E+05  4.639468E-09  7.505762E-09
       387  17  4.673353E+05  9.158743E+04  2.107764E+04  1.786470E+05  4.886174E-10  3.030935E-09
       387  18  4.862580E+05  1.043297E+05  2.870494E+04  1.892522E+05  1.444669E-09 -3.185928E-09
       387  19  3.347951E+05  4.734901E+04 -1.164626E+04  1.475631E+05  3.002173E+03 -1.835966E+03
       387  20  3.159230E+05  3.493100E+04 -1.601481E+04  1.368367E+05  4.751461E+03 -2.659259E+03
       387  21  2.896108E+05  3.065903E+04 -1.934561E+04  1.348259E+05  6.495861E+03 -3.470220E+03
       387  22  3.878847E+05  6.717206E+04  1.429050E+03  1.621597E+05  1.945374E+03 -2.236522E+03
       387  23  3.916262E+05  6.325899E+04  2.531619E+03  1.577407E+05  3.704843E+03 -3.055892E+03
       387  24  3.879296E+05  6.749404E+04  4.680060E+03  1.620371E+05  5.459471E+03 -3.862914E+03
       387  25  4.409774E+05  8.699541E+04  1.450422E+04  1.767576E+05  8.884708E+02 -2.637117E+03
       387  26  4.673354E+05  9.158745E+04  2.107767E+04  1.786470E+05  2.658083E+03 -3.452579E+03
       387  27  4.862580E+05  1.043297E+05  2.870501E+04  1.892522E+05  4.422902E+03 -4.255676E+03
       388   1  2.692739E+05  2.329674E+04 -2.292750E+04  1.304667E+05 -7.753608E+03  3.898171E+03
       388   2  2.504042E+05  9.725841E+03 -2.358611E+04  1.182363E+05 -1.358279E+04  3.116526E+03
       388   3  2.265918E+05  9.610664E+03 -1.871973E+04  1.135281E+05 -1.929940E+04  2.039100E+03
       388   4  3.882464E+05  6.696014E+04  6.136224E+03  1.624245E+05 -6.624529E+03  4.325938E+03
       388   5  3.910809E+05  6.291732E+04  1.100197E+04  1.576367E+05 -1.269445E+04  3.452932E+03
       388   6  3.890194E+05  7.237668E+04  2.158251E+04  1.603705E+05 -1.865205E+04  2.284066E+03
       388   7  5.072322E+05  1.106242E+05  3.519874E+04  1.943877E+05 -5.495220E+03  4.753789E+03
       388   8  5.317772E+05  1.161103E+05  4.558854E+04  1.970452E+05 -1.180590E+04  3.789423E+03
       388   9  5.514738E+05  1.351453E+05  6.188291E+04  2.072244E+05 -1.800451E+04  2.529109E+03
       388  10  2.692738E+05  2.329671E+04 -2.292764E+04  1.304667E+05  2.325102E-09  1.257668E-08
       388  11  2.504040E+05  9.725781E+03 -2.358647E+04  1.182364E+05  4.552916E-09  1.033258E-08
       388  12  2.265914E+05  9.610560E+03 -1.872043E+04  1.135281E+05  9.622592E-09  1.981724E-10
       388  13  3.882463E+05  6.696011E+04  6.136106E+03  1.624246E+05  3.404817E-09 -2.742736E-09
       388  14  3.910808E+05  6.291726E+04  1.100164E+04  1.576367E+05 -5.106384E-09  7.794186E-09
       388  15  3.890190E+05  7.237658E+04  2.158184E+04  1.603705E+05  2.164766E-09  2.067468E-09
       388  16  5.072322E+05  1.106241E+05  3.519864E+04  1.943877E+05  3.430552E-09 -2.661203E-09
       388  17  5.317770E+05  1.161102E+05  4.558825E+04  1.970452E+05 -4.410692E-09  2.850544E-09
       388  18  5.514734E+05  1.351452E+05  6.188229E+04  2.072244E+05 -5.406109E-09  5.571688E-09
       388  19  2.692739E+05  2.329674E+04 -2.292750E+04  1.304667E+05  7.753608E+03 -3.898171E+03
       388  20  2.504042E+05  9.725841E+03 -2.358611E+04  1.182363E+05  1.358279E+04 -3.116526E+03
       388  21  2.265918E+05  9.610664E+03 -1.871973E+04  1.135281E+05  1.929940E+04 -2.039100E+03
       388  22  3.882464E+05  6.696014E+04  6.136224E+03  1.624245E+05  6.624529E+03 -4.325938E+03
       388  23  3.910809E+05  6.291732E+04  1.100197E+04  1.576367E+05  1.269445E+04 -3.452932E+03
       388  24  3.890194E+05  7.237668E+04  2.158251E+04  1.603705E+05  1.865205E+04 -2.284066E+03
       388  25  5.072322E+05  1.106242E+05  3.519874E+04  1.943877E+05  5.495220E+03 -4.753789E+03
       388  26  5.317772E+05  1.161103E+05  4.558854E+04  1.970452E+05  1.180590E+04 -3.789423E+03
       388  27  5.514738E+05  1.351453E+05  6.188291E+04  2.072244E+05  1.800451E+04 -2.529109E+03
       389   1  1.996551E+05  3.614196E+03 -1.788104E+04  1.248283E+05 -2.535835E+04  1.401331E+03
       389   2  1.869624E+05 -2.699176E+04 -3.838119E+03  8.939264E+04 -4.555486E+04 -6.231427E+03
       389   3  2.009833E+05  3.387870E+04  4.825378E+04  4.071434E+04 -6.328247E+04 -2.038271E+04
       389   4  3.925097E+05  6.367101E+04  2.712623E+04  1.657018E+05 -2.271413E+04  2.403149E+03
       389   5  3.846321E+05  5.931294E+04  4.737540E+04  1.564558E+05 -4.819443E+04 -7.232251E+03
       389   6  4.045018E+05  1.474578E+05  1.098524E+05  1.339703E+05 -7.120647E+04 -2.338710E+04
       389   7  5.854017E+05  1.237281E+05  7.213121E+04  2.065858E+05 -2.006900E+04  3.405180E+03
       389   8  5.823394E+05  1.456238E+05  9.858530E+04  2.235393E+05 -5.083489E+04 -8.233543E+03
       389   9  6.080604E+05  2.610547E+05  1.714464E+05  2.272571E+05 -7.913317E+04 -2.639368E+04
       389  10  1.996544E+05  3.614021E+03 -1.788225E+04  1.248283E+05  1.100695E-08 -1.394983E-09
       389  11  1.869602E+05 -2.699236E+04 -3.842091E+03  8.939241E+04  3.793548E-09 -1.066906E-08
       389  12  2.009789E+05  3.387718E+04  4.824547E+04  4.071330E+04 -6.846769E-09 -3.856967E-09
       389  13  3.925092E+05  6.367087E+04  2.712525E+04  1.657019E+05  6.434804E-09  1.143333E-09
       389  14  3.846296E+05  5.931226E+04  4.737094E+04  1.564556E+05  1.670930E-09 -6.675717E-09
       389  15  4.044962E+05  1.474558E+05  1.098419E+05  1.339689E+05  2.209403E-09  6.612391E-10
       389  16  5.854012E+05  1.237280E+05  7.213043E+04  2.065858E+05 -4.213852E-09  3.615872E-09
       389  17  5.823366E+05  1.456231E+05  9.858032E+04  2.235390E+05  6.053946E-09  2.664168E-09
       389  18  6.080535E+05  2.610522E+05  1.714333E+05  2.272554E+05  8.775396E-09  6.269461E-09
       389  19  1.996551E+05  3.614196E+03 -1.788104E+04  1.248283E+05  2.535835E+04 -1.401331E+03
       389  20  1.869624E+05 -2.699176E+04 -3.838119E+03  8.939264E+04  4.555486E+04  6.231427E+03
       389  21  2.009833E+05  3.387870E+04  4.825378E+04  4.071434E+04  6.328247E+04  2.038271E+04
       389  22  3.925097E+05  6.367101E+04  2.712623E+04  1.657018E+05  2.271413E+04 -2.403149E+03
       389  23  3.846321E+05  5.931294E+04  4.737540E+04  1.564558E+05  4.819443E+04  7.232251E+03
       389  24  4.045018E+05  1.474578E+05  1.098524E+05  1.339703E+05  7.120647E+04  2.338710E+04
       389  25  5.854017E+05  1.237281E+05  7.213121E+04  2.065858E+05  2.006900E+04 -3.405180E+03
       389  26  5.823394E+05  1.456238E+05  9.858530E+04  2.235393E+05  5.083489E+04  8.233543E+03
       389  27  6.080604E+05  2.610547E+05  1.714464E+05  2.272571E+05  7.913317E+04  2.639368E+04
       390   1 -1.364127E+05 -6.793344E+05 -1.364914E+05  9.318289E+04 -5.272444E+03 -2.524818E+04
       390   2 -8.644668E+04 -5.401145E+05 -8.792041E+04  5.912041E+04 -1.481075E+04 -9.069421E+03
       390   3 -5.277844E+04 -4.065999E+05 -5.389282E+04  8.407915E+04 -1.060853E+04  7.151891E+03
       390   4 -1.455508E+04 -1.899479E+05 -1.707766E+04  8.564998E+04 -5.311282E+03 -1.112608E+04
       390   5 -5.803980E+01 -1.881035E+05 -8.221225E+03  5.616020E+04 -1.481621E+04 -6.805463E+03
       390   6  2.072673E+02 -1.899191E+05 -5.663405E+03  8.569066E+04 -1.058386E+04 -2.446114E+03
       390   7  1.072852E+05  2.996576E+05  1.023194E+05  7.811124E+04 -5.350449E+03  3.007125E+03
       390   8  8.632210E+04  1.640227E+05  7.147000E+04  5.319835E+04 -1.482169E+04 -4.540231E+03
       390   9  5.318985E+04  2.680572E+04  4.256342E+04  8.730277E+04 -1.055924E+04 -1.204743E+04
       390  10 -1.364129E+05 -6.793351E+05 -1.364927E+05  9.318279E+04  1.316226E-09  5.805379E-09
       390  11 -8.644694E+04 -5.401147E+05 -8.792097E+04  5.912030E+04  2.272928E-09 -2.165026E-09
       390  12 -5.277857E+04 -4.066000E+05 -5.389312E+04  8.407921E+04 -1.155400E-09  1.442654E-09
       390  13 -1.455515E+04 -1.899481E+05 -1.707795E+04  8.564993E+04  3.062691E-09  4.011140E-11
       390  14 -5.828793E+01 -1.881036E+05 -8.221724E+03  5.616011E+04 -8.508526E-10  2.967494E-09
       390  15  2.071454E+02 -1.899191E+05 -5.663626E+03  8.569064E+04 -2.003220E-09 -3.310638E-09
       390  16  1.072851E+05  2.996576E+05  1.023193E+05  7.811125E+04  1.326306E-09 -3.585091E-09
       390  17  8.632185E+04  1.640226E+05  7.146954E+04  5.319830E+04  2.138306E-09 -2.040076E-10
       390  18  5.318969E+04  2.680554E+04  4.256294E+04  8.730267E+04 -2.289633E-09  3.065510E-09
       390  19 -1.364127E+05 -6.793344E+05 -1.364914E+05  9.318289E+04  5.272444E+03  2.524818E+04
       390  20 -8.644668E+04 -5.401145E+05 -8.792041E+04  5.912041E+04  1.481075E+04  9.069421E+03
       390  21 -5.277844E+04 -4.065999E+05 -5.389282E+04  8.407915E+04  1.060853E+04 -7.151891E+03
       390  22 -1.455508E+04 -1.899479E+05 -1.707766E+04  8.564998E+04  5.311282E+03  1.112608E+04
       390  23 -5.803980E+01 -1.881035E+05 -8.221225E+03  5.616020E+04  1.481621E+04  6.805463E+03
       390  24  2.072673E+02 -1.899191E+05 -5.663405E+03  8.569066E+04  1.058386E+04  2.446114E+03
       390  25  1.072852E+05  2.996576E+05  1.023194E+05  7.811124E+04  5.350449E+03 -3.007125E+03
       390  26  8.632210E+04  1.640227E+05  7.147000E+04  5.319835E+04  1.482169E+04  4.540231E+03
       390  27  5.318985E+04  2.680572E+04  4.256342E+04  8.730277E+04  1.055924E+04  1.204743E+04
       391   1 -2.601480E+04 -2.905727E+05 -2.776092E+04  8.652091E+04 -4.856588E+03  4.163389E+03
       391   2  8.347820E+03 -1.539885E+05  3.115084E+03  5.590818E+04  1.714265E+03  6.454819E+03
       391   3  4.032522E+04 -1.787921E+04  3.199114E+04  8.490314E+04  8.206254E+03  8.746845E+03
       391   4 -1.208400E+03 -1.892096E+05 -5.138334E+03  8.581009E+04 -4.842205E+03 -1.551340E+03
       391   5 -2.021653E+02 -1.889590E+05 -4.655858E+03  5.600556E+04  1.728638E+03  8.077213E+02
       391   6 -1.591808E+03 -1.892125E+05 -6.219566E+03  8.580911E+04  8.220555E+03  3.166893E+03
       391   7  2.359732E+04 -8.783694E+04  1.748373E+04  8.509916E+04 -4.827809E+03 -7.266992E+03
       391   8 -8.752216E+03 -2.239282E+05 -1.242676E+04  5.610294E+04  1.743010E+03 -4.839061E+03
       391   9 -4.351081E+04 -3.605183E+05 -4.443200E+04  8.671485E+04  8.234842E+03 -2.411534E+03
       391  10 -2.601483E+04 -2.905727E+05 -2.776100E+04  8.652093E+04 -1.131452E-09  8.515588E-09
       391  11  8.347805E+03 -1.539886E+05  3.115000E+03  5.590817E+04  3.844523E-09  3.623909E-09
       391  12  4.032512E+04 -1.787931E+04  3.199087E+04  8.490308E+04 -3.045278E-09  2.661146E-11
       391  13 -1.208426E+03 -1.892097E+05 -5.138383E+03  8.581008E+04 -1.713936E-09 -2.147911E-09
       391  14 -2.021687E+02 -1.889590E+05 -4.655865E+03  5.600556E+04  3.470814E-09  5.090248E-09
       391  15 -1.591883E+03 -1.892125E+05 -6.219712E+03  8.580909E+04  8.816687E-10  2.119183E-09
       391  16  2.359728E+04 -8.783700E+04  1.748359E+04  8.509913E+04 -2.247630E-09 -9.231851E-09
       391  17 -8.752225E+03 -2.239282E+05 -1.242681E+04  5.610295E+04 -9.643349E-10  4.109415E-09
       391  18 -4.351088E+04 -3.605183E+05 -4.443214E+04  8.671486E+04  2.261539E-10  7.384540E-09
       391  19 -2.601480E+04 -2.905727E+05 -2.776092E+04  8.652091E+04  4.856588E+03 -4.163389E+03
       391  20  8.347820E+03 -1.539885E+05  3.115084E+03  5.590818E+04 -1.714265E+03 -6.454819E+03
       391  21  4.032522E+04 -1.787921E+04  3.199114E+04  8.490314E+04 -8.206254E+03 -8.746845E+03
       391  22 -1.208400E+03 -1.892096E+05 -5.138334E+03  8.581009E+04  4.842205E+03  1.551340E+03
       391  23 -2.021653E+02 -1.889590E+05 -4.655858E+03  5.600556E+04 -1.728638E+03 -8.077213E+02
       391  24 -1.591808E+03 -1.892125E+05 -6.219566E+03  8.580911E+04 -8.220555E+03 -3.166893E+03
       391  25  2.359732E+04 -8.783694E+04  1.748373E+04  8.509916E+04  4.827809E+03  7.266992E+03
       391  26 -8.752216E+03 -2.239282E+05 -1.242676E+04  5.610294E+04 -1.743010E+03  4.839061E+03
       391  27 -4.351081E+04 -3.605183E+05 -4.443200E+04  8.671485E+04 -8.234842E+03  2.411534E+03
       392   1  7.059908E+04  9.643112E+04  5.647460E+04  8.801860E+04  1.409553E+04  1.428101E+04
       392   2  1.035297E+05  2.343341E+05  8.404283E+04  5.212214E+04  1.794973E+04  6.914142E+03
       392   3  1.186766E+05  3.692634E+05  1.120646E+05  7.514291E+04  6.306697E+03 -4.990682E+02
       392   4  5.219740E+02 -1.902939E+05 -7.257126E+03  8.567347E+04  1.412176E+04  4.268530E+03
       392   5  3.423417E+01 -1.876524E+05 -1.134726E+04  5.618326E+04  1.794133E+04  1.029235E+04
       392   6 -2.056727E+04 -1.903288E+05 -2.428481E+04  8.561391E+04  6.258818E+03  1.627115E+04
       392   7 -6.956062E+04 -4.769420E+05 -7.099359E+04  8.332948E+04  1.414808E+04 -5.739376E+03
       392   8 -1.034734E+05 -6.094734E+05 -1.067487E+05  6.024169E+04  1.793298E+04  1.366828E+04
       392   9 -1.598337E+05 -7.496346E+05 -1.606559E+05  9.607565E+04  6.211484E+03  3.302630E+04
       392  10  7.059881E+04  9.643084E+04  5.647384E+04  8.801844E+04 -2.341143E-09  1.206308E-08
       392  11  1.035293E+05  2.343340E+05  8.404213E+04  5.212204E+04  3.267514E-09  4.038847E-09
       392  12  1.186766E+05  3.692634E+05  1.120646E+05  7.514291E+04  1.049486E-09 -2.476664E-09
       392  13  5.217549E+02 -1.902940E+05 -7.257535E+03  8.567342E+04 -3.175428E-09 -4.216682E-11
       392  14  3.386012E+01 -1.876526E+05 -1.134806E+04  5.618311E+04  4.201703E-09  2.068302E-09
       392  15 -2.056738E+04 -1.903291E+05 -2.428538E+04  8.561383E+04  6.564253E-10 -3.503499E-09
       392  16 -6.956084E+04 -4.769421E+05 -7.099403E+04  8.332955E+04  4.953165E-10 -1.605465E-08
       392  17 -1.034738E+05 -6.094736E+05 -1.067497E+05  6.024149E+04  2.727968E-09 -1.927476E-09
       392  18 -1.598340E+05 -7.496358E+05 -1.606580E+05  9.607548E+04  1.971267E-10  5.468341E-09
       392  19  7.059908E+04  9.643112E+04  5.647460E+04  8.801860E+04 -1.409553E+04 -1.428101E+04
       392  20  1.035297E+05  2.343341E+05  8.404283E+04  5.212214E+04 -1.794973E+04 -6.914142E+03
       392  21  1.186766E+05  3.692634E+05  1.120646E+05  7.514291E+04 -6.306697E+03  4.990682E+02
       392  22  5.219740E+02 -1.902939E+05 -7.257126E+03  8.567347E+04 -1.412176E+04 -4.268530E+03
       392  23  3.423417E+01 -1.876524E+05 -1.134726E+04  5.618326E+04 -1.794133E+04 -1.029235E+04
       392  24 -2.056727E+04 -1.903288E+05 -2.428481E+04  8.561391E+04 -6.258818E+03 -1.627115E+04
       392  25 -6.956062E+04 -4.769420E+05 -7.099359E+04  8.332948E+04 -1.414808E+04  5.739376E+03
       392  26 -1.034734E+05 -6.094734E+05 -1.067487E+05  6.024169E+04 -1.793298E+04 -1.366828E+04
       392  27 -1.598337E+05 -7.496346E+05 -1.606559E+05  9.607565E+04 -6.211484E+03 -3.302630E+04
       393   1  2.226910E+05 -1.146497E+05 -1.072315E+05 -1.664774E+04 -2.328470E+03  7.030150E+03
       393   2  2.630089E+05 -1.227935E+05 -1.013141E+05 -1.379342E+04  3.953354E+03  2.210938E+04
       393   3  3.071135E+05 -1.130543E+05 -9.499468E+04 -2.874841E+04  1.024946E+04  2.310076E+04
       393   4  7.655336E+05  2.017612E+04  2.444732E+04 -2.560235E+04  1.679577E+04  7.047778E+03
       393   5  7.625971E+05 -4.579638E+02  1.107773E+04 -1.668953E+04  1.089997E+04  2.211347E+04
       393   6  7.655535E+05 -1.104222E+03  6.558614E+03 -2.558492E+04  5.017940E+03  2.309649E+04
       393   7  1.308646E+06  1.549808E+05  1.561063E+05 -3.456487E+04  3.593667E+04  7.064848E+03
       393   8  1.262417E+06  1.218605E+05  1.234539E+05 -1.958804E+04  1.785212E+04  2.211748E+04
       393   9  1.224190E+06  1.108318E+05  1.080990E+05 -2.241908E+04 -2.173980E+02  2.309216E+04
       393  10  2.226910E+05 -1.146497E+05 -1.072316E+05 -1.664773E+04  3.295941E-10  8.695143E-11
       393  11  2.630088E+05 -1.227940E+05 -1.013151E+05 -1.379349E+04  6.646193E-10  1.591757E-10
       393  12  3.071132E+05 -1.130549E+05 -9.499588E+04 -2.874860E+04 -2.232589E-10  1.528674E-10
       393  13  7.655333E+05  2.017599E+04  2.444669E+04 -2.560245E+04  1.258964E-11  3.430549E-11
       393  14  7.625968E+05 -4.585210E+02  1.107659E+04 -1.668973E+04 -2.061717E-10  1.362613E-10
       393  15  7.655533E+05 -1.104802E+03  6.557564E+03 -2.558501E+04  3.321512E-11  1.089818E-10
       393  16  1.308645E+06  1.549804E+05  1.561038E+05 -3.456507E+04 -3.323789E-10  3.034312E-11
       393  17  1.262417E+06  1.218599E+05  1.234524E+05 -1.958835E+04 -7.109825E-10  3.033777E-11
       393  18  1.224189E+06  1.108312E+05  1.080980E+05 -2.241908E+04 -1.781215E-10  1.103135E-10
       393  19  2.226910E+05 -1.146497E+05 -1.072315E+05 -1.664774E+04  2.328470E+03 -7.030150E+03
       393  20  2.630089E+05 -1.227935E+05 -1.013141E+05 -1.379342E+04 -3.953354E+03 -2.210938E+04
       393  21  3.071135E+05 -1.130543E+05 -9.499468E+04 -2.874841E+04 -1.024946E+04 -2.310076E+04
       393  22  7.655336E+05  2.017612E+04  2.444732E+04 -2.560235E+04 -1.679577E+04 -7.047778E+03
       393  23  7.625971E+05 -4.579638E+02  1.107773E+04 -1.668953E+04 -1.089997E+04 -2.211347E+04
       393  24  7.655535E+05 -1.104222E+03  6.558614E+03 -2.558492E+04 -5.017940E+03 -2.309649E+04
       393  25  1.308646E+06  1.549808E+05  1.561063E+05 -3.456487E+04 -3.593667E+04 -7.064848E+03
       393  26  1.262417E+06  1.218605E+05  1.234539E+05 -1.958804E+04 -1.785212E+04 -2.211748E+04
       393  27  1.224190E+06  1.108318E+05  1.080990E+05 -2.241908E+04  2.173980E+02 -2.309216E+04
       394   1  3.414234E+05 -1.022425E+05 -8.895972E+04 -2.540762E+04  5.111343E+03  2.041741E+04
       394   2  3.826770E+05 -9.326322E+04 -8.184077E+04 -1.661270E+04  4.232447E+03  1.890943E+04
       394   3  4.244048E+05 -8.315234E+04 -7.384988E+04 -2.593984E+04  3.352722E+03  1.678038E+04
       394   4  7.643754E+05  1.135032E+03  5.231240E+03 -2.565932E+04  4.078619E+03  2.041589E+04
       394   5  7.640977E+05 -9.470303E+01  2.819081E+03 -1.659840E+04  2.662028E+03  1.890800E+04
       394   6  7.643854E+05 -9.990196E+01  1.651520E+03 -2.565883E+04  1.244666E+03  1.677923E+04
       394   7  1.187494E+06  1.045005E+05  9.941102E+04 -2.591121E+04  3.045198E+03  2.041437E+04
       394   8  1.145654E+06  9.306399E+04  8.746990E+04 -1.658410E+04  1.090655E+03  1.890658E+04
       394   9  1.104474E+06  8.294473E+04  7.714574E+04 -2.537767E+04 -8.645310E+02  1.677808E+04
       394  10  3.414233E+05 -1.022430E+05 -8.896055E+04 -2.540771E+04 -1.366633E-10  1.729444E-11
       394  11  3.826769E+05 -9.326361E+04 -8.184147E+04 -1.661276E+04  1.245506E-10  2.306286E-11
       394  12  4.244048E+05 -8.315264E+04 -7.385043E+04 -2.593988E+04 -3.422980E-10  1.217918E-12
       394  13  7.643752E+05  1.134579E+03  5.230425E+03 -2.565939E+04  1.722669E-11  1.060809E-10
       394  14  7.640976E+05 -9.508898E+01  2.818396E+03 -1.659844E+04 -1.709452E-10 -1.860390E-10
       394  15  7.643853E+05 -1.002048E+02  1.650987E+03 -2.565885E+04  2.959922E-11  8.862715E-11
       394  16  1.187494E+06  1.045000E+05  9.941022E+04 -2.591126E+04  9.461845E-11 -4.396985E-11
       394  17  1.145654E+06  9.306361E+04  8.746922E+04 -1.658411E+04 -1.739475E-10 -1.638749E-10
       394  18  1.104474E+06  8.294442E+04  7.714521E+04 -2.537766E+04  2.038078E-10  3.314187E-11
       394  19  3.414234E+05 -1.022425E+05 -8.895972E+04 -2.540762E+04 -5.111343E+03 -2.041741E+04
       394  20  3.826770E+05 -9.326322E+04 -8.184077E+04 -1.661270E+04 -4.232447E+03 -1.890943E+04
       394  21  4.244048E+05 -8.315234E+04 -7.384988E+04 -2.593984E+04 -3.352722E+03 -1.678038E+04
       394  22  7.643754E+05  1.135032E+03  5.231240E+03 -2.565932E+04 -4.078619E+03 -2.041589E+04
       394  23  7.640977E+05 -9.470303E+01  2.819081E+03 -1.659840E+04 -2.662028E+03 -1.890800E+04
       394  24  7.643854E+05 -9.990196E+01  1.651520E+03 -2.565883E+04 -1.244666E+03 -1.677923E+04
       394  25  1.187494E+06  1.045005E+05  9.941102E+04 -2.591121E+04 -3.045198E+03 -2.041437E+04
       394  26  1.145654E+06  9.306399E+04  8.746990E+04 -1.658410E+04 -1.090655E+03 -1.890658E+04
       394  27  1.104474E+06  8.294473E+04  7.714574E+04 -2.537767E+04  8.645310E+02 -1.677808E+04
       395   1  4.590925E+05 -7.448233E+04 -6.630599E+04 -2.567785E+04  2.900991E+03  1.540057E+04
       395   2  5.001076E+05 -6.453355E+04 -5.781993E+04 -1.667906E+04  2.545419E+03  1.317490E+04
       395   3  5.412205E+05 -5.451238E+04 -4.907710E+04 -2.563995E+04  2.189035E+03  1.092749E+04
       395   4  7.642871E+05  3.271345E+01  1.278932E+03 -2.562294E+04  9.867068E+02  1.539971E+04
       395   5  7.642402E+05 -2.839605E+01  7.565624E+02 -1.664333E+04  6.121387E+02  1.317434E+04
       395   6  7.642935E+05 -1.360056E+01  5.042655E+02 -2.562294E+04  2.367823E+02  1.092725E+04
       395   7  1.069569E+06  7.454148E+04  6.885810E+04 -2.556800E+04 -9.285072E+02  1.539885E+04
       395   8  1.028438E+06  6.447205E+04  5.932874E+04 -1.660759E+04 -1.321954E+03  1.317378E+04
       395   9  9.874129E+05  5.448182E+04  5.008254E+04 -2.560593E+04 -1.716164E+03  1.092700E+04
       395  10  4.590924E+05 -7.448259E+04 -6.630645E+04 -2.567789E+04 -1.477459E-10 -2.430445E-11
       395  11  5.001075E+05 -6.453373E+04 -5.782027E+04 -1.667908E+04 -3.838907E-11 -3.977158E-11
       395  12  5.412205E+05 -5.451251E+04 -4.907733E+04 -2.563996E+04 -1.123853E-10 -2.525642E-11
       395  13  7.642871E+05  3.245844E+01  1.278485E+03 -2.562295E+04 -3.407659E-11 -7.426474E-11
       395  14  7.642402E+05 -2.858260E+01  7.562354E+02 -1.664333E+04 -1.517900E-11 -2.930636E-11
       395  15  7.642935E+05 -1.372884E+01  5.040409E+02 -2.562294E+04 -8.244176E-11 -2.515760E-11
       395  16  1.069569E+06  7.454123E+04  6.885766E+04 -2.556799E+04  1.144618E-10  4.755695E-12
       395  17  1.028438E+06  6.447186E+04  5.932841E+04 -1.660757E+04  6.705222E-11 -1.134400E-10
       395  18  9.874128E+05  5.448169E+04  5.008231E+04 -2.560591E+04  1.563863E-10 -2.318951E-11
       395  19  4.590925E+05 -7.448233E+04 -6.630599E+04 -2.567785E+04 -2.900991E+03 -1.540057E+04
       395  20  5.001076E+05 -6.453355E+04 -5.781993E+04 -1.667906E+04 -2.545419E+03 -1.317490E+04
       395  21  5.412205E+05 -5.451238E+04 -4.907710E+04 -2.563995E+04 -2.189035E+03 -1.092749E+04
       395  22  7.642871E+05  3.271345E+01  1.278932E+03 -2.562294E+04 -9.867068E+02 -1.539971E+04
       395  23  7.642402E+05 -2.839605E+01  7.565624E+02 -1.664333E+04 -6.121387E+02 -1.317434E+04
       395  24  7.642935E+05 -1.360056E+01  5.042655E+02 -2.562294E+04 -2.367823E+02 -1.092725E+04
       395  25  1.069569E+06  7.454148E+04  6.885810E+04 -2.556800E+04  9.285072E+02 -1.539885E+04
       395  26  1.028438E+06  6.447205E+04  5.932874E+04 -1.660759E+04  1.321954E+03 -1.317378E+04
       395  27  9.874129E+05  5.448182E+04  5.008254E+04 -2.560593E+04  1.716164E+03 -1.092700E+04
       396   1  5.756949E+05 -4.603590E+04 -4.126503E+04 -2.559773E+04  2.091381E+03  9.616443E+03
       396   2  6.164723E+05 -3.609755E+04 -3.237050E+04 -1.666225E+04  1.890862E+03  7.374067E+03
       396   3  6.572860E+05 -2.614900E+04 -2.334171E+04 -2.557278E+04  1.689882E+03  5.134093E+03
       396   4  7.642820E+05 -5.898611E+00  4.374989E+02 -2.559773E+04  1.516077E+02  9.616353E+03
       396   5  7.642668E+05 -6.775560E+00  4.018318E+02 -1.667485E+04 -4.695281E+01  7.374147E+03
       396   6  7.642855E+05  2.149167E+00  4.989454E+02 -2.559773E+04 -2.459614E+02  5.134351E+03
       396   7  9.529023E+05  4.602172E+04  4.213784E+04 -2.559772E+04 -1.788748E+03  9.616262E+03
       396   8  9.120818E+05  3.608253E+04  3.317283E+04 -1.668745E+04 -1.985224E+03  7.374228E+03
       396   9  8.712956E+05  2.615252E+04  2.433890E+04 -2.562267E+04 -2.182135E+03  5.134609E+03
       396  10  5.756949E+05 -4.603600E+04 -4.126521E+04 -2.559774E+04 -1.175984E-10  3.311201E-11
       396  11  6.164723E+05 -3.609761E+04 -3.237061E+04 -1.666226E+04 -5.838514E-11 -7.539116E-11
       396  12  6.572860E+05 -2.614903E+04 -2.334177E+04 -2.557279E+04 -5.200883E-11 -1.356092E-10
       396  13  7.642820E+05 -5.997954E+00  4.373250E+02 -2.559773E+04  3.452879E-11 -9.188850E-11
       396  14  7.642668E+05 -6.833974E+00  4.017295E+02 -1.667485E+04 -3.296238E-11  1.417800E-10
       396  15  7.642854E+05  2.120833E+00  4.988957E+02 -2.559772E+04  3.050580E-11  5.396877E-12
       396  16  9.529023E+05  4.602162E+04  4.213766E+04 -2.559771E+04  8.898657E-11  1.400591E-10
       396  17  9.120818E+05  3.608247E+04  3.317272E+04 -1.668744E+04  4.486306E-11 -6.579027E-12
       396  18  8.712956E+05  2.615249E+04  2.433884E+04 -2.562266E+04  7.409003E-11  6.491538E-11
       396  19  5.756949E+05 -4.603590E+04 -4.126503E+04 -2.559773E+04 -2.091381E+03 -9.616443E+03
       396  20  6.164723E+05 -3.609755E+04 -3.237050E+04 -1.666225E+04 -1.890862E+03 -7.374067E+03
       396  21  6.572860E+05 -2.614900E+04 -2.334171E+04 -2.557278E+04 -1.689882E+03 -5.134093E+03
       396  22  7.642820E+05 -5.898611E+00  4.374989E+02 -2.559773E+04 -1.516077E+02 -9.616353E+03
       396  23  7.642668E+05 -6.775560E+00  4.018318E+02 -1.667485E+04  4.695281E+01 -7.374147E+03
       396  24  7.642855E+05  2.149167E+00  4.989454E+02 -2.559773E+04  2.459614E+02 -5.134351E+03
       396  25  9.529023E+05  4.602172E+04  4.213784E+04 -2.559772E+04  1.788748E+03 -9.616262E+03
       396  26  9.120818E+05  3.608253E+04  3.317283E+04 -1.668745E+04  1.985224E+03 -7.374228E+03
       396  27  8.712956E+05  2.615252E+04  2.433890E+04 -2.562267E+04  2.182135E+03 -5.134609E+03
       397   1  6.916189E+05 -1.772057E+04 -1.539727E+04 -2.555986E+04  1.587911E+03  3.831864E+03
       397   2  7.322674E+05 -7.819836E+03 -6.136812E+03 -1.665010E+04  1.112912E+03  1.596287E+03
       397   3  7.729807E+05  2.112085E+03  3.438753E+03 -2.553339E+04  6.377855E+02 -6.376928E+02
       397   4  7.642934E+05  2.217260E+00  6.010286E+02 -2.558600E+04 -3.460472E+02  3.832189E+03
       397   5  7.642621E+05 -7.420513E+00  9.571618E+02 -1.668950E+04 -8.197411E+02  1.596645E+03
       397   6  7.642939E+05  1.400471E+01  1.627557E+03 -2.558599E+04 -1.293531E+03 -6.372939E+02
       397   7  8.369728E+05  1.772466E+04  1.659902E+04 -2.561215E+04 -2.280229E+03  3.832513E+03
       397   8  7.962578E+05  7.804928E+03  8.051086E+03 -1.672890E+04 -2.752492E+03  1.597004E+03
       397   9  7.556072E+05 -2.084079E+03 -1.836297E+02 -2.563859E+04 -3.224822E+03 -6.368946E+02
       397  10  6.916189E+05 -1.772059E+04 -1.539731E+04 -2.555986E+04 -2.376699E-10 -1.564172E-10
       397  11  7.322674E+05 -7.819839E+03 -6.136819E+03 -1.665010E+04 -2.689444E-10  1.084141E-11
       397  12  7.729807E+05  2.112085E+03  3.438752E+03 -2.553339E+04 -1.441189E-10  5.891576E-11
       397  13  7.642934E+05  2.201452E+00  6.010008E+02 -2.558600E+04 -6.901261E-11 -6.243760E-11
       397  14  7.642621E+05 -7.423431E+00  9.571558E+02 -1.668950E+04  7.320425E-11  4.340365E-11
       397  15  7.642939E+05  1.400383E+01  1.627553E+03 -2.558599E+04  1.239272E-10  1.167734E-10
       397  16  8.369728E+05  1.772464E+04  1.659898E+04 -2.561214E+04  2.602866E-10 -1.757960E-11
       397  17  7.962578E+05  7.804923E+03  8.051067E+03 -1.672890E+04  2.642029E-10 -2.176542E-11
       397  18  7.556072E+05 -2.084082E+03 -1.836499E+02 -2.563860E+04  1.886207E-10  1.159224E-11
       397  19  6.916189E+05 -1.772057E+04 -1.539727E+04 -2.555986E+04 -1.587911E+03 -3.831864E+03
       397  20  7.322674E+05 -7.819836E+03 -6.136812E+03 -1.665010E+04 -1.112912E+03 -1.596287E+03
       397  21  7.729807E+05  2.112085E+03  3.438753E+03 -2.553339E+04 -6.377855E+02  6.376928E+02
       397  22  7.642934E+05  2.217260E+00  6.010286E+02 -2.558600E+04  3.460472E+02 -3.832189E+03
       397  23  7.642621E+05 -7.420513E+00  9.571618E+02 -1.668950E+04  8.197411E+02 -1.596645E+03
       397  24  7.642939E+05  1.400471E+01  1.627557E+03 -2.558599E+04  1.293531E+03  6.372939E+02
       397  25  8.369728E+05  1.772466E+04  1.659902E+04 -2.561215E+04  2.280229E+03 -3.832513E+03
       397  26  7.962578E+05  7.804928E+03  8.051086E+03 -1.672890E+04  2.752492E+03 -1.597004E+03
       397  27  7.556072E+05 -2.084079E+03 -1.836297E+02 -2.563859E+04  3.224822E+03  6.368946E+02
       398   1  8.073343E+05  1.049665E+04  1.177291E+04 -2.547416E+04  3.047964E+02 -1.940053E+03
       398   2  8.478821E+05  2.038599E+04  2.223703E+04 -1.659997E+04 -1.535728E+03 -4.171590E+03
       398   3  8.887689E+05  3.068204E+04  3.399873E+04 -2.553326E+04 -3.376095E+03 -6.386291E+03
       398   4  7.643540E+05 -2.066071E+01  2.128555E+03 -2.558926E+04 -1.632666E+03 -1.939672E+03
       398   5  7.641847E+05 -5.005565E+01  3.678341E+03 -1.668541E+04 -3.458443E+03 -4.171313E+03
       398   6  7.643511E+05  3.250465E+02  6.515881E+03 -2.558918E+04 -5.283945E+03 -6.386111E+03
       398   7  7.213755E+05 -1.053810E+04 -7.515898E+03 -2.570435E+04 -3.569996E+03 -1.939290E+03
       398   8  6.804939E+05 -2.048657E+04 -1.488077E+04 -1.677084E+04 -5.380901E+03 -4.171035E+03
       398   9  6.399478E+05 -3.003299E+04 -2.096790E+04 -2.564510E+04 -7.191417E+03 -6.385930E+03
       398  10  8.073343E+05  1.049665E+04  1.177290E+04 -2.547416E+04  2.207920E-11  7.968425E-11
       398  11  8.478821E+05  2.038597E+04  2.223699E+04 -1.659997E+04 -1.177043E-10 -6.658771E-11
       398  12  8.887689E+05  3.068200E+04  3.399863E+04 -2.553327E+04 -3.965845E-12 -7.086894E-11
       398  13  7.643540E+05 -2.066546E+01  2.128543E+03 -2.558926E+04  1.447185E-10 -2.296467E-11
       398  14  7.641847E+05 -5.007755E+01  3.678286E+03 -1.668542E+04  1.703475E-10 -1.051939E-10
       398  15  7.643511E+05  3.249952E+02  6.515752E+03 -2.558921E+04  5.360196E-11 -2.567770E-11
       398  16  7.213755E+05 -1.053811E+04 -7.515929E+03 -2.570436E+04  2.502861E-11  5.201318E-11
       398  17  6.804939E+05 -2.048659E+04 -1.488085E+04 -1.677085E+04  7.800306E-11 -1.172688E-10
       398  18  6.399477E+05 -3.003305E+04 -2.096808E+04 -2.564513E+04  2.844254E-10  2.537833E-11
       398  19  8.073343E+05  1.049665E+04  1.177291E+04 -2.547416E+04 -3.047964E+02  1.940053E+03
       398  20  8.478821E+05  2.038599E+04  2.223703E+04 -1.659997E+04  1.535728E+03  4.171590E+03
       398  21  8.887689E+05  3.068204E+04  3.399873E+04 -2.553326E+04  3.376095E+03  6.386291E+03
       398  22  7.643540E+05 -2.066071E+01  2.128555E+03 -2.558926E+04  1.632666E+03  1.939672E+03
       398  23  7.641847E+05 -5.005565E+01  3.678341E+03 -1.668541E+04  3.458443E+03  4.171313E+03
       398  24  7.643511E+05  3.250465E+02  6.515881E+03 -2.558918E+04  5.283945E+03  6.386111E+03
       398  25  7.213755E+05 -1.053810E+04 -7.515898E+03 -2.570435E+04  3.569996E+03  1.939290E+03
       398  26  6.804939E+05 -2.048657E+04 -1.488077E+04 -1.677084E+04  5.380901E+03  4.171035E+03
       398  27  6.399478E+05 -3.003299E+04 -2.096790E+04 -2.564510E+04  7.191417E+03  6.385930E+03
       399   1  9.236647E+05  3.843602E+04  4.380902E+04 -2.446180E+04 -4.570107E+03 -7.730563E+03
       399   2  9.632506E+05  4.848709E+04  5.899998E+04 -1.718331E+04 -1.231688E+04 -9.876768E+03
       399   3  1.005481E+06  6.502106E+04  8.085260E+04 -2.777390E+04 -2.006379E+04 -1.160629E+04
       399   4  7.648480E+05 -3.603726E+02  8.491568E+03 -2.560295E+04 -6.606133E+03 -7.730465E+03
       399   5  7.635528E+05 -2.776196E+02  1.468050E+04 -1.666821E+04 -1.399039E+04 -9.876946E+03
       399   6  7.648383E+05  6.226463E+03  2.728123E+04 -2.560278E+04 -2.137428E+04 -1.160672E+04
       399   7  6.060549E+05 -3.915846E+04 -2.682744E+04 -2.674380E+04 -8.641644E+03 -7.730359E+03
       399   8  5.638921E+05 -4.904502E+04 -2.964144E+04 -1.615328E+04 -1.566337E+04 -9.877127E+03
       399   9  5.242495E+05 -5.257204E+04 -2.629375E+04 -2.343251E+04 -2.268426E+04 -1.160716E+04
       399  10  9.236646E+05  3.843595E+04  4.380887E+04 -2.446183E+04 -1.797542E-10 -3.472221E-11
       399  11  9.632504E+05  4.848694E+04  5.899951E+04 -1.718341E+04  9.808350E-11  7.310299E-11
       399  12  1.005481E+06  6.502081E+04  8.085159E+04 -2.777409E+04 -9.790372E-11  1.847363E-11
       399  13  7.648480E+05 -3.604485E+02  8.491374E+03 -2.560299E+04 -1.444694E-10  3.486154E-11
       399  14  7.635526E+05 -2.777769E+02  1.467995E+04 -1.666832E+04  3.374771E-11 -3.304093E-11
       399  15  7.648378E+05  6.226195E+03  2.728012E+04 -2.560298E+04 -1.558977E-10  2.080865E-11
       399  16  6.060548E+05 -3.915854E+04 -2.682770E+04 -2.674386E+04  1.586807E-10  2.165670E-11
       399  17  5.638919E+05 -4.904519E+04 -2.964209E+04 -1.615340E+04 -2.409548E-10 -6.172901E-11
       399  18  5.242489E+05 -5.257232E+04 -2.629497E+04 -2.343272E+04  6.030750E-11 -3.120848E-11
       399  19  9.236647E+05  3.843602E+04  4.380902E+04 -2.446180E+04  4.570107E+03  7.730563E+03
       399  20  9.632506E+05  4.848709E+04  5.899998E+04 -1.718331E+04  1.231688E+04  9.876768E+03
       399  21  1.005481E+06  6.502106E+04  8.085260E+04 -2.777390E+04  2.006379E+04  1.160629E+04
       399  22  7.648480E+05 -3.603726E+02  8.491568E+03 -2.560295E+04  6.606133E+03  7.730465E+03
       399  23  7.635528E+05 -2.776196E+02  1.468050E+04 -1.666821E+04  1.399039E+04  9.876946E+03
       399  24  7.648383E+05  6.226463E+03  2.728123E+04 -2.560278E+04  2.137428E+04  1.160672E+04
       399  25  6.060549E+05 -3.915846E+04 -2.682744E+04 -2.674380E+04  8.641644E+03  7.730359E+03
       399  26  5.638921E+05 -4.904502E+04 -2.964144E+04 -1.615328E+04  1.566337E+04  9.877127E+03
       399  27  5.242495E+05 -5.257204E+04 -2.629375E+04 -2.343251E+04  2.268426E+04  1.160716E+04
       400   1  1.046407E+06  6.180483E+04  9.523185E+04 -1.010324E+04 -2.215709E+04 -1.381997E+04
       400   2  1.071986E+06  7.536586E+04  1.290391E+05 -3.333929E+04 -6.106656E+04 -1.388389E+04
       400   3  1.129070E+06  1.945643E+05  2.145678E+05 -7.423297E+04 -9.998202E+04 -4.521929E+03
       400   4  7.709575E+05 -5.436270E+03  3.421321E+04 -2.554864E+04 -2.627777E+04 -1.382019E+04
       400   5  7.558826E+05 -2.009658E+03  5.790211E+04 -1.673403E+04 -5.702188E+04 -1.388523E+04
       400   6  7.709098E+05  1.056640E+05  1.276639E+05 -2.557442E+04 -8.776883E+04 -4.526253E+03
       400   7  4.955790E+05 -7.268158E+04 -2.680993E+04 -4.098713E+04 -3.039664E+04 -1.382021E+04
       400   8  4.398724E+05 -7.939096E+04 -1.324108E+04 -1.372940E+02 -5.297922E+04 -1.388635E+04
       400   9  4.128724E+05  1.676330E+04  4.075269E+04  2.305601E+04 -7.556265E+04 -4.528668E+03
       400  10  1.046407E+06  6.180449E+04  9.523056E+04 -1.010349E+04 -1.470125E-10  3.894163E-11
       400  11  1.071982E+06  7.536465E+04  1.290318E+05 -3.333998E+04  7.432696E-11 -1.512570E-11
       400  12  1.129059E+06  1.945616E+05  2.145490E+05 -7.423333E+04  1.553661E-10  1.228500E-11
       400  13  7.709567E+05 -5.436660E+03  3.421156E+04 -2.554894E+04 -1.094170E-10  5.047275E-11
       400  14  7.558791E+05 -2.010736E+03  5.789564E+04 -1.673467E+04 -1.983438E-10  1.263776E-10
       400  15  7.709016E+05  1.056620E+05  1.276494E+05 -2.557474E+04 -4.395873E-11  5.042794E-11
       400  16  4.955780E+05 -7.268203E+04 -2.681203E+04 -4.098746E+04  1.763243E-10  1.019719E-10
       400  17  4.398693E+05 -7.939192E+04 -1.324671E+04 -1.378864E+02 -1.520154E-10  2.289080E-10
       400  18  4.128662E+05  1.676175E+04  4.074193E+04  2.305574E+04 -1.487427E-10  1.109871E-10
       400  19  1.046407E+06  6.180483E+04  9.523185E+04 -1.010324E+04  2.215709E+04  1.381997E+04
       400  20  1.071986E+06  7.536586E+04  1.290391E+05 -3.333929E+04  6.106656E+04  1.388389E+04
       400  21  1.129070E+06  1.945643E+05  2.145678E+05 -7.423297E+04  9.998202E+04  4.521929E+03
       400  22  7.709575E+05 -5.436270E+03  3.421321E+04 -2.554864E+04  2.627777E+04  1.382019E+04
       400  23  7.558826E+05 -2.009658E+03  5.790211E+04 -1.673403E+04  5.702188E+04  1.388523E+04
       400  24  7.709098E+05  1.056640E+05  1.276639E+05 -2.557442E+04  8.776883E+04  4.526253E+03
       400  25  4.955790E+05 -7.268158E+04 -2.680993E+04 -4.098713E+04  3.039664E+04  1.382021E+04
       400  26  4.398724E+05 -7.939096E+04 -1.324108E+04 -1.372940E+02  5.297922E+04  1.388635E+04
       400  27  4.128724E+05  1.676330E+04  4.075269E+04  2.305601E+04  7.556265E+04  4.528668E+03
       401   1 -2.396839E+05 -9.976938E+04 -9.648088E+04 -2.162107E+04 -1.115221E+04  5.359394E+03
       401   2 -2.017351E+05 -9.303640E+04 -8.314516E+04 -1.482792E+04 -2.921090E+03  1.674991E+04
       401   3 -1.641850E+05 -8.386769E+04 -7.454913E+04 -2.403227E+04  5.313998E+03  1.722981E+04
       401   4  1.781006E+05  4.077564E+03  4.953704E+03 -2.342258E+04  3.398028E+03  5.363543E+03
       401   5  1.774866E+05 -1.127362E+02  2.240900E+03 -1.542365E+04  2.205438E+03  1.675007E+04
       401   6  1.781091E+05 -2.318005E+02  1.333258E+03 -2.342167E+04  1.016442E+03  1.722899E+04
       401   7  5.960450E+05  1.079118E+05  1.063765E+05 -2.522532E+04  1.795803E+04  5.367606E+03
       401   8  5.568421E+05  9.280109E+04  8.761789E+04 -1.601974E+04  7.335067E+03  1.675021E+04
       401   9  5.205125E+05  8.339619E+04  7.720845E+04 -2.281074E+04 -3.283458E+03  1.722816E+04
       401  10 -2.396841E+05 -9.976944E+04 -9.648117E+04 -2.162102E+04  5.618995E-11  6.446668E-11
       401  11 -2.017352E+05 -9.303670E+04 -8.314571E+04 -1.482788E+04  2.728547E-10 -1.519171E-10
       401  12 -1.641851E+05 -8.386802E+04 -7.454975E+04 -2.403234E+04 -3.533427E-11 -8.301888E-11
       401  13  1.781006E+05  4.077530E+03  4.953628E+03 -2.342259E+04 -1.599754E-11 -3.079362E-11
       401  14  1.774865E+05 -1.130388E+02  2.240364E+03 -1.542368E+04 -5.801614E-11  1.983802E-11
       401  15  1.781090E+05 -2.321196E+02  1.332698E+03 -2.342169E+04  9.165876E-11 -6.772791E-11
       401  16  5.960446E+05  1.079117E+05  1.063758E+05 -2.522539E+04  6.468137E-11  1.334208E-10
       401  17  5.568420E+05  9.280077E+04  8.761726E+04 -1.601984E+04 -4.695176E-10 -7.968584E-11
       401  18  5.205124E+05  8.339587E+04  7.720787E+04 -2.281069E+04 -2.061362E-10 -5.236241E-11
       401  19 -2.396839E+05 -9.976938E+04 -9.648088E+04 -2.162107E+04  1.115221E+04 -5.359394E+03
       401  20 -2.017351E+05 -9.303640E+04 -8.314516E+04 -1.482792E+04  2.921090E+03 -1.674991E+04
       401  21 -1.641850E+05 -8.386769E+04 -7.454913E+04 -2.403227E+04 -5.313998E+03 -1.722981E+04
       401  22  1.781006E+05  4.077564E+03  4.953704E+03 -2.342258E+04 -3.398028E+03 -5.363543E+03
       401  23  1.774866E+05 -1.127362E+02  2.240900E+03 -1.542365E+04 -2.205438E+03 -1.675007E+04
       401  24  1.781091E+05 -2.318005E+02  1.333258E+03 -2.342167E+04 -1.016442E+03 -1.722899E+04
       401  25  5.960450E+05  1.079118E+05  1.063765E+05 -2.522532E+04 -1.795803E+04 -5.367606E+03
       401  26  5.568421E+05  9.280109E+04  8.761789E+04 -1.601974E+04 -7.335067E+03 -1.675021E+04
       401  27  5.205125E+05  8.339619E+04  7.720845E+04 -2.281074E+04  3.283458E+03 -1.722816E+04
       402   1 -1.324966E+05 -7.567955E+04 -6.809587E+04 -2.342464E+04  1.878586E+03  1.498560E+04
       402   2 -9.497925E+04 -6.669541E+04 -6.000887E+04 -1.526613E+04  2.008256E+03  1.352213E+04
       402   3 -5.740555E+04 -5.752688E+04 -5.195432E+04 -2.351840E+04  2.137214E+03  1.157218E+04
       402   4  1.778673E+05  2.246541E+02  1.064736E+03 -2.351375E+04  8.247893E+02  1.498510E+04
       402   5  1.778066E+05 -2.253511E+01  5.788943E+02 -1.530859E+04  5.340544E+02  1.352188E+04
       402   6  1.778733E+05 -1.245052E+01  3.523951E+02 -2.351377E+04  2.425939E+02  1.157229E+04
       402   7  4.883210E+05  7.612233E+04  7.021932E+04 -2.360289E+04 -2.295289E+02  1.498459E+04
       402   8  4.506618E+05  6.664531E+04  6.116204E+04 -1.535106E+04 -9.407879E+02  1.352164E+04
       402   9  4.132037E+05  5.749823E+04  5.265567E+04 -2.350914E+04 -1.652736E+03  1.157240E+04
       402  10 -1.324966E+05 -7.567980E+04 -6.809630E+04 -2.342467E+04 -1.040754E-10 -3.277801E-11
       402  11 -9.497930E+04 -6.669561E+04 -6.000922E+04 -1.526615E+04 -1.227668E-10 -7.283317E-11
       402  12 -5.740559E+04 -5.752702E+04 -5.195458E+04 -2.351842E+04 -1.275968E-10  8.712203E-11
       402  13  1.778673E+05  2.244127E+02  1.064313E+03 -2.351376E+04 -3.013660E-10 -1.302725E-10
       402  14  1.778065E+05 -2.273154E+01  5.785501E+02 -1.530859E+04  2.227189E-10 -6.690157E-11
       402  15  1.778732E+05 -1.259435E+01  3.521433E+02 -2.351377E+04 -3.319712E-10  2.404310E-11
       402  16  4.883210E+05  7.612209E+04  7.021890E+04 -2.360289E+04 -9.787613E-11  1.128722E-11
       402  17  4.506618E+05  6.664511E+04  6.116169E+04 -1.535105E+04 -3.101810E-11 -6.554880E-11
       402  18  4.132037E+05  5.749809E+04  5.265542E+04 -2.350912E+04  1.595053E-10  5.129022E-11
       402  19 -1.324966E+05 -7.567955E+04 -6.809587E+04 -2.342464E+04 -1.878586E+03 -1.498560E+04
       402  20 -9.497925E+04 -6.669541E+04 -6.000887E+04 -1.526613E+04 -2.008256E+03 -1.352213E+04
       402  21 -5.740555E+04 -5.752688E+04 -5.195432E+04 -2.351840E+04 -2.137214E+03 -1.157218E+04
       402  22  1.778673E+05  2.246541E+02  1.064736E+03 -2.351375E+04 -8.247893E+02 -1.498510E+04
       402  23  1.778066E+05 -2.253511E+01  5.788943E+02 -1.530859E+04 -5.340544E+02 -1.352188E+04
       402  24  1.778733E+05 -1.245052E+01  3.523951E+02 -2.351377E+04 -2.425939E+02 -1.157229E+04
       402  25  4.883210E+05  7.612233E+04  7.021932E+04 -2.360289E+04  2.295289E+02 -1.498459E+04
       402  26  4.506618E+05  6.664531E+04  6.116204E+04 -1.535106E+04  9.407879E+02 -1.352164E+04
       402  27  4.132037E+05  5.749823E+04  5.265567E+04 -2.350914E+04  1.652736E+03 -1.157240E+04
       403   1 -2.578599E+04 -4.972893E+04 -4.481575E+04 -2.347390E+04  1.934927E+03  1.032534E+04
       403   2  1.168298E+04 -4.060251E+04 -3.668008E+04 -1.527486E+04  1.857397E+03  8.290943E+03
       403   3  4.916802E+04 -3.145320E+04 -2.848856E+04 -2.347501E+04  1.779398E+03  6.235675E+03
       403   4  1.778521E+05  1.507651E+01  2.815976E+02 -2.351122E+04  1.863088E+02  1.032557E+04
       403   5  1.778450E+05  1.109306E+00  1.923153E+02 -1.531177E+04  9.067095E+01  8.291355E+03
       403   6  1.778557E+05  1.324985E+01  1.714973E+02 -2.351122E+04 -5.430872E+00  6.236276E+03
       403   7  3.815289E+05  4.975629E+04  4.537639E+04 -2.354855E+04 -1.562877E+03  1.032580E+04
       403   8  3.440327E+05  4.060286E+04  3.706301E+04 -1.534868E+04 -1.676523E+03  8.291766E+03
       403   9  3.065588E+05  3.147857E+04  2.883053E+04 -2.354744E+04 -1.790626E+03  6.236877E+03
       403  10 -2.578602E+04 -4.972905E+04 -4.481595E+04 -2.347392E+04  2.397350E-11  2.831903E-11
       403  11  1.168296E+04 -4.060258E+04 -3.668022E+04 -1.527488E+04 -3.924716E-10 -1.355158E-10
       403  12  4.916801E+04 -3.145324E+04 -2.848864E+04 -2.347502E+04 -3.572808E-11 -2.803684E-10
       403  13  1.778521E+05  1.496201E+01  2.813971E+02 -2.351122E+04 -1.304140E-10  4.605756E-11
       403  14  1.778449E+05  1.035475E+00  1.921861E+02 -1.531177E+04 -1.052284E-10 -6.701702E-11
       403  15  1.778557E+05  1.320808E+01  1.714242E+02 -2.351122E+04 -4.561242E-10  2.083822E-10
       403  16  3.815289E+05  4.975618E+04  4.537618E+04 -2.354854E+04 -2.941671E-10  2.186686E-11
       403  17  3.440327E+05  4.060279E+04  3.706287E+04 -1.534866E+04 -7.880406E-11 -2.914043E-10
       403  18  3.065588E+05  3.147853E+04  2.883045E+04 -2.354743E+04  5.816478E-11 -1.414940E-10
       403  19 -2.578599E+04 -4.972893E+04 -4.481575E+04 -2.347390E+04 -1.934927E+03 -1.032534E+04
       403  20  1.168298E+04 -4.060251E+04 -3.668008E+04 -1.527486E+04 -1.857397E+03 -8.290943E+03
       403  21  4.916802E+04 -3.145320E+04 -2.848856E+04 -2.347501E+04 -1.779398E+03 -6.235675E+03
       403  22  1.778521E+05  1.507651E+01  2.815976E+02 -2.351122E+04 -1.863088E+02 -1.032557E+04
       403  23  1.778450E+05  1.109306E+00  1.923153E+02 -1.531177E+04 -9.067095E+01 -8.291355E+03
       403  24  1.778557E+05  1.324985E+01  1.714973E+02 -2.351122E+04  5.430872E+00 -6.236276E+03
       403  25  3.815289E+05  4.975629E+04  4.537639E+04 -2.354855E+04  1.562877E+03 -1.032580E+04
       403  26  3.440327E+05  4.060286E+04  3.706301E+04 -1.534868E+04  1.676523E+03 -8.291766E+03
       403  27  3.065588E+05  3.147857E+04  2.883053E+04 -2.354744E+04  1.790626E+03 -6.236877E+03
       404   1  8.075706E+04 -2.368910E+04 -2.125875E+04 -2.347728E+04  1.740135E+03  5.034991E+03
       404   2  1.181992E+05 -1.456722E+04 -1.299609E+04 -1.528991E+04  1.621493E+03  2.977246E+03
       404   3  1.556467E+05 -5.430625E+03 -4.656180E+03 -2.348667E+04  1.502681E+03  9.189008E+02
       404   4  1.778544E+05  1.532444E+01  1.795809E+02 -2.350792E+04 -3.775105E+01  5.035666E+03
       404   5  1.778527E+05  8.720271E+00  2.397565E+02 -1.531590E+04 -1.569569E+02  2.977983E+03
       404   6  1.778557E+05  1.715552E+01  3.777687E+02 -2.350791E+04 -2.763263E+02  9.197061E+02
       404   7  2.749605E+05  2.371911E+04  2.161735E+04 -2.353855E+04 -1.815912E+03  5.036341E+03
       404   8  2.375095E+05  1.458442E+04  1.347539E+04 -1.534189E+04 -1.935576E+03  2.978721E+03
       404   9  2.000651E+05  5.464904E+03  5.411697E+03 -2.352916E+04 -2.055396E+03  9.205115E+02
       404  10  8.075705E+04 -2.368913E+04 -2.125881E+04 -2.347729E+04  1.524981E-11 -9.584283E-11
       404  11  1.181992E+05 -1.456723E+04 -1.299611E+04 -1.528992E+04 -6.601457E-10 -9.530242E-11
       404  12  1.556467E+05 -5.430627E+03 -4.656185E+03 -2.348667E+04  1.068079E-10  1.659539E-11
       404  13  1.778544E+05  1.529721E+01  1.795332E+02 -2.350792E+04 -1.068036E-10 -3.020826E-10
       404  14  1.778527E+05  8.710741E+00  2.397398E+02 -1.531590E+04  5.782246E-12  8.743191E-11
       404  15  1.778557E+05  1.715459E+01  3.777670E+02 -2.350791E+04  7.267235E-11 -8.827738E-11
       404  16  2.749605E+05  2.371909E+04  2.161729E+04 -2.353855E+04 -1.074073E-10  4.078976E-11
       404  17  2.375095E+05  1.458441E+04  1.347537E+04 -1.534188E+04  1.697495E-10 -7.675184E-11
       404  18  2.000651E+05  5.464902E+03  5.411687E+03 -2.352916E+04  2.113251E-10 -1.366485E-10
       404  19  8.075706E+04 -2.368910E+04 -2.125875E+04 -2.347728E+04 -1.740135E+03 -5.034991E+03
       404  20  1.181992E+05 -1.456722E+04 -1.299609E+04 -1.528991E+04 -1.621493E+03 -2.977246E+03
       404  21  1.556467E+05 -5.430625E+03 -4.656180E+03 -2.348667E+04 -1.502681E+03 -9.189008E+02
       404  22  1.778544E+05  1.532444E+01  1.795809E+02 -2.350792E+04  3.775105E+01 -5.035666E+03
       404  23  1.778527E+05  8.720271E+00  2.397565E+02 -1.531590E+04  1.569569E+02 -2.977983E+03
       404  24  1.778557E+05  1.715552E+01  3.777687E+02 -2.350791E+04  2.763263E+02 -9.197061E+02
       404  25  2.749605E+05  2.371911E+04  2.161735E+04 -2.353855E+04  1.815912E+03 -5.036341E+03
       404  26  2.375095E+05  1.458442E+04  1.347539E+04 -1.534189E+04  1.935576E+03 -2.978721E+03
       404  27  2.000651E+05  5.464904E+03  5.411697E+03 -2.352916E+04  2.055396E+03 -9.205115E+02
       405   1  1.872346E+05  2.327488E+03  2.672020E+03 -2.349367E+04  1.423667E+03 -2.792121E+02
       405   2  2.246555E+05  1.143910E+04  1.121550E+04 -1.529766E+04  1.012301E+03 -2.337253E+03
       405   3  2.621254E+05  2.058684E+04  2.003205E+04 -2.348487E+04  6.010345E+02 -4.394644E+03
       405   4  1.778652E+05  1.695698E+01  4.868258E+02 -2.350775E+04 -3.553409E+02 -2.784024E+02
       405   5  1.778411E+05  1.079786E+00  8.290346E+02 -1.531610E+04 -7.661762E+02 -2.336497E+03
       405   6  1.778641E+05  2.119698E+01  1.443867E+03 -2.350774E+04 -1.176888E+03 -4.393936E+03
       405   7  1.684958E+05 -2.293579E+03 -1.698363E+03 -2.352184E+04 -2.134322E+03 -2.775927E+02
       405   8  1.310288E+05 -1.143708E+04 -9.557559E+03 -1.533454E+04 -2.544521E+03 -2.335741E+03
       405   9  9.360949E+04 -2.054492E+04 -1.714474E+04 -2.353062E+04 -2.954572E+03 -4.393228E+03
       405  10  1.872346E+05  2.327488E+03  2.672016E+03 -2.349367E+04  5.316143E-11  3.229812E-10
       405  11  2.246555E+05  1.143909E+04  1.121549E+04 -1.529766E+04 -1.845703E-10  5.199178E-10
       405  12  2.621254E+05  2.058682E+04  2.003201E+04 -2.348487E+04  3.213852E-10 -3.296807E-10
       405  13  1.778652E+05  1.695686E+01  4.868254E+02 -2.350775E+04 -1.387998E-10  9.837468E-11
       405  14  1.778411E+05  1.073765E+00  8.290232E+02 -1.531610E+04 -4.492306E-11 -3.224373E-10
       405  15  1.778641E+05  2.117587E+01  1.443828E+03 -2.350775E+04 -1.045621E-10  6.645921E-11
       405  16  1.684958E+05 -2.293580E+03 -1.698371E+03 -2.352184E+04 -2.166195E-10  1.482801E-10
       405  17  1.310288E+05 -1.143709E+04 -9.557581E+03 -1.533455E+04  1.800042E-10 -2.555940E-10
       405  18  9.360948E+04 -2.054495E+04 -1.714479E+04 -2.353063E+04 -2.368813E-10  7.952248E-11
       405  19  1.872346E+05  2.327488E+03  2.672020E+03 -2.349367E+04 -1.423667E+03  2.792121E+02
       405  20  2.246555E+05  1.143910E+04  1.121550E+04 -1.529766E+04 -1.012301E+03  2.337253E+03
       405  21  2.621254E+05  2.058684E+04  2.003205E+04 -2.348487E+04 -6.010345E+02  4.394644E+03
       405  22  1.778652E+05  1.695698E+01  4.868258E+02 -2.350775E+04  3.553409E+02  2.784024E+02
       405  23  1.778411E+05  1.079786E+00  8.290346E+02 -1.531610E+04  7.661762E+02  2.336497E+03
       405  24  1.778641E+05  2.119698E+01  1.443867E+03 -2.350774E+04  1.176888E+03  4.393936E+03
       405  25  1.684958E+05 -2.293579E+03 -1.698363E+03 -2.352184E+04  2.134322E+03  2.775927E+02
       405  26  1.310288E+05 -1.143708E+04 -9.557559E+03 -1.533454E+04  2.544521E+03  2.335741E+03
       405  27  9.360949E+04 -2.054492E+04 -1.714474E+04 -2.353062E+04  2.954572E+03  4.393228E+03
       406   1  2.937739E+05  2.831621E+04  2.770723E+04 -2.343551E+04  3.059200E+02 -5.594905E+03
       406   2  3.310993E+05  3.741848E+04  3.731433E+04 -1.526461E+04 -1.347654E+03 -7.649185E+03
       406   3  3.687312E+05  4.689450E+04  4.808981E+04 -2.348981E+04 -3.000902E+03 -9.683244E+03
       406   4  1.779194E+05 -1.014226E+01  1.898486E+03 -2.351068E+04 -1.478736E+03 -5.594263E+03
       406   5  1.777665E+05 -4.290646E+01  3.295307E+03 -1.531245E+04 -3.114514E+03 -7.648718E+03
       406   6  1.779159E+05  2.951675E+02  5.848455E+03 -2.351056E+04 -4.749867E+03 -9.682945E+03
       406   7  6.207729E+04 -2.833740E+04 -2.391109E+04 -2.358583E+04 -3.263062E+03 -5.593621E+03
       406   8  2.445565E+04 -3.750588E+04 -3.072517E+04 -1.536027E+04 -4.880942E+03 -7.648251E+03
       406   9 -1.286546E+04 -4.630662E+04 -3.639514E+04 -2.353130E+04 -6.498302E+03 -9.682646E+03
       406  10  2.937739E+05  2.831618E+04  2.770717E+04 -2.343551E+04  2.673769E-10 -3.865132E-10
       406  11  3.310993E+05  3.741842E+04  3.731422E+04 -1.526462E+04 -5.153858E-10 -2.714750E-11
       406  12  3.687311E+05  4.689440E+04  4.808962E+04 -2.348983E+04 -2.675813E-10  1.985404E-10
       406  13  1.779193E+05 -1.017646E+01  1.898423E+03 -2.351069E+04 -1.687575E-10  7.968571E-11
       406  14  1.777665E+05 -4.297189E+01  3.295178E+03 -1.531246E+04  4.697042E-11 -2.210211E-10
       406  15  1.779158E+05  2.950607E+02  5.848236E+03 -2.351059E+04  2.034582E-11  6.690571E-12
       406  16  6.207727E+04 -2.833744E+04 -2.391117E+04 -2.358584E+04 -1.246415E-10  1.416560E-10
       406  17  2.445560E+04 -3.750595E+04 -3.072532E+04 -1.536030E+04  4.187574E-11  3.163584E-10
       406  18 -1.286553E+04 -4.630673E+04 -3.639540E+04 -2.353135E+04  4.747787E-10  1.222829E-10
       406  19  2.937739E+05  2.831621E+04  2.770723E+04 -2.343551E+04 -3.059200E+02  5.594905E+03
       406  20  3.310993E+05  3.741848E+04  3.731433E+04 -1.526461E+04  1.347654E+03  7.649185E+03
       406  21  3.687312E+05  4.689450E+04  4.808981E+04 -2.348981E+04  3.000902E+03  9.683244E+03
       406  22  1.779194E+05 -1.014226E+01  1.898486E+03 -2.351068E+04  1.478736E+03  5.594263E+03
       406  23  1.777665E+05 -4.290646E+01  3.295307E+03 -1.531245E+04  3.114514E+03  7.648718E+03
       406  24  1.779159E+05  2.951675E+02  5.848455E+03 -2.351056E+04  4.749867E+03  9.682945E+03
       406  25  6.207729E+04 -2.833740E+04 -2.391109E+04 -2.358583E+04  3.263062E+03  5.593621E+03
       406  26  2.445565E+04 -3.750588E+04 -3.072517E+04 -1.536027E+04  4.880942E+03  7.648251E+03
       406  27 -1.286546E+04 -4.630662E+04 -3.639514E+04 -2.353130E+04  6.498302E+03  9.682646E+03
       407   1  4.008252E+05  5.404532E+04  5.707373E+04 -2.251731E+04 -4.045925E+03 -1.092804E+04
       407   2  4.371719E+05  6.326928E+04  7.091052E+04 -1.579678E+04 -1.108704E+04 -1.287945E+04
       407   3  4.759187E+05  7.834282E+04  9.079582E+04 -2.548244E+04 -1.812781E+04 -1.435988E+04
       407   4  1.783634E+05 -3.214149E+02  7.624809E+03 -2.351310E+04 -5.936305E+03 -1.092784E+04
       407   5  1.771954E+05 -2.528199E+02  1.318558E+04 -1.530942E+04 -1.256777E+04 -1.287962E+04
       407   6  1.783569E+05  5.596030E+03  2.451260E+04 -2.351228E+04 -1.919849E+04 -1.436036E+04
       407   7 -4.405210E+04 -5.469149E+04 -4.182719E+04 -2.450854E+04 -7.826015E+03 -1.092763E+04
       407   8 -8.271811E+04 -6.377949E+04 -4.454356E+04 -1.482226E+04 -1.404790E+04 -1.287980E+04
       407   9 -1.191224E+05 -6.715675E+04 -4.177616E+04 -2.154308E+04 -2.026866E+04 -1.436084E+04
       407  10  4.008251E+05  5.404519E+04  5.707348E+04 -2.251735E+04  1.816050E-10  2.523692E-10
       407  11  4.371717E+05  6.326907E+04  7.090998E+04 -1.579689E+04 -1.569694E-10 -2.083853E-10
       407  12  4.759183E+05  7.834251E+04  9.079482E+04 -2.548265E+04 -2.817940E-10 -5.982710E-11
       407  13  1.783634E+05 -3.215526E+02  7.624518E+03 -2.351316E+04  1.304624E-10  2.299975E-10
       407  14  1.771951E+05 -2.530405E+02  1.318497E+04 -1.530955E+04 -3.346600E-11  8.537828E-11
       407  15  1.783565E+05  5.595709E+03  2.451152E+04 -2.351250E+04  1.704624E-10 -8.349637E-11
       407  16 -4.405220E+04 -5.469164E+04 -4.182753E+04 -2.450860E+04 -8.309569E-11  1.489347E-10
       407  17 -8.271836E+04 -6.377972E+04 -4.454424E+04 -1.482240E+04  2.977984E-11 -1.200738E-11
       407  18 -1.191229E+05 -6.715708E+04 -4.177732E+04 -2.154331E+04  3.782993E-10 -7.325074E-11
       407  19  4.008252E+05  5.404532E+04  5.707373E+04 -2.251731E+04  4.045925E+03  1.092804E+04
       407  20  4.371719E+05  6.326928E+04  7.091052E+04 -1.579678E+04  1.108704E+04  1.287945E+04
       407  21  4.759187E+05  7.834282E+04  9.079582E+04 -2.548244E+04  1.812781E+04  1.435988E+04
       407  22  1.783634E+05 -3.214149E+02  7.624809E+03 -2.351310E+04  5.936305E+03  1.092784E+04
       407  23  1.771954E+05 -2.528199E+02  1.318558E+04 -1.530942E+04  1.256777E+04  1.287962E+04
       407  24  1.783569E+05  5.596030E+03  2.451260E+04 -2.351228E+04  1.919849E+04  1.436036E+04
       407  25 -4.405210E+04 -5.469149E+04 -4.182719E+04 -2.450854E+04  7.826015E+03  1.092763E+04
       407  26 -8.271811E+04 -6.377949E+04 -4.454356E+04 -1.482226E+04  1.404790E+04  1.287980E+04
       407  27 -1.191224E+05 -6.715675E+04 -4.177616E+04 -2.154308E+04  2.026866E+04  1.436084E+04
       408   1  5.133436E+05  7.558535E+04  1.037583E+05 -9.561997E+03 -1.938625E+04 -1.657274E+04
       408   2  5.367630E+05  8.793300E+04  1.345112E+05 -3.034137E+04 -5.616184E+04 -1.617388E+04
       408   3  5.888411E+05  1.955650E+05  2.130271E+05 -6.714892E+04 -9.294363E+04 -5.201106E+03
       408   4  1.838549E+05 -4.889702E+03  3.074279E+04 -2.342402E+04 -2.360271E+04 -1.657293E+04
       408   5  1.703054E+05 -1.820201E+03  5.203158E+04 -1.541952E+04 -5.122434E+04 -1.617527E+04
       408   6  1.838397E+05  9.497248E+04  1.147453E+05 -2.344073E+04 -7.884922E+04 -5.204301E+03
       408   7 -1.455321E+05 -8.537135E+04 -4.227930E+04 -3.727861E+04 -2.781695E+04 -1.657293E+04
       408   8 -1.960269E+05 -9.158175E+04 -3.045642E+04 -5.065619E+02 -4.628972E+04 -1.617641E+04
       408   9 -2.210075E+05 -5.624783E+03  1.645342E+04  2.023887E+04 -6.476395E+04 -5.205517E+03
       408  10  5.133432E+05  7.558495E+04  1.037571E+05 -9.562256E+03  9.248812E-11  3.494846E-11
       408  11  5.367596E+05  8.793187E+04  1.345048E+05 -3.034210E+04  1.560039E-10  9.839389E-12
       408  12  5.888318E+05  1.955627E+05  2.130108E+05 -6.714931E+04 -1.891259E-10 -5.524981E-11
       408  13  1.838542E+05 -4.890146E+03  3.074123E+04 -2.342434E+04  6.789705E-11  3.860985E-11
       408  14  1.703025E+05 -1.821186E+03  5.202616E+04 -1.542019E+04 -2.215166E-10  2.303381E-10
       408  15  1.838330E+05  9.497079E+04  1.147336E+05 -2.344106E+04 -1.535322E-10 -5.198284E-11
       408  16 -1.455330E+05 -8.537185E+04 -4.228127E+04 -3.727899E+04  1.029263E-10 -5.724380E-11
       408  17 -1.960293E+05 -9.158260E+04 -3.046094E+04 -5.071650E+02 -5.270742E-10  5.335803E-11
       408  18 -2.210120E+05 -5.625939E+03  1.644548E+04  2.023860E+04 -1.172147E-10 -1.395120E-10
       408  19  5.133436E+05  7.558535E+04  1.037583E+05 -9.561997E+03  1.938625E+04  1.657274E+04
       408  20  5.367630E+05  8.793300E+04  1.345112E+05 -3.034137E+04  5.616184E+04  1.617388E+04
       408  21  5.888411E+05  1.955650E+05  2.130271E+05 -6.714892E+04  9.294363E+04  5.201106E+03
       408  22  1.838549E+05 -4.889702E+03  3.074279E+04 -2.342402E+04  2.360271E+04  1.657293E+04
       408  23  1.703054E+05 -1.820201E+03  5.203158E+04 -1.541952E+04  5.122434E+04  1.617527E+04
       408  24  1.838397E+05  9.497248E+04  1.147453E+05 -2.344073E+04  7.884922E+04  5.204301E+03
       408  25 -1.455321E+05 -8.537135E+04 -4.227930E+04 -3.727861E+04  2.781695E+04  1.657293E+04
       408  26 -1.960269E+05 -9.158175E+04 -3.045642E+04 -5.065619E+02  4.628972E+04  1.617641E+04
       408  27 -2.210075E+05 -5.624783E+03  1.645342E+04  2.023887E+04  6.476395E+04  5.205517E+03
       409   1 -1.306629E+06 -1.887293E+05 -2.070940E+05 -7.030439E+04 -9.411461E+04  4.565589E+03
       409   2 -1.252109E+06 -7.705648E+04 -1.264948E+05 -3.196119E+04 -5.723522E+04  1.416176E+04
       409   3 -1.227039E+06 -6.407234E+04 -9.460514E+04 -1.055905E+04 -2.035045E+04  1.420342E+04
       409   4 -9.445862E+05 -9.858910E+04 -1.190387E+05 -2.489203E+04 -8.174863E+04  4.561691E+03
       409   5 -9.305568E+05  1.842564E+03 -5.397450E+04 -1.642986E+04 -5.309830E+04  1.416042E+04
       409   6 -9.445324E+05  5.041361E+03 -3.188069E+04 -2.491105E+04 -2.444549E+04  1.420330E+04
       409   7 -5.824187E+05 -8.450762E+03 -3.099123E+04  2.054693E+04 -6.937542E+04  4.559608E+03
       409   8 -6.089073E+05  8.073542E+04  1.853934E+04 -8.904000E+02 -4.895925E+04  1.415929E+04
       409   9 -6.619505E+05  7.415044E+04  3.083897E+04 -3.926966E+04 -2.854237E+04  1.420338E+04
       409  10 -1.306639E+06 -1.887317E+05 -2.071107E+05 -7.030405E+04  1.744941E-10 -4.011194E-11
       409  11 -1.252113E+06 -7.705758E+04 -1.265013E+05 -3.196054E+04  6.451094E-10 -2.635222E-10
       409  12 -1.227040E+06 -6.407266E+04 -9.460630E+04 -1.055882E+04 -5.922023E-11  1.821701E-10
       409  13 -9.445934E+05 -9.859092E+04 -1.190513E+05 -2.489173E+04 -1.258969E-11 -6.781218E-11
       409  14 -9.305599E+05  1.841590E+03 -5.398019E+04 -1.642926E+04  4.402377E-10 -4.133524E-10
       409  15 -9.445331E+05  5.040984E+03 -3.188219E+04 -2.491077E+04 -5.369668E-11  1.545682E-10
       409  16 -5.824239E+05 -8.452078E+03 -3.100032E+04  2.054719E+04 -2.734090E-10 -1.255549E-10
       409  17 -6.089099E+05  8.073456E+04  1.853446E+04 -8.898416E+02 -1.934097E-10 -1.260107E-10
       409  18 -6.619515E+05  7.415000E+04  3.083705E+04 -3.926933E+04  6.111727E-11  1.431434E-10
       409  19 -1.306629E+06 -1.887293E+05 -2.070940E+05 -7.030439E+04  9.411461E+04 -4.565589E+03
       409  20 -1.252109E+06 -7.705648E+04 -1.264948E+05 -3.196119E+04  5.723522E+04 -1.416176E+04
       409  21 -1.227039E+06 -6.407234E+04 -9.460514E+04 -1.055905E+04  2.035045E+04 -1.420342E+04
       409  22 -9.445862E+05 -9.858910E+04 -1.190387E+05 -2.489203E+04  8.174863E+04 -4.561691E+03
       409  23 -9.305568E+05  1.842564E+03 -5.397450E+04 -1.642986E+04  5.309830E+04 -1.416042E+04
       409  24 -9.445324E+05  5.041361E+03 -3.188069E+04 -2.491105E+04  2.444549E+04 -1.420330E+04
       409  25 -5.824187E+05 -8.450762E+03 -3.099123E+04  2.054693E+04  6.937542E+04 -4.559608E+03
       409  26 -6.089073E+05  8.073542E+04  1.853934E+04 -8.904000E+02  4.895925E+04 -1.415929E+04
       409  27 -6.619505E+05  7.415044E+04  3.083897E+04 -3.926966E+04  2.854237E+04 -1.420338E+04
       410   1 -1.187443E+06 -6.671077E+04 -8.089121E+04 -2.707005E+04 -1.861833E+04  1.201395E+04
       410   2 -1.146101E+06 -5.076519E+04 -6.004014E+04 -1.673382E+04 -1.137013E+04  1.033544E+04
       410   3 -1.107204E+06 -4.087511E+04 -4.542534E+04 -2.394440E+04 -4.122101E+03  8.223335E+03
       410   4 -9.388422E+05 -5.837384E+03 -2.542307E+04 -2.504056E+04 -1.988437E+04  1.201357E+04
       410   5 -9.376470E+05  2.468698E+02 -1.367804E+04 -1.626706E+04 -1.300775E+04  1.033533E+04
       410   6 -9.388316E+05  3.418656E+02 -7.908718E+03 -2.504007E+04 -6.131775E+03  8.223529E+03
       410   7 -6.901839E+05  5.503181E+04  3.004120E+04 -2.301025E+04 -2.115090E+04  1.201319E+04
       410   8 -7.291525E+05  5.125598E+04  3.268136E+04 -1.580013E+04 -1.464592E+04  1.033522E+04
       410   9 -7.704330E+05  4.155692E+04  2.960615E+04 -2.613604E+04 -8.141989E+03  8.223729E+03
       410  10 -1.187443E+06 -6.671102E+04 -8.089214E+04 -2.706987E+04  3.989125E-10  2.719341E-10
       410  11 -1.146101E+06 -5.076534E+04 -6.004058E+04 -1.673372E+04 -2.898075E-10  7.325746E-11
       410  12 -1.107204E+06 -4.087519E+04 -4.542550E+04 -2.394437E+04  4.791058E-10  3.675807E-11
       410  13 -9.388427E+05 -5.837645E+03 -2.542408E+04 -2.504037E+04  1.345591E-10  2.714952E-10
       410  14 -9.376472E+05  2.467097E+02 -1.367856E+04 -1.626695E+04  2.164597E-10  1.115738E-10
       410  15 -9.388317E+05  3.417829E+02 -7.908915E+03 -2.504003E+04  2.699011E-10  5.377402E-11
       410  16 -6.901844E+05  5.503154E+04  3.004009E+04 -2.301005E+04 -3.145001E-10  3.173794E-10
       410  17 -7.291527E+05  5.125581E+04  3.268075E+04 -1.580001E+04  8.649462E-11  1.679679E-10
       410  18 -7.704331E+05  4.155683E+04  2.960590E+04 -2.613598E+04 -2.325706E-10  6.557121E-12
       410  19 -1.187443E+06 -6.671077E+04 -8.089121E+04 -2.707005E+04  1.861833E+04 -1.201395E+04
       410  20 -1.146101E+06 -5.076519E+04 -6.004014E+04 -1.673382E+04  1.137013E+04 -1.033544E+04
       410  21 -1.107204E+06 -4.087511E+04 -4.542534E+04 -2.394440E+04  4.122101E+03 -8.223335E+03
       410  22 -9.388422E+05 -5.837384E+03 -2.542307E+04 -2.504056E+04  1.988437E+04 -1.201357E+04
       410  23 -9.376470E+05  2.468698E+02 -1.367804E+04 -1.626706E+04  1.300775E+04 -1.033533E+04
       410  24 -9.388316E+05  3.418656E+02 -7.908718E+03 -2.504007E+04  6.131775E+03 -8.223529E+03
       410  25 -6.901839E+05  5.503181E+04  3.004120E+04 -2.301025E+04  2.115090E+04 -1.201319E+04
       410  26 -7.291525E+05  5.125598E+04  3.268136E+04 -1.580013E+04  1.464592E+04 -1.033522E+04
       410  27 -7.704330E+05  4.155692E+04  2.960615E+04 -2.613604E+04  8.141989E+03 -8.223729E+03
       411   1 -1.072749E+06 -3.315433E+04 -3.582808E+04 -2.498813E+04 -3.015987E+03  6.892392E+03
       411   2 -1.032230E+06 -2.294722E+04 -2.432397E+04 -1.612945E+04 -1.294512E+03  4.695617E+03
       411   3 -9.920310E+05 -1.311124E+04 -1.403612E+04 -2.494502E+04  4.268190E+02  2.476929E+03
       411   4 -9.383716E+05 -2.971829E+02 -6.072135E+03 -2.506858E+04 -4.902424E+03  6.892669E+03
       411   5 -9.382104E+05  5.551476E+01 -3.434120E+03 -1.623148E+04 -3.199579E+03  4.696004E+03
       411   6 -9.383683E+05  4.036432E+01 -1.999235E+03 -2.506848E+04 -1.496988E+03  2.477434E+03
       411   7 -8.039772E+05  3.255875E+04  2.368270E+04 -2.514905E+04 -6.789265E+03  6.892947E+03
       411   8 -8.441827E+05  2.305765E+04  1.745520E+04 -1.633353E+04 -5.104932E+03  4.696392E+03
       411   9 -8.847029E+05  1.319177E+04  1.003748E+04 -2.519195E+04 -3.420960E+03  2.477940E+03
       411  10 -1.072749E+06 -3.315439E+04 -3.582818E+04 -2.498811E+04 -2.195436E-10 -3.162454E-10
       411  11 -1.032230E+06 -2.294725E+04 -2.432402E+04 -1.612944E+04 -3.602039E-10 -1.969203E-10
       411  12 -9.920310E+05 -1.311125E+04 -1.403613E+04 -2.494502E+04  6.538475E-10  4.572856E-11
       411  13 -9.383716E+05 -2.972404E+02 -6.072269E+03 -2.506855E+04 -1.093249E-10  2.789945E-12
       411  14 -9.382104E+05  5.548834E+01 -3.434180E+03 -1.623147E+04  8.366824E-12 -8.652551E-11
       411  15 -9.383683E+05  4.035713E+01 -1.999251E+03 -2.506848E+04  1.041737E-12 -1.591238E-10
       411  16 -8.039772E+05  3.255868E+04  2.368253E+04 -2.514901E+04  7.250914E-11  1.250045E-10
       411  17 -8.441827E+05  2.305762E+04  1.745511E+04 -1.633351E+04  1.461925E-12  2.840693E-10
       411  18 -8.847029E+05  1.319176E+04  1.003745E+04 -2.519195E+04 -1.993987E-10  1.828797E-10
       411  19 -1.072749E+06 -3.315433E+04 -3.582808E+04 -2.498813E+04  3.015987E+03 -6.892392E+03
       411  20 -1.032230E+06 -2.294722E+04 -2.432397E+04 -1.612945E+04  1.294512E+03 -4.695617E+03
       411  21 -9.920310E+05 -1.311124E+04 -1.403612E+04 -2.494502E+04 -4.268190E+02 -2.476929E+03
       411  22 -9.383716E+05 -2.971829E+02 -6.072135E+03 -2.506858E+04  4.902424E+03 -6.892669E+03
       411  23 -9.382104E+05  5.551476E+01 -3.434120E+03 -1.623148E+04  3.199579E+03 -4.696004E+03
       411  24 -9.383683E+05  4.036432E+01 -1.999235E+03 -2.506848E+04  1.496988E+03 -2.477434E+03
       411  25 -8.039772E+05  3.255875E+04  2.368270E+04 -2.514905E+04  6.789265E+03 -6.892947E+03
       411  26 -8.441827E+05  2.305765E+04  1.745520E+04 -1.633353E+04  5.104932E+03 -4.696392E+03
       411  27 -8.847029E+05  1.319177E+04  1.003748E+04 -2.519195E+04  3.420960E+03 -2.477940E+03
       412   1 -9.578587E+05 -4.750719E+03 -5.767869E+03 -2.502244E+04  7.404444E+02  1.180154E+03
       412   2 -9.174013E+05  5.127657E+03  3.699747E+03 -1.619746E+04  1.203421E+03 -1.043729E+03
       412   3 -8.770171E+05  1.498759E+04  1.285845E+04 -2.507253E+04  1.666489E+03 -3.267765E+03
       412   4 -9.383134E+05  8.067570E+00 -1.540267E+03 -2.507428E+04 -1.178629E+03  1.180685E+03
       412   5 -9.382761E+05  2.092700E+01 -9.374662E+02 -1.622424E+04 -7.158242E+02 -1.043226E+03
       412   6 -9.383136E+05  1.548108E+01 -6.433742E+02 -2.507427E+04 -2.529566E+02 -3.267283E+03
       412   7 -9.187677E+05  4.766831E+03  2.687327E+03 -2.512613E+04 -3.097762E+03  1.181217E+03
       412   8 -9.591506E+05 -5.085830E+03 -5.574693E+03 -1.625101E+04 -2.635005E+03 -1.042723E+03
       412   9 -9.996067E+05 -1.495688E+04 -1.414542E+04 -2.507601E+04 -2.172215E+03 -3.266801E+03
       412  10 -9.578587E+05 -4.750721E+03 -5.767873E+03 -2.502244E+04  1.945122E-10  1.622111E-11
       412  11 -9.174013E+05  5.127655E+03  3.699742E+03 -1.619746E+04 -2.074707E-11  3.084062E-10
       412  12 -8.770171E+05  1.498758E+04  1.285843E+04 -2.507253E+04  4.032635E-10  7.922067E-11
       412  13 -9.383134E+05  8.065700E+00 -1.540272E+03 -2.507428E+04  3.222947E-10  2.101596E-10
       412  14 -9.382761E+05  2.092569E+01 -9.374692E+02 -1.622424E+04 -2.771673E-10 -3.651818E-11
       412  15 -9.383136E+05  1.546960E+01 -6.433944E+02 -2.507427E+04 -3.019577E-10 -6.444341E-11
       412  16 -9.187677E+05  4.766827E+03  2.687306E+03 -2.512613E+04 -4.322233E-10 -4.131332E-10
       412  17 -9.591506E+05 -5.085833E+03 -5.574708E+03 -1.625102E+04 -2.701879E-11  8.595123E-11
       412  18 -9.996067E+05 -1.495689E+04 -1.414545E+04 -2.507602E+04 -4.653407E-10 -1.346496E-10
       412  19 -9.578587E+05 -4.750719E+03 -5.767869E+03 -2.502244E+04 -7.404444E+02 -1.180154E+03
       412  20 -9.174013E+05  5.127657E+03  3.699747E+03 -1.619746E+04 -1.203421E+03  1.043729E+03
       412  21 -8.770171E+05  1.498759E+04  1.285845E+04 -2.507253E+04 -1.666489E+03  3.267765E+03
       412  22 -9.383134E+05  8.067570E+00 -1.540267E+03 -2.507428E+04  1.178629E+03 -1.180685E+03
       412  23 -9.382761E+05  2.092700E+01 -9.374662E+02 -1.622424E+04  7.158242E+02  1.043226E+03
       412  24 -9.383136E+05  1.548108E+01 -6.433742E+02 -2.507427E+04  2.529566E+02  3.267283E+03
       412  25 -9.187677E+05  4.766831E+03  2.687327E+03 -2.512613E+04  3.097762E+03 -1.181217E+03
       412  26 -9.591506E+05 -5.085830E+03 -5.574693E+03 -1.625101E+04  2.635005E+03  1.042723E+03
       412  27 -9.996067E+05 -1.495688E+04 -1.414542E+04 -2.507601E+04  2.172215E+03  3.266801E+03
       413   1 -8.429179E+05  2.337282E+04  2.073014E+04 -2.507318E+04  1.774657E+03 -4.561690E+03
       413   2 -8.026030E+05  3.320148E+04  2.956868E+04 -1.626229E+04  2.052227E+03 -6.780835E+03
       413   3 -7.623245E+05  4.302392E+04  3.822435E+04 -2.509687E+04  2.330217E+03 -8.994736E+03
       413   4 -9.383067E+05  1.509002E+01 -5.750325E+02 -2.506219E+04 -1.430050E+02 -4.561267E+03
       413   5 -9.382893E+05  9.848890E+00 -5.717644E+02 -1.623934E+04  1.390019E+02 -6.780575E+03
       413   6 -9.383099E+05 -2.132116E+00 -7.542504E+02 -2.506219E+04  4.214100E+02 -8.994632E+03
       413   7 -1.033687E+06 -2.334326E+04 -2.188077E+04 -2.505120E+04 -2.060375E+03 -4.560843E+03
       413   8 -1.073958E+06 -3.318302E+04 -3.071334E+04 -1.621640E+04 -1.773810E+03 -6.780314E+03
       413   9 -1.114266E+06 -4.303027E+04 -3.973476E+04 -2.502753E+04 -1.486862E+03 -8.994529E+03
       413  10 -8.429180E+05  2.337280E+04  2.073010E+04 -2.507317E+04 -9.674145E-11 -3.587122E-11
       413  11 -8.026031E+05  3.320143E+04  2.956858E+04 -1.626228E+04 -2.558018E-10 -1.335200E-10
       413  12 -7.623245E+05  4.302383E+04  3.822419E+04 -2.509685E+04  5.022906E-10 -6.341020E-10
       413  13 -9.383067E+05  1.506768E+01 -5.750716E+02 -2.506219E+04  3.307549E-10  2.813839E-10
       413  14 -9.382893E+05  9.799536E+00 -5.718508E+02 -1.623934E+04  4.142305E-10  2.219603E-10
       413  15 -9.383099E+05 -2.219001E+00 -7.544027E+02 -2.506219E+04 -6.504481E-10 -7.069471E-10
       413  16 -1.033687E+06 -2.334328E+04 -2.188082E+04 -2.505121E+04  9.553765E-11  1.373006E-10
       413  17 -1.073958E+06 -3.318307E+04 -3.071343E+04 -1.621641E+04  2.739794E-10  2.879700E-10
       413  18 -1.114266E+06 -4.303036E+04 -3.973491E+04 -2.502754E+04 -7.884810E-10 -3.699087E-10
       413  19 -8.429179E+05  2.337282E+04  2.073014E+04 -2.507318E+04 -1.774657E+03  4.561690E+03
       413  20 -8.026030E+05  3.320148E+04  2.956868E+04 -1.626229E+04 -2.052227E+03  6.780835E+03
       413  21 -7.623245E+05  4.302392E+04  3.822435E+04 -2.509687E+04 -2.330217E+03  8.994736E+03
       413  22 -9.383067E+05  1.509002E+01 -5.750325E+02 -2.506219E+04  1.430050E+02  4.561267E+03
       413  23 -9.382893E+05  9.848890E+00 -5.717644E+02 -1.623934E+04 -1.390019E+02  6.780575E+03
       413  24 -9.383099E+05 -2.132116E+00 -7.542504E+02 -2.506219E+04 -4.214100E+02  8.994632E+03
       413  25 -1.033687E+06 -2.334326E+04 -2.188077E+04 -2.505120E+04  2.060375E+03  4.560843E+03
       413  26 -1.073958E+06 -3.318302E+04 -3.071334E+04 -1.621640E+04  1.773810E+03  6.780314E+03
       413  27 -1.114266E+06 -4.303027E+04 -3.973476E+04 -2.502753E+04  1.486862E+03  8.994529E+03
       414   1 -7.284321E+05  5.137723E+04  4.581394E+04 -2.509240E+04  2.484563E+03 -1.028390E+04
       414   2 -6.883911E+05  6.113263E+04  5.400101E+04 -1.631295E+04  3.201755E+03 -1.248152E+04
       414   3 -6.484543E+05  7.073607E+04  6.168821E+04 -2.503776E+04  3.919738E+03 -1.464486E+04
       414   4 -9.383292E+05  1.137390E+01 -9.243074E+02 -2.503086E+04  5.725184E+02 -1.028393E+04
       414   5 -9.382766E+05  9.223503E+00 -1.505800E+03 -1.627852E+04  1.318974E+03 -1.248186E+04
       414   6 -9.383354E+05 -1.500966E+02 -2.607772E+03 -2.503087E+04  2.066175E+03 -1.464548E+04
       414   7 -1.148185E+06 -5.135747E+04 -4.766530E+04 -2.496934E+04 -1.338886E+03 -1.028397E+04
       414   8 -1.188104E+06 -6.111841E+04 -5.701649E+04 -1.624410E+04 -5.630567E+02 -1.248219E+04
       414   9 -1.228138E+06 -7.104195E+04 -6.690896E+04 -2.502399E+04  2.134687E+02 -1.464609E+04
       414  10 -7.284322E+05  5.137711E+04  4.581373E+04 -2.509238E+04 -1.108597E-09 -3.378470E-10
       414  11 -6.883912E+05  6.113246E+04  5.400070E+04 -1.631292E+04  3.317087E-09  2.552815E-10
       414  12 -6.484544E+05  7.073584E+04  6.168778E+04 -2.503771E+04  6.895956E-09  6.010125E-10
       414  13 -9.383293E+05  1.126029E+01 -9.245067E+02 -2.503086E+04 -4.820027E-10 -5.757224E-10
       414  14 -9.382766E+05  9.055810E+00 -1.506096E+03 -1.627850E+04 -5.816691E-10  1.838165E-10
       414  15 -9.383355E+05 -1.503280E+02 -2.608183E+03 -2.503085E+04  1.013729E-10  4.342241E-10
       414  16 -1.148185E+06 -5.135758E+04 -4.766550E+04 -2.496935E+04  1.435778E-09 -3.052504E-10
       414  17 -1.188104E+06 -6.111858E+04 -5.701678E+04 -1.624410E+04 -4.130456E-09  2.365404E-10
       414  18 -1.228138E+06 -7.104218E+04 -6.690937E+04 -2.502399E+04 -7.262335E-09  5.623552E-10
       414  19 -7.284321E+05  5.137723E+04  4.581394E+04 -2.509240E+04 -2.484563E+03  1.028390E+04
       414  20 -6.883911E+05  6.113263E+04  5.400101E+04 -1.631295E+04 -3.201755E+03  1.248152E+04
       414  21 -6.484543E+05  7.073607E+04  6.168821E+04 -2.503776E+04 -3.919738E+03  1.464486E+04
       414  22 -9.383292E+05  1.137390E+01 -9.243074E+02 -2.503086E+04 -5.725184E+02  1.028393E+04
       414  23 -9.382766E+05  9.223503E+00 -1.505800E+03 -1.627852E+04 -1.318974E+03  1.248186E+04
       414  24 -9.383354E+05 -1.500966E+02 -2.607772E+03 -2.503087E+04 -2.066175E+03  1.464548E+04
       414  25 -1.148185E+06 -5.135747E+04 -4.766530E+04 -2.496934E+04  1.338886E+03  1.028397E+04
       414  26 -1.188104E+06 -6.111841E+04 -5.701649E+04 -1.624410E+04  5.630567E+02  1.248219E+04
       414  27 -1.228138E+06 -7.104195E+04 -6.690896E+04 -2.502399E+04 -2.134687E+02  1.464609E+04
       415   1 -6.150610E+05  7.925932E+04  6.856798E+04 -2.540154E+04  4.616744E+03 -1.597527E+04
       415   2 -5.751286E+05  8.885225E+04  7.483988E+04 -1.606388E+04  7.026248E+03 -1.801336E+04
       415   3 -5.360594E+05  9.598617E+04  7.894143E+04 -2.399026E+04  9.436646E+03 -1.944327E+04
       415   4 -9.385278E+05  1.209053E+02 -3.381592E+03 -2.497774E+04  2.593212E+03 -1.597613E+04
       415   5 -9.380550E+05  7.182924E+01 -5.833889E+03 -1.634502E+04  5.526260E+03 -1.801452E+04
       415   6 -9.385385E+05 -2.528058E+03 -1.082144E+04 -2.497700E+04  8.460051E+03 -1.944456E+04
       415   7 -1.261897E+06 -7.902461E+04 -7.533768E+04 -2.455418E+04  5.707234E+02 -1.597699E+04
       415   8 -1.300858E+06 -8.871752E+04 -8.651586E+04 -1.662601E+04  4.027140E+03 -1.801567E+04
       415   9 -1.340866E+06 -1.010533E+05 -1.005945E+05 -2.596312E+04  7.484082E+03 -1.944586E+04
       415  10 -6.150611E+05  7.925904E+04  6.856746E+04 -2.540148E+04 -6.588017E-09  4.586522E-10
       415  11 -5.751288E+05  8.885189E+04  7.483918E+04 -1.606377E+04 -3.117181E-09 -1.172621E-10
       415  12 -5.360596E+05  9.598574E+04  7.894055E+04 -2.399011E+04  8.202643E-10 -1.373370E-10
       415  13 -9.385279E+05  1.206295E+02 -3.382084E+03 -2.497771E+04  2.607118E-11  3.277960E-10
       415  14 -9.380551E+05  7.147270E+01 -5.834556E+03 -1.634494E+04 -3.258608E-10  1.050376E-10
       415  15 -9.385387E+05 -2.528483E+03 -1.082229E+04 -2.497687E+04  1.934056E-10 -2.006307E-10
       415  16 -1.261897E+06 -7.902488E+04 -7.533816E+04 -2.455417E+04  6.209924E-09  4.266618E-10
       415  17 -1.300858E+06 -8.871788E+04 -8.651650E+04 -1.662595E+04  2.988217E-09  2.148523E-11
       415  18 -1.340867E+06 -1.010537E+05 -1.005953E+05 -2.596300E+04 -1.224234E-09  1.001698E-10
       415  19 -6.150610E+05  7.925932E+04  6.856798E+04 -2.540154E+04 -4.616744E+03  1.597527E+04
       415  20 -5.751286E+05  8.885225E+04  7.483988E+04 -1.606388E+04 -7.026248E+03  1.801336E+04
       415  21 -5.360594E+05  9.598617E+04  7.894143E+04 -2.399026E+04 -9.436646E+03  1.944327E+04
       415  22 -9.385278E+05  1.209053E+02 -3.381592E+03 -2.497774E+04 -2.593212E+03  1.597613E+04
       415  23 -9.380550E+05  7.182924E+01 -5.833889E+03 -1.634502E+04 -5.526260E+03  1.801452E+04
       415  24 -9.385385E+05 -2.528058E+03 -1.082144E+04 -2.497700E+04 -8.460051E+03  1.944456E+04
       415  25 -1.261897E+06 -7.902461E+04 -7.533768E+04 -2.455418E+04 -5.707234E+02  1.597699E+04
       415  26 -1.300858E+06 -8.871752E+04 -8.651586E+04 -1.662601E+04 -4.027140E+03  1.801567E+04
       415  27 -1.340866E+06 -1.010533E+05 -1.005945E+05 -2.596312E+04 -7.484082E+03  1.944586E+04
       416   1 -5.050984E+05  1.086659E+05  8.312212E+04 -3.074352E+04  1.533530E+04 -2.196945E+04
       416   2 -4.612655E+05  1.169141E+05  8.375240E+04 -9.754051E+03  1.600157E+04 -2.099621E+04
       416   3 -4.272341E+05  8.583992E+04  7.414353E+04 -5.157879E+03  1.665687E+04 -6.664398E+03
       416   4 -9.409544E+05  2.095418E+03 -1.356566E+04 -2.479184E+04  1.040200E+04 -2.197274E+04
       416   5 -9.350622E+05  7.272826E+02 -2.297365E+04 -1.657956E+04  2.259713E+04 -2.099328E+04
       416   6 -9.409850E+05 -4.198314E+04 -5.064137E+04 -2.476157E+04  3.478081E+04 -6.650694E+03
       416   7 -1.376633E+06 -1.044878E+05 -1.102651E+05 -1.884440E+04  5.472119E+03 -2.197613E+04
       416   8 -1.408650E+06 -1.154747E+05 -1.297139E+05 -2.339984E+04  2.918770E+04 -2.099049E+04
       416   9 -1.454493E+06 -1.698240E+05 -1.754439E+05 -4.434903E+04  5.288978E+04 -6.638130E+03
       416  10 -5.050987E+05  1.086653E+05  8.312077E+04 -3.074325E+04  3.440525E-11  1.027474E-10
       416  11 -4.612659E+05  1.169135E+05  8.375109E+04 -9.753780E+03  7.890145E-10  4.531187E-10
       416  12 -4.272344E+05  8.583980E+04  7.414293E+04 -5.157790E+03  3.053537E-10  5.983017E-10
       416  13 -9.409547E+05  2.094870E+03 -1.356677E+04 -2.479165E+04  6.563436E-10 -7.582758E-10
       416  14 -9.350629E+05  7.266722E+02 -2.297544E+04 -1.657918E+04 -1.667530E-10  4.912751E-10
       416  15 -9.409863E+05 -4.198352E+04 -5.064373E+04 -2.476139E+04  1.516112E-10 -1.601925E-10
       416  16 -1.376633E+06 -1.044883E+05 -1.102661E+05 -1.884430E+04  1.021937E-10  1.390604E-10
       416  17 -1.408651E+06 -1.154754E+05 -1.297163E+05 -2.339935E+04 -4.938497E-10  2.782458E-11
       416  18 -1.454496E+06 -1.698248E+05 -1.754493E+05 -4.434874E+04 -1.248615E-09  8.281539E-10
       416  19 -5.050984E+05  1.086659E+05  8.312212E+04 -3.074352E+04 -1.533530E+04  2.196945E+04
       416  20 -4.612655E+05  1.169141E+05  8.375240E+04 -9.754051E+03 -1.600157E+04  2.099621E+04
       416  21 -4.272341E+05  8.583992E+04  7.414353E+04 -5.157879E+03 -1.665687E+04  6.664398E+03
       416  22 -9.409544E+05  2.095418E+03 -1.356566E+04 -2.479184E+04 -1.040200E+04  2.197274E+04
       416  23 -9.350622E+05  7.272826E+02 -2.297365E+04 -1.657956E+04 -2.259713E+04  2.099328E+04
       416  24 -9.409850E+05 -4.198314E+04 -5.064137E+04 -2.476157E+04 -3.478081E+04  6.650694E+03
       416  25 -1.376633E+06 -1.044878E+05 -1.102651E+05 -1.884440E+04 -5.472119E+03  2.197613E+04
       416  26 -1.408650E+06 -1.154747E+05 -1.297139E+05 -2.339984E+04 -2.918770E+04  2.099049E+04
       416  27 -1.454493E+06 -1.698240E+05 -1.754439E+05 -4.434903E+04 -5.288978E+04  6.638130E+03
       417   1  9.915779E+05  2.553543E+05  3.337784E+05  1.358655E+05  2.886457E+05  5.884004E+03
       417   2  9.940311E+05 -1.026053E+05  1.123936E+05  3.657092E+04  1.924189E+05  1.729622E+04
       417   3  1.098863E+06 -1.015449E+05  4.340248E+04 -8.574401E+04  9.618770E+04  1.702687E+04
       417   4  1.437425E+06  3.656396E+05  4.418796E+05 -3.250753E+04  3.038458E+05  5.817562E+03
       417   5  1.385534E+06 -6.889212E+03  2.004678E+05 -2.086018E+04  1.974163E+05  1.728095E+04
       417   6  1.437685E+06 -1.880141E+04  1.184441E+05 -3.223370E+04  9.099269E+04  1.703174E+04
       417   7  1.883516E+06  4.760171E+05  5.499826E+05 -2.010016E+05  3.190568E+05  5.742934E+03
       417   8  1.777186E+06  8.882885E+04  2.885340E+05 -7.832782E+04  2.024168E+05  1.726478E+04
       417   9  1.776621E+06  6.394505E+04  1.934803E+05  2.130609E+04  8.579487E+04  1.703572E+04
       417  10  9.914885E+05  2.553319E+05  3.336220E+05  1.358641E+05  1.271542E-09 -9.750024E-10
       417  11  9.939913E+05 -1.026156E+05  1.123236E+05  3.656824E+04  5.633837E-10  1.507178E-10
       417  12  1.098853E+06 -1.015477E+05  4.338458E+04 -8.574533E+04 -2.706930E-09 -2.586617E-10
       417  13  1.437326E+06  3.656149E+05  4.417064E+05 -3.250896E+04  4.678623E-10  4.314894E-10
       417  14  1.385492E+06 -6.899965E+03  2.003941E+05 -2.086292E+04  2.639218E-10 -2.884824E-10
       417  15  1.437677E+06 -1.880394E+04  1.184280E+05 -3.223495E+04 -5.345342E-10 -3.083090E-10
       417  16  1.883406E+06  4.759899E+05  5.497918E+05 -2.010031E+05 -7.915774E-10  3.030541E-10
       417  17  1.777142E+06  8.881757E+04  2.884567E+05 -7.833063E+04  5.920369E-10 -1.592304E-10
       417  18  1.776613E+06  6.394277E+04  1.934659E+05  2.130491E+04  2.980527E-09  1.515332E-09
       417  19  9.915779E+05  2.553543E+05  3.337784E+05  1.358655E+05 -2.886457E+05 -5.884004E+03
       417  20  9.940311E+05 -1.026053E+05  1.123936E+05  3.657092E+04 -1.924189E+05 -1.729622E+04
       417  21  1.098863E+06 -1.015449E+05  4.340248E+04 -8.574401E+04 -9.618770E+04 -1.702687E+04
       417  22  1.437425E+06  3.656396E+05  4.418796E+05 -3.250753E+04 -3.038458E+05 -5.817562E+03
       417  23  1.385534E+06 -6.889212E+03  2.004678E+05 -2.086018E+04 -1.974163E+05 -1.728095E+04
       417  24  1.437685E+06 -1.880141E+04  1.184441E+05 -3.223370E+04 -9.099269E+04 -1.703174E+04
       417  25  1.883516E+06  4.760171E+05  5.499826E+05 -2.010016E+05 -3.190568E+05 -5.742934E+03
       417  26  1.777186E+06  8.882885E+04  2.885340E+05 -7.832782E+04 -2.024168E+05 -1.726478E+04
       417  27  1.776621E+06  6.394505E+04  1.934803E+05  2.130609E+04 -8.579487E+04 -1.703572E+04
       418   1  1.122372E+06 -5.028986E+04  2.900372E+04 -2.486444E+04  7.570143E+04  1.421372E+04
       418   2  1.170497E+06 -5.992346E+04 -2.731686E+03 -1.911663E+04  5.057379E+04  1.195822E+04
       418   3  1.227466E+06 -4.744698E+04 -1.258713E+04 -3.631990E+04  2.544423E+04  9.190349E+03
       418   4  1.416504E+06  2.153552E+04  9.445275E+04 -3.229504E+04  7.400495E+04  1.421155E+04
       418   5  1.412066E+06 -9.624283E+02  5.085631E+04 -2.081554E+04  4.842235E+04  1.195692E+04
       418   6  1.416542E+06 -1.277430E+03  2.944677E+04 -3.228599E+04  2.283989E+04  9.189563E+03
       418   7  1.710717E+06  9.335525E+04  1.598964E+05 -3.972920E+04  7.230767E+04  1.420941E+04
       418   8  1.653689E+06  5.799468E+04  1.044407E+05 -2.251512E+04  4.627007E+04  1.195563E+04
       418   9  1.605652E+06  4.488976E+04  7.147847E+04 -2.825085E+04  2.023477E+04  9.188742E+03
       418  10  1.122366E+06 -5.029161E+04  2.899259E+04 -2.486531E+04  2.047627E-10  4.104497E-11
       418  11  1.170494E+06 -5.992430E+04 -2.736752E+03 -1.911712E+04  5.351284E-10  4.012788E-10
       418  12  1.227465E+06 -4.744724E+04 -1.258850E+04 -3.632009E+04 -8.948175E-10 -2.111275E-10
       418  13  1.416498E+06  2.153383E+04  9.444211E+04 -3.229588E+04  4.892956E-10  1.173698E-09
       418  14  1.412063E+06 -9.632097E+02  5.085165E+04 -2.081600E+04  6.856633E-10  3.534430E-10
       418  15  1.416542E+06 -1.277661E+03  2.944563E+04 -3.228616E+04 -4.641075E-10 -5.882618E-10
       418  16  1.710711E+06  9.335363E+04  1.598863E+05 -3.973002E+04 -3.857155E-10  8.785603E-10
       418  17  1.653686E+06  5.799395E+04  1.044364E+05 -2.251556E+04  1.261777E-10 -2.704651E-10
       418  18  1.605651E+06  4.488956E+04  7.147754E+04 -2.825100E+04  4.079500E-10 -4.160790E-10
       418  19  1.122372E+06 -5.028986E+04  2.900372E+04 -2.486444E+04 -7.570143E+04 -1.421372E+04
       418  20  1.170497E+06 -5.992346E+04 -2.731686E+03 -1.911663E+04 -5.057379E+04 -1.195822E+04
       418  21  1.227466E+06 -4.744698E+04 -1.258713E+04 -3.631990E+04 -2.544423E+04 -9.190349E+03
       418  22  1.416504E+06  2.153552E+04  9.445275E+04 -3.229504E+04 -7.400495E+04 -1.421155E+04
       418  23  1.412066E+06 -9.624283E+02  5.085631E+04 -2.081554E+04 -4.842235E+04 -1.195692E+04
       418  24  1.416542E+06 -1.277430E+03  2.944677E+04 -3.228599E+04 -2.283989E+04 -9.189563E+03
       418  25  1.710717E+06  9.335525E+04  1.598964E+05 -3.972920E+04 -7.230767E+04 -1.420941E+04
       418  26  1.653689E+06  5.799468E+04  1.044407E+05 -2.251512E+04 -4.627007E+04 -1.195563E+04
       418  27  1.605652E+06  4.488976E+04  7.147847E+04 -2.825085E+04 -2.023477E+04 -9.188742E+03
       419   1  1.269802E+06 -3.427080E+04 -9.380500E+03 -3.251536E+04  2.069393E+04  7.468178E+03
       419   2  1.321334E+06 -2.286914E+04 -7.741018E+03 -2.120025E+04  1.433732E+04  4.630790E+03
       419   3  1.374056E+06 -1.009923E+04 -1.622884E+03 -3.267162E+04  7.979994E+03  1.773945E+03
       419   4  1.414828E+06  1.091972E+03  2.262327E+04 -3.225237E+04  1.825089E+04  7.467440E+03
       419   5  1.414237E+06 -1.993414E+02  1.284600E+04 -2.085914E+04  1.187595E+04  4.630181E+03
       419   6  1.414836E+06 -1.192475E+02  7.559246E+03 -3.225219E+04  5.500818E+03  1.773475E+03
       419   7  1.559872E+06  3.645333E+04  5.462577E+04 -3.198932E+04  1.580729E+04  7.466700E+03
       419   8  1.507147E+06  2.246988E+04  3.343251E+04 -2.051798E+04  9.414221E+03  4.629570E+03
       419   9  1.455618E+06  9.860622E+03  1.674129E+04 -3.183272E+04  3.021482E+03  1.773001E+03
       419  10  1.269802E+06 -3.427097E+04 -9.381408E+03 -3.251549E+04 -7.601899E-10 -3.626368E-10
       419  11  1.321334E+06 -2.286922E+04 -7.741444E+03 -2.120030E+04 -1.293143E-09 -5.540080E-10
       419  12  1.374056E+06 -1.009925E+04 -1.623009E+03 -3.267164E+04 -4.700594E-10 -1.116952E-10
       419  13  1.414827E+06  1.091823E+03  2.262254E+04 -3.225248E+04 -5.605363E-10 -3.199454E-10
       419  14  1.414237E+06 -1.994022E+02  1.284570E+04 -2.085918E+04 -2.484059E-11  3.141937E-11
       419  15  1.414836E+06 -1.192590E+02  7.559183E+03 -3.225219E+04 -9.191718E-10 -3.890479E-10
       419  16  1.559872E+06  3.645321E+04  5.462520E+04 -3.198942E+04  1.232368E-10 -7.694226E-11
       419  17  1.507147E+06  2.246984E+04  3.343230E+04 -2.051802E+04 -3.735535E-10 -1.541541E-10
       419  18  1.455618E+06  9.860617E+03  1.674127E+04 -3.183273E+04  3.081500E-10  2.216357E-10
       419  19  1.269802E+06 -3.427080E+04 -9.380500E+03 -3.251536E+04 -2.069393E+04 -7.468178E+03
       419  20  1.321334E+06 -2.286914E+04 -7.741018E+03 -2.120025E+04 -1.433732E+04 -4.630790E+03
       419  21  1.374056E+06 -1.009923E+04 -1.622884E+03 -3.267162E+04 -7.979994E+03 -1.773945E+03
       419  22  1.414828E+06  1.091972E+03  2.262327E+04 -3.225237E+04 -1.825089E+04 -7.467440E+03
       419  23  1.414237E+06 -1.993414E+02  1.284600E+04 -2.085914E+04 -1.187595E+04 -4.630181E+03
       419  24  1.414836E+06 -1.192475E+02  7.559246E+03 -3.225219E+04 -5.500818E+03 -1.773475E+03
       419  25  1.559872E+06  3.645333E+04  5.462577E+04 -3.198932E+04 -1.580729E+04 -7.466700E+03
       419  26  1.507147E+06  2.246988E+04  3.343251E+04 -2.051798E+04 -9.414221E+03 -4.629570E+03
       419  27  1.455618E+06  9.860622E+03  1.674129E+04 -3.183272E+04 -3.021482E+03 -1.773001E+03
       420   1  1.417715E+06  7.821266E+02  6.714167E+03 -3.242489E+04  6.759047E+03  1.082962E+02
       420   2  1.469658E+06  1.339773E+04  1.596939E+04 -2.095760E+04  4.908967E+03 -2.749531E+03
       420   3  1.521882E+06  2.609546E+04  2.645116E+04 -3.225768E+04  3.058925E+03 -5.610980E+03
       420   4  1.414634E+06  1.228922E+00  5.884989E+03 -3.224811E+04  4.287333E+03  1.078419E+02
       420   5  1.414495E+06 -6.132710E+01  3.748047E+03 -2.086438E+04  2.434012E+03 -2.750075E+03
       420   6  1.414634E+06 -4.126069E+01  2.839699E+03 -3.224813E+04  5.808795E+02 -5.611603E+03
       420   7  1.411554E+06 -7.796662E+02  5.055833E+03 -3.207134E+04  1.815632E+03  1.073862E+02
       420   8  1.359335E+06 -1.352058E+04 -8.473459E+03 -2.077116E+04 -4.072665E+01 -2.750620E+03
       420   9  1.307396E+06 -2.617875E+04 -2.077244E+04 -3.223858E+04 -1.896744E+03 -5.612227E+03
       420  10  1.417715E+06  7.821144E+02  6.714081E+03 -3.242489E+04 -1.632994E-10 -1.167154E-10
       420  11  1.469658E+06  1.339771E+04  1.596933E+04 -2.095759E+04 -2.230847E-10 -3.077422E-11
       420  12  1.521882E+06  2.609542E+04  2.645108E+04 -3.225767E+04 -9.612574E-10 -4.474403E-10
       420  13  1.414634E+06  1.223988E+00  5.884954E+03 -3.224811E+04  2.020795E-10 -3.308766E-11
       420  14  1.414495E+06 -6.133681E+01  3.748021E+03 -2.086437E+04 -3.260289E-10 -3.880681E-10
       420  15  1.414634E+06 -4.129462E+01  2.839639E+03 -3.224813E+04  6.272431E-10  2.317629E-10
       420  16  1.411554E+06 -7.796671E+02  5.055827E+03 -3.207134E+04  3.422480E-10  2.249178E-10
       420  17  1.359335E+06 -1.352059E+04 -8.473473E+03 -2.077116E+04 -4.481554E-10 -5.476528E-10
       420  18  1.307396E+06 -2.617878E+04 -2.077251E+04 -3.223859E+04  6.385589E-10 -1.438045E-10
       420  19  1.417715E+06  7.821266E+02  6.714167E+03 -3.242489E+04 -6.759047E+03 -1.082962E+02
       420  20  1.469658E+06  1.339773E+04  1.596939E+04 -2.095760E+04 -4.908967E+03  2.749531E+03
       420  21  1.521882E+06  2.609546E+04  2.645116E+04 -3.225768E+04 -3.058925E+03  5.610980E+03
       420  22  1.414634E+06  1.228922E+00  5.884989E+03 -3.224811E+04 -4.287333E+03 -1.078419E+02
       420  23  1.414495E+06 -6.132710E+01  3.748047E+03 -2.086438E+04 -2.434012E+03  2.750075E+03
       420  24  1.414634E+06 -4.126069E+01  2.839699E+03 -3.224813E+04 -5.808795E+02  5.611603E+03
       420  25  1.411554E+06 -7.796662E+02  5.055833E+03 -3.207134E+04 -1.815632E+03 -1.073862E+02
       420  26  1.359335E+06 -1.352058E+04 -8.473459E+03 -2.077116E+04  4.072665E+01  2.750620E+03
       420  27  1.307396E+06 -2.617875E+04 -2.077244E+04 -3.223858E+04  1.896744E+03  5.612227E+03
       421   1  1.565853E+06  3.688310E+04  3.637651E+04 -3.225170E+04  2.558929E+03 -7.278651E+03
       421   2  1.618127E+06  4.961351E+04  4.824610E+04 -2.071016E+04  1.015311E+03 -1.015127E+04
       421   3  1.670656E+06  6.240044E+04  6.114096E+04 -3.207359E+04 -5.276462E+02 -1.303160E+04
       421   4  1.414626E+06 -4.155024E+01  2.727586E+03 -3.227879E+04  7.585860E+01 -7.279398E+03
       421   5  1.414495E+06 -6.573571E+01  3.135216E+03 -2.082606E+04 -1.474107E+03 -1.015233E+04
       421   6  1.414619E+06 -3.207891E+01  4.572845E+03 -3.227878E+04 -3.023285E+03 -1.303297E+04
       421   7  1.263420E+06 -3.696775E+04 -3.092275E+04 -3.230586E+04 -2.406615E+03 -7.280145E+03
       421   8  1.210903E+06 -4.974777E+04 -4.197821E+04 -2.094193E+04 -3.962719E+03 -1.015339E+04
       421   9  1.158643E+06 -6.246900E+04 -5.199928E+04 -3.248388E+04 -5.517908E+03 -1.303433E+04
       421  10  1.565852E+06  3.688304E+04  3.637640E+04 -3.225169E+04 -1.205989E-09 -8.999588E-11
       421  11  1.618127E+06  4.961340E+04  4.824591E+04 -2.071015E+04  9.932659E-10  9.517278E-10
       421  12  1.670656E+06  6.240026E+04  6.114064E+04 -3.207359E+04  4.685823E-11 -2.513653E-10
       421  13  1.414626E+06 -4.160718E+01  2.727486E+03 -3.227879E+04  1.273985E-09  7.462997E-10
       421  14  1.414495E+06 -6.584704E+01  3.135018E+03 -2.082607E+04  7.842497E-10  1.128831E-09
       421  15  1.414619E+06 -3.226388E+01  4.572508E+03 -3.227881E+04  2.725217E-10  2.386486E-11
       421  16  1.263420E+06 -3.696780E+04 -3.092286E+04 -3.230588E+04  1.395391E-09  5.252543E-10
       421  17  1.210903E+06 -4.974789E+04 -4.197844E+04 -2.094196E+04 -6.117767E-10  1.427960E-10
       421  18  1.158643E+06 -6.246919E+04 -5.199966E+04 -3.248394E+04 -6.726404E-10 -4.371074E-10
       421  19  1.565853E+06  3.688310E+04  3.637651E+04 -3.225170E+04 -2.558929E+03  7.278651E+03
       421  20  1.618127E+06  4.961351E+04  4.824610E+04 -2.071016E+04 -1.015311E+03  1.015127E+04
       421  21  1.670656E+06  6.240044E+04  6.114096E+04 -3.207359E+04  5.276462E+02  1.303160E+04
       421  22  1.414626E+06 -4.155024E+01  2.727586E+03 -3.227879E+04 -7.585860E+01  7.279398E+03
       421  23  1.414495E+06 -6.573571E+01  3.135216E+03 -2.082606E+04  1.474107E+03  1.015233E+04
       421  24  1.414619E+06 -3.207891E+01  4.572845E+03 -3.227878E+04  3.023285E+03  1.303297E+04
       421  25  1.263420E+06 -3.696775E+04 -3.092275E+04 -3.230586E+04  2.406615E+03  7.280145E+03
       421  26  1.210903E+06 -4.974777E+04 -4.197821E+04 -2.094193E+04  3.962719E+03  1.015339E+04
       421  27  1.158643E+06 -6.246900E+04 -5.199928E+04 -3.248388E+04  5.517908E+03  1.303433E+04
       422   1  1.715209E+06  7.319906E+04  7.246810E+04 -3.193962E+04 -1.439518E+03 -1.471864E+04
       422   2  1.767809E+06  8.605066E+04  8.793763E+04 -2.034465E+04 -6.234768E+03 -1.761904E+04
       422   3  1.821370E+06  9.991047E+04  1.067931E+05 -3.195146E+04 -1.102902E+04 -2.049883E+04
       422   4  1.414769E+06 -1.233469E+02  5.769340E+03 -3.234463E+04 -3.956385E+03 -1.472028E+04
       422   5  1.414283E+06 -1.910858E+02  9.623667E+03 -2.074357E+04 -8.731428E+03 -1.762122E+04
       422   6  1.414754E+06  7.468100E+02  1.685179E+04 -3.234509E+04 -1.350507E+04 -2.050152E+04
       422   7  1.114414E+06 -7.345184E+04 -6.093501E+04 -3.274945E+04 -6.472049E+03 -1.472192E+04
       422   8  1.060874E+06 -8.644124E+04 -6.869801E+04 -2.114227E+04 -1.122668E+04 -1.762339E+04
       422   9  1.008293E+06 -9.842796E+04 -7.309974E+04 -3.273847E+04 -1.597952E+04 -2.050421E+04
       422  10  1.715209E+06  7.319882E+04  7.246769E+04 -3.193964E+04 -9.561203E-10  5.605189E-10
       422  11  1.767809E+06  8.605032E+04  8.793697E+04 -2.034474E+04 -9.875243E-10 -8.191949E-10
       422  12  1.821369E+06  9.990998E+04  1.067921E+05 -3.195164E+04  3.056457E-10  1.397243E-11
       422  13  1.414769E+06 -1.235839E+02  5.768903E+03 -3.234468E+04  8.423532E-11 -6.525676E-11
       422  14  1.414283E+06 -1.914399E+02  9.622940E+03 -2.074369E+04 -1.017684E-09 -3.972616E-11
       422  15  1.414754E+06  7.463095E+02  1.685066E+04 -3.234531E+04 -2.209243E-10 -4.527344E-10
       422  16  1.114413E+06 -7.345208E+04 -6.093549E+04 -3.274953E+04  7.479363E-10 -6.942134E-10
       422  17  1.060874E+06 -8.644161E+04 -6.869883E+04 -2.114243E+04 -8.506853E-10  1.183889E-10
       422  18  1.008292E+06 -9.842848E+04 -7.310101E+04 -3.273874E+04 -7.120343E-10  4.266225E-10
       422  19  1.715209E+06  7.319906E+04  7.246810E+04 -3.193962E+04  1.439518E+03  1.471864E+04
       422  20  1.767809E+06  8.605066E+04  8.793763E+04 -2.034465E+04  6.234768E+03  1.761904E+04
       422  21  1.821370E+06  9.991047E+04  1.067931E+05 -3.195146E+04  1.102902E+04  2.049883E+04
       422  22  1.414769E+06 -1.233469E+02  5.769340E+03 -3.234463E+04  3.956385E+03  1.472028E+04
       422  23  1.414283E+06 -1.910858E+02  9.623667E+03 -2.074357E+04  8.731428E+03  1.762122E+04
       422  24  1.414754E+06  7.468100E+02  1.685179E+04 -3.234509E+04  1.350507E+04  2.050152E+04
       422  25  1.114414E+06 -7.345184E+04 -6.093501E+04 -3.274945E+04  6.472049E+03  1.472192E+04
       422  26  1.060874E+06 -8.644124E+04 -6.869801E+04 -2.114227E+04  1.122668E+04  1.762339E+04
       422  27  1.008293E+06 -9.842796E+04 -7.309974E+04 -3.273847E+04  1.597952E+04  2.050421E+04
       423   1  1.867791E+06  1.092153E+05  1.221075E+05 -2.919951E+04 -1.418225E+04 -2.229170E+04
       423   2  1.918494E+06  1.226167E+05  1.499168E+05 -2.156658E+04 -3.389738E+04 -2.507727E+04
       423   3  1.976057E+06  1.525901E+05  1.947120E+05 -3.756136E+04 -5.361397E+04 -2.705782E+04
       423   4  1.416032E+06 -1.014936E+03  2.190977E+04 -3.243476E+04 -1.692049E+04 -2.229495E+04
       423   5  1.412642E+06 -7.881664E+02  3.778233E+04 -2.062896E+04 -3.592474E+04 -2.508078E+04
       423   6  1.415993E+06  1.589570E+04  7.015813E+04 -3.245168E+04 -5.492876E+04 -2.706154E+04
       423   7  9.644628E+05 -1.112589E+05 -7.830056E+04 -3.566767E+04 -1.965677E+04 -2.229817E+04
       423   8  9.070280E+05 -1.242103E+05 -7.436796E+04 -1.969217E+04 -3.795047E+04 -2.508430E+04
       423   9  8.562198E+05 -1.208198E+05 -5.441529E+04 -2.734672E+04 -5.624235E+04 -2.706529E+04
       423  10  1.867791E+06  1.092147E+05  1.221062E+05 -2.919976E+04  1.460745E-10 -2.363625E-10
       423  11  1.918492E+06  1.226157E+05  1.499134E+05 -2.156726E+04  1.270405E-09 -8.367882E-10
       423  12  1.976054E+06  1.525886E+05  1.947052E+05 -3.756253E+04  2.042946E-10 -1.935438E-09
       423  13  1.416031E+06 -1.015547E+03  2.190830E+04 -3.243506E+04 -3.341999E-11 -4.471225E-10
       423  14  1.412640E+06 -7.891879E+02  3.777872E+04 -2.062969E+04 -1.401466E-10 -9.722973E-10
       423  15  1.415989E+06  1.589410E+04  7.015109E+04 -3.245288E+04 -8.421708E-11 -1.398830E-09
       423  16  9.644622E+05 -1.112595E+05 -7.830222E+04 -3.566802E+04  5.441704E-10  1.217750E-10
       423  17  9.070263E+05 -1.242113E+05 -7.437184E+04 -1.969294E+04 -5.364495E-10  1.675091E-09
       423  18  8.562162E+05 -1.208215E+05 -5.442260E+04 -2.734795E+04 -5.227431E-10 -5.699938E-10
       423  19  1.867791E+06  1.092153E+05  1.221075E+05 -2.919951E+04  1.418225E+04  2.229170E+04
       423  20  1.918494E+06  1.226167E+05  1.499168E+05 -2.156658E+04  3.389738E+04  2.507727E+04
       423  21  1.976057E+06  1.525901E+05  1.947120E+05 -3.756136E+04  5.361397E+04  2.705782E+04
       423  22  1.416032E+06 -1.014936E+03  2.190977E+04 -3.243476E+04  1.692049E+04  2.229495E+04
       423  23  1.412642E+06 -7.881664E+02  3.778233E+04 -2.062896E+04  3.592474E+04  2.508078E+04
       423  24  1.415993E+06  1.589570E+04  7.015813E+04 -3.245168E+04  5.492876E+04  2.706154E+04
       423  25  9.644628E+05 -1.112589E+05 -7.830056E+04 -3.566767E+04  1.965677E+04  2.229817E+04
       423  26  9.070280E+05 -1.242103E+05 -7.436796E+04 -1.969217E+04  3.795047E+04  2.508430E+04
       423  27  8.562198E+05 -1.208198E+05 -5.441529E+04 -2.734672E+04  5.624235E+04  2.706529E+04
       424   1  2.038224E+06  1.339518E+05  2.221510E+05  7.890850E+03 -6.067767E+04 -3.059754E+04
       424   2  2.054002E+06  1.562857E+05  2.973496E+05 -6.277338E+04 -1.558494E+05 -2.941683E+04
       424   3  2.149966E+06  4.491328E+05  5.020585E+05 -1.572673E+05 -2.510644E+05 -9.668801E+03
       424   4  1.431731E+06 -1.407085E+04  8.797350E+04 -3.236722E+04 -6.754359E+04 -3.060447E+04
       424   5  1.392897E+06 -5.227417E+03  1.488572E+05 -2.068152E+04 -1.465791E+05 -2.941586E+04
       424   6  1.431522E+06  2.714640E+05  3.281488E+05 -3.281303E+04 -2.256465E+05 -9.676268E+03
       424   7  8.255836E+05 -1.621122E+05 -4.622576E+04 -7.258571E+04 -7.440286E+04 -3.061050E+04
       424   8  7.322013E+05 -1.667635E+05  3.384110E+02  2.136505E+04 -1.373185E+05 -2.941363E+04
       424   9  7.135836E+05  9.381617E+04  1.542128E+05  9.149709E+04 -2.002576E+05 -9.673599E+03
       424  10  2.038220E+06  1.339498E+05  2.221424E+05  7.889357E+03  7.398718E-11 -2.923012E-09
       424  11  2.053976E+06  1.562782E+05  2.973025E+05 -6.277707E+04 -5.664268E-10 -4.709382E-09
       424  12  2.149898E+06  4.491158E+05  5.019402E+05 -1.572693E+05 -2.535398E-09 -1.314511E-09
       424  13  1.431726E+06 -1.407307E+04  8.796318E+04 -3.236888E+04 -1.605999E-09 -6.980152E-09
       424  14  1.392874E+06 -5.234098E+03  1.488153E+05 -2.068499E+04  9.257692E-10  2.712178E-09
       424  15  1.431468E+06  2.714502E+05  3.280531E+05 -3.281479E+04 -3.084623E-11 -3.918023E-10
       424  16  8.255774E+05 -1.621147E+05 -4.623791E+04 -7.258755E+04 -2.572969E-10 -1.796548E-09
       424  17  7.321808E+05 -1.667695E+05  3.013943E+02  2.136180E+04 -3.943466E-10  1.309080E-09
       424  18  7.135406E+05  9.380532E+04  1.541373E+05  9.149553E+04  1.138713E-09 -1.625128E-09
       424  19  2.038224E+06  1.339518E+05  2.221510E+05  7.890850E+03  6.067767E+04  3.059754E+04
       424  20  2.054002E+06  1.562857E+05  2.973496E+05 -6.277338E+04  1.558494E+05  2.941683E+04
       424  21  2.149966E+06  4.491328E+05  5.020585E+05 -1.572673E+05  2.510644E+05  9.668801E+03
       424  22  1.431731E+06 -1.407085E+04  8.797350E+04 -3.236722E+04  6.754359E+04  3.060447E+04
       424  23  1.392897E+06 -5.227417E+03  1.488572E+05 -2.068152E+04  1.465791E+05  2.941586E+04
       424  24  1.431522E+06  2.714640E+05  3.281488E+05 -3.281303E+04  2.256465E+05  9.676268E+03
       424  25  8.255836E+05 -1.621122E+05 -4.622576E+04 -7.258571E+04  7.440286E+04  3.061050E+04
       424  26  7.322013E+05 -1.667635E+05  3.384110E+02  2.136505E+04  1.373185E+05  2.941363E+04
       424  27  7.135836E+05  9.381617E+04  1.542128E+05  9.149709E+04  2.002576E+05  9.673599E+03
       425   1  4.630912E+05  1.694987E+05  1.528166E+05  2.862177E+04  2.183784E+04 -1.269783E+04
       425   2  4.011193E+05  1.890973E+05  1.367225E+05  3.904431E+04  2.688403E+03 -4.233916E+04
       425   3  3.348477E+05  1.814178E+05  1.263146E+05  6.392239E+04 -1.649844E+04 -5.002125E+04
       425   4 -4.324197E+05 -5.167169E+04 -5.828136E+04  5.863733E+04 -4.049630E+04 -1.282261E+04
       425   5 -4.273112E+05 -9.468655E+03 -2.802470E+04  5.135251E+04 -2.590343E+04 -4.240538E+04
       425   6 -4.323757E+05 -4.235258E+02 -1.552108E+04  5.852461E+04 -1.135002E+04 -5.001442E+04
       425   7 -1.327183E+06 -2.728938E+05 -2.694195E+05  8.860898E+04 -1.027410E+05 -1.295351E+04
       425   8 -1.255084E+06 -2.080755E+05 -1.928030E+05  6.364358E+04 -5.445789E+04 -4.247277E+04
       425   9 -1.199028E+06 -1.822985E+05 -1.573812E+05  5.313333E+04 -6.207801E+03 -5.000767E+04
       425  10  4.630906E+05  1.694984E+05  1.528154E+05  2.862199E+04  3.183618E-09 -8.856997E-10
       425  11  4.011188E+05  1.890954E+05  1.367192E+05  3.904440E+04  1.653081E-09 -4.805682E-09
       425  12  3.348468E+05  1.814151E+05  1.263094E+05  6.392173E+04  7.965086E-10 -3.976271E-09
       425  13 -4.324215E+05 -5.167231E+04 -5.828476E+04  5.863691E+04 -5.543467E-10  1.039253E-09
       425  14 -4.273124E+05 -9.470766E+03 -2.802934E+04  5.135162E+04  6.325167E-10 -2.924323E-09
       425  15 -4.323765E+05 -4.262460E+02 -1.552603E+04  5.852416E+04 -1.004678E-10  2.125040E-11
       425  16 -1.327194E+06 -2.728968E+05 -2.694397E+05  8.860791E+04 -4.598230E-09  2.373252E-10
       425  17 -1.255087E+06 -2.080782E+05 -1.928120E+05  6.364172E+04 -1.363622E-09 -6.406565E-09
       425  18 -1.199029E+06 -1.823012E+05 -1.573860E+05  5.313308E+04 -1.843584E-09 -6.546989E-09
       425  19  4.630912E+05  1.694987E+05  1.528166E+05  2.862177E+04 -2.183784E+04  1.269783E+04
       425  20  4.011193E+05  1.890973E+05  1.367225E+05  3.904431E+04 -2.688403E+03  4.233916E+04
       425  21  3.348477E+05  1.814178E+05  1.263146E+05  6.392239E+04  1.649844E+04  5.002125E+04
       425  22 -4.324197E+05 -5.167169E+04 -5.828136E+04  5.863733E+04  4.049630E+04  1.282261E+04
       425  23 -4.273112E+05 -9.468655E+03 -2.802470E+04  5.135251E+04  2.590343E+04  4.240538E+04
       425  24 -4.323757E+05 -4.235258E+02 -1.552108E+04  5.852461E+04  1.135002E+04  5.001442E+04
       425  25 -1.327183E+06 -2.728938E+05 -2.694195E+05  8.860898E+04  1.027410E+05  1.295351E+04
       425  26 -1.255084E+06 -2.080755E+05 -1.928030E+05  6.364358E+04  5.445789E+04  4.247277E+04
       425  27 -1.199028E+06 -1.822985E+05 -1.573812E+05  5.313333E+04  6.207801E+03  5.000767E+04
       426   1  2.933718E+05  1.694576E+05  1.212167E+05  5.941830E+04 -1.112153E+04 -4.783868E+04
       426   2  2.295058E+05  1.556451E+05  1.125075E+05  5.202015E+04 -1.049479E+04 -4.580732E+04
       426   3  1.652670E+05  1.408206E+05  1.031297E+05  6.044979E+04 -9.874172E+03 -4.205093E+04
       426   4 -4.302895E+05 -1.903810E+03 -1.189732E+04  5.884748E+04 -9.319986E+03 -4.783911E+04
       426   5 -4.298569E+05 -5.681507E+01 -6.568800E+03  5.093017E+04 -6.045779E+03 -4.580024E+04
       426   6 -4.302608E+05  3.178945E+02 -3.748972E+03  5.884173E+04 -2.777591E+03 -4.203541E+04
       426   7 -1.153443E+06 -1.732950E+05 -1.450329E+05  5.827702E+04 -7.520477E+03 -4.783955E+04
       426   8 -1.088796E+06 -1.557831E+05 -1.256621E+05  4.984111E+04 -1.601359E+03 -4.579316E+04
       426   9 -1.025443E+06 -1.402045E+05 -1.106411E+05  5.723501E+04  4.312377E+03 -4.201992E+04
       426  10  2.933710E+05  1.694551E+05  1.212121E+05  5.941787E+04 -4.271795E-09 -4.535258E-09
       426  11  2.295051E+05  1.556428E+05  1.125034E+05  5.201976E+04 -1.972301E-09  2.210341E-09
       426  12  1.652664E+05  1.408186E+05  1.031261E+05  6.044946E+04 -1.884283E-10  3.494694E-09
       426  13 -4.302902E+05 -1.906290E+03 -1.190179E+04  5.884712E+04 -1.457855E-10 -3.303516E-09
       426  14 -4.298575E+05 -5.907694E+01 -6.572810E+03  5.092995E+04  3.222654E-10  1.777859E-10
       426  15 -4.302613E+05  3.159954E+02 -3.752307E+03  5.884163E+04 -2.773988E-10 -2.780188E-09
       426  16 -1.153443E+06 -1.732975E+05 -1.450373E+05  5.827673E+04  2.561403E-09 -4.542123E-10
       426  17 -1.088797E+06 -1.557853E+05 -1.256660E+05  4.984105E+04  1.227338E-09  1.731921E-09
       426  18 -1.025443E+06 -1.402064E+05 -1.106444E+05  5.723516E+04 -1.384415E-09  3.115894E-10
       426  19  2.933718E+05  1.694576E+05  1.212167E+05  5.941830E+04  1.112153E+04  4.783868E+04
       426  20  2.295058E+05  1.556451E+05  1.125075E+05  5.202015E+04  1.049479E+04  4.580732E+04
       426  21  1.652670E+05  1.408206E+05  1.031297E+05  6.044979E+04  9.874172E+03  4.205093E+04
       426  22 -4.302895E+05 -1.903810E+03 -1.189732E+04  5.884748E+04  9.319986E+03  4.783911E+04
       426  23 -4.298569E+05 -5.681507E+01 -6.568800E+03  5.093017E+04  6.045779E+03  4.580024E+04
       426  24 -4.302608E+05  3.178945E+02 -3.748972E+03  5.884173E+04  2.777591E+03  4.203541E+04
       426  25 -1.153443E+06 -1.732950E+05 -1.450329E+05  5.827702E+04  7.520477E+03  4.783955E+04
       426  26 -1.088796E+06 -1.557831E+05 -1.256621E+05  4.984111E+04  1.601359E+03  4.579316E+04
       426  27 -1.025443E+06 -1.402045E+05 -1.106411E+05  5.723501E+04 -4.312377E+03  4.201992E+04
       427   1  1.226550E+05  1.306019E+05  9.604221E+04  6.016218E+04 -9.042478E+03 -3.934290E+04
       427   2  5.855032E+04  1.154924E+05  8.573017E+04  5.204166E+04 -8.454901E+03 -3.482205E+04
       427   3 -5.692590E+03  1.004393E+05  7.502847E+04  5.988639E+04 -7.869549E+03 -3.016320E+04
       427   4 -4.301051E+05  2.495128E+02 -2.852592E+03  5.887322E+04 -2.204274E+03 -3.932716E+04
       427   5 -4.300051E+05  2.852411E+02 -1.635502E+03  5.089011E+04 -1.405644E+03 -3.480443E+04
       427   6 -4.300843E+05  3.409741E+02 -9.551137E+02  5.887299E+04 -6.091793E+02 -3.014362E+04
       427   7 -9.825670E+05 -1.301199E+05 -1.017589E+05  5.758523E+04  4.628016E+03 -3.931144E+04
       427   8 -9.183275E+05 -1.149351E+05 -8.901009E+04  4.973932E+04  5.638225E+03 -3.478682E+04
       427   9 -8.543002E+05 -9.976737E+04 -7.694539E+04  5.786016E+04  6.646368E+03 -3.012406E+04
       427  10  1.226545E+05  1.306003E+05  9.603915E+04  6.016190E+04 -1.306009E-09  4.895976E-09
       427  11  5.854992E+04  1.154910E+05  8.572775E+04  5.204142E+04  9.532437E-10  3.593592E-09
       427  12 -5.692901E+03  1.004384E+05  7.502664E+04  5.988620E+04  4.647885E-09  5.375171E-10
       427  13 -4.301055E+05  2.478510E+02 -2.855507E+03  5.887315E+04  1.989705E-10 -3.723131E-09
       427  14 -4.300054E+05  2.839401E+02 -1.637782E+03  5.089007E+04  5.965274E-10  3.763487E-09
       427  15 -4.300845E+05  3.399985E+02 -9.568216E+02  5.887297E+04 -5.043246E-10  6.489115E-09
       427  16 -9.825674E+05 -1.301215E+05 -1.017618E+05  5.758538E+04 -4.108322E-10  2.727054E-09
       427  17 -9.183279E+05 -1.149364E+05 -8.901242E+04  4.973948E+04 -1.436472E-09  4.833985E-09
       427  18 -8.543004E+05 -9.976836E+04 -7.694718E+04  5.786033E+04 -5.844476E-09  3.967415E-10
       427  19  1.226550E+05  1.306019E+05  9.604221E+04  6.016218E+04  9.042478E+03  3.934290E+04
       427  20  5.855032E+04  1.154924E+05  8.573017E+04  5.204166E+04  8.454901E+03  3.482205E+04
       427  21 -5.692590E+03  1.004393E+05  7.502847E+04  5.988639E+04  7.869549E+03  3.016320E+04
       427  22 -4.301051E+05  2.495128E+02 -2.852592E+03  5.887322E+04  2.204274E+03  3.932716E+04
       427  23 -4.300051E+05  2.852411E+02 -1.635502E+03  5.089011E+04  1.405644E+03  3.480443E+04
       427  24 -4.300843E+05  3.409741E+02 -9.551137E+02  5.887299E+04  6.091793E+02  3.014362E+04
       427  25 -9.825670E+05 -1.301199E+05 -1.017589E+05  5.758523E+04 -4.628016E+03  3.931144E+04
       427  26 -9.183275E+05 -1.149351E+05 -8.901009E+04  4.973932E+04 -5.638225E+03  3.478682E+04
       427  27 -8.543002E+05 -9.976737E+04 -7.694539E+04  5.786016E+04 -6.646368E+03  3.012406E+04
       428   1 -4.844205E+04  9.029894E+04  6.730266E+04  5.978931E+04 -7.706267E+03 -2.740994E+04
       428   2 -1.126576E+05  7.513698E+04  5.622573E+04  5.163795E+04 -7.505763E+03 -2.268771E+04
       428   3 -1.769763E+05  6.007160E+04  4.501367E+04  5.948386E+04 -7.306503E+03 -1.795323E+04
       428   4 -4.300624E+05  3.431577E+02 -7.411263E+02  5.888010E+04 -4.632975E+02 -2.738975E+04
       428   5 -4.300000E+05  3.079161E+02 -4.693863E+02  5.088121E+04 -2.445021E+02 -2.266659E+04
       428   6 -4.300490E+05  3.659599E+02 -3.459372E+02  5.888006E+04 -2.693108E+01 -1.793116E+04
       428   7 -8.115405E+05 -8.962066E+04 -6.879022E+04  5.797136E+04  6.775347E+03 -2.736957E+04
       428   8 -7.472439E+05 -7.452671E+04 -5.716813E+04  5.012479E+04  7.013152E+03 -2.264547E+04
       428   9 -6.830591E+05 -5.934321E+04 -4.570781E+04  5.827646E+04  7.249757E+03 -1.790911E+04
       428  10 -4.844232E+04  9.029812E+04  6.730113E+04  5.978914E+04  3.360501E-09  1.464910E-09
       428  11 -1.126578E+05  7.513642E+04  5.622465E+04  5.163781E+04  1.010573E-09  1.042823E-08
       428  12 -1.769765E+05  6.007124E+04  4.501297E+04  5.948376E+04 -1.107665E-09  7.307862E-09
       428  13 -4.300626E+05  3.423522E+02 -7.425361E+02  5.888009E+04 -1.520690E-10  2.252917E-09
       428  14 -4.300001E+05  3.073645E+02 -4.703517E+02  5.088120E+04  7.387938E-10  9.223898E-09
       428  15 -4.300491E+05  3.656147E+02 -3.465413E+02  5.888006E+04 -1.483862E-10  2.936374E-09
       428  16 -8.115408E+05 -8.962147E+04 -6.879171E+04  5.797151E+04 -4.969036E-09  1.447463E-09
       428  17 -7.472441E+05 -7.452727E+04 -5.716919E+04  5.012492E+04 -1.582738E-09  2.620850E-09
       428  18 -6.830592E+05 -5.934357E+04 -4.570851E+04  5.827656E+04 -7.603886E-10  1.845545E-09
       428  19 -4.844205E+04  9.029894E+04  6.730266E+04  5.978931E+04  7.706267E+03  2.740994E+04
       428  20 -1.126576E+05  7.513698E+04  5.622573E+04  5.163795E+04  7.505763E+03  2.268771E+04
       428  21 -1.769763E+05  6.007160E+04  4.501367E+04  5.948386E+04  7.306503E+03  1.795323E+04
       428  22 -4.300624E+05  3.431577E+02 -7.411263E+02  5.888010E+04  4.632975E+02  2.738975E+04
       428  23 -4.300000E+05  3.079161E+02 -4.693863E+02  5.088121E+04  2.445021E+02  2.266659E+04
       428  24 -4.300490E+05  3.659599E+02 -3.459372E+02  5.888006E+04  2.693108E+01  1.793116E+04
       428  25 -8.115405E+05 -8.962066E+04 -6.879022E+04  5.797136E+04 -6.775347E+03  2.736957E+04
       428  26 -7.472439E+05 -7.452671E+04 -5.716813E+04  5.012479E+04 -7.013152E+03  2.264547E+04
       428  27 -6.830591E+05 -5.934321E+04 -4.570781E+04  5.827646E+04 -7.249757E+03  1.790911E+04
       429   1 -2.197877E+05  4.992206E+04  3.708585E+04  5.938482E+04 -7.254561E+03 -1.519343E+04
       429   2 -2.840472E+05  3.474617E+04  2.570116E+04  5.121053E+04 -7.081948E+03 -1.045340E+04
       429   3 -3.484237E+05  1.966510E+04  1.419426E+04  5.905111E+04 -6.909886E+03 -5.716854E+03
       429   4 -4.300468E+05  3.704699E+02 -3.278802E+02  5.888391E+04  2.588408E+01 -1.517097E+04
       429   5 -4.299841E+05  3.322811E+02 -3.671145E+02  5.087635E+04  1.928095E+02 -1.043056E+04
       429   6 -4.300406E+05  3.903176E+02 -5.244372E+02  5.888387E+04  3.592020E+02 -5.693625E+03
       429   7 -6.402626E+05 -4.918353E+04 -3.774308E+04  5.838315E+04  7.303934E+03 -1.514853E+04
       429   8 -5.759002E+05 -3.408276E+04 -2.643600E+04  5.054223E+04  7.465905E+03 -1.040773E+04
       429   9 -5.116510E+05 -1.888481E+04 -1.524320E+04  5.871664E+04  7.627360E+03 -5.670398E+03
       429  10 -2.197878E+05  4.992180E+04  3.708532E+04  5.938473E+04  2.211799E-08  1.323393E-09
       429  11 -2.840473E+05  3.474604E+04  2.570086E+04  5.121047E+04 -1.420834E-08 -1.267453E-09
       429  12 -3.484238E+05  1.966506E+04  1.419411E+04  5.905108E+04 -4.681716E-08 -3.384423E-09
       429  13 -4.300468E+05  3.702228E+02 -3.283126E+02  5.888391E+04 -2.937175E-10  9.418898E-09
       429  14 -4.299842E+05  3.321643E+02 -3.673190E+02  5.087635E+04  1.008442E-09 -1.237526E-09
       429  15 -4.300406E+05  3.902828E+02 -5.244984E+02  5.888387E+04 -2.829479E-10 -2.938295E-09
       429  16 -6.402627E+05 -4.918379E+04 -3.774361E+04  5.838324E+04 -2.363432E-08  4.108047E-09
       429  17 -5.759003E+05 -3.408289E+04 -2.643631E+04  5.054229E+04  1.383985E-08 -3.973762E-09
       429  18 -5.116510E+05 -1.888486E+04 -1.524337E+04  5.871668E+04  4.543017E-08 -5.190582E-09
       429  19 -2.197877E+05  4.992206E+04  3.708585E+04  5.938482E+04  7.254561E+03  1.519343E+04
       429  20 -2.840472E+05  3.474617E+04  2.570116E+04  5.121053E+04  7.081948E+03  1.045340E+04
       429  21 -3.484237E+05  1.966510E+04  1.419426E+04  5.905111E+04  6.909886E+03  5.716854E+03
       429  22 -4.300468E+05  3.704699E+02 -3.278802E+02  5.888391E+04 -2.588408E+01  1.517097E+04
       429  23 -4.299841E+05  3.322811E+02 -3.671145E+02  5.087635E+04 -1.928095E+02  1.043056E+04
       429  24 -4.300406E+05  3.903176E+02 -5.244372E+02  5.888387E+04 -3.592020E+02  5.693625E+03
       429  25 -6.402626E+05 -4.918353E+04 -3.774308E+04  5.838315E+04 -7.303934E+03  1.514853E+04
       429  26 -5.759002E+05 -3.408276E+04 -2.643600E+04  5.054223E+04 -7.465905E+03  1.040773E+04
       429  27 -5.116510E+05 -1.888481E+04 -1.524320E+04  5.871664E+04 -7.627360E+03  5.670398E+03
       430   1 -3.912687E+05  9.509425E+03  6.106103E+03  5.893216E+04 -6.821893E+03 -2.956443E+03
       430   2 -4.554978E+05 -5.677484E+03 -5.713831E+03  5.074415E+04 -6.189182E+03  1.753748E+03
       430   3 -5.199226E+05 -2.083258E+04 -1.797246E+04  5.857031E+04 -5.556237E+03  6.396937E+03
       430   4 -4.300536E+05  3.955822E+02 -6.601986E+02  5.888361E+04  4.575285E+02 -2.933081E+03
       430   5 -4.299632E+05  3.554654E+02 -1.100421E+03  5.087661E+04  9.870524E+02  1.776706E+03
       430   6 -4.300548E+05  3.652714E+02 -1.907696E+03  5.888371E+04  1.516874E+03  6.419499E+03
       430   7 -4.688369E+05 -8.718313E+03 -7.426355E+03  5.883505E+04  7.736509E+03 -2.909719E+03
       430   8 -4.044280E+05  6.388406E+03  3.513158E+03  5.100907E+04  8.163574E+03  1.799666E+03
       430   9 -3.401789E+05  2.156270E+04  1.415695E+04  5.919716E+04  8.590981E+03  6.442066E+03
       430  10 -3.912687E+05  9.509403E+03  6.105999E+03  5.893214E+04  4.131723E-08  7.145399E-10
       430  11 -4.554978E+05 -5.677498E+03 -5.713909E+03  5.074416E+04  1.593374E-08  5.346572E-10
       430  12 -5.199227E+05 -2.083263E+04 -1.797260E+04  5.857034E+04 -1.258507E-08  3.126337E-09
       430  13 -4.300536E+05  3.955729E+02 -6.602152E+02  5.888361E+04  5.410456E-11 -1.665612E-09
       430  14 -4.299632E+05  3.554618E+02 -1.100428E+03  5.087660E+04  7.679174E-10 -2.504397E-09
       430  15 -4.300548E+05  3.652265E+02 -1.907778E+03  5.888371E+04 -2.268608E-10  3.235980E-10
       430  16 -4.688369E+05 -8.718339E+03 -7.426483E+03  5.883507E+04 -4.366021E-08  8.758929E-12
       430  17 -4.044280E+05  6.388385E+03  3.513027E+03  5.100905E+04 -1.595222E-08 -1.087106E-08
       430  18 -3.401790E+05  2.156263E+04  1.415674E+04  5.919712E+04  1.130392E-08 -1.110148E-09
       430  19 -3.912687E+05  9.509425E+03  6.106103E+03  5.893216E+04  6.821893E+03  2.956443E+03
       430  20 -4.554978E+05 -5.677484E+03 -5.713831E+03  5.074415E+04  6.189182E+03 -1.753748E+03
       430  21 -5.199226E+05 -2.083258E+04 -1.797246E+04  5.857031E+04  5.556237E+03 -6.396937E+03
       430  22 -4.300536E+05  3.955822E+02 -6.601986E+02  5.888361E+04 -4.575285E+02  2.933081E+03
       430  23 -4.299632E+05  3.554654E+02 -1.100421E+03  5.087661E+04 -9.870524E+02 -1.776706E+03
       430  24 -4.300548E+05  3.652714E+02 -1.907696E+03  5.888371E+04 -1.516874E+03 -6.419499E+03
       430  25 -4.688369E+05 -8.718313E+03 -7.426355E+03  5.883505E+04 -7.736509E+03  2.909719E+03
       430  26 -4.044280E+05  6.388406E+03  3.513158E+03  5.100907E+04 -8.163574E+03 -1.799666E+03
       430  27 -3.401789E+05  2.156270E+04  1.415695E+04  5.919716E+04 -8.590981E+03 -6.442066E+03
       431   1 -5.628808E+05 -3.095567E+04 -2.655025E+04  5.828138E+04 -5.306790E+03  9.137325E+03
       431   2 -6.267524E+05 -4.641480E+04 -4.021610E+04  5.054129E+04 -1.824354E+03  1.341285E+04
       431   3 -6.914839E+05 -6.304653E+04 -5.647572E+04  5.875839E+04  1.660892E+03  1.683288E+04
       431   4 -4.301577E+05  4.165258E+02 -2.504136E+03  5.887016E+04  1.895453E+03  9.160117E+03
       431   5 -4.298440E+05  1.594025E+02 -4.377301E+03  5.089400E+04  4.065201E+03  1.343099E+04
       431   6 -4.301668E+05 -1.042028E+03 -7.931837E+03  5.887475E+04  6.238125E+03  1.684651E+04
       431   7 -2.974173E+05  3.178776E+04  2.154148E+04  5.945906E+04  9.099195E+03  9.182920E+03
       431   8 -2.328978E+05  4.673144E+04  3.146007E+04  5.124680E+04  9.956573E+03  1.344913E+04
       431   9 -1.687834E+05  6.095856E+04  4.060924E+04  5.899110E+04  1.081724E+04  1.686014E+04
       431  10 -5.628808E+05 -3.095577E+04 -2.655046E+04  5.828142E+04 -2.514667E-09  8.190163E-09
       431  11 -6.267524E+05 -4.641500E+04 -4.021644E+04  5.054131E+04  1.986673E-09  6.787460E-10
       431  12 -6.914840E+05 -6.304683E+04 -5.647626E+04  5.875837E+04  7.351175E-09  4.406159E-09
       431  13 -4.301577E+05  4.164347E+02 -2.504300E+03  5.887014E+04  2.685099E-10  3.277849E-09
       431  14 -4.298441E+05  1.592044E+02 -4.377671E+03  5.089396E+04  9.387068E-10  2.375337E-09
       431  15 -4.301669E+05 -1.042343E+03 -7.932443E+03  5.887466E+04 -2.715449E-11  1.269004E-09
       431  16 -2.974174E+05  3.178765E+04  2.154117E+04  5.945899E+04  7.895421E-10  3.839146E-09
       431  17 -2.328980E+05  4.673122E+04  3.145955E+04  5.124669E+04 -2.301714E-09 -1.250084E-09
       431  18 -1.687836E+05  6.095822E+04  4.060849E+04  5.899095E+04 -9.145212E-09 -6.477446E-09
       431  19 -5.628808E+05 -3.095567E+04 -2.655025E+04  5.828138E+04  5.306790E+03 -9.137325E+03
       431  20 -6.267524E+05 -4.641480E+04 -4.021610E+04  5.054129E+04  1.824354E+03 -1.341285E+04
       431  21 -6.914839E+05 -6.304653E+04 -5.647572E+04  5.875839E+04 -1.660892E+03 -1.683288E+04
       431  22 -4.301577E+05  4.165258E+02 -2.504136E+03  5.887016E+04 -1.895453E+03 -9.160117E+03
       431  23 -4.298440E+05  1.594025E+02 -4.377301E+03  5.089400E+04 -4.065201E+03 -1.343099E+04
       431  24 -4.301668E+05 -1.042028E+03 -7.931837E+03  5.887475E+04 -6.238125E+03 -1.684651E+04
       431  25 -2.974173E+05  3.178776E+04  2.154148E+04  5.945906E+04 -9.099195E+03 -9.182920E+03
       431  26 -2.328978E+05  4.673144E+04  3.146007E+04  5.124680E+04 -9.956573E+03 -1.344913E+04
       431  27 -1.687834E+05  6.095856E+04  4.060924E+04  5.899110E+04 -1.081724E+04 -1.686014E+04
       432   1 -7.361280E+05 -7.240589E+04 -6.724409E+04  5.530357E+04  1.350432E+03  1.930705E+04
       432   2 -7.956210E+05 -9.438986E+04 -9.268866E+04  5.938786E+04  2.776543E+04  1.799794E+04
       432   3 -8.649033E+05 -1.413854E+05 -1.416139E+05  7.877557E+04  5.420821E+04  5.784593E+03
       432   4 -4.315583E+05 -4.938481E+01 -1.034808E+04  5.871297E+04  7.587035E+03  1.932543E+04
       432   5 -4.281296E+05 -6.099783E+03 -1.867789E+04  5.111199E+04  1.727406E+04  1.796525E+04
       432   6 -4.315808E+05 -3.424715E+04 -3.885770E+04  5.881517E+04  2.699182E+04  5.702764E+03
       432   7 -1.268985E+05  7.230182E+04  4.654411E+04  6.212402E+04  1.382662E+04  1.934389E+04
       432   8 -6.050879E+04  8.218228E+04  5.532642E+04  4.283101E+04  6.776592E+03  1.793285E+04
       432   9  1.916768E+03  7.287955E+04  6.388845E+04  3.884062E+04 -2.434915E+02  5.622718E+03
       432  10 -7.361281E+05 -7.240629E+04 -6.724479E+04  5.530355E+04 -2.334009E-09  5.227813E-09
       432  11 -7.956219E+05 -9.439042E+04 -9.269072E+04  5.938746E+04  6.175054E-11 -8.076127E-10
       432  12 -8.649064E+05 -1.413862E+05 -1.416195E+05  7.877532E+04  1.198481E-09  2.026603E-10
       432  13 -4.315584E+05 -4.980122E+01 -1.034889E+04  5.871286E+04 -1.697929E-10  5.706012E-09
       432  14 -4.281300E+05 -6.100210E+03 -1.867905E+04  5.111174E+04  1.095330E-09 -7.214358E-09
       432  15 -4.315816E+05 -3.424738E+04 -3.885913E+04  5.881504E+04 -2.909684E-10  2.009743E-09
       432  16 -1.268988E+05  7.230137E+04  4.654304E+04  6.212381E+04  1.064141E-10 -1.606195E-10
       432  17 -6.050893E+04  8.218193E+04  5.532573E+04  4.283092E+04 -2.989025E-10 -7.600606E-11
       432  18  1.916759E+03  7.287952E+04  6.388839E+04  3.884062E+04 -2.659930E-09 -7.206723E-10
       432  19 -7.361280E+05 -7.240589E+04 -6.724409E+04  5.530357E+04 -1.350432E+03 -1.930705E+04
       432  20 -7.956210E+05 -9.438986E+04 -9.268866E+04  5.938786E+04 -2.776543E+04 -1.799794E+04
       432  21 -8.649033E+05 -1.413854E+05 -1.416139E+05  7.877557E+04 -5.420821E+04 -5.784593E+03
       432  22 -4.315583E+05 -4.938481E+01 -1.034808E+04  5.871297E+04 -7.587035E+03 -1.932543E+04
       432  23 -4.281296E+05 -6.099783E+03 -1.867789E+04  5.111199E+04 -1.727406E+04 -1.796525E+04
       432  24 -4.315808E+05 -3.424715E+04 -3.885770E+04  5.881517E+04 -2.699182E+04 -5.702764E+03
       432  25 -1.268985E+05  7.230182E+04  4.654411E+04  6.212402E+04 -1.382662E+04 -1.934389E+04
       432  26 -6.050879E+04  8.218228E+04  5.532642E+04  4.283101E+04 -6.776592E+03 -1.793285E+04
       432  27  1.916768E+03  7.287955E+04  6.388845E+04  3.884062E+04  2.434915E+02 -5.622718E+03
       433   1 -8.657691E+04  5.888563E+04  4.757818E+04  7.076394E+02 -2.126986E+04 -5.355225E+03
       433   2 -1.150999E+05  9.276089E+04  6.092666E+04  6.449227E+03 -1.795357E+04 -1.665537E+04
       433   3 -1.542649E+05  8.597670E+04  6.196402E+04  2.654418E+04 -1.466817E+04 -1.728263E+04
       433   4 -4.963705E+05 -4.286150E+04 -5.189638E+04  1.960308E+04 -3.563425E+04 -5.397552E+03
       433   5 -4.902358E+05  8.620327E+02 -2.354040E+04  1.235878E+04 -2.310402E+04 -1.667178E+04
       433   6 -4.963522E+05  2.311789E+03 -1.390341E+04  1.946878E+04 -1.060428E+04 -1.727038E+04
       433   7 -9.060094E+05 -1.446195E+05 -1.513821E+05  3.848589E+04 -4.998917E+04 -5.440768E+03
       433   8 -8.652406E+05 -9.104631E+04 -1.080163E+05  1.826462E+04 -2.825138E+04 -1.668830E+04
       433   9 -8.383300E+05 -8.136085E+04 -8.977803E+04  1.239724E+04 -6.542610E+03 -1.725821E+04
       433  10 -8.657740E+04  5.888548E+04  4.757727E+04  7.075477E+02 -1.414517E-08  1.104040E-09
       433  11 -1.151003E+05  9.276050E+04  6.092553E+04  6.448986E+03  1.710670E-09  1.170227E-08
       433  12 -1.542652E+05  8.597632E+04  6.196306E+04  2.654397E+04  1.269528E-08  3.109759E-09
       433  13 -4.963719E+05 -4.286187E+04 -5.189883E+04  1.960292E+04  1.921759E-10 -2.618807E-09
       433  14 -4.902364E+05  8.615908E+02 -2.354192E+04  1.235847E+04  1.195734E-10 -7.697336E-09
       433  15 -4.963524E+05  2.311439E+03 -1.390418E+04  1.946863E+04  2.210112E-10 -7.796860E-10
       433  16 -9.060121E+05 -1.446202E+05 -1.513868E+05  3.848567E+04  1.410306E-08 -4.121768E-10
       433  17 -8.652415E+05 -9.104682E+04 -1.080183E+05  1.826424E+04 -2.892879E-09  6.849006E-09
       433  18 -8.383301E+05 -8.136118E+04 -8.977867E+04  1.239714E+04 -1.439408E-08  1.324783E-10
       433  19 -8.657691E+04  5.888563E+04  4.757818E+04  7.076394E+02  2.126986E+04  5.355225E+03
       433  20 -1.150999E+05  9.276089E+04  6.092666E+04  6.449227E+03  1.795357E+04  1.665537E+04
       433  21 -1.542649E+05  8.597670E+04  6.196402E+04  2.654418E+04  1.466817E+04  1.728263E+04
       433  22 -4.963705E+05 -4.286150E+04 -5.189638E+04  1.960308E+04  3.563425E+04  5.397552E+03
       433  23 -4.902358E+05  8.620327E+02 -2.354040E+04  1.235878E+04  2.310402E+04  1.667178E+04
       433  24 -4.963522E+05  2.311789E+03 -1.390341E+04  1.946878E+04  1.060428E+04  1.727038E+04
       433  25 -9.060094E+05 -1.446195E+05 -1.513821E+05  3.848589E+04  4.998917E+04  5.440768E+03
       433  26 -8.652406E+05 -9.104631E+04 -1.080163E+05  1.826462E+04  2.825138E+04  1.668830E+04
       433  27 -8.383300E+05 -8.136085E+04 -8.977803E+04  1.239724E+04  6.542610E+03  1.725821E+04
       434   1 -1.805059E+05  7.423712E+04  5.876688E+04  1.948822E+04 -9.517566E+03 -1.516594E+04
       434   2 -2.139349E+05  6.849416E+04  5.610218E+04  1.268055E+04 -6.932259E+03 -1.388210E+04
       434   3 -2.483997E+05  6.031455E+04  5.112498E+04  2.070779E+04 -4.349321E+03 -1.211644E+04
       434   4 -4.938741E+05 -2.426624E+03 -1.108963E+04  1.961674E+04 -8.620906E+03 -1.516363E+04
       434   5 -4.933156E+05  1.802440E+02 -5.974484E+03  1.219461E+04 -5.620793E+03 -1.387822E+04
       434   6 -4.938673E+05  2.776036E+02 -3.461072E+03  1.960785E+04 -2.622915E+03 -1.211090E+04
       434   7 -8.071507E+05 -7.909704E+04 -8.095230E+04  1.974512E+04 -7.724694E+03 -1.516131E+04
       434   8 -7.726235E+05 -6.813896E+04 -6.805601E+04  1.170884E+04 -4.309910E+03 -1.387434E+04
       434   9 -7.392786E+05 -5.976342E+04 -5.805087E+04  1.850830E+04 -8.971844E+02 -1.210535E+04
       434  10 -1.805061E+05  7.423685E+04  5.876628E+04  1.948810E+04  7.150399E-09  3.338259E-10
       434  11 -2.139350E+05  6.849394E+04  5.610173E+04  1.268047E+04  4.651509E-09  7.207414E-09
       434  12 -2.483997E+05  6.031439E+04  5.112466E+04  2.070775E+04 -2.739111E-09  1.189380E-08
       434  13 -4.938743E+05 -2.426891E+03 -1.109020E+04  1.961663E+04 -4.973729E-10  1.182887E-08
       434  14 -4.933157E+05  1.800287E+02 -5.974906E+03  1.219455E+04  1.669055E-10 -1.544256E-08
       434  15 -4.938673E+05  2.774443E+02 -3.461361E+03  1.960783E+04 -2.608721E-10  7.262335E-09
       434  16 -8.071508E+05 -7.909730E+04 -8.095284E+04  1.974503E+04 -6.400605E-09 -6.326187E-09
       434  17 -7.726236E+05 -6.813917E+04 -6.805641E+04  1.170879E+04 -4.902017E-09 -1.433028E-09
       434  18 -7.392786E+05 -5.976358E+04 -5.805115E+04  1.850830E+04  2.833809E-10  1.709273E-09
       434  19 -1.805059E+05  7.423712E+04  5.876688E+04  1.948822E+04  9.517566E+03  1.516594E+04
       434  20 -2.139349E+05  6.849416E+04  5.610218E+04  1.268055E+04  6.932259E+03  1.388210E+04
       434  21 -2.483997E+05  6.031455E+04  5.112498E+04  2.070779E+04  4.349321E+03  1.211644E+04
       434  22 -4.938741E+05 -2.426624E+03 -1.108963E+04  1.961674E+04  8.620906E+03  1.516363E+04
       434  23 -4.933156E+05  1.802440E+02 -5.974484E+03  1.219461E+04  5.620793E+03  1.387822E+04
       434  24 -4.938673E+05  2.776036E+02 -3.461072E+03  1.960785E+04  2.622915E+03  1.211090E+04
       434  25 -8.071507E+05 -7.909704E+04 -8.095230E+04  1.974512E+04  7.724694E+03  1.516131E+04
       434  26 -7.726235E+05 -6.813896E+04 -6.805601E+04  1.170884E+04  4.309910E+03  1.387434E+04
       434  27 -7.392786E+05 -5.976342E+04 -5.805087E+04  1.850830E+04  8.971844E+02  1.210535E+04
       435   1 -2.769409E+05  5.297352E+04  4.537206E+04  2.022412E+04 -3.675117E+03 -1.097876E+04
       435   2 -3.109590E+05  4.475223E+04  3.901301E+04  1.268319E+04 -2.944157E+03 -9.126738E+03
       435   3 -3.452033E+05  3.647674E+04  3.213698E+04  2.008217E+04 -2.213767E+03 -7.250457E+03
       435   4 -4.936688E+05 -2.520611E-01 -2.664985E+03  1.963388E+04 -2.087707E+03 -1.097355E+04
       435   5 -4.935516E+05  1.070555E+02 -1.527917E+03  1.216351E+04 -1.336062E+03 -9.121274E+03
       435   6 -4.936649E+05  1.567211E+02 -9.221833E+02  1.963332E+04 -5.849480E+02 -7.244737E+03
       435   7 -7.103527E+05 -5.297720E+04 -5.070494E+04  1.904380E+04 -5.008447E+02 -1.096833E+04
       435   8 -6.761131E+05 -4.454037E+04 -4.207091E+04  1.164396E+04  2.715648E+02 -9.115812E+03
       435   9 -6.421060E+05 -3.616479E+04 -3.398271E+04  1.918456E+04  1.043485E+03 -7.239018E+03
       435  10 -2.769410E+05  5.297339E+04  4.537181E+04  2.022409E+04  1.670994E-09 -4.525161E-09
       435  11 -3.109591E+05  4.475214E+04  3.901284E+04  1.268317E+04  9.666297E-09 -2.472638E-09
       435  12 -3.452033E+05  3.647668E+04  3.213687E+04  2.008216E+04  7.544788E-09  3.521182E-10
       435  13 -4.936688E+05 -3.825102E-01 -2.665220E+03  1.963386E+04  1.604720E-10 -2.353798E-09
       435  14 -4.935517E+05  1.069657E+02 -1.528076E+03  1.216350E+04 -6.805064E-10 -9.731493E-09
       435  15 -4.936649E+05  1.566647E+02 -9.222825E+02  1.963332E+04  4.556730E-10 -1.493150E-09
       435  16 -7.103527E+05 -5.297733E+04 -5.070516E+04  1.904379E+04 -1.558511E-09 -6.659410E-09
       435  17 -6.761131E+05 -4.454046E+04 -4.207107E+04  1.164396E+04 -9.938365E-09  5.889813E-09
       435  18 -6.421060E+05 -3.616485E+04 -3.398281E+04  1.918457E+04 -1.021968E-08  1.251209E-08
       435  19 -2.769409E+05  5.297352E+04  4.537206E+04  2.022412E+04  3.675117E+03  1.097876E+04
       435  20 -3.109590E+05  4.475223E+04  3.901301E+04  1.268319E+04  2.944157E+03  9.126738E+03
       435  21 -3.452033E+05  3.647674E+04  3.213698E+04  2.008217E+04  2.213767E+03  7.250457E+03
       435  22 -4.936688E+05 -2.520611E-01 -2.664985E+03  1.963388E+04  2.087707E+03  1.097355E+04
       435  23 -4.935516E+05  1.070555E+02 -1.527917E+03  1.216351E+04  1.336062E+03  9.121274E+03
       435  24 -4.936649E+05  1.567211E+02 -9.221833E+02  1.963332E+04  5.849480E+02  7.244737E+03
       435  25 -7.103527E+05 -5.297720E+04 -5.070494E+04  1.904380E+04  5.008447E+02  1.096833E+04
       435  26 -6.761131E+05 -4.454037E+04 -4.207091E+04  1.164396E+04 -2.715648E+02  9.115812E+03
       435  27 -6.421060E+05 -3.616479E+04 -3.398271E+04  1.918456E+04 -1.043485E+03  7.239018E+03
       436   1 -3.740425E+05  2.936769E+04  2.571926E+04  1.998847E+04 -2.063363E+03 -6.152973E+03
       436   2 -4.082151E+05  2.097190E+04  1.842603E+04  1.239156E+04 -1.812068E+03 -4.270271E+03
       436   3 -4.425284E+05  1.267218E+04  1.096225E+04  1.978369E+04 -1.561011E+03 -2.385303E+03
       436   4 -4.936435E+05  1.428173E+02 -7.388666E+02  1.964438E+04 -4.391890E+02 -6.147186E+03
       436   5 -4.935715E+05  1.006218E+02 -5.257087E+02  1.214978E+04 -1.860191E+02 -4.264394E+03
       436   6 -4.936418E+05  1.542341E+02 -4.843996E+02  1.964433E+04  6.692646E+01 -2.379332E+03
       436   7 -6.132311E+05 -2.908302E+04 -2.719787E+04  1.930034E+04  1.184675E+03 -6.141400E+03
       436   8 -5.789212E+05 -2.077115E+04 -1.947790E+04  1.190802E+04  1.439809E+03 -4.258519E+03
       436   9 -5.447527E+05 -1.236389E+04 -1.193121E+04  1.950498E+04  1.694732E+03 -2.373362E+03
       436  10 -3.740425E+05  2.936765E+04  2.571918E+04  1.998846E+04 -1.174823E-08 -5.694370E-09
       436  11 -4.082151E+05  2.097188E+04  1.842599E+04  1.239156E+04 -8.827723E-09  6.133468E-09
       436  12 -4.425284E+05  1.267217E+04  1.096224E+04  1.978369E+04 -7.778819E-09  5.490534E-09
       436  13 -4.936435E+05  1.427767E+02 -7.389380E+02  1.964437E+04  2.366229E-11  2.017126E-09
       436  14 -4.935715E+05  1.006022E+02 -5.257429E+02  1.214978E+04 -4.811656E-10 -9.125624E-09
       436  15 -4.936418E+05  1.542280E+02 -4.844102E+02  1.964433E+04  4.406263E-10 -1.950788E-09
       436  16 -6.132311E+05 -2.908306E+04 -2.719794E+04  1.930034E+04  1.175820E-08  6.245948E-09
       436  17 -5.789212E+05 -2.077117E+04 -1.947793E+04  1.190802E+04  8.290388E-09  7.833098E-09
       436  18 -5.447528E+05 -1.236389E+04 -1.193122E+04  1.950498E+04  5.458999E-09 -2.422583E-11
       436  19 -3.740425E+05  2.936769E+04  2.571926E+04  1.998847E+04  2.063363E+03  6.152973E+03
       436  20 -4.082151E+05  2.097190E+04  1.842603E+04  1.239156E+04  1.812068E+03  4.270271E+03
       436  21 -4.425284E+05  1.267218E+04  1.096225E+04  1.978369E+04  1.561011E+03  2.385303E+03
       436  22 -4.936435E+05  1.428173E+02 -7.388666E+02  1.964438E+04  4.391890E+02  6.147186E+03
       436  23 -4.935715E+05  1.006218E+02 -5.257087E+02  1.214978E+04  1.860191E+02  4.264394E+03
       436  24 -4.936418E+05  1.542341E+02 -4.843996E+02  1.964433E+04 -6.692646E+01  2.379332E+03
       436  25 -6.132311E+05 -2.908302E+04 -2.719787E+04  1.930034E+04 -1.184675E+03  6.141400E+03
       436  26 -5.789212E+05 -2.077115E+04 -1.947790E+04  1.190802E+04 -1.439809E+03  4.258519E+03
       436  27 -5.447527E+05 -1.236389E+04 -1.193121E+04  1.950498E+04 -1.694732E+03  2.373362E+03
       437   1 -4.714504E+05  5.562118E+03  4.310278E+03  1.970096E+04 -1.474467E+03 -1.287525E+03
       437   2 -5.056427E+05 -2.847878E+03 -3.400130E+03  1.209116E+04 -1.125413E+03  5.990609E+02
       437   3 -5.399939E+05 -1.116833E+04 -1.134738E+04  1.948409E+04 -7.763490E+02  2.484719E+03
       437   4 -4.936453E+05  1.544279E+02 -5.203121E+02  1.964734E+04  1.538711E+02 -1.281530E+03
       437   5 -4.935653E+05  1.056571E+02 -7.183115E+02  1.214600E+04  5.020774E+02  6.050386E+02
       437   6 -4.936456E+05  1.465222E+02 -1.152649E+03  1.964737E+04  8.503123E+02  2.490684E+03
       437   7 -5.158397E+05 -5.253294E+03 -5.350922E+03  1.959371E+04  1.782152E+03 -1.275535E+03
       437   8 -4.814878E+05  3.059184E+03  1.963508E+03  1.220084E+04  2.129599E+03  6.110166E+02
       437   9 -4.472954E+05  1.146123E+04  9.041962E+03  1.981066E+04  2.477094E+03  2.496650E+03
       437  10 -4.714504E+05  5.562116E+03  4.310271E+03  1.970096E+04  9.512442E-11  5.034559E-09
       437  11 -5.056427E+05 -2.847879E+03 -3.400133E+03  1.209116E+04  2.101738E-09 -8.335944E-09
       437  12 -5.399939E+05 -1.116834E+04 -1.134739E+04  1.948409E+04 -7.415248E-09 -3.179523E-09
       437  13 -4.936453E+05  1.544261E+02 -5.203153E+02  1.964734E+04 -1.760257E-10  1.182264E-08
       437  14 -4.935653E+05  1.056566E+02 -7.183126E+02  1.214600E+04 -1.096144E-09 -1.859232E-09
       437  15 -4.936456E+05  1.465154E+02 -1.152662E+03  1.964737E+04  3.911147E-10 -2.620155E-09
       437  16 -5.158397E+05 -5.253296E+03 -5.350931E+03  1.959371E+04 -2.737797E-10  1.392082E-09
       437  17 -4.814878E+05  3.059182E+03  1.963499E+03  1.220084E+04 -1.861513E-09 -1.747132E-08
       437  18 -4.472954E+05  1.146122E+04  9.041938E+03  1.981065E+04  5.358746E-09 -1.202058E-08
       437  19 -4.714504E+05  5.562118E+03  4.310278E+03  1.970096E+04  1.474467E+03  1.287525E+03
       437  20 -5.056427E+05 -2.847878E+03 -3.400130E+03  1.209116E+04  1.125413E+03 -5.990609E+02
       437  21 -5.399939E+05 -1.116833E+04 -1.134738E+04  1.948409E+04  7.763490E+02 -2.484719E+03
       437  22 -4.936453E+05  1.544279E+02 -5.203121E+02  1.964734E+04 -1.538711E+02  1.281530E+03
       437  23 -4.935653E+05  1.056571E+02 -7.183115E+02  1.214600E+04 -5.020774E+02 -6.050386E+02
       437  24 -4.936456E+05  1.465222E+02 -1.152649E+03  1.964737E+04 -8.503123E+02 -2.490684E+03
       437  25 -5.158397E+05 -5.253294E+03 -5.350922E+03  1.959371E+04 -1.782152E+03  1.275535E+03
       437  26 -4.814878E+05  3.059184E+03  1.963508E+03  1.220084E+04 -2.129599E+03 -6.110166E+02
       437  27 -4.472954E+05  1.146123E+04  9.041962E+03  1.981066E+04 -2.477094E+03 -2.496650E+03
       438   1 -5.689417E+05 -1.825325E+04 -1.829627E+04  1.935111E+04 -5.469284E+02  3.584281E+03
       438   2 -6.029913E+05 -2.664303E+04 -2.685418E+04  1.179095E+04  7.242742E+02  5.468305E+03
       438   3 -6.373794E+05 -3.520463E+04 -3.631379E+04  1.920955E+04  1.995770E+03  7.332849E+03
       438   4 -4.936855E+05  1.702810E+02 -1.487908E+03  1.964171E+04  1.084188E+03  3.590225E+03
       438   5 -4.935188E+05  1.290616E+02 -2.543119E+03  1.215288E+04  2.338747E+03  5.474077E+03
       438   6 -4.936881E+05 -8.082431E+01 -4.488146E+03  1.964263E+04  3.593669E+03  7.338456E+03
       438   7 -4.184241E+05  1.859343E+04  1.532011E+04  1.993235E+04  2.715500E+03  3.596169E+03
       438   8 -3.840351E+05  2.690034E+04  2.176720E+04  1.251485E+04  3.953502E+03  5.479850E+03
       438   9 -3.499775E+05  3.504159E+04  2.733623E+04  2.007580E+04  5.191933E+03  7.344063E+03
       438  10 -5.689417E+05 -1.825326E+04 -1.829630E+04  1.935111E+04 -1.309191E-08 -3.955801E-11
       438  11 -6.029913E+05 -2.664306E+04 -2.685423E+04  1.179095E+04  4.253739E-09 -6.946728E-09
       438  12 -6.373794E+05 -3.520469E+04 -3.631390E+04  1.920954E+04  1.230132E-08  3.352102E-10
       438  13 -4.936855E+05  1.702669E+02 -1.487934E+03  1.964171E+04 -1.295895E-11 -3.233375E-09
       438  14 -4.935188E+05  1.290279E+02 -2.543185E+03  1.215287E+04 -1.012597E-09  5.989057E-09
       438  15 -4.936882E+05 -8.088559E+01 -4.488272E+03  1.964261E+04  1.413019E-10  4.733848E-09
       438  16 -4.184241E+05  1.859341E+04  1.532007E+04  1.993234E+04  1.284052E-08  3.488440E-09
       438  17 -3.840351E+05  2.690031E+04  2.176712E+04  1.251484E+04 -3.632755E-09 -3.897651E-09
       438  18 -3.499776E+05  3.504152E+04  2.733607E+04  2.007577E+04 -1.451697E-08  6.967203E-09
       438  19 -5.689417E+05 -1.825325E+04 -1.829627E+04  1.935111E+04  5.469284E+02 -3.584281E+03
       438  20 -6.029913E+05 -2.664303E+04 -2.685418E+04  1.179095E+04 -7.242742E+02 -5.468305E+03
       438  21 -6.373794E+05 -3.520463E+04 -3.631379E+04  1.920955E+04 -1.995770E+03 -7.332849E+03
       438  22 -4.936855E+05  1.702810E+02 -1.487908E+03  1.964171E+04 -1.084188E+03 -3.590225E+03
       438  23 -4.935188E+05  1.290616E+02 -2.543119E+03  1.215288E+04 -2.338747E+03 -5.474077E+03
       438  24 -4.936881E+05 -8.082431E+01 -4.488146E+03  1.964263E+04 -3.593669E+03 -7.338456E+03
       438  25 -4.184241E+05  1.859343E+04  1.532011E+04  1.993235E+04 -2.715500E+03 -3.596169E+03
       438  26 -3.840351E+05  2.690034E+04  2.176720E+04  1.251485E+04 -3.953502E+03 -5.479850E+03
       438  27 -3.499775E+05  3.504159E+04  2.733623E+04  2.007580E+04 -5.191933E+03 -7.344063E+03
       439   1 -6.665479E+05 -4.182558E+04 -4.424640E+04  1.836772E+04  2.784941E+03  8.467504E+03
       439   2 -6.996871E+05 -5.025936E+04 -5.602214E+04  1.198793E+04  8.201809E+03  1.027078E+04
       439   3 -7.347389E+05 -6.307159E+04 -7.244828E+04  2.052171E+04  1.362020E+04  1.167423E+04
       439   4 -4.940273E+05  3.905355E+02 -5.843319E+03  1.962329E+04  4.498604E+03  8.473426E+03
       439   5 -4.931038E+05  2.684272E+02 -1.010247E+04  1.217451E+04  9.571820E+03  1.027529E+04
       439   6 -4.940336E+05 -4.171403E+03 -1.877196E+04  1.963907E+04  1.464685E+04  1.167737E+04
       439   7 -3.214788E+05  4.260463E+04  3.255792E+04  2.087918E+04  6.212738E+03  8.479355E+03
       439   8 -2.864807E+05  5.079332E+04  3.581456E+04  1.236113E+04  1.094228E+04  1.027980E+04
       439   9 -2.532742E+05  5.472486E+04  3.490073E+04  1.875603E+04  1.567390E+04  1.168051E+04
       439  10 -6.665479E+05 -4.182566E+04 -4.424655E+04  1.836770E+04 -2.544602E-09 -3.620160E-09
       439  11 -6.996872E+05 -5.025949E+04 -5.602247E+04  1.198786E+04  5.496364E-09  3.959049E-09
       439  12 -7.347392E+05 -6.307179E+04 -7.244888E+04  2.052159E+04  1.001619E-08 -6.596691E-09
       439  13 -4.940273E+05  3.904530E+02 -5.843492E+03  1.962326E+04  5.554860E-11 -1.319443E-08
       439  14 -4.931040E+05  2.682892E+02 -1.010284E+04  1.217443E+04 -1.562122E-09  3.141799E-09
       439  15 -4.940339E+05 -4.171607E+03 -1.877262E+04  1.963893E+04  8.952044E-11  6.173406E-09
       439  16 -3.214789E+05  4.260455E+04  3.255771E+04  2.087914E+04  2.346631E-09 -6.222998E-09
       439  17 -2.864809E+05  5.079318E+04  3.581413E+04  1.236103E+04 -5.959881E-09 -1.306326E-08
       439  18 -2.532745E+05  5.472464E+04  3.490002E+04  1.875588E+04 -1.220355E-08  5.319804E-09
       439  19 -6.665479E+05 -4.182558E+04 -4.424640E+04  1.836772E+04 -2.784941E+03 -8.467504E+03
       439  20 -6.996871E+05 -5.025936E+04 -5.602214E+04  1.198793E+04 -8.201809E+03 -1.027078E+04
       439  21 -7.347389E+05 -6.307159E+04 -7.244828E+04  2.052171E+04 -1.362020E+04 -1.167423E+04
       439  22 -4.940273E+05  3.905355E+02 -5.843319E+03  1.962329E+04 -4.498604E+03 -8.473426E+03
       439  23 -4.931038E+05  2.684272E+02 -1.010247E+04  1.217451E+04 -9.571820E+03 -1.027529E+04
       439  24 -4.940336E+05 -4.171403E+03 -1.877196E+04  1.963907E+04 -1.464685E+04 -1.167737E+04
       439  25 -3.214788E+05  4.260463E+04  3.255792E+04  2.087918E+04 -6.212738E+03 -8.479355E+03
       439  26 -2.864807E+05  5.079332E+04  3.581456E+04  1.236113E+04 -1.094228E+04 -1.027980E+04
       439  27 -2.532742E+05  5.472486E+04  3.490073E+04  1.875603E+04 -1.567390E+04 -1.168051E+04
       440   1 -7.677275E+05 -6.213086E+04 -8.335153E+04  8.210135E+03  1.435383E+04  1.361009E+04
       440   2 -7.907876E+05 -7.275025E+04 -1.081024E+05  2.301968E+04  4.315510E+04  1.350249E+04
       440   3 -8.359425E+05 -1.563817E+05 -1.698890E+05  5.243033E+04  7.198173E+04  4.530663E+03
       440   4 -4.982345E+05  3.856541E+03 -2.353921E+04  1.949534E+04  1.800944E+04  1.362217E+04
       440   5 -4.878678E+05  1.441783E+03 -3.985014E+04  1.231677E+04  3.916717E+04  1.348830E+04
       440   6 -4.982590E+05 -7.263944E+04 -8.787425E+04  1.974090E+04  6.035234E+04  4.490089E+03
       440   7 -2.286734E+05  6.983949E+04  3.626869E+04  3.078545E+04  2.166661E+04  1.363439E+04
       440   8 -1.848622E+05  7.562799E+04  2.839641E+04  1.608518E+03  3.517732E+04  1.347425E+04
       440   9 -1.604687E+05  1.109862E+04 -5.866636E+03 -1.296646E+04  4.871663E+04  4.450753E+03
       440  10 -7.677277E+05 -6.213111E+04 -8.335226E+04  8.209977E+03 -8.774787E-09 -1.789285E-09
       440  11 -7.907897E+05 -7.275094E+04 -1.081063E+05  2.301921E+04  1.827358E-09 -3.458779E-09
       440  12 -8.359481E+05 -1.563831E+05 -1.698988E+05  5.243006E+04  5.348708E-09  5.407894E-09
       440  13 -4.982349E+05  3.856254E+03 -2.354017E+04  1.949514E+04 -3.083706E-11  1.009956E-08
       440  14 -4.878695E+05  1.441175E+03 -3.985336E+04  1.231635E+04 -8.696759E-10  3.035199E-09
       440  15 -4.982629E+05 -7.264044E+04 -8.788113E+04  1.974068E+04 -7.259817E-11 -3.792130E-10
       440  16 -2.286740E+05  6.983916E+04  3.626746E+04  3.078521E+04  8.822596E-09  4.521198E-09
       440  17 -1.848636E+05  7.562746E+04  2.839375E+04  1.608136E+03 -1.838268E-09  5.327039E-09
       440  18 -1.604712E+05  1.109796E+04 -5.871135E+03 -1.296663E+04 -7.747289E-09  4.904150E-10
       440  19 -7.677275E+05 -6.213086E+04 -8.335153E+04  8.210135E+03 -1.435383E+04 -1.361009E+04
       440  20 -7.907876E+05 -7.275025E+04 -1.081024E+05  2.301968E+04 -4.315510E+04 -1.350249E+04
       440  21 -8.359425E+05 -1.563817E+05 -1.698890E+05  5.243033E+04 -7.198173E+04 -4.530663E+03
       440  22 -4.982345E+05  3.856541E+03 -2.353921E+04  1.949534E+04 -1.800944E+04 -1.362217E+04
       440  23 -4.878678E+05  1.441783E+03 -3.985014E+04  1.231677E+04 -3.916717E+04 -1.348830E+04
       440  24 -4.982590E+05 -7.263944E+04 -8.787425E+04  1.974090E+04 -6.035234E+04 -4.490089E+03
       440  25 -2.286734E+05  6.983949E+04  3.626869E+04  3.078545E+04 -2.166661E+04 -1.363439E+04
       440  26 -1.848622E+05  7.562799E+04  2.839641E+04  1.608518E+03 -3.517732E+04 -1.347425E+04
       440  27 -1.604687E+05  1.109862E+04 -5.866636E+03 -1.296646E+04 -4.871663E+04 -4.450753E+03
