
 stresses (elem, integ.pnt.,sxx,syy,szz,sxy,sxz,syz) for set ELALL and time  0.1000000E+01

         1   1  2.368948E+06  8.541284E+06  2.242040E+06 -1.768873E+06  1.048202E+05  8.917476E+05
         1   2  1.901868E+06  7.256562E+06  1.488621E+06 -1.638003E+06  3.541176E+05  4.131831E+05
         1   3  1.564964E+06  6.070258E+06  1.077398E+06 -1.693494E+06  4.158291E+05 -6.409076E+04
         1   4  1.161602E+05 -6.438867E+05  1.204059E+05 -1.668108E+06  1.075043E+05  7.970329E+04
         1   5  4.148425E+04 -6.510155E+05  6.421404E+04 -1.575148E+06  3.559892E+05  4.850766E+04
         1   6  2.072462E+04 -6.375694E+05  4.223921E+04 -1.668512E+06  4.158412E+05  1.751539E+04
         1   7 -2.142150E+06 -9.750311E+06 -2.004407E+06 -1.568678E+06  1.099598E+05 -7.205466E+05
         1   8 -1.822302E+06 -8.497837E+06 -1.362143E+06 -1.512983E+06  3.578056E+05 -3.116949E+05
         1   9 -1.525693E+06 -7.300681E+06 -9.939182E+05 -1.643702E+06  4.158597E+05  9.827917E+04
         1  10  2.368726E+06  8.540436E+06  2.240543E+06 -1.768949E+06 -2.230610E-09 -6.997338E-09
         1  11  1.901687E+06  7.256346E+06  1.488067E+06 -1.638120E+06 -4.429119E-09 -4.228735E-08
         1  12  1.564778E+06  6.070207E+06  1.077066E+06 -1.693472E+06 -5.029627E-09 -6.993551E-08
         1  13  1.161461E+05 -6.438966E+05  1.203721E+05 -1.668115E+06  2.082151E-09  1.400657E-11
         1  14  4.134752E+04 -6.510521E+05  6.397135E+04 -1.575162E+06  1.357793E-08  4.840123E-11
         1  15  2.053888E+04 -6.376162E+05  4.191369E+04 -1.668518E+06  2.954637E-08  3.361433E-11
         1  16 -2.142305E+06 -9.750878E+06 -2.005420E+06 -1.568614E+06  4.183635E-09  6.922987E-09
         1  17 -1.822466E+06 -8.497976E+06 -1.362567E+06 -1.512893E+06 -2.745021E-09  4.159415E-08
         1  18 -1.525881E+06 -7.300738E+06 -9.942619E+05 -1.643735E+06 -1.700663E-09  6.932075E-08
         1  19  2.368948E+06  8.541284E+06  2.242040E+06 -1.768873E+06 -1.048202E+05 -8.917476E+05
         1  20  1.901868E+06  7.256562E+06  1.488621E+06 -1.638003E+06 -3.541176E+05 -4.131831E+05
         1  21  1.564964E+06  6.070258E+06  1.077398E+06 -1.693494E+06 -4.158291E+05  6.409076E+04
         1  22  1.161602E+05 -6.438867E+05  1.204059E+05 -1.668108E+06 -1.075043E+05 -7.970329E+04
         1  23  4.148425E+04 -6.510155E+05  6.421404E+04 -1.575148E+06 -3.559892E+05 -4.850766E+04
         1  24  2.072462E+04 -6.375694E+05  4.223921E+04 -1.668512E+06 -4.158412E+05 -1.751539E+04
         1  25 -2.142150E+06 -9.750311E+06 -2.004407E+06 -1.568678E+06 -1.099598E+05  7.205466E+05
         1  26 -1.822302E+06 -8.497837E+06 -1.362143E+06 -1.512983E+06 -3.578056E+05  3.116949E+05
         1  27 -1.525693E+06 -7.300681E+06 -9.939182E+05 -1.643702E+06 -4.158597E+05 -9.827917E+04
         2   1  1.379876E+06  5.290509E+06  9.227872E+05 -1.698905E+06  3.873997E+05 -8.315932E+04
         2   2  1.086878E+06  4.047848E+06  6.929302E+05 -1.587507E+06  3.357752E+05 -1.592262E+05
         2   3  8.187007E+05  2.822590E+06  5.184916E+05 -1.676440E+06  2.596982E+05 -2.353932E+05
         2   4  2.005846E+04 -6.390616E+05  3.709158E+04 -1.671647E+06  3.872317E+05  1.111527E+04
         2   5  1.985119E+04 -6.400638E+05  3.603844E+04 -1.571423E+06  3.350981E+05 -7.002119E+03
         2   6  3.457485E+04 -6.351476E+05  5.037904E+04 -1.671613E+06  2.584161E+05 -2.536071E+04
         2   7 -1.341410E+06 -6.533482E+06 -8.492534E+05 -1.644571E+06  3.870706E+05  1.045309E+05
         2   8 -1.048142E+06 -5.305738E+06 -6.210531E+05 -1.555409E+06  3.344251E+05  1.441286E+05
         2   9 -7.500442E+05 -4.080647E+06 -4.176837E+05 -1.666780E+06  2.571320E+05  1.835598E+05
         2  10  1.379713E+06  5.290461E+06  9.224927E+05 -1.698879E+06 -9.304231E-09  2.124185E-07
         2  11  1.086750E+06  4.047791E+06  6.926717E+05 -1.587464E+06 -5.949650E-09  5.833326E-08
         2  12  8.186138E+05  2.822512E+06  5.182620E+05 -1.676391E+06 -3.865256E-09 -1.001663E-07
         2  13  1.989745E+04 -6.391020E+05  3.680960E+04 -1.671651E+06  2.986121E-08  9.991625E-11
         2  14  1.973065E+04 -6.400940E+05  3.582743E+04 -1.571421E+06  1.451532E-08  2.814680E-10
         2  15  3.450302E+04 -6.351661E+05  5.025247E+04 -1.671608E+06 -3.994795E-09  1.908403E-10
         2  16 -1.341574E+06 -6.533534E+06 -8.495561E+05 -1.644604E+06 -3.841025E-09 -2.102924E-07
         2  17 -1.048268E+06 -5.305791E+06 -6.213031E+05 -1.555448E+06 -9.832141E-09 -5.715836E-08
         2  18 -7.501244E+05 -4.080701E+06 -4.178722E+05 -1.666819E+06 -1.405818E-08  9.950963E-08
         2  19  1.379876E+06  5.290509E+06  9.227872E+05 -1.698905E+06 -3.873997E+05  8.315932E+04
         2  20  1.086878E+06  4.047848E+06  6.929302E+05 -1.587507E+06 -3.357752E+05  1.592262E+05
         2  21  8.187007E+05  2.822590E+06  5.184916E+05 -1.676440E+06 -2.596982E+05  2.353932E+05
         2  22  2.005846E+04 -6.390616E+05  3.709158E+04 -1.671647E+06 -3.872317E+05 -1.111527E+04
         2  23  1.985119E+04 -6.400638E+05  3.603844E+04 -1.571423E+06 -3.350981E+05  7.002119E+03
         2  24  3.457485E+04 -6.351476E+05  5.037904E+04 -1.671613E+06 -2.584161E+05  2.536071E+04
         2  25 -1.341410E+06 -6.533482E+06 -8.492534E+05 -1.644571E+06 -3.870706E+05 -1.045309E+05
         2  26 -1.048142E+06 -5.305738E+06 -6.210531E+05 -1.555409E+06 -3.344251E+05 -1.441286E+05
         2  27 -7.500442E+05 -4.080647E+06 -4.176837E+05 -1.666780E+06 -2.571320E+05 -1.835598E+05
         3   1  6.518418E+05  2.063060E+06  4.216835E+05 -1.677693E+06  2.067983E+05 -2.456303E+05
         3   2  4.170481E+05  8.177999E+05  2.972496E+05 -1.505925E+06  1.176130E+05 -3.011554E+05
         3   3  2.672957E+05 -3.990914E+05  2.297272E+05 -1.536123E+06  2.859822E+04 -3.566588E+05
         3   4  4.212163E+04 -6.296377E+05  6.305075E+04 -1.671987E+06  2.053998E+05 -3.425004E+04
         3   5  8.857053E+04 -6.423820E+05  1.091340E+05 -1.570565E+06  1.161630E+05 -9.032375E+04
         3   6  2.202313E+05 -6.283467E+05  2.123710E+05 -1.670994E+06  2.711041E+04 -1.464688E+05
         3   7 -5.678837E+05 -3.314854E+06 -2.954730E+05 -1.666287E+06  2.040008E+05  1.762587E+05
         3   8 -2.399538E+05 -2.100274E+06 -7.882252E+04 -1.635039E+06  1.146666E+05  1.200367E+05
         3   9  1.732582E+05 -8.574107E+05  1.951928E+05 -1.805813E+06  2.553079E+04  6.364888E+04
         3  10  6.517800E+05  2.062984E+06  4.214908E+05 -1.677652E+06 -2.527711E-09  2.758794E-07
         3  11  4.170091E+05  8.176991E+05  2.970538E+05 -1.505897E+06 -2.662637E-10  7.892894E-09
         3  12  2.672607E+05 -3.992282E+05  2.294866E+05 -1.536114E+06  3.027335E-09 -2.583632E-07
         3  13  4.207606E+04 -6.296502E+05  6.296939E+04 -1.671982E+06 -4.077752E-09  2.145487E-10
         3  14  8.855390E+04 -6.423944E+05  1.090934E+05 -1.570556E+06 -4.832387E-09  6.608805E-10
         3  15  2.202247E+05 -6.283699E+05  2.123293E+05 -1.670991E+06 -8.126100E-10  2.143404E-10
         3  16 -5.679369E+05 -3.314899E+06 -2.956103E+05 -1.666316E+06 -1.211417E-08 -2.745751E-07
         3  17 -2.399719E+05 -2.100293E+06 -7.887456E+04 -1.635051E+06 -8.805074E-09 -7.192386E-09
         3  18  1.732564E+05 -8.574152E+05  1.951840E+05 -1.805814E+06 -3.885490E-09  2.589426E-07
         3  19  6.518418E+05  2.063060E+06  4.216835E+05 -1.677693E+06 -2.067983E+05  2.456303E+05
         3  20  4.170481E+05  8.177999E+05  2.972496E+05 -1.505925E+06 -1.176130E+05  3.011554E+05
         3  21  2.672957E+05 -3.990914E+05  2.297272E+05 -1.536123E+06 -2.859822E+04  3.566588E+05
         3  22  4.212163E+04 -6.296377E+05  6.305075E+04 -1.671987E+06 -2.053998E+05  3.425004E+04
         3  23  8.857053E+04 -6.423820E+05  1.091340E+05 -1.570565E+06 -1.161630E+05  9.032375E+04
         3  24  2.202313E+05 -6.283467E+05  2.123710E+05 -1.670994E+06 -2.711041E+04  1.464688E+05
         3  25 -5.678837E+05 -3.314854E+06 -2.954730E+05 -1.666287E+06 -2.040008E+05 -1.762587E+05
         3  26 -2.399538E+05 -2.100274E+06 -7.882252E+04 -1.635039E+06 -1.146666E+05 -1.200367E+05
         3  27  1.732582E+05 -8.574107E+05  1.951928E+05 -1.805813E+06 -2.553079E+04 -6.364888E+04
         4   1 -8.863782E+06 -2.703725E+06 -1.862570E+06 -2.962911E+06 -9.969376E+05 -3.648597E+05
         4   2 -8.555849E+06 -1.246146E+06 -9.236067E+05 -3.231241E+06 -6.444039E+05 -2.168325E+05
         4   3 -8.841253E+06 -1.371070E+06 -6.770475E+05 -3.134064E+06 -2.851142E+05 -8.687800E+04
         4   4 -7.937741E+06 -2.169466E+06 -1.569121E+06 -2.524412E+06 -9.923732E+05 -3.635258E+05
         4   5 -7.561748E+06 -8.231244E+05 -6.413627E+05 -2.914194E+06 -6.437993E+05 -2.166723E+05
         4   6 -7.777368E+06 -1.057044E+06 -4.020118E+05 -2.938766E+06 -2.884310E+05 -8.806142E+04
         4   7 -7.010773E+06 -1.634746E+06 -1.275754E+06 -2.085200E+06 -9.878004E+05 -3.621847E+05
         4   8 -6.566678E+06 -3.999708E+05 -3.592147E+05 -2.596656E+06 -6.431928E+05 -2.165112E+05
         4   9 -6.712374E+06 -7.430438E+05 -1.270629E+05 -2.743208E+06 -2.917536E+05 -8.924593E+04
         4  10 -8.864900E+06 -2.704142E+06 -1.864722E+06 -2.963207E+06 -3.435232E-10  3.451360E-10
         4  11 -8.556313E+06 -1.246311E+06 -9.244894E+05 -3.231355E+06 -4.260746E-09 -1.447605E-10
         4  12 -8.841343E+06 -1.371100E+06 -6.772172E+05 -3.134084E+06 -4.235546E-09 -2.428400E-09
         4  13 -7.938847E+06 -2.169879E+06 -1.571250E+06 -2.524705E+06  1.220399E-10  9.921040E-11
         4  14 -7.562211E+06 -8.232887E+05 -6.422423E+05 -2.914307E+06  8.008428E-09 -1.346014E-09
         4  15 -7.777460E+06 -1.057075E+06 -4.021852E+05 -2.938786E+06  2.710610E-09 -3.120766E-09
         4  16 -7.011867E+06 -1.635154E+06 -1.277860E+06 -2.085490E+06  6.210986E-09  4.393931E-10
         4  17 -6.567139E+06 -4.001344E+05 -3.600910E+05 -2.596769E+06  2.141215E-09  1.186850E-09
         4  18 -6.712468E+06 -7.430757E+05 -1.272400E+05 -2.743230E+06  2.363916E-09  1.616517E-09
         4  19 -8.863782E+06 -2.703725E+06 -1.862570E+06 -2.962911E+06  9.969376E+05  3.648597E+05
         4  20 -8.555849E+06 -1.246146E+06 -9.236067E+05 -3.231241E+06  6.444039E+05  2.168325E+05
         4  21 -8.841253E+06 -1.371070E+06 -6.770475E+05 -3.134064E+06  2.851142E+05  8.687800E+04
         4  22 -7.937741E+06 -2.169466E+06 -1.569121E+06 -2.524412E+06  9.923732E+05  3.635258E+05
         4  23 -7.561748E+06 -8.231244E+05 -6.413627E+05 -2.914194E+06  6.437993E+05  2.166723E+05
         4  24 -7.777368E+06 -1.057044E+06 -4.020118E+05 -2.938766E+06  2.884310E+05  8.806142E+04
         4  25 -7.010773E+06 -1.634746E+06 -1.275754E+06 -2.085200E+06  9.878004E+05  3.621847E+05
         4  26 -6.566678E+06 -3.999708E+05 -3.592147E+05 -2.596656E+06  6.431928E+05  2.165112E+05
         4  27 -6.712374E+06 -7.430438E+05 -1.270629E+05 -2.743208E+06  2.917536E+05  8.924593E+04
         5   1 -8.412782E+06 -1.548142E+06 -5.292440E+05 -3.074720E+06 -2.271582E+05 -6.971479E+04
         5   2 -8.321121E+06 -1.246211E+06 -3.193237E+05 -3.018652E+06 -1.461557E+05 -4.105926E+04
         5   3 -8.203527E+06 -1.282005E+06 -2.297002E+05 -3.043660E+06 -6.373729E+04 -1.620089E+04
         5   4 -7.707560E+06 -1.258289E+06 -3.307871E+05 -2.860327E+06 -2.271631E+05 -6.972913E+04
         5   5 -7.709402E+06 -1.010463E+06 -1.504350E+05 -2.848915E+06 -1.469999E+05 -4.137394E+04
         5   6 -7.685056E+06 -1.100043E+06 -8.959403E+04 -2.918593E+06 -6.543507E+04 -1.682535E+04
         5   7 -7.001852E+06 -9.683835E+05 -1.323780E+05 -2.645702E+06 -2.271678E+05 -6.974341E+04
         5   8 -7.097320E+06 -7.746898E+05  1.841871E+04 -2.679023E+06 -1.478450E+05 -4.168896E+04
         5   9 -7.166326E+06 -9.180754E+05  5.048803E+04 -2.793435E+06 -6.713440E+04 -1.745030E+04
         5  10 -8.412840E+06 -1.548161E+06 -5.293517E+05 -3.074733E+06  1.520138E-09 -1.142458E-09
         5  11 -8.321145E+06 -1.246218E+06 -3.193677E+05 -3.018657E+06 -9.138332E-09  1.147078E-09
         5  12 -8.203532E+06 -1.282007E+06 -2.297085E+05 -3.043661E+06 -6.798731E-09  5.003568E-10
         5  13 -7.707617E+06 -1.258309E+06 -3.308947E+05 -2.860340E+06 -3.485698E-09 -2.761843E-09
         5  14 -7.709426E+06 -1.010470E+06 -1.504794E+05 -2.848920E+06  5.357809E-09 -2.074325E-09
         5  15 -7.685061E+06 -1.100045E+06 -8.960273E+04 -2.918594E+06  3.988696E-09 -9.537316E-10
         5  16 -7.001909E+06 -9.684029E+05 -1.324855E+05 -2.645715E+06 -1.753509E-10 -1.112089E-09
         5  17 -7.097344E+06 -7.746976E+05  1.837379E+04 -2.679028E+06  3.427159E-09  1.525576E-09
         5  18 -7.166331E+06 -9.180770E+05  5.047887E+04 -2.793436E+06  1.683776E-09  1.631552E-09
         5  19 -8.412782E+06 -1.548142E+06 -5.292440E+05 -3.074720E+06  2.271582E+05  6.971479E+04
         5  20 -8.321121E+06 -1.246211E+06 -3.193237E+05 -3.018652E+06  1.461557E+05  4.105926E+04
         5  21 -8.203527E+06 -1.282005E+06 -2.297002E+05 -3.043660E+06  6.373729E+04  1.620089E+04
         5  22 -7.707560E+06 -1.258289E+06 -3.307871E+05 -2.860327E+06  2.271631E+05  6.972913E+04
         5  23 -7.709402E+06 -1.010463E+06 -1.504350E+05 -2.848915E+06  1.469999E+05  4.137394E+04
         5  24 -7.685056E+06 -1.100043E+06 -8.959403E+04 -2.918593E+06  6.543507E+04  1.682535E+04
         5  25 -7.001852E+06 -9.683835E+05 -1.323780E+05 -2.645702E+06  2.271678E+05  6.974341E+04
         5  26 -7.097320E+06 -7.746898E+05  1.841871E+04 -2.679023E+06  1.478450E+05  4.168896E+04
         5  27 -7.166326E+06 -9.180754E+05  5.048803E+04 -2.793435E+06  6.713440E+04  1.745030E+04
         6   1 -7.697678E+06 -1.144475E+06 -7.877541E+04 -2.921547E+06 -4.977231E+04 -1.504425E+04
         6   2 -7.631179E+06 -9.950995E+05 -6.831491E+03 -2.808350E+06 -2.993838E+04 -1.310373E+04
         6   3 -7.435818E+06 -1.020550E+06  4.290758E+04 -2.855221E+06 -1.012275E+04 -1.109441E+04
         6   4 -7.671561E+06 -1.131539E+06 -7.141058E+04 -2.911183E+06 -5.093349E+04 -1.547218E+04
         6   5 -7.734414E+06 -1.033120E+06 -3.498293E+04 -2.835163E+06 -3.108189E+04 -1.352518E+04
         6   6 -7.668418E+06 -1.109533E+06 -2.076836E+04 -2.919220E+06 -1.125279E+04 -1.151106E+04
         6   7 -7.645444E+06 -1.118604E+06 -6.404578E+04 -2.900819E+06 -5.209473E+04 -1.590014E+04
         6   8 -7.837639E+06 -1.071140E+06 -6.313540E+04 -2.861973E+06 -3.222520E+04 -1.394657E+04
         6   9 -7.900966E+06 -1.198513E+06 -8.444937E+04 -2.983197E+06 -1.238236E+04 -1.192752E+04
         6  10 -7.697681E+06 -1.144476E+06 -7.878056E+04 -2.921548E+06 -2.693323E-09 -4.704600E-10
         6  11 -7.631180E+06 -9.950999E+05 -6.833526E+03 -2.808350E+06 -2.703819E-10 -1.193081E-09
         6  12 -7.435818E+06 -1.020550E+06  4.290716E+04 -2.855222E+06 -5.999737E-10  1.237703E-09
         6  13 -7.671564E+06 -1.131540E+06 -7.141598E+04 -2.911184E+06  3.466294E-10 -1.812148E-09
         6  14 -7.734415E+06 -1.033120E+06 -3.498512E+04 -2.835164E+06  8.484084E-09 -1.884059E-09
         6  15 -7.668418E+06 -1.109533E+06 -2.076885E+04 -2.919220E+06 -1.448847E-10 -2.982167E-10
         6  16 -7.645447E+06 -1.118605E+06 -6.405143E+04 -2.900819E+06 -1.613876E-09 -1.520093E-09
         6  17 -7.837641E+06 -1.071141E+06 -6.313775E+04 -2.861973E+06  1.751812E-09 -2.407691E-09
         6  18 -7.900966E+06 -1.198513E+06 -8.444993E+04 -2.983197E+06  3.715845E-09  1.745513E-09
         6  19 -7.697678E+06 -1.144475E+06 -7.877541E+04 -2.921547E+06  4.977231E+04  1.504425E+04
         6  20 -7.631179E+06 -9.950995E+05 -6.831491E+03 -2.808350E+06  2.993838E+04  1.310373E+04
         6  21 -7.435818E+06 -1.020550E+06  4.290758E+04 -2.855221E+06  1.012275E+04  1.109441E+04
         6  22 -7.671561E+06 -1.131539E+06 -7.141058E+04 -2.911183E+06  5.093349E+04  1.547218E+04
         6  23 -7.734414E+06 -1.033120E+06 -3.498293E+04 -2.835163E+06  3.108189E+04  1.352518E+04
         6  24 -7.668418E+06 -1.109533E+06 -2.076836E+04 -2.919220E+06  1.125279E+04  1.151106E+04
         6  25 -7.645444E+06 -1.118604E+06 -6.404578E+04 -2.900819E+06  5.209473E+04  1.590014E+04
         6  26 -7.837639E+06 -1.071140E+06 -6.313540E+04 -2.861973E+06  3.222520E+04  1.394657E+04
         6  27 -7.900966E+06 -1.198513E+06 -8.444937E+04 -2.983197E+06  1.238236E+04  1.192752E+04
         7   1 -6.995675E+06 -8.478392E+05  1.705306E+05 -2.724312E+06 -5.760434E+03 -1.294326E+04
         7   2 -6.955582E+06 -7.605475E+05  2.012661E+05 -2.643034E+06  2.676113E+02 -1.571748E+04
         7   3 -6.815986E+06 -7.764520E+05  2.281100E+05 -2.674831E+06  5.483376E+03 -1.626496E+04
         7   4 -7.676355E+06 -1.102739E+06 -1.631536E+04 -2.905491E+06 -7.099964E+03 -1.343842E+04
         7   5 -7.725880E+06 -1.050050E+06 -9.827678E+03 -2.849313E+06 -5.322739E+02 -1.601507E+04
         7   6 -7.676017E+06 -1.100680E+06 -7.665600E+03 -2.906222E+06  5.221946E+03 -1.636388E+04
         7   7 -8.356586E+06 -1.357614E+06 -2.032033E+05 -3.086489E+06 -8.437854E+03 -1.393297E+04
         7   8 -8.495603E+06 -1.339521E+06 -2.209756E+05 -3.055358E+06 -1.331051E+03 -1.631225E+04
         7   9 -8.535331E+06 -1.424868E+06 -2.435093E+05 -3.137321E+06  4.960921E+03 -1.646265E+04
         7  10 -6.995675E+06 -8.478394E+05  1.705302E+05 -2.724312E+06 -1.659929E-09  2.333887E-09
         7  11 -6.955582E+06 -7.605478E+05  2.012656E+05 -2.643034E+06 -3.060689E-09  2.188170E-09
         7  12 -6.815986E+06 -7.764523E+05  2.281095E+05 -2.674831E+06 -6.781441E-09  1.267397E-09
         7  13 -7.676356E+06 -1.102739E+06 -1.631579E+04 -2.905491E+06  3.071688E-09 -6.665497E-10
         7  14 -7.725880E+06 -1.050050E+06 -9.828159E+03 -2.849313E+06  4.892987E-09  1.892668E-09
         7  15 -7.676017E+06 -1.100680E+06 -7.666152E+03 -2.906222E+06  4.006332E-09  4.306127E-09
         7  16 -8.356586E+06 -1.357614E+06 -2.032038E+05 -3.086489E+06  3.708317E-09 -3.450098E-09
         7  17 -8.495603E+06 -1.339521E+06 -2.209761E+05 -3.055358E+06  7.582420E-09  3.253648E-09
         7  18 -8.535331E+06 -1.424868E+06 -2.435098E+05 -3.137321E+06  1.165496E-09  3.577766E-09
         7  19 -6.995675E+06 -8.478392E+05  1.705306E+05 -2.724312E+06  5.760434E+03  1.294326E+04
         7  20 -6.955582E+06 -7.605475E+05  2.012661E+05 -2.643034E+06 -2.676113E+02  1.571748E+04
         7  21 -6.815986E+06 -7.764520E+05  2.281100E+05 -2.674831E+06 -5.483376E+03  1.626496E+04
         7  22 -7.676355E+06 -1.102739E+06 -1.631536E+04 -2.905491E+06  7.099964E+03  1.343842E+04
         7  23 -7.725880E+06 -1.050050E+06 -9.827678E+03 -2.849313E+06  5.322739E+02  1.601507E+04
         7  24 -7.676017E+06 -1.100680E+06 -7.665600E+03 -2.906222E+06 -5.221946E+03  1.636388E+04
         7  25 -8.356586E+06 -1.357614E+06 -2.032033E+05 -3.086489E+06  8.437854E+03  1.393297E+04
         7  26 -8.495603E+06 -1.339521E+06 -2.209756E+05 -3.055358E+06  1.331051E+03  1.631225E+04
         7  27 -8.535331E+06 -1.424868E+06 -2.435093E+05 -3.137321E+06 -4.960921E+03  1.646265E+04
         8   1 -6.643875E+06 -6.829718E+05  2.814303E+05 -2.599037E+06  7.686450E+03 -1.691777E+04
         8   2 -6.644698E+06 -6.768561E+05  2.801550E+05 -2.594124E+06  1.242485E+04 -1.710513E+04
         8   3 -6.636392E+06 -6.794270E+05  2.760522E+05 -2.592731E+06  1.601691E+04 -1.422492E+04
         8   4 -7.696209E+06 -1.079566E+06 -7.412627E+03 -2.881975E+06  6.891079E+03 -1.721633E+04
         8   5 -7.700881E+06 -1.076419E+06 -9.758955E+03 -2.879738E+06  1.237346E+04 -1.712701E+04
         8   6 -7.696584E+06 -1.082118E+06 -1.553347E+04 -2.881023E+06  1.670851E+04 -1.396760E+04
         8   7 -8.747468E+06 -1.476099E+06 -2.963569E+05 -3.164475E+06  6.097209E+03 -1.751434E+04
         8   8 -8.755983E+06 -1.475919E+06 -2.997754E+05 -3.164910E+06  1.232215E+04 -1.714886E+04
         8   9 -8.755687E+06 -1.484744E+06 -3.072232E+05 -3.168866E+06  1.739878E+04 -1.371078E+04
         8  10 -6.643875E+06 -6.829722E+05  2.814297E+05 -2.599037E+06  3.597789E-09  3.642905E-10
         8  11 -6.644699E+06 -6.768565E+05  2.801541E+05 -2.594123E+06  8.208474E-09 -2.492740E-09
         8  12 -6.636392E+06 -6.794273E+05  2.760514E+05 -2.592731E+06  2.679622E-09 -2.636804E-09
         8  13 -7.696209E+06 -1.079566E+06 -7.413271E+03 -2.881975E+06  4.287709E-09  1.334566E-09
         8  14 -7.700882E+06 -1.076419E+06 -9.759792E+03 -2.879738E+06  3.277236E-09  1.251093E-09
         8  15 -7.696584E+06 -1.082118E+06 -1.553436E+04 -2.881023E+06  4.649142E-09 -2.595608E-09
         8  16 -8.747468E+06 -1.476099E+06 -2.963575E+05 -3.164475E+06 -4.876892E-09  2.400203E-09
         8  17 -8.755983E+06 -1.475920E+06 -2.997762E+05 -3.164910E+06 -4.707740E-09  2.207162E-09
         8  18 -8.755688E+06 -1.484744E+06 -3.072241E+05 -3.168866E+06  5.302799E-09 -3.539217E-09
         8  19 -6.643875E+06 -6.829718E+05  2.814303E+05 -2.599037E+06 -7.686450E+03  1.691777E+04
         8  20 -6.644698E+06 -6.768561E+05  2.801550E+05 -2.594124E+06 -1.242485E+04  1.710513E+04
         8  21 -6.636392E+06 -6.794270E+05  2.760522E+05 -2.592731E+06 -1.601691E+04  1.422492E+04
         8  22 -7.696209E+06 -1.079566E+06 -7.412627E+03 -2.881975E+06 -6.891079E+03  1.721633E+04
         8  23 -7.700881E+06 -1.076419E+06 -9.758955E+03 -2.879738E+06 -1.237346E+04  1.712701E+04
         8  24 -7.696584E+06 -1.082118E+06 -1.553347E+04 -2.881023E+06 -1.670851E+04  1.396760E+04
         8  25 -8.747468E+06 -1.476099E+06 -2.963569E+05 -3.164475E+06 -6.097209E+03  1.751434E+04
         8  26 -8.755983E+06 -1.475919E+06 -2.997754E+05 -3.164910E+06 -1.232215E+04  1.714886E+04
         8  27 -8.755687E+06 -1.484744E+06 -3.072232E+05 -3.168866E+06 -1.739878E+04  1.371078E+04
         9   1 -6.814861E+06 -7.154311E+05  2.286246E+05 -2.613979E+06  1.896760E+04 -1.187044E+04
         9   2 -6.850310E+06 -7.862286E+05  1.920559E+05 -2.686473E+06  3.502562E+04 -3.693579E+03
         9   3 -6.987686E+06 -7.938925E+05  1.356820E+05 -2.646233E+06  5.022403E+04  6.720719E+03
         9   4 -7.719906E+06 -1.057512E+06 -1.970788E+04 -2.858399E+06  1.913696E+04 -1.180860E+04
         9   5 -7.670422E+06 -1.099175E+06 -3.362838E+04 -2.910960E+06  3.572165E+04 -3.432217E+03
         9   6 -7.723004E+06 -1.077829E+06 -6.779489E+04 -2.850777E+06  5.144869E+04  7.183794E+03
         9   7 -8.624156E+06 -1.399547E+06 -2.681155E+05 -3.102494E+06  1.930603E+04 -1.174686E+04
         9   8 -8.489880E+06 -1.412081E+06 -2.593746E+05 -3.135176E+06  3.641664E+04 -3.171256E+03
         9   9 -8.457796E+06 -1.361730E+06 -2.713219E+05 -3.055098E+06  5.267169E+04  7.646224E+03
         9  10 -6.814862E+06 -7.154313E+05  2.286236E+05 -2.613979E+06  1.958519E-09  6.545606E-10
         9  11 -6.850311E+06 -7.862289E+05  1.920536E+05 -2.686472E+06 -1.001108E-11 -2.093576E-09
         9  12 -6.987689E+06 -7.938932E+05  1.356771E+05 -2.646233E+06 -2.864793E-09  4.825812E-09
         9  13 -7.719906E+06 -1.057512E+06 -1.970884E+04 -2.858399E+06 -2.218620E-09 -1.010901E-09
         9  14 -7.670423E+06 -1.099176E+06 -3.363082E+04 -2.910960E+06 -9.065260E-10 -2.931842E-09
         9  15 -7.723007E+06 -1.077830E+06 -6.780003E+04 -2.850777E+06 -2.331528E-09  3.857399E-09
         9  16 -8.624156E+06 -1.399548E+06 -2.681165E+05 -3.102494E+06  1.724631E-10 -1.801024E-09
         9  17 -8.489882E+06 -1.412082E+06 -2.593772E+05 -3.135175E+06 -2.840050E-09 -2.428132E-09
         9  18 -8.457799E+06 -1.361731E+06 -2.713273E+05 -3.055098E+06 -4.436837E-10 -5.977335E-10
         9  19 -6.814861E+06 -7.154311E+05  2.286246E+05 -2.613979E+06 -1.896760E+04  1.187044E+04
         9  20 -6.850310E+06 -7.862286E+05  1.920559E+05 -2.686473E+06 -3.502562E+04  3.693579E+03
         9  21 -6.987686E+06 -7.938925E+05  1.356820E+05 -2.646233E+06 -5.022403E+04 -6.720719E+03
         9  22 -7.719906E+06 -1.057512E+06 -1.970788E+04 -2.858399E+06 -1.913696E+04  1.180860E+04
         9  23 -7.670422E+06 -1.099175E+06 -3.362838E+04 -2.910960E+06 -3.572165E+04  3.432217E+03
         9  24 -7.723004E+06 -1.077829E+06 -6.779489E+04 -2.850777E+06 -5.144869E+04 -7.183794E+03
         9  25 -8.624156E+06 -1.399547E+06 -2.681155E+05 -3.102494E+06 -1.930603E+04  1.174686E+04
         9  26 -8.489880E+06 -1.412081E+06 -2.593746E+05 -3.135176E+06 -3.641664E+04  3.171256E+03
         9  27 -8.457796E+06 -1.361730E+06 -2.713219E+05 -3.055098E+06 -5.267169E+04 -7.646224E+03
        10   1 -7.422911E+06 -9.326622E+05 -1.984186E+02 -2.776422E+06  6.156428E+04  1.459335E+04
        10   2 -7.459354E+06 -1.010951E+06 -9.298447E+04 -2.877257E+06  1.357075E+05  4.802019E+04
        10   3 -7.729836E+06 -1.154061E+06 -3.002342E+05 -2.761558E+06  2.101649E+05  8.055250E+04
        10   4 -7.742848E+06 -1.042610E+06 -8.548794E+04 -2.851745E+06  6.278465E+04  1.505793E+04
        10   5 -7.637006E+06 -1.084692E+06 -1.431095E+05 -2.931881E+06  1.366902E+05  4.839188E+04
        10   6 -7.765180E+06 -1.191571E+06 -3.150128E+05 -2.795471E+06  2.109293E+05  8.083296E+04
        10   7 -8.062686E+06 -1.152557E+06 -1.707864E+05 -2.927035E+06  6.400432E+04  1.552229E+04
        10   8 -7.814628E+06 -1.158429E+06 -1.932377E+05 -2.986490E+06  1.376726E+05  4.876342E+04
        10   9 -7.800521E+06 -1.229077E+06 -3.297913E+05 -2.829380E+06  2.116936E+05  8.111333E+04
        10  10 -7.422915E+06 -9.326635E+05 -2.060428E+02 -2.776422E+06 -2.037514E-10  2.860450E-09
        10  11 -7.459374E+06 -1.010959E+06 -9.302395E+04 -2.877262E+06  2.022658E-09 -3.747895E-09
        10  12 -7.729886E+06 -1.154080E+06 -3.003307E+05 -2.761572E+06  1.223624E-09 -2.056998E-09
        10  13 -7.742852E+06 -1.042612E+06 -8.549589E+04 -2.851746E+06 -7.498699E-10  7.731218E-10
        10  14 -7.637027E+06 -1.084699E+06 -1.431496E+05 -2.931886E+06  1.674798E-09 -4.491622E-09
        10  15 -7.765230E+06 -1.191591E+06 -3.151101E+05 -2.795484E+06  6.650555E-09  1.951843E-10
        10  16 -8.062690E+06 -1.152559E+06 -1.707947E+05 -2.927036E+06 -2.106653E-09 -1.507421E-12
        10  17 -7.814649E+06 -1.158437E+06 -1.932783E+05 -2.986496E+06 -1.146474E-09 -2.299732E-09
        10  18 -7.800572E+06 -1.229097E+06 -3.298893E+05 -2.829394E+06  7.917219E-10  8.977715E-10
        10  19 -7.422911E+06 -9.326622E+05 -1.984186E+02 -2.776422E+06 -6.156428E+04 -1.459335E+04
        10  20 -7.459354E+06 -1.010951E+06 -9.298447E+04 -2.877257E+06 -1.357075E+05 -4.802019E+04
        10  21 -7.729836E+06 -1.154061E+06 -3.002342E+05 -2.761558E+06 -2.101649E+05 -8.055250E+04
        10  22 -7.742848E+06 -1.042610E+06 -8.548794E+04 -2.851745E+06 -6.278465E+04 -1.505793E+04
        10  23 -7.637006E+06 -1.084692E+06 -1.431095E+05 -2.931881E+06 -1.366902E+05 -4.839188E+04
        10  24 -7.765180E+06 -1.191571E+06 -3.150128E+05 -2.795471E+06 -2.109293E+05 -8.083296E+04
        10  25 -8.062686E+06 -1.152557E+06 -1.707864E+05 -2.927035E+06 -6.400432E+04 -1.552229E+04
        10  26 -7.814628E+06 -1.158429E+06 -1.932377E+05 -2.986490E+06 -1.376726E+05 -4.876342E+04
        10  27 -7.800521E+06 -1.229077E+06 -3.297913E+05 -2.829380E+06 -2.116936E+05 -8.111333E+04
        11   1 -8.181279E+06 -1.251357E+06 -5.030847E+05 -3.085746E+06  2.628074E+05  1.061835E+05
        11   2 -8.102250E+06 -1.053437E+06 -7.604770E+05 -3.073698E+06  5.999613E+05  2.405877E+05
        11   3 -8.749757E+06 -2.204763E+06 -1.677275E+06 -2.535398E+06  9.420397E+05  3.618710E+05
        11   4 -7.808252E+06 -1.024012E+06 -3.829819E+05 -2.897782E+06  2.658991E+05  1.074041E+05
        11   5 -7.523345E+06 -8.784216E+05 -6.104467E+05 -2.961881E+06  6.001423E+05  2.405988E+05
        11   6 -7.963911E+06 -2.080683E+06 -1.494455E+06 -2.499795E+06  9.394371E+05  3.605465E+05
        11   7 -7.435069E+06 -7.965774E+05 -2.628920E+05 -2.709692E+06  2.689929E+05  1.086265E+05
        11   8 -6.944113E+06 -7.034126E+05 -4.604429E+05 -2.849982E+06  6.003231E+05  2.406099E+05
        11   9 -7.177408E+06 -1.956596E+06 -1.311656E+06 -2.464209E+06  9.368300E+05  3.592226E+05
        11  10 -8.181357E+06 -1.251388E+06 -5.032380E+05 -3.085769E+06  1.124450E-09  1.478051E-09
        11  11 -8.102657E+06 -1.053598E+06 -7.612743E+05 -3.073815E+06 -2.227932E-09  2.915095E-09
        11  12 -8.750757E+06 -2.205148E+06 -1.679219E+06 -2.535676E+06 -1.038321E-09  1.233873E-09
        11  13 -7.808332E+06 -1.024044E+06 -3.831387E+05 -2.897805E+06  7.033542E-09  2.855931E-09
        11  14 -7.523752E+06 -8.785829E+05 -6.112436E+05 -2.961998E+06  4.069480E-09  1.877285E-09
        11  15 -7.964905E+06 -2.081065E+06 -1.496385E+06 -2.500070E+06 -3.999804E-09  2.370454E-09
        11  16 -7.435151E+06 -7.966099E+05 -2.630523E+05 -2.709715E+06 -4.718145E-09  2.355131E-09
        11  17 -6.944520E+06 -7.035738E+05 -4.612394E+05 -2.850099E+06 -1.831631E-10  2.122326E-09
        11  18 -7.178396E+06 -1.956975E+06 -1.313573E+06 -2.464482E+06 -3.860086E-09  7.130897E-10
        11  19 -8.181279E+06 -1.251357E+06 -5.030847E+05 -3.085746E+06 -2.628074E+05 -1.061835E+05
        11  20 -8.102250E+06 -1.053437E+06 -7.604770E+05 -3.073698E+06 -5.999613E+05 -2.405877E+05
        11  21 -8.749757E+06 -2.204763E+06 -1.677275E+06 -2.535398E+06 -9.420397E+05 -3.618710E+05
        11  22 -7.808252E+06 -1.024012E+06 -3.829819E+05 -2.897782E+06 -2.658991E+05 -1.074041E+05
        11  23 -7.523345E+06 -8.784216E+05 -6.104467E+05 -2.961881E+06 -6.001423E+05 -2.405988E+05
        11  24 -7.963911E+06 -2.080683E+06 -1.494455E+06 -2.499795E+06 -9.394371E+05 -3.605465E+05
        11  25 -7.435069E+06 -7.965774E+05 -2.628920E+05 -2.709692E+06 -2.689929E+05 -1.086265E+05
        11  26 -6.944113E+06 -7.034126E+05 -4.604429E+05 -2.849982E+06 -6.003231E+05 -2.406099E+05
        11  27 -7.177408E+06 -1.956596E+06 -1.311656E+06 -2.464209E+06 -9.368300E+05 -3.592226E+05
        12   1  1.391026E+05 -7.074215E+05  1.326495E+05 -1.894510E+02  2.072035E+04 -5.842846E+00
        12   2  1.388027E+05 -7.087047E+05  1.323364E+05  4.951523E+01  2.068781E+04  3.417611E+00
        12   3  1.385349E+05 -7.097309E+05  1.320790E+05 -4.447786E+02  2.061739E+04  1.261068E+01
        12   4 -5.377339E+01 -1.269917E+06 -3.176324E+01 -1.629572E+02  2.072163E+04  2.316571E+00
        12   5 -6.685666E+01 -1.270044E+06 -6.822476E+01  2.037012E+02  2.068906E+04  3.426518E+01
        12   6 -5.191399E+01 -1.269917E+06 -6.473333E+01 -1.629371E+02  2.061861E+04  6.614674E+01
        12   7 -1.392328E+05 -1.832121E+06 -1.327349E+05 -1.364815E+02  2.072290E+04  1.046863E+01
        12   8 -1.389590E+05 -1.831092E+06 -1.324946E+05  3.577732E+02  2.069032E+04  6.508498E+01
        12   9 -1.386612E+05 -1.829814E+06 -1.322301E+05  1.186951E+02  2.061984E+04  1.196347E+02
        12  10  1.391021E+05 -7.074216E+05  1.326487E+05 -1.894509E+02 -3.582874E-12  8.202562E-09
        12  11  1.388023E+05 -7.087048E+05  1.323356E+05  4.951518E+01  1.093949E-09 -2.784329E-10
        12  12  1.385344E+05 -7.097310E+05  1.320782E+05 -4.447788E+02 -3.120814E-09 -7.245824E-09
        12  13 -5.423420E+01 -1.269917E+06 -3.256966E+01 -1.629572E+02  1.089440E-09  9.778616E-11
        12  14 -6.731603E+01 -1.270044E+06 -6.902865E+01  2.037007E+02 -3.111284E-09  7.508053E-12
        12  15 -5.237023E+01 -1.269917E+06 -6.553176E+01 -1.629382E+02 -1.816701E-09  4.667008E-10
        12  16 -1.392333E+05 -1.832121E+06 -1.327357E+05 -1.364817E+02  6.925900E-09 -8.183719E-09
        12  17 -1.389595E+05 -1.831092E+06 -1.324954E+05  3.577722E+02 -1.719424E-09 -5.956458E-12
        12  18 -1.386617E+05 -1.829814E+06 -1.322309E+05  1.186931E+02 -2.801239E-09  7.388916E-09
        12  19  1.391026E+05 -7.074215E+05  1.326495E+05 -1.894510E+02 -2.072035E+04  5.842846E+00
        12  20  1.388027E+05 -7.087047E+05  1.323364E+05  4.951523E+01 -2.068781E+04 -3.417611E+00
        12  21  1.385349E+05 -7.097309E+05  1.320790E+05 -4.447786E+02 -2.061739E+04 -1.261068E+01
        12  22 -5.377339E+01 -1.269917E+06 -3.176324E+01 -1.629572E+02 -2.072163E+04 -2.316571E+00
        12  23 -6.685666E+01 -1.270044E+06 -6.822476E+01  2.037012E+02 -2.068906E+04 -3.426518E+01
        12  24 -5.191399E+01 -1.269917E+06 -6.473333E+01 -1.629371E+02 -2.061861E+04 -6.614674E+01
        12  25 -1.392328E+05 -1.832121E+06 -1.327349E+05 -1.364815E+02 -2.072290E+04 -1.046863E+01
        12  26 -1.389590E+05 -1.831092E+06 -1.324946E+05  3.577732E+02 -2.069032E+04 -6.508498E+01
        12  27 -1.386612E+05 -1.829814E+06 -1.322301E+05  1.186951E+02 -2.061984E+04 -1.196347E+02
        13   1  1.378895E+05 -7.123335E+05  1.314320E+05 -8.145697E+02  2.055746E+04  8.697904E+00
        13   2  1.370232E+05 -7.159084E+05  1.305307E+05  1.500164E+02  2.042212E+04  7.047462E+01
        13   3  1.361875E+05 -7.192450E+05  1.296480E+05 -1.056340E+03  2.024931E+04  1.320524E+02
        13   4 -5.180533E+01 -1.269920E+06 -8.487459E+01 -4.824451E+02  2.055865E+04  7.853496E+01
        13   5 -6.382436E+01 -1.270037E+06 -1.739104E+02  6.030965E+02  2.042325E+04  1.627161E+02
        13   6 -4.919758E+01 -1.269919E+06 -2.598823E+02 -4.824249E+02  2.025037E+04  2.466986E+02
        13   7 -1.380154E+05 -1.827221E+06 -1.316232E+05 -1.505627E+02  2.055984E+04  1.483096E+02
        13   8 -1.371728E+05 -1.823883E+06 -1.308997E+05  1.055846E+03  2.042439E+04  2.548756E+02
        13   9 -1.363076E+05 -1.820315E+06 -1.301888E+05  9.107311E+01  2.025143E+04  3.612436E+02
        13  10  1.378890E+05 -7.123336E+05  1.314312E+05 -8.145698E+02  3.404835E-10  2.836952E-09
        13  11  1.370227E+05 -7.159085E+05  1.305299E+05  1.500153E+02  6.404505E-09  2.899431E-09
        13  12  1.361870E+05 -7.192452E+05  1.296473E+05 -1.056342E+03  4.060172E-09 -6.808598E-10
        13  13 -5.225892E+01 -1.269920E+06 -8.566838E+01 -4.824464E+02 -3.215771E-09  8.224628E-10
        13  14 -6.427200E+01 -1.270037E+06 -1.746939E+02  6.030939E+02 -5.752536E-09  6.031480E-11
        13  15 -4.963768E+01 -1.269920E+06 -2.606526E+02 -4.824289E+02 -1.108758E-09  8.594823E-10
        13  16 -1.380158E+05 -1.827221E+06 -1.316240E+05 -1.505652E+02 -1.927171E-10 -2.858000E-09
        13  17 -1.371733E+05 -1.823883E+06 -1.309005E+05  1.055842E+03 -3.937006E-09 -3.779280E-09
        13  18 -1.363080E+05 -1.820315E+06 -1.301895E+05  9.106721E+01  4.850630E-09  8.139364E-10
        13  19  1.378895E+05 -7.123335E+05  1.314320E+05 -8.145697E+02 -2.055746E+04 -8.697904E+00
        13  20  1.370232E+05 -7.159084E+05  1.305307E+05  1.500164E+02 -2.042212E+04 -7.047462E+01
        13  21  1.361875E+05 -7.192450E+05  1.296480E+05 -1.056340E+03 -2.024931E+04 -1.320524E+02
        13  22 -5.180533E+01 -1.269920E+06 -8.487459E+01 -4.824451E+02 -2.055865E+04 -7.853496E+01
        13  23 -6.382436E+01 -1.270037E+06 -1.739104E+02  6.030965E+02 -2.042325E+04 -1.627161E+02
        13  24 -4.919758E+01 -1.269919E+06 -2.598823E+02 -4.824249E+02 -2.025037E+04 -2.466986E+02
        13  25 -1.380154E+05 -1.827221E+06 -1.316232E+05 -1.505627E+02 -2.055984E+04 -1.483096E+02
        13  26 -1.371728E+05 -1.823883E+06 -1.308997E+05  1.055846E+03 -2.042439E+04 -2.548756E+02
        13  27 -1.363076E+05 -1.820315E+06 -1.301888E+05  9.107311E+01 -2.025143E+04 -3.612436E+02
        14   1  1.349115E+05 -7.244163E+05  1.283195E+05 -1.406042E+03  2.013043E+04  1.700168E+02
        14   2  1.334925E+05 -7.302157E+05  1.267002E+05  2.712673E+02  1.989353E+04  4.554730E+02
        14   3  1.320558E+05 -7.358408E+05  1.249368E+05 -1.632462E+03  1.961787E+04  7.405979E+02
        14   4 -4.397193E+01 -1.269932E+06 -3.443247E+02 -7.957737E+02  2.013143E+04  2.999995E+02
        14   5 -5.211504E+01 -1.270017E+06 -6.262331E+02  9.948141E+02  1.989442E+04  6.084621E+02
        14   6 -8.208863E+01 -1.269931E+06 -1.068325E+03 -7.958344E+02  1.961864E+04  9.165956E+02
        14   7 -1.350208E+05 -1.815174E+06 -1.290287E+05 -1.859407E+02  2.013243E+04  4.298684E+02
        14   8 -1.336176E+05 -1.809549E+06 -1.279728E+05  1.717848E+03  1.989532E+04  7.613185E+02
        14   9 -1.322404E+05 -1.803759E+06 -1.270932E+05  4.020465E+01  1.961942E+04  1.092442E+03
        14  10  1.349111E+05 -7.244164E+05  1.283187E+05 -1.406045E+03 -9.190537E-10 -1.845737E-09
        14  11  1.334921E+05 -7.302158E+05  1.266994E+05  2.712600E+02  7.572103E-10 -6.111147E-09
        14  12  1.320554E+05 -7.358410E+05  1.249361E+05 -1.632474E+03  2.246563E-09 -8.001862E-09
        14  13 -4.440689E+01 -1.269932E+06 -3.450860E+02 -7.957786E+02 -1.493573E-09  1.757227E-09
        14  14 -5.253989E+01 -1.270017E+06 -6.269771E+02  9.948043E+02 -3.973895E-09  3.619374E-11
        14  15 -8.250191E+01 -1.269931E+06 -1.069050E+03 -7.958489E+02  9.511103E-10  1.214075E-09
        14  16 -1.350212E+05 -1.815174E+06 -1.290294E+05 -1.859476E+02 -2.188172E-09  1.939437E-09
        14  17 -1.336180E+05 -1.809549E+06 -1.279735E+05  1.717836E+03 -2.928463E-09  4.458583E-09
        14  18 -1.322408E+05 -1.803759E+06 -1.270939E+05  4.018737E+01 -2.749777E-09  8.034259E-09
        14  19  1.349115E+05 -7.244163E+05  1.283195E+05 -1.406042E+03 -2.013043E+04 -1.700168E+02
        14  20  1.334925E+05 -7.302157E+05  1.267002E+05  2.712673E+02 -1.989353E+04 -4.554730E+02
        14  21  1.320558E+05 -7.358408E+05  1.249368E+05 -1.632462E+03 -1.961787E+04 -7.405979E+02
        14  22 -4.397193E+01 -1.269932E+06 -3.443247E+02 -7.957737E+02 -2.013143E+04 -2.999995E+02
        14  23 -5.211504E+01 -1.270017E+06 -6.262331E+02  9.948141E+02 -1.989442E+04 -6.084621E+02
        14  24 -8.208863E+01 -1.269931E+06 -1.068325E+03 -7.958344E+02 -1.961864E+04 -9.165956E+02
        14  25 -1.350208E+05 -1.815174E+06 -1.290287E+05 -1.859407E+02 -2.013243E+04 -4.298684E+02
        14  26 -1.336176E+05 -1.809549E+06 -1.279728E+05  1.717848E+03 -1.989532E+04 -7.613185E+02
        14  27 -1.322404E+05 -1.803759E+06 -1.270932E+05  4.020465E+01 -1.961942E+04 -1.092442E+03
        15   1  9.347309E+04  1.004471E+06  5.251135E+04 -4.447161E+00  3.281214E+04  1.467055E-01
        15   2  9.347861E+04  1.004496E+06  5.252046E+04 -2.587307E+01  3.281347E+04 -6.831249E+00
        15   3  9.348544E+04  1.004532E+06  5.253739E+04 -4.390396E+01  3.281614E+04 -1.380882E+01
        15   4 -3.498736E+01  5.890349E+05  1.812095E+01  7.547836E-01  3.281446E+04 -1.424803E+00
        15   5 -3.673154E+01  5.890294E+05  2.161676E+01 -9.423765E-01  3.281579E+04 -1.162752E+01
        15   6 -3.662109E+01  5.890349E+05  3.517361E+01  7.562851E-01  3.281846E+04 -2.182990E+01
        15   7 -9.355008E+04  1.737762E+05 -5.247565E+04  5.953734E+00  3.281678E+04 -2.995314E+00
        15   8 -9.355910E+04  1.737399E+05 -5.247777E+04  2.397373E+01  3.281811E+04 -1.642074E+01
        15   9 -9.356570E+04  1.737152E+05 -5.246759E+04  4.539035E+01  3.282078E+04 -2.984587E+01
        15  10  9.347193E+04  1.004470E+06  5.250933E+04 -4.447165E+00 -4.236522E-09 -6.813372E-08
        15  11  9.347746E+04  1.004496E+06  5.251843E+04 -2.587289E+01  1.436546E-10 -3.047139E-09
        15  12  9.348428E+04  1.004531E+06  5.253536E+04 -4.390359E+01 -1.218727E-09  6.214041E-08
        15  13 -3.614397E+01  5.890346E+05  1.609689E+01  7.548214E-01 -4.854669E-09  5.805239E-11
        15  14 -3.788823E+01  5.890291E+05  1.959254E+01 -9.420693E-01 -2.556980E-09 -1.642665E-10
        15  15 -3.777798E+01  5.890346E+05  3.314906E+01  7.568619E-01  1.210867E-09  1.452468E-10
        15  16 -9.355124E+04  1.737759E+05 -5.247768E+04  5.953813E+00 -5.858767E-09  6.807444E-08
        15  17 -9.356026E+04  1.737396E+05 -5.247980E+04  2.397416E+01  1.088339E-09  2.987844E-09
        15  18 -9.356686E+04  1.737149E+05 -5.246961E+04  4.539114E+01 -1.650132E-09 -6.204711E-08
        15  19  9.347309E+04  1.004471E+06  5.251135E+04 -4.447161E+00 -3.281214E+04 -1.467056E-01
        15  20  9.347861E+04  1.004496E+06  5.252046E+04 -2.587307E+01 -3.281347E+04  6.831249E+00
        15  21  9.348544E+04  1.004532E+06  5.253739E+04 -4.390396E+01 -3.281614E+04  1.380882E+01
        15  22 -3.498736E+01  5.890349E+05  1.812095E+01  7.547839E-01 -3.281446E+04  1.424803E+00
        15  23 -3.673154E+01  5.890294E+05  2.161676E+01 -9.423765E-01 -3.281579E+04  1.162752E+01
        15  24 -3.662109E+01  5.890349E+05  3.517361E+01  7.562849E-01 -3.281846E+04  2.182990E+01
        15  25 -9.355008E+04  1.737762E+05 -5.247565E+04  5.953734E+00 -3.281678E+04  2.995314E+00
        15  26 -9.355910E+04  1.737399E+05 -5.247777E+04  2.397373E+01 -3.281811E+04  1.642074E+01
        15  27 -9.356570E+04  1.737152E+05 -5.246759E+04  4.539035E+01 -3.282078E+04  2.984587E+01
        16   1  9.349325E+04  1.004570E+06  5.255314E+04 -5.262049E+01  3.281855E+04 -1.772697E+01
        16   2  9.351049E+04  1.004654E+06  5.260043E+04 -8.316051E+01  3.282264E+04 -5.731716E+01
        16   3  9.353073E+04  1.004752E+06  5.267718E+04 -9.923947E+01  3.282575E+04 -9.690641E+01
        16   4 -3.743682E+01  5.890357E+05  4.530791E+01  3.215557E+00  3.282087E+04 -2.870770E+01
        16   5 -4.163861E+01  5.890283E+05  7.627285E+01 -4.014942E+00  3.282496E+04 -6.592322E+01
        16   6 -4.324816E+01  5.890357E+05  1.350608E+02  3.216165E+00  3.282807E+04 -1.031378E+02
        16   7 -9.357515E+04  1.736785E+05 -5.246307E+04  5.901889E+01  3.282319E+04 -3.968144E+01
        16   8 -9.360079E+04  1.735803E+05 -5.244843E+04  7.508381E+01  3.282728E+04 -7.452380E+01
        16   9 -9.362426E+04  1.734964E+05 -5.240761E+04  1.056109E+02  3.283040E+04 -1.093652E+02
        16  10  9.349209E+04  1.004570E+06  5.255111E+04 -5.262002E+01  7.023455E-10  1.739487E-09
        16  11  9.350933E+04  1.004653E+06  5.259840E+04 -8.315899E+01  2.585165E-09 -4.632482E-09
        16  12  9.352958E+04  1.004752E+06  5.267515E+04 -9.923691E+01 -1.231720E-09 -1.011939E-08
        16  13 -3.859388E+01  5.890355E+05  4.328306E+01  3.216315E+00  6.443098E-10  1.115467E-10
        16  14 -4.279595E+01  5.890280E+05  7.424749E+01 -4.013200E+00  1.778219E-09 -4.707834E-10
        16  15 -4.440572E+01  5.890354E+05  1.330351E+02  3.218891E+00  2.108709E-09  3.615634E-10
        16  16 -9.357630E+04  1.736783E+05 -5.246510E+04  5.901994E+01 -3.077785E-09 -2.009121E-09
        16  17 -9.360195E+04  1.735800E+05 -5.245046E+04  7.508578E+01 -1.861192E-09  4.422581E-09
        16  18 -9.362542E+04  1.734961E+05 -5.240963E+04  1.056138E+02  1.048697E-09  1.026199E-08
        16  19  9.349325E+04  1.004570E+06  5.255314E+04 -5.262049E+01 -3.281855E+04  1.772697E+01
        16  20  9.351049E+04  1.004654E+06  5.260043E+04 -8.316051E+01 -3.282264E+04  5.731716E+01
        16  21  9.353073E+04  1.004752E+06  5.267718E+04 -9.923947E+01 -3.282575E+04  9.690641E+01
        16  22 -3.743682E+01  5.890357E+05  4.530791E+01  3.215557E+00 -3.282087E+04  2.870770E+01
        16  23 -4.163861E+01  5.890283E+05  7.627285E+01 -4.014942E+00 -3.282496E+04  6.592322E+01
        16  24 -4.324816E+01  5.890357E+05  1.350608E+02  3.216165E+00 -3.282807E+04  1.031378E+02
        16  25 -9.357515E+04  1.736785E+05 -5.246307E+04  5.901889E+01 -3.282319E+04  3.968144E+01
        16  26 -9.360079E+04  1.735803E+05 -5.244843E+04  7.508381E+01 -3.282728E+04  7.452380E+01
        16  27 -9.362426E+04  1.734964E+05 -5.240761E+04  1.056109E+02 -3.283040E+04  1.093652E+02
        17   1  9.354689E+04  1.004833E+06  5.273566E+04 -1.124645E+02  3.282821E+04 -1.232238E+02
        17   2  9.358015E+04  1.004964E+06  5.291370E+04 -1.531425E+02  3.282230E+04 -3.206888E+02
        17   3  9.363799E+04  1.005137E+06  5.322925E+04 -1.695997E+02  3.279790E+04 -5.181578E+02
        17   4 -4.544651E+01  5.890398E+05  1.782694E+02  5.383641E+00  3.283054E+04 -1.310081E+02
        17   5 -5.105753E+01  5.890231E+05  3.099788E+02 -6.725433E+00  3.282460E+04 -2.839601E+02
        17   6 -3.978794E+01  5.890397E+05  5.483823E+02  5.386438E+00  3.280018E+04 -4.369167E+02
        17   7 -9.364481E+04  1.734241E+05 -5.237968E+04  1.231614E+02  3.283286E+04 -1.387874E+02
        17   8 -9.368930E+04  1.732594E+05 -5.229430E+04  1.396034E+02  3.282691E+04 -2.472547E+02
        17   9 -9.372462E+04  1.731204E+05 -5.213307E+04  1.802665E+02  3.280247E+04 -3.557272E+02
        17  10  9.354573E+04  1.004833E+06  5.273364E+04 -1.124613E+02 -9.316056E-10 -1.990650E-08
        17  11  9.357899E+04  1.004964E+06  5.291167E+04 -1.531341E+02  4.891109E-11 -2.146898E-08
        17  12  9.363684E+04  1.005136E+06  5.322723E+04 -1.695860E+02 -5.998666E-09 -1.937649E-08
        17  13 -4.660425E+01  5.890395E+05  1.762433E+02  5.387104E+00  2.788909E-09  3.704085E-10
        17  14 -5.221487E+01  5.890228E+05  3.079533E+02 -6.717927E+00  3.836825E-09 -7.871268E-10
        17  15 -4.094359E+01  5.890394E+05  5.463596E+02  5.397977E+00  9.551224E-09  5.115406E-10
        17  16 -9.364597E+04  1.734238E+05 -5.238170E+04  1.231650E+02 -9.286991E-10  1.940645E-08
        17  17 -9.369046E+04  1.732591E+05 -5.229633E+04  1.396100E+02 -5.464584E-09  2.124401E-08
        17  18 -9.372578E+04  1.731201E+05 -5.213509E+04  1.802759E+02 -7.618071E-09  1.944649E-08
        17  19  9.354689E+04  1.004833E+06  5.273566E+04 -1.124645E+02 -3.282821E+04  1.232238E+02
        17  20  9.358015E+04  1.004964E+06  5.291370E+04 -1.531425E+02 -3.282230E+04  3.206888E+02
        17  21  9.363799E+04  1.005137E+06  5.322925E+04 -1.695997E+02 -3.279790E+04  5.181578E+02
        17  22 -4.544651E+01  5.890398E+05  1.782694E+02  5.383641E+00 -3.283054E+04  1.310081E+02
        17  23 -5.105753E+01  5.890231E+05  3.099788E+02 -6.725432E+00 -3.282460E+04  2.839601E+02
        17  24 -3.978794E+01  5.890397E+05  5.483823E+02  5.386438E+00 -3.280018E+04  4.369167E+02
        17  25 -9.364481E+04  1.734241E+05 -5.237968E+04  1.231614E+02 -3.283286E+04  1.387874E+02
        17  26 -9.368930E+04  1.732594E+05 -5.229430E+04  1.396034E+02 -3.282691E+04  2.472547E+02
        17  27 -9.372462E+04  1.731204E+05 -5.213307E+04  1.802665E+02 -3.280247E+04  3.557272E+02
        18   1 -7.990513E+06 -2.652134E+06 -1.653606E+06 -2.825913E+06 -7.373902E+05 -2.513046E+05
        18   2 -7.802489E+06 -1.575751E+06 -9.762687E+05 -2.896495E+06 -4.804202E+05 -9.451998E+04
        18   3 -7.966230E+06 -1.497944E+06 -7.682291E+05 -2.767532E+06 -2.031309E+05  8.939214E+03
        18   4 -6.108410E+06 -1.662879E+06 -1.084980E+06 -2.035244E+06 -6.952413E+05 -2.356985E+05
        18   5 -5.876886E+06 -7.657875E+05 -4.557496E+05 -2.286573E+06 -4.672620E+05 -8.963348E+04
        18   6 -5.990202E+06 -8.597876E+05 -2.715601E+05 -2.338708E+06 -2.189872E+05  2.977614E+03
        18   7 -4.222646E+06 -6.723164E+05 -5.166971E+05 -1.242054E+06 -6.529477E+05 -2.199898E+05
        18   8 -3.947609E+06  4.466609E+04  6.443660E+04 -1.674825E+06 -4.540565E+05 -8.472451E+04
        18   9 -4.010325E+06 -2.216188E+05  2.248121E+05 -1.908745E+06 -2.348987E+05 -2.997817E+03
        18  10 -7.991121E+06 -2.652351E+06 -1.654763E+06 -2.826063E+06 -1.448273E-09 -4.924159E-10
        18  11 -7.802742E+06 -1.575824E+06 -9.767256E+05 -2.896532E+06 -2.692280E-09  9.022395E-10
        18  12 -7.966275E+06 -1.497956E+06 -7.683077E+05 -2.767531E+06  3.651562E-09  2.608924E-09
        18  13 -6.108948E+06 -1.663070E+06 -1.086004E+06 -2.035377E+06  5.124973E-09 -5.185622E-10
        18  14 -5.877125E+06 -7.658556E+05 -4.561795E+05 -2.286607E+06  9.502218E-09 -1.663838E-09
        18  15 -5.990253E+06 -8.598006E+05 -2.716511E+05 -2.338708E+06  3.210808E-09 -1.792644E-09
        18  16 -4.223119E+06 -6.724842E+05 -5.175959E+05 -1.242170E+06  6.106398E-09  6.998212E-10
        18  17 -3.947833E+06  4.460245E+04  6.403273E+04 -1.674856E+06  2.609465E-09  1.010183E-09
        18  18 -4.010384E+06 -2.216337E+05  2.247077E+05 -1.908745E+06 -1.393563E-09  2.104629E-09
        18  19 -7.990513E+06 -2.652134E+06 -1.653606E+06 -2.825913E+06  7.373902E+05  2.513046E+05
        18  20 -7.802489E+06 -1.575751E+06 -9.762687E+05 -2.896495E+06  4.804202E+05  9.451998E+04
        18  21 -7.966230E+06 -1.497944E+06 -7.682291E+05 -2.767532E+06  2.031309E+05 -8.939214E+03
        18  22 -6.108410E+06 -1.662879E+06 -1.084980E+06 -2.035244E+06  6.952413E+05  2.356985E+05
        18  23 -5.876886E+06 -7.657875E+05 -4.557496E+05 -2.286573E+06  4.672620E+05  8.963348E+04
        18  24 -5.990202E+06 -8.597876E+05 -2.715601E+05 -2.338708E+06  2.189872E+05 -2.977614E+03
        18  25 -4.222646E+06 -6.723164E+05 -5.166971E+05 -1.242054E+06  6.529477E+05  2.199898E+05
        18  26 -3.947609E+06  4.466609E+04  6.443660E+04 -1.674825E+06  4.540565E+05  8.472451E+04
        18  27 -4.010325E+06 -2.216188E+05  2.248121E+05 -1.908745E+06  2.348987E+05  2.997817E+03
        19   1 -7.691852E+06 -1.653274E+06 -6.819119E+05 -2.781486E+06 -1.773149E+05  7.064297E+03
        19   2 -7.576623E+06 -1.469423E+06 -5.323886E+05 -2.717433E+06 -1.188984E+05  2.635610E+04
        19   3 -7.434959E+06 -1.445323E+06 -4.509187E+05 -2.706136E+06 -5.888809E+04  4.139715E+04
        19   4 -5.950586E+06 -9.721300E+05 -2.198440E+05 -2.282416E+06 -1.777600E+05  6.873568E+03
        19   5 -5.958293E+06 -8.533570E+05 -1.072688E+05 -2.270663E+06 -1.215527E+05  2.534450E+04
        19   6 -5.939026E+06 -8.937195E+05 -6.082792E+04 -2.311683E+06 -6.376609E+04  3.956122E+04
        19   7 -4.206343E+06 -2.907381E+05  2.419575E+05 -1.782041E+06 -1.782059E+05  6.682543E+03
        19   8 -4.337390E+06 -2.371134E+05  3.176264E+05 -1.822820E+06 -1.242144E+05  2.433010E+04
        19   9 -4.440894E+06 -3.419995E+05  3.290753E+05 -1.916368E+06 -6.865702E+04  3.772069E+04
        19  10 -7.691886E+06 -1.653282E+06 -6.819717E+05 -2.781485E+06 -2.842496E-09  1.378437E-09
        19  11 -7.576638E+06 -1.469428E+06 -5.324168E+05 -2.717430E+06 -5.195755E-09  1.316747E-09
        19  12 -7.434963E+06 -1.445326E+06 -4.509284E+05 -2.706134E+06  3.234430E-09  9.314296E-10
        19  13 -5.950620E+06 -9.721387E+05 -2.199040E+05 -2.282415E+06  4.986306E-09 -1.565555E-09
        19  14 -5.958309E+06 -8.533617E+05 -1.072980E+05 -2.270660E+06 -4.983233E-09 -1.325710E-09
        19  15 -5.939031E+06 -8.937223E+05 -6.083852E+04 -2.311681E+06 -1.515497E-11 -1.453430E-09
        19  16 -4.206378E+06 -2.907467E+05  2.418974E+05 -1.782040E+06 -2.236843E-10  3.936357E-09
        19  17 -4.337407E+06 -2.371182E+05  3.175961E+05 -1.822817E+06 -2.981601E-09  5.456069E-10
        19  18 -4.440899E+06 -3.420023E+05  3.290637E+05 -1.916366E+06 -5.890255E-09 -3.289165E-09
        19  19 -7.691852E+06 -1.653274E+06 -6.819119E+05 -2.781486E+06  1.773149E+05 -7.064297E+03
        19  20 -7.576623E+06 -1.469423E+06 -5.323886E+05 -2.717433E+06  1.188984E+05 -2.635610E+04
        19  21 -7.434959E+06 -1.445323E+06 -4.509187E+05 -2.706136E+06  5.888809E+04 -4.139715E+04
        19  22 -5.950586E+06 -9.721300E+05 -2.198440E+05 -2.282416E+06  1.777600E+05 -6.873568E+03
        19  23 -5.958293E+06 -8.533570E+05 -1.072688E+05 -2.270663E+06  1.215527E+05 -2.534450E+04
        19  24 -5.939026E+06 -8.937195E+05 -6.082792E+04 -2.311683E+06  6.376609E+04 -3.956122E+04
        19  25 -4.206343E+06 -2.907381E+05  2.419575E+05 -1.782041E+06  1.782059E+05 -6.682543E+03
        19  26 -4.337390E+06 -2.371134E+05  3.176264E+05 -1.822820E+06  1.242144E+05 -2.433010E+04
        19  27 -4.440894E+06 -3.419995E+05  3.290753E+05 -1.916368E+06  6.865702E+04 -3.772069E+04
        20   1 -7.231085E+06 -1.397665E+06 -3.872549E+05 -2.663897E+06 -4.931824E+04  3.955866E+04
        20   2 -7.100943E+06 -1.282260E+06 -3.206510E+05 -2.570735E+06 -3.355340E+04  3.681774E+04
        20   3 -6.891602E+06 -1.258852E+06 -2.658986E+05 -2.571051E+06 -1.752580E+04  3.332474E+04
        20   4 -5.931381E+06 -9.076950E+05 -4.722725E+04 -2.309833E+06 -5.337202E+04  3.803476E+04
        20   5 -5.970374E+06 -8.577518E+05 -2.486170E+04 -2.264552E+06 -3.799816E+04  3.515350E+04
        20   6 -5.930113E+06 -8.997038E+05 -1.401278E+04 -2.312748E+06 -2.236571E+04  3.151939E+04
        20   7 -4.630018E+06 -4.176181E+05  2.926566E+05 -1.955090E+06 -5.743514E+04  3.650736E+04
        20   8 -4.838552E+06 -4.331665E+05  2.708184E+05 -1.957860E+06 -4.245185E+04  3.348593E+04
        20   9 -4.967721E+06 -5.405033E+05  2.377935E+05 -2.054081E+06 -2.721389E+04  2.971100E+04
        20  10 -7.231088E+06 -1.397668E+06 -3.872624E+05 -2.663895E+06 -1.328972E-09 -2.339384E-09
        20  11 -7.100945E+06 -1.282262E+06 -3.206556E+05 -2.570734E+06 -2.536605E-09 -4.632879E-10
        20  12 -6.891603E+06 -1.258853E+06 -2.659013E+05 -2.571051E+06  3.766295E-09  1.311259E-09
        20  13 -5.931384E+06 -9.076973E+05 -4.723533E+04 -2.309832E+06 -4.133035E-09 -1.499275E-09
        20  14 -5.970376E+06 -8.577535E+05 -2.486673E+04 -2.264551E+06  7.208094E-10 -3.003489E-10
        20  15 -5.930114E+06 -8.997050E+05 -1.401558E+04 -2.312748E+06 -2.849907E-09  1.336760E-10
        20  16 -4.630022E+06 -4.176204E+05  2.926479E+05 -1.955089E+06  1.169255E-09 -1.552721E-09
        20  17 -4.838555E+06 -4.331682E+05  2.708129E+05 -1.957858E+06  7.836835E-10 -9.743733E-10
        20  18 -4.967722E+06 -5.405044E+05  2.377905E+05 -2.054081E+06 -2.749706E-09 -6.501115E-10
        20  19 -7.231085E+06 -1.397665E+06 -3.872549E+05 -2.663897E+06  4.931824E+04 -3.955866E+04
        20  20 -7.100943E+06 -1.282260E+06 -3.206510E+05 -2.570735E+06  3.355340E+04 -3.681774E+04
        20  21 -6.891602E+06 -1.258852E+06 -2.658986E+05 -2.571051E+06  1.752580E+04 -3.332474E+04
        20  22 -5.931381E+06 -9.076950E+05 -4.722725E+04 -2.309833E+06  5.337202E+04 -3.803476E+04
        20  23 -5.970374E+06 -8.577518E+05 -2.486170E+04 -2.264552E+06  3.799816E+04 -3.515350E+04
        20  24 -5.930113E+06 -8.997038E+05 -1.401278E+04 -2.312748E+06  2.236571E+04 -3.151939E+04
        20  25 -4.630018E+06 -4.176181E+05  2.926566E+05 -1.955090E+06  5.743514E+04 -3.650736E+04
        20  26 -4.838552E+06 -4.331665E+05  2.708184E+05 -1.957860E+06  4.245185E+04 -3.348593E+04
        20  27 -4.967721E+06 -5.405033E+05  2.377935E+05 -2.054081E+06  2.721389E+04 -2.971100E+04
        21   1 -6.666799E+06 -1.179743E+06 -2.035309E+05 -2.514385E+06 -1.353461E+04  2.899452E+04
        21   2 -6.521328E+06 -1.060478E+06 -1.497206E+05 -2.408842E+06 -6.768849E+03  2.134227E+04
        21   3 -6.283443E+06 -1.035143E+06 -9.869731E+04 -2.410835E+06  8.462061E+01  1.342488E+04
        21   4 -5.927482E+06 -9.029592E+05 -1.093844E+04 -2.314783E+06 -1.843905E+04  2.716843E+04
        21   5 -5.973583E+06 -8.555302E+05 -6.597894E+03 -2.261176E+06 -1.181685E+04  1.946588E+04
        21   6 -5.927289E+06 -9.019975E+05 -4.926427E+03 -2.315114E+06 -5.108250E+03  1.149802E+04
        21   7 -5.187625E+06 -6.261413E+05  1.816090E+05 -2.114962E+06 -2.334996E+04  2.533994E+04
        21   8 -5.425546E+06 -6.505646E+05  1.364992E+05 -2.113391E+06 -1.686977E+04  1.758765E+04
        21   9 -5.571014E+06 -7.688462E+05  8.883276E+04 -2.219343E+06 -1.030437E+04  9.569966E+03
        21  10 -6.666800E+06 -1.179744E+06 -2.035328E+05 -2.514385E+06  2.119686E-09  5.144057E-10
        21  11 -6.521328E+06 -1.060479E+06 -1.497216E+05 -2.408842E+06 -1.937648E-09 -4.897525E-10
        21  12 -6.283443E+06 -1.035143E+06 -9.869764E+04 -2.410835E+06  1.003653E-10  9.953592E-10
        21  13 -5.927483E+06 -9.029601E+05 -1.094046E+04 -2.314782E+06 -4.449108E-10  1.990107E-09
        21  14 -5.973583E+06 -8.555307E+05 -6.598866E+03 -2.261176E+06  9.861411E-10  1.597871E-09
        21  15 -5.927289E+06 -9.019977E+05 -4.926724E+03 -2.315114E+06 -2.658486E-09  2.277747E-09
        21  16 -5.187625E+06 -6.261421E+05  1.816068E+05 -2.114961E+06 -7.840774E-10  1.048355E-09
        21  17 -5.425546E+06 -6.505650E+05  1.364981E+05 -2.113391E+06  3.244186E-09  2.514209E-09
        21  18 -5.571014E+06 -7.688463E+05  8.883239E+04 -2.219343E+06  4.022770E-10  2.361678E-09
        21  19 -6.666799E+06 -1.179743E+06 -2.035309E+05 -2.514385E+06  1.353461E+04 -2.899452E+04
        21  20 -6.521328E+06 -1.060478E+06 -1.497206E+05 -2.408842E+06  6.768849E+03 -2.134227E+04
        21  21 -6.283443E+06 -1.035143E+06 -9.869731E+04 -2.410835E+06 -8.462061E+01 -1.342488E+04
        21  22 -5.927482E+06 -9.029592E+05 -1.093844E+04 -2.314783E+06  1.843905E+04 -2.716843E+04
        21  23 -5.973583E+06 -8.555302E+05 -6.597894E+03 -2.261176E+06  1.181685E+04 -1.946588E+04
        21  24 -5.927289E+06 -9.019975E+05 -4.926427E+03 -2.315114E+06  5.108250E+03 -1.149802E+04
        21  25 -5.187625E+06 -6.261413E+05  1.816090E+05 -2.114962E+06  2.334996E+04 -2.533994E+04
        21  26 -5.425546E+06 -6.505646E+05  1.364992E+05 -2.113391E+06  1.686977E+04 -1.758765E+04
        21  27 -5.571014E+06 -7.688462E+05  8.883276E+04 -2.219343E+06  1.030437E+04 -9.569966E+03
        22   1 -6.044628E+06 -9.467369E+05 -3.488876E+04 -2.347776E+06  2.945065E+03  8.274901E+03
        22   2 -5.894442E+06 -8.248473E+05  1.504108E+04 -2.238776E+06  9.288697E+03 -2.548492E+01
        22   3 -5.649263E+06 -7.995406E+05  6.257650E+04 -2.240779E+06  1.561601E+04 -8.273659E+03
        22   4 -5.926700E+06 -9.026672E+05 -4.812830E+03 -2.315847E+06 -2.286888E+03  6.334539E+03
        22   5 -5.974220E+06 -8.546437E+05 -5.787186E+03 -2.260238E+06  4.084457E+03 -1.956166E+03
        22   6 -5.926788E+06 -9.032123E+05 -9.175390E+03 -2.315650E+06  1.043844E+04 -1.019488E+04
        22   7 -5.808758E+06 -8.585964E+05  2.526222E+04 -2.283912E+06 -7.519959E+03  4.393759E+03
        22   8 -6.053992E+06 -8.844399E+05 -2.661604E+04 -2.281698E+06 -1.119083E+03 -3.886588E+03
        22   9 -6.204240E+06 -1.006880E+06 -8.093440E+04 -2.390492E+06  5.263365E+03 -1.211517E+04
        22  10 -6.044628E+06 -9.467370E+05 -3.488890E+04 -2.347776E+06 -4.033856E-10  1.123896E-09
        22  11 -5.894442E+06 -8.248473E+05  1.504092E+04 -2.238776E+06  1.631982E-09  5.231196E-11
        22  12 -5.649264E+06 -7.995407E+05  6.257591E+04 -2.240779E+06 -7.222806E-10  1.041727E-09
        22  13 -5.926701E+06 -9.026672E+05 -4.812915E+03 -2.315847E+06  1.733984E-09  6.747842E-10
        22  14 -5.974220E+06 -8.546437E+05 -5.787224E+03 -2.260238E+06 -2.996687E-10 -1.259036E-09
        22  15 -5.926788E+06 -9.032124E+05 -9.175789E+03 -2.315650E+06  3.934272E-10 -3.659039E-10
        22  16 -5.808758E+06 -8.585964E+05  2.526207E+04 -2.283912E+06 -3.164890E-09 -7.187940E-10
        22  17 -6.053992E+06 -8.844399E+05 -2.661607E+04 -2.281698E+06  1.713684E-09 -7.435079E-10
        22  18 -6.204241E+06 -1.006881E+06 -8.093473E+04 -2.390492E+06  2.686060E-09 -8.599738E-10
        22  19 -6.044628E+06 -9.467369E+05 -3.488876E+04 -2.347776E+06 -2.945065E+03 -8.274901E+03
        22  20 -5.894442E+06 -8.248473E+05  1.504108E+04 -2.238776E+06 -9.288697E+03  2.548492E+01
        22  21 -5.649263E+06 -7.995406E+05  6.257650E+04 -2.240779E+06 -1.561601E+04  8.273659E+03
        22  22 -5.926700E+06 -9.026672E+05 -4.812830E+03 -2.315847E+06  2.286888E+03 -6.334539E+03
        22  23 -5.974220E+06 -8.546437E+05 -5.787186E+03 -2.260238E+06 -4.084457E+03  1.956166E+03
        22  24 -5.926788E+06 -9.032123E+05 -9.175390E+03 -2.315650E+06 -1.043844E+04  1.019488E+04
        22  25 -5.808758E+06 -8.585964E+05  2.526222E+04 -2.283912E+06  7.519959E+03 -4.393759E+03
        22  26 -6.053992E+06 -8.844399E+05 -2.661604E+04 -2.281698E+06  1.119083E+03  3.886588E+03
        22  27 -6.204240E+06 -1.006880E+06 -8.093440E+04 -2.390492E+06 -5.263365E+03  1.211517E+04
        23   1 -5.414432E+06 -7.101740E+05  1.230445E+05 -2.177554E+06  1.932626E+04 -1.306552E+04
        23   2 -5.271613E+06 -5.929080E+05  1.626409E+05 -2.072477E+06  3.269319E+04 -1.836300E+04
        23   3 -5.041326E+06 -5.741339E+05  1.928403E+05 -2.071237E+06  4.588293E+04 -2.313440E+04
        23   4 -5.928210E+06 -9.013812E+05 -1.166533E+04 -2.314924E+06  1.414738E+04 -1.498881E+04
        23   5 -5.972402E+06 -8.553306E+05 -2.038874E+04 -2.261818E+06  2.779341E+04 -2.018673E+04
        23   6 -5.929217E+06 -9.078425E+05 -3.873820E+04 -2.312571E+06  4.125884E+04 -2.485943E+04
        23   7 -6.441724E+06 -1.092572E+06 -1.463962E+05 -2.452190E+06  8.973286E+03 -1.691035E+04
        23   8 -6.672707E+06 -1.117722E+06 -2.034589E+05 -2.450964E+06  2.289976E+04 -2.200819E+04
        23   9 -6.816334E+06 -1.241502E+06 -2.703830E+05 -2.553589E+06  3.664203E+04 -2.658174E+04
        23  10 -5.414432E+06 -7.101743E+05  1.230435E+05 -2.177554E+06 -1.730729E-09  2.682543E-10
        23  11 -5.271614E+06 -5.929087E+05  1.626383E+05 -2.072476E+06 -2.930847E-09  1.854434E-09
        23  12 -5.041329E+06 -5.741350E+05  1.928353E+05 -2.071236E+06  2.031514E-09  1.984040E-09
        23  13 -5.928210E+06 -9.013815E+05 -1.166613E+04 -2.314924E+06 -9.446787E-11  1.188414E-09
        23  14 -5.972403E+06 -8.553313E+05 -2.039096E+04 -2.261818E+06 -2.998972E-09 -1.788220E-09
        23  15 -5.929219E+06 -9.078436E+05 -3.874257E+04 -2.312570E+06 -7.472981E-10  3.706741E-10
        23  16 -6.441724E+06 -1.092572E+06 -1.463969E+05 -2.452190E+06  2.217435E-10 -8.176881E-10
        23  17 -6.672707E+06 -1.117723E+06 -2.034608E+05 -2.450963E+06  6.384110E-11 -2.903794E-09
        23  18 -6.816336E+06 -1.241503E+06 -2.703869E+05 -2.553588E+06 -7.135518E-10 -3.274061E-10
        23  19 -5.414432E+06 -7.101740E+05  1.230445E+05 -2.177554E+06 -1.932626E+04  1.306552E+04
        23  20 -5.271613E+06 -5.929080E+05  1.626409E+05 -2.072477E+06 -3.269319E+04  1.836300E+04
        23  21 -5.041326E+06 -5.741339E+05  1.928403E+05 -2.071237E+06 -4.588293E+04  2.313440E+04
        23  22 -5.928210E+06 -9.013812E+05 -1.166533E+04 -2.314924E+06 -1.414738E+04  1.498881E+04
        23  23 -5.972402E+06 -8.553306E+05 -2.038874E+04 -2.261818E+06 -2.779341E+04  2.018673E+04
        23  24 -5.929217E+06 -9.078425E+05 -3.873820E+04 -2.312571E+06 -4.125884E+04  2.485943E+04
        23  25 -6.441724E+06 -1.092572E+06 -1.463962E+05 -2.452190E+06 -8.973286E+03  1.691035E+04
        23  26 -6.672707E+06 -1.117722E+06 -2.034589E+05 -2.450964E+06 -2.289976E+04  2.200819E+04
        23  27 -6.816334E+06 -1.241502E+06 -2.703830E+05 -2.553589E+06 -3.664203E+04  2.658174E+04
        24   1 -4.824965E+06 -4.898921E+05  2.389626E+05 -2.023777E+06  5.572890E+04 -2.553515E+04
        24   2 -4.700369E+06 -3.724999E+05  2.429844E+05 -1.918832E+06  1.019725E+05 -1.712411E+04
        24   3 -4.528870E+06 -4.100515E+05  1.943509E+05 -1.886438E+06  1.468551E+05 -4.979543E+03
        24   4 -5.935093E+06 -8.967790E+05 -4.986474E+04 -2.314504E+06  5.031800E+04 -2.755614E+04
        24   5 -5.963003E+06 -8.512373E+05 -8.781208E+04 -2.266273E+06  9.854866E+04 -1.841203E+04
        24   6 -5.944502E+06 -9.611608E+05 -1.800894E+05 -2.290611E+06  1.454053E+05 -5.537536E+03
        24   7 -7.044021E+06 -1.303607E+06 -3.387966E+05 -2.604764E+06  4.491773E+04 -2.957338E+04
        24   8 -7.224078E+06 -1.329870E+06 -4.187453E+05 -2.613066E+06  9.513240E+04 -1.969708E+04
        24   9 -7.358170E+06 -1.512108E+06 -5.547038E+05 -2.693927E+06  1.439588E+05 -6.094192E+03
        24  10 -4.824968E+06 -4.898936E+05  2.389555E+05 -2.023776E+06  1.624402E-09  1.491633E-09
        24  11 -4.700380E+06 -3.725031E+05  2.429642E+05 -1.918831E+06  2.641522E-09  3.194793E-09
        24  12 -4.528894E+06 -4.100573E+05  1.943101E+05 -1.886438E+06  4.122554E-09 -5.614773E-10
        24  13 -5.935096E+06 -8.967805E+05 -4.987094E+04 -2.314503E+06  3.258182E-09  2.859470E-09
        24  14 -5.963014E+06 -8.512403E+05 -8.783111E+04 -2.266271E+06 -3.452269E-09  3.004343E-09
        24  15 -5.944525E+06 -9.611666E+05 -1.801295E+05 -2.290610E+06  1.719411E-09 -6.639931E-10
        24  16 -7.044024E+06 -1.303609E+06 -3.388020E+05 -2.604763E+06 -4.911569E-10  1.072121E-09
        24  17 -7.224088E+06 -1.329873E+06 -4.187632E+05 -2.613064E+06  3.300098E-09  2.011605E-10
        24  18 -7.358193E+06 -1.512114E+06 -5.547432E+05 -2.693926E+06 -3.595203E-10 -1.823577E-09
        24  19 -4.824965E+06 -4.898921E+05  2.389626E+05 -2.023777E+06 -5.572890E+04  2.553515E+04
        24  20 -4.700369E+06 -3.724999E+05  2.429844E+05 -1.918832E+06 -1.019725E+05  1.712411E+04
        24  21 -4.528870E+06 -4.100515E+05  1.943509E+05 -1.886438E+06 -1.468551E+05  4.979543E+03
        24  22 -5.935093E+06 -8.967790E+05 -4.986474E+04 -2.314504E+06 -5.031800E+04  2.755614E+04
        24  23 -5.963003E+06 -8.512373E+05 -8.781208E+04 -2.266273E+06 -9.854866E+04  1.841203E+04
        24  24 -5.944502E+06 -9.611608E+05 -1.800894E+05 -2.290611E+06 -1.454053E+05  5.537536E+03
        24  25 -7.044021E+06 -1.303607E+06 -3.387966E+05 -2.604764E+06 -4.491773E+04  2.957338E+04
        24  26 -7.224078E+06 -1.329870E+06 -4.187453E+05 -2.613066E+06 -9.513240E+04  1.969708E+04
        24  27 -7.358170E+06 -1.512108E+06 -5.547038E+05 -2.693927E+06 -1.439588E+05  6.094192E+03
        25   1 -4.305944E+06 -3.293927E+05  1.968647E+05 -1.973347E+06  1.953990E+05  1.309675E+03
        25   2 -4.214882E+06 -8.055217E+04  7.877918E+04 -1.753283E+06  3.733124E+05  6.470383E+04
        25   3 -4.374673E+06 -6.625230E+05 -3.821129E+05 -1.400078E+06  5.331010E+05  1.763513E+05
        25   4 -5.977131E+06 -8.688924E+05 -2.224270E+05 -2.336390E+06  1.799584E+05 -4.461336E+03
        25   5 -5.896504E+06 -7.796638E+05 -3.733061E+05 -2.279401E+06  3.842541E+05  6.875656E+04
        25   6 -6.072912E+06 -1.527964E+06 -8.887923E+05 -2.089059E+06  5.703854E+05  1.901759E+05
        25   7 -7.645575E+06 -1.408382E+06 -6.419299E+05 -2.698619E+06  1.645632E+05 -1.022089E+04
        25   8 -7.575335E+06 -1.478422E+06 -8.256423E+05 -2.804153E+06  3.951619E+05  7.279345E+04
        25   9 -7.768208E+06 -2.392460E+06 -1.395749E+06 -2.776087E+06  6.075553E+05  2.039231E+05
        25  10 -4.305985E+06 -3.294031E+05  1.967924E+05 -1.973347E+06 -8.253977E-12 -9.245239E-10
        25  11 -4.215034E+06 -8.059448E+04  7.850734E+04 -1.753303E+06 -8.911099E-10  1.175475E-09
        25  12 -4.374989E+06 -6.626337E+05 -3.827101E+05 -1.400154E+06  4.940599E-09  3.407099E-10
        25  13 -5.977166E+06 -8.689012E+05 -2.224885E+05 -2.336390E+06  4.474514E-09 -1.457949E-09
        25  14 -5.896665E+06 -7.797091E+05 -3.735955E+05 -2.279422E+06 -5.793528E-09  1.103901E-09
        25  15 -6.073274E+06 -1.528092E+06 -8.894791E+05 -2.089147E+06 -1.381297E-09 -5.097968E-10
        25  16 -7.645605E+06 -1.408390E+06 -6.419815E+05 -2.698618E+06  4.975269E-09 -1.262267E-09
        25  17 -7.575505E+06 -1.478470E+06 -8.259498E+05 -2.804176E+06  3.224718E-09  4.863541E-10
        25  18 -7.768620E+06 -2.392606E+06 -1.396532E+06 -2.776188E+06  6.966729E-10 -7.089885E-10
        25  19 -4.305944E+06 -3.293927E+05  1.968647E+05 -1.973347E+06 -1.953990E+05 -1.309675E+03
        25  20 -4.214882E+06 -8.055217E+04  7.877918E+04 -1.753283E+06 -3.733124E+05 -6.470383E+04
        25  21 -4.374673E+06 -6.625230E+05 -3.821129E+05 -1.400078E+06 -5.331010E+05 -1.763513E+05
        25  22 -5.977131E+06 -8.688924E+05 -2.224270E+05 -2.336390E+06 -1.799584E+05  4.461336E+03
        25  23 -5.896504E+06 -7.796638E+05 -3.733061E+05 -2.279401E+06 -3.842541E+05 -6.875656E+04
        25  24 -6.072912E+06 -1.527964E+06 -8.887923E+05 -2.089059E+06 -5.703854E+05 -1.901759E+05
        25  25 -7.645575E+06 -1.408382E+06 -6.419299E+05 -2.698619E+06 -1.645632E+05  1.022089E+04
        25  26 -7.575335E+06 -1.478422E+06 -8.256423E+05 -2.804153E+06 -3.951619E+05 -7.279345E+04
        25  27 -7.768208E+06 -2.392460E+06 -1.395749E+06 -2.776087E+06 -6.075553E+05 -2.039231E+05
        26   1  3.079222E+05  3.398697E+04  3.413720E+05 -2.333862E+05 -9.783415E+02  2.174687E+05
        26   2  6.442751E+04 -3.747580E+04  1.706434E+05 -1.268734E+05 -2.421360E+03  1.271329E+05
        26   3 -3.614807E+03 -5.335843E+04  1.025983E+05 -2.993220E+04 -4.817745E+03  3.679877E+04
        26   4  2.998148E+05  7.098169E+03  3.340394E+05 -4.435379E+04 -9.179234E+02  2.196319E+05
        26   5  6.761309E+04 -2.054798E+04  1.724730E+05 -3.995542E+04 -2.413511E+03  1.308740E+05
        26   6  1.055160E+04  7.095684E+03  1.124945E+05 -4.511361E+04 -4.832754E+03  4.211189E+04
        26   7  2.918417E+05 -1.971329E+04  3.267259E+05  1.446703E+05 -8.561857E+02  2.217950E+05
        26   8  7.082708E+04 -3.603590E+03  1.743066E+05  4.696501E+04 -2.404616E+03  1.346151E+05
        26   9  2.471869E+04  6.755396E+04  1.223909E+05 -6.029655E+04 -4.848021E+03  4.742551E+04
        26  10  3.079095E+05  3.393620E+04  3.412832E+05 -2.333860E+05  1.890417E-09  5.845104E-09
        26  11  6.442317E+04 -3.749316E+04  1.706130E+05 -1.268731E+05 -6.286344E-10 -8.792732E-10
        26  12 -3.615195E+03 -5.335989E+04  1.025957E+05 -2.993206E+04 -1.158728E-10 -8.592404E-09
        26  13  2.998019E+05  7.046383E+03  3.339488E+05 -4.435363E+04 -1.435756E-09  1.397197E-09
        26  14  6.760849E+04 -2.056637E+04  1.724408E+05 -3.995517E+04  6.699727E-09  2.179630E-09
        26  15  1.055110E+04  7.093773E+03  1.124911E+05 -4.511345E+04  6.557420E-10 -6.411812E-10
        26  16  2.918285E+05 -1.976610E+04  3.266335E+05  1.446705E+05  8.495201E-10 -5.035587E-09
        26  17  7.082221E+04 -3.623047E+03  1.742725E+05  4.696527E+04  6.480550E-10  1.015550E-09
        26  18  2.471806E+04  6.755154E+04  1.223866E+05 -6.029636E+04 -1.835376E-09  7.449022E-09
        26  19  3.079222E+05  3.398697E+04  3.413720E+05 -2.333862E+05  9.783415E+02 -2.174687E+05
        26  20  6.442751E+04 -3.747580E+04  1.706434E+05 -1.268734E+05  2.421360E+03 -1.271329E+05
        26  21 -3.614807E+03 -5.335843E+04  1.025983E+05 -2.993220E+04  4.817745E+03 -3.679877E+04
        26  22  2.998148E+05  7.098169E+03  3.340394E+05 -4.435379E+04  9.179234E+02 -2.196319E+05
        26  23  6.761309E+04 -2.054798E+04  1.724730E+05 -3.995542E+04  2.413511E+03 -1.308740E+05
        26  24  1.055160E+04  7.095684E+03  1.124945E+05 -4.511361E+04  4.832754E+03 -4.211189E+04
        26  25  2.918417E+05 -1.971329E+04  3.267259E+05  1.446703E+05  8.561857E+02 -2.217950E+05
        26  26  7.082708E+04 -3.603590E+03  1.743066E+05  4.696501E+04  2.404616E+03 -1.346151E+05
        26  27  2.471869E+04  6.755396E+04  1.223909E+05 -6.029655E+04  4.848021E+03 -4.742551E+04
        27   1 -6.900604E+03 -9.183323E+04  8.498243E+04 -5.431071E+04 -6.645879E+03  2.038740E+04
        27   2 -2.531231E+04 -1.420610E+05  7.319471E+04 -3.885742E+04 -9.336766E+03 -2.663368E+04
        27   3 -1.918603E+04 -1.800848E+05  9.815243E+04 -3.326275E+04 -1.147017E+04 -7.365064E+04
        27   4  1.392324E+04 -2.446175E+03  1.000051E+05 -4.508420E+04 -6.659504E+03  2.566425E+04
        27   5  5.968936E+03 -8.629860E+03  9.611904E+04 -4.014350E+04 -9.347886E+03 -2.231770E+04
        27   6  2.271580E+04 -2.447970E+03  1.296409E+05 -4.506046E+04 -1.147726E+04 -7.029870E+04
        27   7  3.474701E+04  8.694900E+04  1.150277E+05 -3.585632E+04 -6.672970E+03  3.094184E+04
        27   8  3.724924E+04  1.248188E+05  1.190428E+05 -4.142987E+04 -9.359024E+03 -1.800082E+04
        27   9  6.461642E+04  1.752200E+05  1.611282E+05 -5.686162E+04 -1.148448E+04 -6.694583E+04
        27  10 -6.900763E+03 -9.183368E+04  8.498157E+04 -5.431060E+04 -2.073120E-09  5.671798E-11
        27  11 -2.531259E+04 -1.420617E+05  7.319321E+04 -3.885762E+04  1.877761E-10 -1.175548E-10
        27  12 -1.918763E+04 -1.800907E+05  9.814199E+04 -3.326343E+04 -3.513106E-09  4.263792E-10
        27  13  1.392302E+04 -2.446894E+03  1.000038E+05 -4.508407E+04  2.932560E-09 -2.272603E-10
        27  14  5.968709E+03 -8.630418E+03  9.611794E+04 -4.014367E+04 -3.225987E-09  1.613791E-09
        27  15  2.271433E+04 -2.453311E+03  1.296313E+05 -4.506111E+04 -1.047862E-09 -2.835994E-10
        27  16  3.474670E+04  8.694796E+04  1.150259E+05 -3.585615E+04 -3.324540E-09 -1.944066E-09
        27  17  3.724906E+04  1.248184E+05  1.190421E+05 -4.143000E+04 -2.446606E-09  5.173784E-10
        27  18  6.461507E+04  1.752152E+05  1.611196E+05 -5.686223E+04  5.053491E-10  2.618814E-10
        27  19 -6.900604E+03 -9.183323E+04  8.498243E+04 -5.431071E+04  6.645879E+03 -2.038740E+04
        27  20 -2.531231E+04 -1.420610E+05  7.319471E+04 -3.885742E+04  9.336766E+03  2.663368E+04
        27  21 -1.918603E+04 -1.800848E+05  9.815243E+04 -3.326275E+04  1.147017E+04  7.365064E+04
        27  22  1.392324E+04 -2.446175E+03  1.000051E+05 -4.508420E+04  6.659504E+03 -2.566425E+04
        27  23  5.968936E+03 -8.629860E+03  9.611904E+04 -4.014350E+04  9.347886E+03  2.231770E+04
        27  24  2.271580E+04 -2.447970E+03  1.296409E+05 -4.506046E+04  1.147726E+04  7.029870E+04
        27  25  3.474701E+04  8.694900E+04  1.150277E+05 -3.585632E+04  6.672970E+03 -3.094184E+04
        27  26  3.724924E+04  1.248188E+05  1.190428E+05 -4.142987E+04  9.359024E+03  1.800082E+04
        27  27  6.461642E+04  1.752200E+05  1.611282E+05 -5.686162E+04  1.148448E+04  6.694583E+04
        28   1 -3.194401E+04 -1.922649E+05  1.219418E+05 -7.071461E+04 -1.296401E+04 -9.618023E+04
        28   2  4.980417E+04 -2.792017E+05  2.207336E+05  1.007929E+05 -1.154607E+04 -2.230180E+05
        28   3  4.142687E+05 -2.789092E+05  4.728607E+05  2.633459E+05 -3.058985E+03 -3.498249E+05
        28   4  1.668767E+04  1.464068E+04  1.589725E+05 -4.502013E+04 -1.297829E+04 -9.207917E+04
        28   5  1.102978E+05 -2.998314E+04  2.698403E+05 -3.993988E+04 -1.147470E+04 -2.311189E+05
        28   6  4.885739E+05  1.463881E+04  5.424685E+05 -4.382353E+04 -2.835260E+03 -3.701396E+05
        28   7  6.531949E+04  2.215895E+05  1.960020E+05 -1.931682E+04 -1.299222E+04 -8.797677E+04
        28   8  1.708620E+05  2.193374E+05  3.189548E+05 -1.807304E+05 -1.139969E+04 -2.392230E+05
        28   9  5.632274E+05  3.084691E+05  6.121223E+05 -3.511394E+05 -2.591510E+03 -3.904639E+05
        28  10 -3.194667E+04 -1.922749E+05  1.219241E+05 -7.071561E+04 -1.915491E-09  4.973165E-09
        28  11  4.979067E+04 -2.792551E+05  2.206398E+05  1.007908E+05 -3.507697E-09 -5.876433E-11
        28  12  4.142359E+05 -2.790407E+05  4.726306E+05  2.633450E+05  1.377451E-11 -2.915928E-09
        28  13  1.668521E+04  1.463153E+04  1.589563E+05 -4.502109E+04 -1.343183E-09 -3.330903E-10
        28  14  1.102833E+05 -3.004052E+04  2.697397E+05 -3.994202E+04 -1.836555E-09  1.077670E-09
        28  15  4.885371E+05  1.449175E+04  5.422110E+05 -4.382438E+04  8.869873E-10  3.510278E-11
        28  16  6.531723E+04  2.215811E+05  1.959872E+05 -1.931774E+04 -8.291576E-10 -5.231431E-09
        28  17  1.708465E+05  2.192760E+05  3.188471E+05 -1.807326E+05  2.548376E-09 -1.284102E-09
        28  18  5.631864E+05  3.083056E+05  6.118359E+05 -3.511403E+05  1.075941E-09  3.069762E-09
        28  19 -3.194401E+04 -1.922649E+05  1.219418E+05 -7.071461E+04  1.296401E+04  9.618023E+04
        28  20  4.980417E+04 -2.792017E+05  2.207336E+05  1.007929E+05  1.154607E+04  2.230180E+05
        28  21  4.142687E+05 -2.789092E+05  4.728607E+05  2.633459E+05  3.058985E+03  3.498249E+05
        28  22  1.668767E+04  1.464068E+04  1.589725E+05 -4.502013E+04  1.297829E+04  9.207917E+04
        28  23  1.102978E+05 -2.998314E+04  2.698403E+05 -3.993988E+04  1.147470E+04  2.311189E+05
        28  24  4.885739E+05  1.463881E+04  5.424685E+05 -4.382353E+04  2.835260E+03  3.701396E+05
        28  25  6.531949E+04  2.215895E+05  1.960020E+05 -1.931682E+04  1.299222E+04  8.797677E+04
        28  26  1.708620E+05  2.193374E+05  3.189548E+05 -1.807304E+05  1.139969E+04  2.392230E+05
        28  27  5.632274E+05  3.084691E+05  6.121223E+05 -3.511394E+05  2.591510E+03  3.904639E+05
        29   1 -3.697486E+06 -1.055799E+06 -5.729636E+05 -1.360878E+06 -2.966133E+05 -1.060893E+05
        29   2 -3.616234E+06 -6.066658E+05 -2.950411E+05 -1.386743E+06 -1.909797E+05 -5.441149E+04
        29   3 -3.678051E+06 -5.741146E+05 -2.075208E+05 -1.333672E+06 -8.094178E+04 -1.437236E+04
        29   4 -3.331002E+06 -8.044546E+05 -4.510113E+05 -1.146040E+06 -2.876992E+05 -1.027887E+05
        29   5 -3.236031E+06 -4.298827E+05 -1.894435E+05 -1.248436E+06 -1.885311E+05 -5.350039E+04
        29   6 -3.282748E+06 -4.704784E+05 -1.130431E+05 -1.271929E+06 -8.495768E+04 -1.588116E+04
        29   7 -2.964357E+06 -5.529816E+05 -3.290701E+05 -9.310592E+05 -2.787795E+05 -9.948186E+04
        29   8 -2.855685E+06 -2.530678E+05 -8.385968E+04 -1.110046E+06 -1.860808E+05 -5.258832E+04
        29   9 -2.887289E+06 -3.668466E+05 -1.857523E+04 -1.210160E+06 -8.897640E+04 -1.739028E+04
        29  10 -3.697584E+06 -1.055835E+06 -5.731513E+05 -1.360904E+06  2.387719E-10 -4.188767E-10
        29  11 -3.616274E+06 -6.066789E+05 -2.951157E+05 -1.386751E+06  6.491388E-10  2.118528E-09
        29  12 -3.678059E+06 -5.741166E+05 -2.075336E+05 -1.333673E+06  1.480308E-09  7.077029E-10
        29  13 -3.331094E+06 -8.044884E+05 -4.511877E+05 -1.146064E+06 -2.258601E-09  7.600315E-10
        29  14 -3.236070E+06 -4.298954E+05 -1.895161E+05 -1.248445E+06  1.202760E-09  3.255387E-10
        29  15 -3.282756E+06 -4.704807E+05 -1.130572E+05 -1.271931E+06 -7.419789E-10  3.315414E-10
        29  16 -2.964444E+06 -5.530132E+05 -3.292356E+05 -9.310816E+05  3.059954E-09  8.006766E-10
        29  17 -2.855723E+06 -2.530802E+05 -8.393032E+04 -1.110054E+06 -7.145182E-10  1.044809E-09
        29  18 -2.887297E+06 -3.668490E+05 -1.859076E+04 -1.210161E+06 -2.257967E-09  6.067735E-10
        29  19 -3.697486E+06 -1.055799E+06 -5.729636E+05 -1.360878E+06  2.966133E+05  1.060893E+05
        29  20 -3.616234E+06 -6.066658E+05 -2.950411E+05 -1.386743E+06  1.909797E+05  5.441149E+04
        29  21 -3.678051E+06 -5.741146E+05 -2.075208E+05 -1.333672E+06  8.094178E+04  1.437236E+04
        29  22 -3.331002E+06 -8.044546E+05 -4.510113E+05 -1.146040E+06  2.876992E+05  1.027887E+05
        29  23 -3.236031E+06 -4.298827E+05 -1.894435E+05 -1.248436E+06  1.885311E+05  5.350039E+04
        29  24 -3.282748E+06 -4.704784E+05 -1.130431E+05 -1.271929E+06  8.495768E+04  1.588116E+04
        29  25 -2.964357E+06 -5.529816E+05 -3.290701E+05 -9.310592E+05  2.787795E+05  9.948186E+04
        29  26 -2.855685E+06 -2.530678E+05 -8.385968E+04 -1.110046E+06  1.860808E+05  5.258832E+04
        29  27 -2.887289E+06 -3.668466E+05 -1.857523E+04 -1.210160E+06  8.897640E+04  1.739028E+04
        30   1 -3.568460E+06 -6.386080E+05 -1.720256E+05 -1.338907E+06 -6.770317E+04 -1.258144E+04
        30   2 -3.526933E+06 -5.684843E+05 -1.126140E+05 -1.317626E+06 -4.370649E+04 -5.114577E+03
        30   3 -3.479859E+06 -5.602695E+05 -8.129773E+04 -1.313282E+06 -1.939652E+04  1.526728E+03
        30   4 -3.267741E+06 -5.154846E+05 -9.149889E+04 -1.246642E+06 -6.826859E+04 -1.279641E+04
        30   5 -3.268221E+06 -4.684440E+05 -4.459786E+04 -1.244237E+06 -4.472298E+04 -5.498331E+03
        30   6 -3.263060E+06 -4.832114E+05 -2.542166E+04 -1.258771E+06 -2.086592E+04  9.730164E+02
        30   7 -2.966933E+06 -3.923505E+05 -1.097989E+04 -1.154335E+06 -6.883431E+04 -1.301152E+04
        30   8 -3.009444E+06 -3.683983E+05  2.341264E+04 -1.170819E+06 -4.573993E+04 -5.882270E+03
        30   9 -3.046214E+06 -4.061517E+05  3.045057E+04 -1.204242E+06 -2.233587E+04  4.191195E+02
        30  10 -3.568465E+06 -6.386094E+05 -1.720346E+05 -1.338907E+06 -4.215913E-09  8.402429E-10
        30  11 -3.526935E+06 -5.684849E+05 -1.126176E+05 -1.317626E+06 -5.336767E-10  2.501356E-09
        30  12 -3.479860E+06 -5.602696E+05 -8.129845E+04 -1.313282E+06  2.530087E-09  1.936222E-10
        30  13 -3.267746E+06 -5.154860E+05 -9.150801E+04 -1.246643E+06 -2.533571E-09  1.408280E-09
        30  14 -3.268223E+06 -4.684446E+05 -4.460170E+04 -1.244237E+06 -3.853242E-09  1.992658E-09
        30  15 -3.263060E+06 -4.832115E+05 -2.542248E+04 -1.258771E+06  1.198093E-11 -1.293994E-11
        30  16 -2.966938E+06 -3.923520E+05 -1.098916E+04 -1.154336E+06  4.145830E-09  8.431888E-10
        30  17 -3.009446E+06 -3.683989E+05  2.340862E+04 -1.170820E+06 -1.213752E-09  1.215584E-09
        30  18 -3.046214E+06 -4.061518E+05  3.044963E+04 -1.204242E+06 -2.720937E-09 -1.400762E-09
        30  19 -3.568460E+06 -6.386080E+05 -1.720256E+05 -1.338907E+06  6.770317E+04  1.258144E+04
        30  20 -3.526933E+06 -5.684843E+05 -1.126140E+05 -1.317626E+06  4.370649E+04  5.114577E+03
        30  21 -3.479859E+06 -5.602695E+05 -8.129773E+04 -1.313282E+06  1.939652E+04 -1.526728E+03
        30  22 -3.267741E+06 -5.154846E+05 -9.149889E+04 -1.246642E+06  6.826859E+04  1.279641E+04
        30  23 -3.268221E+06 -4.684440E+05 -4.459786E+04 -1.244237E+06  4.472298E+04  5.498331E+03
        30  24 -3.263060E+06 -4.832114E+05 -2.542166E+04 -1.258771E+06  2.086592E+04 -9.730164E+02
        30  25 -2.966933E+06 -3.923505E+05 -1.097989E+04 -1.154335E+06  6.883431E+04  1.301152E+04
        30  26 -3.009444E+06 -3.683983E+05  2.341264E+04 -1.170819E+06  4.573993E+04  5.882270E+03
        30  27 -3.046214E+06 -4.061517E+05  3.045057E+04 -1.204242E+06  2.233587E+04 -4.191195E+02
        31   1 -3.415337E+06 -5.464395E+05 -5.995477E+04 -1.299388E+06 -1.545025E+04  1.362121E+03
        31   2 -3.376958E+06 -5.117095E+05 -3.780757E+04 -1.272395E+06 -9.304722E+03  1.073515E+03
        31   3 -3.316342E+06 -5.051273E+05 -2.063170E+04 -1.272347E+06 -3.130719E+03  7.091702E+02
        31   4 -3.261073E+06 -4.876736E+05 -1.972197E+04 -1.256494E+06 -1.670627E+04  8.888187E+02
        31   5 -3.271968E+06 -4.720724E+05 -1.038993E+04 -1.243594E+06 -1.060185E+04  5.848941E+02
        31   6 -3.260621E+06 -4.846102E+05 -5.995126E+03 -1.257640E+06 -4.469396E+03  2.050652E+02
        31   7 -3.106785E+06 -4.289062E+05  2.050868E+04 -1.213590E+06 -1.796262E+04  4.153847E+02
        31   8 -3.166968E+06 -4.324347E+05  1.702677E+04 -1.214789E+06 -1.189921E+04  9.618166E+01
        31   9 -3.204897E+06 -4.640929E+05  8.641235E+03 -1.242933E+06 -5.808211E+03 -2.990886E+02
        31  10 -3.415338E+06 -5.464396E+05 -5.995522E+04 -1.299388E+06  2.014718E-09 -2.098063E-09
        31  11 -3.376958E+06 -5.117095E+05 -3.780773E+04 -1.272395E+06 -3.095795E-09 -2.202654E-09
        31  12 -3.316342E+06 -5.051273E+05 -2.063172E+04 -1.272347E+06 -2.358629E-09 -1.616974E-09
        31  13 -3.261073E+06 -4.876737E+05 -1.972250E+04 -1.256494E+06 -9.709681E-10 -2.389695E-09
        31  14 -3.271969E+06 -4.720725E+05 -1.039015E+04 -1.243594E+06 -2.339559E-09 -3.134785E-09
        31  15 -3.260621E+06 -4.846102E+05 -5.995164E+03 -1.257640E+06 -4.483207E-09 -1.296011E-09
        31  16 -3.106786E+06 -4.289063E+05  2.050807E+04 -1.213590E+06 -2.434393E-09 -2.021358E-09
        31  17 -3.166968E+06 -4.324347E+05  1.702650E+04 -1.214789E+06 -4.029659E-10 -6.453995E-10
        31  18 -3.204897E+06 -4.640929E+05  8.641172E+03 -1.242933E+06  3.998190E-10  1.303947E-09
        31  19 -3.415337E+06 -5.464395E+05 -5.995477E+04 -1.299388E+06  1.545025E+04 -1.362121E+03
        31  20 -3.376958E+06 -5.117095E+05 -3.780757E+04 -1.272395E+06  9.304722E+03 -1.073515E+03
        31  21 -3.316342E+06 -5.051273E+05 -2.063170E+04 -1.272347E+06  3.130719E+03 -7.091702E+02
        31  22 -3.261073E+06 -4.876736E+05 -1.972197E+04 -1.256494E+06  1.670627E+04 -8.888187E+02
        31  23 -3.271968E+06 -4.720724E+05 -1.038993E+04 -1.243594E+06  1.060185E+04 -5.848941E+02
        31  24 -3.260621E+06 -4.846102E+05 -5.995126E+03 -1.257640E+06  4.469396E+03 -2.050652E+02
        31  25 -3.106785E+06 -4.289062E+05  2.050868E+04 -1.213590E+06  1.796262E+04 -4.153847E+02
        31  26 -3.166968E+06 -4.324347E+05  1.702677E+04 -1.214789E+06  1.189921E+04 -9.618166E+01
        31  27 -3.204897E+06 -4.640929E+05  8.641235E+03 -1.242933E+06  5.808211E+03  2.990886E+02
        32   1 -3.255325E+06 -4.831004E+05 -3.215279E+03 -1.256068E+06 -1.745206E+03 -3.557548E+02
        32   2 -3.217365E+06 -4.516868E+05  1.134508E+04 -1.228463E+06  6.512100E+02 -2.153793E+03
        32   3 -3.155267E+06 -4.451871E+05  2.467025E+04 -1.228711E+06  3.044500E+03 -3.942404E+03
        32   4 -3.260360E+06 -4.850165E+05 -4.715862E+03 -1.257419E+06 -3.070450E+03 -8.547803E+02
        32   5 -3.272410E+06 -4.724405E+05 -3.023321E+03 -1.243536E+06 -6.688720E+02 -2.650961E+03
        32   6 -3.260326E+06 -4.847796E+05 -2.569816E+03 -1.257508E+06  1.729429E+03 -4.437750E+03
        32   7 -3.265395E+06 -4.869327E+05 -6.216443E+03 -1.258770E+06 -4.395684E+03 -1.353802E+03
        32   8 -3.327452E+06 -4.931938E+05 -1.739188E+04 -1.258608E+06 -1.988818E+03 -3.148078E+03
        32   9 -3.365373E+06 -5.243709E+05 -2.981043E+04 -1.286301E+06  4.146195E+02 -4.932996E+03
        32  10 -3.255325E+06 -4.831004E+05 -3.215285E+03 -1.256068E+06  1.412341E-09 -4.866109E-10
        32  11 -3.217365E+06 -4.516868E+05  1.134507E+04 -1.228463E+06 -1.702834E-09 -4.955766E-12
        32  12 -3.155267E+06 -4.451871E+05  2.467020E+04 -1.228711E+06 -9.031115E-10  1.523824E-09
        32  13 -3.260360E+06 -4.850165E+05 -4.715882E+03 -1.257419E+06  4.263846E-10  2.195194E-10
        32  14 -3.272410E+06 -4.724405E+05 -3.023335E+03 -1.243536E+06 -2.786328E-10 -8.480463E-10
        32  15 -3.260326E+06 -4.847797E+05 -2.569859E+03 -1.257508E+06  2.592367E-09  1.722865E-09
        32  16 -3.265395E+06 -4.869327E+05 -6.216483E+03 -1.258770E+06 -2.297581E-09  8.650386E-11
        32  17 -3.327452E+06 -4.931939E+05 -1.739191E+04 -1.258608E+06  2.964555E-09  9.841919E-11
        32  18 -3.365373E+06 -5.243710E+05 -2.981047E+04 -1.286301E+06  2.600710E-09  1.297350E-09
        32  19 -3.255325E+06 -4.831004E+05 -3.215279E+03 -1.256068E+06  1.745206E+03  3.557548E+02
        32  20 -3.217365E+06 -4.516868E+05  1.134508E+04 -1.228463E+06 -6.512100E+02  2.153793E+03
        32  21 -3.155267E+06 -4.451871E+05  2.467025E+04 -1.228711E+06 -3.044500E+03  3.942404E+03
        32  22 -3.260360E+06 -4.850165E+05 -4.715862E+03 -1.257419E+06  3.070450E+03  8.547803E+02
        32  23 -3.272410E+06 -4.724405E+05 -3.023321E+03 -1.243536E+06  6.688720E+02  2.650961E+03
        32  24 -3.260326E+06 -4.847796E+05 -2.569816E+03 -1.257508E+06 -1.729429E+03  4.437750E+03
        32  25 -3.265395E+06 -4.869327E+05 -6.216443E+03 -1.258770E+06  4.395684E+03  1.353802E+03
        32  26 -3.327452E+06 -4.931938E+05 -1.739188E+04 -1.258608E+06  1.988818E+03  3.148078E+03
        32  27 -3.365373E+06 -5.243709E+05 -2.981043E+04 -1.286301E+06 -4.146195E+02  4.932996E+03
        33   1 -3.095786E+06 -4.225376E+05  4.050008E+04 -1.212304E+06  3.979262E+03 -5.148645E+03
        33   2 -3.059265E+06 -3.924824E+05  5.194346E+04 -1.185577E+06  6.619879E+03 -6.782500E+03
        33   3 -2.999511E+06 -3.865478E+05  6.193891E+04 -1.185645E+06  9.239520E+03 -8.356914E+03
        33   4 -3.260526E+06 -4.845674E+05 -2.669460E+03 -1.257289E+06  2.674975E+03 -5.640065E+03
        33   5 -3.272170E+06 -4.726909E+05 -3.613882E+03 -1.243821E+06  5.348043E+03 -7.262024E+03
        33   6 -3.260587E+06 -4.849429E+05 -6.032376E+03 -1.257151E+06  7.999972E+03 -8.824578E+03
        33   7 -3.425242E+06 -5.465962E+05 -4.584179E+04 -1.302264E+06  1.371056E+03 -6.131347E+03
        33   8 -3.485031E+06 -5.528974E+05 -5.917558E+04 -1.302048E+06  4.076676E+03 -7.741372E+03
        33   9 -3.521599E+06 -5.833344E+05 -7.400994E+04 -1.328630E+06  6.760990E+03 -9.292030E+03
        33  10 -3.095786E+06 -4.225376E+05  4.050001E+04 -1.212304E+06  3.716158E-09  7.048562E-10
        33  11 -3.059265E+06 -3.924825E+05  5.194329E+04 -1.185577E+06  3.911885E-09 -6.623158E-10
        33  12 -2.999511E+06 -3.865479E+05  6.193862E+04 -1.185645E+06 -7.434732E-10 -1.957768E-09
        33  13 -3.260526E+06 -4.845674E+05 -2.669533E+03 -1.257289E+06  1.321610E-09  1.459895E-09
        33  14 -3.272170E+06 -4.726910E+05 -3.614035E+03 -1.243821E+06  3.310720E-09  2.554820E-09
        33  15 -3.260587E+06 -4.849430E+05 -6.032643E+03 -1.257151E+06  3.257097E-09 -8.798136E-10
        33  16 -3.425242E+06 -5.465963E+05 -4.584187E+04 -1.302264E+06  1.454054E-09  1.365933E-09
        33  17 -3.485031E+06 -5.528974E+05 -5.917573E+04 -1.302048E+06  1.329369E-10  7.422064E-10
        33  18 -3.521599E+06 -5.833345E+05 -7.401019E+04 -1.328630E+06  3.142321E-09  1.579308E-09
        33  19 -3.095786E+06 -4.225376E+05  4.050008E+04 -1.212304E+06 -3.979262E+03  5.148645E+03
        33  20 -3.059265E+06 -3.924824E+05  5.194346E+04 -1.185577E+06 -6.619879E+03  6.782500E+03
        33  21 -2.999511E+06 -3.865478E+05  6.193891E+04 -1.185645E+06 -9.239520E+03  8.356914E+03
        33  22 -3.260526E+06 -4.845674E+05 -2.669460E+03 -1.257289E+06 -2.674975E+03  5.640065E+03
        33  23 -3.272170E+06 -4.726909E+05 -3.613882E+03 -1.243821E+06 -5.348043E+03  7.262024E+03
        33  24 -3.260587E+06 -4.849429E+05 -6.032376E+03 -1.257151E+06 -7.999972E+03  8.824578E+03
        33  25 -3.425242E+06 -5.465962E+05 -4.584179E+04 -1.302264E+06 -1.371056E+03  6.131347E+03
        33  26 -3.485031E+06 -5.528974E+05 -5.917558E+04 -1.302048E+06 -4.076676E+03  7.741372E+03
        33  27 -3.521599E+06 -5.833344E+05 -7.400994E+04 -1.328630E+06 -6.760990E+03  9.292030E+03
        34   1 -2.943806E+06 -3.649659E+05  7.513943E+04 -1.170768E+06  1.085147E+04 -9.223001E+03
        34   2 -2.909946E+06 -3.363562E+05  8.060476E+04 -1.145341E+06  1.848021E+04 -8.775886E+03
        34   3 -2.856997E+06 -3.344646E+05  7.965644E+04 -1.143541E+06  2.605109E+04 -8.169330E+03
        34   4 -3.261307E+06 -4.840211E+05 -7.778390E+03 -1.257018E+06  9.614785E+03 -9.689854E+03
        34   5 -3.271145E+06 -4.726969E+05 -1.369289E+04 -1.244437E+06  1.732844E+04 -9.211202E+03
        34   6 -3.261915E+06 -4.881100E+05 -2.609146E+04 -1.255485E+06  2.498376E+04 -8.573262E+03
        34   7 -3.578706E+06 -6.030688E+05 -9.070364E+04 -1.343226E+06  8.378813E+03 -1.015644E+04
        34   8 -3.632216E+06 -6.090287E+05 -1.080012E+05 -1.343481E+06  1.617742E+04 -9.646237E+03
        34   9 -3.666675E+06 -6.417451E+05 -1.318538E+05 -1.367364E+06  2.391719E+04 -8.976905E+03
        34  10 -2.943806E+06 -3.649660E+05  7.513905E+04 -1.170768E+06 -9.110897E-09 -3.569705E-09
        34  11 -2.909946E+06 -3.363564E+05  8.060398E+04 -1.145341E+06 -1.592755E-10 -3.938637E-09
        34  12 -2.856998E+06 -3.344649E+05  7.965504E+04 -1.143541E+06  7.869031E-09  1.438871E-09
        34  13 -3.261307E+06 -4.840212E+05 -7.778740E+03 -1.257017E+06  2.668433E-09 -2.344708E-09
        34  14 -3.271146E+06 -4.726971E+05 -1.369361E+04 -1.244437E+06  3.830818E-09 -1.720957E-09
        34  15 -3.261916E+06 -4.881102E+05 -2.609277E+04 -1.255485E+06  1.590268E-09 -9.381232E-10
        34  16 -3.578706E+06 -6.030689E+05 -9.070396E+04 -1.343226E+06  8.039112E-09  1.980261E-09
        34  17 -3.632216E+06 -6.090288E+05 -1.080019E+05 -1.343481E+06  2.489102E-09 -2.247700E-09
        34  18 -3.666676E+06 -6.417454E+05 -1.318551E+05 -1.367363E+06 -7.593995E-09 -3.889160E-09
        34  19 -2.943806E+06 -3.649659E+05  7.513943E+04 -1.170768E+06 -1.085147E+04  9.223001E+03
        34  20 -2.909946E+06 -3.363562E+05  8.060476E+04 -1.145341E+06 -1.848021E+04  8.775886E+03
        34  21 -2.856997E+06 -3.344646E+05  7.965644E+04 -1.143541E+06 -2.605109E+04  8.169330E+03
        34  22 -3.261307E+06 -4.840211E+05 -7.778390E+03 -1.257018E+06 -9.614785E+03  9.689854E+03
        34  23 -3.271145E+06 -4.726969E+05 -1.369289E+04 -1.244437E+06 -1.732844E+04  9.211202E+03
        34  24 -3.261915E+06 -4.881100E+05 -2.609146E+04 -1.255485E+06 -2.498376E+04  8.573262E+03
        34  25 -3.578706E+06 -6.030688E+05 -9.070364E+04 -1.343226E+06 -8.378813E+03  1.015644E+04
        34  26 -3.632216E+06 -6.090287E+05 -1.080012E+05 -1.343481E+06 -1.617742E+04  9.646237E+03
        34  27 -3.666675E+06 -6.417451E+05 -1.318538E+05 -1.367364E+06 -2.391719E+04  8.976905E+03
        35   1 -2.804639E+06 -3.144379E+05  8.543442E+04 -1.138331E+06  3.160140E+04 -7.544923E+03
        35   2 -2.774271E+06 -2.792727E+05  6.986819E+04 -1.107303E+06  6.214654E+04  1.945956E+03
        35   3 -2.747922E+06 -3.140511E+05  1.812850E+04 -1.085193E+06  9.224561E+04  1.262413E+04
        35   4 -3.264814E+06 -4.819224E+05 -3.365607E+04 -1.258198E+06  3.025239E+04 -8.055284E+03
        35   5 -3.265852E+06 -4.682473E+05 -5.910709E+04 -1.245681E+06  6.143739E+04  1.676152E+03
        35   6 -3.271056E+06 -5.246720E+05 -1.212639E+05 -1.242081E+06  9.217442E+04  1.259354E+04
        35   7 -3.724783E+06 -6.493971E+05 -1.527641E+05 -1.377986E+06  2.890448E+04 -8.565266E+03
        35   8 -3.757196E+06 -6.572037E+05 -1.881028E+05 -1.383958E+06  6.072884E+04  1.406584E+03
        35   9 -3.793919E+06 -7.352644E+05 -2.606798E+05 -1.398844E+06  9.210326E+04  1.256296E+04
        35  10 -2.804640E+06 -3.144382E+05  8.543243E+04 -1.138331E+06 -1.332814E-09  1.166227E-09
        35  11 -2.774275E+06 -2.792738E+05  6.986089E+04 -1.107303E+06 -2.899703E-09  2.291702E-09
        35  12 -2.747931E+06 -3.140536E+05  1.811213E+04 -1.085194E+06 -9.335330E-10 -1.560057E-09
        35  13 -3.264815E+06 -4.819227E+05 -3.365791E+04 -1.258198E+06  4.475323E-10 -1.692148E-09
        35  14 -3.265856E+06 -4.682483E+05 -5.911423E+04 -1.245681E+06 -1.015882E-09 -1.001266E-09
        35  15 -3.271065E+06 -5.246745E+05 -1.212802E+05 -1.242082E+06  6.633746E-10  1.320043E-10
        35  16 -3.724784E+06 -6.493974E+05 -1.527658E+05 -1.377985E+06 -6.125530E-10 -2.099321E-09
        35  17 -3.757200E+06 -6.572047E+05 -1.881098E+05 -1.383958E+06 -3.168581E-10 -7.513480E-10
        35  18 -3.793928E+06 -7.352669E+05 -2.606961E+05 -1.398845E+06 -1.163624E-09  1.169305E-09
        35  19 -2.804639E+06 -3.144379E+05  8.543442E+04 -1.138331E+06 -3.160140E+04  7.544923E+03
        35  20 -2.774271E+06 -2.792727E+05  6.986819E+04 -1.107303E+06 -6.214654E+04 -1.945956E+03
        35  21 -2.747922E+06 -3.140511E+05  1.812850E+04 -1.085193E+06 -9.224561E+04 -1.262413E+04
        35  22 -3.264814E+06 -4.819224E+05 -3.365607E+04 -1.258198E+06 -3.025239E+04  8.055284E+03
        35  23 -3.265852E+06 -4.682473E+05 -5.910709E+04 -1.245681E+06 -6.143739E+04 -1.676152E+03
        35  24 -3.271056E+06 -5.246720E+05 -1.212639E+05 -1.242081E+06 -9.217442E+04 -1.259354E+04
        35  25 -3.724783E+06 -6.493971E+05 -1.527641E+05 -1.377986E+06 -2.890448E+04  8.565266E+03
        35  26 -3.757196E+06 -6.572037E+05 -1.881028E+05 -1.383958E+06 -6.072884E+04 -1.406584E+03
        35  27 -3.793919E+06 -7.352644E+05 -2.606798E+05 -1.398844E+06 -9.210326E+04 -1.256296E+04
        36   1 -2.672382E+06 -2.916244E+05 -6.313598E+00 -1.167121E+06  1.189082E+05  1.913116E+04
        36   2 -2.650251E+06 -1.563964E+05 -9.311579E+04 -1.048682E+06  2.467172E+05  6.707973E+04
        36   3 -2.826681E+06 -5.563642E+05 -4.243072E+05 -8.109388E+05  3.683827E+05  1.312678E+05
        36   4 -3.291035E+06 -4.649327E+05 -1.498211E+05 -1.275500E+06  1.140581E+05  1.730634E+04
        36   5 -3.222953E+06 -4.173575E+05 -2.510816E+05 -1.251495E+06  2.508128E+05  6.860903E+04
        36   6 -3.355443E+06 -9.071136E+05 -5.977231E+05 -1.108124E+06  3.814283E+05  1.361074E+05
        36   7 -3.909312E+06 -6.382502E+05 -2.996621E+05 -1.383801E+06  1.092133E+05  1.548234E+04
        36   8 -3.795326E+06 -6.782512E+05 -4.090770E+05 -1.454122E+06  2.549042E+05  7.013595E+04
        36   9 -3.883869E+06 -1.257617E+06 -7.711594E+05 -1.405020E+06  3.944616E+05  1.409343E+05
        36  10 -2.672397E+06 -2.916286E+05 -3.370247E+01 -1.167122E+06 -1.874991E-09 -1.217464E-09
        36  11 -2.650318E+06 -1.564177E+05 -9.323924E+04 -1.048696E+06 -3.924208E-09  4.581018E-09
        36  12 -2.826832E+06 -5.564194E+05 -4.245960E+05 -8.109778E+05  5.733463E-10  1.290812E-09
        36  13 -3.291049E+06 -4.649366E+05 -1.498463E+05 -1.275502E+06  8.693668E-10  5.184963E-10
        36  14 -3.223022E+06 -4.173796E+05 -2.512094E+05 -1.251509E+06  1.302164E-10 -1.818201E-09
        36  15 -3.355604E+06 -9.071729E+05 -5.980332E+05 -1.108166E+06 -9.274437E-10 -1.011291E-10
        36  16 -3.909325E+06 -6.382537E+05 -2.996851E+05 -1.383802E+06  1.266183E-09  2.413067E-09
        36  17 -3.795398E+06 -6.782741E+05 -4.092092E+05 -1.454137E+06 -2.776527E-10  4.884480E-09
        36  18 -3.884043E+06 -1.257681E+06 -7.714915E+05 -1.405065E+06  1.069263E-09 -2.691231E-09
        36  19 -2.672382E+06 -2.916244E+05 -6.313598E+00 -1.167121E+06 -1.189082E+05 -1.913116E+04
        36  20 -2.650251E+06 -1.563964E+05 -9.311579E+04 -1.048682E+06 -2.467172E+05 -6.707973E+04
        36  21 -2.826681E+06 -5.563642E+05 -4.243072E+05 -8.109388E+05 -3.683827E+05 -1.312678E+05
        36  22 -3.291035E+06 -4.649327E+05 -1.498211E+05 -1.275500E+06 -1.140581E+05 -1.730634E+04
        36  23 -3.222953E+06 -4.173575E+05 -2.510816E+05 -1.251495E+06 -2.508128E+05 -6.860903E+04
        36  24 -3.355443E+06 -9.071136E+05 -5.977231E+05 -1.108124E+06 -3.814283E+05 -1.361074E+05
        36  25 -3.909312E+06 -6.382502E+05 -2.996621E+05 -1.383801E+06 -1.092133E+05 -1.548234E+04
        36  26 -3.795326E+06 -6.782512E+05 -4.090770E+05 -1.454122E+06 -2.549042E+05 -7.013595E+04
        36  27 -3.883869E+06 -1.257617E+06 -7.711594E+05 -1.405020E+06 -3.944616E+05 -1.409343E+05
        37   1  1.302277E+05 -7.435626E+05  1.227557E+05 -1.878623E+03  1.944535E+04  9.564406E+02
        37   2  1.283086E+05 -7.513905E+05  1.198671E+05  4.056175E+02  1.910510E+04  2.133352E+03
        37   3  1.257776E+05 -7.593419E+05  1.160979E+05 -2.275700E+03  1.869280E+04  3.309737E+03
        37   4 -7.546105E+00 -1.269996E+06 -1.400858E+03 -1.103014E+03  1.944606E+04  1.136607E+03
        37   5  2.079507E+01 -1.269930E+06 -2.446397E+03  1.379158E+03  1.910563E+04  2.355821E+03
        37   6 -5.703493E+02 -1.269995E+06 -4.402432E+03 -1.104483E+03  1.869311E+04  3.574523E+03
        37   7 -1.302627E+05 -1.796174E+06 -1.255765E+05 -3.279241E+02  1.944678E+04  1.316621E+03
        37   8 -1.282862E+05 -1.788222E+06 -1.247785E+05  2.352033E+03  1.910615E+04  2.578104E+03
        37   9 -1.269370E+05 -1.780408E+06 -1.249208E+05  6.592819E+01  1.869342E+04  3.839091E+03
        37  10  1.302273E+05 -7.435627E+05  1.227550E+05 -1.878638E+03  4.835670E-10  7.118507E-09
        37  11  1.283082E+05 -7.513906E+05  1.198664E+05  4.055847E+02  3.130070E-09  3.178959E-09
        37  12  1.257773E+05 -7.593420E+05  1.160972E+05 -2.275750E+03 -1.481922E-09 -2.659525E-09
        37  13 -7.952277E+00 -1.269996E+06 -1.401571E+03 -1.103032E+03  3.407154E-10  2.338470E-09
        37  14  2.040184E+01 -1.269930E+06 -2.447093E+03  1.379121E+03 -2.958026E-09  6.032120E-11
        37  15 -5.707277E+02 -1.269995E+06 -4.403113E+03 -1.104537E+03  2.305238E-09  1.719633E-09
        37  16 -1.302631E+05 -1.796174E+06 -1.255773E+05 -3.279448E+02 -3.325272E-09 -7.120883E-09
        37  17 -1.282866E+05 -1.788222E+06 -1.247792E+05  2.351993E+03  6.469179E-10 -5.298794E-09
        37  18 -1.269374E+05 -1.780408E+06 -1.249215E+05  6.587035E+01 -9.912069E-10  3.045420E-09
        37  19  1.302277E+05 -7.435626E+05  1.227557E+05 -1.878623E+03 -1.944535E+04 -9.564406E+02
        37  20  1.283086E+05 -7.513905E+05  1.198671E+05  4.056175E+02 -1.910510E+04 -2.133352E+03
        37  21  1.257776E+05 -7.593419E+05  1.160979E+05 -2.275700E+03 -1.869280E+04 -3.309737E+03
        37  22 -7.546105E+00 -1.269996E+06 -1.400858E+03 -1.103014E+03 -1.944606E+04 -1.136607E+03
        37  23  2.079507E+01 -1.269930E+06 -2.446397E+03  1.379158E+03 -1.910563E+04 -2.355821E+03
        37  24 -5.703493E+02 -1.269995E+06 -4.402432E+03 -1.104483E+03 -1.869311E+04 -3.574523E+03
        37  25 -1.302627E+05 -1.796174E+06 -1.255765E+05 -3.279241E+02 -1.944678E+04 -1.316621E+03
        37  26 -1.282862E+05 -1.788222E+06 -1.247785E+05  2.352033E+03 -1.910615E+04 -2.578104E+03
        37  27 -1.269370E+05 -1.780408E+06 -1.249208E+05  6.592819E+01 -1.869342E+04 -3.839091E+03
        38   1  1.241488E+05 -7.698667E+05  1.123765E+05 -1.528805E+03  1.853690E+04  4.364468E+03
        38   2  1.220663E+05 -7.787241E+05  1.060726E+05  9.151077E+01  1.804154E+04  8.899969E+03
        38   3  1.128330E+05 -7.898189E+05  9.505584E+04 -4.588013E+03  1.690724E+04  1.343279E+04
        38   4  3.096326E+02 -1.270475E+06 -5.668719E+03 -1.393701E+03  1.853763E+04  4.459578E+03
        38   5  6.822831E+02 -1.269324E+06 -9.658399E+03  1.745773E+03  1.804101E+04  9.374682E+03
        38   6 -6.164925E+03 -1.270479E+06 -1.862745E+04 -1.414926E+03  1.690525E+04  1.428717E+04
        38   7 -1.235475E+05 -1.770852E+06 -1.237312E+05 -1.258540E+03  1.853836E+04  4.554610E+03
        38   8 -1.207189E+05 -1.759703E+06 -1.254060E+05  3.398893E+03  1.804048E+04  9.849020E+03
        38   9 -1.251795E+05 -1.750927E+06 -1.323268E+05  1.755868E+03  1.690327E+04  1.514089E+04
        38  10  1.241485E+05 -7.698668E+05  1.123758E+05 -1.528870E+03 -2.455035E-09  6.388955E-09
        38  11  1.220659E+05 -7.787243E+05  1.060719E+05  9.138144E+01 -2.214565E-09 -4.352559E-09
        38  12  1.128327E+05 -7.898192E+05  9.505496E+04 -4.588196E+03  2.371375E-09 -1.500688E-08
        38  13  3.092584E+02 -1.270475E+06 -5.669402E+03 -1.393768E+03 -2.437168E-09  3.168565E-09
        38  14  6.819101E+02 -1.269325E+06 -9.659176E+03  1.745637E+03  2.648560E-09  7.178951E-11
        38  15 -6.165286E+03 -1.270480E+06 -1.862837E+04 -1.415121E+03  6.839106E-10  2.214045E-09
        38  16 -1.235479E+05 -1.770852E+06 -1.237319E+05 -1.258608E+03 -3.037171E-09 -6.468382E-09
        38  17 -1.207193E+05 -1.759703E+06 -1.254068E+05  3.398750E+03 -6.700232E-09  1.812448E-09
        38  18 -1.251798E+05 -1.750927E+06 -1.323277E+05  1.755661E+03 -4.725694E-09  1.536714E-08
        38  19  1.241488E+05 -7.698667E+05  1.123765E+05 -1.528805E+03 -1.853690E+04 -4.364468E+03
        38  20  1.220663E+05 -7.787241E+05  1.060726E+05  9.151077E+01 -1.804154E+04 -8.899969E+03
        38  21  1.128330E+05 -7.898189E+05  9.505584E+04 -4.588013E+03 -1.690724E+04 -1.343279E+04
        38  22  3.096326E+02 -1.270475E+06 -5.668719E+03 -1.393701E+03 -1.853763E+04 -4.459578E+03
        38  23  6.822831E+02 -1.269324E+06 -9.658399E+03  1.745773E+03 -1.804101E+04 -9.374682E+03
        38  24 -6.164925E+03 -1.270479E+06 -1.862745E+04 -1.414926E+03 -1.690525E+04 -1.428717E+04
        38  25 -1.235475E+05 -1.770852E+06 -1.237312E+05 -1.258540E+03 -1.853836E+04 -4.554610E+03
        38  26 -1.207189E+05 -1.759703E+06 -1.254060E+05  3.398893E+03 -1.804048E+04 -9.849020E+03
        38  27 -1.251795E+05 -1.750927E+06 -1.323268E+05  1.755868E+03 -1.690327E+04 -1.514089E+04
        39   1  1.194371E+05 -8.063697E+05  8.725953E+04  6.651319E+03  1.791729E+04  1.995250E+04
        39   2  1.203884E+05 -8.077335E+05  7.033783E+04 -6.492653E+03  1.647430E+04  3.400801E+04
        39   3  4.349151E+04 -8.303057E+05  2.481369E+04 -2.766611E+04  5.004828E+03  4.802245E+04
        39   4  3.655864E+03 -1.274902E+06 -2.296585E+04 -1.703316E+03  1.792566E+04  1.777312E+04
        39   5  7.466516E+03 -1.263790E+06 -3.733656E+04  2.173416E+03  1.646107E+04  3.782626E+04
        39   6 -6.764496E+04 -1.274945E+06 -8.449480E+04 -1.980789E+03  4.967477E+03  5.783819E+04
        39   7 -1.121408E+05 -1.743232E+06 -1.332063E+05 -1.005142E+04  1.793410E+04  1.559538E+04
        39   8 -1.054700E+05 -1.719655E+06 -1.450253E+05  1.083325E+04  1.644794E+04  4.164171E+04
        39   9 -1.787937E+05 -1.719403E+06 -1.938172E+05  2.368625E+04  4.930927E+03  6.764690E+04
        39  10  1.194366E+05 -8.063702E+05  8.725817E+04  6.651031E+03 -1.314750E-09  2.897648E-09
        39  11  1.203878E+05 -8.077348E+05  7.033514E+04 -6.493104E+03 -3.821267E-10  5.982286E-09
        39  12  4.349086E+04 -8.303082E+05  2.480931E+04 -2.766630E+04 -7.739160E-10  1.682879E-09
        39  13  3.655434E+03 -1.274903E+06 -2.296705E+04 -1.703573E+03  4.553743E-09  3.689320E-09
        39  14  7.465840E+03 -1.263792E+06 -3.733977E+04  2.172914E+03  7.220966E-10  1.942554E-10
        39  15 -6.764589E+04 -1.274949E+06 -8.450114E+04 -1.981021E+03 -2.018944E-09  2.474674E-09
        39  16 -1.121412E+05 -1.743233E+06 -1.332073E+05 -1.005165E+04 -1.820152E-09 -2.887500E-09
        39  17 -1.054708E+05 -1.719657E+06 -1.450290E+05  1.083270E+04 -1.275023E-09 -8.950655E-09
        39  18 -1.787950E+05 -1.719408E+06 -1.938259E+05  2.368598E+04 -3.213759E-10 -1.342888E-09
        39  19  1.194371E+05 -8.063697E+05  8.725953E+04  6.651319E+03 -1.791729E+04 -1.995250E+04
        39  20  1.203884E+05 -8.077335E+05  7.033783E+04 -6.492653E+03 -1.647430E+04 -3.400801E+04
        39  21  4.349151E+04 -8.303057E+05  2.481369E+04 -2.766611E+04 -5.004828E+03 -4.802245E+04
        39  22  3.655864E+03 -1.274902E+06 -2.296585E+04 -1.703316E+03 -1.792566E+04 -1.777312E+04
        39  23  7.466516E+03 -1.263790E+06 -3.733656E+04  2.173416E+03 -1.646107E+04 -3.782626E+04
        39  24 -6.764496E+04 -1.274945E+06 -8.449480E+04 -1.980789E+03 -4.967477E+03 -5.783819E+04
        39  25 -1.121408E+05 -1.743232E+06 -1.332063E+05 -1.005142E+04 -1.793410E+04 -1.559538E+04
        39  26 -1.054700E+05 -1.719655E+06 -1.450253E+05  1.083325E+04 -1.644794E+04 -4.164171E+04
        39  27 -1.787937E+05 -1.719403E+06 -1.938172E+05  2.368625E+04 -4.930927E+03 -6.764690E+04
        40   1  9.367688E+04  1.005283E+06  5.346060E+04 -2.051141E+02  3.278275E+04 -6.391662E+02
        40   2  9.381587E+04  1.005397E+06  5.422804E+04 -1.677063E+02  3.267183E+04 -1.627138E+03
        40   3  9.420071E+04  1.005710E+06  5.570233E+04 -1.104286E+02  3.241298E+04 -2.615218E+03
        40   4 -3.645108E+01  5.890629E+05  7.251969E+02  4.402203E+00  3.278502E+04 -5.490968E+02
        40   5  2.204567E+01  5.889939E+05  1.272867E+03 -5.470141E+00  3.267392E+04 -1.181130E+03
        40   6  2.647652E+02  5.890625E+05  2.280700E+03  4.527743E+00  3.241483E+04 -1.813265E+03
        40   7 -9.375685E+04  1.730205E+05 -5.201080E+04  2.137894E+02  3.278730E+04 -4.590846E+02
        40   8 -9.377887E+04  1.727686E+05 -5.168296E+04  1.566724E+02  3.267601E+04 -7.354063E+02
        40   9 -9.367833E+04  1.725927E+05 -5.114171E+04  1.194260E+02  3.241667E+04 -1.011823E+03
        40  10  9.367573E+04  1.005283E+06  5.345858E+04 -2.050972E+02 -9.561860E-09  2.013498E-09
        40  11  9.381472E+04  1.005397E+06  5.422603E+04 -1.676635E+02 -4.253190E-09 -6.707896E-10
        40  12  9.419958E+04  1.005710E+06  5.570034E+04 -1.103604E+02 -7.144913E-09 -1.560944E-09
        40  13 -3.760569E+01  5.890626E+05  7.231759E+02  4.416699E+00  1.186408E-08  4.622239E-10
        40  14  2.089859E+01  5.889936E+05  1.270857E+03 -5.439066E+00  1.340670E-08 -1.143421E-09
        40  15  2.636357E+02  5.890622E+05  2.278719E+03  4.575071E+00  1.131651E-08  6.611448E-10
        40  16 -9.375800E+04  1.730202E+05 -5.201282E+04  2.138015E+02 -9.041063E-09 -2.713244E-09
        40  17 -9.378001E+04  1.727683E+05 -5.168497E+04  1.566918E+02 -4.645132E-09  1.953158E-10
        40  18 -9.367946E+04  1.725924E+05 -5.114369E+04  1.194524E+02 -8.619568E-09  1.702489E-09
        40  19  9.367688E+04  1.005283E+06  5.346060E+04 -2.051141E+02 -3.278275E+04  6.391662E+02
        40  20  9.381587E+04  1.005397E+06  5.422804E+04 -1.677063E+02 -3.267183E+04  1.627138E+03
        40  21  9.420071E+04  1.005710E+06  5.570233E+04 -1.104286E+02 -3.241298E+04  2.615218E+03
        40  22 -3.645108E+01  5.890629E+05  7.251969E+02  4.402203E+00 -3.278502E+04  5.490968E+02
        40  23  2.204567E+01  5.889939E+05  1.272867E+03 -5.470141E+00 -3.267392E+04  1.181130E+03
        40  24  2.647652E+02  5.890625E+05  2.280700E+03  4.527743E+00 -3.241483E+04  1.813265E+03
        40  25 -9.375685E+04  1.730205E+05 -5.201080E+04  2.137894E+02 -3.278730E+04  4.590846E+02
        40  26 -9.377887E+04  1.727686E+05 -5.168296E+04  1.566724E+02 -3.267601E+04  7.354063E+02
        40  27 -9.367833E+04  1.725927E+05 -5.114171E+04  1.194260E+02 -3.241667E+04  1.011823E+03
        41   1  9.443775E+04  1.006095E+06  5.676401E+04 -2.582504E+02  3.224947E+04 -3.145905E+03
        41   2  9.571188E+04  1.005727E+06  6.059721E+04  1.041459E+03  3.133109E+04 -8.514483E+03
        41   3  9.935124E+04  1.006657E+06  6.851541E+04  2.289954E+03  2.930753E+04 -1.388395E+04
        41   4  3.931879E+02  5.892181E+05  3.029097E+03 -1.145938E+01  3.225123E+04 -2.258399E+03
        41   5  1.368162E+03  5.887983E+05  5.409246E+03  1.522261E+01  3.133106E+04 -4.969283E+03
        41   6  4.248283E+03  5.892165E+05  1.003183E+04 -9.319933E+00  2.930535E+04 -7.681030E+03
        41   7 -9.365856E+04  1.725192E+05 -5.070668E+04  2.351821E+02  3.225299E+04 -1.371460E+03
        41   8 -9.298291E+04  1.720472E+05 -4.977998E+04 -1.010267E+03  3.133102E+04 -1.426348E+03
        41   9 -9.086239E+04  1.719527E+05 -4.845386E+04 -2.306953E+03  2.930312E+04 -1.482088E+03
        41  10  9.443663E+04  1.006095E+06  5.676203E+04 -2.581687E+02 -4.461771E-09  1.963845E-08
        41  11  9.571080E+04  1.005726E+06  6.059523E+04  1.041674E+03 -4.921376E-10  1.788326E-08
        41  12  9.935026E+04  1.006656E+06  6.851343E+04  2.290281E+03 -1.940088E-09  1.630069E-08
        41  13  3.920693E+02  5.892178E+05  3.027132E+03 -1.140073E+01  9.538476E-09  6.076701E-10
        41  14  1.367101E+03  5.887980E+05  5.407354E+03  1.534797E+01  4.973821E-09 -1.366108E-09
        41  15  4.247345E+03  5.892162E+05  1.003010E+04 -9.138687E+00  4.325130E-11  9.642646E-10
        41  16 -9.365968E+04  1.725189E+05 -5.070864E+04  2.352178E+02 -1.106079E-08 -2.076789E-08
        41  17 -9.298396E+04  1.720469E+05 -4.978183E+04 -1.010231E+03 -2.236151E-09 -1.827968E-08
        41  18 -9.086331E+04  1.719524E+05 -4.845548E+04 -2.306918E+03 -7.569251E-10 -1.599388E-08
        41  19  9.443775E+04  1.006095E+06  5.676401E+04 -2.582504E+02 -3.224947E+04  3.145905E+03
        41  20  9.571188E+04  1.005727E+06  6.059721E+04  1.041459E+03 -3.133109E+04  8.514483E+03
        41  21  9.935124E+04  1.006657E+06  6.851541E+04  2.289954E+03 -2.930753E+04  1.388395E+04
        41  22  3.931879E+02  5.892181E+05  3.029097E+03 -1.145938E+01 -3.225123E+04  2.258399E+03
        41  23  1.368162E+03  5.887983E+05  5.409246E+03  1.522261E+01 -3.133106E+04  4.969283E+03
        41  24  4.248283E+03  5.892165E+05  1.003183E+04 -9.319933E+00 -2.930535E+04  7.681030E+03
        41  25 -9.365856E+04  1.725192E+05 -5.070668E+04  2.351821E+02 -3.225299E+04  1.371460E+03
        41  26 -9.298291E+04  1.720472E+05 -4.977998E+04 -1.010267E+03 -3.133102E+04  1.426348E+03
        41  27 -9.086239E+04  1.719527E+05 -4.845386E+04 -2.306953E+03 -2.930312E+04  1.482088E+03
        42   1  1.015543E+05  1.008658E+06  7.413175E+04  1.433381E+03  2.802870E+04 -1.628769E+04
        42   2  1.143039E+05  1.004175E+06  9.606611E+04  1.673292E+04  2.110849E+04 -4.863034E+04
        42   3  1.492848E+05  1.009461E+06  1.445940E+05  3.138822E+04  6.003441E+03 -8.098115E+04
        42   4  5.856715E+03  5.904441E+05  1.345331E+04 -1.431735E+02  2.802573E+04 -9.432614E+03
        42   5  1.678762E+04  5.872577E+05  2.486285E+04  1.933021E+02  2.109076E+04 -2.210278E+04
        42   6  4.654461E+04  5.904324E+05  4.922160E+04 -1.147560E+02  5.969992E+03 -3.478028E+04
        42   7 -8.984883E+04  1.724062E+05 -4.722783E+04 -1.718594E+03  2.802273E+04 -2.581958E+03
        42   8 -8.073650E+04  1.705129E+05 -4.634338E+04 -1.633484E+04  2.107162E+04  4.407549E+03
        42   9 -5.620284E+04  1.715727E+05 -4.615368E+04 -3.159628E+04  5.931850E+03  1.138973E+04
        42  10  1.015533E+05  1.008658E+06  7.412978E+04  1.433749E+03 -3.149007E-09  6.343758E-09
        42  11  1.143028E+05  1.004173E+06  9.606084E+04  1.673374E+04 -3.122993E-09  1.329166E-09
        42  12  1.492830E+05  1.009454E+06  1.445816E+05  3.138861E+04 -2.075457E-09 -2.499552E-10
        42  13  5.855848E+03  5.904438E+05  1.345166E+04 -1.429606E+02 -5.011322E-09  8.871951E-10
        42  14  1.678701E+04  5.872571E+05  2.486110E+04  1.936775E+02  3.446056E-09 -1.489367E-09
        42  15  4.654425E+04  5.904311E+05  4.921926E+04 -1.145889E+02 -3.729104E-10  1.125641E-09
        42  16 -8.984967E+04  1.724060E+05 -4.722932E+04 -1.718535E+03 -1.038531E-09 -7.479542E-09
        42  17 -8.073698E+04  1.705128E+05 -4.634425E+04 -1.633491E+04 -3.078601E-09 -1.817435E-09
        42  18 -5.620291E+04  1.715725E+05 -4.615399E+04 -3.159633E+04  1.333181E-09  5.415494E-10
        42  19  1.015543E+05  1.008658E+06  7.413175E+04  1.433381E+03 -2.802870E+04  1.628769E+04
        42  20  1.143039E+05  1.004175E+06  9.606611E+04  1.673292E+04 -2.110849E+04  4.863034E+04
        42  21  1.492848E+05  1.009461E+06  1.445940E+05  3.138822E+04 -6.003441E+03  8.098115E+04
        42  22  5.856715E+03  5.904441E+05  1.345331E+04 -1.431735E+02 -2.802573E+04  9.432614E+03
        42  23  1.678762E+04  5.872577E+05  2.486285E+04  1.933021E+02 -2.109076E+04  2.210278E+04
        42  24  4.654461E+04  5.904324E+05  4.922160E+04 -1.147560E+02 -5.969992E+03  3.478028E+04
        42  25 -8.984883E+04  1.724062E+05 -4.722783E+04 -1.718594E+03 -2.802273E+04  2.581958E+03
        42  26 -8.073650E+04  1.705129E+05 -4.634338E+04 -1.633484E+04 -2.107162E+04 -4.407549E+03
        42  27 -5.620284E+04  1.715727E+05 -4.615368E+04 -3.159628E+04 -5.931850E+03 -1.138973E+04
        43   1 -6.364264E+06 -1.816578E+06 -1.000675E+06 -2.362807E+06 -5.851489E+05 -2.165339E+05
        43   2 -6.236339E+06 -9.381914E+05 -4.567700E+05 -2.441885E+06 -3.746765E+05 -1.290597E+05
        43   3 -6.420730E+06 -8.792980E+05 -2.923244E+05 -2.334529E+06 -1.610271E+05 -4.997359E+04
        43   4 -6.209721E+06 -1.531096E+06 -9.135304E+05 -2.089191E+06 -5.789060E+05 -2.144465E+05
        43   5 -6.004709E+06 -7.833717E+05 -3.832965E+05 -2.309697E+06 -3.731365E+05 -1.285298E+05
        43   6 -6.110974E+06 -8.541212E+05 -2.286866E+05 -2.343821E+06 -1.641616E+05 -5.112686E+04
        43   7 -6.055026E+06 -1.245292E+06 -8.263616E+05 -1.815462E+06 -5.726615E+05 -2.123527E+05
        43   8 -5.773014E+06 -6.285030E+05 -3.098269E+05 -2.177452E+06 -3.715957E+05 -1.279991E+05
        43   9 -5.801109E+06 -8.289332E+05 -1.650485E+05 -2.353128E+06 -1.672979E+05 -5.227961E+04
        43  10 -6.364648E+06 -1.816722E+06 -1.001415E+06 -2.362910E+06 -3.548619E-10  1.711039E-10
        43  11 -6.236495E+06 -9.382477E+05 -4.570686E+05 -2.441924E+06 -6.024417E-09 -1.671767E-09
        43  12 -6.420758E+06 -8.793078E+05 -2.923784E+05 -2.334535E+06 -8.410743E-09  9.079795E-10
        43  13 -6.210096E+06 -1.531237E+06 -9.142547E+05 -2.089292E+06 -3.938930E-10 -1.953177E-09
        43  14 -6.004864E+06 -7.834275E+05 -3.835925E+05 -2.309736E+06 -4.876703E-10 -3.572953E-09
        43  15 -6.111004E+06 -8.541313E+05 -2.287428E+05 -2.343827E+06 -8.705315E-10 -4.235427E-09
        43  16 -6.055393E+06 -1.245430E+06 -8.270701E+05 -1.815560E+06 -9.434869E-11  4.596425E-10
        43  17 -5.773168E+06 -6.285583E+05 -3.101203E+05 -2.177491E+06 -4.099414E-10  2.713464E-09
        43  18 -5.801140E+06 -8.289438E+05 -1.651069E+05 -2.353135E+06  4.452724E-09  1.780215E-09
        43  19 -6.364264E+06 -1.816578E+06 -1.000675E+06 -2.362807E+06  5.851489E+05  2.165339E+05
        43  20 -6.236339E+06 -9.381914E+05 -4.567700E+05 -2.441885E+06  3.746765E+05  1.290597E+05
        43  21 -6.420730E+06 -8.792980E+05 -2.923244E+05 -2.334529E+06  1.610271E+05  4.997359E+04
        43  22 -6.209721E+06 -1.531096E+06 -9.135304E+05 -2.089191E+06  5.789060E+05  2.144465E+05
        43  23 -6.004709E+06 -7.833717E+05 -3.832965E+05 -2.309697E+06  3.731365E+05  1.285298E+05
        43  24 -6.110974E+06 -8.541212E+05 -2.286866E+05 -2.343821E+06  1.641616E+05  5.112686E+04
        43  25 -6.055026E+06 -1.245292E+06 -8.263616E+05 -1.815462E+06  5.726615E+05  2.123527E+05
        43  26 -5.773014E+06 -6.285030E+05 -3.098269E+05 -2.177452E+06  3.715957E+05  1.279991E+05
        43  27 -5.801109E+06 -8.289332E+05 -1.650485E+05 -2.353128E+06  1.672979E+05  5.227961E+04
        44   1 -6.260327E+06 -1.032228E+06 -2.358381E+05 -2.361122E+06 -1.311526E+05 -4.125551E+04
        44   2 -6.215571E+06 -9.226611E+05 -1.293890E+05 -2.346931E+06 -8.382024E+04 -2.503778E+04
        44   3 -6.185226E+06 -9.129942E+05 -7.945092E+04 -2.337978E+06 -3.624899E+04 -9.435635E+03
        44   4 -6.081175E+06 -9.449099E+05 -1.850793E+05 -2.292071E+06 -1.318010E+05 -4.150541E+04
        44   5 -6.069189E+06 -8.622849E+05 -9.007832E+04 -2.301717E+06 -8.480064E+04 -2.540844E+04
        44   6 -6.071539E+06 -8.794809E+05 -5.130846E+04 -2.316602E+06 -3.756414E+04 -9.930776E+03
        44   7 -5.901988E+06 -8.575830E+05 -1.343233E+05 -2.223000E+06 -1.324496E+05 -4.175545E+04
        44   8 -5.922786E+06 -8.019061E+05 -5.076946E+04 -2.256493E+06 -8.578130E+04 -2.577921E+04
        44   9 -5.957840E+06 -8.459678E+05 -2.316690E+04 -2.295224E+06 -3.887955E+04 -1.042597E+04
        44  10 -6.260346E+06 -1.032234E+06 -2.358741E+05 -2.361126E+06 -2.226246E-09  3.013243E-09
        44  11 -6.215578E+06 -9.226637E+05 -1.294036E+05 -2.346933E+06  4.828990E-09  3.144831E-09
        44  12 -6.185227E+06 -9.129946E+05 -7.945359E+04 -2.337978E+06  2.422726E-09 -3.970646E-10
        44  13 -6.081194E+06 -9.449165E+05 -1.851156E+05 -2.292076E+06  1.962024E-09 -2.144181E-09
        44  14 -6.069197E+06 -8.622876E+05 -9.009322E+04 -2.301719E+06  2.879174E-09 -2.668660E-09
        44  15 -6.071541E+06 -8.794814E+05 -5.131133E+04 -2.316603E+06 -6.797238E-09 -1.046472E-10
        44  16 -5.902008E+06 -8.575896E+05 -1.343599E+05 -2.223005E+06  6.975287E-10  6.995741E-10
        44  17 -5.922794E+06 -8.019088E+05 -5.078470E+04 -2.256494E+06  1.607485E-09 -1.195080E-09
        44  18 -5.957842E+06 -8.459683E+05 -2.316998E+04 -2.295224E+06 -3.214904E-10 -8.333738E-11
        44  19 -6.260327E+06 -1.032228E+06 -2.358381E+05 -2.361122E+06  1.311526E+05  4.125551E+04
        44  20 -6.215571E+06 -9.226611E+05 -1.293890E+05 -2.346931E+06  8.382024E+04  2.503778E+04
        44  21 -6.185226E+06 -9.129942E+05 -7.945092E+04 -2.337978E+06  3.624899E+04  9.435635E+03
        44  22 -6.081175E+06 -9.449099E+05 -1.850793E+05 -2.292071E+06  1.318010E+05  4.150541E+04
        44  23 -6.069189E+06 -8.622849E+05 -9.007832E+04 -2.301717E+06  8.480064E+04  2.540844E+04
        44  24 -6.071539E+06 -8.794809E+05 -5.130846E+04 -2.316602E+06  3.756414E+04  9.930776E+03
        44  25 -5.901988E+06 -8.575830E+05 -1.343233E+05 -2.223000E+06  1.324496E+05  4.175545E+04
        44  26 -5.922786E+06 -8.019061E+05 -5.076946E+04 -2.256493E+06  8.578130E+04  2.577921E+04
        44  27 -5.957840E+06 -8.459678E+05 -2.316690E+04 -2.295224E+06  3.887955E+04  1.042597E+04
        45   1 -6.119588E+06 -9.090553E+05 -5.343402E+04 -2.327130E+06 -2.863666E+04 -8.067308E+03
        45   2 -6.083664E+06 -8.730204E+05 -2.281337E+04 -2.303026E+06 -1.729621E+04 -6.195396E+03
        45   3 -6.029751E+06 -8.669706E+05 -2.179027E+03 -2.302690E+06 -5.940266E+03 -4.361714E+03
        45   4 -6.067841E+06 -8.881922E+05 -3.977680E+04 -2.311600E+06 -2.979887E+04 -8.505473E+03
        45   5 -6.076369E+06 -8.701068E+05 -2.087257E+04 -2.300870E+06 -1.847901E+04 -6.641243E+03
        45   6 -6.066906E+06 -8.820022E+05 -1.193678E+04 -2.313909E+06 -7.144450E+03 -4.815590E+03
        45   7 -6.016090E+06 -8.673288E+05 -2.611986E+04 -2.296069E+06 -3.096118E+04 -8.943682E+03
        45   8 -6.069074E+06 -8.671932E+05 -1.893177E+04 -2.298714E+06 -1.966183E+04 -7.087098E+03
        45   9 -6.104060E+06 -8.970336E+05 -2.169467E+04 -2.325127E+06 -8.348559E+03 -5.269433E+03
        45  10 -6.119589E+06 -9.090556E+05 -5.343570E+04 -2.327130E+06 -8.551127E-10 -1.085532E-09
        45  11 -6.083664E+06 -8.730205E+05 -2.281401E+04 -2.303026E+06 -5.757912E-10  8.318244E-10
        45  12 -6.029751E+06 -8.669707E+05 -2.179130E+03 -2.302690E+06  3.182792E-09 -5.987081E-10
        45  13 -6.067842E+06 -8.881925E+05 -3.977863E+04 -2.311600E+06 -1.781429E-09 -1.463011E-10
        45  14 -6.076369E+06 -8.701070E+05 -2.087331E+04 -2.300870E+06  4.824267E-09  5.302945E-10
        45  15 -6.066906E+06 -8.820022E+05 -1.193692E+04 -2.313909E+06  2.047850E-09 -1.775023E-09
        45  16 -6.016092E+06 -8.673292E+05 -2.612184E+04 -2.296069E+06  4.755309E-10  4.725921E-10
        45  17 -6.069075E+06 -8.671934E+05 -1.893260E+04 -2.298714E+06  1.682158E-09  1.290034E-09
        45  18 -6.104060E+06 -8.970337E+05 -2.169486E+04 -2.325127E+06 -1.790481E-09 -1.090435E-09
        45  19 -6.119588E+06 -9.090553E+05 -5.343402E+04 -2.327130E+06  2.863666E+04  8.067308E+03
        45  20 -6.083664E+06 -8.730204E+05 -2.281337E+04 -2.303026E+06  1.729621E+04  6.195396E+03
        45  21 -6.029751E+06 -8.669706E+05 -2.179027E+03 -2.302690E+06  5.940266E+03  4.361714E+03
        45  22 -6.067841E+06 -8.881922E+05 -3.977680E+04 -2.311600E+06  2.979887E+04  8.505473E+03
        45  23 -6.076369E+06 -8.701068E+05 -2.087257E+04 -2.300870E+06  1.847901E+04  6.641243E+03
        45  24 -6.066906E+06 -8.820022E+05 -1.193678E+04 -2.313909E+06  7.144450E+03  4.815590E+03
        45  25 -6.016090E+06 -8.673288E+05 -2.611986E+04 -2.296069E+06  3.096118E+04  8.943682E+03
        45  26 -6.069074E+06 -8.671932E+05 -1.893177E+04 -2.298714E+06  1.966183E+04  7.087098E+03
        45  27 -6.104060E+06 -8.970336E+05 -2.169467E+04 -2.325127E+06  8.348559E+03  5.269433E+03
        46   1 -5.974384E+06 -8.477167E+05  1.502524E+04 -2.287982E+06 -3.759741E+03 -4.968778E+03
        46   2 -5.941129E+06 -8.198248E+05  2.985854E+04 -2.263922E+06 -1.441477E+02 -5.997133E+03
        46   3 -5.887097E+06 -8.141955E+05  4.236145E+04 -2.264157E+06  3.449731E+03 -6.965551E+03
        46   4 -6.066617E+06 -8.825707E+05 -9.303727E+03 -2.313168E+06 -4.942081E+03 -5.414497E+03
        46   5 -6.076964E+06 -8.711883E+05 -5.727471E+03 -2.301112E+06 -1.293646E+03 -6.430655E+03
        46   6 -6.066541E+06 -8.820757E+05 -4.507723E+03 -2.313352E+06  2.332846E+03 -7.386946E+03
        46   7 -6.158843E+06 -9.174242E+05 -3.363342E+04 -2.338350E+06 -6.124226E+03 -5.860143E+03
        46   8 -6.212781E+06 -9.225506E+05 -4.131498E+04 -2.338294E+06 -2.442863E+03 -6.864072E+03
        46   9 -6.245953E+06 -9.499534E+05 -5.137946E+04 -2.362534E+06  1.216322E+03 -7.808204E+03
        46  10 -5.974384E+06 -8.477168E+05  1.502517E+04 -2.287982E+06  5.473959E-09  4.164592E-10
        46  11 -5.941129E+06 -8.198248E+05  2.985847E+04 -2.263922E+06  3.819133E-09  1.336829E-09
        46  12 -5.887097E+06 -8.141956E+05  4.236133E+04 -2.264157E+06 -5.061068E-09 -6.795477E-10
        46  13 -6.066617E+06 -8.825708E+05 -9.303828E+03 -2.313168E+06 -5.163753E-10  1.560437E-09
        46  14 -6.076964E+06 -8.711884E+05 -5.727552E+03 -2.301112E+06  2.543285E-09  4.301268E-09
        46  15 -6.066541E+06 -8.820757E+05 -4.507835E+03 -2.313352E+06  3.840299E-09  1.443989E-09
        46  16 -6.158843E+06 -9.174242E+05 -3.363356E+04 -2.338350E+06 -4.532973E-09 -7.484189E-10
        46  17 -6.212781E+06 -9.225507E+05 -4.131508E+04 -2.338294E+06  6.246785E-09  3.032525E-09
        46  18 -6.245953E+06 -9.499535E+05 -5.137957E+04 -2.362534E+06  7.495437E-09  3.037486E-09
        46  19 -5.974384E+06 -8.477167E+05  1.502524E+04 -2.287982E+06  3.759741E+03  4.968778E+03
        46  20 -5.941129E+06 -8.198248E+05  2.985854E+04 -2.263922E+06  1.441477E+02  5.997133E+03
        46  21 -5.887097E+06 -8.141955E+05  4.236145E+04 -2.264157E+06 -3.449731E+03  6.965551E+03
        46  22 -6.066617E+06 -8.825707E+05 -9.303727E+03 -2.313168E+06  4.942081E+03  5.414497E+03
        46  23 -6.076964E+06 -8.711883E+05 -5.727471E+03 -2.301112E+06  1.293646E+03  6.430655E+03
        46  24 -6.066541E+06 -8.820757E+05 -4.507723E+03 -2.313352E+06 -2.332846E+03  7.386946E+03
        46  25 -6.158843E+06 -9.174242E+05 -3.363342E+04 -2.338350E+06  6.124226E+03  5.860143E+03
        46  26 -6.212781E+06 -9.225506E+05 -4.131498E+04 -2.338294E+06  2.442863E+03  6.864072E+03
        46  27 -6.245953E+06 -9.499534E+05 -5.137946E+04 -2.362534E+06 -1.216322E+03  7.808204E+03
        47   1 -5.837261E+06 -7.947195E+05  5.585622E+04 -2.249940E+06  4.591605E+03 -7.851449E+03
        47   2 -5.808024E+06 -7.705292E+05  6.458716E+04 -2.228515E+06  8.065831E+03 -8.691575E+03
        47   3 -5.760450E+06 -7.660548E+05  7.105511E+04 -2.228485E+06  1.149327E+04 -9.403887E+03
        47   4 -6.067091E+06 -8.815102E+05 -4.493644E+03 -2.312710E+06  3.506861E+03 -8.260900E+03
        47   5 -6.076296E+06 -8.719137E+05 -5.678700E+03 -2.301914E+06  7.050949E+03 -9.074994E+03
        47   6 -6.067181E+06 -8.820484E+05 -9.183407E+03 -2.312513E+06  1.054804E+04 -9.761313E+03
        47   7 -6.296870E+06 -9.682979E+05 -6.484824E+04 -2.375460E+06  2.422558E+03 -8.670185E+03
        47   8 -6.344498E+06 -9.732938E+05 -7.595083E+04 -2.375283E+06  6.036551E+03 -9.458231E+03
        47   9 -6.373819E+06 -9.980360E+05 -8.942994E+04 -2.396504E+06  9.603338E+03 -1.011854E+04
        47  10 -5.837261E+06 -7.947195E+05  5.585607E+04 -2.249940E+06  4.652216E-10  1.652775E-11
        47  11 -5.808024E+06 -7.705293E+05  6.458690E+04 -2.228515E+06 -6.828742E-10  2.536527E-10
        47  12 -5.760450E+06 -7.660549E+05  7.105469E+04 -2.228485E+06 -5.754335E-10 -1.453271E-09
        47  13 -6.067091E+06 -8.815103E+05 -4.493795E+03 -2.312710E+06  2.296180E-10 -1.476012E-10
        47  14 -6.076296E+06 -8.719138E+05 -5.678948E+03 -2.301914E+06 -3.390930E-09  2.688109E-09
        47  15 -6.067181E+06 -8.820485E+05 -9.183795E+03 -2.312513E+06 -7.265665E-10 -4.234708E-10
        47  16 -6.296870E+06 -9.682980E+05 -6.484840E+04 -2.375460E+06  4.556755E-09 -6.675730E-10
        47  17 -6.344498E+06 -9.732939E+05 -7.595106E+04 -2.375283E+06  2.215501E-09  1.223298E-09
        47  18 -6.373819E+06 -9.980362E+05 -8.943031E+04 -2.396503E+06 -1.067463E-09  1.485753E-09
        47  19 -5.837261E+06 -7.947195E+05  5.585622E+04 -2.249940E+06 -4.591605E+03  7.851449E+03
        47  20 -5.808024E+06 -7.705292E+05  6.458716E+04 -2.228515E+06 -8.065831E+03  8.691575E+03
        47  21 -5.760450E+06 -7.660548E+05  7.105511E+04 -2.228485E+06 -1.149327E+04  9.403887E+03
        47  22 -6.067091E+06 -8.815102E+05 -4.493644E+03 -2.312710E+06 -3.506861E+03  8.260900E+03
        47  23 -6.076296E+06 -8.719137E+05 -5.678700E+03 -2.301914E+06 -7.050949E+03  9.074994E+03
        47  24 -6.067181E+06 -8.820484E+05 -9.183407E+03 -2.312513E+06 -1.054804E+04  9.761313E+03
        47  25 -6.296870E+06 -9.682979E+05 -6.484824E+04 -2.375460E+06 -2.422558E+03  8.670185E+03
        47  26 -6.344498E+06 -9.732938E+05 -7.595083E+04 -2.375283E+06 -6.036551E+03  9.458231E+03
        47  27 -6.373819E+06 -9.980360E+05 -8.942994E+04 -2.396504E+06 -9.603338E+03  1.011854E+04
        48   1 -5.719046E+06 -7.492104E+05  7.974164E+04 -2.217330E+06  1.353129E+04 -9.742998E+03
        48   2 -5.695544E+06 -7.286969E+05  7.871410E+04 -2.199183E+06  2.435532E+04 -7.382134E+03
        48   3 -5.661157E+06 -7.306439E+05  6.800197E+04 -2.196373E+06  3.509349E+04 -4.789419E+03
        48   4 -6.068523E+06 -8.804074E+05 -1.176587E+04 -2.312021E+06  1.262079E+04 -1.008753E+04
        48   5 -6.074419E+06 -8.722272E+05 -2.058114E+04 -2.303207E+06  2.356754E+04 -7.680687E+03
        48   6 -6.069458E+06 -8.865359E+05 -3.918370E+04 -2.309730E+06  3.442791E+04 -5.042160E+03
        48   7 -6.417879E+06 -1.011597E+06 -1.032835E+05 -2.406663E+06  1.171086E+04 -1.043185E+04
        48   8 -6.453153E+06 -1.015748E+06 -1.198886E+05 -2.407172E+06  2.278030E+04 -7.979039E+03
        48   9 -6.477596E+06 -1.042417E+06 -1.463840E+05 -2.423019E+06  3.376280E+04 -5.294717E+03
        48  10 -5.719046E+06 -7.492105E+05  7.974112E+04 -2.217330E+06 -1.353636E-09 -1.383831E-09
        48  11 -5.695545E+06 -7.286971E+05  7.871288E+04 -2.199183E+06 -5.638935E-09 -1.498848E-10
        48  12 -5.661159E+06 -7.306443E+05  6.799960E+04 -2.196373E+06 -4.075218E-09 -4.767595E-10
        48  13 -6.068523E+06 -8.804076E+05 -1.176637E+04 -2.312021E+06 -3.128181E-09 -9.930155E-10
        48  14 -6.074420E+06 -8.722274E+05 -2.058230E+04 -2.303207E+06 -2.159896E-10 -2.328166E-10
        48  15 -6.069459E+06 -8.865363E+05 -3.918599E+04 -2.309730E+06  1.374791E-09 -1.109913E-09
        48  16 -6.417879E+06 -1.011597E+06 -1.032840E+05 -2.406663E+06 -3.221569E-09 -1.379343E-09
        48  17 -6.453154E+06 -1.015748E+06 -1.198897E+05 -2.407172E+06  1.950431E-09 -4.989889E-09
        48  18 -6.477598E+06 -1.042417E+06 -1.463862E+05 -2.423018E+06  2.926808E-09 -3.092575E-09
        48  19 -5.719046E+06 -7.492104E+05  7.974164E+04 -2.217330E+06 -1.353129E+04  9.742998E+03
        48  20 -5.695544E+06 -7.286969E+05  7.871410E+04 -2.199183E+06 -2.435532E+04  7.382134E+03
        48  21 -5.661157E+06 -7.306439E+05  6.800197E+04 -2.196373E+06 -3.509349E+04  4.789419E+03
        48  22 -6.068523E+06 -8.804074E+05 -1.176587E+04 -2.312021E+06 -1.262079E+04  1.008753E+04
        48  23 -6.074419E+06 -8.722272E+05 -2.058114E+04 -2.303207E+06 -2.356754E+04  7.680687E+03
        48  24 -6.069458E+06 -8.865359E+05 -3.918370E+04 -2.309730E+06 -3.442791E+04  5.042160E+03
        48  25 -6.417879E+06 -1.011597E+06 -1.032835E+05 -2.406663E+06 -1.171086E+04  1.043185E+04
        48  26 -6.453153E+06 -1.015748E+06 -1.198886E+05 -2.407172E+06 -2.278030E+04  7.979039E+03
        48  27 -6.477596E+06 -1.042417E+06 -1.463840E+05 -2.423019E+06 -3.376280E+04  5.294717E+03
        49   1 -5.627523E+06 -7.172718E+05  6.478328E+04 -2.200620E+06  4.273968E+04 -2.820382E+03
        49   2 -5.610598E+06 -6.881074E+05  3.160261E+04 -2.175165E+06  8.830312E+04  1.332742E+04
        49   3 -5.618813E+06 -7.457297E+05 -5.644558E+04 -2.141866E+06  1.334651E+05  3.053509E+04
        49   4 -6.074034E+06 -8.770122E+05 -5.053843E+04 -2.313593E+06  4.189054E+04 -3.142048E+03
        49   5 -6.066180E+06 -8.657329E+05 -8.874867E+04 -2.305392E+06  8.801065E+04  1.321468E+04
        49   6 -6.083602E+06 -9.413904E+05 -1.823029E+05 -2.289343E+06  1.337284E+05  3.062870E+04
        49   7 -6.520350E+06 -1.036745E+06 -1.658766E+05 -2.426495E+06  4.104206E+04 -3.463493E+03
        49   8 -6.521557E+06 -1.043341E+06 -2.091177E+05 -2.435530E+06  8.771840E+04  1.310203E+04
        49   9 -6.548176E+06 -1.137022E+06 -3.081792E+05 -2.436714E+06  1.339914E+05  3.072219E+04
        49  10 -5.627525E+06 -7.172723E+05  6.477980E+04 -2.200620E+06 -2.866002E-09 -1.143229E-09
        49  11 -5.610607E+06 -6.881097E+05  3.158747E+04 -2.175166E+06 -7.179722E-09  4.533022E-09
        49  12 -5.618832E+06 -7.457355E+05 -5.648117E+04 -2.141869E+06 -7.780274E-10  2.570565E-09
        49  13 -6.074036E+06 -8.770127E+05 -5.054178E+04 -2.313593E+06 -2.717969E-09 -1.021639E-09
        49  14 -6.066189E+06 -8.657352E+05 -8.876372E+04 -2.305393E+06  2.660000E-09  3.039887E-10
        49  15 -6.083622E+06 -9.413963E+05 -1.823387E+05 -2.289347E+06 -2.179580E-09  1.948452E-09
        49  16 -6.520351E+06 -1.036746E+06 -1.658798E+05 -2.426495E+06  4.290930E-09 -4.155613E-10
        49  17 -6.521565E+06 -1.043343E+06 -2.091327E+05 -2.435531E+06  3.371910E-09 -4.081400E-10
        49  18 -6.548196E+06 -1.137028E+06 -3.082152E+05 -2.436718E+06  4.156666E-10  1.082353E-09
        49  19 -5.627523E+06 -7.172718E+05  6.478328E+04 -2.200620E+06 -4.273968E+04  2.820382E+03
        49  20 -5.610598E+06 -6.881074E+05  3.160261E+04 -2.175165E+06 -8.830312E+04 -1.332742E+04
        49  21 -5.618813E+06 -7.457297E+05 -5.644558E+04 -2.141866E+06 -1.334651E+05 -3.053509E+04
        49  22 -6.074034E+06 -8.770122E+05 -5.053843E+04 -2.313593E+06 -4.189054E+04  3.142048E+03
        49  23 -6.066180E+06 -8.657329E+05 -8.874867E+04 -2.305392E+06 -8.801065E+04 -1.321468E+04
        49  24 -6.083602E+06 -9.413904E+05 -1.823029E+05 -2.289343E+06 -1.337284E+05 -3.062870E+04
        49  25 -6.520350E+06 -1.036745E+06 -1.658766E+05 -2.426495E+06 -4.104206E+04  3.463493E+03
        49  26 -6.521557E+06 -1.043341E+06 -2.091177E+05 -2.435530E+06 -8.771840E+04 -1.310203E+04
        49  27 -6.548176E+06 -1.137022E+06 -3.081792E+05 -2.436714E+06 -1.339914E+05 -3.072219E+04
        50   1 -5.551975E+06 -7.294414E+05 -9.559280E+04 -2.277831E+06  1.689803E+05  4.159953E+04
        50   2 -5.547710E+06 -5.501277E+05 -2.459122E+05 -2.121689E+06  3.670094E+05  1.172898E+05
        50   3 -5.863729E+06 -1.159478E+06 -7.603282E+05 -1.764298E+06  5.601195E+05  2.059793E+05
        50   4 -6.113558E+06 -8.513677E+05 -2.252587E+05 -2.339641E+06  1.655273E+05  4.031847E+04
        50   5 -6.001666E+06 -7.889976E+05 -3.775757E+05 -2.314370E+06  3.706047E+05  1.186046E+05
        50   6 -6.211789E+06 -1.517172E+06 -8.998387E+05 -2.087747E+06  5.707959E+05  2.097810E+05
        50   7 -6.674820E+06 -9.733020E+05 -3.549408E+05 -2.401423E+06  1.620776E+05  3.903744E+04
        50   8 -6.455405E+06 -1.027788E+06 -5.092577E+05 -2.506902E+06  3.741971E+05  1.199172E+05
        50   9 -6.559601E+06 -1.874482E+06 -1.039339E+06 -2.410952E+06  5.814657E+05  2.135704E+05
        50  10 -5.552006E+06 -7.294510E+05 -9.565030E+04 -2.277837E+06 -1.417648E-09  2.638772E-10
        50  11 -5.547859E+06 -5.501792E+05 -2.461941E+05 -2.121724E+06 -2.932302E-09  2.843889E-09
        50  12 -5.864080E+06 -1.159609E+06 -7.610045E+05 -1.764392E+06  1.772294E-09  3.524755E-10
        50  13 -6.113588E+06 -8.513769E+05 -2.253139E+05 -2.339647E+06 -2.825275E-09  5.060352E-09
        50  14 -6.001818E+06 -7.890502E+05 -3.778635E+05 -2.314406E+06 -8.147559E-09  5.210734E-09
        50  15 -6.212154E+06 -1.517308E+06 -9.005416E+05 -2.087844E+06 -4.557483E-11 -4.892334E-10
        50  16 -6.674849E+06 -9.733108E+05 -3.549937E+05 -2.401429E+06 -1.475641E-09  3.876659E-09
        50  17 -6.455561E+06 -1.027842E+06 -5.095514E+05 -2.506939E+06 -4.982399E-09  6.634968E-09
        50  18 -6.559980E+06 -1.874624E+06 -1.040069E+06 -2.411053E+06 -1.174349E-09 -2.262501E-10
        50  19 -5.551975E+06 -7.294414E+05 -9.559280E+04 -2.277831E+06 -1.689803E+05 -4.159953E+04
        50  20 -5.547710E+06 -5.501277E+05 -2.459122E+05 -2.121689E+06 -3.670094E+05 -1.172898E+05
        50  21 -5.863729E+06 -1.159478E+06 -7.603282E+05 -1.764298E+06 -5.601195E+05 -2.059793E+05
        50  22 -6.113558E+06 -8.513677E+05 -2.252587E+05 -2.339641E+06 -1.655273E+05 -4.031847E+04
        50  23 -6.001666E+06 -7.889976E+05 -3.775757E+05 -2.314370E+06 -3.706047E+05 -1.186046E+05
        50  24 -6.211789E+06 -1.517172E+06 -8.998387E+05 -2.087747E+06 -5.707959E+05 -2.097810E+05
        50  25 -6.674820E+06 -9.733020E+05 -3.549408E+05 -2.401423E+06 -1.620776E+05 -3.903744E+04
        50  26 -6.455405E+06 -1.027788E+06 -5.092577E+05 -2.506902E+06 -3.741971E+05 -1.199172E+05
        50  27 -6.559601E+06 -1.874482E+06 -1.039339E+06 -2.410952E+06 -5.814657E+05 -2.135704E+05
        51   1 -1.429522E+06 -2.115294E+05 -1.720778E+05 -2.039027E+03  8.907807E+04  1.592442E+04
        51   2 -1.363466E+06 -3.409505E+05 -2.339044E+05 -8.464654E+03  6.785451E+04  4.792697E+04
        51   3 -1.253121E+06 -3.116719E+05 -2.418963E+05 -6.939650E+04  4.674980E+04  4.681259E+04
        51   4 -2.523956E+04  1.381529E+05  1.731080E+05 -4.794977E+04  1.183969E+05  1.602614E+04
        51   5 -4.904109E+04 -1.589749E+04  7.631288E+04 -2.044663E+04  7.726075E+04  4.794811E+04
        51   6 -2.519496E+04 -7.972795E+03  4.709838E+04 -4.743981E+04  3.624796E+04  4.678196E+04
        51   7  1.380848E+06  4.876976E+05  5.181532E+05 -9.396634E+04  1.477819E+05  1.612342E+04
        51   8  1.266976E+06  3.090326E+05  3.864113E+05 -3.245537E+04  8.668668E+04  4.796887E+04
        51   9  1.204121E+06  2.956203E+05  3.359900E+05 -2.544016E+04  2.572539E+04  4.675062E+04
        51  10 -1.429531E+06 -2.115318E+05 -1.720932E+05 -2.040170E+03 -1.339614E-09  8.673081E-10
        51  11 -1.363472E+06 -3.409542E+05 -2.339174E+05 -8.467276E+03 -1.517410E-09 -2.294593E-09
        51  12 -1.253123E+06 -3.116748E+05 -2.419045E+05 -6.939827E+04 -4.891094E-10  6.377266E-10
        51  13 -2.525468E+04  1.381489E+05  1.730812E+05 -4.795129E+04  6.831475E-13 -1.749041E-10
        51  14 -4.904812E+04 -1.590156E+04  7.629735E+04 -2.044961E+04  2.528223E-10 -5.428307E-09
        51  15 -2.519695E+04 -7.975498E+03  4.709179E+04 -4.744118E+04 -3.545982E-10  6.550193E-10
        51  16  1.380825E+06  4.876915E+05  5.181117E+05 -9.396826E+04  1.850636E-09 -1.227999E-09
        51  17  1.266967E+06  3.090281E+05  3.863929E+05 -3.245872E+04 -1.650197E-11 -2.035127E-09
        51  18  1.204120E+06  2.956178E+05  3.359846E+05 -2.544113E+04  1.815716E-09 -6.077104E-10
        51  19 -1.429522E+06 -2.115294E+05 -1.720778E+05 -2.039027E+03 -8.907807E+04 -1.592442E+04
        51  20 -1.363466E+06 -3.409505E+05 -2.339044E+05 -8.464654E+03 -6.785451E+04 -4.792697E+04
        51  21 -1.253121E+06 -3.116719E+05 -2.418963E+05 -6.939650E+04 -4.674980E+04 -4.681259E+04
        51  22 -2.523956E+04  1.381529E+05  1.731080E+05 -4.794977E+04 -1.183969E+05 -1.602614E+04
        51  23 -4.904109E+04 -1.589749E+04  7.631288E+04 -2.044663E+04 -7.726075E+04 -4.794811E+04
        51  24 -2.519496E+04 -7.972795E+03  4.709838E+04 -4.743981E+04 -3.624796E+04 -4.678196E+04
        51  25  1.380848E+06  4.876976E+05  5.181532E+05 -9.396634E+04 -1.477819E+05 -1.612342E+04
        51  26  1.266976E+06  3.090326E+05  3.864113E+05 -3.245537E+04 -8.668668E+04 -4.796887E+04
        51  27  1.204121E+06  2.956203E+05  3.359900E+05 -2.544016E+04 -2.572539E+04 -4.675062E+04
        52   1 -1.163682E+06 -2.672348E+05 -2.286961E+05 -4.562596E+04  2.951085E+04  4.011452E+04
        52   2 -1.078812E+06 -2.593285E+05 -2.258726E+05 -2.046542E+04  2.069546E+04  3.835291E+04
        52   3 -9.880296E+05 -2.367859E+05 -2.134081E+05 -5.042536E+04  1.187618E+04  3.459436E+04
        52   4 -3.436408E+04  1.215194E+04  3.818377E+04 -4.773977E+04  2.910065E+04  4.010856E+04
        52   5 -3.739745E+04 -1.794900E+03  1.968459E+04 -2.017027E+04  1.907246E+04  3.834592E+04
        52   6 -3.432246E+04 -9.078710E+02  1.165676E+04 -4.771520E+04  9.041658E+03  3.458780E+04
        52   7  1.096128E+06  2.914473E+05  3.049754E+05 -4.985802E+04  2.868966E+04  4.010260E+04
        52   8  1.005016E+06  2.556611E+05  2.651669E+05 -1.987500E+04  1.744674E+04  3.833893E+04
        52   9  9.202220E+05  2.349051E+05  2.366588E+05 -4.500104E+04  6.202794E+03  3.458122E+04
        52  10 -1.163683E+06 -2.672367E+05 -2.287008E+05 -4.562691E+04  5.232948E-10 -3.283257E-10
        52  11 -1.078813E+06 -2.593302E+05 -2.258761E+05 -2.046606E+04 -5.180486E-11  5.945674E-10
        52  12 -9.880300E+05 -2.367873E+05 -2.134106E+05 -5.042569E+04 -1.904200E-10 -8.876013E-10
        52  13 -3.436542E+04  1.214998E+04  3.817915E+04 -4.774071E+04  3.747885E-12  1.065731E-10
        52  14 -3.739823E+04 -1.796576E+03  1.968114E+04 -2.017086E+04  8.774291E-11 -9.269527E-10
        52  15 -3.432287E+04 -9.091776E+02  1.165436E+04 -4.771545E+04  3.272664E-10 -1.203243E-09
        52  16  1.096126E+06  2.914453E+05  3.049708E+05 -4.985895E+04  6.194248E-10  1.266165E-09
        52  17  1.005015E+06  2.556594E+05  2.651636E+05 -1.987554E+04  1.079677E-09 -3.229413E-09
        52  18  9.202217E+05  2.349038E+05  2.366565E+05 -4.500121E+04 -5.305879E-10 -3.014425E-10
        52  19 -1.163682E+06 -2.672348E+05 -2.286961E+05 -4.562596E+04 -2.951085E+04 -4.011452E+04
        52  20 -1.078812E+06 -2.593285E+05 -2.258726E+05 -2.046542E+04 -2.069546E+04 -3.835291E+04
        52  21 -9.880296E+05 -2.367859E+05 -2.134081E+05 -5.042536E+04 -1.187618E+04 -3.459436E+04
        52  22 -3.436408E+04  1.215194E+04  3.818377E+04 -4.773977E+04 -2.910065E+04 -4.010856E+04
        52  23 -3.739745E+04 -1.794900E+03  1.968459E+04 -2.017027E+04 -1.907246E+04 -3.834592E+04
        52  24 -3.432246E+04 -9.078710E+02  1.165676E+04 -4.771520E+04 -9.041658E+03 -3.458780E+04
        52  25  1.096128E+06  2.914473E+05  3.049754E+05 -4.985802E+04 -2.868966E+04 -4.010260E+04
        52  26  1.005016E+06  2.556611E+05  2.651669E+05 -1.987500E+04 -1.744674E+04 -3.833893E+04
        52  27  9.202220E+05  2.349051E+05  2.366588E+05 -4.500104E+04 -6.202794E+03 -3.458122E+04
        53   1 -8.904638E+05 -2.105207E+05 -1.923433E+05 -4.809452E+04  9.443393E+03  3.204669E+04
        53   2 -8.031446E+05 -1.899873E+05 -1.759293E+05 -2.041020E+04  7.058649E+03  2.825812E+04
        53   3 -7.146348E+05 -1.681164E+05 -1.575106E+05 -4.796918E+04  4.668112E+03  2.434841E+04
        53   4 -3.536748E+04  8.694167E+02  9.033572E+03 -4.775037E+04  7.216801E+03  3.204193E+04
        53   5 -3.594914E+04 -2.990353E+02  4.928630E+03 -2.013049E+04  4.756229E+03  2.825477E+04
        53   6 -3.533630E+04 -1.175594E+02  2.879177E+03 -4.774972E+04  2.290197E+03  2.434657E+04
        53   7  8.204023E+05  2.122073E+05  2.103601E+05 -4.740585E+04  4.987151E+03  3.203717E+04
        53   8  7.317883E+05  1.893472E+05  1.857460E+05 -1.985048E+04  2.450974E+03  2.825142E+04
        53   9  6.443868E+05  1.678483E+05  1.632370E+05 -4.752999E+04 -9.030833E+01  2.434472E+04
        53  10 -8.904642E+05 -2.105218E+05 -1.923454E+05 -4.809476E+04  1.352837E-09  7.593996E-10
        53  11 -8.031449E+05 -1.899882E+05 -1.759309E+05 -2.041036E+04  3.488967E-09  1.004698E-09
        53  12 -7.146350E+05 -1.681171E+05 -1.575117E+05 -4.796927E+04  2.776762E-09  9.480016E-10
        53  13 -3.536781E+04  8.683003E+02  9.031545E+03 -4.775055E+04  2.154909E-09  8.281708E-11
        53  14 -3.594937E+04 -2.998986E+02  4.927087E+03 -2.013060E+04 -1.218388E-09  1.999309E-10
        53  15 -3.533646E+04 -1.181974E+02  2.878053E+03 -4.774976E+04  1.889279E-09  1.843776E-10
        53  16  8.204020E+05  2.122062E+05  2.103581E+05 -4.740597E+04 -5.216025E-11  4.799292E-11
        53  17  7.317880E+05  1.893463E+05  1.857445E+05 -1.985054E+04 -1.816525E-09 -3.222172E-10
        53  18  6.443867E+05  1.678476E+05  1.632359E+05 -4.752999E+04 -5.906858E-10 -8.785013E-10
        53  19 -8.904638E+05 -2.105207E+05 -1.923433E+05 -4.809452E+04 -9.443393E+03 -3.204669E+04
        53  20 -8.031446E+05 -1.899873E+05 -1.759293E+05 -2.041020E+04 -7.058649E+03 -2.825812E+04
        53  21 -7.146348E+05 -1.681164E+05 -1.575106E+05 -4.796918E+04 -4.668112E+03 -2.434841E+04
        53  22 -3.536748E+04  8.694167E+02  9.033572E+03 -4.775037E+04 -7.216801E+03 -3.204193E+04
        53  23 -3.594914E+04 -2.990353E+02  4.928630E+03 -2.013049E+04 -4.756229E+03 -2.825477E+04
        53  24 -3.533630E+04 -1.175594E+02  2.879177E+03 -4.774972E+04 -2.290197E+03 -2.434657E+04
        53  25  8.204023E+05  2.122073E+05  2.103601E+05 -4.740585E+04 -4.987151E+03 -3.203717E+04
        53  26  7.317883E+05  1.893472E+05  1.857460E+05 -1.985048E+04 -2.450974E+03 -2.825142E+04
        53  27  6.443868E+05  1.678483E+05  1.632370E+05 -4.752999E+04  9.030833E+01 -2.434472E+04
        54   1 -6.160834E+05 -1.434619E+05 -1.344157E+05 -4.773061E+04  4.176848E+03  2.205090E+04
        54   2 -5.282120E+05 -1.218226E+05 -1.149310E+05 -2.001639E+04  3.601584E+03  1.813871E+04
        54   3 -4.400708E+05 -1.000217E+05 -9.499985E+04 -4.758407E+04  3.022673E+03  1.421869E+04
        54   4 -3.551047E+04  1.525706E+01  2.170128E+03 -4.775880E+04  1.834687E+03  2.204989E+04
        54   5 -3.563222E+04 -5.329231E+01  1.169422E+03 -2.011920E+04  1.254076E+03  1.813866E+04
        54   6 -3.549039E+04  4.121769E+01  6.189892E+02 -4.775880E+04  6.698992E+02  1.421962E+04
        54   7  5.453728E+05  1.434683E+05  1.387328E+05 -4.778699E+04 -5.096527E+02  2.204888E+04
        54   8  4.571709E+05  1.216987E+05  1.172531E+05 -2.022207E+04 -1.095285E+03  1.813861E+04
        54   9  3.692406E+05  1.000924E+05  9.622652E+04 -4.793361E+04 -1.684400E+03  1.422056E+04
        54  10 -6.160835E+05 -1.434624E+05 -1.344166E+05 -4.773069E+04  3.005601E-10  8.567016E-10
        54  11 -5.282121E+05 -1.218230E+05 -1.149317E+05 -2.001645E+04 -8.239780E-10  2.336497E-10
        54  12 -4.400708E+05 -1.000220E+05 -9.500025E+04 -4.758410E+04 -2.426654E-10 -1.823081E-10
        54  13 -3.551061E+04  1.473407E+01  2.169208E+03 -4.775883E+04  1.090517E-09  2.843974E-10
        54  14 -3.563231E+04 -5.364603E+01  1.168800E+03 -2.011922E+04 -4.581440E-10  9.680736E-11
        54  15 -3.549045E+04  4.100045E+01  6.186084E+02 -4.775880E+04  2.443486E-10 -8.415426E-10
        54  16  5.453727E+05  1.434678E+05  1.387319E+05 -4.778698E+04  9.342019E-10 -6.632282E-10
        54  17  4.571708E+05  1.216983E+05  1.172525E+05 -2.022205E+04  2.989061E-10  4.377832E-10
        54  18  3.692405E+05  1.000922E+05  9.622613E+04 -4.793359E+04  1.080410E-09 -8.785802E-10
        54  19 -6.160834E+05 -1.434619E+05 -1.344157E+05 -4.773061E+04 -4.176848E+03 -2.205090E+04
        54  20 -5.282120E+05 -1.218226E+05 -1.149310E+05 -2.001639E+04 -3.601584E+03 -1.813871E+04
        54  21 -4.400708E+05 -1.000217E+05 -9.499985E+04 -4.758407E+04 -3.022673E+03 -1.421869E+04
        54  22 -3.551047E+04  1.525706E+01  2.170128E+03 -4.775880E+04 -1.834687E+03 -2.204989E+04
        54  23 -3.563222E+04 -5.329231E+01  1.169422E+03 -2.011920E+04 -1.254076E+03 -1.813866E+04
        54  24 -3.549039E+04  4.121769E+01  6.189892E+02 -4.775880E+04 -6.698992E+02 -1.421962E+04
        54  25  5.453728E+05  1.434683E+05  1.387328E+05 -4.778699E+04  5.096527E+02 -2.204888E+04
        54  26  4.571709E+05  1.216987E+05  1.172531E+05 -2.022207E+04  1.095285E+03 -1.813861E+04
        54  27  3.692406E+05  1.000924E+05  9.622652E+04 -4.793361E+04  1.684400E+03 -1.422056E+04
        55   1 -3.413134E+05 -7.548472E+04 -7.139700E+04 -4.761633E+04  2.927265E+03  1.193494E+04
        55   2 -2.532255E+05 -5.378504E+04 -5.124831E+04 -1.999320E+04  2.895054E+03  8.014163E+03
        55   3 -1.651847E+05 -3.202450E+04 -3.108042E+04 -4.767314E+04  2.861264E+03  4.096198E+03
        55   4 -3.554234E+04  4.271008E+01  3.999358E+02 -4.776384E+04  5.749975E+02  1.193635E+04
        55   5 -3.551131E+04  2.662959E+01  5.806344E+01 -2.011290E+04  5.443086E+02  8.015984E+03
        55   6 -3.553346E+04  7.199202E+01 -2.649639E+02 -4.776383E+04  5.120459E+02  4.098461E+03
        55   7  2.703148E+05  7.556348E+04  7.219048E+04 -4.791139E+04 -1.778422E+03  1.193776E+04
        55   8  1.822465E+05  5.383491E+04  5.136119E+04 -2.023263E+04 -1.807257E+03  8.017805E+03
        55   9  9.413322E+04  3.216728E+04  3.054934E+04 -4.785453E+04 -1.837661E+03  4.100724E+03
        55  10 -3.413134E+05 -7.548487E+04 -7.139728E+04 -4.761636E+04 -1.730948E-09 -1.548178E-10
        55  11 -2.532255E+05 -5.378511E+04 -5.124844E+04 -1.999322E+04 -7.016226E-10 -2.300554E-11
        55  12 -1.651847E+05 -3.202452E+04 -3.108047E+04 -4.767315E+04 -1.996999E-10 -7.053588E-10
        55  13 -3.554238E+04  4.255700E+01  3.996674E+02 -4.776384E+04  1.131691E-11  6.235644E-10
        55  14 -3.551132E+04  2.656051E+01  5.794214E+01 -2.011290E+04  1.840358E-09  9.945447E-10
        55  15 -3.553347E+04  7.197391E+01 -2.649960E+02 -4.776383E+04  7.585227E-10 -1.255847E-09
        55  16  2.703148E+05  7.556332E+04  7.219021E+04 -4.791137E+04  4.149653E-10 -6.393860E-10
        55  17  1.822465E+05  5.383484E+04  5.136106E+04 -2.023261E+04  9.780242E-10  9.579367E-10
        55  18  9.413321E+04  3.216726E+04  3.054930E+04 -4.785452E+04  1.196576E-09  5.617318E-10
        55  19 -3.413134E+05 -7.548472E+04 -7.139700E+04 -4.761633E+04 -2.927265E+03 -1.193494E+04
        55  20 -2.532255E+05 -5.378504E+04 -5.124831E+04 -1.999320E+04 -2.895054E+03 -8.014163E+03
        55  21 -1.651847E+05 -3.202450E+04 -3.108042E+04 -4.767314E+04 -2.861264E+03 -4.096198E+03
        55  22 -3.554234E+04  4.271008E+01  3.999358E+02 -4.776384E+04 -5.749975E+02 -1.193635E+04
        55  23 -3.551131E+04  2.662959E+01  5.806344E+01 -2.011290E+04 -5.443086E+02 -8.015984E+03
        55  24 -3.553346E+04  7.199202E+01 -2.649639E+02 -4.776383E+04 -5.120459E+02 -4.098461E+03
        55  25  2.703148E+05  7.556348E+04  7.219048E+04 -4.791139E+04  1.778422E+03 -1.193776E+04
        55  26  1.822465E+05  5.383491E+04  5.136119E+04 -2.023263E+04  1.807257E+03 -8.017805E+03
        55  27  9.413322E+04  3.216728E+04  3.054934E+04 -4.785453E+04  1.837661E+03 -4.100724E+03
        56   1 -6.635527E+04 -7.455103E+03 -7.440255E+03 -4.779471E+04  2.941145E+03  1.805265E+03
        56   2  2.184316E+04  1.423064E+04  1.256576E+04 -2.015473E+04  3.368287E+03 -2.111395E+03
        56   3  1.098254E+05  3.572877E+04  3.221900E+04 -4.782219E+04  3.795962E+03 -5.966065E+03
        56   4 -3.556885E+04  1.005790E+02 -4.495756E+02 -4.776506E+04  5.728798E+02  1.807653E+03
        56   5 -3.545443E+04  7.081897E+01 -9.352361E+02 -2.011130E+04  1.036998E+03 -2.109170E+03
        56   6 -3.557121E+04 -1.528208E+02 -1.799369E+03 -4.776531E+04  1.501589E+03 -5.963973E+03
        56   7 -4.781541E+03  7.656198E+03  6.541063E+03 -4.773541E+04 -1.795502E+03  1.810042E+03
        56   8 -9.274899E+04 -1.408923E+04 -1.443644E+04 -2.006788E+04 -1.294078E+03 -2.106945E+03
        56   9 -1.809483E+05 -3.603591E+04 -3.581916E+04 -4.770843E+04 -7.922505E+02 -5.961881E+03
        56  10 -6.635528E+04 -7.455108E+03 -7.440277E+03 -4.779471E+04 -1.140879E-09  1.233481E-10
        56  11  2.184315E+04  1.423063E+04  1.256573E+04 -2.015472E+04 -1.107199E-09 -3.800256E-10
        56  12  1.098254E+05  3.572873E+04  3.221891E+04 -4.782217E+04  1.981895E-10  1.941429E-10
        56  13 -3.556885E+04  1.005754E+02 -4.495823E+02 -4.776506E+04  1.064337E-09 -9.853541E-10
        56  14 -3.545443E+04  7.081391E+01 -9.352464E+02 -2.011130E+04  1.296893E-09 -1.586400E-09
        56  15 -3.557122E+04 -1.528596E+02 -1.799440E+03 -4.776530E+04  3.788751E-10  5.047787E-10
        56  16 -4.781545E+03  7.656194E+03  6.541051E+03 -4.773541E+04  1.317993E-09  1.143713E-09
        56  17 -9.274899E+04 -1.408924E+04 -1.443645E+04 -2.006788E+04  5.312969E-10 -1.400045E-09
        56  18 -1.809483E+05 -3.603595E+04 -3.581922E+04 -4.770843E+04  4.045095E-10 -2.255709E-10
        56  19 -6.635527E+04 -7.455103E+03 -7.440255E+03 -4.779471E+04 -2.941145E+03 -1.805265E+03
        56  20  2.184316E+04  1.423064E+04  1.256576E+04 -2.015473E+04 -3.368287E+03  2.111395E+03
        56  21  1.098254E+05  3.572877E+04  3.221900E+04 -4.782219E+04 -3.795962E+03  5.966065E+03
        56  22 -3.556885E+04  1.005790E+02 -4.495756E+02 -4.776506E+04 -5.728798E+02 -1.807653E+03
        56  23 -3.545443E+04  7.081897E+01 -9.352361E+02 -2.011130E+04 -1.036998E+03  2.109170E+03
        56  24 -3.557121E+04 -1.528208E+02 -1.799369E+03 -4.776531E+04 -1.501589E+03  5.963973E+03
        56  25 -4.781541E+03  7.656198E+03  6.541063E+03 -4.773541E+04  1.795502E+03 -1.810042E+03
        56  26 -9.274899E+04 -1.408923E+04 -1.443644E+04 -2.006788E+04  1.294078E+03  2.106945E+03
        56  27 -1.809483E+05 -3.603591E+04 -3.581916E+04 -4.770843E+04  7.922505E+02  5.961881E+03
        57   1  2.085328E+05  6.063157E+04  5.545849E+04 -4.832431E+04  4.470199E+03 -8.384117E+03
        57   2  2.970768E+05  8.242669E+04  7.427712E+04 -2.008752E+04  5.900197E+03 -1.221573E+04
        57   3  3.847247E+05  1.013585E+05  9.144669E+04 -4.711399E+04  7.333221E+03 -1.502040E+04
        57   4 -3.575458E+04  2.199262E+02 -2.333592E+03 -4.775516E+04  1.862437E+03 -8.381999E+03
        57   5 -3.525594E+04  3.111776E+02 -4.022655E+03 -2.012343E+04  3.907704E+03 -1.221476E+04
        57   6 -3.576820E+04 -2.568198E+03 -7.788487E+03 -4.775689E+04  5.955797E+03 -1.502032E+04
        57   7 -2.799871E+05 -6.019599E+04 -6.012979E+04 -4.718621E+04 -7.443037E+02 -8.379885E+03
        57   8 -3.674871E+05 -8.181223E+04 -8.233003E+04 -2.015930E+04  1.916271E+03 -1.221380E+04
        57   9 -4.560986E+05 -1.065075E+05 -1.070359E+05 -4.839932E+04  4.579300E+03 -1.502024E+04
        57  10  2.085328E+05  6.063149E+04  5.545832E+04 -4.832428E+04  4.638084E-10 -6.437858E-10
        57  11  2.970767E+05  8.242653E+04  7.427678E+04 -2.008746E+04 -3.033060E-10  6.527869E-10
        57  12  3.847246E+05  1.013582E+05  9.144617E+04 -4.711390E+04  6.155134E-10 -2.679463E-10
        57  13 -3.575460E+04  2.198498E+02 -2.333731E+03 -4.775514E+04  1.076323E-09  5.715192E-10
        57  14 -3.525600E+04  3.110133E+02 -4.022964E+03 -2.012339E+04 -3.730267E-10  4.115461E-10
        57  15 -3.576830E+04 -2.568449E+03 -7.788978E+03 -4.775681E+04  7.970606E-10 -2.076964E-10
        57  16 -2.799872E+05 -6.019607E+04 -6.012992E+04 -4.718622E+04 -1.336523E-09  7.874363E-10
        57  17 -3.674872E+05 -8.181239E+04 -8.233031E+04 -2.015928E+04 -2.226964E-09  9.308220E-10
        57  18 -4.560987E+05 -1.065078E+05 -1.070363E+05 -4.839927E+04 -1.386080E-09 -5.851043E-10
        57  19  2.085328E+05  6.063157E+04  5.545849E+04 -4.832431E+04 -4.470199E+03  8.384117E+03
        57  20  2.970768E+05  8.242669E+04  7.427712E+04 -2.008752E+04 -5.900197E+03  1.221573E+04
        57  21  3.847247E+05  1.013585E+05  9.144669E+04 -4.711399E+04 -7.333221E+03  1.502040E+04
        57  22 -3.575458E+04  2.199262E+02 -2.333592E+03 -4.775516E+04 -1.862437E+03  8.381999E+03
        57  23 -3.525594E+04  3.111776E+02 -4.022655E+03 -2.012343E+04 -3.907704E+03  1.221476E+04
        57  24 -3.576820E+04 -2.568198E+03 -7.788487E+03 -4.775689E+04 -5.955797E+03  1.502032E+04
        57  25 -2.799871E+05 -6.019599E+04 -6.012979E+04 -4.718621E+04  7.443037E+02  8.379885E+03
        57  26 -3.674871E+05 -8.181223E+04 -8.233003E+04 -2.015930E+04 -1.916271E+03  1.221380E+04
        57  27 -4.560986E+05 -1.065075E+05 -1.070359E+05 -4.839932E+04 -4.579300E+03  1.502024E+04
        58   1  4.819631E+05  1.298691E+05  1.126257E+05 -5.181801E+04  1.397344E+04 -1.954602E+04
        58   2  5.738150E+05  1.530098E+05  1.274407E+05 -1.721912E+04  1.218515E+04 -2.197828E+04
        58   3  6.584119E+05  1.450060E+05  1.356939E+05 -3.734042E+04  1.039501E+04 -7.423157E+03
        58   4 -3.757654E+04  1.541991E+03 -9.592631E+03 -4.763562E+04  7.408199E+03 -1.954426E+04
        58   5 -3.306941E+04  3.056536E+03 -1.564636E+04 -2.027240E+04  1.581363E+04 -2.198013E+04
        58   6 -3.760155E+04 -2.835884E+04 -3.534619E+04 -4.763343E+04  2.421718E+04 -7.421214E+03
        58   7 -5.568678E+05 -1.268043E+05 -1.318293E+05 -4.345671E+04  8.484178E+02 -1.954260E+04
        58   8 -6.396152E+05 -1.469230E+05 -1.587588E+05 -2.332268E+04  1.943858E+04 -2.198201E+04
        58   9 -7.331737E+05 -2.017591E+05 -2.064211E+05 -5.791489E+04  3.802388E+04 -7.419729E+03
        58  10  4.819628E+05  1.298687E+05  1.126246E+05 -5.181780E+04  1.272770E-10 -4.358692E-10
        58  11  5.738147E+05  1.530093E+05  1.274395E+05 -1.721890E+04  1.875207E-09  3.903135E-10
        58  12  6.584117E+05  1.450059E+05  1.356935E+05 -3.734036E+04  1.784623E-09  3.419891E-10
        58  13 -3.757670E+04  1.541566E+03 -9.593451E+03 -4.763550E+04 -2.138131E-09  2.402776E-10
        58  14 -3.306981E+04  3.055950E+03 -1.564774E+04 -2.027212E+04 -1.070151E-09  2.776425E-10
        58  15 -3.760219E+04 -2.835905E+04 -3.534740E+04 -4.763328E+04 -1.065705E-09  8.235873E-11
        58  16 -5.568679E+05 -1.268047E+05 -1.318300E+05 -4.345669E+04  7.173315E-10 -5.349979E-10
        58  17 -6.396157E+05 -1.469236E+05 -1.587604E+05 -2.332233E+04 -1.546088E-09  2.899964E-10
        58  18 -7.331753E+05 -2.017596E+05 -2.064239E+05 -5.791466E+04 -6.407591E-10  3.434818E-10
        58  19  4.819631E+05  1.298691E+05  1.126257E+05 -5.181801E+04 -1.397344E+04  1.954602E+04
        58  20  5.738150E+05  1.530098E+05  1.274407E+05 -1.721912E+04 -1.218515E+04  2.197828E+04
        58  21  6.584119E+05  1.450060E+05  1.356939E+05 -3.734042E+04 -1.039501E+04  7.423157E+03
        58  22 -3.757654E+04  1.541991E+03 -9.592631E+03 -4.763562E+04 -7.408199E+03  1.954426E+04
        58  23 -3.306941E+04  3.056536E+03 -1.564636E+04 -2.027240E+04 -1.581363E+04  2.198013E+04
        58  24 -3.760155E+04 -2.835884E+04 -3.534619E+04 -4.763343E+04 -2.421718E+04  7.421214E+03
        58  25 -5.568678E+05 -1.268043E+05 -1.318293E+05 -4.345671E+04 -8.484178E+02  1.954260E+04
        58  26 -6.396152E+05 -1.469230E+05 -1.587588E+05 -2.332268E+04 -1.943858E+04  2.198201E+04
        58  27 -7.331737E+05 -2.017591E+05 -2.064211E+05 -5.791489E+04 -3.802388E+04  7.419729E+03
        59   1  9.538660E+05  3.025895E+06  9.184835E+05 -9.738580E+05  3.758870E+04  2.463721E+05
        59   2  6.577433E+05  2.101778E+06  5.755292E+05 -8.507409E+05  1.154770E+05  7.337679E+04
        59   3  4.281680E+05  1.216049E+06  3.613212E+05 -9.243659E+05  1.049235E+05 -9.971998E+04
        59   4  7.180294E+04 -5.399856E+05  7.151352E+04 -9.180720E+05  3.881052E+04  3.921438E+04
        59   5  2.206830E+04 -5.449867E+05  4.304484E+04 -8.198668E+05  1.158608E+05  1.767436E+04
        59   6  1.285265E+04 -5.384485E+05  3.854222E+04 -9.184180E+05  1.043093E+05 -4.226334E+03
        59   7 -8.111433E+05 -4.094128E+06 -7.761830E+05 -8.625826E+05  3.999948E+04 -1.667642E+05
        59   8 -6.140352E+05 -3.185076E+06 -4.897863E+05 -7.891126E+05  1.162400E+05 -3.779591E+04
        59   9 -4.026330E+05 -2.289942E+06 -2.843296E+05 -9.124806E+05  1.036959E+05  9.100495E+04
        59  10  9.538483E+05  3.025830E+06  9.183672E+05 -9.738655E+05  4.472043E-10 -2.592143E-08
        59  11  6.577275E+05  2.101769E+06  5.754940E+05 -8.507477E+05 -1.688333E-09 -1.496497E-08
        59  12  4.281535E+05  1.216035E+06  3.612820E+05 -9.243575E+05  6.553848E-10  3.353289E-09
        59  13  7.180091E+04 -5.399876E+05  7.150779E+04 -9.180732E+05  3.422703E-09  2.536003E-09
        59  14  2.205381E+04 -5.449906E+05  4.301902E+04 -8.198685E+05  8.383985E-09 -5.358316E-09
        59  15  1.284096E+04 -5.384515E+05  3.852175E+04 -9.184177E+05  1.031516E-08  9.709008E-10
        59  16 -8.111525E+05 -4.094158E+06 -7.762386E+05 -8.625772E+05  1.606763E-10  2.578314E-08
        59  17 -6.140501E+05 -3.185081E+06 -4.898143E+05 -7.891091E+05  5.400819E-09  1.267279E-08
        59  18 -4.026468E+05 -2.289954E+06 -2.843654E+05 -9.124883E+05 -1.306416E-09 -5.003874E-09
        59  19  9.538660E+05  3.025895E+06  9.184835E+05 -9.738580E+05 -3.758870E+04 -2.463721E+05
        59  20  6.577433E+05  2.101778E+06  5.755292E+05 -8.507409E+05 -1.154770E+05 -7.337679E+04
        59  21  4.281680E+05  1.216049E+06  3.613212E+05 -9.243659E+05 -1.049235E+05  9.971998E+04
        59  22  7.180294E+04 -5.399856E+05  7.151352E+04 -9.180720E+05 -3.881052E+04 -3.921438E+04
        59  23  2.206830E+04 -5.449867E+05  4.304484E+04 -8.198668E+05 -1.158608E+05 -1.767436E+04
        59  24  1.285265E+04 -5.384485E+05  3.854222E+04 -9.184180E+05 -1.043093E+05  4.226334E+03
        59  25 -8.111433E+05 -4.094128E+06 -7.761830E+05 -8.625826E+05 -3.999948E+04  1.667642E+05
        59  26 -6.140352E+05 -3.185076E+06 -4.897863E+05 -7.891126E+05 -1.162400E+05  3.779591E+04
        59  27 -4.026330E+05 -2.289942E+06 -2.843296E+05 -9.124806E+05 -1.036959E+05 -9.100495E+04
        60   1  2.887388E+05  6.218583E+05  2.545035E+05 -9.294052E+05  7.015221E+04 -9.763776E+04
        60   2  7.364344E+04 -2.849332E+05  1.008766E+05 -8.178291E+05  1.901712E+04 -1.279874E+05
        60   3 -1.244028E+05 -1.185242E+06 -2.944681E+04 -9.084996E+05 -3.318133E+04 -1.583121E+05
        60   4  1.373480E+04 -5.394928E+05  4.124691E+04 -9.196084E+05  6.956891E+04 -1.102388E+04
        60   5  1.337269E+04 -5.420855E+05  5.666956E+04 -8.184367E+05  1.841531E+04 -3.961137E+04
        60   6  2.978515E+04 -5.393266E+05  9.414917E+04 -9.195030E+05 -3.380265E+04 -6.821536E+04
        60   7 -2.613417E+05 -1.699519E+06 -1.720368E+05 -9.098274E+05  6.898766E+04  7.543240E+04
        60   8 -4.689740E+04 -7.991560E+05  1.248960E+04 -8.190440E+05  1.781317E+04  4.872916E+04
        60   9  1.839531E+05  1.070090E+05  2.177568E+05 -9.305173E+05 -3.442677E+04  2.197309E+04
        60  10  2.887310E+05  6.218467E+05  2.544764E+05 -9.293997E+05  2.009002E-09  3.546253E-08
        60  11  7.363865E+04 -2.849509E+05  1.008452E+05 -8.178272E+05 -8.456485E-10  3.253704E-08
        60  12 -1.244107E+05 -1.185269E+06 -2.949610E+04 -9.085038E+05 -9.629493E-10  2.916804E-08
        60  13  1.372958E+04 -5.394942E+05  4.123759E+04 -9.196077E+05  6.757314E-09  2.247378E-09
        60  14  1.337191E+04 -5.420873E+05  5.666598E+04 -8.184362E+05 -5.299630E-09 -6.024935E-09
        60  15  2.978266E+04 -5.393319E+05  9.413825E+04 -9.195049E+05 -7.651470E-09  1.937902E-09
        60  16 -2.613483E+05 -1.699526E+06 -1.720565E+05 -9.098316E+05  7.246773E-10 -3.650256E-08
        60  17 -4.689838E+04 -7.991587E+05  1.248454E+04 -8.190447E+05 -1.419793E-09 -3.613729E-08
        60  18  1.839517E+05  1.070082E+05  2.177536E+05 -9.305167E+05  1.705808E-09 -2.945868E-08
        60  19  2.887388E+05  6.218583E+05  2.545035E+05 -9.294052E+05 -7.015221E+04  9.763776E+04
        60  20  7.364344E+04 -2.849332E+05  1.008766E+05 -8.178291E+05 -1.901712E+04  1.279874E+05
        60  21 -1.244028E+05 -1.185242E+06 -2.944681E+04 -9.084996E+05  3.318133E+04  1.583121E+05
        60  22  1.373480E+04 -5.394928E+05  4.124691E+04 -9.196084E+05 -6.956891E+04  1.102388E+04
        60  23  1.337269E+04 -5.420855E+05  5.666956E+04 -8.184367E+05 -1.841531E+04  3.961137E+04
        60  24  2.978515E+04 -5.393266E+05  9.414917E+04 -9.195030E+05  3.380265E+04  6.821536E+04
        60  25 -2.613417E+05 -1.699519E+06 -1.720368E+05 -9.098274E+05 -6.898766E+04 -7.543240E+04
        60  26 -4.689740E+04 -7.991560E+05  1.248960E+04 -8.190440E+05 -1.781317E+04 -4.872916E+04
        60  27  1.839531E+05  1.070090E+05  2.177568E+05 -9.305173E+05  3.442677E+04 -2.197309E+04
        61   1 -2.696679E+05 -1.762187E+06 -1.108900E+05 -9.346430E+05 -6.840799E+04 -1.819262E+05
        61   2 -4.158318E+05 -2.688130E+06 -2.177700E+05 -6.951177E+05 -8.769064E+04 -1.632427E+05
        61   3 -3.483654E+05 -3.563865E+06 -2.838494E+05 -6.528804E+05 -3.033066E+04 -1.442332E+05
        61   4  2.432296E+04 -5.247931E+05  1.214796E+05 -9.186378E+05 -6.907007E+04 -8.452683E+04
        61   5  9.901604E+04 -5.612257E+05  2.168396E+05 -8.189602E+05 -8.742569E+04 -1.963075E+05
        61   6  4.095436E+05 -5.259291E+05  4.434990E+05 -9.163410E+05 -2.926773E+04 -3.077491E+05
        61   7  3.182313E+05  7.141053E+05  3.538187E+05 -9.025965E+05 -6.972628E+04  1.306236E+04
        61   8  6.136340E+05  1.570024E+06  6.512214E+05 -9.432272E+05 -8.714811E+04 -2.294830E+05
        61   9  1.167045E+06  2.520697E+06  1.170329E+06 -1.181085E+06 -2.806872E+04 -4.720624E+05
        61  10 -2.696818E+05 -1.762223E+06 -1.109612E+05 -9.346531E+05  6.462620E-10 -1.850667E-08
        61  11 -4.158473E+05 -2.688161E+06 -2.178348E+05 -6.951293E+05  3.164778E-09 -1.455170E-08
        61  12 -3.483720E+05 -3.563887E+06 -2.838905E+05 -6.528839E+05  1.109783E-09 -2.034633E-09
        61  13  2.431591E+04 -5.248021E+05  1.214572E+05 -9.186425E+05 -7.459105E-09  3.132499E-09
        61  14  9.899744E+04 -5.612692E+05  2.167527E+05 -8.189740E+05 -1.131390E-08 -5.589120E-09
        61  15  4.095172E+05 -5.260311E+05  4.433192E+05 -9.163483E+05  2.847941E-10  1.693909E-09
        61  16  3.182261E+05  7.141039E+05  3.538092E+05 -9.025957E+05 -1.855487E-09  1.920191E-08
        61  17  6.136117E+05  1.569966E+06  6.511083E+05 -9.432433E+05  1.898197E-09  1.115073E-08
        61  18  1.166985E+06  2.520459E+06  1.169910E+06 -1.181096E+06  2.270329E-09  1.533957E-09
        61  19 -2.696679E+05 -1.762187E+06 -1.108900E+05 -9.346430E+05  6.840799E+04  1.819262E+05
        61  20 -4.158318E+05 -2.688130E+06 -2.177700E+05 -6.951177E+05  8.769064E+04  1.632427E+05
        61  21 -3.483654E+05 -3.563865E+06 -2.838494E+05 -6.528804E+05  3.033066E+04  1.442332E+05
        61  22  2.432296E+04 -5.247931E+05  1.214796E+05 -9.186378E+05  6.907007E+04  8.452683E+04
        61  23  9.901604E+04 -5.612257E+05  2.168396E+05 -8.189602E+05  8.742569E+04  1.963075E+05
        61  24  4.095436E+05 -5.259291E+05  4.434990E+05 -9.163410E+05  2.926773E+04  3.077491E+05
        61  25  3.182313E+05  7.141053E+05  3.538187E+05 -9.025965E+05  6.972628E+04 -1.306236E+04
        61  26  6.136340E+05  1.570024E+06  6.512214E+05 -9.432272E+05  8.714811E+04  2.294830E+05
        61  27  1.167045E+06  2.520697E+06  1.170329E+06 -1.181085E+06  2.806872E+04  4.720624E+05
        62   1 -3.379468E+06 -1.292250E+06 -7.208411E+05 -1.175740E+06 -2.039441E+05 -2.289023E+04
        62   2 -3.156857E+06 -1.235088E+06 -5.707596E+05 -1.101124E+06 -1.362346E+05  1.294276E+05
        62   3 -2.904279E+06 -1.193554E+06 -4.964001E+05 -1.077034E+06 -3.733001E+04  1.997896E+05
        62   4 -2.297721E+05 -1.465983E+05  8.572954E+04 -3.526105E+05  3.720707E+04  6.850293E+04
        62   5 -2.622497E+05 -1.850215E+05  3.944555E+04 -3.146609E+05 -2.518211E+04  1.713666E+05
        62   6 -2.389335E+05 -2.132697E+05  2.097122E+04 -3.272352E+05 -5.650124E+04  1.924604E+05
        62   7  2.929638E+06  9.995425E+05  8.917191E+05  4.742478E+05  2.797003E+05  1.603624E+05
        62   8  2.640938E+06  8.656793E+05  6.492353E+05  4.751651E+05  8.643066E+04  2.135093E+05
        62   9  2.433859E+06  7.676997E+05  5.380415E+05  4.255810E+05 -7.576171E+04  1.850974E+05
        62  10 -3.379513E+06 -1.292262E+06 -7.209206E+05 -1.175743E+06  8.591694E-09  5.385669E-10
        62  11 -3.156881E+06 -1.235111E+06 -5.708260E+05 -1.101109E+06 -2.775551E-08 -1.271314E-08
        62  12 -2.904292E+06 -1.193597E+06 -4.964777E+05 -1.077028E+06 -6.258118E-08 -2.772009E-08
        62  13 -2.297749E+05 -1.466037E+05  8.571811E+04 -3.526125E+05  3.963928E-09 -1.145873E-11
        62  14 -2.622583E+05 -1.850532E+05  3.938918E+04 -3.146574E+05  3.968250E-09 -1.193556E-09
        62  15 -2.389468E+05 -2.133103E+05  2.089562E+04 -3.272264E+05 -8.784487E-10 -1.197598E-08
        62  16  2.929548E+06  9.994941E+05  8.915246E+05  4.742118E+05 -1.708800E-09  2.007755E-09
        62  17  2.640918E+06  8.656284E+05  6.491358E+05  4.751503E+05  3.413336E-08  1.581949E-08
        62  18  2.433844E+06  7.676614E+05  5.379663E+05  4.255923E+05  5.269427E-08  2.216495E-08
        62  19 -3.379468E+06 -1.292250E+06 -7.208411E+05 -1.175740E+06  2.039441E+05  2.289023E+04
        62  20 -3.156857E+06 -1.235088E+06 -5.707596E+05 -1.101124E+06  1.362346E+05 -1.294276E+05
        62  21 -2.904279E+06 -1.193554E+06 -4.964001E+05 -1.077034E+06  3.733001E+04 -1.997896E+05
        62  22 -2.297721E+05 -1.465983E+05  8.572954E+04 -3.526105E+05 -3.720707E+04 -6.850293E+04
        62  23 -2.622497E+05 -1.850215E+05  3.944555E+04 -3.146609E+05  2.518211E+04 -1.713666E+05
        62  24 -2.389335E+05 -2.132697E+05  2.097122E+04 -3.272352E+05  5.650124E+04 -1.924604E+05
        62  25  2.929638E+06  9.995425E+05  8.917191E+05  4.742478E+05 -2.797003E+05 -1.603624E+05
        62  26  2.640938E+06  8.656793E+05  6.492353E+05  4.751651E+05 -8.643066E+04 -2.135093E+05
        62  27  2.433859E+06  7.676997E+05  5.380415E+05  4.255810E+05  7.576171E+04 -1.850974E+05
        63   1 -2.759830E+06 -1.132316E+06 -4.691198E+05 -1.032271E+06 -4.916291E+04  1.862263E+05
        63   2 -2.556139E+06 -1.031507E+06 -4.235327E+05 -9.478069E+05 -4.005485E+04  1.810551E+05
        63   3 -2.313443E+06 -9.691483E+05 -3.822711E+05 -9.077276E+05 -2.851163E+04  1.693553E+05
        63   4 -2.404879E+05 -2.127096E+05  1.584341E+04 -3.299272E+05 -5.588683E+04  1.836077E+05
        63   5 -2.609556E+05 -1.955315E+05  8.253475E+03 -3.072710E+05 -5.715782E+04  1.745398E+05
        63   6 -2.404193E+05 -2.147391E+05  4.577074E+03 -3.290070E+05 -5.600101E+04  1.589560E+05
        63   7  2.285478E+06  7.074764E+05  5.005338E+05  3.750708E+05 -6.264039E+04  1.809781E+05
        63   8  2.039737E+06  6.409304E+05  4.398272E+05  3.354709E+05 -7.432882E+04  1.679991E+05
        63   9  1.837095E+06  5.400661E+05  3.912557E+05  2.515124E+05 -8.358874E+04  1.485197E+05
        63  10 -2.759842E+06 -1.132354E+06 -4.691895E+05 -1.032264E+06  6.066689E-08  2.147192E-08
        63  11 -2.556150E+06 -1.031543E+06 -4.235973E+05 -9.478010E+05  3.689698E-08  1.604836E-08
        63  12 -2.313452E+06 -9.691793E+05 -3.823265E+05 -9.077237E+05 -1.974719E-09  1.877674E-09
        63  13 -2.405003E+05 -2.127467E+05  1.577420E+04 -3.299190E+05 -7.237341E-09 -1.184385E-08
        63  14 -2.609673E+05 -1.955651E+05  8.190099E+03 -3.072630E+05  1.560577E-09 -5.111946E-09
        63  15 -2.404295E+05 -2.147671E+05  4.523709E+03 -3.289998E+05 -5.874833E-09 -1.607944E-09
        63  16  2.285465E+06  7.074402E+05  5.004649E+05  3.750800E+05 -7.335304E-08 -2.709263E-08
        63  17  2.039724E+06  6.408986E+05  4.397638E+05  3.354810E+05 -3.592546E-08 -1.604761E-08
        63  18  1.837081E+06  5.400405E+05  3.912011E+05  2.515224E+05 -6.666872E-09 -8.373501E-10
        63  19 -2.759830E+06 -1.132316E+06 -4.691198E+05 -1.032271E+06  4.916291E+04 -1.862263E+05
        63  20 -2.556139E+06 -1.031507E+06 -4.235327E+05 -9.478069E+05  4.005485E+04 -1.810551E+05
        63  21 -2.313443E+06 -9.691483E+05 -3.822711E+05 -9.077276E+05  2.851163E+04 -1.693553E+05
        63  22 -2.404879E+05 -2.127096E+05  1.584341E+04 -3.299272E+05  5.588683E+04 -1.836077E+05
        63  23 -2.609556E+05 -1.955315E+05  8.253475E+03 -3.072710E+05  5.715782E+04 -1.745398E+05
        63  24 -2.404193E+05 -2.147391E+05  4.577074E+03 -3.290070E+05  5.600101E+04 -1.589560E+05
        63  25  2.285478E+06  7.074764E+05  5.005338E+05  3.750708E+05  6.264039E+04 -1.809781E+05
        63  26  2.039737E+06  6.409304E+05  4.398272E+05  3.354709E+05  7.432882E+04 -1.679991E+05
        63  27  1.837095E+06  5.400661E+05  3.912557E+05  2.515124E+05  8.358874E+04 -1.485197E+05
        64   1 -2.166229E+06 -9.145296E+05 -3.545246E+05 -8.663446E+05 -2.628312E+04  1.586077E+05
        64   2 -1.962546E+06 -8.130029E+05 -3.142497E+05 -7.813654E+05 -1.993351E+04  1.416383E+05
        64   3 -1.719204E+06 -7.505816E+05 -2.738173E+05 -7.410026E+05 -1.341072E+04  1.241318E+05
        64   4 -2.404842E+05 -2.146028E+05  3.408456E+03 -3.292760E+05 -5.280972E+04  1.485858E+05
        64   5 -2.601846E+05 -1.948147E+05  1.798954E+03 -3.070217E+05 -4.731434E+04  1.313174E+05
        64   6 -2.401244E+05 -2.139640E+05  1.013848E+03 -3.293979E+05 -4.164612E+04  1.135129E+05
        64   7  1.689173E+06  4.856787E+05  3.612072E+05  2.093527E+05 -7.942488E+04  1.385307E+05
        64   8  1.445228E+06  4.236478E+05  3.177422E+05  1.685379E+05 -7.477583E+04  1.209663E+05
        64   9  1.241252E+06  3.228574E+05  2.757645E+05  8.312146E+04 -6.995362E+04  1.028669E+05
        64  10 -2.166237E+06 -9.145568E+05 -3.545732E+05 -8.663412E+05  8.953984E-09  6.763188E-09
        64  11 -1.962552E+06 -8.130246E+05 -3.142881E+05 -7.813631E+05  1.475838E-08  7.484416E-09
        64  12 -1.719209E+06 -7.505982E+05 -2.738466E+05 -7.410012E+05  1.175320E-08  4.410358E-09
        64  13 -2.404931E+05 -2.146272E+05  3.361736E+03 -3.292697E+05 -6.830273E-09  2.116989E-09
        64  14 -2.601916E+05 -1.948338E+05  1.762349E+03 -3.070167E+05  1.270883E-09  9.689684E-09
        64  15 -2.401297E+05 -2.139783E+05  9.863805E+02 -3.293941E+05 -1.503205E-09  1.607961E-08
        64  16  1.689161E+06  4.856564E+05  3.611593E+05  2.093616E+05 -2.030332E-08 -6.956734E-09
        64  17  1.445218E+06  4.236306E+05  3.177042E+05  1.685452E+05 -1.076740E-08 -6.902975E-09
        64  18  1.241244E+06  3.228447E+05  2.757354E+05  8.312726E+04 -8.265621E-09 -7.266045E-09
        64  19 -2.166229E+06 -9.145296E+05 -3.545246E+05 -8.663446E+05  2.628312E+04 -1.586077E+05
        64  20 -1.962546E+06 -8.130029E+05 -3.142497E+05 -7.813654E+05  1.993351E+04 -1.416383E+05
        64  21 -1.719204E+06 -7.505816E+05 -2.738173E+05 -7.410026E+05  1.341072E+04 -1.241318E+05
        64  22 -2.404842E+05 -2.146028E+05  3.408456E+03 -3.292760E+05  5.280972E+04 -1.485858E+05
        64  23 -2.601846E+05 -1.948147E+05  1.798954E+03 -3.070217E+05  4.731434E+04 -1.313174E+05
        64  24 -2.401244E+05 -2.139640E+05  1.013848E+03 -3.293979E+05  4.164612E+04 -1.135129E+05
        64  25  1.689173E+06  4.856787E+05  3.612072E+05  2.093527E+05  7.942488E+04 -1.385307E+05
        64  26  1.445228E+06  4.236478E+05  3.177422E+05  1.685379E+05  7.477583E+04 -1.209663E+05
        64  27  1.241252E+06  3.228574E+05  2.757645E+05  8.312146E+04  6.995362E+04 -1.028669E+05
        65   1 -1.571414E+06 -6.964841E+05 -2.454274E+05 -6.998769E+05 -9.731709E+03  1.137167E+05
        65   2 -1.366892E+06 -5.952977E+05 -2.047838E+05 -6.149442E+05 -3.155200E+03  9.595753E+04
        65   3 -1.122919E+06 -5.332588E+05 -1.640216E+05 -5.748525E+05  3.422081E+03  7.814507E+04
        65   4 -2.400936E+05 -2.138623E+05  7.304931E+02 -3.294644E+05 -3.790945E+04  1.031306E+05
        65   5 -2.596815E+05 -1.940574E+05  3.309912E+02 -3.070883E+05 -3.141842E+04  8.535429E+04
        65   6 -2.398597E+05 -2.133860E+05  1.115135E+02 -3.295700E+05 -2.492660E+04  6.752470E+04
        65   7  1.093077E+06  2.689203E+05  2.468214E+05  4.168578E+04 -6.615164E+04  9.252040E+04
        65   8  8.488159E+05  2.072969E+05  2.054025E+05  1.279557E+03 -5.973560E+04  7.473083E+04
        65   9  6.440262E+05  1.065624E+05  1.642203E+05 -8.396002E+04 -5.331867E+04  5.688807E+04
        65  10 -1.571418E+06 -6.964980E+05 -2.454519E+05 -6.998760E+05 -7.319401E-09 -4.809832E-09
        65  11 -1.366894E+06 -5.953076E+05 -2.048011E+05 -6.149439E+05 -1.167939E-08 -6.131266E-09
        65  12 -1.122920E+06 -5.332654E+05 -1.640331E+05 -5.748527E+05 -1.063832E-08 -6.106864E-09
        65  13 -2.400980E+05 -2.138741E+05  7.078101E+02 -3.294612E+05 -2.272793E-09  1.592563E-08
        65  14 -2.596845E+05 -1.940655E+05  3.154488E+02 -3.070862E+05 -1.458231E-09  9.130902E-09
        65  15 -2.398615E+05 -2.133910E+05  1.017796E+02 -3.295687E+05 -3.024863E-09  1.307453E-09
        65  16  1.093070E+06  2.689099E+05  2.467971E+05  4.169071E+04  1.187336E-08  1.795497E-09
        65  17  8.488106E+05  2.072900E+05  2.053853E+05  1.283150E+03  1.330889E-08  4.912303E-09
        65  18  6.440223E+05  1.065582E+05  1.642089E+05 -8.395758E+04  1.030341E-08  4.343495E-09
        65  19 -1.571414E+06 -6.964841E+05 -2.454274E+05 -6.998769E+05  9.731709E+03 -1.137167E+05
        65  20 -1.366892E+06 -5.952977E+05 -2.047838E+05 -6.149442E+05  3.155200E+03 -9.595753E+04
        65  21 -1.122919E+06 -5.332588E+05 -1.640216E+05 -5.748525E+05 -3.422081E+03 -7.814507E+04
        65  22 -2.400936E+05 -2.138623E+05  7.304931E+02 -3.294644E+05  3.790945E+04 -1.031306E+05
        65  23 -2.596815E+05 -1.940574E+05  3.309912E+02 -3.070883E+05  3.141842E+04 -8.535429E+04
        65  24 -2.398597E+05 -2.133860E+05  1.115135E+02 -3.295700E+05  2.492660E+04 -6.752470E+04
        65  25  1.093077E+06  2.689203E+05  2.468214E+05  4.168578E+04  6.615164E+04 -9.252040E+04
        65  26  8.488159E+05  2.072969E+05  2.054025E+05  1.279557E+03  5.973560E+04 -7.473083E+04
        65  27  6.440262E+05  1.065624E+05  1.642203E+05 -8.396002E+04  5.331867E+04 -5.688807E+04
        66   1 -9.747326E+05 -4.792941E+05 -1.354531E+05 -5.337854E+05  7.301696E+03  6.778063E+04
        66   2 -7.696626E+05 -3.783325E+05 -9.468111E+04 -4.488743E+05  1.407140E+04  5.002609E+04
        66   3 -5.253052E+05 -3.165474E+05 -5.397139E+04 -4.089272E+05  2.082821E+04  3.228181E+04
        66   4 -2.398377E+05 -2.133263E+05 -3.126080E+00 -3.296013E+05 -2.105727E+04  5.716285E+04
        66   5 -2.593962E+05 -1.936206E+05 -2.416867E+02 -3.071357E+05 -1.427396E+04  3.942026E+04
        66   6 -2.397261E+05 -2.130977E+05 -5.573243E+02 -3.296523E+05 -7.503608E+03  2.168800E+04
        66   7  4.956252E+05  5.269206E+04  1.354300E+05 -1.251917E+05 -4.945211E+04  4.653164E+04
        66   8  2.511423E+05 -8.885128E+03  9.419059E+04 -1.652890E+05 -4.264408E+04  2.880516E+04
        66   9  4.593716E+04 -1.096410E+05  5.285622E+04 -2.503437E+05 -3.584910E+04  1.108908E+04
        66  10 -9.747339E+05 -4.792991E+05 -1.354618E+05 -5.337858E+05 -4.853839E-09 -3.997936E-09
        66  11 -7.696635E+05 -3.783352E+05 -9.468619E+04 -4.488748E+05 -2.558777E-09 -1.902625E-09
        66  12 -5.253059E+05 -3.165486E+05 -5.397417E+04 -4.089277E+05 -1.426899E-09 -3.923990E-09
        66  13 -2.398391E+05 -2.133299E+05 -1.009833E+01 -3.296004E+05  2.550560E-09 -1.336785E-10
        66  14 -2.593968E+05 -1.936224E+05 -2.449891E+02 -3.071353E+05 -1.693568E-09 -8.118960E-10
        66  15 -2.397263E+05 -2.130983E+05 -5.583139E+02 -3.296521E+05  2.319726E-10 -2.844298E-10
        66  16  4.956220E+05  5.268908E+04  1.354213E+05 -1.251898E+05  3.956863E-09  1.973974E-09
        66  17  2.511401E+05 -8.886507E+03  9.418562E+04 -1.652880E+05  2.979456E-09  2.140934E-09
        66  18  4.593575E+04 -1.096415E+05  5.285357E+04 -2.503434E+05  2.365240E-09  1.273102E-09
        66  19 -9.747326E+05 -4.792941E+05 -1.354531E+05 -5.337854E+05 -7.301696E+03 -6.778063E+04
        66  20 -7.696626E+05 -3.783325E+05 -9.468111E+04 -4.488743E+05 -1.407140E+04 -5.002609E+04
        66  21 -5.253052E+05 -3.165474E+05 -5.397139E+04 -4.089272E+05 -2.082821E+04 -3.228181E+04
        66  22 -2.398377E+05 -2.133263E+05 -3.126080E+00 -3.296013E+05  2.105727E+04 -5.716285E+04
        66  23 -2.593962E+05 -1.936206E+05 -2.416867E+02 -3.071357E+05  1.427396E+04 -3.942026E+04
        66  24 -2.397261E+05 -2.130977E+05 -5.573243E+02 -3.296523E+05  7.503608E+03 -2.168800E+04
        66  25  4.956252E+05  5.269206E+04  1.354300E+05 -1.251917E+05  4.945211E+04 -4.653164E+04
        66  26  2.511423E+05 -8.885128E+03  9.419059E+04 -1.652890E+05  4.264408E+04 -2.880516E+04
        66  27  4.593716E+04 -1.096410E+05  5.285622E+04 -2.503437E+05  3.584910E+04 -1.108908E+04
        67   1 -3.768863E+05 -2.626499E+05 -2.549158E+04 -3.678672E+05  2.485722E+04  2.197762E+04
        67   2 -1.715782E+05 -1.618159E+05  1.495223E+04 -2.829244E+05  3.181124E+04  4.439736E+03
        67   3  7.293239E+04 -1.001681E+05  5.514127E+04 -2.429684E+05  3.867083E+04 -1.284213E+04
        67   4 -2.397451E+05 -2.130769E+05 -7.857263E+02 -3.296687E+05 -3.519061E+03  1.136889E+04
        67   5 -2.592893E+05 -1.934810E+05 -1.497204E+03 -3.071511E+05  3.837228E+03 -6.019864E+03
        67   6 -2.397694E+05 -2.131594E+05 -2.786239E+03 -3.296436E+05  1.109892E+04 -2.315253E+04
        67   7 -1.025810E+05 -1.635010E+05  2.392330E+04 -2.914615E+05 -3.190229E+04  7.575426E+02
        67   8 -3.469910E+05 -2.251449E+05 -1.794371E+04 -3.313744E+05 -2.413270E+04 -1.647795E+04
        67   9 -5.523673E+05 -3.261412E+05 -6.071425E+04 -4.162778E+05 -1.645818E+04 -3.345739E+04
        67  10 -3.768871E+05 -2.626506E+05 -2.549365E+04 -3.678677E+05 -1.275761E-08 -8.036642E-09
        67  11 -1.715793E+05 -1.618162E+05  1.495029E+04 -2.829245E+05 -1.398801E-08 -7.746781E-09
        67  12  7.293074E+04 -1.001687E+05  5.513816E+04 -2.429680E+05 -1.444121E-08 -2.306217E-09
        67  13 -2.397452E+05 -2.130771E+05 -7.859924E+02 -3.296687E+05  2.618059E-11 -3.396122E-09
        67  14 -2.592893E+05 -1.934810E+05 -1.497300E+03 -3.071511E+05 -1.427102E-09 -1.078736E-08
        67  15 -2.397697E+05 -2.131600E+05 -2.787477E+03 -3.296434E+05 -6.480812E-09 -1.510593E-08
        67  16 -1.025821E+05 -1.635013E+05  2.392138E+04 -2.914615E+05  1.317865E-08  5.630442E-09
        67  17 -3.469916E+05 -2.251454E+05 -1.794532E+04 -3.313747E+05  9.761155E-09  6.419219E-09
        67  18 -5.523679E+05 -3.261425E+05 -6.071687E+04 -4.162783E+05  5.830490E-09  5.700721E-09
        67  19 -3.768863E+05 -2.626499E+05 -2.549158E+04 -3.678672E+05 -2.485722E+04 -2.197762E+04
        67  20 -1.715782E+05 -1.618159E+05  1.495223E+04 -2.829244E+05 -3.181124E+04 -4.439736E+03
        67  21  7.293239E+04 -1.001681E+05  5.514127E+04 -2.429684E+05 -3.867083E+04  1.284213E+04
        67  22 -2.397451E+05 -2.130769E+05 -7.857263E+02 -3.296687E+05  3.519061E+03 -1.136889E+04
        67  23 -2.592893E+05 -1.934810E+05 -1.497204E+03 -3.071511E+05 -3.837228E+03  6.019864E+03
        67  24 -2.397694E+05 -2.131594E+05 -2.786239E+03 -3.296436E+05 -1.109892E+04  2.315253E+04
        67  25 -1.025810E+05 -1.635010E+05  2.392330E+04 -2.914615E+05  3.190229E+04 -7.575426E+02
        67  26 -3.469910E+05 -2.251449E+05 -1.794371E+04 -3.313744E+05  2.413270E+04  1.647795E+04
        67  27 -5.523673E+05 -3.261412E+05 -6.071425E+04 -4.162778E+05  1.645818E+04  3.345739E+04
        68   1  2.215582E+05 -4.633359E+04  8.304574E+04 -2.020670E+05  4.352285E+04 -2.273635E+04
        68   2  4.262851E+05  5.474826E+04  1.229273E+05 -1.164728E+05  4.781515E+04 -3.933665E+04
        68   3  6.700797E+05  1.160508E+05  1.638562E+05 -7.532481E+04  5.090776E+04 -5.271097E+04
        68   4 -2.399757E+05 -2.131015E+05 -3.722430E+03 -3.296838E+05  1.545827E+04 -3.323395E+04
        68   5 -2.592122E+05 -1.940193E+05 -6.855331E+03 -3.069774E+05  2.489078E+04 -4.791992E+04
        68   6 -2.404495E+05 -2.157427E+05 -1.301302E+04 -3.287411E+05  3.312349E+04 -5.937767E+04
        68   7 -7.012814E+05 -3.798482E+05 -9.049458E+04 -4.572110E+05 -1.258376E+04 -4.372316E+04
        68   8 -9.442186E+05 -4.427438E+05 -1.366550E+05 -4.972865E+05  1.993465E+03 -5.649304E+04
        68   9 -1.150127E+06 -5.474647E+05 -1.899200E+05 -5.818149E+05  1.536698E+04 -6.603391E+04
        68  10  2.215561E+05 -4.633465E+04  8.304121E+04 -2.020662E+05  2.911791E-08  1.679659E-08
        68  11  4.262822E+05  5.474599E+04  1.229201E+05 -1.164713E+05  9.275064E-09  9.408066E-09
        68  12  6.700761E+05  1.160471E+05  1.638461E+05 -7.532265E+04 -1.645498E-08 -2.062297E-09
        68  13 -2.399763E+05 -2.131028E+05 -3.724954E+03 -3.296834E+05 -6.622786E-09 -1.480618E-08
        68  14 -2.592135E+05 -1.940220E+05 -6.860808E+03 -3.069765E+05 -3.970044E-09 -9.135502E-09
        68  15 -2.404516E+05 -2.157468E+05 -1.302171E+04 -3.287395E+05 -2.191587E-09 -1.065207E-10
        68  16 -7.012821E+05 -3.798503E+05 -9.049848E+04 -4.572114E+05 -4.222751E-08 -1.112071E-08
        68  17 -9.442195E+05 -4.427472E+05 -1.366610E+05 -4.972864E+05 -1.870526E-08 -4.268424E-09
        68  18 -1.150128E+06 -5.474694E+05 -1.899286E+05 -5.818141E+05  1.106048E-08  6.418691E-09
        68  19  2.215582E+05 -4.633359E+04  8.304574E+04 -2.020670E+05 -4.352285E+04  2.273635E+04
        68  20  4.262851E+05  5.474826E+04  1.229273E+05 -1.164728E+05 -4.781515E+04  3.933665E+04
        68  21  6.700797E+05  1.160508E+05  1.638562E+05 -7.532481E+04 -5.090776E+04  5.271097E+04
        68  22 -2.399757E+05 -2.131015E+05 -3.722430E+03 -3.296838E+05 -1.545827E+04  3.323395E+04
        68  23 -2.592122E+05 -1.940193E+05 -6.855331E+03 -3.069774E+05 -2.489078E+04  4.791992E+04
        68  24 -2.404495E+05 -2.157427E+05 -1.301302E+04 -3.287411E+05 -3.312349E+04  5.937767E+04
        68  25 -7.012814E+05 -3.798482E+05 -9.049458E+04 -4.572110E+05  1.258376E+04  4.372316E+04
        68  26 -9.442186E+05 -4.427438E+05 -1.366550E+05 -4.972865E+05 -1.993465E+03  5.649304E+04
        68  27 -1.150127E+06 -5.474647E+05 -1.899200E+05 -5.818149E+05 -1.536698E+04  6.603391E+04
        69   1  8.215663E+05  1.687584E+05  1.902706E+05 -3.852402E+04  6.251865E+04 -5.884619E+04
        69   2  1.012386E+06  2.761344E+05  2.416120E+05  6.419567E+04  1.279169E+04 -7.145256E+04
        69   3  1.237796E+06  3.234271E+05  3.218533E+05  1.333152E+05 -5.219068E+04 -4.350236E+04
        69   4 -2.429376E+05 -2.144122E+05 -1.718570E+04 -3.295356E+05  3.851739E+04 -6.784628E+04
        69   5 -2.577409E+05 -2.052906E+05 -3.256941E+04 -3.025176E+05  5.360410E+04 -5.617156E+04
        69   6 -2.508459E+05 -2.691323E+05 -7.038066E+04 -3.091253E+05  5.343798E+04 -3.888008E+03
        69   7 -1.306274E+06 -5.974910E+05 -2.246920E+05 -6.200892E+05  1.456006E+04 -7.683030E+04
        69   8 -1.526202E+06 -6.865473E+05 -3.068321E+05 -6.685241E+05  9.432594E+04 -4.092713E+04
        69   9 -1.737253E+06 -8.614447E+05 -4.627422E+05 -7.505573E+05  1.587858E+05  3.560597E+04
        69  10  8.215611E+05  1.687536E+05  1.902567E+05 -3.852106E+04  4.539541E-09  3.565563E-09
        69  11  1.012384E+06  2.761289E+05  2.416021E+05  6.419641E+04 -6.138844E-10  2.004638E-09
        69  12  1.237793E+06  3.234244E+05  3.218447E+05  1.333134E+05  4.778092E-10  7.490356E-10
        69  13 -2.429404E+05 -2.144176E+05 -1.719714E+04 -3.295335E+05 -2.530461E-10  2.518062E-09
        69  14 -2.577448E+05 -2.052947E+05 -3.258074E+04 -3.025152E+05 -3.639975E-09  1.097282E-09
        69  15 -2.508490E+05 -2.691331E+05 -7.038605E+04 -3.091252E+05  1.540263E-09  1.853718E-10
        69  16 -1.306275E+06 -5.974974E+05 -2.247035E+05 -6.200883E+05 -3.226207E-09 -3.480694E-10
        69  17 -1.526212E+06 -6.865515E+05 -3.068520E+05 -6.685210E+05 -1.960349E-09  2.560661E-10
        69  18 -1.737281E+06 -8.614529E+05 -4.627921E+05 -7.505619E+05 -2.525273E-09 -2.352990E-10
        69  19  8.215663E+05  1.687584E+05  1.902706E+05 -3.852402E+04 -6.251865E+04  5.884619E+04
        69  20  1.012386E+06  2.761344E+05  2.416120E+05  6.419567E+04 -1.279169E+04  7.145256E+04
        69  21  1.237796E+06  3.234271E+05  3.218533E+05  1.333152E+05  5.219068E+04  4.350236E+04
        69  22 -2.429376E+05 -2.144122E+05 -1.718570E+04 -3.295356E+05 -3.851739E+04  6.784628E+04
        69  23 -2.577409E+05 -2.052906E+05 -3.256941E+04 -3.025176E+05 -5.360410E+04  5.617156E+04
        69  24 -2.508459E+05 -2.691323E+05 -7.038066E+04 -3.091253E+05 -5.343798E+04  3.888008E+03
        69  25 -1.306274E+06 -5.974910E+05 -2.246920E+05 -6.200892E+05 -1.456006E+04  7.683030E+04
        69  26 -1.526202E+06 -6.865473E+05 -3.068321E+05 -6.685241E+05 -9.432594E+04  4.092713E+04
        69  27 -1.737253E+06 -8.614447E+05 -4.627422E+05 -7.505573E+05 -1.587858E+05 -3.560597E+04
        70   1 -2.118514E+05 -9.612179E+04 -8.482503E+04 -7.065607E+04 -1.729554E+04  6.840651E+03
        70   2 -1.383994E+05 -1.019708E+05 -6.535544E+04 -8.022879E+04 -1.740227E+03  2.274962E+04
        70   3 -6.342669E+04 -9.375154E+04 -5.249649E+04 -1.007548E+05  1.382221E+04  2.685694E+04
        70   4  3.686835E+05  4.684263E+04  4.959823E+04 -1.025372E+05  3.504538E+04  6.850787E+03
        70   5  3.654865E+05  1.686990E+04  2.505257E+04 -9.705887E+04  2.228170E+04  2.275106E+04
        70   6  3.687156E+05  5.873734E+03  1.355783E+04 -1.025321E+05  9.523109E+03  2.685486E+04
        70   7  9.495379E+05  1.897887E+05  1.840098E+05 -1.344483E+05  8.743488E+04  6.855545E+03
        70   8  8.696218E+05  1.356979E+05  1.154531E+05 -1.139030E+05  4.632258E+04  2.275119E+04
        70   9  8.010449E+05  1.054900E+05  7.960818E+04 -1.043107E+05  5.221130E+03  2.685280E+04
        70  10 -2.118517E+05 -9.612192E+04 -8.482568E+04 -7.065597E+04  1.430709E-09 -7.953304E-11
        70  11 -1.383996E+05 -1.019714E+05 -6.535642E+04 -8.022876E+04  5.270766E-10 -1.174999E-10
        70  12 -6.342709E+04 -9.375237E+04 -5.249820E+04 -1.007551E+05 -2.154894E-09  2.720916E-10
        70  13  3.686822E+05  4.684225E+04  4.959584E+04 -1.025374E+05  1.195644E-09  2.089400E-10
        70  14  3.654859E+05  1.686921E+04  2.505066E+04 -9.705928E+04  7.064105E-10  2.961308E-10
        70  15  3.687153E+05  5.872935E+03  1.355630E+04 -1.025323E+05  2.980059E-09  6.463822E-10
        70  16  9.495297E+05  1.897866E+05  1.839953E+05 -1.344488E+05 -9.986747E-10  3.627109E-10
        70  17  8.696193E+05  1.356968E+05  1.154481E+05 -1.139038E+05  1.363597E-09  7.625526E-10
        70  18  8.010447E+05  1.054893E+05  7.960678E+04 -1.043108E+05  3.642183E-09  1.480861E-09
        70  19 -2.118514E+05 -9.612179E+04 -8.482503E+04 -7.065607E+04  1.729554E+04 -6.840651E+03
        70  20 -1.383994E+05 -1.019708E+05 -6.535544E+04 -8.022879E+04  1.740227E+03 -2.274962E+04
        70  21 -6.342669E+04 -9.375154E+04 -5.249649E+04 -1.007548E+05 -1.382221E+04 -2.685694E+04
        70  22  3.686835E+05  4.684263E+04  4.959823E+04 -1.025372E+05 -3.504538E+04 -6.850787E+03
        70  23  3.654865E+05  1.686990E+04  2.505257E+04 -9.705887E+04 -2.228170E+04 -2.275106E+04
        70  24  3.687156E+05  5.873734E+03  1.355783E+04 -1.025321E+05 -9.523109E+03 -2.685486E+04
        70  25  9.495379E+05  1.897887E+05  1.840098E+05 -1.344483E+05 -8.743488E+04 -6.855545E+03
        70  26  8.696218E+05  1.356979E+05  1.154531E+05 -1.139030E+05 -4.632258E+04 -2.275119E+04
        70  27  8.010449E+05  1.054900E+05  7.960818E+04 -1.043107E+05 -5.221130E+03 -2.685280E+04
        71   1 -1.812060E+04 -8.422227E+04 -4.679241E+04 -1.002189E+05  1.299803E+04  2.526716E+04
        71   2  5.589069E+04 -6.943197E+04 -3.750224E+04 -9.559286E+04  1.409605E+04  2.228494E+04
        71   3  1.300890E+05 -5.338956E+04 -2.861069E+04 -1.027918E+05  1.519385E+04  1.770769E+04
        71   4  3.674822E+05  4.264085E+03  1.010980E+04 -1.027270E+05  7.758430E+03  2.526543E+04
        71   5  3.670678E+05  1.380009E+03  5.452706E+03 -9.681484E+04  5.026715E+03  2.228387E+04
        71   6  3.674989E+05  4.124393E+02  3.055051E+03 -1.027271E+05  2.294650E+03  1.770771E+04
        71   7  7.532347E+05  9.274354E+04  6.700943E+04 -1.052368E+05  2.515709E+03  2.526375E+04
        71   8  6.783433E+05  7.218778E+04  4.840686E+04 -9.803744E+04 -4.046966E+03  2.228284E+04
        71   9  6.049667E+05  5.421212E+04  3.472095E+04 -1.026622E+05 -1.060925E+04  1.770773E+04
        71  10 -1.812095E+04 -8.422300E+04 -4.679392E+04 -1.002191E+05  5.978240E-10  6.397011E-10
        71  11  5.589034E+04 -6.943256E+04 -3.750355E+04 -9.559312E+04  1.581342E-09  5.913800E-10
        71  12  1.300887E+05 -5.338995E+04 -2.861171E+04 -1.027921E+05 -4.851004E-10  1.292227E-10
        71  13  3.674820E+05  4.263383E+03  1.010848E+04 -1.027272E+05 -9.579084E-10  1.368442E-09
        71  14  3.670676E+05  1.379469E+03  5.451725E+03 -9.681493E+04  1.830101E-09  1.369007E-09
        71  15  3.674988E+05  4.121012E+02  3.054451E+03 -1.027271E+05 -9.447185E-10  6.694579E-10
        71  16  7.532345E+05  9.274285E+04  6.700822E+04 -1.052369E+05  1.085976E-09  1.812135E-09
        71  17  6.783432E+05  7.218725E+04  4.840589E+04 -9.803737E+04  1.133195E-09  2.005547E-09
        71  18  6.049665E+05  5.421175E+04  3.472015E+04 -1.026621E+05 -9.484011E-10  1.273772E-09
        71  19 -1.812060E+04 -8.422227E+04 -4.679241E+04 -1.002189E+05 -1.299803E+04 -2.526716E+04
        71  20  5.589069E+04 -6.943197E+04 -3.750224E+04 -9.559286E+04 -1.409605E+04 -2.228494E+04
        71  21  1.300890E+05 -5.338956E+04 -2.861069E+04 -1.027918E+05 -1.519385E+04 -1.770769E+04
        71  22  3.674822E+05  4.264085E+03  1.010980E+04 -1.027270E+05 -7.758430E+03 -2.526543E+04
        71  23  3.670678E+05  1.380009E+03  5.452706E+03 -9.681484E+04 -5.026715E+03 -2.228387E+04
        71  24  3.674989E+05  4.124393E+02  3.055051E+03 -1.027271E+05 -2.294650E+03 -1.770771E+04
        71  25  7.532347E+05  9.274354E+04  6.700943E+04 -1.052368E+05 -2.515709E+03 -2.526375E+04
        71  26  6.783433E+05  7.218778E+04  4.840686E+04 -9.803744E+04  4.046966E+03 -2.228284E+04
        71  27  6.049667E+05  5.421212E+04  3.472095E+04 -1.026622E+05  1.060925E+04 -1.770773E+04
        72   1  1.757331E+05 -4.306549E+04 -2.291900E+04 -1.026929E+05  1.487132E+04  1.450622E+04
        72   2  2.497933E+05 -2.650449E+04 -1.405297E+04 -9.678699E+04  1.474841E+04  8.972454E+03
        72   3  3.239019E+05 -9.851312E+03 -5.082584E+03 -1.028215E+05  1.462518E+04  3.223985E+03
        72   4  3.673443E+05  2.890845E+02  2.300958E+03 -1.027529E+05  1.845266E+03  1.450670E+04
        72   5  3.672807E+05  5.274545E+01  1.286781E+03 -9.678275E+04  1.206084E+03  8.973393E+03
        72   6  3.673505E+05 -1.460057E+00  7.350732E+02 -1.027529E+05  5.666027E+02  3.225403E+03
        72   7  5.589934E+05  4.364220E+04  2.752130E+04 -1.028128E+05 -1.118462E+04  1.450717E+04
        72   8  4.847827E+05  2.660950E+04  1.662714E+04 -9.677851E+04 -1.233868E+04  8.974332E+03
        72   9  4.108014E+05  9.848417E+03  6.553457E+03 -1.026843E+05 -1.349291E+04  3.226818E+03
        72  10  1.757328E+05 -4.306578E+04 -2.291981E+04 -1.026931E+05 -4.797397E-09  2.742890E-10
        72  11  2.497930E+05 -2.650464E+04 -1.405353E+04 -9.678709E+04 -1.765022E-09  5.551897E-10
        72  12  3.239017E+05 -9.851381E+03 -5.083006E+03 -1.028215E+05 -7.089514E-10 -5.065289E-10
        72  13  3.673442E+05  2.888575E+02  2.300556E+03 -1.027529E+05 -1.411516E-10  7.414645E-10
        72  14  3.672807E+05  5.265857E+01  1.286627E+03 -9.678276E+04 -5.277116E-10  8.872041E-10
        72  15  3.673505E+05 -1.471317E+00  7.350531E+02 -1.027529E+05 -5.280268E-10 -4.652819E-10
        72  16  5.589932E+05  4.364194E+04  2.752067E+04 -1.028127E+05  2.466219E-09  1.226856E-09
        72  17  4.847825E+05  2.660938E+04  1.662670E+04 -9.677842E+04  4.240122E-09  1.202583E-09
        72  18  4.108012E+05  9.848357E+03  6.553096E+03 -1.026843E+05  2.618252E-09 -5.155480E-10
        72  19  1.757331E+05 -4.306549E+04 -2.291900E+04 -1.026929E+05 -1.487132E+04 -1.450622E+04
        72  20  2.497933E+05 -2.650449E+04 -1.405297E+04 -9.678699E+04 -1.474841E+04 -8.972454E+03
        72  21  3.239019E+05 -9.851312E+03 -5.082584E+03 -1.028215E+05 -1.462518E+04 -3.223985E+03
        72  22  3.673443E+05  2.890845E+02  2.300958E+03 -1.027529E+05 -1.845266E+03 -1.450670E+04
        72  23  3.672807E+05  5.274545E+01  1.286781E+03 -9.678275E+04 -1.206084E+03 -8.973393E+03
        72  24  3.673505E+05 -1.460057E+00  7.350732E+02 -1.027529E+05 -5.666027E+02 -3.225403E+03
        72  25  5.589934E+05  4.364220E+04  2.752130E+04 -1.028128E+05  1.118462E+04 -1.450717E+04
        72  26  4.847827E+05  2.660950E+04  1.662714E+04 -9.677851E+04  1.233868E+04 -8.974332E+03
        72  27  4.108014E+05  9.848417E+03  6.553457E+03 -1.026843E+05  1.349291E+04 -3.226818E+03
        73   1  3.695829E+05  4.992039E+02  8.206360E+02 -1.028021E+05  1.452778E+04 -1.939429E+02
        73   2  4.436614E+05  1.716435E+04  9.919344E+03 -9.681310E+04  1.442620E+04 -6.067514E+03
        73   3  5.177649E+05  3.383344E+04  1.908667E+04 -1.027798E+05  1.432484E+04 -1.196421E+04
        73   4  3.673274E+05 -4.299561E+00  5.573420E+02 -1.027564E+05  4.520593E+02 -1.924784E+02
        73   5  3.673115E+05 -1.842201E+01  3.190230E+02 -9.677845E+04  2.940050E+02 -6.066331E+03
        73   6  3.673235E+05 -1.901378E+01  1.876011E+02 -1.027564E+05  1.361855E+02 -1.196332E+04
        73   7  3.650723E+05 -5.076969E+02  2.947922E+02 -1.027106E+05 -1.362361E+04 -1.910159E+02
        73   8  2.909681E+05 -1.720132E+04 -9.280563E+03 -9.674379E+04 -1.383654E+04 -6.065149E+03
        73   9  2.169059E+05 -3.387228E+04 -1.871077E+04 -1.027329E+05 -1.404920E+04 -1.196244E+04
        73  10  3.695827E+05  4.991472E+02  8.202396E+02 -1.028021E+05 -1.357035E-07 -1.627198E-09
        73  11  4.436611E+05  1.716425E+04  9.918884E+03 -9.681303E+04  2.211762E-09 -2.661301E-09
        73  12  5.177646E+05  3.383323E+04  1.908601E+04 -1.027797E+05  1.341348E-07 -2.228321E-09
        73  13  3.673274E+05 -4.299655E+00  5.573416E+02 -1.027564E+05 -9.349829E-12 -1.804558E-09
        73  14  3.673115E+05 -1.846156E+01  3.189537E+02 -9.677844E+04 -1.674800E-09 -2.840783E-09
        73  15  3.673235E+05 -1.916750E+01  1.873321E+02 -1.027564E+05 -1.889732E-09 -2.322999E-09
        73  16  3.650721E+05 -5.077467E+02  2.944436E+02 -1.027106E+05  1.384632E-07 -1.966422E-09
        73  17  2.909679E+05 -1.720141E+04 -9.280992E+03 -9.674386E+04 -2.961524E-09 -3.037565E-09
        73  18  2.169056E+05 -3.387249E+04 -1.871141E+04 -1.027330E+05 -1.350990E-07 -2.410189E-09
        73  19  3.695829E+05  4.992039E+02  8.206360E+02 -1.028021E+05 -1.452778E+04  1.939429E+02
        73  20  4.436614E+05  1.716435E+04  9.919344E+03 -9.681310E+04 -1.442620E+04  6.067514E+03
        73  21  5.177649E+05  3.383344E+04  1.908667E+04 -1.027798E+05 -1.432484E+04  1.196421E+04
        73  22  3.673274E+05 -4.299561E+00  5.573420E+02 -1.027564E+05 -4.520593E+02  1.924784E+02
        73  23  3.673115E+05 -1.842201E+01  3.190230E+02 -9.677845E+04 -2.940050E+02  6.066331E+03
        73  24  3.673235E+05 -1.901378E+01  1.876011E+02 -1.027564E+05 -1.361855E+02  1.196332E+04
        73  25  3.650723E+05 -5.076969E+02  2.947922E+02 -1.027106E+05  1.362361E+04  1.910159E+02
        73  26  2.909681E+05 -1.720132E+04 -9.280563E+03 -9.674379E+04  1.383654E+04  6.065149E+03
        73  27  2.169059E+05 -3.387228E+04 -1.871077E+04 -1.027329E+05  1.404920E+04  1.196244E+04
        74   1  5.634643E+05  4.417430E+04  2.508709E+04 -1.027739E+05  1.429459E+04 -1.540523E+04
        74   2  6.375624E+05  6.083762E+04  3.434879E+04 -9.677911E+04  1.415105E+04 -2.129195E+04
        74   3  7.116984E+05  7.751719E+04  4.371068E+04 -1.027416E+05  1.400830E+04 -2.713735E+04
        74   4  3.673177E+05 -2.184451E+01  1.458205E+02 -1.027567E+05  1.059739E+02 -1.540473E+04
        74   5  3.673033E+05 -3.370264E+01  9.138854E+01 -9.677799E+04  6.088185E+01 -2.129249E+04
        74   6  3.673039E+05 -4.630926E+01  6.829817E+01 -1.027567E+05  1.660326E+01 -2.713892E+04
        74   7  1.712110E+05 -4.421945E+04 -2.479484E+04 -1.027396E+05 -1.407838E+04 -1.540424E+04
        74   8  9.711959E+04 -6.090790E+04 -3.416552E+04 -9.677686E+04 -1.402346E+04 -2.129303E+04
        74   9  2.303159E+04 -7.761455E+04 -4.357375E+04 -1.027719E+05 -1.396773E+04 -2.714050E+04
        74  10  5.634641E+05  4.417399E+04  2.508627E+04 -1.027737E+05 -2.367246E-09 -1.145275E-09
        74  11  6.375621E+05  6.083708E+04  3.434756E+04 -9.677887E+04  2.027217E-09  3.577963E-10
        74  12  7.116979E+05  7.751635E+04  4.370892E+04 -1.027412E+05  2.726571E-09  5.276181E-10
        74  13  3.673176E+05 -2.209938E+01  1.453745E+02 -1.027567E+05 -1.884463E-09 -1.057520E-09
        74  14  3.673032E+05 -3.418957E+01  9.053642E+01 -9.677799E+04 -2.948216E-09  7.893135E-10
        74  15  3.673037E+05 -4.710029E+01  6.691386E+01 -1.027567E+05  5.100545E-11  1.040292E-09
        74  16  1.712107E+05 -4.421976E+04 -2.479566E+04 -1.027398E+05  1.157945E-09 -9.957984E-10
        74  17  9.711926E+04 -6.090844E+04 -3.416674E+04 -9.677710E+04  1.434194E-09  1.016909E-09
        74  18  2.303118E+04 -7.761539E+04 -4.357550E+04 -1.027722E+05 -1.315194E-09  1.423265E-09
        74  19  5.634643E+05  4.417430E+04  2.508709E+04 -1.027739E+05 -1.429459E+04  1.540523E+04
        74  20  6.375624E+05  6.083762E+04  3.434879E+04 -9.677911E+04 -1.415105E+04  2.129195E+04
        74  21  7.116984E+05  7.751719E+04  4.371068E+04 -1.027416E+05 -1.400830E+04  2.713735E+04
        74  22  3.673177E+05 -2.184451E+01  1.458205E+02 -1.027567E+05 -1.059739E+02  1.540473E+04
        74  23  3.673033E+05 -3.370264E+01  9.138854E+01 -9.677799E+04 -6.088185E+01  2.129249E+04
        74  24  3.673039E+05 -4.630926E+01  6.829817E+01 -1.027567E+05 -1.660326E+01  2.713892E+04
        74  25  1.712110E+05 -4.421945E+04 -2.479484E+04 -1.027396E+05  1.407838E+04  1.540424E+04
        74  26  9.711959E+04 -6.090790E+04 -3.416552E+04 -9.677686E+04  1.402346E+04  2.129303E+04
        74  27  2.303159E+04 -7.761455E+04 -4.357375E+04 -1.027719E+05  1.396773E+04  2.714050E+04
        75   1  7.574436E+05  8.787268E+04  4.982284E+04 -1.027255E+05  1.397226E+04 -3.053658E+04
        75   2  8.315195E+05  1.045954E+05  5.951542E+04 -9.672601E+04  1.312627E+04 -3.618105E+04
        75   3  9.057670E+05  1.214634E+05  6.980035E+04 -1.026652E+05  1.228144E+04 -4.148732E+04
        75   4  3.673002E+05 -5.573535E+01  6.502586E+01 -1.027527E+05  5.107728E+00 -3.053898E+04
        75   5  3.672752E+05 -7.656732E+01  7.061060E+01 -9.678307E+04 -2.893524E+01 -3.618510E+04
        75   6  3.672765E+05 -9.248985E+01  1.051079E+02 -1.027527E+05 -6.173480E+01 -4.149290E+04
        75   7 -2.268687E+04 -8.799029E+04 -4.969266E+04 -1.027798E+05 -1.395371E+04 -3.054137E+04
        75   8 -9.674792E+04 -1.047573E+05 -5.937449E+04 -9.684008E+04 -1.317479E+04 -3.618915E+04
        75   9 -1.709170E+05 -1.216604E+05 -6.959112E+04 -1.028401E+05 -1.239473E+04 -4.149848E+04
        75  10  7.574432E+05  8.787162E+04  4.982072E+04 -1.027252E+05  1.376014E-09  9.096714E-11
        75  11  8.315189E+05  1.045939E+05  5.951263E+04 -9.672563E+04 -1.163549E-09 -8.943576E-10
        75  12  9.057663E+05  1.214615E+05  6.979683E+04 -1.026648E+05  1.967324E-09  3.354913E-10
        75  13  3.672999E+05 -5.673701E+01  6.327296E+01 -1.027527E+05  1.093808E-09  7.166548E-10
        75  14  3.672749E+05 -7.797358E+01  6.814963E+01 -9.678307E+04 -2.791164E-09  2.501322E-10
        75  15  3.672761E+05 -9.433894E+01  1.018720E+02 -1.027527E+05 -3.461047E-10  1.754504E-10
        75  16 -2.268733E+04 -8.799134E+04 -4.969478E+04 -1.027802E+05 -1.085157E-09  1.277515E-09
        75  17 -9.674846E+04 -1.047588E+05 -5.937728E+04 -9.684046E+04 -5.135734E-09  1.187578E-09
        75  18 -1.709176E+05 -1.216622E+05 -6.959465E+04 -1.028405E+05 -1.739688E-09  3.771424E-10
        75  19  7.574436E+05  8.787268E+04  4.982284E+04 -1.027255E+05 -1.397226E+04  3.053658E+04
        75  20  8.315195E+05  1.045954E+05  5.951542E+04 -9.672601E+04 -1.312627E+04  3.618105E+04
        75  21  9.057670E+05  1.214634E+05  6.980035E+04 -1.026652E+05 -1.228144E+04  4.148732E+04
        75  22  3.673002E+05 -5.573535E+01  6.502586E+01 -1.027527E+05 -5.107728E+00  3.053898E+04
        75  23  3.672752E+05 -7.656732E+01  7.061060E+01 -9.678307E+04  2.893524E+01  3.618510E+04
        75  24  3.672765E+05 -9.248985E+01  1.051079E+02 -1.027527E+05  6.173480E+01  4.149290E+04
        75  25 -2.268687E+04 -8.799029E+04 -4.969266E+04 -1.027798E+05  1.395371E+04  3.054137E+04
        75  26 -9.674792E+04 -1.047573E+05 -5.937449E+04 -9.684008E+04  1.317479E+04  3.618915E+04
        75  27 -1.709170E+05 -1.216604E+05 -6.959112E+04 -1.028401E+05  1.239473E+04  4.149848E+04
        76   1  9.517090E+05  1.319705E+05  7.652369E+04 -1.025934E+05  1.206499E+04 -4.454498E+04
        76   2  1.025383E+06  1.492028E+05  8.908917E+04 -9.671028E+04  5.917962E+03 -4.834421E+04
        76   3  1.100182E+06  1.675613E+05  1.059439E+05 -1.025810E+05 -2.298261E+02 -4.963136E+04
        76   4  3.672771E+05 -1.023925E+02  1.340293E+02 -1.027117E+05 -8.066791E+01 -4.455165E+04
        76   5  3.672247E+05 -9.307217E+01  2.248688E+02 -9.683434E+04 -1.902754E+02 -4.835117E+04
        76   6  3.672440E+05 -4.338669E+00  4.166121E+02 -1.027117E+05 -2.998511E+02 -4.963721E+04
        76   7 -2.168057E+05 -1.321896E+05 -7.625722E+04 -1.028298E+05 -1.221545E+04 -4.455832E+04
        76   8 -2.904932E+05 -1.494076E+05 -8.864335E+04 -9.695826E+04 -6.292343E+03 -4.835814E+04
        76   9 -3.651524E+05 -1.675945E+05 -1.051191E+05 -1.028422E+05 -3.697968E+02 -4.964307E+04
        76  10  9.517083E+05  1.319684E+05  7.651968E+04 -1.025930E+05 -3.188843E-09  1.634895E-09
        76  11  1.025383E+06  1.492003E+05  8.908471E+04 -9.671005E+04  2.594980E-09  2.411110E-09
        76  12  1.100181E+06  1.675587E+05  1.059393E+05 -1.025810E+05  3.660485E-09  5.668575E-10
        76  13  3.672765E+05 -1.045242E+02  1.302988E+02 -1.027117E+05 -2.146178E-09  9.915765E-10
        76  14  3.672241E+05 -9.558304E+01  2.204747E+02 -9.683435E+04  5.486123E-11  1.780146E-09
        76  15  3.672434E+05 -6.984901E+00  4.119811E+02 -1.027117E+05  2.213045E-09  3.733673E-10
        76  16 -2.168064E+05 -1.321917E+05 -7.626124E+04 -1.028302E+05 -2.436145E-10  4.756901E-10
        76  17 -2.904938E+05 -1.494101E+05 -8.864782E+04 -9.695851E+04  2.272826E-09  2.042407E-09
        76  18 -3.651531E+05 -1.675972E+05 -1.051237E+05 -1.028422E+05 -1.318497E-09  3.192579E-10
        76  19  9.517090E+05  1.319705E+05  7.652369E+04 -1.025934E+05 -1.206499E+04  4.454498E+04
        76  20  1.025383E+06  1.492028E+05  8.908917E+04 -9.671028E+04 -5.917962E+03  4.834421E+04
        76  21  1.100182E+06  1.675613E+05  1.059439E+05 -1.025810E+05  2.298261E+02  4.963136E+04
        76  22  3.672771E+05 -1.023925E+02  1.340293E+02 -1.027117E+05  8.066791E+01  4.455165E+04
        76  23  3.672247E+05 -9.307217E+01  2.248688E+02 -9.683434E+04  1.902754E+02  4.835117E+04
        76  24  3.672440E+05 -4.338669E+00  4.166121E+02 -1.027117E+05  2.998511E+02  4.963721E+04
        76  25 -2.168057E+05 -1.321896E+05 -7.625722E+04 -1.028298E+05  1.221545E+04  4.455832E+04
        76  26 -2.904932E+05 -1.494076E+05 -8.864335E+04 -9.695826E+04  6.292343E+03  4.835814E+04
        76  27 -3.651524E+05 -1.675945E+05 -1.051191E+05 -1.028422E+05  3.697968E+02  4.964307E+04
        77   1  1.147367E+06  1.792196E+05  1.170460E+05 -1.021960E+05 -1.783311E+03 -5.015048E+04
        77   2  1.217746E+06  2.003646E+05  1.505746E+05 -9.757237E+04 -4.698247E+04 -4.028923E+04
        77   3  1.296201E+06  2.300753E+05  2.156470E+05 -1.033214E+05 -9.220660E+04 -1.184021E+04
        77   4  3.672882E+05  4.624852E+01  5.591392E+02 -1.024043E+05 -3.729351E+02 -5.015604E+04
        77   5  3.671042E+05  4.858789E+02  1.021744E+03 -9.721882E+04 -8.835605E+02 -4.026968E+04
        77   6  3.672475E+05  1.745951E+03  2.029705E+03 -1.024051E+05 -1.412107E+03 -1.178391E+04
        77   7 -4.121803E+05 -1.791557E+05 -1.159394E+05 -1.026123E+05  1.035743E+03 -5.016160E+04
        77   8 -4.828259E+05 -1.994311E+05 -1.485494E+05 -9.686581E+04  4.515416E+04 -4.025007E+04
        77   9 -5.608913E+05 -2.266392E+05 -2.116137E+05 -1.014902E+05  8.924784E+04 -1.172731E+04
        77  10  1.147366E+06  1.792169E+05  1.170412E+05 -1.021961E+05  7.841793E-11 -7.390548E-10
        77  11  1.217743E+06  2.003622E+05  1.505674E+05 -9.757390E+04 -1.314312E-09 -1.704631E-09
        77  12  1.296192E+06  2.300729E+05  2.156308E+05 -1.033223E+05 -1.935854E-10 -4.889287E-10
        77  13  3.672875E+05  4.354667E+01  5.544107E+02 -1.024043E+05  2.851936E-09 -2.545566E-09
        77  14  3.671038E+05  4.841370E+02  1.018694E+03 -9.721885E+04  2.106485E-09  9.977106E-10
        77  15  3.672474E+05  1.745802E+03  2.029441E+03 -1.024051E+05  8.678590E-10 -1.259088E-10
        77  16 -4.121810E+05 -1.791584E+05 -1.159441E+05 -1.026122E+05  2.820566E-09 -7.742851E-10
        77  17 -4.828285E+05 -1.994334E+05 -1.485563E+05 -9.686434E+04  1.244658E-09  5.814229E-10
        77  18 -5.608999E+05 -2.266415E+05 -2.116290E+05 -1.014894E+05  1.693057E-09 -7.749654E-10
        77  19  1.147367E+06  1.792196E+05  1.170460E+05 -1.021960E+05  1.783311E+03  5.015048E+04
        77  20  1.217746E+06  2.003646E+05  1.505746E+05 -9.757237E+04  4.698247E+04  4.028923E+04
        77  21  1.296201E+06  2.300753E+05  2.156470E+05 -1.033214E+05  9.220660E+04  1.184021E+04
        77  22  3.672882E+05  4.624852E+01  5.591392E+02 -1.024043E+05  3.729351E+02  5.015604E+04
        77  23  3.671042E+05  4.858789E+02  1.021744E+03 -9.721882E+04  8.835605E+02  4.026968E+04
        77  24  3.672475E+05  1.745951E+03  2.029705E+03 -1.024051E+05  1.412107E+03  1.178391E+04
        77  25 -4.121803E+05 -1.791557E+05 -1.159394E+05 -1.026123E+05 -1.035743E+03  5.016160E+04
        77  26 -4.828259E+05 -1.994311E+05 -1.485494E+05 -9.686581E+04 -4.515416E+04  4.025007E+04
        77  27 -5.608913E+05 -2.266392E+05 -2.116137E+05 -1.014902E+05 -8.924784E+04  1.172731E+04
        78   1  1.966959E+05  9.375574E+05  1.876840E+05 -2.387770E+05  7.667007E+03  6.164658E+04
        78   2  1.430278E+05  7.623652E+05  1.160716E+05 -2.226432E+05  2.388867E+04  2.122703E+04
        78   3  9.945966E+04  5.949719E+05  7.327237E+04 -2.332754E+05  2.412433E+04 -1.918577E+04
        78   4  8.254862E+03  1.738803E+05  8.697239E+03 -2.327698E+05  7.712402E+03  4.704928E+03
        78   5  3.155971E+03  1.732896E+05  5.489913E+03 -2.193889E+05  2.390693E+04  1.936253E+03
        78   6  1.633285E+03  1.739475E+05  4.976574E+03 -2.327748E+05  2.410878E+04 -8.368907E+02
        78   7 -1.802258E+05 -5.892532E+05 -1.703171E+05 -2.267697E+05  7.756735E+03 -5.216721E+04
        78   8 -1.367357E+05 -4.154500E+05 -1.051055E+05 -2.161377E+05  2.392500E+04 -1.733669E+04
        78   9 -9.620191E+04 -2.469006E+05 -6.332287E+04 -2.322744E+05  2.409326E+04  1.749999E+04
        78  10  1.966949E+05  9.375533E+05  1.876767E+05 -2.387774E+05  8.502272E-11  5.630538E-10
        78  11  1.430271E+05  7.623645E+05  1.160697E+05 -2.226436E+05  9.074568E-10 -1.827003E-09
        78  12  9.945894E+04  5.949714E+05  7.327058E+04 -2.332750E+05 -1.210576E-09 -4.014542E-09
        78  13  8.254793E+03  1.738802E+05  8.697086E+03 -2.327698E+05  1.330627E-09  4.091180E-10
        78  14  3.155356E+03  1.732895E+05  5.488832E+03 -2.193890E+05 -1.569929E-09  2.700193E-10
        78  15  1.632661E+03  1.739473E+05  4.975481E+03 -2.327748E+05 -1.022542E-10  3.402864E-10
        78  16 -1.802266E+05 -5.892561E+05 -1.703224E+05 -2.267694E+05  8.346537E-11 -5.561579E-10
        78  17 -1.367364E+05 -4.154504E+05 -1.051071E+05 -2.161373E+05  2.290421E-09  1.773766E-09
        78  18 -9.620262E+04 -2.469011E+05 -6.332454E+04 -2.322748E+05 -2.404930E-09  4.570726E-09
        78  19  1.966959E+05  9.375574E+05  1.876840E+05 -2.387770E+05 -7.667007E+03 -6.164658E+04
        78  20  1.430278E+05  7.623652E+05  1.160716E+05 -2.226432E+05 -2.388867E+04 -2.122703E+04
        78  21  9.945966E+04  5.949719E+05  7.327237E+04 -2.332754E+05 -2.412433E+04  1.918577E+04
        78  22  8.254862E+03  1.738803E+05  8.697239E+03 -2.327698E+05 -7.712402E+03 -4.704928E+03
        78  23  3.155971E+03  1.732896E+05  5.489913E+03 -2.193889E+05 -2.390693E+04 -1.936253E+03
        78  24  1.633285E+03  1.739475E+05  4.976574E+03 -2.327748E+05 -2.410878E+04  8.368907E+02
        78  25 -1.802258E+05 -5.892532E+05 -1.703171E+05 -2.267697E+05 -7.756735E+03  5.216721E+04
        78  26 -1.367357E+05 -4.154500E+05 -1.051055E+05 -2.161377E+05 -2.392500E+04  1.733669E+04
        78  27 -9.620191E+04 -2.469006E+05 -6.332287E+04 -2.322744E+05 -2.409326E+04 -1.749999E+04
        79   1  7.424373E+04  4.879207E+05  5.506192E+04 -2.337670E+05  1.882169E+04 -2.101056E+04
        79   2  3.473794E+04  3.160353E+05  2.768246E+04 -2.179499E+05  1.023611E+04 -2.661480E+04
        79   3 -1.742961E+03  1.456317E+05  4.695796E+03 -2.299972E+05  9.023670E+02 -3.221874E+04
        79   4  1.535534E+03  1.739392E+05  5.386221E+03 -2.330188E+05  1.880403E+04 -1.673895E+03
        79   5  2.212397E+03  1.733738E+05  7.661461E+03 -2.190850E+05  1.021602E+04 -5.519514E+03
        79   6  5.610154E+03  1.739552E+05  1.310766E+04 -2.330155E+05  8.797545E+02 -9.366253E+03
        79   7 -7.117735E+04 -1.399435E+05 -4.429055E+04 -2.322709E+05  1.878642E+04  1.765335E+04
        79   8 -3.031381E+04  3.073382E+04 -1.235813E+04 -2.202198E+05  1.019585E+04  1.557114E+04
        79   9  1.296351E+04  2.022805E+05  2.152141E+04 -2.360339E+05  8.569205E+02  1.348729E+04
        79  10  7.424323E+04  4.879202E+05  5.506042E+04 -2.337667E+05 -2.315132E-09  6.629616E-08
        79  11  3.473764E+04  3.160346E+05  2.768093E+04 -2.179497E+05 -2.755755E-09  3.478660E-10
        79  12 -1.743240E+03  1.456306E+05  4.693844E+03 -2.299972E+05 -2.207906E-09 -6.584820E-08
        79  13  1.535154E+03  1.739391E+05  5.385551E+03 -2.330187E+05 -6.679703E-12  6.535829E-10
        79  14  2.212276E+03  1.733737E+05  7.661208E+03 -2.190849E+05 -2.280214E-09  3.720424E-10
        79  15  5.610129E+03  1.739551E+05  1.310749E+04 -2.330155E+05 -3.611345E-09  4.426832E-10
        79  16 -7.117782E+04 -1.399440E+05 -4.429180E+04 -2.322711E+05 -4.886267E-09 -6.622812E-08
        79  17 -3.031399E+04  3.073354E+04 -1.235878E+04 -2.202199E+05 -7.706577E-09 -6.701231E-10
        79  18  1.296346E+04  2.022803E+05  2.152107E+04 -2.360339E+05 -2.953317E-09  6.661282E-08
        79  19  7.424373E+04  4.879207E+05  5.506192E+04 -2.337670E+05 -1.882169E+04  2.101056E+04
        79  20  3.473794E+04  3.160353E+05  2.768246E+04 -2.179499E+05 -1.023611E+04  2.661480E+04
        79  21 -1.742961E+03  1.456317E+05  4.695796E+03 -2.299972E+05 -9.023670E+02  3.221874E+04
        79  22  1.535534E+03  1.739392E+05  5.386221E+03 -2.330188E+05 -1.880403E+04  1.673895E+03
        79  23  2.212397E+03  1.733738E+05  7.661461E+03 -2.190850E+05 -1.021602E+04  5.519514E+03
        79  24  5.610154E+03  1.739552E+05  1.310766E+04 -2.330155E+05 -8.797545E+02  9.366253E+03
        79  25 -7.117735E+04 -1.399435E+05 -4.429055E+04 -2.322709E+05 -1.878642E+04 -1.765335E+04
        79  26 -3.031381E+04  3.073382E+04 -1.235813E+04 -2.202198E+05 -1.019585E+04 -1.557114E+04
        79  27  1.296351E+04  2.022805E+05  2.152141E+04 -2.360339E+05 -8.569205E+02 -1.348729E+04
        80   1 -2.469265E+04  4.053611E+04 -8.520614E+03 -2.308898E+05 -5.145860E+03 -3.392949E+04
        80   2 -5.207922E+04 -1.325873E+05 -2.993589E+04 -1.981974E+05 -9.509091E+03 -2.586685E+04
        80   3 -5.932023E+04 -3.017154E+05 -5.157091E+04 -1.927455E+05 -3.624557E+03 -1.780193E+04
        80   4  7.464213E+03  1.755066E+05  1.728588E+04 -2.328772E+05 -5.167724E+03 -1.164206E+04
        80   5  2.104591E+04  1.714163E+05  3.147294E+04 -2.192393E+05 -9.506146E+03 -2.768433E+04
        80   6  5.895015E+04  1.754675E+05  6.217312E+04 -2.328357E+05 -3.599625E+03 -4.372209E+04
        80   7  3.962028E+04  3.104957E+05  4.309342E+04 -2.348650E+05 -5.189728E+03  1.065011E+04
        80   8  9.416696E+04  4.755089E+05  9.287726E+04 -2.402918E+05 -9.503080E+03 -2.950268E+04
        80   9  1.772104E+05  6.528641E+05  1.759045E+05 -2.729568E+05 -3.571357E+03 -6.966207E+04
        80  10 -2.469299E+04  4.053487E+04 -8.522827E+03 -2.308900E+05  1.313068E-10 -6.711286E-08
        80  11 -5.207950E+04 -1.325881E+05 -2.993732E+04 -1.981976E+05  3.285281E-09 -9.946501E-10
        80  12 -5.932033E+04 -3.017158E+05 -5.157153E+04 -1.927455E+05  9.546337E-10  6.497807E-08
        80  13  7.464148E+03  1.755065E+05  1.728558E+04 -2.328772E+05  2.119387E-09  6.366487E-10
        80  14  2.104561E+04  1.714155E+05  3.147133E+04 -2.192396E+05  2.224304E-09  3.214738E-10
        80  15  5.894962E+04  1.754654E+05  6.216950E+04 -2.328358E+05  2.133956E-09  3.590644E-10
        80  16  3.962022E+04  3.104956E+05  4.309315E+04 -2.348649E+05 -7.037318E-11  6.717069E-08
        80  17  9.416663E+04  4.755080E+05  9.287545E+04 -2.402920E+05  5.186343E-10  7.454962E-10
        80  18  1.772091E+05  6.528589E+05  1.758954E+05 -2.729570E+05  3.219612E-10 -6.438026E-08
        80  19 -2.469265E+04  4.053611E+04 -8.520614E+03 -2.308898E+05  5.145860E+03  3.392949E+04
        80  20 -5.207922E+04 -1.325873E+05 -2.993589E+04 -1.981974E+05  9.509091E+03  2.586685E+04
        80  21 -5.932023E+04 -3.017154E+05 -5.157091E+04 -1.927455E+05  3.624557E+03  1.780193E+04
        80  22  7.464213E+03  1.755066E+05  1.728588E+04 -2.328772E+05  5.167724E+03  1.164206E+04
        80  23  2.104591E+04  1.714163E+05  3.147294E+04 -2.192393E+05  9.506146E+03  2.768433E+04
        80  24  5.895015E+04  1.754675E+05  6.217312E+04 -2.328357E+05  3.599625E+03  4.372209E+04
        80  25  3.962028E+04  3.104957E+05  4.309342E+04 -2.348650E+05  5.189728E+03 -1.065011E+04
        80  26  9.416696E+04  4.755089E+05  9.287726E+04 -2.402918E+05  9.503080E+03  2.950268E+04
        80  27  1.772104E+05  6.528641E+05  1.759045E+05 -2.729568E+05  3.571357E+03  6.966207E+04
        81   1 -4.070692E+05 -2.274610E+05 -1.387619E+05 -1.755806E+05 -6.907150E+04 -2.213046E+04
        81   2 -3.829837E+05 -1.459802E+05 -7.957161E+04 -1.639233E+05 -4.298485E+04 -3.848766E+03
        81   3 -3.739037E+05 -1.114839E+05 -5.337939E+04 -1.475138E+05 -1.458372E+04  8.274762E+03
        81   4 -2.041138E+05 -1.121216E+05 -7.886134E+04 -7.967154E+04 -5.229932E+04 -1.584041E+04
        81   5 -1.932759E+05 -5.903759E+04 -3.646967E+04 -9.351654E+04 -3.603069E+04 -1.240550E+03
        81   6 -1.954929E+05 -5.098685E+04 -1.928963E+04 -1.026121E+05 -1.744890E+04  7.199298E+03
        81   7 -1.116661E+03  3.237859E+03 -1.896411E+04  1.626983E+04 -3.552145E+04 -9.545541E+03
        81   8 -3.531226E+03  2.791390E+04  6.630034E+03 -2.308825E+04 -2.907427E+04  1.369000E+03
        81   9 -1.704807E+04  9.512310E+03  1.479912E+04 -5.769859E+04 -2.031499E+04  6.123549E+03
        81  10 -4.070745E+05 -2.274628E+05 -1.387718E+05 -1.755818E+05 -2.140952E-10 -2.289727E-10
        81  11 -3.829857E+05 -1.459807E+05 -7.957511E+04 -1.639234E+05 -7.026649E-10  9.848150E-11
        81  12 -3.739040E+05 -1.114840E+05 -5.337992E+04 -1.475137E+05 -5.633679E-11 -2.184013E-10
        81  13 -2.041168E+05 -1.121226E+05 -7.886695E+04 -7.967220E+04 -1.053636E-09  4.360118E-10
        81  14 -1.932773E+05 -5.903794E+04 -3.647212E+04 -9.351657E+04  1.002519E-09  1.216030E-10
        81  15 -1.954933E+05 -5.098699E+04 -1.929030E+04 -1.026120E+05 -7.344206E-10 -1.068668E-09
        81  16 -1.118040E+03  3.237423E+03 -1.896665E+04  1.626956E+04 -8.054078E-10  4.802215E-10
        81  17 -3.532134E+03  2.791367E+04  6.628442E+03 -2.308822E+04  4.655831E-09 -4.037432E-10
        81  18 -1.704853E+04  9.512159E+03  1.479827E+04 -5.769849E+04  5.612512E-10 -1.209191E-09
        81  19 -4.070692E+05 -2.274610E+05 -1.387619E+05 -1.755806E+05  6.907150E+04  2.213046E+04
        81  20 -3.829837E+05 -1.459802E+05 -7.957161E+04 -1.639233E+05  4.298485E+04  3.848766E+03
        81  21 -3.739037E+05 -1.114839E+05 -5.337939E+04 -1.475138E+05  1.458372E+04 -8.274762E+03
        81  22 -2.041138E+05 -1.121216E+05 -7.886134E+04 -7.967154E+04  5.229932E+04  1.584041E+04
        81  23 -1.932759E+05 -5.903759E+04 -3.646967E+04 -9.351654E+04  3.603069E+04  1.240550E+03
        81  24 -1.954929E+05 -5.098685E+04 -1.928963E+04 -1.026121E+05  1.744890E+04 -7.199298E+03
        81  25 -1.116661E+03  3.237859E+03 -1.896411E+04  1.626983E+04  3.552145E+04  9.545541E+03
        81  26 -3.531226E+03  2.791390E+04  6.630034E+03 -2.308825E+04  2.907427E+04 -1.369000E+03
        81  27 -1.704807E+04  9.512310E+03  1.479912E+04 -5.769859E+04  2.031499E+04 -6.123549E+03
        82   1 -3.487755E+05 -1.098092E+05 -4.483205E+04 -1.455208E+05 -1.291258E+04  7.632196E+03
        82   2 -3.228827E+05 -9.417620E+04 -3.190217E+04 -1.350336E+05 -7.713267E+03  7.929721E+03
        82   3 -2.935210E+05 -8.557943E+04 -2.300636E+04 -1.297690E+05 -2.330425E+03  7.738200E+03
        82   4 -1.931443E+05 -5.215328E+04 -1.460246E+04 -1.012075E+05 -1.483567E+04  6.910263E+03
        82   5 -1.947666E+05 -4.737707E+04 -7.701285E+03 -9.909653E+04 -1.041538E+04  6.915655E+03
        82   6 -1.927658E+05 -4.948241E+04 -4.216059E+03 -1.022085E+05 -5.811756E+03  6.431971E+03
        82   7 -3.748945E+04  5.504479E+03  1.562568E+04 -5.688416E+04 -1.675926E+04  6.188135E+03
        82   8 -6.663340E+04 -5.763806E+02  1.649896E+04 -6.315253E+04 -1.311809E+04  5.901363E+03
        82   9 -9.199913E+04 -1.338417E+04  1.457415E+04 -7.464356E+04 -9.293723E+03  5.125509E+03
        82  10 -3.487757E+05 -1.098093E+05 -4.483248E+04 -1.455207E+05 -1.013502E-09 -8.824651E-10
        82  11 -3.228828E+05 -9.417629E+04 -3.190240E+04 -1.350336E+05 -2.021603E-09 -6.805008E-10
        82  12 -2.935210E+05 -8.557949E+04 -2.300648E+04 -1.297689E+05  1.965709E-09 -1.098077E-09
        82  13 -1.931446E+05 -5.215339E+04 -1.460297E+04 -1.012074E+05 -1.839750E-09 -1.003602E-09
        82  14 -1.947667E+05 -4.737715E+04 -7.701579E+03 -9.909648E+04  3.692541E-10 -1.131727E-09
        82  15 -1.927659E+05 -4.948247E+04 -4.216200E+03 -1.022084E+05 -2.293354E-09 -4.004845E-10
        82  16 -3.748976E+04  5.504363E+03  1.562508E+04 -5.688407E+04  6.629095E-10 -1.433400E-09
        82  17 -6.663359E+04 -5.764642E+02  1.649857E+04 -6.315247E+04  3.991487E-10 -3.339312E-10
        82  18 -9.199923E+04 -1.338422E+04  1.457394E+04 -7.464352E+04 -1.373943E-09  2.971804E-10
        82  19 -3.487755E+05 -1.098092E+05 -4.483205E+04 -1.455208E+05  1.291258E+04 -7.632196E+03
        82  20 -3.228827E+05 -9.417620E+04 -3.190217E+04 -1.350336E+05  7.713267E+03 -7.929721E+03
        82  21 -2.935210E+05 -8.557943E+04 -2.300636E+04 -1.297690E+05  2.330425E+03 -7.738200E+03
        82  22 -1.931443E+05 -5.215328E+04 -1.460246E+04 -1.012075E+05  1.483567E+04 -6.910263E+03
        82  23 -1.947666E+05 -4.737707E+04 -7.701285E+03 -9.909653E+04  1.041538E+04 -6.915655E+03
        82  24 -1.927658E+05 -4.948241E+04 -4.216059E+03 -1.022085E+05  5.811756E+03 -6.431971E+03
        82  25 -3.748945E+04  5.504479E+03  1.562568E+04 -5.688416E+04  1.675926E+04 -6.188135E+03
        82  26 -6.663340E+04 -5.763806E+02  1.649896E+04 -6.315253E+04  1.311809E+04 -5.901363E+03
        82  27 -9.199913E+04 -1.338417E+04  1.457415E+04 -7.464356E+04  9.293723E+03 -5.125509E+03
        83   1 -2.746313E+05 -7.913856E+04 -1.836629E+04 -1.247952E+05 -1.338353E+03  6.655000E+03
        83   2 -2.489832E+05 -6.649892E+04 -1.176279E+04 -1.142413E+05  4.010588E+02  4.848583E+03
        83   3 -2.186082E+05 -5.886370E+04 -5.878692E+03 -1.092978E+05  2.154977E+03  3.003211E+03
        83   4 -1.925851E+05 -4.954672E+04 -3.169260E+03 -1.021125E+05 -4.745392E+03  5.376727E+03
        83   5 -1.949496E+05 -4.702147E+04 -1.741560E+03 -9.931789E+04 -3.068024E+03  3.547125E+03
        83   6 -1.925758E+05 -4.948831E+04 -9.840036E+02 -1.021339E+05 -1.376201E+03  1.678558E+03
        83   7 -1.105319E+05 -1.995427E+04  1.202755E+04 -7.942691E+04 -8.152911E+03  4.098276E+03
        83   8 -1.409133E+05 -2.754386E+04  8.279537E+03 -8.439330E+04 -6.537413E+03  2.245554E+03
        83   9 -1.665428E+05 -4.011294E+04  3.910642E+03 -9.496971E+04 -4.907504E+03  3.538594E+02
        83  10 -2.746313E+05 -7.913860E+04 -1.836637E+04 -1.247952E+05  2.793273E-09 -1.782227E-09
        83  11 -2.489832E+05 -6.649894E+04 -1.176284E+04 -1.142413E+05  2.526338E-09 -2.057352E-09
        83  12 -2.186083E+05 -5.886372E+04 -5.878717E+03 -1.092978E+05 -3.715434E-09 -1.646019E-09
        83  13 -1.925851E+05 -4.954675E+04 -3.169357E+03 -1.021124E+05 -8.983356E-10 -2.988447E-10
        83  14 -1.949497E+05 -4.702149E+04 -1.741601E+03 -9.931788E+04 -2.347850E-09 -8.073064E-10
        83  15 -1.925758E+05 -4.948831E+04 -9.840124E+02 -1.021339E+05 -1.386976E-08 -3.178961E-09
        83  16 -1.105320E+05 -1.995431E+04  1.202739E+04 -7.942688E+04  6.157986E-10  1.366686E-09
        83  17 -1.409133E+05 -2.754388E+04  8.279448E+03 -8.439329E+04 -5.262639E-09  4.391334E-10
        83  18 -1.665428E+05 -4.011294E+04  3.910596E+03 -9.496971E+04 -1.170239E-08 -4.675840E-09
        83  19 -2.746313E+05 -7.913856E+04 -1.836629E+04 -1.247952E+05  1.338353E+03 -6.655000E+03
        83  20 -2.489832E+05 -6.649892E+04 -1.176279E+04 -1.142413E+05 -4.010588E+02 -4.848583E+03
        83  21 -2.186082E+05 -5.886370E+04 -5.878692E+03 -1.092978E+05 -2.154977E+03 -3.003211E+03
        83  22 -1.925851E+05 -4.954672E+04 -3.169260E+03 -1.021125E+05  4.745392E+03 -5.376727E+03
        83  23 -1.949496E+05 -4.702147E+04 -1.741560E+03 -9.931789E+04  3.068024E+03 -3.547125E+03
        83  24 -1.925758E+05 -4.948831E+04 -9.840036E+02 -1.021339E+05  1.376201E+03 -1.678558E+03
        83  25 -1.105319E+05 -1.995427E+04  1.202755E+04 -7.942691E+04  8.152911E+03 -4.098276E+03
        83  26 -1.409133E+05 -2.754386E+04  8.279537E+03 -8.439330E+04  6.537413E+03 -2.245554E+03
        83  27 -1.665428E+05 -4.011294E+04  3.910642E+03 -9.496971E+04  4.907504E+03 -3.538594E+02
        84   1 -2.000971E+05 -5.216579E+04 -2.079297E+03 -1.041764E+05  2.777303E+03  1.766325E+03
        84   2 -1.745265E+05 -3.961187E+04  3.310838E+03 -9.359552E+04  3.848215E+03 -3.546928E+02
        84   3 -1.441004E+05 -3.195331E+04  8.520800E+03 -8.862063E+04  4.920145E+03 -2.478308E+03
        84   4 -1.925535E+05 -4.949284E+04 -7.579607E+02 -1.021231E+05 -7.481005E+02  4.438547E+02
        84   5 -1.949819E+05 -4.705098E+04 -4.761030E+02 -9.931785E+04  3.185488E+02 -1.678806E+03
        84   6 -1.925553E+05 -4.950401E+04 -3.712664E+02 -1.021191E+05  1.386200E+03 -3.804063E+03
        84   7 -1.850097E+05 -4.681985E+04  5.634474E+02 -1.000698E+05 -4.273582E+03 -8.786443E+02
        84   8 -2.154369E+05 -5.449008E+04 -4.263034E+03 -1.050400E+05 -3.211011E+03 -3.002879E+03
        84   9 -2.410078E+05 -6.705448E+04 -9.263370E+03 -1.156165E+05 -2.147452E+03 -5.129708E+03
        84  10 -2.000971E+05 -5.216579E+04 -2.079318E+03 -1.041764E+05 -9.165856E-09 -3.261434E-09
        84  11 -1.745265E+05 -3.961188E+04  3.310810E+03 -9.359552E+04 -7.175778E-09  6.329507E-10
        84  12 -1.441004E+05 -3.195333E+04  8.520743E+03 -8.862062E+04  4.136456E-10  9.884605E-10
        84  13 -1.925535E+05 -4.949284E+04 -7.579621E+02 -1.021231E+05 -1.403402E-08 -3.379270E-09
        84  14 -1.949819E+05 -4.705098E+04 -4.761085E+02 -9.931785E+04 -8.455107E-10 -1.301215E-09
        84  15 -1.925553E+05 -4.950403E+04 -3.712972E+02 -1.021191E+05 -4.355279E-09 -1.451923E-10
        84  16 -1.850098E+05 -4.681986E+04  5.634117E+02 -1.000698E+05 -1.691537E-09 -3.534450E-09
        84  17 -2.154369E+05 -5.449009E+04 -4.263071E+03 -1.050400E+05  4.103589E-09 -2.953506E-09
        84  18 -2.410078E+05 -6.705451E+04 -9.263428E+03 -1.156165E+05  1.033245E-09 -1.429244E-09
        84  19 -2.000971E+05 -5.216579E+04 -2.079297E+03 -1.041764E+05 -2.777303E+03 -1.766325E+03
        84  20 -1.745265E+05 -3.961187E+04  3.310838E+03 -9.359552E+04 -3.848215E+03  3.546928E+02
        84  21 -1.441004E+05 -3.195331E+04  8.520800E+03 -8.862063E+04 -4.920145E+03  2.478308E+03
        84  22 -1.925535E+05 -4.949284E+04 -7.579607E+02 -1.021231E+05  7.481005E+02 -4.438547E+02
        84  23 -1.949819E+05 -4.705098E+04 -4.761030E+02 -9.931785E+04 -3.185488E+02  1.678806E+03
        84  24 -1.925553E+05 -4.950401E+04 -3.712664E+02 -1.021191E+05 -1.386200E+03  3.804063E+03
        84  25 -1.850097E+05 -4.681985E+04  5.634474E+02 -1.000698E+05  4.273582E+03  8.786443E+02
        84  26 -2.154369E+05 -5.449008E+04 -4.263034E+03 -1.050400E+05  3.211011E+03  3.002879E+03
        84  27 -2.410078E+05 -6.705448E+04 -9.263370E+03 -1.156165E+05  2.147452E+03  5.129708E+03
        85   1 -1.256287E+05 -2.523979E+04  1.209370E+04 -8.349494E+04  5.465952E+03 -3.744690E+03
        85   2 -1.000657E+05 -1.267989E+04  1.710106E+04 -7.291742E+04  6.520980E+03 -5.873358E+03
        85   3 -6.964536E+04 -5.012196E+03  2.194102E+04 -6.794395E+04  7.574414E+03 -7.997303E+03
        85   4 -1.925561E+05 -4.950442E+04 -3.694905E+02 -1.021186E+05  1.932004E+03 -5.070499E+03
        85   5 -1.949840E+05 -4.705527E+04 -4.661794E+02 -9.931765E+04  2.994396E+03 -7.196559E+03
        85   6 -1.925568E+05 -4.949978E+04 -7.360849E+02 -1.021210E+05  4.055191E+03 -9.317906E+03
        85   7 -2.594782E+05 -7.376840E+04 -1.283263E+04 -1.207403E+05 -1.601506E+03 -6.396145E+03
        85   8 -2.898929E+05 -8.142980E+04 -1.803371E+04 -1.257141E+05 -5.316114E+02 -8.519543E+03
        85   9 -3.154536E+05 -9.398639E+04 -2.341402E+04 -1.362920E+05  5.366794E+02 -1.063824E+04
        85  10 -1.256288E+05 -2.523981E+04  1.209362E+04 -8.349492E+04 -6.990005E-10  3.108622E-10
        85  11 -1.000657E+05 -1.267994E+04  1.710091E+04 -7.291739E+04 -5.350527E-10  9.065724E-10
        85  12 -6.964544E+04 -5.012280E+03  2.194079E+04 -6.794391E+04  2.020207E-09  4.896035E-10
        85  13 -1.925561E+05 -4.950445E+04 -3.695459E+02 -1.021186E+05  9.114395E-10  2.589298E-10
        85  14 -1.949840E+05 -4.705532E+04 -4.662935E+02 -9.931763E+04 -5.713662E-10  5.684010E-10
        85  15 -1.925569E+05 -4.949988E+04 -7.362789E+02 -1.021210E+05 -1.326032E-09  9.279019E-10
        85  16 -2.594782E+05 -7.376844E+04 -1.283271E+04 -1.207403E+05 -1.008202E-09 -8.667406E-11
        85  17 -2.898929E+05 -8.142988E+04 -1.803384E+04 -1.257141E+05 -3.475469E-09  6.260880E-10
        85  18 -3.154536E+05 -9.398651E+04 -2.341423E+04 -1.362920E+05 -1.879947E-09  6.518611E-10
        85  19 -1.256287E+05 -2.523979E+04  1.209370E+04 -8.349494E+04 -5.465952E+03  3.744690E+03
        85  20 -1.000657E+05 -1.267989E+04  1.710106E+04 -7.291742E+04 -6.520980E+03  5.873358E+03
        85  21 -6.964536E+04 -5.012196E+03  2.194102E+04 -6.794395E+04 -7.574414E+03  7.997303E+03
        85  22 -1.925561E+05 -4.950442E+04 -3.694905E+02 -1.021186E+05 -1.932004E+03  5.070499E+03
        85  23 -1.949840E+05 -4.705527E+04 -4.661794E+02 -9.931765E+04 -2.994396E+03  7.196559E+03
        85  24 -1.925568E+05 -4.949978E+04 -7.360849E+02 -1.021210E+05 -4.055191E+03  9.317906E+03
        85  25 -2.594782E+05 -7.376840E+04 -1.283263E+04 -1.207403E+05  1.601506E+03  6.396145E+03
        85  26 -2.898929E+05 -8.142980E+04 -1.803371E+04 -1.257141E+05  5.316114E+02  8.519543E+03
        85  27 -3.154536E+05 -9.398639E+04 -2.341402E+04 -1.362920E+05 -5.366794E+02  1.063824E+04
        86   1 -5.118925E+04  1.692974E+03  2.529523E+04 -6.284171E+04  8.206025E+03 -9.229120E+03
        86   2 -2.558914E+04  1.425531E+04  2.969767E+04 -5.226885E+04  9.773295E+03 -1.113019E+04
        86   3  4.770521E+03  2.185096E+04  3.352502E+04 -4.729907E+04  1.131914E+04 -1.297324E+04
        86   4 -1.925801E+05 -4.949606E+04 -9.538053E+02 -1.021304E+05  4.678674E+03 -1.055291E+04
        86   5 -1.949568E+05 -4.703474E+04 -1.685215E+03 -9.931774E+04  6.338133E+03 -1.241966E+04
        86   6 -1.925929E+05 -4.955858E+04 -3.064848E+03 -1.021087E+05  7.976117E+03 -1.422839E+04
        86   7 -3.339500E+05 -1.006832E+05 -2.720354E+04 -1.414107E+05  1.152184E+03 -1.187637E+04
        86   8 -3.642936E+05 -1.083218E+05 -3.306891E+04 -1.463545E+05  2.903989E+03 -1.370875E+04
        86   9 -3.899136E+05 -1.209638E+05 -3.965563E+04 -1.569015E+05  4.634265E+03 -1.548311E+04
        86  10 -5.118935E+04  1.692864E+03  2.529494E+04 -6.284165E+04 -4.931684E-10 -6.041338E-11
        86  11 -2.558927E+04  1.425515E+04  2.969726E+04 -5.226876E+04  2.258471E-09 -6.251178E-10
        86  12  4.770338E+03  2.185074E+04  3.352446E+04 -4.729895E+04  2.198748E-09 -1.476826E-09
        86  13 -1.925802E+05 -4.949618E+04 -9.540557E+02 -1.021303E+05 -2.221332E-09  4.870950E-10
        86  14 -1.949569E+05 -4.703492E+04 -1.685580E+03 -9.931768E+04 -7.656542E-10  5.931761E-10
        86  15 -1.925930E+05 -4.955881E+04 -3.065348E+03 -1.021086E+05 -1.695592E-10  2.660512E-10
        86  16 -3.339500E+05 -1.006834E+05 -2.720381E+04 -1.414107E+05  3.314043E-10  9.009966E-10
        86  17 -3.642936E+05 -1.083220E+05 -3.306928E+04 -1.463545E+05  1.190428E-09  9.564472E-10
        86  18 -3.899137E+05 -1.209641E+05 -3.965612E+04 -1.569015E+05  7.309067E-10  2.127685E-09
        86  19 -5.118925E+04  1.692974E+03  2.529523E+04 -6.284171E+04 -8.206025E+03  9.229120E+03
        86  20 -2.558914E+04  1.425531E+04  2.969767E+04 -5.226885E+04 -9.773295E+03  1.113019E+04
        86  21  4.770521E+03  2.185096E+04  3.352502E+04 -4.729907E+04 -1.131914E+04  1.297324E+04
        86  22 -1.925801E+05 -4.949606E+04 -9.538053E+02 -1.021304E+05 -4.678674E+03  1.055291E+04
        86  23 -1.949568E+05 -4.703474E+04 -1.685215E+03 -9.931774E+04 -6.338133E+03  1.241966E+04
        86  24 -1.925929E+05 -4.955858E+04 -3.064848E+03 -1.021087E+05 -7.976117E+03  1.422839E+04
        86  25 -3.339500E+05 -1.006832E+05 -2.720354E+04 -1.414107E+05 -1.152184E+03  1.187637E+04
        86  26 -3.642936E+05 -1.083218E+05 -3.306891E+04 -1.463545E+05 -2.903989E+03  1.370875E+04
        86  27 -3.899136E+05 -1.209638E+05 -3.965563E+04 -1.569015E+05 -4.634265E+03  1.548311E+04
        87   1  2.328838E+04  2.843081E+04  3.611399E+04 -4.249697E+04  1.247316E+04 -1.398607E+04
        87   2  4.859320E+04  4.122826E+04  3.829625E+04 -3.106979E+04  1.574402E+04 -1.481394E+04
        87   3  7.777820E+04  4.746160E+04  3.809235E+04 -2.485074E+04  1.874371E+04 -1.491797E+04
        87   4 -1.927700E+05 -4.949383E+04 -4.076045E+03 -1.021964E+05  9.020417E+03 -1.528261E+04
        87   5 -1.947801E+05 -4.739045E+04 -7.445453E+03 -9.910766E+04  1.344456E+04 -1.567795E+04
        87   6 -1.931403E+05 -5.208080E+04 -1.411585E+04 -1.012279E+05  1.759735E+04 -1.534934E+04
        87   7 -4.087816E+05 -1.274151E+05 -4.426841E+04 -1.618771E+05  5.568925E+03 -1.657868E+04
        87   8 -4.380928E+05 -1.360041E+05 -5.318984E+04 -1.671211E+05  1.114605E+04 -1.654159E+04
        87   9 -4.639825E+05 -1.516162E+05 -6.632725E+04 -1.775740E+05  1.645152E+04 -1.578049E+04
        87  10  2.328816E+04  2.843056E+04  3.611333E+04 -4.249683E+04  1.838388E-09 -5.540361E-11
        87  11  4.859288E+04  4.122796E+04  3.829538E+04 -3.106960E+04 -7.302229E-09 -1.451731E-09
        87  12  7.777776E+04  4.746126E+04  3.809128E+04 -2.485052E+04 -6.773066E-09 -1.841438E-09
        87  13 -1.927701E+05 -4.949410E+04 -4.076637E+03 -1.021963E+05 -4.108872E-09 -1.019193E-09
        87  14 -1.947804E+05 -4.739076E+04 -7.446255E+03 -9.910749E+04 -4.935257E-09 -2.533633E-09
        87  15 -1.931407E+05 -5.208114E+04 -1.411688E+04 -1.012277E+05 -3.510768E-09 -1.049515E-09
        87  16 -4.087817E+05 -1.274154E+05 -4.426899E+04 -1.618770E+05 -5.182815E-09 -1.283306E-09
        87  17 -4.380930E+05 -1.360044E+05 -5.319059E+04 -1.671209E+05 -4.603233E-09 -2.575172E-09
        87  18 -4.639828E+05 -1.516166E+05 -6.632822E+04 -1.775738E+05  1.162003E-09  4.454343E-10
        87  19  2.328838E+04  2.843081E+04  3.611399E+04 -4.249697E+04 -1.247316E+04  1.398607E+04
        87  20  4.859320E+04  4.122826E+04  3.829625E+04 -3.106979E+04 -1.574402E+04  1.481394E+04
        87  21  7.777820E+04  4.746160E+04  3.809235E+04 -2.485074E+04 -1.874371E+04  1.491797E+04
        87  22 -1.927700E+05 -4.949383E+04 -4.076045E+03 -1.021964E+05 -9.020417E+03  1.528261E+04
        87  23 -1.947801E+05 -4.739045E+04 -7.445453E+03 -9.910766E+04 -1.344456E+04  1.567795E+04
        87  24 -1.931403E+05 -5.208080E+04 -1.411585E+04 -1.012279E+05 -1.759735E+04  1.534934E+04
        87  25 -4.087816E+05 -1.274151E+05 -4.426841E+04 -1.618771E+05 -5.568925E+03  1.657868E+04
        87  26 -4.380928E+05 -1.360041E+05 -5.318984E+04 -1.671211E+05 -1.114605E+04  1.654159E+04
        87  27 -4.639825E+05 -1.516162E+05 -6.632725E+04 -1.775740E+05 -1.645152E+04  1.578049E+04
        88   1  9.824531E+04  5.166157E+04  3.755617E+04 -2.539326E+04  2.264598E+04 -1.462389E+04
        88   2  1.118037E+05  6.999481E+04  3.182776E+04  8.051981E+03  2.542649E+04 -1.019370E+04
        88   3  1.156269E+05  4.770765E+04  1.325183E+04  4.610386E+04  2.478419E+04  3.348572E+03
        88   4 -1.954434E+05 -5.092152E+04 -1.864632E+04 -1.025473E+05  2.010511E+04 -1.557887E+04
        88   5 -1.933055E+05 -5.870613E+04 -3.525443E+04 -9.376059E+04  3.741931E+04 -5.691245E+03
        88   6 -2.037905E+05 -1.100043E+05 -7.623143E+04 -8.036662E+04  5.130928E+04  1.331011E+04
        88   7 -4.890423E+05 -1.534985E+05 -7.485233E+04 -1.796682E+05  1.756554E+04 -1.653341E+04
        88   8 -4.983138E+05 -1.873886E+05 -1.023402E+05 -1.955225E+05  4.940563E+04 -1.192051E+03
        88   9 -5.230943E+05 -2.676806E+05 -1.657183E+05 -2.067670E+05  7.781880E+04  2.326170E+04
        88  10  9.824471E+04  5.166121E+04  3.755481E+04 -2.539299E+04  3.344365E-09  1.632238E-09
        88  11  1.118030E+05  6.999452E+04  3.182635E+04  8.052190E+03  2.784549E-10 -1.868599E-10
        88  12  1.156262E+05  4.770747E+04  1.325065E+04  4.610380E+04 -1.205074E-09 -6.089546E-10
        88  13 -1.954439E+05 -5.092189E+04 -1.864754E+04 -1.025471E+05  2.550522E-09 -8.503726E-10
        88  14 -1.933070E+05 -5.870654E+04 -3.525712E+04 -9.376042E+04 -9.978319E-10 -6.654354E-10
        88  15 -2.037934E+05 -1.100052E+05 -7.623671E+04 -8.036717E+04 -1.093240E-09 -1.898919E-10
        88  16 -4.890427E+05 -1.534989E+05 -7.485342E+04 -1.796679E+05 -1.878810E-09 -8.793802E-10
        88  17 -4.983164E+05 -1.873893E+05 -1.023448E+05 -1.955225E+05  1.623778E-10  2.955592E-11
        88  18 -5.231010E+05 -2.676828E+05 -1.657307E+05 -2.067685E+05  4.944063E-10  5.055001E-11
        88  19  9.824531E+04  5.166157E+04  3.755617E+04 -2.539326E+04 -2.264598E+04  1.462389E+04
        88  20  1.118037E+05  6.999481E+04  3.182776E+04  8.051981E+03 -2.542649E+04  1.019370E+04
        88  21  1.156269E+05  4.770765E+04  1.325183E+04  4.610386E+04 -2.478419E+04 -3.348572E+03
        88  22 -1.954434E+05 -5.092152E+04 -1.864632E+04 -1.025473E+05 -2.010511E+04  1.557887E+04
        88  23 -1.933055E+05 -5.870613E+04 -3.525443E+04 -9.376059E+04 -3.741931E+04  5.691245E+03
        88  24 -2.037905E+05 -1.100043E+05 -7.623143E+04 -8.036662E+04 -5.130928E+04 -1.331011E+04
        88  25 -4.890423E+05 -1.534985E+05 -7.485233E+04 -1.796682E+05 -1.756554E+04  1.653341E+04
        88  26 -4.983138E+05 -1.873886E+05 -1.023402E+05 -1.955225E+05 -4.940563E+04  1.192051E+03
        88  27 -5.230943E+05 -2.676806E+05 -1.657183E+05 -2.067670E+05 -7.781880E+04 -2.326170E+04
        89   1  8.342073E+05  1.273139E+05  1.133261E+05  1.794036E+04  3.779838E+04 -9.245076E+03
        89   2  7.997257E+05  1.389846E+05  9.173008E+04  2.969884E+04  1.681473E+04 -3.214469E+04
        89   3  7.649441E+05  1.384624E+05  8.075229E+04  4.594225E+04 -4.177630E+03 -4.110003E+04
        89   4  1.396986E+05 -4.330877E+04 -4.598424E+04  4.687101E+04 -3.246727E+04 -9.309849E+03
        89   5  1.427046E+05 -1.529204E+04 -2.318033E+04  4.460788E+04 -2.062079E+04 -3.218552E+04
        89   6  1.397100E+05 -5.173076E+03 -1.254522E+04  4.682943E+04 -8.784643E+03 -4.110919E+04
        89   7 -5.543514E+05 -2.139592E+05 -2.053074E+05  7.576895E+04 -1.026550E+05 -9.381204E+03
        89   8 -5.138907E+05 -1.695905E+05 -1.381008E+05  5.950058E+04 -5.801791E+04 -3.222817E+04
        89   9 -4.851317E+05 -1.488270E+05 -1.058501E+05  4.771557E+04 -1.338721E+04 -4.111837E+04
        89  10  8.342057E+05  1.273134E+05  1.133233E+05  1.794065E+04  6.636245E-09 -7.364248E-10
        89  11  7.997251E+05  1.389834E+05  9.172761E+04  2.969927E+04  3.241997E-09 -2.780325E-09
        89  12  7.649436E+05  1.384606E+05  8.074909E+04  4.594212E+04 -2.555784E-09 -8.930839E-10
        89  13  1.396974E+05 -4.330915E+04 -4.598638E+04  4.687077E+04  1.127278E-09 -4.767869E-11
        89  14  1.427039E+05 -1.529327E+04 -2.318307E+04  4.460735E+04  1.249159E-10 -2.649214E-09
        89  15  1.397095E+05 -5.174911E+03 -1.254854E+04  4.682914E+04  3.289231E-09  3.896897E-10
        89  16 -5.543628E+05 -2.139621E+05 -2.053274E+05  7.576818E+04 -5.663188E-09 -6.968095E-10
        89  17 -5.138946E+05 -1.695925E+05 -1.381091E+05  5.949908E+04 -3.960950E-09 -5.129994E-09
        89  18 -4.851324E+05 -1.488289E+05 -1.058537E+05  4.771512E+04 -4.883845E-10 -3.279260E-09
        89  19  8.342073E+05  1.273139E+05  1.133261E+05  1.794036E+04 -3.779838E+04  9.245076E+03
        89  20  7.997257E+05  1.389846E+05  9.173008E+04  2.969884E+04 -1.681473E+04  3.214469E+04
        89  21  7.649441E+05  1.384624E+05  8.075229E+04  4.594225E+04  4.177630E+03  4.110003E+04
        89  22  1.396986E+05 -4.330877E+04 -4.598424E+04  4.687101E+04  3.246727E+04  9.309849E+03
        89  23  1.427046E+05 -1.529204E+04 -2.318033E+04  4.460788E+04  2.062079E+04  3.218552E+04
        89  24  1.397100E+05 -5.173076E+03 -1.254522E+04  4.682943E+04  8.784643E+03  4.110919E+04
        89  25 -5.543514E+05 -2.139592E+05 -2.053074E+05  7.576895E+04  1.026550E+05  9.381204E+03
        89  26 -5.138907E+05 -1.695905E+05 -1.381008E+05  5.950058E+04  5.801791E+04  3.222817E+04
        89  27 -4.851317E+05 -1.488270E+05 -1.058501E+05  4.771557E+04  1.338721E+04  4.111837E+04
        90   1  7.438079E+05  1.341268E+05  7.757552E+04  4.537539E+04 -3.477715E+03 -4.161217E+04
        90   2  7.093158E+05  1.278308E+05  7.219020E+04  4.376596E+04 -5.290384E+03 -4.225363E+04
        90   3  6.748202E+05  1.205652E+05  6.774420E+04  4.767432E+04 -7.105473E+03 -4.104667E+04
        90   4  1.408795E+05 -3.777598E+03 -9.364505E+03  4.706073E+04 -7.153385E+03 -4.162045E+04
        90   5  1.412654E+05 -1.168799E+03 -5.059688E+03  4.429939E+04 -4.616049E+03 -4.225676E+04
        90   6  1.408922E+05 -2.850020E+02 -2.835170E+03  4.705619E+04 -2.081155E+03 -4.104377E+04
        90   7 -4.616822E+05 -1.416986E+05 -9.631020E+04  4.874424E+04 -1.082564E+04 -4.162875E+04
        90   8 -4.264568E+05 -1.301824E+05 -8.231281E+04  4.483220E+04 -3.942301E+03 -4.225990E+04
        90   9 -3.927448E+05 -1.211473E+05 -7.341654E+04  4.643852E+04  2.939049E+03 -4.104086E+04
        90  10  7.438074E+05  1.341249E+05  7.757224E+04  4.537528E+04  6.493520E-08 -4.489461E-10
        90  11  7.093153E+05  1.278289E+05  7.218679E+04  4.376578E+04  3.360890E-10  2.085972E-09
        90  12  6.748197E+05  1.205634E+05  6.774094E+04  4.767409E+04 -6.811855E-08  1.747613E-09
        90  13  1.408790E+05 -3.779472E+03 -9.367856E+03  4.706049E+04  2.151756E-09  1.510219E-10
        90  14  1.412649E+05 -1.170723E+03 -5.063084E+03  4.429923E+04 -1.972273E-09  1.535126E-09
        90  15  1.408918E+05 -2.868122E+02 -2.838344E+03  4.705612E+04  1.638588E-09 -2.726786E-10
        90  16 -4.616828E+05 -1.417005E+05 -9.631367E+04  4.874388E+04 -6.404335E-08  9.992722E-10
        90  17 -4.264573E+05 -1.301844E+05 -8.231620E+04  4.483207E+04  1.980795E-09  2.485628E-09
        90  18 -3.927452E+05 -1.211491E+05 -7.341972E+04  4.643862E+04  6.789395E-08  1.662053E-09
        90  19  7.438079E+05  1.341268E+05  7.757552E+04  4.537539E+04  3.477715E+03  4.161217E+04
        90  20  7.093158E+05  1.278308E+05  7.219020E+04  4.376596E+04  5.290384E+03  4.225363E+04
        90  21  6.748202E+05  1.205652E+05  6.774420E+04  4.767432E+04  7.105473E+03  4.104667E+04
        90  22  1.408795E+05 -3.777598E+03 -9.364505E+03  4.706073E+04  7.153385E+03  4.162045E+04
        90  23  1.412654E+05 -1.168799E+03 -5.059688E+03  4.429939E+04  4.616049E+03  4.225676E+04
        90  24  1.408922E+05 -2.850020E+02 -2.835170E+03  4.705619E+04  2.081155E+03  4.104377E+04
        90  25 -4.616822E+05 -1.416986E+05 -9.631020E+04  4.874424E+04  1.082564E+04  4.162875E+04
        90  26 -4.264568E+05 -1.301824E+05 -8.231281E+04  4.483220E+04  3.942301E+03  4.225990E+04
        90  27 -3.927448E+05 -1.211473E+05 -7.341654E+04  4.643852E+04 -2.939049E+03  4.104086E+04
        91   1  6.535280E+05  1.157258E+05  6.511643E+04  4.757383E+04 -6.810682E+03 -3.972144E+04
        91   2  6.190780E+05  1.080218E+05  6.096962E+04  4.478650E+04 -6.794090E+03 -3.741323E+04
        91   3  5.846104E+05  1.002758E+05  5.680003E+04  4.764894E+04 -6.778464E+03 -3.486038E+04
        91   4  1.410387E+05 -1.744160E+02 -2.136454E+03  4.708576E+04 -1.663993E+03 -3.971792E+04
        91   5  1.411037E+05  3.657778E+01 -1.196058E+03  4.426054E+04 -1.072082E+03 -3.740817E+04
        91   6  1.410499E+05  1.055684E+02 -6.780574E+02  4.708535E+04 -4.811362E+02 -3.485371E+04
        91   7 -3.711823E+05 -1.160857E+05 -6.939098E+04  4.659801E+04  3.478652E+03 -3.971440E+04
        91   8 -3.366369E+05 -1.079582E+05 -6.336294E+04  4.373492E+04  4.645735E+03 -3.740313E+04
        91   9 -3.023091E+05 -1.000728E+05 -5.815707E+04  4.652211E+04  5.811912E+03 -3.484704E+04
        91  10  6.535276E+05  1.157241E+05  6.511337E+04  4.757362E+04  3.754723E-11  1.936475E-09
        91  11  6.190776E+05  1.080203E+05  6.096691E+04  4.478629E+04  1.165832E-09  1.030287E-09
        91  12  5.846100E+05  1.002744E+05  5.679766E+04  4.764875E+04  4.220278E-09 -1.227494E-09
        91  13  1.410383E+05 -1.761109E+02 -2.139424E+03  4.708570E+04 -1.159821E-09 -1.282613E-09
        91  14  1.411033E+05  3.507470E+01 -1.198691E+03  4.426050E+04  1.889206E-10  1.124538E-09
        91  15  1.410496E+05  1.042638E+02 -6.803408E+02  4.708534E+04  1.336735E-10  2.485242E-09
        91  16 -3.711827E+05 -1.160874E+05 -6.939397E+04  4.659812E+04  6.386787E-11  1.748829E-09
        91  17 -3.366373E+05 -1.079597E+05 -6.336561E+04  4.373506E+04  2.346792E-10  1.841276E-09
        91  18 -3.023095E+05 -1.000741E+05 -5.815941E+04  4.652227E+04 -1.245816E-09 -1.244512E-10
        91  19  6.535280E+05  1.157258E+05  6.511643E+04  4.757383E+04  6.810682E+03  3.972144E+04
        91  20  6.190780E+05  1.080218E+05  6.096962E+04  4.478650E+04  6.794090E+03  3.741323E+04
        91  21  5.846104E+05  1.002758E+05  5.680003E+04  4.764894E+04  6.778464E+03  3.486038E+04
        91  22  1.410387E+05 -1.744160E+02 -2.136454E+03  4.708576E+04  1.663993E+03  3.971792E+04
        91  23  1.411037E+05  3.657778E+01 -1.196058E+03  4.426054E+04  1.072082E+03  3.740817E+04
        91  24  1.410499E+05  1.055684E+02 -6.780574E+02  4.708535E+04  4.811362E+02  3.485371E+04
        91  25 -3.711823E+05 -1.160857E+05 -6.939098E+04  4.659801E+04 -3.478652E+03  3.971440E+04
        91  26 -3.366369E+05 -1.079582E+05 -6.336294E+04  4.373492E+04 -4.645735E+03  3.740313E+04
        91  27 -3.023091E+05 -1.000728E+05 -5.815707E+04  4.652211E+04 -5.811912E+03  3.484704E+04
        92   1  5.633210E+05  9.543836E+04  5.404370E+04  4.761534E+04 -6.690325E+03 -3.329239E+04
        92   2  5.288889E+05  8.766513E+04  4.979467E+04  4.474780E+04 -6.628003E+03 -3.059441E+04
        92   3  4.944427E+05  7.991163E+04  4.550629E+04  4.754424E+04 -6.566289E+03 -2.786443E+04
        92   4  1.410733E+05  1.125542E+02 -5.109320E+02  4.708853E+04 -3.775707E+02 -3.328525E+04
        92   5  1.410924E+05  1.201618E+02 -2.844082E+02  4.425643E+04 -2.402309E+02 -3.058647E+04
        92   6  1.410825E+05  1.343551E+02 -1.496160E+02  4.708851E+04 -1.034974E+02 -2.785568E+04
        92   7 -2.809918E+05 -9.522063E+04 -5.506634E+04  4.656203E+04  5.931101E+03 -3.327811E+04
        92   8 -2.465501E+05 -8.743103E+04 -5.036410E+04  4.376532E+04  6.143747E+03 -3.057854E+04
        92   9 -2.121499E+05 -7.964808E+04 -4.580601E+04  4.663299E+04  6.355796E+03 -2.784695E+04
        92  10  5.633206E+05  9.543716E+04  5.404154E+04  4.761516E+04  1.216255E-10 -9.149366E-10
        92  11  5.288886E+05  8.766412E+04  4.979282E+04  4.474763E+04  1.823251E-09  3.772210E-09
        92  12  4.944424E+05  7.991079E+04  4.550475E+04  4.754409E+04  4.377564E-10  2.291514E-09
        92  13  1.410730E+05  1.113643E+02 -5.130144E+02  4.708852E+04 -1.076729E-09 -4.957637E-10
        92  14  1.410921E+05  1.191571E+02 -2.861665E+02  4.425642E+04 -1.857317E-09  4.327884E-09
        92  15  1.410823E+05  1.335218E+02 -1.510742E+02  4.708851E+04  4.632327E-10  6.378884E-11
        92  16 -2.809921E+05 -9.522183E+04 -5.506849E+04  4.656219E+04  1.407604E-09 -2.876174E-11
        92  17 -2.465504E+05 -8.743204E+04 -5.036593E+04  4.376547E+04 -6.672133E-11  8.778844E-10
        92  18 -2.121501E+05 -7.964893E+04 -4.580754E+04  4.663313E+04  4.042095E-10 -9.911310E-10
        92  19  5.633210E+05  9.543836E+04  5.404370E+04  4.761534E+04  6.690325E+03  3.329239E+04
        92  20  5.288889E+05  8.766513E+04  4.979467E+04  4.474780E+04  6.628003E+03  3.059441E+04
        92  21  4.944427E+05  7.991163E+04  4.550629E+04  4.754424E+04  6.566289E+03  2.786443E+04
        92  22  1.410733E+05  1.125542E+02 -5.109320E+02  4.708853E+04  3.775707E+02  3.328525E+04
        92  23  1.410924E+05  1.201618E+02 -2.844082E+02  4.425643E+04  2.402309E+02  3.058647E+04
        92  24  1.410825E+05  1.343551E+02 -1.496160E+02  4.708851E+04  1.034974E+02  2.785568E+04
        92  25 -2.809918E+05 -9.522063E+04 -5.506634E+04  4.656203E+04 -5.931101E+03  3.327811E+04
        92  26 -2.465501E+05 -8.743103E+04 -5.036410E+04  4.376532E+04 -6.143747E+03  3.057854E+04
        92  27 -2.121499E+05 -7.964808E+04 -4.580601E+04  4.663299E+04 -6.355796E+03  2.784695E+04
        93   1  4.731608E+05  7.508465E+04  4.268376E+04  4.752087E+04 -6.547019E+03 -2.626488E+04
        93   2  4.387427E+05  6.731859E+04  3.836335E+04  4.464942E+04 -6.543933E+03 -2.351663E+04
        93   3  4.043126E+05  5.957462E+04  3.404074E+04  4.744479E+04 -6.541283E+03 -2.076523E+04
        93   4  1.410885E+05  1.364153E+02 -1.027198E+02  4.708913E+04 -8.288210E+01 -2.625577E+04
        93   5  1.410991E+05  1.311253E+02 -2.925393E+01  4.425564E+04 -7.249543E+01 -2.350699E+04
        93   6  1.410955E+05  1.468179E+02  3.699315E+01  4.708913E+04 -6.254503E+01 -2.075504E+04
        93   7 -1.908707E+05 -7.481636E+04 -4.288959E+04  4.665759E+04  6.377967E+03 -2.624668E+04
        93   8 -1.564538E+05 -6.705999E+04 -3.842215E+04  4.386203E+04  6.395991E+03 -2.349734E+04
        93   9 -1.220505E+05 -5.928383E+04 -3.396696E+04  4.673359E+04  6.413580E+03 -2.074485E+04
        93  10  4.731605E+05  7.508390E+04  4.268239E+04  4.752073E+04  1.079737E-08 -8.991480E-10
        93  11  4.387425E+05  6.731798E+04  3.836223E+04  4.464929E+04  5.541595E-09 -2.656402E-09
        93  12  4.043124E+05  5.957414E+04  3.403985E+04  4.744468E+04 -1.651821E-09 -1.886203E-09
        93  13  1.410883E+05  1.356750E+02 -1.040154E+02  4.708913E+04  4.403904E-09  2.559182E-09
        93  14  1.410989E+05  1.305319E+02 -3.029241E+01  4.425564E+04  2.421905E-09 -1.491615E-09
        93  15  1.410954E+05  1.463553E+02  3.618359E+01  4.708912E+04 -8.102402E-11 -1.602155E-09
        93  16 -1.908709E+05 -7.481712E+04 -4.289096E+04  4.665773E+04 -8.220693E-09  3.830543E-10
        93  17 -1.564540E+05 -6.706059E+04 -3.842326E+04  4.386215E+04 -4.754282E-09 -2.584220E-09
        93  18 -1.220506E+05 -5.928431E+04 -3.396784E+04  4.673370E+04  4.152470E-10 -1.696260E-09
        93  19  4.731608E+05  7.508465E+04  4.268376E+04  4.752087E+04  6.547019E+03  2.626488E+04
        93  20  4.387427E+05  6.731859E+04  3.836335E+04  4.464942E+04  6.543933E+03  2.351663E+04
        93  21  4.043126E+05  5.957462E+04  3.404074E+04  4.744479E+04  6.541283E+03  2.076523E+04
        93  22  1.410885E+05  1.364153E+02 -1.027198E+02  4.708913E+04  8.288210E+01  2.625577E+04
        93  23  1.410991E+05  1.311253E+02 -2.925393E+01  4.425564E+04  7.249543E+01  2.350699E+04
        93  24  1.410955E+05  1.468179E+02  3.699315E+01  4.708913E+04  6.254503E+01  2.075504E+04
        93  25 -1.908707E+05 -7.481636E+04 -4.288959E+04  4.665759E+04 -6.377967E+03  2.624668E+04
        93  26 -1.564538E+05 -6.705999E+04 -3.842215E+04  4.386203E+04 -6.395991E+03  2.349734E+04
        93  27 -1.220505E+05 -5.928383E+04 -3.396696E+04  4.673359E+04 -6.413580E+03  2.074485E+04
        94   1  3.830408E+05  5.475140E+04  3.121366E+04  4.742220E+04 -6.552636E+03 -1.916269E+04
        94   2  3.486280E+05  4.699540E+04  2.691742E+04  4.453922E+04 -6.625350E+03 -1.641280E+04
        94   3  3.142148E+05  3.928161E+04  2.267222E+04  4.732040E+04 -6.698351E+03 -1.366873E+04
        94   4  1.411008E+05  1.495794E+02  7.258801E+01  4.708853E+04 -7.460976E+01 -1.915223E+04
        94   5  1.411029E+05  1.514013E+02  1.651408E+02  4.425636E+04 -1.611521E+02 -1.640200E+04
        94   6  1.411057E+05  1.978590E+02  3.182362E+02  4.708846E+04 -2.479856E+02 -1.365759E+04
        94   7 -1.007791E+05 -5.445464E+04 -3.106861E+04  4.675498E+04  6.401016E+03 -1.914178E+04
        94   8 -6.637793E+04 -4.669436E+04 -2.658719E+04  4.397358E+04  6.300990E+03 -1.639120E+04
        94   9 -3.197256E+04 -3.888711E+04 -2.203575E+04  4.685657E+04  6.200669E+03 -1.364644E+04
        94  10  3.830406E+05  5.475099E+04  3.121289E+04  4.742210E+04  2.757288E-08  8.489227E-10
        94  11  3.486279E+05  4.699510E+04  2.691683E+04  4.453913E+04 -6.450315E-09 -2.685979E-09
        94  12  3.142147E+05  3.928140E+04  2.267179E+04  4.732033E+04 -4.288397E-08 -6.483826E-09
        94  13  1.411007E+05  1.491855E+02  7.189865E+01  4.708853E+04  1.424771E-12  1.761244E-09
        94  14  1.411029E+05  1.511123E+02  1.646352E+02  4.425636E+04 -8.415312E-10  8.351854E-09
        94  15  1.411057E+05  1.976587E+02  3.178855E+02  4.708846E+04 -1.674218E-09  1.359840E-08
        94  16 -1.007792E+05 -5.445505E+04 -3.106938E+04  4.675508E+04 -2.591075E-08  1.023311E-09
        94  17 -6.637805E+04 -4.669466E+04 -2.658777E+04  4.397366E+04  6.154839E-09 -7.187795E-09
        94  18 -3.197265E+04 -3.888732E+04 -2.203617E+04  4.685664E+04  4.201101E-08 -5.868078E-09
        94  19  3.830408E+05  5.475140E+04  3.121366E+04  4.742220E+04  6.552636E+03  1.916269E+04
        94  20  3.486280E+05  4.699540E+04  2.691742E+04  4.453922E+04  6.625350E+03  1.641280E+04
        94  21  3.142148E+05  3.928161E+04  2.267222E+04  4.732040E+04  6.698351E+03  1.366873E+04
        94  22  1.411008E+05  1.495794E+02  7.258801E+01  4.708853E+04  7.460976E+01  1.915223E+04
        94  23  1.411029E+05  1.514013E+02  1.651408E+02  4.425636E+04  1.611521E+02  1.640200E+04
        94  24  1.411057E+05  1.978590E+02  3.182362E+02  4.708846E+04  2.479856E+02  1.365759E+04
        94  25 -1.007791E+05 -5.445464E+04 -3.106861E+04  4.675498E+04 -6.401016E+03  1.914178E+04
        94  26 -6.637793E+04 -4.669436E+04 -2.658719E+04  4.397358E+04 -6.300990E+03  1.639120E+04
        94  27 -3.197256E+04 -3.888711E+04 -2.203575E+04  4.685657E+04 -6.200669E+03  1.364644E+04
        95   1  2.929650E+05  3.447226E+04  1.991106E+04  4.731045E+04 -6.760309E+03 -1.207210E+04
        95   2  2.585196E+05  2.683237E+04  1.581975E+04  4.425685E+04 -7.042997E+03 -9.355860E+03
        95   3  2.241559E+05  1.946213E+04  1.197237E+04  4.686234E+04 -7.325758E+03 -6.686124E+03
        95   4  1.411289E+05  2.157672E+02  4.282567E+02  4.708738E+04 -3.134084E+02 -1.206079E+04
        95   5  1.410807E+05  3.412498E+02  7.734786E+02  4.425734E+04 -7.056678E+02 -9.344543E+03
        95   6  1.411316E+05  7.552915E+02  1.438451E+03  4.708643E+04 -1.098011E+03 -6.674806E+03
        95   7 -1.068351E+04 -3.404165E+04 -1.905449E+04  4.686436E+04  6.131993E+03 -1.204948E+04
        95   8  2.365611E+04 -2.615042E+04 -1.427270E+04  4.425783E+04  5.630522E+03 -9.333225E+03
        95   9  5.811443E+04 -1.795181E+04 -9.095346E+03  4.731049E+04  5.128943E+03 -6.663482E+03
        95  10  2.929649E+05  3.447209E+04  1.991070E+04  4.731038E+04  3.564027E-08 -3.310922E-09
        95  11  2.585195E+05  2.683227E+04  1.581949E+04  4.425679E+04  5.475669E-09 -3.854444E-09
        95  12  2.241559E+05  1.946207E+04  1.197219E+04  4.686230E+04 -2.204180E-08  1.124135E-09
        95  13  1.411288E+05  2.156110E+02  4.279831E+02  4.708738E+04 -3.240988E-09  1.396432E-08
        95  14  1.410807E+05  3.411559E+02  7.733136E+02  4.425733E+04 -1.908963E-09  8.543948E-09
        95  15  1.411316E+05  7.552433E+02  1.438365E+03  4.708643E+04  1.276768E-09  3.407950E-10
        95  16 -1.068359E+04 -3.404182E+04 -1.905484E+04  4.686442E+04 -3.883337E-08 -3.203811E-09
        95  17  2.365606E+04 -2.615052E+04 -1.427292E+04  4.425787E+04 -8.513254E-09 -2.818269E-09
        95  18  5.811439E+04 -1.795186E+04 -9.095479E+03  4.731052E+04  2.079208E-08 -7.084532E-09
        95  19  2.929650E+05  3.447226E+04  1.991106E+04  4.731045E+04  6.760309E+03  1.207210E+04
        95  20  2.585196E+05  2.683237E+04  1.581975E+04  4.425685E+04  7.042997E+03  9.355860E+03
        95  21  2.241559E+05  1.946213E+04  1.197237E+04  4.686234E+04  7.325758E+03  6.686124E+03
        95  22  1.411289E+05  2.157672E+02  4.282567E+02  4.708738E+04  3.134084E+02  1.206079E+04
        95  23  1.410807E+05  3.412498E+02  7.734786E+02  4.425734E+04  7.056678E+02  9.344543E+03
        95  24  1.411316E+05  7.552915E+02  1.438451E+03  4.708643E+04  1.098011E+03  6.674806E+03
        95  25 -1.068351E+04 -3.404165E+04 -1.905449E+04  4.686436E+04 -6.131993E+03  1.204948E+04
        95  26  2.365611E+04 -2.615042E+04 -1.427270E+04  4.425783E+04 -5.630522E+03  9.333225E+03
        95  27  5.811443E+04 -1.795181E+04 -9.095346E+03  4.731049E+04 -5.128943E+03  6.663482E+03
        96   1  2.030453E+05  1.483083E+04  9.515589E+03  4.695017E+04 -7.555381E+03 -5.136024E+03
        96   2  1.682678E+05  8.542506E+03  6.341135E+03  4.192522E+04 -8.553029E+03 -2.675899E+03
        96   3  1.342553E+05  4.891338E+03  4.467591E+03  4.253048E+04 -9.550082E+03 -5.661976E+02
        96   4  1.413118E+05  9.700125E+02  1.928656E+03  4.708060E+04 -1.351340E+03 -5.124673E+03
        96   5  1.408583E+05  2.516791E+03  3.565398E+03  4.426025E+04 -3.173453E+03 -2.666046E+03
        96   6  1.413120E+05  6.844002E+03  7.075517E+03  4.707003E+04 -4.995028E+03 -5.578581E+02
        96   7  7.958230E+04 -1.289093E+04 -5.658134E+03  4.721101E+04  4.852115E+03 -5.113319E+03
        96   8  1.134497E+05 -3.508913E+03  7.897848E+02  4.659517E+04  2.205900E+03 -2.656152E+03
        96   9  1.483689E+05  8.796749E+03  9.683527E+03  5.160963E+04 -4.399196E+02 -5.494521E+02
        96  10  2.030452E+05  1.483078E+04  9.515433E+03  4.695014E+04 -3.732809E-09  1.290784E-09
        96  11  1.682678E+05  8.542478E+03  6.340984E+03  4.192520E+04 -2.148873E-09 -4.168420E-10
        96  12  1.342552E+05  4.891313E+03  4.467419E+03  4.253048E+04 -2.615982E-09 -3.130046E-10
        96  13  1.413118E+05  9.699838E+02  1.928603E+03  4.708059E+04 -9.768186E-10  2.430723E-09
        96  14  1.408583E+05  2.516780E+03  3.565366E+03  4.426024E+04  1.411181E-10 -4.811903E-09
        96  15  1.413120E+05  6.843995E+03  7.075470E+03  4.707003E+04 -4.630947E-12  1.374958E-09
        96  16  7.958226E+04 -1.289097E+04 -5.658228E+03  4.721103E+04  4.910114E-09 -1.391349E-09
        96  17  1.134496E+05 -3.508922E+03  7.897624E+02  4.659518E+04  1.063734E-09 -6.243944E-10
        96  18  1.483689E+05  8.796749E+03  9.683526E+03  5.160963E+04  4.353921E-10 -8.065643E-10
        96  19  2.030453E+05  1.483083E+04  9.515589E+03  4.695017E+04  7.555381E+03  5.136024E+03
        96  20  1.682678E+05  8.542506E+03  6.341135E+03  4.192522E+04  8.553029E+03  2.675899E+03
        96  21  1.342553E+05  4.891338E+03  4.467591E+03  4.253048E+04  9.550082E+03  5.661976E+02
        96  22  1.413118E+05  9.700125E+02  1.928656E+03  4.708060E+04  1.351340E+03  5.124673E+03
        96  23  1.408583E+05  2.516791E+03  3.565398E+03  4.426025E+04  3.173453E+03  2.666046E+03
        96  24  1.413120E+05  6.844002E+03  7.075517E+03  4.707003E+04  4.995028E+03  5.578581E+02
        96  25  7.958230E+04 -1.289093E+04 -5.658134E+03  4.721101E+04 -4.852115E+03  5.113319E+03
        96  26  1.134497E+05 -3.508913E+03  7.897848E+02  4.659517E+04 -2.205900E+03  2.656152E+03
        96  27  1.483689E+05  8.796749E+03  9.683527E+03  5.160963E+04  4.399196E+02  5.494521E+02
        97   1  6.252105E+03  3.904479E+05  7.818876E+03 -4.579155E+04 -7.479470E+02 -2.726890E+02
        97   2 -8.640620E+03  3.496821E+05 -2.263814E+03 -3.889150E+04 -3.416360E+03 -3.077865E+03
        97   3 -1.930805E+04  3.103202E+05 -9.470027E+03 -4.098356E+04 -6.239373E+03 -5.882953E+03
        97   4  7.084017E+03  3.944819E+05  7.995002E+03 -4.125786E+04 -7.519346E+02  4.148921E+03
        97   5  1.621664E+03  3.938032E+05  4.967792E+03 -3.676476E+04 -3.420517E+03  1.607113E+03
        97   6  3.389880E+02  3.944818E+05  4.634384E+03 -4.126359E+04 -6.243676E+03 -9.347641E+02
        97   7  7.916018E+03  3.985160E+05  8.171215E+03 -3.672414E+04 -7.558576E+02  8.570557E+03
        97   8  1.188388E+04  4.379263E+05  1.219943E+04 -3.463785E+04 -3.424643E+03  6.292413E+03
        97   9  1.998567E+04  4.786504E+05  1.873866E+04 -4.154366E+04 -6.247982E+03  4.014073E+03
        97  10  6.252104E+03  3.904479E+05  7.818874E+03 -4.579155E+04 -2.273643E-09 -4.308936E-09
        97  11 -8.640635E+03  3.496821E+05 -2.263854E+03 -3.889151E+04 -5.529294E-10 -7.144178E-09
        97  12 -1.930811E+04  3.103201E+05 -9.470165E+03 -4.098359E+04 -3.613670E-10 -8.538553E-09
        97  13  7.084012E+03  3.944819E+05  7.994969E+03 -4.125785E+04 -1.460252E-09 -9.501741E-10
        97  14  1.621651E+03  3.938032E+05  4.967765E+03 -3.676475E+04 -4.723026E-09 -1.787882E-11
        97  15  3.389459E+02  3.944818E+05  4.634309E+03 -4.126359E+04 -3.714421E-09 -2.225648E-10
        97  16  7.915997E+03  3.985159E+05  8.171076E+03 -3.672413E+04 -6.698676E-10  5.521676E-09
        97  17  1.188385E+04  4.379262E+05  1.219933E+04 -3.463784E+04 -1.717372E-09  4.982331E-09
        97  18  1.998563E+04  4.786504E+05  1.873856E+04 -4.154364E+04 -3.888451E-09  7.423917E-09
        97  19  6.252105E+03  3.904479E+05  7.818876E+03 -4.579155E+04  7.479470E+02  2.726890E+02
        97  20 -8.640620E+03  3.496821E+05 -2.263814E+03 -3.889150E+04  3.416360E+03  3.077865E+03
        97  21 -1.930805E+04  3.103202E+05 -9.470027E+03 -4.098356E+04  6.239373E+03  5.882953E+03
        97  22  7.084017E+03  3.944819E+05  7.995002E+03 -4.125786E+04  7.519346E+02 -4.148921E+03
        97  23  1.621664E+03  3.938032E+05  4.967792E+03 -3.676476E+04  3.420517E+03 -1.607113E+03
        97  24  3.389880E+02  3.944818E+05  4.634384E+03 -4.126359E+04  6.243676E+03  9.347641E+02
        97  25  7.916018E+03  3.985160E+05  8.171215E+03 -3.672414E+04  7.558576E+02 -8.570557E+03
        97  26  1.188388E+04  4.379263E+05  1.219943E+04 -3.463785E+04  3.424643E+03 -6.292413E+03
        97  27  1.998567E+04  4.786504E+05  1.873866E+04 -4.154366E+04  6.247982E+03 -4.014073E+03
        98   1 -2.540970E+04  2.841272E+05 -1.362885E+04 -4.172496E+04 -7.969460E+03 -6.729233E+03
        98   2 -3.471149E+04  2.436733E+05 -1.858820E+04 -3.643460E+04 -1.058292E+04 -9.255293E+03
        98   3 -4.233573E+04  2.039542E+05 -2.148827E+04 -4.011393E+04 -1.256568E+04 -1.178046E+04
        98   4  3.731849E+02  3.943834E+05  5.076623E+03 -4.125812E+04 -7.973711E+03 -1.733602E+03
        98   5  4.878492E+02  3.939212E+05  7.211096E+03 -3.677246E+04 -1.058599E+04 -5.335574E+03
        98   6  2.466531E+03  3.943785E+05  1.215119E+04 -4.125630E+04 -1.256765E+04 -8.936809E+03
        98   7  2.615545E+04  5.046516E+05  2.378180E+04 -4.079119E+04 -7.977953E+03  3.262888E+03
        98   8  3.568599E+04  5.441913E+05  3.300969E+04 -3.711041E+04 -1.058907E+04 -1.414937E+03
        98   9  4.726681E+04  5.848383E+05  4.578934E+04 -4.239903E+04 -1.256964E+04 -6.092314E+03
        98  10 -2.540978E+04  2.841272E+05 -1.362906E+04 -4.172500E+04 -1.845993E-09 -2.442338E-09
        98  11 -3.471163E+04  2.436732E+05 -1.858857E+04 -3.643468E+04 -1.667018E-09 -3.575041E-08
        98  12 -4.233594E+04  2.039540E+05 -2.148883E+04 -4.011405E+04 -3.135549E-09 -6.116715E-08
        98  13  3.731158E+02  3.943834E+05  5.076498E+03 -4.125813E+04 -6.091952E-11 -8.794696E-10
        98  14  4.877212E+02  3.939211E+05  7.210832E+03 -3.677251E+04  4.962779E-09 -2.838073E-11
        98  15  2.466340E+03  3.943784E+05  1.215074E+04 -4.125639E+04  1.487430E-08 -2.854326E-10
        98  16  2.615537E+04  5.046516E+05  2.378166E+04 -4.079117E+04 -3.760682E-09  3.837494E-09
        98  17  3.568587E+04  5.441912E+05  3.300947E+04 -3.711042E+04 -7.176740E-09  3.375254E-08
        98  18  4.726663E+04  5.848382E+05  4.578897E+04 -4.239909E+04 -3.637586E-09  5.989966E-08
        98  19 -2.540970E+04  2.841272E+05 -1.362885E+04 -4.172496E+04  7.969460E+03  6.729233E+03
        98  20 -3.471149E+04  2.436733E+05 -1.858820E+04 -3.643460E+04  1.058292E+04  9.255293E+03
        98  21 -4.233573E+04  2.039542E+05 -2.148827E+04 -4.011393E+04  1.256568E+04  1.178046E+04
        98  22  3.731849E+02  3.943834E+05  5.076623E+03 -4.125812E+04  7.973711E+03  1.733602E+03
        98  23  4.878492E+02  3.939212E+05  7.211096E+03 -3.677246E+04  1.058599E+04  5.335574E+03
        98  24  2.466531E+03  3.943785E+05  1.215119E+04 -4.125630E+04  1.256765E+04  8.936809E+03
        98  25  2.615545E+04  5.046516E+05  2.378180E+04 -4.079119E+04  7.977953E+03 -3.262888E+03
        98  26  3.568599E+04  5.441913E+05  3.300969E+04 -3.711041E+04  1.058907E+04  1.414937E+03
        98  27  4.726681E+04  5.848383E+05  4.578934E+04 -4.239903E+04  1.256964E+04  6.092314E+03
        99   1 -4.930087E+04  1.794177E+05 -2.298533E+04 -4.389078E+04 -1.394317E+04 -1.462090E+04
        99   2 -4.942183E+04  1.355880E+05 -2.191528E+04 -2.184883E+04 -1.247899E+04 -1.694906E+04
        99   3 -2.132971E+04  9.911068E+04 -1.227652E+04 -8.309075E+03 -3.846157E+03 -1.927235E+04
        99   4  1.794811E+03  3.962766E+05  1.572917E+04 -4.115708E+04 -1.394570E+04 -1.100847E+04
        99   5  1.180212E+04  3.915351E+05  2.820050E+04 -3.688768E+04 -1.247171E+04 -2.555825E+04
        99   6  5.213572E+04  3.962603E+05  5.772145E+04 -4.111930E+04 -3.830282E+03 -4.010343E+04
        99   7  5.288792E+04  6.131814E+05  5.444193E+04 -3.842239E+04 -1.394819E+04 -7.394816E+03
        99   8  7.302301E+04  6.475457E+05  7.831353E+04 -5.193285E+04 -1.246401E+04 -3.417092E+04
        99   9  1.255991E+05  6.934943E+05  1.277155E+05 -7.394529E+04 -3.812210E+03 -6.094442E+04
        99  10 -4.930113E+04  1.794174E+05 -2.298610E+04 -4.389094E+04 -4.771632E-09  5.537835E-08
        99  11 -4.942208E+04  1.355877E+05 -2.191611E+04 -2.184900E+04 -1.675338E-09  3.153190E-08
        99  12 -2.132983E+04  9.911028E+04 -1.227725E+04 -8.309135E+03 -1.626885E-09  1.878264E-09
        99  13  1.794570E+03  3.962764E+05  1.572857E+04 -4.115720E+04  1.460224E-08 -9.219999E-10
        99  14  1.180178E+04  3.915344E+05  2.819898E+04 -3.688794E+04  7.238882E-09 -1.402778E-10
        99  15  5.213527E+04  3.962585E+05  5.771840E+04 -4.111942E+04  5.060864E-09 -1.831560E-10
        99  16  5.288770E+04  6.131813E+05  5.444147E+04 -3.842247E+04 -2.587750E-09 -5.423218E-08
        99  17  7.302253E+04  6.475444E+05  7.831104E+04 -5.193320E+04 -2.184047E-09 -3.335118E-08
        99  18  1.255981E+05  6.934903E+05  1.277085E+05 -7.394548E+04 -1.299404E-09 -2.749363E-09
        99  19 -4.930087E+04  1.794177E+05 -2.298533E+04 -4.389078E+04  1.394317E+04  1.462090E+04
        99  20 -4.942183E+04  1.355880E+05 -2.191528E+04 -2.184883E+04  1.247899E+04  1.694906E+04
        99  21 -2.132971E+04  9.911068E+04 -1.227652E+04 -8.309075E+03  3.846157E+03  1.927235E+04
        99  22  1.794811E+03  3.962766E+05  1.572917E+04 -4.115708E+04  1.394570E+04  1.100847E+04
        99  23  1.180212E+04  3.915351E+05  2.820050E+04 -3.688768E+04  1.247171E+04  2.555825E+04
        99  24  5.213572E+04  3.962603E+05  5.772145E+04 -4.111930E+04  3.830282E+03  4.010343E+04
        99  25  5.288792E+04  6.131814E+05  5.444193E+04 -3.842239E+04  1.394819E+04  7.394816E+03
        99  26  7.302301E+04  6.475457E+05  7.831353E+04 -5.193285E+04  1.246401E+04  3.417092E+04
        99  27  1.255991E+05  6.934943E+05  1.277155E+05 -7.394529E+04  3.812210E+03  6.094442E+04
       100   1  8.617075E+05  3.052897E+05  1.494234E+05  3.224997E+05  5.890382E+04  1.197950E+04
       100   2  8.126372E+05  2.863010E+05  1.065110E+05  3.087654E+05  3.811994E+04 -2.023392E+04
       100   3  7.627254E+05  2.743876E+05  8.537735E+04  3.019327E+05  1.195171E+04 -3.811056E+04
       100   4  2.211481E+05  7.201974E+04 -1.124293E+04  1.534281E+05 -4.021243E+03 -1.168781E+04
       100   5  2.253012E+05  7.578013E+04 -5.397067E+03  1.484138E+05  6.808697E+03 -3.201649E+04
       100   6  2.223541E+05  8.035945E+04 -2.797454E+03  1.503011E+05  1.224782E+04 -3.800316E+04
       100   7 -4.189720E+05 -1.612143E+05 -1.719162E+05 -1.547777E+04 -6.687238E+04 -3.532894E+04
       100   8 -3.616593E+05 -1.347058E+05 -1.173113E+05 -1.179385E+04 -2.447007E+04 -4.378725E+04
       100   9 -3.177034E+05 -1.136383E+05 -9.097827E+04 -1.206617E+03  1.254364E+04 -3.789586E+04
       100  10  8.617038E+05  3.052886E+05  1.494166E+05  3.224991E+05  6.689390E-10  3.309472E-10
       100  11  8.126355E+05  2.863002E+05  1.065075E+05  3.087661E+05 -1.437566E-09 -1.039699E-10
       100  12  7.627249E+05  2.743860E+05  8.537436E+04  3.019331E+05 -7.550458E-10  3.646934E-10
       100  13  2.211481E+05  7.201959E+04 -1.124322E+04  1.534281E+05  1.403302E-09 -2.959675E-10
       100  14  2.253009E+05  7.577902E+04 -5.399080E+03  1.484140E+05  5.257469E-09 -1.566340E-09
       100  15  2.223536E+05  8.035786E+04 -2.800450E+03  1.503014E+05  1.170756E-08  3.218012E-10
       100  16 -4.189771E+05 -1.612169E+05 -1.719270E+05 -1.547967E+04 -1.146262E-09 -1.501467E-09
       100  17 -3.616605E+05 -1.347080E+05 -1.173160E+05 -1.179471E+04  5.110522E-09 -4.498857E-09
       100  18 -3.177039E+05 -1.136399E+05 -9.098127E+04 -1.206234E+03  1.026170E-08  2.503374E-09
       100  19  8.617075E+05  3.052897E+05  1.494234E+05  3.224997E+05 -5.890382E+04 -1.197950E+04
       100  20  8.126372E+05  2.863010E+05  1.065110E+05  3.087654E+05 -3.811994E+04  2.023392E+04
       100  21  7.627254E+05  2.743876E+05  8.537735E+04  3.019327E+05 -1.195171E+04  3.811056E+04
       100  22  2.211481E+05  7.201974E+04 -1.124293E+04  1.534281E+05  4.021243E+03  1.168781E+04
       100  23  2.253012E+05  7.578013E+04 -5.397067E+03  1.484138E+05 -6.808697E+03  3.201649E+04
       100  24  2.223541E+05  8.035945E+04 -2.797454E+03  1.503011E+05 -1.224782E+04  3.800316E+04
       100  25 -4.189720E+05 -1.612143E+05 -1.719162E+05 -1.547777E+04  6.687238E+04  3.532894E+04
       100  26 -3.616593E+05 -1.347058E+05 -1.173113E+05 -1.179385E+04  2.447007E+04  4.378725E+04
       100  27 -3.177034E+05 -1.136383E+05 -9.097827E+04 -1.206617E+03 -1.254364E+04  3.789586E+04
       101   1  7.327455E+05  2.633353E+05  7.874038E+04  2.935920E+05  1.209702E+04 -3.736418E+04
       101   2  6.883161E+05  2.434366E+05  6.822902E+04  2.772311E+05  8.597742E+03 -3.760452E+04
       101   3  6.385146E+05  2.298129E+05  6.013972E+04  2.676875E+05  4.468359E+03 -3.617204E+04
       101   4  2.224964E+05  8.079304E+04 -2.071434E+03  1.505176E+05  1.233459E+04 -3.727857E+04
       101   5  2.256034E+05  7.836438E+04 -1.073582E+03  1.469825E+05  1.252339E+04 -3.613017E+04
       101   6  2.226072E+05  8.148099E+04 -5.737181E+02  1.502644E+05  1.208164E+04 -3.330828E+04
       101   7 -2.874799E+05 -1.017249E+05 -8.288994E+04  7.551661E+03  1.257196E+04 -3.719303E+04
       101   8 -2.368804E+05 -8.668601E+04 -7.037954E+04  1.682447E+04  1.644598E+04 -3.465697E+04
       101   9 -1.931122E+05 -6.683191E+04 -6.128849E+04  3.291555E+04  1.968956E+04 -3.044654E+04
       101  10  7.327449E+05  2.633337E+05  7.873748E+04  2.935924E+05  1.227404E-08  4.408787E-09
       101  11  6.883156E+05  2.434350E+05  6.822623E+04  2.772313E+05  3.949725E-08  1.076457E-08
       101  12  6.385142E+05  2.298114E+05  6.013723E+04  2.676877E+05  6.644591E-08  1.785689E-08
       101  13  2.224959E+05  8.079151E+04 -2.074332E+03  1.505180E+05  1.248586E-08  3.480903E-09
       101  14  2.256029E+05  7.836293E+04 -1.076330E+03  1.469829E+05  9.455108E-09  8.008701E-09
       101  15  2.226067E+05  8.147976E+04 -5.760776E+02  1.502648E+05  7.368276E-09  1.717956E-08
       101  16 -2.874804E+05 -1.017264E+05 -8.289284E+04  7.552038E+03 -2.597468E-09 -1.639801E-09
       101  17 -2.368810E+05 -8.668737E+04 -7.038230E+04  1.682493E+04 -2.705918E-08 -1.333983E-08
       101  18 -1.931129E+05 -6.683301E+04 -6.129096E+04  3.291603E+04 -4.710554E-08 -1.860443E-08
       101  19  7.327455E+05  2.633353E+05  7.874038E+04  2.935920E+05 -1.209702E+04  3.736418E+04
       101  20  6.883161E+05  2.434366E+05  6.822902E+04  2.772311E+05 -8.597742E+03  3.760452E+04
       101  21  6.385146E+05  2.298129E+05  6.013972E+04  2.676875E+05 -4.468359E+03  3.617204E+04
       101  22  2.224964E+05  8.079304E+04 -2.071434E+03  1.505176E+05 -1.233459E+04  3.727857E+04
       101  23  2.256034E+05  7.836438E+04 -1.073582E+03  1.469825E+05 -1.252339E+04  3.613017E+04
       101  24  2.226072E+05  8.148099E+04 -5.737181E+02  1.502644E+05 -1.208164E+04  3.330828E+04
       101  25 -2.874799E+05 -1.017249E+05 -8.288994E+04  7.551661E+03 -1.257196E+04  3.719303E+04
       101  26 -2.368804E+05 -8.668601E+04 -7.037954E+04  1.682447E+04 -1.644598E+04  3.465697E+04
       101  27 -1.931122E+05 -6.683191E+04 -6.128849E+04  3.291555E+04 -1.968956E+04  3.044654E+04
       102   1  6.092086E+05  2.193076E+05  5.557302E+04  2.594454E+05  3.773635E+03 -3.406885E+04
       102   2  5.653032E+05  1.995932E+05  4.862004E+04  2.428130E+05  2.121403E+03 -3.064149E+04
       102   3  5.154703E+05  1.859327E+05  4.191885E+04  2.330210E+05  3.952492E+02 -2.701994E+04
       102   4  2.226229E+05  8.152376E+04 -4.258810E+02  1.502904E+05  1.137813E+04 -3.120772E+04
       102   5  2.256422E+05  7.857240E+04 -2.214800E+02  1.468610E+05  1.015387E+04 -2.761821E+04
       102   6  2.226460E+05  8.159023E+04 -1.048435E+02  1.502714E+05  8.855626E+03 -2.383442E+04
       102   7 -1.637950E+05 -5.624172E+04 -5.642434E+04  4.120094E+04  1.897755E+04 -2.834851E+04
       102   8 -1.138928E+05 -4.243557E+04 -4.906353E+04  5.095851E+04  1.818171E+04 -2.459666E+04
       102   9 -7.008835E+04 -2.274411E+04 -4.212986E+04  6.755762E+04  1.731191E+04 -2.065044E+04
       102  10  6.092083E+05  2.193064E+05  5.557081E+04  2.594455E+05 -5.431504E-08 -2.620050E-08
       102  11  5.653029E+05  1.995922E+05  4.861827E+04  2.428131E+05 -2.683549E-08 -1.328456E-08
       102  12  5.154701E+05  1.859319E+05  4.191748E+04  2.330210E+05 -4.853636E-10 -3.187673E-09
       102  13  2.226225E+05  8.152268E+04 -4.279547E+02  1.502907E+05  9.174151E-09  1.611943E-08
       102  14  2.256419E+05  7.857156E+04 -2.231073E+02  1.468612E+05  5.083655E-09  1.290350E-08
       102  15  2.226458E+05  8.158960E+04 -1.060586E+02  1.502715E+05 -7.574462E-10  6.366084E-09
       102  16 -1.637956E+05 -5.624268E+04 -5.642652E+04  4.120137E+04  7.995893E-08  2.973728E-08
       102  17 -1.138933E+05 -4.243631E+04 -4.906529E+04  5.095888E+04  4.372012E-08  2.333057E-08
       102  18 -7.008878E+04 -2.274465E+04 -4.213122E+04  6.755791E+04  3.041575E-09  7.290519E-09
       102  19  6.092086E+05  2.193076E+05  5.557302E+04  2.594454E+05 -3.773635E+03  3.406885E+04
       102  20  5.653032E+05  1.995932E+05  4.862004E+04  2.428130E+05 -2.121403E+03  3.064149E+04
       102  21  5.154703E+05  1.859327E+05  4.191885E+04  2.330210E+05 -3.952492E+02  2.701994E+04
       102  22  2.226229E+05  8.152376E+04 -4.258810E+02  1.502904E+05 -1.137813E+04  3.120772E+04
       102  23  2.256422E+05  7.857240E+04 -2.214800E+02  1.468610E+05 -1.015387E+04  2.761821E+04
       102  24  2.226460E+05  8.159023E+04 -1.048435E+02  1.502714E+05 -8.855626E+03  2.383442E+04
       102  25 -1.637950E+05 -5.624172E+04 -5.642434E+04  4.120094E+04 -1.897755E+04  2.834851E+04
       102  26 -1.138928E+05 -4.243557E+04 -4.906353E+04  5.095851E+04 -1.818171E+04  2.459666E+04
       102  27 -7.008835E+04 -2.274411E+04 -4.212986E+04  6.755762E+04 -1.731191E+04  2.065044E+04
       103   1  4.862701E+05  1.755003E+05  3.755425E+04  2.247876E+05 -4.325776E+02 -2.477284E+04
       103   2  4.424475E+05  1.558393E+05  3.097449E+04  2.081344E+05 -1.927975E+03 -2.094209E+04
       103   3  3.926325E+05  1.421918E+05  2.443177E+04  1.983250E+05 -3.431697E+03 -1.709059E+04
       103   4  2.226504E+05  8.159661E+04 -6.595230E+01  1.502734E+05  8.025420E+03 -2.158770E+04
       103   5  2.256567E+05  7.860098E+04  1.162632E+00  1.468511E+05  6.575499E+03 -1.773913E+04
       103   6  2.226591E+05  8.160940E+04  6.883781E+01  1.502716E+05  5.117256E+03 -1.386984E+04
       103   7 -4.089319E+04 -1.229929E+04 -3.768624E+04  7.578918E+04  1.647963E+04 -1.840398E+04
       103   8  8.918924E+03  1.368484E+03 -3.097173E+04  8.558850E+04  1.507579E+04 -1.453737E+04
       103   9  5.271966E+04  2.103116E+04 -2.429334E+04  1.022313E+05  1.366363E+04 -1.065005E+04
       103  10  4.862699E+05  1.754997E+05  3.755310E+04  2.247876E+05  4.849507E-08  1.920546E-08
       103  11  4.424473E+05  1.558389E+05  3.097366E+04  2.081344E+05  4.552746E-09  3.901880E-09
       103  12  3.926324E+05  1.421915E+05  2.443120E+04  1.983249E+05 -5.486213E-08 -2.967046E-08
       103  13  2.226502E+05  8.159609E+04 -6.694924E+01  1.502735E+05  2.447385E-09  4.547491E-09
       103  14  2.256566E+05  7.860063E+04  4.899464E-01  1.468512E+05  8.249376E-09  6.527400E-09
       103  15  2.226590E+05  8.160918E+04  6.842704E+01  1.502717E+05  4.587621E-09 -4.865714E-10
       103  16 -4.089358E+04 -1.229972E+04 -3.768739E+04  7.578943E+04 -4.134808E-08 -1.082203E-08
       103  17  8.918624E+03  1.368196E+03 -3.097256E+04  8.558867E+04  1.439948E-08  1.272213E-08
       103  18  5.271943E+04  2.103099E+04 -2.429391E+04  1.022314E+05  6.681209E-08  2.905084E-08
       103  19  4.862701E+05  1.755003E+05  3.755425E+04  2.247876E+05  4.325776E+02  2.477284E+04
       103  20  4.424475E+05  1.558393E+05  3.097449E+04  2.081344E+05  1.927975E+03  2.094209E+04
       103  21  3.926325E+05  1.421918E+05  2.443177E+04  1.983250E+05  3.431697E+03  1.709059E+04
       103  22  2.226504E+05  8.159661E+04 -6.595230E+01  1.502734E+05 -8.025420E+03  2.158770E+04
       103  23  2.256567E+05  7.860098E+04  1.162632E+00  1.468511E+05 -6.575499E+03  1.773913E+04
       103  24  2.226591E+05  8.160940E+04  6.883781E+01  1.502716E+05 -5.117256E+03  1.386984E+04
       103  25 -4.089319E+04 -1.229929E+04 -3.768624E+04  7.578918E+04 -1.647963E+04  1.840398E+04
       103  26  8.918924E+03  1.368484E+03 -3.097173E+04  8.558850E+04 -1.507579E+04  1.453737E+04
       103  27  5.271966E+04  2.103116E+04 -2.429334E+04  1.022313E+05 -1.366363E+04  1.065005E+04
       104   1  3.634559E+05  1.317677E+05  2.010238E+04  1.900966E+05 -4.296525E+03 -1.483677E+04
       104   2  3.196492E+05  1.121130E+05  1.361931E+04  1.734501E+05 -5.846653E+03 -1.099628E+04
       104   3  2.698524E+05  9.847035E+04  7.204736E+03  1.636476E+05 -7.393406E+03 -7.165325E+03
       104   4  2.226656E+05  8.161115E+04  1.088530E+02  1.502734E+05  4.251240E+03 -1.161618E+04
       104   5  2.256607E+05  7.860496E+04  2.239944E+02  1.468514E+05  2.679894E+03 -7.783356E+03
       104   6  2.226686E+05  8.161514E+04  4.245097E+02  1.502730E+05  1.111923E+03 -3.960092E+03
       104   7  8.189511E+04  3.145619E+04 -1.988500E+04  1.104583E+05  1.279708E+04 -8.396306E+03
       104   8  1.316814E+05  4.509770E+04 -1.317124E+04  1.202565E+05  1.120514E+04 -4.570921E+03
       104   9  1.754874E+05  6.476023E+04 -6.355428E+03  1.368994E+05  9.616576E+03 -7.551146E+02
       104  10  3.634559E+05  1.317674E+05  2.010194E+04  1.900966E+05 -2.028908E-07 -8.565922E-08
       104  11  3.196492E+05  1.121129E+05  1.361902E+04  1.734500E+05 -7.381230E-08 -3.080877E-08
       104  12  2.698523E+05  9.847028E+04  7.204537E+03  1.636476E+05  8.778774E-08  3.744629E-08
       104  13  2.226655E+05  8.161100E+04  1.085655E+02  1.502735E+05 -7.996573E-09 -9.835607E-09
       104  14  2.256607E+05  7.860489E+04  2.238670E+02  1.468514E+05 -2.162382E-08 -3.300728E-08
       104  15  2.226686E+05  8.161512E+04  4.244779E+02  1.502730E+05 -1.464044E-08 -3.404361E-08
       104  16  8.189491E+04  3.145607E+04 -1.988544E+04  1.104584E+05  1.892967E-07  7.949339E-08
       104  17  1.316812E+05  4.509764E+04 -1.317152E+04  1.202565E+05  2.745092E-08  1.583444E-08
       104  18  1.754873E+05  6.476021E+04 -6.355603E+03  1.368994E+05 -1.155720E-07 -4.244935E-08
       104  19  3.634559E+05  1.317677E+05  2.010238E+04  1.900966E+05  4.296525E+03  1.483677E+04
       104  20  3.196492E+05  1.121130E+05  1.361931E+04  1.734501E+05  5.846653E+03  1.099628E+04
       104  21  2.698524E+05  9.847035E+04  7.204736E+03  1.636476E+05  7.393406E+03  7.165325E+03
       104  22  2.226656E+05  8.161115E+04  1.088530E+02  1.502734E+05 -4.251240E+03  1.161618E+04
       104  23  2.256607E+05  7.860496E+04  2.239944E+02  1.468514E+05 -2.679894E+03  7.783356E+03
       104  24  2.226686E+05  8.161514E+04  4.245097E+02  1.502730E+05 -1.111923E+03  3.960092E+03
       104  25  8.189511E+04  3.145619E+04 -1.988500E+04  1.104583E+05 -1.279708E+04  8.396306E+03
       104  26  1.316814E+05  4.509770E+04 -1.317124E+04  1.202565E+05 -1.120514E+04  4.570921E+03
       104  27  1.754874E+05  6.476023E+04 -6.355428E+03  1.368994E+05 -9.616576E+03  7.551146E+02
       105   1  2.406857E+05  8.805572E+04  2.968991E+03  1.554405E+05 -8.322426E+03 -4.945151E+03
       105   2  1.968891E+05  6.838517E+04 -3.253360E+03  1.387508E+05 -1.005888E+04 -1.248241E+03
       105   3  1.471694E+05  5.481112E+04 -9.226842E+03  1.288858E+05 -1.175709E+04  2.347563E+03
       105   4  2.226887E+05  8.161512E+04  5.708831E+02  1.502792E+05  1.829489E+02 -1.739849E+03
       105   5  2.256415E+05  7.863381E+04  1.047333E+03  1.468336E+05 -1.776663E+03  1.872865E+03
       105   6  2.227126E+05  8.179268E+04  1.949060E+03  1.502117E+05 -3.698067E+03  5.384482E+03
       105   7  2.046924E+05  7.517470E+04 -1.826850E+03  1.451181E+05  8.687959E+03  1.465314E+03
       105   8  2.543950E+05  8.888259E+04  5.348311E+03  1.549169E+05  6.505958E+03  4.994122E+03
       105   9  2.982632E+05  1.087753E+05  1.312545E+04  1.715403E+05  4.362090E+03  8.421829E+03
       105  10  2.406856E+05  8.805568E+04  2.968815E+03  1.554405E+05  7.051480E-08  3.645640E-08
       105  11  1.968890E+05  6.838514E+04 -3.253553E+03  1.387508E+05  4.321475E-08  2.771665E-08
       105  12  1.471692E+05  5.481107E+04 -9.227112E+03  1.288858E+05  1.218472E-08  1.318875E-08
       105  13  2.226887E+05  8.161511E+04  5.708774E+02  1.502792E+05 -6.040098E-09 -3.127716E-08
       105  14  2.256415E+05  7.863380E+04  1.047321E+03  1.468336E+05 -5.395117E-09 -1.868132E-08
       105  15  2.227126E+05  8.179265E+04  1.948980E+03  1.502117E+05 -4.793748E-09 -3.667792E-09
       105  16  2.046923E+05  7.517467E+04 -1.826995E+03  1.451181E+05 -8.221515E-08 -2.983404E-08
       105  17  2.543949E+05  8.888255E+04  5.348185E+03  1.549168E+05 -5.486616E-08 -2.460913E-08
       105  18  2.982632E+05  1.087752E+05  1.312528E+04  1.715403E+05 -1.463264E-08 -7.995718E-09
       105  19  2.406857E+05  8.805572E+04  2.968991E+03  1.554405E+05  8.322426E+03  4.945151E+03
       105  20  1.968891E+05  6.838517E+04 -3.253360E+03  1.387508E+05  1.005888E+04  1.248241E+03
       105  21  1.471694E+05  5.481112E+04 -9.226842E+03  1.288858E+05  1.175709E+04 -2.347563E+03
       105  22  2.226887E+05  8.161512E+04  5.708831E+02  1.502792E+05 -1.829489E+02  1.739849E+03
       105  23  2.256415E+05  7.863381E+04  1.047333E+03  1.468336E+05  1.776663E+03 -1.872865E+03
       105  24  2.227126E+05  8.179268E+04  1.949060E+03  1.502117E+05  3.698067E+03 -5.384482E+03
       105  25  2.046924E+05  7.517470E+04 -1.826850E+03  1.451181E+05 -8.687959E+03 -1.465314E+03
       105  26  2.543950E+05  8.888259E+04  5.348311E+03  1.549169E+05 -6.505958E+03 -4.994122E+03
       105  27  2.982632E+05  1.087753E+05  1.312545E+04  1.715403E+05 -4.362090E+03 -8.421829E+03
       106   1  1.179891E+05  4.450714E+04 -1.310459E+04  1.207943E+05 -1.292306E+04  4.377509E+03
       106   2  7.477139E+04  2.465728E+04 -1.848314E+04  1.030721E+05 -1.467555E+04  7.401576E+03
       106   3  2.616845E+04  1.207518E+04 -2.310247E+04  9.180481E+04 -1.610053E+04  9.557245E+03
       106   4  2.228671E+05  8.185593E+04  2.613570E+03  1.502313E+05 -4.860478E+03  7.415623E+03
       106   5  2.255788E+05  7.950981E+04  4.851925E+03  1.464468E+05 -8.526643E+03  9.718150E+03
       106   6  2.232816E+05  8.480976E+04  9.365307E+03  1.491162E+05 -1.186537E+04  1.115239E+04
       106   7  3.277572E+05  1.192059E+05  1.833186E+04  1.796730E+05  3.203536E+03  1.045427E+04
       106   8  3.764098E+05  1.343646E+05  2.818652E+04  1.898313E+05 -2.376203E+03  1.203532E+04
       106   9  4.204338E+05  1.575479E+05  4.183155E+04  2.064441E+05 -7.628849E+03  1.274808E+04
       106  10  1.179889E+05  4.450707E+04 -1.310494E+04  1.207944E+05  4.251631E-09  5.547260E-09
       106  11  7.477115E+04  2.465716E+04 -1.848365E+04  1.030722E+05 -2.938787E-09  5.316454E-09
       106  12  2.616814E+04  1.207501E+04 -2.310313E+04  9.180494E+04 -1.121613E-10  5.064312E-09
       106  13  2.228671E+05  8.185587E+04  2.613423E+03  1.502314E+05 -5.265650E-09 -3.390296E-09
       106  14  2.255787E+05  7.950969E+04  4.851611E+03  1.464469E+05 -3.430353E-09  1.055092E-08
       106  15  2.232814E+05  8.480959E+04  9.364809E+03  1.491163E+05 -1.661273E-09 -3.078065E-09
       106  16  3.277571E+05  1.192058E+05  1.833164E+04  1.796730E+05 -5.470742E-09 -1.592688E-09
       106  17  3.764098E+05  1.343644E+05  2.818624E+04  1.898313E+05 -5.259899E-09  3.501928E-09
       106  18  4.204337E+05  1.575477E+05  4.183114E+04  2.064442E+05 -6.225124E-09 -2.145614E-09
       106  19  1.179891E+05  4.450714E+04 -1.310459E+04  1.207943E+05  1.292306E+04 -4.377509E+03
       106  20  7.477139E+04  2.465728E+04 -1.848314E+04  1.030721E+05  1.467555E+04 -7.401576E+03
       106  21  2.616845E+04  1.207518E+04 -2.310247E+04  9.180481E+04  1.610053E+04 -9.557245E+03
       106  22  2.228671E+05  8.185593E+04  2.613570E+03  1.502313E+05  4.860478E+03 -7.415623E+03
       106  23  2.255788E+05  7.950981E+04  4.851925E+03  1.464468E+05  8.526643E+03 -9.718150E+03
       106  24  2.232816E+05  8.480976E+04  9.365307E+03  1.491162E+05  1.186537E+04 -1.115239E+04
       106  25  3.277572E+05  1.192059E+05  1.833186E+04  1.796730E+05 -3.203536E+03 -1.045427E+04
       106  26  3.764098E+05  1.343646E+05  2.818652E+04  1.898313E+05  2.376203E+03 -1.203532E+04
       106  27  4.204338E+05  1.575479E+05  4.183155E+04  2.064441E+05  7.628849E+03 -1.274808E+04
       107   1 -3.010205E+03  3.199392E+03 -2.573480E+04  8.459598E+04 -1.808277E+04  1.041093E+04
       107   2 -3.736601E+04 -1.862707E+04 -2.948733E+04  5.268296E+04 -1.358890E+04  1.006956E+04
       107   3 -7.152167E+04 -1.846594E+04 -3.152962E+04  2.241340E+04 -6.294209E+03  2.288881E+03
       107   4  2.247511E+05  8.586610E+04  1.264705E+04  1.491189E+05 -1.381907E+04  1.201663E+04
       107   5  2.257001E+05  9.210593E+04  2.436860E+04  1.411923E+05 -2.570985E+04  5.502588E+03
       107   6  2.300906E+05  1.235736E+05  5.078165E+04  1.349099E+05 -3.480088E+04 -8.448923E+03
       107   7  4.525721E+05  1.685399E+05  5.102884E+04  2.136652E+05 -9.553622E+03  1.362299E+04
       107   8  4.888385E+05  2.028516E+05  7.822157E+04  2.297386E+05 -3.783625E+04  9.328376E+02
       107   9  5.317885E+05  2.656326E+05  1.330862E+05  2.474588E+05 -6.332193E+04 -1.919549E+04
       107  10 -3.010585E+03  3.199188E+03 -2.573562E+04  8.459613E+04  1.868846E-09  5.105946E-09
       107  11 -3.736624E+04 -1.862723E+04 -2.948787E+04  5.268307E+04 -1.294782E-10  6.469164E-09
       107  12 -7.152171E+04 -1.846596E+04 -3.152970E+04  2.241341E+04  3.146654E-09  1.241982E-09
       107  13  2.247509E+05  8.586590E+04  1.264642E+04  1.491190E+05 -2.970142E-09 -1.993741E-09
       107  14  2.256994E+05  9.210572E+04  2.436730E+04  1.411925E+05 -5.539560E-09  7.209063E-12
       107  15  2.300893E+05  1.235732E+05  5.077925E+04  1.349096E+05 -1.091490E-09  1.652908E-09
       107  16  4.525719E+05  1.685397E+05  5.102832E+04  2.136653E+05 -6.508113E-09 -5.125469E-09
       107  17  4.888370E+05  2.028512E+05  7.821888E+04  2.297386E+05 -5.748629E-09 -2.131622E-09
       107  18  5.317841E+05  2.656311E+05  1.330780E+05  2.474578E+05 -2.414872E-09 -2.600558E-09
       107  19 -3.010205E+03  3.199392E+03 -2.573480E+04  8.459598E+04  1.808277E+04 -1.041093E+04
       107  20 -3.736601E+04 -1.862707E+04 -2.948733E+04  5.268296E+04  1.358890E+04 -1.006956E+04
       107  21 -7.152167E+04 -1.846594E+04 -3.152962E+04  2.241340E+04  6.294209E+03 -2.288881E+03
       107  22  2.247511E+05  8.586610E+04  1.264705E+04  1.491189E+05  1.381907E+04 -1.201663E+04
       107  23  2.257001E+05  9.210593E+04  2.436860E+04  1.411923E+05  2.570985E+04 -5.502588E+03
       107  24  2.300906E+05  1.235736E+05  5.078165E+04  1.349099E+05  3.480088E+04  8.448923E+03
       107  25  4.525721E+05  1.685399E+05  5.102884E+04  2.136652E+05  9.553622E+03 -1.362299E+04
       107  26  4.888385E+05  2.028516E+05  7.822157E+04  2.297386E+05  3.783625E+04 -9.328376E+02
       107  27  5.317885E+05  2.656326E+05  1.330862E+05  2.474588E+05  6.332193E+04  1.919549E+04
       108   1 -2.255619E+05 -1.011958E+06 -2.505696E+05  8.771770E+04 -4.785927E+03 -9.662688E+04
       108   2 -8.473625E+04 -9.045798E+05 -1.529390E+05  3.324378E+04 -1.403003E+04 -5.678299E+04
       108   3 -6.963112E+04 -8.335097E+05 -1.126547E+05  3.425327E+04 -1.119225E+04 -1.691413E+04
       108   4 -1.057766E+05 -5.323365E+05 -1.324506E+05  4.893280E+04 -4.794443E+03 -8.754439E+04
       108   5  1.172770E+04 -5.147977E+05 -6.091560E+04  2.127599E+04 -1.403107E+04 -5.491898E+04
       108   6  4.808068E+03 -5.322941E+05 -4.168060E+04  4.910560E+04 -1.118572E+04 -2.227481E+04
       108   7  1.399732E+04 -5.250247E+04 -1.434753E+04  1.011792E+04 -4.804094E+03 -7.845486E+04
       108   8  1.081813E+05 -1.248755E+05  3.109733E+04  9.300685E+03 -1.403218E+04 -5.305379E+04
       108   9  7.924163E+04 -2.309943E+05  2.928744E+04  6.396521E+04 -1.117945E+04 -2.763807E+04
       108  10 -2.255645E+05 -1.011968E+06 -2.505872E+05  8.771733E+04  2.114528E-09  2.947206E-09
       108  11 -8.473733E+04 -9.045833E+05 -1.529454E+05  3.324313E+04  2.026353E-09 -7.205945E-10
       108  12 -6.963133E+04 -8.335100E+05 -1.126554E+05  3.425312E+04 -1.005411E-09 -4.550081E-09
       108  13 -1.057786E+05 -5.323448E+05 -1.324651E+05  4.893246E+04  2.660576E-09  1.131026E-09
       108  14  1.172668E+04 -5.148010E+05 -6.092164E+04  2.127537E+04  5.454233E-09 -1.114002E-09
       108  15  4.807801E+03 -5.322946E+05 -4.168177E+04  4.910540E+04  5.275232E-11  1.510649E-09
       108  16  1.399564E+04 -5.250908E+04 -1.435914E+04  1.011761E+04  2.279132E-09 -3.262656E-09
       108  17  1.081803E+05 -1.248786E+05  3.109167E+04  9.300085E+03  2.807490E-09  4.972382E-10
       108  18  7.924129E+04 -2.309952E+05  2.928577E+04  6.396496E+04 -6.272504E-10  2.623818E-09
       108  19 -2.255619E+05 -1.011958E+06 -2.505696E+05  8.771770E+04  4.785927E+03  9.662688E+04
       108  20 -8.473625E+04 -9.045798E+05 -1.529390E+05  3.324378E+04  1.403003E+04  5.678299E+04
       108  21 -6.963112E+04 -8.335097E+05 -1.126547E+05  3.425327E+04  1.119225E+04  1.691413E+04
       108  22 -1.057766E+05 -5.323365E+05 -1.324506E+05  4.893280E+04  4.794443E+03  8.754439E+04
       108  23  1.172770E+04 -5.147977E+05 -6.091560E+04  2.127599E+04  1.403107E+04  5.491898E+04
       108  24  4.808068E+03 -5.322941E+05 -4.168060E+04  4.910560E+04  1.118572E+04  2.227481E+04
       108  25  1.399732E+04 -5.250247E+04 -1.434753E+04  1.011792E+04  4.804094E+03  7.845486E+04
       108  26  1.081813E+05 -1.248755E+05  3.109733E+04  9.300685E+03  1.403218E+04  5.305379E+04
       108  27  7.924163E+04 -2.309943E+05  2.928744E+04  6.396521E+04  1.117945E+04  2.763807E+04
       109   1 -5.887897E+04 -7.266849E+05 -8.419308E+04  5.381025E+04 -7.225040E+03 -1.383126E+04
       109   2 -2.528690E+04 -6.334450E+05 -5.478435E+04  2.125061E+04 -4.082567E+03  9.384460E+02
       109   3 -1.379571E+04 -5.474732E+05 -4.048731E+04  4.492446E+04 -6.313649E+02  1.570988E+04
       109   4 -9.252316E+03 -5.261105E+05 -3.683883E+04  4.921681E+04 -7.222706E+03 -1.563573E+04
       109   5  2.152028E+03 -5.224869E+05 -2.862074E+04  2.110072E+04 -4.080296E+03 -1.047958E+03
       109   6 -8.510033E+03 -5.261056E+05 -3.538487E+04  4.921815E+04 -6.289986E+02  1.353945E+04
       109   7  4.037154E+04 -3.254991E+05  1.051267E+04  4.462188E+04 -7.220345E+03 -1.744078E+04
       109   8  2.959007E+04 -4.115175E+05 -2.457967E+03  2.095081E+04 -4.078025E+03 -3.034715E+03
       109   9 -3.224318E+03 -5.047376E+05 -3.028243E+04  5.351199E+04 -6.266625E+02  1.136895E+04
       109  10 -5.887908E+04 -7.266851E+05 -8.419354E+04  5.381017E+04  2.552579E-10  2.452885E-09
       109  11 -2.528691E+04 -6.334450E+05 -5.478438E+04  2.125061E+04  3.364864E-09 -3.929061E-09
       109  12 -1.379578E+04 -5.474734E+05 -4.048777E+04  4.492447E+04  1.544104E-10 -9.648291E-09
       109  13 -9.252438E+03 -5.261108E+05 -3.683938E+04  4.921672E+04 -1.054525E-10 -1.338208E-13
       109  14  2.152010E+03 -5.224869E+05 -2.862077E+04  2.110072E+04  2.866551E-09 -9.038312E-10
       109  15 -8.510083E+03 -5.261058E+05 -3.538521E+04  4.921816E+04 -2.816216E-09  9.587003E-10
       109  16  4.037140E+04 -3.254994E+05  1.051200E+04  4.462178E+04 -2.428469E-09 -2.919111E-09
       109  17  2.959005E+04 -4.115175E+05 -2.458015E+03  2.095080E+04 -1.813892E-09  2.813846E-09
       109  18 -3.224353E+03 -5.047378E+05 -3.028267E+04  5.351199E+04 -4.099277E-10  7.161452E-09
       109  19 -5.887897E+04 -7.266849E+05 -8.419308E+04  5.381025E+04  7.225040E+03  1.383126E+04
       109  20 -2.528690E+04 -6.334450E+05 -5.478435E+04  2.125061E+04  4.082567E+03 -9.384460E+02
       109  21 -1.379571E+04 -5.474732E+05 -4.048731E+04  4.492446E+04  6.313649E+02 -1.570988E+04
       109  22 -9.252316E+03 -5.261105E+05 -3.683883E+04  4.921681E+04  7.222706E+03  1.563573E+04
       109  23  2.152028E+03 -5.224869E+05 -2.862074E+04  2.110072E+04  4.080296E+03  1.047958E+03
       109  24 -8.510033E+03 -5.261056E+05 -3.538487E+04  4.921815E+04  6.289986E+02 -1.353945E+04
       109  25  4.037154E+04 -3.254991E+05  1.051267E+04  4.462188E+04  7.220345E+03  1.744078E+04
       109  26  2.959007E+04 -4.115175E+05 -2.457967E+03  2.095081E+04  4.078025E+03  3.034715E+03
       109  27 -3.224318E+03 -5.047376E+05 -3.028243E+04  5.351199E+04  6.266625E+02 -1.136895E+04
       110   1  2.398637E+04 -4.523215E+05 -2.080743E+04  6.321456E+04  2.712434E+03  2.398595E+04
       110   2  5.269081E+04 -3.467521E+05 -1.716422E+04  1.028506E+04  6.007620E+03  5.031466E+04
       110   3 -3.363340E+04 -2.731665E+05 -5.938106E+04  1.327761E+04  2.289184E+03  7.663890E+04
       110   4  4.365181E+03 -5.317667E+05 -3.960312E+04  4.919005E+04  2.716209E+03  1.988638E+04
       110   5  1.094767E+04 -5.154152E+05 -5.698765E+04  2.116474E+04  6.008488E+03  5.041277E+04
       110   6 -9.824749E+04 -5.317981E+05 -1.231598E+05  4.906488E+04  2.288409E+03  8.093071E+04
       110   7 -1.525571E+04 -6.112057E+05 -5.839908E+04  3.516735E+04  2.720170E+03  1.578734E+04
       110   8 -3.079707E+04 -6.840520E+05 -9.681298E+04  3.204145E+04  6.009360E+03  5.051085E+04
       110   9 -1.628618E+05 -7.903661E+05 -1.869428E+05  8.483723E+04  2.288129E+03  8.522073E+04
       110  10  2.398621E+04 -4.523221E+05 -2.080853E+04  6.321450E+04 -1.553643E-09  6.635372E-09
       110  11  5.269009E+04 -3.467548E+05 -1.716904E+04  1.028482E+04  2.922379E-09  3.661087E-09
       110  12 -3.363499E+04 -2.731729E+05 -5.939211E+04  1.327746E+04  1.080730E-09 -1.706855E-09
       110  13  4.365066E+03 -5.317671E+05 -3.960388E+04  4.919000E+04  9.918577E-10  3.403706E-11
       110  14  1.094695E+04 -5.154180E+05 -5.699249E+04  2.116450E+04 -1.703284E-09 -1.234430E-09
       110  15 -9.824925E+04 -5.318052E+05 -1.231722E+05  4.906473E+04  5.090286E-10  2.803009E-10
       110  16 -1.525578E+04 -6.112059E+05 -5.839957E+04  3.516731E+04 -8.693855E-10 -7.314200E-09
       110  17 -3.079779E+04 -6.840547E+05 -9.681785E+04  3.204121E+04  1.497355E-09 -3.554542E-09
       110  18 -1.628637E+05 -7.903739E+05 -1.869565E+05  8.483707E+04  4.437737E-10 -3.910712E-10
       110  19  2.398637E+04 -4.523215E+05 -2.080743E+04  6.321456E+04 -2.712434E+03 -2.398595E+04
       110  20  5.269081E+04 -3.467521E+05 -1.716422E+04  1.028506E+04 -6.007620E+03 -5.031466E+04
       110  21 -3.363340E+04 -2.731665E+05 -5.938106E+04  1.327761E+04 -2.289184E+03 -7.663890E+04
       110  22  4.365181E+03 -5.317667E+05 -3.960312E+04  4.919005E+04 -2.716209E+03 -1.988638E+04
       110  23  1.094767E+04 -5.154152E+05 -5.698765E+04  2.116474E+04 -6.008488E+03 -5.041277E+04
       110  24 -9.824749E+04 -5.317981E+05 -1.231598E+05  4.906488E+04 -2.288409E+03 -8.093071E+04
       110  25 -1.525571E+04 -6.112057E+05 -5.839908E+04  3.516735E+04 -2.720170E+03 -1.578734E+04
       110  26 -3.079707E+04 -6.840520E+05 -9.681298E+04  3.204145E+04 -6.009360E+03 -5.051085E+04
       110  27 -1.628618E+05 -7.903661E+05 -1.869428E+05  8.483723E+04 -2.288129E+03 -8.522073E+04
       111   1  5.743659E+05  1.994789E+05  1.214887E+05  2.095107E+05  5.386549E+04  1.797015E+04
       111   2  5.547719E+05  1.177946E+05  7.072638E+04  2.082631E+05  3.483337E+04  6.036222E+03
       111   3  5.556784E+05  1.076935E+05  5.306876E+04  1.979454E+05  1.411777E+04 -1.431032E+03
       111   4  4.245655E+05  1.212761E+05  7.686615E+04  1.463576E+05  4.968505E+04  1.639145E+04
       111   5  4.105113E+05  5.695812E+04  3.261859E+04  1.617617E+05  3.356958E+04  5.559017E+03
       111   6  4.163858E+05  6.365420E+04  1.917120E+04  1.680942E+05  1.576999E+04 -8.076562E+02
       111   7  2.747899E+05  4.308243E+04  3.224210E+04  8.322106E+04  4.550576E+04  1.481356E+04
       111   8  2.662716E+05 -3.875220E+03 -5.490859E+03  1.152708E+05  3.230612E+04  5.081968E+03
       111   9  2.771113E+05  1.961466E+04 -1.472794E+04  1.382483E+05  1.742182E+04 -1.843759E+02
       111  10  5.743627E+05  1.994778E+05  1.214826E+05  2.095100E+05 -9.110195E-11  1.991766E-09
       111  11  5.547706E+05  1.177942E+05  7.072403E+04  2.082629E+05 -2.541098E-09  1.155879E-09
       111  12  5.556782E+05  1.076935E+05  5.306839E+04  1.979454E+05 -2.284734E-09  1.773217E-09
       111  13  4.245628E+05  1.212751E+05  7.686101E+04  1.463570E+05 -6.378300E-10 -3.587478E-09
       111  14  4.105101E+05  5.695779E+04  3.261641E+04  1.617615E+05 -2.443240E-09  3.665267E-09
       111  15  4.163855E+05  6.365413E+04  1.917073E+04  1.680942E+05  2.130751E-09 -6.542304E-10
       111  16  2.747876E+05  4.308163E+04  3.223780E+04  8.322052E+04 -2.723537E-09 -1.225038E-09
       111  17  2.662705E+05 -3.875528E+03 -5.492868E+03  1.152706E+05 -2.625914E-09 -5.359673E-09
       111  18  2.771110E+05  1.961458E+04 -1.472851E+04  1.382483E+05 -2.201096E-11 -3.677288E-09
       111  19  5.743659E+05  1.994789E+05  1.214887E+05  2.095107E+05 -5.386549E+04 -1.797015E+04
       111  20  5.547719E+05  1.177946E+05  7.072638E+04  2.082631E+05 -3.483337E+04 -6.036222E+03
       111  21  5.556784E+05  1.076935E+05  5.306876E+04  1.979454E+05 -1.411777E+04  1.431032E+03
       111  22  4.245655E+05  1.212761E+05  7.686615E+04  1.463576E+05 -4.968505E+04 -1.639145E+04
       111  23  4.105113E+05  5.695812E+04  3.261859E+04  1.617617E+05 -3.356958E+04 -5.559017E+03
       111  24  4.163858E+05  6.365420E+04  1.917120E+04  1.680942E+05 -1.576999E+04  8.076562E+02
       111  25  2.747899E+05  4.308243E+04  3.224210E+04  8.322106E+04 -4.550576E+04 -1.481356E+04
       111  26  2.662716E+05 -3.875220E+03 -5.490859E+03  1.152708E+05 -3.230612E+04 -5.081968E+03
       111  27  2.771113E+05  1.961466E+04 -1.472794E+04  1.382483E+05 -1.742182E+04  1.843759E+02
       112   1  5.294830E+05  1.156690E+05  4.524533E+04  1.972761E+05  1.251706E+04 -8.504784E+02
       112   2  5.161738E+05  1.003624E+05  3.337288E+04  1.897298E+05  8.219324E+03 -1.863105E+03
       112   3  4.987991E+05  9.727697E+04  2.605225E+04  1.884773E+05  3.829671E+03 -2.632037E+03
       112   4  4.139095E+05  7.072066E+04  1.542515E+04  1.639124E+05  1.278377E+04 -7.499646E+02
       112   5  4.156163E+05  6.221746E+04  7.666416E+03  1.616748E+05  8.645662E+03 -1.702297E+03
       112   6  4.132264E+05  6.590436E+04  4.333719E+03  1.657308E+05  4.415526E+03 -2.410973E+03
       112   7  2.983490E+05  2.577348E+04 -1.439613E+04  1.305545E+05  1.305043E+04 -6.494731E+02
       112   8  3.150690E+05  2.407332E+04 -1.804082E+04  1.336240E+05  9.071924E+03 -1.541519E+03
       112   9  3.276610E+05  3.453227E+04 -1.738531E+04  1.429873E+05  5.001291E+03 -2.189942E+03
       112  10  5.294828E+05  1.156689E+05  4.524504E+04  1.972761E+05 -1.132024E-09  8.254477E-10
       112  11  5.161737E+05  1.003624E+05  3.337275E+04  1.897298E+05  3.633606E-09  5.232702E-09
       112  12  4.987991E+05  9.727696E+04  2.605221E+04  1.884773E+05  4.320843E-09  1.021905E-08
       112  13  4.139093E+05  7.072062E+04  1.542485E+04  1.639125E+05  1.215125E-09 -1.425360E-09
       112  14  4.156163E+05  6.221744E+04  7.666270E+03  1.616748E+05  2.117671E-11 -5.968905E-09
       112  15  4.132263E+05  6.590435E+04  4.333671E+03  1.657308E+05  7.561722E-10  7.637289E-10
       112  16  2.983488E+05  2.577344E+04 -1.439645E+04  1.305545E+05  7.023645E-10 -2.820252E-09
       112  17  3.150689E+05  2.407329E+04 -1.804098E+04  1.336240E+05 -4.434704E-09 -8.109905E-09
       112  18  3.276610E+05  3.453226E+04 -1.738537E+04  1.429873E+05 -5.932245E-09  6.037203E-09
       112  19  5.294830E+05  1.156690E+05  4.524533E+04  1.972761E+05 -1.251706E+04  8.504784E+02
       112  20  5.161738E+05  1.003624E+05  3.337288E+04  1.897298E+05 -8.219324E+03  1.863105E+03
       112  21  4.987991E+05  9.727697E+04  2.605225E+04  1.884773E+05 -3.829671E+03  2.632037E+03
       112  22  4.139095E+05  7.072066E+04  1.542515E+04  1.639124E+05 -1.278377E+04  7.499646E+02
       112  23  4.156163E+05  6.221746E+04  7.666416E+03  1.616748E+05 -8.645662E+03  1.702297E+03
       112  24  4.132264E+05  6.590436E+04  4.333719E+03  1.657308E+05 -4.415526E+03  2.410973E+03
       112  25  2.983490E+05  2.577348E+04 -1.439613E+04  1.305545E+05 -1.305043E+04  6.494731E+02
       112  26  3.150690E+05  2.407332E+04 -1.804082E+04  1.336240E+05 -9.071924E+03  1.541519E+03
       112  27  3.276610E+05  3.453227E+04 -1.738531E+04  1.429873E+05 -5.001291E+03  2.189942E+03
       113   1  4.815201E+05  9.226259E+04  2.077349E+04  1.842752E+05  3.103624E+03 -2.336638E+03
       113   2  4.689863E+05  8.256134E+04  1.526621E+04  1.762294E+05  1.897402E+03 -1.893527E+03
       113   3  4.501074E+05  7.997802E+04  1.056188E+04  1.756450E+05  6.865074E+02 -1.438235E+03
       113   4  4.129679E+05  6.646855E+04  3.340749E+03  1.653523E+05  3.612263E+03 -2.144694E+03
       113   5  4.161139E+05  6.271624E+04  1.791449E+03  1.616950E+05  2.414091E+03 -1.698517E+03
       113   6  4.129133E+05  6.608044E+04  1.038901E+03  1.654991E+05  1.211223E+03 -1.240166E+03
       113   7  3.444201E+05  4.067473E+04 -1.409245E+04  1.464312E+05  4.120842E+03 -1.952772E+03
       113   8  3.632441E+05  4.287129E+04 -1.168357E+04  1.471616E+05  2.930732E+03 -1.503524E+03
       113   9  3.757205E+05  5.218296E+04 -8.484188E+03  1.553536E+05  1.735904E+03 -1.042110E+03
       113  10  4.815201E+05  9.226259E+04  2.077347E+04  1.842752E+05 -1.305290E-09  2.183076E-09
       113  11  4.689863E+05  8.256133E+04  1.526620E+04  1.762294E+05 -3.309622E-09 -1.661474E-09
       113  12  4.501074E+05  7.997801E+04  1.056187E+04  1.756450E+05  8.137202E-10 -4.373240E-09
       113  13  4.129679E+05  6.646854E+04  3.340715E+03  1.653523E+05  1.986285E-09  3.069213E-09
       113  14  4.161139E+05  6.271624E+04  1.791432E+03  1.616950E+05  4.926639E-09  2.262860E-09
       113  15  4.129133E+05  6.608044E+04  1.038895E+03  1.654991E+05  1.088862E-09 -8.510485E-09
       113  16  3.444200E+05  4.067472E+04 -1.409249E+04  1.464312E+05  2.172063E-09  3.006077E-09
       113  17  3.632441E+05  4.287128E+04 -1.168359E+04  1.471616E+05  1.416077E-09 -2.138662E-10
       113  18  3.757205E+05  5.218295E+04 -8.484195E+03  1.553536E+05  2.489780E-09  2.715349E-09
       113  19  4.815201E+05  9.226259E+04  2.077349E+04  1.842752E+05 -3.103624E+03  2.336638E+03
       113  20  4.689863E+05  8.256134E+04  1.526621E+04  1.762294E+05 -1.897402E+03  1.893527E+03
       113  21  4.501074E+05  7.997802E+04  1.056188E+04  1.756450E+05 -6.865074E+02  1.438235E+03
       113  22  4.129679E+05  6.646855E+04  3.340749E+03  1.653523E+05 -3.612263E+03  2.144694E+03
       113  23  4.161139E+05  6.271624E+04  1.791449E+03  1.616950E+05 -2.414091E+03  1.698517E+03
       113  24  4.129133E+05  6.608044E+04  1.038901E+03  1.654991E+05 -1.211223E+03  1.240166E+03
       113  25  3.444201E+05  4.067473E+04 -1.409245E+04  1.464312E+05 -4.120842E+03  1.952772E+03
       113  26  3.632441E+05  4.287129E+04 -1.168357E+04  1.471616E+05 -2.930732E+03  1.503524E+03
       113  27  3.757205E+05  5.218296E+04 -8.484188E+03  1.553536E+05 -1.735904E+03  1.042110E+03
       114   1  4.336903E+05  7.391504E+04  6.065681E+03  1.711810E+05  3.618493E+02 -1.027471E+03
       114   2  4.212804E+05  6.468533E+04  1.854241E+03  1.631052E+05 -2.151937E+02 -3.335182E+02
       114   3  4.022987E+05  6.212797E+04 -2.140537E+03  1.625551E+05 -7.924419E+02  3.610078E+02
       114   4  4.128830E+05  6.611926E+04  8.213291E+02  1.654615E+05  8.820461E+02 -8.310986E+02
       114   5  4.161672E+05  6.277006E+04  5.518343E+02  1.617037E+05  3.053775E+02 -1.370037E+02
       114   6  4.128794E+05  6.609314E+04  4.987325E+02  1.654714E+05 -2.715059E+02  5.576641E+02
       114   7  3.920762E+05  5.832354E+04 -4.423034E+03  1.597422E+05  1.402222E+03 -6.347345E+02
       114   8  4.110541E+05  6.085479E+04 -7.505734E+02  1.603022E+05  8.259439E+02  5.950907E+01
       114   9  4.234602E+05  7.005833E+04  3.138005E+03  1.683877E+05  2.494418E+02  7.543248E+02
       114  10  4.336903E+05  7.391504E+04  6.065678E+03  1.711810E+05 -9.109691E-10 -2.548451E-09
       114  11  4.212804E+05  6.468533E+04  1.854241E+03  1.631052E+05  4.198260E-09  3.561808E-09
       114  12  4.022987E+05  6.212797E+04 -2.140538E+03  1.625551E+05  5.575426E-09  1.097624E-09
       114  13  4.128830E+05  6.611926E+04  8.213263E+02  1.654615E+05  3.709358E-09 -2.758085E-09
       114  14  4.161672E+05  6.277006E+04  5.518341E+02  1.617037E+05 -2.687296E-10  1.926885E-09
       114  15  4.128794E+05  6.609314E+04  4.987318E+02  1.654714E+05  1.410201E-09 -1.170572E-09
       114  16  3.920762E+05  5.832353E+04 -4.423039E+03  1.597422E+05  4.216261E-09  4.522312E-09
       114  17  4.110541E+05  6.085479E+04 -7.505747E+02  1.603022E+05 -2.253470E-09 -4.026765E-09
       114  18  4.234602E+05  7.005833E+04  3.138004E+03  1.683877E+05 -2.417773E-09 -3.330215E-11
       114  19  4.336903E+05  7.391504E+04  6.065681E+03  1.711810E+05 -3.618493E+02  1.027471E+03
       114  20  4.212804E+05  6.468533E+04  1.854241E+03  1.631052E+05  2.151937E+02  3.335182E+02
       114  21  4.022987E+05  6.212797E+04 -2.140537E+03  1.625551E+05  7.924419E+02 -3.610078E+02
       114  22  4.128830E+05  6.611926E+04  8.213291E+02  1.654615E+05 -8.820461E+02  8.310986E+02
       114  23  4.161672E+05  6.277006E+04  5.518343E+02  1.617037E+05 -3.053775E+02  1.370037E+02
       114  24  4.128794E+05  6.609314E+04  4.987325E+02  1.654714E+05  2.715059E+02 -5.576641E+02
       114  25  3.920762E+05  5.832354E+04 -4.423034E+03  1.597422E+05 -1.402222E+03  6.347345E+02
       114  26  4.110541E+05  6.085479E+04 -7.505734E+02  1.603022E+05 -8.259439E+02 -5.950907E+01
       114  27  4.234602E+05  7.005833E+04  3.138005E+03  1.683877E+05 -2.494418E+02 -7.543248E+02
       115   1  3.859621E+05  5.599007E+04 -6.380536E+03  1.580907E+05 -1.054087E+03  7.936089E+02
       115   2  3.735265E+05  4.676867E+04 -1.010375E+04  1.499896E+05 -1.735935E+03  1.449572E+03
       115   3  3.545346E+05  4.425589E+04 -1.352555E+04  1.494254E+05 -2.417774E+03  2.105788E+03
       115   4  4.128816E+05  6.609423E+04  5.362129E+02  1.654764E+05 -5.329047E+02  9.903524E+02
       115   5  4.161629E+05  6.276225E+04  7.608810E+02  1.616996E+05 -1.214637E+03  1.646337E+03
       115   6  4.128876E+05  6.613879E+04  1.286850E+03  1.654595E+05 -1.896370E+03  2.302570E+03
       115   7  4.398018E+05  7.619842E+04  7.452903E+03  1.728625E+05 -1.169764E+01  1.187105E+03
       115   8  4.588011E+05  7.875592E+04  1.162535E+04  1.734103E+05 -6.933012E+02  1.843115E+03
       115   9  4.712438E+05  8.802183E+04  1.609891E+04  1.814949E+05 -1.374915E+03  2.499371E+03
       115  10  3.859621E+05  5.599007E+04 -6.380540E+03  1.580907E+05 -1.533758E-09 -1.635653E-09
       115  11  3.735265E+05  4.676867E+04 -1.010376E+04  1.499896E+05 -3.934598E-09  6.453215E-09
       115  12  3.545346E+05  4.425589E+04 -1.352557E+04  1.494254E+05  3.015412E-10  7.198834E-10
       115  13  4.128816E+05  6.609422E+04  5.362105E+02  1.654764E+05  1.394231E-09  1.267811E-09
       115  14  4.161629E+05  6.276225E+04  7.608732E+02  1.616996E+05 -1.271642E-09 -1.754203E-09
       115  15  4.128876E+05  6.613878E+04  1.286834E+03  1.654595E+05 -3.691699E-10 -1.739763E-09
       115  16  4.398018E+05  7.619842E+04  7.452900E+03  1.728625E+05  2.666197E-09  8.238164E-09
       115  17  4.588011E+05  7.875592E+04  1.162534E+04  1.734103E+05  2.899614E-09 -3.553569E-09
       115  18  4.712438E+05  8.802182E+04  1.609890E+04  1.814949E+05 -4.573476E-10  2.746078E-09
       115  19  3.859621E+05  5.599007E+04 -6.380536E+03  1.580907E+05  1.054087E+03 -7.936089E+02
       115  20  3.735265E+05  4.676867E+04 -1.010375E+04  1.499896E+05  1.735935E+03 -1.449572E+03
       115  21  3.545346E+05  4.425589E+04 -1.352555E+04  1.494254E+05  2.417774E+03 -2.105788E+03
       115  22  4.128816E+05  6.609423E+04  5.362129E+02  1.654764E+05  5.329047E+02 -9.903524E+02
       115  23  4.161629E+05  6.276225E+04  7.608810E+02  1.616996E+05  1.214637E+03 -1.646337E+03
       115  24  4.128876E+05  6.613879E+04  1.286850E+03  1.654595E+05  1.896370E+03 -2.302570E+03
       115  25  4.398018E+05  7.619842E+04  7.452903E+03  1.728625E+05  1.169764E+01 -1.187105E+03
       115  26  4.588011E+05  7.875592E+04  1.162535E+04  1.734103E+05  6.933012E+02 -1.843115E+03
       115  27  4.712438E+05  8.802183E+04  1.609891E+04  1.814949E+05  1.374915E+03 -2.499371E+03
       116   1  3.381094E+05  3.810499E+04 -1.743111E+04  1.450893E+05 -2.844088E+03  2.480443E+03
       116   2  3.255246E+05  2.868517E+04 -2.011050E+04  1.367971E+05 -4.630214E+03  2.722419E+03
       116   3  3.067622E+05  2.673297E+04 -2.147391E+04  1.359481E+05 -6.410761E+03  2.950071E+03
       116   4  4.129386E+05  6.607639E+04  1.674661E+03  1.655257E+05 -2.316703E+03  2.679460E+03
       116   5  4.160721E+05  6.266692E+04  2.966756E+03  1.616811E+05 -4.112406E+03  2.917775E+03
       116   6  4.130301E+05  6.672695E+04  5.582371E+03  1.652797E+05 -5.902569E+03  3.141753E+03
       116   7  4.877736E+05  9.404825E+04  2.078006E+04  1.859644E+05 -1.789246E+03  2.878503E+03
       116   8  5.066279E+05  9.664927E+04  2.604340E+04  1.865685E+05 -3.594515E+03  3.113162E+03
       116   9  5.193090E+05  1.067217E+05  3.263774E+04  1.946158E+05 -5.394283E+03  3.333470E+03
       116  10  3.381094E+05  3.810498E+04 -1.743113E+04  1.450893E+05  1.063736E-09 -2.568802E-09
       116  11  3.255245E+05  2.868516E+04 -2.011055E+04  1.367971E+05  6.204666E-10 -1.515805E-09
       116  12  3.067622E+05  2.673295E+04 -2.147400E+04  1.359481E+05 -3.834903E-09 -4.075970E-09
       116  13  4.129386E+05  6.607638E+04  1.674637E+03  1.655257E+05 -1.034190E-09  1.042109E-09
       116  14  4.160721E+05  6.266690E+04  2.966708E+03  1.616811E+05 -3.012607E-09 -2.916737E-09
       116  15  4.130300E+05  6.672693E+04  5.582287E+03  1.652797E+05 -2.389336E-09  1.070528E-08
       116  16  4.877736E+05  9.404825E+04  2.078003E+04  1.859644E+05 -6.236232E-10  2.092718E-09
       116  17  5.066279E+05  9.664926E+04  2.604335E+04  1.865685E+05 -3.593889E-09  1.348537E-08
       116  18  5.193089E+05  1.067217E+05  3.263766E+04  1.946159E+05 -1.574439E-09  4.617649E-09
       116  19  3.381094E+05  3.810499E+04 -1.743111E+04  1.450893E+05  2.844088E+03 -2.480443E+03
       116  20  3.255246E+05  2.868517E+04 -2.011050E+04  1.367971E+05  4.630214E+03 -2.722419E+03
       116  21  3.067622E+05  2.673297E+04 -2.147391E+04  1.359481E+05  6.410761E+03 -2.950071E+03
       116  22  4.129386E+05  6.607639E+04  1.674661E+03  1.655257E+05  2.316703E+03 -2.679460E+03
       116  23  4.160721E+05  6.266692E+04  2.966756E+03  1.616811E+05  4.112406E+03 -2.917775E+03
       116  24  4.130301E+05  6.672695E+04  5.582371E+03  1.652797E+05  5.902569E+03 -3.141753E+03
       116  25  4.877736E+05  9.404825E+04  2.078006E+04  1.859644E+05  1.789246E+03 -2.878503E+03
       116  26  5.066279E+05  9.664927E+04  2.604340E+04  1.865685E+05  3.594515E+03 -3.113162E+03
       116  27  5.193090E+05  1.067217E+05  3.263774E+04  1.946158E+05  5.394283E+03 -3.333470E+03
       117   1  2.896717E+05  2.057864E+04 -2.411222E+04  1.331965E+05 -7.726061E+03  3.034668E+03
       117   2  2.769009E+05  9.242090E+03 -2.254015E+04  1.229436E+05 -1.442249E+04  1.396275E+03
       117   3  2.616978E+05  1.384708E+04 -1.369926E+04  1.181751E+05 -2.100646E+04 -5.393071E+02
       117   4  4.134660E+05  6.578052E+04  7.253162E+03  1.659144E+05 -7.123180E+03  3.262050E+03
       117   5  4.152358E+05  6.183078E+04  1.284838E+04  1.616477E+05 -1.401488E+04  1.549892E+03
       117   6  4.146109E+05  7.385957E+04  2.586581E+04  1.628654E+05 -2.079432E+04 -4.595416E+02
       117   7  5.372748E+05  1.109830E+05  3.861719E+04  1.986380E+05 -6.520168E+03  3.489478E+03
       117   8  5.535895E+05  1.144208E+05  4.823535E+04  2.003598E+05 -1.360717E+04  1.703547E+03
       117   9  5.675475E+05  1.338744E+05  6.542909E+04  2.075660E+05 -2.058212E+04 -3.797519E+02
       117  10  2.896716E+05  2.057861E+04 -2.411235E+04  1.331965E+05 -2.016751E-09 -1.229883E-09
       117  11  2.769007E+05  9.242032E+03 -2.254054E+04  1.229436E+05  2.525638E-09  2.097007E-09
       117  12  2.616973E+05  1.384696E+04 -1.370009E+04  1.181751E+05  7.041319E-09 -9.442536E-10
       117  13  4.134660E+05  6.578050E+04  7.253047E+03  1.659144E+05 -4.606062E-09 -2.441515E-09
       117  14  4.152356E+05  6.183072E+04  1.284801E+04  1.616478E+05  3.868780E-09  1.495963E-09
       117  15  4.146105E+05  7.385945E+04  2.586500E+04  1.628654E+05  4.669253E-09  3.858205E-09
       117  16  5.372748E+05  1.109830E+05  3.861709E+04  1.986380E+05 -3.851956E-10  6.054720E-09
       117  17  5.535893E+05  1.144208E+05  4.823500E+04  2.003598E+05  1.213005E-09 -2.315671E-10
       117  18  5.675470E+05  1.338743E+05  6.542829E+04  2.075660E+05  3.490174E-09 -3.762775E-09
       117  19  2.896717E+05  2.057864E+04 -2.411222E+04  1.331965E+05  7.726061E+03 -3.034668E+03
       117  20  2.769009E+05  9.242090E+03 -2.254015E+04  1.229436E+05  1.442249E+04 -1.396275E+03
       117  21  2.616978E+05  1.384708E+04 -1.369926E+04  1.181751E+05  2.100646E+04  5.393071E+02
       117  22  4.134660E+05  6.578052E+04  7.253162E+03  1.659144E+05  7.123180E+03 -3.262050E+03
       117  23  4.152358E+05  6.183078E+04  1.284838E+04  1.616477E+05  1.401488E+04 -1.549892E+03
       117  24  4.146109E+05  7.385957E+04  2.586581E+04  1.628654E+05  2.079432E+04  4.595416E+02
       117  25  5.372748E+05  1.109830E+05  3.861719E+04  1.986380E+05  6.520168E+03 -3.489478E+03
       117  26  5.535895E+05  1.144208E+05  4.823535E+04  2.003598E+05  1.360717E+04 -1.703547E+03
       117  27  5.675475E+05  1.338744E+05  6.542909E+04  2.075660E+05  2.058212E+04  3.797519E+02
       118   1  2.371566E+05  7.665884E+03 -1.147606E+04  1.341302E+05 -2.749284E+04 -1.652255E+03
       118   2  2.273026E+05 -2.552068E+04  6.780516E+03  1.010154E+05 -5.366151E+04 -1.128702E+04
       118   3  2.546227E+05  5.527375E+04  7.388014E+04  4.764762E+04 -7.777256E+04 -2.637854E+04
       118   4  4.187613E+05  6.201202E+04  3.214989E+04  1.698810E+05 -2.558701E+04 -9.331318E+02
       118   5  4.066822E+05  5.300585E+04  5.470543E+04  1.617872E+05 -5.532254E+04 -1.191451E+04
       118   6  4.324686E+05  1.586640E+05  1.289186E+05  1.334445E+05 -8.300065E+04 -2.835437E+04
       118   7  6.003988E+05  1.163580E+05  7.577372E+04  2.056400E+05 -2.368058E+04 -2.138821E+02
       118   8  5.860925E+05  1.315374E+05  1.026273E+05  2.225757E+05 -5.698409E+04 -1.254226E+04
       118   9  6.103461E+05  2.620704E+05  1.839535E+05  2.192666E+05 -8.823030E+04 -3.033155E+04
       118  10  2.371558E+05  7.665678E+03 -1.147749E+04  1.341302E+05  4.374558E-09  1.368306E-09
       118  11  2.272994E+05 -2.552159E+04  6.774867E+03  1.010149E+05  7.308590E-10 -6.185837E-09
       118  12  2.546161E+05  5.527138E+04  7.386748E+04  4.764596E+04 -4.840154E-11 -2.663593E-09
       118  13  4.187606E+05  6.201184E+04  3.214866E+04  1.698810E+05  2.786910E-09 -6.097611E-09
       118  14  4.066788E+05  5.300487E+04  5.469942E+04  1.617867E+05  4.297825E-10  2.047697E-09
       118  15  4.324610E+05  1.586613E+05  1.289041E+05  1.334426E+05 -7.066194E-10  3.770578E-10
       118  16  6.003982E+05  1.163578E+05  7.577266E+04  2.056399E+05  2.598649E-09 -3.004377E-10
       118  17  5.860890E+05  1.315364E+05  1.026209E+05  2.225751E+05 -2.075236E-09  1.395000E-09
       118  18  6.103375E+05  2.620673E+05  1.839371E+05  2.192645E+05 -1.410713E-09 -4.215374E-09
       118  19  2.371566E+05  7.665884E+03 -1.147606E+04  1.341302E+05  2.749284E+04  1.652255E+03
       118  20  2.273026E+05 -2.552068E+04  6.780516E+03  1.010154E+05  5.366151E+04  1.128702E+04
       118  21  2.546227E+05  5.527375E+04  7.388014E+04  4.764762E+04  7.777256E+04  2.637854E+04
       118  22  4.187613E+05  6.201202E+04  3.214989E+04  1.698810E+05  2.558701E+04  9.331318E+02
       118  23  4.066822E+05  5.300585E+04  5.470543E+04  1.617872E+05  5.532254E+04  1.191451E+04
       118  24  4.324686E+05  1.586640E+05  1.289186E+05  1.334445E+05  8.300065E+04  2.835437E+04
       118  25  6.003988E+05  1.163580E+05  7.577372E+04  2.056400E+05  2.368058E+04  2.138821E+02
       118  26  5.860925E+05  1.315374E+05  1.026273E+05  2.225757E+05  5.698409E+04  1.254226E+04
       118  27  6.103461E+05  2.620704E+05  1.839535E+05  2.192666E+05  8.823030E+04  3.033155E+04
       119   1 -2.851238E+02 -5.011593E+05 -2.442579E+03 -1.917582E+02 -6.006317E+01  1.715727E+02
       119   2 -6.921872E+02 -5.029822E+05 -3.407876E+03  3.426848E+02 -1.175121E+02  1.488321E+03
       119   3 -1.734106E+03 -5.051405E+05 -5.390720E+03 -3.721362E+02 -2.038676E+02  2.805037E+03
       119   4 -1.010135E+01 -5.000425E+05 -2.186513E+03 -2.774028E+02 -6.010258E+01  1.960865E+02
       119   5  7.640433E+01 -4.998735E+05 -2.675240E+03  3.468558E+02 -1.175792E+02  1.530174E+03
       119   6 -4.749471E+02 -5.000429E+05 -4.193550E+03 -2.781482E+02 -2.039620E+02  2.864233E+03
       119   7  2.649210E+02 -4.989257E+05 -1.930447E+03 -3.630476E+02 -6.014200E+01  2.206005E+02
       119   8  8.449951E+02 -4.967648E+05 -1.942605E+03  3.510268E+02 -1.176463E+02  1.572026E+03
       119   9  7.842100E+02 -4.949452E+05 -2.996381E+03 -1.841593E+02 -2.040564E+02  2.923429E+03
       119  10 -2.851238E+02 -5.011593E+05 -2.442579E+03 -1.917581E+02 -1.907917E-09 -8.316697E-10
       119  11 -6.921878E+02 -5.029822E+05 -3.407880E+03  3.426850E+02 -2.914870E-09 -3.741137E-09
       119  12 -1.734108E+03 -5.051405E+05 -5.390735E+03 -3.721358E+02 -8.835133E-10  1.963698E-10
       119  13 -1.010136E+01 -5.000425E+05 -2.186513E+03 -2.774028E+02  3.348941E-09 -1.016468E-09
       119  14  7.640369E+01 -4.998735E+05 -2.675245E+03  3.468559E+02 -7.863501E-10  4.152128E-10
       119  15 -4.749493E+02 -5.000429E+05 -4.193565E+03 -2.781477E+02 -9.531020E-10 -1.532568E-09
       119  16  2.649210E+02 -4.989257E+05 -1.930447E+03 -3.630476E+02  7.141074E-09  1.906427E-09
       119  17  8.449944E+02 -4.967648E+05 -1.942609E+03  3.510270E+02  4.181952E-09 -5.144577E-10
       119  18  7.842077E+02 -4.949452E+05 -2.996397E+03 -1.841588E+02  3.336261E-10 -7.013130E-10
       119  19 -2.851238E+02 -5.011593E+05 -2.442579E+03 -1.917582E+02  6.006317E+01 -1.715727E+02
       119  20 -6.921872E+02 -5.029822E+05 -3.407876E+03  3.426848E+02  1.175121E+02 -1.488321E+03
       119  21 -1.734106E+03 -5.051405E+05 -5.390720E+03 -3.721362E+02  2.038676E+02 -2.805037E+03
       119  22 -1.010135E+01 -5.000425E+05 -2.186513E+03 -2.774028E+02  6.010258E+01 -1.960865E+02
       119  23  7.640433E+01 -4.998735E+05 -2.675240E+03  3.468558E+02  1.175792E+02 -1.530174E+03
       119  24 -4.749471E+02 -5.000429E+05 -4.193550E+03 -2.781482E+02  2.039620E+02 -2.864233E+03
       119  25  2.649210E+02 -4.989257E+05 -1.930447E+03 -3.630476E+02  6.014200E+01 -2.206005E+02
       119  26  8.449951E+02 -4.967648E+05 -1.942605E+03  3.510268E+02  1.176463E+02 -1.572026E+03
       119  27  7.842100E+02 -4.949452E+05 -2.996381E+03 -1.841593E+02  2.040564E+02 -2.923429E+03
       120   1 -1.519770E+03 -5.077780E+05 -6.966445E+03  5.732963E+02 -2.640958E+02  3.638136E+03
       120   2 -1.653867E+03 -5.086710E+05 -1.082574E+04 -7.624220E+01 -3.551985E+02  8.046504E+03
       120   3 -8.206798E+03 -5.117484E+05 -1.916252E+04 -1.975173E+03 -4.223559E+02  1.245488E+04
       120   4  2.958755E+02 -5.004523E+05 -5.234206E+03 -2.748967E+02 -2.641928E+02  3.695743E+03
       120   5  6.461109E+02 -4.993625E+05 -8.631372E+03  3.452446E+02 -3.552617E+02  8.089802E+03
       120   6 -5.419951E+03 -5.004545E+05 -1.649602E+04 -2.840073E+02 -4.223674E+02  1.248388E+04
       120   7  2.111520E+03 -4.931266E+05 -3.501971E+03 -1.123100E+03 -2.642900E+02  3.753352E+03
       120   8  2.946083E+03 -4.900539E+05 -6.437007E+03  7.667377E+02 -3.553248E+02  8.133101E+03
       120   9 -2.633101E+03 -4.891606E+05 -1.382953E+04  1.407189E+03 -4.223787E+02  1.251289E+04
       120  10 -1.519774E+03 -5.077780E+05 -6.966470E+03  5.732971E+02  9.862768E-11 -5.987479E-10
       120  11 -1.653884E+03 -5.086710E+05 -1.082586E+04 -7.623990E+01  2.320688E-09  2.618571E-09
       120  12 -8.206840E+03 -5.117485E+05 -1.916282E+04 -1.975168E+03 -6.923115E-11  1.424558E-09
       120  13  2.958718E+02 -5.004523E+05 -5.234232E+03 -2.748959E+02  1.022783E-09  1.635951E-12
       120  14  6.460931E+02 -4.993625E+05 -8.631495E+03  3.452469E+02 -1.384934E-09 -1.875354E-09
       120  15 -5.419993E+03 -5.004547E+05 -1.649632E+04 -2.840030E+02 -2.804192E-09 -5.087488E-09
       120  16  2.111516E+03 -4.931266E+05 -3.501998E+03 -1.123099E+03  1.856531E-09 -1.018804E-09
       120  17  2.946065E+03 -4.900540E+05 -6.437132E+03  7.667401E+02  4.404863E-10 -6.976768E-09
       120  18 -2.633144E+03 -4.891607E+05 -1.382983E+04  1.407193E+03 -1.310492E-09 -4.072283E-09
       120  19 -1.519770E+03 -5.077780E+05 -6.966445E+03  5.732963E+02  2.640958E+02 -3.638136E+03
       120  20 -1.653867E+03 -5.086710E+05 -1.082574E+04 -7.624220E+01  3.551985E+02 -8.046504E+03
       120  21 -8.206798E+03 -5.117484E+05 -1.916252E+04 -1.975173E+03  4.223559E+02 -1.245488E+04
       120  22  2.958755E+02 -5.004523E+05 -5.234206E+03 -2.748967E+02  2.641928E+02 -3.695743E+03
       120  23  6.461109E+02 -4.993625E+05 -8.631372E+03  3.452446E+02  3.552617E+02 -8.089802E+03
       120  24 -5.419951E+03 -5.004545E+05 -1.649602E+04 -2.840073E+02  4.223674E+02 -1.248388E+04
       120  25  2.111520E+03 -4.931266E+05 -3.501971E+03 -1.123100E+03  2.642900E+02 -3.753352E+03
       120  26  2.946083E+03 -4.900539E+05 -6.437007E+03  7.667377E+02  3.553248E+02 -8.133101E+03
       120  27 -2.633101E+03 -4.891606E+05 -1.382953E+04  1.407189E+03  4.223787E+02 -1.251289E+04
       121   1 -1.298111E+02 -5.178282E+05 -2.347693E+04  8.223742E+03 -5.339290E+02  1.541103E+04
       121   2  2.815550E+03 -5.099652E+05 -3.656021E+04 -6.142037E+03 -6.132694E+02  3.335125E+04
       121   3 -6.390912E+04 -5.218657E+05 -7.874812E+04 -2.180337E+04 -2.702738E+02  5.129189E+04
       121   4  3.235780E+03 -5.043484E+05 -2.029737E+04 -2.584967E+02 -5.343885E+02  1.556832E+04
       121   5  6.615460E+03 -4.944963E+05 -3.291471E+04  3.400029E+02 -6.127671E+02  3.325517E+04
       121   6 -5.963078E+04 -5.043635E+05 -7.446024E+04 -3.575836E+02 -2.679488E+02  5.094250E+04
       121   7  6.601628E+03 -4.908683E+05 -1.711779E+04 -8.740921E+03 -5.348523E+02  1.572561E+04
       121   8  1.041551E+04 -4.790270E+05 -2.926921E+04  6.822205E+03 -6.122668E+02  3.315909E+04
       121   9 -5.535072E+04 -4.868601E+05 -7.017212E+04  2.108881E+04 -2.656480E+02  5.059311E+04
       121  10 -1.298752E+02 -5.178284E+05 -2.347737E+04  8.223749E+03 -3.981592E-10  1.561509E-09
       121  11  2.815250E+03 -5.099664E+05 -3.656230E+04 -6.142020E+03  5.642388E-10 -3.133886E-09
       121  12 -6.390982E+04 -5.218685E+05 -7.875307E+04 -2.180336E+04  5.484653E-11  1.612673E-10
       121  13  3.235714E+03 -5.043487E+05 -2.029783E+04 -2.584900E+02 -1.748047E-11  4.384011E-11
       121  14  6.615163E+03 -4.944975E+05 -3.291679E+04  3.400193E+02 -7.456681E-11 -1.875146E-09
       121  15 -5.963147E+04 -5.043663E+05 -7.446512E+04 -3.575726E+02  7.175397E-10  1.643677E-09
       121  16  6.601561E+03 -4.908686E+05 -1.711826E+04 -8.740914E+03 -5.642801E-10 -2.076616E-09
       121  17  1.041522E+04 -4.790282E+05 -2.927128E+04  6.822221E+03 -3.846609E-10 -2.364016E-09
       121  18 -5.535141E+04 -4.868628E+05 -7.017694E+04  2.108882E+04  4.283046E-10  1.169499E-09
       121  19 -1.298111E+02 -5.178282E+05 -2.347693E+04  8.223742E+03  5.339290E+02 -1.541103E+04
       121  20  2.815550E+03 -5.099652E+05 -3.656021E+04 -6.142037E+03  6.132694E+02 -3.335125E+04
       121  21 -6.390912E+04 -5.218657E+05 -7.874812E+04 -2.180337E+04  2.702738E+02 -5.129189E+04
       121  22  3.235780E+03 -5.043484E+05 -2.029737E+04 -2.584967E+02  5.343885E+02 -1.556832E+04
       121  23  6.615460E+03 -4.944963E+05 -3.291471E+04  3.400029E+02  6.127671E+02 -3.325517E+04
       121  24 -5.963078E+04 -5.043635E+05 -7.446024E+04 -3.575836E+02  2.679488E+02 -5.094250E+04
       121  25  6.601628E+03 -4.908683E+05 -1.711779E+04 -8.740921E+03  5.348523E+02 -1.572561E+04
       121  26  1.041551E+04 -4.790270E+05 -2.926921E+04  6.822205E+03  6.122668E+02 -3.315909E+04
       121  27 -5.535072E+04 -4.868601E+05 -7.017212E+04  2.108881E+04  2.656480E+02 -5.059311E+04
       122   1 -5.743487E+06 -1.866738E+06 -9.254093E+05 -2.115808E+06 -3.549802E+05 -8.364171E+04
       122   2 -5.559357E+06 -1.604797E+06 -6.515733E+05 -2.047767E+06 -2.315078E+05  8.234266E+04
       122   3 -5.407799E+06 -1.485746E+06 -5.299836E+05 -1.990936E+06 -7.891641E+04  1.720095E+05
       122   4 -2.914475E+06 -7.084792E+05 -1.751501E+05 -1.247867E+06 -1.300118E+05  1.654459E+03
       122   5 -2.900379E+06 -5.816140E+05 -8.108954E+04 -1.267706E+06 -1.271063E+05  1.218128E+05
       122   6 -2.894560E+06 -5.732935E+05 -4.277042E+04 -1.298820E+06 -9.521365E+04  1.657658E+05
       122   7 -7.753231E+04  4.507086E+05  5.746106E+05 -3.761591E+05  9.608523E+04  8.745898E+04
       122   8 -2.340962E+05  4.423323E+05  4.890323E+05 -4.844730E+05 -2.221849E+04  1.614840E+05
       122   9 -3.746697E+05  3.397192E+05  4.441761E+05 -6.040823E+05 -1.115825E+05  1.594958E+05
       122  10 -5.743626E+06 -1.866779E+06 -9.256618E+05 -2.115832E+06  9.619124E-09  2.138502E-09
       122  11 -5.559416E+06 -1.604818E+06 -6.516873E+05 -2.047751E+06  1.239600E-08  3.244524E-09
       122  12 -5.407814E+06 -1.485779E+06 -5.300508E+05 -1.990925E+06  1.846039E-08  1.529926E-09
       122  13 -2.914493E+06 -7.084837E+05 -1.751820E+05 -1.247867E+06  1.176570E-09  2.219747E-09
       122  14 -2.900400E+06 -5.816342E+05 -8.114776E+04 -1.267694E+06 -1.437035E-09  1.093877E-08
       122  15 -2.894577E+06 -5.733254E+05 -4.283898E+04 -1.298808E+06  1.398511E-09  1.549229E-08
       122  16 -7.754428E+04  4.506980E+05  5.745788E+05 -3.761658E+05 -8.582188E-09 -2.647833E-09
       122  17 -2.341037E+05  4.423042E+05  4.889824E+05 -4.844701E+05 -1.190342E-08 -5.655510E-09
       122  18 -3.746898E+05  3.396886E+05  4.441050E+05 -6.040680E+05 -2.100075E-09 -4.397331E-09
       122  19 -5.743487E+06 -1.866738E+06 -9.254093E+05 -2.115808E+06  3.549802E+05  8.364171E+04
       122  20 -5.559357E+06 -1.604797E+06 -6.515733E+05 -2.047767E+06  2.315078E+05 -8.234266E+04
       122  21 -5.407799E+06 -1.485746E+06 -5.299836E+05 -1.990936E+06  7.891641E+04 -1.720095E+05
       122  22 -2.914475E+06 -7.084792E+05 -1.751501E+05 -1.247867E+06  1.300118E+05 -1.654459E+03
       122  23 -2.900379E+06 -5.816140E+05 -8.108954E+04 -1.267706E+06  1.271063E+05 -1.218128E+05
       122  24 -2.894560E+06 -5.732935E+05 -4.277042E+04 -1.298820E+06  9.521365E+04 -1.657658E+05
       122  25 -7.753231E+04  4.507086E+05  5.746106E+05 -3.761591E+05 -9.608523E+04 -8.745898E+04
       122  26 -2.340962E+05  4.423323E+05  4.890323E+05 -4.844730E+05  2.221849E+04 -1.614840E+05
       122  27 -3.746697E+05  3.397192E+05  4.441761E+05 -6.040823E+05  1.115825E+05 -1.594958E+05
       123   1 -5.261906E+06 -1.448798E+06 -4.911716E+05 -1.961999E+06 -8.299389E+04  1.626626E+05
       123   2 -5.082592E+06 -1.350926E+06 -4.285271E+05 -1.888140E+06 -6.233437E+04  1.635195E+05
       123   3 -4.873092E+06 -1.293382E+06 -3.810588E+05 -1.852106E+06 -3.936677E+04  1.582196E+05
       123   4 -2.888495E+06 -5.765340E+05 -3.239932E+04 -1.296686E+06 -8.779168E+04  1.607759E+05
       123   5 -2.903910E+06 -5.540348E+05 -1.716104E+04 -1.278949E+06 -7.683949E+04  1.579802E+05
       123   6 -2.887230E+06 -5.699068E+05 -9.328571E+03 -1.299042E+06 -6.359004E+04  1.490375E+05
       123   7 -5.091747E+05  2.962599E+05  4.261286E+05 -6.289847E+05 -9.260932E+04  1.588818E+05
       123   8 -7.202380E+05  2.433007E+05  3.940117E+05 -6.677527E+05 -9.139951E+04  1.524204E+05
       123   9 -8.972282E+05  1.539305E+05  3.622443E+05 -7.443232E+05 -8.789666E+04  1.398242E+05
       123  10 -5.261921E+06 -1.448828E+06 -4.912341E+05 -1.961988E+06  2.193786E-08  5.226227E-09
       123  11 -5.082603E+06 -1.350955E+06 -4.285845E+05 -1.888131E+06 -1.281315E-08 -4.331381E-09
       123  12 -4.873100E+06 -1.293410E+06 -3.811086E+05 -1.852101E+06 -3.970679E-08 -1.419113E-08
       123  13 -2.888511E+06 -5.765638E+05 -3.246228E+04 -1.296675E+06  2.657931E-09  1.694079E-08
       123  14 -2.903923E+06 -5.540632E+05 -1.721894E+04 -1.278939E+06 -2.575069E-09  9.950330E-09
       123  15 -2.887240E+06 -5.699317E+05 -9.377829E+03 -1.299035E+06 -1.525081E-09  1.910079E-09
       123  16 -5.091906E+05  2.962305E+05  4.260652E+05 -6.289729E+05 -1.071990E-08 -5.392207E-09
       123  17 -7.202532E+05  2.432736E+05  3.939524E+05 -6.677415E+05  1.192533E-08  5.039496E-09
       123  18 -8.972418E+05  1.539075E+05  3.621931E+05 -7.443133E+05  3.553609E-08  1.576208E-08
       123  19 -5.261906E+06 -1.448798E+06 -4.911716E+05 -1.961999E+06  8.299389E+04 -1.626626E+05
       123  20 -5.082592E+06 -1.350926E+06 -4.285271E+05 -1.888140E+06  6.233437E+04 -1.635195E+05
       123  21 -4.873092E+06 -1.293382E+06 -3.810588E+05 -1.852106E+06  3.936677E+04 -1.582196E+05
       123  22 -2.888495E+06 -5.765340E+05 -3.239932E+04 -1.296686E+06  8.779168E+04 -1.607759E+05
       123  23 -2.903910E+06 -5.540348E+05 -1.716104E+04 -1.278949E+06  7.683949E+04 -1.579802E+05
       123  24 -2.887230E+06 -5.699068E+05 -9.328571E+03 -1.299042E+06  6.359004E+04 -1.490375E+05
       123  25 -5.091747E+05  2.962599E+05  4.261286E+05 -6.289847E+05  9.260932E+04 -1.588818E+05
       123  26 -7.202380E+05  2.433007E+05  3.940117E+05 -6.677527E+05  9.139951E+04 -1.524204E+05
       123  27 -8.972282E+05  1.539305E+05  3.622443E+05 -7.443232E+05  8.789666E+04 -1.398242E+05
       124   1 -4.741468E+06 -1.245931E+06 -3.530704E+05 -1.816094E+06 -3.545581E+04  1.494241E+05
       124   2 -4.559882E+06 -1.155053E+06 -3.124370E+05 -1.740471E+06 -2.691605E+04  1.354232E+05
       124   3 -4.343346E+06 -1.099477E+06 -2.739003E+05 -1.704677E+06 -1.818436E+04  1.208493E+05
       124   4 -2.886605E+06 -5.701097E+05 -7.031930E+03 -1.299098E+06 -5.889586E+04  1.405503E+05
       124   5 -2.903972E+06 -5.521829E+05 -3.908153E+03 -1.279263E+06 -5.125607E+04  1.262298E+05
       124   6 -2.886262E+06 -5.693782E+05 -2.167705E+03 -1.299267E+06 -4.342567E+04  1.113370E+05
       124   7 -1.028093E+06  1.060421E+05  3.388806E+05 -7.806459E+05 -8.241162E+04  1.316481E+05
       124   8 -1.245160E+06  5.094798E+04  3.045197E+05 -8.168981E+05 -7.566614E+04  1.170102E+05
       124   9 -1.426938E+06 -3.908035E+04  2.694855E+05 -8.929649E+05 -6.873076E+04  1.018007E+05
       124  10 -4.741476E+06 -1.245955E+06 -3.531147E+05 -1.816090E+06 -2.347775E-09 -1.238232E-09
       124  11 -4.559888E+06 -1.155073E+06 -3.124727E+05 -1.740468E+06 -2.872815E-09 -3.035032E-09
       124  12 -4.343350E+06 -1.099493E+06 -2.739283E+05 -1.704675E+06 -3.259520E-09 -2.698573E-09
       124  13 -2.886614E+06 -5.701318E+05 -7.075499E+03 -1.299091E+06  6.099254E-11 -5.639056E-10
       124  14 -2.903979E+06 -5.522007E+05 -3.942976E+03 -1.279258E+06  3.469138E-09 -2.489521E-09
       124  15 -2.886267E+06 -5.693920E+05 -2.194499E+03 -1.299264E+06  1.220618E-09 -1.958839E-09
       124  16 -1.028105E+06  1.060217E+05  3.388353E+05 -7.806372E+05  2.991255E-09 -3.940433E-10
       124  17 -1.245170E+06  5.093177E+04  3.044833E+05 -8.168910E+05  3.364142E-09 -1.339156E-09
       124  18 -1.426946E+06 -3.909272E+04  2.694572E+05 -8.929592E+05  4.946838E-09 -1.261921E-09
       124  19 -4.741468E+06 -1.245931E+06 -3.530704E+05 -1.816094E+06  3.545581E+04 -1.494241E+05
       124  20 -4.559882E+06 -1.155053E+06 -3.124370E+05 -1.740471E+06  2.691605E+04 -1.354232E+05
       124  21 -4.343346E+06 -1.099477E+06 -2.739003E+05 -1.704677E+06  1.818436E+04 -1.208493E+05
       124  22 -2.886605E+06 -5.701097E+05 -7.031930E+03 -1.299098E+06  5.889586E+04 -1.405503E+05
       124  23 -2.903972E+06 -5.521829E+05 -3.908153E+03 -1.279263E+06  5.125607E+04 -1.262298E+05
       124  24 -2.886262E+06 -5.693782E+05 -2.167705E+03 -1.299267E+06  4.342567E+04 -1.113370E+05
       124  25 -1.028093E+06  1.060421E+05  3.388806E+05 -7.806459E+05  8.241162E+04 -1.316481E+05
       124  26 -1.245160E+06  5.094798E+04  3.045197E+05 -8.168981E+05  7.566614E+04 -1.170102E+05
       124  27 -1.426938E+06 -3.908035E+04  2.694855E+05 -8.929649E+05  6.873076E+04 -1.018007E+05
       125   1 -4.210598E+06 -1.050950E+06 -2.475909E+05 -1.667893E+06 -1.433871E+04  1.116888E+05
       125   2 -4.026396E+06 -9.595466E+05 -2.098426E+05 -1.591363E+06 -7.631075E+03  9.596408E+04
       125   3 -3.806628E+06 -9.035621E+05 -1.725597E+05 -1.555303E+06 -9.025479E+02  8.013771E+04
       125   4 -2.886071E+06 -5.693914E+05 -1.680496E+03 -1.299393E+06 -3.961194E+04  1.021745E+05
       125   5 -2.903741E+06 -5.514984E+05 -1.076568E+03 -1.279192E+06 -3.306441E+04  8.640340E+04
       125   6 -2.885861E+06 -5.689940E+05 -8.151389E+02 -1.299475E+06 -2.649623E+04  7.053060E+04
       125   7 -1.559704E+06 -8.767303E+04  2.441624E+05 -9.301591E+05 -6.494295E+04  9.263854E+04
       125   8 -1.779756E+06 -1.433322E+05  2.076439E+05 -9.664924E+05 -5.854719E+04  7.682418E+04
       125   9 -1.964190E+06 -2.343435E+05  1.709017E+05 -1.043289E+06 -5.213095E+04  6.090811E+04
       125  10 -4.210602E+06 -1.050963E+06 -2.476147E+05 -1.667892E+06 -2.382481E-09 -1.611812E-09
       125  11 -4.026399E+06 -9.595565E+05 -2.098600E+05 -1.591362E+06 -3.350739E-09 -4.243165E-10
       125  12 -3.806630E+06 -9.035690E+05 -1.725718E+05 -1.555303E+06  5.774514E-10 -3.274712E-10
       125  13 -2.886075E+06 -5.694030E+05 -1.703026E+03 -1.299390E+06  1.882726E-09 -1.013904E-09
       125  14 -2.903744E+06 -5.515067E+05 -1.092625E+03 -1.279190E+06  1.292570E-10 -9.397859E-11
       125  15 -2.885863E+06 -5.689995E+05 -8.257890E+02 -1.299474E+06  5.796794E-10 -3.901235E-10
       125  16 -1.559711E+06 -8.768336E+04  2.441383E+05 -9.301542E+05  4.292580E-09 -1.492380E-10
       125  17 -1.779762E+06 -1.433395E+05  2.076264E+05 -9.664888E+05  2.437327E-09  2.105529E-10
       125  18 -1.964194E+06 -2.343482E+05  1.708896E+05 -1.043287E+06 -4.424894E-10 -1.645182E-10
       125  19 -4.210598E+06 -1.050950E+06 -2.475909E+05 -1.667893E+06  1.433871E+04 -1.116888E+05
       125  20 -4.026396E+06 -9.595466E+05 -2.098426E+05 -1.591363E+06  7.631075E+03 -9.596408E+04
       125  21 -3.806628E+06 -9.035621E+05 -1.725597E+05 -1.555303E+06  9.025479E+02 -8.013771E+04
       125  22 -2.886071E+06 -5.693914E+05 -1.680496E+03 -1.299393E+06  3.961194E+04 -1.021745E+05
       125  23 -2.903741E+06 -5.514984E+05 -1.076568E+03 -1.279192E+06  3.306441E+04 -8.640340E+04
       125  24 -2.885861E+06 -5.689940E+05 -8.151389E+02 -1.299475E+06  2.649623E+04 -7.053060E+04
       125  25 -1.559704E+06 -8.767303E+04  2.441624E+05 -9.301591E+05  6.494295E+04 -9.263854E+04
       125  26 -1.779756E+06 -1.433322E+05  2.076439E+05 -9.664924E+05  5.854719E+04 -7.682418E+04
       125  27 -1.964190E+06 -2.343435E+05  1.709017E+05 -1.043289E+06  5.213095E+04 -6.090811E+04
       126   1 -3.672427E+06 -8.546068E+05 -1.464935E+05 -1.518177E+06  2.821561E+03  7.080917E+04
       126   2 -3.486454E+06 -7.627291E+05 -1.093643E+05 -1.441133E+06  9.445913E+03  5.484446E+04
       126   3 -3.264773E+06 -7.065292E+05 -7.263401E+04 -1.404951E+06  1.606880E+04  3.885914E+04
       126   4 -2.885776E+06 -5.689928E+05 -8.221887E+02 -1.299564E+06 -2.283440E+04  6.118494E+04
       126   5 -2.903551E+06 -5.510354E+05 -1.052888E+03 -1.279154E+06 -1.624418E+04  4.521461E+04
       126   6 -2.885659E+06 -5.687513E+05 -1.658842E+03 -1.299619E+06 -9.655646E+03  2.922369E+04
       126   7 -2.098470E+06 -2.833206E+05  1.448285E+05 -1.080692E+06 -4.852527E+04  5.154761E+04
       126   8 -2.320291E+06 -3.393106E+05  1.072475E+05 -1.117032E+06 -4.196005E+04  3.557510E+04
       126   9 -2.506395E+06 -4.309610E+05  6.931252E+04 -1.194227E+06 -3.539672E+04  1.958200E+04
       126  10 -3.672429E+06 -8.546122E+05 -1.465029E+05 -1.518177E+06  4.922361E-10 -1.356324E-09
       126  11 -3.486455E+06 -7.627324E+05 -1.093701E+05 -1.441134E+06  2.084946E-09 -1.293787E-09
       126  12 -3.264774E+06 -7.065308E+05 -7.263734E+04 -1.404952E+06 -3.213857E-09 -3.122528E-09
       126  13 -2.885777E+06 -5.689969E+05 -8.301905E+02 -1.299563E+06  1.362040E-09 -4.206333E-10
       126  14 -2.903551E+06 -5.510377E+05 -1.057219E+03 -1.279153E+06 -7.088219E-10 -1.423925E-09
       126  15 -2.885659E+06 -5.687522E+05 -1.660619E+03 -1.299619E+06 -6.644150E-09 -3.508174E-09
       126  16 -2.098473E+06 -2.833241E+05  1.448191E+05 -1.080690E+06  2.011664E-09  3.578107E-10
       126  17 -2.320293E+06 -3.393125E+05  1.072419E+05 -1.117031E+06 -6.341492E-10 -2.062329E-10
       126  18 -2.506397E+06 -4.309617E+05  6.930944E+04 -1.194226E+06 -8.264728E-09 -3.403147E-09
       126  19 -3.672427E+06 -8.546068E+05 -1.464935E+05 -1.518177E+06 -2.821561E+03 -7.080917E+04
       126  20 -3.486454E+06 -7.627291E+05 -1.093643E+05 -1.441133E+06 -9.445913E+03 -5.484446E+04
       126  21 -3.264773E+06 -7.065292E+05 -7.263401E+04 -1.404951E+06 -1.606880E+04 -3.885914E+04
       126  22 -2.885776E+06 -5.689928E+05 -8.221887E+02 -1.299564E+06  2.283440E+04 -6.118494E+04
       126  23 -2.903551E+06 -5.510354E+05 -1.052888E+03 -1.279154E+06  1.624418E+04 -4.521461E+04
       126  24 -2.885659E+06 -5.687513E+05 -1.658842E+03 -1.299619E+06  9.655646E+03 -2.922369E+04
       126  25 -2.098470E+06 -2.833206E+05  1.448285E+05 -1.080692E+06  4.852527E+04 -5.154761E+04
       126  26 -2.320291E+06 -3.393106E+05  1.072475E+05 -1.117032E+06  4.196005E+04 -3.557510E+04
       126  27 -2.506395E+06 -4.309610E+05  6.931252E+04 -1.194227E+06  3.539672E+04 -1.958200E+04
       127   1 -3.129749E+06 -6.573712E+05 -4.691059E+04 -1.367658E+06  1.997986E+04  2.955095E+04
       127   2 -2.942962E+06 -5.653636E+05 -1.102449E+04 -1.290396E+06  2.760672E+04  1.401915E+04
       127   3 -2.720620E+06 -5.092779E+05  2.364400E+04 -1.254141E+06  3.515499E+04 -1.303448E+03
       127   4 -2.885682E+06 -5.687409E+05 -2.161554E+03 -1.299676E+06 -5.802303E+03  1.989618E+04
       127   5 -2.903408E+06 -5.507979E+05 -3.838894E+03 -1.279142E+06  2.152246E+03  4.487503E+03
       127   6 -2.885694E+06 -5.688489E+05 -6.998601E+03 -1.299635E+06  1.002764E+04 -1.071212E+04
       127   7 -2.641549E+06 -4.801034E+05  4.258882E+04 -1.231668E+06 -3.159557E+04  1.023724E+04
       127   8 -2.863851E+06 -5.362314E+05  3.349500E+03 -1.267887E+06 -2.330408E+04 -5.044871E+03
       127   9 -3.050739E+06 -6.284170E+05 -3.763955E+04 -1.345117E+06 -1.509255E+04 -2.011814E+04
       127  10 -3.129750E+06 -6.573723E+05 -4.691299E+04 -1.367659E+06 -1.000431E-08 -4.238819E-09
       127  11 -2.942963E+06 -5.653640E+05 -1.102631E+04 -1.290396E+06 -2.556470E-09 -1.001209E-10
       127  12 -2.720621E+06 -5.092783E+05  2.364167E+04 -1.254141E+06  2.342717E-09  1.370544E-09
       127  13 -2.885682E+06 -5.687413E+05 -2.162360E+03 -1.299676E+06 -5.324954E-09 -1.977043E-09
       127  14 -2.903408E+06 -5.507979E+05 -3.838940E+03 -1.279142E+06  2.491907E-09  3.071350E-09
       127  15 -2.885694E+06 -5.688491E+05 -6.999006E+03 -1.299635E+06  1.273832E-09  1.010088E-09
       127  16 -2.641550E+06 -4.801038E+05  4.258674E+04 -1.231668E+06 -8.009699E-10 -6.234621E-10
       127  17 -2.863851E+06 -5.362316E+05  3.348426E+03 -1.267887E+06  5.172931E-10 -1.188222E-11
       127  18 -3.050739E+06 -6.284175E+05 -3.764074E+04 -1.345117E+06 -1.006800E-09 -8.083283E-10
       127  19 -3.129749E+06 -6.573712E+05 -4.691059E+04 -1.367658E+06 -1.997986E+04 -2.955095E+04
       127  20 -2.942962E+06 -5.653636E+05 -1.102449E+04 -1.290396E+06 -2.760672E+04 -1.401915E+04
       127  21 -2.720620E+06 -5.092779E+05  2.364400E+04 -1.254141E+06 -3.515499E+04  1.303448E+03
       127  22 -2.885682E+06 -5.687409E+05 -2.161554E+03 -1.299676E+06  5.802303E+03 -1.989618E+04
       127  23 -2.903408E+06 -5.507979E+05 -3.838894E+03 -1.279142E+06 -2.152246E+03 -4.487503E+03
       127  24 -2.885694E+06 -5.688489E+05 -6.998601E+03 -1.299635E+06 -1.002764E+04  1.071212E+04
       127  25 -2.641549E+06 -4.801034E+05  4.258882E+04 -1.231668E+06  3.159557E+04 -1.023724E+04
       127  26 -2.863851E+06 -5.362314E+05  3.349500E+03 -1.267887E+06  2.330408E+04  5.044871E+03
       127  27 -3.050739E+06 -6.284170E+05 -3.763955E+04 -1.345117E+06  1.509255E+04  2.011814E+04
       128   1 -2.585319E+06 -4.603533E+05  4.767019E+04 -1.217425E+06  4.035979E+04 -1.004845E+04
       128   2 -2.399618E+06 -3.679976E+05  7.895966E+04 -1.138358E+06  5.015474E+04 -2.314347E+04
       128   3 -2.180169E+06 -3.148166E+05  1.060896E+05 -1.099257E+06  5.894216E+04 -3.353090E+04
       128   4 -2.886135E+06 -5.686889E+05 -9.315822E+03 -1.299807E+06  1.483371E+04 -1.960801E+04
       128   5 -2.903033E+06 -5.517161E+05 -1.705351E+04 -1.278693E+06  2.892100E+04 -3.110116E+04
       128   6 -2.887083E+06 -5.747805E+05 -3.236891E+04 -1.297565E+06  4.199886E+04 -3.988606E+04
       128   7 -3.186852E+06 -6.770151E+05 -6.630197E+04 -1.382150E+06 -1.067884E+04 -2.916262E+04
       128   8 -3.406182E+06 -7.354107E+05 -1.130753E+05 -1.418921E+06  7.705743E+03 -3.905187E+04
       128   9 -3.593481E+06 -8.347000E+05 -1.708506E+05 -1.495663E+06  2.507614E+04 -4.623335E+04
       128  10 -2.585321E+06 -4.603538E+05  4.766693E+04 -1.217425E+06 -1.824281E-10 -2.803680E-10
       128  11 -2.399621E+06 -3.679989E+05  7.895392E+04 -1.138357E+06 -6.552338E-10 -1.670724E-10
       128  12 -2.180173E+06 -3.148187E+05  1.060810E+05 -1.099256E+06 -1.805065E-09  3.509028E-10
       128  13 -2.886136E+06 -5.686893E+05 -9.316956E+03 -1.299806E+06 -6.118346E-11 -2.871785E-10
       128  14 -2.903034E+06 -5.517173E+05 -1.705690E+04 -1.278692E+06 -2.695344E-09 -2.232232E-09
       128  15 -2.887085E+06 -5.747827E+05 -3.237521E+04 -1.297564E+06 -7.473280E-10  4.011045E-10
       128  16 -3.186853E+06 -6.770160E+05 -6.630379E+04 -1.382150E+06  1.203911E-09  2.763935E-10
       128  17 -3.406183E+06 -7.354123E+05 -1.130783E+05 -1.418920E+06 -1.547587E-10 -5.338374E-10
       128  18 -3.593483E+06 -8.347024E+05 -1.708558E+05 -1.495662E+06  1.435580E-09  7.052227E-10
       128  19 -2.585319E+06 -4.603533E+05  4.767019E+04 -1.217425E+06 -4.035979E+04  1.004845E+04
       128  20 -2.399618E+06 -3.679976E+05  7.895966E+04 -1.138358E+06 -5.015474E+04  2.314347E+04
       128  21 -2.180169E+06 -3.148166E+05  1.060896E+05 -1.099257E+06 -5.894216E+04  3.353090E+04
       128  22 -2.886135E+06 -5.686889E+05 -9.315822E+03 -1.299807E+06 -1.483371E+04  1.960801E+04
       128  23 -2.903033E+06 -5.517161E+05 -1.705351E+04 -1.278693E+06 -2.892100E+04  3.110116E+04
       128  24 -2.887083E+06 -5.747805E+05 -3.236891E+04 -1.297565E+06 -4.199886E+04  3.988606E+04
       128  25 -3.186852E+06 -6.770151E+05 -6.630197E+04 -1.382150E+06  1.067884E+04  2.916262E+04
       128  26 -3.406182E+06 -7.354107E+05 -1.130753E+05 -1.418921E+06 -7.705743E+03  3.905187E+04
       128  27 -3.593481E+06 -8.347000E+05 -1.708506E+05 -1.495663E+06 -2.507614E+04  4.623335E+04
       129   1 -2.040525E+06 -2.710573E+05  1.233791E+05 -1.074564E+06  7.211736E+04 -3.823898E+04
       129   2 -1.884204E+06 -1.661783E+05  1.437126E+05 -9.467298E+05  5.933946E+04 -3.949995E+04
       129   3 -1.722374E+06 -1.740268E+05  1.509061E+05 -8.352913E+05  3.381765E+04 -6.853460E+03
       129   4 -2.892572E+06 -5.719530E+05 -4.275948E+04 -1.300366E+06  5.001284E+04 -4.653182E+04
       129   5 -2.899676E+06 -5.781742E+05 -8.094419E+04 -1.266731E+06  9.115629E+04 -2.757816E+04
       129   6 -2.912096E+06 -7.079578E+05 -1.751759E+05 -1.249517E+06  1.195451E+05  2.531360E+04
       129   7 -3.743869E+06 -8.727980E+05 -2.089299E+05 -1.525885E+06  2.794085E+04 -5.481336E+04
       129   8 -3.914068E+06 -9.900152E+05 -3.056544E+05 -1.586220E+06  1.229163E+05 -1.568271E+04
       129   9 -4.100349E+06 -1.241590E+06 -5.013410E+05 -1.662939E+06  2.050890E+05  5.738132E+04
       129  10 -2.040531E+06 -2.710602E+05  1.233665E+05 -1.074562E+06 -1.637949E-09  6.629357E-10
       129  11 -1.884208E+06 -1.661810E+05  1.437031E+05 -9.467279E+05 -3.729336E-10  8.681477E-10
       129  12 -1.722375E+06 -1.740272E+05  1.509038E+05 -8.352911E+05  6.495706E-10  1.030527E-09
       129  13 -2.892575E+06 -5.719560E+05 -4.276824E+04 -1.300364E+06  1.403871E-09  1.940848E-09
       129  14 -2.899685E+06 -5.781773E+05 -8.096128E+04 -1.266729E+06 -8.045959E-10  8.833363E-10
       129  15 -2.912111E+06 -7.079624E+05 -1.752042E+05 -1.249519E+06  6.617961E-11  3.838022E-10
       129  16 -3.743870E+06 -8.728014E+05 -2.089370E+05 -1.525884E+06  5.679748E-11  8.160350E-10
       129  17 -3.914085E+06 -9.900195E+05 -3.056834E+05 -1.586218E+06 -5.065693E-11  1.788382E-09
       129  18 -4.100396E+06 -1.241605E+06 -5.014269E+05 -1.662949E+06 -3.223731E-09 -1.062014E-10
       129  19 -2.040525E+06 -2.710573E+05  1.233791E+05 -1.074564E+06 -7.211736E+04  3.823898E+04
       129  20 -1.884204E+06 -1.661783E+05  1.437126E+05 -9.467298E+05 -5.933946E+04  3.949995E+04
       129  21 -1.722374E+06 -1.740268E+05  1.509061E+05 -8.352913E+05 -3.381765E+04  6.853460E+03
       129  22 -2.892572E+06 -5.719530E+05 -4.275948E+04 -1.300366E+06 -5.001284E+04  4.653182E+04
       129  23 -2.899676E+06 -5.781742E+05 -8.094419E+04 -1.266731E+06 -9.115629E+04  2.757816E+04
       129  24 -2.912096E+06 -7.079578E+05 -1.751759E+05 -1.249517E+06 -1.195451E+05 -2.531360E+04
       129  25 -3.743869E+06 -8.727980E+05 -2.089299E+05 -1.525885E+06 -2.794085E+04  5.481336E+04
       129  26 -3.914068E+06 -9.900152E+05 -3.056544E+05 -1.586220E+06 -1.229163E+05  1.568271E+04
       129  27 -4.100349E+06 -1.241590E+06 -5.013410E+05 -1.662939E+06 -2.050890E+05 -5.738132E+04
       130   1  1.197314E+05  2.353374E+04  4.163238E+04  1.626696E+04  5.623582E+04  2.075298E+03
       130   2  1.251575E+05 -4.993525E+04 -1.458485E+03  3.861331E+03  3.810362E+04  6.196651E+03
       130   3  1.533673E+05 -4.185355E+04 -1.234994E+04 -1.895273E+04  1.997250E+04  5.834657E+03
       130   4  3.073286E+05  7.022999E+04  8.771455E+04 -8.969492E+03  6.007278E+04  2.074787E+03
       130   5  2.957124E+05 -7.796556E+03  3.875391E+04 -3.749329E+03  3.924403E+04  6.196514E+03
       130   6  3.073400E+05 -3.817812E+03  2.385779E+04 -8.937068E+03  1.841693E+04  5.834410E+03
       130   7  4.949591E+05  1.169260E+05  1.337945E+05 -3.421358E+04  6.391090E+04  2.073966E+03
       130   8  4.662942E+05  3.434028E+04  7.896435E+04 -1.136209E+04  4.038476E+04  6.196349E+03
       130   9  4.613348E+05  3.421662E+04  6.006396E+04  1.081089E+03  1.686097E+04  5.834113E+03
       130  10  1.197280E+05  2.353289E+04  4.162643E+04  1.626686E+04 -7.252474E-11 -4.512363E-10
       130  11  1.251559E+05 -4.993568E+04 -1.461285E+03  3.861140E+03 -2.170138E-10 -1.414766E-11
       130  12  1.533668E+05 -4.185370E+04 -1.235075E+04 -1.895282E+04 -1.044253E-09 -9.665009E-10
       130  13  3.073247E+05  7.022902E+04  8.770776E+04 -8.969592E+03 -7.116993E-10  2.412383E-10
       130  14  2.957107E+05 -7.797011E+03  3.875095E+04 -3.749525E+03 -1.095440E-10 -3.463176E-10
       130  15  3.073396E+05 -3.817940E+03  2.385709E+04 -8.937155E+03  7.549568E-10 -8.486695E-10
       130  16  4.949547E+05  1.169249E+05  1.337868E+05 -3.421369E+04  1.485974E-10  1.261540E-10
       130  17  4.662924E+05  3.433980E+04  7.896121E+04 -1.136230E+04  1.074912E-09 -4.130633E-10
       130  18  4.613345E+05  3.421650E+04  6.006336E+04  1.081010E+03 -1.030446E-09  3.128374E-10
       130  19  1.197314E+05  2.353374E+04  4.163238E+04  1.626696E+04 -5.623582E+04 -2.075298E+03
       130  20  1.251575E+05 -4.993525E+04 -1.458485E+03  3.861331E+03 -3.810362E+04 -6.196651E+03
       130  21  1.533673E+05 -4.185355E+04 -1.234994E+04 -1.895273E+04 -1.997250E+04 -5.834657E+03
       130  22  3.073286E+05  7.022999E+04  8.771455E+04 -8.969492E+03 -6.007278E+04 -2.074787E+03
       130  23  2.957124E+05 -7.796556E+03  3.875391E+04 -3.749329E+03 -3.924403E+04 -6.196514E+03
       130  24  3.073400E+05 -3.817812E+03  2.385779E+04 -8.937068E+03 -1.841693E+04 -5.834410E+03
       130  25  4.949591E+05  1.169260E+05  1.337945E+05 -3.421358E+04 -6.391090E+04 -2.073966E+03
       130  26  4.662942E+05  3.434028E+04  7.896435E+04 -1.136209E+04 -4.038476E+04 -6.196349E+03
       130  27  4.613348E+05  3.421662E+04  6.006396E+04  1.081089E+03 -1.686097E+04 -5.834113E+03
       131   1  1.675186E+05 -2.704491E+04 -1.256515E+04 -6.971785E+03  1.497721E+04  4.808546E+03
       131   2  1.828643E+05 -3.006396E+04 -1.791576E+04 -3.251981E+03  1.003383E+04  4.361225E+03
       131   3  2.007515E+05 -2.555983E+04 -1.816406E+04 -9.954760E+03  5.090269E+03  3.645064E+03
       131   4  3.027446E+05  6.376211E+03  1.935537E+04 -8.950640E+03  1.479235E+04  4.808380E+03
       131   5  3.014615E+05 -7.632980E+02  1.002271E+04 -3.738646E+03  9.686607E+03  4.361090E+03
       131   6  3.027471E+05 -3.523059E+02  5.904246E+03 -8.949069E+03  4.580810E+03  3.644961E+03
       131   7  4.379874E+05  3.979604E+04  5.127462E+04 -1.092993E+04  1.460744E+04  4.808214E+03
       131   8  4.200715E+05  2.853636E+04  3.796021E+04 -4.225405E+03  9.339316E+03  4.360955E+03
       131   9  4.047522E+05  2.485448E+04  2.997183E+04 -7.943213E+03  4.071268E+03  3.644856E+03
       131  10  1.675183E+05 -2.704500E+04 -1.256562E+04 -6.971843E+03 -9.754196E-10 -4.406139E-10
       131  11  1.828642E+05 -3.006401E+04 -1.791598E+04 -3.252016E+03 -1.153845E-09  9.827558E-10
       131  12  2.007514E+05 -2.555985E+04 -1.816413E+04 -9.954775E+03 -8.029788E-10  5.103785E-11
       131  13  3.027444E+05  6.376128E+03  1.935491E+04 -8.950697E+03 -4.069863E-09  2.222651E-10
       131  14  3.014613E+05 -7.633436E+02  1.002250E+04 -3.738680E+03  4.526580E-11  7.508478E-10
       131  15  3.027470E+05 -3.523258E+02  5.904182E+03 -8.949083E+03  7.706536E-11  1.298110E-10
       131  16  4.379872E+05  3.979596E+04  5.127418E+04 -1.092999E+04 -1.799986E-09  1.904948E-10
       131  17  4.200714E+05  2.853632E+04  3.796001E+04 -4.225438E+03 -5.731224E-12  1.756698E-10
       131  18  4.047522E+05  2.485446E+04  2.997178E+04 -7.943225E+03 -8.709519E-10  4.903774E-10
       131  19  1.675186E+05 -2.704491E+04 -1.256515E+04 -6.971785E+03 -1.497721E+04 -4.808546E+03
       131  20  1.828643E+05 -3.006396E+04 -1.791576E+04 -3.251981E+03 -1.003383E+04 -4.361225E+03
       131  21  2.007515E+05 -2.555983E+04 -1.816406E+04 -9.954760E+03 -5.090269E+03 -3.645064E+03
       131  22  3.027446E+05  6.376211E+03  1.935537E+04 -8.950640E+03 -1.479235E+04 -4.808380E+03
       131  23  3.014615E+05 -7.632980E+02  1.002271E+04 -3.738646E+03 -9.686607E+03 -4.361090E+03
       131  24  3.027471E+05 -3.523059E+02  5.904246E+03 -8.949069E+03 -4.580810E+03 -3.644961E+03
       131  25  4.379874E+05  3.979604E+04  5.127462E+04 -1.092993E+04 -1.460744E+04 -4.808214E+03
       131  26  4.200715E+05  2.853636E+04  3.796021E+04 -4.225405E+03 -9.339316E+03 -4.360955E+03
       131  27  4.047522E+05  2.485448E+04  2.997183E+04 -7.943213E+03 -4.071268E+03 -3.644856E+03
       132   1  2.188404E+05 -2.003863E+04 -1.501327E+04 -8.842519E+03  4.081781E+03  3.180115E+03
       132   2  2.351921E+05 -1.660676E+04 -1.321429E+04 -3.760148E+03  2.821558E+03  2.461735E+03
       132   3  2.518861E+05 -1.248569E+04 -1.042152E+04 -9.049164E+03  1.561235E+03  1.728087E+03
       132   4  3.022534E+05  5.602068E+02  4.591898E+03 -8.938207E+03  3.655612E+03  3.180037E+03
       132   5  3.020818E+05 -8.157094E+01  2.541657E+03 -3.752522E+03  2.386066E+03  2.461681E+03
       132   6  3.022542E+05 -3.250890E+01  1.491628E+03 -8.938152E+03  1.116453E+03  1.728058E+03
       132   7  3.856728E+05  2.115854E+04  2.419659E+04 -9.033908E+03  3.229386E+03  3.179960E+03
       132   8  3.689757E+05  1.644330E+04  1.829729E+04 -3.744894E+03  1.950527E+03  2.461627E+03
       132   9  3.526246E+05  1.242049E+04  1.340460E+04 -8.827131E+03  6.716349E+02  1.728029E+03
       132  10  2.188404E+05 -2.003864E+04 -1.501332E+04 -8.842529E+03 -1.322643E-09 -1.475510E-10
       132  11  2.351921E+05 -1.660677E+04 -1.321431E+04 -3.760154E+03 -2.955064E-09  1.616041E-10
       132  12  2.518861E+05 -1.248569E+04 -1.042153E+04 -9.049166E+03  4.368775E-11 -9.643052E-10
       132  13  3.022534E+05  5.601924E+02  4.591854E+03 -8.938216E+03 -3.894990E-11  2.123440E-10
       132  14  3.020818E+05 -8.157897E+01  2.541635E+03 -3.752526E+03 -3.283213E-09  1.214600E-10
       132  15  3.022542E+05 -3.251244E+01  1.491620E+03 -8.938154E+03  7.414228E-10 -1.297157E-09
       132  16  3.856727E+05  2.115853E+04  2.419655E+04 -9.033917E+03  2.764373E-09  6.024521E-10
       132  17  3.689757E+05  1.644329E+04  1.829727E+04 -3.744898E+03  7.388203E-10 -1.688854E-10
       132  18  3.526246E+05  1.242048E+04  1.340460E+04 -8.827132E+03 -1.747923E-09 -1.467940E-09
       132  19  2.188404E+05 -2.003863E+04 -1.501327E+04 -8.842519E+03 -4.081781E+03 -3.180115E+03
       132  20  2.351921E+05 -1.660676E+04 -1.321429E+04 -3.760148E+03 -2.821558E+03 -2.461735E+03
       132  21  2.518861E+05 -1.248569E+04 -1.042152E+04 -9.049164E+03 -1.561235E+03 -1.728087E+03
       132  22  3.022534E+05  5.602068E+02  4.591898E+03 -8.938207E+03 -3.655612E+03 -3.180037E+03
       132  23  3.020818E+05 -8.157094E+01  2.541657E+03 -3.752522E+03 -2.386066E+03 -2.461681E+03
       132  24  3.022542E+05 -3.250890E+01  1.491628E+03 -8.938152E+03 -1.116453E+03 -1.728058E+03
       132  25  3.856728E+05  2.115854E+04  2.419659E+04 -9.033908E+03 -3.229386E+03 -3.179960E+03
       132  26  3.689757E+05  1.644330E+04  1.829729E+04 -3.744894E+03 -1.950527E+03 -2.461627E+03
       132  27  3.526246E+05  1.242049E+04  1.340460E+04 -8.827131E+03 -6.716349E+02 -1.728029E+03
       133   1  2.703324E+05 -7.816456E+03 -6.298839E+03 -8.943761E+03  1.318170E+03  1.298657E+03
       133   2  2.867837E+05 -3.809543E+03 -2.923812E+03 -3.770533E+03  9.724699E+02  5.659448E+02
       133   3  3.032977E+05  2.610887E+02  6.924244E+02 -8.944787E+03  6.267350E+02 -1.674484E+02
       133   4  3.021920E+05  4.446001E+01  1.156254E+03 -8.932870E+03  8.786343E+02  1.298637E+03
       133   5  3.021610E+05 -1.070357E+01  6.981756E+02 -3.759138E+03  5.325003E+02  5.659309E+02
       133   6  3.021922E+05 -2.121223E+00  4.815447E+02 -8.932870E+03  1.863406E+02 -1.674562E+02
       133   7  3.340525E+05  7.905304E+03  8.611278E+03 -8.921979E+03  4.390764E+02  1.298618E+03
       133   8  3.175384E+05  3.788119E+03  4.320148E+03 -3.747742E+03  9.251999E+01  5.659169E+02
       133   9  3.010866E+05 -2.653311E+02  2.706656E+02 -8.920953E+03 -2.540531E+02 -1.674641E+02
       133  10  2.703324E+05 -7.816458E+03 -6.298846E+03 -8.943762E+03 -2.466722E-09 -9.638288E-10
       133  11  2.867837E+05 -3.809544E+03 -2.923815E+03 -3.770534E+03 -1.782404E-09  2.557788E-10
       133  12  3.032977E+05  2.610885E+02  6.924236E+02 -8.944787E+03  1.545153E-09 -4.183942E-12
       133  13  3.021920E+05  4.445799E+01  1.156249E+03 -8.932871E+03 -1.058296E-09 -9.906850E-10
       133  14  3.021610E+05 -1.070399E+01  6.981745E+02 -3.759138E+03  1.538081E-09  4.411399E-10
       133  15  3.021922E+05 -2.121262E+00  4.815445E+02 -8.932870E+03 -5.349433E-10  2.163954E-10
       133  16  3.340525E+05  7.905302E+03  8.611275E+03 -8.921980E+03  2.529850E-09 -1.041407E-09
       133  17  3.175384E+05  3.788119E+03  4.320147E+03 -3.747742E+03 -1.963553E-10  6.138112E-10
       133  18  3.010866E+05 -2.653311E+02  2.706654E+02 -8.920953E+03 -1.304541E-09  3.297103E-10
       133  19  2.703324E+05 -7.816456E+03 -6.298839E+03 -8.943761E+03 -1.318170E+03 -1.298657E+03
       133  20  2.867837E+05 -3.809543E+03 -2.923812E+03 -3.770533E+03 -9.724699E+02 -5.659448E+02
       133  21  3.032977E+05  2.610887E+02  6.924244E+02 -8.944787E+03 -6.267350E+02  1.674484E+02
       133  22  3.021920E+05  4.446001E+01  1.156254E+03 -8.932870E+03 -8.786343E+02 -1.298637E+03
       133  23  3.021610E+05 -1.070357E+01  6.981756E+02 -3.759138E+03 -5.325003E+02 -5.659309E+02
       133  24  3.021922E+05 -2.121223E+00  4.815447E+02 -8.932870E+03 -1.863406E+02  1.674562E+02
       133  25  3.340525E+05  7.905304E+03  8.611278E+03 -8.921979E+03 -4.390764E+02 -1.298618E+03
       133  26  3.175384E+05  3.788119E+03  4.320148E+03 -3.747742E+03 -9.251999E+01 -5.659169E+02
       133  27  3.010866E+05 -2.653311E+02  2.706656E+02 -8.920953E+03  2.540531E+02  1.674641E+02
       134   1  3.217844E+05  4.852286E+03  5.097352E+03 -8.933837E+03  5.442536E+02 -5.945601E+02
       134   2  3.382588E+05  8.909504E+03  8.928822E+03 -3.754791E+03  3.318813E+02 -1.328214E+03
       134   3  3.547713E+05  1.299765E+04  1.290670E+04 -8.929429E+03  1.195524E+02 -2.061418E+03
       134   4  3.021866E+05  1.004309E+00  4.318742E+02 -8.934261E+03  1.037520E+02 -5.945705E+02
       134   5  3.021676E+05 -6.293899E+00  4.280978E+02 -3.757400E+03 -1.083466E+02 -1.328238E+03
       134   6  3.021863E+05  1.731158E+01  5.705587E+02 -8.934261E+03 -3.203963E+02 -2.061455E+03
       134   7  2.825892E+05 -4.850305E+03 -4.233629E+03 -8.934684E+03 -3.367357E+02 -5.945809E+02
       134   8  2.660776E+05 -8.922184E+03 -8.072716E+03 -3.760009E+03 -5.485491E+02 -1.328262E+03
       134   9  2.496040E+05 -1.296323E+04 -1.176577E+04 -8.939093E+03 -7.603079E+02 -2.061492E+03
       134  10  3.217844E+05  4.852285E+03  5.097350E+03 -8.933837E+03 -7.192929E-10  1.022435E-10
       134  11  3.382588E+05  8.909502E+03  8.928819E+03 -3.754791E+03  9.794996E-10  5.620125E-10
       134  12  3.547713E+05  1.299765E+04  1.290669E+04 -8.929429E+03  5.531859E-10 -8.820869E-10
       134  13  3.021866E+05  1.003926E+00  4.318735E+02 -8.934260E+03  1.324290E-09  1.762439E-10
       134  14  3.021676E+05 -6.295797E+00  4.280945E+02 -3.757400E+03 -1.427617E-09  5.504536E-10
       134  15  3.021863E+05  1.730699E+01  5.705505E+02 -8.934262E+03  4.758278E-11 -3.769320E-10
       134  16  2.825892E+05 -4.850305E+03 -4.233630E+03 -8.934684E+03  1.250477E-09  1.229852E-10
       134  17  2.660776E+05 -8.922186E+03 -8.072720E+03 -3.760010E+03  1.240592E-09  4.060465E-10
       134  18  2.496040E+05 -1.296323E+04 -1.176578E+04 -8.939094E+03 -2.044603E-09  4.957364E-11
       134  19  3.217844E+05  4.852286E+03  5.097352E+03 -8.933837E+03 -5.442536E+02  5.945601E+02
       134  20  3.382588E+05  8.909504E+03  8.928822E+03 -3.754791E+03 -3.318813E+02  1.328214E+03
       134  21  3.547713E+05  1.299765E+04  1.290670E+04 -8.929429E+03 -1.195524E+02  2.061418E+03
       134  22  3.021866E+05  1.004309E+00  4.318742E+02 -8.934261E+03 -1.037520E+02  5.945705E+02
       134  23  3.021676E+05 -6.293899E+00  4.280978E+02 -3.757400E+03  1.083466E+02  1.328238E+03
       134  24  3.021863E+05  1.731158E+01  5.705587E+02 -8.934261E+03  3.203963E+02  2.061455E+03
       134  25  2.825892E+05 -4.850305E+03 -4.233629E+03 -8.934684E+03  3.367357E+02  5.945809E+02
       134  26  2.660776E+05 -8.922184E+03 -8.072716E+03 -3.760009E+03  5.485491E+02  1.328262E+03
       134  27  2.496040E+05 -1.296323E+04 -1.176577E+04 -8.939093E+03  7.603079E+02  2.061492E+03
       135   1  3.733302E+05  1.756265E+04  1.749670E+04 -8.893326E+03  1.153091E+01 -2.491571E+03
       135   2  3.898052E+05  2.162021E+04  2.177336E+04 -3.737698E+03 -5.599386E+02 -3.226131E+03
       135   3  4.064386E+05  2.597501E+04  2.649814E+04 -8.974093E+03 -1.131299E+03 -3.943980E+03
       135   4  3.022121E+05 -1.547059E+01  6.972150E+02 -8.942781E+03 -4.343633E+02 -2.491624E+03
       135   5  3.021335E+05 -3.716907E+01  1.124132E+03 -3.746742E+03 -9.957326E+02 -3.226216E+03
       135   6  3.022113E+05  2.367219E+02  1.992291E+03 -8.942816E+03 -1.556978E+03 -3.944094E+03
       135   7  2.310988E+05 -1.759395E+04 -1.610262E+04 -8.992231E+03 -8.802067E+02 -2.491677E+03
       135   8  2.144687E+05 -2.169510E+04 -1.952562E+04 -3.755786E+03 -1.431465E+03 -3.226300E+03
       135   9  1.979941E+05 -2.550234E+04 -2.251430E+04 -8.911546E+03 -1.982586E+03 -3.944209E+03
       135  10  3.733302E+05  1.756264E+04  1.749669E+04 -8.893326E+03  8.867175E-10 -7.687820E-10
       135  11  3.898052E+05  2.162020E+04  2.177334E+04 -3.737699E+03  1.969094E-09  4.101042E-10
       135  12  4.064386E+05  2.597500E+04  2.649811E+04 -8.974097E+03  1.365817E-09  6.494703E-11
       135  13  3.022121E+05 -1.547731E+01  6.972030E+02 -8.942782E+03 -1.031393E-09 -4.748569E-10
       135  14  3.021335E+05 -3.718052E+01  1.124110E+03 -3.746745E+03  2.514113E-09  1.296400E-10
       135  15  3.022113E+05  2.367045E+02  1.992258E+03 -8.942821E+03  1.063391E-09 -1.601517E-10
       135  16  2.310988E+05 -1.759396E+04 -1.610264E+04 -8.992233E+03  1.256068E-09 -1.855476E-10
       135  17  2.144687E+05 -2.169511E+04 -1.952565E+04 -3.755789E+03 -4.410149E-10 -2.549124E-10
       135  18  1.979941E+05 -2.550236E+04 -2.251434E+04 -8.911552E+03 -1.611533E-09 -3.605414E-10
       135  19  3.733302E+05  1.756265E+04  1.749670E+04 -8.893326E+03 -1.153091E+01  2.491571E+03
       135  20  3.898052E+05  2.162021E+04  2.177336E+04 -3.737698E+03  5.599386E+02  3.226131E+03
       135  21  4.064386E+05  2.597501E+04  2.649814E+04 -8.974093E+03  1.131299E+03  3.943980E+03
       135  22  3.022121E+05 -1.547059E+01  6.972150E+02 -8.942781E+03  4.343633E+02  2.491624E+03
       135  23  3.021335E+05 -3.716907E+01  1.124132E+03 -3.746742E+03  9.957326E+02  3.226216E+03
       135  24  3.022113E+05  2.367219E+02  1.992291E+03 -8.942816E+03  1.556978E+03  3.944094E+03
       135  25  2.310988E+05 -1.759395E+04 -1.610262E+04 -8.992231E+03  8.802067E+02  2.491677E+03
       135  26  2.144687E+05 -2.169510E+04 -1.952562E+04 -3.755786E+03  1.431465E+03  3.226300E+03
       135  27  1.979941E+05 -2.550234E+04 -2.251430E+04 -8.911546E+03  1.982586E+03  3.944209E+03
       136   1  4.252843E+05  3.020253E+04  3.153089E+04 -8.510117E+03 -1.439531E+03 -4.413683E+03
       136   2  4.413785E+05  3.413089E+04  3.717656E+04 -3.918886E+03 -3.817193E+03 -5.128802E+03
       136   3  4.586237E+05  4.133334E+04  4.519275E+04 -9.778548E+03 -6.194878E+03 -5.545978E+03
       136   4  3.024243E+05 -1.552858E+02  2.552472E+03 -8.955624E+03 -1.957682E+03 -4.413843E+03
       136   5  3.018636E+05 -3.324506E+02  4.315622E+03 -3.730560E+03 -4.156043E+03 -5.128974E+03
       136   6  3.024226E+05  2.733748E+03  8.325153E+03 -8.956509E+03 -6.354361E+03 -5.546134E+03
       136   7  1.795782E+05 -3.051418E+04 -2.642698E+04 -9.401043E+03 -2.475732E+03 -4.414002E+03
       136   8  1.623666E+05 -3.479718E+04 -2.854666E+04 -3.542278E+03 -4.494817E+03 -5.129145E+03
       136   9  1.462439E+05 -3.586759E+04 -2.854412E+04 -8.134679E+03 -6.513803E+03 -5.546291E+03
       136  10  4.252843E+05  3.020251E+04  3.153085E+04 -8.510122E+03 -2.092328E-10 -3.500796E-10
       136  11  4.413785E+05  3.413085E+04  3.717649E+04 -3.918902E+03 -8.688928E-10 -2.750455E-10
       136  12  4.586237E+05  4.133330E+04  4.519262E+04 -9.778575E+03 -4.306851E-10 -5.515518E-10
       136  13  3.024243E+05 -1.553078E+02  2.552429E+03 -8.955631E+03 -9.530489E-10 -3.789213E-10
       136  14  3.018636E+05 -3.324834E+02  4.315540E+03 -3.730578E+03 -1.534906E-10 -1.209137E-10
       136  15  3.024225E+05  2.733705E+03  8.325020E+03 -8.956537E+03  2.566008E-10  2.644679E-10
       136  16  1.795782E+05 -3.051420E+04 -2.642703E+04 -9.401052E+03 -8.383688E-10 -3.492347E-10
       136  17  1.623666E+05 -3.479721E+04 -2.854675E+04 -3.542297E+03 -1.539892E-09  9.591064E-10
       136  18  1.462438E+05 -3.586763E+04 -2.854426E+04 -8.134709E+03  9.980156E-10  1.105179E-09
       136  19  4.252843E+05  3.020253E+04  3.153089E+04 -8.510117E+03  1.439531E+03  4.413683E+03
       136  20  4.413785E+05  3.413089E+04  3.717656E+04 -3.918886E+03  3.817193E+03  5.128802E+03
       136  21  4.586237E+05  4.133334E+04  4.519275E+04 -9.778548E+03  6.194878E+03  5.545978E+03
       136  22  3.024243E+05 -1.552858E+02  2.552472E+03 -8.955624E+03  1.957682E+03  4.413843E+03
       136  23  3.018636E+05 -3.324506E+02  4.315622E+03 -3.730560E+03  4.156043E+03  5.128974E+03
       136  24  3.024226E+05  2.733748E+03  8.325153E+03 -8.956509E+03  6.354361E+03  5.546134E+03
       136  25  1.795782E+05 -3.051418E+04 -2.642698E+04 -9.401043E+03  2.475732E+03  4.414002E+03
       136  26  1.623666E+05 -3.479718E+04 -2.854666E+04 -3.542278E+03  4.494817E+03  5.129145E+03
       136  27  1.462439E+05 -3.586759E+04 -2.854412E+04 -8.134679E+03  6.513803E+03  5.546291E+03
       137   1  4.794309E+05  4.157545E+04  5.140763E+04 -4.601424E+03 -6.234206E+03 -6.636224E+03
       137   2  4.910490E+05  4.398761E+04  6.183826E+04 -6.966488E+03 -1.817319E+04 -6.955692E+03
       137   3  5.132025E+05  8.216700E+04  8.898774E+04 -1.975281E+04 -3.011536E+04 -2.306143E+03
       137   4  3.043998E+05 -1.648863E+03  1.026001E+04 -8.944361E+03 -7.913127E+03 -6.636956E+03
       137   5  2.993867E+05 -3.359840E+03  1.665893E+04 -3.742335E+03 -1.686653E+04 -6.955295E+03
       137   6  3.043937E+05  3.018408E+04  3.770759E+04 -8.961489E+03 -2.582272E+04 -2.304229E+03
       137   7  1.293970E+05 -4.487529E+04 -3.088968E+04 -1.328607E+04 -9.591577E+03 -6.637666E+03
       137   8  1.077582E+05 -5.070987E+04 -2.852293E+04 -5.191853E+02 -1.556026E+04 -6.954885E+03
       137   9  9.562495E+04 -2.180162E+04 -1.357564E+04  1.826198E+03 -2.153152E+04 -2.302165E+03
       137  10  4.794308E+05  4.157539E+04  5.140747E+04 -4.601458E+03 -2.167359E-11 -1.066298E-09
       137  11  4.910487E+05  4.398747E+04  6.183755E+04 -6.966590E+03 -1.396248E-09 -1.783703E-09
       137  12  5.132015E+05  8.216675E+04  8.898603E+04 -1.975287E+04 -2.103435E-09 -5.173167E-10
       137  13  3.043998E+05 -1.648927E+03  1.025981E+04 -8.944403E+03  9.778320E-10 -1.548892E-09
       137  14  2.993864E+05 -3.359968E+03  1.665830E+04 -3.742429E+03 -4.867035E-10  8.088293E-10
       137  15  3.043930E+05  3.018390E+04  3.770633E+04 -8.961537E+03 -5.037240E-10 -2.566430E-10
       137  16  1.293969E+05 -4.487536E+04 -3.088994E+04 -1.328612E+04  1.597998E-09  6.098943E-10
       137  17  1.077579E+05 -5.070999E+04 -2.852348E+04 -5.192725E+02  5.782855E-10  8.434064E-10
       137  18  9.562445E+04 -2.180175E+04 -1.357652E+04  1.826158E+03 -3.489069E-10 -6.446722E-10
       137  19  4.794309E+05  4.157545E+04  5.140763E+04 -4.601424E+03  6.234206E+03  6.636224E+03
       137  20  4.910490E+05  4.398761E+04  6.183826E+04 -6.966488E+03  1.817319E+04  6.955692E+03
       137  21  5.132025E+05  8.216700E+04  8.898774E+04 -1.975281E+04  3.011536E+04  2.306143E+03
       137  22  3.043998E+05 -1.648863E+03  1.026001E+04 -8.944361E+03  7.913127E+03  6.636956E+03
       137  23  2.993867E+05 -3.359840E+03  1.665893E+04 -3.742335E+03  1.686653E+04  6.955295E+03
       137  24  3.043937E+05  3.018408E+04  3.770759E+04 -8.961489E+03  2.582272E+04  2.304229E+03
       137  25  1.293970E+05 -4.487529E+04 -3.088968E+04 -1.328607E+04  9.591577E+03  6.637666E+03
       137  26  1.077582E+05 -5.070987E+04 -2.852293E+04 -5.191853E+02  1.556026E+04  6.954885E+03
       137  27  9.562495E+04 -2.180162E+04 -1.357564E+04  1.826198E+03  2.153152E+04  2.302165E+03
       138   1  2.650571E+06  1.070916E+07  2.635030E+06 -1.419545E+06  1.020112E+05  2.301841E+05
       138   2  1.931773E+06  8.134698E+06  1.897806E+06 -6.272826E+05  2.836551E+05  4.583380E+04
       138   3  1.357318E+06  5.652020E+06  1.320136E+06 -1.402590E+06  1.986581E+05 -1.394372E+05
       138   4  6.118608E+04  2.523860E+05  7.811214E+04 -1.362959E+06  1.029476E+05  3.904405E+04
       138   5 -1.338380E+04  2.278026E+05  4.184515E+04 -5.786003E+05  2.841146E+05  1.736824E+04
       138   6  2.942873E+04  2.615420E+05  5.414595E+04 -1.363034E+06  1.971414E+05 -5.987256E+03
       138   7 -2.536229E+06 -1.010581E+07 -2.486656E+06 -1.307109E+06  1.038606E+05 -1.489288E+05
       138   8 -1.962974E+06 -7.622029E+06 -1.818395E+06 -5.304030E+05  2.845735E+05 -1.074143E+04
       138   9 -1.300514E+06 -5.102310E+06 -1.213769E+06 -1.323713E+06  1.956341E+05  1.263190E+05
       138  10  2.650546E+06  1.070911E+07  2.634912E+06 -1.419564E+06  1.558005E-09  2.222927E-09
       138  11  1.931686E+06  8.134674E+06  1.897651E+06 -6.272931E+05  9.058834E-10  5.251133E-09
       138  12  1.357271E+06  5.651988E+06  1.320026E+06 -1.402568E+06  8.510065E-10 -9.320308E-09
       138  13  6.117428E+04  2.523815E+05  7.808932E+04 -1.362962E+06  2.743504E-09 -5.196846E-11
       138  14 -1.347057E+04  2.277806E+05  4.169285E+04 -5.786043E+05 -2.377458E-09 -3.029579E-11
       138  15  2.938699E+04  2.615316E+05  5.407286E+04 -1.363033E+06  1.619152E-09  1.312657E-09
       138  16 -2.536246E+06 -1.010584E+07 -2.486718E+06 -1.307097E+06 -1.119377E-09 -9.755435E-10
       138  17 -1.963061E+06 -7.622051E+06 -1.818547E+06 -5.304005E+05  4.483234E-09 -5.431846E-11
       138  18 -1.300560E+06 -5.102338E+06 -1.213872E+06 -1.323733E+06  2.567961E-09  6.696605E-09
       138  19  2.650571E+06  1.070916E+07  2.635030E+06 -1.419545E+06 -1.020112E+05 -2.301841E+05
       138  20  1.931773E+06  8.134698E+06  1.897806E+06 -6.272826E+05 -2.836551E+05 -4.583380E+04
       138  21  1.357318E+06  5.652020E+06  1.320136E+06 -1.402590E+06 -1.986581E+05  1.394372E+05
       138  22  6.118608E+04  2.523860E+05  7.811214E+04 -1.362959E+06 -1.029476E+05 -3.904405E+04
       138  23 -1.338380E+04  2.278026E+05  4.184515E+04 -5.786003E+05 -2.841146E+05 -1.736824E+04
       138  24  2.942873E+04  2.615420E+05  5.414595E+04 -1.363034E+06 -1.971414E+05  5.987256E+03
       138  25 -2.536229E+06 -1.010581E+07 -2.486656E+06 -1.307109E+06 -1.038606E+05  1.489288E+05
       138  26 -1.962974E+06 -7.622029E+06 -1.818395E+06 -5.304030E+05 -2.845735E+05  1.074143E+04
       138  27 -1.300514E+06 -5.102310E+06 -1.213769E+06 -1.323713E+06 -1.956341E+05 -1.263190E+05
       139   1  6.643615E+05  2.811821E+06  6.591616E+05 -1.394854E+06  9.533668E+04 -7.338194E+04
       139   2  2.158573E+04  3.086571E+05  9.029036E+04 -5.746710E+05  3.277796E+03 -1.142190E+05
       139   3 -5.359445E+05 -2.205628E+06 -4.411530E+05 -1.327792E+06 -8.879096E+04 -1.549081E+05
       139   4  3.203961E+04  2.506557E+05  5.680671E+04 -1.364077E+06  9.461562E+04 -1.771186E+04
       139   5  9.455778E+03  2.592020E+05  7.864130E+04 -5.772222E+05  2.566587E+03 -5.863831E+04
       139   6  7.252373E+04  2.507146E+05  1.382430E+05 -1.363567E+06 -8.950920E+04 -9.957552E+04
       139   7 -6.007464E+05 -2.304485E+06 -5.459871E+05 -1.333403E+06  9.389838E+04  3.773082E+04
       139   8 -2.672656E+03  2.097557E+05  6.700369E+04 -5.797732E+05  1.854891E+03 -3.061970E+03
       139   9  6.805642E+05  2.712626E+06  7.172344E+05 -1.399461E+06 -9.023224E+04 -4.402411E+04
       139  10  6.643504E+05  2.811813E+06  6.591345E+05 -1.394848E+06 -2.227118E-09  5.811041E-10
       139  11  2.158221E+04  3.086431E+05  9.026584E+04 -5.746707E+05  6.595185E-09  7.776025E-09
       139  12 -5.359594E+05 -2.205656E+06 -4.412132E+05 -1.327803E+06 -6.013473E-09 -9.708119E-09
       139  13  3.202992E+04  2.506529E+05  5.678931E+04 -1.364076E+06 -1.402015E-09 -1.065502E-11
       139  14  9.454848E+03  2.591983E+05  7.863483E+04 -5.772221E+05  7.980672E-09  6.037264E-11
       139  15  7.251244E+04  2.507018E+05  1.382092E+05 -1.363574E+06  1.006795E-08  1.428796E-09
       139  16 -6.007563E+05 -2.304489E+06 -5.460064E+05 -1.333405E+06 -3.809747E-10  5.539215E-09
       139  17 -2.672663E+03  2.097557E+05  6.700366E+04 -5.797732E+05 -1.033846E-08 -1.288254E-09
       139  18  6.805549E+05  2.712622E+06  7.172154E+05 -1.399464E+06  9.723851E-10  7.991570E-09
       139  19  6.643615E+05  2.811821E+06  6.591616E+05 -1.394854E+06 -9.533668E+04  7.338194E+04
       139  20  2.158573E+04  3.086571E+05  9.029036E+04 -5.746710E+05 -3.277796E+03  1.142190E+05
       139  21 -5.359445E+05 -2.205628E+06 -4.411530E+05 -1.327792E+06  8.879096E+04  1.549081E+05
       139  22  3.203961E+04  2.506557E+05  5.680671E+04 -1.364077E+06 -9.461562E+04  1.771186E+04
       139  23  9.455778E+03  2.592020E+05  7.864130E+04 -5.772222E+05 -2.566587E+03  5.863831E+04
       139  24  7.252373E+04  2.507146E+05  1.382430E+05 -1.363567E+06  8.950920E+04  9.957552E+04
       139  25 -6.007464E+05 -2.304485E+06 -5.459871E+05 -1.333403E+06 -9.389838E+04 -3.773082E+04
       139  26 -2.672656E+03  2.097557E+05  6.700369E+04 -5.797732E+05 -1.854891E+03  3.061970E+03
       139  27  6.805642E+05  2.712626E+06  7.172344E+05 -1.399461E+06  9.023224E+04  4.402411E+04
       140   1 -1.300108E+06 -4.973812E+06 -1.073380E+06 -1.383653E+06 -1.900491E+05 -2.587348E+05
       140   2 -1.984822E+06 -7.560398E+06 -1.575039E+06 -4.846370E+05 -2.788290E+05 -2.406951E+05
       140   3 -2.091489E+06 -9.973574E+06 -1.939726E+06 -1.155437E+06 -1.011247E+05 -2.209897E+05
       140   4  3.627449E+03  2.917546E+05  1.708701E+05 -1.363678E+06 -1.915830E+05 -1.276774E+05
       140   5 -5.889483E+04  1.905677E+05  2.618097E+05 -5.783513E+05 -2.783484E+05 -2.695647E+05
       140   6  4.811936E+05  2.827145E+05  5.994872E+05 -1.361227E+06 -1.001122E+05 -4.097478E+05
       140   7  1.305391E+06  5.582986E+06  1.413270E+06 -1.343427E+06 -1.931010E+05  4.495771E+03
       140   8  1.862726E+06  7.997177E+06  2.094488E+06 -6.731216E+05 -2.778632E+05 -2.987796E+05
       140   9  3.046135E+06  1.063574E+07  3.131024E+06 -1.570256E+06 -9.898539E+04 -6.016133E+05
       140  10 -1.300165E+06 -4.973894E+06 -1.073575E+06 -1.383692E+06 -2.941114E-09 -1.070607E-09
       140  11 -1.984921E+06 -7.560481E+06 -1.575295E+06 -4.846914E+05  3.264441E-09  5.130758E-09
       140  12 -2.091513E+06 -9.973630E+06 -1.939839E+06 -1.155456E+06  5.736852E-10 -1.309417E-09
       140  13  3.583578E+03  2.917272E+05  1.707703E+05 -1.363698E+06 -6.618346E-09 -9.949954E-12
       140  14 -5.899762E+04  1.904688E+05  2.615272E+05 -5.784117E+05  3.152802E-09 -4.455576E-11
       140  15  4.811377E+05  2.825316E+05  5.991525E+05 -1.361260E+06 -7.806987E-10  2.756735E-10
       140  16  1.305351E+06  5.582976E+06  1.413200E+06 -1.343427E+06  8.057755E-09  6.414816E-09
       140  17  1.862619E+06  7.997061E+06  2.094176E+06 -6.731881E+05 -1.009155E-10 -2.191068E-09
       140  18  3.046029E+06  1.063536E+07  3.130336E+06 -1.570304E+06 -2.682508E-09  1.035417E-09
       140  19 -1.300108E+06 -4.973812E+06 -1.073380E+06 -1.383653E+06  1.900491E+05  2.587348E+05
       140  20 -1.984822E+06 -7.560398E+06 -1.575039E+06 -4.846370E+05  2.788290E+05  2.406951E+05
       140  21 -2.091489E+06 -9.973574E+06 -1.939726E+06 -1.155437E+06  1.011247E+05  2.209897E+05
       140  22  3.627449E+03  2.917546E+05  1.708701E+05 -1.363678E+06  1.915830E+05  1.276774E+05
       140  23 -5.889483E+04  1.905677E+05  2.618097E+05 -5.783513E+05  2.783484E+05  2.695647E+05
       140  24  4.811936E+05  2.827145E+05  5.994872E+05 -1.361227E+06  1.001122E+05  4.097478E+05
       140  25  1.305391E+06  5.582986E+06  1.413270E+06 -1.343427E+06  1.931010E+05 -4.495771E+03
       140  26  1.862726E+06  7.997177E+06  2.094488E+06 -6.731216E+05  2.778632E+05  2.987796E+05
       140  27  3.046135E+06  1.063574E+07  3.131024E+06 -1.570256E+06  9.898539E+04  6.016133E+05
       141   1 -5.712970E+05 -2.505805E+05 -1.274439E+05 -2.426572E+05 -6.170011E+04 -1.821116E+04
       141   2 -5.395375E+05 -1.973139E+05 -7.736831E+04 -2.295626E+05 -3.806906E+04  2.242869E+03
       141   3 -5.150219E+05 -1.687491E+05 -5.326200E+04 -2.168420E+05 -1.165987E+04  1.530853E+04
       141   4 -2.660743E+05 -1.107064E+05 -4.520184E+04 -1.326874E+05 -3.123996E+04 -6.777062E+03
       141   5 -2.616921E+05 -8.316608E+04 -2.168869E+04 -1.388055E+05 -2.386462E+04  7.574117E+03
       141   6 -2.613280E+05 -7.710119E+04 -1.125381E+04 -1.452997E+05 -1.371354E+04  1.453674E+04
       141   7  3.923669E+04  2.918564E+04  3.703403E+04 -2.266585E+04 -7.641794E+02  4.666087E+03
       141   8  1.623283E+04  3.099410E+04  3.398766E+04 -4.800906E+04 -9.653474E+03  1.290863E+04
       141   9 -7.563245E+03  1.455429E+04  3.075349E+04 -7.372933E+04 -1.576812E+04  1.376460E+04
       141  10 -5.713012E+05 -2.505818E+05 -1.274517E+05 -2.426581E+05 -3.216851E-09  6.821669E-10
       141  11 -5.395390E+05 -1.973143E+05 -7.737105E+04 -2.295625E+05 -2.266889E-09  3.547538E-09
       141  12 -5.150221E+05 -1.687494E+05 -5.326270E+04 -2.168419E+05  3.762353E-09  4.089846E-09
       141  13 -2.660754E+05 -1.107067E+05 -4.520376E+04 -1.326876E+05  2.346093E-10  1.608249E-10
       141  14 -2.616927E+05 -8.316630E+04 -2.168987E+04 -1.388053E+05  6.562667E-09  9.939232E-10
       141  15 -2.613283E+05 -7.710147E+04 -1.125456E+04 -1.452996E+05  1.277612E-08  3.147109E-09
       141  16  3.923669E+04  2.918562E+04  3.703399E+04 -2.266585E+04  6.020090E-11 -1.292877E-10
       141  17  1.623269E+04  3.099390E+04  3.398717E+04 -4.800896E+04  8.093372E-09  2.453039E-10
       141  18 -7.563562E+03  1.455402E+04  3.075266E+04 -7.372916E+04  1.332069E-08  3.701376E-09
       141  19 -5.712970E+05 -2.505805E+05 -1.274439E+05 -2.426572E+05  6.170011E+04  1.821116E+04
       141  20 -5.395375E+05 -1.973139E+05 -7.736831E+04 -2.295626E+05  3.806906E+04 -2.242869E+03
       141  21 -5.150219E+05 -1.687491E+05 -5.326200E+04 -2.168420E+05  1.165987E+04 -1.530853E+04
       141  22 -2.660743E+05 -1.107064E+05 -4.520184E+04 -1.326874E+05  3.123996E+04  6.777062E+03
       141  23 -2.616921E+05 -8.316608E+04 -2.168869E+04 -1.388055E+05  2.386462E+04 -7.574117E+03
       141  24 -2.613280E+05 -7.710119E+04 -1.125381E+04 -1.452997E+05  1.371354E+04 -1.453674E+04
       141  25  3.923669E+04  2.918564E+04  3.703403E+04 -2.266585E+04  7.641794E+02 -4.666087E+03
       141  26  1.623283E+04  3.099410E+04  3.398766E+04 -4.800906E+04  9.653474E+03 -1.290863E+04
       141  27 -7.563245E+03  1.455429E+04  3.075349E+04 -7.372933E+04  1.576812E+04 -1.376460E+04
       142   1 -4.908196E+05 -1.605278E+05 -4.558530E+04 -2.117028E+05 -1.011674E+04  1.495792E+04
       142   2 -4.582864E+05 -1.428596E+05 -3.418162E+04 -1.994998E+05 -5.528943E+03  1.513925E+04
       142   3 -4.225948E+05 -1.314375E+05 -2.630688E+04 -1.920001E+05 -6.171756E+02  1.445745E+04
       142   4 -2.600037E+05 -7.616479E+04 -8.333409E+03 -1.453092E+05 -1.214017E+04  1.419763E+04
       142   5 -2.615820E+05 -7.190442E+04 -4.318462E+03 -1.434539E+05 -9.451094E+03  1.366655E+04
       142   6 -2.596261E+05 -7.351352E+04 -2.326721E+03 -1.463024E+05 -6.438296E+03  1.227242E+04
       142   7 -2.913348E+04  8.203116E+03  2.891659E+04 -7.889290E+04 -1.416437E+04  1.343704E+04
       142   8 -6.483560E+04 -9.448497E+02  2.554425E+04 -8.739112E+04 -1.337456E+04  1.219336E+04
       142   9 -9.662628E+04 -1.558585E+04  2.165391E+04 -1.005928E+05 -1.226110E+04  1.008676E+04
       142  10 -4.908198E+05 -1.605280E+05 -4.558591E+04 -2.117027E+05  1.309676E-08  5.728981E-09
       142  11 -4.582865E+05 -1.428599E+05 -3.418210E+04 -1.994998E+05  1.880175E-08  2.783907E-09
       142  12 -4.225948E+05 -1.314377E+05 -2.630728E+04 -1.920001E+05  1.240446E-08  1.357982E-09
       142  13 -2.600039E+05 -7.616505E+04 -8.334065E+03 -1.453090E+05  1.728348E-08  4.582909E-09
       142  14 -2.615821E+05 -7.190465E+04 -4.318981E+03 -1.434538E+05  1.073069E-08  2.116069E-09
       142  15 -2.596261E+05 -7.351370E+04 -2.327082E+03 -1.463023E+05  2.021338E-09  2.766273E-10
       142  16 -2.913375E+04  8.202868E+03  2.891588E+04 -7.889274E+04  9.146686E-09  2.891958E-09
       142  17 -6.483583E+04 -9.450573E+02  2.554364E+04 -8.739099E+04  2.046647E-09  3.019737E-09
       142  18 -9.662646E+04 -1.558600E+04  2.165343E+04 -1.005927E+05 -5.048208E-09 -1.313252E-09
       142  19 -4.908196E+05 -1.605278E+05 -4.558530E+04 -2.117028E+05  1.011674E+04 -1.495792E+04
       142  20 -4.582864E+05 -1.428596E+05 -3.418162E+04 -1.994998E+05  5.528943E+03 -1.513925E+04
       142  21 -4.225948E+05 -1.314375E+05 -2.630688E+04 -1.920001E+05  6.171756E+02 -1.445745E+04
       142  22 -2.600037E+05 -7.616479E+04 -8.333409E+03 -1.453092E+05  1.214017E+04 -1.419763E+04
       142  23 -2.615820E+05 -7.190442E+04 -4.318462E+03 -1.434539E+05  9.451094E+03 -1.366655E+04
       142  24 -2.596261E+05 -7.351352E+04 -2.326721E+03 -1.463024E+05  6.438296E+03 -1.227242E+04
       142  25 -2.913348E+04  8.203116E+03  2.891659E+04 -7.889290E+04  1.416437E+04 -1.343704E+04
       142  26 -6.483560E+04 -9.448497E+02  2.554425E+04 -8.739112E+04  1.337456E+04 -1.219336E+04
       142  27 -9.662628E+04 -1.558585E+04  2.165391E+04 -1.005928E+05  1.226110E+04 -1.008676E+04
       143   1 -4.007719E+05 -1.237475E+05 -2.231814E+04 -1.860395E+05  2.792631E+02  1.300139E+04
       143   2 -3.683720E+05 -1.090532E+05 -1.636792E+04 -1.738113E+05  1.981587E+03  1.056688E+04
       143   3 -3.317032E+05 -9.894033E+04 -1.097333E+04 -1.666254E+05  3.721558E+03  8.031492E+03
       143   4 -2.594848E+05 -7.345511E+04 -1.736595E+03 -1.462876E+05 -5.539116E+03  1.081757E+04
       143   5 -2.616273E+05 -7.110280E+04 -9.378430E+02 -1.437971E+05 -4.058796E+03  8.300001E+03
       143   6 -2.594584E+05 -7.328785E+04 -5.188260E+02 -1.463491E+05 -2.540877E+03  5.681545E+03
       143   7 -1.181759E+05 -2.316058E+04  1.884491E+04 -1.065272E+05 -1.135889E+04  8.633239E+03
       143   8 -1.548709E+05 -3.315138E+04  1.449210E+04 -1.137781E+05 -1.010023E+04  6.032725E+03
       143   9 -1.872087E+05 -4.763514E+04  9.935535E+03 -1.260708E+05 -8.803999E+03  3.331342E+03
       143  10 -4.007720E+05 -1.237476E+05 -2.231846E+04 -1.860395E+05  4.226785E-09  1.053999E-09
       143  11 -3.683720E+05 -1.090533E+05 -1.636814E+04 -1.738113E+05  2.546908E-08  1.158459E-08
       143  12 -3.317032E+05 -9.894040E+04 -1.097347E+04 -1.666254E+05  6.108060E-08  2.223648E-08
       143  13 -2.594849E+05 -7.345525E+04 -1.736872E+03 -1.462876E+05 -3.030272E-09  1.830780E-10
       143  14 -2.616274E+05 -7.110287E+04 -9.380034E+02 -1.437970E+05 -5.778842E-09  7.065724E-09
       143  15 -2.594584E+05 -7.328789E+04 -5.188987E+02 -1.463491E+05  8.182920E-09  1.821223E-08
       143  16 -1.181761E+05 -2.316069E+04  1.884453E+04 -1.065271E+05 -7.785024E-09 -4.566268E-09
       143  17 -1.548710E+05 -3.315145E+04  1.449184E+04 -1.137781E+05 -3.324931E-08 -1.746457E-08
       143  18 -1.872088E+05 -4.763517E+04  9.935368E+03 -1.260708E+05 -4.266576E-08 -2.057195E-08
       143  19 -4.007719E+05 -1.237475E+05 -2.231814E+04 -1.860395E+05 -2.792631E+02 -1.300139E+04
       143  20 -3.683720E+05 -1.090532E+05 -1.636792E+04 -1.738113E+05 -1.981587E+03 -1.056688E+04
       143  21 -3.317032E+05 -9.894033E+04 -1.097333E+04 -1.666254E+05 -3.721558E+03 -8.031492E+03
       143  22 -2.594848E+05 -7.345511E+04 -1.736595E+03 -1.462876E+05  5.539116E+03 -1.081757E+04
       143  23 -2.616273E+05 -7.110280E+04 -9.378430E+02 -1.437971E+05  4.058796E+03 -8.300001E+03
       143  24 -2.594584E+05 -7.328785E+04 -5.188260E+02 -1.463491E+05  2.540877E+03 -5.681545E+03
       143  25 -1.181759E+05 -2.316058E+04  1.884491E+04 -1.065272E+05  1.135889E+04 -8.633239E+03
       143  26 -1.548709E+05 -3.315138E+04  1.449210E+04 -1.137781E+05  1.010023E+04 -6.032725E+03
       143  27 -1.872087E+05 -4.763514E+04  9.935535E+03 -1.260708E+05  8.803999E+03 -3.331342E+03
       144   1 -3.101294E+05 -9.126927E+04 -7.605428E+03 -1.605838E+05  4.418431E+03  6.399668E+03
       144   2 -2.777758E+05 -7.679016E+04 -2.548378E+03 -1.483325E+05  5.624277E+03  3.600832E+03
       144   3 -2.410215E+05 -6.674425E+04  2.404840E+03 -1.411430E+05  6.833895E+03  7.918207E+02
       144   4 -2.594413E+05 -7.328783E+04 -3.929989E+02 -1.463445E+05 -1.843940E+03  4.049829E+03
       144   5 -2.616425E+05 -7.107307E+04 -2.282553E+02 -1.438131E+05 -6.607043E+02  1.242533E+03
       144   6 -2.594406E+05 -7.328754E+04 -1.498559E+02 -1.463443E+05  5.262928E+02 -1.574936E+03
       144   7 -2.087497E+05 -5.530582E+04  6.819771E+03 -1.321038E+05 -8.106931E+03  1.699759E+03
       144   8 -2.455086E+05 -6.535587E+04  2.092066E+03 -1.392935E+05 -6.945900E+03 -1.115846E+03
       144   9 -2.778592E+05 -7.983077E+04 -2.704385E+03 -1.515454E+05 -5.781115E+03 -3.941620E+03
       144  10 -3.101294E+05 -9.126932E+04 -7.605541E+03 -1.605839E+05 -4.752830E-08 -2.006993E-08
       144  11 -2.777759E+05 -7.679019E+04 -2.548462E+03 -1.483326E+05 -3.222789E-08 -1.535220E-08
       144  12 -2.410215E+05 -6.674427E+04  2.404751E+03 -1.411430E+05 -4.293167E-09 -4.913226E-09
       144  13 -2.594413E+05 -7.328785E+04 -3.930361E+02 -1.463445E+05  9.896483E-09  1.947552E-08
       144  14 -2.616425E+05 -7.107307E+04 -2.282590E+02 -1.438131E+05 -2.728864E-10  1.027265E-08
       144  15 -2.594406E+05 -7.328755E+04 -1.498611E+02 -1.463443E+05  1.391683E-09  4.125894E-09
       144  16 -2.087497E+05 -5.530585E+04  6.819642E+03 -1.321038E+05  6.881510E-08  2.411578E-08
       144  17 -2.455087E+05 -6.535588E+04  2.091973E+03 -1.392935E+05  3.203262E-08  1.645728E-08
       144  18 -2.778592E+05 -7.983079E+04 -2.704477E+03 -1.515454E+05  2.424456E-09  7.616347E-09
       144  19 -3.101294E+05 -9.126927E+04 -7.605428E+03 -1.605838E+05 -4.418431E+03 -6.399668E+03
       144  20 -2.777758E+05 -7.679016E+04 -2.548378E+03 -1.483325E+05 -5.624277E+03 -3.600832E+03
       144  21 -2.410215E+05 -6.674425E+04  2.404840E+03 -1.411430E+05 -6.833895E+03 -7.918207E+02
       144  22 -2.594413E+05 -7.328783E+04 -3.929989E+02 -1.463445E+05  1.843940E+03 -4.049829E+03
       144  23 -2.616425E+05 -7.107307E+04 -2.282553E+02 -1.438131E+05  6.607043E+02 -1.242533E+03
       144  24 -2.594406E+05 -7.328754E+04 -1.498559E+02 -1.463443E+05 -5.262928E+02  1.574936E+03
       144  25 -2.087497E+05 -5.530582E+04  6.819771E+03 -1.321038E+05  8.106931E+03 -1.699759E+03
       144  26 -2.455086E+05 -6.535587E+04  2.092066E+03 -1.392935E+05  6.945900E+03  1.115846E+03
       144  27 -2.778592E+05 -7.983077E+04 -2.704385E+03 -1.515454E+05  5.781115E+03  3.941620E+03
       145   1 -2.194788E+05 -5.906893E+04  5.647752E+03 -1.350933E+05  7.483499E+03 -8.678142E+02
       145   2 -1.871374E+05 -4.459781E+04  1.052483E+04 -1.228376E+05  8.594106E+03 -3.712338E+03
       145   3 -1.503790E+05 -3.454489E+04  1.537450E+04 -1.156422E+05  9.700051E+03 -6.544147E+03
       145   4 -2.594398E+05 -7.328870E+04 -1.326145E+02 -1.463432E+05  1.175887E+03 -3.234608E+03
       145   5 -2.616462E+05 -7.108058E+04 -1.314757E+02 -1.438117E+05  2.314249E+03 -6.068879E+03
       145   6 -2.594422E+05 -7.329619E+04 -1.797382E+02 -1.463410E+05  3.447955E+03 -8.890456E+03
       145   7 -2.993984E+05 -8.750806E+04 -5.912680E+03 -1.575923E+05 -5.131218E+03 -5.601212E+03
       145   8 -3.361489E+05 -9.756270E+04 -1.078765E+04 -1.647835E+05 -3.964814E+03 -8.425123E+03
       145   9 -3.684938E+05 -1.120467E+05 -1.573427E+04 -1.770351E+05 -2.803062E+03 -1.123636E+04
       145  10 -2.194789E+05 -5.906895E+04  5.647645E+03 -1.350933E+05 -3.602276E-09 -2.985745E-09
       145  11 -1.871375E+05 -4.459785E+04  1.052466E+04 -1.228376E+05 -1.390967E-08 -6.207237E-09
       145  12 -1.503791E+05 -3.454496E+04  1.537425E+04 -1.156421E+05 -1.635277E-08 -6.017491E-09
       145  13 -2.594398E+05 -7.328871E+04 -1.326368E+02 -1.463432E+05 -6.504343E-09  6.534279E-10
       145  14 -2.616462E+05 -7.108062E+04 -1.315550E+02 -1.438117E+05 -1.220998E-08 -2.473483E-09
       145  15 -2.594422E+05 -7.329627E+04 -1.799090E+02 -1.463410E+05 -1.341133E-08 -2.662546E-09
       145  16 -2.993984E+05 -8.750810E+04 -5.912788E+03 -1.575923E+05 -6.622475E-09  4.620241E-09
       145  17 -3.361489E+05 -9.756279E+04 -1.078781E+04 -1.647835E+05 -5.552994E-09  2.471133E-09
       145  18 -3.684938E+05 -1.120468E+05 -1.573453E+04 -1.770351E+05  5.139253E-09  1.499040E-09
       145  19 -2.194788E+05 -5.906893E+04  5.647752E+03 -1.350933E+05 -7.483499E+03  8.678142E+02
       145  20 -1.871374E+05 -4.459781E+04  1.052483E+04 -1.228376E+05 -8.594106E+03  3.712338E+03
       145  21 -1.503790E+05 -3.454489E+04  1.537450E+04 -1.156422E+05 -9.700051E+03  6.544147E+03
       145  22 -2.594398E+05 -7.328870E+04 -1.326145E+02 -1.463432E+05 -1.175887E+03  3.234608E+03
       145  23 -2.616462E+05 -7.108058E+04 -1.314757E+02 -1.438117E+05 -2.314249E+03  6.068879E+03
       145  24 -2.594422E+05 -7.329619E+04 -1.797382E+02 -1.463410E+05 -3.447955E+03  8.890456E+03
       145  25 -2.993984E+05 -8.750806E+04 -5.912680E+03 -1.575923E+05  5.131218E+03  5.601212E+03
       145  26 -3.361489E+05 -9.756270E+04 -1.078765E+04 -1.647835E+05  3.964814E+03  8.425123E+03
       145  27 -3.684938E+05 -1.120467E+05 -1.573427E+04 -1.770351E+05  2.803062E+03  1.123636E+04
       146   1 -1.288394E+05 -2.686640E+04  1.857414E+04 -1.095952E+05  1.035500E+04 -8.188810E+03
       146   2 -9.652477E+04 -1.238408E+04  2.340861E+04 -9.733329E+04  1.133057E+04 -1.099441E+04
       146   3 -5.978629E+04 -2.312175E+03  2.829409E+04 -9.011668E+04  1.226186E+04 -1.368137E+04
       146   4 -2.594511E+05 -7.329698E+04 -2.248176E+02 -1.463412E+05  4.102933E+03 -1.053528E+04
       146   5 -2.616444E+05 -7.110363E+04 -3.857302E+02 -1.438051E+05  5.339475E+03 -1.324331E+04
       146   6 -2.594667E+05 -7.337261E+04 -7.024728E+02 -1.463150E+05  6.531733E+03 -1.583268E+04
       146   7 -3.900441E+05 -1.197256E+05 -1.902371E+04 -1.830798E+05 -2.147749E+03 -1.288123E+04
       146   8 -4.267331E+05 -1.298197E+05 -2.417980E+04 -1.902649E+05 -6.499003E+02 -1.549157E+04
       146   9 -4.591010E+05 -1.444277E+05 -2.969848E+04 -2.024954E+05  8.036260E+02 -1.798322E+04
       146  10 -1.288395E+05 -2.686650E+04  1.857381E+04 -1.095951E+05 -5.916668E-08 -1.884479E-08
       146  11 -9.652494E+04 -1.238425E+04  2.340814E+04 -9.733319E+04 -1.436988E-10  1.058190E-08
       146  12 -5.978650E+04 -2.312416E+03  2.829346E+04 -9.011654E+04  6.510901E-08  4.079800E-08
       146  13 -2.594512E+05 -7.329710E+04 -2.250578E+02 -1.463411E+05 -4.407686E-09 -5.454123E-09
       146  14 -2.616445E+05 -7.110382E+04 -3.861133E+02 -1.438051E+05  1.679609E-09 -1.442610E-08
       146  15 -2.594668E+05 -7.337289E+04 -7.030240E+02 -1.463149E+05  2.147975E-08 -2.173677E-08
       146  16 -3.900441E+05 -1.197258E+05 -1.902403E+04 -1.830799E+05  5.154471E-08  1.685550E-08
       146  17 -4.267332E+05 -1.298200E+05 -2.418025E+04 -1.902649E+05 -2.060149E-09 -1.796568E-09
       146  18 -4.591011E+05 -1.444280E+05 -2.969909E+04 -2.024954E+05 -5.886386E-08 -1.217966E-08
       146  19 -1.288394E+05 -2.686640E+04  1.857414E+04 -1.095952E+05 -1.035500E+04  8.188810E+03
       146  20 -9.652477E+04 -1.238408E+04  2.340861E+04 -9.733329E+04 -1.133057E+04  1.099441E+04
       146  21 -5.978629E+04 -2.312175E+03  2.829409E+04 -9.011668E+04 -1.226186E+04  1.368137E+04
       146  22 -2.594511E+05 -7.329698E+04 -2.248176E+02 -1.463412E+05 -4.102933E+03  1.053528E+04
       146  23 -2.616444E+05 -7.110363E+04 -3.857302E+02 -1.438051E+05 -5.339475E+03  1.324331E+04
       146  24 -2.594667E+05 -7.337261E+04 -7.024728E+02 -1.463150E+05 -6.531733E+03  1.583268E+04
       146  25 -3.900441E+05 -1.197256E+05 -1.902371E+04 -1.830798E+05  2.147749E+03  1.288123E+04
       146  26 -4.267331E+05 -1.298197E+05 -2.417980E+04 -1.902649E+05  6.499003E+02  1.549157E+04
       146  27 -4.591010E+05 -1.444277E+05 -2.969848E+04 -2.024954E+05 -8.036260E+02  1.798322E+04
       147   1 -3.821603E+04  5.369217E+03  3.148789E+04 -8.409568E+04  1.297311E+04 -1.518592E+04
       147   2 -6.214536E+03  1.997858E+04  3.674980E+04 -7.157018E+04  1.240554E+04 -1.779097E+04
       147   3  3.025495E+04  3.007455E+04  4.296870E+04 -6.390796E+04  1.145753E+04 -1.938228E+04
       147   4 -2.595310E+05 -7.338918E+04 -9.374563E+02 -1.463098E+05  7.239863E+03 -1.733866E+04
       147   5 -2.616222E+05 -7.144779E+04 -1.735784E+03 -1.436777E+05  8.904421E+03 -1.910631E+04
       147   6 -2.596895E+05 -7.446280E+04 -3.346108E+03 -1.459099E+05  1.018857E+04 -1.985992E+04
       147   7 -4.807957E+05 -1.521434E+05 -3.336393E+04 -2.085037E+05  1.508691E+03 -1.949063E+04
       147   8 -5.169609E+05 -1.628677E+05 -4.022261E+04 -2.157576E+05  5.404797E+03 -2.042109E+04
       147   9 -5.495437E+05 -1.789912E+05 -4.966257E+04 -2.278757E+05  8.920234E+03 -2.033732E+04
       147  10 -3.821627E+04  5.368924E+03  3.148714E+04 -8.409552E+04 -9.672582E-08 -1.951628E-08
       147  11 -6.214786E+03  1.997820E+04  3.674892E+04 -7.157000E+04 -4.796891E-09  8.007339E-09
       147  12  3.025471E+04  3.007411E+04  4.296775E+04 -6.390778E+04  8.862912E-08  3.998267E-08
       147  13 -2.595312E+05 -7.338951E+04 -9.381196E+02 -1.463097E+05  1.765492E-08 -2.227478E-08
       147  14 -2.616224E+05 -7.144820E+04 -1.736619E+03 -1.436775E+05  1.486767E-08 -1.946877E-08
       147  15 -2.596897E+05 -7.446325E+04 -3.347044E+03 -1.459097E+05  1.783770E-08 -1.177069E-08
       147  16 -4.807958E+05 -1.521438E+05 -3.336465E+04 -2.085037E+05  9.869431E-08  5.060175E-08
       147  17 -5.169610E+05 -1.628682E+05 -4.022345E+04 -2.157575E+05  3.458287E-09  1.326689E-08
       147  18 -5.495439E+05 -1.789917E+05 -4.966350E+04 -2.278756E+05 -7.872720E-08 -2.011318E-08
       147  19 -3.821603E+04  5.369217E+03  3.148789E+04 -8.409568E+04 -1.297311E+04  1.518592E+04
       147  20 -6.214536E+03  1.997858E+04  3.674980E+04 -7.157018E+04 -1.240554E+04  1.779097E+04
       147  21  3.025495E+04  3.007455E+04  4.296870E+04 -6.390796E+04 -1.145753E+04  1.938228E+04
       147  22 -2.595310E+05 -7.338918E+04 -9.374563E+02 -1.463098E+05 -7.239863E+03  1.733866E+04
       147  23 -2.616222E+05 -7.144779E+04 -1.735784E+03 -1.436777E+05 -8.904421E+03  1.910631E+04
       147  24 -2.596895E+05 -7.446280E+04 -3.346108E+03 -1.459099E+05 -1.018857E+04  1.985992E+04
       147  25 -4.807957E+05 -1.521434E+05 -3.336393E+04 -2.085037E+05 -1.508691E+03  1.949063E+04
       147  26 -5.169609E+05 -1.628677E+05 -4.022261E+04 -2.157576E+05 -5.404797E+03  2.042109E+04
       147  27 -5.495437E+05 -1.789912E+05 -4.966257E+04 -2.278757E+05 -8.920234E+03  2.033732E+04
       148   1  5.213328E+04  3.762275E+04  4.682137E+04 -5.809585E+04  1.225067E+04 -1.984245E+04
       148   2  8.025633E+04  5.353802E+04  5.784266E+04 -4.140400E+04 -3.775670E+03 -2.158422E+04
       148   3  1.128549E+05  6.233485E+04  7.875929E+04 -2.748531E+04 -2.306365E+04 -1.464931E+04
       148   4 -2.602907E+05 -7.477214E+04 -4.517548E+03 -1.458270E+05  1.094677E+04 -2.033336E+04
       148   5 -2.615920E+05 -7.606249E+04 -8.706878E+03 -1.419108E+05  1.403255E+04 -1.489772E+04
       148   6 -2.622061E+05 -8.825956E+04 -1.814516E+04 -1.407687E+05  1.385706E+04 -7.823838E+02
       148   7 -5.726094E+05 -1.871567E+05 -5.585848E+04 -2.335166E+05  9.643576E+03 -2.082400E+04
       148   8 -6.033113E+05 -2.056469E+05 -7.525840E+04 -2.423633E+05  3.182995E+04 -8.215659E+03
       148   9 -6.371132E+05 -2.388325E+05 -1.150518E+05 -2.539833E+05  5.075212E+04  1.307336E+04
       148  10  5.213301E+04  3.762229E+04  4.682035E+04 -5.809565E+04 -2.457767E-08 -3.991919E-09
       148  11  8.025619E+04  5.353751E+04  5.784176E+04 -4.140406E+04 -2.467744E-09  2.860995E-09
       148  12  1.128543E+05  6.233448E+04  7.875789E+04 -2.748558E+04  2.668409E-08  1.069733E-08
       148  13 -2.602909E+05 -7.477262E+04 -4.518550E+03 -1.458269E+05  1.351068E-08 -7.797474E-09
       148  14 -2.615922E+05 -7.606279E+04 -8.707665E+03 -1.419107E+05  6.491725E-09 -2.653369E-09
       148  15 -2.622064E+05 -8.825961E+04 -1.814552E+04 -1.407687E+05  4.697439E-10 -3.991925E-10
       148  16 -5.726097E+05 -1.871572E+05 -5.585947E+04 -2.335164E+05  3.768315E-08  2.368731E-08
       148  17 -6.033124E+05 -2.056473E+05 -7.526044E+04 -2.423631E+05 -2.212121E-09  8.783636E-09
       148  18 -6.371160E+05 -2.388333E+05 -1.150570E+05 -2.539839E+05 -2.935948E-08 -8.254587E-09
       148  19  5.213328E+04  3.762275E+04  4.682137E+04 -5.809585E+04 -1.225067E+04  1.984245E+04
       148  20  8.025633E+04  5.353802E+04  5.784266E+04 -4.140400E+04  3.775670E+03  2.158422E+04
       148  21  1.128549E+05  6.233485E+04  7.875929E+04 -2.748531E+04  2.306365E+04  1.464931E+04
       148  22 -2.602907E+05 -7.477214E+04 -4.517548E+03 -1.458270E+05 -1.094677E+04  2.033336E+04
       148  23 -2.615920E+05 -7.606249E+04 -8.706878E+03 -1.419108E+05 -1.403255E+04  1.489772E+04
       148  24 -2.622061E+05 -8.825956E+04 -1.814516E+04 -1.407687E+05 -1.385706E+04  7.823838E+02
       148  25 -5.726094E+05 -1.871567E+05 -5.585848E+04 -2.335166E+05 -9.643576E+03  2.082400E+04
       148  26 -6.033113E+05 -2.056469E+05 -7.525840E+04 -2.423633E+05 -3.182995E+04  8.215659E+03
       148  27 -6.371132E+05 -2.388325E+05 -1.150518E+05 -2.539833E+05 -5.075212E+04 -1.307336E+04
       149   1 -9.156602E+04 -1.094882E+04 -3.245918E+04 -2.016935E+04 -6.467637E+04 -3.234414E+03
       149   2 -9.634080E+04  7.575801E+04  1.796518E+04 -4.983851E+03 -4.423964E+04 -9.815954E+03
       149   3 -1.276711E+05  6.673002E+04  3.116409E+04  2.130027E+04 -2.380891E+04 -9.593340E+03
       149   4 -3.794543E+05 -8.264243E+04 -1.031934E+05  9.444462E+03 -7.065039E+04 -3.241696E+03
       149   5 -3.658077E+05  9.157214E+03 -4.559505E+04  3.862289E+03 -4.614229E+04 -9.818436E+03
       149   6 -3.794372E+05  4.490831E+03 -2.806267E+04  9.379414E+03 -2.163943E+04 -9.591078E+03
       149   7 -6.672651E+05 -1.543389E+05 -1.739331E+05  3.904450E+04 -7.662164E+04 -3.249551E+03
       149   8 -6.352077E+05 -5.744848E+04 -1.091602E+05  1.270455E+04 -4.804411E+04 -9.820972E+03
       149   9 -6.311446E+05 -5.775235E+04 -8.729371E+04 -2.536596E+03 -1.947082E+04 -9.588898E+03
       149  10 -9.157051E+04 -1.094995E+04 -3.246706E+04 -2.016952E+04 -2.239359E-10  5.061003E-10
       149  11 -9.634293E+04  7.575738E+04  1.796132E+04 -4.984201E+03  1.151502E-09 -1.181199E-11
       149  12 -1.276717E+05  6.672977E+04  3.116286E+04  2.130009E+04  2.317884E-09 -2.195486E-09
       149  13 -3.794597E+05 -8.264378E+04 -1.032028E+05  9.444277E+03 -2.985349E-09  1.148621E-09
       149  14 -3.658100E+05  9.156539E+03 -4.559923E+04  3.861924E+03  9.792881E-11  4.519544E-10
       149  15 -3.794377E+05  4.490607E+03 -2.806373E+04  9.379247E+03  1.864488E-09 -4.325121E-10
       149  16 -6.672714E+05 -1.543405E+05 -1.739442E+05  3.904430E+04  5.534530E-10  8.132747E-10
       149  17 -6.352102E+05 -5.744920E+04 -1.091647E+05  1.270417E+04  2.323036E-10 -1.042233E-09
       149  18 -6.311451E+05 -5.775255E+04 -8.729459E+04 -2.536747E+03 -1.477696E-09 -2.550569E-09
       149  19 -9.156602E+04 -1.094882E+04 -3.245918E+04 -2.016935E+04  6.467637E+04  3.234414E+03
       149  20 -9.634080E+04  7.575801E+04  1.796518E+04 -4.983851E+03  4.423964E+04  9.815954E+03
       149  21 -1.276711E+05  6.673002E+04  3.116409E+04  2.130027E+04  2.380891E+04  9.593340E+03
       149  22 -3.794543E+05 -8.264243E+04 -1.031934E+05  9.444462E+03  7.065039E+04  3.241696E+03
       149  23 -3.658077E+05  9.157214E+03 -4.559505E+04  3.862289E+03  4.614229E+04  9.818436E+03
       149  24 -3.794372E+05  4.490831E+03 -2.806267E+04  9.379414E+03  2.163943E+04  9.591078E+03
       149  25 -6.672651E+05 -1.543389E+05 -1.739331E+05  3.904450E+04  7.662164E+04  3.249551E+03
       149  26 -6.352077E+05 -5.744848E+04 -1.091602E+05  1.270455E+04  4.804411E+04  9.820972E+03
       149  27 -6.311446E+05 -5.775235E+04 -8.729371E+04 -2.536596E+03  1.947082E+04  9.588898E+03
       150   1 -1.426611E+05  4.970930E+04  3.188671E+04  7.300598E+03 -1.747761E+04 -8.221666E+03
       150   2 -1.594362E+05  5.357077E+04  3.843366E+04  3.338927E+03 -1.171748E+04 -7.852674E+03
       150   3 -1.791615E+05  4.861557E+04  3.902699E+04  1.082859E+04 -5.958138E+03 -7.068089E+03
       150   4 -3.740421E+05 -7.505397E+03 -2.276938E+04  9.483822E+03 -1.738006E+04 -8.221838E+03
       150   5 -3.725430E+05  8.927418E+02 -1.179601E+04  3.753738E+03 -1.137266E+04 -7.852478E+03
       150   6 -3.740381E+05  4.295711E+02 -6.949590E+03  9.475259E+03 -5.365864E+03 -7.067491E+03
       150   7 -6.053740E+05 -6.472391E+04 -7.742917E+04  1.166622E+04 -1.728256E+04 -8.222010E+03
       150   8 -5.856079E+05 -5.178853E+04 -6.202880E+04  4.168393E+03 -1.102796E+04 -7.852280E+03
       150   9 -5.688798E+05 -4.775914E+04 -5.292879E+04  8.122345E+03 -4.773776E+03 -7.066895E+03
       150  10 -1.426614E+05  4.970915E+04  3.188601E+04  7.300482E+03  5.423859E-10 -2.896987E-09
       150  11 -1.594364E+05  5.357066E+04  3.843329E+04  3.338853E+03 -1.651235E-09  1.983733E-09
       150  12 -1.791615E+05  4.861551E+04  3.902683E+04  1.082856E+04 -6.309769E-10  1.780669E-09
       150  13 -3.740425E+05 -7.505551E+03 -2.277007E+04  9.483707E+03  5.497731E-10 -2.502560E-09
       150  14 -3.725431E+05  8.926409E+02 -1.179636E+04  3.753666E+03 -6.011253E-10 -5.362242E-11
       150  15 -3.740381E+05  4.295097E+02 -6.949738E+03  9.475228E+03  1.528392E-09 -5.863572E-10
       150  16 -6.053743E+05 -6.472406E+04 -7.742986E+04  1.166610E+04  2.930534E-09 -1.068725E-09
       150  17 -5.856081E+05 -5.178863E+04 -6.202915E+04  4.168323E+03  2.261773E-09 -8.807912E-10
       150  18 -5.688798E+05 -4.775920E+04 -5.292892E+04  8.122318E+03  7.138366E-10  9.079754E-10
       150  19 -1.426611E+05  4.970930E+04  3.188671E+04  7.300598E+03  1.747761E+04  8.221666E+03
       150  20 -1.594362E+05  5.357077E+04  3.843366E+04  3.338927E+03  1.171748E+04  7.852674E+03
       150  21 -1.791615E+05  4.861557E+04  3.902699E+04  1.082859E+04  5.958138E+03  7.068089E+03
       150  22 -3.740421E+05 -7.505397E+03 -2.276938E+04  9.483822E+03  1.738006E+04  8.221838E+03
       150  23 -3.725430E+05  8.927418E+02 -1.179601E+04  3.753738E+03  1.137266E+04  7.852478E+03
       150  24 -3.740381E+05  4.295711E+02 -6.949590E+03  9.475259E+03  5.365864E+03  7.067491E+03
       150  25 -6.053740E+05 -6.472391E+04 -7.742917E+04  1.166622E+04  1.728256E+04  8.222010E+03
       150  26 -5.856079E+05 -5.178853E+04 -6.202880E+04  4.168393E+03  1.102796E+04  7.852280E+03
       150  27 -5.688798E+05 -4.775914E+04 -5.292879E+04  8.122345E+03  4.773776E+03  7.066895E+03
       151   1 -1.992094E+05  4.242037E+04  3.561486E+04  9.557464E+03 -4.746195E+03 -6.536602E+03
       151   2 -2.174715E+05  3.861084E+04  3.370749E+04  3.874818E+03 -3.260393E+03 -5.741095E+03
       151   3 -2.361420E+05  3.402126E+04  3.063316E+04  9.788222E+03 -1.774904E+03 -4.917565E+03
       151   4 -3.734624E+05 -6.461092E+02 -5.411065E+03  9.510674E+03 -4.277773E+03 -6.536119E+03
       151   5 -3.732557E+05  1.001648E+02 -3.010327E+03  3.712082E+03 -2.775548E+03 -5.740527E+03
       151   6 -3.734607E+05  6.341302E+01 -1.788201E+03  9.509723E+03 -1.273592E+03 -4.916908E+03
       151   7 -5.476875E+05 -4.371476E+04 -4.643908E+04  9.463888E+03 -3.809482E+03 -6.535636E+03
       151   8 -5.290175E+05 -3.841225E+04 -3.972982E+04  3.549379E+03 -2.290824E+03 -5.739959E+03
       151   9 -5.107620E+05 -3.389579E+04 -3.421086E+04  9.231280E+03 -7.723910E+02 -4.916252E+03
       151  10 -1.992094E+05  4.242032E+04  3.561473E+04  9.557439E+03  4.528899E-10  2.070754E-09
       151  11 -2.174715E+05  3.861080E+04  3.370741E+04  3.874803E+03 -2.124986E-09  1.493425E-09
       151  12 -2.361420E+05  3.402124E+04  3.063311E+04  9.788215E+03  9.623321E-10 -3.278565E-10
       151  13 -3.734625E+05 -6.461600E+02 -5.411180E+03  9.510651E+03  4.183598E-09 -6.669383E-10
       151  14 -3.732557E+05  1.001274E+02 -3.010403E+03  3.712069E+03 -2.349161E-09  2.522409E-09
       151  15 -3.734607E+05  6.338663E+01 -1.788250E+03  9.509718E+03 -1.047511E-10  3.131597E-09
       151  16 -5.476875E+05 -4.371481E+04 -4.643918E+04  9.463868E+03 -1.295720E-10  2.550414E-09
       151  17 -5.290176E+05 -3.841228E+04 -3.972989E+04  3.549369E+03  1.296540E-09  3.281297E-09
       151  18 -5.107620E+05 -3.389581E+04 -3.421091E+04  9.231277E+03  1.026049E-09  1.866635E-09
       151  19 -1.992094E+05  4.242037E+04  3.561486E+04  9.557464E+03  4.746195E+03  6.536602E+03
       151  20 -2.174715E+05  3.861084E+04  3.370749E+04  3.874818E+03  3.260393E+03  5.741095E+03
       151  21 -2.361420E+05  3.402126E+04  3.063316E+04  9.788222E+03  1.774904E+03  4.917565E+03
       151  22 -3.734624E+05 -6.461092E+02 -5.411065E+03  9.510674E+03  4.277773E+03  6.536119E+03
       151  23 -3.732557E+05  1.001648E+02 -3.010327E+03  3.712082E+03  2.775548E+03  5.740527E+03
       151  24 -3.734607E+05  6.341302E+01 -1.788201E+03  9.509723E+03  1.273592E+03  4.916908E+03
       151  25 -5.476875E+05 -4.371476E+04 -4.643908E+04  9.463888E+03  3.809482E+03  6.535636E+03
       151  26 -5.290175E+05 -3.841225E+04 -3.972982E+04  3.549379E+03  2.290824E+03  5.739959E+03
       151  27 -5.107620E+05 -3.389579E+04 -3.421086E+04  9.231280E+03  7.723910E+02  4.916252E+03
       152   1 -2.569038E+05  2.875788E+04  2.599455E+04  9.671447E+03 -1.482395E+03 -4.433012E+03
       152   2 -2.754698E+05  2.421776E+04  2.216374E+04  3.808659E+03 -1.037492E+03 -3.605901E+03
       152   3 -2.941412E+05  1.963419E+04  1.802426E+04  9.637286E+03 -5.927633E+02 -2.775372E+03
       152   4 -3.733914E+05 -2.822480E+01 -1.406721E+03  9.531254E+03 -9.875831E+02 -4.432329E+03
       152   5 -3.733378E+05  2.336974E+01 -9.041164E+02  3.685445E+03 -5.407133E+02 -3.605176E+03
       152   6 -3.733905E+05  3.110250E+01 -7.116316E+02  9.531164E+03 -9.400500E+01 -2.774602E+03
       152   7 -4.898666E+05 -2.881529E+04 -2.880893E+04  9.391082E+03 -4.928630E+02 -4.431647E+03
       152   8 -4.711970E+05 -2.417171E+04 -2.397263E+04  3.562247E+03 -4.401247E+01 -3.604450E+03
       152   9 -4.526340E+05 -1.957243E+04 -1.944796E+04  9.425053E+03  4.046900E+02 -2.773832E+03
       152  10 -2.569038E+05  2.875785E+04  2.599451E+04  9.671442E+03  2.926082E-09 -1.626050E-10
       152  11 -2.754698E+05  2.421775E+04  2.216371E+04  3.808656E+03 -2.605896E-09  4.728106E-09
       152  12 -2.941412E+05  1.963418E+04  1.802425E+04  9.637285E+03 -5.347786E-10  4.834125E-09
       152  13 -3.733914E+05 -2.824615E+01 -1.406760E+03  9.531250E+03  7.840174E-10  5.729593E-10
       152  14 -3.733378E+05  2.335571E+01 -9.041413E+02  3.685443E+03 -1.499765E-11  3.072561E-09
       152  15 -3.733905E+05  3.109423E+01 -7.116461E+02  9.531164E+03 -1.249308E-09  1.148911E-09
       152  16 -4.898666E+05 -2.881531E+04 -2.880896E+04  9.391081E+03 -3.605702E-09  3.937259E-10
       152  17 -4.711970E+05 -2.417172E+04 -2.397265E+04  3.562247E+03  1.536633E-09 -1.134848E-09
       152  18 -4.526340E+05 -1.957244E+04 -1.944798E+04  9.425054E+03 -7.162844E-10 -8.927563E-10
       152  19 -2.569038E+05  2.875788E+04  2.599455E+04  9.671447E+03  1.482395E+03  4.433012E+03
       152  20 -2.754698E+05  2.421776E+04  2.216374E+04  3.808659E+03  1.037492E+03  3.605901E+03
       152  21 -2.941412E+05  1.963419E+04  1.802426E+04  9.637286E+03  5.927633E+02  2.775372E+03
       152  22 -3.733914E+05 -2.822480E+01 -1.406721E+03  9.531254E+03  9.875831E+02  4.432329E+03
       152  23 -3.733378E+05  2.336974E+01 -9.041164E+02  3.685445E+03  5.407133E+02  3.605176E+03
       152  24 -3.733905E+05  3.110250E+01 -7.116316E+02  9.531164E+03  9.400500E+01  2.774602E+03
       152  25 -4.898666E+05 -2.881529E+04 -2.880893E+04  9.391082E+03  4.928630E+02  4.431647E+03
       152  26 -4.711970E+05 -2.417171E+04 -2.397263E+04  3.562247E+03  4.401247E+01  3.604450E+03
       152  27 -4.526340E+05 -1.957243E+04 -1.944796E+04  9.425053E+03 -4.046900E+02  2.773832E+03
       153   1 -3.151044E+05  1.442815E+04  1.298237E+04  9.605266E+03 -4.663950E+02 -2.290895E+03
       153   2 -3.337506E+05  9.810971E+03  8.492428E+03  3.710488E+03 -5.231651E+01 -1.458006E+03
       153   3 -3.525056E+05  5.159323E+03  3.713984E+03  9.560987E+03  3.616946E+02 -6.250474E+02
       153   4 -3.733903E+05  2.993769E+01 -7.000888E+02  9.543123E+03  3.272080E+01 -2.290105E+03
       153   5 -3.733357E+05  2.464618E+01 -8.382500E+02  3.670499E+03  4.468130E+02 -1.457200E+03
       153   6 -3.733900E+05 -1.502412E+01 -1.264836E+03  9.543198E+03  8.608502E+02 -6.242242E+02
       153   7 -4.316731E+05 -1.436852E+04 -1.438278E+04  9.480984E+03  5.317900E+02 -2.289316E+03
       153   8 -4.129194E+05 -9.761791E+03 -1.016903E+04  3.630512E+03  9.459108E+02 -1.456395E+03
       153   9 -3.942740E+05 -5.189403E+03 -6.243684E+03  9.525410E+03  1.359989E+03 -6.234010E+02
       153  10 -3.151044E+05  1.442815E+04  1.298236E+04  9.605266E+03  1.519213E-09  1.237243E-09
       153  11 -3.337506E+05  9.810969E+03  8.492424E+03  3.710488E+03 -1.633608E-09 -1.250738E-09
       153  12 -3.525056E+05  5.159322E+03  3.713983E+03  9.560987E+03 -1.633916E-09 -8.252448E-10
       153  13 -3.733903E+05  2.993206E+01 -7.000987E+02  9.543123E+03  1.647219E-09  4.931955E-09
       153  14 -3.733357E+05  2.464385E+01 -8.382543E+02  3.670499E+03 -4.232680E-09  7.701127E-10
       153  15 -3.733900E+05 -1.502474E+01 -1.264838E+03  9.543199E+03 -1.254531E-09 -1.314899E-09
       153  16 -4.316731E+05 -1.436852E+04 -1.438279E+04  9.480985E+03 -3.965587E-09  2.122121E-09
       153  17 -4.129194E+05 -9.761793E+03 -1.016904E+04  3.630513E+03 -2.645531E-10 -4.599166E-10
       153  18 -3.942740E+05 -5.189403E+03 -6.243689E+03  9.525410E+03  2.900050E-09 -1.589032E-09
       153  19 -3.151044E+05  1.442815E+04  1.298237E+04  9.605266E+03  4.663950E+02  2.290895E+03
       153  20 -3.337506E+05  9.810971E+03  8.492428E+03  3.710488E+03  5.231651E+01  1.458006E+03
       153  21 -3.525056E+05  5.159323E+03  3.713984E+03  9.560987E+03 -3.616946E+02  6.250474E+02
       153  22 -3.733903E+05  2.993769E+01 -7.000888E+02  9.543123E+03 -3.272080E+01  2.290105E+03
       153  23 -3.733357E+05  2.464618E+01 -8.382500E+02  3.670499E+03 -4.468130E+02  1.457200E+03
       153  24 -3.733900E+05 -1.502412E+01 -1.264836E+03  9.543198E+03 -8.608502E+02  6.242242E+02
       153  25 -4.316731E+05 -1.436852E+04 -1.438278E+04  9.480984E+03 -5.317900E+02  2.289316E+03
       153  26 -4.129194E+05 -9.761791E+03 -1.016903E+04  3.630512E+03 -9.459108E+02  1.456395E+03
       153  27 -3.942740E+05 -5.189403E+03 -6.243684E+03  9.525410E+03 -1.359989E+03  6.234010E+02
       154   1 -3.735841E+05  2.097276E+01 -1.683820E+03  9.431944E+03  6.135481E+02 -1.375894E+02
       154   2 -3.921009E+05 -4.562380E+03 -7.107697E+03  3.643161E+03  1.951747E+03  6.969504E+02
       154   3 -4.110106E+05 -9.830045E+03 -1.358476E+04  9.607425E+03  3.289956E+03  1.517465E+03
       154   4 -3.734528E+05  6.510019E+01 -1.596749E+03  9.544543E+03  1.116935E+03 -1.367561E+02
       154   5 -3.732572E+05  9.641694E+01 -2.665732E+03  3.668540E+03  2.446755E+03  6.977612E+02
       154   6 -3.734533E+05 -5.550759E+02 -4.782017E+03  9.545562E+03  3.776625E+03  1.518255E+03
       154   7 -3.733215E+05  1.092278E+02 -1.509678E+03  9.657143E+03  1.620321E+03 -1.359226E+02
       154   8 -3.544131E+05  4.755188E+03  1.776209E+03  3.693919E+03  2.941778E+03  6.985720E+02
       154   9 -3.358947E+05  8.719793E+03  4.020634E+03  9.483695E+03  4.263324E+03  1.519044E+03
       154  10 -3.735841E+05  2.097263E+01 -1.683820E+03  9.431944E+03  5.304113E-11  2.085997E-09
       154  11 -3.921009E+05 -4.562381E+03 -7.107705E+03  3.643160E+03  9.288980E-10 -3.351197E-10
       154  12 -4.110106E+05 -9.830051E+03 -1.358479E+04  9.607420E+03  2.305602E-09  3.511336E-10
       154  13 -3.734528E+05  6.509983E+01 -1.596752E+03  9.544544E+03  8.848672E-10  2.403466E-10
       154  14 -3.732572E+05  9.641481E+01 -2.665744E+03  3.668538E+03  1.970359E-10  5.918845E-10
       154  15 -3.734533E+05 -5.550822E+02 -4.782048E+03  9.545557E+03  3.127523E-10  4.934197E-10
       154  16 -3.733215E+05  1.092271E+02 -1.509683E+03  9.657144E+03 -4.680038E-10  9.509294E-10
       154  17 -3.544131E+05  4.755185E+03  1.776192E+03  3.693917E+03 -2.014542E-10 -5.039028E-09
       154  18 -3.358947E+05  8.719786E+03  4.020595E+03  9.483690E+03 -2.711549E-09 -9.244396E-10
       154  19 -3.735841E+05  2.097276E+01 -1.683820E+03  9.431944E+03 -6.135481E+02  1.375894E+02
       154  20 -3.921009E+05 -4.562380E+03 -7.107697E+03  3.643161E+03 -1.951747E+03 -6.969504E+02
       154  21 -4.110106E+05 -9.830045E+03 -1.358476E+04  9.607425E+03 -3.289956E+03 -1.517465E+03
       154  22 -3.734528E+05  6.510019E+01 -1.596749E+03  9.544543E+03 -1.116935E+03  1.367561E+02
       154  23 -3.732572E+05  9.641694E+01 -2.665732E+03  3.668540E+03 -2.446755E+03 -6.977612E+02
       154  24 -3.734533E+05 -5.550759E+02 -4.782017E+03  9.545562E+03 -3.776625E+03 -1.518255E+03
       154  25 -3.733215E+05  1.092278E+02 -1.509678E+03  9.657143E+03 -1.620321E+03  1.359226E+02
       154  26 -3.544131E+05  4.755188E+03  1.776209E+03  3.693919E+03 -2.941778E+03 -6.985720E+02
       154  27 -3.358947E+05  8.719793E+03  4.020634E+03  9.483695E+03 -4.263324E+03 -1.519044E+03
       155   1 -4.325088E+05 -1.409517E+04 -1.999163E+04  8.429523E+03  4.182508E+03  2.033395E+03
       155   2 -4.498163E+05 -1.828385E+04 -2.861038E+04  4.114189E+03  9.620478E+03  2.853667E+03
       155   3 -4.698325E+05 -3.030815E+04 -4.273928E+04  1.151682E+04  1.505864E+04  3.445812E+03
       155   4 -3.739633E+05  3.938186E+02 -6.139376E+03  9.533775E+03  4.737908E+03  2.034290E+03
       155   5 -3.726220E+05  7.999827E+02 -1.041194E+04  3.680258E+03  1.003966E+04  2.854296E+03
       155   6 -3.739660E+05 -6.605273E+03 -2.009951E+04  9.544679E+03  1.534176E+04  3.446162E+03
       155   7 -3.154146E+05  1.488256E+04  7.712645E+03  1.063813E+04  5.293360E+03  2.035187E+03
       155   8 -2.954222E+05  1.988339E+04  7.786079E+03  3.246270E+03  1.045888E+04  2.854925E+03
       155   9 -2.780909E+05  1.709696E+04  2.539626E+03  7.572231E+03  1.562492E+04  3.446511E+03
       155  10 -4.325088E+05 -1.409518E+04 -1.999167E+04  8.429517E+03  4.860173E-09  4.102054E-09
       155  11 -4.498164E+05 -1.828388E+04 -2.861057E+04  4.114167E+03 -3.809190E-10  3.357043E-09
       155  12 -4.698328E+05 -3.030822E+04 -4.273973E+04  1.151678E+04 -4.908931E-09  2.885311E-09
       155  13 -3.739633E+05  3.938081E+02 -6.139426E+03  9.533767E+03  8.600571E-10  2.297427E-09
       155  14 -3.726221E+05  7.999469E+02 -1.041215E+04  3.680235E+03 -2.929153E-10  2.782598E-09
       155  15 -3.739662E+05 -6.605349E+03 -2.009998E+04  9.544636E+03 -8.456016E-10 -6.532247E-10
       155  16 -3.154146E+05  1.488255E+04  7.712584E+03  1.063812E+04 -7.309310E-09  6.880065E-10
       155  17 -2.954224E+05  1.988335E+04  7.785858E+03  3.246246E+03 -1.178233E-09 -1.156570E-10
       155  18 -2.780912E+05  1.709688E+04  2.539145E+03  7.572188E+03  3.622558E-09 -2.719143E-09
       155  19 -4.325088E+05 -1.409517E+04 -1.999163E+04  8.429523E+03 -4.182508E+03 -2.033395E+03
       155  20 -4.498163E+05 -1.828385E+04 -2.861038E+04  4.114189E+03 -9.620478E+03 -2.853667E+03
       155  21 -4.698325E+05 -3.030815E+04 -4.273928E+04  1.151682E+04 -1.505864E+04 -3.445812E+03
       155  22 -3.739633E+05  3.938186E+02 -6.139376E+03  9.533775E+03 -4.737908E+03 -2.034290E+03
       155  23 -3.726220E+05  7.999827E+02 -1.041194E+04  3.680258E+03 -1.003966E+04 -2.854296E+03
       155  24 -3.739660E+05 -6.605273E+03 -2.009951E+04  9.544679E+03 -1.534176E+04 -3.446162E+03
       155  25 -3.154146E+05  1.488256E+04  7.712645E+03  1.063813E+04 -5.293360E+03 -2.035187E+03
       155  26 -2.954222E+05  1.988339E+04  7.786079E+03  3.246270E+03 -1.045888E+04 -2.854925E+03
       155  27 -2.780909E+05  1.709696E+04  2.539626E+03  7.572231E+03 -1.562492E+04 -3.446511E+03
       156   1 -4.954852E+05 -2.491465E+04 -5.226474E+04 -1.014120E+03  1.767575E+04  4.425998E+03
       156   2 -5.018456E+05 -2.529975E+04 -7.213340E+04  1.153858E+04  4.154735E+04  4.959913E+03
       156   3 -5.327337E+05 -1.112274E+05 -1.289432E+05  3.568856E+04  6.542385E+04  1.742590E+03
       156   4 -3.787301E+05  3.983906E+03 -2.477195E+04  9.477961E+03  1.910168E+04  4.428394E+03
       156   5 -3.666711E+05  8.099109E+03 -4.024224E+04  3.732988E+03  4.072733E+04  4.958128E+03
       156   6 -3.787446E+05 -7.292914E+04 -9.108769E+04  9.585797E+03  6.235865E+04  1.735577E+03
       156   7 -2.619622E+05  3.288189E+04  2.719974E+03  1.997202E+04  2.052789E+04  4.430837E+03
       156   8 -2.314797E+05  4.149689E+04 -8.352314E+03 -4.074320E+03  3.990713E+04  4.956364E+03
       156   9 -2.247325E+05 -3.463002E+04 -5.323349E+04 -1.652346E+04  5.929269E+04  1.728824E+03
       156  10 -4.954855E+05 -2.491475E+04 -5.226536E+04 -1.014183E+03 -1.279146E-09  8.762675E-10
       156  11 -5.018474E+05 -2.530024E+04 -7.213669E+04  1.153841E+04  2.411368E-10 -1.700750E-09
       156  12 -5.327383E+05 -1.112286E+05 -1.289513E+05  3.568846E+04  7.630226E-10 -4.811292E-10
       156  13 -3.787305E+05  3.983787E+03 -2.477267E+04  9.477893E+03  5.415017E-10  2.966962E-09
       156  14 -3.666729E+05  8.098637E+03 -4.024541E+04  3.732825E+03 -5.051460E-10 -5.347841E-09
       156  15 -3.787488E+05 -7.293018E+04 -9.109500E+04  9.585709E+03 -1.905250E-09  2.480261E-09
       156  16 -2.619627E+05  3.288176E+04  2.719145E+03  1.997195E+04  2.426147E-09  1.422255E-09
       156  17 -2.314814E+05  4.149644E+04 -8.355354E+03 -4.074479E+03 -9.873943E-10  5.140983E-10
       156  18 -2.247362E+05 -3.463097E+04 -5.324010E+04 -1.652354E+04 -7.003859E-10 -8.083888E-10
       156  19 -4.954852E+05 -2.491465E+04 -5.226474E+04 -1.014120E+03 -1.767575E+04 -4.425998E+03
       156  20 -5.018456E+05 -2.529975E+04 -7.213340E+04  1.153858E+04 -4.154735E+04 -4.959913E+03
       156  21 -5.327337E+05 -1.112274E+05 -1.289432E+05  3.568856E+04 -6.542385E+04 -1.742590E+03
       156  22 -3.787301E+05  3.983906E+03 -2.477195E+04  9.477961E+03 -1.910168E+04 -4.428394E+03
       156  23 -3.666711E+05  8.099109E+03 -4.024224E+04  3.732988E+03 -4.072733E+04 -4.958128E+03
       156  24 -3.787446E+05 -7.292914E+04 -9.108769E+04  9.585797E+03 -6.235865E+04 -1.735577E+03
       156  25 -2.619622E+05  3.288189E+04  2.719974E+03  1.997202E+04 -2.052789E+04 -4.430837E+03
       156  26 -2.314797E+05  4.149689E+04 -8.352314E+03 -4.074320E+03 -3.990713E+04 -4.956364E+03
       156  27 -2.247325E+05 -3.463002E+04 -5.323349E+04 -1.652346E+04 -5.929269E+04 -1.728824E+03
       157   1  1.907669E+05  1.073470E+06  2.121660E+05 -9.448738E+04  3.962528E+03  8.423163E+04
       157   2  6.342319E+04  9.596301E+05  1.229666E+05 -4.203404E+04  1.113875E+04  4.705109E+04
       157   3  4.249895E+04  8.771663E+05  8.453833E+04 -4.229232E+04  7.929553E+03  9.867560E+03
       157   4  9.458708E+04  6.871861E+05  1.175076E+05 -5.605357E+04  3.974471E+03  7.560716E+04
       157   5 -7.395570E+03  6.721440E+05  5.622422E+04 -2.973848E+04  1.114122E+04  4.567943E+04
       157   6 -4.189244E+03  6.872311E+05  4.070143E+04 -5.613197E+04  7.923528E+03  1.574268E+04
       157   7 -1.598250E+03  3.010416E+05  2.283937E+04 -1.764365E+04  3.985352E+03  6.698803E+04
       157   8 -7.821959E+04  3.847343E+05 -1.052366E+04 -1.744863E+04  1.114363E+04  4.430839E+04
       157   9 -5.087922E+04  4.973297E+05 -3.137640E+03 -6.996735E+04  7.917240E+03  2.161602E+04
       157  10  1.907650E+05  1.073462E+06  2.121526E+05 -9.448765E+04 -7.982583E-10  6.333903E-09
       157  11  6.342246E+04  9.596277E+05  1.229622E+05 -4.203446E+04  1.061087E-09 -8.026485E-10
       157  12  4.249886E+04  8.771662E+05  8.453803E+04 -4.229238E+04  6.139929E-10 -6.914367E-09
       157  13  9.458553E+04  6.871799E+05  1.174968E+05 -5.605381E+04 -1.933207E-09 -8.625687E-10
       157  14 -7.396262E+03  6.721417E+05  5.622007E+04 -2.973889E+04 -1.113242E-09  3.797269E-10
       157  15 -4.189378E+03  6.872308E+05  4.070084E+04 -5.613207E+04  3.007333E-10  2.087726E-09
       157  16 -1.599471E+03  3.010367E+05  2.283091E+04 -1.764387E+04  2.914858E-10 -6.245447E-09
       157  17 -7.822025E+04  3.847322E+05 -1.052758E+04 -1.744903E+04  3.342565E-09 -7.928330E-10
       157  18 -5.087941E+04  4.973292E+05 -3.138635E+03 -6.996749E+04  1.302917E-09  6.424028E-09
       157  19  1.907669E+05  1.073470E+06  2.121660E+05 -9.448738E+04 -3.962528E+03 -8.423163E+04
       157  20  6.342319E+04  9.596301E+05  1.229666E+05 -4.203404E+04 -1.113875E+04 -4.705109E+04
       157  21  4.249895E+04  8.771663E+05  8.453833E+04 -4.229232E+04 -7.929553E+03 -9.867560E+03
       157  22  9.458708E+04  6.871861E+05  1.175076E+05 -5.605357E+04 -3.974471E+03 -7.560716E+04
       157  23 -7.395570E+03  6.721440E+05  5.622422E+04 -2.973848E+04 -1.114122E+04 -4.567943E+04
       157  24 -4.189244E+03  6.872311E+05  4.070143E+04 -5.613197E+04 -7.923528E+03 -1.574268E+04
       157  25 -1.598250E+03  3.010416E+05  2.283937E+04 -1.764365E+04 -3.985352E+03 -6.698803E+04
       157  26 -7.821959E+04  3.847343E+05 -1.052366E+04 -1.744863E+04 -1.114363E+04 -4.430839E+04
       157  27 -5.087922E+04  4.973297E+05 -3.137640E+03 -6.996735E+04 -7.917240E+03 -2.161602E+04
       158   1  2.978424E+04  7.757055E+05  5.929156E+04 -6.076366E+04  3.858028E+03  6.344613E+03
       158   2 -2.776762E+03  6.740025E+05  3.404289E+04 -2.927913E+04 -1.711930E+02 -1.142203E+04
       158   3 -1.327130E+04  5.800091E+05  2.584018E+04 -5.074432E+04 -4.189468E+03 -2.918598E+04
       158   4  6.777358E+03  6.822478E+05  3.769569E+04 -5.616138E+04  3.855143E+03  9.167472E+03
       158   5 -1.694855E+03  6.783956E+05  3.505754E+04 -2.968432E+04 -1.740830E+02 -8.606372E+03
       158   6  1.190104E+04  6.822448E+05  4.947092E+04 -5.615616E+04 -4.192111E+03 -2.638026E+04
       158   7 -1.623006E+04  5.887983E+05  1.609929E+04 -5.155980E+04  3.852301E+03  1.198991E+04
       158   8 -6.129443E+02  6.827888E+05  3.607222E+04 -3.008952E+04 -1.769767E+02 -5.790697E+03
       158   9  3.707276E+04  7.844902E+05  7.310101E+04 -6.156889E+04 -4.194803E+03 -2.357408E+04
       158  10  2.978422E+04  7.757055E+05  5.929145E+04 -6.076368E+04 -2.138730E-09  2.835809E-10
       158  11 -2.776797E+03  6.740023E+05  3.404265E+04 -2.927913E+04 -1.628696E-09 -2.280546E-10
       158  12 -1.327155E+04  5.800082E+05  2.583855E+04 -5.074442E+04 -7.508936E-10  5.946159E-10
       158  13  6.777320E+03  6.822478E+05  3.769551E+04 -5.616141E+04 -4.086590E-10 -1.022468E-09
       158  14 -1.694875E+03  6.783955E+05  3.505740E+04 -2.968432E+04  9.646224E-10 -3.083049E-10
       158  15  1.190083E+04  6.822441E+05  4.946958E+04 -5.615625E+04 -1.617224E-09  1.967899E-09
       158  16 -1.623011E+04  5.887981E+05  1.609899E+04 -5.155984E+04  2.760181E-09 -3.510879E-10
       158  17 -6.129533E+02  6.827887E+05  3.607216E+04 -3.008952E+04  4.460581E-09 -1.896900E-09
       158  18  3.707259E+04  7.844896E+05  7.309993E+04 -6.156897E+04  7.436024E-12 -9.550458E-10
       158  19  2.978424E+04  7.757055E+05  5.929156E+04 -6.076366E+04 -3.858028E+03 -6.344613E+03
       158  20 -2.776762E+03  6.740025E+05  3.404289E+04 -2.927913E+04  1.711930E+02  1.142203E+04
       158  21 -1.327130E+04  5.800091E+05  2.584018E+04 -5.074432E+04  4.189468E+03  2.918598E+04
       158  22  6.777358E+03  6.822478E+05  3.769569E+04 -5.616138E+04 -3.855143E+03 -9.167472E+03
       158  23 -1.694855E+03  6.783956E+05  3.505754E+04 -2.968432E+04  1.740830E+02  8.606372E+03
       158  24  1.190104E+04  6.822448E+05  4.947092E+04 -5.615616E+04  4.192111E+03  2.638026E+04
       158  25 -1.623006E+04  5.887983E+05  1.609929E+04 -5.155980E+04 -3.852301E+03 -1.198991E+04
       158  26 -6.129443E+02  6.827888E+05  3.607222E+04 -3.008952E+04  1.769767E+02  5.790697E+03
       158  27  3.707276E+04  7.844902E+05  7.310101E+04 -6.156889E+04  4.194803E+03  2.357408E+04
       159   1 -5.681259E+04  4.928133E+05  1.190523E+04 -7.909972E+04 -8.275349E+03 -4.120358E+04
       159   2 -8.518465E+04  3.705731E+05  2.004810E+04 -9.573629E+03 -1.146380E+04 -8.124895E+04
       159   3  5.853576E+04  2.965366E+05  9.727355E+04  7.266764E+03 -4.063461E+03 -1.212780E+05
       159   4 -7.978947E+03  6.915239E+05  5.776855E+04 -5.613997E+04 -8.282682E+03 -3.528034E+04
       159   5 -1.217959E+04  6.667707E+05  8.883618E+04 -2.973594E+04 -1.145955E+04 -8.272277E+04
       159   6  1.569422E+05  6.914585E+05  1.940917E+05 -5.601075E+04 -4.044302E+03 -1.301556E+05
       159   7  4.085394E+04  8.902723E+05  1.036297E+05 -3.317281E+04 -8.289576E+03 -2.935523E+04
       159   8  6.082081E+04  9.630501E+05  1.576186E+05 -4.990791E+04 -1.145520E+04 -8.419727E+04
       159   9  2.553521E+05  1.086531E+06  2.909009E+05 -1.193285E+05 -4.023344E+03 -1.390387E+05
       159  10 -5.681312E+04  4.928115E+05  1.190191E+04 -7.909999E+04 -7.596686E-11  6.316431E-10
       159  11 -8.518656E+04  3.705660E+05  2.003546E+04 -9.574380E+03  8.971995E-10 -1.389063E-09
       159  12  5.853179E+04  2.965208E+05  9.724589E+04  7.266367E+03  1.591089E-09 -1.013566E-09
       159  13 -7.979355E+03  6.915226E+05  5.776609E+04 -5.614020E+04  9.066865E-10 -7.245150E-10
       159  14 -1.218156E+04  6.667633E+05  8.882308E+04 -2.973670E+04  1.383281E-10 -4.957625E-11
       159  15  1.569376E+05  6.914404E+05  1.940599E+05 -5.601117E+04  1.636280E-10  1.617721E-09
       159  16  4.085364E+04  8.902713E+05  1.036279E+05 -3.317300E+04  4.328542E-10 -9.299651E-10
       159  17  6.081877E+04  9.630424E+05  1.576050E+05 -4.990869E+04  1.363729E-09 -3.260837E-10
       159  18  2.553469E+05  1.086510E+06  2.908646E+05 -1.193290E+05  8.247534E-10  9.942679E-10
       159  19 -5.681259E+04  4.928133E+05  1.190523E+04 -7.909972E+04  8.275349E+03  4.120358E+04
       159  20 -8.518465E+04  3.705731E+05  2.004810E+04 -9.573629E+03  1.146380E+04  8.124895E+04
       159  21  5.853576E+04  2.965366E+05  9.727355E+04  7.266764E+03  4.063461E+03  1.212780E+05
       159  22 -7.978947E+03  6.915239E+05  5.776855E+04 -5.613997E+04  8.282682E+03  3.528034E+04
       159  23 -1.217959E+04  6.667707E+05  8.883618E+04 -2.973594E+04  1.145955E+04  8.272277E+04
       159  24  1.569422E+05  6.914585E+05  1.940917E+05 -5.601075E+04  4.044302E+03  1.301556E+05
       159  25  4.085394E+04  8.902723E+05  1.036297E+05 -3.317281E+04  8.289576E+03  2.935523E+04
       159  26  6.082081E+04  9.630501E+05  1.576186E+05 -4.990791E+04  1.145520E+04  8.419727E+04
       159  27  2.553521E+05  1.086531E+06  2.909009E+05 -1.193285E+05  4.023344E+03  1.390387E+05
       160   1  7.412852E+04  3.892256E+04  1.963325E+04 -8.884142E+03 -5.117738E+04 -5.457739E+03
       160   2  4.784849E+04  1.085934E+05  5.592690E+04  1.557835E+03 -3.716866E+04 -1.661929E+04
       160   3 -3.000204E+02  9.794956E+04  6.304300E+04  3.173811E+04 -2.317752E+04 -1.640190E+04
       160   4 -3.812022E+05 -7.433850E+04 -9.175666E+04  2.042085E+04 -6.288812E+04 -5.477178E+03
       160   5 -3.695616E+05  5.761799E+03 -4.093269E+04  1.049111E+04 -4.097312E+04 -1.662671E+04
       160   6 -3.811805E+05  4.143550E+03 -2.479386E+04  2.030115E+04 -1.907451E+04 -1.639483E+04
       160   7 -8.363418E+05 -1.876116E+05 -2.031607E+05  4.970423E+04 -7.459027E+04 -5.497731E+03
       160   8 -7.868105E+05 -9.708174E+04 -1.378039E+05  1.941827E+04 -4.477502E+04 -1.663426E+04
       160   9 -7.619264E+05 -8.967215E+04 -1.126402E+05  8.871204E+03 -1.497399E+04 -1.638792E+04
       160  10  7.412570E+04  3.892183E+04  1.962827E+04 -8.884367E+03 -2.168492E-09  9.240827E-10
       160  11  4.784693E+04  1.085927E+05  5.592379E+04  1.557338E+03 -1.680331E-09  3.214175E-09
       160  12 -3.006695E+02  9.794913E+04  6.304148E+04  3.173780E+04  7.921898E-09  2.429754E-09
       160  13 -3.812065E+05 -7.433959E+04 -9.176415E+04  2.042057E+04 -1.889253E-09 -2.145153E-09
       160  14 -3.695634E+05  5.761052E+03 -4.093636E+04  1.049056E+04 -1.613327E-09 -6.356500E-09
       160  15 -3.811809E+05  4.143163E+03 -2.479504E+04  2.030090E+04 -2.102463E-09  7.011877E-10
       160  16 -8.363478E+05 -1.876131E+05 -2.031713E+05  4.970390E+04  3.600214E-09 -3.196298E-10
       160  17 -7.868127E+05 -9.708258E+04 -1.378082E+05  1.941767E+04 -3.113290E-09  4.197527E-09
       160  18 -7.619268E+05 -8.967250E+04 -1.126412E+05  8.871006E+03 -7.278400E-09 -9.125347E-10
       160  19  7.412852E+04  3.892256E+04  1.963325E+04 -8.884142E+03  5.117738E+04  5.457739E+03
       160  20  4.784849E+04  1.085934E+05  5.592690E+04  1.557835E+03  3.716866E+04  1.661929E+04
       160  21 -3.000204E+02  9.794956E+04  6.304300E+04  3.173811E+04  2.317752E+04  1.640190E+04
       160  22 -3.812022E+05 -7.433850E+04 -9.175666E+04  2.042085E+04  6.288812E+04  5.477178E+03
       160  23 -3.695616E+05  5.761799E+03 -4.093269E+04  1.049111E+04  4.097312E+04  1.662671E+04
       160  24 -3.811805E+05  4.143550E+03 -2.479386E+04  2.030115E+04  1.907451E+04  1.639483E+04
       160  25 -8.363418E+05 -1.876116E+05 -2.031607E+05  4.970423E+04  7.459027E+04  5.497731E+03
       160  26 -7.868105E+05 -9.708174E+04 -1.378039E+05  1.941827E+04  4.477502E+04  1.663426E+04
       160  27 -7.619264E+05 -8.967215E+04 -1.126402E+05  8.871204E+03  1.497399E+04  1.638792E+04
       161   1 -3.241873E+04  7.903774E+04  5.973168E+04  1.899823E+04 -1.599474E+04 -1.397225E+04
       161   2 -6.867167E+04  7.607154E+04  6.036186E+04  1.030476E+04 -1.107007E+04 -1.282011E+04
       161   3 -1.071943E+05  6.676126E+04  5.619095E+04  2.185046E+04 -6.147681E+03 -1.108112E+04
       161   4 -3.765289E+05 -5.736705E+03 -1.999577E+04  2.045544E+04 -1.539784E+04 -1.397171E+04
       161   5 -3.753532E+05  5.443894E+02 -1.052755E+04  1.032947E+04 -1.006744E+04 -1.281854E+04
       161   6 -3.765210E+05  4.089251E+02 -6.144394E+03  2.044339E+04 -4.739042E+03 -1.107841E+04
       161   7 -7.205295E+05 -9.051948E+04 -9.973115E+04  2.191177E+04 -1.480127E+04 -1.397116E+04
       161   8 -6.819477E+05 -7.498937E+04 -8.142323E+04  1.035412E+04 -9.065302E+03 -1.281697E+04
       161   9 -6.457806E+05 -6.594850E+04 -6.848459E+04  1.903691E+04 -3.331009E+03 -1.107571E+04
       161  10 -3.241906E+04  7.903747E+04  5.973083E+04  1.899805E+04  1.884308E-09 -7.939781E-10
       161  11 -6.867184E+04  7.607133E+04  6.036132E+04  1.030465E+04 -2.964277E-09  3.404901E-09
       161  12 -1.071943E+05  6.676111E+04  5.619065E+04  2.185040E+04 -3.234561E-09  6.593875E-09
       161  13 -3.765292E+05 -5.736978E+03 -1.999658E+04  2.045526E+04 -1.347298E-09  6.463272E-09
       161  14 -3.753533E+05  5.441858E+02 -1.052804E+04  1.032936E+04 -2.473827E-10 -9.288840E-09
       161  15 -3.765210E+05  4.087873E+02 -6.144667E+03  2.044335E+04 -3.140237E-10  5.132160E-09
       161  16 -7.205298E+05 -9.051974E+04 -9.973192E+04  2.191161E+04 -6.844729E-10 -5.103368E-09
       161  17 -6.819479E+05 -7.498956E+04 -8.142369E+04  1.035402E+04  2.293204E-09 -1.190044E-09
       161  18 -6.457807E+05 -6.594863E+04 -6.848484E+04  1.903688E+04  4.898437E-09 -9.742789E-11
       161  19 -3.241873E+04  7.903774E+04  5.973168E+04  1.899823E+04  1.599474E+04  1.397225E+04
       161  20 -6.867167E+04  7.607154E+04  6.036186E+04  1.030476E+04  1.107007E+04  1.282011E+04
       161  21 -1.071943E+05  6.676126E+04  5.619095E+04  2.185046E+04  6.147681E+03  1.108112E+04
       161  22 -3.765289E+05 -5.736705E+03 -1.999577E+04  2.045544E+04  1.539784E+04  1.397171E+04
       161  23 -3.753532E+05  5.443894E+02 -1.052755E+04  1.032947E+04  1.006744E+04  1.281854E+04
       161  24 -3.765210E+05  4.089251E+02 -6.144394E+03  2.044339E+04  4.739042E+03  1.107841E+04
       161  25 -7.205295E+05 -9.051948E+04 -9.973115E+04  2.191177E+04  1.480127E+04  1.397116E+04
       161  26 -6.819477E+05 -7.498937E+04 -8.142323E+04  1.035412E+04  9.065302E+03  1.281697E+04
       161  27 -6.457806E+05 -6.594850E+04 -6.848459E+04  1.903691E+04  3.331009E+03  1.107571E+04
       162   1 -1.436830E+05  5.686442E+04  4.885571E+04  2.081682E+04 -5.014427E+03 -9.952289E+03
       162   2 -1.811098E+05  4.807018E+04  4.235140E+04  1.064684E+04 -3.715039E+03 -8.164634E+03
       162   3 -2.189032E+05  3.885658E+04  3.487524E+04  2.086311E+04 -2.416354E+03 -6.344062E+03
       162   4 -3.760783E+05 -3.504911E+02 -4.755037E+03  2.048024E+04 -3.782988E+03 -9.949818E+03
       162   5 -3.758905E+05  9.837002E+01 -2.663021E+03  1.028638E+04 -2.461171E+03 -8.161935E+03
       162   6 -3.760741E+05  1.240700E+02 -1.558526E+03  2.047916E+04 -1.139979E+03 -6.341126E+03
       162   7 -6.084236E+05 -5.756919E+04 -5.836937E+04  2.014375E+04 -2.552007E+03 -9.947348E+03
       162   8 -5.706361E+05 -4.787610E+04 -4.767997E+04  9.926006E+03 -1.207693E+03 -8.159238E+03
       162   9 -5.332222E+05 -3.861018E+04 -3.799394E+04  2.009530E+04  1.360756E+02 -6.338191E+03
       162  10 -1.436831E+05  5.686431E+04  4.885548E+04  2.081678E+04  4.016250E-09 -2.660280E-09
       162  11 -1.811099E+05  4.807010E+04  4.235125E+04  1.064681E+04 -3.750415E-09 -4.481306E-09
       162  12 -2.189032E+05  3.885654E+04  3.487515E+04  2.086309E+04 -1.240513E-09 -3.018291E-09
       162  13 -3.760783E+05 -3.506012E+02 -4.755250E+03  2.048021E+04 -1.052943E-09 -1.309583E-09
       162  14 -3.758905E+05  9.829687E+01 -2.663158E+03  1.028636E+04 -3.016227E-09 -4.799995E-09
       162  15 -3.760741E+05  1.240265E+02 -1.558604E+03  2.047915E+04  1.259189E-10 -1.800057E-09
       162  16 -6.084236E+05 -5.756929E+04 -5.836957E+04  2.014373E+04 -3.642976E-09 -5.390507E-09
       162  17 -5.706361E+05 -4.787617E+04 -4.768009E+04  9.925998E+03  6.742047E-10  3.629798E-09
       162  18 -5.332222E+05 -3.861022E+04 -3.799402E+04  2.009530E+04  8.760190E-10  6.051488E-09
       162  19 -1.436830E+05  5.686442E+04  4.885571E+04  2.081682E+04  5.014427E+03  9.952289E+03
       162  20 -1.811098E+05  4.807018E+04  4.235140E+04  1.064684E+04  3.715039E+03  8.164634E+03
       162  21 -2.189032E+05  3.885658E+04  3.487524E+04  2.086311E+04  2.416354E+03  6.344062E+03
       162  22 -3.760783E+05 -3.504911E+02 -4.755037E+03  2.048024E+04  3.782988E+03  9.949818E+03
       162  23 -3.758905E+05  9.837002E+01 -2.663021E+03  1.028638E+04  2.461171E+03  8.161935E+03
       162  24 -3.760741E+05  1.240700E+02 -1.558526E+03  2.047916E+04  1.139979E+03  6.341126E+03
       162  25 -6.084236E+05 -5.756919E+04 -5.836937E+04  2.014375E+04  2.552007E+03  9.947348E+03
       162  26 -5.706361E+05 -4.787610E+04 -4.767997E+04  9.926006E+03  1.207693E+03  8.159238E+03
       162  27 -5.332222E+05 -3.861018E+04 -3.799394E+04  2.009530E+04 -1.360756E+02  6.338191E+03
       163   1 -2.559571E+05  2.961973E+04  2.642841E+04  2.073360E+04 -2.162413E+03 -5.278032E+03
       163   2 -2.936196E+05  2.033749E+04  1.828255E+04  1.043322E+04 -1.800202E+03 -3.452777E+03
       163   3 -3.314343E+05  1.111060E+04  9.887769E+03  2.058910E+04 -1.438264E+03 -1.624764E+03
       163   4 -3.760232E+05  6.983401E+01 -1.209506E+03  2.049504E+04 -8.939173E+02 -5.275031E+03
       163   5 -3.759454E+05  6.036892E+01 -7.441054E+02  1.026678E+04 -5.298861E+02 -3.449697E+03
       163   6 -3.760216E+05  1.060230E+02 -5.288823E+02  2.049495E+04 -1.661061E+02 -1.621599E+03
       163   7 -4.960761E+05 -2.948107E+04 -2.884837E+04  2.025652E+04  3.743354E+02 -5.272030E+03
       163   8 -4.582650E+05 -2.021723E+04 -1.977121E+04  1.010037E+04  7.402627E+02 -3.446617E+03
       163   9 -4.206069E+05 -1.089870E+04 -1.094566E+04  2.040081E+04  1.105961E+03 -1.618435E+03
       163  10 -2.559571E+05  2.961970E+04  2.642835E+04  2.073359E+04  4.115279E-09 -3.342920E-09
       163  11 -2.936196E+05  2.033747E+04  1.828253E+04  1.043321E+04 -4.654600E-09  3.974980E-09
       163  12 -3.314343E+05  1.111060E+04  9.887760E+03  2.058910E+04 -2.898688E-09  2.363726E-09
       163  13 -3.760233E+05  6.980392E+01 -1.209560E+03  2.049504E+04  1.927079E-11  3.600619E-09
       163  14 -3.759454E+05  6.035607E+01 -7.441283E+02  1.026678E+04 -1.512250E-10 -3.365541E-09
       163  15 -3.760216E+05  1.060201E+02 -5.288873E+02  2.049495E+04  8.650221E-11 -3.362766E-09
       163  16 -4.960761E+05 -2.948110E+04 -2.884842E+04  2.025652E+04 -2.156121E-09  2.870225E-09
       163  17 -4.582650E+05 -2.021724E+04 -1.977123E+04  1.010037E+04  2.555378E-09  7.879013E-09
       163  18 -4.206069E+05 -1.089870E+04 -1.094567E+04  2.040081E+04  4.847191E-09  2.889508E-09
       163  19 -2.559571E+05  2.961973E+04  2.642841E+04  2.073360E+04  2.162413E+03  5.278032E+03
       163  20 -2.936196E+05  2.033749E+04  1.828255E+04  1.043322E+04  1.800202E+03  3.452777E+03
       163  21 -3.314343E+05  1.111060E+04  9.887769E+03  2.058910E+04  1.438264E+03  1.624764E+03
       163  22 -3.760232E+05  6.983401E+01 -1.209506E+03  2.049504E+04  8.939173E+02  5.275031E+03
       163  23 -3.759454E+05  6.036892E+01 -7.441054E+02  1.026678E+04  5.298861E+02  3.449697E+03
       163  24 -3.760216E+05  1.060230E+02 -5.288823E+02  2.049495E+04  1.661061E+02  1.621599E+03
       163  25 -4.960761E+05 -2.948107E+04 -2.884837E+04  2.025652E+04 -3.743354E+02  5.272030E+03
       163  26 -4.582650E+05 -2.021723E+04 -1.977121E+04  1.010037E+04 -7.402627E+02  3.446617E+03
       163  27 -4.206069E+05 -1.089870E+04 -1.094566E+04  2.040081E+04 -1.105961E+03  1.618435E+03
       164   1 -3.686077E+05  1.907605E+03  1.114830E+03  2.051196E+04 -1.349378E+03 -5.600682E+02
       164   2 -4.062991E+05 -7.416910E+03 -7.526431E+03  1.020246E+04 -1.099539E+03  1.268578E+03
       164   3 -4.441282E+05 -1.666794E+04 -1.634006E+04  2.036295E+04 -8.496242E+02  3.095460E+03
       164   4 -3.760178E+05  1.047003E+02 -4.862421E+02  2.049797E+04 -7.705054E+01 -5.568875E+02
       164   5 -3.759485E+05  5.905350E+01 -5.114731E+02  1.026303E+04  1.715243E+02  1.271724E+03
       164   6 -3.760185E+05  8.705994E+01 -7.082736E+02  2.049801E+04  4.201900E+02  3.098578E+03
       164   7 -3.834279E+05 -1.698207E+03 -2.087311E+03  2.048397E+04  1.195262E+03 -5.537068E+02
       164   8 -3.455970E+05  7.534953E+03  6.503429E+03  1.032360E+04  1.442649E+03  1.274871E+03
       164   9 -3.079044E+05  1.684174E+04  1.492322E+04  2.063308E+04  1.690142E+03  3.101696E+03
       164  10 -3.686077E+05  1.907604E+03  1.114826E+03  2.051196E+04 -1.384522E-09  7.761001E-10
       164  11 -4.062991E+05 -7.416912E+03 -7.526436E+03  1.020246E+04 -3.394536E-09 -4.858796E-09
       164  12 -4.441282E+05 -1.666795E+04 -1.634008E+04  2.036295E+04 -5.290097E-09 -1.142500E-10
       164  13 -3.760178E+05  1.047000E+02 -4.862427E+02  2.049797E+04  7.739434E-10  4.483631E-09
       164  14 -3.759485E+05  5.905175E+01 -5.114762E+02  1.026303E+04  2.287662E-09 -1.706686E-09
       164  15 -3.760185E+05  8.704958E+01 -7.082920E+02  2.049801E+04  5.158000E-10 -3.196360E-09
       164  16 -3.834279E+05 -1.698208E+03 -2.087315E+03  2.048397E+04  1.939803E-09  1.800919E-10
       164  17 -3.455970E+05  7.534951E+03  6.503422E+03  1.032359E+04  3.752618E-09 -1.161165E-08
       164  18 -3.079044E+05  1.684173E+04  1.492319E+04  2.063308E+04  5.330627E-09 -5.559489E-09
       164  19 -3.686077E+05  1.907605E+03  1.114830E+03  2.051196E+04  1.349378E+03  5.600682E+02
       164  20 -4.062991E+05 -7.416910E+03 -7.526431E+03  1.020246E+04  1.099539E+03 -1.268578E+03
       164  21 -4.441282E+05 -1.666794E+04 -1.634006E+04  2.036295E+04  8.496242E+02 -3.095460E+03
       164  22 -3.760178E+05  1.047003E+02 -4.862421E+02  2.049797E+04  7.705054E+01  5.568875E+02
       164  23 -3.759485E+05  5.905350E+01 -5.114731E+02  1.026303E+04 -1.715243E+02 -1.271724E+03
       164  24 -3.760185E+05  8.705994E+01 -7.082736E+02  2.049801E+04 -4.201900E+02 -3.098578E+03
       164  25 -3.834279E+05 -1.698207E+03 -2.087311E+03  2.048397E+04 -1.195262E+03  5.537068E+02
       164  26 -3.455970E+05  7.534953E+03  6.503429E+03  1.032360E+04 -1.442649E+03 -1.274871E+03
       164  27 -3.079044E+05  1.684174E+04  1.492322E+04  2.063308E+04 -1.690142E+03 -3.101696E+03
       165   1 -4.812990E+05 -2.583406E+04 -2.531665E+04  2.024079E+04 -7.171233E+02  4.162373E+03
       165   2 -5.188512E+05 -3.513133E+04 -3.447873E+04  1.000865E+04  1.524522E+01  5.985712E+03
       165   3 -5.566519E+05 -4.461048E+04 -4.418801E+04  2.019981E+04  7.480697E+02  7.780216E+03
       165   4 -3.760437E+05  1.160143E+02 -8.767881E+02  2.048738E+04  5.599941E+02  4.165455E+03
       165   5 -3.759223E+05  7.733769E+01 -1.440499E+03  1.027617E+04  1.272429E+03  5.988610E+03
       165   6 -3.760467E+05 -1.394683E+02 -2.537239E+03  2.048798E+04  1.985364E+03  7.782938E+03
       165   7 -2.707782E+05  2.606531E+04  2.356233E+04  2.073401E+04  1.837327E+03  4.168538E+03
       165   8 -2.329745E+05  3.528457E+04  3.159637E+04  1.054375E+04  2.529901E+03  5.991509E+03
       165   9 -1.954113E+05  4.432926E+04  3.911137E+04  2.077622E+04  3.223015E+03  7.785661E+03
       165  10 -4.812990E+05 -2.583408E+04 -2.531668E+04  2.024079E+04 -3.123538E-09  3.294487E-10
       165  11 -5.188512E+05 -3.513137E+04 -3.447880E+04  1.000865E+04 -2.652165E-09 -5.848629E-09
       165  12 -5.566519E+05 -4.461055E+04 -4.418813E+04  2.019981E+04 -3.330181E-10 -1.013994E-10
       165  13 -3.760437E+05  1.159955E+02 -8.768212E+02  2.048738E+04  1.732502E-11 -2.093068E-10
       165  14 -3.759223E+05  7.729876E+01 -1.440569E+03  1.027617E+04  6.312786E-10  5.100607E-10
       165  15 -3.760467E+05 -1.395344E+02 -2.537360E+03  2.048797E+04 -2.103945E-09  3.964783E-09
       165  16 -2.707782E+05  2.606529E+04  2.356229E+04  2.073400E+04  3.064299E-09  2.214016E-09
       165  17 -2.329745E+05  3.528453E+04  3.159629E+04  1.054374E+04  2.195258E-09 -2.972602E-09
       165  18 -1.954113E+05  4.432919E+04  3.911124E+04  2.077620E+04  3.462281E-09  4.647195E-09
       165  19 -4.812990E+05 -2.583406E+04 -2.531665E+04  2.024079E+04  7.171233E+02 -4.162373E+03
       165  20 -5.188512E+05 -3.513133E+04 -3.447873E+04  1.000865E+04 -1.524522E+01 -5.985712E+03
       165  21 -5.566519E+05 -4.461048E+04 -4.418801E+04  2.019981E+04 -7.480697E+02 -7.780216E+03
       165  22 -3.760437E+05  1.160143E+02 -8.767881E+02  2.048738E+04 -5.599941E+02 -4.165455E+03
       165  23 -3.759223E+05  7.733769E+01 -1.440499E+03  1.027617E+04 -1.272429E+03 -5.988610E+03
       165  24 -3.760467E+05 -1.394683E+02 -2.537239E+03  2.048798E+04 -1.985364E+03 -7.782938E+03
       165  25 -2.707782E+05  2.606531E+04  2.356233E+04  2.073401E+04 -1.837327E+03 -4.168538E+03
       165  26 -2.329745E+05  3.528457E+04  3.159637E+04  1.054375E+04 -2.529901E+03 -5.991509E+03
       165  27 -1.954113E+05  4.432926E+04  3.911137E+04  2.077622E+04 -3.223015E+03 -7.785661E+03
       166   1 -5.938973E+05 -5.336843E+04 -5.367131E+04  1.957340E+04  1.098018E+03  8.903010E+03
       166   2 -6.307212E+05 -6.253213E+04 -6.457109E+04  1.015538E+04  4.287201E+03  1.065410E+04
       166   3 -6.688848E+05 -7.511625E+04 -7.841993E+04  2.104671E+04  7.477969E+03  1.188208E+04
       166   4 -3.762795E+05  2.633799E+02 -3.269024E+03  2.046022E+04  2.493382E+03  8.905971E+03
       166   5 -3.756438E+05  3.087829E+02 -5.588510E+03  1.030922E+04  5.319804E+03  1.065602E+04
       166   6 -3.762855E+05 -3.002251E+03 -1.060402E+04  2.046711E+04  8.148000E+03  1.188306E+04
       166   7 -1.586179E+05  5.389186E+04  4.713010E+04  2.134733E+04  3.889232E+03  8.908937E+03
       166   8 -1.205063E+05  6.314512E+04  5.338973E+04  1.046310E+04  6.352827E+03  1.065794E+04
       166   9 -8.360710E+04  6.910572E+04  5.720615E+04  1.988720E+04  8.818344E+03  1.188403E+04
       166  10 -5.938973E+05 -5.336851E+04 -5.367146E+04  1.957339E+04  2.400256E-09 -5.209189E-10
       166  11 -6.307212E+05 -6.253226E+04 -6.457134E+04  1.015534E+04 -8.924896E-09  4.728989E-09
       166  12 -6.688849E+05 -7.511642E+04 -7.842030E+04  2.104664E+04 -1.043581E-08 -2.205320E-11
       166  13 -3.762795E+05  2.632931E+02 -3.269185E+03  2.046020E+04 -1.890101E-09 -4.048752E-09
       166  14 -3.756439E+05  3.086534E+02 -5.588777E+03  1.030918E+04 -3.075318E-09  4.851485E-10
       166  15 -3.762856E+05 -3.002421E+03 -1.060441E+04  2.046704E+04  9.291019E-10 -7.975496E-09
       166  16 -1.586180E+05  5.389177E+04  4.712992E+04  2.134730E+04 -3.344247E-09 -6.723253E-10
       166  17 -1.205064E+05  6.314499E+04  5.338944E+04  1.046304E+04  7.232909E-09 -7.643305E-09
       166  18 -8.360722E+04  6.910555E+04  5.720574E+04  1.988711E+04  1.042952E-08  1.013273E-09
       166  19 -5.938973E+05 -5.336843E+04 -5.367131E+04  1.957340E+04 -1.098018E+03 -8.903010E+03
       166  20 -6.307212E+05 -6.253213E+04 -6.457109E+04  1.015538E+04 -4.287201E+03 -1.065410E+04
       166  21 -6.688848E+05 -7.511625E+04 -7.841993E+04  2.104671E+04 -7.477969E+03 -1.188208E+04
       166  22 -3.762795E+05  2.633799E+02 -3.269024E+03  2.046022E+04 -2.493382E+03 -8.905971E+03
       166  23 -3.756438E+05  3.087829E+02 -5.588510E+03  1.030922E+04 -5.319804E+03 -1.065602E+04
       166  24 -3.762855E+05 -3.002251E+03 -1.060402E+04  2.046711E+04 -8.148000E+03 -1.188306E+04
       166  25 -1.586179E+05  5.389186E+04  4.713010E+04  2.134733E+04 -3.889232E+03 -8.908937E+03
       166  26 -1.205063E+05  6.314512E+04  5.338973E+04  1.046310E+04 -6.352827E+03 -1.065794E+04
       166  27 -8.360710E+04  6.910572E+04  5.720615E+04  1.988720E+04 -8.818344E+03 -1.188403E+04
       167   1 -7.082387E+05 -7.893741E+04 -8.916813E+04  1.406383E+04  6.298678E+03  1.415374E+04
       167   2 -7.387882E+05 -8.720595E+04 -1.067295E+05  1.495230E+04  2.496459E+04  1.456627E+04
       167   3 -7.829102E+05 -1.399837E+05 -1.475824E+05  3.569083E+04  4.364582E+04  4.823098E+03
       167   4 -3.787481E+05  2.234451E+03 -1.314557E+04  2.033953E+04  1.009519E+04  1.416077E+04
       167   5 -3.725852E+05  3.065590E+03 -2.170383E+04  1.045051E+04  2.170528E+04  1.455959E+04
       167   6 -3.787627E+05 -3.937293E+04 -4.864254E+04  2.041180E+04  3.333210E+04  4.804721E+03
       167   7 -4.915688E+04  8.339884E+04  6.286983E+04  2.661854E+04  1.389371E+04  1.416788E+04
       167   8 -6.258171E+03  9.332776E+04  6.331291E+04  5.945984E+03  1.844406E+04  1.455296E+04
       167   9  2.553450E+04  6.122670E+04  5.028593E+04  5.122731E+03  2.301167E+04  4.786859E+03
       167  10 -7.082388E+05 -7.893763E+04 -8.916858E+04  1.406376E+04  9.900532E-09 -4.328334E-12
       167  11 -7.387889E+05 -8.720634E+04 -1.067311E+05  1.495201E+04  9.327170E-09  2.562162E-09
       167  12 -7.829122E+05 -1.399842E+05 -1.475861E+05  3.569066E+04  6.711090E-09  3.310427E-09
       167  13 -3.787482E+05  2.234208E+03 -1.314614E+04  2.033942E+04 -3.465056E-11 -8.084047E-09
       167  14 -3.725858E+05  3.065236E+03 -2.170512E+04  1.045026E+04  1.543406E-09 -2.306429E-09
       167  15 -3.787639E+05 -3.937326E+04 -4.864467E+04  2.041167E+04 -1.026788E-09  1.274180E-09
       167  16 -4.915714E+04  8.339858E+04  6.286909E+04  2.661838E+04 -1.104034E-08  3.971111E-09
       167  17 -6.258594E+03  9.332744E+04  6.331187E+04  5.945767E+03 -1.315993E-08  6.479504E-09
       167  18  2.553393E+04  6.122653E+04  5.028490E+04  5.122642E+03 -6.845439E-09 -1.353807E-09
       167  19 -7.082387E+05 -7.893741E+04 -8.916813E+04  1.406383E+04 -6.298678E+03 -1.415374E+04
       167  20 -7.387882E+05 -8.720595E+04 -1.067295E+05  1.495230E+04 -2.496459E+04 -1.456627E+04
       167  21 -7.829102E+05 -1.399837E+05 -1.475824E+05  3.569083E+04 -4.364582E+04 -4.823098E+03
       167  22 -3.787481E+05  2.234451E+03 -1.314557E+04  2.033953E+04 -1.009519E+04 -1.416077E+04
       167  23 -3.725852E+05  3.065590E+03 -2.170383E+04  1.045051E+04 -2.170528E+04 -1.455959E+04
       167  24 -3.787627E+05 -3.937293E+04 -4.864254E+04  2.041180E+04 -3.333210E+04 -4.804721E+03
       167  25 -4.915688E+04  8.339884E+04  6.286983E+04  2.661854E+04 -1.389371E+04 -1.416788E+04
       167  26 -6.258171E+03  9.332776E+04  6.331291E+04  5.945984E+03 -1.844406E+04 -1.455296E+04
       167  27  2.553450E+04  6.122670E+04  5.028593E+04  5.122731E+03 -2.301167E+04 -4.786859E+03
       168   1 -2.136800E+05 -8.238928E+05 -2.074443E+05  1.913933E+05 -8.812132E+03 -6.490447E+04
       168   2 -1.487444E+05 -6.451509E+05 -1.299799E+05  1.650590E+05 -2.700347E+04 -2.691500E+04
       168   3 -1.019039E+05 -4.757060E+05 -8.178180E+04  1.764865E+05 -2.605246E+04  1.111212E+04
       168   4 -2.187151E+04 -4.933691E+04 -2.354682E+04  1.775032E+05 -8.857622E+03 -1.771738E+04
       168   5 -5.244437E+03 -4.747323E+04 -1.047910E+04  1.586322E+05 -2.701453E+04 -1.230267E+04
       168   6 -1.041963E+03 -4.926890E+04 -4.031711E+03  1.775234E+05 -2.603661E+04 -6.862219E+03
       168   7  1.698957E+05  7.257755E+05  1.603173E+05  1.635956E+05 -8.905204E+03  2.952837E+04
       168   8  1.382338E+05  5.505462E+05  1.090045E+05  1.521992E+05 -2.702589E+04  2.323456E+03
       168   9  9.980987E+04  3.773457E+05  7.371228E+04  1.785611E+05 -2.602083E+04 -2.484857E+04
       168  10 -2.136812E+05 -8.238973E+05 -2.074524E+05  1.913929E+05 -2.736208E-10  4.838956E-09
       168  11 -1.487453E+05 -6.451518E+05 -1.299826E+05  1.650584E+05  5.327559E-09  4.848870E-09
       168  12 -1.019047E+05 -4.757063E+05 -8.178331E+04  1.764867E+05  1.528368E-09  1.392065E-10
       168  13 -2.187168E+04 -4.933727E+04 -2.354755E+04  1.775030E+05 -2.502446E-10  1.746532E-09
       168  14 -5.245261E+03 -4.747358E+04 -1.048076E+04  1.586319E+05 -3.896504E-10 -2.684805E-10
       168  15 -1.042704E+03 -4.926914E+04 -4.033073E+03  1.775233E+05 -1.116525E-09  3.112336E-09
       168  16  1.698953E+05  7.257746E+05  1.603156E+05  1.635958E+05 -2.723913E-10 -2.019190E-10
       168  17  1.382330E+05  5.505460E+05  1.090031E+05  1.521992E+05  8.438896E-10 -5.601363E-09
       168  18  9.980898E+04  3.773449E+05  7.370985E+04  1.785606E+05 -5.389194E-10 -1.615959E-09
       168  19 -2.136800E+05 -8.238928E+05 -2.074443E+05  1.913933E+05  8.812132E+03  6.490447E+04
       168  20 -1.487444E+05 -6.451509E+05 -1.299799E+05  1.650590E+05  2.700347E+04  2.691500E+04
       168  21 -1.019039E+05 -4.757060E+05 -8.178180E+04  1.764865E+05  2.605246E+04 -1.111212E+04
       168  22 -2.187151E+04 -4.933691E+04 -2.354682E+04  1.775032E+05  8.857622E+03  1.771738E+04
       168  23 -5.244437E+03 -4.747323E+04 -1.047910E+04  1.586322E+05  2.701453E+04  1.230267E+04
       168  24 -1.041963E+03 -4.926890E+04 -4.031711E+03  1.775234E+05  2.603661E+04  6.862219E+03
       168  25  1.698957E+05  7.257755E+05  1.603173E+05  1.635956E+05  8.905204E+03 -2.952837E+04
       168  26  1.382338E+05  5.505462E+05  1.090045E+05  1.521992E+05  2.702589E+04 -2.323456E+03
       168  27  9.980987E+04  3.773457E+05  7.371228E+04  1.785611E+05  2.602083E+04  2.484857E+04
       169   1 -7.512782E+04 -3.606342E+05 -5.818702E+04  1.780295E+05 -1.945601E+04  9.521362E+03
       169   2 -3.249703E+04 -1.867822E+05 -2.067434E+04  1.587694E+05 -9.754648E+03  8.988370E+03
       169   3  1.067071E+04 -1.258778E+04  1.734474E+04  1.784627E+05  5.269810E+02  8.454795E+03
       169   4 -1.347982E+03 -4.833175E+04 -1.668341E+03  1.777844E+05 -1.944305E+04 -6.510022E+03
       169   5 -1.002864E+02 -4.856654E+04  3.070362E+03  1.583093E+05 -9.741761E+03 -8.033363E+03
       169   6  1.858013E+03 -4.831565E+04  9.004116E+03  1.777869E+05  5.396772E+02 -9.557151E+03
       169   7  7.242652E+04  2.640662E+05  5.484746E+04  1.775392E+05 -1.943009E+04 -2.254925E+04
       169   8  3.229559E+04  8.966849E+04  2.681551E+04  1.578490E+05 -9.728849E+03 -2.505877E+04
       169   9 -6.954601E+03 -8.404164E+04  6.646230E+02  1.771111E+05  5.524130E+02 -2.756807E+04
       169  10 -7.512825E+04 -3.606344E+05 -5.818790E+04  1.780296E+05 -1.334706E-09  6.039326E-09
       169  11 -3.249715E+04 -1.867823E+05 -2.067467E+04  1.587695E+05  1.886527E-09  2.488808E-09
       169  12  1.067069E+04 -1.258786E+04  1.734461E+04  1.784627E+05 -1.754655E-09 -4.604686E-09
       169  13 -1.348400E+03 -4.833189E+04 -1.669131E+03  1.777843E+05 -1.751710E-09  2.268344E-09
       169  14 -1.004056E+02 -4.856663E+04  3.070062E+03  1.583092E+05 -9.864403E-11  1.294298E-11
       169  15  1.857988E+03 -4.831575E+04  9.003944E+03  1.777869E+05 -3.499543E-09  1.224722E-09
       169  16  7.242598E+04  2.640656E+05  5.484579E+04  1.775388E+05 -1.347387E-10 -1.539700E-09
       169  17  3.229532E+04  8.966779E+04  2.681415E+04  1.578488E+05 -3.231051E-09 -3.580676E-09
       169  18 -6.954805E+03 -8.404246E+04  6.631940E+02  1.771111E+05 -4.337200E-09  2.991036E-09
       169  19 -7.512782E+04 -3.606342E+05 -5.818702E+04  1.780295E+05  1.945601E+04 -9.521362E+03
       169  20 -3.249703E+04 -1.867822E+05 -2.067434E+04  1.587694E+05  9.754648E+03 -8.988370E+03
       169  21  1.067071E+04 -1.258778E+04  1.734474E+04  1.784627E+05 -5.269810E+02 -8.454795E+03
       169  22 -1.347982E+03 -4.833175E+04 -1.668341E+03  1.777844E+05  1.944305E+04  6.510022E+03
       169  23 -1.002864E+02 -4.856654E+04  3.070362E+03  1.583093E+05  9.741761E+03  8.033363E+03
       169  24  1.858013E+03 -4.831565E+04  9.004116E+03  1.777869E+05 -5.396772E+02  9.557151E+03
       169  25  7.242652E+04  2.640662E+05  5.484746E+04  1.775392E+05  1.943009E+04  2.254925E+04
       169  26  3.229559E+04  8.966849E+04  2.681551E+04  1.578490E+05  9.728849E+03  2.505877E+04
       169  27 -6.954601E+03 -8.404164E+04  6.646230E+02  1.771111E+05 -5.524130E+02  2.756807E+04
       170   1  3.697739E+04  1.030758E+05  4.183928E+04  1.748862E+05  7.444006E+03  8.080772E+03
       170   2  8.791050E+04  2.711124E+05  9.129812E+04  1.715398E+05  1.240129E+04 -2.621080E+04
       170   3  1.695755E+05  4.514363E+05  1.707828E+05  2.064484E+05  4.682837E+03 -6.052649E+04
       170   4  1.223972E+03 -4.653441E+04  1.270177E+04  1.776247E+05  7.457924E+03 -1.112391E+04
       170   5  1.021512E+04 -5.081175E+04  2.457104E+04  1.585186E+05  1.240045E+04 -2.380638E+04
       170   6  4.619856E+04 -4.656969E+04  5.146955E+04  1.776645E+05  4.665959E+03 -3.650331E+04
       170   7 -3.453057E+04 -1.961223E+05 -1.643540E+04  1.803625E+05  7.471674E+03 -3.032407E+04
       170   8 -6.748619E+04 -3.726373E+05 -4.216158E+04  1.455043E+05  1.239950E+04 -2.140318E+04
       170   9 -7.719293E+04 -5.443456E+05 -6.785863E+04  1.489037E+05  4.646852E+03 -1.249931E+04
       170  10  3.697732E+04  1.030757E+05  4.183905E+04  1.748861E+05 -2.523928E-09  8.852559E-09
       170  11  8.791015E+04  2.711116E+05  9.129654E+04  1.715401E+05 -1.714510E-09  5.379301E-09
       170  12  1.695745E+05  4.514324E+05  1.707759E+05  2.064486E+05  2.364967E-10 -4.900254E-10
       170  13  1.223879E+03 -4.653455E+04  1.270144E+04  1.776248E+05 -2.714169E-09  2.172853E-09
       170  14  1.021480E+04 -5.081240E+04  2.456968E+04  1.585188E+05 -2.602450E-10 -2.577126E-10
       170  15  4.619818E+04 -4.657113E+04  5.146700E+04  1.776646E+05 -1.585201E-09  2.289829E-09
       170  16 -3.453087E+04 -1.961233E+05 -1.643724E+04  1.803627E+05 -2.509390E-09 -4.495734E-09
       170  17 -6.748648E+04 -3.726378E+05 -4.216273E+04  1.455045E+05  4.287189E-10 -5.646120E-09
       170  18 -7.719300E+04 -5.443457E+05 -6.785897E+04  1.489038E+05  5.950867E-10 -1.537983E-09
       170  19  3.697739E+04  1.030758E+05  4.183928E+04  1.748862E+05 -7.444006E+03 -8.080772E+03
       170  20  8.791050E+04  2.711124E+05  9.129812E+04  1.715398E+05 -1.240129E+04  2.621080E+04
       170  21  1.695755E+05  4.514363E+05  1.707828E+05  2.064484E+05 -4.682837E+03  6.052649E+04
       170  22  1.223972E+03 -4.653441E+04  1.270177E+04  1.776247E+05 -7.457924E+03  1.112391E+04
       170  23  1.021512E+04 -5.081175E+04  2.457104E+04  1.585186E+05 -1.240045E+04  2.380638E+04
       170  24  4.619856E+04 -4.656969E+04  5.146955E+04  1.776645E+05 -4.665959E+03  3.650331E+04
       170  25 -3.453057E+04 -1.961223E+05 -1.643540E+04  1.803625E+05 -7.471674E+03  3.032407E+04
       170  26 -6.748619E+04 -3.726373E+05 -4.216158E+04  1.455043E+05 -1.239950E+04  2.140318E+04
       170  27 -7.719293E+04 -5.443456E+05 -6.785863E+04  1.489037E+05 -4.646852E+03  1.249931E+04
       171   1  8.302180E+05  3.084870E+05  1.976595E+05  2.956376E+05  8.050575E+04  2.573503E+04
       171   2  7.997238E+05  1.886685E+05  1.224220E+05  2.926188E+05  5.242040E+04  5.719080E+03
       171   3  7.982135E+05  1.736753E+05  9.617878E+04  2.776241E+05  2.110568E+04 -5.717008E+03
       171   4  5.320516E+05  1.647336E+05  1.112083E+05  1.820555E+05  7.229178E+04  2.263637E+04
       171   5  5.122045E+05  7.117093E+04  4.718793E+04  2.037575E+05  4.981500E+04  4.735993E+03
       171   6  5.202477E+05  8.134840E+04  2.773748E+04  2.134793E+05  2.410700E+04 -4.585700E+03
       171   7  2.339773E+05  2.100511E+04  2.475001E+04  6.852954E+04  6.408223E+04  1.954040E+04
       171   8  2.247671E+05 -4.631652E+04 -2.805291E+04  1.149353E+05  4.721092E+04  3.753506E+03
       171   9  2.423556E+05 -1.097780E+04 -4.070995E+04  1.493583E+05  2.710687E+04 -3.454798E+03
       171  10  8.302109E+05  3.084845E+05  1.976461E+05  2.956360E+05 -2.908046E-09  2.846526E-09
       171  11  7.997208E+05  1.886677E+05  1.224168E+05  2.926185E+05 -4.062560E-10  7.482253E-09
       171  12  7.982130E+05  1.736751E+05  9.617789E+04  2.776242E+05  3.509849E-09  3.730678E-09
       171  13  5.320459E+05  1.647316E+05  1.111976E+05  1.820542E+05 -1.072659E-09 -2.791931E-09
       171  14  5.122018E+05  7.117024E+04  4.718323E+04  2.037573E+05 -1.125615E-12 -4.898468E-09
       171  15  5.202470E+05  8.134822E+04  2.773635E+04  2.134794E+05  4.559352E-10 -1.623101E-09
       171  16  2.339728E+05  2.100360E+04  2.474157E+04  6.852853E+04  1.361552E-09  1.347407E-09
       171  17  2.247647E+05 -4.631714E+04 -2.805712E+04  1.149352E+05  2.681733E-10 -1.186991E-09
       171  18  2.423548E+05 -1.097801E+04 -4.071135E+04  1.493583E+05 -3.426069E-09 -3.310220E-09
       171  19  8.302180E+05  3.084870E+05  1.976595E+05  2.956376E+05 -8.050575E+04 -2.573503E+04
       171  20  7.997238E+05  1.886685E+05  1.224220E+05  2.926188E+05 -5.242040E+04 -5.719080E+03
       171  21  7.982135E+05  1.736753E+05  9.617878E+04  2.776241E+05 -2.110568E+04  5.717008E+03
       171  22  5.320516E+05  1.647336E+05  1.112083E+05  1.820555E+05 -7.229178E+04 -2.263637E+04
       171  23  5.122045E+05  7.117093E+04  4.718793E+04  2.037575E+05 -4.981500E+04 -4.735993E+03
       171  24  5.202477E+05  8.134840E+04  2.773748E+04  2.134793E+05 -2.410700E+04  4.585700E+03
       171  25  2.339773E+05  2.100511E+04  2.475001E+04  6.852954E+04 -6.408223E+04 -1.954040E+04
       171  26  2.247671E+05 -4.631652E+04 -2.805291E+04  1.149353E+05 -4.721092E+04 -3.753506E+03
       171  27  2.423556E+05 -1.097780E+04 -4.070995E+04  1.493583E+05 -2.710687E+04  3.454798E+03
       172   1  7.578606E+05  1.843182E+05  8.434860E+04  2.759872E+05  1.932109E+04 -4.290549E+03
       172   2  7.367994E+05  1.608642E+05  6.654221E+04  2.639229E+05  1.303504E+04 -5.796423E+03
       172   3  7.089543E+05  1.560492E+05  5.538388E+04  2.620467E+05  6.573173E+03 -6.836430E+03
       172   4  5.166647E+05  9.156777E+04  2.231607E+04  2.074234E+05  1.965840E+04 -4.163781E+03
       172   5  5.195946E+05  7.879741E+04  1.108751E+04  2.036433E+05  1.367845E+04 -5.554051E+03
       172   6  5.156807E+05  8.460747E+04  6.266597E+03  2.100508E+05  7.522399E+03 -6.478504E+03
       172   7  2.755255E+05 -1.178089E+03 -3.972124E+04  1.388840E+05  1.999558E+04 -4.037070E+03
       172   8  3.024363E+05 -3.265916E+03 -4.437091E+04  1.433829E+05  1.432161E+04 -5.311774E+03
       172   9  3.224443E+05  1.316814E+04 -4.285349E+04  1.580697E+05  8.471297E+03 -6.120697E+03
       172  10  7.578602E+05  1.843181E+05  8.434786E+04  2.759873E+05  1.619382E-09  1.705517E-09
       172  11  7.367992E+05  1.608641E+05  6.654183E+04  2.639230E+05  3.380617E-09  4.511791E-09
       172  12  7.089542E+05  1.560492E+05  5.538371E+04  2.620467E+05  6.426555E-10  7.127842E-09
       172  13  5.166642E+05  9.156764E+04  2.231532E+04  2.074235E+05  5.103392E-10 -1.287325E-09
       172  14  5.195944E+05  7.879732E+04  1.108710E+04  2.036433E+05 -2.655517E-09 -5.723926E-09
       172  15  5.156807E+05  8.460741E+04  6.266411E+03  2.100509E+05  1.510092E-09 -1.957085E-09
       172  16  2.755251E+05 -1.178214E+03 -3.972202E+04  1.388841E+05  9.343198E-10 -2.112867E-09
       172  17  3.024361E+05 -3.266001E+03 -4.437135E+04  1.433829E+05 -2.679608E-10 -4.911838E-09
       172  18  3.224442E+05  1.316808E+04 -4.285369E+04  1.580697E+05  2.969858E-10  5.220887E-09
       172  19  7.578606E+05  1.843182E+05  8.434860E+04  2.759872E+05 -1.932109E+04  4.290549E+03
       172  20  7.367994E+05  1.608642E+05  6.654221E+04  2.639229E+05 -1.303504E+04  5.796423E+03
       172  21  7.089543E+05  1.560492E+05  5.538388E+04  2.620467E+05 -6.573173E+03  6.836430E+03
       172  22  5.166647E+05  9.156777E+04  2.231607E+04  2.074234E+05 -1.965840E+04  4.163781E+03
       172  23  5.195946E+05  7.879741E+04  1.108751E+04  2.036433E+05 -1.367845E+04  5.554051E+03
       172  24  5.156807E+05  8.460747E+04  6.266597E+03  2.100508E+05 -7.522399E+03  6.478504E+03
       172  25  2.755255E+05 -1.178089E+03 -3.972124E+04  1.388840E+05 -1.999558E+04  4.037070E+03
       172  26  3.024363E+05 -3.265916E+03 -4.437091E+04  1.433829E+05 -1.432161E+04  5.311774E+03
       172  27  3.224443E+05  1.316814E+04 -4.285349E+04  1.580697E+05 -8.471297E+03  6.120697E+03
       173   1  6.817149E+05  1.479405E+05  4.716413E+04  2.553383E+05  5.531325E+03 -6.315854E+03
       173   2  6.619217E+05  1.326896E+05  3.866357E+04  2.426243E+05  3.751823E+03 -5.573161E+03
       173   3  6.320792E+05  1.286197E+05  3.132491E+04  2.417102E+05  1.963883E+03 -4.809006E+03
       173   4  5.153183E+05  8.540932E+04  4.827304E+03  2.094874E+05  6.331163E+03 -6.014203E+03
       173   5  5.203060E+05  7.954261E+04  2.579382E+03  2.036926E+05  4.566035E+03 -5.265971E+03
       173   6  5.152415E+05  8.485451E+04  1.482397E+03  2.096977E+05  2.792415E+03 -4.496293E+03
       173   7  3.489481E+05  2.287977E+04 -3.751194E+04  1.636474E+05  7.130769E+03 -5.712639E+03
       173   8  3.787096E+05  2.639686E+04 -3.350651E+04  1.647688E+05  5.380046E+03 -4.958857E+03
       173   9  3.984170E+05  4.109017E+04 -2.836123E+04  1.776906E+05  3.620777E+03 -4.183644E+03
       173  10  6.817149E+05  1.479404E+05  4.716400E+04  2.553383E+05  5.775359E-10  1.408059E-09
       173  11  6.619217E+05  1.326895E+05  3.866348E+04  2.426243E+05 -3.537477E-09  6.357977E-11
       173  12  6.320792E+05  1.286197E+05  3.132486E+04  2.417102E+05  6.554846E-10 -2.628829E-09
       173  13  5.153183E+05  8.540927E+04  4.827161E+03  2.094874E+05  2.388196E-09  1.739432E-09
       173  14  5.203060E+05  7.954258E+04  2.579291E+03  2.036926E+05  1.064300E-09  1.716452E-09
       173  15  5.152414E+05  8.485449E+04  1.482344E+03  2.096977E+05 -2.247379E-09 -1.000736E-08
       173  16  3.489480E+05  2.287972E+04 -3.751209E+04  1.636474E+05 -2.064996E-09 -1.881552E-10
       173  17  3.787095E+05  2.639682E+04 -3.350661E+04  1.647688E+05  1.831055E-09 -1.976745E-09
       173  18  3.984169E+05  4.109015E+04 -2.836129E+04  1.776906E+05  4.887290E-09 -3.000272E-10
       173  19  6.817149E+05  1.479405E+05  4.716413E+04  2.553383E+05 -5.531325E+03  6.315854E+03
       173  20  6.619217E+05  1.326896E+05  3.866357E+04  2.426243E+05 -3.751823E+03  5.573161E+03
       173  21  6.320792E+05  1.286197E+05  3.132491E+04  2.417102E+05 -1.963883E+03  4.809006E+03
       173  22  5.153183E+05  8.540932E+04  4.827304E+03  2.094874E+05 -6.331163E+03  6.014203E+03
       173  23  5.203060E+05  7.954261E+04  2.579382E+03  2.036926E+05 -4.566035E+03  5.265971E+03
       173  24  5.152415E+05  8.485451E+04  1.482397E+03  2.096977E+05 -2.792415E+03  4.496293E+03
       173  25  3.489481E+05  2.287977E+04 -3.751194E+04  1.636474E+05 -7.130769E+03  5.712639E+03
       173  26  3.787096E+05  2.639686E+04 -3.350651E+04  1.647688E+05 -5.380046E+03  4.958857E+03
       173  27  3.984170E+05  4.109017E+04 -2.836123E+04  1.776906E+05 -3.620777E+03  4.183644E+03
       174   1  6.062311E+05  1.190449E+05  2.426242E+04  2.346602E+05  1.478445E+03 -4.151406E+03
       174   2  5.867243E+05  1.045410E+05  1.765259E+04  2.219621E+05  6.325805E+02 -3.036650E+03
       174   3  5.568756E+05  1.005202E+05  1.133600E+04  2.210935E+05 -2.131545E+02 -1.922620E+03
       174   4  5.152066E+05  8.489862E+04  1.159560E+03  2.096299E+05  2.297283E+03 -3.842299E+03
       174   5  5.203759E+05  7.963985E+04  7.461135E+02  2.037219E+05  1.450997E+03 -2.727651E+03
       174   6  5.152028E+05  8.486431E+04  6.263098E+02  2.096433E+05  6.048214E+02 -1.613731E+03
       174   7  4.241906E+05  5.075298E+04 -2.194387E+04  1.846030E+05  3.115986E+03 -3.533242E+03
       174   8  4.540319E+05  5.473896E+04 -1.616072E+04  1.854835E+05  2.269317E+03 -2.418688E+03
       174   9  4.735315E+05  6.920851E+04 -1.008356E+04  1.981938E+05  1.422740E+03 -1.304863E+03
       174  10  6.062310E+05  1.190449E+05  2.426238E+04  2.346602E+05  2.555918E-10 -1.927351E-09
       174  11  5.867243E+05  1.045410E+05  1.765257E+04  2.219621E+05  8.007484E-10  1.053353E-09
       174  12  5.568756E+05  1.005202E+05  1.133599E+04  2.210935E+05  1.935422E-09 -3.109640E-09
       174  13  5.152066E+05  8.489860E+04  1.159522E+03  2.096299E+05  1.537236E-09 -5.225866E-09
       174  14  5.203759E+05  7.963984E+04  7.460955E+02  2.037219E+05  3.294656E-09  1.849617E-10
       174  15  5.152028E+05  8.486431E+04  6.263042E+02  2.096433E+05  3.034790E-09 -6.133341E-09
       174  16  4.241906E+05  5.075297E+04 -2.194391E+04  1.846030E+05  8.735381E-09  1.484700E-09
       174  17  4.540319E+05  5.473896E+04 -1.616074E+04  1.854835E+05  1.917321E-09 -6.610876E-09
       174  18  4.735315E+05  6.920851E+04 -1.008357E+04  1.981938E+05 -2.289991E-09 -7.339111E-09
       174  19  6.062311E+05  1.190449E+05  2.426242E+04  2.346602E+05 -1.478445E+03  4.151406E+03
       174  20  5.867243E+05  1.045410E+05  1.765259E+04  2.219621E+05 -6.325805E+02  3.036650E+03
       174  21  5.568756E+05  1.005202E+05  1.133600E+04  2.210935E+05  2.131545E+02  1.922620E+03
       174  22  5.152066E+05  8.489862E+04  1.159560E+03  2.096299E+05 -2.297283E+03  3.842299E+03
       174  23  5.203759E+05  7.963985E+04  7.461135E+02  2.037219E+05 -1.450997E+03  2.727651E+03
       174  24  5.152028E+05  8.486431E+04  6.263098E+02  2.096433E+05 -6.048214E+02  1.613731E+03
       174  25  4.241906E+05  5.075298E+04 -2.194387E+04  1.846030E+05 -3.115986E+03  3.533242E+03
       174  26  4.540319E+05  5.473896E+04 -1.616072E+04  1.854835E+05 -2.269317E+03  2.418688E+03
       174  27  4.735315E+05  6.920851E+04 -1.008356E+04  1.981938E+05 -1.422740E+03  1.304863E+03
       175   1  5.312505E+05  9.087767E+04  4.647454E+03  2.140698E+05 -5.938021E+02 -1.232652E+03
       175   2  5.117880E+05  7.643577E+04 -1.313953E+03  2.013809E+05 -1.500987E+03 -1.436602E+02
       175   3  4.820161E+05  7.247118E+04 -6.932560E+03  2.004949E+05 -2.407811E+03  9.445660E+02
       175   4  5.152097E+05  8.485863E+04  6.482534E+02  2.096391E+05  2.235530E+02 -9.239807E+02
       175   5  5.203682E+05  7.964504E+04  8.704742E+02  2.037283E+05 -6.841683E+02  1.647993E+02
       175   6  5.152167E+05  8.490873E+04  1.435901E+03  2.096201E+05 -1.591546E+03  1.252809E+03
       175   7  4.991691E+05  7.883960E+04 -3.350964E+03  2.052086E+05  1.040885E+03 -6.153183E+02
       175   8  5.289485E+05  8.285430E+04  3.054894E+03  2.060758E+05  1.326615E+02  4.732629E+02
       175   9  5.484182E+05  9.734631E+04  9.804242E+03  2.187458E+05 -7.752366E+02  1.561068E+03
       175  10  5.312505E+05  9.087767E+04  4.647450E+03  2.140698E+05 -2.076602E-09 -3.453027E-09
       175  11  5.117880E+05  7.643577E+04 -1.313957E+03  2.013809E+05 -2.292090E-09  2.421745E-09
       175  12  4.820160E+05  7.247118E+04 -6.932572E+03  2.004949E+05  3.718535E-09 -1.702768E-09
       175  13  5.152097E+05  8.485863E+04  6.482517E+02  2.096391E+05  8.897336E-10 -1.170798E-09
       175  14  5.203682E+05  7.964504E+04  8.704732E+02  2.037283E+05 -8.021293E-10 -7.915164E-10
       175  15  5.152167E+05  8.490873E+04  1.435894E+03  2.096201E+05 -1.137026E-09 -1.259134E-09
       175  16  4.991691E+05  7.883960E+04 -3.350966E+03  2.052086E+05  1.868676E-09  2.295881E-09
       175  17  5.289485E+05  8.285430E+04  3.054893E+03  2.060758E+05  2.169138E-09 -2.370001E-10
       175  18  5.484182E+05  9.734631E+04  9.804236E+03  2.187458E+05  5.948497E-10  3.866541E-09
       175  19  5.312505E+05  9.087767E+04  4.647454E+03  2.140698E+05  5.938021E+02  1.232652E+03
       175  20  5.117880E+05  7.643577E+04 -1.313953E+03  2.013809E+05  1.500987E+03  1.436602E+02
       175  21  4.820161E+05  7.247118E+04 -6.932560E+03  2.004949E+05  2.407811E+03 -9.445660E+02
       175  22  5.152097E+05  8.485863E+04  6.482534E+02  2.096391E+05 -2.235530E+02  9.239807E+02
       175  23  5.203682E+05  7.964504E+04  8.704742E+02  2.037283E+05  6.841683E+02 -1.647993E+02
       175  24  5.152167E+05  8.490873E+04  1.435901E+03  2.096201E+05  1.591546E+03 -1.252809E+03
       175  25  4.991691E+05  7.883960E+04 -3.350964E+03  2.052086E+05 -1.040885E+03  6.153183E+02
       175  26  5.289485E+05  8.285430E+04  3.054894E+03  2.060758E+05 -1.326615E+02 -4.732629E+02
       175  27  5.484182E+05  9.734631E+04  9.804242E+03  2.187458E+05  7.752366E+02 -1.561068E+03
       176   1  4.563437E+05  6.283609E+04 -1.322424E+04  1.936318E+05 -2.962641E+03  1.572097E+03
       176   2  4.367353E+05  4.818692E+04 -1.801035E+04  1.807437E+05 -5.072983E+03  2.207712E+03
       176   3  4.072419E+05  4.484153E+04 -2.134558E+04  1.795452E+05 -7.175961E+03  2.824554E+03
       176   4  5.152746E+05  8.483806E+04  1.859102E+03  2.096909E+05 -2.139058E+03  1.883079E+03
       176   5  5.202661E+05  7.954267E+04  3.277682E+03  2.037108E+05 -4.261908E+03  2.513904E+03
       176   6  5.153749E+05  8.555354E+04  6.157051E+03  2.094200E+05 -6.377462E+03  3.125932E+03
       176   7  5.742091E+05  1.068403E+05  1.694222E+04  2.257514E+05 -1.315387E+03  2.194095E+03
       176   8  6.038038E+05  1.108989E+05  2.456520E+04  2.266806E+05 -3.450712E+03  2.820141E+03
       176   9  6.235192E+05  1.262663E+05  3.365875E+04  2.392995E+05 -5.578811E+03  3.427368E+03
       176  10  4.563437E+05  6.283608E+04 -1.322426E+04  1.936318E+05 -8.490227E-09 -7.223280E-09
       176  11  4.367352E+05  4.818690E+04 -1.801041E+04  1.807437E+05  8.397722E-10 -4.208340E-09
       176  12  4.072418E+05  4.484151E+04 -2.134569E+04  1.795452E+05  7.718690E-09 -1.807594E-09
       176  13  5.152746E+05  8.483805E+04  1.859086E+03  2.096909E+05  1.344322E-10  3.673190E-09
       176  14  5.202660E+05  7.954266E+04  3.277636E+03  2.037108E+05 -6.668534E-10 -8.493218E-09
       176  15  5.153748E+05  8.555351E+04  6.156956E+03  2.094200E+05  1.035260E-09  7.363588E-09
       176  16  5.742091E+05  1.068403E+05  1.694221E+04  2.257514E+05  9.583922E-09  7.363105E-09
       176  17  6.038038E+05  1.108989E+05  2.456516E+04  2.266806E+05  3.089452E-09  1.309306E-08
       176  18  6.235192E+05  1.262663E+05  3.365867E+04  2.392995E+05 -8.093657E-09 -9.231464E-10
       176  19  4.563437E+05  6.283609E+04 -1.322424E+04  1.936318E+05  2.962641E+03 -1.572097E+03
       176  20  4.367353E+05  4.818692E+04 -1.801035E+04  1.807437E+05  5.072983E+03 -2.207712E+03
       176  21  4.072419E+05  4.484153E+04 -2.134558E+04  1.795452E+05  7.175961E+03 -2.824554E+03
       176  22  5.152746E+05  8.483806E+04  1.859102E+03  2.096909E+05  2.139058E+03 -1.883079E+03
       176  23  5.202661E+05  7.954267E+04  3.277682E+03  2.037108E+05  4.261908E+03 -2.513904E+03
       176  24  5.153749E+05  8.555354E+04  6.157051E+03  2.094200E+05  6.377462E+03 -3.125932E+03
       176  25  5.742091E+05  1.068403E+05  1.694222E+04  2.257514E+05  1.315387E+03 -2.194095E+03
       176  26  6.038038E+05  1.108989E+05  2.456520E+04  2.266806E+05  3.450712E+03 -2.820141E+03
       176  27  6.235192E+05  1.262663E+05  3.365875E+04  2.392995E+05  5.578811E+03 -3.427368E+03
       177   1  3.808256E+05  3.520734E+04 -2.623539E+04  1.744331E+05 -8.728296E+03  3.133406E+03
       177   2  3.609823E+05  1.842684E+04 -2.634329E+04  1.593704E+05 -1.621170E+04  1.704842E+03
       177   3  3.353681E+05  2.229482E+04 -1.846750E+04  1.538553E+05 -2.355013E+04 -1.060722E+02
       177   4  5.158530E+05  8.451402E+04  7.998034E+03  2.101232E+05 -7.807779E+03  3.480798E+03
       177   5  5.193447E+05  7.861515E+04  1.416307E+04  2.036694E+05 -1.554244E+04  1.957233E+03
       177   6  5.171136E+05  9.341232E+04  2.850916E+04  2.067627E+05 -2.313248E+04  5.119070E+01
       177   7  6.508976E+05  1.338214E+05  4.222986E+04  2.458201E+05 -6.887045E+03  3.828267E+03
       177   8  6.777315E+05  1.388053E+05  5.466737E+04  2.479787E+05 -1.487300E+04  2.209696E+03
       177   9  6.988919E+05  1.645330E+05  7.548325E+04  2.596846E+05 -2.271468E+04  2.085099E+02
       177  10  3.808255E+05  3.520731E+04 -2.623555E+04  1.744332E+05  6.006686E-09  5.654402E-09
       177  11  3.609820E+05  1.842676E+04 -2.634379E+04  1.593704E+05  8.220731E-09  2.746437E-09
       177  12  3.353675E+05  2.229468E+04 -1.846854E+04  1.538553E+05  1.277375E-09 -7.849455E-09
       177  13  5.158529E+05  8.451399E+04  7.997897E+03  2.101233E+05  1.336616E-09 -4.246083E-09
       177  14  5.193444E+05  7.861508E+04  1.416261E+04  2.036694E+05  4.544132E-09  3.073665E-09
       177  15  5.171130E+05  9.341217E+04  2.850815E+04  2.067627E+05  2.237905E-09 -1.874391E-10
       177  16  6.508976E+05  1.338214E+05  4.222974E+04  2.458201E+05 -3.772348E-09  3.538778E-09
       177  17  6.777313E+05  1.388052E+05  5.466695E+04  2.479787E+05  7.997542E-10  1.140032E-09
       177  18  6.988914E+05  1.645329E+05  7.548229E+04  2.596846E+05  4.129390E-09 -2.521405E-09
       177  19  3.808256E+05  3.520734E+04 -2.623539E+04  1.744331E+05  8.728296E+03 -3.133406E+03
       177  20  3.609823E+05  1.842684E+04 -2.634329E+04  1.593704E+05  1.621170E+04 -1.704842E+03
       177  21  3.353681E+05  2.229482E+04 -1.846750E+04  1.538553E+05  2.355013E+04  1.060722E+02
       177  22  5.158530E+05  8.451402E+04  7.998034E+03  2.101232E+05  7.807779E+03 -3.480798E+03
       177  23  5.193447E+05  7.861515E+04  1.416307E+04  2.036694E+05  1.554244E+04 -1.957233E+03
       177  24  5.171136E+05  9.341232E+04  2.850916E+04  2.067627E+05  2.313248E+04 -5.119070E+01
       177  25  6.508976E+05  1.338214E+05  4.222986E+04  2.458201E+05  6.887045E+03 -3.828267E+03
       177  26  6.777315E+05  1.388053E+05  5.466737E+04  2.479787E+05  1.487300E+04 -2.209696E+03
       177  27  6.988919E+05  1.645330E+05  7.548325E+04  2.596846E+05  2.271468E+04 -2.085099E+02
       178   1  3.006597E+05  1.262279E+04 -1.795936E+04  1.693393E+05 -3.114620E+04 -1.106929E+03
       178   2  2.839867E+05 -2.827654E+04  2.560246E+02  1.290672E+05 -5.942071E+04 -1.121859E+04
       178   3  3.050750E+05  5.941406E+04  7.178040E+04  6.999164E+04 -8.504382E+04 -2.835855E+04
       178   4  5.216852E+05  8.036123E+04  3.543564E+04  2.145015E+05 -2.854631E+04 -1.255985E+02
       178   5  5.099136E+05  6.888068E+04  6.029216E+04  2.038170E+05 -6.141596E+04 -1.197268E+04
       178   6  5.367925E+05  1.868682E+05  1.420822E+05  1.743338E+05 -9.163500E+04 -3.084995E+04
       178   7  7.427590E+05  1.480996E+05  8.882738E+04  2.596765E+05 -2.594541E+04  8.559579E+02
       178   8  7.358894E+05  1.660453E+05  1.203235E+05  2.785926E+05 -6.341199E+04 -1.272717E+04
       178   9  7.685629E+05  3.143449E+05  2.123781E+05  2.787157E+05 -9.822877E+04 -3.334339E+04
       178  10  3.006586E+05  1.262253E+04 -1.796119E+04  1.693392E+05 -3.901374E-09 -7.438644E-10
       178  11  2.839829E+05 -2.827762E+04  2.491567E+02  1.290666E+05 -3.825859E-10 -1.181394E-09
       178  12  3.050670E+05  5.941126E+04  7.176530E+04  6.998970E+04  2.261026E-09  5.873168E-10
       178  13  5.216843E+05  8.036101E+04  3.543411E+04  2.145015E+05  1.323275E-09 -2.875316E-09
       178  14  5.099095E+05  6.887952E+04  6.028481E+04  2.038164E+05  7.526458E-10  1.511542E-09
       178  15  5.367832E+05  1.868650E+05  1.420646E+05  1.743315E+05 -1.059262E-09  3.283488E-09
       178  16  7.427583E+05  1.480994E+05  8.882611E+04  2.596766E+05  6.023886E-09  3.237474E-10
       178  17  7.358850E+05  1.660441E+05  1.203157E+05  2.785920E+05 -1.433383E-09  2.485847E-09
       178  18  7.685523E+05  3.143411E+05  2.123579E+05  2.787130E+05 -3.462938E-09 -5.647865E-10
       178  19  3.006597E+05  1.262279E+04 -1.795936E+04  1.693393E+05  3.114620E+04  1.106929E+03
       178  20  2.839867E+05 -2.827654E+04  2.560246E+02  1.290672E+05  5.942071E+04  1.121859E+04
       178  21  3.050750E+05  5.941406E+04  7.178040E+04  6.999164E+04  8.504382E+04  2.835855E+04
       178  22  5.216852E+05  8.036123E+04  3.543564E+04  2.145015E+05  2.854631E+04  1.255985E+02
       178  23  5.099136E+05  6.888068E+04  6.029216E+04  2.038170E+05  6.141596E+04  1.197268E+04
       178  24  5.367925E+05  1.868682E+05  1.420822E+05  1.743338E+05  9.163500E+04  3.084995E+04
       178  25  7.427590E+05  1.480996E+05  8.882738E+04  2.596765E+05  2.594541E+04 -8.559579E+02
       178  26  7.358894E+05  1.660453E+05  1.203235E+05  2.785926E+05  6.341199E+04  1.272717E+04
       178  27  7.685629E+05  3.143449E+05  2.123781E+05  2.787157E+05  9.822877E+04  3.334339E+04
       179   1 -1.646929E+05 -8.345198E+05 -1.661054E+05  9.515370E+04 -6.150523E+03 -2.617621E+04
       179   2 -1.070342E+05 -6.761977E+05 -1.116124E+05  4.882662E+04 -1.705854E+04 -9.883349E+03
       179   3 -6.954075E+04 -5.246339E+05 -7.271423E+04  8.582676E+04 -1.189264E+04  6.434734E+03
       179   4 -1.652658E+04 -2.400827E+05 -2.020041E+04  8.799262E+04 -6.167615E+03 -1.302569E+04
       179   5  1.121582E+03 -2.376464E+05 -9.649503E+03  4.634135E+04 -1.706003E+04 -7.903510E+03
       179   6  5.546946E+02 -2.400456E+05 -6.922963E+03  8.801494E+04 -1.188335E+04 -2.760440E+03
       179   7  1.316137E+05  3.546770E+05  1.256793E+05  8.082474E+04 -6.185005E+03  1.374172E+02
       179   8  1.092638E+05  2.010826E+05  9.230043E+04  4.385436E+04 -1.706155E+04 -5.922280E+03
       179   9  7.064451E+04  4.461783E+04  5.886322E+04  9.020415E+04 -1.187412E+04 -1.195980E+04
       179  10 -1.646931E+05 -8.345206E+05 -1.661067E+05  9.515357E+04 -1.301420E-09  2.792848E-09
       179  11 -1.070346E+05 -6.761979E+05 -1.116131E+05  4.882648E+04 -2.617922E-10  6.231689E-09
       179  12 -6.954091E+04 -5.246340E+05 -7.271457E+04  8.582682E+04  8.042299E-10  1.464068E-09
       179  13 -1.652667E+04 -2.400828E+05 -2.020080E+04  8.799255E+04 -1.210114E-09 -3.218218E-09
       179  14  1.121252E+03 -2.376465E+05 -9.650167E+03  4.634124E+04 -2.217778E-09 -6.258403E-10
       179  15  5.545410E+02 -2.400456E+05 -6.923243E+03  8.801491E+04 -1.212520E-09  1.241679E-09
       179  16  1.316137E+05  3.546770E+05  1.256792E+05  8.082474E+04 -1.309550E-09 -8.815051E-11
       179  17  1.092635E+05  2.010825E+05  9.229982E+04  4.385428E+04 -1.233972E-10  5.531345E-10
       179  18  7.064432E+04  4.461764E+04  5.886268E+04  9.020403E+04 -7.774290E-10  1.102399E-09
       179  19 -1.646929E+05 -8.345198E+05 -1.661054E+05  9.515370E+04  6.150523E+03  2.617621E+04
       179  20 -1.070342E+05 -6.761977E+05 -1.116124E+05  4.882662E+04  1.705854E+04  9.883349E+03
       179  21 -6.954075E+04 -5.246339E+05 -7.271423E+04  8.582676E+04  1.189264E+04 -6.434734E+03
       179  22 -1.652658E+04 -2.400827E+05 -2.020041E+04  8.799262E+04  6.167615E+03  1.302569E+04
       179  23  1.121582E+03 -2.376464E+05 -9.649503E+03  4.634135E+04  1.706003E+04  7.903510E+03
       179  24  5.546946E+02 -2.400456E+05 -6.922963E+03  8.801494E+04  1.188335E+04  2.760440E+03
       179  25  1.316137E+05  3.546770E+05  1.256793E+05  8.082474E+04  6.185005E+03 -1.374172E+02
       179  26  1.092638E+05  2.010826E+05  9.230043E+04  4.385436E+04  1.706155E+04  5.922280E+03
       179  27  7.064451E+04  4.461783E+04  5.886322E+04  9.020415E+04  1.187412E+04  1.195980E+04
       180   1 -3.381820E+04 -3.710681E+05 -3.688935E+04  8.901126E+04 -5.478066E+03  2.856703E+03
       180   2  5.895064E+03 -2.155415E+05 -5.378622E+02  4.609747E+04  9.573849E+02  5.803345E+03
       180   3  4.172125E+04 -6.111960E+04  3.296875E+04  8.711101E+04  7.336117E+03  8.750897E+03
       180   4 -1.335930E+03 -2.392076E+05 -6.393366E+03  8.814242E+04 -5.473877E+03 -1.642521E+03
       180   5  2.056543E+02 -2.386416E+05 -5.878134E+03  4.617814E+04  9.616602E+02  1.343236E+03
       180   6 -2.145135E+03 -2.392097E+05 -8.233744E+03  8.814163E+04  7.340405E+03  4.329186E+03
       180   7  3.114513E+04 -1.073311E+05  2.410154E+04  8.727340E+04 -5.469676E+03 -6.142695E+03
       180   8 -5.483782E+03 -2.617413E+05 -1.121837E+04  4.625881E+04  9.659344E+02 -3.116708E+03
       180   9 -4.601374E+04 -4.172703E+05 -4.943828E+04  8.917195E+04  7.344680E+03 -9.126573E+01
       180  10 -3.381824E+04 -3.710681E+05 -3.688943E+04  8.901128E+04  2.925375E-10  8.990654E-10
       180  11  5.895054E+03 -2.155415E+05 -5.379272E+02  4.609746E+04  7.369741E-10  3.070718E-09
       180  12  4.172117E+04 -6.111970E+04  3.296850E+04  8.711096E+04 -1.943747E-09 -1.151296E-09
       180  13 -1.335963E+03 -2.392076E+05 -6.393428E+03  8.814242E+04  3.772795E-10 -1.669037E-10
       180  14  2.056529E+02 -2.386417E+05 -5.878139E+03  4.617814E+04  2.263922E-09  6.003888E-10
       180  15 -2.145198E+03 -2.392097E+05 -8.233880E+03  8.814160E+04  1.946906E-09  4.046918E-10
       180  16  3.114509E+04 -1.073311E+05  2.410141E+04  8.727338E+04 -1.216617E-09 -2.762099E-10
       180  17 -5.483785E+03 -2.617413E+05 -1.121839E+04  4.625882E+04 -6.984287E-10  2.244365E-09
       180  18 -4.601379E+04 -4.172704E+05 -4.943838E+04  8.917195E+04 -3.135842E-09  2.705081E-09
       180  19 -3.381820E+04 -3.710681E+05 -3.688935E+04  8.901126E+04  5.478066E+03 -2.856703E+03
       180  20  5.895064E+03 -2.155415E+05 -5.378622E+02  4.609747E+04 -9.573849E+02 -5.803345E+03
       180  21  4.172125E+04 -6.111960E+04  3.296875E+04  8.711101E+04 -7.336117E+03 -8.750897E+03
       180  22 -1.335930E+03 -2.392076E+05 -6.393366E+03  8.814242E+04  5.473877E+03  1.642521E+03
       180  23  2.056543E+02 -2.386416E+05 -5.878134E+03  4.617814E+04 -9.616602E+02 -1.343236E+03
       180  24 -2.145135E+03 -2.392097E+05 -8.233744E+03  8.814163E+04 -7.340405E+03 -4.329186E+03
       180  25  3.114513E+04 -1.073311E+05  2.410154E+04  8.727340E+04  5.469676E+03  6.142695E+03
       180  26 -5.483782E+03 -2.617413E+05 -1.121837E+04  4.625881E+04 -9.659344E+02  3.116708E+03
       180  27 -4.601374E+04 -4.172703E+05 -4.943828E+04  8.917195E+04 -7.344680E+03  9.126573E+01
       181   1  8.259931E+04  9.017658E+04  6.684889E+04  9.157625E+04  1.386578E+04  1.529087E+04
       181   2  1.213669E+05  2.480447E+05  9.790181E+04  4.257872E+04  1.889657E+04  1.121703E+04
       181   3  1.333594E+05  4.001979E+05  1.250000E+05  7.683271E+04  6.751424E+03  7.118950E+03
       181   4  1.138574E+03 -2.407136E+05 -9.588115E+03  8.800418E+04  1.387567E+04  5.810012E+03
       181   5  1.855499E+03 -2.368257E+05 -1.474653E+04  4.635688E+04  1.889457E+04  1.368948E+04
       181   6 -2.628790E+04 -2.407555E+05 -3.216511E+04  8.796673E+04  6.731477E+03  2.154545E+04
       181   7 -8.032974E+04 -5.715023E+05 -8.603207E+04  8.443405E+04  1.388567E+04 -3.665834E+03
       181   8 -1.176725E+05 -7.214791E+05 -1.274107E+05  5.013213E+04  1.889260E+04  1.616002E+04
       181   9 -1.859651E+05 -8.813342E+05 -1.893595E+05  9.908934E+04  6.712039E+03  3.595708E+04
       181  10  8.259904E+04  9.017628E+04  6.684809E+04  9.157608E+04 -1.849738E-09  7.382489E-09
       181  11  1.213665E+05  2.480445E+05  9.790090E+04  4.257855E+04 -1.161394E-09  1.263252E-08
       181  12  1.333594E+05  4.001979E+05  1.249998E+05  7.683267E+04 -1.921552E-09  4.681017E-09
       181  13  1.138358E+03 -2.407136E+05 -9.588540E+03  8.800411E+04  2.462992E-09 -3.625732E-09
       181  14  1.855066E+03 -2.368260E+05 -1.474755E+04  4.635667E+04  4.688644E-09  2.731871E-09
       181  15 -2.628807E+04 -2.407560E+05 -3.216607E+04  8.796661E+04 -5.497429E-10 -6.179578E-10
       181  16 -8.032995E+04 -5.715023E+05 -8.603246E+04  8.443409E+04  3.005780E-10 -5.022815E-09
       181  17 -1.176729E+05 -7.214794E+05 -1.274118E+05  5.013188E+04 -7.122154E-11 -3.539214E-09
       181  18 -1.859655E+05 -8.813356E+05 -1.893620E+05  9.908914E+04  7.506579E-10  1.079376E-09
       181  19  8.259931E+04  9.017658E+04  6.684889E+04  9.157625E+04 -1.386578E+04 -1.529087E+04
       181  20  1.213669E+05  2.480447E+05  9.790181E+04  4.257872E+04 -1.889657E+04 -1.121703E+04
       181  21  1.333594E+05  4.001979E+05  1.250000E+05  7.683271E+04 -6.751424E+03 -7.118950E+03
       181  22  1.138574E+03 -2.407136E+05 -9.588115E+03  8.800418E+04 -1.387567E+04 -5.810012E+03
       181  23  1.855499E+03 -2.368257E+05 -1.474653E+04  4.635688E+04 -1.889457E+04 -1.368948E+04
       181  24 -2.628790E+04 -2.407555E+05 -3.216511E+04  8.796673E+04 -6.731477E+03 -2.154545E+04
       181  25 -8.032974E+04 -5.715023E+05 -8.603207E+04  8.443405E+04 -1.388567E+04  3.665834E+03
       181  26 -1.176725E+05 -7.214791E+05 -1.274107E+05  5.013213E+04 -1.889260E+04 -1.616002E+04
       181  27 -1.859651E+05 -8.813342E+05 -1.893595E+05  9.908934E+04 -6.712039E+03 -3.595708E+04
       182   1  3.069383E+05  1.470672E+05  1.342722E+05  3.691689E+04  2.937943E+04 -1.022904E+04
       182   2  2.500704E+05  1.531221E+05  1.120608E+05  4.271209E+04  9.229433E+03 -3.423461E+04
       182   3  1.922074E+05  1.445766E+05  9.933210E+04  6.013366E+04 -1.092800E+04 -4.084566E+04
       182   4 -4.266354E+05 -3.402268E+04 -3.775220E+04  5.782989E+04 -2.632353E+04 -1.027025E+04
       182   5 -4.235439E+05 -7.676384E+03 -1.836464E+04  5.200154E+04 -1.682283E+04 -3.425992E+04
       182   6 -4.266041E+05 -1.088088E+03 -1.008880E+04  5.780034E+04 -7.331795E+03 -4.084567E+04
       182   7 -1.159706E+06 -2.151476E+05 -2.098015E+05  7.871792E+04 -8.196109E+04 -1.031523E+04
       182   8 -1.096720E+06 -1.685012E+05 -1.488088E+05  6.128058E+04 -4.284746E+04 -3.428603E+04
       182   9 -1.045041E+06 -1.467738E+05 -1.195238E+05  5.546930E+04 -3.739064E+03 -4.084571E+04
       182  10  3.069373E+05  1.470669E+05  1.342704E+05  3.691714E+04  1.752139E-09 -7.478574E-10
       182  11  2.500700E+05  1.531208E+05  1.120584E+05  4.271234E+04  2.206677E-09 -2.799129E-09
       182  12  1.922068E+05  1.445748E+05  9.932874E+04  6.013330E+04 -4.687169E-10 -2.032583E-09
       182  13 -4.266361E+05 -3.402298E+04 -3.775371E+04  5.782967E+04 -1.227856E-09  7.476752E-11
       182  14 -4.235445E+05 -7.677720E+03 -1.836738E+04  5.200107E+04  6.691306E-10 -2.545292E-09
       182  15 -4.266046E+05 -1.089893E+03 -1.009204E+04  5.780009E+04 -8.089523E-10 -6.648039E-10
       182  16 -1.159713E+06 -2.151495E+05 -2.098144E+05  7.871724E+04 -1.911623E-09 -4.133285E-10
       182  17 -1.096723E+06 -1.685029E+05 -1.488144E+05  6.127939E+04 -2.329156E-09 -4.193068E-09
       182  18 -1.045042E+06 -1.467756E+05 -1.195269E+05  5.546918E+04  1.916484E-09 -2.795104E-09
       182  19  3.069383E+05  1.470672E+05  1.342722E+05  3.691689E+04 -2.937943E+04  1.022904E+04
       182  20  2.500704E+05  1.531221E+05  1.120608E+05  4.271209E+04 -9.229433E+03  3.423461E+04
       182  21  1.922074E+05  1.445766E+05  9.933210E+04  6.013366E+04  1.092800E+04  4.084566E+04
       182  22 -4.266354E+05 -3.402268E+04 -3.775220E+04  5.782989E+04  2.632353E+04  1.027025E+04
       182  23 -4.235439E+05 -7.676384E+03 -1.836464E+04  5.200154E+04  1.682283E+04  3.425992E+04
       182  24 -4.266041E+05 -1.088088E+03 -1.008880E+04  5.780034E+04  7.331795E+03  4.084567E+04
       182  25 -1.159706E+06 -2.151476E+05 -2.098015E+05  7.871792E+04  8.196109E+04  1.031523E+04
       182  26 -1.096720E+06 -1.685012E+05 -1.488088E+05  6.128058E+04  4.284746E+04  3.428603E+04
       182  27 -1.045041E+06 -1.467738E+05 -1.195238E+05  5.546930E+04  3.739064E+03  4.084571E+04
       183   1  1.553417E+05  1.349615E+05  9.396434E+04  5.787322E+04 -7.746869E+03 -3.926562E+04
       183   2  9.804419E+04  1.223042E+05  8.502190E+04  5.191538E+04 -8.329475E+03 -3.746606E+04
       183   3  4.067961E+04  1.090838E+05  7.631784E+04  5.874487E+04 -8.914885E+03 -3.408645E+04
       183   4 -4.253484E+05 -1.518842E+03 -7.676710E+03  5.806190E+04 -6.021023E+03 -3.926708E+04
       183   5 -4.250695E+05 -1.853573E+02 -4.225632E+03  5.166692E+04 -3.912265E+03 -3.746388E+04
       183   6 -4.253278E+05  1.175103E+02 -2.405924E+03  5.805996E+04 -1.806317E+03 -3.407996E+04
       183   7 -1.005708E+06 -1.380175E+05 -1.093298E+05  5.825030E+04 -4.296740E+03 -3.926854E+04
       183   8 -9.479140E+05 -1.226895E+05 -9.348214E+04  5.141859E+04  5.013432E+02 -3.746171E+04
       183   9 -8.911212E+05 -1.088602E+05 -8.113645E+04  5.737551E+04  5.297089E+03 -3.407349E+04
       183  10  1.553413E+05  1.349598E+05  9.396133E+04  5.787298E+04 -3.358014E-09 -1.710731E-09
       183  11  9.804374E+04  1.223027E+05  8.501914E+04  5.191513E+04 -4.398876E-10  1.467978E-09
       183  12  4.067922E+04  1.090825E+05  7.631551E+04  5.874462E+04  1.686437E-09  7.499704E-10
       183  13 -4.253488E+05 -1.520507E+03 -7.679675E+03  5.806171E+04 -2.049789E-11 -8.663722E-10
       183  14 -4.250699E+05 -1.868682E+02 -4.228297E+03  5.166680E+04 -5.639964E-10  1.095326E-09
       183  15 -4.253281E+05  1.162624E+02 -2.408112E+03  5.805991E+04  4.797284E-12 -1.458684E-09
       183  16 -1.005709E+06 -1.380192E+05 -1.093328E+05  5.825017E+04  2.754759E-09  1.010328E-09
       183  17 -9.479144E+05 -1.226910E+05 -9.348478E+04  5.141861E+04  1.672312E-09  2.277195E-09
       183  18 -8.911215E+05 -1.088615E+05 -8.113868E+04  5.737565E+04 -8.707782E-10 -2.299525E-11
       183  19  1.553417E+05  1.349615E+05  9.396434E+04  5.787322E+04  7.746869E+03  3.926562E+04
       183  20  9.804419E+04  1.223042E+05  8.502190E+04  5.191538E+04  8.329475E+03  3.746606E+04
       183  21  4.067961E+04  1.090838E+05  7.631784E+04  5.874487E+04  8.914885E+03  3.408645E+04
       183  22 -4.253484E+05 -1.518842E+03 -7.676710E+03  5.806190E+04  6.021023E+03  3.926708E+04
       183  23 -4.250695E+05 -1.853573E+02 -4.225632E+03  5.166692E+04  3.912265E+03  3.746388E+04
       183  24 -4.253278E+05  1.175103E+02 -2.405924E+03  5.805996E+04  1.806317E+03  3.407996E+04
       183  25 -1.005708E+06 -1.380175E+05 -1.093298E+05  5.825030E+04  4.296740E+03  3.926854E+04
       183  26 -9.479140E+05 -1.226895E+05 -9.348214E+04  5.141859E+04 -5.013432E+02  3.746171E+04
       183  27 -8.911212E+05 -1.088602E+05 -8.113645E+04  5.737551E+04 -5.297089E+03  3.407349E+04
       184   1  3.396431E+03  1.002564E+05  7.027758E+04  5.858943E+04 -8.380971E+03 -3.162618E+04
       184   2 -5.398193E+04  8.686427E+04  6.129998E+04  5.207575E+04 -8.113267E+03 -2.748014E+04
       184   3 -1.114123E+05  7.349467E+04  5.214662E+04  5.847015E+04 -7.846902E+03 -2.318910E+04
       184   4 -4.252238E+05  9.099560E+01 -1.828808E+03  5.808702E+04 -1.439298E+03 -3.161924E+04
       184   5 -4.251676E+05  1.376804E+02 -1.047334E+03  5.163270E+04 -9.251228E+02 -2.747195E+04
       184   6 -4.252095E+05  1.641390E+02 -6.131181E+02  5.808692E+04 -4.122611E+02 -2.317960E+04
       184   7 -8.536628E+05 -1.000840E+05 -7.394081E+04  5.758489E+04  5.497739E+03 -3.161232E+04
       184   8 -7.962172E+05 -8.659611E+04 -6.339878E+04  5.118987E+04  6.258865E+03 -2.746376E+04
       184   9 -7.389095E+05 -7.317153E+04 -5.337575E+04  5.770385E+04  7.018744E+03 -2.317012E+04
       184  10  3.396087E+03  1.002553E+05  7.027556E+04  5.858922E+04 -3.588596E-09  1.015891E-09
       184  11 -5.398220E+04  8.686344E+04  6.129844E+04  5.207557E+04 -2.089991E-09  1.042582E-09
       184  12 -1.114125E+05  7.349408E+04  5.214550E+04  5.847000E+04  9.692253E-10  2.798680E-10
       184  13 -4.252241E+05  8.992168E+01 -1.830690E+03  5.808698E+04 -7.599026E-10 -2.248060E-09
       184  14 -4.251678E+05  1.368699E+02 -1.048754E+03  5.163268E+04 -1.754355E-09  1.383026E-09
       184  15 -4.252097E+05  1.635621E+02 -6.141279E+02  5.808691E+04  1.669780E-09  3.012040E-09
       184  16 -8.536631E+05 -1.000851E+05 -7.394274E+04  5.758503E+04  1.551117E-09 -8.530679E-11
       184  17 -7.962174E+05 -8.659693E+04 -6.340027E+04  5.119001E+04  6.671171E-10  1.649121E-09
       184  18 -7.389097E+05 -7.317212E+04 -5.337685E+04  5.770398E+04 -2.188110E-09  1.080801E-09
       184  19  3.396431E+03  1.002564E+05  7.027758E+04  5.858943E+04  8.380971E+03  3.162618E+04
       184  20 -5.398193E+04  8.686427E+04  6.129998E+04  5.207575E+04  8.113267E+03  2.748014E+04
       184  21 -1.114123E+05  7.349467E+04  5.214662E+04  5.847015E+04  7.846902E+03  2.318910E+04
       184  22 -4.252238E+05  9.099560E+01 -1.828808E+03  5.808702E+04  1.439298E+03  3.161924E+04
       184  23 -4.251676E+05  1.376804E+02 -1.047334E+03  5.163270E+04  9.251228E+02  2.747195E+04
       184  24 -4.252095E+05  1.641390E+02 -6.131181E+02  5.808692E+04  4.122611E+02  2.317960E+04
       184  25 -8.536628E+05 -1.000840E+05 -7.394081E+04  5.758489E+04 -5.497739E+03  3.161232E+04
       184  26 -7.962172E+05 -8.659611E+04 -6.339878E+04  5.118987E+04 -6.258865E+03  2.746376E+04
       184  27 -7.389095E+05 -7.317153E+04 -5.337575E+04  5.770385E+04 -7.018744E+03  2.317012E+04
       185   1 -1.487556E+05  6.471928E+04  4.576334E+04  5.842526E+04 -7.738474E+03 -2.064618E+04
       185   2 -2.061923E+05  5.130720E+04  3.640628E+04  5.188856E+04 -7.616197E+03 -1.628337E+04
       185   3 -2.636712E+05  3.793367E+04  2.696812E+04  5.828180E+04 -7.494637E+03 -1.190709E+04
       185   4 -4.251946E+05  1.653486E+02 -4.767613E+02  5.809175E+04 -3.171224E+02 -2.063625E+04
       185   5 -4.251652E+05  1.545522E+02 -3.046742E+02  5.162664E+04 -1.723311E+02 -1.627283E+04
       185   6 -4.251862E+05  1.782739E+02 -2.297597E+02  5.809174E+04 -2.824565E+01 -1.189594E+04
       185   7 -7.015580E+05 -6.439254E+04 -4.671902E+04  5.775836E+04  7.101033E+03 -2.062632E+04
       185   8 -6.440907E+05 -5.100057E+04 -3.701692E+04  5.136480E+04  7.268995E+03 -1.626230E+04
       185   9 -5.866754E+05 -3.757846E+04 -2.742826E+04  5.790172E+04  7.436266E+03 -1.188479E+04
       185  10 -1.487558E+05  6.471880E+04  4.576242E+04  5.842513E+04  1.806276E-09  5.039889E-10
       185  11 -2.061924E+05  5.130690E+04  3.640567E+04  5.188846E+04 -1.657668E-09  4.686988E-09
       185  12 -2.636713E+05  3.793350E+04  2.696775E+04  5.828173E+04  7.617927E-10  2.444986E-09
       185  13 -4.251947E+05  1.648914E+02 -4.775616E+02  5.809175E+04 -3.076111E-11  1.009716E-09
       185  14 -4.251653E+05  1.542678E+02 -3.051718E+02  5.162664E+04 -1.056091E-09  3.832278E-09
       185  15 -4.251863E+05  1.781220E+02 -2.300256E+02  5.809174E+04  1.838586E-09  8.767975E-11
       185  16 -7.015582E+05 -6.439301E+04 -4.671991E+04  5.775848E+04 -3.396697E-09  1.286047E-09
       185  17 -6.440908E+05 -5.100087E+04 -3.701751E+04  5.136490E+04 -5.074309E-10  6.832309E-10
       185  18 -5.866755E+05 -3.757863E+04 -2.742862E+04  5.790179E+04  4.833239E-10  5.433775E-11
       185  19 -1.487556E+05  6.471928E+04  4.576334E+04  5.842526E+04  7.738474E+03  2.064618E+04
       185  20 -2.061923E+05  5.130720E+04  3.640628E+04  5.188856E+04  7.616197E+03  1.628337E+04
       185  21 -2.636712E+05  3.793367E+04  2.696812E+04  5.828180E+04  7.494637E+03  1.190709E+04
       185  22 -4.251946E+05  1.653486E+02 -4.767613E+02  5.809175E+04  3.171224E+02  2.063625E+04
       185  23 -4.251652E+05  1.545522E+02 -3.046742E+02  5.162664E+04  1.723311E+02  1.627283E+04
       185  24 -4.251862E+05  1.782739E+02 -2.297597E+02  5.809174E+04  2.824565E+01  1.189594E+04
       185  25 -7.015580E+05 -6.439254E+04 -4.671902E+04  5.775836E+04 -7.101033E+03  2.062632E+04
       185  26 -6.440907E+05 -5.100057E+04 -3.701692E+04  5.136480E+04 -7.268995E+03  1.626230E+04
       185  27 -5.866754E+05 -3.757846E+04 -2.742826E+04  5.790172E+04 -7.436266E+03  1.188479E+04
       186   1 -3.010467E+05  2.915523E+04  2.046098E+04  5.823722E+04 -7.457835E+03 -9.355214E+03
       186   2 -3.585013E+05  1.573799E+04  1.091110E+04  5.168946E+04 -7.327371E+03 -4.974705E+03
       186   3 -4.160088E+05  2.354354E+03  1.271040E+03  5.808012E+04 -7.197117E+03 -6.007288E+02
       186   4 -4.251848E+05  1.808367E+02 -2.207925E+02  5.809358E+04  8.895375E+00 -9.343840E+03
       186   5 -4.251568E+05  1.678257E+02 -2.541345E+02  5.162433E+04  1.279454E+02 -4.963175E+03
       186   6 -4.251823E+05  1.907457E+02 -3.695969E+02  5.809357E+04  2.467974E+02 -5.890398E+02
       186   7 -5.493076E+05 -2.879433E+04 -2.090283E+04  5.794997E+04  7.474182E+03 -9.332468E+03
       186   8 -4.918079E+05 -1.540254E+04 -1.141929E+04  5.155921E+04  7.582487E+03 -4.951646E+03
       186   9 -4.343556E+05 -1.972838E+03 -2.010028E+03  5.810703E+04  7.690604E+03 -5.773504E+02
       186  10 -3.010468E+05  2.915512E+04  2.046071E+04  5.823716E+04 -2.320240E-08 -6.755057E-10
       186  11 -3.585013E+05  1.573795E+04  1.091095E+04  5.168943E+04 -2.850215E-09 -1.933178E-09
       186  12 -4.160089E+05  2.354340E+03  1.270942E+03  5.808012E+04  2.531622E-08 -1.944104E-09
       186  13 -4.251848E+05  1.807430E+02 -2.209565E+02  5.809358E+04  7.682712E-10  3.541561E-09
       186  14 -4.251569E+05  1.677993E+02 -2.541808E+02  5.162433E+04  1.224118E-10 -9.625156E-10
       186  15 -4.251823E+05  1.907453E+02 -3.695977E+02  5.809357E+04  1.874814E-09 -2.052984E-09
       186  16 -5.493077E+05 -2.879443E+04 -2.090310E+04  5.795003E+04  2.353479E-08  1.163638E-09
       186  17 -4.918080E+05 -1.540258E+04 -1.141945E+04  5.155924E+04  1.390566E-10 -2.087141E-09
       186  18 -4.343556E+05 -1.972854E+03 -2.010140E+03  5.810703E+04 -2.640354E-08 -1.456583E-09
       186  19 -3.010467E+05  2.915523E+04  2.046098E+04  5.823722E+04  7.457835E+03  9.355214E+03
       186  20 -3.585013E+05  1.573799E+04  1.091110E+04  5.168946E+04  7.327371E+03  4.974705E+03
       186  21 -4.160088E+05  2.354354E+03  1.271040E+03  5.808012E+04  7.197117E+03  6.007288E+02
       186  22 -4.251848E+05  1.808367E+02 -2.207925E+02  5.809358E+04 -8.895375E+00  9.343840E+03
       186  23 -4.251568E+05  1.678257E+02 -2.541345E+02  5.162433E+04 -1.279454E+02  4.963175E+03
       186  24 -4.251823E+05  1.907457E+02 -3.695969E+02  5.809357E+04 -2.467974E+02  5.890398E+02
       186  25 -5.493076E+05 -2.879433E+04 -2.090283E+04  5.794997E+04 -7.474182E+03  9.332468E+03
       186  26 -4.918079E+05 -1.540254E+04 -1.141929E+04  5.155921E+04 -7.582487E+03  4.951646E+03
       186  27 -4.343556E+05 -1.972838E+03 -2.010028E+03  5.810703E+04 -7.690604E+03  5.773504E+02
       187   1 -4.534011E+05 -6.427395E+03 -5.349269E+03  5.802229E+04 -7.134643E+03  1.948183E+03
       187   2 -5.108155E+05 -1.985661E+04 -1.523266E+04  5.147449E+04 -6.601684E+03  6.280853E+03
       187   3 -5.683500E+05 -3.331604E+04 -2.548419E+04  5.785894E+04 -6.068382E+03  1.052432E+04
       187   4 -4.251921E+05  1.938673E+02 -4.672011E+02  5.809214E+04  3.184121E+02  1.959872E+03
       187   5 -4.251453E+05  1.769930E+02 -7.827503E+02  5.162611E+04  6.991831E+02  6.292080E+03
       187   6 -4.251955E+05  1.564795E+02 -1.360776E+03  5.809221E+04  1.080344E+03  1.053509E+04
       187   7 -3.969822E+05  6.815116E+03  4.415048E+03  5.816200E+04  7.771795E+03  1.971562E+03
       187   8 -3.394678E+05  2.021024E+04  1.366712E+04  5.177774E+04  8.001025E+03  6.303310E+03
       187   9 -2.820207E+05  3.362795E+04  2.276218E+04  5.832552E+04  8.230666E+03  1.054587E+04
       187  10 -4.534012E+05 -6.427412E+03 -5.349372E+03  5.802230E+04 -1.086868E-08  1.703188E-09
       187  11 -5.108156E+05 -1.985667E+04 -1.523281E+04  5.147453E+04  2.436318E-09  3.683795E-09
       187  12 -5.683501E+05 -3.331617E+04 -2.548447E+04  5.785900E+04  1.569197E-08  4.843898E-09
       187  13 -4.251921E+05  1.938631E+02 -4.672085E+02  5.809214E+04  2.149425E-09 -7.054259E-10
       187  14 -4.251453E+05  1.769504E+02 -7.828256E+02  5.162610E+04  8.271049E-10 -1.224954E-09
       187  15 -4.251955E+05  1.563600E+02 -1.360986E+03  5.809220E+04  6.005144E-10 -4.145605E-09
       187  16 -3.969822E+05  6.815096E+03  4.414927E+03  5.816198E+04  1.104710E-08  2.823643E-09
       187  17 -3.394678E+05  2.021018E+04  1.366693E+04  5.177770E+04 -2.202138E-09 -1.695586E-09
       187  18 -2.820208E+05  3.362781E+04  2.276185E+04  5.832545E+04 -1.681931E-08  2.346377E-09
       187  19 -4.534011E+05 -6.427395E+03 -5.349269E+03  5.802229E+04  7.134643E+03 -1.948183E+03
       187  20 -5.108155E+05 -1.985661E+04 -1.523266E+04  5.147449E+04  6.601684E+03 -6.280853E+03
       187  21 -5.683500E+05 -3.331604E+04 -2.548419E+04  5.785894E+04  6.068382E+03 -1.052432E+04
       187  22 -4.251921E+05  1.938673E+02 -4.672011E+02  5.809214E+04 -3.184121E+02 -1.959872E+03
       187  23 -4.251453E+05  1.769930E+02 -7.827503E+02  5.162611E+04 -6.991831E+02 -6.292080E+03
       187  24 -4.251955E+05  1.564795E+02 -1.360776E+03  5.809221E+04 -1.080344E+03 -1.053509E+04
       187  25 -3.969822E+05  6.815116E+03  4.415048E+03  5.816200E+04 -7.771795E+03 -1.971562E+03
       187  26 -3.394678E+05  2.021024E+04  1.366712E+04  5.177774E+04 -8.001025E+03 -6.303310E+03
       187  27 -2.820207E+05  3.362795E+04  2.276218E+04  5.832552E+04 -8.230666E+03 -1.054587E+04
       188   1 -6.058368E+05 -4.209808E+04 -3.249903E+04  5.768142E+04 -5.901450E+03  1.302344E+04
       188   2 -6.629228E+05 -5.581997E+04 -4.400042E+04  5.152769E+04 -2.671194E+03  1.679719E+04
       188   3 -7.207257E+05 -7.058608E+04 -5.787836E+04  5.823663E+04  5.606638E+02  1.958960E+04
       188   4 -4.252719E+05  1.794957E+02 -1.788615E+03  5.807644E+04  1.351372E+03  1.303413E+04
       188   5 -4.250616E+05 -4.505760E+01 -3.136368E+03  5.164613E+04  2.911109E+03  1.680483E+04
       188   6 -4.252815E+05 -1.023425E+03 -5.699639E+03  5.807823E+04  4.472760E+03  1.959439E+04
       188   7 -2.446748E+05  4.245537E+04  2.892093E+04  5.847157E+04  8.606237E+03  1.304483E+04
       188   8 -1.871446E+05  5.572684E+04  3.772589E+04  5.176461E+04  8.495485E+03  1.681248E+04
       188   9 -1.297519E+05  6.853444E+04  4.647593E+04  5.791971E+04  8.386666E+03  1.959918E+04
       188  10 -6.058368E+05 -4.209827E+04 -3.249941E+04  5.768148E+04 -2.175619E-08  6.183086E-09
       188  11 -6.629229E+05 -5.582028E+04 -4.400097E+04  5.152772E+04 -3.077664E-09  2.108411E-09
       188  12 -7.207258E+05 -7.058649E+04 -5.787908E+04  5.823662E+04  1.148724E-08  2.520649E-09
       188  13 -4.252720E+05  1.793128E+02 -1.788937E+03  5.807643E+04 -1.063277E-09 -3.989739E-09
       188  14 -4.250617E+05 -4.536306E+01 -3.136915E+03  5.164610E+04  1.945523E-09 -1.855696E-09
       188  15 -4.252816E+05 -1.023842E+03 -5.700398E+03  5.807815E+04  4.613379E-09 -1.432817E-09
       188  16 -2.446750E+05  4.245517E+04  2.892047E+04  5.847148E+04  1.941515E-08  3.591322E-09
       188  17 -1.871448E+05  5.572652E+04  3.772523E+04  5.176449E+04  5.564456E-09  2.204637E-09
       188  18 -1.297521E+05  6.853401E+04  4.647508E+04  5.791958E+04 -1.355057E-08 -3.396034E-09
       188  19 -6.058368E+05 -4.209808E+04 -3.249903E+04  5.768142E+04  5.901450E+03 -1.302344E+04
       188  20 -6.629228E+05 -5.581997E+04 -4.400042E+04  5.152769E+04  2.671194E+03 -1.679719E+04
       188  21 -7.207257E+05 -7.058608E+04 -5.787836E+04  5.823663E+04 -5.606638E+02 -1.958960E+04
       188  22 -4.252719E+05  1.794957E+02 -1.788615E+03  5.807644E+04 -1.351372E+03 -1.303413E+04
       188  23 -4.250616E+05 -4.505760E+01 -3.136368E+03  5.164613E+04 -2.911109E+03 -1.680483E+04
       188  24 -4.252815E+05 -1.023425E+03 -5.699639E+03  5.807823E+04 -4.472760E+03 -1.959439E+04
       188  25 -2.446748E+05  4.245537E+04  2.892093E+04  5.847157E+04 -8.606237E+03 -1.304483E+04
       188  26 -1.871446E+05  5.572684E+04  3.772589E+04  5.176461E+04 -8.495485E+03 -1.681248E+04
       188  27 -1.297519E+05  6.853444E+04  4.647593E+04  5.791971E+04 -8.386666E+03 -1.959918E+04
       189   1 -7.595251E+05 -7.931209E+04 -6.698103E+04  5.616956E+04  3.713211E+02  2.154069E+04
       189   2 -8.131085E+05 -9.870249E+04 -8.978908E+04  5.868789E+04  2.581138E+04  1.914921E+04
       189   3 -8.744984E+05 -1.359691E+05 -1.336448E+05  7.335674E+04  5.126113E+04  5.946907E+03
       189   4 -4.262139E+05 -7.008475E+02 -7.490714E+03  5.791585E+04  5.444189E+03  2.154678E+04
       189   5 -4.239200E+05 -5.599785E+03 -1.363231E+04  5.185661E+04  1.248513E+04  1.913025E+04
       189   6 -4.262334E+05 -2.517198E+04 -2.803065E+04  5.794837E+04  1.953831E+04  5.905290E+03
       189   7 -9.279411E+04  7.790427E+04  5.199549E+04  5.966307E+04  1.051971E+04  2.155291E+04
       189   8 -3.458555E+04  8.749407E+04  6.251788E+04  4.502089E+04 -8.493079E+02  1.911159E+04
       189   9  2.221940E+04  8.561226E+04  7.757358E+04  4.252873E+04 -1.220732E+04  5.865266E+03
       189  10 -7.595252E+05 -7.931259E+04 -6.698190E+04  5.616955E+04 -4.186295E-09  2.172694E-09
       189  11 -8.131093E+05 -9.870306E+04 -8.979102E+04  5.868750E+04  4.216161E-10  1.147088E-09
       189  12 -8.745012E+05 -1.359699E+05 -1.336498E+05  7.335650E+04  3.160516E-09 -4.495970E-10
       189  13 -4.262140E+05 -7.013539E+02 -7.491642E+03  5.791576E+04  2.929422E-09  3.280618E-09
       189  14 -4.239203E+05 -5.600220E+03 -1.363329E+04  5.185642E+04 -9.032491E-10 -1.873324E-09
       189  15 -4.262338E+05 -2.517212E+04 -2.803144E+04  5.794828E+04 -2.664753E-10  1.492375E-09
       189  16 -9.279436E+04  7.790374E+04  5.199441E+04  5.966288E+04  4.971007E-09  3.009595E-10
       189  17 -3.458565E+04  8.749368E+04  6.251719E+04  4.502091E+04  2.587753E-09  8.803725E-10
       189  18  2.221923E+04  8.561218E+04  7.757323E+04  4.252879E+04 -1.544904E-09  8.475952E-10
       189  19 -7.595251E+05 -7.931209E+04 -6.698103E+04  5.616956E+04 -3.713211E+02 -2.154069E+04
       189  20 -8.131085E+05 -9.870249E+04 -8.978908E+04  5.868789E+04 -2.581138E+04 -1.914921E+04
       189  21 -8.744984E+05 -1.359691E+05 -1.336448E+05  7.335674E+04 -5.126113E+04 -5.946907E+03
       189  22 -4.262139E+05 -7.008475E+02 -7.490714E+03  5.791585E+04 -5.444189E+03 -2.154678E+04
       189  23 -4.239200E+05 -5.599785E+03 -1.363231E+04  5.185661E+04 -1.248513E+04 -1.913025E+04
       189  24 -4.262334E+05 -2.517198E+04 -2.803065E+04  5.794837E+04 -1.953831E+04 -5.905290E+03
       189  25 -9.279411E+04  7.790427E+04  5.199549E+04  5.966307E+04 -1.051971E+04 -2.155291E+04
       189  26 -3.458555E+04  8.749407E+04  6.251788E+04  4.502089E+04  8.493079E+02 -1.911159E+04
       189  27  2.221940E+04  8.561226E+04  7.757358E+04  4.252873E+04  1.220732E+04 -5.865266E+03
       190   1 -1.255585E+05  6.916522E+04  5.378694E+04 -1.379171E+03 -3.478157E+04 -6.042702E+03
       190   2 -1.559827E+05  1.191844E+05  7.697913E+04  3.912456E+03 -2.685602E+04 -1.853466E+04
       190   3 -2.025261E+05  1.086034E+05  7.988653E+04  2.956798E+04 -1.894695E+04 -1.843218E+04
       190   4 -6.306867E+05 -5.655722E+04 -6.981411E+04  2.080919E+04 -4.783669E+04 -6.060514E+03
       190   5 -6.218455E+05  4.371900E+03 -3.114982E+04  1.058611E+04 -3.115801E+04 -1.854211E+04
       190   6 -6.306594E+05  3.154807E+03 -1.886476E+04  2.072843E+04 -1.449505E+04 -1.842546E+04
       190   7 -1.135581E+06 -1.822966E+05 -1.934329E+05  4.297937E+04 -6.088119E+04 -6.079268E+03
       190   8 -1.087508E+06 -1.104557E+05 -1.392933E+05  1.725464E+04 -3.545679E+04 -1.854966E+04
       190   9 -1.058623E+06 -1.023063E+05 -1.176281E+05  1.189495E+04 -1.004618E+04 -1.841887E+04
       190  10 -1.255598E+05  6.916485E+04  5.378460E+04 -1.379340E+03 -3.124179E-09  9.069524E-10
       190  11 -1.559835E+05  1.191838E+05  7.697713E+04  3.912055E+03 -2.850116E-09  4.100751E-09
       190  12 -2.025266E+05  1.086029E+05  7.988522E+04  2.956770E+04  7.966822E-10  1.926520E-09
       190  13 -6.306892E+05 -5.655788E+04 -6.981849E+04  2.080895E+04  4.335268E-10 -2.260151E-09
       190  14 -6.218467E+05  4.371270E+03 -3.115229E+04  1.058564E+04 -1.221160E-10 -3.021078E-09
       190  15 -6.306597E+05  3.154386E+03 -1.886580E+04  2.072822E+04  1.941842E-10  9.359758E-10
       190  16 -1.135585E+06 -1.822976E+05 -1.934400E+05  4.297908E+04  3.916503E-09  1.094891E-09
       190  17 -1.087509E+06 -1.104564E+05 -1.392963E+05  1.725411E+04  2.742386E-10  3.702760E-09
       190  18 -1.058623E+06 -1.023067E+05 -1.176290E+05  1.189480E+04 -8.277871E-10 -8.942927E-10
       190  19 -1.255585E+05  6.916522E+04  5.378694E+04 -1.379171E+03  3.478157E+04  6.042702E+03
       190  20 -1.559827E+05  1.191844E+05  7.697913E+04  3.912456E+03  2.685602E+04  1.853466E+04
       190  21 -2.025261E+05  1.086034E+05  7.988653E+04  2.956798E+04  1.894695E+04  1.843218E+04
       190  22 -6.306867E+05 -5.655722E+04 -6.981411E+04  2.080919E+04  4.783669E+04  6.060514E+03
       190  23 -6.218455E+05  4.371900E+03 -3.114982E+04  1.058611E+04  3.115801E+04  1.854211E+04
       190  24 -6.306594E+05  3.154807E+03 -1.886476E+04  2.072843E+04  1.449505E+04  1.842546E+04
       190  25 -1.135581E+06 -1.822966E+05 -1.934329E+05  4.297937E+04  6.088119E+04  6.079268E+03
       190  26 -1.087508E+06 -1.104557E+05 -1.392933E+05  1.725464E+04  3.545679E+04  1.854966E+04
       190  27 -1.058623E+06 -1.023063E+05 -1.176281E+05  1.189495E+04  1.004618E+04  1.841887E+04
       191   1 -2.372221E+05  9.172291E+04  7.514649E+04  1.995309E+04 -1.227505E+04 -1.581747E+04
       191   2 -2.753470E+05  8.684911E+04  7.310836E+04  1.049592E+04 -8.667584E+03 -1.466421E+04
       191   3 -3.151603E+05  7.719532E+04  6.752128E+04  2.213375E+04 -5.062542E+03 -1.285778E+04
       191   4 -6.271254E+05 -4.361436E+03 -1.521664E+04  2.092032E+04 -1.169930E+04 -1.581717E+04
       191   5 -6.262355E+05  4.123443E+02 -8.019448E+03  1.036810E+04 -7.639679E+03 -1.466284E+04
       191   6 -6.271158E+05  3.258463E+02 -4.687202E+03  2.091170E+04 -3.582260E+03 -1.285517E+04
       191   7 -1.016888E+06 -1.004565E+05 -1.055900E+05  2.188688E+04 -1.112391E+04 -1.581687E+04
       191   8 -9.770102E+05 -8.603307E+04 -8.915548E+04  1.024030E+04 -6.612349E+03 -1.466146E+04
       191   9 -9.389813E+05 -7.655047E+04 -7.690219E+04  1.969022E+04 -2.102715E+03 -1.285257E+04
       191  10 -2.372223E+05  9.172260E+04  7.514573E+04  1.995293E+04 -3.221947E-09 -9.772484E-10
       191  11 -2.753471E+05  8.684886E+04  7.310781E+04  1.049582E+04 -2.960098E-09 -2.397449E-10
       191  12 -3.151603E+05  7.719513E+04  6.752093E+04  2.213369E+04  4.159352E-10  4.941875E-09
       191  13 -6.271256E+05 -4.361741E+03 -1.521737E+04  2.092017E+04 -4.821223E-10  5.523070E-09
       191  14 -6.262357E+05  4.120978E+02 -8.019962E+03  1.036801E+04  4.559498E-09 -1.076620E-08
       191  15 -6.271159E+05  3.256655E+02 -4.687536E+03  2.091166E+04  9.871373E-10  3.486190E-09
       191  16 -1.016888E+06 -1.004568E+05 -1.055907E+05  2.188674E+04  1.136583E-09 -6.046694E-09
       191  17 -9.770103E+05 -8.603331E+04 -8.915596E+04  1.024023E+04 -1.001805E-09 -2.471191E-09
       191  18 -9.389814E+05 -7.655064E+04 -7.690251E+04  1.969020E+04 -1.652649E-09  6.676497E-10
       191  19 -2.372221E+05  9.172291E+04  7.514649E+04  1.995309E+04  1.227505E+04  1.581747E+04
       191  20 -2.753470E+05  8.684911E+04  7.310836E+04  1.049592E+04  8.667584E+03  1.466421E+04
       191  21 -3.151603E+05  7.719532E+04  6.752128E+04  2.213375E+04  5.062542E+03  1.285778E+04
       191  22 -6.271254E+05 -4.361436E+03 -1.521664E+04  2.092032E+04  1.169930E+04  1.581717E+04
       191  23 -6.262355E+05  4.123443E+02 -8.019448E+03  1.036810E+04  7.639679E+03  1.466284E+04
       191  24 -6.271158E+05  3.258463E+02 -4.687202E+03  2.091170E+04  3.582260E+03  1.285517E+04
       191  25 -1.016888E+06 -1.004565E+05 -1.055900E+05  2.188688E+04  1.112391E+04  1.581687E+04
       191  26 -9.770102E+05 -8.603307E+04 -8.915548E+04  1.024030E+04  6.612349E+03  1.466146E+04
       191  27 -9.389813E+05 -7.655047E+04 -7.690219E+04  1.969022E+04  2.102715E+03  1.285257E+04
       192   1 -3.534492E+05  6.706115E+04  5.944832E+04  2.137390E+04 -4.139236E+03 -1.167364E+04
       192   2 -3.927224E+05  5.770489E+04  5.201097E+04  1.069887E+04 -3.144539E+03 -9.804147E+03
       192   3 -4.322827E+05  4.805608E+04  4.383347E+04  2.139279E+04 -2.150696E+03 -7.895444E+03
       192   4 -6.267821E+05 -2.524026E+02 -3.636119E+03  2.097556E+04 -2.852925E+03 -1.167125E+04
       192   5 -6.266331E+05  8.128879E+01 -2.060295E+03  1.029043E+04 -1.831386E+03 -9.801476E+03
       192   6 -6.267769E+05  1.178944E+02 -1.243325E+03  2.097475E+04 -8.106379E+02 -7.892479E+03
       192   7 -9.000458E+05 -6.757120E+04 -6.672553E+04  2.057735E+04 -1.567177E+03 -1.166886E+04
       192   8 -8.604931E+05 -5.754615E+04 -5.613521E+04  9.882114E+03 -5.187242E+02 -9.798806E+03
       192   9 -8.212360E+05 -4.782295E+04 -4.632265E+04  2.055682E+04  5.290033E+02 -7.889516E+03
       192  10 -3.534493E+05  6.706100E+04  5.944803E+04  2.137387E+04  1.681171E-09 -2.665096E-09
       192  11 -3.927224E+05  5.770478E+04  5.201078E+04  1.069885E+04 -5.712242E-09 -3.983720E-09
       192  12 -4.322828E+05  4.805601E+04  4.383335E+04  2.139278E+04 -8.761030E-09 -3.061756E-09
       192  13 -6.267822E+05 -2.525510E+02 -3.636390E+03  2.097553E+04 -1.039639E-09 -5.581943E-10
       192  14 -6.266331E+05  8.118476E+01 -2.060482E+03  1.029042E+04 -2.635617E-10 -3.122567E-09
       192  15 -6.267769E+05  1.178273E+02 -1.243443E+03  2.097474E+04  1.224895E-09 -2.928144E-09
       192  16 -9.000459E+05 -6.757135E+04 -6.672579E+04  2.057734E+04 -1.791868E-09 -4.567552E-09
       192  17 -8.604931E+05 -5.754625E+04 -5.613539E+04  9.882109E+03  4.143348E-09  2.853394E-09
       192  18 -8.212360E+05 -4.782302E+04 -4.632277E+04  2.055682E+04  8.171719E-09  7.005177E-09
       192  19 -3.534492E+05  6.706115E+04  5.944832E+04  2.137390E+04  4.139236E+03  1.167364E+04
       192  20 -3.927224E+05  5.770489E+04  5.201097E+04  1.069887E+04  3.144539E+03  9.804147E+03
       192  21 -4.322827E+05  4.805608E+04  4.383347E+04  2.139279E+04  2.150696E+03  7.895444E+03
       192  22 -6.267821E+05 -2.524026E+02 -3.636119E+03  2.097556E+04  2.852925E+03  1.167125E+04
       192  23 -6.266331E+05  8.128879E+01 -2.060295E+03  1.029043E+04  1.831386E+03  9.801476E+03
       192  24 -6.267769E+05  1.178944E+02 -1.243325E+03  2.097475E+04  8.106379E+02  7.892479E+03
       192  25 -9.000458E+05 -6.757120E+04 -6.672553E+04  2.057735E+04  1.567177E+03  1.166886E+04
       192  26 -8.604931E+05 -5.754615E+04 -5.613521E+04  9.882114E+03  5.187242E+02  9.798806E+03
       192  27 -8.212360E+05 -4.782295E+04 -4.632265E+04  2.055682E+04 -5.290033E+02  7.889516E+03
       193   1 -4.712235E+05  3.836650E+04  3.483769E+04  2.129890E+04 -1.944690E+03 -6.775576E+03
       193   2 -5.108402E+05  2.859445E+04  2.607435E+04  1.046644E+04 -1.605177E+03 -4.856646E+03
       193   3 -5.506042E+05  1.888987E+04  1.707957E+04  2.115144E+04 -1.266060E+03 -2.933014E+03
       193   4 -6.267416E+05  7.615913E+01 -9.974988E+02  2.100798E+04 -6.119966E+02 -6.772517E+03
       193   5 -6.266657E+05  5.896436E+01 -7.014925E+02  1.024908E+04 -2.693252E+02 -4.853468E+03
       193   6 -6.267391E+05  1.087827E+02 -6.390930E+02  2.100790E+04  7.297277E+01 -2.929711E+03
       193   7 -7.822372E+05 -3.821588E+04 -3.683429E+04  2.071711E+04  7.203650E+02 -6.769459E+03
       193   8 -7.424787E+05 -2.847746E+04 -2.747822E+04  1.003176E+04  1.066280E+03 -4.850291E+03
       193   9 -7.028687E+05 -1.867271E+04 -1.835814E+04  2.086438E+04  1.411843E+03 -2.926408E+03
       193  10 -4.712235E+05  3.836645E+04  3.483760E+04  2.129889E+04  3.597950E-09 -5.551604E-09
       193  11 -5.108402E+05  2.859442E+04  2.607430E+04  1.046643E+04 -3.885431E-09  1.026301E-09
       193  12 -5.506042E+05  1.888986E+04  1.707955E+04  2.115144E+04 -6.529061E-09 -1.896381E-10
       193  13 -6.267416E+05  7.610979E+01 -9.975857E+02  2.100798E+04 -2.610329E-11  1.084592E-09
       193  14 -6.266657E+05  5.893905E+01 -7.015369E+02  1.024908E+04  2.721636E-09 -5.298914E-09
       193  15 -6.267391E+05  1.087735E+02 -6.391092E+02  2.100790E+04  5.769477E-10 -1.667489E-09
       193  16 -7.822373E+05 -3.821593E+04 -3.683437E+04  2.071712E+04 -3.786709E-09  3.839458E-09
       193  17 -7.424787E+05 -2.847749E+04 -2.747827E+04  1.003176E+04  4.949450E-10  9.050951E-09
       193  18 -7.028687E+05 -1.867272E+04 -1.835816E+04  2.086438E+04  4.634840E-09  2.870620E-09
       193  19 -4.712235E+05  3.836650E+04  3.483769E+04  2.129890E+04  1.944690E+03  6.775576E+03
       193  20 -5.108402E+05  2.859445E+04  2.607435E+04  1.046644E+04  1.605177E+03  4.856646E+03
       193  21 -5.506042E+05  1.888987E+04  1.707957E+04  2.115144E+04  1.266060E+03  2.933014E+03
       193  22 -6.267416E+05  7.615913E+01 -9.974988E+02  2.100798E+04  6.119966E+02  6.772517E+03
       193  23 -6.266657E+05  5.896436E+01 -7.014925E+02  1.024908E+04  2.693252E+02  4.853468E+03
       193  24 -6.267391E+05  1.087827E+02 -6.390930E+02  2.100790E+04 -7.297277E+01  2.929711E+03
       193  25 -7.822372E+05 -3.821588E+04 -3.683429E+04  2.071711E+04 -7.203650E+02  6.769459E+03
       193  26 -7.424787E+05 -2.847746E+04 -2.747822E+04  1.003176E+04 -1.066280E+03  4.850291E+03
       193  27 -7.028687E+05 -1.867271E+04 -1.835814E+04  2.086438E+04 -1.411843E+03  2.926408E+03
       194   1 -5.897609E+05  9.198198E+03  7.749968E+03  2.107590E+04 -1.150220E+03 -1.811689E+03
       194   2 -6.294484E+05 -6.219747E+02 -1.579445E+03  1.021191E+04 -6.919425E+02  1.152213E+02
       194   3 -6.693139E+05 -1.039108E+04 -1.122442E+04  2.091392E+04 -2.336898E+02  2.040832E+03
       194   4 -6.267448E+05  1.097447E+02 -6.826857E+02  2.101862E+04  1.895895E+02 -1.808348E+03
       194   5 -6.266550E+05  6.640761E+01 -9.335597E+02  1.023567E+04  6.469147E+02  1.185546E+02
       194   6 -6.267450E+05  7.426205E+01 -1.499400E+03  2.101871E+04  1.104245E+03  2.044163E+03
       194   7 -6.637274E+05 -8.978803E+03 -9.115422E+03  2.096135E+04  1.529320E+03 -1.805007E+03
       194   8 -6.238615E+05  7.547903E+02 -2.876684E+02  1.025944E+04  1.985778E+03  1.218880E+02
       194   9 -5.841745E+05  1.053948E+04  8.225505E+03  2.112352E+04  2.442270E+03  2.047495E+03
       194  10 -5.897609E+05  9.198195E+03  7.749959E+03  2.107590E+04 -3.313306E-09  7.488955E-10
       194  11 -6.294484E+05 -6.219748E+02 -1.579446E+03  1.021191E+04 -6.252115E-09 -5.904067E-09
       194  12 -6.693139E+05 -1.039108E+04 -1.122442E+04  2.091392E+04 -4.644922E-09 -3.932632E-09
       194  13 -6.267448E+05  1.097412E+02 -6.826919E+02  2.101862E+04 -4.501765E-10  3.934872E-09
       194  14 -6.266550E+05  6.640748E+01 -9.335606E+02  1.023567E+04  6.665336E-10 -3.269268E-09
       194  15 -6.267450E+05  7.425723E+01 -1.499410E+03  2.101871E+04 -6.296067E-10 -3.346806E-09
       194  16 -6.637274E+05 -8.978807E+03 -9.115433E+03  2.096135E+04  3.021766E-09  1.280810E-09
       194  17 -6.238615E+05  7.547892E+02 -2.876759E+02  1.025944E+04  2.914509E-09 -8.694310E-09
       194  18 -5.841745E+05  1.053947E+04  8.225486E+03  2.112351E+04  2.906275E-09 -4.709496E-09
       194  19 -5.897609E+05  9.198198E+03  7.749968E+03  2.107590E+04  1.150220E+03  1.811689E+03
       194  20 -6.294484E+05 -6.219747E+02 -1.579445E+03  1.021191E+04  6.919425E+02 -1.152213E+02
       194  21 -6.693139E+05 -1.039108E+04 -1.122442E+04  2.091392E+04  2.336898E+02 -2.040832E+03
       194  22 -6.267448E+05  1.097447E+02 -6.826857E+02  2.101862E+04 -1.895895E+02  1.808348E+03
       194  23 -6.266550E+05  6.640761E+01 -9.335597E+02  1.023567E+04 -6.469147E+02 -1.185546E+02
       194  24 -6.267450E+05  7.426205E+01 -1.499400E+03  2.101871E+04 -1.104245E+03 -2.044163E+03
       194  25 -6.637274E+05 -8.978803E+03 -9.115422E+03  2.096135E+04 -1.529320E+03  1.805007E+03
       194  26 -6.238615E+05  7.547903E+02 -2.876684E+02  1.025944E+04 -1.985778E+03 -1.218880E+02
       194  27 -5.841745E+05  1.053948E+04  8.225505E+03  2.112352E+04 -2.442270E+03 -2.047495E+03
       195   1 -7.085217E+05 -2.001701E+04 -2.093715E+04  2.072871E+04  6.434861E+01  3.165336E+03
       195   2 -7.479638E+05 -2.978922E+04 -3.134859E+04  9.999211E+03  1.713512E+03  5.088624E+03
       195   3 -7.878751E+05 -4.010005E+04 -4.299659E+04  2.078125E+04  3.363040E+03  6.982583E+03
       195   4 -6.268099E+05  1.406302E+02 -1.927855E+03  2.100608E+04  1.409286E+03  3.168644E+03
       195   5 -6.265783E+05  1.206799E+02 -3.282431E+03  1.025113E+04  3.038319E+03  5.091761E+03
       195   6 -6.268131E+05 -4.340343E+02 -5.859131E+03  2.100747E+04  4.667820E+03  6.985557E+03
       195   7 -5.450919E+05  2.029780E+04  1.708100E+04  2.128348E+04  2.754400E+03  3.171954E+03
       195   8 -5.051792E+05  3.002954E+04  2.478275E+04  1.050309E+04  4.363384E+03  5.094898E+03
       195   9 -4.657271E+05  3.923016E+04  3.127661E+04  2.123372E+04  5.972937E+03  6.988530E+03
       195  10 -7.085217E+05 -2.001703E+04 -2.093717E+04  2.072871E+04 -9.908729E-09  1.398079E-10
       195  11 -7.479639E+05 -2.978925E+04 -3.134864E+04  9.999204E+03 -7.257568E-09 -6.648242E-09
       195  12 -7.878751E+05 -4.010010E+04 -4.299670E+04  2.078123E+04  9.685891E-10  1.680946E-09
       195  13 -6.268099E+05  1.406188E+02 -1.927877E+03  2.100608E+04 -1.098352E-09 -1.474109E-09
       195  14 -6.265784E+05  1.206496E+02 -3.282497E+03  1.025112E+04  9.864250E-11 -1.558270E-09
       195  15 -6.268132E+05 -4.340925E+02 -5.859264E+03  2.100744E+04 -7.600157E-10  2.330484E-09
       195  16 -5.450919E+05  2.029779E+04  1.708096E+04  2.128348E+04  6.740150E-09  2.644588E-09
       195  17 -5.051792E+05  3.002951E+04  2.478266E+04  1.050308E+04  2.916008E-09 -7.606182E-09
       195  18 -4.657272E+05  3.923010E+04  3.127645E+04  2.123369E+04 -1.429823E-09  3.698231E-09
       195  19 -7.085217E+05 -2.001701E+04 -2.093715E+04  2.072871E+04 -6.434861E+01 -3.165336E+03
       195  20 -7.479638E+05 -2.978922E+04 -3.134859E+04  9.999211E+03 -1.713512E+03 -5.088624E+03
       195  21 -7.878751E+05 -4.010005E+04 -4.299659E+04  2.078125E+04 -3.363040E+03 -6.982583E+03
       195  22 -6.268099E+05  1.406302E+02 -1.927855E+03  2.100608E+04 -1.409286E+03 -3.168644E+03
       195  23 -6.265783E+05  1.206799E+02 -3.282431E+03  1.025113E+04 -3.038319E+03 -5.091761E+03
       195  24 -6.268131E+05 -4.340343E+02 -5.859131E+03  2.100747E+04 -4.667820E+03 -6.985557E+03
       195  25 -5.450919E+05  2.029780E+04  1.708100E+04  2.128348E+04 -2.754400E+03 -3.171954E+03
       195  26 -5.051792E+05  3.002954E+04  2.478275E+04  1.050309E+04 -4.363384E+03 -5.094898E+03
       195  27 -4.657271E+05  3.923016E+04  3.127661E+04  2.123372E+04 -5.972937E+03 -6.988530E+03
       196   1 -8.273742E+05 -4.881227E+04 -5.392355E+04  1.942074E+04  4.386727E+03  8.161421E+03
       196   2 -8.652871E+05 -5.830899E+04 -6.833354E+04  1.050045E+04  1.130582E+04  1.001574E+04
       196   3 -9.061803E+05 -7.578717E+04 -8.926718E+04  2.293130E+04  1.822623E+04  1.135349E+04
       196   4 -6.273612E+05  5.012932E+02 -7.570967E+03  2.096607E+04  5.845862E+03  8.164646E+03
       196   5 -6.259065E+05  6.789858E+02 -1.296498E+04  1.029893E+04  1.240806E+04  1.001791E+04
       196   6 -6.273701E+05 -7.060766E+03 -2.463255E+04  2.098252E+04  1.897200E+04  1.135465E+04
       196   7 -4.273111E+05  4.981204E+04  3.877894E+04  2.251189E+04  7.305464E+03  8.167879E+03
       196   8 -3.864729E+05  5.966293E+04  4.239977E+04  1.009730E+04  1.351071E+04  1.002007E+04
       196   9 -3.484880E+05  6.166018E+04  3.999687E+04  1.903281E+04  1.971810E+04  1.135580E+04
       196  10 -8.273743E+05 -4.881234E+04 -5.392371E+04  1.942071E+04  5.034564E-09  2.146136E-09
       196  11 -8.652872E+05 -5.830913E+04 -6.833397E+04  1.050036E+04 -1.113954E-09  3.323380E-09
       196  12 -9.061807E+05 -7.578739E+04 -8.926805E+04  2.293113E+04 -2.070920E-09 -4.201778E-09
       196  13 -6.273612E+05  5.012125E+02 -7.571156E+03  2.096603E+04 -6.592639E-10 -4.839456E-09
       196  14 -6.259067E+05  6.788366E+02 -1.296545E+04  1.029883E+04 -1.170048E-09  6.378718E-09
       196  15 -6.273705E+05 -7.061001E+03 -2.463347E+04  2.098234E+04  1.740325E-09 -1.394150E-10
       196  16 -4.273112E+05  4.981196E+04  3.877872E+04  2.251184E+04 -3.400243E-09 -1.368124E-09
       196  17 -3.864731E+05  5.966278E+04  4.239923E+04  1.009719E+04 -8.828577E-10 -1.049150E-08
       196  18 -3.484884E+05  6.165993E+04  3.999590E+04  1.903263E+04 -6.038164E-10  1.071997E-09
       196  19 -8.273742E+05 -4.881227E+04 -5.392355E+04  1.942074E+04 -4.386727E+03 -8.161421E+03
       196  20 -8.652871E+05 -5.830899E+04 -6.833354E+04  1.050045E+04 -1.130582E+04 -1.001574E+04
       196  21 -9.061803E+05 -7.578717E+04 -8.926718E+04  2.293130E+04 -1.822623E+04 -1.135349E+04
       196  22 -6.273612E+05  5.012932E+02 -7.570967E+03  2.096607E+04 -5.845862E+03 -8.164646E+03
       196  23 -6.259065E+05  6.789858E+02 -1.296498E+04  1.029893E+04 -1.240806E+04 -1.001791E+04
       196  24 -6.273701E+05 -7.060766E+03 -2.463255E+04  2.098252E+04 -1.897200E+04 -1.135465E+04
       196  25 -4.273111E+05  4.981204E+04  3.877894E+04  2.251189E+04 -7.305464E+03 -8.167879E+03
       196  26 -3.864729E+05  5.966293E+04  4.239977E+04  1.009730E+04 -1.351071E+04 -1.002007E+04
       196  27 -3.484880E+05  6.166018E+04  3.999687E+04  1.903281E+04 -1.971810E+04 -1.135580E+04
       197   1 -9.505753E+05 -7.316045E+04 -1.038273E+05  6.876930E+03  1.968639E+04  1.365961E+04
       197   2 -9.747344E+05 -8.062158E+04 -1.330890E+05  2.157940E+04  5.358316E+04  1.421349E+04
       197   3 -1.028831E+06 -1.900207E+05 -2.099321E+05  5.714746E+04  8.749444E+04  4.788105E+03
       197   4 -6.331031E+05  5.113918E+03 -3.054419E+04  2.081311E+04  2.350127E+04  1.366735E+04
       197   5 -6.187618E+05  7.119502E+03 -5.041859E+04  1.046695E+04  5.047300E+04  1.420608E+04
       197   6 -6.331391E+05 -9.158008E+04 -1.130437E+05  2.098827E+04  7.746189E+04  4.765349E+03
       197   7 -3.155372E+05  8.338193E+04  4.273237E+04  3.475644E+04  2.731809E+04  1.367526E+04
       197   8 -2.626716E+05  9.485214E+04  3.224340E+04 -6.519871E+02  4.736106E+04  1.419878E+04
       197   9 -2.373017E+05  6.853970E+03 -1.616570E+04 -1.519410E+04  6.742293E+04  4.743772E+03
       197  10 -9.505758E+05 -7.316076E+04 -1.038284E+05  6.876714E+03 -7.177608E-09 -4.233215E-09
       197  11 -9.747376E+05 -8.062257E+04 -1.330948E+05  2.157879E+04  2.389190E-10 -4.007557E-09
       197  12 -1.028839E+06 -1.900228E+05 -2.099466E+05  5.714712E+04  7.660175E-09  3.267963E-09
       197  13 -6.331038E+05  5.113569E+03 -3.054558E+04  2.081285E+04  3.231782E-09  2.249276E-09
       197  14 -6.187646E+05  7.118600E+03 -5.042376E+04  1.046637E+04  2.095704E-09  4.626369E-09
       197  15 -6.331456E+05 -9.158172E+04 -1.130551E+05  2.098798E+04 -5.570348E-10  5.446295E-09
       197  16 -3.155381E+05  8.338153E+04  4.273061E+04  3.475614E+04  7.813798E-09  1.863218E-09
       197  17 -2.626741E+05  9.485132E+04  3.223880E+04 -6.525286E+02 -1.130764E-09  3.721671E-09
       197  18 -2.373066E+05  6.852725E+03 -1.617429E+04 -1.519436E+04 -7.994349E-09  3.184190E-10
       197  19 -9.505753E+05 -7.316045E+04 -1.038273E+05  6.876930E+03 -1.968639E+04 -1.365961E+04
       197  20 -9.747344E+05 -8.062158E+04 -1.330890E+05  2.157940E+04 -5.358316E+04 -1.421349E+04
       197  21 -1.028831E+06 -1.900207E+05 -2.099321E+05  5.714746E+04 -8.749444E+04 -4.788105E+03
       197  22 -6.331031E+05  5.113918E+03 -3.054419E+04  2.081311E+04 -2.350127E+04 -1.366735E+04
       197  23 -6.187618E+05  7.119502E+03 -5.041859E+04  1.046695E+04 -5.047300E+04 -1.420608E+04
       197  24 -6.331391E+05 -9.158008E+04 -1.130437E+05  2.098827E+04 -7.746189E+04 -4.765349E+03
       197  25 -3.155372E+05  8.338193E+04  4.273237E+04  3.475644E+04 -2.731809E+04 -1.367526E+04
       197  26 -2.626716E+05  9.485214E+04  3.224340E+04 -6.519871E+02 -4.736106E+04 -1.419878E+04
       197  27 -2.373017E+05  6.853970E+03 -1.616570E+04 -1.519410E+04 -6.742293E+04 -4.743772E+03
