    1C
    1UUSER                                                              
    1UDATE              11.october.2022                                 
    1UTIME              19:13:17                                        
    1UHOST                                                              
    1UPGM               CalculiX                                        
    1UVERSION           Version 2.20                             
    1UCOMPILETIME       Sun Jul 31 18:08:37 CEST 2022                    
    1UDIR                                                               
    1UDBN                                                               
    1UMAT    1MESH_MATERIAL                                             
    2C                           409                                     1
 -1         1 0.00000E+00 0.00000E+00 0.00000E+00
 -1         2 1.66667E-02 0.00000E+00 0.00000E+00
 -1         3 3.33333E-02 0.00000E+00 0.00000E+00
 -1         5 6.66667E-02 0.00000E+00 0.00000E+00
 -1         8 0.00000E+00 6.25000E-03 0.00000E+00
 -1         9 1.66667E-02 6.25000E-03 0.00000E+00
 -1        10 3.33333E-02 6.25000E-03 0.00000E+00
 -1        12 6.66667E-02 6.25000E-03 0.00000E+00
 -1        15 0.00000E+00 1.25000E-02 0.00000E+00
 -1        16 1.66667E-02 1.25000E-02 0.00000E+00
 -1        17 3.33333E-02 1.25000E-02 0.00000E+00
 -1        18 5.00000E-02 1.25000E-02 0.00000E+00
 -1        19 6.66667E-02 1.25000E-02 0.00000E+00
 -1        20 8.33333E-02 1.25000E-02 0.00000E+00
 -1        21 1.00000E-01 1.25000E-02 0.00000E+00
 -1        24 3.33333E-02 1.87500E-02 0.00000E+00
 -1        25 5.00000E-02 1.87500E-02 0.00000E+00
 -1        26 6.66667E-02 1.87500E-02 0.00000E+00
 -1        27 8.33333E-02 1.87500E-02 0.00000E+00
 -1        28 1.00000E-01 1.87500E-02 0.00000E+00
 -1        32 5.00000E-02 2.50000E-02 0.00000E+00
 -1        33 6.66667E-02 2.50000E-02 0.00000E+00
 -1        34 8.33333E-02 2.50000E-02 0.00000E+00
 -1        35 1.00000E-01 2.50000E-02 0.00000E+00
 -1        51 0.00000E+00 1.04167E-03 0.00000E+00
 -1        52 0.00000E+00 2.08333E-03 0.00000E+00
 -1        53 0.00000E+00 3.12500E-03 0.00000E+00
 -1        54 0.00000E+00 4.16667E-03 0.00000E+00
 -1        55 0.00000E+00 5.20833E-03 0.00000E+00
 -1        56 1.04167E-03 3.90630E-04 0.00000E+00
 -1        57 2.08333E-03 7.81250E-04 0.00000E+00
 -1        58 3.12500E-03 1.17188E-03 0.00000E+00
 -1        59 4.16667E-03 1.56250E-03 0.00000E+00
 -1        60 5.20833E-03 1.95312E-03 0.00000E+00
 -1        61 6.25000E-03 2.34375E-03 0.00000E+00
 -1        62 7.29167E-03 2.73438E-03 0.00000E+00
 -1        63 8.33333E-03 3.12500E-03 0.00000E+00
 -1        64 9.37500E-03 3.51563E-03 0.00000E+00
 -1        65 1.04167E-02 3.90625E-03 0.00000E+00
 -1        66 1.14583E-02 4.29688E-03 0.00000E+00
 -1        67 1.25000E-02 4.68750E-03 0.00000E+00
 -1        68 1.35417E-02 5.07813E-03 0.00000E+00
 -1        69 1.45833E-02 5.46875E-03 0.00000E+00
 -1        70 1.56250E-02 5.85938E-03 0.00000E+00
 -1        86 1.66667E-02 1.04167E-03 0.00000E+00
 -1        87 1.66667E-02 2.08333E-03 0.00000E+00
 -1        88 1.66667E-02 3.12500E-03 0.00000E+00
 -1        89 1.66667E-02 4.16667E-03 0.00000E+00
 -1        90 1.66667E-02 5.20833E-03 0.00000E+00
 -1       121 3.33333E-02 1.04167E-03 0.00000E+00
 -1       122 3.33333E-02 2.08333E-03 0.00000E+00
 -1       123 3.33333E-02 3.12500E-03 0.00000E+00
 -1       124 3.33333E-02 4.16667E-03 0.00000E+00
 -1       125 3.33333E-02 5.20833E-03 0.00000E+00
 -1       191 6.66667E-02 1.04167E-03 0.00000E+00
 -1       192 6.66667E-02 2.08333E-03 0.00000E+00
 -1       193 6.66667E-02 3.12500E-03 0.00000E+00
 -1       194 6.66667E-02 4.16667E-03 0.00000E+00
 -1       195 6.66667E-02 5.20833E-03 0.00000E+00
 -1       251 1.04167E-03 6.25000E-03 0.00000E+00
 -1       252 2.08333E-03 6.25000E-03 0.00000E+00
 -1       253 3.12500E-03 6.25000E-03 0.00000E+00
 -1       254 4.16667E-03 6.25000E-03 0.00000E+00
 -1       255 5.20833E-03 6.25000E-03 0.00000E+00
 -1       256 6.25000E-03 6.25000E-03 0.00000E+00
 -1       257 7.29167E-03 6.25000E-03 0.00000E+00
 -1       258 8.33333E-03 6.25000E-03 0.00000E+00
 -1       259 9.37500E-03 6.25000E-03 0.00000E+00
 -1       260 1.04167E-02 6.25000E-03 0.00000E+00
 -1       261 1.14583E-02 6.25000E-03 0.00000E+00
 -1       262 1.25000E-02 6.25000E-03 0.00000E+00
 -1       263 1.35417E-02 6.25000E-03 0.00000E+00
 -1       264 1.45833E-02 6.25000E-03 0.00000E+00
 -1       265 1.56250E-02 6.25000E-03 0.00000E+00
 -1       266 0.00000E+00 7.29167E-03 0.00000E+00
 -1       267 0.00000E+00 8.33333E-03 0.00000E+00
 -1       268 0.00000E+00 9.37500E-03 0.00000E+00
 -1       269 0.00000E+00 1.04167E-02 0.00000E+00
 -1       270 0.00000E+00 1.14583E-02 0.00000E+00
 -1       271 1.04167E-03 6.64063E-03 0.00000E+00
 -1       272 2.08333E-03 7.03125E-03 0.00000E+00
 -1       273 3.12500E-03 7.42188E-03 0.00000E+00
 -1       274 4.16667E-03 7.81250E-03 0.00000E+00
 -1       275 5.20833E-03 8.20313E-03 0.00000E+00
 -1       276 6.25000E-03 8.59375E-03 0.00000E+00
 -1       277 7.29167E-03 8.98438E-03 0.00000E+00
 -1       278 8.33333E-03 9.37500E-03 0.00000E+00
 -1       279 9.37500E-03 9.76562E-03 0.00000E+00
 -1       280 1.04167E-02 1.01562E-02 0.00000E+00
 -1       281 1.14583E-02 1.05469E-02 0.00000E+00
 -1       282 1.25000E-02 1.09375E-02 0.00000E+00
 -1       283 1.35417E-02 1.13281E-02 0.00000E+00
 -1       284 1.45833E-02 1.17188E-02 0.00000E+00
 -1       285 1.56250E-02 1.21094E-02 0.00000E+00
 -1       301 1.66667E-02 7.29167E-03 0.00000E+00
 -1       302 1.66667E-02 8.33333E-03 0.00000E+00
 -1       303 1.66667E-02 9.37500E-03 0.00000E+00
 -1       304 1.66667E-02 1.04167E-02 0.00000E+00
 -1       305 1.66667E-02 1.14583E-02 0.00000E+00
 -1       306 1.77083E-02 6.64063E-03 0.00000E+00
 -1       307 1.87500E-02 7.03125E-03 0.00000E+00
 -1       308 1.97917E-02 7.42188E-03 0.00000E+00
 -1       309 2.08333E-02 7.81250E-03 0.00000E+00
 -1       310 2.18750E-02 8.20313E-03 0.00000E+00
 -1       311 2.29167E-02 8.59375E-03 0.00000E+00
 -1       312 2.39583E-02 8.98438E-03 0.00000E+00
 -1       313 2.50000E-02 9.37500E-03 0.00000E+00
 -1       314 2.60417E-02 9.76562E-03 0.00000E+00
 -1       315 2.70833E-02 1.01562E-02 0.00000E+00
 -1       316 2.81250E-02 1.05469E-02 0.00000E+00
 -1       317 2.91667E-02 1.09375E-02 0.00000E+00
 -1       318 3.02083E-02 1.13281E-02 0.00000E+00
 -1       319 3.12500E-02 1.17188E-02 0.00000E+00
 -1       320 3.22917E-02 1.21094E-02 0.00000E+00
 -1       336 3.33333E-02 7.29167E-03 0.00000E+00
 -1       337 3.33333E-02 8.33333E-03 0.00000E+00
 -1       338 3.33333E-02 9.37500E-03 0.00000E+00
 -1       339 3.33333E-02 1.04167E-02 0.00000E+00
 -1       340 3.33333E-02 1.14583E-02 0.00000E+00
 -1       406 6.66667E-02 7.29167E-03 0.00000E+00
 -1       407 6.66667E-02 8.33333E-03 0.00000E+00
 -1       408 6.66667E-02 9.37500E-03 0.00000E+00
 -1       409 6.66667E-02 1.04167E-02 0.00000E+00
 -1       410 6.66667E-02 1.14583E-02 0.00000E+00
 -1       521 1.77083E-02 1.28906E-02 0.00000E+00
 -1       522 1.87500E-02 1.32813E-02 0.00000E+00
 -1       523 1.97917E-02 1.36719E-02 0.00000E+00
 -1       524 2.08333E-02 1.40625E-02 0.00000E+00
 -1       525 2.18750E-02 1.44531E-02 0.00000E+00
 -1       526 2.29167E-02 1.48437E-02 0.00000E+00
 -1       527 2.39583E-02 1.52344E-02 0.00000E+00
 -1       528 2.50000E-02 1.56250E-02 0.00000E+00
 -1       529 2.60417E-02 1.60156E-02 0.00000E+00
 -1       530 2.70833E-02 1.64062E-02 0.00000E+00
 -1       531 2.81250E-02 1.67969E-02 0.00000E+00
 -1       532 2.91667E-02 1.71875E-02 0.00000E+00
 -1       533 3.02083E-02 1.75781E-02 0.00000E+00
 -1       534 3.12500E-02 1.79687E-02 0.00000E+00
 -1       535 3.22917E-02 1.83594E-02 0.00000E+00
 -1       536 3.43750E-02 1.25000E-02 0.00000E+00
 -1       537 3.54167E-02 1.25000E-02 0.00000E+00
 -1       538 3.64583E-02 1.25000E-02 0.00000E+00
 -1       539 3.75000E-02 1.25000E-02 0.00000E+00
 -1       540 3.85417E-02 1.25000E-02 0.00000E+00
 -1       541 3.95833E-02 1.25000E-02 0.00000E+00
 -1       542 4.06250E-02 1.25000E-02 0.00000E+00
 -1       543 4.16667E-02 1.25000E-02 0.00000E+00
 -1       544 4.27083E-02 1.25000E-02 0.00000E+00
 -1       545 4.37500E-02 1.25000E-02 0.00000E+00
 -1       546 4.47917E-02 1.25000E-02 0.00000E+00
 -1       547 4.58333E-02 1.25000E-02 0.00000E+00
 -1       548 4.68750E-02 1.25000E-02 0.00000E+00
 -1       549 4.79167E-02 1.25000E-02 0.00000E+00
 -1       550 4.89583E-02 1.25000E-02 0.00000E+00
 -1       551 3.33333E-02 1.35417E-02 0.00000E+00
 -1       552 3.33333E-02 1.45833E-02 0.00000E+00
 -1       553 3.33333E-02 1.56250E-02 0.00000E+00
 -1       554 3.33333E-02 1.66667E-02 0.00000E+00
 -1       555 3.33333E-02 1.77083E-02 0.00000E+00
 -1       556 3.43750E-02 1.28906E-02 0.00000E+00
 -1       557 3.54167E-02 1.32813E-02 0.00000E+00
 -1       558 3.64583E-02 1.36719E-02 0.00000E+00
 -1       559 3.75000E-02 1.40625E-02 0.00000E+00
 -1       560 3.85417E-02 1.44531E-02 0.00000E+00
 -1       561 3.95833E-02 1.48437E-02 0.00000E+00
 -1       562 4.06250E-02 1.52344E-02 0.00000E+00
 -1       563 4.16667E-02 1.56250E-02 0.00000E+00
 -1       564 4.27083E-02 1.60156E-02 0.00000E+00
 -1       565 4.37500E-02 1.64062E-02 0.00000E+00
 -1       566 4.47917E-02 1.67969E-02 0.00000E+00
 -1       567 4.58333E-02 1.71875E-02 0.00000E+00
 -1       568 4.68750E-02 1.75781E-02 0.00000E+00
 -1       569 4.79167E-02 1.79687E-02 0.00000E+00
 -1       570 4.89583E-02 1.83594E-02 0.00000E+00
 -1       571 5.10417E-02 1.25000E-02 0.00000E+00
 -1       572 5.20833E-02 1.25000E-02 0.00000E+00
 -1       573 5.31250E-02 1.25000E-02 0.00000E+00
 -1       574 5.41667E-02 1.25000E-02 0.00000E+00
 -1       575 5.52083E-02 1.25000E-02 0.00000E+00
 -1       576 5.62500E-02 1.25000E-02 0.00000E+00
 -1       577 5.72917E-02 1.25000E-02 0.00000E+00
 -1       578 5.83333E-02 1.25000E-02 0.00000E+00
 -1       579 5.93750E-02 1.25000E-02 0.00000E+00
 -1       580 6.04167E-02 1.25000E-02 0.00000E+00
 -1       581 6.14583E-02 1.25000E-02 0.00000E+00
 -1       582 6.25000E-02 1.25000E-02 0.00000E+00
 -1       583 6.35417E-02 1.25000E-02 0.00000E+00
 -1       584 6.45833E-02 1.25000E-02 0.00000E+00
 -1       585 6.56250E-02 1.25000E-02 0.00000E+00
 -1       586 5.00000E-02 1.35417E-02 0.00000E+00
 -1       587 5.00000E-02 1.45833E-02 0.00000E+00
 -1       588 5.00000E-02 1.56250E-02 0.00000E+00
 -1       589 5.00000E-02 1.66667E-02 0.00000E+00
 -1       590 5.00000E-02 1.77083E-02 0.00000E+00
 -1       591 5.10417E-02 1.28906E-02 0.00000E+00
 -1       592 5.20833E-02 1.32813E-02 0.00000E+00
 -1       593 5.31250E-02 1.36719E-02 0.00000E+00
 -1       594 5.41667E-02 1.40625E-02 0.00000E+00
 -1       595 5.52083E-02 1.44531E-02 0.00000E+00
 -1       596 5.62500E-02 1.48437E-02 0.00000E+00
 -1       597 5.72917E-02 1.52344E-02 0.00000E+00
 -1       598 5.83333E-02 1.56250E-02 0.00000E+00
 -1       599 5.93750E-02 1.60156E-02 0.00000E+00
 -1       600 6.04167E-02 1.64062E-02 0.00000E+00
 -1       601 6.14583E-02 1.67969E-02 0.00000E+00
 -1       602 6.25000E-02 1.71875E-02 0.00000E+00
 -1       603 6.35417E-02 1.75781E-02 0.00000E+00
 -1       604 6.45833E-02 1.79687E-02 0.00000E+00
 -1       605 6.56250E-02 1.83594E-02 0.00000E+00
 -1       606 6.77083E-02 1.25000E-02 0.00000E+00
 -1       607 6.87500E-02 1.25000E-02 0.00000E+00
 -1       608 6.97917E-02 1.25000E-02 0.00000E+00
 -1       609 7.08333E-02 1.25000E-02 0.00000E+00
 -1       610 7.18750E-02 1.25000E-02 0.00000E+00
 -1       611 7.29167E-02 1.25000E-02 0.00000E+00
 -1       612 7.39583E-02 1.25000E-02 0.00000E+00
 -1       613 7.50000E-02 1.25000E-02 0.00000E+00
 -1       614 7.60417E-02 1.25000E-02 0.00000E+00
 -1       615 7.70833E-02 1.25000E-02 0.00000E+00
 -1       616 7.81250E-02 1.25000E-02 0.00000E+00
 -1       617 7.91667E-02 1.25000E-02 0.00000E+00
 -1       618 8.02083E-02 1.25000E-02 0.00000E+00
 -1       619 8.12500E-02 1.25000E-02 0.00000E+00
 -1       620 8.22917E-02 1.25000E-02 0.00000E+00
 -1       621 6.66667E-02 1.35417E-02 0.00000E+00
 -1       622 6.66667E-02 1.45833E-02 0.00000E+00
 -1       623 6.66667E-02 1.56250E-02 0.00000E+00
 -1       624 6.66667E-02 1.66667E-02 0.00000E+00
 -1       625 6.66667E-02 1.77083E-02 0.00000E+00
 -1       626 6.77083E-02 1.28906E-02 0.00000E+00
 -1       627 6.87500E-02 1.32813E-02 0.00000E+00
 -1       628 6.97917E-02 1.36719E-02 0.00000E+00
 -1       629 7.08333E-02 1.40625E-02 0.00000E+00
 -1       630 7.18750E-02 1.44531E-02 0.00000E+00
 -1       631 7.29167E-02 1.48437E-02 0.00000E+00
 -1       632 7.39583E-02 1.52344E-02 0.00000E+00
 -1       633 7.50000E-02 1.56250E-02 0.00000E+00
 -1       634 7.60417E-02 1.60156E-02 0.00000E+00
 -1       635 7.70833E-02 1.64062E-02 0.00000E+00
 -1       636 7.81250E-02 1.67969E-02 0.00000E+00
 -1       637 7.91667E-02 1.71875E-02 0.00000E+00
 -1       638 8.02083E-02 1.75781E-02 0.00000E+00
 -1       639 8.12500E-02 1.79687E-02 0.00000E+00
 -1       640 8.22917E-02 1.83594E-02 0.00000E+00
 -1       656 8.33333E-02 1.35417E-02 0.00000E+00
 -1       657 8.33333E-02 1.45833E-02 0.00000E+00
 -1       658 8.33333E-02 1.56250E-02 0.00000E+00
 -1       659 8.33333E-02 1.66667E-02 0.00000E+00
 -1       660 8.33333E-02 1.77083E-02 0.00000E+00
 -1       661 8.43750E-02 1.28906E-02 0.00000E+00
 -1       662 8.54167E-02 1.32813E-02 0.00000E+00
 -1       663 8.64583E-02 1.36719E-02 0.00000E+00
 -1       664 8.75000E-02 1.40625E-02 0.00000E+00
 -1       665 8.85417E-02 1.44531E-02 0.00000E+00
 -1       666 8.95833E-02 1.48437E-02 0.00000E+00
 -1       667 9.06250E-02 1.52344E-02 0.00000E+00
 -1       668 9.16667E-02 1.56250E-02 0.00000E+00
 -1       669 9.27083E-02 1.60156E-02 0.00000E+00
 -1       670 9.37500E-02 1.64062E-02 0.00000E+00
 -1       671 9.47917E-02 1.67969E-02 0.00000E+00
 -1       672 9.58333E-02 1.71875E-02 0.00000E+00
 -1       673 9.68750E-02 1.75781E-02 0.00000E+00
 -1       674 9.79167E-02 1.79687E-02 0.00000E+00
 -1       675 9.89583E-02 1.83594E-02 0.00000E+00
 -1       676 1.00000E-01 1.35417E-02 0.00000E+00
 -1       677 1.00000E-01 1.45833E-02 0.00000E+00
 -1       678 1.00000E-01 1.56250E-02 0.00000E+00
 -1       679 1.00000E-01 1.66667E-02 0.00000E+00
 -1       680 1.00000E-01 1.77083E-02 0.00000E+00
 -1       771 3.43750E-02 1.91406E-02 0.00000E+00
 -1       772 3.54167E-02 1.95312E-02 0.00000E+00
 -1       773 3.64583E-02 1.99219E-02 0.00000E+00
 -1       774 3.75000E-02 2.03125E-02 0.00000E+00
 -1       775 3.85417E-02 2.07031E-02 0.00000E+00
 -1       776 3.95833E-02 2.10938E-02 0.00000E+00
 -1       777 4.06250E-02 2.14844E-02 0.00000E+00
 -1       778 4.16667E-02 2.18750E-02 0.00000E+00
 -1       779 4.27083E-02 2.22656E-02 0.00000E+00
 -1       780 4.37500E-02 2.26563E-02 0.00000E+00
 -1       781 4.47917E-02 2.30469E-02 0.00000E+00
 -1       782 4.58333E-02 2.34375E-02 0.00000E+00
 -1       783 4.68750E-02 2.38281E-02 0.00000E+00
 -1       784 4.79167E-02 2.42187E-02 0.00000E+00
 -1       785 4.89583E-02 2.46094E-02 0.00000E+00
 -1       786 5.10417E-02 1.87500E-02 0.00000E+00
 -1       787 5.20833E-02 1.87500E-02 0.00000E+00
 -1       788 5.31250E-02 1.87500E-02 0.00000E+00
 -1       789 5.41667E-02 1.87500E-02 0.00000E+00
 -1       790 5.52083E-02 1.87500E-02 0.00000E+00
 -1       791 5.62500E-02 1.87500E-02 0.00000E+00
 -1       792 5.72917E-02 1.87500E-02 0.00000E+00
 -1       793 5.83333E-02 1.87500E-02 0.00000E+00
 -1       794 5.93750E-02 1.87500E-02 0.00000E+00
 -1       795 6.04167E-02 1.87500E-02 0.00000E+00
 -1       796 6.14583E-02 1.87500E-02 0.00000E+00
 -1       797 6.25000E-02 1.87500E-02 0.00000E+00
 -1       798 6.35417E-02 1.87500E-02 0.00000E+00
 -1       799 6.45833E-02 1.87500E-02 0.00000E+00
 -1       800 6.56250E-02 1.87500E-02 0.00000E+00
 -1       801 5.00000E-02 1.97917E-02 0.00000E+00
 -1       802 5.00000E-02 2.08333E-02 0.00000E+00
 -1       803 5.00000E-02 2.18750E-02 0.00000E+00
 -1       804 5.00000E-02 2.29167E-02 0.00000E+00
 -1       805 5.00000E-02 2.39583E-02 0.00000E+00
 -1       806 5.10417E-02 1.91406E-02 0.00000E+00
 -1       807 5.20833E-02 1.95312E-02 0.00000E+00
 -1       808 5.31250E-02 1.99219E-02 0.00000E+00
 -1       809 5.41667E-02 2.03125E-02 0.00000E+00
 -1       810 5.52083E-02 2.07031E-02 0.00000E+00
 -1       811 5.62500E-02 2.10938E-02 0.00000E+00
 -1       812 5.72917E-02 2.14844E-02 0.00000E+00
 -1       813 5.83333E-02 2.18750E-02 0.00000E+00
 -1       814 5.93750E-02 2.22656E-02 0.00000E+00
 -1       815 6.04167E-02 2.26563E-02 0.00000E+00
 -1       816 6.14583E-02 2.30469E-02 0.00000E+00
 -1       817 6.25000E-02 2.34375E-02 0.00000E+00
 -1       818 6.35417E-02 2.38281E-02 0.00000E+00
 -1       819 6.45833E-02 2.42187E-02 0.00000E+00
 -1       820 6.56250E-02 2.46094E-02 0.00000E+00
 -1       821 6.77083E-02 1.87500E-02 0.00000E+00
 -1       822 6.87500E-02 1.87500E-02 0.00000E+00
 -1       823 6.97917E-02 1.87500E-02 0.00000E+00
 -1       824 7.08333E-02 1.87500E-02 0.00000E+00
 -1       825 7.18750E-02 1.87500E-02 0.00000E+00
 -1       826 7.29167E-02 1.87500E-02 0.00000E+00
 -1       827 7.39583E-02 1.87500E-02 0.00000E+00
 -1       828 7.50000E-02 1.87500E-02 0.00000E+00
 -1       829 7.60417E-02 1.87500E-02 0.00000E+00
 -1       830 7.70833E-02 1.87500E-02 0.00000E+00
 -1       831 7.81250E-02 1.87500E-02 0.00000E+00
 -1       832 7.91667E-02 1.87500E-02 0.00000E+00
 -1       833 8.02083E-02 1.87500E-02 0.00000E+00
 -1       834 8.12500E-02 1.87500E-02 0.00000E+00
 -1       835 8.22917E-02 1.87500E-02 0.00000E+00
 -1       836 6.66667E-02 1.97917E-02 0.00000E+00
 -1       837 6.66667E-02 2.08333E-02 0.00000E+00
 -1       838 6.66667E-02 2.18750E-02 0.00000E+00
 -1       839 6.66667E-02 2.29167E-02 0.00000E+00
 -1       840 6.66667E-02 2.39583E-02 0.00000E+00
 -1       856 8.43750E-02 1.87500E-02 0.00000E+00
 -1       857 8.54167E-02 1.87500E-02 0.00000E+00
 -1       858 8.64583E-02 1.87500E-02 0.00000E+00
 -1       859 8.75000E-02 1.87500E-02 0.00000E+00
 -1       860 8.85417E-02 1.87500E-02 0.00000E+00
 -1       861 8.95833E-02 1.87500E-02 0.00000E+00
 -1       862 9.06250E-02 1.87500E-02 0.00000E+00
 -1       863 9.16667E-02 1.87500E-02 0.00000E+00
 -1       864 9.27083E-02 1.87500E-02 0.00000E+00
 -1       865 9.37500E-02 1.87500E-02 0.00000E+00
 -1       866 9.47917E-02 1.87500E-02 0.00000E+00
 -1       867 9.58333E-02 1.87500E-02 0.00000E+00
 -1       868 9.68750E-02 1.87500E-02 0.00000E+00
 -1       869 9.79167E-02 1.87500E-02 0.00000E+00
 -1       870 9.89583E-02 1.87500E-02 0.00000E+00
 -1       871 8.33333E-02 1.97917E-02 0.00000E+00
 -1       872 8.33333E-02 2.08333E-02 0.00000E+00
 -1       873 8.33333E-02 2.18750E-02 0.00000E+00
 -1       874 8.33333E-02 2.29167E-02 0.00000E+00
 -1       875 8.33333E-02 2.39583E-02 0.00000E+00
 -1       876 8.43750E-02 1.91406E-02 0.00000E+00
 -1       877 8.54167E-02 1.95312E-02 0.00000E+00
 -1       878 8.64583E-02 1.99219E-02 0.00000E+00
 -1       879 8.75000E-02 2.03125E-02 0.00000E+00
 -1       880 8.85417E-02 2.07031E-02 0.00000E+00
 -1       881 8.95833E-02 2.10938E-02 0.00000E+00
 -1       882 9.06250E-02 2.14844E-02 0.00000E+00
 -1       883 9.16667E-02 2.18750E-02 0.00000E+00
 -1       884 9.27083E-02 2.22656E-02 0.00000E+00
 -1       885 9.37500E-02 2.26563E-02 0.00000E+00
 -1       886 9.47917E-02 2.30469E-02 0.00000E+00
 -1       887 9.58333E-02 2.34375E-02 0.00000E+00
 -1       888 9.68750E-02 2.38281E-02 0.00000E+00
 -1       889 9.79167E-02 2.42187E-02 0.00000E+00
 -1       890 9.89583E-02 2.46094E-02 0.00000E+00
 -1       891 1.00000E-01 1.97917E-02 0.00000E+00
 -1       892 1.00000E-01 2.08333E-02 0.00000E+00
 -1       893 1.00000E-01 2.18750E-02 0.00000E+00
 -1       894 1.00000E-01 2.29167E-02 0.00000E+00
 -1       895 1.00000E-01 2.39583E-02 0.00000E+00
 -1       956 6.77083E-02 2.50000E-02 0.00000E+00
 -1       957 6.87500E-02 2.50000E-02 0.00000E+00
 -1       958 6.97917E-02 2.50000E-02 0.00000E+00
 -1       959 7.08333E-02 2.50000E-02 0.00000E+00
 -1       960 7.18750E-02 2.50000E-02 0.00000E+00
 -1       961 7.29167E-02 2.50000E-02 0.00000E+00
 -1       962 7.39583E-02 2.50000E-02 0.00000E+00
 -1       963 7.50000E-02 2.50000E-02 0.00000E+00
 -1       964 7.60417E-02 2.50000E-02 0.00000E+00
 -1       965 7.70833E-02 2.50000E-02 0.00000E+00
 -1       966 7.81250E-02 2.50000E-02 0.00000E+00
 -1       967 7.91667E-02 2.50000E-02 0.00000E+00
 -1       968 8.02083E-02 2.50000E-02 0.00000E+00
 -1       969 8.12500E-02 2.50000E-02 0.00000E+00
 -1       970 8.22917E-02 2.50000E-02 0.00000E+00
 -1       971 8.43750E-02 2.50000E-02 0.00000E+00
 -1       972 8.54167E-02 2.50000E-02 0.00000E+00
 -1       973 8.64583E-02 2.50000E-02 0.00000E+00
 -1       974 8.75000E-02 2.50000E-02 0.00000E+00
 -1       975 8.85417E-02 2.50000E-02 0.00000E+00
 -1       976 8.95833E-02 2.50000E-02 0.00000E+00
 -1       977 9.06250E-02 2.50000E-02 0.00000E+00
 -1       978 9.16667E-02 2.50000E-02 0.00000E+00
 -1       979 9.27083E-02 2.50000E-02 0.00000E+00
 -1       980 9.37500E-02 2.50000E-02 0.00000E+00
 -1       981 9.47917E-02 2.50000E-02 0.00000E+00
 -1       982 9.58333E-02 2.50000E-02 0.00000E+00
 -1       983 9.68750E-02 2.50000E-02 0.00000E+00
 -1       984 9.79167E-02 2.50000E-02 0.00000E+00
 -1       985 9.89583E-02 2.50000E-02 0.00000E+00
 -3
    3C                           211                                     1
 -1         1   12    0    1
 -2         1        52        51
 -1         2   12    0    1
 -2        52        54        53
 -1         3   12    0    1
 -2        54         8        55
 -1         4   12    0    1
 -2         1        57        56
 -1         5   12    0    1
 -2        57        59        58
 -1         6   12    0    1
 -2        59        61        60
 -1         7   12    0    1
 -2        61        63        62
 -1         8   12    0    1
 -2        63        65        64
 -1         9   12    0    1
 -2        65        67        66
 -1        10   12    0    1
 -2        67        69        68
 -1        11   12    0    1
 -2        69         9        70
 -1        12   12    0    1
 -2         2        87        86
 -1        13   12    0    1
 -2        87        89        88
 -1        14   12    0    1
 -2        89         9        90
 -1        15   12    0    1
 -2         3       122       121
 -1        16   12    0    1
 -2       122       124       123
 -1        17   12    0    1
 -2       124        10       125
 -1        18   12    0    1
 -2         5       192       191
 -1        19   12    0    1
 -2       192       194       193
 -1        20   12    0    1
 -2       194        12       195
 -1        21   12    0    1
 -2         8       252       251
 -1        22   12    0    1
 -2       252       254       253
 -1        23   12    0    1
 -2       254       256       255
 -1        24   12    0    1
 -2       256       258       257
 -1        25   12    0    1
 -2       258       260       259
 -1        26   12    0    1
 -2       260       262       261
 -1        27   12    0    1
 -2       262       264       263
 -1        28   12    0    1
 -2       264         9       265
 -1        29   12    0    1
 -2         8       267       266
 -1        30   12    0    1
 -2       267       269       268
 -1        31   12    0    1
 -2       269        15       270
 -1        32   12    0    1
 -2         8       272       271
 -1        33   12    0    1
 -2       272       274       273
 -1        34   12    0    1
 -2       274       276       275
 -1        35   12    0    1
 -2       276       278       277
 -1        36   12    0    1
 -2       278       280       279
 -1        37   12    0    1
 -2       280       282       281
 -1        38   12    0    1
 -2       282       284       283
 -1        39   12    0    1
 -2       284        16       285
 -1        40   12    0    1
 -2         9       302       301
 -1        41   12    0    1
 -2       302       304       303
 -1        42   12    0    1
 -2       304        16       305
 -1        43   12    0    1
 -2         9       307       306
 -1        44   12    0    1
 -2       307       309       308
 -1        45   12    0    1
 -2       309       311       310
 -1        46   12    0    1
 -2       311       313       312
 -1        47   12    0    1
 -2       313       315       314
 -1        48   12    0    1
 -2       315       317       316
 -1        49   12    0    1
 -2       317       319       318
 -1        50   12    0    1
 -2       319        17       320
 -1        51   12    0    1
 -2        10       337       336
 -1        52   12    0    1
 -2       337       339       338
 -1        53   12    0    1
 -2       339        17       340
 -1        54   12    0    1
 -2        12       407       406
 -1        55   12    0    1
 -2       407       409       408
 -1        56   12    0    1
 -2       409        19       410
 -1        57   12    0    1
 -2        16       522       521
 -1        58   12    0    1
 -2       522       524       523
 -1        59   12    0    1
 -2       524       526       525
 -1        60   12    0    1
 -2       526       528       527
 -1        61   12    0    1
 -2       528       530       529
 -1        62   12    0    1
 -2       530       532       531
 -1        63   12    0    1
 -2       532       534       533
 -1        64   12    0    1
 -2       534        24       535
 -1        65   12    0    1
 -2        17       537       536
 -1        66   12    0    1
 -2       537       539       538
 -1        67   12    0    1
 -2       539       541       540
 -1        68   12    0    1
 -2       541       543       542
 -1        69   12    0    1
 -2       543       545       544
 -1        70   12    0    1
 -2       545       547       546
 -1        71   12    0    1
 -2       547       549       548
 -1        72   12    0    1
 -2       549        18       550
 -1        73   12    0    1
 -2        17       552       551
 -1        74   12    0    1
 -2       552       554       553
 -1        75   12    0    1
 -2       554        24       555
 -1        76   12    0    1
 -2        17       557       556
 -1        77   12    0    1
 -2       557       559       558
 -1        78   12    0    1
 -2       559       561       560
 -1        79   12    0    1
 -2       561       563       562
 -1        80   12    0    1
 -2       563       565       564
 -1        81   12    0    1
 -2       565       567       566
 -1        82   12    0    1
 -2       567       569       568
 -1        83   12    0    1
 -2       569        25       570
 -1        84   12    0    1
 -2        18       572       571
 -1        85   12    0    1
 -2       572       574       573
 -1        86   12    0    1
 -2       574       576       575
 -1        87   12    0    1
 -2       576       578       577
 -1        88   12    0    1
 -2       578       580       579
 -1        89   12    0    1
 -2       580       582       581
 -1        90   12    0    1
 -2       582       584       583
 -1        91   12    0    1
 -2       584        19       585
 -1        92   12    0    1
 -2        18       587       586
 -1        93   12    0    1
 -2       587       589       588
 -1        94   12    0    1
 -2       589        25       590
 -1        95   12    0    1
 -2        18       592       591
 -1        96   12    0    1
 -2       592       594       593
 -1        97   12    0    1
 -2       594       596       595
 -1        98   12    0    1
 -2       596       598       597
 -1        99   12    0    1
 -2       598       600       599
 -1       100   12    0    1
 -2       600       602       601
 -1       101   12    0    1
 -2       602       604       603
 -1       102   12    0    1
 -2       604        26       605
 -1       103   12    0    1
 -2        19       607       606
 -1       104   12    0    1
 -2       607       609       608
 -1       105   12    0    1
 -2       609       611       610
 -1       106   12    0    1
 -2       611       613       612
 -1       107   12    0    1
 -2       613       615       614
 -1       108   12    0    1
 -2       615       617       616
 -1       109   12    0    1
 -2       617       619       618
 -1       110   12    0    1
 -2       619        20       620
 -1       111   12    0    1
 -2        19       622       621
 -1       112   12    0    1
 -2       622       624       623
 -1       113   12    0    1
 -2       624        26       625
 -1       114   12    0    1
 -2        19       627       626
 -1       115   12    0    1
 -2       627       629       628
 -1       116   12    0    1
 -2       629       631       630
 -1       117   12    0    1
 -2       631       633       632
 -1       118   12    0    1
 -2       633       635       634
 -1       119   12    0    1
 -2       635       637       636
 -1       120   12    0    1
 -2       637       639       638
 -1       121   12    0    1
 -2       639        27       640
 -1       122   12    0    1
 -2        20       657       656
 -1       123   12    0    1
 -2       657       659       658
 -1       124   12    0    1
 -2       659        27       660
 -1       125   12    0    1
 -2        20       662       661
 -1       126   12    0    1
 -2       662       664       663
 -1       127   12    0    1
 -2       664       666       665
 -1       128   12    0    1
 -2       666       668       667
 -1       129   12    0    1
 -2       668       670       669
 -1       130   12    0    1
 -2       670       672       671
 -1       131   12    0    1
 -2       672       674       673
 -1       132   12    0    1
 -2       674        28       675
 -1       133   12    0    1
 -2        21       677       676
 -1       134   12    0    1
 -2       677       679       678
 -1       135   12    0    1
 -2       679        28       680
 -1       136   12    0    1
 -2        24       772       771
 -1       137   12    0    1
 -2       772       774       773
 -1       138   12    0    1
 -2       774       776       775
 -1       139   12    0    1
 -2       776       778       777
 -1       140   12    0    1
 -2       778       780       779
 -1       141   12    0    1
 -2       780       782       781
 -1       142   12    0    1
 -2       782       784       783
 -1       143   12    0    1
 -2       784        32       785
 -1       144   12    0    1
 -2        25       787       786
 -1       145   12    0    1
 -2       787       789       788
 -1       146   12    0    1
 -2       789       791       790
 -1       147   12    0    1
 -2       791       793       792
 -1       148   12    0    1
 -2       793       795       794
 -1       149   12    0    1
 -2       795       797       796
 -1       150   12    0    1
 -2       797       799       798
 -1       151   12    0    1
 -2       799        26       800
 -1       152   12    0    1
 -2        25       802       801
 -1       153   12    0    1
 -2       802       804       803
 -1       154   12    0    1
 -2       804        32       805
 -1       155   12    0    1
 -2        25       807       806
 -1       156   12    0    1
 -2       807       809       808
 -1       157   12    0    1
 -2       809       811       810
 -1       158   12    0    1
 -2       811       813       812
 -1       159   12    0    1
 -2       813       815       814
 -1       160   12    0    1
 -2       815       817       816
 -1       161   12    0    1
 -2       817       819       818
 -1       162   12    0    1
 -2       819        33       820
 -1       163   12    0    1
 -2        26       822       821
 -1       164   12    0    1
 -2       822       824       823
 -1       165   12    0    1
 -2       824       826       825
 -1       166   12    0    1
 -2       826       828       827
 -1       167   12    0    1
 -2       828       830       829
 -1       168   12    0    1
 -2       830       832       831
 -1       169   12    0    1
 -2       832       834       833
 -1       170   12    0    1
 -2       834        27       835
 -1       171   12    0    1
 -2        26       837       836
 -1       172   12    0    1
 -2       837       839       838
 -1       173   12    0    1
 -2       839        33       840
 -1       174   12    0    1
 -2        27       857       856
 -1       175   12    0    1
 -2       857       859       858
 -1       176   12    0    1
 -2       859       861       860
 -1       177   12    0    1
 -2       861       863       862
 -1       178   12    0    1
 -2       863       865       864
 -1       179   12    0    1
 -2       865       867       866
 -1       180   12    0    1
 -2       867       869       868
 -1       181   12    0    1
 -2       869        28       870
 -1       182   12    0    1
 -2        27       872       871
 -1       183   12    0    1
 -2       872       874       873
 -1       184   12    0    1
 -2       874        34       875
 -1       185   12    0    1
 -2        27       877       876
 -1       186   12    0    1
 -2       877       879       878
 -1       187   12    0    1
 -2       879       881       880
 -1       188   12    0    1
 -2       881       883       882
 -1       189   12    0    1
 -2       883       885       884
 -1       190   12    0    1
 -2       885       887       886
 -1       191   12    0    1
 -2       887       889       888
 -1       192   12    0    1
 -2       889        35       890
 -1       193   12    0    1
 -2        28       892       891
 -1       194   12    0    1
 -2       892       894       893
 -1       195   12    0    1
 -2       894        35       895
 -1       196   12    0    1
 -2        33       957       956
 -1       197   12    0    1
 -2       957       959       958
 -1       198   12    0    1
 -2       959       961       960
 -1       199   12    0    1
 -2       961       963       962
 -1       200   12    0    1
 -2       963       965       964
 -1       201   12    0    1
 -2       965       967       966
 -1       202   12    0    1
 -2       967       969       968
 -1       203   12    0    1
 -2       969        34       970
 -1       204   12    0    1
 -2        34       972       971
 -1       205   12    0    1
 -2       972       974       973
 -1       206   12    0    1
 -2       974       976       975
 -1       207   12    0    1
 -2       976       978       977
 -1       208   12    0    1
 -2       978       980       979
 -1       209   12    0    1
 -2       980       982       981
 -1       210   12    0    1
 -2       982       984       983
 -1       211   12    0    1
 -2       984        35       985
 -3
    1PSTEP                         1           1           1          
  100CL  101 2.50000E-01         409                     0    1           1
 -4  DISP        4    1
 -5  D1          1    2    1    0
 -5  D2          1    2    2    0
 -5  D3          1    2    3    0
 -5  ALL         1    2    0    0    1ALL
 -1         1 6.52358E-05 0.00000E+00 0.00000E+00
 -1         2 6.02684E-05 2.13598E-29 0.00000E+00
 -1         3 5.54706E-05-2.79642E-27 3.30872E-24
 -1         5 4.00381E-05 5.12462E-26 0.00000E+00
 -1         8 5.20699E-05-4.68843E-07 0.00000E+00
 -1         9 5.28941E-05 3.09985E-07 0.00000E+00
 -1        10 5.14306E-05-7.59707E-07 0.00000E+00
 -1        12 3.97511E-05 2.72207E-07 8.27181E-25
 -1        15 3.64079E-05-5.01462E-07-2.06795E-25
 -1        16 3.76674E-05 2.49395E-07 0.00000E+00
 -1        17 3.83744E-05-1.59167E-06 0.00000E+00
 -1        18 3.83638E-05 7.39128E-08 0.00000E+00
 -1        19 3.88903E-05 5.42947E-07 0.00000E+00
 -1        20 3.89622E-05 8.10621E-06 0.00000E+00
 -1        21 3.86913E-05 1.53314E-05 0.00000E+00
 -1        24 9.81931E-06-2.11649E-06 0.00000E+00
 -1        25 3.74476E-05 1.36174E-07 0.00000E+00
 -1        26 3.79427E-05 7.60824E-07 0.00000E+00
 -1        27 3.71893E-05 6.89550E-06 0.00000E+00
 -1        28 3.69462E-05 1.50986E-05 0.00000E+00
 -1        32 0.00000E+00 0.00000E+00 0.00000E+00
 -1        33 3.63442E-05 1.01891E-06 0.00000E+00
 -1        34 3.56162E-05 6.88485E-06 0.00000E+00
 -1        35 3.49246E-05 1.49758E-05 0.00000E+00
 -1        51 6.43791E-05-7.81425E-08 0.00000E+00
 -1        52 6.27916E-05-1.53930E-07 0.00000E+00
 -1        53 6.06172E-05-2.29961E-07 0.00000E+00
 -1        54 5.80055E-05-3.06949E-07 1.65436E-24
 -1        55 5.51063E-05-3.85421E-07 1.03398E-25
 -1        56 6.46333E-05-3.64433E-07 1.32349E-23
 -1        57 6.40906E-05-9.55869E-07-6.61744E-24
 -1        58 6.36095E-05-1.70798E-06-1.32349E-23
 -1        59 6.31624E-05-2.56244E-06 0.00000E+00
 -1        60 6.27292E-05-3.45442E-06-2.64698E-23
 -1        61 6.22853E-05-4.32005E-06-1.32349E-23
 -1        62 6.18078E-05-5.09602E-06 0.00000E+00
 -1        63 6.12735E-05-5.72065E-06 1.32349E-23
 -1        64 6.06612E-05-6.13706E-06 0.00000E+00
 -1        65 5.99507E-05-6.29163E-06 0.00000E+00
 -1        66 5.91252E-05-6.13922E-06 0.00000E+00
 -1        67 5.81698E-05-5.63931E-06-1.32349E-23
 -1        68 5.70730E-05-4.76291E-06-1.32349E-23
 -1        69 5.58292E-05-3.48557E-06 0.00000E+00
 -1        70 5.44297E-05-1.79857E-06 1.32349E-23
 -1        86 6.00720E-05 5.52428E-08 1.65436E-24
 -1        87 5.94824E-05 1.10044E-07-8.27181E-25
 -1        88 5.84876E-05 1.64494E-07-8.27181E-25
 -1        89 5.70748E-05 2.16623E-07 0.00000E+00
 -1        90 5.52190E-05 2.68674E-07 1.65436E-24
 -1       121 5.53581E-05-1.26283E-07 3.30872E-24
 -1       122 5.50207E-05-2.52618E-07 0.00000E+00
 -1       123 5.44587E-05-3.79055E-07 3.30872E-24
 -1       124 5.36725E-05-5.05666E-07 1.65436E-24
 -1       125 5.26628E-05-6.32465E-07 0.00000E+00
 -1       191 4.00301E-05 4.53709E-08 1.65436E-24
 -1       192 4.00062E-05 9.07411E-08 8.27181E-25
 -1       193 3.99663E-05 1.36111E-07 1.65436E-24
 -1       194 3.99105E-05 1.81479E-07 0.00000E+00
 -1       195 3.98388E-05 2.26845E-07 0.00000E+00
 -1       251 5.21106E-05 1.69855E-06 0.00000E+00
 -1       252 5.21622E-05 2.99387E-06 0.00000E+00
 -1       253 5.22140E-05 3.56002E-06-8.27181E-25
 -1       254 5.22676E-05 3.53819E-06 0.00000E+00
 -1       255 5.23213E-05 3.05293E-06-1.65436E-24
 -1       256 5.23750E-05 2.22776E-06 0.00000E+00
 -1       257 5.24286E-05 1.17651E-06 1.65436E-24
 -1       258 5.24822E-05 1.25147E-08 0.00000E+00
 -1       259 5.25357E-05-1.15416E-06 1.65436E-24
 -1       260 5.25893E-05-2.21339E-06-8.27181E-25
 -1       261 5.26431E-05-3.05202E-06 0.00000E+00
 -1       262 5.26967E-05-3.55641E-06-8.27181E-25
 -1       263 5.27503E-05-3.60337E-06 8.27181E-25
 -1       264 5.28020E-05-3.06869E-06 0.00000E+00
 -1       265 5.28536E-05-1.81168E-06 0.00000E+00
 -1       266 4.94596E-05-4.80770E-07 0.00000E+00
 -1       267 4.68492E-05-4.85416E-07 0.00000E+00
 -1       268 4.42389E-05-4.90522E-07 0.00000E+00
 -1       269 4.16285E-05-4.94263E-07 0.00000E+00
 -1       270 3.90182E-05-4.97971E-07 2.06795E-25
 -1       271 5.04858E-05 1.47059E-06 0.00000E+00
 -1       272 4.91434E-05 2.69248E-06 0.00000E+00
 -1       273 4.80365E-05 3.29161E-06 0.00000E+00
 -1       274 4.71255E-05 3.35769E-06 1.32349E-23
 -1       275 4.63771E-05 2.98900E-06-2.64698E-23
 -1       276 4.57531E-05 2.28664E-06 0.00000E+00
 -1       277 4.52145E-05 1.35552E-06 2.64698E-23
 -1       278 4.47214E-05 3.02638E-07 0.00000E+00
 -1       279 4.42334E-05-7.63754E-07 0.00000E+00
 -1       280 4.37099E-05-1.73523E-06-1.32349E-23
 -1       281 4.31107E-05-2.50442E-06 0.00000E+00
 -1       282 4.23968E-05-2.96587E-06 1.32349E-23
 -1       283 4.15294E-05-3.01748E-06 0.00000E+00
 -1       284 4.04739E-05-2.56021E-06 1.32349E-23
 -1       285 3.91917E-05-1.50232E-06 0.00000E+00
 -1       301 5.03158E-05 2.96770E-07 0.00000E+00
 -1       302 4.77379E-05 2.91363E-07-8.27181E-25
 -1       303 4.51722E-05 2.86182E-07 1.65436E-24
 -1       304 4.26307E-05 2.80132E-07 0.00000E+00
 -1       305 4.01252E-05 2.72856E-07 6.61744E-24
 -1       306 5.12645E-05 2.18897E-06 0.00000E+00
 -1       307 4.98918E-05 3.30529E-06 1.32349E-23
 -1       308 4.87907E-05 3.70469E-06 0.00000E+00
 -1       309 4.79342E-05 3.43793E-06 1.32349E-23
 -1       310 4.72870E-05 2.61272E-06-2.64698E-23
 -1       311 4.68029E-05 1.34880E-06 0.00000E+00
 -1       312 4.64247E-05-1.98521E-07 2.64698E-23
 -1       313 4.60917E-05-1.86719E-06 1.32349E-23
 -1       314 4.57397E-05-3.48516E-06 2.64698E-23
 -1       315 4.53052E-05-4.88162E-06-1.32349E-23
 -1       316 4.47308E-05-5.90396E-06 0.00000E+00
 -1       317 4.39636E-05-6.40851E-06-1.32349E-23
 -1       318 4.29641E-05-6.29344E-06-2.64698E-23
 -1       319 4.17045E-05-5.47016E-06 1.32349E-23
 -1       320 4.01655E-05-3.91092E-06 0.00000E+00
 -1       336 4.99473E-05-8.97253E-07 3.30872E-24
 -1       337 4.81842E-05-1.03542E-06 0.00000E+00
 -1       338 4.61430E-05-1.17407E-06-3.30872E-24
 -1       339 4.38259E-05-1.31309E-06-1.65436E-24
 -1       340 4.12354E-05-1.45278E-06 0.00000E+00
 -1       406 3.96474E-05 3.17562E-07 0.00000E+00
 -1       407 3.95278E-05 3.62901E-07-8.27181E-25
 -1       408 3.93923E-05 4.08211E-07-1.65436E-24
 -1       409 3.92408E-05 4.53435E-07-8.27181E-25
 -1       410 3.90734E-05 4.98485E-07-1.65436E-24
 -1       521 3.54014E-05 1.64679E-06-2.64698E-23
 -1       522 3.34225E-05 2.13082E-06 2.64698E-23
 -1       523 3.17663E-05 1.76549E-06 0.00000E+00
 -1       524 3.03896E-05 6.27774E-07 0.00000E+00
 -1       525 2.92368E-05-1.10912E-06 0.00000E+00
 -1       526 2.82330E-05-3.24952E-06 0.00000E+00
 -1       527 2.72888E-05-5.55009E-06 5.29396E-23
 -1       528 2.63109E-05-7.76114E-06-2.64698E-23
 -1       529 2.52101E-05-9.64313E-06 0.00000E+00
 -1       530 2.39023E-05-1.09708E-05 0.00000E+00
 -1       531 2.23268E-05-1.15834E-05 5.29396E-23
 -1       532 2.04357E-05-1.13505E-05 0.00000E+00
 -1       533 1.82147E-05-1.02406E-05 0.00000E+00
 -1       534 1.56736E-05-8.25628E-06 0.00000E+00
 -1       535 1.28402E-05-5.50833E-06 0.00000E+00
 -1       536 3.83664E-05 1.07186E-06 1.65436E-24
 -1       537 3.83640E-05 3.07458E-06 0.00000E+00
 -1       538 3.83622E-05 4.48521E-06-4.13590E-25
 -1       539 3.83619E-05 5.37248E-06 0.00000E+00
 -1       540 3.83618E-05 5.80491E-06 0.00000E+00
 -1       541 3.83620E-05 5.85102E-06 0.00000E+00
 -1       542 3.83622E-05 5.57914E-06 0.00000E+00
 -1       543 3.83623E-05 5.05758E-06 0.00000E+00
 -1       544 3.83623E-05 4.35451E-06-6.46235E-27
 -1       545 3.83623E-05 3.53810E-06 6.46235E-27
 -1       546 3.83622E-05 2.67645E-06 2.58494E-26
 -1       547 3.83622E-05 1.83767E-06-2.58494E-26
 -1       548 3.83622E-05 1.08986E-06 0.00000E+00
 -1       549 3.83625E-05 5.01151E-07-5.16988E-26
 -1       550 3.83628E-05 1.39764E-07 0.00000E+00
 -1       551 3.45854E-05-1.67257E-06 0.00000E+00
 -1       552 3.00525E-05-1.75517E-06 1.24077E-24
 -1       553 2.50410E-05-1.84010E-06 1.65436E-24
 -1       554 1.98194E-05-1.92734E-06 0.00000E+00
 -1       555 1.46566E-05-2.01575E-06 0.00000E+00
 -1       556 3.73835E-05 9.81302E-07 0.00000E+00
 -1       557 3.66268E-05 2.94607E-06 0.00000E+00
 -1       558 3.60786E-05 4.35886E-06 0.00000E+00
 -1       559 3.57158E-05 5.28035E-06 0.00000E+00
 -1       560 3.55152E-05 5.77099E-06 6.61744E-24
 -1       561 3.54535E-05 5.89157E-06 0.00000E+00
 -1       562 3.55079E-05 5.70292E-06 0.00000E+00
 -1       563 3.56554E-05 5.26591E-06 0.00000E+00
 -1       564 3.58732E-05 4.64143E-06 0.00000E+00
 -1       565 3.61383E-05 3.89039E-06 0.00000E+00
 -1       566 3.64280E-05 3.07372E-06 0.00000E+00
 -1       567 3.67194E-05 2.25233E-06-1.03398E-25
 -1       568 3.69899E-05 1.48716E-06 0.00000E+00
 -1       569 3.72165E-05 8.39049E-07 0.00000E+00
 -1       570 3.73765E-05 3.68879E-07 0.00000E+00
 -1       571 3.83958E-05 1.24095E-07 4.13590E-25
 -1       572 3.84284E-05 1.52550E-07 3.10193E-25
 -1       573 3.84613E-05 1.63145E-07-8.27181E-25
 -1       574 3.84943E-05 1.59954E-07-2.06795E-25
 -1       575 3.85272E-05 1.47065E-07 0.00000E+00
 -1       576 3.85603E-05 1.28597E-07-4.13590E-25
 -1       577 3.85933E-05 1.08670E-07-8.27181E-25
 -1       578 3.86263E-05 9.14062E-08 0.00000E+00
 -1       579 3.86593E-05 8.09306E-08 0.00000E+00
 -1       580 3.86923E-05 8.13667E-08 0.00000E+00
 -1       581 3.87254E-05 9.68376E-08 0.00000E+00
 -1       582 3.87584E-05 1.31462E-07-1.65436E-24
 -1       583 3.87914E-05 1.89354E-07 0.00000E+00
 -1       584 3.88244E-05 2.74586E-07 0.00000E+00
 -1       585 3.88574E-05 3.91205E-07 0.00000E+00
 -1       586 3.81998E-05 8.49420E-08 0.00000E+00
 -1       587 3.80219E-05 9.56905E-08-1.03398E-25
 -1       588 3.78438E-05 1.06319E-07 0.00000E+00
 -1       589 3.76794E-05 1.16777E-07 0.00000E+00
 -1       590 3.75429E-05 1.26950E-07 0.00000E+00
 -1       591 3.83298E-05 1.40890E-07-5.16988E-26
 -1       592 3.83012E-05 1.89949E-07-2.06795E-25
 -1       593 3.82779E-05 2.24502E-07-2.06795E-25
 -1       594 3.82588E-05 2.47626E-07 0.00000E+00
 -1       595 3.82428E-05 2.62435E-07-4.13590E-25
 -1       596 3.82287E-05 2.72022E-07 1.03398E-25
 -1       597 3.82153E-05 2.79478E-07 0.00000E+00
 -1       598 3.82017E-05 2.87892E-07 0.00000E+00
 -1       599 3.81865E-05 3.00351E-07 0.00000E+00
 -1       600 3.81686E-05 3.19944E-07 1.03398E-25
 -1       601 3.81469E-05 3.49759E-07 0.00000E+00
 -1       602 3.81202E-05 3.92889E-07 5.16988E-26
 -1       603 3.80875E-05 4.52423E-07 1.29247E-25
 -1       604 3.80475E-05 5.31481E-07 5.16988E-26
 -1       605 3.79992E-05 6.33136E-07 0.00000E+00
 -1       606 3.88964E-05 7.69822E-07 0.00000E+00
 -1       607 3.89014E-05 1.04391E-06 0.00000E+00
 -1       608 3.89060E-05 1.36243E-06 0.00000E+00
 -1       609 3.89105E-05 1.72227E-06 0.00000E+00
 -1       610 3.89150E-05 2.12028E-06 0.00000E+00
 -1       611 3.89194E-05 2.55329E-06 0.00000E+00
 -1       612 3.89237E-05 3.01809E-06 0.00000E+00
 -1       613 3.89281E-05 3.51151E-06 0.00000E+00
 -1       614 3.89324E-05 4.03036E-06 0.00000E+00
 -1       615 3.89368E-05 4.57144E-06 0.00000E+00
 -1       616 3.89411E-05 5.13157E-06-8.27181E-25
 -1       617 3.89454E-05 5.70755E-06 0.00000E+00
 -1       618 3.89497E-05 6.29619E-06 4.13590E-25
 -1       619 3.89539E-05 6.89431E-06 0.00000E+00
 -1       620 3.89582E-05 7.49872E-06 0.00000E+00
 -1       621 3.87096E-05 5.79264E-07 0.00000E+00
 -1       622 3.85417E-05 6.15783E-07 0.00000E+00
 -1       623 3.83838E-05 6.52298E-07 0.00000E+00
 -1       624 3.82331E-05 6.88755E-07 0.00000E+00
 -1       625 3.80870E-05 7.25153E-07 8.27181E-25
 -1       626 3.88434E-05 7.81042E-07 0.00000E+00
 -1       627 3.87820E-05 1.05825E-06 0.00000E+00
 -1       628 3.87075E-05 1.37094E-06 1.65436E-24
 -1       629 3.86211E-05 1.71525E-06 0.00000E+00
 -1       630 3.85243E-05 2.08730E-06 0.00000E+00
 -1       631 3.84186E-05 2.48321E-06 0.00000E+00
 -1       632 3.83053E-05 2.89906E-06 0.00000E+00
 -1       633 3.81861E-05 3.33095E-06 0.00000E+00
 -1       634 3.80623E-05 3.77499E-06-1.65436E-24
 -1       635 3.79353E-05 4.22727E-06 0.00000E+00
 -1       636 3.78068E-05 4.68390E-06-8.27181E-25
 -1       637 3.76781E-05 5.14096E-06 0.00000E+00
 -1       638 3.75506E-05 5.59456E-06 0.00000E+00
 -1       639 3.74258E-05 6.04080E-06 0.00000E+00
 -1       640 3.73051E-05 6.47576E-06 0.00000E+00
 -1       656 3.84575E-05 7.90926E-06-3.30872E-24
 -1       657 3.81306E-05 7.70440E-06-1.65436E-24
 -1       658 3.79123E-05 7.50017E-06 0.00000E+00
 -1       659 3.77322E-05 7.29610E-06-1.65436E-24
 -1       660 3.75158E-05 7.09139E-06 0.00000E+00
 -1       661 3.87754E-05 8.70164E-06-4.13590E-25
 -1       662 3.85995E-05 9.27192E-06 0.00000E+00
 -1       663 3.84328E-05 9.81756E-06 8.27181E-25
 -1       664 3.82752E-05 1.03397E-05 0.00000E+00
 -1       665 3.81261E-05 1.08392E-05 0.00000E+00
 -1       666 3.79851E-05 1.13171E-05 0.00000E+00
 -1       667 3.78519E-05 1.17743E-05-8.27181E-25
 -1       668 3.77262E-05 1.22117E-05 0.00000E+00
 -1       669 3.76076E-05 1.26302E-05-8.27181E-25
 -1       670 3.74957E-05 1.30306E-05 4.13590E-25
 -1       671 3.73903E-05 1.34138E-05 8.27181E-25
 -1       672 3.72910E-05 1.37806E-05-4.13590E-25
 -1       673 3.71975E-05 1.41318E-05 8.27181E-25
 -1       674 3.71092E-05 1.44681E-05 0.00000E+00
 -1       675 3.70263E-05 1.47904E-05 0.00000E+00
 -1       676 3.84000E-05 1.52923E-05 0.00000E+00
 -1       677 3.81089E-05 1.52533E-05 0.00000E+00
 -1       678 3.78178E-05 1.52143E-05 8.27181E-25
 -1       679 3.75270E-05 1.51755E-05-4.13590E-25
 -1       680 3.72364E-05 1.51366E-05 8.27181E-25
 -1       771 7.87684E-06 1.55763E-06 0.00000E+00
 -1       772 6.18444E-06 4.55742E-06 0.00000E+00
 -1       773 4.73127E-06 6.92347E-06 2.64698E-23
 -1       774 3.50082E-06 8.69812E-06 0.00000E+00
 -1       775 2.47699E-06 9.92414E-06 0.00000E+00
 -1       776 1.64313E-06 1.06451E-05-6.61744E-24
 -1       777 9.82475E-07 1.09051E-05 0.00000E+00
 -1       778 4.78059E-07 1.07488E-05 0.00000E+00
 -1       779 1.12831E-07 1.02212E-05 1.32349E-23
 -1       780-1.30433E-07 9.36792E-06 6.61744E-24
 -1       781-2.68984E-07 8.23485E-06 0.00000E+00
 -1       782-3.20208E-07 6.86826E-06 6.61744E-24
 -1       783-3.01506E-07 5.31462E-06 0.00000E+00
 -1       784-2.30334E-07 3.62072E-06 6.61744E-24
 -1       785-1.24204E-07 1.83343E-06 0.00000E+00
 -1       786 3.74767E-05 1.36956E-07 0.00000E+00
 -1       787 3.75076E-05 1.38356E-07 0.00000E+00
 -1       788 3.75383E-05 1.40977E-07-8.27181E-25
 -1       789 3.75694E-05 1.45426E-07-4.13590E-25
 -1       790 3.76005E-05 1.52438E-07 8.27181E-25
 -1       791 3.76317E-05 1.62753E-07-4.13590E-25
 -1       792 3.76628E-05 1.77341E-07-8.27181E-25
 -1       793 3.76940E-05 1.97179E-07 4.13590E-25
 -1       794 3.77252E-05 2.23615E-07 0.00000E+00
 -1       795 3.77564E-05 2.58004E-07 0.00000E+00
 -1       796 3.77875E-05 3.02262E-07 0.00000E+00
 -1       797 3.78187E-05 3.58318E-07 0.00000E+00
 -1       798 3.78499E-05 4.28931E-07 0.00000E+00
 -1       799 3.78809E-05 5.16882E-07-4.13590E-25
 -1       800 3.79120E-05 6.26170E-07 0.00000E+00
 -1       801 3.49186E-05 1.38877E-07 0.00000E+00
 -1       802 2.73970E-05 1.17500E-07 4.13590E-25
 -1       803 1.75143E-05 7.72855E-08-1.65436E-24
 -1       804 7.90189E-06 3.60099E-08 0.00000E+00
 -1       805 1.18713E-06 1.73497E-08 0.00000E+00
 -1       806 3.74087E-05 1.16068E-07 0.00000E+00
 -1       807 3.73682E-05 9.62271E-08 4.13590E-25
 -1       808 3.73263E-05 7.90671E-08-8.27181E-25
 -1       809 3.72825E-05 6.66332E-08 4.13590E-25
 -1       810 3.72362E-05 6.09670E-08 1.65436E-24
 -1       811 3.71865E-05 6.40795E-08 0.00000E+00
 -1       812 3.71327E-05 7.79799E-08 0.00000E+00
 -1       813 3.70742E-05 1.04673E-07 0.00000E+00
 -1       814 3.70101E-05 1.46162E-07 0.00000E+00
 -1       815 3.69397E-05 2.04450E-07 0.00000E+00
 -1       816 3.68622E-05 2.81537E-07 8.27181E-25
 -1       817 3.67770E-05 3.79427E-07 4.13590E-25
 -1       818 3.66832E-05 5.00119E-07-8.27181E-25
 -1       819 3.65802E-05 6.45608E-07 4.13590E-25
 -1       820 3.64673E-05 8.17889E-07 0.00000E+00
 -1       821 3.78983E-05 9.24755E-07 0.00000E+00
 -1       822 3.78511E-05 1.12195E-06-4.13590E-25
 -1       823 3.78042E-05 1.35718E-06 0.00000E+00
 -1       824 3.77567E-05 1.63516E-06-8.27181E-25
 -1       825 3.77091E-05 1.95625E-06 0.00000E+00
 -1       826 3.76615E-05 2.32073E-06 0.00000E+00
 -1       827 3.76138E-05 2.72447E-06 1.65436E-24
 -1       828 3.75662E-05 3.16326E-06 0.00000E+00
 -1       829 3.75184E-05 3.62933E-06-1.65436E-24
 -1       830 3.74707E-05 4.11485E-06 0.00000E+00
 -1       831 3.74231E-05 4.61003E-06-1.65436E-24
 -1       832 3.73755E-05 5.10503E-06 0.00000E+00
 -1       833 3.73279E-05 5.59005E-06 0.00000E+00
 -1       834 3.72809E-05 6.05532E-06 0.00000E+00
 -1       835 3.72337E-05 6.49304E-06 4.13590E-25
 -1       836 3.77483E-05 8.03788E-07 0.00000E+00
 -1       837 3.74973E-05 8.47700E-07 0.00000E+00
 -1       838 3.72104E-05 8.91535E-07-8.27181E-25
 -1       839 3.69086E-05 9.35090E-07 0.00000E+00
 -1       840 3.66129E-05 9.78576E-07 0.00000E+00
 -1       856 3.71758E-05 7.30802E-06 0.00000E+00
 -1       857 3.71608E-05 7.77243E-06 0.00000E+00
 -1       858 3.71458E-05 8.28050E-06 4.13590E-25
 -1       859 3.71305E-05 8.82401E-06 0.00000E+00
 -1       860 3.71152E-05 9.39470E-06 4.13590E-25
 -1       861 3.70999E-05 9.98429E-06 2.06795E-25
 -1       862 3.70845E-05 1.05845E-05-4.13590E-25
 -1       863 3.70691E-05 1.11871E-05-2.06795E-25
 -1       864 3.70537E-05 1.17837E-05 0.00000E+00
 -1       865 3.70384E-05 1.23660E-05 0.00000E+00
 -1       866 3.70230E-05 1.29258E-05 0.00000E+00
 -1       867 3.70076E-05 1.34549E-05 0.00000E+00
 -1       868 3.69923E-05 1.39449E-05 4.13590E-25
 -1       869 3.69770E-05 1.43876E-05 0.00000E+00
 -1       870 3.69616E-05 1.47749E-05-4.13590E-25
 -1       871 3.68743E-05 6.89513E-06 2.06795E-25
 -1       872 3.66091E-05 6.89373E-06 0.00000E+00
 -1       873 3.63723E-05 6.89214E-06 0.00000E+00
 -1       874 3.61424E-05 6.89030E-06-7.75482E-26
 -1       875 3.58975E-05 6.88823E-06-1.03398E-25
 -1       876 3.70800E-05 7.31228E-06 0.00000E+00
 -1       877 3.69622E-05 7.75428E-06 0.00000E+00
 -1       878 3.68362E-05 8.21845E-06-3.30872E-24
 -1       879 3.67031E-05 8.70196E-06 0.00000E+00
 -1       880 3.65638E-05 9.20194E-06 0.00000E+00
 -1       881 3.64194E-05 9.71554E-06 0.00000E+00
 -1       882 3.62710E-05 1.02399E-05 0.00000E+00
 -1       883 3.61196E-05 1.07723E-05-8.27181E-25
 -1       884 3.59663E-05 1.13097E-05-1.65436E-24
 -1       885 3.58121E-05 1.18495E-05 0.00000E+00
 -1       886 3.56580E-05 1.23887E-05 1.65436E-24
 -1       887 3.55053E-05 1.29245E-05 0.00000E+00
 -1       888 3.53548E-05 1.34540E-05 0.00000E+00
 -1       889 3.52074E-05 1.39744E-05 0.00000E+00
 -1       890 3.50644E-05 1.44829E-05-4.13590E-25
 -1       891 3.66659E-05 1.50780E-05 0.00000E+00
 -1       892 3.63766E-05 1.50574E-05 0.00000E+00
 -1       893 3.60681E-05 1.50368E-05-4.13590E-25
 -1       894 3.57300E-05 1.50163E-05 2.06795E-25
 -1       895 3.53523E-05 1.49958E-05-1.03398E-25
 -1       956 3.62995E-05 1.27866E-06 0.00000E+00
 -1       957 3.62542E-05 1.56752E-06-4.13590E-25
 -1       958 3.62086E-05 1.88247E-06 0.00000E+00
 -1       959 3.61630E-05 2.22029E-06 0.00000E+00
 -1       960 3.61174E-05 2.57778E-06 8.27181E-25
 -1       961 3.60717E-05 2.95171E-06 0.00000E+00
 -1       962 3.60260E-05 3.33885E-06 8.27181E-25
 -1       963 3.59803E-05 3.73598E-06 8.27181E-25
 -1       964 3.59347E-05 4.13986E-06 1.65436E-24
 -1       965 3.58890E-05 4.54726E-06 8.27181E-25
 -1       966 3.58433E-05 4.95494E-06 0.00000E+00
 -1       967 3.57976E-05 5.35969E-06 0.00000E+00
 -1       968 3.57520E-05 5.75826E-06 0.00000E+00
 -1       969 3.57064E-05 6.14744E-06 0.00000E+00
 -1       970 3.56610E-05 6.52400E-06-1.65436E-24
 -1       971 3.55735E-05 7.25555E-06 8.27181E-25
 -1       972 3.55303E-05 7.66482E-06 0.00000E+00
 -1       973 3.54869E-05 8.10837E-06-8.27181E-25
 -1       974 3.54435E-05 8.58178E-06 0.00000E+00
 -1       975 3.54000E-05 9.08062E-06 0.00000E+00
 -1       976 3.53565E-05 9.60045E-06-4.13590E-25
 -1       977 3.53130E-05 1.01368E-05 0.00000E+00
 -1       978 3.52695E-05 1.06853E-05 8.27181E-25
 -1       979 3.52260E-05 1.12414E-05 1.65436E-24
 -1       980 3.51825E-05 1.18008E-05-8.27181E-25
 -1       981 3.51391E-05 1.23589E-05-1.65436E-24
 -1       982 3.50956E-05 1.29114E-05-8.27181E-25
 -1       983 3.50522E-05 1.34538E-05 1.65436E-24
 -1       984 3.50090E-05 1.39816E-05 0.00000E+00
 -1       985 3.49660E-05 1.44904E-05 8.27181E-25
 -3
    1PSTEP                         2           1           1          
  100CL  101 2.50000E-01         409                     0    1           1
 -4  STRESS      6    1
 -5  SXX         1    4    1    1
 -5  SYY         1    4    2    2
 -5  SZZ         1    4    3    3
 -5  SXY         1    4    1    2
 -5  SYZ         1    4    2    3
 -5  SZX         1    4    3    1
 -1         1-8.63905E+05-3.98585E+05-1.75233E+05-5.58306E+05-4.36557E-11-1.28784E-08
 -1         2 1.44473E+03 1.59915E+05 4.70696E+03 2.67231E+02-8.25366E-11-4.68037E-09
 -1         3-1.82480E+01-3.60991E+05 8.29988E+01-6.58655E+01-5.09583E-11 8.34461E-09
 -1         5-2.14655E+00 1.29810E+05 3.38471E+00-5.15946E-02 5.13011E-11 1.34605E-10
 -1         8-4.07007E+05-1.77336E+05-1.38779E+04-3.08515E+05 1.36424E-11-2.61934E-10
 -1         9-6.98524E+05-1.82664E+05-6.93962E+04-2.42747E+05 1.71713E-09-1.42609E-09
 -1        10-2.67805E+02-3.76080E+05-4.78147E+02-4.36342E+02-1.75646E-09-1.07055E-08
 -1        12-7.57117E-01 1.29817E+05 1.09713E+02-1.07348E-01 1.50202E-10 6.49379E-10
 -1        15 1.07553E+03 5.91058E+02 3.47662E+03 1.21405E+00-1.32211E-08-5.27784E-06
 -1        16-1.96249E+06-6.33010E+05-3.05149E+05-6.44103E+05 5.96871E-09-2.39622E-09
 -1        17-4.32442E+05-2.68029E+05-8.31153E+04-2.53401E+05-2.72557E-09-8.17818E-10
 -1        18 1.65533E+04 1.71624E+03-5.83626E+03-3.05375E+04 3.75849E-10 4.38831E-11
 -1        19 4.07737E+04 4.89216E+04-1.58299E+02 7.96539E+03-4.34466E-10 9.91713E-10
 -1        20-1.68822E+04-1.92376E+05-4.24159E+04 1.43331E+04 1.78829E-09 2.91645E-10
 -1        21-1.82277E+01-1.11628E+05-3.60529E+02-2.22986E+01-1.11931E-09-2.50503E-09
 -1        24-1.72164E+06-6.03026E+05-2.45941E+05-7.35749E+05-8.08844E-09-4.25886E-09
 -1        25 1.47185E+04-3.68667E+03 8.68209E+03-5.51220E+04 1.98452E-10 2.45491E-09
 -1        26-9.39628E+03 3.35181E+04-6.57550E+03-4.72738E+03 7.68523E-10 9.00963E-10
 -1        27-3.08143E+04-1.05563E+05-3.96076E+04 2.37941E+04 2.98852E-09 1.04016E-09
 -1        28 8.62033E+03-3.08427E+04 6.30021E+03 9.88913E+03 2.33294E-09-3.70866E-09
 -1        32-4.12998E+05-6.51887E+04 1.76683E+05-2.77034E+05-8.10542E-09 5.28161E-09
 -1        33-6.04092E+04 3.10349E+04 1.10060E+04-1.80234E+04 6.79573E-10 8.53864E-10
 -1        34-7.84059E+04-7.79910E+03 1.86303E+02 2.41057E+04 1.67535E-09 2.64239E-09
 -1        35-8.77189E+03-1.22711E+04-4.77860E+02 1.94412E+04 2.23502E-09 1.69651E-09
 -1        51 8.24136E+03-2.04643E+05 1.98529E+04-5.03529E+05 2.25555E-10 8.89122E-09
 -1        52 3.99436E+03-2.02592E+05 1.30353E+04-5.87269E+05 4.69299E-10 2.31739E-08
 -1        53 2.40205E+03-2.07359E+05 1.13525E+04-5.01826E+05 1.38243E-10 9.39326E-09
 -1        54 7.88660E+03-2.05269E+05 1.82958E+04-5.89087E+05 1.96451E-10-1.71894E-09
 -1        55 1.81377E+04-2.11868E+05 3.29159E+04-5.01616E+05 3.85626E-10 3.45244E-09
 -1        56-1.65949E+06-1.87755E+05-1.29607E+05-6.40153E+05 7.09406E-11-4.19095E-09
 -1        57-1.71217E+06-3.04313E+05-8.73494E+04-6.34462E+05 2.05546E-10-1.54614E-10
 -1        58-1.68525E+06-2.29056E+05-3.05153E+04-6.32354E+05 7.36691E-10 3.38514E-09
 -1        59-1.68237E+06-2.55894E+05-1.82172E+04-6.43835E+05 2.97462E-10-4.77485E-10
 -1        60-1.68905E+06-2.34793E+05-7.13386E+03-6.31278E+05 1.00727E-10-1.67302E-09
 -1        61-1.67827E+06-2.48901E+05-4.05756E+03-6.44764E+05 1.14898E-09 2.95631E-09
 -1        62-1.68931E+06-2.35877E+05-1.95510E+03-6.31480E+05 4.42014E-10 7.50315E-09
 -1        63-1.67859E+06-2.47157E+05-1.61163E+03-6.43820E+05-1.68257E-11-3.00105E-10
 -1        64-1.68869E+06-2.36532E+05-1.84669E+03-6.32213E+05 1.06866E-11 9.48603E-10
 -1        65-1.68061E+06-2.46311E+05-3.70628E+03-6.41866E+05 1.63197E-10 3.27827E-09
 -1        66-1.68728E+06-2.36759E+05-6.51015E+03-6.33407E+05-4.70664E-10-3.58341E-10
 -1        67-1.68653E+06-2.50401E+05-1.65340E+04-6.38404E+05-2.20780E-10-2.91038E-11
 -1        68-1.68278E+06-2.32620E+05-2.77415E+04-6.35602E+05 1.27056E-09-3.14685E-10
 -1        69-1.71551E+06-2.92460E+05-7.93197E+04-6.27709E+05 1.39880E-09-1.49430E-09
 -1        70-1.65852E+06-1.95954E+05-1.17747E+05-6.43646E+05-4.83851E-10 3.01225E-09
 -1        86-7.23812E+02 1.58516E+05 5.05319E+03-1.33623E+02 6.63704E-10-3.37988E-09
 -1        87 4.80650E+03 1.61551E+05 1.05282E+04 5.46817E+02 1.09173E-09-2.73852E-09
 -1        88-4.07567E+03 1.56880E+05 1.61344E+04-4.13208E+02 1.62254E-09 1.73989E-09
 -1        89 3.03759E+04 1.73448E+05 4.34887E+04 1.16547E+03 2.47519E-09 1.72957E-09
 -1        90-2.62094E+04 1.46624E+05 6.14521E+04-7.52094E+02 2.79761E-09 1.31803E-09
 -1       121-3.46439E+01-3.61108E+05 8.29746E+01 3.29133E+01 1.76694E-10 7.74889E-10
 -1       122 9.03241E+00-3.60972E+05 1.81863E+02-1.31879E+02-6.74463E-10 4.87307E-09
 -1       123-5.46913E+01-3.61127E+05 2.99037E+02 9.88519E+01 5.90063E-10-3.00133E-10
 -1       124 3.44650E+02-3.60765E+05 7.64448E+02-3.26938E+02-1.25328E-09 2.82489E-09
 -1       125-2.73396E+02-3.61317E+05 1.17693E+03 2.27994E+02 8.48331E-10 6.04177E-09
 -1       191-2.36591E+00 1.29821E+05 4.06102E+00 2.56372E-02 8.58044E-11 4.68708E-09
 -1       192-2.45719E+00 1.29810E+05 7.16619E+00 1.57307E-01 1.30065E-10 1.52443E-08
 -1       193-3.19215E+00 1.29821E+05 1.33425E+01-1.84069E-01 1.32289E-10 8.70978E-09
 -1       194-3.45706E+00 1.29811E+05 2.71061E+01 4.95541E-01 6.29381E-11-5.30940E-09
 -1       195-4.78042E+00 1.29820E+05 5.30373E+01-3.14608E-01 2.28361E-10-7.28778E-09
 -1       251 1.43065E+05-2.53686E+04 5.93104E+04 2.15006E+03 8.77662E-11 3.19778E-09
 -1       252 1.69624E+05 2.93652E+04 4.20035E+04-7.51037E+03-2.59320E-10-4.85261E-09
 -1       253 1.53172E+05-3.92927E+03 1.53542E+04 1.62183E+03 5.07612E-11-1.90994E-11
 -1       254 1.57758E+05 4.54281E+03 9.68375E+03-6.67112E+03 2.94278E-10-5.37204E-09
 -1       255 1.54897E+05-6.07492E+02 3.96741E+03 1.31093E+03 1.85935E-10 2.66004E-09
 -1       256 1.55708E+05 7.19768E+02 2.40759E+03-6.21025E+03 3.89555E-10-2.26464E-10
 -1       257 1.55207E+05-1.06556E+02 1.24107E+03 1.16096E+03-1.59183E-10-6.93433E-10
 -1       258 1.55395E+05 2.23300E+02 1.10070E+03-6.05845E+03-8.68789E-11-2.94068E-09
 -1       259 1.55206E+05-1.08818E+02 1.26246E+03 1.15913E+03-8.86757E-11 2.15829E-09
 -1       260 1.55717E+05 7.39601E+02 2.46846E+03-6.20342E+03-4.78565E-10 2.96072E-09
 -1       261 1.54890E+05-6.24845E+02 4.07860E+03 1.30593E+03 6.76096E-10 8.71523E-10
 -1       262 1.57818E+05 4.67373E+03 9.95830E+03-6.65638E+03 6.76707E-10 7.25777E-10
 -1       263 1.53120E+05-4.04208E+03 1.57969E+04 1.61209E+03-1.05399E-09-1.08957E-09
 -1       264 1.70010E+05 3.02098E+04 4.32062E+04-7.48677E+03-1.55259E-09 4.58840E-10
 -1       265 1.42730E+05-2.60967E+04 6.10211E+04 2.13620E+03-1.13414E-09 3.04499E-09
 -1       266-1.94708E+04-9.10518E+03 4.56811E+04-2.59759E+01-2.07128E-08-8.29872E-06
 -1       267 2.25719E+04 1.06113E+04 3.22882E+04 2.99726E+01-4.09905E-08-1.63902E-05
 -1       268-3.02685E+03-1.50291E+03 1.20013E+04-3.81890E+00-3.29710E-08-1.31494E-05
 -1       269 3.57381E+03 1.79860E+03 7.80073E+03 4.44857E+00-2.48704E-08-9.91112E-06
 -1       270-5.36433E+02-2.95527E+02 3.76552E+03-6.03678E-01-1.83220E-08-7.30730E-06
 -1       271-1.91281E+06-2.37683E+05-1.47080E+05-7.43903E+05 1.27329E-11 7.27596E-10
 -1       272-1.95253E+06-3.58186E+05-9.45791E+04-7.57832E+05 1.16188E-10-3.49246E-09
 -1       273-1.94047E+06-2.74336E+05-3.47395E+04-7.37397E+05-3.94721E-10-9.11314E-10
 -1       274-1.92037E+06-3.13122E+05-1.94645E+04-7.67743E+05-5.51154E-10-5.51154E-10
 -1       275-1.94456E+06-2.77862E+05-8.08119E+03-7.35964E+05-3.21961E-10 1.38243E-09
 -1       276-1.91557E+06-3.08936E+05-4.30274E+03-7.70033E+05-6.06633E-10 5.57520E-10
 -1       277-1.94542E+06-2.77907E+05-2.10397E+03-7.35437E+05-3.75167E-11 2.16755E-09
 -1       278-1.91475E+06-3.08806E+05-1.53159E+03-7.70666E+05 2.16681E-09 2.10321E-11
 -1       279-1.94546E+06-2.77899E+05-1.64246E+03-7.35407E+05-6.75186E-10 2.08934E-09
 -1       280-1.91530E+06-3.08812E+05-3.00975E+03-7.70182E+05-1.97133E-10 6.82792E-09
 -1       281-1.94479E+06-2.77970E+05-5.49662E+03-7.35863E+05 4.09273E-10 3.61933E-09
 -1       282-1.91880E+06-3.11320E+05-1.31356E+04-7.68243E+05-7.22366E-10 2.61025E-10
 -1       283-1.94181E+06-2.75842E+05-2.34288E+04-7.37082E+05-7.99446E-10-3.36149E-09
 -1       284-1.94096E+06-3.41102E+05-6.37142E+04-7.60838E+05-8.21387E-11-5.44969E-09
 -1       285-1.92282E+06-2.51544E+05-9.91386E+04-7.41871E+05 3.93811E-10-2.17551E-09
 -1       301 7.33930E+03-4.64642E+03 5.73875E+04-1.42746E+04-7.69433E-10 1.26437E-09
 -1       302 7.87876E+03 9.92613E+03 4.14457E+04-2.09907E+04 9.98625E-10 1.98315E-09
 -1       303 3.29868E+02 5.07486E+02 3.81583E+04-1.42960E+04-2.92857E-10 1.38380E-09
 -1       304 1.48777E+04 1.63791E+04 6.41948E+04-2.09355E+04 5.61158E-10 1.17006E-09
 -1       305 1.47495E+04-1.10694E+04 1.07724E+05-1.42995E+04-3.45608E-10 2.22371E-10
 -1       306-2.06383E+06-2.36045E+05-1.57194E+05-8.03064E+05 1.45519E-09-8.92760E-09
 -1       307-2.13862E+06-3.75286E+05-1.07204E+05-7.83193E+05 1.29739E-09-1.89175E-10
 -1       308-2.09862E+06-2.85767E+05-3.69779E+04-7.89346E+05 1.69575E-09 2.84126E-09
 -1       309-2.09627E+06-3.19518E+05-2.24326E+04-8.01765E+05-9.22512E-10 1.55160E-09
 -1       310-2.10603E+06-2.90856E+05-8.67598E+03-7.84843E+05 1.73346E-10 9.95442E-10
 -1       311-2.08687E+06-3.14521E+05-5.04258E+03-8.08138E+05 2.93531E-09 7.12191E-10
 -1       312-2.10805E+06-2.90587E+05-2.46344E+03-7.83063E+05-1.23492E-11-5.57122E-10
 -1       313-2.08511E+06-3.14530E+05-2.22283E+03-8.09649E+05-3.55445E-09 3.61524E-10
 -1       314-2.10780E+06-2.90816E+05-2.66813E+03-7.83354E+05-6.65750E-10-4.47812E-09
 -1       315-2.08788E+06-3.13790E+05-5.63891E+03-8.07008E+05-4.83965E-10 4.08500E-09
 -1       316-2.10524E+06-2.91374E+05-9.80048E+03-7.85668E+05 1.44966E-09 3.29237E-09
 -1       317-2.09877E+06-3.19256E+05-2.53865E+04-7.99576E+05-8.54243E-10-2.97223E-09
 -1       318-2.09689E+06-2.85546E+05-4.18626E+04-7.90688E+05-2.47746E-09 2.88492E-09
 -1       319-2.14638E+06-3.82827E+05-1.21402E+05-7.79067E+05-2.49202E-10 2.09366E-09
 -1       320-2.05782E+06-2.28869E+05-1.77967E+05-8.05794E+05 3.63798E-09-1.22964E-09
 -1       336 2.93857E+02-3.90923E+05-2.06912E+03 2.08175E+02-3.40867E-09-2.70575E-09
 -1       337-7.41700E+02-3.91524E+05-2.26765E+03-5.87296E+02-6.16495E-09 3.13457E-09
 -1       338 1.94783E+02-3.90985E+05-2.84149E+03 3.78315E+02-4.49813E-09 3.98904E-09
 -1       339-2.93719E+03-3.92864E+05-6.22797E+03-9.25164E+02-8.28720E-09 4.87807E-09
 -1       340 2.00980E+03-3.89594E+05-9.58707E+03 5.44314E+02-5.50426E-09 5.38057E-09
 -1       406 7.63574E+00 1.29815E+05 2.16621E+02 4.17342E-01 3.37891E-10-1.91581E-08
 -1       407 7.47632E+01 1.29855E+05 4.60382E+02-5.66455E+00 2.99849E-12-3.96885E-08
 -1       408 2.36227E+02 1.29782E+05 9.19517E+02 5.29589E+00 3.63457E-10-1.84332E-08
 -1       409 9.93537E+02 1.30149E+05 2.07016E+03-4.75245E+01 2.02363E-11 1.10197E-09
 -1       410 2.85597E+03 1.29521E+05 4.22621E+03 4.31371E+01 3.79714E-10-1.83445E-09
 -1       521-3.88768E+06-4.47698E+05-2.90906E+05-1.51037E+06 3.47063E-09-6.37374E-09
 -1       522-4.02703E+06-6.99866E+05-1.97743E+05-1.47276E+06-4.58385E-10-3.21052E-09
 -1       523-3.95241E+06-5.37710E+05-6.83942E+04-1.48460E+06-1.11777E-09 9.85892E-10
 -1       524-3.94826E+06-5.98668E+05-4.12842E+04-1.50753E+06-1.21872E-09 6.62112E-10
 -1       525-3.96596E+06-5.46695E+05-1.59843E+04-1.47635E+06 1.70530E-10-1.21145E-09
 -1       526-3.93215E+06-5.88666E+05-9.22045E+03-1.51782E+06 9.06645E-10 2.74974E-09
 -1       527-3.96852E+06-5.47334E+05-4.42579E+03-1.47447E+06 2.39129E-09 1.50146E-09
 -1       528-3.93219E+06-5.85201E+05-3.79485E+03-1.51645E+06-1.81848E-09-1.85108E-09
 -1       529-3.96586E+06-5.50148E+05-4.44463E+03-1.47769E+06-6.07542E-10-8.77890E-10
 -1       530-3.94189E+06-5.78426E+05-9.08489E+03-1.50585E+06 4.24507E-10 2.21712E-09
 -1       531-3.95869E+06-5.54249E+05-1.59369E+04-1.48496E+06-7.37884E-10 7.63066E-10
 -1       532-3.96510E+06-5.81217E+05-4.09095E+04-1.48756E+06-2.34456E-09-5.16957E-09
 -1       533-3.94268E+06-5.47713E+05-6.78871E+04-1.49584E+06 1.03410E-09-1.79716E-09
 -1       534-4.04567E+06-6.79780E+05-1.96244E+05-1.45131E+06 1.94268E-09 4.86762E-09
 -1       535-3.87882E+06-4.57725E+05-2.88602E+05-1.52062E+06-5.89353E-09 4.67116E-09
 -1       536-4.56142E+03-1.10543E+04 2.54840E+04 2.64109E+02-9.25155E-10 4.88581E-09
 -1       537 7.08542E+03 1.27917E+04 1.81309E+04-1.00648E+03-3.99762E-09 1.30967E-10
 -1       538-2.10291E+02-1.73235E+03 6.57816E+03 2.41801E+02 3.53737E-10 1.51704E-09
 -1       539 1.96518E+03 2.00062E+03 4.18445E+03-9.80860E+02 1.67509E-09 5.15075E-09
 -1       540 5.54376E+02-2.69650E+02 1.66376E+03 2.38497E+02 3.66825E-10 1.49453E-09
 -1       541 1.03712E+03 3.09027E+02 9.86171E+02-9.76232E+02-5.64103E-10 2.05944E-09
 -1       542 7.15116E+02-4.01652E+01 4.01335E+02 2.37169E+02-1.04828E-09-2.61846E-09
 -1       543 8.27264E+02 3.93361E+01 2.02390E+02-9.74225E+02-3.16488E-10-1.81609E-09
 -1       544 7.62554E+02 1.06800E+00 3.67914E+01 2.36489E+02 3.15293E-10-1.80869E-10
 -1       545 7.50349E+02-4.36233E+01-1.00502E+02-9.73406E+02 6.33773E-11 1.31269E-10
 -1       546 7.91273E+02 4.32920E+01-2.45127E+02 2.36351E+02 2.77343E-10 1.25434E-09
 -1       547 6.19271E+02-3.22204E+02-6.54490E+02-9.73621E+02-1.14318E-09-1.11604E-09
 -1       548 8.93791E+02 2.79337E+02-1.06324E+03 2.36703E+02-1.22257E-09-7.88532E-10
 -1       549-1.40811E+02-2.05993E+03-2.90400E+03-9.74310E+02-6.35939E-10 1.77255E-09
 -1       550 1.55246E+03 1.77888E+03-4.13317E+03 2.37039E+02 2.72138E-12-1.45587E-09
 -1       551 2.97860E+03-2.06460E+05 1.16043E+04-3.54334E+05-1.51667E-08-2.51384E-09
 -1       552 5.83892E+03-2.05795E+05 1.48392E+04-5.04109E+05-1.15797E-08 5.24415E-09
 -1       553 3.57782E+03-2.08513E+05 2.31334E+04-3.53225E+05-1.90557E-08 2.55022E-09
 -1       554 1.69034E+04-1.97805E+05 4.91089E+04-5.04589E+05-1.21145E-08 4.36603E-09
 -1       555 1.78836E+04-2.17987E+05 8.83664E+04-3.53733E+05-1.92449E-08-6.18456E-10
 -1       556 2.80293E+04-6.54590E+04 2.29923E+04-8.83023E+04-3.72893E-09-4.23825E-09
 -1       557 5.46733E+04-8.79818E+04 1.20063E+04-1.10208E+05-2.25555E-10-1.34241E-09
 -1       558 2.85037E+04-6.88453E+04 4.95484E+03-8.53522E+04-1.94996E-09-1.57343E-10
 -1       559 5.17150E+04-9.13348E+04 2.48131E+03-1.11356E+05 2.99769E-09 9.16316E-10
 -1       560 2.81495E+04-6.85912E+04 1.07794E+03-8.55366E+04 2.45927E-09 2.02363E-09
 -1       561 5.10047E+04-9.12472E+04 5.49028E+02-1.11796E+05 1.22782E-09 1.89493E-09
 -1       562 2.78308E+04-6.83621E+04 2.30445E+02-8.57713E+04 3.56886E-09-1.71610E-09
 -1       563 5.06124E+04-9.10818E+04 1.27136E+02-1.12046E+05 3.70801E-09-9.77320E-09
 -1       564 2.76313E+04-6.82288E+04 4.80318E+01-8.59154E+04 5.88261E-09-1.28784E-09
 -1       565 5.04115E+04-9.09979E+04 2.00723E+01-1.12170E+05 3.30147E-09-1.65392E-09
 -1       566 2.75644E+04-6.81814E+04-1.78807E+01-8.59659E+04 1.18007E-09-1.86265E-09
 -1       567 5.03790E+04-9.09815E+04-6.78688E+01-1.12157E+05 2.81602E-09-7.15954E-09
 -1       568 2.76472E+04-6.82378E+04-1.69124E+02-8.59387E+04 1.03955E-09 1.12868E-09
 -1       569 5.01762E+04-9.08696E+04-4.01008E+02-1.11718E+05-1.26465E-09 3.13958E-09
 -1       570 2.81611E+04-6.87575E+04-8.13885E+02-8.60308E+04 7.47605E-10-1.68757E-09
 -1       571 9.41325E+04 3.41132E+03 5.05166E+03-2.36379E+04-2.16232E-10 6.79165E-10
 -1       572 9.48859E+04 1.18679E+03 2.47474E+03-2.59113E+04 1.08139E-09-7.72161E-10
 -1       573 9.44388E+04 2.82988E+02 1.09935E+03-2.35762E+04-1.88934E-08-1.42563E-10
 -1       574 9.45292E+04 9.12857E+01 5.50638E+02-2.59806E+04-4.07063E-08 4.11546E-10
 -1       575 9.44750E+04 1.17120E+01 2.59465E+02-2.35680E+04-2.04793E-08 9.59517E-10
 -1       576 9.44816E+04 2.15094E+00 1.31948E+02-2.59899E+04-4.62478E-10-8.19000E-10
 -1       577 9.44803E+04-2.91413E+00 6.48958E+01-2.35669E+04-9.11882E-10 1.65983E-09
 -1       578 9.44758E+04-1.75006E+00 3.51698E+01-2.59909E+04-1.66187E-09 5.71163E-10
 -1       579 9.44837E+04-2.59812E+00 2.12737E+01-2.35670E+04-1.53250E-09-1.78738E-09
 -1       580 9.44794E+04-2.58916E+00 1.93702E+01-2.59894E+04-1.27397E-09-6.56200E-10
 -1       581 9.44888E+04-3.42954E+00 2.59799E+01-2.35684E+04-3.10138E-10-1.41608E-09
 -1       582 9.44905E+04 1.57372E+00 4.90076E+01-2.59752E+04 1.61435E-11-3.66117E-09
 -1       583 9.44935E+04 1.54293E+01 9.42203E+01-2.35812E+04-7.09406E-11-1.10822E-09
 -1       584 9.45308E+04 9.00859E+01 2.10842E+02-2.58698E+04-1.17871E-09-2.82455E-10
 -1       585 9.44768E+04 2.77352E+02 4.28727E+02-2.36740E+04-1.57797E-10-2.52112E-09
 -1       586-1.18394E+03 3.06309E+04-1.55415E+03-8.05455E+04 2.66027E-10-1.45747E-10
 -1       587-2.71290E+02 3.04255E+04-1.90522E+02-8.86338E+04 4.39286E-10 4.21332E-09
 -1       588 3.05634E+02 3.04644E+04 1.06579E+03-8.04964E+04 2.37378E-10 2.25734E-08
 -1       589 1.58688E+03 3.10442E+04 3.12694E+03-8.85604E+04 3.81078E-10 3.76685E-08
 -1       590 4.58962E+03 3.00616E+04 6.70644E+03-8.06191E+04 2.12822E-10 1.99734E-08
 -1       591-2.03128E+04-5.84772E+03-6.82021E+03-1.05669E+04 1.12257E-09 2.79215E-09
 -1       592-2.09504E+04-7.52399E+03-3.69411E+03-1.23469E+04-3.96312E-09-6.19912E-09
 -1       593-2.10021E+04-5.34532E+03-1.53788E+03-1.10591E+04-2.68608E-09-4.14923E-09
 -1       594-1.99995E+04-6.53284E+03-7.67047E+02-1.23938E+04 1.06664E-09 1.56089E-09
 -1       595-2.10547E+04-5.34320E+03-3.52524E+02-1.10816E+04-8.85507E-10 1.21562E-09
 -1       596-1.99350E+04-6.48748E+03-1.79748E+02-1.23869E+04 1.12095E-10-7.13690E-10
 -1       597-2.10613E+04-5.34761E+03-9.90184E+01-1.10824E+04 2.85709E-10-1.06786E-09
 -1       598-1.99290E+04-6.48574E+03-8.16884E+01-1.23851E+04-3.32022E-10-3.16828E-09
 -1       599-2.10609E+04-5.34753E+03-1.06919E+02-1.10824E+04 1.59065E-09 6.08588E-09
 -1       600-1.99361E+04-6.48800E+03-2.00727E+02-1.23871E+04-5.72527E-10 1.92142E-09
 -1       601-2.10528E+04-5.34254E+03-3.97007E+02-1.10811E+04-3.10138E-10-2.77885E-09
 -1       602-2.00092E+04-6.53904E+03-8.65928E+02-1.23943E+04-4.86580E-11-1.64982E-09
 -1       603-2.09930E+04-5.34560E+03-1.73674E+03-1.10560E+04 3.93811E-10 1.13016E-09
 -1       604-2.10867E+04-7.65456E+03-4.17217E+03-1.23364E+04-2.65345E-10 1.59412E-09
 -1       605-2.02101E+04-5.91620E+03-7.70265E+03-1.05039E+04-2.86491E-11-2.21326E-09
 -1       606 1.34652E+04-4.53992E+03-8.18022E+03 1.31940E+04-1.18471E-08 2.16914E-10
 -1       607 1.20645E+04-1.46424E+03-4.07354E+03 1.48111E+04-2.23845E-08 1.56888E-11
 -1       608 1.28649E+04-2.45881E+02-1.82358E+03 1.30887E+04-1.02837E-08 2.67050E-10
 -1       609 1.27087E+04-6.61461E+01-9.21288E+02 1.49276E+04-1.64437E-09-1.46542E-09
 -1       610 1.27973E+04 9.65284E+00-4.39642E+02 1.30770E+04-3.11957E-09 8.09223E-10
 -1       611 1.27698E+04 1.26221E+01-2.21903E+02 1.49404E+04-4.19686E-09-3.36422E-09
 -1       612 1.27827E+04 1.38399E+01-1.05925E+02 1.30758E+04-2.02954E-09-1.52181E-09
 -1       613 1.27738E+04 1.37817E+01-4.84196E+01 1.49419E+04-2.71643E-09 3.75860E-09
 -1       614 1.27759E+04 1.17306E+01-1.34394E+01 1.30754E+04-2.73758E-10 5.74971E-09
 -1       615 1.27722E+04 1.41557E+01 1.49034E+01 1.49422E+04 2.77669E-09 1.80080E-10
 -1       616 1.27708E+04 1.25917E+01 4.97301E+01 1.30755E+04-1.52249E-09 3.31170E-10
 -1       617 1.27780E+04 2.50721E+01 1.15241E+02 1.49420E+04 4.89081E-10 4.68799E-09
 -1       618 1.27605E+04 4.60564E+01 2.33050E+02 1.30756E+04 1.15733E-10 2.64504E-09
 -1       619 1.28601E+04 2.05557E+02 5.23772E+02 1.49417E+04 1.54728E-10 1.00044E-11
 -1       620 1.26828E+04 5.99332E+02 1.05295E+03 1.30753E+04 1.60003E-09 1.66028E-09
 -1       621 1.71100E+02 1.04598E+05 1.61096E+03 3.15054E+03-1.03788E-09-4.82942E-10
 -1       622 2.19786E+02 1.05003E+05 1.32920E+03 4.66624E+03-5.59453E-10 3.10845E-09
 -1       623 6.90064E+00 1.04721E+05 1.46951E+03 3.13554E+03-1.02247E-09 7.48139E-09
 -1       624 6.62323E+02 1.05407E+05 2.74573E+03 4.68086E+03-5.91399E-10 4.70362E-09
 -1       625 5.85392E+02 1.04192E+05 4.72826E+03 3.13601E+03-9.15179E-10-7.97556E-10
 -1       626 8.46474E+04 2.34855E+04 1.68010E+03 4.58119E+04-4.44516E-10-3.11047E-10
 -1       627 8.34834E+04 2.43447E+04 8.09202E+02 4.76682E+04-1.05751E-09-9.74410E-10
 -1       628 8.47157E+04 2.26883E+04 3.42101E+02 4.60665E+04 1.49430E-09 5.27791E-09
 -1       629 8.32447E+04 2.41531E+04 1.67500E+02 4.77827E+04 6.86714E-09 7.58808E-09
 -1       630 8.47234E+04 2.26486E+04 7.76284E+01 4.60753E+04 1.91312E-09-3.46364E-09
 -1       631 8.32185E+04 2.41476E+04 4.16588E+01 4.77864E+04 3.33785E-10-5.83995E-11
 -1       632 8.47219E+04 2.26501E+04 2.76180E+01 4.60731E+04-1.68211E-09-1.09981E-09
 -1       633 8.32146E+04 2.41492E+04 3.08217E+01 4.77848E+04-3.35251E-09-7.99986E-10
 -1       634 8.47187E+04 2.26496E+04 5.00194E+01 4.60719E+04-9.49876E-09-2.33521E-08
 -1       635 8.32176E+04 2.41496E+04 1.01459E+02 4.77854E+04-5.91172E-12 5.90148E-10
 -1       636 8.47138E+04 2.26490E+04 2.05035E+02 4.60707E+04-1.53898E-09-5.49016E-09
 -1       637 8.32594E+04 2.41822E+04 4.50693E+02 4.77833E+04 2.72245E-09 1.00317E-09
 -1       638 8.46954E+04 2.27499E+04 9.26417E+02 4.60240E+04 9.56271E-09-5.68525E-09
 -1       639 8.37427E+04 2.48605E+04 2.19170E+03 4.76384E+04 2.11221E-08 9.18590E-11
 -1       640 8.46286E+04 2.47685E+04 4.54861E+03 4.51670E+04 9.82334E-09 1.90312E-09
 -1       656 2.29444E+04-5.80813E+05-5.54044E+04-4.98920E+02 3.92902E-10-2.50142E-09
 -1       657-3.03165E+04-6.05844E+05-4.58194E+04 3.80973E+03-6.86668E-11-1.51171E-09
 -1       658 7.27380E+03-5.87958E+05-2.81201E+04-7.81480E+02 2.35900E-10-1.09953E-09
 -1       659-3.25014E+04-6.06871E+05-4.86888E+04 3.99511E+03 2.51021E-10-5.72246E-09
 -1       660 2.51231E+04-5.79788E+05-6.03469E+04-6.84299E+02-7.82165E-10 1.33309E-09
 -1       661 8.25995E+04 8.96077E+03 7.91587E+03 3.22323E+04 8.23547E-10 2.38242E-09
 -1       662 8.66915E+04 1.52000E+04 5.33394E+03 3.08900E+04 3.92276E-10 2.44040E-09
 -1       663 8.41469E+04 1.15072E+04 1.86586E+03 3.17890E+04 2.55852E-10-3.64946E-09
 -1       664 8.49035E+04 1.22166E+04 1.11544E+03 3.14260E+04 6.23913E-10-2.41317E-09
 -1       665 8.43758E+04 1.18606E+04 4.40061E+02 3.17278E+04-3.82528E-10 1.80793E-09
 -1       666 8.46374E+04 1.18075E+04 2.56523E+02 3.15020E+04-3.29183E-09 9.88631E-10
 -1       667 8.44115E+04 1.19056E+04 1.35297E+02 3.17170E+04-9.01053E-10-3.28706E-09
 -1       668 8.46019E+04 1.17686E+04 1.35412E+02 3.15160E+04 4.04469E-10-1.59572E-09
 -1       669 8.44111E+04 1.18986E+04 1.81502E+02 3.17142E+04 1.73587E-09 1.66932E-09
 -1       670 8.46529E+04 1.18592E+04 3.93317E+02 3.15097E+04 5.58391E-09-3.90148E-09
 -1       671 8.43607E+04 1.18168E+04 6.97869E+02 3.17226E+04 3.03952E-10 1.25016E-09
 -1       672 8.50648E+04 1.25330E+04 1.78498E+03 3.14056E+04-1.45907E-09 3.54876E-09
 -1       673 8.40015E+04 1.12419E+04 2.99122E+03 3.18118E+04-2.10088E-09-4.46789E-10
 -1       674 8.79174E+04 1.73339E+04 8.55464E+03 3.05633E+04-4.00661E-10-2.35457E-09
 -1       675 8.15267E+04 7.15022E+03 1.26973E+04 3.25144E+04 1.48771E-09 4.60204E-10
 -1       676 9.35278E+00-1.11598E+05-4.34527E+02 1.11495E+01-3.60302E-10-1.79159E-09
 -1       677-1.15344E+02-1.11703E+05-7.95193E+02-2.22980E+01-3.90258E-09-3.97955E-09
 -1       678 7.70032E+01-1.11523E+05-1.40567E+03 1.11408E+01-5.83611E-10-3.34020E-09
 -1       679-1.40580E+03-1.12551E+05-3.33899E+03-2.22553E+01-1.21400E-09-6.56278E-09
 -1       680 8.38886E+02-1.10749E+05-5.38139E+03 1.09786E+01-1.20485E-09-2.05369E-09
 -1       771-1.20096E+06-2.08275E+05-2.90873E+04-4.96863E+05-4.90400E-09-2.84490E-09
 -1       772-1.19330E+06-2.24803E+05-1.56586E+04-5.15265E+05-3.35604E-09 1.77943E-09
 -1       773-1.20469E+06-2.05395E+05-6.66733E+03-4.98491E+05-2.01908E-09 2.27556E-09
 -1       774-1.18901E+06-2.21227E+05-3.27110E+03-5.16618E+05 3.55067E-09-4.26553E-10
 -1       775-1.20534E+06-2.05025E+05-1.59352E+03-4.98583E+05-1.46611E-09 5.43878E-10
 -1       776-1.18884E+06-2.21170E+05-7.50785E+02-5.17183E+05-1.66801E-09 9.64974E-10
 -1       777-1.20573E+06-2.04764E+05-4.27293E+02-4.98615E+05 1.49157E-10 8.01265E-10
 -1       778-1.18892E+06-2.21240E+05-2.01317E+02-5.17643E+05 2.91038E-11 2.12003E-09
 -1       779-1.20603E+06-2.04540E+05-1.78384E+02-4.98640E+05-1.01136E-09-1.25965E-09
 -1       780-1.18902E+06-2.21306E+05-1.56514E+02-5.18016E+05-1.17143E-09 2.18279E-11
 -1       781-1.20624E+06-2.04357E+05-2.73429E+02-4.98656E+05-4.04179E-09-7.00084E-10
 -1       782-1.18913E+06-2.21383E+05-5.21314E+02-5.18292E+05-5.16411E-09-1.45030E-09
 -1       783-1.20636E+06-2.04241E+05-1.04051E+03-4.98655E+05-9.93168E-10-2.12231E-09
 -1       784-1.18980E+06-2.22080E+05-2.47458E+03-5.18432E+05-2.55841E-09 2.63753E-11
 -1       785-1.20598E+06-2.04510E+05-4.57297E+03-4.98325E+05-4.90127E-09 7.61247E-10
 -1       786 8.70677E+04-4.65712E+03 1.07735E+04 2.07586E+00 4.38376E-08 2.03272E-09
 -1       787 9.17362E+04 5.39145E+03 7.62225E+03-8.55404E+00 8.67692E-08 5.80133E-09
 -1       788 8.88689E+04-7.30050E+02 2.78842E+03 2.58429E+00 1.38841E-07 3.21006E-09
 -1       789 8.96380E+04 8.44708E+02 1.75198E+03-1.01289E+01 1.90581E-07 3.71278E-09
 -1       790 8.91662E+04-1.14044E+02 7.12829E+02 3.65073E+00 2.73055E-07-2.78919E-09
 -1       791 8.92911E+04 1.32495E+02 4.18473E+02-1.29701E+01 3.55313E-07 7.14289E-09
 -1       792 8.92159E+04-1.83715E+01 1.90888E+02 5.42556E+00 5.08349E-07-4.03518E-09
 -1       793 8.92350E+04 2.57544E+01 1.24890E+02-1.74880E+01 6.62448E-07 3.22018E-11
 -1       794 8.92223E+04-7.37249E+00 9.22142E+01 8.16873E+00 9.70391E-07-8.21962E-09
 -1       795 8.92403E+04 3.79265E+01 1.32956E+02-2.43360E+01 1.27671E-06 4.83467E-09
 -1       796 8.92106E+04-3.05351E+01 1.98906E+02 1.22737E+01 6.38389E-07-4.71782E-09
 -1       797 8.93305E+04 2.23804E+02 4.68771E+02-3.44971E+01 1.98370E-09-5.36787E-10
 -1       798 8.91321E+04-1.93113E+02 7.39911E+02 1.83299E+01-1.94439E-10 2.54687E-10
 -1       799 8.98852E+04 1.42583E+03 2.01701E+03-4.95286E+01-5.54623E-10 2.57117E-09
 -1       800 8.86557E+04-1.23159E+03 2.84933E+03 2.73054E+01-1.42588E-11 2.93642E-09
 -1       801-4.60816E+03 9.09339E+03 8.34149E+03 9.21277E+03 5.11795E-09-3.42084E-10
 -1       802 1.28622E+04 4.01293E+04 2.46721E+04-3.79291E+04 1.36824E-08-1.57995E-09
 -1       803-8.00151E+03 1.90341E+04 3.25899E+04 8.87564E+03 1.07775E-08 8.87738E-09
 -1       804 6.29070E+04 6.59908E+04 9.01604E+04-3.82544E+04 1.27329E-08 1.13750E-08
 -1       805-5.46569E+04-1.66773E+04 1.19448E+05 9.53759E+03 4.52565E-09 1.14302E-08
 -1       806-1.02722E+05-2.19818E+04-8.72044E+03-4.27475E+04-1.07320E-10-1.62754E-09
 -1       807-1.03238E+05-2.07301E+04-4.28413E+03-4.50566E+04-3.01497E-09-4.93441E-09
 -1       808-1.02969E+05-1.88314E+04-1.81739E+03-4.42271E+04 6.27449E-09 6.81717E-09
 -1       809-1.02324E+05-1.95404E+04-8.88495E+02-4.51802E+04 6.07167E-09-3.59483E-09
 -1       810-1.03008E+05-1.87200E+04-4.06819E+02-4.42926E+04 4.65968E-09-3.18209E-10
 -1       811-1.02254E+05-1.94933E+04-2.01768E+02-4.51702E+04 9.35643E-11 2.47724E-09
 -1       812-1.03016E+05-1.87279E+04-1.00634E+02-4.42927E+04 8.61291E-10 1.47702E-09
 -1       813-1.02246E+05-1.94943E+04-6.34988E+01-4.51654E+04 1.41097E-09-3.53072E-09
 -1       814-1.03015E+05-1.87305E+04-5.94495E+01-4.42917E+04 1.38925E-10-2.55363E-09
 -1       815-1.02248E+05-1.94952E+04-9.31706E+01-4.51648E+04-2.16460E-10 7.90976E-10
 -1       816-1.03010E+05-1.87291E+04-1.74464E+02-4.42910E+04-7.91943E-10 2.52203E-09
 -1       817-1.02279E+05-1.95116E+04-3.74335E+02-4.51627E+04 1.69814E-09 4.55884E-10
 -1       818-1.02989E+05-1.87809E+04-7.62747E+02-4.42667E+04 1.77579E-09-2.62162E-09
 -1       819-1.02701E+05-1.99694E+04-1.79561E+03-4.50619E+04-8.43329E-10-7.61702E-12
 -1       820-1.02845E+05-2.01382E+04-3.65413E+03-4.36885E+04-7.41693E-10 2.76373E-10
 -1       821-1.32815E+05 7.38498E+03-1.70814E+04-6.70276E-01-2.75231E-10 4.34738E-10
 -1       822-1.40216E+05-8.54936E+03-1.20868E+04-9.47207E+01-1.42810E-09-1.03000E-10
 -1       823-1.35671E+05 1.15770E+03-4.42415E+03-2.45172E+01 1.17123E-09-1.17939E-09
 -1       824-1.36889E+05-1.33999E+03-2.78425E+03-4.36074E+01-6.55689E-10 2.43602E-09
 -1       825-1.36142E+05 1.81284E+02-1.14364E+03-5.17852E+01-1.49590E-09 1.18604E-09
 -1       826-1.36341E+05-2.13800E+02-6.91891E+02 8.53597E+00-2.70548E-09-2.44183E-09
 -1       827-1.36219E+05 3.23401E+01-3.56703E+02-7.66618E+01-2.65805E-09-1.03115E-09
 -1       828-1.36266E+05-6.53148E+01-3.16693E+02 5.07221E+01 2.90898E-08 5.73358E-09
 -1       829-1.36218E+05 3.29129E+01-3.61723E+02-9.39721E+01 9.51149E-06-8.55304E-09
 -1       830-1.36345E+05-2.18671E+02-7.06927E+02 7.41836E+01 1.89326E-05-7.75676E-09
 -1       831-1.36139E+05 1.85604E+02-1.17004E+03-1.00124E+02-1.12910E-06-8.87269E-10
 -1       832-1.36907E+05-1.37206E+03-2.85095E+03 7.42169E+01-2.11832E-05 1.08034E-08
 -1       833-1.35657E+05 1.18546E+03-4.52996E+03-9.40050E+01-1.06401E-05 1.40371E-08
 -1       834-1.40313E+05-8.75442E+03-1.23769E+04 5.16739E+01-3.47841E-08-5.09544E-10
 -1       835-1.32733E+05 7.56214E+03-1.74913E+04-7.75782E+01 2.29540E-09-2.25918E-09
 -1       836-4.40243E+02 1.25776E+05 7.53646E+03-1.10376E+04 9.80435E-10 2.04227E-09
 -1       837 1.65359E+03 1.28113E+05 6.44073E+03-2.21891E+04 1.32809E-09-1.43564E-09
 -1       838-1.65602E+02 1.26428E+05 6.65227E+03-1.09986E+04 1.20690E-09 4.47659E-09
 -1       839 4.26764E+03 1.30068E+05 1.26730E+04-2.22039E+04 1.49248E-09 4.38304E-09
 -1       840-1.28871E+03 1.23812E+05 2.02454E+04-1.10223E+04 1.05501E-09 4.07920E-09
 -1       856-4.17249E+04 3.56157E+03-9.38443E+03-1.96571E+02-1.72673E-09-3.11820E-09
 -1       857-4.56025E+04-4.17813E+03-6.46138E+03 2.15881E+03-1.49043E-09-1.35174E-10
 -1       858-4.32569E+04 4.99264E+02-2.43548E+03-2.02357E+02-1.91932E-09-1.46485E-09
 -1       859-4.38421E+04-5.81854E+02-1.47118E+03 2.16778E+03 5.93047E-10-3.63571E-10
 -1       860-4.34862E+04 6.96013E+01-6.18576E+02-2.05580E+02 1.47196E-09 6.18542E-10
 -1       861-4.35775E+04-7.85466E+01-3.44709E+02 2.17212E+03-3.16854E-09-5.69912E-10
 -1       862-4.35219E+04 9.38151E+00-1.52072E+02-2.06698E+02 2.78247E-09 6.82320E-10
 -1       863-4.35353E+04-7.59794E+00-7.53274E+01 2.17262E+03 5.99291E-09-1.76466E-09
 -1       864-4.35284E+04 1.73364E-01-2.38767E+01-2.06086E+02 2.30411E-09-3.99417E-09
 -1       865-4.35237E+04 8.68166E+00 1.33804E+01 2.16941E+03 2.69941E-09-4.75419E-09
 -1       866-4.35332E+04-6.89137E+00 5.02635E+01-2.03487E+02 1.09392E-09-2.27244E-09
 -1       867-4.34953E+04 5.84598E+01 1.38026E+02 2.16240E+03 1.94930E-10-1.86269E-09
 -1       868-4.35561E+04-4.88790E+01 2.33554E+02-1.99076E+02 7.36065E-10-2.36814E-09
 -1       869-4.33219E+04 4.07089E+02 6.26130E+02 2.15009E+03-7.17776E-10-2.52555E-09
 -1       870-4.37054E+04-3.46286E+02 9.09153E+02-1.91174E+02 7.94330E-10-6.32724E-10
 -1       871-1.92263E+03-3.99955E+03-6.30058E+03 4.13216E+04 1.21781E-09-2.54977E-09
 -1       872-8.29609E+02-5.40549E+03-2.56564E+03 5.35691E+04 3.04794E-09-5.35238E-10
 -1       873-9.83664E+00-4.73696E+03 3.77112E+02 4.12295E+04 1.46815E-09-4.15929E-09
 -1       874 9.85383E+02-3.81962E+03 3.59905E+03 5.35888E+04 2.53954E-09-8.64497E-09
 -1       875 2.32230E+03-5.59832E+03 7.97695E+03 4.13042E+04 1.20099E-09-8.12634E-09
 -1       876 1.03559E+05 1.78277E+04 5.55228E+03 4.19921E+04-1.95135E-09-3.67709E-09
 -1       877 1.03876E+05 1.90467E+04 2.96493E+03 4.36359E+04-3.33148E-09-8.34677E-09
 -1       878 1.04080E+05 1.72122E+04 1.24225E+03 4.24477E+04 1.30410E-09 9.49399E-10
 -1       879 1.03121E+05 1.82948E+04 6.18745E+02 4.36768E+04 9.05459E-10 1.06009E-08
 -1       880 1.04118E+05 1.72046E+04 2.88102E+02 4.24663E+04-5.40240E-10 1.93609E-10
 -1       881 1.03071E+05 1.82631E+04 1.53377E+02 4.36700E+04 2.59206E-09 5.40037E-09
 -1       882 1.04123E+05 1.72087E+04 9.73993E+01 4.24668E+04 3.27952E-09 2.41377E-09
 -1       883 1.03067E+05 1.82617E+04 1.03487E+02 4.36684E+04 1.05584E-09 4.50555E-09
 -1       884 1.04121E+05 1.72073E+04 1.63562E+02 4.24669E+04 1.62615E-09-1.57866E-09
 -1       885 1.03080E+05 1.82641E+04 3.28194E+02 4.36727E+04 4.63871E-09-2.76215E-09
 -1       886 1.04108E+05 1.71978E+04 6.61194E+02 4.24656E+04 6.43383E-09-8.08313E-11
 -1       887 1.03197E+05 1.83402E+04 1.44424E+03 4.36891E+04 3.05863E-09-1.09527E-08
 -1       888 1.04016E+05 1.72141E+04 2.91027E+03 4.24194E+04 5.12959E-09-1.49430E-09
 -1       889 1.04931E+05 2.01407E+04 6.95274E+03 4.36334E+04 2.36903E-09 3.00406E-09
 -1       890 1.02829E+05 1.86235E+04 1.30216E+04 4.13102E+04 3.93004E-09 4.04270E-10
 -1       891-6.07392E+01-5.89087E+04-6.92702E+02 1.12040E+04 3.64537E-10-5.10227E-10
 -1       892-1.06050E+02-5.90779E+04-7.54898E+02 1.69600E+04 3.76644E-10-3.03675E-09
 -1       893-1.27658E+01-5.89328E+04-1.07956E+03 1.12059E+04 4.82828E-10-3.44244E-10
 -1       894-5.81568E+02-5.94991E+04-2.24300E+03 1.69004E+04-1.43496E-09 3.99768E-09
 -1       895-4.52046E+02-5.84715E+04-3.95173E+03 1.12632E+04-6.13340E-10 3.50155E-10
 -1       956-1.30033E+05-1.87586E+03-4.72170E+03 8.57975E+03 7.93329E-09-1.79290E-09
 -1       957-1.30965E+05-6.34305E+02-2.42415E+03 1.03257E+04 1.75060E-08-3.32818E-09
 -1       958-1.30449E+05-5.18682E+01-1.09195E+03 8.52432E+03 1.06097E-08-1.45326E-09
 -1       959-1.30522E+05-1.19108E+01-5.57858E+02 1.03857E+04 2.51134E-10 4.25598E-09
 -1       960-1.30484E+05 1.27494E+01-2.71816E+02 8.51933E+03-3.62206E-10-1.17711E-09
 -1       961-1.30488E+05 1.02422E+01-1.44182E+02 1.03912E+04-2.74360E-09 4.85693E-09
 -1       962-1.30490E+05 9.80218E+00-8.22886E+01 8.51875E+03-1.31490E-09 6.41762E-10
 -1       963-1.30485E+05 1.00333E+01-6.57130E+01 1.03920E+04-2.05432E-09-1.29427E-09
 -1       964-1.30491E+05 1.02241E+01-7.92531E+01 8.51854E+03-2.40675E-10-2.02556E-09
 -1       965-1.30490E+05 1.12329E+01-1.36518E+02 1.03920E+04 1.14398E-09 2.49617E-09
 -1       966-1.30487E+05 1.39665E+01-2.55942E+02 8.51879E+03-9.87768E-10-1.37618E-10
 -1       967-1.30524E+05-8.56705E+00-5.24772E+02 1.03889E+04-8.45830E-11 1.47827E-09
 -1       968-1.30456E+05-4.58232E+01-1.02675E+03 8.52167E+03-1.69962E-10 1.03930E-09
 -1       969-1.30942E+05-5.92954E+02-2.27964E+03 1.03539E+04 6.94627E-10 4.41091E-10
 -1       970-1.30066E+05-1.76045E+03-4.43998E+03 8.55450E+03 2.41698E-10 3.98950E-09
 -1       971-1.23618E+05-6.54734E+02-3.64048E+03 6.10698E+03-2.00134E-09 3.66512E-10
 -1       972-1.24503E+05-4.71786E+02-1.98295E+03 8.51647E+03-1.63527E-09-4.32669E-09
 -1       973-1.24020E+05-5.81177E+00-8.87536E+02 6.05753E+03-1.47111E-09-2.75872E-09
 -1       974-1.24080E+05-8.42592E+00-4.59943E+02 8.56935E+03 7.31006E-10-8.64020E-11
 -1       975-1.24049E+05 9.58041E+00-2.29160E+02 6.05375E+03 8.66066E-10 1.32053E-09
 -1       976-1.24052E+05 9.15872E+00-1.31291E+02 8.57364E+03-2.43114E-09-7.49424E-10
 -1       977-1.24054E+05 8.38914E+00-9.33748E+01 6.05323E+03 1.19428E-09 1.81745E-09
 -1       978-1.24052E+05 1.04145E+01-1.06812E+02 8.57436E+03 6.02040E-09 1.81501E-10
 -1       979-1.24053E+05 1.07583E+01-1.69371E+02 6.05303E+03 2.01968E-09 6.60293E-10
 -1       980-1.24064E+05 1.12287E+01-3.25629E+02 8.57440E+03 2.57150E-09 1.19428E-10
 -1       981-1.24043E+05 1.89373E+01-6.29829E+02 6.05318E+03-3.46290E-10-8.23093E-11
 -1       982-1.24151E+05-3.48464E+01-1.30137E+03 8.57221E+03-2.82461E-09 2.35142E-09
 -1       983-1.23964E+05-2.06704E+01-2.52813E+03 6.05527E+03 7.02244E-10 1.98725E-09
 -1       984-1.25369E+05-1.35393E+03-5.66121E+03 8.53867E+03 1.62947E-09 7.27709E-10
 -1       985-1.22821E+05-1.86982E+03-1.03957E+04 6.08810E+03 2.04227E-09 7.26232E-10
 -3
    1PSTEP                         3           2           1          
  100CL  102 3.12500E-01         409                     0    2           1
 -4  DISP        4    1
 -5  D1          1    2    1    0
 -5  D2          1    2    2    0
 -5  D3          1    2    3    0
 -5  ALL         1    2    0    0    1ALL
 -1         1 8.16622E-05 0.00000E+00 0.00000E+00
 -1         2 7.53879E-05 1.31697E-29 0.00000E+00
 -1         3 6.96207E-05-9.35132E-28 0.00000E+00
 -1         5 5.01413E-05 2.72209E-26-3.30872E-24
 -1         8 6.51888E-05-5.91544E-07 0.00000E+00
 -1         9 6.62404E-05 3.93732E-07 0.00000E+00
 -1        10 6.45260E-05-9.52193E-07-3.30872E-24
 -1        12 4.97858E-05 3.40496E-07 1.65436E-24
 -1        15 4.55887E-05-6.38524E-07 0.00000E+00
 -1        16 4.71603E-05 3.12479E-07 0.00000E+00
 -1        17 4.81100E-05-1.99896E-06 0.00000E+00
 -1        18 4.80614E-05 1.34851E-07 0.00000E+00
 -1        19 4.87196E-05 6.79140E-07 0.00000E+00
 -1        20 4.88090E-05 1.00961E-05 0.00000E+00
 -1        21 4.84720E-05 1.90887E-05 0.00000E+00
 -1        24 1.22977E-05-2.67557E-06 0.00000E+00
 -1        25 4.69292E-05 2.12855E-07 0.00000E+00
 -1        26 4.75499E-05 9.51640E-07 0.00000E+00
 -1        27 4.66072E-05 8.58216E-06 0.00000E+00
 -1        28 4.63030E-05 1.87976E-05 0.00000E+00
 -1        32 0.00000E+00 0.00000E+00 0.00000E+00
 -1        33 4.55658E-05 1.27431E-06 0.00000E+00
 -1        34 4.46554E-05 8.56875E-06 0.00000E+00
 -1        35 4.37902E-05 1.86441E-05 0.00000E+00
 -1        51 8.05905E-05-9.81366E-08 0.00000E+00
 -1        52 7.86044E-05-1.93468E-07 0.00000E+00
 -1        53 7.58838E-05-2.89322E-07 0.00000E+00
 -1        54 7.26160E-05-3.86608E-07 0.00000E+00
 -1        55 6.89884E-05-4.85930E-07 5.99706E-24
 -1        56 8.09134E-05-4.65318E-07-1.32349E-23
 -1        57 8.02465E-05-1.23339E-06 0.00000E+00
 -1        58 7.96621E-05-2.21715E-06 0.00000E+00
 -1        59 7.91238E-05-3.33844E-06 0.00000E+00
 -1        60 7.86039E-05-4.50954E-06 0.00000E+00
 -1        61 7.80692E-05-5.64377E-06 0.00000E+00
 -1        62 7.74886E-05-6.65550E-06-2.64698E-23
 -1        63 7.68310E-05-7.46182E-06 0.00000E+00
 -1        64 7.60683E-05-7.98797E-06-2.64698E-23
 -1        65 7.51748E-05-8.16468E-06 0.00000E+00
 -1        66 7.41295E-05-7.93676E-06-2.64698E-23
 -1        67 7.29152E-05-7.25671E-06 0.00000E+00
 -1        68 7.15199E-05-6.09562E-06 0.00000E+00
 -1        69 6.99403E-05-4.43225E-06 1.32349E-23
 -1        70 6.81704E-05-2.26905E-06-1.32349E-23
 -1        86 7.51471E-05 7.03913E-08 0.00000E+00
 -1        87 7.44240E-05 1.40192E-07 0.00000E+00
 -1        88 7.31998E-05 2.09469E-07-8.27181E-25
 -1        89 7.14545E-05 2.75699E-07-5.16988E-26
 -1        90 6.91484E-05 3.41612E-07 0.00000E+00
 -1       121 6.94787E-05-1.58185E-07-6.61744E-24
 -1       122 6.90530E-05-3.16451E-07 3.30872E-24
 -1       123 6.83439E-05-4.74878E-07-3.30872E-24
 -1       124 6.73523E-05-6.33571E-07-3.30872E-24
 -1       125 6.60791E-05-7.92564E-07-3.30872E-24
 -1       191 5.01314E-05 5.67535E-08 0.00000E+00
 -1       192 5.01018E-05 1.13506E-07 0.00000E+00
 -1       193 5.00524E-05 1.70258E-07 0.00000E+00
 -1       194 4.99833E-05 2.27008E-07 0.00000E+00
 -1       195 4.98944E-05 2.83754E-07 3.30872E-24
 -1       251 6.52405E-05 2.11594E-06 3.30872E-24
 -1       252 6.53063E-05 3.72338E-06 0.00000E+00
 -1       253 6.53724E-05 4.41717E-06 0.00000E+00
 -1       254 6.54410E-05 4.38098E-06-8.27181E-25
 -1       255 6.55095E-05 3.77202E-06 0.00000E+00
 -1       256 6.55782E-05 2.74583E-06-8.27181E-25
 -1       257 6.56465E-05 1.44276E-06 0.00000E+00
 -1       258 6.57148E-05 2.32045E-09 0.00000E+00
 -1       259 6.57831E-05-1.44100E-06 1.65436E-24
 -1       260 6.58515E-05-2.75269E-06 0.00000E+00
 -1       261 6.59201E-05-3.79343E-06-1.65436E-24
 -1       262 6.59886E-05-4.42317E-06 0.00000E+00
 -1       263 6.60571E-05-4.48680E-06 0.00000E+00
 -1       264 6.61232E-05-3.82760E-06-1.03398E-25
 -1       265 6.61890E-05-2.26263E-06 3.30872E-24
 -1       266 6.19222E-05-6.07489E-07-3.30872E-24
 -1       267 5.86555E-05-6.14330E-07 0.00000E+00
 -1       268 5.53888E-05-6.21748E-07-8.27181E-25
 -1       269 5.21221E-05-6.27457E-07 0.00000E+00
 -1       270 4.88554E-05-6.33126E-07 0.00000E+00
 -1       271 6.32038E-05 1.84010E-06 2.64698E-23
 -1       272 6.15201E-05 3.37869E-06 1.32349E-23
 -1       273 6.01313E-05 4.13758E-06-2.64698E-23
 -1       274 5.89891E-05 4.22575E-06 0.00000E+00
 -1       275 5.80525E-05 3.76464E-06 2.64698E-23
 -1       276 5.72734E-05 2.88067E-06 1.32349E-23
 -1       277 5.66029E-05 1.70617E-06 0.00000E+00
 -1       278 5.59901E-05 3.76806E-07-1.32349E-23
 -1       279 5.53838E-05-9.69701E-07 0.00000E+00
 -1       280 5.47323E-05-2.19539E-06-1.32349E-23
 -1       281 5.39848E-05-3.16397E-06-2.64698E-23
 -1       282 5.30916E-05-3.74220E-06 1.32349E-23
 -1       283 5.20044E-05-3.80211E-06 2.64698E-23
 -1       284 5.06800E-05-3.22092E-06 0.00000E+00
 -1       285 4.90712E-05-1.88671E-06-2.64698E-23
 -1       301 6.30082E-05 3.76279E-07 3.30872E-24
 -1       302 5.97772E-05 3.68573E-07 1.65436E-24
 -1       303 5.65623E-05 3.61159E-07 0.00000E+00
 -1       304 5.33781E-05 3.52675E-07-1.65436E-24
 -1       305 5.02393E-05 3.42684E-07-6.61744E-24
 -1       306 6.41938E-05 2.76906E-06 0.00000E+00
 -1       307 6.24608E-05 4.21216E-06 1.32349E-23
 -1       308 6.10712E-05 4.74947E-06-2.64698E-23
 -1       309 6.00006E-05 4.41950E-06-1.32349E-23
 -1       310 5.92064E-05 3.35139E-06 0.00000E+00
 -1       311 5.86310E-05 1.69487E-06-1.32349E-23
 -1       312 5.81973E-05-3.41262E-07 0.00000E+00
 -1       313 5.78229E-05-2.53681E-06 0.00000E+00
 -1       314 5.74197E-05-4.65537E-06-2.64698E-23
 -1       315 5.69007E-05-6.46291E-06-1.32349E-23
 -1       316 5.61899E-05-7.75689E-06 2.64698E-23
 -1       317 5.52182E-05-8.35030E-06-1.32349E-23
 -1       318 5.39398E-05-8.12620E-06 2.64698E-23
 -1       319 5.23261E-05-6.99033E-06 1.32349E-23
 -1       320 5.03663E-05-4.94411E-06 1.32349E-23
 -1       336 6.26572E-05-1.12484E-06 3.30872E-24
 -1       337 6.04373E-05-1.29841E-06-1.65436E-24
 -1       338 5.78688E-05-1.47273E-06 6.61744E-24
 -1       339 5.49554E-05-1.64772E-06 3.30872E-24
 -1       340 5.17010E-05-1.82375E-06 3.30872E-24
 -1       406 4.96574E-05 3.97228E-07 0.00000E+00
 -1       407 4.95093E-05 4.53940E-07 0.00000E+00
 -1       408 4.93414E-05 5.10614E-07 0.00000E+00
 -1       409 4.91537E-05 5.67180E-07 1.65436E-24
 -1       410 4.89464E-05 6.23529E-07 0.00000E+00
 -1       521 4.43441E-05 2.00750E-06-5.29396E-23
 -1       522 4.19360E-05 2.43122E-06 0.00000E+00
 -1       523 3.99840E-05 1.65209E-06-5.29396E-23
 -1       524 3.84309E-05-2.25896E-07 0.00000E+00
 -1       525 3.71870E-05-2.93247E-06 0.00000E+00
 -1       526 3.61336E-05-6.15676E-06 0.00000E+00
 -1       527 3.51289E-05-9.51217E-06-5.29396E-23
 -1       528 3.40263E-05-1.26058E-05 0.00000E+00
 -1       529 3.26936E-05-1.50822E-05 0.00000E+00
 -1       530 3.10104E-05-1.66195E-05-2.64698E-23
 -1       531 2.89055E-05-1.70310E-05 0.00000E+00
 -1       532 2.63321E-05-1.61907E-05 0.00000E+00
 -1       533 2.33071E-05-1.41533E-05 5.29396E-23
 -1       534 1.98848E-05-1.10336E-05 0.00000E+00
 -1       535 1.61532E-05-7.11044E-06 0.00000E+00
 -1       536 4.80969E-05 1.34806E-06-1.65436E-24
 -1       537 4.80912E-05 3.87722E-06 4.13590E-25
 -1       538 4.80867E-05 5.66910E-06 0.00000E+00
 -1       539 4.80840E-05 6.80435E-06-1.03398E-25
 -1       540 4.80819E-05 7.36626E-06 0.00000E+00
 -1       541 4.80801E-05 7.43818E-06 5.16988E-26
 -1       542 4.80782E-05 7.10533E-06 0.00000E+00
 -1       543 4.80763E-05 6.45297E-06-2.58494E-26
 -1       544 4.80742E-05 5.56757E-06 0.00000E+00
 -1       545 4.80720E-05 4.53560E-06-2.58494E-26
 -1       546 4.80697E-05 3.44410E-06 2.58494E-26
 -1       547 4.80675E-05 2.38011E-06-6.46235E-27
 -1       548 4.80654E-05 1.43055E-06-2.58494E-26
 -1       549 4.80637E-05 6.82370E-07 5.16988E-26
 -1       550 4.80620E-05 2.21753E-07 0.00000E+00
 -1       551 4.33598E-05-2.10234E-06 0.00000E+00
 -1       552 3.76778E-05-2.20868E-06 8.27181E-25
 -1       553 3.13951E-05-2.31855E-06 0.00000E+00
 -1       554 2.48474E-05-2.43164E-06 0.00000E+00
 -1       555 1.83706E-05-2.54611E-06 0.00000E+00
 -1       556 4.68656E-05 1.22932E-06 1.32349E-23
 -1       557 4.59150E-05 3.69584E-06 0.00000E+00
 -1       558 4.52259E-05 5.47093E-06 0.00000E+00
 -1       559 4.47694E-05 6.63045E-06 0.00000E+00
 -1       560 4.45162E-05 7.25006E-06 0.00000E+00
 -1       561 4.44373E-05 7.40582E-06 0.00000E+00
 -1       562 4.45039E-05 7.17384E-06 0.00000E+00
 -1       563 4.46872E-05 6.63029E-06 0.00000E+00
 -1       564 4.49588E-05 5.85141E-06 0.00000E+00
 -1       565 4.52898E-05 4.91343E-06-8.27181E-25
 -1       566 4.56519E-05 3.89261E-06 0.00000E+00
 -1       567 4.60164E-05 2.86523E-06 0.00000E+00
 -1       568 4.63548E-05 1.90755E-06 0.00000E+00
 -1       569 4.66387E-05 1.09574E-06 0.00000E+00
 -1       570 4.68395E-05 5.06004E-07 0.00000E+00
 -1       571 4.81013E-05 1.95037E-07 6.20385E-25
 -1       572 4.81422E-05 2.27997E-07-1.03398E-25
 -1       573 4.81832E-05 2.38575E-07 4.13590E-25
 -1       574 4.82245E-05 2.31876E-07 4.13590E-25
 -1       575 4.82657E-05 2.13023E-07-8.27181E-25
 -1       576 4.83070E-05 1.87176E-07 4.13590E-25
 -1       577 4.83483E-05 1.59498E-07 0.00000E+00
 -1       578 4.83895E-05 1.35155E-07 8.27181E-25
 -1       579 4.84308E-05 1.19314E-07 0.00000E+00
 -1       580 4.84721E-05 1.17143E-07 0.00000E+00
 -1       581 4.85134E-05 1.33807E-07 0.00000E+00
 -1       582 4.85547E-05 1.74467E-07 0.00000E+00
 -1       583 4.85960E-05 2.44279E-07 0.00000E+00
 -1       584 4.86372E-05 3.48346E-07 0.00000E+00
 -1       585 4.86784E-05 4.91740E-07 0.00000E+00
 -1       586 4.78587E-05 1.48665E-07 0.00000E+00
 -1       587 4.76385E-05 1.62130E-07 1.03398E-25
 -1       588 4.74180E-05 1.75445E-07 0.00000E+00
 -1       589 4.72148E-05 1.88548E-07 0.00000E+00
 -1       590 4.70463E-05 2.01294E-07 0.00000E+00
 -1       591 4.80197E-05 2.16091E-07 0.00000E+00
 -1       592 4.79849E-05 2.74889E-07 0.00000E+00
 -1       593 4.79567E-05 3.15519E-07 0.00000E+00
 -1       594 4.79337E-05 3.41829E-07-2.06795E-25
 -1       595 4.79146E-05 3.57720E-07 0.00000E+00
 -1       596 4.78979E-05 3.67061E-07-2.06795E-25
 -1       597 4.78823E-05 3.73723E-07 4.13590E-25
 -1       598 4.78661E-05 3.81571E-07 2.06795E-25
 -1       599 4.78481E-05 3.94470E-07-4.13590E-25
 -1       600 4.78267E-05 4.16288E-07 0.00000E+00
 -1       601 4.78005E-05 4.50888E-07 0.00000E+00
 -1       602 4.77682E-05 5.02142E-07-5.16988E-26
 -1       603 4.77282E-05 5.73919E-07-5.16988E-26
 -1       604 4.76792E-05 6.70120E-07 0.00000E+00
 -1       605 4.76198E-05 7.94594E-07 0.00000E+00
 -1       606 4.87273E-05 9.60558E-07 0.00000E+00
 -1       607 4.87335E-05 1.30096E-06 0.00000E+00
 -1       608 4.87393E-05 1.69689E-06 0.00000E+00
 -1       609 4.87449E-05 2.14443E-06 0.00000E+00
 -1       610 4.87504E-05 2.63967E-06 0.00000E+00
 -1       611 4.87559E-05 3.17863E-06 0.00000E+00
 -1       612 4.87613E-05 3.75732E-06 0.00000E+00
 -1       613 4.87667E-05 4.37176E-06-8.27181E-25
 -1       614 4.87721E-05 5.01797E-06 0.00000E+00
 -1       615 4.87775E-05 5.69196E-06 0.00000E+00
 -1       616 4.87828E-05 6.38975E-06 0.00000E+00
 -1       617 4.87881E-05 7.10734E-06 4.13590E-25
 -1       618 4.87935E-05 7.84075E-06 0.00000E+00
 -1       619 4.87987E-05 8.58600E-06 0.00000E+00
 -1       620 4.88040E-05 9.33910E-06 0.00000E+00
 -1       621 4.84960E-05 7.24561E-07 0.00000E+00
 -1       622 4.82885E-05 7.70235E-07 0.00000E+00
 -1       623 4.80936E-05 8.15904E-07 1.65436E-24
 -1       624 4.79079E-05 8.61502E-07 0.00000E+00
 -1       625 4.77278E-05 9.07026E-07-8.27181E-25
 -1       626 4.86618E-05 9.74585E-07 0.00000E+00
 -1       627 4.85859E-05 1.31888E-06 0.00000E+00
 -1       628 4.84936E-05 1.70751E-06 0.00000E+00
 -1       629 4.83864E-05 2.13562E-06 0.00000E+00
 -1       630 4.82663E-05 2.59839E-06 0.00000E+00
 -1       631 4.81349E-05 3.09095E-06 0.00000E+00
 -1       632 4.79943E-05 3.60840E-06 0.00000E+00
 -1       633 4.78461E-05 4.14590E-06 0.00000E+00
 -1       634 4.76922E-05 4.69856E-06 0.00000E+00
 -1       635 4.75344E-05 5.26150E-06 0.00000E+00
 -1       636 4.73746E-05 5.82986E-06 1.65436E-24
 -1       637 4.72146E-05 6.39876E-06 0.00000E+00
 -1       638 4.70562E-05 6.96332E-06-8.27181E-25
 -1       639 4.69011E-05 7.51867E-06 0.00000E+00
 -1       640 4.67511E-05 8.05993E-06 8.27181E-25
 -1       656 4.81801E-05 9.84977E-06 3.30872E-24
 -1       657 4.77732E-05 9.59361E-06 0.00000E+00
 -1       658 4.75022E-05 9.33824E-06 0.00000E+00
 -1       659 4.72800E-05 9.08308E-06 0.00000E+00
 -1       660 4.70127E-05 8.82711E-06 3.30872E-24
 -1       661 4.85763E-05 1.08379E-05-8.27181E-25
 -1       662 4.83574E-05 1.15481E-05 0.00000E+00
 -1       663 4.81499E-05 1.22275E-05 0.00000E+00
 -1       664 4.79539E-05 1.28775E-05 0.00000E+00
 -1       665 4.77684E-05 1.34992E-05 0.00000E+00
 -1       666 4.75932E-05 1.40939E-05 0.00000E+00
 -1       667 4.74277E-05 1.46628E-05 0.00000E+00
 -1       668 4.72714E-05 1.52071E-05 8.27181E-25
 -1       669 4.71240E-05 1.57277E-05 0.00000E+00
 -1       670 4.69851E-05 1.62259E-05 0.00000E+00
 -1       671 4.68541E-05 1.67027E-05 1.65436E-24
 -1       672 4.67308E-05 1.71590E-05 0.00000E+00
 -1       673 4.66147E-05 1.75958E-05 8.27181E-25
 -1       674 4.65051E-05 1.80140E-05-4.13590E-25
 -1       675 4.64023E-05 1.84146E-05-4.13590E-25
 -1       676 4.81099E-05 1.90399E-05 0.00000E+00
 -1       677 4.77479E-05 1.89911E-05 0.00000E+00
 -1       678 4.73861E-05 1.89423E-05 1.65436E-24
 -1       679 4.70246E-05 1.88937E-05 0.00000E+00
 -1       680 4.66636E-05 1.88451E-05 0.00000E+00
 -1       771 9.85629E-06 1.94461E-06 0.00000E+00
 -1       772 7.72888E-06 5.72045E-06-1.32349E-23
 -1       773 5.90213E-06 8.70163E-06 0.00000E+00
 -1       774 4.35552E-06 1.09402E-05 1.32349E-23
 -1       775 3.06901E-06 1.24891E-05 0.00000E+00
 -1       776 2.02184E-06 1.34023E-05-1.32349E-23
 -1       777 1.19302E-06 1.37347E-05 0.00000E+00
 -1       778 5.61288E-07 1.35420E-05 0.00000E+00
 -1       779 1.05224E-07 1.28808E-05 0.00000E+00
 -1       780-1.96839E-07 1.18082E-05-1.32349E-23
 -1       781-3.66624E-07 1.03819E-05-2.64698E-23
 -1       782-4.26062E-07 8.66031E-06-1.32349E-23
 -1       783-3.97111E-07 6.70209E-06 0.00000E+00
 -1       784-3.01825E-07 4.56634E-06 0.00000E+00
 -1       785-1.62337E-07 2.31239E-06 0.00000E+00
 -1       786 4.69658E-05 2.11945E-07 0.00000E+00
 -1       787 4.70045E-05 2.12458E-07 0.00000E+00
 -1       788 4.70430E-05 2.14893E-07 0.00000E+00
 -1       789 4.70820E-05 2.19754E-07-4.13590E-25
 -1       790 4.71210E-05 2.27756E-07 8.27181E-25
 -1       791 4.71601E-05 2.39624E-07-4.13590E-25
 -1       792 4.71991E-05 2.56422E-07 8.27181E-25
 -1       793 4.72382E-05 2.79227E-07 0.00000E+00
 -1       794 4.72773E-05 3.09645E-07 0.00000E+00
 -1       795 4.73164E-05 3.49298E-07 8.27181E-25
 -1       796 4.73555E-05 4.00625E-07 0.00000E+00
 -1       797 4.73945E-05 4.66089E-07 4.13590E-25
 -1       798 4.74336E-05 5.49405E-07 0.00000E+00
 -1       799 4.74725E-05 6.54318E-07 0.00000E+00
 -1       800 4.75115E-05 7.86493E-07 8.27181E-25
 -1       801 4.37598E-05 2.15705E-07-4.13590E-25
 -1       802 3.43291E-05 1.80766E-07-4.13590E-25
 -1       803 2.19391E-05 1.16285E-07-1.65436E-24
 -1       804 9.89014E-06 5.13226E-08 0.00000E+00
 -1       805 1.47743E-06 2.15254E-08 6.61744E-24
 -1       806 4.68815E-05 1.85429E-07 0.00000E+00
 -1       807 4.68317E-05 1.58244E-07 0.00000E+00
 -1       808 4.67804E-05 1.34327E-07 0.00000E+00
 -1       809 4.67266E-05 1.16247E-07-8.27181E-25
 -1       810 4.66696E-05 1.06566E-07 1.65436E-24
 -1       811 4.66085E-05 1.07808E-07 0.00000E+00
 -1       812 4.65423E-05 1.22496E-07 0.00000E+00
 -1       813 4.64701E-05 1.53144E-07 0.00000E+00
 -1       814 4.63910E-05 2.02269E-07 1.65436E-24
 -1       815 4.63041E-05 2.72382E-07 0.00000E+00
 -1       816 4.62083E-05 3.65996E-07 8.27181E-25
 -1       817 4.61028E-05 4.85621E-07 0.00000E+00
 -1       818 4.59866E-05 6.33769E-07-8.27181E-25
 -1       819 4.58588E-05 8.12940E-07 8.27181E-25
 -1       820 4.57186E-05 1.02564E-06-8.27181E-25
 -1       821 4.74944E-05 1.14902E-06-4.13590E-25
 -1       822 4.74354E-05 1.37809E-06 4.13590E-25
 -1       823 4.73767E-05 1.64926E-06-1.65436E-24
 -1       824 4.73173E-05 1.97284E-06 0.00000E+00
 -1       825 4.72578E-05 2.35256E-06 0.00000E+00
 -1       826 4.71982E-05 2.79196E-06 0.00000E+00
 -1       827 4.71386E-05 3.28710E-06-1.65436E-24
 -1       828 4.70789E-05 3.83389E-06 0.00000E+00
 -1       829 4.70192E-05 4.42171E-06 1.65436E-24
 -1       830 4.69595E-05 5.03986E-06-8.27181E-25
 -1       831 4.68998E-05 5.67382E-06-1.65436E-24
 -1       832 4.68402E-05 6.30901E-06-8.27181E-25
 -1       833 4.67807E-05 6.93070E-06-1.65436E-24
 -1       834 4.67218E-05 7.52421E-06-4.13590E-25
 -1       835 4.66627E-05 8.07837E-06-4.13590E-25
 -1       836 4.73094E-05 1.00536E-06 0.00000E+00
 -1       837 4.69979E-05 1.06026E-06 8.27181E-25
 -1       838 4.66415E-05 1.11506E-06 0.00000E+00
 -1       839 4.62665E-05 1.16951E-06 4.13590E-25
 -1       840 4.58992E-05 1.22388E-06 0.00000E+00
 -1       856 4.65903E-05 9.09537E-06 0.00000E+00
 -1       857 4.65715E-05 9.67343E-06-1.03398E-25
 -1       858 4.65528E-05 1.03061E-05-4.13590E-25
 -1       859 4.65337E-05 1.09830E-05-2.06795E-25
 -1       860 4.65145E-05 1.16940E-05-4.13590E-25
 -1       861 4.64953E-05 1.24286E-05 0.00000E+00
 -1       862 4.64761E-05 1.31765E-05-4.13590E-25
 -1       863 4.64568E-05 1.39273E-05 0.00000E+00
 -1       864 4.64375E-05 1.46707E-05-4.13590E-25
 -1       865 4.64183E-05 1.53963E-05-2.06795E-25
 -1       866 4.63990E-05 1.60937E-05 4.13590E-25
 -1       867 4.63798E-05 1.67525E-05 0.00000E+00
 -1       868 4.63606E-05 1.73626E-05 0.00000E+00
 -1       869 4.63414E-05 1.79137E-05 0.00000E+00
 -1       870 4.63223E-05 1.83954E-05 0.00000E+00
 -1       871 4.62159E-05 8.58168E-06 2.06795E-25
 -1       872 4.58868E-05 8.57991E-06 0.00000E+00
 -1       873 4.55933E-05 8.57791E-06 0.00000E+00
 -1       874 4.53082E-05 8.57559E-06-1.03398E-25
 -1       875 4.50045E-05 8.57299E-06-2.06795E-25
 -1       876 4.64714E-05 9.10071E-06 0.00000E+00
 -1       877 4.63251E-05 9.65080E-06 0.00000E+00
 -1       878 4.61685E-05 1.02286E-05 0.00000E+00
 -1       879 4.60030E-05 1.08306E-05-8.27181E-25
 -1       880 4.58297E-05 1.14531E-05 1.65436E-24
 -1       881 4.56501E-05 1.20927E-05 8.27181E-25
 -1       882 4.54654E-05 1.27458E-05 1.65436E-24
 -1       883 4.52770E-05 1.34088E-05 0.00000E+00
 -1       884 4.50862E-05 1.40783E-05 0.00000E+00
 -1       885 4.48943E-05 1.47505E-05 0.00000E+00
 -1       886 4.47027E-05 1.54221E-05 0.00000E+00
 -1       887 4.45126E-05 1.60895E-05 0.00000E+00
 -1       888 4.43253E-05 1.67490E-05 1.65436E-24
 -1       889 4.41420E-05 1.73971E-05 0.00000E+00
 -1       890 4.39640E-05 1.80303E-05 8.27181E-25
 -1       891 4.59549E-05 1.87719E-05 0.00000E+00
 -1       892 4.55957E-05 1.87462E-05-4.13590E-25
 -1       893 4.52124E-05 1.87204E-05-4.13590E-25
 -1       894 4.47922E-05 1.86947E-05 4.13590E-25
 -1       895 4.43224E-05 1.86690E-05 0.00000E+00
 -1       956 4.55099E-05 1.59646E-06 0.00000E+00
 -1       957 4.54532E-05 1.95503E-06 8.27181E-25
 -1       958 4.53962E-05 2.34625E-06 1.65436E-24
 -1       959 4.53392E-05 2.76609E-06 0.00000E+00
 -1       960 4.52821E-05 3.21056E-06 0.00000E+00
 -1       961 4.52250E-05 3.67560E-06 8.27181E-25
 -1       962 4.51679E-05 4.15717E-06-1.65436E-24
 -1       963 4.51107E-05 4.65125E-06-8.27181E-25
 -1       964 4.50536E-05 5.15378E-06-1.65436E-24
 -1       965 4.49965E-05 5.66071E-06 0.00000E+00
 -1       966 4.49393E-05 6.16801E-06 1.65436E-24
 -1       967 4.48822E-05 6.67163E-06 8.27181E-25
 -1       968 4.48251E-05 7.16752E-06 1.65436E-24
 -1       969 4.47682E-05 7.65168E-06 0.00000E+00
 -1       970 4.47113E-05 8.12005E-06-1.65436E-24
 -1       971 4.46020E-05 9.02975E-06-8.27181E-25
 -1       972 4.45478E-05 9.53894E-06-4.13590E-25
 -1       973 4.44936E-05 1.00910E-05 0.00000E+00
 -1       974 4.44393E-05 1.06803E-05-8.27181E-25
 -1       975 4.43849E-05 1.13015E-05-1.65436E-24
 -1       976 4.43305E-05 1.19489E-05 0.00000E+00
 -1       977 4.42761E-05 1.26169E-05-1.65436E-24
 -1       978 4.42217E-05 1.33001E-05 0.00000E+00
 -1       979 4.41673E-05 1.39929E-05 0.00000E+00
 -1       980 4.41129E-05 1.46897E-05 0.00000E+00
 -1       981 4.40585E-05 1.53850E-05 0.00000E+00
 -1       982 4.40041E-05 1.60731E-05-8.27181E-25
 -1       983 4.39498E-05 1.67487E-05 0.00000E+00
 -1       984 4.38958E-05 1.74060E-05 0.00000E+00
 -1       985 4.38420E-05 1.80396E-05 0.00000E+00
 -3
    1PSTEP                         4           2           1          
  100CL  102 3.12500E-01         409                     0    2           1
 -4  STRESS      6    1
 -5  SXX         1    4    1    1
 -5  SYY         1    4    2    2
 -5  SZZ         1    4    3    3
 -5  SXY         1    4    1    2
 -5  SYZ         1    4    2    3
 -5  SZX         1    4    3    1
 -1         1-1.07898E+06-4.96989E+05-2.19387E+05-6.97922E+05 5.82077E-11-4.37285E-09
 -1         2 1.81007E+03 2.03790E+05 5.90842E+03 4.17747E+02-9.93339E-11-4.60136E-09
 -1         3-3.09553E+01-4.52104E+05 1.04479E+02-1.03269E+02-3.28271E-12-2.57387E-09
 -1         5-3.19308E+00 1.62382E+05 4.23576E+00-2.29283E-02 5.39679E-11-3.12989E-08
 -1         8-5.08078E+05-2.21440E+05-1.71921E+04-3.85565E+05 2.18279E-10-1.05865E-09
 -1         9-8.72189E+05-2.25759E+05-8.63367E+04-3.01503E+05 2.41707E-09 3.40806E-09
 -1        10-3.43442E+02-4.70999E+05-6.01873E+02-6.89813E+02-2.16528E-09-1.81974E-08
 -1        12-1.45485E+00 1.62391E+05 1.37327E+02 1.11410E-01 1.69322E-10-5.63887E-11
 -1        15 1.34461E+03 7.38934E+02 4.34643E+03 1.89944E+00-2.14155E-09-6.78213E-07
 -1        16-2.45639E+06-7.89961E+05-3.81898E+05-8.02961E+05 7.30021E-09-3.24023E-09
 -1        17-5.41687E+05-3.34200E+05-1.04226E+05-3.15205E+05-3.83734E-09-1.84227E-09
 -1        18 1.91788E+04 1.78301E+03-7.67269E+03-3.82267E+04 4.88399E-10-1.79557E-09
 -1        19 5.09854E+04 6.11887E+04-1.99028E+02 9.95308E+03-5.14410E-10-6.98492E-10
 -1        20-2.11233E+04-2.40517E+05-5.30356E+04 1.78730E+04 2.48701E-09 4.33010E-09
 -1        21-2.27730E+01-1.39534E+05-4.50681E+02-3.46553E+01-5.64046E-09-1.09066E-08
 -1        24-2.15777E+06-7.49251E+05-3.07976E+05-9.13417E+05-1.01803E-08-5.81106E-09
 -1        25 1.90646E+04-2.50285E+03 1.13660E+04-6.90433E+04 2.47883E-10 3.47027E-09
 -1        26-1.17120E+04 4.19294E+04-8.20854E+03-5.93678E+03 8.64929E-10-1.01550E-09
 -1        27-3.85395E+04-1.31978E+05-4.95217E+04 2.97461E+04 3.53270E-09-1.21220E-09
 -1        28 1.07842E+04-3.85476E+04 7.87714E+03 1.23618E+04 1.88616E-09 4.96076E-10
 -1        32-5.14597E+05-7.53884E+04 2.22395E+05-3.46902E+05-1.00408E-08 8.29372E-09
 -1        33-7.55013E+04 3.88040E+04 1.37595E+04-2.25626E+04 7.03532E-10-4.22763E-10
 -1        34-9.80184E+04-9.74835E+03 2.31753E+02 3.01288E+04 2.34389E-09-2.39728E-09
 -1        35-1.09710E+04-1.53320E+04-5.98115E+02 2.43030E+04 4.61625E-09 1.26480E-09
 -1        51 9.89745E+03-2.54346E+05 2.43958E+04-6.29740E+05-2.03727E-10-1.24492E-08
 -1        52 5.22749E+03-2.52398E+05 1.61619E+04-7.34477E+05 2.29193E-10-1.46683E-08
 -1        53 3.43633E+03-2.59022E+05 1.41182E+04-6.27594E+05 2.40107E-10-5.05679E-09
 -1        54 1.07531E+04-2.56920E+05 2.28850E+04-7.36752E+05 7.27596E-11-3.08137E-09
 -1        55 2.35488E+04-2.65324E+05 4.11777E+04-6.27307E+05 4.94765E-10 2.30648E-09
 -1        56-2.07236E+06-2.34243E+05-1.61933E+05-7.99199E+05-9.82254E-11-5.11500E-09
 -1        57-2.13742E+06-3.80670E+05-1.09141E+05-7.92950E+05 1.36242E-09 4.06180E-09
 -1        58-2.10475E+06-2.85649E+05-3.81192E+04-7.89203E+05-1.19007E-09 4.60750E-09
 -1        59-2.09993E+06-3.20412E+05-2.27562E+04-8.04965E+05 1.54614E-10 2.18643E-09
 -1        60-2.10953E+06-2.92771E+05-8.90872E+03-7.87803E+05-1.07093E-10 6.49379E-10
 -1        61-2.09487E+06-3.11593E+05-5.06605E+03-8.06034E+05-7.09861E-10-6.57076E-09
 -1        62-2.10974E+06-2.94252E+05-2.44239E+03-7.88199E+05 5.09317E-11-2.57549E-09
 -1        63-2.09565E+06-3.09015E+05-2.00818E+03-8.04384E+05-4.26155E-10 3.81411E-09
 -1        64-2.10870E+06-2.95349E+05-2.31025E+03-7.89432E+05 1.13596E-09-2.02510E-09
 -1        65-2.09879E+06-3.07311E+05-4.62114E+03-8.01188E+05-1.23953E-09-7.06530E-09
 -1        66-2.10656E+06-2.96010E+05-8.13696E+03-7.91353E+05 2.76941E-10-6.96673E-10
 -1        67-2.10697E+06-3.11646E+05-2.06445E+04-7.95972E+05-9.74779E-10-8.03084E-10
 -1        68-2.10054E+06-2.91240E+05-3.46586E+04-7.94555E+05 9.64519E-10-3.20870E-09
 -1        69-2.14396E+06-3.63447E+05-9.90977E+04-7.81754E+05 7.25322E-10 2.19734E-09
 -1        70-2.06987E+06-2.45772E+05-1.47108E+05-8.05015E+05-6.23913E-10 2.19006E-09
 -1        86-9.07656E+02 2.01981E+05 6.33209E+03-2.08885E+02 7.96945E-10-5.83998E-09
 -1        87 6.02451E+03 2.05849E+05 1.32082E+04 8.58195E+02 1.34901E-09-3.36031E-09
 -1        88-5.11011E+03 1.99923E+05 2.02241E+04-6.49337E+02 2.01271E-09 2.83273E-09
 -1        89 3.80831E+04 2.20791E+05 5.45379E+04 1.84431E+03 3.03498E-09-1.61107E-09
 -1        90-3.28622E+04 1.87048E+05 7.70411E+04-1.19473E+03 3.44880E-09 1.20036E-09
 -1       121-5.42408E+01-4.52276E+05 9.90214E+01 5.15958E+01 2.62254E-10 3.63798E-11
 -1       122 3.39908E+00-4.52081E+05 2.28207E+02-2.06662E+02-8.66896E-10 2.98814E-09
 -1       123-7.91701E+01-4.52300E+05 3.69481E+02 1.54837E+02 6.92921E-10 3.19142E-09
 -1       124 4.24271E+02-4.51823E+05 9.57364E+02-4.92381E+02-1.62265E-09 5.07634E-09
 -1       125-3.52751E+02-4.52538E+05 1.46825E+03 3.37302E+02 1.12595E-09 2.42380E-09
 -1       191-3.49260E+00 1.62396E+05 5.05646E+00 1.11790E-02 1.08626E-10-2.74486E-09
 -1       192-3.58210E+00 1.62382E+05 8.96919E+00 2.76602E-01 1.80802E-10 1.64289E-08
 -1       193-4.52717E+00 1.62396E+05 1.66744E+01-2.89744E-01 1.95540E-10 4.54202E-09
 -1       194-4.83416E+00 1.62384E+05 3.39284E+01 7.77160E-01 1.31196E-10-4.96721E-09
 -1       195-6.51572E+00 1.62395E+05 6.63607E+01-4.92716E-01 2.71168E-10-2.04864E-09
 -1       251 1.83002E+05-3.18915E+04 7.45100E+04 2.93195E+03-1.63027E-10 1.20053E-09
 -1       252 2.16682E+05 3.69057E+04 5.28197E+04-9.77088E+03-9.52127E-11 4.95402E-09
 -1       253 1.95781E+05-4.93852E+03 1.92863E+04 2.08702E+03-2.06342E-10 3.47063E-09
 -1       254 2.01649E+05 5.70738E+03 1.21805E+04-8.43469E+03 6.00210E-10-2.94131E-09
 -1       255 1.97982E+05-7.63103E+02 4.98330E+03 1.59592E+03 2.89134E-10 9.68839E-10
 -1       256 1.99024E+05 9.05194E+02 3.02764E+03-7.70871E+03 6.50218E-10 2.96495E-09
 -1       257 1.98382E+05-1.33587E+02 1.55913E+03 1.36102E+03-1.13261E-10 4.88029E-09
 -1       258 1.98617E+05 2.81990E+02 1.38210E+03-7.47129E+03 5.02678E-11 3.93967E-09
 -1       259 1.98381E+05-1.36259E+02 1.58439E+03 1.35850E+03-9.55609E-11-4.54907E-09
 -1       260 1.99034E+05 9.28635E+02 3.09941E+03-7.69920E+03-1.19542E-10-8.10149E-09
 -1       261 1.97973E+05-7.83589E+02 5.11458E+03 1.58894E+03 1.23157E-09-3.05499E-09
 -1       262 2.01718E+05 5.86196E+03 1.25043E+04-8.41412E+03 1.21545E-10 2.42198E-09
 -1       263 1.95720E+05-5.07164E+03 1.98089E+04 2.07343E+03-6.15728E-10 7.72616E-09
 -1       264 2.17135E+05 3.79025E+04 5.42386E+04-9.73774E+03-2.16221E-09 6.20457E-09
 -1       265 1.82609E+05-3.27505E+04 7.65295E+04 2.91239E+03-1.06820E-09-2.74304E-09
 -1       266-2.43419E+04-1.13823E+04 5.71128E+04-4.06423E+01-3.20142E-09-1.04400E-06
 -1       267 2.82190E+04 1.32662E+04 4.03665E+04 4.68930E+01-6.50107E-09-2.07181E-06
 -1       268-3.78411E+03-1.87887E+03 1.50041E+04-5.97499E+00-5.20504E-09-1.66301E-06
 -1       269 4.46793E+03 2.24860E+03 9.75239E+03 6.95996E+00-3.93459E-09-1.25682E-06
 -1       270-6.70642E+02-3.69464E+02 4.70762E+03-9.44514E-01-2.88765E-09-9.28682E-07
 -1       271-2.39227E+06-2.97897E+05-1.84092E+05-9.31219E+05-5.87534E-10 8.94943E-10
 -1       272-2.44326E+06-4.47277E+05-1.18358E+05-9.46922E+05 2.80352E-10-4.20550E-09
 -1       273-2.42725E+06-3.43387E+05-4.34837E+04-9.22645E+05-5.68207E-10-3.62343E-09
 -1       274-2.40243E+06-3.91495E+05-2.43459E+04-9.60121E+05 2.29738E-09-1.83491E-09
 -1       275-2.43264E+06-3.47511E+05-1.01148E+04-9.20548E+05 3.00133E-10 2.71029E-09
 -1       276-2.39607E+06-3.86655E+05-5.37824E+03-9.63506E+05 7.94216E-10 3.32193E-09
 -1       277-2.43386E+06-3.47409E+05-2.63045E+03-9.19725E+05 9.19499E-10 7.93284E-09
 -1       278-2.39491E+06-3.86640E+05-1.91344E+03-9.64492E+05 1.04956E-09-7.06336E-10
 -1       279-2.43393E+06-3.47389E+05-2.05295E+03-9.19677E+05 8.94374E-10-3.59637E-09
 -1       280-2.39571E+06-3.86531E+05-3.76158E+03-9.63734E+05-3.12866E-10 1.99498E-09
 -1       281-2.43296E+06-3.47619E+05-6.88122E+03-9.20393E+05-1.85537E-10-1.31013E-09
 -1       282-2.40041E+06-3.89301E+05-1.64289E+04-9.60826E+05 2.62162E-10 5.43196E-09
 -1       283-2.42897E+06-3.45230E+05-2.93327E+04-9.22206E+05 3.08773E-10-3.86535E-09
 -1       284-2.42869E+06-4.25981E+05-7.97340E+04-9.50795E+05-5.71163E-10-5.39330E-09
 -1       285-2.40484E+06-3.15196E+05-1.24110E+05-9.28613E+05 1.56524E-09-2.85218E-09
 -1       301 9.18174E+03-5.60930E+03 7.16397E+04-1.76314E+04-3.49246E-10 1.31132E-09
 -1       302 9.86570E+03 1.25707E+04 5.17639E+04-2.59450E+04 6.39375E-10 1.94433E-09
 -1       303 4.32854E+02 8.20380E+02 4.77002E+04-1.76687E+04-6.93035E-10 1.66665E-10
 -1       304 1.86412E+04 2.06656E+04 8.02923E+04-2.58737E+04 7.96717E-10 1.24601E-09
 -1       305 1.84751E+04-1.36570E+04 1.34772E+05-1.76552E+04-4.80213E-10 2.90493E-09
 -1       306-2.57451E+06-2.96254E+05-1.96290E+05-1.00432E+06 1.47702E-09-1.81171E-09
 -1       307-2.67212E+06-4.65729E+05-1.33841E+05-9.74392E+05 1.05138E-09-4.24916E-09
 -1       308-2.61914E+06-3.57202E+05-4.61847E+04-9.85856E+05 4.78394E-10 2.03545E-09
 -1       309-2.61698E+06-3.98323E+05-2.79773E+04-1.00017E+06-6.40199E-10 2.95995E-09
 -1       310-2.62943E+06-3.62460E+05-1.08391E+04-9.78974E+05-1.48846E-09 1.41654E-09
 -1       311-2.60368E+06-3.93746E+05-6.28334E+03-1.01009E+06 2.63077E-09 2.36241E-10
 -1       312-2.63250E+06-3.61534E+05-3.07209E+03-9.76071E+05-1.54404E-09-9.00968E-10
 -1       313-2.60110E+06-3.94176E+05-2.76985E+03-1.01247E+06-1.36816E-09 5.57009E-10
 -1       314-2.63205E+06-3.61982E+05-3.33077E+03-9.76621E+05-1.16717E-09-5.78166E-09
 -1       315-2.60548E+06-3.92254E+05-7.01919E+03-1.00799E+06-9.14042E-11-2.31000E-09
 -1       316-2.62805E+06-3.63534E+05-1.22462E+04-9.80492E+05 1.69086E-09-4.30464E-09
 -1       317-2.62102E+06-3.97039E+05-3.16531E+04-9.96326E+05-1.58246E-09-5.78939E-09
 -1       318-2.61645E+06-3.57464E+05-5.22718E+04-9.88141E+05-3.26463E-09 3.61615E-09
 -1       319-2.68282E+06-4.74142E+05-1.51542E+05-9.68135E+05-2.27283E-09 1.25328E-09
 -1       320-2.56654E+06-2.87753E+05-2.22167E+05-1.00823E+06 4.91127E-09-2.00816E-09
 -1       336 3.54566E+02-4.89617E+05-2.60519E+03 3.52069E+02-4.39832E-09 2.91038E-11
 -1       337-9.38884E+02-4.90339E+05-2.85395E+03-9.49546E+02-8.01367E-09 2.19916E-09
 -1       338 2.33410E+02-4.89694E+05-3.59226E+03 5.95957E+02-5.73095E-09-6.44104E-09
 -1       339-3.71420E+03-4.92040E+05-7.86600E+03-1.43295E+03-1.03096E-08 5.15638E-09
 -1       340 2.52775E+03-4.87936E+05-1.21191E+04 8.32695E+02-6.97673E-09 5.12136E-09
 -1       406 9.02621E+00 1.62389E+05 2.71116E+02 3.73492E-01 3.56948E-10 9.53150E-10
 -1       407 9.30769E+01 1.62439E+05 5.76249E+02-6.69220E+00 9.44169E-11 4.12388E-09
 -1       408 2.95159E+02 1.62347E+05 1.15090E+03 6.39328E+00 4.32919E-10-3.77167E-09
 -1       409 1.24311E+03 1.62806E+05 2.59110E+03-5.84472E+01 2.25100E-11-3.18050E-09
 -1       410 3.57427E+03 1.62020E+05 5.28967E+03 5.34612E+01 4.53838E-10 1.22327E-10
 -1       521-4.86022E+06-5.61451E+05-3.63964E+05-1.89075E+06 3.73257E-09-5.61704E-09
 -1       522-5.03626E+06-8.74638E+05-2.47315E+05-1.84078E+06-1.30058E-09-1.37516E-09
 -1       523-4.94489E+06-6.70371E+05-8.55744E+04-1.85418E+06 5.92991E-10-3.22689E-09
 -1       524-4.93181E+06-7.54073E+05-5.15777E+04-1.89147E+06 2.58342E-09 5.48243E-09
 -1       525-4.96406E+06-6.79178E+05-1.99759E+04-1.84105E+06 2.02033E-09-2.24827E-09
 -1       526-4.90980E+06-7.43611E+05-1.15131E+04-1.90686E+06 1.45789E-09-1.92529E-09
 -1       527-4.96696E+06-6.80289E+05-5.52742E+03-1.83905E+06 2.95745E-09 1.32798E-09
 -1       528-4.91293E+06-7.35958E+05-4.69421E+03-1.90120E+06 1.44291E-09 2.97081E-09
 -1       529-4.96077E+06-6.86885E+05-5.61365E+03-1.84661E+06 1.39380E-10 2.42335E-09
 -1       530-4.93201E+06-7.20172E+05-1.12554E+04-1.87935E+06-1.63345E-09 1.47065E-09
 -1       531-4.94756E+06-6.96351E+05-2.00065E+04-1.86065E+06-1.72668E-09 1.99452E-09
 -1       532-4.96893E+06-7.15970E+05-5.10885E+04-1.84778E+06-1.58047E-09-5.38421E-09
 -1       533-4.92398E+06-6.91494E+05-8.49237E+04-1.87805E+06 1.83172E-09-5.81713E-09
 -1       534-5.07423E+06-8.35518E+05-2.45582E+05-1.79835E+06 2.57569E-09 1.64800E-09
 -1       535-4.84346E+06-5.79213E+05-3.61038E+05-1.90955E+06-6.42467E-09 5.38421E-09
 -1       536-1.14980E+04-1.35847E+04 3.12912E+04 2.96198E+02-1.07937E-09 5.05497E-09
 -1       537 2.98631E+03 1.57183E+04 2.22944E+04-1.20096E+03-4.62146E-09-6.62794E-10
 -1       538-6.13361E+03-2.12905E+03 8.07134E+03 2.82113E+02-1.44667E-11-1.89812E-09
 -1       539-3.34245E+03 2.45769E+03 5.15392E+03-1.19733E+03 1.46542E-09-3.07926E-09
 -1       540-5.17599E+03-3.31336E+02 2.03781E+03 2.92567E+02-1.79874E-10 3.81931E-09
 -1       541-4.51667E+03 3.79000E+02 1.21748E+03-1.21674E+03 3.25134E-10 4.75556E-09
 -1       542-4.96353E+03-4.90347E+01 4.88140E+02 3.01513E+02-4.39805E-10-1.18851E-09
 -1       543-4.80001E+03 4.68195E+01 2.45688E+02-1.23094E+03 3.30324E-10 4.31322E-09
 -1       544-4.89534E+03 2.55968E+00 3.46633E+01 3.06772E+02 6.37534E-11-7.49267E-10
 -1       545-4.91020E+03-6.12184E+01-1.46377E+02-1.23759E+03-4.57530E-10-7.45737E-09
 -1       546-4.85459E+03 5.98351E+01-3.41006E+02 3.08160E+02 3.77683E-10-4.18515E-09
 -1       547-5.08882E+03-4.43301E+02-9.01800E+02-1.23642E+03-1.56451E-09-2.87275E-09
 -1       548-4.71648E+03 3.84195E+02-1.46388E+03 3.05605E+02-1.49982E-09-1.54262E-09
 -1       549-6.12415E+03-2.83228E+03-3.99211E+03-1.22648E+03-7.97566E-10 4.40536E-09
 -1       550-3.81750E+03 2.44570E+03-5.68703E+03 2.98220E+02-9.81260E-12 2.34627E-09
 -1       551 4.25103E+03-2.57746E+05 1.43334E+04-4.42307E+05-1.92304E-08-5.54428E-09
 -1       552 8.66926E+03-2.57648E+05 1.85560E+04-6.29372E+05-1.51013E-08 6.76118E-09
 -1       553 5.52900E+03-2.61034E+05 2.89324E+04-4.40899E+05-2.36214E-08 4.91309E-09
 -1       554 2.27648E+04-2.48154E+05 6.14502E+04-6.29973E+05-1.45592E-08 3.67584E-09
 -1       555 2.33769E+04-2.72814E+05 1.10493E+05-4.41505E+05-2.33049E-08-2.33194E-09
 -1       556 3.57894E+04-8.22109E+04 2.85980E+04-1.10108E+05-1.00772E-09 4.40923E-09
 -1       557 6.91891E+04-1.10302E+05 1.49590E+04-1.37519E+05-2.00816E-09-2.68119E-09
 -1       558 3.61956E+04-8.63194E+04 6.13764E+03-1.06540E+05-3.49974E-09-1.49157E-10
 -1       559 6.52598E+04-1.14401E+05 3.08568E+03-1.39109E+05 1.77533E-09 3.15777E-09
 -1       560 3.56045E+04-8.59094E+04 1.32200E+03-1.06876E+05 6.83940E-10 2.67937E-09
 -1       561 6.41952E+04-1.14215E+05 6.81565E+02-1.39773E+05 1.30967E-10 1.55615E-09
 -1       562 3.50985E+04-8.55560E+04 2.78518E+02-1.07245E+05-4.65297E-09-2.58069E-10
 -1       563 6.35853E+04-1.13956E+05 1.59504E+02-1.40162E+05-1.12741E-08-7.99787E-09
 -1       564 3.47834E+04-8.53485E+04 5.92113E+01-1.07471E+05-1.68075E-09 7.24867E-10
 -1       565 6.32724E+04-1.13824E+05 2.79916E+01-1.40357E+05 1.66710E-09 3.75439E-09
 -1       566 3.46761E+04-8.52744E+04-2.02821E+01-1.07550E+05-1.26147E-09 1.62163E-09
 -1       567 6.32284E+04-1.13802E+05-8.20885E+01-1.40343E+05 1.64050E-09-7.07769E-09
 -1       568 3.47981E+04-8.53563E+04-2.12568E+02-1.07504E+05-1.37788E-09-2.46109E-09
 -1       569 6.30314E+04-1.13684E+05-5.01740E+02-1.39760E+05-1.90630E-09 4.07454E-10
 -1       570 3.54977E+04-8.60411E+04-1.03236E+03-1.07579E+05 9.42237E-10 2.33922E-09
 -1       571 1.17700E+05 4.26447E+03 6.31673E+03-2.96196E+04 1.11049E-09-8.66066E-10
 -1       572 1.18641E+05 1.48331E+03 3.09457E+03-3.24682E+04 1.19599E-09 3.48132E-09
 -1       573 1.18081E+05 3.53521E+02 1.37471E+03-2.95423E+04-1.52795E-09 2.64754E-09
 -1       574 1.18193E+05 1.14260E+02 6.88610E+02-3.25550E+04-2.96950E-09-2.31285E-09
 -1       575 1.18125E+05 1.49193E+01 3.24487E+02-2.95320E+04-2.12947E-09 3.36763E-09
 -1       576 1.18133E+05 3.16980E+00 1.65043E+02-3.25666E+04-1.18524E-09 3.05249E-09
 -1       577 1.18132E+05-3.27463E+00 8.11772E+01-2.95307E+04 1.09316E-09 4.53269E-09
 -1       578 1.18126E+05-1.89240E+00 4.40097E+01-3.25680E+04 1.68791E-09 2.51339E-09
 -1       579 1.18137E+05-3.33842E+00 2.65886E+01-2.95307E+04 2.24418E-10-1.19667E-09
 -1       580 1.18132E+05-3.69322E+00 2.41989E+01-3.25661E+04 1.43700E-10 2.89901E-10
 -1       581 1.18145E+05-5.39913E+00 3.23342E+01-2.95325E+04 4.22915E-10 9.53605E-10
 -1       582 1.18148E+05 1.70157E-01 6.10269E+01-3.25484E+04-1.55978E-10 5.57884E-09
 -1       583 1.18153E+05 1.65211E+01 1.17106E+02-2.95484E+04 2.80124E-10 1.14198E-09
 -1       584 1.18202E+05 1.08610E+02 2.62195E+02-3.24164E+04-5.72072E-10 1.37152E-09
 -1       585 1.18136E+05 3.40815E+02 5.32837E+02-2.96646E+04 4.54747E-12 1.01136E-09
 -1       586-1.46599E+03 3.83823E+04-1.93329E+03-1.00780E+05 2.72166E-10-1.67609E-09
 -1       587-3.27496E+02 3.81250E+04-2.33343E+02-1.10900E+05 5.22959E-10-2.66505E-09
 -1       588 3.89679E+02 3.81748E+04 1.33381E+03-1.00719E+05 3.01952E-10 2.78806E-09
 -1       589 1.98961E+03 3.89031E+04 3.90836E+03-1.10808E+05 4.90218E-10 4.00064E-09
 -1       590 5.73713E+03 3.76812E+04 8.37942E+03-1.00872E+05 2.36469E-10 2.74804E-09
 -1       591-2.54791E+04-7.32736E+03-8.53574E+03-1.32468E+04 4.24077E-09-1.59480E-09
 -1       592-2.62768E+04-9.42541E+03-4.62331E+03-1.54747E+04 1.00704E-08-1.05314E-09
 -1       593-2.63419E+04-6.69851E+03-1.92472E+03-1.38629E+04 3.54999E-09-3.27702E-09
 -1       594-2.50870E+04-8.18490E+03-9.59978E+02-1.55336E+04-9.04492E-10 1.71873E-09
 -1       595-2.64078E+04-6.69578E+03-4.41192E+02-1.38911E+04 6.70980E-10 8.11440E-12
 -1       596-2.50063E+04-8.12812E+03-2.24951E+02-1.55251E+04 2.81901E-10 3.73776E-09
 -1       597-2.64162E+04-6.70128E+03-1.23916E+02-1.38922E+04 6.45386E-11 1.68197E-09
 -1       598-2.49987E+04-8.12594E+03-1.02222E+02-1.55228E+04 3.60330E-10 4.47488E-09
 -1       599-2.64156E+04-6.70122E+03-1.33801E+02-1.38921E+04-1.20235E-09-4.46147E-09
 -1       600-2.50076E+04-8.12879E+03-2.51183E+02-1.55251E+04 1.49839E-10-2.14487E-09
 -1       601-2.64053E+04-6.69507E+03-4.96825E+02-1.38905E+04-7.20092E-10-2.93460E-09
 -1       602-2.50988E+04-8.19272E+03-1.08361E+03-1.55339E+04-1.35913E-10 4.31191E-09
 -1       603-2.63303E+04-6.69904E+03-2.17336E+03-1.38589E+04-6.41307E-10 3.67572E-09
 -1       604-2.64469E+04-9.58876E+03-5.22098E+03-1.54613E+04-1.63664E-09-2.10741E-09
 -1       605-2.53504E+04-7.41318E+03-9.63898E+03-1.31679E+04 7.27937E-10 1.31968E-09
 -1       606 1.68406E+04-5.67925E+03-1.02314E+04 1.64868E+04-1.14987E-08 7.68068E-10
 -1       607 1.50886E+04-1.83169E+03-5.09489E+03 1.85073E+04-1.48571E-08-2.93358E-09
 -1       608 1.60876E+04-3.07833E+02-2.28105E+03 1.63552E+04-4.45743E-09 4.93469E-09
 -1       609 1.58914E+04-8.17477E+01-1.15231E+03 1.86528E+04-2.35013E-09 4.57101E-09
 -1       610 1.60008E+04 1.31407E+01-5.50057E+02 1.63405E+04-5.19140E-09-1.59685E-09
 -1       611 1.59654E+04 1.80912E+01-2.77577E+02 1.86687E+04-8.09450E-09 1.02227E-09
 -1       612 1.59806E+04 1.95646E+01-1.32611E+02 1.63391E+04-3.52247E-09-4.13411E-09
 -1       613 1.59684E+04 2.06371E+01-6.05821E+01 1.86707E+04-4.04543E-09-3.82818E-09
 -1       614 1.59706E+04 1.78779E+01-1.68846E+01 1.63385E+04-8.77208E-10 2.42176E-09
 -1       615 1.59649E+04 2.19570E+01 1.86314E+01 1.86710E+04 3.16140E-09-3.87126E-09
 -1       616 1.59630E+04 1.96678E+01 6.21591E+01 1.63387E+04-3.66026E-09-6.03143E-09
 -1       617 1.59710E+04 3.62164E+01 1.44126E+02 1.86707E+04-1.98054E-09-4.81668E-09
 -1       618 1.59494E+04 6.19921E+01 2.91441E+02 1.63388E+04-5.50699E-10-1.64255E-09
 -1       619 1.60731E+04 2.62289E+02 6.55027E+02 1.86703E+04 1.00613E-09 9.11314E-10
 -1       620 1.58519E+04 7.54140E+02 1.31679E+03 1.63384E+04 2.63782E-09 2.45655E-09
 -1       621 2.13874E+02 1.30834E+05 2.01737E+03 3.97200E+03-1.34649E-09-3.13401E-09
 -1       622 2.74740E+02 1.31342E+05 1.66426E+03 5.88522E+03-7.53801E-10-3.11576E-09
 -1       623 8.32222E+00 1.30987E+05 1.83953E+03 3.95317E+03-1.22071E-09-5.72095E-09
 -1       624 8.28543E+02 1.31847E+05 3.43672E+03 5.90351E+03-6.99174E-10-1.32585E-08
 -1       625 7.32455E+02 1.30326E+05 5.91800E+03 3.95386E+03-1.02477E-09-9.53546E-09
 -1       626 1.05825E+05 2.93602E+04 2.09601E+03 5.72753E+04-2.46109E-09 2.65027E-09
 -1       627 1.04370E+05 3.04358E+04 1.00965E+03 5.95940E+04-4.73437E-09-3.32591E-09
 -1       628 1.05909E+05 2.83662E+04 4.26719E+02 5.75920E+04-1.03682E-10-3.17641E-10
 -1       629 1.04070E+05 3.01974E+04 2.09007E+02 5.97357E+04-2.11776E-09-6.80802E-09
 -1       630 1.05917E+05 2.83174E+04 9.68010E+01 5.76020E+04 1.71804E-09 2.90618E-09
 -1       631 1.04036E+05 3.01911E+04 5.20036E+01 5.97392E+04-1.26920E-09 3.29282E-09
 -1       632 1.05914E+05 2.83199E+04 3.44659E+01 5.75987E+04-2.54522E-09-1.33036E-09
 -1       633 1.04030E+05 3.01935E+04 3.85344E+01 5.97366E+04-3.04954E-09-1.27050E-08
 -1       634 1.05909E+05 2.83197E+04 6.25362E+01 5.75968E+04 3.79509E-09-4.70015E-09
 -1       635 1.04033E+05 3.01941E+04 1.26872E+02 5.97370E+04 7.62441E-10 2.55000E-09
 -1       636 1.05903E+05 2.83190E+04 2.56366E+02 5.75951E+04-2.73133E-10 9.13064E-09
 -1       637 1.04085E+05 3.02350E+04 5.63509E+02 5.97343E+04-8.32488E-10-3.50838E-09
 -1       638 1.05880E+05 2.84450E+04 1.15826E+03 5.75368E+04-8.09894E-09 1.99611E-09
 -1       639 1.04690E+05 3.10828E+04 2.74017E+03 5.95535E+04-9.92816E-09 2.49754E-08
 -1       640 1.05797E+05 3.09684E+04 5.68680E+03 5.64654E+04-8.03288E-09 8.87894E-10
 -1       656 2.86889E+04-7.26158E+05-6.92703E+04-5.10802E+02-9.82254E-11-2.62956E-09
 -1       657-3.79073E+04-7.57446E+05-5.72860E+04 4.75223E+03 1.04137E-10-6.53360E-09
 -1       658 9.09520E+03-7.35088E+05-3.51557E+04-9.53394E+02-1.06752E-10 2.55095E-09
 -1       659-4.06391E+04-7.58732E+05-6.08738E+04 5.04365E+03 7.86713E-11 3.04526E-09
 -1       660 3.14133E+04-7.24874E+05-7.54477E+04-8.02213E+02 9.09495E-11-9.41824E-10
 -1       661 1.03232E+05 1.12120E+04 9.89449E+03 4.03015E+04 4.90218E-10 1.40426E-09
 -1       662 1.08358E+05 1.89999E+04 6.66720E+03 3.86117E+04 1.42765E-09 1.87174E-09
 -1       663 1.05168E+05 1.43935E+04 2.33225E+03 3.97460E+04 6.90875E-10 2.42176E-09
 -1       664 1.06121E+05 1.52733E+04 1.39428E+03 3.92844E+04 5.04784E-10 2.41339E-09
 -1       665 1.05455E+05 1.48341E+04 5.50051E+02 3.96682E+04-7.56131E-10 5.13424E-10
 -1       666 1.05786E+05 1.47641E+04 3.20670E+02 3.93819E+04-6.70661E-09 3.20871E-09
 -1       667 1.05501E+05 1.48894E+04 1.69106E+02 3.96535E+04-7.48386E-10-3.27627E-09
 -1       668 1.05740E+05 1.47173E+04 1.69280E+02 3.94015E+04 2.78493E-09 1.87750E-09
 -1       669 1.05501E+05 1.48797E+04 2.26861E+02 3.96490E+04 2.78054E-09 2.57347E-09
 -1       670 1.05802E+05 1.48323E+04 4.91644E+02 3.93955E+04 3.49743E-09-2.14433E-09
 -1       671 1.05439E+05 1.47768E+04 8.72296E+02 3.96586E+04-1.90223E-09 4.94708E-10
 -1       672 1.06315E+05 1.56760E+04 2.23113E+03 3.92672E+04-3.59515E-09 4.54315E-09
 -1       673 1.04991E+05 1.40574E+04 3.73885E+03 3.97692E+04-3.07483E-09-6.88124E-09
 -1       674 1.09879E+05 2.16780E+04 1.06927E+04 3.82158E+04-3.87445E-10-6.10567E-09
 -1       675 1.01898E+05 8.94264E+03 1.58708E+04 4.06468E+04 2.11071E-09-2.62844E-10
 -1       676 1.16939E+01-1.39497E+05-5.43183E+02 1.73281E+01-2.17541E-09 5.88030E-09
 -1       677-1.44181E+02-1.39628E+05-9.94049E+02-3.46506E+01-2.86663E-09-5.54130E-09
 -1       678 9.62675E+01-1.39403E+05-1.75720E+03 1.73106E+01-1.12732E-09-4.42905E-09
 -1       679-1.75741E+03-1.40688E+05-4.17405E+03-3.45726E+01-4.48040E-09-5.24522E-09
 -1       680 1.04874E+03-1.38436E+05-6.72723E+03 1.70510E+01-1.27284E-09-9.55977E-10
 -1       771-1.50056E+06-2.60804E+05-3.64851E+04-6.21052E+05-5.86442E-09-5.10045E-09
 -1       772-1.49117E+06-2.81053E+05-1.96142E+04-6.43601E+05-4.52201E-09 1.30149E-09
 -1       773-1.50535E+06-2.57101E+05-8.39942E+03-6.23096E+05-2.69938E-09 2.25191E-09
 -1       774-1.48583E+06-2.76634E+05-4.10723E+03-6.45495E+05 4.36557E-09-1.37970E-09
 -1       775-1.50629E+06-2.56535E+05-2.03470E+03-6.23218E+05 2.11003E-10 5.14774E-10
 -1       776-1.48566E+06-2.76600E+05-9.49078E+02-6.46382E+05-6.33008E-10 1.28421E-09
 -1       777-1.50689E+06-2.56117E+05-5.62493E+02-6.23266E+05 4.72210E-09-6.76664E-10
 -1       778-1.48580E+06-2.76714E+05-2.57726E+02-6.47112E+05 1.13287E-08 4.21642E-09
 -1       779-1.50735E+06-2.55760E+05-2.40138E+02-6.23306E+05 2.90675E-09-3.53612E-09
 -1       780-1.48595E+06-2.76817E+05-1.98655E+02-6.47703E+05-1.56069E-09 1.70076E-10
 -1       781-1.50770E+06-2.55472E+05-3.50693E+02-6.23334E+05-5.11136E-09 1.44428E-09
 -1       782-1.48612E+06-2.76926E+05-6.53463E+02-6.48138E+05-7.35599E-09-1.61367E-09
 -1       783-1.50789E+06-2.55287E+05-1.30603E+03-6.23338E+05-1.63709E-10-3.03072E-09
 -1       784-1.48698E+06-2.77807E+05-3.09996E+03-6.48368E+05-2.94676E-09-4.36103E-10
 -1       785-1.50744E+06-2.55604E+05-5.73028E+03-6.22928E+05-6.46651E-09 6.71662E-10
 -1       786 1.09164E+05-5.82942E+03 1.34857E+04 1.44070E+00 9.68591E-08-4.53656E-09
 -1       787 1.15008E+05 6.74861E+03 9.54107E+03-7.05777E+00 1.92430E-07-4.86898E-09
 -1       788 1.11419E+05-9.13823E+02 3.49042E+03 2.45267E+00 2.72932E-07-1.86651E-09
 -1       789 1.12382E+05 1.05734E+03 2.19306E+03-9.70908E+00 3.53629E-07 6.06377E-09
 -1       790 1.11791E+05-1.42753E+02 8.92321E+02 4.09204E+00 4.81356E-07-2.94312E-09
 -1       791 1.11948E+05 1.65854E+02 5.23884E+02-1.39167E+01 6.09305E-07 2.19502E-09
 -1       792 1.11853E+05-2.30018E+01 2.39049E+02 6.66035E+00 8.50147E-07-6.69068E-09
 -1       793 1.11877E+05 3.22812E+01 1.56553E+02-2.04539E+01 1.08913E-06-2.30088E-10
 -1       794 1.11861E+05-9.26760E+00 1.15826E+02 1.06294E+01 5.44897E-07-6.60900E-09
 -1       795 1.11884E+05 4.77614E+01 1.67341E+02-3.05113E+01 1.82259E-09 6.20204E-10
 -1       796 1.11847E+05-3.84703E+01 2.50546E+02 1.67179E+01-9.36391E-11-3.55924E-09
 -1       797 1.11998E+05 2.81997E+02 5.90650E+02-4.59128E+01-9.75671E-11-2.55767E-09
 -1       798 1.11748E+05-2.43331E+02 9.32316E+02 2.60312E+01-1.66716E-10-2.02130E-09
 -1       799 1.12697E+05 1.79663E+03 2.54159E+03-6.96009E+01-5.06278E-10 2.10446E-09
 -1       800 1.11147E+05-1.55188E+03 3.59031E+03 4.04061E+01-1.14933E-10-1.16779E-09
 -1       801-6.30343E+03 9.90364E+03 9.81302E+03 1.16006E+04 6.41376E-09 2.38504E-09
 -1       802 1.65374E+04 5.64520E+04 3.18115E+04-4.77690E+04 1.72045E-08-5.09375E-09
 -1       803-9.83658E+03 2.64209E+04 4.09035E+04 1.10165E+04 1.35042E-08 1.14007E-08
 -1       804 7.91859E+04 8.97266E+04 1.13884E+05-4.82879E+04 1.59343E-08 1.30472E-08
 -1       805-6.89714E+04-2.32276E+04 1.48538E+05 1.21184E+04 5.65342E-09 1.42187E-08
 -1       806-1.28381E+05-2.75008E+04-1.09123E+04-5.34541E+04-8.25366E-11-2.65572E-10
 -1       807-1.29024E+05-2.59373E+04-5.36096E+03-5.63466E+04 5.20458E-10 2.07658E-09
 -1       808-1.28691E+05-2.35584E+04-2.27418E+03-5.53054E+04-3.41777E-09 2.95472E-09
 -1       809-1.27880E+05-2.44487E+04-1.11180E+03-5.65013E+04-4.77030E-09 9.37746E-09
 -1       810-1.28739E+05-2.34192E+04-5.09069E+02-5.53872E+04-3.71153E-09 6.78222E-09
 -1       811-1.27793E+05-2.43897E+04-2.52471E+02-5.64886E+04-5.89921E-10 1.51999E-10
 -1       812-1.28748E+05-2.34292E+04-1.25938E+02-5.53873E+04-3.61752E-09-6.28188E-09
 -1       813-1.27782E+05-2.43911E+04-7.94427E+01-5.64824E+04-3.68345E-10-3.58409E-09
 -1       814-1.28748E+05-2.34326E+04-7.43897E+01-5.53859E+04-7.63976E-10-3.32557E-09
 -1       815-1.27784E+05-2.43922E+04-1.16505E+02-5.64812E+04-8.09905E-10-1.70257E-09
 -1       816-1.28741E+05-2.34312E+04-2.18183E+02-5.53847E+04-9.74524E-10 3.08933E-09
 -1       817-1.27822E+05-2.44129E+04-4.68006E+02-5.64781E+04 2.05500E-09 3.25554E-09
 -1       818-1.28714E+05-2.34963E+04-9.53668E+02-5.53541E+04 6.75846E-09 1.05204E-08
 -1       819-1.28350E+05-2.49852E+04-2.24487E+03-5.63515E+04-2.29875E-10-1.17677E-09
 -1       820-1.28534E+05-2.51934E+04-4.56851E+03-5.46311E+04 3.15049E-09 9.69771E-09
 -1       821-1.66129E+05 9.23612E+03-2.13623E+04 9.56777E+00-4.70256E-10 2.37378E-10
 -1       822-1.75386E+05-1.06923E+04-1.51162E+04-1.85790E+02-1.47681E-09 5.21823E-10
 -1       823-1.69702E+05 1.44789E+03-5.53292E+03-2.33125E+01 1.12622E-09 2.56136E-09
 -1       824-1.71224E+05-1.67588E+03-3.48186E+03-1.08496E+02 1.02993E-10 6.18746E-09
 -1       825-1.70291E+05 2.26695E+02-1.43034E+03-6.77286E+01-2.69345E-09 1.56405E-09
 -1       826-1.70539E+05-2.67370E+02-8.65044E+02-1.99018E+01-4.51453E-09-2.30094E-09
 -1       827-1.70387E+05 4.04066E+01-4.46187E+02-1.11909E+02-2.91753E-09-1.70962E-09
 -1       828-1.70444E+05-8.16511E+01-3.95893E+02 5.68438E+01-3.56868E-09 2.88375E-09
 -1       829-1.70385E+05 4.11261E+01-4.52390E+02-1.44476E+02-3.32109E-10 2.70362E-09
 -1       830-1.70545E+05-2.73438E+02-8.84020E+02 1.01993E+02 1.45804E-09-3.03322E-09
 -1       831-1.70286E+05 2.32091E+02-1.46320E+03-1.57059E+02-2.14666E-09-3.31755E-09
 -1       832-1.71247E+05-1.71589E+03-3.56533E+03 1.04198E+02-8.20662E-10 5.19265E-10
 -1       833-1.69684E+05 1.48253E+03-5.66511E+03-1.46681E+02-1.01740E-09 9.06766E-10
 -1       834-1.75506E+05-1.09484E+04-1.54785E+04 6.41925E+01-1.92650E-09-2.27624E-09
 -1       835-1.66027E+05 9.45735E+03-2.18745E+04-1.17049E+02 3.61457E-09 1.90903E-09
 -1       836-5.50205E+02 1.57280E+05 9.42498E+03-1.38408E+04 1.16097E-09 4.08545E-09
 -1       837 2.07129E+03 1.60201E+05 8.05445E+03-2.78155E+04 1.67449E-09-3.27873E-09
 -1       838-2.05208E+02 1.58093E+05 8.31794E+03-1.37926E+04 1.43518E-09 4.68833E-09
 -1       839 5.33952E+03 1.62642E+05 1.58450E+04-2.78334E+04 1.96610E-09 3.17266E-09
 -1       840-1.60936E+03 1.54824E+05 2.53123E+04-1.38222E+04 1.25965E-09 3.49314E-09
 -1       856-5.21019E+04 4.45012E+03-1.17261E+04-2.51022E+02-2.29846E-09 2.53658E-09
 -1       857-5.69468E+04-5.22010E+03-8.07355E+03 2.68910E+03-1.40581E-09 4.84499E-09
 -1       858-5.40161E+04 6.23737E+02-3.04323E+03-2.59561E+02-2.07288E-09 6.38238E-10
 -1       859-5.47477E+04-7.26358E+02-1.83823E+03 2.70250E+03 8.78231E-11 3.31121E-09
 -1       860-5.43025E+04 8.68901E+01-7.72924E+02-2.64481E+02 1.29172E-09 1.83758E-09
 -1       861-5.44174E+04-9.73963E+01-4.30699E+02 2.70916E+03-2.90718E-09-1.11250E-08
 -1       862-5.43471E+04 1.16538E+01-1.89990E+02-2.66234E+02 5.31692E-09 1.25183E-09
 -1       863-5.43647E+04-8.73070E+00-9.40735E+01 2.70995E+03 8.87125E-09-7.55382E-10
 -1       864-5.43552E+04 1.37696E-01-2.97560E+01-2.65267E+02 5.06547E-09-1.98061E-09
 -1       865-5.43499E+04 1.15979E+01 1.69292E+01 2.70497E+03 2.31472E-09 4.64030E-09
 -1       866-5.43613E+04-8.74415E+00 6.30952E+01-2.61258E+02-8.34859E-10 1.84867E-09
 -1       867-5.43138E+04 7.39609E+01 1.73319E+02 2.69413E+03-1.46662E-09-4.81578E-09
 -1       868-5.43901E+04-6.14798E+01 2.93019E+02-2.54427E+02 7.25549E-10-5.04455E-09
 -1       869-5.40955E+04 5.11373E+02 7.85931E+02 2.67555E+03-2.77288E-09-2.77697E-09
 -1       870-5.45778E+04-4.34815E+02 1.14076E+03-2.42675E+02-4.46278E-10 4.20641E-12
 -1       871-2.41302E+03-5.00501E+03-7.87906E+03 5.16591E+04 1.83991E-09-1.71167E-09
 -1       872-1.04533E+03-6.76396E+03-3.20824E+03 6.69711E+04 2.43199E-09-1.19144E-10
 -1       873-1.79994E+01-5.93201E+03 4.70812E+02 5.15443E+04 6.20958E-10-3.47620E-09
 -1       874 1.22449E+03-4.78304E+03 4.49850E+03 6.69956E+04 2.76668E-09-8.63656E-09
 -1       875 2.89531E+03-7.00603E+03 9.97008E+03 5.16381E+04 1.25465E-09-5.88261E-09
 -1       876 1.29445E+05 2.22979E+04 6.94035E+03 5.25061E+04-1.63618E-09-2.50930E-09
 -1       877 1.29839E+05 2.38229E+04 3.70620E+03 5.45618E+04-2.21814E-09-2.69779E-09
 -1       878 1.30095E+05 2.15288E+04 1.55280E+03 5.30758E+04 1.70348E-09-6.47788E-10
 -1       879 1.28895E+05 2.28830E+04 7.73449E+02 5.46123E+04 1.90721E-09 2.67096E-09
 -1       880 1.30143E+05 2.15196E+04 3.60119E+02 5.30990E+04 1.18939E-09 1.51147E-10
 -1       881 1.28833E+05 2.28433E+04 1.91732E+02 5.46036E+04 4.20340E-09 5.52950E-09
 -1       882 1.30148E+05 2.15249E+04 1.21752E+02 5.30997E+04 4.40639E-09 2.78346E-09
 -1       883 1.28829E+05 2.28416E+04 1.29375E+02 5.46013E+04 3.85569E-09 2.38879E-09
 -1       884 1.30145E+05 2.15232E+04 2.04474E+02 5.30998E+04-2.27629E-10 1.99054E-09
 -1       885 1.28845E+05 2.28445E+04 4.10281E+02 5.46066E+04 4.53139E-09 6.52187E-09
 -1       886 1.30130E+05 2.15112E+04 8.26553E+02 5.30981E+04-1.17031E-09 1.54864E-09
 -1       887 1.28990E+05 2.29397E+04 1.80542E+03 5.46273E+04-9.01893E-09 6.34287E-09
 -1       888 1.30015E+05 2.15316E+04 3.63803E+03 5.30404E+04-3.93726E-09-2.10503E-09
 -1       889 1.31158E+05 2.51904E+04 8.69129E+03 5.45578E+04 6.48271E-10 2.97814E-09
 -1       890 1.28532E+05 2.32931E+04 1.62778E+04 5.16535E+04 5.16025E-10 1.03773E-09
 -1       891-7.78873E+01-7.36343E+04-8.66395E+02 1.40147E+04 1.48361E-10-3.08660E-10
 -1       892-1.35732E+02-7.38444E+04-9.43901E+02 2.12120E+04-2.45109E-10-4.82487E-09
 -1       893-1.85712E+01-7.36636E+04-1.34974E+03 1.40172E+04 6.36646E-12 2.24827E-09
 -1       894-7.31198E+02-7.43686E+04-2.80399E+03 2.11372E+04-2.61934E-09 1.87720E-09
 -1       895-5.69100E+02-7.30850E+04-4.94045E+03 1.40887E+04-3.37621E-10 1.35196E-09
 -1       956-1.62553E+05-2.34517E+03-5.90452E+03 1.07212E+04-2.28056E-09-2.31751E-09
 -1       957-1.63719E+05-7.92048E+02-3.03134E+03 1.29051E+04-7.05768E-10-8.43488E-09
 -1       958-1.63075E+05-6.38595E+01-1.36552E+03 1.06516E+04 2.43472E-09-2.40198E-09
 -1       959-1.63166E+05-1.31972E+01-6.97581E+02 1.29803E+04-1.14687E-09 3.95318E-09
 -1       960-1.63119E+05 1.74386E+01-3.39927E+02 1.06452E+04-2.92539E-09 4.07908E-09
 -1       961-1.63124E+05 1.49428E+01-1.80283E+02 1.29874E+04-4.69436E-09 1.87629E-09
 -1       962-1.63127E+05 1.40939E+01-1.02896E+02 1.06444E+04-2.16096E-09-5.22232E-09
 -1       963-1.63121E+05 1.49493E+01-8.21424E+01 1.29884E+04-2.61531E-09-4.91843E-09
 -1       964-1.63129E+05 1.47953E+01-9.90638E+01 1.06441E+04-2.39140E-10-2.41323E-09
 -1       965-1.63127E+05 1.65435E+01-1.70637E+02 1.29884E+04 2.07949E-09 1.37413E-09
 -1       966-1.63124E+05 1.94815E+01-3.19924E+02 1.06444E+04-1.51914E-09 1.65426E-09
 -1       967-1.63170E+05-8.28555E+00-6.55971E+02 1.29845E+04 7.45445E-10 2.42801E-09
 -1       968-1.63084E+05-5.54118E+01-1.28349E+03 1.06481E+04-1.13914E-10 1.69722E-09
 -1       969-1.63692E+05-7.39046E+02-2.84968E+03 1.29407E+04-6.71662E-10-9.57513E-10
 -1       970-1.62596E+05-2.19903E+03-5.55030E+03 1.06894E+04 4.02224E-10-5.82077E-11
 -1       971-1.54530E+05-8.17945E+02-4.55081E+03 7.61408E+03-1.70530E-09-4.65511E-09
 -1       972-1.55637E+05-5.88253E+02-2.47869E+03 1.06240E+04-2.62912E-09-5.39467E-09
 -1       973-1.55034E+05-6.24961E+00-1.10953E+03 7.55191E+03-1.98952E-09-1.31729E-09
 -1       974-1.55109E+05-8.46590E+00-5.74933E+02 1.06906E+04 1.45928E-09-3.60387E-11
 -1       975-1.55071E+05 1.34809E+01-2.86501E+02 7.54695E+03 2.33240E-09 1.52852E-10
 -1       976-1.55076E+05 1.39549E+01-1.64107E+02 1.06963E+04-1.42074E-09 2.78317E-09
 -1       977-1.55077E+05 1.23145E+01-1.16728E+02 7.54614E+03 2.04375E-09 2.90390E-09
 -1       978-1.55076E+05 1.57796E+01-1.33501E+02 1.06974E+04 8.18693E-09-2.12481E-09
 -1       979-1.55076E+05 1.54258E+01-2.11707E+02 7.54583E+03 2.47948E-09-1.32093E-09
 -1       980-1.55091E+05 1.68649E+01-4.07034E+02 1.06975E+04 2.50470E-09-1.61828E-09
 -1       981-1.55063E+05 2.56264E+01-7.87318E+02 7.54603E+03-3.58966E-10 9.19727E-11
 -1       982-1.55200E+05-4.08549E+01-1.62679E+03 1.06947E+04-5.33646E-10 1.26191E-09
 -1       983-1.54965E+05-2.40794E+01-3.16040E+03 7.54876E+03 2.83512E-09 1.79398E-09
 -1       984-1.56721E+05-1.69017E+03-7.07707E+03 1.06526E+04-2.48656E-09-1.20122E-09
 -1       985-1.53536E+05-2.33591E+03-1.29957E+04 7.59031E+03 1.73168E-09 1.92085E-09
 -3
    1PSTEP                         5           3           1          
  100CL  103 3.75000E-01         409                     0    3           1
 -4  DISP        4    1
 -5  D1          1    2    1    0
 -5  D2          1    2    2    0
 -5  D3          1    2    3    0
 -5  ALL         1    2    0    0    1ALL
 -1         1 9.81710E-05 0.00000E+00 0.00000E+00
 -1         2 9.05554E-05 6.64590E-30-1.65436E-24
 -1         3 8.39381E-05-2.74403E-27 0.00000E+00
 -1         5 6.03119E-05 3.79341E-26 0.00000E+00
 -1         8 7.83868E-05-7.16260E-07 0.00000E+00
 -1         9 7.96651E-05 4.79522E-07 0.00000E+00
 -1        10 7.77660E-05-1.14673E-06 0.00000E+00
 -1        12 5.98896E-05 4.08890E-07 0.00000E+00
 -1        15 5.48429E-05-7.80101E-07 0.00000E+00
 -1        16 5.67283E-05 3.75024E-07 0.00000E+00
 -1        17 5.79380E-05-2.41228E-06 0.00000E+00
 -1        18 5.78329E-05 2.17199E-07 0.00000E+00
 -1        19 5.86230E-05 8.15537E-07 0.00000E+00
 -1        20 5.87296E-05 1.20672E-05 0.00000E+00
 -1        21 5.83272E-05 2.28073E-05 1.65436E-24
 -1        24 1.47874E-05-3.24968E-06 0.00000E+00
 -1        25 5.64918E-05 3.11028E-07 0.00000E+00
 -1        26 5.72388E-05 1.14273E-06 0.00000E+00
 -1        27 5.61063E-05 1.02499E-05 0.00000E+00
 -1        28 5.57409E-05 2.24579E-05 0.00000E+00
 -1        32 0.00000E+00 0.00000E+00 0.00000E+00
 -1        33 5.48761E-05 1.53000E-06 0.00000E+00
 -1        34 5.37832E-05 1.02337E-05 0.00000E+00
 -1        35 5.27442E-05 2.22735E-05 0.00000E+00
 -1        51 9.68842E-05-1.18284E-07 0.00000E+00
 -1        52 9.44991E-05-2.33369E-07 0.00000E+00
 -1        53 9.12320E-05-3.49341E-07 0.00000E+00
 -1        54 8.73074E-05-4.67315E-07 0.00000E+00
 -1        55 8.29504E-05-5.87951E-07 4.96308E-24
 -1        56 9.72778E-05-5.71426E-07 0.00000E+00
 -1        57 9.64922E-05-1.53129E-06-1.32349E-23
 -1        58 9.58130E-05-2.76959E-06-2.64698E-23
 -1        59 9.51937E-05-4.18553E-06 0.00000E+00
 -1        60 9.45979E-05-5.66494E-06-2.64698E-23
 -1        61 9.39824E-05-7.09457E-06 0.00000E+00
 -1        62 9.33064E-05-8.36308E-06 2.64698E-23
 -1        63 9.25299E-05-9.36328E-06 0.00000E+00
 -1        64 9.16175E-05-1.00008E-05 0.00000E+00
 -1        65 9.05371E-05-1.01897E-05 0.00000E+00
 -1        66 8.92642E-05-9.86575E-06-2.64698E-23
 -1        67 8.77798E-05-8.97654E-06 1.32349E-23
 -1        68 8.60733E-05-7.49723E-06-2.64698E-23
 -1        69 8.41451E-05-5.41481E-06-1.32349E-23
 -1        70 8.19945E-05-2.74941E-06-2.64698E-23
 -1        86 9.02721E-05 8.59913E-08 0.00000E+00
 -1        87 8.94212E-05 1.71232E-07 0.00000E+00
 -1        88 8.79757E-05 2.55749E-07 1.65436E-24
 -1        89 8.59065E-05 3.36441E-07 0.00000E+00
 -1        90 8.31564E-05 4.16486E-07 0.00000E+00
 -1       121 8.37660E-05-1.90386E-07 0.00000E+00
 -1       122 8.32499E-05-3.80890E-07-3.30872E-24
 -1       123 8.23906E-05-5.71629E-07 6.61744E-24
 -1       124 8.11890E-05-7.62749E-07 0.00000E+00
 -1       125 7.96467E-05-9.54310E-07 0.00000E+00
 -1       191 6.03002E-05 6.81538E-08-3.30872E-24
 -1       192 6.02650E-05 1.36306E-07 0.00000E+00
 -1       193 6.02064E-05 2.04458E-07 3.30872E-24
 -1       194 6.01243E-05 2.72607E-07 0.00000E+00
 -1       195 6.00187E-05 3.40751E-07 0.00000E+00
 -1       251 7.84491E-05 2.53026E-06-3.30872E-24
 -1       252 7.85291E-05 4.44513E-06 0.00000E+00
 -1       253 7.86096E-05 5.26123E-06 0.00000E+00
 -1       254 7.86932E-05 5.20740E-06-8.27181E-25
 -1       255 7.87766E-05 4.47400E-06-1.65436E-24
 -1       256 7.88601E-05 3.24898E-06 0.00000E+00
 -1       257 7.89432E-05 1.69841E-06 0.00000E+00
 -1       258 7.90262E-05-1.28076E-08 0.00000E+00
 -1       259 7.91091E-05-1.72697E-06 0.00000E+00
 -1       260 7.91923E-05-3.28634E-06 1.65436E-24
 -1       261 7.92757E-05-4.52626E-06 1.65436E-24
 -1       262 7.93591E-05-5.28103E-06 8.27181E-25
 -1       263 7.94427E-05-5.36325E-06-1.65436E-24
 -1       264 7.95231E-05-4.58317E-06 0.00000E+00
 -1       265 7.96031E-05-2.71287E-06 3.30872E-24
 -1       266 7.44628E-05-7.36638E-07 0.00000E+00
 -1       267 7.05389E-05-7.46091E-07-8.27181E-25
 -1       268 6.66149E-05-7.56236E-07 0.00000E+00
 -1       269 6.26908E-05-7.64332E-07 2.06795E-25
 -1       270 5.87669E-05-7.72379E-07 0.00000E+00
 -1       271 7.59993E-05 2.21073E-06-2.64698E-23
 -1       272 7.39716E-05 4.07171E-06 1.32349E-23
 -1       273 7.22985E-05 4.99634E-06 0.00000E+00
 -1       274 7.09232E-05 5.11126E-06 1.32349E-23
 -1       275 6.97973E-05 4.56029E-06 2.64698E-23
 -1       276 6.88630E-05 3.49490E-06 0.00000E+00
 -1       277 6.80610E-05 2.07512E-06 0.00000E+00
 -1       278 6.73297E-05 4.65934E-07-1.32349E-23
 -1       279 6.66063E-05-1.16468E-06 2.64698E-23
 -1       280 6.58282E-05-2.64838E-06 0.00000E+00
 -1       281 6.49331E-05-3.81925E-06 0.00000E+00
 -1       282 6.38613E-05-4.51585E-06 1.32349E-23
 -1       283 6.25541E-05-4.58440E-06 0.00000E+00
 -1       284 6.09606E-05-3.87897E-06-1.32349E-23
 -1       285 5.90251E-05-2.26870E-06 0.00000E+00
 -1       301 7.57753E-05 4.57382E-07 0.00000E+00
 -1       302 7.18885E-05 4.46926E-07 0.00000E+00
 -1       303 6.80226E-05 4.36836E-07-3.30872E-24
 -1       304 6.41954E-05 4.25488E-07 0.00000E+00
 -1       305 6.04248E-05 4.12368E-07 0.00000E+00
 -1       306 7.71983E-05 3.36088E-06 0.00000E+00
 -1       307 7.50995E-05 5.14730E-06 1.32349E-23
 -1       308 7.34188E-05 5.83175E-06-2.64698E-23
 -1       309 7.21386E-05 5.42895E-06 1.32349E-23
 -1       310 7.12097E-05 4.08757E-06 2.64698E-23
 -1       311 7.05625E-05 1.98842E-06-2.64698E-23
 -1       312 7.00967E-05-5.97254E-07 0.00000E+00
 -1       313 6.97043E-05-3.38054E-06 2.64698E-23
 -1       314 6.92689E-05-6.04866E-06 0.00000E+00
 -1       315 6.86759E-05-8.29316E-06 2.64698E-23
 -1       316 6.78287E-05-9.85640E-06 0.00000E+00
 -1       317 6.66409E-05-1.05057E-05 1.32349E-23
 -1       318 6.50637E-05-1.01170E-05 0.00000E+00
 -1       319 6.30714E-05-8.60167E-06-1.32349E-23
 -1       320 6.06695E-05-6.01052E-06 2.64698E-23
 -1       336 7.55042E-05-1.35496E-06 0.00000E+00
 -1       337 7.28190E-05-1.56448E-06 0.00000E+00
 -1       338 6.97143E-05-1.77510E-06 6.61744E-24
 -1       339 6.61954E-05-1.98674E-06 3.30872E-24
 -1       340 6.22677E-05-2.19988E-06 6.61744E-24
 -1       406 5.97371E-05 4.77016E-07 0.00000E+00
 -1       407 5.95611E-05 5.45117E-07 0.00000E+00
 -1       408 5.93617E-05 6.13173E-07 0.00000E+00
 -1       409 5.91388E-05 6.81098E-07 0.00000E+00
 -1       410 5.88925E-05 7.48761E-07 3.30872E-24
 -1       521 5.34244E-05 2.19802E-06 0.00000E+00
 -1       522 5.07714E-05 2.06696E-06-2.64698E-23
 -1       523 4.88069E-05 1.13077E-07 0.00000E+00
 -1       524 4.74273E-05-3.44906E-06 2.64698E-23
 -1       525 4.64591E-05-8.11926E-06-5.29396E-23
 -1       526 4.56886E-05-1.33302E-05 2.64698E-23
 -1       527 4.48731E-05-1.84202E-05 5.29396E-23
 -1       528 4.37702E-05-2.27365E-05-2.64698E-23
 -1       529 4.21859E-05-2.57590E-05 0.00000E+00
 -1       530 3.99559E-05-2.70522E-05 0.00000E+00
 -1       531 3.70246E-05-2.64776E-05 0.00000E+00
 -1       532 3.33838E-05-2.40172E-05 2.64698E-23
 -1       533 2.91440E-05-1.99771E-05 0.00000E+00
 -1       534 2.44704E-05-1.47598E-05-2.64698E-23
 -1       535 1.95767E-05-8.97950E-06 5.29396E-23
 -1       536 5.79184E-05 1.63153E-06 0.00000E+00
 -1       537 5.79079E-05 4.71017E-06 0.00000E+00
 -1       538 5.78994E-05 6.91024E-06 0.00000E+00
 -1       539 5.78933E-05 8.31858E-06 0.00000E+00
 -1       540 5.78879E-05 9.03053E-06-2.06795E-25
 -1       541 5.78831E-05 9.14159E-06-1.03398E-25
 -1       542 5.78781E-05 8.75357E-06 0.00000E+00
 -1       543 5.78731E-05 7.96841E-06 0.00000E+00
 -1       544 5.78678E-05 6.89220E-06-1.03398E-25
 -1       545 5.78622E-05 5.63107E-06-5.16988E-26
 -1       546 5.78566E-05 4.29311E-06 1.03398E-25
 -1       547 5.78511E-05 2.98643E-06-5.16988E-26
 -1       548 5.78458E-05 1.81877E-06-2.58494E-26
 -1       549 5.78409E-05 8.97897E-07 0.00000E+00
 -1       550 5.78362E-05 3.29007E-07 0.00000E+00
 -1       551 5.22178E-05-2.53912E-06 0.00000E+00
 -1       552 4.53763E-05-2.67053E-06 1.65436E-24
 -1       553 3.78103E-05-2.80696E-06 6.61744E-24
 -1       554 2.99223E-05-2.94764E-06-3.30872E-24
 -1       555 2.21148E-05-3.08991E-06 1.32349E-23
 -1       556 5.64368E-05 1.47877E-06 0.00000E+00
 -1       557 5.52895E-05 4.45343E-06-6.61744E-24
 -1       558 5.44574E-05 6.59618E-06 0.00000E+00
 -1       559 5.39055E-05 7.99814E-06 0.00000E+00
 -1       560 5.35983E-05 8.75021E-06 0.00000E+00
 -1       561 5.35011E-05 8.94379E-06 0.00000E+00
 -1       562 5.35792E-05 8.67036E-06 0.00000E+00
 -1       563 5.37980E-05 8.02148E-06 0.00000E+00
 -1       564 5.41231E-05 7.08879E-06 0.00000E+00
 -1       565 5.45201E-05 5.96393E-06 0.00000E+00
 -1       566 5.49546E-05 4.73859E-06 8.27181E-25
 -1       567 5.53924E-05 3.50448E-06-2.06795E-25
 -1       568 5.57993E-05 2.35328E-06 0.00000E+00
 -1       569 5.61409E-05 1.37657E-06 0.00000E+00
 -1       570 5.63829E-05 6.65960E-07 0.00000E+00
 -1       571 5.78809E-05 2.86084E-07-6.20385E-25
 -1       572 5.79299E-05 3.22212E-07 0.00000E+00
 -1       573 5.79792E-05 3.31415E-07 4.13590E-25
 -1       574 5.80286E-05 3.19830E-07-4.13590E-25
 -1       575 5.80781E-05 2.93625E-07 8.27181E-25
 -1       576 5.81277E-05 2.59004E-07 0.00000E+00
 -1       577 5.81772E-05 2.22179E-07 1.65436E-24
 -1       578 5.82268E-05 1.89366E-07-8.27181E-25
 -1       579 5.82764E-05 1.66779E-07-1.65436E-24
 -1       580 5.83259E-05 1.60636E-07 0.00000E+00
 -1       581 5.83755E-05 1.77152E-07 0.00000E+00
 -1       582 5.84250E-05 2.22535E-07 0.00000E+00
 -1       583 5.84746E-05 3.02987E-07-3.30872E-24
 -1       584 5.85241E-05 4.24649E-07-3.30872E-24
 -1       585 5.85736E-05 5.93622E-07 0.00000E+00
 -1       586 5.75927E-05 2.33811E-07-8.27181E-25
 -1       587 5.73314E-05 2.50006E-07 2.06795E-25
 -1       588 5.70698E-05 2.66021E-07-4.13590E-25
 -1       589 5.68288E-05 2.81783E-07 0.00000E+00
 -1       590 5.66294E-05 2.97116E-07 0.00000E+00
 -1       591 5.77841E-05 3.11426E-07 0.00000E+00
 -1       592 5.77435E-05 3.78675E-07 0.00000E+00
 -1       593 5.77109E-05 4.24079E-07-4.13590E-25
 -1       594 5.76845E-05 4.52262E-07 0.00000E+00
 -1       595 5.76628E-05 4.67912E-07 0.00000E+00
 -1       596 5.76440E-05 4.75678E-07 0.00000E+00
 -1       597 5.76264E-05 4.80210E-07-4.13590E-25
 -1       598 5.76083E-05 4.86153E-07 0.00000E+00
 -1       599 5.75879E-05 4.98153E-07 0.00000E+00
 -1       600 5.75635E-05 5.20853E-07 2.06795E-25
 -1       601 5.75334E-05 5.58900E-07-2.06795E-25
 -1       602 5.74958E-05 6.16942E-07-1.03398E-25
 -1       603 5.74490E-05 6.99630E-07 1.03398E-25
 -1       604 5.73915E-05 8.11650E-07-5.16988E-26
 -1       605 5.73214E-05 9.57628E-07-4.13590E-25
 -1       606 5.86322E-05 1.15040E-06 0.00000E+00
 -1       607 5.86396E-05 1.55601E-06 0.00000E+00
 -1       608 5.86465E-05 2.02821E-06 0.00000E+00
 -1       609 5.86532E-05 2.56231E-06 0.00000E+00
 -1       610 5.86598E-05 3.15362E-06 0.00000E+00
 -1       611 5.86664E-05 3.79736E-06 0.00000E+00
 -1       612 5.86729E-05 4.48876E-06 0.00000E+00
 -1       613 5.86793E-05 5.22304E-06 0.00000E+00
 -1       614 5.86857E-05 5.99541E-06 0.00000E+00
 -1       615 5.86921E-05 6.80110E-06 0.00000E+00
 -1       616 5.86985E-05 7.63533E-06 0.00000E+00
 -1       617 5.87048E-05 8.49332E-06 0.00000E+00
 -1       618 5.87111E-05 9.37027E-06-8.27181E-25
 -1       619 5.87174E-05 1.02614E-05 0.00000E+00
 -1       620 5.87236E-05 1.11620E-05 2.06795E-25
 -1       621 5.83577E-05 8.70072E-07 1.65436E-24
 -1       622 5.81118E-05 9.24912E-07 0.00000E+00
 -1       623 5.78811E-05 9.79747E-07-1.65436E-24
 -1       624 5.76616E-05 1.03450E-06 0.00000E+00
 -1       625 5.74489E-05 1.08916E-06-1.65436E-24
 -1       626 5.85546E-05 1.16724E-06 0.00000E+00
 -1       627 5.84647E-05 1.57751E-06 0.00000E+00
 -1       628 5.83550E-05 2.04094E-06-3.30872E-24
 -1       629 5.82275E-05 2.55171E-06 3.30872E-24
 -1       630 5.80844E-05 3.10403E-06 0.00000E+00
 -1       631 5.79279E-05 3.69205E-06 0.00000E+00
 -1       632 5.77603E-05 4.30993E-06 0.00000E+00
 -1       633 5.75836E-05 4.95182E-06 0.00000E+00
 -1       634 5.74000E-05 5.61188E-06 1.65436E-24
 -1       635 5.72119E-05 6.28425E-06 0.00000E+00
 -1       636 5.70213E-05 6.96311E-06 0.00000E+00
 -1       637 5.68304E-05 7.64261E-06 0.00000E+00
 -1       638 5.66415E-05 8.31688E-06 0.00000E+00
 -1       639 5.64566E-05 8.98010E-06 0.00000E+00
 -1       640 5.62777E-05 9.62640E-06 1.65436E-24
 -1       656 5.79776E-05 1.17715E-05-3.30872E-24
 -1       657 5.74914E-05 1.14640E-05 0.00000E+00
 -1       658 5.71690E-05 1.11575E-05 6.61744E-24
 -1       659 5.69061E-05 1.08512E-05 3.30872E-24
 -1       660 5.65894E-05 1.05439E-05 3.30872E-24
 -1       661 5.84515E-05 1.29541E-05 8.27181E-25
 -1       662 5.81900E-05 1.38030E-05-8.27181E-25
 -1       663 5.79423E-05 1.46148E-05 0.00000E+00
 -1       664 5.77083E-05 1.53912E-05 0.00000E+00
 -1       665 5.74871E-05 1.61338E-05-1.65436E-24
 -1       666 5.72780E-05 1.68440E-05 0.00000E+00
 -1       667 5.70806E-05 1.75234E-05-1.65436E-24
 -1       668 5.68943E-05 1.81732E-05 0.00000E+00
 -1       669 5.67186E-05 1.87948E-05 1.65436E-24
 -1       670 5.65529E-05 1.93895E-05-8.27181E-25
 -1       671 5.63969E-05 1.99586E-05 1.65436E-24
 -1       672 5.62499E-05 2.05032E-05 0.00000E+00
 -1       673 5.61117E-05 2.10245E-05 0.00000E+00
 -1       674 5.59813E-05 2.15235E-05 0.00000E+00
 -1       675 5.58589E-05 2.20013E-05-4.13590E-25
 -1       676 5.78953E-05 2.27487E-05 0.00000E+00
 -1       677 5.74635E-05 2.26901E-05-8.27181E-25
 -1       678 5.70321E-05 2.26316E-05 0.00000E+00
 -1       679 5.66011E-05 2.25733E-05 8.27181E-25
 -1       680 5.61706E-05 2.25150E-05 1.65436E-24
 -1       771 1.18385E-05 2.33593E-06 2.64698E-23
 -1       772 9.26865E-06 6.90518E-06 0.00000E+00
 -1       773 7.06205E-06 1.05164E-05 2.64698E-23
 -1       774 5.19424E-06 1.32312E-05 0.00000E+00
 -1       775 3.64125E-06 1.51124E-05 2.64698E-23
 -1       776 2.37814E-06 1.62243E-05 0.00000E+00
 -1       777 1.37971E-06 1.66326E-05-2.64698E-23
 -1       778 6.20285E-07 1.64044E-05 1.32349E-23
 -1       779 7.40374E-08 1.56075E-05 2.64698E-23
 -1       780-2.85255E-07 1.43110E-05 0.00000E+00
 -1       781-4.83894E-07 1.25848E-05-2.64698E-23
 -1       782-5.48473E-07 1.04995E-05 0.00000E+00
 -1       783-5.05635E-07 8.12636E-06 0.00000E+00
 -1       784-3.82171E-07 5.53721E-06 0.00000E+00
 -1       785-2.04970E-07 2.80417E-06-2.64698E-23
 -1       786 5.65358E-05 3.07314E-07 0.00000E+00
 -1       787 5.65824E-05 3.06031E-07-4.13590E-25
 -1       788 5.66288E-05 3.07490E-07 0.00000E+00
 -1       789 5.66757E-05 3.12007E-07 8.27181E-25
 -1       790 5.67226E-05 3.20227E-07 0.00000E+00
 -1       791 5.67696E-05 3.32802E-07-8.27181E-25
 -1       792 5.68166E-05 3.50853E-07-1.65436E-24
 -1       793 5.68637E-05 3.75510E-07-8.27181E-25
 -1       794 5.69107E-05 4.08617E-07 1.65436E-24
 -1       795 5.69577E-05 4.52033E-07 0.00000E+00
 -1       796 5.70048E-05 5.08725E-07 0.00000E+00
 -1       797 5.70518E-05 5.81688E-07 8.27181E-25
 -1       798 5.70988E-05 6.75667E-07 0.00000E+00
 -1       799 5.71457E-05 7.95447E-07 0.00000E+00
 -1       800 5.71926E-05 9.48591E-07-8.27181E-25
 -1       801 5.26761E-05 3.13234E-07 0.00000E+00
 -1       802 4.13173E-05 2.60659E-07 4.13590E-25
 -1       803 2.63952E-05 1.65301E-07 0.00000E+00
 -1       804 1.18875E-05 7.04250E-08 0.00000E+00
 -1       805 1.76392E-06 2.61932E-08-1.32349E-23
 -1       806 5.64357E-05 2.75046E-07 1.65436E-24
 -1       807 5.63772E-05 2.39249E-07-8.27181E-25
 -1       808 5.63167E-05 2.07286E-07 0.00000E+00
 -1       809 5.62535E-05 1.82249E-07 0.00000E+00
 -1       810 5.61863E-05 1.67226E-07 0.00000E+00
 -1       811 5.61143E-05 1.65257E-07 0.00000E+00
 -1       812 5.60362E-05 1.79380E-07 0.00000E+00
 -1       813 5.59509E-05 2.12626E-07 0.00000E+00
 -1       814 5.58573E-05 2.68025E-07-1.65436E-24
 -1       815 5.57543E-05 3.48603E-07 0.00000E+00
 -1       816 5.56407E-05 4.57384E-07-8.27181E-25
 -1       817 5.55154E-05 5.97394E-07 0.00000E+00
 -1       818 5.53772E-05 7.71656E-07-8.27181E-25
 -1       819 5.52252E-05 9.83179E-07-8.27181E-25
 -1       820 5.50583E-05 1.23498E-06 0.00000E+00
 -1       821 5.71721E-05 1.36867E-06 0.00000E+00
 -1       822 5.71013E-05 1.61756E-06-8.27181E-25
 -1       823 5.70308E-05 1.90830E-06 0.00000E+00
 -1       824 5.69594E-05 2.25963E-06 0.00000E+00
 -1       825 5.68880E-05 2.68122E-06-1.65436E-24
 -1       826 5.68165E-05 3.18250E-06 0.00000E+00
 -1       827 5.67448E-05 3.76097E-06 1.65436E-24
 -1       828 5.66731E-05 4.41388E-06 8.27181E-25
 -1       829 5.66014E-05 5.12731E-06 1.65436E-24
 -1       830 5.65296E-05 5.88714E-06 8.27181E-25
 -1       831 5.64579E-05 6.67232E-06-1.65436E-24
 -1       832 5.63863E-05 7.46171E-06-8.27181E-25
 -1       833 5.63147E-05 8.23350E-06-1.65436E-24
 -1       834 5.62440E-05 8.96599E-06 8.27181E-25
 -1       835 5.61730E-05 9.64334E-06 0.00000E+00
 -1       836 5.69534E-05 1.20720E-06-1.65436E-24
 -1       837 5.65826E-05 1.27310E-06 8.27181E-25
 -1       838 5.61578E-05 1.33887E-06 0.00000E+00
 -1       839 5.57107E-05 1.40422E-06 0.00000E+00
 -1       840 5.52730E-05 1.46947E-06-4.13590E-25
 -1       856 5.60860E-05 1.08625E-05 0.00000E+00
 -1       857 5.60634E-05 1.15530E-05-1.03398E-25
 -1       858 5.60409E-05 1.23089E-05 0.00000E+00
 -1       859 5.60180E-05 1.31181E-05 0.00000E+00
 -1       860 5.59950E-05 1.39681E-05-8.27181E-25
 -1       861 5.59719E-05 1.48465E-05 0.00000E+00
 -1       862 5.59487E-05 1.57408E-05-8.27181E-25
 -1       863 5.59256E-05 1.66387E-05 4.13590E-25
 -1       864 5.59024E-05 1.75276E-05 0.00000E+00
 -1       865 5.58793E-05 1.83951E-05 0.00000E+00
 -1       866 5.58562E-05 1.92289E-05 8.27181E-25
 -1       867 5.58331E-05 2.00164E-05 0.00000E+00
 -1       868 5.58101E-05 2.07453E-05 8.27181E-25
 -1       869 5.57870E-05 2.14034E-05 0.00000E+00
 -1       870 5.57640E-05 2.19783E-05 0.00000E+00
 -1       871 5.56399E-05 1.02493E-05 0.00000E+00
 -1       872 5.52482E-05 1.02471E-05 0.00000E+00
 -1       873 5.48992E-05 1.02447E-05 0.00000E+00
 -1       874 5.45603E-05 1.02419E-05 1.55096E-25
 -1       875 5.41990E-05 1.02388E-05 6.20385E-25
 -1       876 5.59445E-05 1.08689E-05 1.65436E-24
 -1       877 5.57701E-05 1.15259E-05-8.27181E-25
 -1       878 5.55833E-05 1.22160E-05 0.00000E+00
 -1       879 5.53858E-05 1.29352E-05 0.00000E+00
 -1       880 5.51791E-05 1.36791E-05 0.00000E+00
 -1       881 5.49647E-05 1.44435E-05-8.27181E-25
 -1       882 5.47442E-05 1.52240E-05 0.00000E+00
 -1       883 5.45193E-05 1.60165E-05 0.00000E+00
 -1       884 5.42914E-05 1.68166E-05 0.00000E+00
 -1       885 5.40623E-05 1.76202E-05 8.27181E-25
 -1       886 5.38334E-05 1.84230E-05 1.65436E-24
 -1       887 5.36065E-05 1.92206E-05 0.00000E+00
 -1       888 5.33829E-05 2.00089E-05 0.00000E+00
 -1       889 5.31640E-05 2.07835E-05 0.00000E+00
 -1       890 5.29516E-05 2.15401E-05 0.00000E+00
 -1       891 5.53263E-05 2.24271E-05 8.27181E-25
 -1       892 5.48982E-05 2.23961E-05 4.13590E-25
 -1       893 5.44414E-05 2.23652E-05-8.27181E-25
 -1       894 5.39403E-05 2.23343E-05 2.06795E-25
 -1       895 5.33796E-05 2.23035E-05-6.20385E-25
 -1       956 5.48091E-05 1.91328E-06 0.00000E+00
 -1       957 5.47409E-05 2.34032E-06 0.00000E+00
 -1       958 5.46726E-05 2.80657E-06 0.00000E+00
 -1       959 5.46041E-05 3.30722E-06 8.27181E-25
 -1       960 5.45356E-05 3.83744E-06 1.65436E-24
 -1       961 5.44670E-05 4.39239E-06-8.27181E-25
 -1       962 5.43985E-05 4.96721E-06 0.00000E+00
 -1       963 5.43299E-05 5.55704E-06 8.27181E-25
 -1       964 5.42613E-05 6.15704E-06 0.00000E+00
 -1       965 5.41927E-05 6.76232E-06 0.00000E+00
 -1       966 5.41241E-05 7.36805E-06 0.00000E+00
 -1       967 5.40555E-05 7.96937E-06 8.27181E-25
 -1       968 5.39870E-05 8.56141E-06-1.65436E-24
 -1       969 5.39186E-05 9.13934E-06 0.00000E+00
 -1       970 5.38504E-05 9.69831E-06-1.65436E-24
 -1       971 5.37190E-05 1.07837E-05 0.00000E+00
 -1       972 5.36541E-05 1.13916E-05 0.00000E+00
 -1       973 5.35890E-05 1.20509E-05 1.65436E-24
 -1       974 5.35237E-05 1.27550E-05-8.27181E-25
 -1       975 5.34584E-05 1.34972E-05-1.65436E-24
 -1       976 5.33931E-05 1.42709E-05-8.27181E-25
 -1       977 5.33278E-05 1.50694E-05-1.65436E-24
 -1       978 5.32624E-05 1.58861E-05-8.27181E-25
 -1       979 5.31970E-05 1.67142E-05 0.00000E+00
 -1       980 5.31317E-05 1.75472E-05-8.27181E-25
 -1       981 5.30663E-05 1.83784E-05 0.00000E+00
 -1       982 5.30010E-05 1.92010E-05-8.27181E-25
 -1       983 5.29359E-05 2.00085E-05 0.00000E+00
 -1       984 5.28710E-05 2.07942E-05 0.00000E+00
 -1       985 5.28063E-05 2.15514E-05-1.65436E-24
 -3
    1PSTEP                         6           3           1          
  100CL  103 3.75000E-01         409                     0    3           1
 -4  STRESS      6    1
 -5  SXX         1    4    1    1
 -5  SYY         1    4    2    2
 -5  SZZ         1    4    3    3
 -5  SXY         1    4    1    2
 -5  SYZ         1    4    2    3
 -5  SZX         1    4    3    1
 -1         1-1.29409E+06-5.95021E+05-2.63783E+05-8.37617E+05-1.27329E-10 4.25644E-09
 -1         2 2.17683E+03 2.48979E+05 7.11878E+03 6.00592E+02-1.12522E-10 7.87747E-09
 -1         3-4.73463E+01-5.44038E+05 1.26356E+02-1.49848E+02-1.13532E-10-1.33150E-09
 -1         5-4.41356E+00 1.95007E+05 5.08898E+00 2.15117E-02 1.15030E-10 3.52775E-08
 -1         8-6.09131E+05-2.65454E+05-2.05288E+04-4.62463E+05-2.00089E-11-5.60249E-10
 -1         9-1.04584E+06-2.67888E+05-1.03156E+05-3.59558E+05 2.99624E-09-2.33995E-09
 -1        10-4.22849E+02-5.66774E+05-7.28876E+02-1.00606E+03-2.71166E-09-1.28120E-08
 -1        12-2.32630E+00 1.95017E+05 1.65020E+02 4.23019E-01 1.76371E-10-1.20781E-09
 -1        15 1.61342E+03 8.86664E+02 5.21536E+03 2.73778E+00-2.31353E-10-8.66323E-08
 -1        16-2.94998E+06-9.47540E+05-4.58768E+05-9.62442E+05 8.86212E-09-5.17078E-09
 -1        17-6.51441E+05-4.00041E+05-1.25471E+05-3.76208E+05-4.44488E-09 1.10595E-09
 -1        18 2.10163E+04 1.66053E+03-9.70549E+03-4.59443E+04 5.87761E-10 1.33673E-09
 -1        19 6.12063E+04 7.34714E+04-2.40319E+02 1.19393E+04-5.96265E-10-4.12911E-10
 -1        20-2.53774E+04-2.88686E+05-6.36637E+04 2.13934E+04 2.85900E-09 5.20231E-10
 -1        21-2.73100E+01-1.67440E+05-5.40836E+02-4.96035E+01-6.65793E-09-1.45601E-10
 -1        24-2.59866E+06-8.91585E+05-3.70290E+05-1.08617E+06-1.26699E-08-5.84017E-09
 -1        25 2.36111E+04-7.87467E+02 1.41814E+04-8.30496E+04 3.05226E-10 4.00778E-09
 -1        26-1.40171E+04 5.03533E+04-9.83773E+03-7.15675E+03 1.17034E-09 2.19040E-09
 -1        27-4.62720E+04-1.58406E+05-5.94416E+04 3.57009E+04 4.99222E-09-8.79936E-10
 -1        28 1.29513E+04-4.62508E+04 9.45481E+03 1.48338E+04 1.24626E-09 3.81668E-09
 -1        32-6.15669E+05-8.39113E+04 2.68563E+05-4.17118E+05-1.23327E-08 1.03628E-08
 -1        33-9.05924E+04 4.65779E+04 1.65141E+04-2.71136E+04 9.37860E-10 2.73258E-09
 -1        34-1.17637E+05-1.16979E+04 2.76782E+02 3.61520E+04 3.17745E-09 3.69891E-09
 -1        35-1.31725E+04-1.83905E+04-7.18695E+02 2.91655E+04 3.64354E-09 9.33142E-10
 -1        51 1.13957E+04-3.03369E+05 2.87804E+04-7.55956E+05-2.91038E-11-2.06201E-08
 -1        52 6.55570E+03-3.01768E+05 1.92400E+04-8.81693E+05 5.38421E-10-3.85699E-08
 -1        53 4.64427E+03-3.10519E+05 1.68556E+04-7.53361E+05 6.98492E-10-1.99943E-08
 -1        54 1.39775E+04-3.08612E+05 2.74776E+04-8.84427E+05 4.36557E-10-1.20635E-08
 -1        55 2.93083E+04-3.18880E+05 4.94455E+04-7.52986E+05 3.34694E-10-2.05182E-09
 -1        56-2.48523E+06-2.80615E+05-1.94306E+05-9.58128E+05 9.45874E-11 5.71163E-09
 -1        57-2.56228E+06-4.57351E+05-1.30965E+05-9.51759E+05-4.91127E-10 1.26383E-08
 -1        58-2.52438E+06-3.42024E+05-4.57311E+04-9.45791E+05-7.51243E-10-5.69344E-10
 -1        59-2.51695E+06-3.85373E+05-2.72995E+04-9.66592E+05-1.19337E-09-5.60112E-09
 -1        60-2.53017E+06-3.50509E+05-1.06843E+04-9.44036E+05-1.78488E-10-5.94309E-09
 -1        61-2.51099E+06-3.74672E+05-6.07414E+03-9.67739E+05-6.10953E-10-5.08635E-10
 -1        62-2.53026E+06-3.52467E+05-2.93087E+03-9.44716E+05 8.85166E-10-1.16739E-09
 -1        63-2.51245E+06-3.71027E+05-2.40182E+03-9.65106E+05-8.15362E-10 8.17266E-09
 -1        64-2.52864E+06-3.54166E+05-2.77710E+03-9.46632E+05 8.00355E-11 6.62362E-09
 -1        65-2.51706E+06-3.68111E+05-5.53155E+03-9.60255E+05-1.96951E-09-1.23930E-09
 -1        66-2.52558E+06-3.55459E+05-9.76822E+03-9.49505E+05 1.61685E-09-1.64027E-09
 -1        67-2.52787E+06-3.72316E+05-2.47532E+04-9.52856E+05-1.40062E-09-4.26962E-09
 -1        68-2.51785E+06-3.50235E+05-4.15821E+04-9.53919E+05 1.15142E-09-3.86535E-09
 -1        69-2.57321E+06-4.33580E+05-1.18896E+05-9.34795E+05 1.18416E-09-5.14774E-10
 -1        70-2.48064E+06-2.96056E+05-1.76494E+05-9.66920E+05-3.92902E-10-3.33966E-09
 -1        86-1.09244E+03 2.46741E+05 7.61748E+03-3.00314E+02 9.42691E-10 6.44673E-09
 -1        87 7.24854E+03 2.51467E+05 1.59066E+04 1.23900E+03 1.56888E-09 5.34885E-09
 -1        88-6.15035E+03 2.44255E+05 2.43358E+04-9.38737E+02 2.36287E-09-1.04347E-09
 -1        89 4.58339E+04 2.69490E+05 6.56572E+04 2.68557E+03 3.61251E-09-1.95791E-09
 -1        90-3.95544E+04 2.28733E+05 9.27172E+04-1.74651E+03 4.18368E-09-6.57565E-09
 -1       121-7.87979E+01-5.44276E+05 1.13019E+02 7.48550E+01 3.09967E-10-5.92172E-09
 -1       122-5.71950E+00-5.44011E+05 2.75102E+02-2.99756E+02-9.81771E-10 3.02271E-09
 -1       123-1.08525E+02-5.44306E+05 4.38256E+02 2.24493E+02 7.81199E-10 3.63161E-09
 -1       124 5.01567E+02-5.43702E+05 1.15180E+03-6.94447E+02-2.00134E-09-3.58705E-09
 -1       125-4.37235E+02-5.44593E+05 1.75933E+03 4.69458E+02 1.37697E-09-4.66571E-10
 -1       191-4.80190E+00 1.95023E+05 6.04575E+00-1.12129E-02 1.20488E-10 2.72903E-08
 -1       192-4.88130E+00 1.95007E+05 1.07771E+01 4.25851E-01 1.98371E-10 2.31084E-08
 -1       193-6.04561E+00 1.95023E+05 2.00069E+01-4.17737E-01 2.42451E-10 9.25229E-09
 -1       194-6.38660E+00 1.95009E+05 4.07701E+01 1.11760E+00 1.16438E-10-3.75167E-09
 -1       195-8.43595E+00 1.95022E+05 7.97134E+01-7.08023E-01 3.57836E-10-5.18821E-09
 -1       251 2.22978E+05-3.84181E+04 8.96957E+04 3.80990E+03 2.31580E-10-3.63798E-09
 -1       252 2.63910E+05 4.44458E+04 6.36487E+04-1.21785E+04-1.31166E-10 4.72937E-10
 -1       253 2.38467E+05-5.94756E+03 2.32143E+04 2.57314E+03-2.12026E-11-5.27780E-09
 -1       254 2.45655E+05 6.87085E+03 1.46807E+04-1.02318E+04 5.92991E-10-2.32149E-10
 -1       255 2.41155E+05-9.18416E+02 5.99832E+03 1.86343E+03-7.67386E-11 2.18370E-09
 -1       256 2.42436E+05 1.09072E+03 3.64822E+03-9.18555E+03 1.75589E-09 3.11832E-09
 -1       257 2.41651E+05-1.60446E+02 1.87712E+03 1.52687E+03 1.08187E-10 3.98620E-09
 -1       258 2.41932E+05 3.41153E+02 1.66331E+03-8.84584E+03-2.27565E-10 7.17825E-09
 -1       259 2.41650E+05-1.63510E+02 1.90607E+03 1.52374E+03-4.69385E-11 7.23179E-09
 -1       260 2.42447E+05 1.11761E+03 3.73043E+03-9.17364E+03 5.82887E-10-4.00405E-09
 -1       261 2.41145E+05-9.41900E+02 6.14879E+03 1.85466E+03 8.60695E-10 2.37696E-09
 -1       262 2.45733E+05 7.04804E+03 1.50516E+04-1.02059E+04 3.89377E-11 2.75304E-09
 -1       263 2.38397E+05-6.10009E+03 2.38132E+04 2.55601E+03 3.88411E-10 1.04774E-09
 -1       264 2.64426E+05 4.55880E+04 6.52740E+04-1.21365E+04-1.49947E-09 5.48243E-09
 -1       265 2.22530E+05-3.94021E+04 9.20104E+04 3.78503E+03-6.17888E-10 2.48110E-09
 -1       266-2.92079E+04-1.36567E+04 6.85341E+04-5.85832E+01-4.69299E-10-1.34673E-07
 -1       267 3.38604E+04 1.59185E+04 4.84368E+04 6.75894E+01-9.55879E-10-2.69443E-07
 -1       268-4.54060E+03-2.25443E+03 1.80039E+04-8.61229E+00-7.73070E-10-2.10552E-07
 -1       269 5.36114E+03 2.69816E+03 1.17021E+04 1.00318E+01-5.54678E-10-1.57232E-07
 -1       270-8.04713E+02-4.43325E+02 5.64877E+03-1.36139E+00-4.26326E-10-1.12072E-07
 -1       271-2.87144E+06-3.58330E+05-2.21135E+05-1.11876E+06 1.26056E-09-3.23053E-09
 -1       272-2.93427E+06-5.35970E+05-1.42148E+05-1.13548E+06 1.26192E-10-3.41788E-09
 -1       273-2.91390E+06-4.12513E+05-5.22369E+04-1.10795E+06-4.37467E-10 1.06957E-09
 -1       274-2.88454E+06-4.69715E+05-2.92246E+04-1.15229E+06-1.09003E-09 3.19960E-09
 -1       275-2.92071E+06-4.17114E+05-1.21508E+04-1.10506E+06 9.64064E-10-3.35149E-09
 -1       276-2.87647E+06-4.64391E+05-6.45156E+03-1.15699E+06 3.98586E-10-3.06329E-09
 -1       277-2.92235E+06-4.16795E+05-3.15617E+03-1.10387E+06 7.96490E-10 6.22515E-09
 -1       278-2.87493E+06-4.64557E+05-2.29390E+03-1.15842E+06 1.23998E-09 3.38525E-09
 -1       279-2.92244E+06-4.16758E+05-2.46222E+03-1.10380E+06-2.46564E-09-5.56588E-09
 -1       280-2.87600E+06-4.64287E+05-4.51081E+03-1.15732E+06 5.15229E-10 2.87946E-09
 -1       281-2.92112E+06-4.17205E+05-8.26609E+03-1.10483E+06-1.01090E-09-6.03904E-10
 -1       282-2.88203E+06-4.67164E+05-1.97158E+04-1.15325E+06 8.31733E-10 2.44472E-09
 -1       283-2.91602E+06-4.14671E+05-3.52375E+04-1.10736E+06-8.28550E-10 2.28101E-09
 -1       284-2.91665E+06-5.10496E+05-9.57413E+04-1.14029E+06-1.90187E-09 1.58616E-09
 -1       285-2.88661E+06-3.79051E+05-1.49079E+05-1.11555E+06 3.09228E-11-1.84809E-09
 -1       301 1.10308E+04-6.67142E+03 8.58570E+04-2.13697E+04-4.43833E-10-1.32235E-09
 -1       302 1.18643E+04 1.51015E+04 6.20646E+04-3.14674E+04 1.27147E-09-4.39195E-09
 -1       303 5.46690E+02 1.03000E+03 5.72392E+04-2.14274E+04-7.96717E-10-4.49108E-09
 -1       304 2.24234E+04 2.48477E+04 9.63989E+04-3.13763E+04 5.85715E-10 1.64891E-09
 -1       305 2.22153E+04-1.63472E+04 1.61847E+05-2.13926E+04-7.27596E-10-5.63887E-11
 -1       306-3.08210E+06-3.56910E+05-2.35194E+05-1.20546E+06 2.71029E-09-1.74623E-10
 -1       307-3.20432E+06-5.54482E+05-1.60334E+05-1.16324E+06 2.25145E-09 9.12769E-09
 -1       308-3.13706E+06-4.28528E+05-5.53565E+04-1.18170E+06 1.00499E-09 5.43514E-09
 -1       309-3.13532E+06-4.76588E+05-3.34743E+04-1.19743E+06 1.79256E-10 3.43971E-09
 -1       310-3.15079E+06-4.33365E+05-1.29978E+04-1.17177E+06-9.59744E-10-3.40515E-09
 -1       311-3.11732E+06-4.73317E+05-7.51004E+03-1.21193E+06 4.58107E-09 1.42416E-09
 -1       312-3.15518E+06-4.31468E+05-3.67571E+03-1.16739E+06-1.92918E-09-8.53333E-10
 -1       313-3.11379E+06-4.74325E+05-3.31044E+03-1.21539E+06-1.72372E-09-2.82037E-09
 -1       314-3.15438E+06-4.32286E+05-3.99245E+03-1.16837E+06-2.47542E-09-8.50605E-10
 -1       315-3.12039E+06-4.70539E+05-8.37758E+03-1.20825E+06-4.82771E-10-7.23878E-09
 -1       316-3.14846E+06-4.35378E+05-1.46925E+04-1.17442E+06 8.46001E-10-4.11364E-09
 -1       317-3.14170E+06-4.73466E+05-3.78663E+04-1.19100E+06 9.59005E-10-1.05138E-09
 -1       318-3.13297E+06-4.29709E+05-6.26392E+04-1.18542E+06-2.71939E-09 6.21003E-09
 -1       319-3.21872E+06-5.63034E+05-1.81534E+05-1.15405E+06-2.63663E-09 3.80533E-09
 -1       320-3.07186E+06-3.47369E+05-2.66146E+05-1.21087E+06 5.42059E-09-1.89175E-09
 -1       336 4.10305E+02-5.89213E+05-3.15358E+03 5.35711E+02-5.20981E-09-4.64297E-09
 -1       337-1.14190E+03-5.90046E+05-3.45519E+03-1.40483E+03-9.38337E-09 1.07320E-09
 -1       338 2.68866E+02-5.89303E+05-4.37057E+03 8.66544E+02-6.77903E-09 4.73483E-09
 -1       339-4.51970E+03-5.92126E+05-9.56342E+03-2.05930E+03-1.23532E-08-5.67525E-10
 -1       340 3.06124E+03-5.87167E+05-1.47473E+04 1.18607E+03-8.34916E-09 2.83853E-09
 -1       406 1.02406E+01 1.95014E+05 3.25756E+02 2.72955E-01 4.64439E-10-7.82165E-10
 -1       407 1.11272E+02 1.95075E+05 6.92442E+02-7.56512E+00 3.29692E-11 1.54409E-09
 -1       408 3.54081E+02 1.94964E+05 1.38292E+03 7.39741E+00 5.57520E-10-7.46695E-10
 -1       409 1.49321E+03 1.95516E+05 3.11349E+03-6.89402E+01-1.11413E-11-2.79942E-09
 -1       410 4.29442E+03 1.94571E+05 6.35607E+03 6.35503E+01 5.33873E-10-4.38649E-09
 -1       521-5.83619E+06-6.74146E+05-4.37398E+05-2.27029E+06 4.71482E-09-6.54836E-09
 -1       522-6.03935E+06-1.05638E+06-2.96842E+05-2.21684E+06-2.55022E-09 7.71252E-10
 -1       523-5.94544E+06-7.97121E+05-1.02878E+05-2.21723E+06 6.91216E-11 1.33150E-09
 -1       524-5.90366E+06-9.22700E+05-6.18340E+04-2.29129E+06 3.42243E-09 1.79080E-09
 -1       525-5.97146E+06-8.04103E+05-2.39419E+04-2.19729E+06 1.66210E-09-1.86537E-09
 -1       526-5.87733E+06-9.10377E+05-1.37787E+04-2.31032E+06 3.46182E-09-1.88652E-09
 -1       527-5.97195E+06-8.08679E+05-6.67737E+03-2.19862E+06 5.99357E-10-2.81625E-09
 -1       528-5.89154E+06-8.89594E+05-5.42693E+03-2.28952E+06-1.95541E-09-1.05729E-11
 -1       529-5.95658E+06-8.25270E+05-6.98354E+03-2.21763E+06-2.58751E-10 1.62981E-09
 -1       530-5.93161E+06-8.52816E+05-1.32032E+04-2.24248E+06-6.15773E-09 5.69116E-10
 -1       531-5.93125E+06-8.45984E+05-2.42261E+04-2.24515E+06-1.33559E-09 9.13133E-10
 -1       532-5.99142E+06-8.33454E+05-6.12099E+04-2.18896E+06-1.19712E-10-8.12815E-09
 -1       533-5.89741E+06-8.44813E+05-1.01951E+05-2.27134E+06 1.86810E-09-1.02264E-08
 -1       534-6.12105E+06-9.75247E+05-2.95094E+05-2.12814E+06-2.19188E-10 8.44011E-09
 -1       535-5.80364E+06-7.06768E+05-4.33652E+05-2.30572E+06-8.92032E-09 7.18865E-09
 -1       536-2.14469E+04-1.59958E+04 3.68170E+04 2.86984E+02-1.02142E-09 7.25049E-09
 -1       537-4.19762E+03 1.85070E+04 2.62676E+04-1.32760E+03-6.33852E-09-3.98313E-09
 -1       538-1.51196E+04-2.50757E+03 9.48865E+03 2.99251E+02-5.35181E-11-8.94943E-10
 -1       539-1.16810E+04 2.89342E+03 6.08447E+03-1.38028E+03 2.43838E-09 6.15501E-10
 -1       540-1.39727E+04-3.90365E+02 2.39034E+03 3.39663E+02-2.89191E-11-3.67243E-09
 -1       541-1.31036E+04 4.45581E+02 1.44179E+03-1.45196E+03-4.81180E-10 5.52041E-09
 -1       542-1.37029E+04-5.74180E+01 5.67712E+02 3.70918E+02 3.11296E-10-8.02174E-10
 -1       543-1.34720E+04 5.31826E+01 2.85705E+02-1.50158E+03 3.82098E-10-4.11298E-09
 -1       544-1.36083E+04 4.67583E+00 2.65470E+01 3.89281E+02 2.69342E-10-6.72595E-09
 -1       545-1.36245E+04-8.23083E+01-2.02969E+02-1.52485E+03-2.56116E-10-1.43552E-09
 -1       546-1.35524E+04 7.93830E+01-4.54920E+02 3.94189E+02 4.71866E-10 5.73181E-10
 -1       547-1.38588E+04-5.85562E+02-1.19277E+03-1.52104E+03-1.51215E-09 4.69396E-09
 -1       548-1.33737E+04 5.07325E+02-1.93495E+03 3.85470E+02-1.97086E-09 2.41062E-09
 -1       549-1.52133E+04-3.73893E+03-5.26913E+03-1.48868E+03-9.92816E-10 1.44780E-09
 -1       550-1.21952E+04 3.22843E+03-7.51277E+03 3.61822E+02 4.29452E-11 2.91038E-11
 -1       551 5.73213E+03-3.08984E+05 1.69872E+04-5.29880E+05-2.38178E-08-2.95404E-09
 -1       552 1.20525E+04-3.09752E+05 2.22730E+04-7.54101E+05-1.79352E-08 7.28687E-09
 -1       553 7.90854E+03-3.13807E+05 3.47372E+04-5.28161E+05-2.78742E-08 5.60249E-09
 -1       554 2.92969E+04-2.98971E+05 7.38196E+04-7.54825E+05-1.81899E-08 5.24687E-09
 -1       555 2.92978E+04-3.27887E+05 1.32642E+05-5.28851E+05-2.86454E-08-2.04454E-09
 -1       556 4.39001E+04-9.91626E+04 3.41504E+04-1.31847E+05-4.01633E-09-6.25732E-10
 -1       557 8.41102E+04-1.32810E+05 1.78945E+04-1.64789E+05 1.99725E-09 6.00221E-09
 -1       558 4.41610E+04-1.03943E+05 7.29835E+03-1.27710E+05-3.42698E-09-2.23372E-09
 -1       559 7.91139E+04-1.37618E+05 3.68400E+03-1.66886E+05 2.77942E-09-6.19593E-09
 -1       560 4.32716E+04-1.03339E+05 1.55564E+03-1.28241E+05-9.31323E-10 3.59341E-09
 -1       561 7.76215E+04-1.37302E+05 8.12222E+02-1.67823E+05-1.64437E-09 6.32781E-09
 -1       562 4.25335E+04-1.02833E+05 3.22574E+02-1.28776E+05-1.03319E-09 7.68591E-09
 -1       563 7.67438E+04-1.36927E+05 1.92107E+02-1.68384E+05-4.13820E-09 3.45085E-09
 -1       564 4.20751E+04-1.02534E+05 6.99974E+01-1.29103E+05 2.06637E-09 7.33735E-09
 -1       565 7.62928E+04-1.36736E+05 3.71225E+01-1.68666E+05 1.97088E-09 5.99357E-09
 -1       566 4.19171E+04-1.02427E+05-2.17854E+01-1.29219E+05-2.68255E-09-2.49565E-09
 -1       567 7.62350E+04-1.36707E+05-9.50638E+01-1.68653E+05 8.31460E-09 1.13014E-08
 -1       568 4.20852E+04-1.02539E+05-2.56225E+02-1.29148E+05-9.16771E-10 1.48066E-09
 -1       569 7.60663E+04-1.36591E+05-6.02168E+02-1.67911E+05-6.99401E-10 2.12458E-09
 -1       570 4.29938E+04-1.03403E+05-1.25596E+03-1.29190E+05 2.50293E-09-4.03725E-09
 -1       571 1.41286E+05 5.11823E+03 7.58327E+03-3.56351E+04 4.93856E-10 6.27620E-09
 -1       572 1.42415E+05 1.78000E+03 3.71516E+03-3.90621E+04 3.51065E-10-2.84535E-09
 -1       573 1.41741E+05 4.24089E+02 1.65040E+03-3.55420E+04-1.02104E-08-5.27734E-09
 -1       574 1.41876E+05 1.37409E+02 8.26773E+02-3.91664E+04-2.16535E-08 8.97217E-10
 -1       575 1.41793E+05 1.83359E+01 3.89601E+02-3.55296E+04-1.05533E-08-1.33832E-09
 -1       576 1.41803E+05 4.48939E+00 1.98199E+02-3.91803E+04-5.42030E-10-9.20863E-10
 -1       577 1.41801E+05-3.39139E+00 9.74903E+01-3.55280E+04 5.26484E-10 2.45427E-09
 -1       578 1.41795E+05-1.81169E+00 5.28744E+01-3.91820E+04-1.16279E-09 9.95897E-11
 -1       579 1.41808E+05-4.02485E+00 3.19068E+01-3.55280E+04-3.76531E-10-5.68662E-09
 -1       580 1.41803E+05-4.88510E+00 2.90290E+01-3.91798E+04 2.05318E-10-1.54614E-09
 -1       581 1.41820E+05-7.73656E+00 3.86429E+01-3.55302E+04-8.79481E-10 2.16210E-09
 -1       582 1.41826E+05-1.87125E+00 7.29762E+01-3.91586E+04-4.77030E-10 2.18051E-09
 -1       583 1.41833E+05 1.65742E+01 1.39768E+02-3.55492E+04 3.67436E-10 9.37007E-10
 -1       584 1.41894E+05 1.25638E+02 3.13105E+02-3.89999E+04-1.01636E-09-2.27067E-09
 -1       585 1.41816E+05 4.02103E+02 6.35918E+02-3.56890E+04-3.51065E-10-2.02726E-09
 -1       586-1.74233E+03 4.61764E+04-2.30804E+03-1.21072E+05 3.73802E-10 3.57204E-09
 -1       587-3.79158E+02 4.58672E+04-2.73809E+02-1.33228E+05 6.56655E-10 2.77578E-09
 -1       588 4.76657E+02 4.59281E+04 1.60291E+03-1.20998E+05 3.43789E-10 1.77442E-09
 -1       589 2.39485E+03 4.68067E+04 4.69045E+03-1.33119E+05 5.39330E-10-1.18280E-09
 -1       590 6.88542E+03 4.53478E+04 1.00525E+04-1.21182E+05 2.89219E-10-3.19233E-10
 -1       591-3.06833E+04-8.81412E+03-1.02557E+04-1.59425E+04 3.74251E-09 4.26553E-10
 -1       592-3.16417E+04-1.13349E+04-5.55490E+03-1.86194E+04 4.19516E-09-1.24875E-08
 -1       593-3.17201E+04-8.05848E+03-2.31256E+03-1.66829E+04 4.01440E-09-7.55256E-09
 -1       594-3.02123E+04-9.84439E+03-1.15340E+03-1.86904E+04 1.54688E-09 1.84320E-09
 -1       595-3.17994E+04-8.05511E+03-5.30086E+02-1.67168E+04 2.35968E-09 2.88550E-09
 -1       596-3.01154E+04-9.77613E+03-2.70267E+02-1.86802E+04-1.04592E-10-3.55817E-09
 -1       597-3.18095E+04-8.06169E+03-1.48874E+02-1.67182E+04 6.40412E-11 3.20114E-10
 -1       598-3.01063E+04-9.77352E+03-1.22803E+02-1.86774E+04-5.27876E-10-1.12186E-09
 -1       599-3.18088E+04-8.06166E+03-1.60746E+02-1.67180E+04-3.21506E-10 2.56034E-09
 -1       600-3.01168E+04-9.77699E+03-3.01754E+02-1.86801E+04-4.45141E-10 1.72679E-09
 -1       601-3.17963E+04-8.05439E+03-5.96882E+02-1.67160E+04-5.40922E-10 2.39879E-10
 -1       602-3.02261E+04-9.85386E+03-1.30179E+03-1.86905E+04 3.27304E-10-4.59045E-09
 -1       603-3.17059E+04-8.05933E+03-2.61101E+03-1.66779E+04 4.74756E-10 9.97943E-10
 -1       604-3.18453E+04-1.15311E+04-6.27221E+03-1.86029E+04-6.33008E-10 3.86535E-12
 -1       605-3.05285E+04-8.91737E+03-1.15798E+04-1.58475E+04-2.63867E-10 4.35875E-09
 -1       606 2.02184E+04-6.82064E+03-1.22856E+04 1.97759E+04-1.33914E-08-1.82581E-09
 -1       607 1.81144E+04-2.19982E+03-6.11768E+03 2.21994E+04-2.02522E-08-6.01290E-10
 -1       608 1.93116E+04-3.70028E+02-2.73925E+03 1.96180E+04-6.46014E-09 2.04068E-09
 -1       609 1.90750E+04-9.70259E+01-1.38367E+03 2.23737E+04-9.23137E-10 1.55751E-10
 -1       610 1.92047E+04 1.70173E+01-6.60699E+02 1.96004E+04-4.74392E-09 1.03319E-09
 -1       611 1.91609E+04 2.44350E+01-3.33343E+02 2.23928E+04-6.92671E-09-6.55723E-09
 -1       612 1.91781E+04 2.61502E+01-1.59385E+02 1.95987E+04-3.46336E-09-2.77737E-09
 -1       613 1.91622E+04 2.88021E+01-7.27701E+01 2.23951E+04-5.11864E-09 1.43336E-09
 -1       614 1.91643E+04 2.52628E+01-2.03635E+01 1.95981E+04-1.68211E-09-6.13454E-10
 -1       615 1.91561E+04 3.14058E+01 2.23633E+01 2.23955E+04 2.66982E-09-1.45496E-09
 -1       616 1.91538E+04 2.82642E+01 7.45937E+01 1.95983E+04-2.28283E-09-2.59024E-09
 -1       617 1.91623E+04 4.92529E+01 1.73055E+02 2.23951E+04-8.29459E-10 1.56797E-09
 -1       618 1.91365E+04 7.96484E+01 3.49915E+02 1.95983E+04 3.62661E-10 2.41221E-09
 -1       619 1.92841E+04 3.21122E+02 7.86475E+02 2.23946E+04 8.97785E-10-5.62522E-10
 -1       620 1.90190E+04 9.10961E+02 1.58101E+03 1.95977E+04 1.25181E-09 5.80621E-09
 -1       621 2.56621E+02 1.57105E+05 2.42505E+03 4.81121E+03-1.54959E-09-1.90539E-10
 -1       622 3.29674E+02 1.57716E+05 2.00033E+03 7.13133E+03-8.19455E-10-2.34689E-09
 -1       623 9.62492E+00 1.57290E+05 2.21060E+03 4.78849E+03-1.35950E-09 1.86674E-09
 -1       624 9.95048E+02 1.58323E+05 4.12960E+03 7.15330E+03-8.02885E-10-4.71894E-09
 -1       625 8.79830E+02 1.56496E+05 7.11096E+03 4.78946E+03-1.11277E-09-2.24088E-09
 -1       626 1.27014E+05 3.52362E+04 2.51040E+03 6.87436E+04-1.09367E-09 6.19366E-09
 -1       627 1.25267E+05 3.65286E+04 1.20942E+03 7.15239E+04-5.24142E-09-4.84692E-09
 -1       628 1.27112E+05 3.40462E+04 5.11002E+02 6.91217E+04 1.06684E-09 7.40260E-09
 -1       629 1.24905E+05 3.62438E+04 2.50380E+02 7.16922E+04 2.45200E-09 3.58068E-09
 -1       630 1.27120E+05 3.39888E+04 1.15886E+02 6.91327E+04 9.37689E-09 1.39049E-08
 -1       631 1.24863E+05 3.62370E+04 6.23236E+01 7.16952E+04-5.94810E-10-2.38655E-09
 -1       632 1.27115E+05 3.39925E+04 4.12932E+01 6.91279E+04-3.11093E-09-1.34096E-09
 -1       633 1.24855E+05 3.62403E+04 4.62519E+01 7.16912E+04-3.21643E-09-5.04647E-09
 -1       634 1.27109E+05 3.39926E+04 7.50604E+01 6.91251E+04 5.94309E-09 6.01278E-09
 -1       635 1.24858E+05 3.62413E+04 1.52310E+02 7.16912E+04 7.25572E-09 6.13670E-09
 -1       636 1.27101E+05 3.39919E+04 3.07734E+02 6.91230E+04-2.21019E-09-5.76802E-09
 -1       637 1.24921E+05 3.62903E+04 6.76404E+02 7.16880E+04 1.16269E-09 1.89652E-09
 -1       638 1.27074E+05 3.41431E+04 1.39025E+03 6.90531E+04 8.63656E-09-3.21984E-09
 -1       639 1.25647E+05 3.73077E+04 3.28897E+03 7.14713E+04 2.19912E-08 1.18234E-08
 -1       640 1.26975E+05 3.71712E+04 6.82562E+03 6.77672E+04 8.13134E-09 3.16390E-10
 -1       656 3.44375E+04-8.71580E+05-8.31436E+04-4.78008E+02 7.45786E-10 3.18738E-09
 -1       657-4.55037E+04-9.09125E+05-6.87588E+04 5.68910E+03 1.10003E-09-1.88539E-09
 -1       658 1.09180E+04-8.82294E+05-4.21945E+04-1.11696E+03-4.96811E-11 1.88852E-09
 -1       659-4.87828E+04-9.10672E+05-7.30655E+04 6.11136E+03-1.02045E-09 6.84609E-09
 -1       660 3.77080E+04-8.70036E+05-9.05561E+04-9.00252E+02 9.74978E-10 1.69933E-09
 -1       661 1.23850E+05 1.34666E+04 1.18724E+04 4.83720E+04 2.23508E-09 8.41737E-10
 -1       662 1.30014E+05 2.27982E+04 7.99997E+03 4.63298E+04 1.83888E-09-2.21803E-09
 -1       663 1.26174E+05 1.72823E+04 2.79846E+03 4.77035E+04 1.19991E-09-1.50749E-10
 -1       664 1.27326E+05 1.83296E+04 1.67305E+03 4.71404E+04 2.29808E-09-4.19274E-09
 -1       665 1.26520E+05 1.78097E+04 6.59998E+02 4.76087E+04-7.52379E-10-1.18328E-09
 -1       666 1.26922E+05 1.77212E+04 3.84805E+02 4.72601E+04-5.50887E-09 9.41186E-09
 -1       667 1.26576E+05 1.78749E+04 2.02899E+02 4.75897E+04 1.37163E-09 2.57410E-10
 -1       668 1.26864E+05 1.76673E+04 2.03144E+02 4.72863E+04 1.20397E-09-8.26752E-09
 -1       669 1.26578E+05 1.78622E+04 2.72203E+02 4.75831E+04 1.63935E-09 2.37200E-09
 -1       670 1.26936E+05 1.78074E+04 5.89946E+02 4.72814E+04 5.65970E-09-1.16344E-10
 -1       671 1.26504E+05 1.77377E+04 1.04667E+03 4.75934E+04 9.15023E-10-3.10075E-09
 -1       672 1.27550E+05 1.88215E+04 2.67714E+03 4.71295E+04-2.87726E-09-5.39259E-09
 -1       673 1.25967E+05 1.68736E+04 4.48623E+03 4.77252E+04-1.54893E-09-6.55064E-10
 -1       674 1.31825E+05 2.60246E+04 1.28299E+04 4.58698E+04 4.84306E-11 4.18368E-10
 -1       675 1.22257E+05 1.07360E+04 1.90433E+04 4.87774E+04 3.02225E-09 2.81125E-09
 -1       676 1.40365E+01-1.67395E+05-6.51844E+02 2.48024E+01 4.84874E-11-2.05568E-10
 -1       677-1.73015E+02-1.67553E+05-1.19292E+03-4.95912E+01-2.99833E-09 3.32919E-09
 -1       678 1.15537E+02-1.67283E+05-2.10875E+03 2.47717E+01-1.97565E-09 1.58845E-09
 -1       679-2.10905E+03-1.68826E+05-5.00919E+03-4.94629E+01-3.02225E-09 4.27940E-09
 -1       680 1.25864E+03-1.66123E+05-8.07319E+03 2.43896E+01 4.17913E-10-2.38220E-09
 -1       771-1.79985E+06-3.13600E+05-4.39272E+04-7.45319E+05-7.09042E-09-4.33647E-09
 -1       772-1.78878E+06-3.37425E+05-2.35826E+04-7.71858E+05-5.11136E-09 2.86036E-09
 -1       773-1.80575E+06-3.09031E+05-1.01583E+04-7.47779E+05-3.42698E-09 2.61207E-09
 -1       774-1.78241E+06-3.32190E+05-4.95064E+03-7.74376E+05 6.08270E-09-9.34961E-10
 -1       775-1.80704E+06-3.08225E+05-2.49489E+03-7.47933E+05 7.49424E-10 3.56522E-10
 -1       776-1.78225E+06-3.32195E+05-1.15212E+03-7.75665E+05 7.85803E-10 6.93035E-10
 -1       777-1.80790E+06-3.07611E+05-7.10769E+02-7.48001E+05 3.96540E-09-7.45786E-11
 -1       778-1.78246E+06-3.32365E+05-3.16984E+02-7.76732E+05 3.64525E-09-4.73574E-09
 -1       779-1.80857E+06-3.07088E+05-3.09910E+02-7.48061E+05 2.21189E-09-3.22962E-09
 -1       780-1.78269E+06-3.32511E+05-2.42128E+02-7.77596E+05 1.96269E-09-5.92991E-10
 -1       781-1.80908E+06-3.06668E+05-4.31914E+02-7.48104E+05-7.60338E-10 3.32057E-09
 -1       782-1.78292E+06-3.32658E+05-7.85857E+02-7.78231E+05-7.65522E-09-2.68722E-09
 -1       783-1.80938E+06-3.06395E+05-1.57281E+03-7.48117E+05-1.82445E-09-3.14287E-09
 -1       784-1.78398E+06-3.33725E+05-3.72537E+03-7.78576E+05-4.25734E-09-1.36424E-11
 -1       785-1.80887E+06-3.06751E+05-6.88837E+03-7.47630E+05-8.13270E-09 9.03128E-10
 -1       786 1.31384E+05-7.00491E+03 1.62054E+04 2.49578E-01 1.88241E-07 5.00768E-09
 -1       787 1.38406E+05 8.10948E+03 1.14652E+04-4.48576E+00 3.74500E-07 1.20349E-09
 -1       788 1.34093E+05-1.09810E+03 4.19438E+03 1.99774E+00 4.83279E-07-4.91218E-09
 -1       789 1.35250E+05 1.27056E+03 2.63537E+03-8.55972E+00 5.92403E-07 2.18074E-09
 -1       790 1.34540E+05-1.71540E+02 1.07232E+03 4.32358E+00 7.69538E-07-2.89992E-09
 -1       791 1.34728E+05 1.99307E+02 6.29609E+02-1.43183E+01 9.47971E-07 1.13873E-08
 -1       792 1.34615E+05-2.76469E+01 2.87382E+02 7.75640E+00 1.29540E-06-7.70021E-09
 -1       793 1.34644E+05 3.88422E+01 1.88385E+02-2.30521E+01 1.64006E-06 9.88848E-10
 -1       794 1.34625E+05-1.11812E+01 1.39649E+02 1.30576E+01 8.20620E-07-6.22071E-09
 -1       795 1.34652E+05 5.77279E+01 2.02153E+02-3.66856E+01 2.69319E-09 3.18582E-09
 -1       796 1.34607E+05-4.65186E+01 3.02900E+02 2.13901E+01-6.76215E-11-1.17851E-09
 -1       797 1.34790E+05 3.41026E+02 7.14276E+02-5.82149E+01-2.76368E-10 3.46010E-09
 -1       798 1.34487E+05-2.94270E+02 1.12749E+03 3.45872E+01 8.94840E-12 7.14181E-10
 -1       799 1.35636E+05 2.17277E+03 3.07375E+03-9.25808E+01-5.84612E-10 1.41563E-09
 -1       800 1.33761E+05-1.87679E+03 4.34197E+03 5.57563E+01-1.34932E-11 7.02130E-09
 -1       801-8.16362E+03 8.41136E+03 1.08664E+04 1.40475E+04 7.75663E-09-2.31557E-09
 -1       802 2.03223E+04 7.36975E+04 3.92358E+04-5.78088E+04 2.07583E-08-3.20006E-09
 -1       803-1.15803E+04 3.32232E+04 4.92131E+04 1.31502E+04 1.63709E-08 1.61413E-08
 -1       804 9.56183E+04 1.14805E+05 1.37989E+05-5.85657E+04 1.93941E-08 1.74108E-08
 -1       805-8.35012E+04-3.24870E+04 1.77147E+05 1.48026E+04 6.87578E-09 1.79211E-08
 -1       806-1.54037E+05-3.30283E+04-1.31085E+04-6.41687E+04 2.04477E-09 9.53514E-09
 -1       807-1.54807E+05-3.11532E+04-6.43992E+03-6.76468E+04-7.75572E-10 4.65391E-09
 -1       808-1.54409E+05-2.82924E+04-2.73185E+03-6.63923E+04 3.05340E-09 5.20931E-09
 -1       809-1.53432E+05-2.93652E+04-1.33553E+03-6.78326E+04 5.13273E-09-5.75676E-09
 -1       810-1.54468E+05-2.81252E+04-6.11516E+02-6.64905E+04 7.77504E-09 7.76447E-09
 -1       811-1.53327E+05-2.92944E+04-3.03269E+02-6.78172E+04 5.61045E-09 5.20401E-09
 -1       812-1.54478E+05-2.81374E+04-1.51295E+02-6.64904E+04 2.90834E-09 1.81262E-09
 -1       813-1.53314E+05-2.92962E+04-9.54125E+01-6.78093E+04-5.24210E-10 6.33463E-10
 -1       814-1.54477E+05-2.81418E+04-8.93609E+01-6.64885E+04-3.18414E-09-1.04021E-08
 -1       815-1.53316E+05-2.92976E+04-1.39859E+02-6.78074E+04 2.98769E-09 1.19667E-08
 -1       816-1.54468E+05-2.81405E+04-2.61948E+02-6.64869E+04-1.40517E-10 2.07342E-09
 -1       817-1.53361E+05-2.93226E+04-5.61723E+02-6.78031E+04 2.65118E-09 1.80296E-09
 -1       818-1.54435E+05-2.82190E+04-1.14470E+03-6.64499E+04 7.52607E-10 9.96579E-10
 -1       819-1.53994E+05-3.00095E+04-2.69434E+03-6.76504E+04-1.98634E-09-3.16777E-09
 -1       820-1.54218E+05-3.02561E+04-5.48332E+03-6.55818E+04-3.68300E-09-7.05916E-09
 -1       821-1.99489E+05 1.10893E+04-2.56474E+04 2.77552E+01-5.15472E-10 9.62245E-10
 -1       822-2.10603E+05-1.28377E+04-1.81488E+04-3.15203E+02-2.08439E-09 2.58069E-10
 -1       823-2.03779E+05 1.73841E+03-6.64281E+03-1.12085E+01 1.16792E-09-1.51431E-10
 -1       824-2.05605E+05-2.01215E+03-4.18006E+03-2.09462E+02-8.58718E-11 2.12071E-09
 -1       825-2.04487E+05 2.72138E+02-1.71742E+03-7.79890E+01-2.10608E-09-1.99634E-10
 -1       826-2.04781E+05-3.20979E+02-1.03812E+03-6.92150E+01-4.70724E-09-1.33997E-09
 -1       827-2.04602E+05 4.84418E+01-5.35893E+02-1.51458E+02-3.18646E-09 1.68633E-09
 -1       828-2.04668E+05-9.79672E+01-4.74964E+02 6.19082E+01-3.96026E-09 2.86927E-09
 -1       829-2.04600E+05 4.93162E+01-5.43206E+02-2.09115E+02 3.15510E-10 5.47557E-09
 -1       830-2.04790E+05-3.28231E+02-1.06123E+03 1.43773E+02 1.52512E-09 1.70030E-09
 -1       831-2.04480E+05 2.78605E+02-1.75664E+03-2.33325E+02-1.21500E-09-3.71301E-10
 -1       832-2.05633E+05-2.06004E+03-4.28041E+03 1.51715E+02-3.22369E-10-1.97662E-09
 -1       833-2.03757E+05 1.77988E+03-6.80143E+03-2.17055E+02-4.54956E-10 2.97450E-09
 -1       834-2.10746E+05-1.31447E+04-1.85832E+04 8.50783E+01 2.27963E-10 4.81509E-09
 -1       835-1.99368E+05 1.13545E+04-2.62623E+04-1.66682E+02 4.57840E-09-1.04592E-09
 -1       836-6.60176E+02 1.88809E+05 1.13154E+04-1.66597E+04 1.23055E-09 7.58064E-09
 -1       837 2.49069E+03 1.92313E+05 9.66972E+03-3.34701E+04 1.86878E-09 2.14868E-11
 -1       838-2.44125E+02 1.89784E+05 9.98480E+03-1.66026E+04 1.83627E-09 4.06305E-09
 -1       839 6.41343E+03 1.95241E+05 1.90189E+04-3.34908E+04 2.37378E-09 4.57119E-09
 -1       840-1.92946E+03 1.85860E+05 3.03819E+04-1.66380E+04 1.61344E-09 3.26349E-09
 -1       856-6.24499E+04 5.33776E+03-1.40656E+04-3.07496E+02-3.17266E-09 4.68026E-09
 -1       857-6.82611E+04-6.26085E+03-9.68413E+03 3.21570E+03-1.18951E-09 1.62208E-09
 -1       858-6.47457E+04 7.48048E+02-3.65040E+03-3.19310E+02-2.67326E-09 2.25850E-09
 -1       859-6.56238E+04-8.70460E+02-2.20490E+03 3.23440E+03 8.16229E-10 3.92833E-09
 -1       860-6.50892E+04 1.04129E+02-9.27122E+02-3.26281E+02 5.15485E-10 4.35818E-10
 -1       861-6.52279E+04-1.15936E+02-5.16595E+02 3.24389E+03-6.32074E-09-1.54898E-10
 -1       862-6.51426E+04 1.38943E+01-2.27858E+02-3.28810E+02 5.45286E-09-2.54917E-09
 -1       863-6.51647E+04-9.56438E+00-1.12775E+02 3.24501E+03 1.10142E-08-5.47853E-09
 -1       864-6.51524E+04 6.77779E-02-3.55853E+01-3.27410E+02 4.96475E-09 4.60098E-10
 -1       865-6.51467E+04 1.48091E+01 2.05878E+01 3.23789E+03 2.73108E-09-4.64635E-09
 -1       866-6.51598E+04-1.06558E+01 7.60821E+01-3.21687E+02-2.43818E-09-4.00797E-09
 -1       867-6.51027E+04 8.98515E+01 2.09042E+02 3.22239E+03-1.87228E-10 2.74829E-09
 -1       868-6.51948E+04-7.42729E+01 3.53105E+02-3.11912E+02 3.62394E-09 1.96188E-09
 -1       869-6.48387E+04 6.16976E+02 9.47546E+02 3.19627E+03-2.44238E-09-6.27395E-09
 -1       870-6.54211E+04-5.24405E+02 1.37482E+03-2.95570E+02 1.85690E-09-7.32882E-10
 -1       871-2.90725E+03-6.01390E+03-9.45922E+03 6.20022E+04 1.86446E-09 2.85945E-09
 -1       872-1.26423E+03-8.12659E+03-3.85148E+03 8.03805E+04 2.89720E-09 3.00111E-09
 -1       873-2.82996E+01-7.13264E+03 5.64236E+02 6.18649E+04 9.82254E-10 8.00731E-09
 -1       874 1.46091E+03-5.75115E+03 5.39787E+03 8.04098E+04 3.15504E-09 1.80024E-08
 -1       875 3.46548E+03-8.41826E+03 1.19629E+04 6.19779E+04 9.49512E-10 6.35146E-09
 -1       876 1.55331E+05 2.67736E+04 8.32847E+03 6.30273E+04-4.62512E-09-1.52659E-09
 -1       877 1.55803E+05 2.86052E+04 4.44751E+03 6.54951E+04-4.85545E-09 4.97892E-10
 -1       878 1.56110E+05 2.58511E+04 1.86335E+03 6.37111E+04 9.00400E-10-4.33306E-09
 -1       879 1.54670E+05 2.74772E+04 9.28166E+02 6.55552E+04 1.41108E-09 3.05874E-10
 -1       880 1.56168E+05 2.58403E+04 4.32135E+02 6.37389E+04 1.62095E-09 4.19504E-09
 -1       881 1.54595E+05 2.74295E+04 2.30093E+02 6.55442E+04 6.00085E-09 5.16805E-09
 -1       882 1.56174E+05 2.58468E+04 1.46108E+02 6.37397E+04 4.89558E-09 4.44791E-09
 -1       883 1.54590E+05 2.74274E+04 1.55271E+02 6.55413E+04 5.08976E-10 9.21892E-09
 -1       884 1.56171E+05 2.58449E+04 2.45398E+02 6.37398E+04-1.57456E-09 7.41920E-10
 -1       885 1.54609E+05 2.74309E+04 4.92390E+02 6.55476E+04 1.03404E-09 9.66452E-10
 -1       886 1.56152E+05 2.58305E+04 9.91951E+02 6.37379E+04-2.02907E-09 8.04107E-10
 -1       887 1.54784E+05 2.75451E+04 2.16667E+03 6.55725E+04-1.43889E-08 1.86333E-09
 -1       888 1.56015E+05 2.58549E+04 4.36593E+03 6.36686E+04-2.74207E-09 8.53061E-09
 -1       889 1.57386E+05 3.02460E+04 1.04301E+04 6.54893E+04 4.56161E-09 2.98860E-09
 -1       890 1.54235E+05 2.79684E+04 1.95345E+04 6.20037E+04 1.88766E-09-2.37287E-09
 -1       891-9.57848E+01-8.83601E+04-1.04031E+03 1.68287E+04 3.30715E-10 5.31327E-09
 -1       892-1.66627E+02-8.86105E+04-1.13303E+03 2.54681E+04-2.11685E-10-1.74941E-09
 -1       893-2.53841E+01-8.83942E+04-1.62007E+03 1.68318E+04 1.32536E-09 4.44788E-09
 -1       894-8.82476E+02-8.92369E+04-3.36513E+03 2.53780E+04-7.30324E-10 1.37970E-09
 -1       895-6.87742E+02-8.76977E+04-5.92956E+03 1.69177E+04 1.72076E-09 3.11502E-10
 -1       956-1.95083E+05-2.81469E+03-7.08837E+03 1.28622E+04-2.24645E-09-2.71848E-09
 -1       957-1.96482E+05-9.49508E+02-3.63905E+03 1.54847E+04-5.89353E-10 2.04682E-09
 -1       958-1.95709E+05-7.54935E+01-1.63935E+03 1.27783E+04 1.43564E-09-2.31614E-09
 -1       959-1.95820E+05-1.38432E+01-8.37419E+02 1.55753E+04-2.68142E-09-1.11493E-09
 -1       960-1.95764E+05 2.26993E+01-4.08105E+02 1.27705E+04-3.23371E-09-5.05270E-09
 -1       961-1.95770E+05 2.04659E+01-2.16410E+02 1.55840E+04-4.61023E-09 2.26578E-09
 -1       962-1.95774E+05 1.90947E+01-1.23520E+02 1.27695E+04-1.65892E-09 3.19335E-09
 -1       963-1.95767E+05 2.07968E+01-9.85741E+01 1.55854E+04-3.69681E-09-9.20863E-10
 -1       964-1.95776E+05 2.01464E+01-1.18876E+02 1.27691E+04-1.03131E-09 2.65550E-09
 -1       965-1.95774E+05 2.28240E+01-2.04755E+02 1.55854E+04 2.45902E-09 2.81182E-09
 -1       966-1.95770E+05 2.57797E+01-3.83915E+02 1.27695E+04-1.88896E-09-1.49407E-09
 -1       967-1.95826E+05-7.06711E+00-7.87191E+02 1.55807E+04-6.61487E-10-1.90050E-09
 -1       968-1.95722E+05-6.42830E+01-1.54028E+03 1.27739E+04 3.39469E-10 2.81304E-10
 -1       969-1.96452E+05-8.84336E+02-3.41985E+03 1.55280E+04 5.38876E-10-4.48821E-10
 -1       970-1.95136E+05-2.63709E+03-6.66092E+03 1.28238E+04 4.96357E-10 2.53658E-09
 -1       971-1.85448E+05-9.80985E+02-5.46118E+03 9.11340E+03-1.72804E-09 3.95316E-09
 -1       972-1.86776E+05-7.04161E+02-2.97441E+03 1.27229E+04-1.47793E-09-1.29330E-09
 -1       973-1.86053E+05-6.30849E+00-1.33156E+03 9.03837E+03-1.60435E-09-3.26304E-09
 -1       974-1.86145E+05-7.71629E+00-6.89921E+02 1.28034E+04-5.25915E-10-1.84320E-09
 -1       975-1.86098E+05 1.79557E+01-3.43862E+02 9.03214E+03 9.18135E-10-1.54421E-09
 -1       976-1.86105E+05 1.97164E+01-1.96919E+02 1.28107E+04-5.22698E-09-8.47422E-10
 -1       977-1.86106E+05 1.69431E+01-1.40085E+02 9.03098E+03 1.25169E-09-7.98764E-10
 -1       978-1.86106E+05 2.22119E+01-1.60186E+02 1.28123E+04 1.04224E-08 1.32763E-09
 -1       979-1.86106E+05 2.08564E+01-2.54044E+02 9.03052E+03 7.08002E-09 8.06665E-10
 -1       980-1.86124E+05 2.35955E+01-4.88446E+02 1.28125E+04 4.77252E-09 2.35292E-09
 -1       981-1.86090E+05 3.30697E+01-9.44833E+02 9.03078E+03-3.80237E-09 1.77499E-09
 -1       982-1.86255E+05-4.58203E+01-1.95229E+03 1.28090E+04-3.09205E-09-2.51326E-09
 -1       983-1.85972E+05-2.68134E+01-3.79281E+03 9.03418E+03 3.44676E-09 2.27840E-09
 -1       984-1.88080E+05-2.02558E+03-8.49327E+03 1.27582E+04 2.25145E-09 5.30974E-09
 -1       985-1.84256E+05-2.80152E+03-1.55963E+04 9.08467E+03 4.40991E-09 1.74987E-09
 -3
    1PSTEP                         7           4           1          
  100CL  104 4.68750E-01         409                     0    4           1
 -4  DISP        4    1
 -5  D1          1    2    1    0
 -5  D2          1    2    2    0
 -5  D3          1    2    3    0
 -5  ALL         1    2    0    0    1ALL
 -1         1 1.27098E-04 0.00000E+00 0.00000E+00
 -1         2 1.16521E-04 2.20526E-30 1.65436E-24
 -1         3 1.10140E-04-9.81918E-28 6.61744E-24
 -1         5 7.79922E-05 1.06266E-26-3.30872E-24
 -1         8 1.02691E-04-8.86053E-07 0.00000E+00
 -1         9 1.03385E-04 4.52908E-07 0.00000E+00
 -1        10 1.01915E-04-1.50233E-06 0.00000E+00
 -1        12 7.75035E-05 5.12276E-07-1.65436E-24
 -1        15 7.36261E-05-9.77558E-07 0.00000E+00
 -1        16 7.62681E-05 2.98157E-07 0.00000E+00
 -1        17 7.56370E-05-3.17265E-06 0.00000E+00
 -1        18 7.50466E-05 7.83627E-07 0.00000E+00
 -1        19 7.60375E-05 1.02173E-06 0.00000E+00
 -1        20 7.61692E-05 1.46162E-05 0.00000E+00
 -1        21 7.56680E-05 2.75235E-05 0.00000E+00
 -1        24 1.86443E-05-4.31991E-06 0.00000E+00
 -1        25 7.35655E-05 9.02040E-07 0.00000E+00
 -1        26 7.44930E-05 1.43099E-06 0.00000E+00
 -1        27 7.30727E-05 1.23392E-05 0.00000E+00
 -1        28 7.26204E-05 2.70868E-05 0.00000E+00
 -1        32 0.00000E+00 0.00000E+00 0.00000E+00
 -1        33 7.17340E-05 1.91521E-06 0.00000E+00
 -1        34 7.03646E-05 1.23186E-05 0.00000E+00
 -1        35 6.90635E-05 2.68560E-05 0.00000E+00
 -1        51 1.25511E-04-1.45655E-07 0.00000E+00
 -1        52 1.22570E-04-2.87395E-07 0.00000E+00
 -1        53 1.18540E-04-4.30624E-07 0.00000E+00
 -1        54 1.13698E-04-5.76778E-07 0.00000E+00
 -1        55 1.08323E-04-7.26583E-07 4.54949E-24
 -1        56 1.25955E-04-7.43481E-07 0.00000E+00
 -1        57 1.24957E-04-2.00579E-06 0.00000E+00
 -1        58 1.24101E-04-3.64114E-06 2.64698E-23
 -1        59 1.23325E-04-5.51279E-06 0.00000E+00
 -1        60 1.22579E-04-7.46330E-06 0.00000E+00
 -1        61 1.21802E-04-9.33592E-06 2.64698E-23
 -1        62 1.20938E-04-1.09781E-05 0.00000E+00
 -1        63 1.19934E-04-1.22447E-05 0.00000E+00
 -1        64 1.18744E-04-1.30136E-05-5.29396E-23
 -1        65 1.17327E-04-1.31777E-05 0.00000E+00
 -1        66 1.15656E-04-1.26672E-05-5.29396E-23
 -1        67 1.13714E-04-1.14323E-05-2.64698E-23
 -1        68 1.11498E-04-9.46831E-06 0.00000E+00
 -1        69 1.09019E-04-6.79000E-06 0.00000E+00
 -1        70 1.06291E-04-3.46125E-06 0.00000E+00
 -1        86 1.16178E-04 8.33939E-08 1.65436E-24
 -1        87 1.15150E-04 1.65797E-07-8.27181E-25
 -1        88 1.13404E-04 2.47161E-07 0.00000E+00
 -1        89 1.10907E-04 3.23605E-07-4.13590E-25
 -1        90 1.07590E-04 3.98897E-07-3.30872E-24
 -1       121 1.09910E-04-2.49118E-07-6.61744E-24
 -1       122 1.09222E-04-4.98444E-07 3.30872E-24
 -1       123 1.08076E-04-7.48184E-07 6.61744E-24
 -1       124 1.06474E-04-9.98579E-07 0.00000E+00
 -1       125 1.04419E-04-1.24976E-06 6.61744E-24
 -1       191 7.79786E-05 8.53865E-08 3.30872E-24
 -1       192 7.79379E-05 1.70771E-07-1.65436E-24
 -1       193 7.78700E-05 2.56155E-07-3.30872E-24
 -1       194 7.77750E-05 3.41535E-07-1.65436E-24
 -1       195 7.76528E-05 4.26910E-07-3.30872E-24
 -1       251 1.02714E-04 3.14224E-06 3.30872E-24
 -1       252 1.02757E-04 5.56395E-06 0.00000E+00
 -1       253 1.02801E-04 6.63845E-06 5.16988E-26
 -1       254 1.02849E-04 6.62209E-06-4.13590E-25
 -1       255 1.02897E-04 5.74363E-06 0.00000E+00
 -1       256 1.02945E-04 4.23003E-06 0.00000E+00
 -1       257 1.02992E-04 2.29198E-06-1.65436E-24
 -1       258 1.03038E-04 1.39288E-07 8.27181E-25
 -1       259 1.03085E-04-2.02380E-06 1.65436E-24
 -1       260 1.03132E-04-3.99300E-06 8.27181E-25
 -1       261 1.03180E-04-5.55904E-06 0.00000E+00
 -1       262 1.03227E-04-6.51191E-06-4.13590E-25
 -1       263 1.03275E-04-6.62576E-06-5.16988E-26
 -1       264 1.03319E-04-5.67309E-06 0.00000E+00
 -1       265 1.03363E-04-3.39933E-06 0.00000E+00
 -1       266 9.78467E-05-9.13253E-07 6.61744E-24
 -1       267 9.30026E-05-9.27048E-07-1.65436E-24
 -1       268 8.81585E-05-9.41691E-07 0.00000E+00
 -1       269 8.33143E-05-9.53819E-07 4.13590E-25
 -1       270 7.84702E-05-9.65888E-07 4.13590E-25
 -1       271 9.97423E-05 2.76630E-06-2.64698E-23
 -1       272 9.72200E-05 5.15483E-06-1.32349E-23
 -1       273 9.51241E-05 6.41909E-06 0.00000E+00
 -1       274 9.33908E-05 6.69835E-06 2.64698E-23
 -1       275 9.19654E-05 6.15617E-06 5.29396E-23
 -1       276 9.07804E-05 4.96825E-06-2.64698E-23
 -1       277 8.97663E-05 3.32327E-06 0.00000E+00
 -1       278 8.88492E-05 1.41782E-06-2.64698E-23
 -1       279 8.79540E-05-5.46497E-07-5.29396E-23
 -1       280 8.70053E-05-2.36696E-06 2.64698E-23
 -1       281 8.59283E-05-3.84375E-06 5.29396E-23
 -1       282 8.46510E-05-4.78307E-06 0.00000E+00
 -1       283 8.31038E-05-5.00170E-06 5.29396E-23
 -1       284 8.12266E-05-4.32769E-06 0.00000E+00
 -1       285 7.89546E-05-2.60973E-06 0.00000E+00
 -1       301 9.86863E-05 4.20118E-07 0.00000E+00
 -1       302 9.40096E-05 4.02505E-07-1.65436E-24
 -1       303 8.93921E-05 3.85581E-07 3.30872E-24
 -1       304 8.48711E-05 3.67441E-07 0.00000E+00
 -1       305 8.04842E-05 3.47469E-07 0.00000E+00
 -1       306 1.00341E-04 3.85343E-06-2.64698E-23
 -1       307 9.77750E-05 5.83757E-06-2.64698E-23
 -1       308 9.57681E-05 6.34869E-06 5.29396E-23
 -1       309 9.43082E-05 5.37557E-06-2.64698E-23
 -1       310 9.33219E-05 3.13533E-06-5.29396E-23
 -1       311 9.27039E-05-9.82854E-08 0.00000E+00
 -1       312 9.22978E-05-3.90196E-06 0.00000E+00
 -1       313 9.19361E-05-7.82590E-06 0.00000E+00
 -1       314 9.14450E-05-1.14017E-05-5.29396E-23
 -1       315 9.06565E-05-1.41776E-05 0.00000E+00
 -1       316 8.94459E-05-1.58223E-05 0.00000E+00
 -1       317 8.77096E-05-1.60578E-05-2.64698E-23
 -1       318 8.54182E-05-1.48174E-05 0.00000E+00
 -1       319 8.25803E-05-1.20998E-05 2.64698E-23
 -1       320 7.92643E-05-8.13229E-06 0.00000E+00
 -1       336 9.89063E-05-1.77591E-06 0.00000E+00
 -1       337 9.53381E-05-2.05164E-06-3.30872E-24
 -1       338 9.12177E-05-2.32931E-06-6.61744E-24
 -1       339 8.65540E-05-2.60887E-06 3.30872E-24
 -1       340 8.13566E-05-2.89099E-06 6.61744E-24
 -1       406 7.73270E-05 5.97627E-07 0.00000E+00
 -1       407 7.71233E-05 6.82947E-07-1.65436E-24
 -1       408 7.68925E-05 7.68208E-07 0.00000E+00
 -1       409 7.66345E-05 8.53307E-07 0.00000E+00
 -1       410 7.63494E-05 9.38075E-07 0.00000E+00
 -1       521 7.44544E-05-3.55896E-06 5.29396E-23
 -1       522 7.74220E-05-2.08130E-05 2.64698E-23
 -1       523 8.40961E-05-4.85575E-05 0.00000E+00
 -1       524 9.30630E-05-8.30453E-05 5.29396E-23
 -1       525 1.02554E-04-1.19077E-04-1.05879E-22
 -1       526 1.10757E-04-1.51326E-04 5.29396E-23
 -1       527 1.16082E-04-1.75281E-04-1.05879E-22
 -1       528 1.17085E-04-1.87126E-04-5.29396E-23
 -1       529 1.13139E-04-1.85622E-04-1.05879E-22
 -1       530 1.03990E-04-1.70614E-04 0.00000E+00
 -1       531 9.05251E-05-1.44761E-04 0.00000E+00
 -1       532 7.40593E-05-1.11564E-04 0.00000E+00
 -1       533 5.66286E-05-7.60314E-05-1.05879E-22
 -1       534 4.03937E-05-4.33399E-05 2.64698E-23
 -1       535 2.71895E-05-1.81054E-05-5.29396E-23
 -1       536 7.55812E-05 2.31533E-06 0.00000E+00
 -1       537 7.55366E-05 6.82771E-06 8.27181E-25
 -1       538 7.54955E-05 1.03315E-05 0.00000E+00
 -1       539 7.54585E-05 1.27953E-05 0.00000E+00
 -1       540 7.54235E-05 1.42631E-05 0.00000E+00
 -1       541 7.53897E-05 1.47805E-05-4.13590E-25
 -1       542 7.53559E-05 1.44616E-05-8.27181E-25
 -1       543 7.53218E-05 1.34220E-05-4.13590E-25
 -1       544 7.52870E-05 1.18294E-05 0.00000E+00
 -1       545 7.52515E-05 9.85220E-06-4.13590E-25
 -1       546 7.52158E-05 7.68671E-06 0.00000E+00
 -1       547 7.51801E-05 5.52950E-06 4.13590E-25
 -1       548 7.51448E-05 3.57651E-06 8.27181E-25
 -1       549 7.51107E-05 2.02344E-06 0.00000E+00
 -1       550 7.50771E-05 1.03716E-06 0.00000E+00
 -1       551 6.81197E-05-3.34362E-06-6.61744E-24
 -1       552 5.91302E-05-3.52313E-06 1.65436E-24
 -1       553 4.91746E-05-3.71116E-06-6.61744E-24
 -1       554 3.87665E-05-3.90581E-06 3.30872E-24
 -1       555 2.84198E-05-4.10255E-06 0.00000E+00
 -1       556 7.36502E-05 1.97205E-06 0.00000E+00
 -1       557 7.21269E-05 5.92030E-06 0.00000E+00
 -1       558 7.10167E-05 8.78137E-06 0.00000E+00
 -1       559 7.02736E-05 1.06733E-05 0.00000E+00
 -1       560 6.98517E-05 1.17138E-05 0.00000E+00
 -1       561 6.97055E-05 1.20213E-05 0.00000E+00
 -1       562 6.97901E-05 1.17143E-05 0.00000E+00
 -1       563 7.00604E-05 1.09116E-05-3.30872E-24
 -1       564 7.04718E-05 9.73195E-06 0.00000E+00
 -1       565 7.09797E-05 8.29417E-06 0.00000E+00
 -1       566 7.15396E-05 6.71718E-06-8.27181E-25
 -1       567 7.21071E-05 5.11991E-06 2.06795E-25
 -1       568 7.26378E-05 3.62123E-06 0.00000E+00
 -1       569 7.30873E-05 2.33993E-06 0.00000E+00
 -1       570 7.34110E-05 1.39481E-06 0.00000E+00
 -1       571 7.51067E-05 8.36188E-07 4.13590E-25
 -1       572 7.51682E-05 8.47606E-07-4.13590E-25
 -1       573 7.52300E-05 8.25257E-07 8.27181E-25
 -1       574 7.52921E-05 7.76906E-07 0.00000E+00
 -1       575 7.53542E-05 7.10352E-07 0.00000E+00
 -1       576 7.54163E-05 6.33441E-07 0.00000E+00
 -1       577 7.54785E-05 5.54029E-07 0.00000E+00
 -1       578 7.55406E-05 4.79977E-07 0.00000E+00
 -1       579 7.56028E-05 4.19144E-07 0.00000E+00
 -1       580 7.56649E-05 3.79393E-07 1.65436E-24
 -1       581 7.57271E-05 3.68583E-07 0.00000E+00
 -1       582 7.57892E-05 3.94566E-07 3.30872E-24
 -1       583 7.58514E-05 4.65186E-07 0.00000E+00
 -1       584 7.59135E-05 5.88208E-07 0.00000E+00
 -1       585 7.59755E-05 7.71351E-07 3.30872E-24
 -1       586 7.47775E-05 8.04580E-07 0.00000E+00
 -1       587 7.44822E-05 8.25018E-07 4.13590E-25
 -1       588 7.41869E-05 8.45234E-07 0.00000E+00
 -1       589 7.39182E-05 8.65131E-07 0.00000E+00
 -1       590 7.37025E-05 8.84486E-07 0.00000E+00
 -1       591 7.49978E-05 8.68634E-07 2.06795E-25
 -1       592 7.49590E-05 9.20247E-07 0.00000E+00
 -1       593 7.49302E-05 9.44839E-07 0.00000E+00
 -1       594 7.49091E-05 9.48148E-07 0.00000E+00
 -1       595 7.48937E-05 9.35987E-07-4.13590E-25
 -1       596 7.48820E-05 9.14125E-07 2.06795E-25
 -1       597 7.48717E-05 8.88330E-07-4.13590E-25
 -1       598 7.48607E-05 8.64365E-07 2.06795E-25
 -1       599 7.48468E-05 8.47992E-07 0.00000E+00
 -1       600 7.48280E-05 8.44974E-07-2.06795E-25
 -1       601 7.48020E-05 8.61071E-07 0.00000E+00
 -1       602 7.47667E-05 9.02052E-07 1.03398E-25
 -1       603 7.47200E-05 9.73684E-07 2.06795E-25
 -1       604 7.46599E-05 1.08178E-06 0.00000E+00
 -1       605 7.45842E-05 1.23208E-06 4.13590E-25
 -1       606 7.60489E-05 1.41389E-06 0.00000E+00
 -1       607 7.60582E-05 1.89391E-06 0.00000E+00
 -1       608 7.60668E-05 2.45663E-06 0.00000E+00
 -1       609 7.60751E-05 3.09624E-06 0.00000E+00
 -1       610 7.60833E-05 3.80690E-06-3.30872E-24
 -1       611 7.60913E-05 4.58268E-06 0.00000E+00
 -1       612 7.60993E-05 5.41764E-06 0.00000E+00
 -1       613 7.61073E-05 6.30586E-06 0.00000E+00
 -1       614 7.61152E-05 7.24139E-06-1.65436E-24
 -1       615 7.61231E-05 8.21829E-06 0.00000E+00
 -1       616 7.61309E-05 9.23064E-06 0.00000E+00
 -1       617 7.61387E-05 1.02725E-05 0.00000E+00
 -1       618 7.61465E-05 1.13379E-05 8.27181E-25
 -1       619 7.61542E-05 1.24209E-05 0.00000E+00
 -1       620 7.61619E-05 1.35157E-05 0.00000E+00
 -1       621 7.57334E-05 1.08995E-06-1.65436E-24
 -1       622 7.54554E-05 1.15855E-06 0.00000E+00
 -1       623 7.51981E-05 1.22713E-06-1.65436E-24
 -1       624 7.49557E-05 1.29562E-06 0.00000E+00
 -1       625 7.47225E-05 1.36399E-06 1.65436E-24
 -1       626 7.59621E-05 1.43505E-06 0.00000E+00
 -1       627 7.58600E-05 1.92100E-06 0.00000E+00
 -1       628 7.57333E-05 2.47282E-06 0.00000E+00
 -1       629 7.55847E-05 3.08330E-06 0.00000E+00
 -1       630 7.54167E-05 3.74520E-06-3.30872E-24
 -1       631 7.52322E-05 4.45125E-06 0.00000E+00
 -1       632 7.50338E-05 5.19417E-06 0.00000E+00
 -1       633 7.48243E-05 5.96670E-06 0.00000E+00
 -1       634 7.46064E-05 6.76154E-06 0.00000E+00
 -1       635 7.43828E-05 7.57143E-06 0.00000E+00
 -1       636 7.41563E-05 8.38910E-06 0.00000E+00
 -1       637 7.39296E-05 9.20727E-06 0.00000E+00
 -1       638 7.37054E-05 1.00187E-05-1.65436E-24
 -1       639 7.34863E-05 1.08160E-05-8.27181E-25
 -1       640 7.32749E-05 1.15920E-05 8.27181E-25
 -1       656 7.52590E-05 1.42457E-05 6.61744E-24
 -1       657 7.46794E-05 1.38604E-05 0.00000E+00
 -1       658 7.43052E-05 1.34763E-05 6.61744E-24
 -1       659 7.40079E-05 1.30926E-05 0.00000E+00
 -1       660 7.36445E-05 1.27076E-05-6.61744E-24
 -1       661 7.58328E-05 1.56934E-05-8.27181E-25
 -1       662 7.55175E-05 1.67225E-05 8.27181E-25
 -1       663 7.52196E-05 1.77047E-05 1.65436E-24
 -1       664 7.49389E-05 1.86425E-05 0.00000E+00
 -1       665 7.46743E-05 1.95378E-05 0.00000E+00
 -1       666 7.44249E-05 2.03925E-05 0.00000E+00
 -1       667 7.41901E-05 2.12086E-05 0.00000E+00
 -1       668 7.39691E-05 2.19879E-05 8.27181E-25
 -1       669 7.37613E-05 2.27321E-05 0.00000E+00
 -1       670 7.35661E-05 2.34429E-05 8.27181E-25
 -1       671 7.33828E-05 2.41218E-05 0.00000E+00
 -1       672 7.32108E-05 2.47703E-05 0.00000E+00
 -1       673 7.30496E-05 2.53900E-05 0.00000E+00
 -1       674 7.28980E-05 2.59818E-05-8.27181E-25
 -1       675 7.27565E-05 2.65475E-05 0.00000E+00
 -1       676 7.51588E-05 2.74503E-05 0.00000E+00
 -1       677 7.46498E-05 2.73771E-05 8.27181E-25
 -1       678 7.41413E-05 2.73040E-05 1.65436E-24
 -1       679 7.36334E-05 2.72310E-05 0.00000E+00
 -1       680 7.31263E-05 2.71581E-05 0.00000E+00
 -1       771 1.47363E-05 3.22088E-06 2.64698E-23
 -1       772 1.13403E-05 9.39777E-06 0.00000E+00
 -1       773 8.43529E-06 1.42859E-05-2.64698E-23
 -1       774 5.98867E-06 1.79655E-05-1.32349E-23
 -1       775 3.96847E-06 2.05191E-05-2.64698E-23
 -1       776 2.34126E-06 2.20319E-05 0.00000E+00
 -1       777 1.07318E-06 2.25910E-05-2.64698E-23
 -1       778 1.29656E-07 2.22861E-05-1.32349E-23
 -1       779-5.24193E-07 2.12082E-05 2.64698E-23
 -1       780-9.23860E-07 1.94507E-05 1.32349E-23
 -1       781-1.10498E-06 1.71078E-05 2.64698E-23
 -1       782-1.10365E-06 1.42754E-05-1.32349E-23
 -1       783-9.56087E-07 1.10503E-05-2.64698E-23
 -1       784-6.98738E-07 7.53032E-06 0.00000E+00
 -1       785-3.68189E-07 3.81382E-06 0.00000E+00
 -1       786 7.36201E-05 8.61410E-07 0.00000E+00
 -1       787 7.36780E-05 8.26901E-07-4.13590E-25
 -1       788 7.37356E-05 7.98026E-07 0.00000E+00
 -1       789 7.37938E-05 7.74313E-07 0.00000E+00
 -1       790 7.38520E-05 7.55987E-07 0.00000E+00
 -1       791 7.39104E-05 7.43283E-07 0.00000E+00
 -1       792 7.39688E-05 7.37196E-07 0.00000E+00
 -1       793 7.40272E-05 7.38735E-07 0.00000E+00
 -1       794 7.40856E-05 7.49938E-07 0.00000E+00
 -1       795 7.41440E-05 7.72867E-07-8.27181E-25
 -1       796 7.42024E-05 8.11163E-07 0.00000E+00
 -1       797 7.42608E-05 8.68506E-07-8.27181E-25
 -1       798 7.43192E-05 9.51139E-07 1.65436E-24
 -1       799 7.43774E-05 1.06537E-06-8.27181E-25
 -1       800 7.44356E-05 1.22177E-06 0.00000E+00
 -1       801 6.85956E-05 8.42011E-07 0.00000E+00
 -1       802 5.37164E-05 6.85538E-07 0.00000E+00
 -1       803 3.41866E-05 4.56298E-07 0.00000E+00
 -1       804 1.52747E-05 2.31741E-07 0.00000E+00
 -1       805 2.15623E-06 9.31773E-08 0.00000E+00
 -1       806 7.35090E-05 8.20135E-07 0.00000E+00
 -1       807 7.34491E-05 7.39444E-07 0.00000E+00
 -1       808 7.33865E-05 6.64465E-07 0.00000E+00
 -1       809 7.33200E-05 5.98998E-07 0.00000E+00
 -1       810 7.32484E-05 5.46834E-07 0.00000E+00
 -1       811 7.31704E-05 5.11706E-07 8.27181E-25
 -1       812 7.30846E-05 4.97343E-07 0.00000E+00
 -1       813 7.29896E-05 5.07466E-07 8.27181E-25
 -1       814 7.28840E-05 5.45791E-07 3.30872E-24
 -1       815 7.27664E-05 6.16032E-07-8.27181E-25
 -1       816 7.26355E-05 7.21900E-07 3.30872E-24
 -1       817 7.24898E-05 8.67105E-07 8.27181E-25
 -1       818 7.23280E-05 1.05535E-06 1.65436E-24
 -1       819 7.21488E-05 1.29034E-06 4.13590E-25
 -1       820 7.19510E-05 1.57575E-06 8.27181E-25
 -1       821 7.44094E-05 1.66007E-06 8.27181E-25
 -1       822 7.43207E-05 1.87673E-06 0.00000E+00
 -1       823 7.42323E-05 2.12086E-06 1.65436E-24
 -1       824 7.41429E-05 2.43226E-06 0.00000E+00
 -1       825 7.40535E-05 2.83821E-06-3.30872E-24
 -1       826 7.39638E-05 3.36563E-06 0.00000E+00
 -1       827 7.38740E-05 4.01889E-06 0.00000E+00
 -1       828 7.37841E-05 4.80186E-06 0.00000E+00
 -1       829 7.36941E-05 5.69432E-06-3.30872E-24
 -1       830 7.36040E-05 6.67564E-06-1.65436E-24
 -1       831 7.35140E-05 7.70869E-06-3.30872E-24
 -1       832 7.34241E-05 8.75611E-06 0.00000E+00
 -1       833 7.33342E-05 9.77789E-06-1.65436E-24
 -1       834 7.32455E-05 1.07341E-05-8.27181E-25
 -1       835 7.31564E-05 1.15971E-05 0.00000E+00
 -1       836 7.41693E-05 1.51162E-06 0.00000E+00
 -1       837 7.37391E-05 1.59401E-06 0.00000E+00
 -1       838 7.32413E-05 1.67625E-06-1.65436E-24
 -1       839 7.27151E-05 1.75795E-06-8.27181E-25
 -1       840 7.21997E-05 1.83953E-06 2.06795E-25
 -1       856 7.30477E-05 1.30729E-05-2.06795E-25
 -1       857 7.30198E-05 1.39037E-05 0.00000E+00
 -1       858 7.29919E-05 1.48164E-05 0.00000E+00
 -1       859 7.29635E-05 1.57957E-05 0.00000E+00
 -1       860 7.29350E-05 1.68259E-05 8.27181E-25
 -1       861 7.29064E-05 1.78917E-05 0.00000E+00
 -1       862 7.28777E-05 1.89775E-05 0.00000E+00
 -1       863 7.28490E-05 2.00677E-05 0.00000E+00
 -1       864 7.28203E-05 2.11468E-05 0.00000E+00
 -1       865 7.27917E-05 2.21991E-05-4.13590E-25
 -1       866 7.27630E-05 2.32093E-05 8.27181E-25
 -1       867 7.27345E-05 2.41617E-05-4.13590E-25
 -1       868 7.27059E-05 2.50409E-05 8.27181E-25
 -1       869 7.26774E-05 2.58317E-05 4.13590E-25
 -1       870 7.26490E-05 2.65187E-05-8.27181E-25
 -1       871 7.25223E-05 1.23384E-05 4.13590E-25
 -1       872 7.20656E-05 1.23357E-05 0.00000E+00
 -1       873 7.16622E-05 1.23326E-05 0.00000E+00
 -1       874 7.12714E-05 1.23291E-05 1.55096E-25
 -1       875 7.08523E-05 1.23251E-05 2.06795E-25
 -1       876 7.28826E-05 1.30810E-05 0.00000E+00
 -1       877 7.26767E-05 1.38701E-05 0.00000E+00
 -1       878 7.24554E-05 1.47007E-05 0.00000E+00
 -1       879 7.22206E-05 1.55676E-05 0.00000E+00
 -1       880 7.19743E-05 1.64654E-05 0.00000E+00
 -1       881 7.17184E-05 1.73887E-05-1.65436E-24
 -1       882 7.14550E-05 1.83323E-05-3.30872E-24
 -1       883 7.11859E-05 1.92907E-05 3.30872E-24
 -1       884 7.09132E-05 2.02588E-05 0.00000E+00
 -1       885 7.06388E-05 2.12312E-05 0.00000E+00
 -1       886 7.03649E-05 2.22025E-05-1.65436E-24
 -1       887 7.00932E-05 2.31676E-05 8.27181E-25
 -1       888 6.98257E-05 2.41209E-05 1.65436E-24
 -1       889 6.95642E-05 2.50572E-05 0.00000E+00
 -1       890 6.93107E-05 2.59711E-05 0.00000E+00
 -1       891 7.21334E-05 2.70482E-05 0.00000E+00
 -1       892 7.16297E-05 2.70094E-05 0.00000E+00
 -1       893 7.10900E-05 2.69707E-05 8.27181E-25
 -1       894 7.04952E-05 2.69321E-05-2.06795E-25
 -1       895 6.98260E-05 2.68935E-05 6.20385E-25
 -1       956 7.16500E-05 2.36498E-06 0.00000E+00
 -1       957 7.15647E-05 2.86954E-06 8.27181E-25
 -1       958 7.14791E-05 3.42319E-06-1.65436E-24
 -1       959 7.13933E-05 4.01986E-06 8.27181E-25
 -1       960 7.13074E-05 4.65351E-06-1.65436E-24
 -1       961 7.12215E-05 5.31803E-06-8.27181E-25
 -1       962 7.11356E-05 6.00731E-06 1.65436E-24
 -1       963 7.10496E-05 6.71527E-06-1.65436E-24
 -1       964 7.09637E-05 7.43580E-06 0.00000E+00
 -1       965 7.08777E-05 8.16277E-06 0.00000E+00
 -1       966 7.07918E-05 8.89009E-06 0.00000E+00
 -1       967 7.07059E-05 9.61166E-06 1.65436E-24
 -1       968 7.06200E-05 1.03214E-05 3.30872E-24
 -1       969 7.05343E-05 1.10131E-05 0.00000E+00
 -1       970 7.04488E-05 1.16808E-05 0.00000E+00
 -1       971 7.02844E-05 1.29745E-05 0.00000E+00
 -1       972 7.02030E-05 1.37025E-05 8.27181E-25
 -1       973 7.01215E-05 1.44947E-05 1.65436E-24
 -1       974 7.00398E-05 1.53428E-05 1.65436E-24
 -1       975 6.99581E-05 1.62385E-05 3.30872E-24
 -1       976 6.98763E-05 1.71736E-05 0.00000E+00
 -1       977 6.97944E-05 1.81396E-05-1.65436E-24
 -1       978 6.97125E-05 1.91283E-05 8.27181E-25
 -1       979 6.96307E-05 2.01314E-05 3.30872E-24
 -1       980 6.95488E-05 2.11405E-05 0.00000E+00
 -1       981 6.94669E-05 2.21473E-05 0.00000E+00
 -1       982 6.93852E-05 2.31434E-05 0.00000E+00
 -1       983 6.93035E-05 2.41207E-05 0.00000E+00
 -1       984 6.92222E-05 2.50707E-05 0.00000E+00
 -1       985 6.91413E-05 2.59852E-05-1.65436E-24
 -3
    1PSTEP                         8           4           1          
  100CL  104 4.68750E-01         409                     0    4           1
 -4  STRESS      6    1
 -5  SXX         1    4    1    1
 -5  SYY         1    4    2    2
 -5  SZZ         1    4    3    3
 -5  SXY         1    4    1    2
 -5  SYZ         1    4    2    3
 -5  SZX         1    4    3    1
 -1         1-1.66231E+06-7.54122E+05-3.41810E+05-1.05172E+06 2.58296E-10 2.79397E-09
 -1         2 2.65833E+03 2.42311E+05 8.71178E+03 7.05390E+02-1.51033E-10 3.65941E-09
 -1         3-8.82118E+01-7.11618E+05 1.66340E+02-2.59914E+02-1.88736E-10-1.20217E-08
 -1         5-5.86505E+00 2.44323E+05 6.37573E+00 1.10172E-01 1.22260E-10 1.51658E-08
 -1         8-7.84262E+05-3.32714E+05-3.40261E+04-5.65306E+05 1.21872E-10 3.72529E-09
 -1         9-1.37671E+06-3.63502E+05-1.40798E+05-4.61590E+05 3.60160E-09 3.35276E-09
 -1        10-5.77799E+02-7.41356E+05-9.84101E+02-1.75379E+03-3.35285E-09-1.39333E-08
 -1        12-3.25250E+00 2.44337E+05 2.06750E+02 9.98289E-01 2.23025E-10 4.96584E-09
 -1        15 1.97985E+03 1.08805E+03 6.39987E+03 4.14736E+00-9.97886E-11-1.37611E-08
 -1        16-3.52221E+06-1.21074E+06-5.55567E+05-1.24176E+06 1.12050E-08 2.50293E-09
 -1        17-8.49020E+05-5.15050E+05-1.64460E+05-4.75599E+05-5.49917E-09 2.79397E-09
 -1        18 5.97745E+03-2.85278E+03-1.71758E+04-5.81585E+04 8.20137E-10 3.81669E-09
 -1        19 7.67168E+04 9.19678E+04-3.15924E+02 1.49323E+04-7.49606E-10-3.30729E-09
 -1        20-3.22651E+04-3.61758E+05-7.98194E+04 2.64795E+04 4.45531E-09-1.08836E-10
 -1        21-3.40870E+01-2.09299E+05-6.75639E+02-7.30969E+01-8.17217E-09-1.91637E-08
 -1        24-3.25431E+06-1.02221E+06-4.49768E+05-1.25933E+06-2.06055E-08-9.96806E-09
 -1        25 2.28286E+04-3.29700E+04 1.01171E+04-1.05019E+05 3.24417E-10 9.98061E-09
 -1        26-1.79427E+04 6.28960E+04-1.23772E+04-8.78249E+03 1.36315E-09 1.17972E-09
 -1        27-5.78001E+04-1.98427E+05-7.44376E+04 4.47215E+04 6.32743E-09 2.22553E-09
 -1        28 1.62009E+04-5.78512E+04 1.18255E+04 1.84636E+04 1.87501E-09-1.76673E-09
 -1        32-7.84781E+05-1.82205E+05 3.18891E+05-5.24285E+05-1.62618E-08 1.09843E-08
 -1        33-1.13561E+05 5.82756E+04 2.06675E+04-3.37257E+04 9.05269E-10 9.89530E-09
 -1        34-1.47290E+05-1.46661E+04 3.46587E+02 4.53311E+04 1.83972E-09-2.79973E-10
 -1        35-1.64742E+04-2.29927E+04-9.01133E+02 3.64602E+04 5.39873E-09 2.31497E-09
 -1        51 1.40496E+04-3.66904E+05 3.63642E+04-9.31468E+05 7.27596E-11-6.97037E-09
 -1        52 8.82659E+03-3.65872E+05 2.43236E+04-1.08640E+06 5.60249E-10-1.30385E-08
 -1        53 6.64593E+03-3.78219E+05 2.10125E+04-9.28230E+05 6.83940E-10 2.03727E-10
 -1        54 1.90751E+04-3.76899E+05 3.40756E+04-1.08977E+06 8.00355E-11-8.71660E-09
 -1        55 3.79170E+04-3.89892E+05 6.10584E+04-9.27711E+05 8.00355E-10-1.45155E-09
 -1        56-3.19008E+06-3.59186E+05-2.51168E+05-1.22966E+06 8.44011E-10-6.35919E-09
 -1        57-3.28910E+06-5.88301E+05-1.69305E+05-1.22204E+06-8.71296E-10-2.32831E-10
 -1        58-3.24121E+06-4.38059E+05-5.90948E+04-1.21306E+06-3.41061E-10 8.47649E-09
 -1        59-3.22988E+06-4.95834E+05-3.52754E+04-1.24197E+06-3.20142E-10-9.55697E-09
 -1        60-3.24877E+06-4.48945E+05-1.37978E+04-1.21068E+06 1.90084E-10 1.82445E-09
 -1        61-3.22245E+06-4.81682E+05-7.83758E+03-1.24308E+06 4.41673E-10-4.29611E-09
 -1        62-3.24849E+06-4.51883E+05-3.78237E+03-1.21203E+06 4.91127E-11 1.33028E-09
 -1        63-3.22545E+06-4.75794E+05-3.07189E+03-1.23829E+06-2.13822E-09 1.21317E-08
 -1        64-3.24564E+06-4.54869E+05-3.56777E+03-1.21540E+06-5.22505E-10 2.27487E-09
 -1        65-3.23306E+06-4.70299E+05-7.04986E+03-1.23005E+06 5.11591E-10-5.55019E-09
 -1        66-3.24077E+06-4.57490E+05-1.24925E+04-1.22018E+06 8.56289E-10 4.01997E-10
 -1        67-3.24873E+06-4.73866E+05-3.16129E+04-1.21856E+06-5.97652E-10-8.05494E-09
 -1        68-3.23003E+06-4.51640E+05-5.31307E+04-1.22677E+06-3.31056E-10-3.27418E-09
 -1        69-3.30811E+06-5.50926E+05-1.51970E+05-1.19409E+06 2.01771E-09-4.70754E-09
 -1        70-3.18202E+06-3.82774E+05-2.25546E+05-1.24388E+06-1.49157E-09 1.45228E-08
 -1        86-1.33569E+03 2.39462E+05 9.30002E+03-3.52722E+02 1.13232E-09-2.86263E-09
 -1        87 8.85517E+03 2.45358E+05 1.94506E+04 1.45633E+03 1.90084E-09-2.06364E-09
 -1        88-7.51606E+03 2.36418E+05 2.97265E+04-1.10369E+03 2.85399E-09-2.80943E-09
 -1        89 5.60038E+04 2.67406E+05 8.02447E+04 3.17736E+03 4.34284E-09-8.23104E-09
 -1        90-4.83341E+04 2.17439E+05 1.13284E+05-2.07323E+03 5.02769E-09-5.25768E-09
 -1       121-1.38285E+02-7.12011E+05 1.31147E+02 1.29794E+02 3.98856E-10-1.89721E-09
 -1       122-3.28557E+01-7.11584E+05 3.59895E+02-5.19655E+02-1.34378E-09 7.74889E-10
 -1       123-1.76285E+02-7.12050E+05 5.54495E+02 3.88892E+02 1.10333E-09 2.84490E-09
 -1       124 6.33231E+02-7.11186E+05 1.50132E+03-1.16347E+03-2.52714E-09-4.83533E-09
 -1       125-6.04497E+02-7.12426E+05 2.27301E+03 7.73224E+02 1.84991E-09-3.42880E-09
 -1       191-6.36819E+00 2.44344E+05 7.55738E+00-5.57823E-02 1.52594E-10 1.70739E-08
 -1       192-6.45149E+00 2.44324E+05 1.35026E+01 6.63037E-01 2.23349E-10 1.98825E-08
 -1       193-7.92716E+00 2.44344E+05 2.50495E+01-6.11948E-01 2.45088E-10 5.37329E-09
 -1       194-8.33857E+00 2.44326E+05 5.10810E+01 1.63354E+00 1.31756E-10-3.11775E-09
 -1       195-1.09231E+01 2.44342E+05 9.98554E+01-1.03382E+00 3.93975E-10 3.10047E-09
 -1       251 1.19783E+05-4.12644E+04 9.61827E+04 3.90428E+03 1.63368E-10-4.91127E-10
 -1       252 1.64581E+05 4.77125E+04 6.84070E+04-1.37117E+04 4.04725E-11-3.45699E-09
 -1       253 1.36552E+05-6.39028E+03 2.48742E+04 2.96525E+03 1.03455E-11 3.85990E-09
 -1       254 1.44702E+05 7.37329E+03 1.58032E+04-1.22463E+04-2.43972E-10 2.91220E-09
 -1       255 1.39547E+05-9.87224E+02 6.42846E+03 2.43897E+03-2.20552E-11 1.11754E-08
 -1       256 1.41061E+05 1.17660E+03 3.93947E+03-1.14655E+04 3.73333E-10 1.32638E-08
 -1       257 1.40137E+05-1.73382E+02 2.03593E+03 2.18447E+03-1.44709E-10 6.80404E-09
 -1       258 1.40456E+05 3.83675E+02 1.83518E+03-1.12046E+04-6.02598E-10-9.68379E-09
 -1       259 1.40135E+05-1.83897E+02 2.13573E+03 2.17810E+03-9.93907E-11-4.53440E-09
 -1       260 1.41093E+05 1.26925E+03 4.22146E+03-1.14409E+04 1.42293E-10-6.39056E-09
 -1       261 1.39516E+05-1.06789E+03 6.94667E+03 2.42070E+03 1.42512E-09 1.46247E-09
 -1       262 1.44965E+05 7.98308E+03 1.70777E+04-1.21948E+04 5.85032E-10-4.10364E-09
 -1       263 1.36316E+05-6.91484E+03 2.69350E+04 2.93201E+03-7.19410E-10 5.04224E-09
 -1       264 1.66352E+05 5.16411E+04 7.39977E+04-1.36360E+04-2.61696E-09 2.02817E-10
 -1       265 1.18243E+05-4.46497E+04 1.04146E+05 3.86176E+03-8.26049E-10 6.53381E-09
 -1       266-3.58409E+04-1.67566E+04 8.41052E+04-8.87519E+01-1.81899E-11-5.54573E-09
 -1       267 4.15506E+04 1.95342E+04 5.94381E+04 1.02388E+02 1.27329E-11-1.31775E-08
 -1       268-5.57181E+03-2.76636E+03 2.20932E+04-1.30468E+01-3.45608E-11-1.66296E-08
 -1       269 6.57873E+03 3.31099E+03 1.43599E+04 1.51967E+01-1.30967E-10-1.42484E-08
 -1       270-9.87475E+02-5.44011E+02 6.93174E+03-2.06234E+00-1.21418E-10-3.93515E-10
 -1       271-3.50726E+06-4.38837E+05-2.69921E+05-1.36789E+06 1.57888E-09 6.66478E-09
 -1       272-3.58893E+06-6.50480E+05-1.73485E+05-1.38218E+06-1.79398E-10-3.95812E-09
 -1       273-3.55976E+06-5.04323E+05-6.37681E+04-1.35392E+06-2.89674E-10-4.20914E-09
 -1       274-3.52706E+06-5.70778E+05-3.56425E+04-1.40414E+06-7.85349E-10 6.80939E-09
 -1       275-3.56860E+06-5.09369E+05-1.48366E+04-1.34978E+06 8.43102E-10 5.76802E-09
 -1       276-3.51643E+06-5.65148E+05-7.85886E+03-1.41098E+06 1.10958E-10-1.72213E-09
 -1       277-3.57096E+06-5.08598E+05-3.84726E+03-1.34792E+06-3.00588E-10-3.82784E-10
 -1       278-3.51414E+06-5.65818E+05-2.78625E+03-1.41333E+06 1.90391E-09 2.87525E-09
 -1       279-3.57121E+06-5.08413E+05-2.98329E+03-1.34769E+06-2.13049E-10 2.11048E-09
 -1       280-3.51544E+06-5.65505E+05-5.46476E+03-1.41202E+06 2.53067E-10-4.98403E-10
 -1       281-3.56949E+06-5.09077E+05-1.00177E+04-1.34908E+06-1.50158E-09 5.98448E-09
 -1       282-3.52314E+06-5.68561E+05-2.38910E+04-1.40652E+06 7.10315E-10 5.46925E-09
 -1       283-3.56297E+06-5.06359E+05-4.27233E+04-1.35252E+06 1.02773E-10-8.97126E-09
 -1       284-3.56589E+06-6.20299E+05-1.16078E+05-1.38980E+06-1.85264E-09-6.65932E-09
 -1       285-3.52682E+06-4.63672E+05-1.80774E+05-1.36303E+06 1.39880E-09 7.60338E-09
 -1       301 1.44196E+04-1.74680E+04 1.10189E+05-4.48349E+04-4.32919E-10-2.75668E-09
 -1       302 1.55217E+04 1.03992E+04 7.88163E+04-6.60229E+04 2.02112E-09-3.06454E-09
 -1       303 8.64048E+02-7.44095E+03 7.14032E+04-4.49377E+04-7.00311E-10-7.48059E-09
 -1       304 2.78024E+04 2.18419E+04 1.18867E+05-6.57963E+04 6.40284E-10-4.70891E-09
 -1       305 2.74057E+04-2.86566E+04 1.98837E+05-4.49866E+04-1.07684E-09 1.07784E-08
 -1       306-3.92450E+06-4.58123E+05-2.98092E+05-1.53891E+06 9.09495E-10-6.83940E-09
 -1       307-4.08571E+06-7.01489E+05-2.03102E+05-1.47717E+06 6.61203E-10 1.56433E-09
 -1       308-3.99774E+06-5.45444E+05-7.02081E+04-1.50479E+06 6.32099E-10 1.07066E-08
 -1       309-3.99177E+06-6.09286E+05-4.23203E+04-1.52809E+06-1.17551E-09 6.67205E-09
 -1       310-4.01802E+06-5.48471E+05-1.64842E+04-1.48863E+06-1.30103E-09-1.12086E-08
 -1       311-3.96555E+06-6.08953E+05-9.49405E+03-1.55109E+06 3.78867E-09-4.42333E-09
 -1       312-4.02423E+06-5.45256E+05-4.64216E+03-1.48213E+06-1.55553E-09-5.66001E-09
 -1       313-3.96237E+06-6.08862E+05-4.16934E+03-1.55386E+06-5.77569E-09-6.69195E-09
 -1       314-4.02125E+06-5.48489E+05-5.11798E+03-1.48591E+06-2.62548E-09-2.64754E-09
 -1       315-3.97649E+06-5.97774E+05-1.05364E+04-1.53729E+06-1.52431E-09 7.62498E-09
 -1       316-4.00977E+06-5.56627E+05-1.88005E+04-1.49844E+06 1.63902E-09-2.91038E-10
 -1       317-4.01176E+06-5.93300E+05-4.80561E+04-1.50590E+06 1.10794E-09 4.52565E-09
 -1       318-3.98585E+06-5.53435E+05-7.97768E+04-1.51703E+06-4.09000E-09 8.17818E-09
 -1       319-4.11634E+06-7.01632E+05-2.31109E+05-1.45267E+06-1.56069E-09 2.38651E-09
 -1       320-3.90603E+06-4.50127E+05-3.38735E+05-1.55122E+06 8.92760E-09 3.44880E-09
 -1       336 4.96539E+02-7.70793E+05-4.20954E+03 9.78169E+02-6.81598E-09-3.55794E-09
 -1       337-1.53805E+03-7.71810E+05-4.65509E+03-2.48714E+03-1.26232E-08-9.65520E-09
 -1       338 3.34573E+02-7.70898E+05-5.98701E+03 1.50330E+03-8.87667E-09 2.21189E-09
 -1       339-6.20936E+03-7.74716E+05-1.31247E+04-3.52250E+03-1.68309E-08 6.51835E-09
 -1       340 4.18023E+03-7.67963E+05-2.02813E+04 2.00599E+03-1.13541E-08 9.89894E-09
 -1       406 1.24767E+01 2.44333E+05 4.08112E+02 1.74517E-02 5.84066E-10 4.69026E-09
 -1       407 1.39073E+02 2.44408E+05 8.67526E+02-8.08108E+00 1.17410E-10-4.25644E-09
 -1       408 4.43267E+02 2.44270E+05 1.73255E+03 8.21541E+00 5.52518E-10-2.15778E-09
 -1       409 1.87042E+03 2.44962E+05 3.90062E+03-7.89200E+01-1.47111E-10 8.99718E-10
 -1       410 5.37985E+03 2.43777E+05 7.96291E+03 7.36146E+01 6.14818E-10 5.56383E-09
 -1       521-7.36712E+06-7.74910E+05-5.67110E+05-2.72070E+06 1.01500E-09-1.22236E-09
 -1       522-7.08118E+06-1.58113E+06-3.49631E+05-3.07568E+06-3.26681E-08-6.60657E-09
 -1       523-7.58037E+06-7.77256E+05-1.31555E+05-2.48360E+06 2.22462E-09-8.68749E-09
 -1       524-6.87930E+06-1.54675E+06-7.24009E+04-3.37709E+06 3.62147E-08-2.37087E-08
 -1       525-7.60692E+06-7.76672E+05-2.94031E+04-2.44810E+06 1.88647E-08-8.16999E-09
 -1       526-6.89907E+06-1.42040E+06-4.18490E+03-3.23205E+06 2.24099E-09-1.88447E-09
 -1       527-7.53580E+06-9.20941E+05-2.66987E+04-2.61171E+06 3.14321E-09-1.62072E-09
 -1       528-7.12281E+06-1.09219E+06 2.03314E+04-2.79438E+06-4.87489E-09 1.09867E-09
 -1       529-7.34316E+06-1.13349E+06-3.22015E+04-2.85544E+06-9.05129E-09 8.37827E-09
 -1       530-7.56399E+06-7.08944E+05 2.83015E+03-2.38826E+06-1.34823E-08 1.29257E-08
 -1       531-7.11683E+06-1.28790E+06-3.49606E+04-3.03266E+06-3.65981E-08-7.47787E-09
 -1       532-7.90294E+06-5.19552E+05-7.10804E+04-2.20336E+06 3.14185E-08-4.01269E-08
 -1       533-7.04499E+06-1.29470E+06-1.24877E+05-3.07259E+06 1.06593E-08-5.35802E-08
 -1       534-7.89314E+06-8.10971E+05-3.52132E+05-2.23234E+06-5.32600E-09 3.69182E-08
 -1       535-7.11045E+06-1.01311E+06-5.54484E+05-2.98802E+06-7.90169E-09 2.65427E-08
 -1       536-1.04632E+05-1.75222E+04 4.03462E+04-6.38450E+02-6.84565E-10 1.26111E-08
 -1       537-8.56241E+04 2.02836E+04 2.88072E+04 1.02435E+01-7.66298E-09 4.83169E-09
 -1       538-9.79304E+04-2.75790E+03 1.03550E+04-2.46042E+02-4.95447E-10 8.45239E-09
 -1       539-9.35319E+04 3.18394E+03 6.74882E+03-8.22040E+02 4.36106E-09 9.17680E-09
 -1       540-9.67290E+04-4.36599E+02 2.56122E+03 1.93849E+02 4.33587E-10 6.36680E-09
 -1       541-9.51159E+04 4.93989E+02 1.64279E+03-1.63570E+03-4.43364E-10 3.13310E-09
 -1       542-9.63540E+04-6.47811E+01 5.55123E+02 5.67583E+02-8.95312E-10 4.07493E-09
 -1       543-9.57254E+04 4.45644E+01 2.80034E+02-2.25668E+03 1.61041E-09-5.57037E-10
 -1       544-9.61291E+04 1.95237E+01-1.15951E+02 8.14823E+02-1.17149E-09-4.00769E-09
 -1       545-9.61099E+04-1.91460E+02-5.26377E+02-2.58820E+03-1.33572E-09-4.40619E-09
 -1       546-9.59760E+04 1.75905E+02-1.03391E+03 8.99123E+02 4.74531E-10 2.11924E-09
 -1       547-9.66368E+04-1.27985E+03-2.62362E+03-2.58149E+03-3.37650E-09 4.85716E-09
 -1       548-9.56022E+04 1.10700E+03-4.23601E+03 8.08106E+02-3.90310E-09-1.48020E-09
 -1       549-9.95485E+04-8.15717E+03-1.14952E+04-2.23239E+03-2.12717E-09-6.84759E-09
 -1       550-9.30578E+04 7.04290E+03-1.64083E+04 5.50000E+02-8.12861E-12-2.13186E-09
 -1       551 8.69553E+03-3.98635E+05 2.08162E+04-6.75269E+05-3.04899E-08 1.20053E-09
 -1       552 1.91812E+04-4.01753E+05 2.77889E+04-9.61214E+05-2.35377E-08 1.31658E-08
 -1       553 1.30809E+04-4.06953E+05 4.31622E+04-6.72952E+05-3.70637E-08 8.68749E-09
 -1       554 4.15360E+04-3.90362E+05 9.17268E+04-9.62215E+05-2.36323E-08 6.35401E-09
 -1       555 3.97587E+04-4.24593E+05 1.64568E+05-6.73700E+05-3.72238E-08-3.29601E-09
 -1       556 6.10589E+04-1.29114E+05 4.36993E+04-1.68945E+05-6.24277E-09-4.65661E-10
 -1       557 1.13334E+05-1.72442E+05 2.29731E+04-2.11619E+05 4.36557E-11 9.41327E-09
 -1       558 6.08560E+04-1.34929E+05 9.26183E+03-1.63939E+05-3.85626E-09-2.10093E-09
 -1       559 1.06222E+05-1.78398E+05 4.71098E+03-2.14786E+05 7.55244E-09-2.67391E-10
 -1       560 5.92785E+04-1.33882E+05 1.93184E+03-1.64931E+05 4.19823E-09 5.38694E-09
 -1       561 1.03780E+05-1.77767E+05 1.03395E+03-2.16332E+05-6.89033E-09-8.14498E-09
 -1       562 5.80089E+04-1.33032E+05 3.85884E+02-1.65846E+05-4.63479E-09 3.34012E-10
 -1       563 1.02289E+05-1.77127E+05 2.49260E+02-2.17285E+05-2.06637E-09-3.00957E-09
 -1       564 5.72162E+04-1.32521E+05 8.72805E+01-1.66409E+05 5.44969E-09 4.14639E-09
 -1       565 1.01510E+05-1.76793E+05 5.89364E+01-2.17775E+05 1.48793E-09 5.01132E-09
 -1       566 5.69287E+04-1.32330E+05-1.56436E+01-1.66616E+05-3.58796E-09-5.18412E-10
 -1       567 1.01403E+05-1.76741E+05-9.97579E+01-2.17780E+05-4.93310E-09-9.03128E-09
 -1       568 5.71784E+04-1.32495E+05-3.01602E+02-1.66501E+05-5.34419E-09 2.65391E-09
 -1       569 1.01341E+05-1.76631E+05-7.05723E+02-2.16749E+05-2.11548E-09 6.34464E-09
 -1       570 5.84797E+04-1.33668E+05-1.51961E+03-1.66465E+05 7.31234E-10 2.47019E-09
 -1       571 1.77211E+05 6.44196E+03 9.54435E+03-4.50733E+04-1.80989E-10 5.71140E-09
 -1       572 1.78630E+05 2.24178E+03 4.67614E+03-4.94089E+04-6.49607E-10 3.36468E-09
 -1       573 1.77780E+05 5.35762E+02 2.07731E+03-4.49560E+04-1.03623E-08 3.01407E-09
 -1       574 1.77947E+05 1.76247E+02 1.04077E+03-4.95399E+04-1.89559E-08 4.50655E-09
 -1       575 1.77843E+05 2.64412E+01 4.90480E+02-4.49405E+04-7.84394E-09 2.80579E-09
 -1       576 1.77854E+05 9.72299E+00 2.49617E+02-4.95575E+04-1.47793E-12-7.75617E-09
 -1       577 1.77852E+05-7.96533E-01 1.22843E+02-4.49385E+04 7.54881E-11 2.16869E-09
 -1       578 1.77845E+05 1.22143E+00 6.67704E+01-4.95596E+04-1.09333E-09 3.61069E-09
 -1       579 1.77863E+05-2.83157E+00 4.04064E+01-4.49384E+04-1.94677E-09 4.23142E-09
 -1       580 1.77859E+05-4.57259E+00 3.70680E+01-4.95569E+04-1.52431E-09 4.98267E-09
 -1       581 1.77882E+05-1.00276E+01 4.94173E+01-4.49411E+04 6.63931E-11 4.87034E-10
 -1       582 1.77893E+05-3.74644E+00 9.36917E+01-4.95301E+04-9.27685E-11-9.96397E-09
 -1       583 1.77905E+05 1.76538E+01 1.79089E+02-4.49652E+04-9.64974E-10-1.22463E-09
 -1       584 1.77989E+05 1.56108E+02 4.01608E+02-4.93290E+04-2.03363E-09 5.70162E-09
 -1       585 1.77890E+05 5.09008E+02 8.15006E+02-4.51426E+04 4.85670E-10 2.54659E-11
 -1       586-2.12542E+03 5.82944E+04-2.81605E+03-1.53301E+05 3.64707E-10 5.89580E-10
 -1       587-4.43243E+02 5.79158E+04-2.94549E+02-1.68696E+05 5.87534E-10 7.02585E-11
 -1       588 6.16310E+02 5.79878E+04 2.05052E+03-1.53208E+05 3.21052E-10 6.33190E-09
 -1       589 3.03599E+03 5.91120E+04 5.94490E+03-1.68554E+05 5.41149E-10-3.62797E-09
 -1       590 8.70532E+03 5.72790E+04 1.27188E+04-1.53443E+05 3.06045E-10-3.85353E-09
 -1       591-3.86671E+04-1.10289E+04-1.28484E+04-1.99972E+04-4.69907E-09-5.57611E-09
 -1       592-3.98884E+04-1.41662E+04-6.95922E+03-2.33275E+04-3.91634E-09 2.57614E-09
 -1       593-3.99661E+04-1.00824E+04-2.89720E+03-2.09254E+04-4.77087E-09-6.92353E-10
 -1       594-3.80983E+04-1.22985E+04-1.44497E+03-2.34164E+04-2.41306E-09 7.85370E-09
 -1       595-4.00657E+04-1.00780E+04-6.64082E+02-2.09680E+04-2.60076E-09 2.08706E-09
 -1       596-3.79772E+04-1.22129E+04-3.38564E+02-2.34038E+04 1.45241E-09-6.26841E-09
 -1       597-4.00783E+04-1.00862E+04-1.86475E+02-2.09697E+04-6.00977E-11-8.12690E-10
 -1       598-3.79657E+04-1.22096E+04-1.53783E+02-2.34002E+04-2.58082E-09 9.88962E-10
 -1       599-4.00774E+04-1.00862E+04-2.01284E+02-2.09694E+04-1.54694E-09-4.50848E-09
 -1       600-3.79786E+04-1.22140E+04-3.77805E+02-2.34034E+04-1.23259E-09-1.15816E-08
 -1       601-4.00614E+04-1.00773E+04-7.47356E+02-2.09668E+04 1.74964E-10-1.08959E-08
 -1       602-3.81151E+04-1.23104E+04-1.62987E+03-2.34159E+04-2.14050E-09-9.67805E-09
 -1       603-3.99478E+04-1.00838E+04-3.26914E+03-2.09189E+04-6.89624E-10-2.56364E-09
 -1       604-4.01414E+04-1.44108E+04-7.85298E+03-2.33061E+04 2.63583E-09 5.19140E-09
 -1       605-3.84735E+04-1.11581E+04-1.44983E+04-1.98785E+04-9.92486E-11-2.19643E-10
 -1       606 2.51643E+04-8.56045E+03-1.54141E+04 2.45655E+04 6.65659E-09-3.17414E-10
 -1       607 2.25244E+04-2.76176E+03-7.67530E+03 2.75762E+04 1.56106E-08-1.20178E-09
 -1       608 2.40220E+04-4.65900E+02-3.43718E+03 2.43697E+04 1.09485E-08 3.33239E-09
 -1       609 2.37235E+04-1.20855E+02-1.73602E+03 2.77924E+04-2.14641E-10 4.54565E-09
 -1       610 2.38832E+04 2.25459E+01-8.29295E+02 2.43478E+04-3.62252E-09 9.41100E-10
 -1       611 2.38264E+04 3.42820E+01-4.18275E+02 2.78160E+04-7.89260E-09 1.04069E-09
 -1       612 2.38459E+04 3.64761E+01-2.00202E+02 2.43456E+04-2.91493E-09 5.22709E-09
 -1       613 2.38239E+04 4.20413E+01-9.12853E+01 2.78188E+04-2.93949E-09-1.27056E-09
 -1       614 2.38253E+04 3.73403E+01-2.55893E+01 2.43449E+04-4.27463E-10 6.65932E-09
 -1       615 2.38131E+04 4.70807E+01 2.82775E+01 2.78193E+04 5.42104E-09 6.98378E-09
 -1       616 2.38098E+04 4.25914E+01 9.39722E+01 2.43451E+04-3.19051E-09-2.64959E-09
 -1       617 2.38186E+04 7.08135E+01 2.18078E+02 2.78188E+04-3.37309E-09-6.42649E-09
 -1       618 2.37864E+04 1.08303E+02 4.40866E+02 2.43452E+04-3.39242E-10-1.04524E-09
 -1       619 2.39707E+04 4.14087E+02 9.90917E+02 2.78181E+04 2.27612E-09-1.52750E-09
 -1       620 2.36376E+04 1.15616E+03 1.99193E+03 2.43442E+04 1.03023E-09-5.38193E-10
 -1       621 3.16515E+02 1.96521E+05 3.00660E+03 6.47329E+03-1.85030E-09-2.81875E-09
 -1       622 4.07561E+02 1.97279E+05 2.48872E+03 9.59599E+03-9.00968E-10 3.18187E-09
 -1       623 1.13857E+01 1.96748E+05 2.76194E+03 6.44287E+03-1.64678E-09 2.58785E-09
 -1       624 1.24573E+03 1.98042E+05 5.17004E+03 9.62533E+03-9.89075E-10 6.50061E-10
 -1       625 1.10198E+03 1.95752E+05 8.90758E+03 6.44423E+03-1.44473E-09-6.27836E-10
 -1       626 1.59308E+05 4.40611E+04 3.15116E+03 8.60418E+04-8.18545E-12-4.97130E-09
 -1       627 1.57133E+05 4.56655E+04 1.51839E+03 8.95090E+04-1.97906E-09-4.25291E-09
 -1       628 1.59426E+05 4.25699E+04 6.41300E+02 8.65163E+04 1.06638E-08 1.89266E-09
 -1       629 1.56677E+05 4.53077E+04 3.14370E+02 8.97157E+04 1.60890E-08-1.06504E-08
 -1       630 1.59432E+05 4.24997E+04 1.45364E+02 8.65284E+04 6.31735E-09-1.99141E-08
 -1       631 1.56621E+05 4.53001E+04 7.82702E+01 8.97172E+04 2.28465E-09 2.56394E-09
 -1       632 1.59424E+05 4.25056E+04 5.17783E+01 8.65211E+04-2.61070E-09-3.25633E-09
 -1       633 1.56609E+05 4.53050E+04 5.80614E+01 8.97108E+04 1.56683E-09 3.38196E-09
 -1       634 1.59415E+05 4.25065E+04 9.41492E+01 8.65168E+04 6.95081E-09-6.79074E-09
 -1       635 1.56612E+05 4.53065E+04 1.91038E+02 8.97101E+04 5.44469E-09 1.06070E-09
 -1       636 1.59404E+05 4.25058E+04 3.85900E+02 8.65138E+04 1.05615E-09 6.44263E-09
 -1       637 1.56691E+05 4.53681E+04 8.48176E+02 8.97061E+04 1.68066E-09-1.75737E-09
 -1       638 1.59371E+05 4.26950E+04 1.74317E+03 8.64265E+04 1.60865E-08-1.08153E-08
 -1       639 1.57603E+05 4.66432E+04 4.12383E+03 8.94350E+04 3.44324E-08-9.45420E-09
 -1       640 1.59249E+05 4.64910E+04 8.55802E+03 8.48146E+04 1.74825E-08-9.52832E-09
 -1       656 4.31347E+04-1.09181E+06-1.04130E+05-3.65457E+02 6.29370E-10 7.74179E-10
 -1       657-5.69986E+04-1.13881E+06-8.61169E+04 7.03796E+03-8.03084E-10 4.00378E-09
 -1       658 1.36779E+04-1.10521E+06-5.28478E+04-1.36834E+03-7.49310E-10 2.24772E-09
 -1       659-6.11187E+04-1.14076E+06-9.15283E+04 7.70721E+03-9.68612E-10-2.65534E-09
 -1       660 4.72447E+04-1.08986E+06-1.13439E+05-1.03469E+03-1.45519E-11-4.04169E-09
 -1       661 1.53922E+05 1.67553E+04 1.47786E+04 6.01564E+04 2.50361E-09 3.67709E-09
 -1       662 1.61630E+05 2.83367E+04 9.95831E+03 5.75758E+04 2.50566E-09 9.64064E-11
 -1       663 1.56819E+05 2.15019E+04 3.48349E+03 5.93209E+04 3.52429E-11-5.26370E-10
 -1       664 1.58279E+05 2.27801E+04 2.08268E+03 5.85912E+04 1.16074E-10 7.22736E-10
 -1       665 1.57252E+05 2.21559E+04 8.21554E+02 5.92000E+04-2.59899E-09 1.91832E-09
 -1       666 1.57771E+05 2.20275E+04 4.79094E+02 5.87456E+04-4.86389E-09 4.82581E-09
 -1       667 1.57324E+05 2.22348E+04 2.52601E+02 5.91739E+04 4.04924E-10 8.28642E-09
 -1       668 1.57694E+05 2.19646E+04 2.53051E+02 5.87829E+04 6.71940E-09-3.07961E-09
 -1       669 1.57328E+05 2.22170E+04 3.39069E+02 5.91634E+04 2.76216E-09 3.42006E-09
 -1       670 1.57781E+05 2.21429E+04 7.35000E+02 5.87811E+04 9.81455E-09 1.74805E-09
 -1       671 1.57238E+05 2.20601E+04 1.30396E+03 5.91743E+04-1.95018E-09 4.09432E-09
 -1       672 1.58542E+05 2.34096E+04 3.33527E+03 5.85957E+04-4.38152E-09-7.94944E-09
 -1       673 1.56570E+05 2.09821E+04 5.58907E+03 5.93366E+04-2.39254E-09-6.36646E-11
 -1       674 1.63865E+05 3.23860E+04 1.59836E+04 5.70295E+04-1.04598E-09 8.72501E-09
 -1       675 1.51949E+05 1.33347E+04 2.37246E+04 6.06458E+04 4.82805E-09 5.83805E-09
 -1       676 1.75408E+01-2.09243E+05-8.14318E+02 3.65493E+01 1.98213E-10 5.72857E-11
 -1       677-2.16126E+02-2.09440E+05-1.49028E+03-7.30664E+01-2.31776E-09-1.11955E-09
 -1       678 1.44355E+02-2.09103E+05-2.63442E+03 3.64918E+01-6.44491E-10-5.81738E-09
 -1       679-2.63492E+03-2.11030E+05-6.25803E+03-7.28404E+01-4.47608E-09-2.38343E-09
 -1       680 1.57254E+03-2.07653E+05-1.00859E+04 3.59050E+01-1.96451E-10-2.36446E-09
 -1       771-2.24591E+06-3.98065E+05-5.57069E+04-9.36908E+05-9.39326E-09-7.47968E-09
 -1       772-2.23052E+06-4.28584E+05-2.98034E+04-9.71005E+05-7.98536E-09 3.78986E-09
 -1       773-2.25381E+06-3.91907E+05-1.30287E+04-9.40008E+05-3.01225E-09 3.41606E-09
 -1       774-2.22265E+06-4.22194E+05-6.29715E+03-9.74925E+05 9.92804E-09-7.71252E-10
 -1       775-2.25588E+06-3.90530E+05-3.30765E+03-9.40269E+05-5.47880E-09-3.66708E-09
 -1       776-2.22265E+06-4.22279E+05-1.49094E+03-9.77174E+05-2.69938E-09 2.15186E-09
 -1       777-2.25738E+06-3.89435E+05-1.00669E+03-9.40427E+05-4.15457E-09 3.03771E-09
 -1       778-2.22311E+06-4.22539E+05-4.19842E+02-9.79056E+05-1.09649E-08 1.61526E-09
 -1       779-2.25858E+06-3.88503E+05-4.52411E+02-9.40571E+05-7.48696E-09-9.01309E-10
 -1       780-2.22359E+06-4.22749E+05-3.01447E+02-9.80579E+05-3.48155E-09-6.95763E-11
 -1       781-2.25950E+06-3.87760E+05-5.47891E+02-9.40680E+05-4.60932E-09 3.87718E-09
 -1       782-2.22403E+06-4.22943E+05-9.26098E+02-9.81699E+05-1.13505E-08-2.13731E-11
 -1       783-2.26007E+06-3.87269E+05-1.85968E+03-9.40739E+05-2.90311E-09-3.81488E-09
 -1       784-2.22537E+06-4.24207E+05-4.37391E+03-9.82332E+05-4.85852E-09-4.08363E-10
 -1       785-2.25958E+06-3.87600E+05-8.09474E+03-9.40190E+05-9.91531E-09 1.29330E-09
 -1       786 1.63113E+05-8.74606E+03 2.02341E+04-9.26220E+00 9.66206E-07 1.31395E-08
 -1       787 1.71881E+05 1.01252E+04 1.43152E+04 2.14218E+00 1.92445E-06 1.20638E-08
 -1       788 1.66496E+05-1.37105E+03 5.23710E+03-4.66207E+00 2.02976E-06-3.93220E-09
 -1       789 1.67940E+05 1.58638E+03 3.29049E+03-6.67802E+00 2.13218E-06 1.37857E-08
 -1       790 1.67054E+05-2.14176E+02 1.33884E+03-4.42185E-01 2.36327E-06-5.57924E-09
 -1       791 1.67289E+05 2.48824E+02 7.85956E+02-1.60517E+01 2.59684E-06 1.60001E-08
 -1       792 1.67148E+05-3.44973E+01 3.58477E+02 4.71179E+00 3.17830E-06-1.56521E-08
 -1       793 1.67184E+05 4.83333E+01 2.34432E+02-2.87349E+01 3.75378E-06 8.89836E-10
 -1       794 1.67160E+05-1.38181E+01 1.72933E+02 1.22412E+01 1.87848E-06-5.32344E-09
 -1       795 1.67194E+05 7.10151E+01 2.49100E+02-4.82395E+01 6.19118E-09 1.23742E-08
 -1       796 1.67138E+05-5.71625E+01 3.72494E+02 2.42167E+01 1.88905E-10 9.60000E-10
 -1       797 1.67363E+05 4.18991E+02 8.77777E+02-7.99345E+01-9.60718E-10-4.77833E-09
 -1       798 1.66991E+05-3.61538E+02 1.38534E+03 4.39368E+01-9.72262E-11-8.62241E-09
 -1       799 1.68402E+05 2.66948E+03 3.77658E+03-1.32837E+02-5.34339E-10 1.06792E-08
 -1       800 1.66098E+05-2.30584E+03 5.33454E+03 7.71194E+01-3.76987E-11 1.19994E-08
 -1       801-4.91752E+03-1.74982E+05-5.37993E+03 1.88682E+04 1.00554E-08-4.30418E-09
 -1       802 1.76803E+04-7.48149E+04 3.85685E+04-7.27664E+04 2.69861E-08-5.32705E-09
 -1       803-1.19008E+04-1.32414E+05 5.39974E+04 2.11585E+04 2.12785E-08 1.47263E-08
 -1       804 1.12341E+05-2.03530E+04 1.63024E+05-7.30714E+04 2.51530E-08 2.39488E-08
 -1       805-9.96990E+04-2.29081E+05 2.02563E+05 1.91693E+04 9.05129E-09 2.20357E-08
 -1       806-1.93131E+05-4.12026E+04-1.63516E+04-8.02342E+04 1.60753E-09 2.89674E-09
 -1       807-1.94110E+05-3.88436E+04-8.03321E+03-8.45497E+04 1.65767E-09 4.08363E-10
 -1       808-1.93593E+05-3.52964E+04-3.40767E+03-8.30089E+04 2.20962E-09-6.12481E-10
 -1       809-1.92397E+05-3.66118E+04-1.66592E+03-8.47795E+04 4.46244E-09 1.65281E-08
 -1       810-1.93665E+05-3.50882E+04-7.62824E+02-8.31313E+04 4.89763E-10 2.14561E-09
 -1       811-1.92266E+05-3.65236E+04-3.78327E+02-8.47596E+04 4.61421E-09 3.96494E-09
 -1       812-1.93678E+05-3.51039E+04-1.88852E+02-8.31310E+04 1.60071E-10 3.30715E-09
 -1       813-1.92248E+05-3.65258E+04-1.19170E+02-8.47490E+04 5.93445E-11 4.01064E-09
 -1       814-1.93675E+05-3.51099E+04-1.11854E+02-8.31283E+04 2.38924E-09-7.61770E-09
 -1       815-1.92250E+05-3.65279E+04-1.75087E+02-8.47457E+04 7.50788E-09-1.41923E-08
 -1       816-1.93664E+05-3.51088E+04-3.28112E+02-8.31259E+04 1.09549E-08 7.69842E-09
 -1       817-1.92306E+05-3.65593E+04-7.03362E+02-8.47393E+04 3.21711E-09-2.97814E-09
 -1       818-1.93621E+05-3.52078E+04-1.43350E+03-8.30790E+04-3.72074E-09-6.89852E-09
 -1       819-1.93097E+05-3.74197E+04-3.37367E+03-8.45473E+04-4.69117E-09 3.52884E-09
 -1       820-1.93349E+05-3.77585E+04-6.86608E+03-8.19913E+04-9.01309E-10 8.06222E-09
 -1       821-2.50026E+05 1.38852E+04-3.21121E+04 8.68545E+01-1.84325E-10-1.75714E-09
 -1       822-2.63943E+05-1.60745E+04-2.27240E+04-6.09339E+02-1.88717E-09-3.90196E-09
 -1       823-2.55397E+05 2.17685E+03-8.31711E+03 5.57681E+01 1.13646E-09-1.16552E-09
 -1       824-2.57680E+05-2.51962E+03-5.23309E+03-4.65532E+02 2.75036E-10 2.15346E-09
 -1       825-2.56287E+05 3.40669E+02-2.15094E+03-5.69569E+01-2.43081E-09 8.87781E-09
 -1       826-2.56644E+05-4.01774E+02-1.29819E+03-2.02687E+02-4.93865E-09-6.19934E-10
 -1       827-2.56432E+05 6.04120E+01-6.72014E+02-2.07082E+02-3.93743E-09-2.10005E-09
 -1       828-2.56504E+05-1.22457E+02-5.93475E+02 7.81430E+01-5.65976E-09-5.42222E-10
 -1       829-2.56427E+05 6.16079E+01-6.81065E+02-3.37792E+02-3.62377E-10 1.41858E-09
 -1       830-2.56661E+05-4.11139E+02-1.32936E+03 2.70689E+02 2.91139E-09 6.20081E-09
 -1       831-2.56275E+05 3.49069E+02-2.20128E+03-3.99632E+02-2.87823E-09-3.63605E-09
 -1       832-2.57719E+05-2.58151E+03-5.36395E+03 3.02675E+02-1.23554E-09-4.86421E-09
 -1       833-2.55370E+05 2.23045E+03-8.52361E+03-3.69778E+02-1.80254E-09 2.45018E-09
 -1       834-2.64123E+05-1.64729E+04-2.32876E+04 1.64238E+02-1.18553E-09 4.86807E-09
 -1       835-2.49873E+05 1.42296E+04-3.29124E+04-2.61185E+02 5.62055E-09 3.02498E-09
 -1       836-8.26705E+02 2.36111E+05 1.41614E+04-2.06395E+04 1.52022E-09-4.34238E-09
 -1       837 3.12168E+03 2.40494E+05 1.21028E+04-4.14500E+04 2.26419E-09-1.60833E-09
 -1       838-3.02875E+02 2.37328E+05 1.24972E+04-2.05698E+04 2.06683E-09 6.39363E-09
 -1       839 8.03263E+03 2.44156E+05 2.38040E+04-4.14750E+04 2.97041E-09 3.81516E-09
 -1       840-2.41192E+03 2.32417E+05 3.80263E+04-2.06131E+04 1.92995E-09 9.82777E-09
 -1       856-7.71141E+04 6.64871E+03-1.75210E+04-3.92964E+02-2.00924E-09-6.38465E-09
 -1       857-8.43519E+04-7.79784E+03-1.20629E+04 3.99854E+03-2.62645E-09-5.85169E-09
 -1       858-7.99735E+04 9.31591E+02-4.54721E+03-4.10566E+02-2.73320E-09-4.58590E-09
 -1       859-8.10679E+04-1.08299E+03-2.74639E+03 4.02663E+03 7.40158E-10-6.67978E-09
 -1       860-8.04011E+04 1.29545E+02-1.15479E+03-4.21180E+02 2.59715E-09-1.56570E-09
 -1       861-8.05754E+04-1.42942E+02-6.43263E+02 4.04114E+03-4.99302E-09-2.89580E-09
 -1       862-8.04676E+04 1.71537E+01-2.83415E+02-4.25103E+02 4.75392E-09 3.42041E-10
 -1       863-8.04967E+04-1.03185E+01-1.39602E+02 4.04289E+03 9.02810E-09-4.80287E-09
 -1       864-8.04800E+04-1.68955E-01-4.27209E+01-4.22930E+02 6.55749E-09-5.75033E-09
 -1       865-8.04734E+04 2.06531E+01 2.92986E+01 4.03196E+03 5.58225E-09-4.54277E-09
 -1       866-8.04897E+04-1.41997E+01 1.01107E+02-4.14170E+02 6.56769E-10-1.60419E-09
 -1       867-8.04148E+04 1.19110E+02 2.75814E+02 4.00820E+03-6.64173E-10 5.10596E-10
 -1       868-8.05359E+04-9.79953E+01 4.64861E+02-3.99168E+02 2.16050E-09-1.37982E-09
 -1       869-8.00661E+04 8.12742E+02 1.24762E+03 3.96881E+03-2.47195E-09-8.27106E-09
 -1       870-8.08342E+04-6.90663E+02 1.80934E+03-3.74792E+02-1.22111E-09-1.09571E-09
 -1       871-3.66204E+03-7.62465E+03-1.18669E+04 7.78098E+04 3.65253E-09 5.58703E-09
 -1       872-1.59782E+03-1.02783E+04-4.83391E+03 1.00875E+05 5.05497E-09-6.48379E-09
 -1       873-4.39774E+01-9.03889E+03 6.99890E+02 7.76383E+04 1.68961E-09-1.54682E-09
 -1       874 1.81765E+03-7.30635E+03 6.75228E+03 1.00911E+05 4.02952E-09 2.06001E-09
 -1       875 4.32420E+03-1.06416E+04 1.49680E+04 7.77811E+04 2.09093E-09-9.16771E-10
 -1       876 1.94424E+05 3.35257E+04 1.04138E+04 7.89093E+04-2.10218E-09 5.67434E-09
 -1       877 1.95015E+05 3.58164E+04 5.56118E+03 8.19941E+04-3.45608E-09-8.62394E-09
 -1       878 1.95398E+05 3.23730E+04 2.32988E+03 7.97645E+04 5.74710E-09 2.48087E-09
 -1       879 1.93598E+05 3.44057E+04 1.16061E+03 8.20682E+04 1.52443E-09-1.70378E-08
 -1       880 1.95469E+05 3.23601E+04 5.40328E+02 7.97993E+04 5.66229E-09-4.04310E-09
 -1       881 1.93504E+05 3.43459E+04 2.87757E+02 8.20536E+04 5.93047E-09 6.04145E-09
 -1       882 1.95476E+05 3.23685E+04 1.82754E+02 7.98003E+04 3.70471E-09-3.28632E-09
 -1       883 1.93498E+05 3.43431E+04 1.94302E+02 8.20495E+04 2.83489E-09 5.28649E-09
 -1       884 1.95472E+05 3.23663E+04 3.07132E+02 7.98004E+04 3.87854E-09 6.76272E-09
 -1       885 1.93522E+05 3.43475E+04 6.16286E+02 8.20573E+04 2.75108E-09-5.28377E-09
 -1       886 1.95448E+05 3.23483E+04 1.24153E+03 7.97980E+04 1.28617E-08 6.81462E-09
 -1       887 1.93740E+05 3.44904E+04 2.71177E+03 8.20886E+04 1.58410E-08-1.08982E-08
 -1       888 1.95277E+05 3.23785E+04 5.46427E+03 7.97112E+04 8.61752E-09 1.70849E-09
 -1       889 1.96997E+05 3.78708E+04 1.30538E+04 8.19850E+04 3.05701E-09 2.50225E-09
 -1       890 1.93051E+05 3.50231E+04 2.44486E+04 7.76268E+04 4.90604E-09 4.37831E-09
 -1       891-1.23147E+02-1.10539E+05-1.30382E+03 2.10219E+04 1.56263E-09 4.11239E-09
 -1       892-2.13899E+02-1.10850E+05-1.41893E+03 3.18097E+04 1.64687E-09 4.04907E-09
 -1       893-3.63896E+01-1.10580E+05-2.02817E+03 2.10260E+04 2.62071E-09 6.78256E-09
 -1       894-1.11192E+03-1.11629E+05-4.21164E+03 3.16967E+04 7.01675E-10 1.02716E-08
 -1       895-8.68385E+02-1.09704E+05-7.42179E+03 2.11334E+04 1.40631E-10 1.18139E-08
 -1       956-2.44336E+05-3.52169E+03-8.87026E+03 1.61411E+04-4.14275E-09-2.46473E-09
 -1       957-2.46088E+05-1.18653E+03-4.55369E+03 1.94366E+04-2.86218E-09-8.90930E-09
 -1       958-2.45122E+05-9.29768E+01-2.05152E+03 1.60356E+04 2.46382E-09-3.45813E-09
 -1       959-2.45262E+05-1.44154E+01-1.04788E+03 1.95506E+04-3.52884E-10 3.51133E-09
 -1       960-2.45192E+05 3.10311E+01-5.10747E+02 1.60256E+04-4.30191E-09 4.65002E-09
 -1       961-2.45201E+05 2.95157E+01-2.70795E+02 1.95619E+04-5.50426E-09-3.70142E-09
 -1       962-2.45206E+05 2.72926E+01-1.54602E+02 1.60242E+04-1.78397E-09-4.09148E-09
 -1       963-2.45199E+05 3.05296E+01-1.23380E+02 1.95639E+04-3.22700E-09 6.53745E-09
 -1       964-2.45209E+05 2.89926E+01-1.48859E+02 1.60236E+04-1.36788E-09 4.36273E-09
 -1       965-2.45208E+05 3.32600E+01-2.56450E+02 1.95640E+04 3.06068E-09 3.07125E-09
 -1       966-2.45201E+05 3.60380E+01-4.80926E+02 1.60241E+04-1.78477E-09 6.45309E-09
 -1       967-2.45272E+05-4.40400E+00-9.86151E+02 1.95579E+04-1.17495E-09 3.66606E-09
 -1       968-2.45141E+05-7.71853E+01-1.92969E+03 1.60297E+04 2.28511E-10-2.46359E-10
 -1       969-2.46055E+05-1.10407E+03-4.28448E+03 1.94911E+04 1.19235E-09-6.89329E-09
 -1       970-2.44406E+05-3.30105E+03-8.34514E+03 1.60933E+04 6.62794E-10-2.36469E-11
 -1       971-2.32076E+05-1.22528E+03-6.82389E+03 1.13400E+04-4.82032E-09-5.26785E-09
 -1       972-2.33736E+05-8.77421E+02-3.71638E+03 1.58421E+04-2.17256E-09-1.03056E-08
 -1       973-2.32834E+05-6.26948E+00-1.66397E+03 1.12456E+04-1.35378E-09-1.57536E-09
 -1       974-2.32950E+05-5.95082E+00-8.62041E+02 1.59437E+04-1.39494E-09 8.11860E-09
 -1       975-2.32892E+05 2.51382E+01-4.29781E+02 1.12373E+04 1.80989E-10 2.22860E-09
 -1       976-2.32902E+05 2.93053E+01-2.46085E+02 1.59537E+04-2.23633E-09-3.57193E-09
 -1       977-2.32903E+05 2.45941E+01-1.75168E+02 1.12355E+04 3.02202E-09 2.04886E-09
 -1       978-2.32904E+05 3.29942E+01-2.00357E+02 1.59562E+04 1.26004E-08 3.81920E-09
 -1       979-2.32902E+05 2.98267E+01-3.17883E+02 1.12348E+04 9.50274E-09 2.41334E-09
 -1       980-2.32928E+05 3.48770E+01-6.11270E+02 1.59566E+04 5.95566E-09-1.45116E-09
 -1       981-2.32883E+05 4.50621E+01-1.18253E+03 1.12351E+04-2.31637E-09-2.70552E-09
 -1       982-2.33090E+05-5.22756E+01-2.44350E+03 1.59519E+04-2.38879E-09 2.83485E-09
 -1       983-2.32734E+05-3.03153E+01-4.74726E+03 1.12396E+04 3.57522E-09 3.26861E-09
 -1       984-2.35374E+05-2.53099E+03-1.06307E+04 1.58880E+04-2.74736E-09-4.56282E-09
 -1       985-2.30586E+05-3.50376E+03-1.95213E+04 1.13037E+04 2.25509E-09 1.66619E-09
 -3
    1PSTEP                         9           5           1          
  100CL  105 5.03906E-01         409                     0    5           1
 -4  DISP        4    1
 -5  D1          1    2    1    0
 -5  D2          1    2    2    0
 -5  D3          1    2    3    0
 -5  ALL         1    2    0    0    1ALL
 -1         1 1.52999E-04 0.00000E+00 0.00000E+00
 -1         2 1.37938E-04-6.52139E-31-4.13590E-25
 -1         3 1.35478E-04-1.01462E-27-6.61744E-24
 -1         5 9.22405E-05-1.83491E-27-3.30872E-24
 -1         8 1.28013E-04-8.82722E-07 0.00000E+00
 -1         9 1.25462E-04-6.63405E-08 0.00000E+00
 -1        10 1.25014E-04-1.83239E-06 0.00000E+00
 -1        12 9.18443E-05 5.52885E-07 0.00000E+00
 -1        15 9.82296E-05-9.77851E-07-4.13590E-25
 -1        16 1.02026E-04-2.43759E-07 0.00000E+00
 -1        17 9.17518E-05-3.88842E-06 0.00000E+00
 -1        18 8.95784E-05 2.53488E-06 0.00000E+00
 -1        19 9.06557E-05 1.10281E-06 0.00000E+00
 -1        20 9.07951E-05 1.41379E-05 0.00000E+00
 -1        21 9.02489E-05 2.62493E-05 0.00000E+00
 -1        24 2.04413E-05-5.36849E-06 0.00000E+00
 -1        25 8.86709E-05 2.66465E-06 0.00000E+00
 -1        26 8.96159E-05 1.54225E-06 0.00000E+00
 -1        27 8.80816E-05 1.16726E-05 0.00000E+00
 -1        28 8.76162E-05 2.57800E-05 0.00000E+00
 -1        32 0.00000E+00 0.00000E+00 0.00000E+00
 -1        33 8.73217E-05 2.06283E-06 0.00000E+00
 -1        34 8.58395E-05 1.16499E-05 0.00000E+00
 -1        35 8.44359E-05 2.55314E-05 0.00000E+00
 -1        51 1.51376E-04-1.45897E-07 0.00000E+00
 -1        52 1.48366E-04-2.86902E-07 0.00000E+00
 -1        53 1.44242E-04-4.29289E-07 0.00000E+00
 -1        54 1.39285E-04-5.74626E-07 0.00000E+00
 -1        55 1.33781E-04-7.23719E-07 5.89366E-24
 -1        56 1.51636E-04-8.02422E-07 0.00000E+00
 -1        57 1.50395E-04-2.08815E-06 0.00000E+00
 -1        58 1.49285E-04-3.71240E-06 0.00000E+00
 -1        59 1.48241E-04-5.54271E-06-2.64698E-23
 -1        60 1.47216E-04-7.42447E-06 0.00000E+00
 -1        61 1.46152E-04-9.20493E-06 2.64698E-23
 -1        62 1.44995E-04-1.07379E-05 0.00000E+00
 -1        63 1.43693E-04-1.18865E-05 0.00000E+00
 -1        64 1.42207E-04-1.25414E-05 0.00000E+00
 -1        65 1.40501E-04-1.26106E-05 0.00000E+00
 -1        66 1.38557E-04-1.20442E-05-5.29396E-23
 -1        67 1.36364E-04-1.08147E-05 2.64698E-23
 -1        68 1.33929E-04-8.94250E-06 0.00000E+00
 -1        69 1.31275E-04-6.46785E-06 0.00000E+00
 -1        70 1.28424E-04-3.48034E-06 0.00000E+00
 -1        86 1.37591E-04-3.57408E-09-8.27181E-25
 -1        87 1.36549E-04-8.14728E-09 0.00000E+00
 -1        88 1.34813E-04-1.37236E-08 0.00000E+00
 -1        89 1.32385E-04-2.40512E-08-1.65436E-24
 -1        90 1.29268E-04-3.50775E-08 6.61744E-24
 -1       121 1.35185E-04-3.03386E-07 0.00000E+00
 -1       122 1.34309E-04-6.07107E-07 3.30872E-24
 -1       123 1.32850E-04-9.11493E-07-6.61744E-24
 -1       124 1.30811E-04-1.21692E-06 0.00000E+00
 -1       125 1.28198E-04-1.52362E-06 6.61744E-24
 -1       191 9.22294E-05 9.21534E-08 3.30872E-24
 -1       192 9.21964E-05 1.84305E-07 3.30872E-24
 -1       193 9.21414E-05 2.76457E-07 0.00000E+00
 -1       194 9.20644E-05 3.68605E-07 1.65436E-24
 -1       195 9.19653E-05 4.60748E-07 0.00000E+00
 -1       251 1.27840E-04 3.39892E-06 6.61744E-24
 -1       252 1.27680E-04 6.31814E-06 0.00000E+00
 -1       253 1.27522E-04 7.94419E-06-6.61744E-24
 -1       254 1.27366E-04 8.35443E-06 0.00000E+00
 -1       255 1.27211E-04 7.72215E-06 0.00000E+00
 -1       256 1.27055E-04 6.22722E-06 0.00000E+00
 -1       257 1.26898E-04 4.11751E-06 0.00000E+00
 -1       258 1.26740E-04 1.64478E-06 0.00000E+00
 -1       259 1.26581E-04-9.10681E-07-6.61744E-24
 -1       260 1.26424E-04-3.26797E-06 0.00000E+00
 -1       261 1.26267E-04-5.16182E-06 6.61744E-24
 -1       262 1.26111E-04-6.32995E-06 3.30872E-24
 -1       263 1.25955E-04-6.56723E-06 6.61744E-24
 -1       264 1.25797E-04-5.67442E-06 0.00000E+00
 -1       265 1.25637E-04-3.54153E-06 0.00000E+00
 -1       266 1.23049E-04-9.10647E-07-6.61744E-24
 -1       267 1.18085E-04-9.25031E-07 0.00000E+00
 -1       268 1.13121E-04-9.40272E-07-1.65436E-24
 -1       269 1.08157E-04-9.52973E-07 0.00000E+00
 -1       270 1.03194E-04-9.65614E-07 4.13590E-25
 -1       271 1.25015E-04 2.93474E-06 0.00000E+00
 -1       272 1.22419E-04 5.55549E-06 0.00000E+00
 -1       273 1.20232E-04 7.09909E-06 0.00000E+00
 -1       274 1.18399E-04 7.68396E-06 0.00000E+00
 -1       275 1.16871E-04 7.45210E-06 5.29396E-23
 -1       276 1.15591E-04 6.55745E-06 0.00000E+00
 -1       277 1.14496E-04 5.16711E-06 0.00000E+00
 -1       278 1.13520E-04 3.45671E-06 0.00000E+00
 -1       279 1.12596E-04 1.60797E-06 0.00000E+00
 -1       280 1.11655E-04-1.94853E-07 0.00000E+00
 -1       281 1.10629E-04-1.76853E-06-5.29396E-23
 -1       282 1.09451E-04-2.93376E-06-2.64698E-23
 -1       283 1.08055E-04-3.51923E-06 5.29396E-23
 -1       284 1.06387E-04-3.36231E-06 1.32349E-23
 -1       285 1.04383E-04-2.31798E-06 2.64698E-23
 -1       301 1.21244E-04-1.06689E-07 0.00000E+00
 -1       302 1.17069E-04-1.28321E-07-3.30872E-24
 -1       303 1.12998E-04-1.48779E-07 0.00000E+00
 -1       304 1.09093E-04-1.69848E-07-3.30872E-24
 -1       305 1.05415E-04-1.92369E-07 0.00000E+00
 -1       306 1.22473E-04 2.24130E-06-2.64698E-23
 -1       307 1.20296E-04 2.20837E-06-2.64698E-23
 -1       308 1.18945E-04-1.93915E-08-5.29396E-23
 -1       309 1.18309E-04-4.19933E-06 0.00000E+00
 -1       310 1.18175E-04-9.73267E-06 0.00000E+00
 -1       311 1.18290E-04-1.59471E-05-2.64698E-23
 -1       312 1.18362E-04-2.20472E-05 0.00000E+00
 -1       313 1.18101E-04-2.72452E-05 2.64698E-23
 -1       314 1.17272E-04-3.09140E-05 0.00000E+00
 -1       315 1.15672E-04-3.25144E-05 2.64698E-23
 -1       316 1.13233E-04-3.18772E-05-5.29396E-23
 -1       317 1.09935E-04-2.89604E-05 2.64698E-23
 -1       318 1.05910E-04-2.41283E-05 5.29396E-23
 -1       319 1.01346E-04-1.78484E-05 0.00000E+00
 -1       320 9.65039E-05-1.08552E-05-2.64698E-23
 -1       336 1.21192E-04-2.16728E-06 1.32349E-23
 -1       337 1.16665E-04-2.50545E-06 3.30872E-24
 -1       338 1.11442E-04-2.84677E-06 6.61744E-24
 -1       339 1.05539E-04-3.19120E-06-3.30872E-24
 -1       340 9.89698E-05-3.53968E-06-6.61744E-24
 -1       406 9.17012E-05 6.45007E-07 0.00000E+00
 -1       407 9.15360E-05 7.37096E-07 0.00000E+00
 -1       408 9.13489E-05 8.29126E-07 6.61744E-24
 -1       409 9.11397E-05 9.20983E-07-1.65436E-24
 -1       410 9.09086E-05 1.01249E-06 3.30872E-24
 -1       521 1.03559E-04-1.34769E-05 0.00000E+00
 -1       522 1.15254E-04-5.63723E-05-5.29396E-23
 -1       523 1.34182E-04-1.21814E-04-1.05879E-22
 -1       524 1.57129E-04-2.00706E-04 0.00000E+00
 -1       525 1.80477E-04-2.80962E-04 0.00000E+00
 -1       526 2.00597E-04-3.50370E-04-5.29396E-23
 -1       527 2.14204E-04-3.99148E-04-1.05879E-22
 -1       528 2.18115E-04-4.19344E-04 5.29396E-23
 -1       529 2.10770E-04-4.09204E-04 0.00000E+00
 -1       530 1.91484E-04-3.69501E-04 5.29396E-23
 -1       531 1.62412E-04-3.07131E-04 0.00000E+00
 -1       532 1.26930E-04-2.30676E-04 0.00000E+00
 -1       533 9.02070E-05-1.51536E-04 0.00000E+00
 -1       534 5.76073E-05-8.12864E-05 0.00000E+00
 -1       535 3.32934E-05-2.97605E-05 5.29396E-23
 -1       536 9.16023E-05 4.53946E-06-6.61744E-24
 -1       537 9.14421E-05 1.47331E-05 1.65436E-24
 -1       538 9.12756E-05 2.55286E-05 3.30872E-24
 -1       539 9.11157E-05 3.57597E-05 1.65436E-24
 -1       540 9.09701E-05 4.43856E-05-3.30872E-24
 -1       541 9.08432E-05 5.03733E-05-1.65436E-24
 -1       542 9.07293E-05 5.32790E-05 0.00000E+00
 -1       543 9.06192E-05 5.26741E-05 1.65436E-24
 -1       544 9.05029E-05 4.89126E-05-3.30872E-24
 -1       545 9.03727E-05 4.23643E-05 1.65436E-24
 -1       546 9.02300E-05 3.40209E-05-3.30872E-24
 -1       547 9.00809E-05 2.48831E-05 1.65436E-24
 -1       548 8.99351E-05 1.61294E-05-3.30872E-24
 -1       549 8.98023E-05 8.93637E-06-8.27181E-25
 -1       550 8.96826E-05 4.13268E-06 8.27181E-25
 -1       551 8.23423E-05-4.10658E-06 0.00000E+00
 -1       552 7.11232E-05-4.33848E-06 0.00000E+00
 -1       553 5.87046E-05-4.58323E-06 3.30872E-24
 -1       554 4.57058E-05-4.83709E-06 6.61744E-24
 -1       555 3.27463E-05-5.09321E-06 0.00000E+00
 -1       556 8.92350E-05 2.62894E-06 0.00000E+00
 -1       557 8.72897E-05 7.67626E-06 0.00000E+00
 -1       558 8.58545E-05 1.13849E-05 0.00000E+00
 -1       559 8.48736E-05 1.38969E-05 0.00000E+00
 -1       560 8.42913E-05 1.53542E-05 0.00000E+00
 -1       561 8.40525E-05 1.58992E-05 0.00000E+00
 -1       562 8.41028E-05 1.56749E-05 0.00000E+00
 -1       563 8.43877E-05 1.48244E-05 0.00000E+00
 -1       564 8.48535E-05 1.34908E-05-6.61744E-24
 -1       565 8.54462E-05 1.18173E-05 0.00000E+00
 -1       566 8.61124E-05 9.94739E-06-1.65436E-24
 -1       567 8.67983E-05 8.02440E-06-2.06795E-25
 -1       568 8.74506E-05 6.19171E-06 0.00000E+00
 -1       569 8.80157E-05 4.59253E-06 0.00000E+00
 -1       570 8.84399E-05 3.37011E-06 0.00000E+00
 -1       571 8.96438E-05 2.47729E-06-1.24077E-24
 -1       572 8.97106E-05 2.37554E-06-4.13590E-25
 -1       573 8.97778E-05 2.23778E-06-1.65436E-24
 -1       574 8.98453E-05 2.07259E-06-4.13590E-25
 -1       575 8.99128E-05 1.88858E-06 0.00000E+00
 -1       576 8.99803E-05 1.69444E-06 0.00000E+00
 -1       577 9.00479E-05 1.49883E-06 3.30872E-24
 -1       578 9.01155E-05 1.31044E-06 0.00000E+00
 -1       579 9.01830E-05 1.13794E-06 0.00000E+00
 -1       580 9.02506E-05 9.90034E-07 0.00000E+00
 -1       581 9.03182E-05 8.75393E-07 0.00000E+00
 -1       582 9.03858E-05 8.02689E-07 0.00000E+00
 -1       583 9.04534E-05 7.80591E-07 0.00000E+00
 -1       584 9.05209E-05 8.17675E-07 0.00000E+00
 -1       585 9.05884E-05 9.22461E-07 3.30872E-24
 -1       586 8.93969E-05 2.55784E-06-8.27181E-25
 -1       587 8.91884E-05 2.58026E-06-2.06795E-25
 -1       588 8.89820E-05 2.60245E-06 0.00000E+00
 -1       589 8.88074E-05 2.62427E-06 0.00000E+00
 -1       590 8.86942E-05 2.64548E-06 0.00000E+00
 -1       591 8.95677E-05 2.51474E-06-1.55096E-25
 -1       592 8.95670E-05 2.46072E-06 0.00000E+00
 -1       593 8.95764E-05 2.37942E-06 0.00000E+00
 -1       594 8.95936E-05 2.27674E-06 4.13590E-25
 -1       595 8.96164E-05 2.15868E-06 0.00000E+00
 -1       596 8.96427E-05 2.03117E-06 2.06795E-25
 -1       597 8.96703E-05 1.90014E-06 0.00000E+00
 -1       598 8.96970E-05 1.77152E-06 2.06795E-25
 -1       599 8.97205E-05 1.65125E-06 0.00000E+00
 -1       600 8.97388E-05 1.54526E-06 2.06795E-25
 -1       601 8.97494E-05 1.45947E-06 4.13590E-25
 -1       602 8.97503E-05 1.39982E-06 0.00000E+00
 -1       603 8.97393E-05 1.37225E-06-4.13590E-25
 -1       604 8.97143E-05 1.38274E-06 0.00000E+00
 -1       605 8.96731E-05 1.43720E-06 0.00000E+00
 -1       606 9.06679E-05 1.43680E-06 0.00000E+00
 -1       607 9.06777E-05 1.86313E-06 0.00000E+00
 -1       608 9.06868E-05 2.37635E-06 0.00000E+00
 -1       609 9.06956E-05 2.97036E-06 0.00000E+00
 -1       610 9.07042E-05 3.63902E-06 0.00000E+00
 -1       611 9.07127E-05 4.37611E-06 0.00000E+00
 -1       612 9.07212E-05 5.17537E-06 0.00000E+00
 -1       613 9.07296E-05 6.03060E-06 0.00000E+00
 -1       614 9.07380E-05 6.93554E-06 0.00000E+00
 -1       615 9.07463E-05 7.88394E-06 0.00000E+00
 -1       616 9.07546E-05 8.86959E-06 0.00000E+00
 -1       617 9.07629E-05 9.88622E-06 4.13590E-25
 -1       618 9.07711E-05 1.09276E-05-8.27181E-25
 -1       619 9.07793E-05 1.19875E-05 0.00000E+00
 -1       620 9.07873E-05 1.30597E-05 0.00000E+00
 -1       621 9.04200E-05 1.17608E-06 0.00000E+00
 -1       622 9.02190E-05 1.24973E-06 0.00000E+00
 -1       623 9.00456E-05 1.32338E-06 1.65436E-24
 -1       624 8.98922E-05 1.39691E-06 0.00000E+00
 -1       625 8.97514E-05 1.47031E-06 1.65436E-24
 -1       626 9.06082E-05 1.46001E-06 0.00000E+00
 -1       627 9.05328E-05 1.89315E-06 1.65436E-24
 -1       628 9.04317E-05 2.39504E-06 0.00000E+00
 -1       629 9.03078E-05 2.95801E-06 0.00000E+00
 -1       630 9.01638E-05 3.57440E-06 0.00000E+00
 -1       631 9.00027E-05 4.23648E-06 0.00000E+00
 -1       632 8.98273E-05 4.93654E-06 0.00000E+00
 -1       633 8.96405E-05 5.66687E-06 0.00000E+00
 -1       634 8.94453E-05 6.41974E-06 0.00000E+00
 -1       635 8.92445E-05 7.18743E-06 0.00000E+00
 -1       636 8.90410E-05 7.96223E-06 0.00000E+00
 -1       637 8.88377E-05 8.73644E-06 8.27181E-25
 -1       638 8.86374E-05 9.50231E-06-1.65436E-24
 -1       639 8.84430E-05 1.02521E-05 8.27181E-25
 -1       640 8.82572E-05 1.09782E-05 1.65436E-24
 -1       656 8.99193E-05 1.37368E-05 0.00000E+00
 -1       657 8.93961E-05 1.33196E-05-3.30872E-24
 -1       658 8.90934E-05 1.29038E-05 0.00000E+00
 -1       659 8.88754E-05 1.24883E-05 0.00000E+00
 -1       660 8.85888E-05 1.20715E-05-6.61744E-24
 -1       661 9.04716E-05 1.51903E-05-8.27181E-25
 -1       662 9.01713E-05 1.61893E-05 0.00000E+00
 -1       663 8.98902E-05 1.71365E-05 0.00000E+00
 -1       664 8.96281E-05 1.80349E-05-8.27181E-25
 -1       665 8.93835E-05 1.88866E-05 0.00000E+00
 -1       666 8.91556E-05 1.96940E-05 0.00000E+00
 -1       667 8.89435E-05 2.04594E-05 0.00000E+00
 -1       668 8.87465E-05 2.11849E-05 0.00000E+00
 -1       669 8.85636E-05 2.18726E-05-1.65436E-24
 -1       670 8.83942E-05 2.25245E-05 0.00000E+00
 -1       671 8.82376E-05 2.31423E-05-1.65436E-24
 -1       672 8.80929E-05 2.37279E-05 0.00000E+00
 -1       673 8.79596E-05 2.42831E-05 1.65436E-24
 -1       674 8.78364E-05 2.48092E-05-8.27181E-25
 -1       675 8.77236E-05 2.53082E-05-4.13590E-25
 -1       676 8.98090E-05 2.61706E-05 0.00000E+00
 -1       677 8.93692E-05 2.60919E-05-8.27181E-25
 -1       678 8.89299E-05 2.60133E-05-1.65436E-24
 -1       679 8.84911E-05 2.59350E-05 0.00000E+00
 -1       680 8.80532E-05 2.58566E-05 0.00000E+00
 -1       771 1.56521E-05 4.24735E-06 0.00000E+00
 -1       772 1.15198E-05 1.21278E-05 0.00000E+00
 -1       773 8.01595E-06 1.83662E-05 5.29396E-23
 -1       774 5.09896E-06 2.30637E-05 0.00000E+00
 -1       775 2.72774E-06 2.63238E-05 0.00000E+00
 -1       776 8.59437E-07 2.82545E-05 0.00000E+00
 -1       777-5.49293E-07 2.89662E-05 0.00000E+00
 -1       778-1.54277E-06 2.85727E-05 0.00000E+00
 -1       779-2.16562E-06 2.71899E-05 2.64698E-23
 -1       780-2.46328E-06 2.49366E-05 0.00000E+00
 -1       781-2.48134E-06 2.19333E-05 0.00000E+00
 -1       782-2.26600E-06 1.83026E-05 0.00000E+00
 -1       783-1.86357E-06 1.41683E-05-2.64698E-23
 -1       784-1.32071E-06 9.65557E-06 0.00000E+00
 -1       785-6.84165E-07 4.89048E-06-2.64698E-23
 -1       786 8.87264E-05 2.49295E-06 0.00000E+00
 -1       787 8.87852E-05 2.33603E-06 0.00000E+00
 -1       788 8.88439E-05 2.19162E-06 0.00000E+00
 -1       789 8.89032E-05 2.05746E-06-8.27181E-25
 -1       790 8.89626E-05 1.93273E-06 0.00000E+00
 -1       791 8.90220E-05 1.81660E-06 8.27181E-25
 -1       792 8.90815E-05 1.70944E-06-1.65436E-24
 -1       793 8.91410E-05 1.61166E-06 8.27181E-25
 -1       794 8.92005E-05 1.52491E-06 0.00000E+00
 -1       795 8.92601E-05 1.45091E-06 0.00000E+00
 -1       796 8.93196E-05 1.39312E-06 0.00000E+00
 -1       797 8.93791E-05 1.35503E-06 0.00000E+00
 -1       798 8.94386E-05 1.34285E-06 0.00000E+00
 -1       799 8.94979E-05 1.36285E-06 8.27181E-25
 -1       800 8.95573E-05 1.42572E-06-1.65436E-24
 -1       801 8.26666E-05 2.35499E-06-6.61744E-24
 -1       802 6.43782E-05 1.89045E-06 0.00000E+00
 -1       803 4.04846E-05 1.31939E-06 0.00000E+00
 -1       804 1.77421E-05 7.66788E-07-6.61744E-24
 -1       805 2.24595E-06 3.41257E-07 2.64698E-23
 -1       806 8.86575E-05 2.44762E-06 1.65436E-24
 -1       807 8.86387E-05 2.23674E-06-8.27181E-25
 -1       808 8.86153E-05 2.03650E-06-3.30872E-24
 -1       809 8.85863E-05 1.85060E-06 8.27181E-25
 -1       810 8.85503E-05 1.68275E-06 1.65436E-24
 -1       811 8.85062E-05 1.53658E-06 8.27181E-25
 -1       812 8.84526E-05 1.41572E-06 1.65436E-24
 -1       813 8.83881E-05 1.32378E-06-8.27181E-25
 -1       814 8.83114E-05 1.26439E-06-1.65436E-24
 -1       815 8.82211E-05 1.24116E-06 1.65436E-24
 -1       816 8.81160E-05 1.25770E-06 0.00000E+00
 -1       817 8.79945E-05 1.31761E-06 1.65436E-24
 -1       818 8.78556E-05 1.42450E-06 0.00000E+00
 -1       819 8.76977E-05 1.58195E-06-1.65436E-24
 -1       820 8.75198E-05 1.79356E-06 1.65436E-24
 -1       821 8.95255E-05 1.66641E-06 0.00000E+00
 -1       822 8.94297E-05 1.75309E-06-8.27181E-25
 -1       823 8.93342E-05 1.85513E-06 0.00000E+00
 -1       824 8.92376E-05 2.02529E-06-1.65436E-24
 -1       825 8.91410E-05 2.30271E-06 0.00000E+00
 -1       826 8.90442E-05 2.72609E-06 1.65436E-24
 -1       827 8.89472E-05 3.30499E-06 3.30872E-24
 -1       828 8.88501E-05 4.04829E-06 0.00000E+00
 -1       829 8.87529E-05 4.93207E-06-3.30872E-24
 -1       830 8.86556E-05 5.93179E-06 0.00000E+00
 -1       831 8.85583E-05 6.99981E-06 0.00000E+00
 -1       832 8.84611E-05 8.08815E-06-1.65436E-24
 -1       833 8.83641E-05 9.14477E-06 0.00000E+00
 -1       834 8.82682E-05 1.01178E-05 0.00000E+00
 -1       835 8.81720E-05 1.09720E-05 0.00000E+00
 -1       836 8.93813E-05 1.62892E-06-1.65436E-24
 -1       837 8.90349E-05 1.71751E-06 0.00000E+00
 -1       838 8.86161E-05 1.80593E-06 1.65436E-24
 -1       839 8.81645E-05 1.89379E-06 8.27181E-25
 -1       840 8.77199E-05 1.98150E-06 0.00000E+00
 -1       856 8.80560E-05 1.23520E-05 0.00000E+00
 -1       857 8.80272E-05 1.31357E-05-2.06795E-25
 -1       858 8.79986E-05 1.40072E-05-8.27181E-25
 -1       859 8.79694E-05 1.49500E-05 0.00000E+00
 -1       860 8.79401E-05 1.59477E-05 0.00000E+00
 -1       861 8.79106E-05 1.69835E-05 4.13590E-25
 -1       862 8.78811E-05 1.80409E-05 0.00000E+00
 -1       863 8.78516E-05 1.91031E-05 0.00000E+00
 -1       864 8.78221E-05 2.01534E-05 0.00000E+00
 -1       865 8.77926E-05 2.11753E-05-4.13590E-25
 -1       866 8.77631E-05 2.21520E-05 8.27181E-25
 -1       867 8.77337E-05 2.30669E-05 0.00000E+00
 -1       868 8.77043E-05 2.39036E-05 8.27181E-25
 -1       869 8.76750E-05 2.46455E-05-4.13590E-25
 -1       870 8.76457E-05 2.52764E-05 8.27181E-25
 -1       871 8.76010E-05 1.16717E-05 0.00000E+00
 -1       872 8.72220E-05 1.16687E-05 0.00000E+00
 -1       873 8.69008E-05 1.16653E-05 0.00000E+00
 -1       874 8.65929E-05 1.16614E-05 1.55096E-25
 -1       875 8.62538E-05 1.16570E-05-4.13590E-25
 -1       876 8.79187E-05 1.23610E-05 0.00000E+00
 -1       877 8.77389E-05 1.31001E-05 0.00000E+00
 -1       878 8.75425E-05 1.38838E-05 0.00000E+00
 -1       879 8.73317E-05 1.47063E-05 0.00000E+00
 -1       880 8.71085E-05 1.55621E-05 0.00000E+00
 -1       881 8.68750E-05 1.64452E-05 1.65436E-24
 -1       882 8.66334E-05 1.73501E-05-3.30872E-24
 -1       883 8.63858E-05 1.82710E-05 0.00000E+00
 -1       884 8.61342E-05 1.92023E-05 0.00000E+00
 -1       885 8.58809E-05 2.01383E-05 0.00000E+00
 -1       886 8.56279E-05 2.10732E-05 0.00000E+00
 -1       887 8.53774E-05 2.20015E-05-1.65436E-24
 -1       888 8.51313E-05 2.29173E-05-1.65436E-24
 -1       889 8.48916E-05 2.38149E-05-8.27181E-25
 -1       890 8.46604E-05 2.46886E-05 8.27181E-25
 -1       891 8.71994E-05 2.57384E-05-1.65436E-24
 -1       892 8.67646E-05 2.56967E-05 4.13590E-25
 -1       893 8.62914E-05 2.56549E-05 0.00000E+00
 -1       894 8.57592E-05 2.56133E-05-2.06795E-25
 -1       895 8.51474E-05 2.55717E-05-4.13590E-25
 -1       956 8.72307E-05 2.44996E-06 0.00000E+00
 -1       957 8.71383E-05 2.89601E-06-8.27181E-25
 -1       958 8.70457E-05 3.39475E-06-3.30872E-24
 -1       959 8.69528E-05 3.93957E-06-1.65436E-24
 -1       960 8.68599E-05 4.52385E-06-3.30872E-24
 -1       961 8.67669E-05 5.14094E-06-8.27181E-25
 -1       962 8.66739E-05 5.78416E-06 0.00000E+00
 -1       963 8.65809E-05 6.44686E-06 0.00000E+00
 -1       964 8.64878E-05 7.12237E-06 0.00000E+00
 -1       965 8.63948E-05 7.80401E-06 1.65436E-24
 -1       966 8.63018E-05 8.48514E-06 0.00000E+00
 -1       967 8.62088E-05 9.15906E-06 0.00000E+00
 -1       968 8.61159E-05 9.81911E-06-3.30872E-24
 -1       969 8.60231E-05 1.04587E-05-1.65436E-24
 -1       970 8.59306E-05 1.10711E-05 0.00000E+00
 -1       971 8.57529E-05 1.22469E-05 1.65436E-24
 -1       972 8.56651E-05 1.29212E-05 0.00000E+00
 -1       973 8.55772E-05 1.36641E-05 3.30872E-24
 -1       974 8.54891E-05 1.44669E-05-8.27181E-25
 -1       975 8.54009E-05 1.53206E-05-1.65436E-24
 -1       976 8.53126E-05 1.62164E-05-8.27181E-25
 -1       977 8.52243E-05 1.71455E-05 3.30872E-24
 -1       978 8.51360E-05 1.80988E-05-1.65436E-24
 -1       979 8.50477E-05 1.90675E-05 0.00000E+00
 -1       980 8.49594E-05 2.00426E-05-1.65436E-24
 -1       981 8.48711E-05 2.10154E-05 0.00000E+00
 -1       982 8.47829E-05 2.19768E-05-1.65436E-24
 -1       983 8.46948E-05 2.29180E-05 3.30872E-24
 -1       984 8.46071E-05 2.38300E-05 0.00000E+00
 -1       985 8.45199E-05 2.47040E-05 0.00000E+00
 -3
    1PSTEP                        10           5           1          
  100CL  105 5.03906E-01         409                     0    5           1
 -4  STRESS      6    1
 -5  SXX         1    4    1    1
 -5  SYY         1    4    2    2
 -5  SZZ         1    4    3    3
 -5  SXY         1    4    1    2
 -5  SYZ         1    4    2    3
 -5  SZX         1    4    3    1
 -1         1-1.94899E+06-8.55090E+05-4.06925E+05-1.14604E+06-1.89175E-10 2.18279E-10
 -1         2 2.64708E+03-6.51351E+03 8.65550E+03-2.39412E+01-1.17808E-10 3.53924E-09
 -1         3-1.47477E+02-8.66285E+05 2.04845E+02-4.01608E+02-1.83691E-10 1.32786E-09
 -1         5-4.13218E+00 2.63681E+05 6.85310E+00 1.16462E-01 8.96428E-11 4.11810E-08
 -1         8-9.26667E+05-3.63490E+05-6.67377E+04-5.64437E+05 7.33053E-10-1.52795E-09
 -1         9-1.77023E+06-5.22844E+05-2.03603E+05-5.56406E+05 3.83297E-09 5.82659E-09
 -1        10-7.37196E+02-9.02487E+05-1.21961E+03-2.71555E+03-4.30828E-09-9.87527E-09
 -1        12-1.32273E+00 2.63695E+05 2.22071E+02 9.72404E-01 2.17398E-10-1.37670E-08
 -1        15 1.99991E+03 1.09907E+03 6.46470E+03 4.29294E+00-5.10454E-11 2.36132E-08
 -1        16-3.21322E+06-1.25162E+06-5.15980E+05-1.30615E+06 1.17579E-08-7.56700E-10
 -1        17-1.06762E+06-6.25661E+05-2.08887E+05-5.61877E+05-5.45842E-09-6.98492E-11
 -1        18-4.48396E+04-1.55332E+04-3.12597E+04-6.54795E+04 2.04545E-09 3.55294E-09
 -1        19 8.31664E+04 9.90129E+04-3.94159E+02 1.61472E+04-5.71526E-10 1.15033E-09
 -1        20-3.67853E+04-3.92228E+05-8.66705E+04 2.77433E+04 4.02194E-09 8.43405E-10
 -1        21-3.65836E+01-2.24996E+05-7.24440E+02-6.78948E+01-8.01803E-09-2.07788E-08
 -1        24-3.22549E+06-9.05666E+05-4.08905E+05-1.18628E+06-2.96156E-08-1.46101E-08
 -1        25-8.12709E+03-1.78712E+05-2.33910E+04-1.14232E+05 3.43334E-10 1.84285E-08
 -1        26-2.15772E+04 6.70766E+04-1.38096E+04-8.43154E+03 1.30349E-09 4.46046E-09
 -1        27-6.17058E+04-2.14824E+05-8.04644E+04 4.84308E+04 5.54959E-09 1.24631E-09
 -1        28 1.73919E+04-6.23976E+04 1.27258E+04 1.95149E+04 2.80698E-09 1.86822E-09
 -1        32-9.19930E+05-5.50249E+05 2.62934E+05-5.58594E+05-2.02999E-08 5.80809E-09
 -1        33-1.23533E+05 6.27880E+04 2.23083E+04-3.51869E+04 8.37000E-10 2.10366E-09
 -1        34-1.59262E+05-1.59502E+04 3.84770E+02 4.93483E+04 1.49757E-09 2.45564E-10
 -1        35-1.76935E+04-2.47948E+04-9.73578E+02 3.91956E+04 7.45931E-09-9.52180E-09
 -1        51 1.72829E+04-3.62515E+05 4.33948E+04-9.52232E+05 1.01863E-10-1.44209E-08
 -1        52 1.00473E+04-3.60455E+05 2.80265E+04-1.11058E+06 3.78350E-10-2.34286E-08
 -1        53 7.02396E+03-3.73924E+05 2.28997E+04-9.48901E+05 8.51287E-10-2.57569E-09
 -1        54 1.97842E+04-3.72591E+05 3.55823E+04-1.11404E+06 6.62112E-10 3.08864E-09
 -1        55 3.90456E+04-3.86012E+05 6.28092E+04-9.48360E+05 5.96629E-10-1.18598E-09
 -1        56-3.73277E+06-4.18892E+05-2.99231E+05-1.44036E+06 1.04774E-09-7.10133E-09
 -1        57-3.85642E+06-6.86474E+05-2.01752E+05-1.42490E+06-3.11957E-10 6.51926E-09
 -1        58-3.79342E+06-5.13212E+05-7.03865E+04-1.42089E+06-4.84761E-10-7.98173E-09
 -1        59-3.78625E+06-5.75765E+05-4.20180E+04-1.44806E+06-3.30601E-10-1.29639E-08
 -1        60-3.80224E+06-5.26391E+05-1.64246E+04-1.41829E+06-3.90310E-09 6.56928E-09
 -1        61-3.77767E+06-5.58607E+05-9.31901E+03-1.44905E+06-9.42009E-10 9.27685E-09
 -1        62-3.80181E+06-5.29979E+05-4.47225E+03-1.41999E+06 1.46542E-09 1.00643E-08
 -1        63-3.78129E+06-5.51577E+05-3.59987E+03-1.44338E+06-4.05316E-09 2.04197E-08
 -1        64-3.79849E+06-5.33445E+05-4.11113E+03-1.42389E+06-5.34328E-11-4.64343E-09
 -1        65-3.78997E+06-5.45394E+05-8.11710E+03-1.43414E+06-3.05749E-09-8.78617E-09
 -1        66-3.79306E+06-5.36260E+05-1.43097E+04-1.42916E+06-9.70203E-10 7.80619E-09
 -1        67-3.80736E+06-5.50172E+05-3.62946E+04-1.42178E+06 2.94705E-10 1.78052E-08
 -1        68-3.78123E+06-5.29028E+05-6.09131E+04-1.43615E+06-1.47429E-09 5.83896E-09
 -1        69-3.87414E+06-6.40031E+05-1.74412E+05-1.39530E+06 1.46429E-09-9.60426E-10
 -1        70-3.72705E+06-4.49085E+05-2.58747E+05-1.45479E+06 3.67436E-10 2.32831E-09
 -1        86-1.33043E+03-9.39005E+03 9.23281E+03 1.19493E+01 1.15551E-09 5.85987E-09
 -1        87 8.80632E+03-3.53833E+03 1.93125E+04-3.66564E+01 1.91449E-09-1.01166E-08
 -1        88-7.47000E+03-1.23642E+04 2.95311E+04 2.46590E+01 2.82489E-09-1.51113E-09
 -1        89 5.56427E+04 1.81826E+04 7.96666E+04 3.53439E+01 4.30373E-09-1.02385E-08
 -1        90-4.80066E+04-3.10920E+04 1.12561E+05-5.95492E+01 4.56930E-09-7.26516E-09
 -1       121-2.22076E+02-8.66889E+05 1.35103E+02 2.00468E+02 4.96037E-10-5.95901E-09
 -1       122-7.85144E+01-8.66247E+05 4.39776E+02-8.02685E+02-1.71926E-09-1.19871E-08
 -1       123-2.66832E+02-8.66938E+05 6.49462E+02 6.00215E+02 1.32786E-09 2.33013E-09
 -1       124 7.36863E+02-8.65773E+05 1.82565E+03-1.76014E+03-3.42880E-09-6.32281E-09
 -1       125-7.85230E+02-8.67397E+05 2.73598E+03 1.15686E+03 2.24099E-09-1.62327E-08
 -1       191-4.56588E+00 2.63703E+05 8.23308E+00-5.86644E-02 9.94769E-11 1.20290E-08
 -1       192-4.76151E+00 2.63681E+05 1.45080E+01 5.92073E-01 1.27152E-10-1.41019E-08
 -1       193-6.23929E+00 2.63703E+05 2.70212E+01-5.36453E-01 1.71661E-10-1.88470E-08
 -1       194-6.78682E+00 2.63683E+05 5.48703E+01 1.43333E+00 8.09353E-11-1.58982E-08
 -1       195-9.45526E+00 2.63701E+05 1.07369E+02-9.05437E-01 2.47070E-10-1.51167E-08
 -1       251-4.53035E+05-1.95864E+04 4.54594E+04-1.27525E+03 3.61524E-10-2.25555E-09
 -1       252-4.30734E+05 2.26323E+04 3.25375E+04-4.90327E+03-8.92129E-10 4.98585E-09
 -1       253-4.45240E+05-3.05855E+03 1.16839E+04 1.11214E+03 1.41404E-09 9.22819E-09
 -1       254-4.40186E+05 3.50708E+03 7.63119E+03-9.25777E+03 2.70973E-10 2.96609E-10
 -1       255-4.43649E+05-4.83849E+02 3.01208E+03 3.07908E+03 1.46690E-09 6.05542E-09
 -1       256-4.42337E+05 5.82108E+02 1.97656E+03-1.23878E+04-2.00231E-10-4.11126E-09
 -1       257-4.43159E+05-9.26013E+01 1.05685E+03 4.24219E+03 2.13134E-10-7.28986E-09
 -1       258-4.42886E+05 2.52161E+02 1.09865E+03-1.37069E+04-6.55373E-10-3.18743E-09
 -1       259-4.43136E+05-1.28677E+02 1.41922E+03 4.39827E+03-6.27750E-10 1.04825E-09
 -1       260-4.42323E+05 9.14564E+02 2.96390E+03-1.29875E+04-1.25098E-10-9.48205E-10
 -1       261-4.43701E+05-7.67880E+02 4.87300E+03 3.52267E+03 6.98037E-10-8.59950E-09
 -1       262-4.39320E+05 5.68177E+03 1.21636E+04-1.03565E+04-4.62705E-10 3.80624E-09
 -1       263-4.46073E+05-4.92717E+03 1.90366E+04 1.76726E+03-1.20826E-09 4.11092E-10
 -1       264-4.24271E+05 3.66508E+04 5.25124E+04-6.34042E+03-2.78399E-09 9.86711E-09
 -1       265-4.58664E+05-3.16795E+04 7.38343E+04-4.93432E+02-1.75737E-09-1.19326E-09
 -1       266-3.62039E+04-1.69262E+04 8.49575E+04-9.18677E+01 5.82077E-11 9.43430E-10
 -1       267 4.19715E+04 1.97321E+04 6.00402E+04 1.05982E+02 8.27640E-11-4.10756E-09
 -1       268-5.62825E+03-2.79438E+03 2.23170E+04-1.35048E+01 5.72982E-11 7.55946E-10
 -1       269 6.64537E+03 3.34453E+03 1.45054E+04 1.57302E+01 3.91083E-11 6.09500E-09
 -1       270-9.97478E+02-5.49523E+02 7.00195E+03-2.13473E+00 9.32232E-12 4.14629E-09
 -1       271-3.47701E+06-4.35055E+05-2.65960E+05-1.35543E+06-5.16593E-10-5.09317E-09
 -1       272-3.56276E+06-6.38514E+05-1.70969E+05-1.36366E+06-1.69666E-09-5.56429E-09
 -1       273-3.52860E+06-4.99768E+05-6.28338E+04-1.34181E+06 9.06311E-10 1.16052E-08
 -1       274-3.50179E+06-5.59862E+05-3.51256E+04-1.38506E+06 1.26238E-09 9.46875E-09
 -1       275-3.53732E+06-5.04763E+05-1.46283E+04-1.33772E+06 1.57343E-09 2.90675E-09
 -1       276-3.49110E+06-5.54474E+05-7.74174E+03-1.39193E+06 5.58884E-10 3.68595E-09
 -1       277-3.53979E+06-5.03862E+05-3.79819E+03-1.33573E+06 1.47384E-09 9.29140E-09
 -1       278-3.48847E+06-5.55544E+05-2.74047E+03-1.39474E+06 4.22915E-10 1.30630E-08
 -1       279-3.54031E+06-5.03386E+05-2.92528E+03-1.33519E+06-1.29771E-09 5.76847E-10
 -1       280-3.48920E+06-5.55864E+05-5.36411E+03-1.39429E+06 4.80668E-10-3.51520E-10
 -1       281-3.53901E+06-5.03622E+05-9.79390E+03-1.33613E+06 9.64974E-10 7.58700E-09
 -1       282-3.49608E+06-5.59662E+05-2.34248E+04-1.38996E+06-1.45315E-09 1.88902E-09
 -1       283-3.53309E+06-5.00455E+05-4.18104E+04-1.33900E+06 6.99401E-10-8.65839E-09
 -1       284-3.53715E+06-6.11316E+05-1.13752E+05-1.37479E+06-4.70493E-10-4.82760E-09
 -1       285-3.49820E+06-4.58065E+05-1.77034E+05-1.34872E+06 2.03181E-09 7.20320E-10
 -1       301 1.76962E+04-3.51552E+04 1.32234E+05-7.37232E+04-9.02219E-10 8.26321E-09
 -1       302 1.88200E+04-1.70970E+03 9.08649E+04-1.08507E+05 8.25594E-10 2.88719E-09
 -1       303 1.03394E+03-2.25386E+04 7.65281E+04-7.38455E+04-8.71296E-10-5.12409E-09
 -1       304 2.79751E+04 7.10369E+03 1.21030E+05-1.08121E+05 1.20235E-09 4.87489E-10
 -1       305 2.73008E+04-4.33400E+04 1.98976E+05-7.41005E+04-7.42148E-10 1.02718E-08
 -1       306-4.73070E+06-5.45003E+05-3.56693E+05-1.84314E+06 3.36149E-09-2.17115E-08
 -1       307-4.89326E+06-8.62336E+05-2.42408E+05-1.79930E+06-9.82254E-10-3.21597E-09
 -1       308-4.82552E+06-6.41132E+05-8.40212E+04-1.79278E+06-1.46429E-10 7.02494E-09
 -1       309-4.77417E+06-7.61020E+05-5.05388E+04-1.87165E+06 2.48139E-09 1.06775E-09
 -1       310-4.84992E+06-6.43600E+05-1.95661E+04-1.77204E+06-3.29851E-09 5.88989E-09
 -1       311-4.74968E+06-7.54003E+05-1.13529E+04-1.89175E+06 9.82158E-09 1.12532E-08
 -1       312-4.85039E+06-6.47459E+05-5.62374E+03-1.77314E+06 1.47656E-09 6.26498E-09
 -1       313-4.76400E+06-7.33367E+05-4.62293E+03-1.87020E+06-1.20758E-09 4.50564E-09
 -1       314-4.83486E+06-6.64705E+05-6.58704E+03-1.79306E+06-1.36652E-09-4.84761E-09
 -1       315-4.80516E+06-6.94705E+05-1.21081E+04-1.82066E+06-7.41056E-09 6.04268E-09
 -1       316-4.80844E+06-6.86734E+05-2.29527E+04-1.82207E+06-3.50747E-09 4.01997E-10
 -1       317-4.86726E+06-6.71960E+05-5.76122E+04-1.76440E+06 5.45027E-09-3.40060E-09
 -1       318-4.77338E+06-6.87499E+05-9.58671E+04-1.84956E+06-8.62110E-09 1.36279E-08
 -1       319-4.99447E+06-8.03302E+05-2.78282E+05-1.70271E+06-2.31375E-09 3.74712E-10
 -1       320-4.68308E+06-5.57081E+05-4.07407E+05-1.88383E+06 1.05938E-08-3.50701E-09
 -1       336 5.42596E+02-9.38455E+05-5.20305E+03 1.55336E+03-8.76207E-09-1.33950E-08
 -1       337-1.91429E+03-9.39570E+05-5.76365E+03-3.88235E+03-1.64075E-08-1.41690E-08
 -1       338 3.66485E+02-9.38575E+05-7.50037E+03 2.31798E+03-1.13218E-08 6.40466E-09
 -1       339-7.77389E+03-9.43266E+05-1.64263E+04-5.38493E+03-2.05437E-08 1.09430E-08
 -1       340 5.19357E+03-9.34905E+05-2.54298E+04 3.04396E+03-1.38880E-08 1.47265E-08
 -1       406 1.56787E+01 2.63691E+05 4.38465E+02-7.95813E-02 4.41872E-10-1.98293E-08
 -1       407 1.51533E+02 2.63772E+05 9.31800E+02-6.33518E+00 1.06525E-10-8.20455E-09
 -1       408 4.78353E+02 2.63624E+05 1.86104E+03 6.55107E+00 3.45040E-10-4.77712E-09
 -1       409 2.01097E+03 2.64366E+05 4.18964E+03-6.37041E+01-4.43379E-11-1.45797E-08
 -1       410 5.78023E+03 2.63095E+05 8.55302E+03 5.96919E+01 5.66615E-10-1.35651E-09
 -1       521-7.80676E+06-7.58580E+05-6.72473E+05-2.62920E+06-3.21597E-09 8.26549E-09
 -1       522-6.37747E+06-1.92452E+06-2.84350E+05-3.59811E+06-6.72735E-08-1.87210E-08
 -1       523-7.96710E+06-5.12380E+05-1.44114E+05-2.10670E+06 1.82263E-09-2.53785E-08
 -1       524-6.39521E+06-2.03069E+06-5.63100E+04-4.27689E+06 6.30489E-08-7.44499E-08
 -1       525-7.97658E+06-5.10929E+05-3.49590E+04-2.07163E+06 5.07862E-08-4.94947E-08
 -1       526-6.25408E+06-1.76297E+06 5.71662E+04-3.75869E+06 3.37604E-08 1.43609E-09
 -1       527-7.94926E+06-8.95369E+05-1.11368E+05-2.52525E+06 1.76806E-08-1.70585E-08
 -1       528-6.54734E+06-1.01152E+06 1.33843E+05-2.59422E+06-2.16387E-08 1.83281E-08
 -1       529-7.50229E+06-1.39001E+06-1.24532E+05-3.09170E+06-3.91738E-08 4.91127E-09
 -1       530-7.79090E+06-1.15228E+05 7.39206E+04-1.80544E+06-2.86091E-08 4.52928E-08
 -1       531-6.85522E+06-1.68253E+06-4.80428E+04-3.40888E+06-9.66975E-08 4.57294E-09
 -1       532-8.72663E+06 3.07802E+05-5.31012E+04-1.61061E+06 3.82461E-08-6.45678E-08
 -1       533-6.74657E+06-1.68910E+06-1.27348E+05-3.44359E+06 4.88217E-09-1.03817E-07
 -1       534-8.23326E+06-1.66805E+05-2.88835E+05-1.68194E+06-3.00024E-08 8.40282E-08
 -1       535-7.22910E+06-1.29478E+06-6.40590E+05-3.22808E+06-1.13505E-08 5.56756E-08
 -1       536-3.20368E+05-1.37507E+04 3.09403E+04-6.40450E+03-2.68926E-10 3.99268E-09
 -1       537-3.03996E+05 1.58971E+04 2.24151E+04 1.29544E+04-1.93917E-08 1.23698E-08
 -1       538-3.13673E+05-2.05955E+03 8.08586E+03-7.29201E+03 9.29077E-10 2.07037E-08
 -1       539-3.08234E+05 2.54397E+03 5.68596E+03 1.15377E+04 2.10292E-08 1.52398E-08
 -1       540-3.16081E+05-4.45893E+02 1.36395E+03-4.98706E+03 2.27016E-09 5.65990E-09
 -1       541-3.03164E+05 6.73430E+02 2.96584E+03 4.73793E+03 8.76611E-10 1.77714E-08
 -1       542-3.18588E+05-3.18661E+02-8.30817E+02-4.91235E+02 5.79399E-09 1.37612E-09
 -1       543-3.02949E+05 2.89541E+02 1.88725E+03-4.37311E+03-6.24800E-09-3.60120E-09
 -1       544-3.16289E+05-7.35213E+01-1.20846E+03 4.12256E+03 1.51203E-10-9.64434E-09
 -1       545-3.09093E+05-3.86370E+02-5.80235E+02-1.15853E+04-4.08420E-09-1.62659E-08
 -1       546-3.12596E+05 4.81705E+02-2.36382E+03 6.72126E+03-1.36785E-09-5.80781E-09
 -1       547-3.12941E+05-2.84707E+03-5.64948E+03-1.36329E+04-1.46221E-08-7.79983E-09
 -1       548-3.12509E+05 2.44432E+03-9.54359E+03 6.17095E+03-1.21279E-08-7.74071E-09
 -1       549-3.14952E+05-1.75454E+04-2.42499E+04-9.57271E+03-8.28953E-09-8.91305E-10
 -1       550-3.10464E+05 1.50651E+04-3.71731E+04 2.65981E+03 7.66590E-10-1.81899E-10
 -1       551 1.22568E+04-4.85791E+05 2.25441E+04-8.12997E+05-3.78786E-08-8.81846E-09
 -1       552 2.77082E+04-4.92502E+05 2.97456E+04-1.15756E+06-2.86600E-08 1.51776E-08
 -1       553 1.94224E+04-4.98212E+05 4.49520E+04-8.10062E+05-4.64352E-08 1.02664E-08
 -1       554 5.21449E+04-4.84279E+05 9.49210E+04-1.15881E+06-3.01443E-08 9.75547E-09
 -1       555 4.70459E+04-5.16559E+05 1.69559E+05-8.10878E+05-4.72573E-08-4.71482E-09
 -1       556 8.22831E+04-1.55723E+05 5.28824E+04-1.99945E+05-9.89530E-09-7.35599E-09
 -1       557 1.45689E+05-2.07624E+05 2.78880E+04-2.51174E+05 1.86265E-09 1.20913E-08
 -1       558 8.14473E+04-1.62433E+05 1.11084E+04-1.94213E+05-6.43195E-09 6.12999E-09
 -1       559 1.36262E+05-2.14610E+05 5.69262E+03-2.55548E+05 6.78119E-09 8.01811E-09
 -1       560 7.90370E+04-1.60855E+05 2.25725E+03-1.95778E+05 4.05271E-09 1.09485E-08
 -1       561 1.32682E+05-2.13582E+05 1.23979E+03-2.57826E+05 5.34783E-10-6.08861E-09
 -1       562 7.71125E+04-1.59586E+05 4.25106E+02-1.97162E+05 5.23869E-09 5.71163E-09
 -1       563 1.30423E+05-2.12606E+05 3.02585E+02-2.59272E+05 5.60249E-10 9.78582E-09
 -1       564 7.58849E+04-1.58800E+05 9.84266E+01-1.98032E+05 2.26646E-09-5.27643E-09
 -1       565 1.29194E+05-2.12077E+05 8.89053E+01-2.60046E+05 1.75896E-09 4.45561E-09
 -1       566 7.53912E+04-1.58478E+05 8.13740E+00-1.98384E+05-8.81391E-09-4.42560E-09
 -1       567 1.28953E+05-2.11962E+05-6.32142E+01-2.60128E+05-1.27557E-09-3.78532E-09
 -1       568 7.56664E+04-1.58660E+05-2.62304E+02-1.98261E+05-6.17729E-09 3.27600E-09
 -1       569 1.29020E+05-2.11824E+05-6.19590E+02-2.58881E+05-3.73893E-09 6.95036E-09
 -1       570 7.72773E+04-1.60029E+05-1.41579E+03-1.98168E+05-1.35333E-09-5.76529E-09
 -1       571 1.92690E+05 7.08075E+03 1.04756E+04-4.98065E+04 5.42059E-10 8.10451E-09
 -1       572 1.94246E+05 2.47232E+03 5.13249E+03-5.46038E+04-6.65750E-10 2.05841E-09
 -1       573 1.93313E+05 5.99045E+02 2.28008E+03-4.96807E+04-4.68390E-11 6.35191E-09
 -1       574 1.93495E+05 2.05885E+02 1.14245E+03-5.47453E+04-1.07707E-09 6.62476E-09
 -1       575 1.93381E+05 4.03039E+01 5.38479E+02-4.96641E+04 9.16771E-10 1.71258E-09
 -1       576 1.93393E+05 2.30238E+01 2.74204E+02-5.47642E+04 1.11959E-09 4.32919E-10
 -1       577 1.93393E+05 9.92572E+00 1.35183E+02-4.96619E+04-1.47566E-10 1.02996E-08
 -1       578 1.93385E+05 1.28066E+01 7.39863E+01-5.47665E+04-2.43813E-09 2.33831E-09
 -1       579 1.93406E+05 6.41766E+00 4.56001E+01-4.96618E+04-1.14323E-09-4.21096E-10
 -1       580 1.93404E+05 4.85957E+00 4.33255E+01-5.47636E+04-1.66619E-09-4.94947E-09
 -1       581 1.93431E+05-3.19469E+00 5.92641E+01-4.96648E+04 2.90129E-10-3.20824E-09
 -1       582 1.93447E+05 5.13410E+00 1.13692E+02-5.47337E+04 2.73394E-09 3.58614E-09
 -1       583 1.93460E+05 2.98752E+01 2.17892E+02-4.96918E+04 3.13776E-10-6.30507E-10
 -1       584 1.93564E+05 1.99297E+02 4.89133E+02-5.45081E+04-9.34051E-10-2.37640E-09
 -1       585 1.93443E+05 6.28202E+02 9.92708E+02-4.98907E+04-2.02817E-10-5.82077E-09
 -1       586-2.23214E+03 6.39424E+04-2.88882E+03-1.70885E+05 1.50067E-11-5.33464E-09
 -1       587-4.65014E+02 6.35631E+04-1.92737E+02-1.88059E+05 2.95586E-10 6.01062E-10
 -1       588 6.77527E+02 6.36200E+04 2.37091E+03-1.70787E+05 1.00954E-10-2.70575E-08
 -1       589 3.38596E+03 6.49046E+04 6.72624E+03-1.87890E+05 2.56478E-10-6.59165E-08
 -1       590 9.76507E+03 6.28421E+04 1.43371E+04-1.71057E+05-2.27374E-11-3.00270E-08
 -1       591-4.18342E+04-1.16846E+04-1.38395E+04-2.13164E+04-9.60370E-10 7.85622E-09
 -1       592-4.32489E+04-1.49649E+04-7.49610E+03-2.47909E+04-1.24487E-11-8.35371E-10
 -1       593-4.32319E+04-1.06665E+04-3.12067E+03-2.23177E+04-2.71712E-11-2.90345E-09
 -1       594-4.13223E+04-1.29514E+04-1.55644E+03-2.48847E+04 6.26585E-10 6.79250E-09
 -1       595-4.33391E+04-1.06619E+04-7.15270E+02-2.23636E+04-4.62762E-10 1.87215E-09
 -1       596-4.11918E+04-1.28592E+04-3.64621E+02-2.48710E+04 1.87458E-09-1.20866E-09
 -1       597-4.33526E+04-1.06708E+04-2.00729E+02-2.23654E+04-8.84029E-10-4.34204E-09
 -1       598-4.11793E+04-1.28556E+04-1.65365E+02-2.48671E+04-1.27829E-09-9.06880E-10
 -1       599-4.33516E+04-1.06709E+04-2.16235E+02-2.23651E+04 6.78938E-10-4.31021E-09
 -1       600-4.11932E+04-1.28604E+04-4.05694E+02-2.48705E+04 1.67347E-10-5.72453E-09
 -1       601-4.33344E+04-1.06613E+04-8.02450E+02-2.23623E+04-5.09999E-10-1.03280E-08
 -1       602-4.13397E+04-1.29639E+04-1.74995E+03-2.48840E+04-1.74191E-09 1.84627E-09
 -1       603-4.32125E+04-1.06683E+04-3.50999E+03-2.23108E+04-3.06704E-09 3.85216E-09
 -1       604-4.35139E+04-1.52204E+04-8.43151E+03-2.47675E+04-2.01726E-09 5.26165E-09
 -1       605-4.16307E+04-1.18206E+04-1.55663E+04-2.11926E+04 9.90440E-10 4.39468E-09
 -1       606 2.65161E+04-9.30395E+03-1.67455E+04 2.58132E+04-2.91402E-09 3.80169E-09
 -1       607 2.36486E+04-3.00474E+03-8.33829E+03 2.89779E+04-2.04454E-09-4.68208E-09
 -1       608 2.52746E+04-5.10050E+02-3.73412E+03 2.56082E+04 8.53106E-10 6.09157E-09
 -1       609 2.49508E+04-1.35487E+02-1.88596E+03 2.92051E+04-3.08773E-09 1.83841E-08
 -1       610 2.51234E+04 2.08609E+01-9.00934E+02 2.55852E+04-7.50151E-09 8.65634E-09
 -1       611 2.50621E+04 3.33066E+01-4.54349E+02 2.92299E+04-1.01691E-08-1.27466E-09
 -1       612 2.50825E+04 3.62232E+01-2.17395E+02 2.55830E+04-1.11195E-08 2.08252E-09
 -1       613 2.50590E+04 4.19430E+01-9.89188E+01 2.92328E+04-1.92667E-08 3.68095E-09
 -1       614 2.50599E+04 3.73292E+01-2.73113E+01 2.55822E+04-7.66886E-09-1.21922E-08
 -1       615 2.50470E+04 4.75761E+01 3.17502E+01 2.92333E+04 3.04863E-09-4.94765E-09
 -1       616 2.50427E+04 4.31768E+01 1.04112E+02 2.55825E+04-5.13955E-09-1.85469E-09
 -1       617 2.50531E+04 7.38223E+01 2.41167E+02 2.92328E+04-1.79716E-09-1.29453E-08
 -1       618 2.50168E+04 1.15816E+02 4.87353E+02 2.55826E+04 5.16138E-10-3.66208E-09
 -1       619 2.52213E+04 4.53245E+02 1.09530E+03 2.92320E+04 3.88241E-10 1.16752E-08
 -1       620 2.48524E+04 1.27402E+03 2.20171E+03 2.55815E+04 7.57609E-10 7.90033E-09
 -1       621 3.22174E+02 2.10962E+05 3.09241E+03 8.51230E+03-1.37868E-09 4.48745E-09
 -1       622 4.18881E+02 2.11740E+05 2.59817E+03 1.26039E+04-7.49310E-10 3.51770E-09
 -1       623 1.24148E+01 2.11189E+05 2.93495E+03 8.47214E+03-9.82652E-10 7.27005E-09
 -1       624 1.33930E+03 2.12576E+05 5.54050E+03 1.26432E+04-5.19236E-10-1.91062E-09
 -1       625 1.18542E+03 2.10117E+05 9.56802E+03 8.47317E+03-8.80391E-10 4.61841E-09
 -1       626 1.73376E+05 4.74127E+04 3.48804E+03 9.28791E+04-1.63800E-09 1.52795E-10
 -1       627 1.71083E+05 4.90755E+04 1.68081E+03 9.65880E+04 1.79944E-09 1.74092E-08
 -1       628 1.73501E+05 4.57692E+04 7.09914E+02 9.34121E+04 4.07454E-09 9.53241E-09
 -1       629 1.70586E+05 4.86718E+04 3.47951E+02 9.68082E+04 1.65755E-09-1.06343E-09
 -1       630 1.73507E+05 4.56920E+04 1.60848E+02 9.34263E+04 6.82121E-11-3.85978E-09
 -1       631 1.70525E+05 4.86626E+04 8.64946E+01 9.68091E+04-2.39061E-09 5.53470E-10
 -1       632 1.73498E+05 4.56986E+04 5.69247E+01 9.34184E+04-1.02518E-08-8.81062E-09
 -1       633 1.70512E+05 4.86678E+04 6.34334E+01 9.68020E+04-5.89421E-09 6.09589E-10
 -1       634 1.73488E+05 4.56996E+04 1.02479E+02 9.34139E+04 2.29420E-09 2.02294E-09
 -1       635 1.70516E+05 4.86694E+04 2.07666E+02 9.68013E+04 5.70026E-10-2.83808E-09
 -1       636 1.73477E+05 4.56987E+04 4.19359E+02 9.34108E+04-5.67240E-09-9.82163E-09
 -1       637 1.70602E+05 4.87361E+04 9.21662E+02 9.67972E+04 3.95488E-10-4.63547E-09
 -1       638 1.73441E+05 4.59041E+04 1.89410E+03 9.33163E+04 5.29417E-09-3.20279E-09
 -1       639 1.71593E+05 5.01211E+04 4.48090E+03 9.65028E+04-1.50339E-09-1.03646E-08
 -1       640 1.73309E+05 5.00290E+04 9.29892E+03 9.15657E+04-1.86446E-11-6.70434E-09
 -1       656 4.66632E+04-1.18217E+06-1.12645E+05-3.82978E+02-8.00355E-11-3.29862E-09
 -1       657-6.16687E+04-1.23302E+06-9.31748E+04 7.35589E+03-4.72937E-11 8.76107E-09
 -1       658 1.48051E+04-1.19667E+06-5.71989E+04-1.54666E+03 8.92896E-10 9.45590E-09
 -1       659-6.61816E+04-1.23516E+06-9.91024E+04 8.14685E+03 8.01265E-10-4.38705E-09
 -1       660 5.11654E+04-1.18004E+06-1.22840E+05-1.17392E+03-1.45519E-11 6.43037E-09
 -1       661 1.61872E+05 1.75912E+04 1.56296E+04 6.32772E+04 3.90173E-09 2.52658E-09
 -1       662 1.70076E+05 2.97868E+04 1.05318E+04 6.04880E+04 2.63583E-09-2.54806E-09
 -1       663 1.64936E+05 2.26098E+04 3.68407E+03 6.23921E+04 1.39778E-09-3.29692E-11
 -1       664 1.66530E+05 2.39127E+04 2.20270E+03 6.15645E+04 6.09930E-10 1.05117E-08
 -1       665 1.65396E+05 2.33003E+04 8.68898E+02 6.22629E+04-2.49173E-09 1.73034E-09
 -1       666 1.65990E+05 2.31190E+04 5.06845E+02 6.17303E+04-5.63767E-09 2.61551E-10
 -1       667 1.65473E+05 2.33828E+04 2.67374E+02 6.22341E+04 1.42663E-09 1.56781E-09
 -1       668 1.65908E+05 2.30543E+04 2.68212E+02 6.17717E+04 4.41264E-09 1.02788E-08
 -1       669 1.65478E+05 2.33631E+04 3.59657E+02 6.22222E+04 1.99445E-09 4.31197E-09
 -1       670 1.65998E+05 2.32448E+04 7.79920E+02 6.17712E+04 4.24347E-09-2.92729E-09
 -1       671 1.65383E+05 2.31961E+04 1.38373E+03 6.22331E+04-1.73531E-09 2.26134E-09
 -1       672 1.66805E+05 2.45901E+04 3.53937E+03 6.15755E+04-1.72878E-09 2.95472E-09
 -1       673 1.64675E+05 2.20517E+04 5.93110E+03 6.24049E+04-2.08911E-09-3.63229E-09
 -1       674 1.72453E+05 3.41165E+04 1.69617E+04 5.99145E+04-5.65592E-10-1.62936E-09
 -1       675 1.59772E+05 1.39360E+04 2.51765E+04 6.37937E+04 3.14094E-09-2.84854E-09
 -1       676 1.88045E+01-2.24936E+05-8.73137E+02 3.39482E+01-3.27134E-11-1.52261E-09
 -1       677-2.31778E+02-2.25147E+05-1.59794E+03-6.78622E+01-2.09241E-09-4.23922E-09
 -1       678 1.54785E+02-2.24785E+05-2.82473E+03 3.38906E+01 1.50078E-09 4.90132E-09
 -1       679-2.82536E+03-2.26852E+05-6.71017E+03-6.76385E+01-1.05047E-09 1.36672E-08
 -1       680 1.68620E+03-2.23231E+05-1.08145E+04 3.33373E+01-1.36424E-11 4.43553E-09
 -1       771-2.40608E+06-4.43678E+05-6.31965E+04-1.02261E+06-1.25438E-08-9.12405E-09
 -1       772-2.38412E+06-4.81079E+05-3.36387E+04-1.06466E+06-9.83709E-09 3.79987E-09
 -1       773-2.41571E+06-4.36127E+05-1.50210E+04-1.02617E+06-6.06815E-09 4.61296E-09
 -1       774-2.37571E+06-4.74085E+05-7.17482E+03-1.07014E+06 9.19681E-09-1.19326E-09
 -1       775-2.41870E+06-4.34075E+05-3.98491E+03-1.02669E+06-4.55475E-09 1.53523E-09
 -1       776-2.37623E+06-4.74134E+05-1.73773E+03-1.07350E+06-1.98634E-09 2.27010E-09
 -1       777-2.42097E+06-4.32399E+05-1.30767E+03-1.02708E+06 2.83762E-10 2.00271E-09
 -1       778-2.37724E+06-4.74351E+05-4.95638E+02-1.07633E+06-1.08776E-09 5.44787E-10
 -1       779-2.42283E+06-4.30974E+05-5.90026E+02-1.02743E+06-3.65981E-09-2.93221E-09
 -1       780-2.37818E+06-4.74515E+05-2.92643E+02-1.07861E+06-3.97995E-09 1.00044E-11
 -1       781-2.42426E+06-4.29841E+05-5.39461E+02-1.02770E+06-9.81527E-09-1.13687E-09
 -1       782-2.37897E+06-4.74655E+05-7.56390E+02-1.08029E+06-1.52486E-08-7.15136E-09
 -1       783-2.42519E+06-4.29084E+05-1.52907E+03-1.02787E+06-3.17232E-09-5.98538E-09
 -1       784-2.38032E+06-4.75656E+05-3.52186E+03-1.08127E+06-6.47469E-09-2.39652E-10
 -1       785-2.42504E+06-4.29169E+05-6.53346E+03-1.02750E+06-1.30749E-08 1.80171E-09
 -1       786 1.66065E+05-9.23279E+03 2.13603E+04-3.87956E+01 5.79059E-06 3.01188E-08
 -1       787 1.75321E+05 1.06887E+04 1.51119E+04 9.31520E+00 1.15364E-05 2.69092E-08
 -1       788 1.69636E+05-1.44734E+03 5.52840E+03-2.80320E+01 1.06556E-05-7.18956E-09
 -1       789 1.71161E+05 1.67463E+03 3.47325E+03-9.03159E+00 9.75001E-06 2.69688E-08
 -1       790 1.70225E+05-2.26067E+02 1.41263E+03-2.04500E+01 9.17809E-06-1.33600E-08
 -1       791 1.70473E+05 2.62472E+02 8.28155E+02-2.37468E+01 8.59795E-06 1.73811E-08
 -1       792 1.70324E+05-3.62431E+01 3.75522E+02-1.33167E+01 4.30265E-06-1.20006E-08
 -1       793 1.70361E+05 4.97104E+01 2.41091E+02-3.96483E+01 1.32318E-08-3.10932E-09
 -1       794 1.70337E+05-1.34438E+01 1.70969E+02-4.54828E+00 9.85885E-10 3.40127E-09
 -1       795 1.70368E+05 6.64567E+01 2.36292E+02-6.12829E+01-1.12258E-09 1.36379E-08
 -1       796 1.70317E+05-5.29735E+01 3.47281E+02 8.31833E+00 6.98389E-10 1.85952E-09
 -1       797 1.70524E+05 3.87668E+02 8.13339E+02-9.47176E+01-5.51891E-10-5.16934E-10
 -1       798 1.70181E+05-3.34421E+02 1.28202E+03 2.88870E+01 4.11307E-11 9.01139E-10
 -1       799 1.71485E+05 2.46916E+03 3.49348E+03-1.49543E+02-2.57866E-10-1.30512E-09
 -1       800 1.69355E+05-2.13279E+03 4.93421E+03 6.31443E+01-1.52109E-10 1.40244E-09
 -1       801 1.98988E+04-9.13369E+05-7.63119E+04 2.47924E+04 1.25292E-08-6.67478E-09
 -1       802-1.51775E+04-7.91474E+05-7.55391E+03-7.16568E+04 3.31565E-08-6.15137E-09
 -1       803-4.23433E+03-8.53393E+05 2.67794E+04 4.64849E+04 2.63062E-08 2.12018E-08
 -1       804 8.74408E+04-7.31711E+05 1.27669E+05-6.62993E+04 3.01734E-08 2.42404E-08
 -1       805-8.30339E+04-9.72611E+05 1.49298E+05 1.94292E+04 1.09212E-08 2.19341E-08
 -1       806-2.10332E+05-4.37445E+04-1.73164E+04-8.62084E+04-1.40062E-09-4.43288E-09
 -1       807-2.11477E+05-4.11387E+04-8.50725E+03-9.06553E+04 4.26598E-09 8.20222E-09
 -1       808-2.10816E+05-3.74960E+04-3.60879E+03-8.91530E+04-1.87629E-09-5.40771E-09
 -1       809-2.09669E+05-3.87683E+04-1.76432E+03-9.08900E+04 3.47802E-09-8.34802E-09
 -1       810-2.10891E+05-3.72764E+04-8.07977E+02-8.92830E+04 4.85306E-09-2.78942E-09
 -1       811-2.09530E+05-3.86742E+04-4.00889E+02-9.08676E+04 4.31419E-09 9.13292E-09
 -1       812-2.10904E+05-3.72934E+04-2.00496E+02-8.92826E+04 3.04090E-09 7.41920E-09
 -1       813-2.09512E+05-3.86764E+04-1.27060E+02-9.08559E+04-3.37195E-10-8.29709E-09
 -1       814-2.10901E+05-3.72998E+04-1.20240E+02-8.92798E+04 1.05319E-09 6.84395E-11
 -1       815-2.09514E+05-3.86784E+04-1.89066E+02-9.08522E+04 1.85742E-09-1.90175E-09
 -1       816-2.10888E+05-3.72987E+04-3.54921E+02-8.92772E+04-3.44926E-09-1.03091E-09
 -1       817-2.09574E+05-3.87124E+04-7.60976E+02-9.08453E+04-2.47383E-10 1.05747E-08
 -1       818-2.10842E+05-3.74056E+04-1.55109E+03-8.92266E+04 8.32188E-10-1.92995E-09
 -1       819-2.10429E+05-3.96448E+04-3.65030E+03-9.06394E+04-1.42109E-09-2.90675E-09
 -1       820-2.10549E+05-4.01641E+04-7.42916E+03-8.80484E+04 2.63208E-09 7.05768E-09
 -1       821-2.70185E+05 1.49696E+04-3.46196E+04 1.53165E+02 1.36187E-10-1.98997E-09
 -1       822-2.85187E+05-1.73299E+04-2.44984E+04-7.56856E+02-1.95631E-09-8.69022E-10
 -1       823-2.75975E+05 2.34699E+03-8.96647E+03 1.34946E+02 8.02480E-10-4.26371E-09
 -1       824-2.78433E+05-2.71643E+03-5.64130E+03-6.00317E+02-4.90070E-11-4.85363E-09
 -1       825-2.76937E+05 3.67235E+02-2.31950E+03-3.37815E+00-2.12037E-09-2.02044E-09
 -1       826-2.77312E+05-4.33001E+02-1.39843E+03-2.61506E+02-4.65922E-09 3.23347E-09
 -1       827-2.77095E+05 6.49846E+01-7.25850E+02-2.03870E+02-4.15685E-09 5.84131E-09
 -1       828-2.77161E+05-1.32027E+02-6.39606E+02 1.20164E+02-4.79744E-09 3.88432E-09
 -1       829-2.77087E+05 6.65435E+01-7.36746E+02-3.85055E+02-7.86962E-11 1.05021E-09
 -1       830-2.77336E+05-4.44669E+02-1.43744E+03 3.89515E+02 1.87221E-09 2.17187E-09
 -1       831-2.76920E+05 3.77690E+02-2.38127E+03-4.73227E+02-2.51162E-09 3.13776E-10
 -1       832-2.78482E+05-2.79274E+03-5.80269E+03 4.37577E+02-2.36811E-09 1.08785E-08
 -1       833-2.75942E+05 2.41299E+03-9.22136E+03-4.33117E+02-1.11429E-09-9.20409E-10
 -1       834-2.85406E+05-1.78210E+04-2.51927E+04 2.46430E+02-1.30961E-09 8.86303E-10
 -1       835-2.69998E+05 1.53941E+04-3.56069E+04-2.82069E+02 5.96255E-09 2.43926E-09
 -1       836-8.94990E+02 2.53762E+05 1.52542E+04-2.08938E+04 1.14414E-09 6.02722E-09
 -1       837 3.35358E+03 2.58489E+05 1.30447E+04-4.19685E+04 1.77602E-09-7.20433E-10
 -1       838-3.31305E+02 2.55071E+05 1.34808E+04-2.08219E+04 1.68211E-09 5.16968E-09
 -1       839 8.66054E+03 2.62444E+05 2.56881E+04-4.19968E+04 2.26419E-09 1.16323E-08
 -1       840-2.60642E+03 2.49770E+05 4.10415E+04-2.08640E+04 1.44973E-09-1.48566E-09
 -1       856-7.93698E+04 7.06443E+03-1.86167E+04-4.14163E+02-3.75678E-09 1.55342E-09
 -1       857-8.70592E+04-8.28582E+03-1.28171E+04 4.28916E+03-1.90857E-09-1.34605E-10
 -1       858-8.24080E+04 9.89834E+02-4.83153E+03-4.33778E+02-3.36684E-09-3.32670E-09
 -1       859-8.35704E+04-1.15095E+03-2.91791E+03 4.32041E+03-2.00743E-10-8.95625E-10
 -1       860-8.28622E+04 1.37654E+02-1.22663E+03-4.45531E+02 1.37305E-09-6.84997E-09
 -1       861-8.30473E+04-1.52000E+02-6.82684E+02 4.33649E+03-3.41097E-09-4.16063E-09
 -1       862-8.29329E+04 1.82011E+01-2.99606E+02-4.49890E+02 6.70752E-09-1.89956E-09
 -1       863-8.29634E+04-1.06953E+01-1.45058E+02 4.33846E+03 1.26341E-08 1.51690E-09
 -1       864-8.29463E+04-5.38616E-01-3.92859E+01-4.47510E+02 4.02416E-09-6.69589E-09
 -1       865-8.29368E+04 2.49132E+01 4.47466E+01 4.32644E+03 3.57959E-09-3.04016E-09
 -1       866-8.29581E+04-1.78273E+01 1.31680E+02-4.37866E+02-1.60568E-09 1.36718E-09
 -1       867-8.28638E+04 1.49156E+02 3.50830E+02 4.30026E+03 2.99127E-09 3.28831E-09
 -1       868-8.30163E+04-1.23756E+02 5.89321E+02-4.21327E+02 1.38937E-09-3.09652E-09
 -1       869-8.24236E+04 1.02704E+03 1.57911E+03 4.25694E+03 4.17799E-10-8.56630E-10
 -1       870-8.33935E+04-8.73648E+02 2.29020E+03-3.94551E+02-2.22542E-10-1.74816E-09
 -1       871-3.97173E+03-8.58543E+03-1.29076E+04 8.48746E+04 2.68301E-09 1.87356E-10
 -1       872-1.72111E+03-1.14784E+04-5.26796E+03 1.10035E+05 4.28963E-09-1.96451E-09
 -1       873-3.53683E+01-1.01275E+04 7.35025E+02 8.46880E+04 1.03637E-09 2.78499E-09
 -1       874 1.97934E+03-8.26037E+03 7.28276E+03 1.10074E+05 4.21232E-09-1.84048E-09
 -1       875 4.68057E+03-1.18554E+04 1.61614E+04 8.48440E+04 1.27602E-09-5.71117E-09
 -1       876 2.10139E+05 3.61737E+04 1.12078E+04 8.52168E+04-2.66095E-09-2.64572E-09
 -1       877 2.10785E+05 3.86291E+04 5.98524E+03 8.85258E+04-3.73348E-09 3.56340E-09
 -1       878 2.11186E+05 3.49334E+04 2.50753E+03 8.61372E+04 6.30735E-09 3.46336E-09
 -1       879 2.09260E+05 3.71107E+04 1.24915E+03 8.86049E+04 4.09136E-09-1.23782E-09
 -1       880 2.11263E+05 3.49196E+04 5.81572E+02 8.61747E+04 6.49857E-09-5.09084E-09
 -1       881 2.09159E+05 3.70461E+04 3.09821E+02 8.85889E+04 5.45970E-09-7.52564E-10
 -1       882 2.11270E+05 3.49289E+04 1.96926E+02 8.61758E+04 8.49457E-09 1.11188E-09
 -1       883 2.09152E+05 3.70431E+04 2.09635E+02 8.85843E+04 3.89736E-09-1.25715E-09
 -1       884 2.11266E+05 3.49265E+04 3.31604E+02 8.61759E+04 3.94107E-09 5.54445E-09
 -1       885 2.09178E+05 3.70478E+04 6.65539E+02 8.85926E+04 1.04075E-08 4.90240E-09
 -1       886 2.11240E+05 3.49071E+04 1.34082E+03 8.61733E+04 8.14819E-09-6.79745E-09
 -1       887 2.09414E+05 3.72022E+04 2.92865E+03 8.86265E+04-8.02942E-10-1.67631E-09
 -1       888 2.11055E+05 3.49397E+04 5.90128E+03 8.60795E+04 4.00448E-09 2.66709E-09
 -1       889 2.12930E+05 4.08532E+04 1.40977E+04 8.85152E+04 1.17826E-09 2.63367E-09
 -1       890 2.08651E+05 3.77957E+04 2.64038E+04 8.38282E+04-3.68277E-09-2.18552E-08
 -1       891-1.30226E+02-1.19218E+05-1.41167E+03 2.24587E+04-3.02066E-10-1.51067E-09
 -1       892-2.26854E+02-1.19556E+05-1.53411E+03 3.39876E+04-9.26775E-10-6.02097E-09
 -1       893-3.66201E+01-1.19262E+05-2.19065E+03 2.24631E+04 1.94268E-09-4.68390E-11
 -1       894-1.19660E+03-1.20395E+05-4.54735E+03 3.38665E+04-6.45286E-10 1.66187E-09
 -1       895-9.35791E+02-1.18315E+05-8.01301E+03 2.25782E+04 1.10640E-09-3.20779E-09
 -1       956-2.64588E+05-3.79517E+03-9.55278E+03 1.76366E+04-8.07358E-09 5.79348E-10
 -1       957-2.66475E+05-1.28039E+03-4.90401E+03 2.12385E+04-1.10799E-08 3.91628E-09
 -1       958-2.65436E+05-1.02146E+02-2.20940E+03 1.75232E+04-2.60115E-09-2.68096E-09
 -1       959-2.65586E+05-1.75351E+01-1.12851E+03 2.13614E+04 2.72621E-10-5.28507E-09
 -1       960-2.65512E+05 3.19003E+01-5.50096E+02 1.75124E+04-3.27100E-09 2.75668E-09
 -1       961-2.65522E+05 3.01865E+01-2.91714E+02 2.13738E+04-6.22822E-09 6.02085E-10
 -1       962-2.65527E+05 2.81706E+01-1.66692E+02 1.75108E+04-3.97222E-09 4.53201E-09
 -1       963-2.65519E+05 3.14756E+01-1.33283E+02 2.13760E+04-4.05907E-09 1.90403E-09
 -1       964-2.65531E+05 3.01008E+01-1.61150E+02 1.75101E+04-1.31001E-09-2.38219E-09
 -1       965-2.65529E+05 3.44000E+01-2.77918E+02 2.13761E+04 1.64479E-09-2.79681E-09
 -1       966-2.65522E+05 3.76007E+01-5.21383E+02 1.75107E+04-1.99179E-09-4.72323E-09
 -1       967-2.65598E+05-6.69183E+00-1.06920E+03 2.13692E+04-1.02659E-09 6.00005E-09
 -1       968-2.65456E+05-8.55064E+01-2.09231E+03 1.75171E+04 4.93401E-10-1.91764E-09
 -1       969-2.66446E+05-1.19946E+03-4.64554E+03 2.12945E+04 1.65005E-09-2.02459E-09
 -1       970-2.64658E+05-3.58148E+03-9.04851E+03 1.75878E+04-7.41238E-11-3.91810E-09
 -1       971-2.50533E+05-1.31707E+03-7.32356E+03 1.21407E+04-5.17048E-09-7.84809E-10
 -1       972-2.52314E+05-9.43932E+02-3.98843E+03 1.69563E+04-4.35307E-09 3.15708E-09
 -1       973-2.51347E+05-8.38050E+00-1.78589E+03 1.20395E+04-6.35964E-09 5.99357E-10
 -1       974-2.51471E+05-8.21622E+00-9.25207E+02 1.70656E+04-6.77846E-09-4.22210E-09
 -1       975-2.51410E+05 2.57264E+01-4.61407E+02 1.20304E+04-4.78531E-09 3.06159E-10
 -1       976-2.51420E+05 2.99784E+01-2.64347E+02 1.70766E+04-2.34763E-10-8.01720E-09
 -1       977-2.51422E+05 2.54149E+01-1.88499E+02 1.20284E+04 8.27640E-11-5.20686E-10
 -1       978-2.51423E+05 3.41548E+01-2.16033E+02 1.70795E+04 7.35201E-09 3.96312E-10
 -1       979-2.51421E+05 3.11916E+01-3.43158E+02 1.20275E+04 3.59489E-09-2.26009E-10
 -1       980-2.51448E+05 3.62441E+01-6.60128E+02 1.70799E+04 4.95243E-09-2.47178E-09
 -1       981-2.51400E+05 4.76365E+01-1.27720E+03 1.20279E+04 3.59773E-09-3.64020E-09
 -1       982-2.51624E+05-5.79754E+01-2.63921E+03 1.70749E+04 1.04001E-09 3.57917E-09
 -1       983-2.51240E+05-3.39165E+01-5.12758E+03 1.20328E+04 1.95337E-09 1.20244E-08
 -1       984-2.54090E+05-2.73552E+03-1.14824E+04 1.70063E+04-1.09139E-11 1.00345E-08
 -1       985-2.48919E+05-3.78579E+03-2.10854E+04 1.21012E+04 3.12502E-09-2.70211E-09
 -3
    1PSTEP                        11           6           1          
  100CL  106 5.39062E-01         409                     0    6           1
 -4  DISP        4    1
 -5  D1          1    2    1    0
 -5  D2          1    2    2    0
 -5  D3          1    2    3    0
 -5  ALL         1    2    0    0    1ALL
 -1         1 1.83159E-04 0.00000E+00 0.00000E+00
 -1         2 1.62690E-04-2.54715E-30 0.00000E+00
 -1         3 1.63621E-04 1.89955E-27 0.00000E+00
 -1         5 1.07194E-04 3.27002E-26-3.30872E-24
 -1         8 1.57747E-04-8.71085E-07 0.00000E+00
 -1         9 1.51555E-04-6.44694E-07 0.00000E+00
 -1        10 1.50558E-04-2.19919E-06 0.00000E+00
 -1        12 1.06930E-04 5.92345E-07-1.65436E-24
 -1        15 1.27429E-04-9.68853E-07 4.13590E-25
 -1        16 1.32473E-04-8.44160E-07 0.00000E+00
 -1        17 1.09269E-04-4.69349E-06 0.00000E+00
 -1        18 1.04968E-04 4.79762E-06 0.00000E+00
 -1        19 1.06137E-04 1.18161E-06 0.00000E+00
 -1        20 1.06282E-04 1.31425E-05 0.00000E+00
 -1        21 1.05687E-04 2.38519E-05 0.00000E+00
 -1        24 2.23271E-05-6.57126E-06 0.00000E+00
 -1        25 1.04895E-04 4.93751E-06 0.00000E+00
 -1        26 1.05797E-04 1.65007E-06 0.00000E+00
 -1        27 1.04156E-04 1.04808E-05 0.00000E+00
 -1        28 1.03688E-04 2.33501E-05 0.00000E+00
 -1        32 0.00000E+00 0.00000E+00 0.00000E+00
 -1        33 1.04211E-04 2.20746E-06 0.00000E+00
 -1        34 1.02611E-04 1.04556E-05 0.00000E+00
 -1        35 1.01103E-04 2.30833E-05 0.00000E+00
 -1        51 1.81510E-04-1.44911E-07 0.00000E+00
 -1        52 1.78450E-04-2.83859E-07 0.00000E+00
 -1        53 1.74256E-04-4.24034E-07 0.00000E+00
 -1        54 1.69216E-04-5.67141E-07 3.30872E-24
 -1        55 1.63616E-04-7.14068E-07 4.75629E-24
 -1        56 1.81555E-04-8.48029E-07 0.00000E+00
 -1        57 1.80037E-04-2.10836E-06-2.64698E-23
 -1        58 1.78625E-04-3.64282E-06 0.00000E+00
 -1        59 1.77258E-04-5.33061E-06-2.64698E-23
 -1        60 1.75896E-04-7.02962E-06 0.00000E+00
 -1        61 1.74484E-04-8.60165E-06 0.00000E+00
 -1        62 1.72976E-04-9.91814E-06-5.29396E-23
 -1        63 1.71328E-04-1.08617E-05-2.64698E-23
 -1        64 1.69508E-04-1.13455E-05 5.29396E-23
 -1        65 1.67490E-04-1.13016E-05 0.00000E+00
 -1        66 1.65264E-04-1.07058E-05-5.29396E-23
 -1        67 1.62831E-04-9.55590E-06-2.64698E-23
 -1        68 1.60207E-04-7.89651E-06 5.29396E-23
 -1        69 1.57423E-04-5.78932E-06 0.00000E+00
 -1        70 1.54507E-04-3.34022E-06-2.64698E-23
 -1        86 1.62356E-04-1.00658E-07-3.30872E-24
 -1        87 1.61356E-04-2.02271E-07-1.65436E-24
 -1        88 1.59725E-04-3.04753E-07 3.30872E-24
 -1        89 1.57502E-04-4.11654E-07-3.30872E-24
 -1        90 1.54755E-04-5.18675E-07-1.32349E-23
 -1       121 1.63255E-04-3.63445E-07 1.32349E-23
 -1       122 1.62160E-04-7.27410E-07 6.61744E-24
 -1       123 1.60337E-04-1.09241E-06 0.00000E+00
 -1       124 1.57791E-04-1.45900E-06 6.61744E-24
 -1       125 1.54529E-04-1.82757E-06 1.32349E-23
 -1       191 1.07187E-04 9.87288E-08 0.00000E+00
 -1       192 1.07165E-04 1.97456E-07 0.00000E+00
 -1       193 1.07128E-04 2.96184E-07 0.00000E+00
 -1       194 1.07077E-04 3.94909E-07 0.00000E+00
 -1       195 1.07011E-04 4.93630E-07 3.30872E-24
 -1       251 1.57356E-04 3.86195E-06-1.32349E-23
 -1       252 1.56965E-04 7.92274E-06 0.00000E+00
 -1       253 1.56578E-04 1.10108E-05-1.32349E-23
 -1       254 1.56193E-04 1.28407E-05-6.61744E-24
 -1       255 1.55810E-04 1.33634E-05 0.00000E+00
 -1       256 1.55426E-04 1.25502E-05 0.00000E+00
 -1       257 1.55041E-04 1.06235E-05 0.00000E+00
 -1       258 1.54654E-04 7.82281E-06-6.61744E-24
 -1       259 1.54266E-04 4.55196E-06-1.32349E-23
 -1       260 1.53877E-04 1.22207E-06 0.00000E+00
 -1       261 1.53490E-04-1.74457E-06 1.32349E-23
 -1       262 1.53104E-04-3.93152E-06 6.61744E-24
 -1       263 1.52720E-04-5.06865E-06-1.32349E-23
 -1       264 1.52335E-04-4.90232E-06 0.00000E+00
 -1       265 1.51949E-04-3.42375E-06 1.32349E-23
 -1       266 1.52694E-04-8.99482E-07 6.61744E-24
 -1       267 1.47641E-04-9.14302E-07 0.00000E+00
 -1       268 1.42588E-04-9.29981E-07 1.65436E-24
 -1       269 1.37535E-04-9.43113E-07 0.00000E+00
 -1       270 1.32482E-04-9.56186E-07 4.13590E-25
 -1       271 1.54726E-04 3.08638E-06 0.00000E+00
 -1       272 1.52081E-04 5.91587E-06 1.32349E-23
 -1       273 1.49827E-04 7.71763E-06-5.29396E-23
 -1       274 1.47915E-04 8.58999E-06 2.64698E-23
 -1       275 1.46307E-04 8.65382E-06 5.29396E-23
 -1       276 1.44951E-04 8.04158E-06-2.64698E-23
 -1       277 1.43793E-04 6.89886E-06-5.29396E-23
 -1       278 1.42777E-04 5.38021E-06-2.64698E-23
 -1       279 1.41840E-04 3.64723E-06 0.00000E+00
 -1       280 1.40921E-04 1.86529E-06 0.00000E+00
 -1       281 1.39959E-04 2.00547E-07 5.29396E-23
 -1       282 1.38893E-04-1.18274E-06-2.64698E-23
 -1       283 1.37662E-04-2.12578E-06 0.00000E+00
 -1       284 1.36214E-04-2.47587E-06-1.32349E-23
 -1       285 1.34491E-04-2.09479E-06-2.64698E-23
 -1       301 1.48021E-04-6.92403E-07 6.61744E-24
 -1       302 1.44517E-04-7.17687E-07 0.00000E+00
 -1       303 1.41125E-04-7.41454E-07 0.00000E+00
 -1       304 1.37931E-04-7.65379E-07 3.30872E-24
 -1       305 1.35019E-04-7.90591E-07-1.32349E-23
 -1       306 1.49635E-04-2.24891E-06-5.29396E-23
 -1       307 1.50686E-04-1.21089E-05 2.64698E-23
 -1       308 1.54127E-04-2.85594E-05-5.29396E-23
 -1       309 1.59154E-04-4.95075E-05-2.64698E-23
 -1       310 1.64692E-04-7.19003E-05 0.00000E+00
 -1       311 1.69625E-04-9.25874E-05 0.00000E+00
 -1       312 1.72955E-04-1.08781E-04 0.00000E+00
 -1       313 1.73762E-04-1.18007E-04 0.00000E+00
 -1       314 1.71618E-04-1.19266E-04 0.00000E+00
 -1       315 1.66279E-04-1.12099E-04 0.00000E+00
 -1       316 1.58183E-04-9.78123E-05-5.29396E-23
 -1       317 1.47980E-04-7.81806E-05 0.00000E+00
 -1       318 1.36796E-04-5.60865E-05 5.29396E-23
 -1       319 1.25859E-04-3.45645E-05 0.00000E+00
 -1       320 1.16307E-04-1.65474E-05 0.00000E+00
 -1       336 1.45796E-04-2.60286E-06 0.00000E+00
 -1       337 1.40160E-04-3.01141E-06 0.00000E+00
 -1       338 1.33668E-04-3.42482E-06-1.32349E-23
 -1       339 1.26340E-04-3.84314E-06 0.00000E+00
 -1       340 1.18198E-04-4.26755E-06 6.61744E-24
 -1       406 1.06834E-04 6.91046E-07 0.00000E+00
 -1       407 1.06724E-04 7.89715E-07 0.00000E+00
 -1       408 1.06599E-04 8.88323E-07 0.00000E+00
 -1       409 1.06460E-04 9.86751E-07 1.65436E-24
 -1       410 1.06305E-04 1.08481E-06 3.30872E-24
 -1       521 1.36468E-04-2.11481E-05 0.00000E+00
 -1       522 1.54169E-04-8.29865E-05-5.29396E-23
 -1       523 1.81205E-04-1.76190E-04 0.00000E+00
 -1       524 2.13164E-04-2.87719E-04-5.29396E-23
 -1       525 2.45422E-04-4.00381E-04-1.05879E-22
 -1       526 2.73355E-04-4.96881E-04-5.29396E-23
 -1       527 2.92547E-04-5.63602E-04 0.00000E+00
 -1       528 2.98453E-04-5.89666E-04-5.29396E-23
 -1       529 2.88503E-04-5.73042E-04 1.05879E-22
 -1       530 2.61384E-04-5.15333E-04-5.29396E-23
 -1       531 2.20050E-04-4.26521E-04 0.00000E+00
 -1       532 1.69454E-04-3.18815E-04 5.29396E-23
 -1       533 1.17352E-04-2.08096E-04 0.00000E+00
 -1       534 7.17623E-05-1.10419E-04 0.00000E+00
 -1       535 3.86751E-05-3.93574E-05-5.29396E-23
 -1       536 1.09056E-04 7.98756E-06-6.61744E-24
 -1       537 1.08746E-04 2.73617E-05 0.00000E+00
 -1       538 1.08359E-04 5.06062E-05-3.30872E-24
 -1       539 1.07950E-04 7.48781E-05 0.00000E+00
 -1       540 1.07586E-04 9.70655E-05 0.00000E+00
 -1       541 1.07319E-04 1.14068E-04 0.00000E+00
 -1       542 1.07141E-04 1.24116E-04-3.30872E-24
 -1       543 1.07011E-04 1.25480E-04 0.00000E+00
 -1       544 1.06860E-04 1.18626E-04-3.30872E-24
 -1       545 1.06629E-04 1.04072E-04 0.00000E+00
 -1       546 1.06315E-04 8.42902E-05 0.00000E+00
 -1       547 1.05946E-04 6.17844E-05-1.65436E-24
 -1       548 1.05586E-04 3.97605E-05-3.30872E-24
 -1       549 1.05300E-04 2.14225E-05 0.00000E+00
 -1       550 1.05098E-04 9.02741E-06-1.65436E-24
 -1       551 9.77266E-05-4.96753E-06 0.00000E+00
 -1       552 8.40308E-05-5.26218E-06 1.65436E-24
 -1       553 6.89069E-05-5.57522E-06-6.61744E-24
 -1       554 5.30913E-05-5.90030E-06 0.00000E+00
 -1       555 3.73208E-05-6.22752E-06 0.00000E+00
 -1       556 1.06141E-04 3.39358E-06 0.00000E+00
 -1       557 1.03705E-04 9.70608E-06 1.32349E-23
 -1       558 1.01889E-04 1.43993E-05-2.64698E-23
 -1       559 1.00625E-04 1.76414E-05 0.00000E+00
 -1       560 9.98473E-05 1.96003E-05 0.00000E+00
 -1       561 9.94895E-05 2.04450E-05 0.00000E+00
 -1       562 9.94870E-05 2.03447E-05 0.00000E+00
 -1       563 9.97751E-05 1.94692E-05 0.00000E+00
 -1       564 1.00290E-04 1.79880E-05 0.00000E+00
 -1       565 1.00967E-04 1.60712E-05 0.00000E+00
 -1       566 1.01744E-04 1.38886E-05 0.00000E+00
 -1       567 1.02556E-04 1.16104E-05-3.10193E-25
 -1       568 1.03341E-04 9.40667E-06 0.00000E+00
 -1       569 1.04035E-04 7.44723E-06 0.00000E+00
 -1       570 1.04573E-04 5.90204E-06 0.00000E+00
 -1       571 1.05039E-04 4.59074E-06 0.00000E+00
 -1       572 1.05111E-04 4.33777E-06 4.13590E-25
 -1       573 1.05184E-04 4.04761E-06-1.65436E-24
 -1       574 1.05258E-04 3.72962E-06 8.27181E-25
 -1       575 1.05331E-04 3.39321E-06 0.00000E+00
 -1       576 1.05404E-04 3.04783E-06 8.27181E-25
 -1       577 1.05477E-04 2.70295E-06 0.00000E+00
 -1       578 1.05551E-04 2.36804E-06 1.65436E-24
 -1       579 1.05624E-04 2.05257E-06-3.30872E-24
 -1       580 1.05697E-04 1.76601E-06 0.00000E+00
 -1       581 1.05770E-04 1.51783E-06-3.30872E-24
 -1       582 1.05844E-04 1.31749E-06 0.00000E+00
 -1       583 1.05917E-04 1.17445E-06 0.00000E+00
 -1       584 1.05990E-04 1.09805E-06-6.61744E-24
 -1       585 1.06064E-04 1.09759E-06 0.00000E+00
 -1       586 1.04916E-04 4.82243E-06 0.00000E+00
 -1       587 1.04838E-04 4.84665E-06 0.00000E+00
 -1       588 1.04764E-04 4.87061E-06 0.00000E+00
 -1       589 1.04728E-04 4.89416E-06 0.00000E+00
 -1       590 1.04761E-04 4.91700E-06 0.00000E+00
 -1       591 1.05010E-04 4.63393E-06 1.16322E-25
 -1       592 1.05062E-04 4.43785E-06 0.00000E+00
 -1       593 1.05123E-04 4.21595E-06-4.13590E-25
 -1       594 1.05191E-04 3.97408E-06 4.13590E-25
 -1       595 1.05265E-04 3.71813E-06 0.00000E+00
 -1       596 1.05341E-04 3.45397E-06 0.00000E+00
 -1       597 1.05419E-04 3.18747E-06-8.27181E-25
 -1       598 1.05495E-04 2.92446E-06-2.06795E-25
 -1       599 1.05567E-04 2.67081E-06 0.00000E+00
 -1       600 1.05634E-04 2.43237E-06 0.00000E+00
 -1       601 1.05693E-04 2.21500E-06 4.13590E-25
 -1       602 1.05742E-04 2.02454E-06 1.03398E-25
 -1       603 1.05778E-04 1.86687E-06 0.00000E+00
 -1       604 1.05801E-04 1.74789E-06-1.03398E-25
 -1       605 1.05807E-04 1.67342E-06 0.00000E+00
 -1       606 1.06149E-04 1.43053E-06 0.00000E+00
 -1       607 1.06160E-04 1.77522E-06 0.00000E+00
 -1       608 1.06169E-04 2.21006E-06 0.00000E+00
 -1       609 1.06178E-04 2.72871E-06 0.00000E+00
 -1       610 1.06187E-04 3.32480E-06 0.00000E+00
 -1       611 1.06196E-04 3.99186E-06 0.00000E+00
 -1       612 1.06205E-04 4.72343E-06 0.00000E+00
 -1       613 1.06214E-04 5.51304E-06 0.00000E+00
 -1       614 1.06223E-04 6.35422E-06 0.00000E+00
 -1       615 1.06231E-04 7.24048E-06 0.00000E+00
 -1       616 1.06240E-04 8.16537E-06 0.00000E+00
 -1       617 1.06249E-04 9.12240E-06 0.00000E+00
 -1       618 1.06257E-04 1.01051E-05 0.00000E+00
 -1       619 1.06266E-04 1.11070E-05-4.13590E-25
 -1       620 1.06274E-04 1.21216E-05 0.00000E+00
 -1       621 1.05997E-04 1.25975E-06 1.65436E-24
 -1       622 1.05904E-04 1.33827E-06 8.27181E-25
 -1       623 1.05846E-04 1.41677E-06 0.00000E+00
 -1       624 1.05816E-04 1.49515E-06 8.27181E-25
 -1       625 1.05803E-04 1.57339E-06 1.65436E-24
 -1       626 1.06127E-04 1.45601E-06 3.30872E-24
 -1       627 1.06089E-04 1.80865E-06 1.65436E-24
 -1       628 1.06025E-04 2.23194E-06 0.00000E+00
 -1       629 1.05937E-04 2.71783E-06 1.65436E-24
 -1       630 1.05829E-04 3.25824E-06 0.00000E+00
 -1       631 1.05704E-04 3.84507E-06 0.00000E+00
 -1       632 1.05564E-04 4.47019E-06 0.00000E+00
 -1       633 1.05413E-04 5.12550E-06-1.65436E-24
 -1       634 1.05253E-04 5.80288E-06-3.30872E-24
 -1       635 1.05088E-04 6.49421E-06 0.00000E+00
 -1       636 1.04921E-04 7.19139E-06 0.00000E+00
 -1       637 1.04755E-04 7.88630E-06-8.27181E-25
 -1       638 1.04592E-04 8.57083E-06 0.00000E+00
 -1       639 1.04437E-04 9.23685E-06 0.00000E+00
 -1       640 1.04291E-04 9.87624E-06 0.00000E+00
 -1       656 1.05475E-04 1.27094E-05 6.61744E-24
 -1       657 1.05041E-04 1.22590E-05 0.00000E+00
 -1       658 1.04843E-04 1.18100E-05-1.32349E-23
 -1       659 1.04737E-04 1.13614E-05-3.30872E-24
 -1       660 1.04562E-04 1.09114E-05 0.00000E+00
 -1       661 1.05984E-04 1.41345E-05 0.00000E+00
 -1       662 1.05712E-04 1.50671E-05 8.27181E-25
 -1       663 1.05461E-04 1.59424E-05 1.65436E-24
 -1       664 1.05230E-04 1.67638E-05 8.27181E-25
 -1       665 1.05019E-04 1.75339E-05 0.00000E+00
 -1       666 1.04827E-04 1.82557E-05 0.00000E+00
 -1       667 1.04651E-04 1.89317E-05 1.65436E-24
 -1       668 1.04491E-04 1.95647E-05 0.00000E+00
 -1       669 1.04347E-04 2.01569E-05 1.65436E-24
 -1       670 1.04218E-04 2.07109E-05-8.27181E-25
 -1       671 1.04101E-04 2.12289E-05 1.65436E-24
 -1       672 1.03998E-04 2.17130E-05 8.27181E-25
 -1       673 1.03906E-04 2.21654E-05 1.65436E-24
 -1       674 1.03824E-04 2.25879E-05 0.00000E+00
 -1       675 1.03753E-04 2.29827E-05-4.13590E-25
 -1       676 1.05353E-04 2.37677E-05 0.00000E+00
 -1       677 1.05019E-04 2.36836E-05-1.65436E-24
 -1       678 1.04685E-04 2.35996E-05 3.30872E-24
 -1       679 1.04352E-04 2.35158E-05 0.00000E+00
 -1       680 1.04019E-04 2.34320E-05 0.00000E+00
 -1       771 1.66085E-05 5.22978E-06 0.00000E+00
 -1       772 1.16998E-05 1.49074E-05 0.00000E+00
 -1       773 7.56477E-06 2.25736E-05 0.00000E+00
 -1       774 4.15218E-06 2.83503E-05 0.00000E+00
 -1       775 1.41136E-06 3.23629E-05 0.00000E+00
 -1       776-7.10539E-07 3.47427E-05 2.64698E-23
 -1       777-2.26689E-06 3.56240E-05 5.29396E-23
 -1       778-3.31231E-06 3.51459E-05 0.00000E+00
 -1       779-3.90172E-06 3.34502E-05 0.00000E+00
 -1       780-4.09109E-06 3.06826E-05 2.64698E-23
 -1       781-3.93646E-06 2.69907E-05 5.29396E-23
 -1       782-3.49473E-06 2.25255E-05-1.32349E-23
 -1       783-2.82280E-06 1.74390E-05 2.64698E-23
 -1       784-1.97812E-06 1.18856E-05-1.32349E-23
 -1       785-1.01813E-06 6.02053E-06-2.64698E-23
 -1       786 1.04948E-04 4.59409E-06 0.00000E+00
 -1       787 1.05004E-04 4.27662E-06-4.13590E-25
 -1       788 1.05060E-04 3.98065E-06-1.65436E-24
 -1       789 1.05116E-04 3.70178E-06 0.00000E+00
 -1       790 1.05173E-04 3.43785E-06 0.00000E+00
 -1       791 1.05230E-04 3.18671E-06 0.00000E+00
 -1       792 1.05287E-04 2.94792E-06 0.00000E+00
 -1       793 1.05343E-04 2.72105E-06 0.00000E+00
 -1       794 1.05400E-04 2.50723E-06 0.00000E+00
 -1       795 1.05457E-04 2.30762E-06 0.00000E+00
 -1       796 1.05514E-04 2.12526E-06 1.65436E-24
 -1       797 1.05571E-04 1.96321E-06-8.27181E-25
 -1       798 1.05627E-04 1.82720E-06 1.65436E-24
 -1       799 1.05684E-04 1.72302E-06-8.27181E-25
 -1       800 1.05741E-04 1.66062E-06 1.65436E-24
 -1       801 9.76357E-05 4.30500E-06 1.32349E-23
 -1       802 7.51557E-05 3.43124E-06-6.61744E-24
 -1       803 4.61914E-05 2.40850E-06-1.32349E-23
 -1       804 1.96650E-05 1.44272E-06 0.00000E+00
 -1       805 2.15680E-06 6.58606E-07-2.64698E-23
 -1       806 1.04940E-04 4.54472E-06 1.65436E-24
 -1       807 1.04976E-04 4.16501E-06 8.27181E-25
 -1       808 1.05005E-04 3.80267E-06-1.65436E-24
 -1       809 1.05026E-04 3.46113E-06 8.27181E-25
 -1       810 1.05038E-04 3.14383E-06-1.65436E-24
 -1       811 1.05039E-04 2.85411E-06-8.27181E-25
 -1       812 1.05029E-04 2.59532E-06 0.00000E+00
 -1       813 1.05006E-04 2.37081E-06 0.00000E+00
 -1       814 1.04968E-04 2.18390E-06-3.30872E-24
 -1       815 1.04916E-04 2.03793E-06 0.00000E+00
 -1       816 1.04847E-04 1.93621E-06 0.00000E+00
 -1       817 1.04760E-04 1.88208E-06 8.27181E-25
 -1       818 1.04654E-04 1.87884E-06-1.65436E-24
 -1       819 1.04528E-04 1.92980E-06 8.27181E-25
 -1       820 1.04380E-04 2.03826E-06 1.65436E-24
 -1       821 1.05700E-04 1.62897E-06 0.00000E+00
 -1       822 1.05598E-04 1.53615E-06 8.27181E-25
 -1       823 1.05496E-04 1.44075E-06 0.00000E+00
 -1       824 1.05392E-04 1.41191E-06 1.65436E-24
 -1       825 1.05289E-04 1.50458E-06 3.30872E-24
 -1       826 1.05186E-04 1.77317E-06 1.65436E-24
 -1       827 1.05082E-04 2.23468E-06-3.30872E-24
 -1       828 1.04978E-04 2.90523E-06 1.65436E-24
 -1       829 1.04874E-04 3.75651E-06 0.00000E+00
 -1       830 1.04770E-04 4.75936E-06 0.00000E+00
 -1       831 1.04666E-04 5.85243E-06 0.00000E+00
 -1       832 1.04562E-04 6.97392E-06 0.00000E+00
 -1       833 1.04458E-04 8.05600E-06 3.30872E-24
 -1       834 1.04356E-04 9.03103E-06-8.27181E-25
 -1       835 1.04253E-04 9.85403E-06 8.27181E-25
 -1       836 1.05691E-04 1.74286E-06 0.00000E+00
 -1       837 1.05471E-04 1.83772E-06 0.00000E+00
 -1       838 1.05175E-04 1.93241E-06 1.65436E-24
 -1       839 1.04841E-04 2.02649E-06-8.27181E-25
 -1       840 1.04507E-04 2.12041E-06-4.13590E-25
 -1       856 1.04130E-04 1.10686E-05 0.00000E+00
 -1       857 1.04102E-04 1.17676E-05 2.06795E-25
 -1       858 1.04073E-04 1.25602E-05 8.27181E-25
 -1       859 1.04043E-04 1.34291E-05 4.13590E-25
 -1       860 1.04014E-04 1.43564E-05 0.00000E+00
 -1       861 1.03984E-04 1.53245E-05-4.13590E-25
 -1       862 1.03955E-04 1.63157E-05 0.00000E+00
 -1       863 1.03925E-04 1.73122E-05-4.13590E-25
 -1       864 1.03895E-04 1.82962E-05-8.27181E-25
 -1       865 1.03865E-04 1.92500E-05 0.00000E+00
 -1       866 1.03836E-04 2.01559E-05-8.27181E-25
 -1       867 1.03806E-04 2.09961E-05 0.00000E+00
 -1       868 1.03777E-04 2.17531E-05 8.27181E-25
 -1       869 1.03747E-04 2.24093E-05 4.13590E-25
 -1       870 1.03718E-04 2.29474E-05 0.00000E+00
 -1       871 1.03783E-04 1.04797E-05 0.00000E+00
 -1       872 1.03521E-04 1.04763E-05 0.00000E+00
 -1       873 1.03321E-04 1.04725E-05 0.00000E+00
 -1       874 1.03135E-04 1.04682E-05 1.03398E-25
 -1       875 1.02914E-04 1.04633E-05-4.13590E-25
 -1       876 1.04035E-04 1.10785E-05-3.30872E-24
 -1       877 1.03895E-04 1.17303E-05 1.65436E-24
 -1       878 1.03738E-04 1.24296E-05-3.30872E-24
 -1       879 1.03565E-04 1.31705E-05 0.00000E+00
 -1       880 1.03380E-04 1.39466E-05 3.30872E-24
 -1       881 1.03183E-04 1.47521E-05 1.65436E-24
 -1       882 1.02978E-04 1.55808E-05-3.30872E-24
 -1       883 1.02766E-04 1.64267E-05 1.65436E-24
 -1       884 1.02550E-04 1.72837E-05-3.30872E-24
 -1       885 1.02332E-04 1.81457E-05 0.00000E+00
 -1       886 1.02114E-04 1.90068E-05 0.00000E+00
 -1       887 1.01899E-04 1.98609E-05 0.00000E+00
 -1       888 1.01689E-04 2.07018E-05 1.65436E-24
 -1       889 1.01485E-04 2.15235E-05 0.00000E+00
 -1       890 1.01290E-04 2.23198E-05-8.27181E-25
 -1       891 1.03377E-04 2.33055E-05-8.27181E-25
 -1       892 1.03048E-04 2.32607E-05 0.00000E+00
 -1       893 1.02677E-04 2.32159E-05-8.27181E-25
 -1       894 1.02244E-04 2.31712E-05-4.13590E-25
 -1       895 1.01726E-04 2.31266E-05 2.06795E-25
 -1       956 1.04113E-04 2.50150E-06-1.65436E-24
 -1       957 1.04013E-04 2.85850E-06-8.27181E-25
 -1       958 1.03913E-04 3.27165E-06-3.30872E-24
 -1       959 1.03813E-04 3.73374E-06 0.00000E+00
 -1       960 1.03713E-04 4.23756E-06 1.65436E-24
 -1       961 1.03612E-04 4.77585E-06-1.65436E-24
 -1       962 1.03512E-04 5.34133E-06 0.00000E+00
 -1       963 1.03411E-04 5.92675E-06-1.65436E-24
 -1       964 1.03311E-04 6.52483E-06 0.00000E+00
 -1       965 1.03211E-04 7.12829E-06 1.65436E-24
 -1       966 1.03110E-04 7.72988E-06 0.00000E+00
 -1       967 1.03010E-04 8.32231E-06 0.00000E+00
 -1       968 1.02909E-04 8.89831E-06 0.00000E+00
 -1       969 1.02809E-04 9.45064E-06 0.00000E+00
 -1       970 1.02710E-04 9.97207E-06 0.00000E+00
 -1       971 1.02518E-04 1.09569E-05-1.65436E-24
 -1       972 1.02424E-04 1.15403E-05 8.27181E-25
 -1       973 1.02329E-04 1.21968E-05-3.30872E-24
 -1       974 1.02234E-04 1.29170E-05 8.27181E-25
 -1       975 1.02140E-04 1.36913E-05 0.00000E+00
 -1       976 1.02045E-04 1.45105E-05 0.00000E+00
 -1       977 1.01950E-04 1.53650E-05-3.30872E-24
 -1       978 1.01855E-04 1.62453E-05 1.65436E-24
 -1       979 1.01760E-04 1.71421E-05-3.30872E-24
 -1       980 1.01665E-04 1.80458E-05 1.65436E-24
 -1       981 1.01570E-04 1.89469E-05 3.30872E-24
 -1       982 1.01476E-04 1.98360E-05 1.65436E-24
 -1       983 1.01381E-04 2.07036E-05-3.30872E-24
 -1       984 1.01287E-04 2.15403E-05 0.00000E+00
 -1       985 1.01193E-04 2.23366E-05 1.65436E-24
 -3
    1PSTEP                        12           6           1          
  100CL  106 5.39062E-01         409                     0    6           1
 -4  STRESS      6    1
 -5  SXX         1    4    1    1
 -5  SYY         1    4    2    2
 -5  SZZ         1    4    3    3
 -5  SXY         1    4    1    2
 -5  SYZ         1    4    2    3
 -5  SZX         1    4    3    1
 -1         1-2.25489E+06-9.61382E+05-4.76661E+05-1.24200E+06-2.47383E-10 6.08270E-09
 -1         2 2.61630E+03-2.84284E+05 8.52810E+03-8.14909E+02-7.25322E-11 9.63371E-09
 -1         3-2.35135E+02-1.03727E+06 2.48916E+02-5.99553E+02-2.55380E-10-1.72258E-09
 -1         5-2.27964E+00 2.82490E+05 7.26720E+00 9.53213E-02 4.62861E-11 2.09043E-08
 -1         8-1.07864E+06-3.95311E+05-1.02985E+05-5.57651E+05 5.45697E-10 7.00675E-09
 -1         9-2.17560E+06-7.10359E+05-2.71151E+05-6.72821E+05 5.52391E-09-2.15368E-09
 -1        10-9.26776E+02-1.08063E+06-1.48288E+03-4.05719E+03-5.62159E-09-4.14070E-08
 -1        12 7.01770E-01 2.82505E+05 2.35337E+02 7.54764E-01 1.43469E-10 1.77679E-08
 -1        15 2.00530E+03 1.10203E+03 6.48211E+03 4.38186E+00-1.68313E-10-2.15673E-08
 -1        16-2.84380E+06-1.24724E+06-4.62592E+05-1.32291E+06 1.10401E-08 9.48785E-09
 -1        17-1.27163E+06-7.17050E+05-2.45225E+05-6.36624E+05-5.62577E-09 1.10595E-10
 -1        18-4.02502E+04-1.46255E+04-3.18431E+04-7.35069E+04 5.16332E-09 6.23459E-10
 -1        19 8.98777E+04 1.05879E+05-4.93967E+02 1.75079E+04-4.58203E-10-1.31193E-08
 -1        20-4.23269E+04-4.24249E+05-9.39255E+04 2.86647E+04 2.44654E-09-1.08472E-09
 -1        21-3.90452E+01-2.40693E+05-7.72296E+02-5.51526E+01-3.13850E-09 1.65337E-08
 -1        24-3.10118E+06-7.88135E+05-3.53303E+05-1.12242E+06-3.86838E-08-1.86653E-08
 -1        25-5.13648E+04-3.63029E+05-6.63923E+04-1.20022E+05 2.57387E-11 2.51566E-09
 -1        26-2.70654E+04 7.07970E+04-1.57380E+04-7.37261E+03 1.49084E-09 1.57359E-09
 -1        27-6.50456E+04-2.31830E+05-8.66147E+04 5.23184E+04 5.65812E-09-3.08925E-09
 -1        28 1.85677E+04-6.70499E+04 1.36323E+04 2.03985E+04 3.07531E-09-8.65571E-09
 -1        32-1.07968E+06-1.02288E+06 1.82600E+05-5.74653E+05-2.40107E-08 8.73581E-09
 -1        33-1.34290E+05 6.74282E+04 2.40141E+04-3.58439E+04 5.83289E-10 1.03952E-08
 -1        34-1.71694E+05-1.73179E+04 4.29429E+02 5.36681E+04 3.07395E-09-2.17824E-09
 -1        35-1.89020E+04-2.66391E+04-1.04820E+03 4.19311E+04 4.32691E-09-8.73115E-10
 -1        51 2.08110E+04-3.54720E+05 5.09686E+04-9.67206E+05 1.60071E-10 9.72068E-09
 -1        52 1.13127E+04-3.51462E+05 3.19618E+04-1.12801E+06 7.42148E-10 1.40280E-08
 -1        53 7.34837E+03-3.66012E+05 2.48302E+04-9.63802E+05 3.20142E-10 2.91038E-10
 -1        54 2.03252E+04-3.64629E+05 3.69646E+04-1.13153E+06-2.25555E-10-3.77622E-09
 -1        55 3.98908E+04-3.78398E+05 6.42254E+04-9.63244E+05 5.09317E-10 1.39589E-08
 -1        56-4.31098E+06-4.82607E+05-3.50711E+05-1.66519E+06 2.11003E-10-6.18456E-09
 -1        57-4.46208E+06-7.90420E+05-2.36522E+05-1.64015E+06 5.11136E-10-1.76442E-08
 -1        58-4.38155E+06-5.93795E+05-8.24761E+04-1.64300E+06-1.15688E-09-3.16504E-10
 -1        59-4.38059E+06-6.59707E+05-4.92380E+04-1.66626E+06-1.38971E-09 2.05264E-08
 -1        60-4.39156E+06-6.09580E+05-1.92355E+04-1.64032E+06-1.37470E-09 5.44242E-09
 -1        61-4.37090E+06-6.39222E+05-1.09044E+04-1.66702E+06-3.13355E-09 7.70933E-09
 -1        62-4.39101E+06-6.13817E+05-5.20645E+03-1.64234E+06-1.37788E-10 8.63298E-09
 -1        63-4.37491E+06-6.31259E+05-4.16543E+03-1.66075E+06-6.78756E-09-9.73887E-09
 -1        64-4.38743E+06-6.17545E+05-4.68014E+03-1.64653E+06 1.50567E-09-1.86583E-09
 -1        65-4.38407E+06-6.25009E+05-9.25041E+03-1.65121E+06 6.93035E-10 9.04947E-10
 -1        66-4.38182E+06-6.20146E+05-1.62210E+04-1.65184E+06 8.59529E-10 2.17005E-09
 -1        67-4.40231E+06-6.32009E+05-4.12418E+04-1.63900E+06-1.15097E-09 1.10776E-08
 -1        68-4.36938E+06-6.10936E+05-6.91291E+04-1.65866E+06-2.36741E-09 1.18962E-09
 -1        69-4.47584E+06-7.36442E+05-1.98121E+05-1.61154E+06-7.09406E-10-1.31622E-08
 -1        70-4.30921E+06-5.18775E+05-2.93832E+05-1.67835E+06-1.17871E-09-4.94765E-09
 -1        86-1.31437E+03-2.87101E+05 9.10393E+03 4.07442E+02 1.12846E-09-6.77358E-09
 -1        87 8.69253E+03-2.81398E+05 1.90274E+04-1.57480E+03 1.80512E-09-2.98712E-09
 -1        88-7.36795E+03-2.89988E+05 2.91279E+04 1.16735E+03 2.59570E-09-4.63729E-10
 -1        89 5.48806E+04-2.60103E+05 7.85196E+04-2.88976E+03 3.97267E-09-1.30600E-08
 -1        90-4.73362E+04-3.08377E+05 1.11025E+05 1.72283E+03 3.83443E-09-2.35082E-09
 -1       121-3.44405E+02-1.03818E+06 1.26193E+02 2.99122E+02 5.84379E-10-9.46238E-09
 -1       122-1.49786E+02-1.03723E+06 5.29510E+02-1.19798E+03-2.22915E-09 7.07132E-09
 -1       123-3.95366E+02-1.03824E+06 7.41545E+02 8.94955E+02 1.67688E-09 9.41873E-09
 -1       124 8.34559E+02-1.03668E+06 2.18523E+03-2.58411E+03-4.17231E-09 7.69523E-09
 -1       125-1.01109E+03-1.03879E+06 3.23540E+03 1.68288E+03 2.78760E-09-5.40058E-09
 -1       191-2.63586E+00 2.82514E+05 8.83690E+00-4.78555E-02 7.55014E-11 9.55970E-09
 -1       192-2.94592E+00 2.82490E+05 1.53792E+01 4.30505E-01 1.19963E-10-1.34696E-09
 -1       193-4.40798E+00 2.82514E+05 2.87471E+01-3.84130E-01 1.09210E-10-1.13960E-09
 -1       194-5.09034E+00 2.82492E+05 5.81518E+01 1.02725E+00 1.46763E-11 2.48426E-08
 -1       195-7.81370E+00 2.82512E+05 1.13893E+02-6.47833E-01 1.78382E-10 1.41772E-08
 -1       251-1.09320E+06 5.00913E+03-1.19318E+04-9.27044E+03-1.78829E-10-7.39692E-09
 -1       252-1.09719E+06-5.76659E+03-8.19013E+03 1.14346E+04-3.78037E-10-1.25510E-09
 -1       253-1.09575E+06 7.18065E+02-3.22688E+03-4.71886E+03 3.35945E-10 3.02532E-09
 -1       254-1.09413E+06-8.54335E+02-1.58122E+03 7.80302E+02-5.12728E-10-3.25221E-09
 -1       255-1.09618E+06 5.93779E+01-9.23892E+02 1.38392E+03 2.13583E-09 7.78243E-09
 -1       256-1.09418E+06-8.00922E+01-1.28198E+02-1.05213E+04 2.52442E-09 2.79309E-09
 -1       257-1.09574E+06-2.12314E+01-1.07007E+02 6.58260E+03 4.31442E-11 9.00002E-10
 -1       258-1.09505E+06 1.21094E+02 3.07965E+02-1.79123E+04-4.78181E-10-5.23835E-09
 -1       259-1.09541E+06-6.93198E+01 6.10073E+02 8.77524E+03-1.64380E-09 9.90423E-09
 -1       260-1.09492E+06 5.34630E+02 1.51058E+03-1.84111E+04 5.95151E-10-7.86579E-09
 -1       261-1.09588E+06-4.26808E+02 2.51554E+03 7.08143E+03 1.89283E-09-2.16460E-09
 -1       262-1.09274E+06 3.06261E+03 6.55718E+03-1.18203E+04-1.86674E-09 6.41080E-09
 -1       263-1.09749E+06-2.65816E+03 9.97844E+03 2.18423E+03-4.20414E-10-6.66660E-10
 -1       264-1.08452E+06 1.95041E+04 2.80210E+04-8.37965E+02-2.17779E-09 1.51658E-09
 -1       265-1.10403E+06-1.68578E+04 3.90784E+04-3.90090E+03-1.72065E-09 8.62383E-09
 -1       266-3.63014E+04-1.69718E+04 8.51864E+04-9.37705E+01-9.82254E-11-2.06458E-08
 -1       267 4.20845E+04 1.97852E+04 6.02019E+04 1.08177E+02-2.16460E-10-5.12709E-08
 -1       268-5.64340E+03-2.80191E+03 2.23771E+04-1.37845E+01-1.79170E-10-5.30039E-08
 -1       269 6.66327E+03 3.35354E+03 1.45444E+04 1.60560E+01-1.12095E-10-2.75936E-08
 -1       270-1.00016E+03-5.51001E+02 7.02081E+03-2.17895E+00-7.45786E-11-1.47017E-08
 -1       271-3.41254E+06-4.27055E+05-2.59171E+05-1.32960E+06 1.70985E-09 1.20635E-08
 -1       272-3.50087E+06-6.20707E+05-1.66629E+05-1.33232E+06 3.81419E-09-8.11997E-09
 -1       273-3.46267E+06-4.90297E+05-6.12321E+04-1.31648E+06-8.34461E-10 9.85892E-10
 -1       274-3.44147E+06-5.43933E+05-3.42346E+04-1.35293E+06 7.78527E-10 1.17816E-08
 -1       275-3.47116E+06-4.95193E+05-1.42645E+04-1.31249E+06-4.04725E-10-5.08408E-10
 -1       276-3.43087E+06-5.38820E+05-7.54226E+03-1.35973E+06 5.77984E-10 8.46012E-09
 -1       277-3.47370E+06-4.94188E+05-3.71040E+03-1.31040E+06 8.85393E-10 1.53748E-08
 -1       278-3.42794E+06-5.40248E+05-2.66600E+03-1.36294E+06 8.66748E-10-1.37078E-10
 -1       279-3.47446E+06-4.93449E+05-2.84343E+03-1.30959E+06-1.43314E-09-6.79427E-09
 -1       280-3.42812E+06-5.41166E+05-5.21191E+03-1.36328E+06-2.18006E-09 2.16914E-10
 -1       281-3.47358E+06-4.93281E+05-9.48913E+03-1.31008E+06 9.26548E-10 1.00981E-08
 -1       282-3.43412E+06-5.45640E+05-2.27434E+04-1.36010E+06 5.27734E-09 1.23182E-08
 -1       283-3.46829E+06-4.89717E+05-4.05321E+04-1.31236E+06 2.11230E-10-1.07266E-08
 -1       284-3.47315E+06-5.96712E+05-1.10396E+05-1.34658E+06 6.89511E-10-8.44739E-09
 -1       285-3.43495E+06-4.48028E+05-1.71713E+05-1.32122E+06 3.81988E-10 1.53523E-09
 -1       301 2.11558E+04-5.27029E+04 1.56161E+05-1.01348E+05-7.71252E-10-2.55295E-09
 -1       302 2.22476E+04-1.31752E+04 1.03754E+05-1.49012E+05 9.79071E-10 1.25874E-09
 -1       303 1.12108E+03-3.72752E+04 8.16334E+04-1.01439E+05-3.58341E-10 3.78350E-09
 -1       304 2.77426E+04-7.48895E+03 1.22289E+05-1.48552E+05 8.07631E-10-3.54066E-09
 -1       305 2.68098E+04-5.73959E+04 1.97134E+05-1.01850E+05-3.92902E-10 1.31840E-08
 -1       306-5.67782E+06-6.12456E+05-4.29734E+05-2.14089E+06 5.60249E-10-5.58794E-09
 -1       307-5.63038E+06-1.15372E+06-2.79598E+05-2.28990E+06-2.20734E-08 6.84304E-09
 -1       308-5.82742E+06-6.63128E+05-1.00780E+05-2.00881E+06-1.77636E-09 1.55924E-08
 -1       309-5.46818E+06-1.09105E+06-5.84298E+04-2.45916E+06 1.56738E-08 5.06407E-09
 -1       310-5.85147E+06-6.63716E+05-2.27552E+04-1.98124E+06 9.09495E-10-1.56906E-08
 -1       311-5.47594E+06-1.02834E+06-9.34833E+03-2.40965E+06 1.25874E-08-1.63986E-08
 -1       312-5.81394E+06-7.29437E+05-1.23328E+04-2.05446E+06 1.37516E-09 1.74441E-08
 -1       313-5.59533E+06-8.64966E+05 4.33632E+03-2.20346E+06-5.33964E-09 1.64346E-08
 -1       314-5.71901E+06-8.36368E+05-1.60888E+04-2.17771E+06 2.11730E-09-1.55569E-08
 -1       315-5.80873E+06-6.68363E+05-6.72915E+03-1.98091E+06-2.36168E-08-3.51929E-09
 -1       316-5.60446E+06-9.23243E+05-2.96376E+04-2.27950E+06-2.15423E-08-1.13414E-08
 -1       317-5.99628E+06-5.66290E+05-6.68240E+04-1.85206E+06 2.89185E-08-1.86265E-08
 -1       318-5.54505E+06-9.29384E+05-1.12878E+05-2.31681E+06-3.04044E-08 1.15106E-08
 -1       319-6.08801E+06-7.70403E+05-3.27015E+05-1.82997E+06-1.15779E-08 2.27010E-09
 -1       320-5.51207E+06-7.23218E+05-4.88672E+05-2.29940E+06 1.91358E-08-7.68341E-09
 -1       336 5.61818E+02-1.12389E+06-6.32522E+03 2.36355E+03-1.06334E-08-6.26642E-09
 -1       337-2.33639E+03-1.12505E+06-7.00291E+03-5.83174E+03-2.02069E-08-6.94035E-09
 -1       338 3.78220E+02-1.12403E+06-9.21568E+03 3.44795E+03-1.41772E-08-1.70439E-09
 -1       339-9.52427E+03-1.12967E+06-2.01465E+04-7.95455E+03-2.64536E-08 7.91351E-09
 -1       340 6.31863E+03-1.11953E+06-3.12460E+04 4.46824E+03-1.75442E-08 1.80626E-08
 -1       406 1.88224E+01 2.82502E+05 4.64763E+02-1.13831E-01 3.00588E-10 9.78844E-09
 -1       407 1.62674E+02 2.82586E+05 9.87447E+02-4.08749E+00-2.97860E-11 1.37788E-09
 -1       408 5.09097E+02 2.82430E+05 1.97231E+03 4.30039E+00 3.31283E-10-9.60995E-09
 -1       409 2.13298E+03 2.83216E+05 4.43988E+03-4.23344E+01 5.00222E-11-3.89866E-09
 -1       410 6.12715E+03 2.81870E+05 9.06394E+03 3.98328E+01 2.62844E-10-4.43720E-09
 -1       521-8.17526E+06-7.90969E+05-7.90811E+05-2.55326E+06-1.35769E-08 5.35510E-09
 -1       522-5.66680E+06-2.10004E+06-2.02609E+05-3.95282E+06-7.67614E-08-2.50293E-08
 -1       523-8.17382E+06-3.38008E+05-1.55709E+05-1.79650E+06-5.75528E-09-5.53337E-08
 -1       524-6.03668E+06-2.27806E+06-3.55511E+04-4.96028E+06 1.05014E-07-1.18180E-07
 -1       525-8.17372E+06-3.37544E+05-4.32112E+04-1.76553E+06 9.04038E-08-5.63377E-08
 -1       526-5.58125E+06-1.94439E+06 1.34052E+05-4.10030E+06 6.73535E-08 6.56291E-09
 -1       527-8.29503E+06-9.17232E+05-2.15763E+05-2.46079E+06-3.02534E-08-1.04919E-08
 -1       528-5.75605E+06-8.97553E+05 2.71613E+05-2.31234E+06-4.80504E-08 1.22782E-08
 -1       529-7.65721E+06-1.62417E+06-2.34818E+05-3.26904E+06 2.17260E-08-2.79397E-09
 -1       530-7.76728E+06 4.03161E+05 1.58556E+05-1.32084E+06-9.07748E-08 4.78467E-08
 -1       531-6.59810E+06-1.98666E+06-6.21067E+04-3.64358E+06-1.19267E-07-6.07542E-10
 -1       532-9.30349E+06 9.99648E+05-3.02373E+04-1.23148E+06 1.06415E-07-9.87543E-08
 -1       533-6.45599E+06-1.99229E+06-1.30214E+05-3.67159E+06 2.81871E-08-1.51345E-07
 -1       534-8.31139E+06 4.05034E+05-2.06117E+05-1.23349E+06-3.01370E-08 1.16042E-07
 -1       535-7.34902E+06-1.55978E+06-7.40028E+05-3.40715E+06-1.64437E-08 7.81729E-08
 -1       536-3.90432E+05-1.90858E+04 3.32406E+04-1.33792E+04-2.06353E-09 2.23736E-08
 -1       537-3.31351E+05 2.14041E+04 3.13316E+04 3.20769E+04-3.90358E-08 3.88909E-08
 -1       538-3.61720E+05-2.06743E+03 9.95717E+03-1.95613E+04 7.96226E-09 3.73525E-08
 -1       539-3.48655E+05 3.04826E+03 8.20848E+03 3.49811E+04 5.52683E-08 2.67722E-08
 -1       540-3.73362E+05-5.38404E+02 3.70755E+01-1.62903E+04 3.77872E-09 2.97744E-08
 -1       541-3.12160E+05 1.98961E+03 1.10540E+04 2.00094E+04-8.35553E-09 2.92387E-08
 -1       542-3.97234E+05-1.82451E+03-6.89442E+03-4.56970E+03 6.96423E-09 1.40320E-08
 -1       543-2.95893E+05 2.22409E+03 1.30165E+04-5.98265E+03 3.45432E-09-2.41248E-09
 -1       544-3.89210E+05-1.13698E+03-6.23862E+03 9.68251E+03-9.35574E-09-8.69466E-09
 -1       545-3.30688E+05 1.15038E+02 4.51546E+03-2.88317E+04-2.31967E-09-2.53643E-08
 -1       546-3.63336E+05 1.02936E+03-3.10420E+03 1.82755E+04 9.92145E-09-2.50384E-08
 -1       547-3.55124E+05-3.39477E+03-5.29540E+03-3.66551E+04-3.51729E-08-3.13190E-08
 -1       548-3.65372E+05 2.88016E+03-1.17476E+04 1.75208E+04-3.44576E-08-2.72871E-08
 -1       549-3.32139E+05-1.72190E+04-2.09341E+04-2.59389E+04-1.99070E-08-1.73973E-08
 -1       550-3.85545E+05 1.41909E+04-4.80442E+04 7.54138E+03 1.27375E-09-8.64384E-09
 -1       551 1.72613E+04-5.80205E+05 2.43837E+04-9.65346E+05-4.71773E-08-7.74162E-09
 -1       552 3.92001E+04-5.91818E+05 3.18104E+04-1.37496E+06-3.46627E-08 1.83354E-08
 -1       553 2.79389E+04-5.97773E+05 4.65821E+04-9.61710E+05-5.67379E-08 1.32641E-08
 -1       554 6.58425E+04-5.87580E+05 9.75952E+04-1.37640E+06-3.69037E-08 9.29504E-09
 -1       555 5.61194E+04-6.16424E+05 1.73348E+05-9.62655E+05-5.80985E-08-5.63523E-09
 -1       556 1.00527E+05-1.86141E+05 6.21348E+04-2.35251E+05-1.53668E-08-1.24128E-08
 -1       557 1.76080E+05-2.47203E+05 3.28912E+04-2.95803E+05-7.46513E-09 6.75936E-09
 -1       558 9.87053E+04-1.93557E+05 1.29077E+04-2.28959E+05-1.09576E-08-1.30640E-08
 -1       559 1.63871E+05-2.55125E+05 6.67530E+03-3.01733E+05 4.07454E-09-4.51109E-09
 -1       560 9.51668E+04-1.91263E+05 2.53406E+03-2.31310E+05 4.29281E-09 1.17452E-08
 -1       561 1.58788E+05-2.53548E+05 1.43810E+03-3.04990E+05 1.70257E-09 5.21231E-09
 -1       562 9.23546E+04-1.89430E+05 4.35016E+02-2.33330E+05 1.45519E-09 1.37443E-08
 -1       563 1.55485E+05-2.52118E+05 3.52022E+02-3.07107E+05-5.37329E-09-1.26840E-09
 -1       564 9.05265E+04-1.88267E+05 9.57577E+01-2.34624E+05 6.73026E-09 1.04319E-09
 -1       565 1.53624E+05-2.51314E+05 1.13556E+02-3.08283E+05 5.48607E-09 4.09818E-09
 -1       566 8.97302E+04-1.87752E+05 1.62183E+01-2.35188E+05-4.28736E-09-7.38510E-09
 -1       567 1.53162E+05-2.51100E+05-5.90317E+01-3.08496E+05 1.07563E-08-5.31145E-10
 -1       568 9.00060E+04-1.87936E+05-2.95750E+02-2.35074E+05-1.92813E-09 1.41517E-09
 -1       569 1.53325E+05-2.50980E+05-7.11370E+02-3.07024E+05-2.39197E-09 5.93718E-09
 -1       570 9.19935E+04-1.89592E+05-1.66909E+03-2.34859E+05 2.61934E-10-6.81757E-09
 -1       571 2.09069E+05 7.69440E+03 1.13602E+04-5.43496E+04-7.86713E-11 1.04208E-08
 -1       572 2.10754E+05 2.69877E+03 5.56598E+03-5.95951E+04-4.05635E-10-4.27735E-09
 -1       573 2.09743E+05 6.65878E+02 2.47274E+03-5.42182E+04 4.00178E-11-3.28919E-09
 -1       574 2.09939E+05 2.41213E+02 1.23908E+03-5.97441E+04 1.59889E-09-2.88310E-10
 -1       575 2.09817E+05 5.97785E+01 5.84155E+02-5.42009E+04 2.23872E-09 1.03887E-08
 -1       576 2.09829E+05 4.23341E+01 2.97706E+02-5.97640E+04 1.86218E-09 8.76935E-09
 -1       577 2.09831E+05 2.58402E+01 1.47171E+02-5.41985E+04 1.27845E-08 8.19682E-09
 -1       578 2.09823E+05 2.98259E+01 8.13979E+01-5.97665E+04 1.99389E-08 5.42468E-09
 -1       579 2.09849E+05 2.01991E+01 5.15857E+01-5.41984E+04 1.63063E-08-1.31058E-08
 -1       580 2.09847E+05 1.91038E+01 5.14981E+01-5.97633E+04 1.08789E-08 2.06228E-09
 -1       581 2.09879E+05 7.70285E+00 7.29487E+01-5.42017E+04 8.44375E-09 2.24099E-09
 -1       582 2.09901E+05 1.94648E+01 1.42000E+02-5.97301E+04 2.02226E-09 6.48470E-10
 -1       583 2.09916E+05 4.95699E+01 2.73212E+02-5.42317E+04 3.58159E-09 5.52450E-09
 -1       584 2.10047E+05 2.63843E+02 6.13990E+02-5.94786E+04 1.16052E-09-8.89145E-10
 -1       585 2.09892E+05 8.01747E+02 1.24651E+03-5.44536E+04 1.31877E-09-1.37552E-08
 -1       586-2.49587E+03 6.90808E+04-3.15084E+03-1.86559E+05-4.11092E-10-6.86805E-09
 -1       587-5.52687E+02 6.86778E+04-1.56177E+02-2.05324E+05-8.54925E-11 2.34161E-09
 -1       588 7.22928E+02 6.87304E+04 2.71786E+03-1.86460E+05-2.36469E-11-8.71660E-09
 -1       589 3.78329E+03 7.02043E+04 7.64605E+03-2.05126E+05-2.69210E-10-2.46869E-08
 -1       590 1.10208E+04 6.78638E+04 1.62734E+04-1.86764E+05-5.78439E-10-6.08088E-09
 -1       591-4.41158E+04-1.20234E+04-1.48431E+04-2.20461E+04 9.56902E-10-3.84898E-09
 -1       592-4.58146E+04-1.53607E+04-8.03977E+03-2.55664E+04 8.21956E-11-7.16955E-09
 -1       593-4.56120E+04-1.09344E+04-3.34694E+03-2.31229E+04-6.21412E-10-2.58638E-09
 -1       594-4.37511E+04-1.31981E+04-1.66929E+03-2.56631E+04 4.69754E-09 6.12914E-09
 -1       595-4.57266E+04-1.09297E+04-7.67035E+02-2.31722E+04 2.75236E-09 5.30474E-09
 -1       596-4.36110E+04-1.30991E+04-3.90879E+02-2.56480E+04 7.94145E-09-7.84470E-09
 -1       597-4.57411E+04-1.09394E+04-2.14885E+02-2.31742E+04 3.71557E-09-1.02744E-08
 -1       598-4.35975E+04-1.30953E+04-1.76487E+02-2.56438E+04 1.73463E-09-8.79263E-09
 -1       599-4.57399E+04-1.09395E+04-2.30119E+02-2.31738E+04 2.25316E-09-1.02194E-08
 -1       600-4.36122E+04-1.31003E+04-4.31220E+02-2.56473E+04 1.38380E-09-8.57716E-09
 -1       601-4.57218E+04-1.09293E+04-8.52670E+02-2.31708E+04-3.55612E-10-1.92676E-09
 -1       602-4.37679E+04-1.32104E+04-1.85931E+03-2.56618E+04 5.83441E-10 5.96810E-09
 -1       603-4.55924E+04-1.09365E+04-3.72926E+03-2.31162E+04-3.72893E-11 6.26255E-09
 -1       604-4.60760E+04-1.56099E+04-8.95825E+03-2.55408E+04-2.69335E-09 2.02340E-09
 -1       605-4.39138E+04-1.21590E+04-1.65387E+04-2.19262E+04 6.58247E-11 2.57933E-09
 -1       606 2.75924E+04-1.00759E+04-1.81260E+04 2.67790E+04-2.13913E-09 1.37788E-09
 -1       607 2.44891E+04-3.25805E+03-9.02575E+03 3.00636E+04-1.73895E-09 8.69682E-09
 -1       608 2.62486E+04-5.57023E+02-4.04195E+03 2.65674E+04 7.83984E-10 9.58107E-09
 -1       609 2.58989E+04-1.52371E+02-2.04143E+03 3.02993E+04-1.86446E-09-3.46108E-09
 -1       610 2.60851E+04 1.75588E+01-9.75152E+02 2.65436E+04-3.14685E-09 4.92491E-10
 -1       611 2.60196E+04 3.02297E+01-4.91709E+02 3.03250E+04-6.41012E-09-7.96422E-09
 -1       612 2.60409E+04 3.40869E+01-2.35118E+02 2.65412E+04-2.25164E-08-9.32005E-09
 -1       613 2.60165E+04 3.94786E+01-1.06683E+02 3.03280E+04-4.52019E-08 1.42290E-09
 -1       614 2.60165E+04 3.51786E+01-2.87921E+01 2.65404E+04-2.09811E-08 1.23425E-08
 -1       615 2.60037E+04 4.54952E+01 3.59369E+01 3.03285E+04 5.45879E-09 5.50494E-09
 -1       616 2.59980E+04 4.14564E+01 1.15785E+02 2.65407E+04-3.96722E-09-3.26281E-10
 -1       617 2.60108E+04 7.43806E+01 2.67515E+02 3.03280E+04-5.75483E-10-8.97921E-09
 -1       618 2.59697E+04 1.21808E+02 5.40323E+02 2.65408E+04 1.02700E-08 2.25737E-09
 -1       619 2.61974E+04 4.94832E+02 1.21417E+03 3.03272E+04 2.09370E-08-7.68523E-11
 -1       620 2.57876E+04 1.40559E+03 2.44061E+03 2.65397E+04 1.24982E-08-6.21276E-09
 -1       621 3.19010E+02 2.24849E+05 3.10115E+03 1.10312E+04-9.34165E-10-2.85081E-09
 -1       622 4.20910E+02 2.25627E+05 2.65843E+03 1.63159E+04-4.53156E-10-7.26845E-09
 -1       623 1.42951E+01 2.25067E+05 3.07279E+03 1.09786E+04-3.59265E-10-8.79254E-10
 -1       624 1.42443E+03 2.26535E+05 5.86278E+03 1.63681E+04-2.60570E-10-2.14277E-09
 -1       625 1.26133E+03 2.23925E+05 1.01538E+04 1.09788E+04-7.18501E-11 6.23317E-09
 -1       626 1.88454E+05 5.08093E+04 3.90750E+03 9.99005E+04-1.02591E-09 1.02882E-08
 -1       627 1.86067E+05 5.24916E+04 1.88300E+03 1.03850E+05-6.87169E-09-8.50639E-09
 -1       628 1.88584E+05 4.89787E+04 7.95390E+02 1.00510E+05-1.67347E-09-1.21390E-08
 -1       629 1.85522E+05 5.20272E+04 3.89716E+02 1.04084E+05 5.14910E-09 1.67330E-09
 -1       630 1.88591E+05 4.88928E+04 1.80091E+02 1.00528E+05-1.77897E-09-1.00443E-08
 -1       631 1.85456E+05 5.20156E+04 9.65901E+01 1.04085E+05-2.25236E-09 1.45759E-09
 -1       632 1.88582E+05 4.88998E+04 6.30263E+01 1.00519E+05-1.05174E-08-1.81783E-08
 -1       633 1.85442E+05 5.20209E+04 6.94404E+01 1.04077E+05 1.41063E-09-3.61410E-09
 -1       634 1.88572E+05 4.89008E+04 1.11460E+02 1.00515E+05 6.84668E-09 5.36761E-09
 -1       635 1.85447E+05 5.20224E+04 2.25357E+02 1.04077E+05 8.18090E-10-4.04020E-09
 -1       636 1.88560E+05 4.88995E+04 4.54847E+02 1.00512E+05-1.47372E-09-4.84306E-11
 -1       637 1.85541E+05 5.20945E+04 9.99563E+02 1.04073E+05 4.15241E-11-2.10093E-09
 -1       638 1.88522E+05 4.91219E+04 2.05405E+03 1.00410E+05-8.66248E-09 1.69257E-09
 -1       639 1.86617E+05 5.35958E+04 4.85932E+03 1.03753E+05-2.25245E-08-4.90127E-09
 -1       640 1.88378E+05 5.35957E+04 1.00841E+04 9.85125E+04-9.18999E-09 7.95217E-09
 -1       656 5.03245E+04-1.27644E+06-1.21482E+05-4.32840E+02-2.91038E-11-5.19580E-09
 -1       657-6.65179E+04-1.33127E+06-1.00506E+05 7.57136E+03 1.88720E-09 4.15525E-10
 -1       658 1.59785E+04-1.29206E+06-6.17286E+04-1.77120E+03 2.47155E-09 1.17417E-10
 -1       659-7.14654E+04-1.33362E+06-1.07005E+05 8.50256E+03-8.72205E-10 3.85236E-09
 -1       660 5.52605E+04-1.27410E+06-1.32658E+05-1.36402E+03 2.83762E-10 6.59016E-09
 -1       661 1.68022E+05 1.82130E+04 1.63507E+04 6.56966E+04 3.50838E-09 5.59339E-09
 -1       662 1.76679E+05 3.08985E+04 1.10179E+04 6.26955E+04 2.83831E-09 3.18914E-09
 -1       663 1.71229E+05 2.34618E+04 3.85403E+03 6.47691E+04 1.50442E-09-5.16525E-09
 -1       664 1.72966E+05 2.47561E+04 2.30445E+03 6.38247E+04 3.56954E-09-4.82299E-09
 -1       665 1.71711E+05 2.41829E+04 9.09038E+02 6.46324E+04-1.40534E-09-7.31779E-09
 -1       666 1.72399E+05 2.39281E+04 5.30461E+02 6.40007E+04-3.36962E-09 6.79730E-09
 -1       667 1.71793E+05 2.42681E+04 2.80047E+02 6.46011E+04 3.39725E-10 2.87992E-09
 -1       668 1.72311E+05 2.38624E+04 2.81447E+02 6.40461E+04 3.49451E-09 1.73407E-09
 -1       669 1.71799E+05 2.42466E+04 3.77817E+02 6.45877E+04-7.36705E-10 1.26892E-09
 -1       670 1.72405E+05 2.40640E+04 8.19717E+02 6.40470E+04 3.25604E-09-8.91320E-09
 -1       671 1.71700E+05 2.40705E+04 1.45445E+03 6.45986E+04-1.19126E-09 1.39210E-10
 -1       672 1.73252E+05 2.54789E+04 3.72039E+03 6.38423E+04-4.50617E-09 3.52685E-09
 -1       673 1.70956E+05 2.28673E+04 6.23447E+03 6.47788E+04 1.10288E-09 7.06768E-09
 -1       674 1.79188E+05 3.54933E+04 1.78292E+04 6.20970E+04-1.01750E-09 6.56109E-09
 -1       675 1.65802E+05 1.43362E+04 2.64643E+04 6.62383E+04 2.05091E-10-1.91903E-09
 -1       676 2.00429E+01-2.40629E+05-9.30816E+02 2.75770E+01 9.38542E-10 2.76184E-09
 -1       677-2.47142E+02-2.40854E+05-1.70351E+03-5.51225E+01-3.85856E-09-1.96062E-08
 -1       678 1.65013E+02-2.40468E+05-3.01136E+03 2.75266E+01-7.18501E-10-5.15406E-10
 -1       679-3.01213E+03-2.42671E+05-7.15356E+03-5.49294E+01 2.96609E-10-4.01401E-09
 -1       680 1.79767E+03-2.38812E+05-1.15291E+04 2.70705E+01 1.77124E-09 5.35090E-09
 -1       771-2.56521E+06-4.90847E+05-7.15229E+04-1.10885E+06-1.63491E-08-1.71276E-08
 -1       772-2.53630E+06-5.35130E+05-3.78629E+04-1.15891E+06-1.25001E-08 4.82032E-09
 -1       773-2.57682E+06-4.81703E+05-1.72977E+04-1.11302E+06-5.76256E-09 5.56611E-09
 -1       774-2.52748E+06-5.27438E+05-8.16031E+03-1.16625E+06 1.55705E-08-1.32422E-09
 -1       775-2.58095E+06-4.78814E+05-4.79888E+03-1.11391E+06 6.83940E-10 1.58616E-09
 -1       776-2.52875E+06-5.27395E+05-2.02539E+03-1.17100E+06-3.60887E-09 2.95404E-09
 -1       777-2.58421E+06-4.76408E+05-1.68689E+03-1.11465E+06-2.47383E-10 2.24463E-09
 -1       778-2.53051E+06-5.27511E+05-5.87210E+02-1.17501E+06 2.45927E-09 4.53019E-09
 -1       779-2.58691E+06-4.74359E+05-7.66552E+02-1.11529E+06-1.70257E-09-3.79077E-09
 -1       780-2.53211E+06-5.27572E+05-2.76287E+02-1.17826E+06-2.45927E-09 9.18590E-11
 -1       781-2.58899E+06-4.72731E+05-5.21117E+02-1.11579E+06-1.38898E-08-1.31968E-09
 -1       782-2.53338E+06-5.27610E+05-5.16869E+02-1.18064E+06-1.83936E-08-7.38214E-09
 -1       783-2.59039E+06-4.71633E+05-1.06192E+03-1.11613E+06-2.73212E-09-6.61339E-09
 -1       784-2.53475E+06-5.28223E+05-2.32277E+03-1.18206E+06-8.48377E-09-7.59428E-11
 -1       785-2.59069E+06-4.71386E+05-4.33489E+03-1.11600E+06-1.62490E-08 2.30375E-09
 -1       786 1.58270E+05-9.44097E+03 2.18418E+04-7.40592E+01 1.51567E-09-5.60885E-09
 -1       787 1.67737E+05 1.09297E+04 1.54525E+04 1.86068E+01 2.76804E-09 4.90945E-09
 -1       788 1.61922E+05-1.47995E+03 5.65262E+03-5.60842E+01 1.19960E-09 9.25183E-10
 -1       789 1.63483E+05 1.71232E+03 3.55076E+03-1.08986E+01-4.72588E-10 1.29756E-08
 -1       790 1.62525E+05-2.31097E+02 1.44291E+03-4.45562E+01-3.50619E-10 9.67941E-09
 -1       791 1.62779E+05 2.67962E+02 8.43524E+02-3.18040E+01-4.52573E-10-7.90281E-09
 -1       792 1.62626E+05-3.66778E+01 3.77782E+02-3.51788E+01-4.92758E-10-9.13730E-10
 -1       793 1.62663E+05 4.80276E+01 2.32893E+02-5.10774E+01-1.31228E-11-8.92744E-10
 -1       794 1.62641E+05-1.13050E+01 1.50096E+02-2.52825E+01 5.91943E-10 3.20881E-09
 -1       795 1.62662E+05 4.97904E+01 1.84710E+02-7.40436E+01-6.47824E-10 4.92114E-09
 -1       796 1.62627E+05-3.84360E+01 2.57081E+02-1.22122E+01 7.69186E-10 6.61974E-09
 -1       797 1.62773E+05 2.79819E+02 5.89963E+02-1.06835E+02 4.79599E-10-1.70144E-09
 -1       798 1.62529E+05-2.41167E+02 9.25986E+02 7.50943E+00 1.53653E-10-2.72672E-09
 -1       799 1.63467E+05 1.78043E+03 2.51979E+03-1.58301E+02-1.52429E-11-5.90603E-09
 -1       800 1.61934E+05-1.53785E+03 3.55793E+03 3.92549E+01-7.34781E-11 7.62475E-09
 -1       801 5.11064E+04-1.86901E+06-1.69062E+05 3.41970E+04 1.48793E-08-7.72934E-09
 -1       802-5.69452E+04-1.70483E+06-6.58028E+04-6.16976E+04 4.10018E-08-1.16656E-08
 -1       803 5.17475E+03-1.78133E+06-9.83463E+03 8.72303E+04 3.18032E-08 2.45511E-08
 -1       804 5.21367E+04-1.65104E+06 7.78444E+04-4.18016E+04 3.46317E-08 3.32655E-08
 -1       805-5.86959E+04-1.92218E+06 7.69482E+04 1.42932E+04 1.29512E-08 2.65215E-08
 -1       806-2.29148E+05-4.60361E+04-1.80713E+04-9.22915E+04 3.85762E-09 2.48247E-09
 -1       807-2.30490E+05-4.31684E+04-8.87817E+03-9.67624E+04 2.46837E-09-2.60869E-09
 -1       808-2.29644E+05-3.95236E+04-3.76622E+03-9.53730E+04-3.03544E-09-1.13961E-08
 -1       809-2.28613E+05-4.06851E+04-1.84140E+03-9.69955E+04 4.54315E-09-6.84167E-10
 -1       810-2.29721E+05-3.92954E+04-8.43462E+02-9.55094E+04 3.88218E-09 3.12139E-09
 -1       811-2.28468E+05-4.05858E+04-4.18783E+02-9.69705E+04 3.88513E-09 1.27238E-09
 -1       812-2.29734E+05-3.93136E+04-2.10099E+02-9.55091E+04 8.03084E-10-3.72438E-10
 -1       813-2.28449E+05-4.05878E+04-1.34124E+02-9.69578E+04 6.74618E-10-1.41474E-08
 -1       814-2.29731E+05-3.93203E+04-1.28639E+02-9.55063E+04 7.78982E-10-8.45557E-09
 -1       815-2.28452E+05-4.05897E+04-2.03832E+02-9.69538E+04 2.00043E-09 4.91718E-09
 -1       816-2.29717E+05-3.93189E+04-3.83712E+02-9.55038E+04-1.46792E-09-7.91442E-09
 -1       817-2.28518E+05-4.06263E+04-8.23077E+02-9.69467E+04-5.35238E-10 6.77574E-09
 -1       818-2.29669E+05-3.94342E+04-1.67794E+03-9.54492E+04-1.56160E-09-2.18597E-09
 -1       819-2.29440E+05-4.16376E+04-3.94880E+03-9.67278E+04-1.46065E-09-3.54112E-09
 -1       820-2.29354E+05-4.24153E+04-8.03674E+03-9.41723E+04-1.93359E-09-4.89456E-09
 -1       821-2.89088E+05 1.60115E+04-3.70292E+04 2.45190E+02 1.09297E-09 5.86988E-09
 -1       822-3.05131E+05-1.85360E+04-2.62032E+04-9.30607E+02-1.50910E-09 8.45648E-09
 -1       823-2.95278E+05 2.51054E+03-9.59037E+03 2.50049E+02-4.69837E-10 3.59478E-09
 -1       824-2.97905E+05-2.90550E+03-6.03331E+03-7.67633E+02 4.83529E-10-4.02565E-10
 -1       825-2.96312E+05 3.92725E+02-2.48182E+03 8.22136E+01-1.31603E-09-2.30341E-09
 -1       826-2.96698E+05-4.62848E+02-1.49386E+03-3.33666E+02-3.33543E-09 1.42450E-09
 -1       827-2.96484E+05 6.92433E+01-7.78426E+02-1.83925E+02-3.11771E-09 2.26899E-09
 -1       828-2.96536E+05-1.41134E+02-6.83257E+02 1.81837E+02-4.53585E-09 2.16758E-09
 -1       829-2.96473E+05 7.13089E+01-7.91360E+02-4.33299E+02 2.54730E-10 5.06921E-09
 -1       830-2.96732E+05-4.77405E+02-1.54255E+03 5.55781E+02 2.46651E-09-3.30019E-09
 -1       831-2.96289E+05 4.05734E+02-2.55704E+03-5.57876E+02-2.56149E-09-4.42208E-09
 -1       832-2.97965E+05-2.99911E+03-6.23111E+03 6.26757E+02-1.55172E-09-2.23736E-09
 -1       833-2.95241E+05 2.59131E+03-9.90309E+03-5.04275E+02-1.86097E-09-1.14187E-09
 -1       834-3.05394E+05-1.91375E+04-2.70528E+04 3.64525E+02-4.54477E-10 4.85443E-09
 -1       835-2.88862E+05 1.65314E+04-3.82395E+04-2.95631E+02 5.28828E-09 7.69251E-09
 -1       836-9.64948E+02 2.71625E+05 1.63571E+04-2.00310E+04 5.52063E-10-2.99360E-09
 -1       837 3.58304E+03 2.76701E+05 1.40033E+04-4.02481E+04 1.36947E-09 6.79461E-09
 -1       838-3.63095E+02 2.73027E+05 1.44936E+04-1.99596E+04 1.32968E-09 9.23819E-09
 -1       839 9.30691E+03 2.80966E+05 2.76395E+04-4.02807E+04 1.73395E-09 8.86475E-09
 -1       840-2.80998E+03 2.67318E+05 4.41697E+04-1.99972E+04 1.12414E-09 9.16214E-09
 -1       856-7.98726E+04 7.43944E+03-1.96052E+04-4.30267E+02-3.34040E-09 4.72482E-09
 -1       857-8.79689E+04-8.72639E+03-1.34975E+04 4.57717E+03-8.86331E-10-3.40719E-09
 -1       858-8.30720E+04 1.04240E+03-5.08797E+03-4.51670E+02-3.72097E-09 2.22781E-09
 -1       859-8.42953E+04-1.21261E+03-3.07250E+03 4.61115E+03-2.37333E-09 5.97493E-09
 -1       860-8.35502E+04 1.45001E+02-1.29122E+03-4.64355E+02-9.23251E-10 6.21844E-09
 -1       861-8.37447E+04-1.60487E+02-7.17769E+02 4.62853E+03-5.27781E-09 1.11283E-08
 -1       862-8.36247E+04 1.91539E+01-3.13302E+02-4.69070E+02 5.58234E-09 3.50212E-09
 -1       863-8.36560E+04-1.11222E+01-1.48032E+02 4.63071E+03 4.67656E-09-1.10704E-08
 -1       864-8.36391E+04-1.06071E+00-3.25513E+01-4.66543E+02 2.51880E-09-5.55651E-09
 -1       865-8.36255E+04 3.02941E+01 6.67762E+01 4.61786E+03 4.89968E-09 2.99608E-09
 -1       866-8.36536E+04-2.26978E+01 1.73706E+02-4.56218E+02-7.94302E-10-2.90552E-09
 -1       867-8.35330E+04 1.89515E+02 4.52855E+02 4.58981E+03-2.62648E-09-8.89955E-09
 -1       868-8.37281E+04-1.58631E+02 7.58399E+02-4.38489E+02-8.86985E-10-1.11811E-09
 -1       869-8.29690E+04 1.31750E+03 2.02895E+03 4.54340E+03-1.55751E-09-8.63622E-09
 -1       870-8.42123E+04-1.12183E+03 2.94289E+03-4.09821E+02 6.13568E-10-7.85781E-09
 -1       871-4.29459E+03-9.70806E+03-1.40205E+04 9.25532E+04 2.02817E-09 7.14863E-09
 -1       872-1.84213E+03-1.28600E+04-5.73606E+03 1.19992E+05 2.76486E-09 9.44056E-10
 -1       873-1.81078E+01-1.13872E+04 7.62681E+02 9.23500E+04 1.42904E-09-3.85671E-09
 -1       874 2.15743E+03-9.38378E+03 7.82682E+03 1.20032E+05 1.41426E-09-1.17097E-10
 -1       875 5.05672E+03-1.32436E+04 1.73929E+04 9.25203E+04 1.20508E-09 2.01817E-09
 -1       876 2.26425E+05 3.88824E+04 1.20074E+04 9.17120E+04-6.02961E-09-1.71076E-08
 -1       877 2.27132E+05 4.14977E+04 6.41226E+03 9.52405E+04-4.41719E-09 7.30552E-09
 -1       878 2.27546E+05 3.75538E+04 2.68642E+03 9.26982E+04-3.75712E-09 5.02405E-09
 -1       879 2.25499E+05 3.98706E+04 1.33832E+03 9.53245E+04-1.19422E-08-9.34051E-10
 -1       880 2.27628E+05 3.75393E+04 6.23132E+02 9.27384E+04-2.91061E-09 4.38968E-09
 -1       881 2.25390E+05 3.98014E+04 3.32100E+02 9.53070E+04 7.69217E-09 1.44331E-08
 -1       882 2.27636E+05 3.75493E+04 2.11320E+02 9.27395E+04 4.30009E-09 8.66285E-09
 -1       883 2.25382E+05 3.97980E+04 2.25338E+02 9.53019E+04-1.75669E-09 1.27382E-08
 -1       884 2.27631E+05 3.75469E+04 3.56788E+02 9.27397E+04-1.15836E-09 2.37537E-09
 -1       885 2.25411E+05 3.98031E+04 7.16299E+02 9.53108E+04 2.70370E-09 2.59286E-09
 -1       886 2.27603E+05 3.75260E+04 1.44318E+03 9.27369E+04 5.62693E-09 1.43268E-09
 -1       887 2.25664E+05 3.99693E+04 3.15226E+03 9.53474E+04 3.77781E-10-3.26554E-09
 -1       888 2.27404E+05 3.75610E+04 6.35185E+03 9.26359E+04 1.06271E-08 3.20097E-09
 -1       889 2.29449E+05 4.38994E+04 1.51739E+04 9.52282E+04 1.70697E-08-9.95351E-09
 -1       890 2.24817E+05 4.06351E+04 2.84197E+04 9.02127E+04 1.42377E-08 7.88532E-09
 -1       891-1.35670E+02-1.28092E+05-1.52440E+03 2.38219E+04 2.60752E-09-4.67242E-09
 -1       892-2.37351E+02-1.28459E+05-1.65358E+03 3.60572E+04-1.48270E-09-8.21501E-10
 -1       893-3.48151E+01-1.28139E+05-2.35824E+03 2.38268E+04-1.25146E-09-3.39332E-09
 -1       894-1.28063E+03-1.29359E+05-4.89291E+03 3.59282E+04-2.56568E-09-4.53724E-09
 -1       895-1.00305E+03-1.27120E+05-8.62129E+03 2.39493E+04 1.89334E-09-8.21183E-09
 -1       956-2.85804E+05-4.06948E+03-1.02338E+04 1.92531E+04-2.12367E-09-3.51520E-10
 -1       957-2.87824E+05-1.37571E+03-5.25352E+03 2.31859E+04-1.06866E-09-1.12595E-08
 -1       958-2.86713E+05-1.12633E+02-2.36692E+03 1.91320E+04 2.23736E-09 2.48224E-09
 -1       959-2.86874E+05-2.22270E+01-1.20895E+03 2.33178E+04-1.63163E-09 2.38742E-09
 -1       960-2.86795E+05 3.15050E+01-5.89376E+02 1.91203E+04-3.01543E-09-6.36328E-09
 -1       961-2.86806E+05 2.93230E+01-3.12646E+02 2.33312E+04-4.23324E-09-2.64117E-09
 -1       962-2.86812E+05 2.78020E+01-1.78887E+02 1.91185E+04 7.70842E-09 7.54198E-10
 -1       963-2.86803E+05 3.08735E+01-1.43451E+02 2.33336E+04 1.56871E-08 7.57359E-09
 -1       964-2.86816E+05 2.99300E+01-1.73988E+02 1.91179E+04 8.79129E-09 1.28550E-08
 -1       965-2.86814E+05 3.39213E+01-3.00524E+02 2.33336E+04 4.07623E-09 2.99087E-09
 -1       966-2.86806E+05 3.78090E+01-5.64096E+02 1.91185E+04 7.35326E-10-8.47479E-09
 -1       967-2.86887E+05-1.09212E+01-1.15693E+03 2.33258E+04-1.02557E-09 3.43562E-10
 -1       968-2.86734E+05-9.58863E+01-2.26414E+03 1.91258E+04 1.33878E-09-1.79307E-09
 -1       969-2.87804E+05-1.30221E+03-5.02703E+03 2.32417E+04 1.75805E-09-3.42899E-09
 -1       970-2.85870E+05-3.87952E+03-9.79172E+03 1.92047E+04 1.73895E-09-9.54969E-10
 -1       971-2.69514E+05-1.40911E+03-7.81814E+03 1.29258E+04-3.39514E-09 1.43135E-08
 -1       972-2.71414E+05-1.01136E+03-4.25771E+03 1.80445E+04-1.30285E-09 1.69325E-09
 -1       973-2.70384E+05-1.16101E+01-1.90659E+03 1.28181E+04-8.67021E-09-8.33552E-09
 -1       974-2.70515E+05-1.20274E+01-9.87757E+02 1.81612E+04-7.71274E-09 3.87968E-09
 -1       975-2.70452E+05 2.52060E+01-4.92774E+02 1.28081E+04-4.38831E-09 5.71720E-09
 -1       976-2.70462E+05 2.91084E+01-2.82545E+02 1.81734E+04-6.05178E-09-2.86695E-09
 -1       977-2.70465E+05 2.51540E+01-2.01938E+02 1.28058E+04 1.37288E-09 4.00519E-09
 -1       978-2.70465E+05 3.37918E+01-2.32047E+02 1.81767E+04 1.10007E-08-3.42447E-09
 -1       979-2.70465E+05 3.15003E+01-3.69158E+02 1.28048E+04 4.72016E-09 4.34591E-09
 -1       980-2.70493E+05 3.60978E+01-7.10500E+02 1.81772E+04 5.26393E-09 6.07315E-09
 -1       981-2.70442E+05 4.91967E+01-1.37487E+03 1.28052E+04 1.42450E-10 3.67527E-09
 -1       982-2.70681E+05-6.54108E+01-2.84114E+03 1.81717E+04-3.21052E-09 4.64638E-09
 -1       983-2.70269E+05-3.87260E+01-5.52000E+03 1.28105E+04 9.02901E-10-5.88443E-10
 -1       984-2.73336E+05-2.94811E+03-1.23613E+04 1.80986E+04-1.52158E-09 6.47731E-09
 -1       985-2.67770E+05-4.07789E+03-2.26993E+04 1.28828E+04 3.15686E-09 6.24277E-09
 -3
    1PSTEP                        13           7           1          
  100CL  107 5.74219E-01         409                     0    7           1
 -4  DISP        4    1
 -5  D1          1    2    1    0
 -5  D2          1    2    2    0
 -5  D3          1    2    3    0
 -5  ALL         1    2    0    0    1ALL
 -1         1 5.32965E-04 0.00000E+00 0.00000E+00
 -1         2 4.92096E-04-3.59495E-29 1.32349E-23
 -1         3 2.15177E-04-1.44833E-27 0.00000E+00
 -1         5 1.29515E-04-1.60509E-26 0.00000E+00
 -1         8 5.10130E-04-7.45289E-07 0.00000E+00
 -1         9 4.92264E-04-1.89145E-06 0.00000E+00
 -1        10 1.96694E-04-2.81369E-06 6.61744E-24
 -1        12 1.29684E-04 6.38257E-07 0.00000E+00
 -1        15 4.82837E-04-8.26201E-07 0.00000E+00
 -1        16 4.89072E-04-2.33003E-06 0.00000E+00
 -1        17 1.38812E-04-6.08415E-06 0.00000E+00
 -1        18 1.28907E-04 1.10230E-05 0.00000E+00
 -1        19 1.30193E-04 1.27329E-06 0.00000E+00
 -1        20 1.30340E-04 8.45313E-06 0.00000E+00
 -1        21 1.29671E-04 1.36262E-05 0.00000E+00
 -1        24 2.47557E-05-8.58370E-06 0.00000E+00
 -1        25 1.31281E-04 1.11777E-05 0.00000E+00
 -1        26 1.32003E-04 1.77353E-06 0.00000E+00
 -1        27 1.30244E-04 5.55175E-06 0.00000E+00
 -1        28 1.29820E-04 1.30920E-05 0.00000E+00
 -1        32 0.00000E+00 0.00000E+00 0.00000E+00
 -1        33 1.32705E-04 2.37361E-06 0.00000E+00
 -1        34 1.30963E-04 5.52168E-06 0.00000E+00
 -1        35 1.29338E-04 1.28054E-05 0.00000E+00
 -1        51 5.31486E-04-1.27994E-07 0.00000E+00
 -1        52 5.28738E-04-2.47128E-07 0.00000E+00
 -1        53 5.24971E-04-3.66401E-07 0.00000E+00
 -1        54 5.20442E-04-4.87662E-07-3.30872E-24
 -1        55 5.15408E-04-6.12032E-07 8.27181E-25
 -1        56 5.30739E-04-7.27193E-07 0.00000E+00
 -1        57 5.28357E-04-1.28336E-06-2.64698E-23
 -1        58 5.25900E-04-1.62491E-06 0.00000E+00
 -1        59 5.23349E-04-1.75840E-06 0.00000E+00
 -1        60 5.20726E-04-1.70102E-06 0.00000E+00
 -1        61 5.18040E-04-1.48590E-06 2.64698E-23
 -1        62 5.15313E-04-1.16199E-06-5.29396E-23
 -1        63 5.12566E-04-7.84817E-07 0.00000E+00
 -1        64 5.09822E-04-4.15324E-07-5.29396E-23
 -1        65 5.07103E-04-1.14025E-07 2.64698E-23
 -1        66 5.04431E-04 6.57368E-08 0.00000E+00
 -1        67 5.01824E-04 7.77339E-08 0.00000E+00
 -1        68 4.99291E-04-1.07454E-07 0.00000E+00
 -1        69 4.96852E-04-5.03936E-07-2.64698E-23
 -1        70 4.94487E-04-1.11290E-06 5.29396E-23
 -1        86 4.92101E-04-3.11628E-07-1.32349E-23
 -1        87 4.92119E-04-6.23657E-07-6.61744E-24
 -1        88 4.92147E-04-9.35748E-07-1.32349E-23
 -1        89 4.92182E-04-1.25038E-06 0.00000E+00
 -1        90 4.92222E-04-1.56415E-06 0.00000E+00
 -1       121 2.14658E-04-4.62891E-07-1.32349E-23
 -1       122 2.13106E-04-9.26820E-07 0.00000E+00
 -1       123 2.10523E-04-1.39281E-06-1.32349E-23
 -1       124 2.06919E-04-1.86193E-06 0.00000E+00
 -1       125 2.02304E-04-2.33500E-06 1.32349E-23
 -1       191 1.29520E-04 1.06380E-07-3.30872E-24
 -1       192 1.29534E-04 2.12759E-07 0.00000E+00
 -1       193 1.29557E-04 3.19139E-07 3.30872E-24
 -1       194 1.29590E-04 4.25516E-07-1.65436E-24
 -1       195 1.29633E-04 5.31890E-07 3.30872E-24
 -1       251 5.09524E-04-5.40233E-06 0.00000E+00
 -1       252 5.08666E-04-2.83084E-05 0.00000E+00
 -1       253 5.07432E-04-6.48477E-05 0.00000E+00
 -1       254 5.05855E-04-1.10069E-04 0.00000E+00
 -1       255 5.04222E-04-1.56561E-04 0.00000E+00
 -1       256 5.02848E-04-1.96886E-04 0.00000E+00
 -1       257 5.01852E-04-2.25354E-04-1.32349E-23
 -1       258 5.01185E-04-2.36568E-04 0.00000E+00
 -1       259 5.00557E-04-2.29952E-04 1.32349E-23
 -1       260 4.99659E-04-2.05375E-04 0.00000E+00
 -1       261 4.98383E-04-1.67721E-04 1.32349E-23
 -1       262 4.96791E-04-1.22191E-04-6.61744E-24
 -1       263 4.95181E-04-7.62233E-05-1.32349E-23
 -1       264 4.93857E-04-3.72648E-05 0.00000E+00
 -1       265 4.92913E-04-1.07696E-05 0.00000E+00
 -1       266 5.05581E-04-7.69423E-07 0.00000E+00
 -1       267 5.01032E-04-7.81611E-07 0.00000E+00
 -1       268 4.96483E-04-7.94554E-07 0.00000E+00
 -1       269 4.91935E-04-8.05257E-07 0.00000E+00
 -1       270 4.87386E-04-8.15907E-07 0.00000E+00
 -1       271 5.07399E-04 3.02218E-06 2.64698E-23
 -1       272 5.04892E-04 6.08794E-06 0.00000E+00
 -1       273 5.02643E-04 8.47417E-06 0.00000E+00
 -1       274 5.00638E-04 1.01960E-05-1.32349E-23
 -1       275 4.98872E-04 1.12838E-05 0.00000E+00
 -1       276 4.97330E-04 1.17750E-05-1.32349E-23
 -1       277 4.95993E-04 1.17171E-05-2.64698E-23
 -1       278 4.94842E-04 1.11655E-05 1.32349E-23
 -1       279 4.93852E-04 1.01833E-05 0.00000E+00
 -1       280 4.92997E-04 8.84038E-06 0.00000E+00
 -1       281 4.92249E-04 7.21192E-06 0.00000E+00
 -1       282 4.91578E-04 5.37764E-06 0.00000E+00
 -1       283 4.90954E-04 3.42031E-06-2.64698E-23
 -1       284 4.90347E-04 1.42585E-06 0.00000E+00
 -1       285 4.89723E-04-5.22081E-07 2.64698E-23
 -1       301 4.91697E-04-1.98181E-06 0.00000E+00
 -1       302 4.90761E-04-2.04704E-06 0.00000E+00
 -1       303 4.89744E-04-2.11073E-06-6.61744E-24
 -1       304 4.88932E-04-2.17430E-06 0.00000E+00
 -1       305 4.88613E-04-2.23943E-06-1.32349E-23
 -1       306 5.06594E-04-5.28590E-05 0.00000E+00
 -1       307 5.47376E-04-2.00951E-04 0.00000E+00
 -1       308 6.02403E-04-4.21674E-04-5.29396E-23
 -1       309 6.63015E-04-6.83298E-04 0.00000E+00
 -1       310 7.23427E-04-9.43371E-04 0.00000E+00
 -1       311 7.77714E-04-1.15958E-03 0.00000E+00
 -1       312 8.16950E-04-1.30107E-03-1.05879E-22
 -1       313 8.28742E-04-1.34446E-03 2.64698E-23
 -1       314 8.02501E-04-1.28870E-03-1.05879E-22
 -1       315 7.31157E-04-1.14183E-03-2.64698E-23
 -1       316 6.21257E-04-9.29669E-04 5.29396E-23
 -1       317 4.86901E-04-6.81218E-04 0.00000E+00
 -1       318 3.51972E-04-4.31936E-04 0.00000E+00
 -1       319 2.40490E-04-2.17283E-04-2.64698E-23
 -1       320 1.67061E-04-6.65821E-05 5.29396E-23
 -1       336 1.89974E-04-3.33554E-06-1.32349E-23
 -1       337 1.82039E-04-3.86655E-06 0.00000E+00
 -1       338 1.72916E-04-4.40705E-06 0.00000E+00
 -1       339 1.62643E-04-4.95711E-06 6.61744E-24
 -1       340 1.51260E-04-5.51879E-06 1.32349E-23
 -1       406 1.29746E-04 7.44612E-07-3.30872E-24
 -1       407 1.29816E-04 8.50932E-07 0.00000E+00
 -1       408 1.29896E-04 9.57190E-07-3.30872E-24
 -1       409 1.29986E-04 1.06326E-06 0.00000E+00
 -1       410 1.30085E-04 1.16894E-06 0.00000E+00
 -1       521 5.05406E-04-6.23683E-05-1.05879E-22
 -1       522 5.50286E-04-2.33576E-04 0.00000E+00
 -1       523 6.09418E-04-4.88280E-04 0.00000E+00
 -1       524 6.73346E-04-7.89394E-04 0.00000E+00
 -1       525 7.37054E-04-1.08820E-03 1.05879E-22
 -1       526 7.95288E-04-1.33620E-03 5.29396E-23
 -1       527 8.38070E-04-1.49760E-03 0.00000E+00
 -1       528 8.50725E-04-1.54640E-03-5.29396E-23
 -1       529 8.19309E-04-1.48114E-03 0.00000E+00
 -1       530 7.34636E-04-1.31252E-03 5.29396E-23
 -1       531 6.03495E-04-1.06984E-03-1.05879E-22
 -1       532 4.42730E-04-7.86443E-04 0.00000E+00
 -1       533 2.81043E-04-5.01810E-04 1.05879E-22
 -1       534 1.47364E-04-2.55429E-04 5.29396E-23
 -1       535 5.93580E-05-8.10363E-05-1.05879E-22
 -1       536 1.38476E-04 1.37112E-05 6.61744E-24
 -1       537 1.37801E-04 4.70981E-05-3.30872E-24
 -1       538 1.36827E-04 8.89248E-05 3.30872E-24
 -1       539 1.35719E-04 1.33994E-04 0.00000E+00
 -1       540 1.34728E-04 1.76205E-04 0.00000E+00
 -1       541 1.34063E-04 2.09469E-04 0.00000E+00
 -1       542 1.33715E-04 2.30131E-04 0.00000E+00
 -1       543 1.33563E-04 2.34605E-04 0.00000E+00
 -1       544 1.33363E-04 2.23487E-04 0.00000E+00
 -1       545 1.32897E-04 1.97472E-04 0.00000E+00
 -1       546 1.32131E-04 1.61142E-04 3.30872E-24
 -1       547 1.31152E-04 1.19141E-04 0.00000E+00
 -1       548 1.30193E-04 7.76716E-05 0.00000E+00
 -1       549 1.29482E-04 4.29333E-05 0.00000E+00
 -1       550 1.29074E-04 1.92864E-05-1.65436E-24
 -1       551 1.23330E-04-6.44082E-06-6.61744E-24
 -1       552 1.05355E-04-6.83154E-06 0.00000E+00
 -1       553 8.56938E-05-7.25076E-06 0.00000E+00
 -1       554 6.51625E-05-7.68823E-06 6.61744E-24
 -1       555 4.45789E-05-8.12939E-06 0.00000E+00
 -1       556 1.34416E-04 5.24916E-06 0.00000E+00
 -1       557 1.30948E-04 1.42171E-05 0.00000E+00
 -1       558 1.28314E-04 2.10191E-05 0.00000E+00
 -1       559 1.26425E-04 2.58709E-05 0.00000E+00
 -1       560 1.25196E-04 2.89884E-05 0.00000E+00
 -1       561 1.24541E-04 3.05885E-05 0.00000E+00
 -1       562 1.24376E-04 3.08891E-05 0.00000E+00
 -1       563 1.24616E-04 3.01082E-05 0.00000E+00
 -1       564 1.25180E-04 2.84644E-05 0.00000E+00
 -1       565 1.25984E-04 2.61762E-05 3.30872E-24
 -1       566 1.26946E-04 2.34628E-05 0.00000E+00
 -1       567 1.27986E-04 2.05431E-05-8.27181E-25
 -1       568 1.29020E-04 1.76362E-05-1.65436E-24
 -1       569 1.29969E-04 1.49610E-05 0.00000E+00
 -1       570 1.30749E-04 1.27366E-05 0.00000E+00
 -1       571 1.28985E-04 1.03982E-05 1.65436E-24
 -1       572 1.29064E-04 9.72592E-06 0.00000E+00
 -1       573 1.29145E-04 9.01632E-06-1.65436E-24
 -1       574 1.29225E-04 8.28006E-06-8.27181E-25
 -1       575 1.29306E-04 7.52784E-06 1.65436E-24
 -1       576 1.29386E-04 6.77038E-06 1.65436E-24
 -1       577 1.29467E-04 6.01846E-06 0.00000E+00
 -1       578 1.29547E-04 5.28284E-06-1.65436E-24
 -1       579 1.29628E-04 4.57427E-06-3.30872E-24
 -1       580 1.29709E-04 3.90353E-06 0.00000E+00
 -1       581 1.29789E-04 3.28139E-06 0.00000E+00
 -1       582 1.29870E-04 2.71858E-06 0.00000E+00
 -1       583 1.29951E-04 2.22586E-06 0.00000E+00
 -1       584 1.30032E-04 1.81385E-06 0.00000E+00
 -1       585 1.30112E-04 1.49310E-06 0.00000E+00
 -1       586 1.29248E-04 1.10505E-05 0.00000E+00
 -1       587 1.29563E-04 1.10774E-05-2.58494E-25
 -1       588 1.29889E-04 1.11040E-05 0.00000E+00
 -1       589 1.30260E-04 1.11301E-05 0.00000E+00
 -1       590 1.30713E-04 1.11553E-05 0.00000E+00
 -1       591 1.29100E-04 1.04530E-05-1.03398E-25
 -1       592 1.29300E-04 9.85722E-06 0.00000E+00
 -1       593 1.29508E-04 9.24170E-06 0.00000E+00
 -1       594 1.29720E-04 8.61150E-06 0.00000E+00
 -1       595 1.29936E-04 7.97181E-06 0.00000E+00
 -1       596 1.30154E-04 7.32773E-06 4.13590E-25
 -1       597 1.30371E-04 6.68440E-06-4.13590E-25
 -1       598 1.30586E-04 6.04695E-06-2.06795E-25
 -1       599 1.30797E-04 5.42047E-06 8.27181E-25
 -1       600 1.31002E-04 4.81008E-06 0.00000E+00
 -1       601 1.31199E-04 4.22091E-06 0.00000E+00
 -1       602 1.31386E-04 3.65807E-06-2.06795E-25
 -1       603 1.31562E-04 3.12668E-06 0.00000E+00
 -1       604 1.31724E-04 2.63193E-06 0.00000E+00
 -1       605 1.31871E-04 2.17890E-06-8.27181E-25
 -1       606 1.30206E-04 1.23213E-06 0.00000E+00
 -1       607 1.30216E-04 1.28509E-06 0.00000E+00
 -1       608 1.30226E-04 1.42662E-06 0.00000E+00
 -1       609 1.30235E-04 1.65050E-06 1.65436E-24
 -1       610 1.30244E-04 1.95047E-06 3.30872E-24
 -1       611 1.30253E-04 2.32017E-06 0.00000E+00
 -1       612 1.30262E-04 2.75325E-06 0.00000E+00
 -1       613 1.30271E-04 3.24335E-06 0.00000E+00
 -1       614 1.30279E-04 3.78410E-06 0.00000E+00
 -1       615 1.30288E-04 4.36913E-06 0.00000E+00
 -1       616 1.30297E-04 4.99210E-06 0.00000E+00
 -1       617 1.30306E-04 5.64663E-06-4.13590E-25
 -1       618 1.30315E-04 6.32636E-06 0.00000E+00
 -1       619 1.30323E-04 7.02493E-06 0.00000E+00
 -1       620 1.30332E-04 7.73598E-06 4.13590E-25
 -1       621 1.30363E-04 1.35682E-06 0.00000E+00
 -1       622 1.30606E-04 1.44068E-06 0.00000E+00
 -1       623 1.30906E-04 1.52450E-06 1.65436E-24
 -1       624 1.31249E-04 1.60817E-06 0.00000E+00
 -1       625 1.31619E-04 1.69169E-06 1.65436E-24
 -1       626 1.30300E-04 1.26086E-06 0.00000E+00
 -1       627 1.30380E-04 1.32377E-06-1.65436E-24
 -1       628 1.30435E-04 1.45423E-06-3.30872E-24
 -1       629 1.30468E-04 1.64404E-06 0.00000E+00
 -1       630 1.30481E-04 1.88501E-06 3.30872E-24
 -1       631 1.30478E-04 2.16887E-06 0.00000E+00
 -1       632 1.30463E-04 2.48738E-06-3.30872E-24
 -1       633 1.30437E-04 2.83229E-06 1.65436E-24
 -1       634 1.30405E-04 3.19535E-06-3.30872E-24
 -1       635 1.30369E-04 3.56831E-06 1.65436E-24
 -1       636 1.30332E-04 3.94292E-06 3.30872E-24
 -1       637 1.30298E-04 4.31093E-06 8.27181E-25
 -1       638 1.30269E-04 4.66408E-06 0.00000E+00
 -1       639 1.30249E-04 4.99413E-06-1.65436E-24
 -1       640 1.30240E-04 5.29281E-06 0.00000E+00
 -1       656 1.29843E-04 7.98115E-06 0.00000E+00
 -1       657 1.29734E-04 7.49026E-06 6.61744E-24
 -1       658 1.29874E-04 7.00079E-06 0.00000E+00
 -1       659 1.30119E-04 6.51171E-06 6.61744E-24
 -1       660 1.30298E-04 6.02110E-06-6.61744E-24
 -1       661 1.30157E-04 9.13659E-06-8.27181E-25
 -1       662 1.30003E-04 9.75132E-06 8.27181E-25
 -1       663 1.29873E-04 1.03003E-05-1.65436E-24
 -1       664 1.29767E-04 1.07877E-05-8.27181E-25
 -1       665 1.29683E-04 1.12173E-05 1.65436E-24
 -1       666 1.29620E-04 1.15927E-05 0.00000E+00
 -1       667 1.29575E-04 1.19175E-05 1.65436E-24
 -1       668 1.29548E-04 1.21951E-05 0.00000E+00
 -1       669 1.29537E-04 1.24288E-05 0.00000E+00
 -1       670 1.29542E-04 1.26219E-05 0.00000E+00
 -1       671 1.29561E-04 1.27774E-05 0.00000E+00
 -1       672 1.29593E-04 1.28983E-05 8.27181E-25
 -1       673 1.29636E-04 1.29876E-05 0.00000E+00
 -1       674 1.29689E-04 1.30479E-05 8.27181E-25
 -1       675 1.29753E-04 1.30824E-05-4.13590E-25
 -1       676 1.29696E-04 1.35366E-05 0.00000E+00
 -1       677 1.29721E-04 1.34471E-05 0.00000E+00
 -1       678 1.29746E-04 1.33576E-05 0.00000E+00
 -1       679 1.29771E-04 1.32684E-05 0.00000E+00
 -1       680 1.29795E-04 1.31792E-05 1.65436E-24
 -1       771 1.72958E-05 7.44552E-06 0.00000E+00
 -1       772 1.09474E-05 2.05989E-05 0.00000E+00
 -1       773 5.65837E-06 3.10236E-05-5.29396E-23
 -1       774 1.35787E-06 3.88823E-05 0.00000E+00
 -1       775-2.02417E-06 4.43423E-05 0.00000E+00
 -1       776-4.56064E-06 4.75795E-05 0.00000E+00
 -1       777-6.32487E-06 4.87749E-05 5.29396E-23
 -1       778-7.39184E-06 4.81160E-05 0.00000E+00
 -1       779-7.83672E-06 4.57947E-05 0.00000E+00
 -1       780-7.73603E-06 4.20084E-05-2.64698E-23
 -1       781-7.16624E-06 3.69579E-05 5.29396E-23
 -1       782-6.20490E-06 3.08481E-05-2.64698E-23
 -1       783-4.92941E-06 2.38864E-05 5.29396E-23
 -1       784-3.41800E-06 1.62831E-05-2.64698E-23
 -1       785-1.74862E-06 8.24997E-06 0.00000E+00
 -1       786 1.31323E-04 1.03842E-05 0.00000E+00
 -1       787 1.31368E-04 9.63627E-06 4.13590E-25
 -1       788 1.31412E-04 8.92638E-06 0.00000E+00
 -1       789 1.31457E-04 8.24694E-06-8.27181E-25
 -1       790 1.31503E-04 7.59359E-06 0.00000E+00
 -1       791 1.31548E-04 6.96197E-06 0.00000E+00
 -1       792 1.31593E-04 6.35001E-06 0.00000E+00
 -1       793 1.31639E-04 5.75570E-06 8.27181E-25
 -1       794 1.31684E-04 5.17883E-06-1.65436E-24
 -1       795 1.31730E-04 4.61925E-06 0.00000E+00
 -1       796 1.31775E-04 4.07860E-06 1.65436E-24
 -1       797 1.31821E-04 3.55857E-06 0.00000E+00
 -1       798 1.31866E-04 3.06298E-06 1.65436E-24
 -1       799 1.31912E-04 2.59571E-06 8.27181E-25
 -1       800 1.31958E-04 2.16359E-06 1.65436E-24
 -1       801 1.13722E-04 9.70262E-06 0.00000E+00
 -1       802 5.97380E-05 6.93408E-06 0.00000E+00
 -1       803 6.05066E-06 4.18038E-06 0.00000E+00
 -1       804-1.06064E-05 2.66526E-06 1.32349E-23
 -1       805-6.71078E-06 1.34054E-06 0.00000E+00
 -1       806 1.31486E-04 1.03304E-05 0.00000E+00
 -1       807 1.31676E-04 9.50964E-06 8.27181E-25
 -1       808 1.31855E-04 8.71911E-06-3.30872E-24
 -1       809 1.32021E-04 7.96148E-06 8.27181E-25
 -1       810 1.32174E-04 7.23940E-06-3.30872E-24
 -1       811 1.32313E-04 6.55544E-06 0.00000E+00
 -1       812 1.32436E-04 5.91217E-06 3.30872E-24
 -1       813 1.32543E-04 5.31215E-06-8.27181E-25
 -1       814 1.32633E-04 4.75792E-06 0.00000E+00
 -1       815 1.32705E-04 4.25203E-06 1.65436E-24
 -1       816 1.32757E-04 3.79703E-06 1.65436E-24
 -1       817 1.32790E-04 3.39543E-06 1.65436E-24
 -1       818 1.32802E-04 3.04978E-06 0.00000E+00
 -1       819 1.32792E-04 2.76260E-06 1.65436E-24
 -1       820 1.32760E-04 2.53638E-06-1.65436E-24
 -1       821 1.31899E-04 1.34027E-06 0.00000E+00
 -1       822 1.31789E-04 7.80233E-07 8.27181E-25
 -1       823 1.31679E-04 1.88191E-07 0.00000E+00
 -1       824 1.31569E-04-3.40918E-07 0.00000E+00
 -1       825 1.31458E-04-7.26503E-07-3.30872E-24
 -1       826 1.31347E-04-8.88673E-07 0.00000E+00
 -1       827 1.31235E-04-7.98224E-07 3.30872E-24
 -1       828 1.31124E-04-4.27205E-07 0.00000E+00
 -1       829 1.31013E-04 1.88681E-07 0.00000E+00
 -1       830 1.30901E-04 1.01252E-06 0.00000E+00
 -1       831 1.30790E-04 1.96023E-06-3.30872E-24
 -1       832 1.30679E-04 2.94711E-06 0.00000E+00
 -1       833 1.30567E-04 3.87955E-06 0.00000E+00
 -1       834 1.30458E-04 4.66423E-06 8.27181E-25
 -1       835 1.30347E-04 5.24125E-06 8.27181E-25
 -1       836 1.32290E-04 1.87337E-06 0.00000E+00
 -1       837 1.32467E-04 1.97549E-06 0.00000E+00
 -1       838 1.32566E-04 2.07746E-06-3.30872E-24
 -1       839 1.32618E-04 2.17878E-06-8.27181E-25
 -1       840 1.32654E-04 2.27993E-06 0.00000E+00
 -1       856 1.30221E-04 5.79162E-06 0.00000E+00
 -1       857 1.30195E-04 6.14914E-06 1.03398E-25
 -1       858 1.30169E-04 6.60589E-06 0.00000E+00
 -1       859 1.30142E-04 7.14335E-06 4.13590E-25
 -1       860 1.30116E-04 7.74292E-06-8.27181E-25
 -1       861 1.30089E-04 8.38592E-06 4.13590E-25
 -1       862 1.30062E-04 9.05366E-06 0.00000E+00
 -1       863 1.30035E-04 9.72740E-06 0.00000E+00
 -1       864 1.30009E-04 1.03884E-05 8.27181E-25
 -1       865 1.29982E-04 1.10179E-05-4.13590E-25
 -1       866 1.29955E-04 1.15973E-05 0.00000E+00
 -1       867 1.29928E-04 1.21079E-05 4.13590E-25
 -1       868 1.29901E-04 1.25311E-05-8.27181E-25
 -1       869 1.29875E-04 1.28484E-05 4.13590E-25
 -1       870 1.29848E-04 1.30414E-05 8.27181E-25
 -1       871 1.30240E-04 5.55020E-06-4.13590E-25
 -1       872 1.30356E-04 5.54607E-06 0.00000E+00
 -1       873 1.30541E-04 5.54146E-06-4.13590E-25
 -1       874 1.30740E-04 5.53624E-06 1.55096E-25
 -1       875 1.30898E-04 5.53049E-06 8.27181E-25
 -1       876 1.30261E-04 5.80289E-06-6.61744E-24
 -1       877 1.30259E-04 6.11132E-06 0.00000E+00
 -1       878 1.30239E-04 6.47011E-06 0.00000E+00
 -1       879 1.30202E-04 6.87287E-06-1.65436E-24
 -1       880 1.30151E-04 7.31317E-06-3.30872E-24
 -1       881 1.30089E-04 7.78461E-06 1.65436E-24
 -1       882 1.30017E-04 8.28079E-06 0.00000E+00
 -1       883 1.29938E-04 8.79535E-06 1.65436E-24
 -1       884 1.29855E-04 9.32189E-06 0.00000E+00
 -1       885 1.29770E-04 9.85406E-06 0.00000E+00
 -1       886 1.29685E-04 1.03855E-05-3.30872E-24
 -1       887 1.29602E-04 1.09098E-05 0.00000E+00
 -1       888 1.29525E-04 1.14205E-05-3.30872E-24
 -1       889 1.29454E-04 1.19112E-05-8.27181E-25
 -1       890 1.29393E-04 1.23755E-05 1.65436E-24
 -1       891 1.29866E-04 1.30440E-05 1.65436E-24
 -1       892 1.29892E-04 1.29958E-05 0.00000E+00
 -1       893 1.29875E-04 1.29477E-05 8.27181E-25
 -1       894 1.29792E-04 1.28998E-05-4.13590E-25
 -1       895 1.29621E-04 1.28519E-05-4.13590E-25
 -1       956 1.32598E-04 2.34308E-06 1.65436E-24
 -1       957 1.32489E-04 2.38050E-06 0.00000E+00
 -1       958 1.32380E-04 2.47820E-06 0.00000E+00
 -1       959 1.32271E-04 2.62805E-06 8.27181E-25
 -1       960 1.32162E-04 2.82194E-06 0.00000E+00
 -1       961 1.32053E-04 3.05168E-06 0.00000E+00
 -1       962 1.31944E-04 3.30911E-06 0.00000E+00
 -1       963 1.31834E-04 3.58603E-06 0.00000E+00
 -1       964 1.31725E-04 3.87426E-06 3.30872E-24
 -1       965 1.31616E-04 4.16561E-06 0.00000E+00
 -1       966 1.31506E-04 4.45191E-06 0.00000E+00
 -1       967 1.31397E-04 4.72496E-06 1.65436E-24
 -1       968 1.31288E-04 4.97657E-06 0.00000E+00
 -1       969 1.31179E-04 5.19861E-06 0.00000E+00
 -1       970 1.31070E-04 5.38293E-06 0.00000E+00
 -1       971 1.30863E-04 5.67462E-06-3.30872E-24
 -1       972 1.30761E-04 5.91372E-06-8.27181E-25
 -1       973 1.30659E-04 6.22946E-06 0.00000E+00
 -1       974 1.30557E-04 6.61199E-06 0.00000E+00
 -1       975 1.30455E-04 7.05143E-06 0.00000E+00
 -1       976 1.30353E-04 7.53786E-06 0.00000E+00
 -1       977 1.30251E-04 8.06139E-06 0.00000E+00
 -1       978 1.30149E-04 8.61210E-06 1.65436E-24
 -1       979 1.30046E-04 9.18006E-06 0.00000E+00
 -1       980 1.29944E-04 9.75534E-06 0.00000E+00
 -1       981 1.29842E-04 1.03280E-05 0.00000E+00
 -1       982 1.29740E-04 1.08882E-05-1.65436E-24
 -1       983 1.29638E-04 1.14259E-05 0.00000E+00
 -1       984 1.29537E-04 1.19312E-05-1.65436E-24
 -1       985 1.29436E-04 1.23943E-05-1.65436E-24
 -3
    1PSTEP                        14           7           1          
  100CL  107 5.74219E-01         409                     0    7           1
 -4  STRESS      6    1
 -5  SXX         1    4    1    1
 -5  SYY         1    4    2    2
 -5  SZZ         1    4    3    3
 -5  SXY         1    4    1    2
 -5  SYZ         1    4    2    3
 -5  SZX         1    4    3    1
 -1         1-2.94130E+06-1.18348E+06-6.35034E+05-1.37274E+06 4.00178E-10-1.57888E-08
 -1         2 1.99789E+03-8.88693E+05 6.44979E+03 4.49304E+01 6.29257E-11 4.00161E-08
 -1         3-4.84069E+02-1.31963E+06 3.16809E+02-1.07912E+03-1.87661E-10 9.29867E-09
 -1         5-1.42740E+00 3.04383E+05 7.69263E+00-7.42333E-02-8.06119E-11 9.45715E-09
 -1         8-1.03730E+06-3.59082E+05-1.11394E+05-5.12758E+05 2.61934E-10-2.50002E-08
 -1         9-5.27377E+05-8.22117E+05-6.54047E+01-7.79361E+05 1.61002E-08-1.00117E-08
 -1        10-1.33731E+03-1.37488E+06-2.33396E+03-7.29922E+03-7.37327E-09-1.53909E-08
 -1        12 1.72989E+00 3.04399E+05 2.49036E+02-5.62526E-01-3.10507E-11 1.81235E-08
 -1        15 1.76436E+03 9.69622E+02 5.70330E+03 3.47064E+00 2.25697E-10 1.20807E-07
 -1        16 1.17026E+06-9.40755E+05 1.44899E+05-1.20796E+06 1.25923E-08 4.00081E-08
 -1        17-7.76754E+03 8.65443E+04 8.21439E+04 2.05049E+05-8.55653E-10 1.22294E-08
 -1        18 2.23788E+03-4.00606E+03-2.36713E+04-8.51733E+04 9.03310E-09-2.05318E-09
 -1        19 9.82994E+04 1.13603E+05-6.66682E+02 1.91181E+04-2.83762E-11-1.55778E-09
 -1        20-5.28214E+04-4.64399E+05-1.03267E+05 2.79486E+04 2.09639E-09-2.66603E-09
 -1        21-4.13069E+01-2.56389E+05-8.15739E+02 4.39216E+00-3.80044E-10-2.87833E-09
 -1        24-5.37588E+05 8.12670E+05 2.61481E+05 4.77418E+05-7.29536E-08-3.09083E-08
 -1        25-1.02630E+05-5.77673E+05-1.15808E+05-1.83378E+05 5.27507E-11 1.40768E-08
 -1        26-3.81074E+04 7.40467E+04-1.90226E+04-3.96205E+03 1.58943E-09 4.29192E-09
 -1        27-6.72525E+04-2.52558E+05-9.37808E+04 5.69943E+04 5.27113E-09-5.74801E-09
 -1        28 1.96581E+04-7.21978E+04 1.45644E+04 2.05080E+04 9.14213E-10-7.72962E-09
 -1        32-1.39720E+06-2.21010E+06-6.27840E+04-3.83450E+05-2.82707E-08-4.98001E-09
 -1        33-1.48002E+05 7.30759E+04 2.60748E+04-3.44030E+04-1.32710E-10 6.86396E-09
 -1        34-1.86259E+05-1.91987E+04 5.03725E+02 5.95170E+04 9.63510E-10-1.70288E-09
 -1        35-2.00580E+04-2.86759E+04-1.13255E+03 4.46614E+04 2.89629E-09-5.44120E-09
 -1        51 3.00830E+04-3.03827E+05 6.90657E+04-8.67111E+05 1.60071E-10 1.94996E-09
 -1        52 1.34046E+04-2.96027E+05 4.03442E+04-1.01118E+06 6.76664E-10 4.70027E-08
 -1        53 6.56304E+03-3.10766E+05 2.74947E+04-8.64029E+05 8.44011E-10 2.05036E-08
 -1        54 1.74143E+04-3.08562E+05 3.56937E+04-1.01437E+06-2.18279E-10-2.41598E-08
 -1        55 3.48970E+04-3.21027E+05 5.86819E+04-8.63554E+05 6.83940E-10 1.73786E-08
 -1        56-5.59815E+06-6.26502E+05-4.68335E+05-2.17042E+06-2.92493E-09 4.77303E-09
 -1        57-5.82665E+06-1.01170E+06-3.16000E+05-2.10657E+06-4.06544E-09-1.05065E-08
 -1        58-5.68730E+06-7.80366E+05-1.10092E+05-2.14662E+06-5.06770E-09-1.69530E-09
 -1        59-5.72479E+06-8.29682E+05-6.57268E+04-2.13311E+06-1.72940E-09 3.70601E-08
 -1        60-5.69857E+06-8.03562E+05-2.56597E+04-2.14542E+06-3.77986E-09 1.79989E-09
 -1        61-5.71244E+06-8.01779E+05-1.45594E+04-2.13362E+06 8.10985E-09-4.28881E-08
 -1        62-5.69936E+06-8.07605E+05-6.92151E+03-2.14627E+06 1.62697E-09-1.28045E-08
 -1        63-5.71146E+06-7.97681E+05-5.60940E+03-2.13289E+06-4.43747E-09 4.51303E-08
 -1        64-5.69950E+06-8.07582E+05-6.21994E+03-2.14616E+06-1.83866E-09 1.55874E-08
 -1        65-5.71171E+06-8.01461E+05-1.24739E+04-2.13405E+06 4.33374E-09-1.96917E-09
 -1        66-5.69914E+06-8.03890E+05-2.17332E+04-2.14510E+06-1.10549E-09-1.84600E-08
 -1        67-5.72145E+06-8.25647E+05-5.54858E+04-2.13438E+06-5.28235E-09-1.46929E-08
 -1        68-5.69001E+06-7.83958E+05-9.28979E+04-2.14570E+06-2.56478E-10 1.60908E-08
 -1        69-5.80666E+06-9.79901E+05-2.66576E+05-2.11280E+06-6.43922E-10 2.67719E-08
 -1        70-5.61519E+06-6.53838E+05-3.95207E+05-2.16539E+06-2.51021E-09 1.91212E-08
 -1        86-9.96471E+02-8.90419E+05 6.98541E+03-2.24658E+01-1.20508E-11 1.19645E-08
 -1        87 6.63878E+03-8.86449E+05 1.44782E+04 8.22844E+01 1.95541E-11 1.40667E-08
 -1        88-5.62268E+03-8.92658E+05 2.22768E+04-5.98219E+01 1.31877E-10 4.90323E-08
 -1        89 4.19307E+04-8.70072E+05 5.99580E+04 1.36536E+02-6.54836E-11-3.26279E-08
 -1        90-3.61689E+04-9.06756E+05 8.48492E+04-7.67231E+01 1.09139E-10 1.52901E-08
 -1       121-6.86004E+02-1.32136E+06 3.42441E+01 5.37702E+02 7.84937E-10-3.46699E-09
 -1       122-3.65761E+02-1.31960E+06 6.58677E+02-2.15585E+03-3.02860E-09-8.62019E-09
 -1       123-7.41097E+02-1.32144E+06 7.84388E+02 1.60707E+03 2.37480E-09 9.90985E-09
 -1       124 9.12652E+02-1.31896E+06 2.68500E+03-4.56396E+03-6.00994E-09-2.69210E-09
 -1       125-1.50395E+03-1.32215E+06 3.80920E+03 2.93805E+03 4.11001E-09 1.17070E-08
 -1       191-1.75584E+00 3.04410E+05 9.40406E+00 3.72153E-02-5.94982E-11 6.69661E-09
 -1       192-2.13215E+00 3.04384E+05 1.62769E+01-3.02277E-01-4.36309E-11-2.60206E-09
 -1       193-3.63050E+00 3.04410E+05 3.04733E+01 2.65864E-01-1.35605E-10-2.15846E-09
 -1       194-4.40045E+00 3.04386E+05 6.15392E+01-7.11092E-01-5.90319E-11 7.41602E-09
 -1       195-7.23321E+00 3.04408E+05 1.20576E+02 4.48019E-01-1.47132E-10 2.83990E-09
 -1       251-1.83482E+06 9.55356E+03-1.11703E+05 5.11855E+04 8.60382E-10 1.30749E-08
 -1       252-1.52056E+06-1.22517E+04-1.23999E+04-2.00139E+05 2.21735E-09 3.50619E-08
 -1       253-1.71462E+06-1.83384E+03-2.58859E+04 1.49014E+05 4.37467E-09 2.91548E-08
 -1       254-1.67412E+06 1.42291E+04-4.43789E+03-3.05838E+05 3.47382E-09-1.13256E-08
 -1       255-1.69740E+06-3.63216E+03-7.00157E+03 1.57577E+05-9.40781E-09 3.45503E-08
 -1       256-1.54835E+06 1.47797E+04 2.73206E+04-2.31383E+05-2.21448E-08 2.15367E-08
 -1       257-1.82818E+06-1.23503E+04-3.16172E+04 7.39704E+04-8.53106E-09-1.78642E-09
 -1       258-1.38936E+06 1.15961E+04 5.87778E+04-1.48402E+04 2.25145E-09-3.01520E-09
 -1       259-1.84076E+06-1.32062E+04-3.32277E+04-5.86834E+04 2.35614E-08-3.63680E-08
 -1       260-1.52049E+06 1.50699E+04 3.55128E+04 2.11389E+05-8.05812E-09-2.02510E-08
 -1       261-1.70999E+06-5.25197E+03-3.88557E+03-1.51766E+05-2.55409E-08 3.80385E-09
 -1       262-1.67187E+06 2.09182E+04 9.61348E+03 3.06740E+05 1.65163E-08 1.24277E-08
 -1       263-1.70438E+06-6.78088E+03-1.07167E+02-1.54699E+05-1.75214E-09-3.33798E-08
 -1       264-1.52712E+06 3.22011E+04 4.50993E+04 2.22182E+05-6.93271E-08 1.64671E-08
 -1       265-1.84110E+06-2.76255E+04-2.06007E+04-6.65787E+04-2.31448E-08-8.31278E-10
 -1       266-3.19402E+04-1.49337E+04 7.49480E+04-7.42672E+01 7.63976E-11 2.31214E-08
 -1       267 3.70282E+04 1.74079E+04 5.29685E+04 8.56817E+01 2.90129E-10 4.27825E-08
 -1       268-4.96538E+03-2.46532E+03 1.96884E+04-1.09178E+01 1.31877E-10 1.17452E-08
 -1       269 5.86270E+03 2.95060E+03 1.27969E+04 1.27171E+01 2.23736E-10 5.58490E-09
 -1       270-8.79996E+02-4.84800E+02 6.17726E+03-1.72582E+00 2.02135E-10 2.63765E-08
 -1       271-2.92713E+06-3.63419E+05-2.19965E+05-1.13592E+06-6.58474E-10 8.73115E-10
 -1       272-3.02092E+06-5.09818E+05-1.41541E+05-1.11777E+06-2.92516E-09-3.06463E-08
 -1       273-2.96870E+06-4.18236E+05-5.19508E+04-1.12590E+06 1.93540E-09-1.98052E-08
 -1       274-2.97154E+06-4.43222E+05-2.90952E+04-1.13330E+06 2.54158E-09 4.26630E-08
 -1       275-2.97542E+06-4.22968E+05-1.21109E+04-1.12303E+06 6.79847E-09 1.58889E-08
 -1       276-2.96261E+06-4.38550E+05-6.39274E+03-1.13841E+06 3.53702E-09 1.84773E-08
 -1       277-2.97765E+06-4.22098E+05-3.15386E+03-1.12115E+06 4.38740E-09-2.67578E-08
 -1       278-2.95927E+06-4.40497E+05-2.19051E+03-1.14186E+06-1.45883E-09 5.42527E-08
 -1       279-2.97893E+06-4.20841E+05-2.31195E+03-1.11974E+06 6.50016E-09 7.32621E-09
 -1       280-2.95771E+06-4.42998E+05-4.11690E+03-1.14429E+06 2.35559E-10-1.75157E-08
 -1       281-2.97939E+06-4.19522E+05-7.46913E+03-1.11884E+06 4.17731E-09 9.30868E-10
 -1       282-2.96008E+06-4.49107E+05-1.78883E+04-1.14505E+06 8.64702E-10-5.24892E-09
 -1       283-2.97677E+06-4.15096E+05-3.17896E+04-1.11891E+06 9.57698E-10 1.95359E-08
 -1       284-2.98775E+06-4.92561E+05-8.67463E+04-1.13860E+06-9.18089E-09 3.13776E-08
 -1       285-2.95248E+06-3.80360E+05-1.34741E+05-1.12375E+06-5.59521E-09 1.88957E-08
 -1       301 2.31870E+04-1.82030E+05 1.72476E+05-3.46477E+05 8.73115E-11-4.22551E-09
 -1       302 2.46376E+04-1.38746E+05 1.10418E+05-5.07314E+05 1.97360E-10 3.44673E-08
 -1       303 1.04250E+03-1.64912E+05 7.95357E+04-3.45821E+05 1.94632E-10 5.13101E-08
 -1       304 2.37323E+04-1.37374E+05 1.09862E+05-5.06826E+05 4.94765E-10 5.03569E-08
 -1       305 2.15910E+04-1.79970E+05 1.71016E+05-3.47032E+05-2.03727E-10 3.90100E-08
 -1       306-9.95286E+06-1.29558E+06-1.64830E+06-2.03689E+06-3.14321E-08-1.12050E-08
 -1       307 1.78680E+05-1.88273E+06 6.17698E+05-4.78542E+06-3.11011E-07-4.15384E-08
 -1       308-7.60172E+06 2.26202E+05-2.12818E+05-2.61634E+04-3.71801E-08 1.84846E-08
 -1       309-3.74037E+06-2.09372E+06 1.73332E+05-7.44148E+06 1.36314E-07-9.42964E-09
 -1       310-7.68493E+06 1.97692E+05-1.47975E+05-6.85831E+04 4.24625E-08-5.09808E-08
 -1       311 3.84093E+05-1.88888E+06 8.91655E+05-4.58404E+06 2.04745E-07-5.76692E-08
 -1       312-9.97915E+06-1.33359E+06-1.13308E+06-2.14188E+06-9.98261E-09 8.85993E-08
 -1       313 2.16794E+06 5.17329E+05 1.55410E+06 7.64771E+05-4.38013E-09 1.25205E-07
 -1       314-8.22808E+06-3.06809E+06-1.12936E+06-4.07236E+06 1.23808E-07-7.20320E-08
 -1       315-5.24382E+06 3.69572E+06 8.82794E+05 1.61382E+06-1.35617E-07-4.06944E-08
 -1       316-4.21802E+06-3.24654E+06-1.46816E+05-3.90731E+06-3.88827E-07-1.69843E-07
 -1       317-1.04088E+07 4.56484E+06 1.61391E+05-1.39380E+04 2.49962E-07-2.53433E-07
 -1       318-4.15130E+06-3.23720E+06-2.37775E+05-3.89307E+06-2.97921E-07 3.12793E-08
 -1       319-5.46263E+06 3.74205E+06 5.67672E+05 1.56119E+06-7.36472E-08 2.89438E-08
 -1       320-8.12456E+06-3.09073E+06-1.73689E+06-4.08407E+06 6.49015E-08-1.29876E-08
 -1       336 4.70367E+02-1.43042E+06-9.08245E+03 4.32963E+03-1.52522E-08 3.44880E-09
 -1       337-3.42080E+03-1.43168E+06-1.08672E+04-1.05397E+04-2.82581E-08 2.54022E-08
 -1       338 5.48314E+02-1.43040E+06-1.54190E+04 6.15717E+03-2.01635E-08 1.96815E-09
 -1       339-1.62387E+04-1.44010E+06-3.44186E+04-1.41062E+04-3.67968E-08-7.74708E-09
 -1       340 1.08429E+04-1.42265E+06-5.37015E+04 7.85424E+03-2.36905E-08 1.38498E-08
 -1       406 2.09545E+01 3.04396E+05 4.91866E+02 1.18582E-01-1.30044E-10 2.57683E-09
 -1       407 1.73123E+02 3.04485E+05 1.04491E+03 2.51595E+00-9.23421E-11-2.24559E-08
 -1       408 5.39750E+02 3.04321E+05 2.08715E+03-2.70254E+00-2.78646E-10-1.46997E-08
 -1       409 2.25800E+03 3.05152E+05 4.69825E+03 2.70063E+01-1.06184E-10-1.96915E-08
 -1       410 6.48451E+03 3.03728E+05 9.59141E+03-2.55249E+01-4.08590E-10-7.12998E-09
 -1       521-1.21714E+07-1.76271E+06-2.23650E+06-2.28169E+06-3.74275E-08 2.35741E-08
 -1       522 6.54873E+05-2.20497E+06 7.61993E+05-6.29503E+06-2.23692E-07-1.06713E-07
 -1       523-9.18254E+06 2.39587E+05-2.71908E+05 2.05316E+05-3.15340E-08-1.37679E-07
 -1       524-4.88756E+06-2.07258E+06 2.42171E+05-9.71662E+06 2.69800E-07-2.21191E-07
 -1       525-9.31903E+06 1.87735E+05-1.98657E+05 1.39804E+05 2.73780E-07-9.90203E-08
 -1       526 1.04235E+06-2.22744E+06 1.14050E+06-5.95350E+06 1.44966E-07 4.83924E-08
 -1       527-1.22198E+07-1.84137E+06-1.55937E+06-2.44977E+06-8.24220E-08 6.20348E-08
 -1       528 3.62586E+06 7.20131E+05 1.95921E+06 1.35560E+06-4.84870E-08 1.18511E-07
 -1       529-9.94336E+06-4.08890E+06-1.55065E+06-4.92892E+06-2.50293E-09 2.70666E-08
 -1       530-6.44827E+06 5.19297E+06 1.13157E+06 2.19397E+06-2.30066E-07 1.33645E-07
 -1       531-4.87022E+06-4.22780E+06-1.86609E+05-4.73799E+06-3.45855E-07 3.98286E-08
 -1       532-1.32885E+07 6.33145E+06 2.48615E+05-4.36682E+05 2.05364E-07-2.52795E-07
 -1       533-4.76449E+06-4.21490E+06-2.69724E+05-4.71312E+06 4.04398E-08-4.27142E-07
 -1       534-6.79123E+06 5.34644E+06 8.04748E+05 2.07016E+06-6.28570E-08 3.20404E-07
 -1       535-9.80673E+06-4.18767E+06-2.19757E+06-4.94075E+06 1.49012E-08 1.96313E-07
 -1       536-4.74099E+05-2.91342E+04 2.31547E+04-2.47810E+04-6.17729E-09 3.51174E-08
 -1       537-2.75089E+05 3.09041E+04 4.94683E+04 6.09514E+04-6.91637E-08 6.10962E-08
 -1       538-3.78039E+05-1.28018E+03 1.08566E+04-3.75437E+04 1.26489E-08 6.38511E-08
 -1       539-3.39667E+05 3.32406E+03 1.32707E+04 6.97548E+04 7.99122E-08 6.92721E-08
 -1       540-4.10940E+05-4.19129E+02-4.26475E+03-3.36596E+04 8.56312E-09 5.06672E-08
 -1       541-2.13368E+05 5.48494E+03 3.37372E+04 4.40729E+04 1.47611E-09 3.72519E-08
 -1       542-5.00953E+05-6.21309E+03-2.50080E+04-1.17258E+04 2.96629E-08 1.23014E-08
 -1       543-1.41309E+05 8.15429E+03 4.69098E+04-8.36266E+03 9.36325E-10-1.48716E-08
 -1       544-4.81089E+05-4.64800E+03-2.19983E+04 1.86616E+04-1.74166E-08-3.09830E-08
 -1       545-2.58458E+05 2.06962E+03 2.15008E+04-5.56775E+04-2.38870E-08-2.83672E-08
 -1       546-3.86900E+05 2.39712E+03-4.94078E+03 3.55455E+04 1.51688E-08-5.42773E-08
 -1       547-3.49284E+05-4.01966E+03-1.96868E+03-7.17252E+04-5.98974E-08-5.83055E-08
 -1       548-3.92643E+05 3.38689E+03-1.48942E+04 3.48164E+04-5.93241E-08-5.31777E-08
 -1       549-2.50543E+05-9.85786E+03-2.11582E+03-5.23964E+04-3.53757E-08-4.51805E-08
 -1       550-4.82891E+05 5.97657E+03-6.80393E+04 1.60991E+04 1.29467E-09-3.71529E-08
 -1       551 2.46686E+04-6.71211E+05 2.06630E+04-1.06810E+06-6.39338E-08 4.72937E-09
 -1       552 5.48170E+04-6.90345E+05 3.03562E+04-1.52211E+06-4.66389E-08 2.80925E-08
 -1       553 3.99076E+04-6.94756E+05 4.56727E+04-1.06367E+06-7.60119E-08 2.38215E-08
 -1       554 8.44191E+04-6.91478E+05 9.69228E+04-1.52380E+06-4.96802E-08 1.28239E-08
 -1       555 6.89562E+04-7.14723E+05 1.72156E+05-1.06438E+06-7.67322E-08-4.04179E-09
 -1       556 1.36245E+05-2.46730E+05 6.30297E+04-2.96907E+05-9.70613E-09-1.03028E-08
 -1       557 2.31434E+05-3.23348E+05 3.38600E+04-3.76200E+05 7.39237E-09-6.54109E-09
 -1       558 1.30815E+05-2.52114E+05 1.25247E+04-2.91902E+05-9.89530E-09 3.05226E-09
 -1       559 2.15006E+05-3.30669E+05 6.72010E+03-3.85761E+05 8.52742E-09 6.74845E-10
 -1       560 1.24446E+05-2.48044E+05 2.10296E+03-2.96269E+05 3.46336E-09 1.70658E-08
 -1       561 2.06440E+05-3.27655E+05 1.38328E+03-3.91373E+05 0.00000E+00 2.03881E-08
 -1       562 1.19437E+05-2.44848E+05 1.80967E+02-2.99864E+05-8.68749E-09 1.15378E-08
 -1       563 2.00558E+05-3.25095E+05 3.37935E+02-3.95164E+05-1.01427E-08-8.74707E-10
 -1       564 1.16073E+05-2.42728E+05 4.67894E+00-3.02238E+05 2.88128E-09 1.52786E-08
 -1       565 1.97035E+05-3.23565E+05 1.30523E+02-3.97399E+05 1.74623E-09 3.80987E-09
 -1       566 1.14421E+05-2.41673E+05-6.33168E-01-3.03399E+05-2.38651E-09-1.23673E-08
 -1       567 1.95841E+05-3.23033E+05-8.40737E+01-3.98060E+05 1.42700E-08-1.21909E-08
 -1       568 1.14531E+05-2.41756E+05-4.22530E+02-3.03414E+05 7.56700E-10 9.91713E-09
 -1       569 1.96031E+05-3.22962E+05-1.05248E+03-3.96297E+05-8.53106E-10 1.80862E-08
 -1       570 1.17175E+05-2.43959E+05-2.47614E+03-3.02926E+05 3.63798E-09-6.88851E-09
 -1       571 2.30533E+05 8.46759E+03 1.24262E+04-6.18419E+04-5.17502E-10-2.24986E-09
 -1       572 2.32370E+05 3.00884E+03 6.08847E+03-6.78348E+04-2.21598E-09-1.44155E-08
 -1       573 2.31270E+05 7.80198E+02 2.70502E+03-6.17075E+04 6.48015E-10 5.51927E-09
 -1       574 2.31479E+05 3.20690E+02 1.35567E+03-6.79918E+04 3.46358E-09 9.03219E-09
 -1       575 2.31353E+05 1.16186E+02 6.39406E+02-6.16896E+04 8.26617E-10 8.32642E-09
 -1       576 2.31362E+05 1.01194E+02 3.26395E+02-6.80128E+04-1.40466E-09-1.14242E-08
 -1       577 2.31373E+05 7.61725E+01 1.62206E+02-6.16872E+04 1.25146E-09-4.91082E-09
 -1       578 2.31362E+05 8.36403E+01 9.15774E+01-6.80155E+04 1.17780E-09-1.70576E-09
 -1       579 2.31400E+05 6.52275E+01 6.10430E+01-6.16870E+04 1.72986E-09-5.28325E-09
 -1       580 2.31400E+05 6.65196E+01 6.61878E+01-6.80119E+04-2.26646E-09-1.07116E-08
 -1       581 2.31444E+05 4.62313E+01 9.86753E+01-6.16908E+04 1.08539E-08 6.17683E-09
 -1       582 2.31476E+05 6.62168E+01 1.96166E+02-6.79726E+04 1.63964E-08-5.31236E-09
 -1       583 2.31494E+05 1.04337E+02 3.79320E+02-6.17264E+04 8.15089E-09-1.13816E-08
 -1       584 2.31678E+05 4.06561E+02 8.53905E+02-6.76739E+04 7.73980E-10-2.71075E-09
 -1       585 2.31459E+05 1.15228E+03 1.73419E+03-6.19898E+04 3.72893E-10-3.82352E-09
 -1       586-2.92469E+03 7.70114E+04-3.44706E+03-2.06258E+05-2.26737E-09 3.38650E-09
 -1       587-7.61785E+02 7.66005E+04-3.11587E+01-2.27032E+05-2.25737E-09 5.61636E-09
 -1       588 7.17330E+02 7.66256E+04 3.31581E+03-2.06162E+05-8.67658E-10 1.00845E-08
 -1       589 4.34186E+03 7.84202E+04 9.16920E+03-2.26792E+05-2.89583E-09 1.08685E-09
 -1       590 1.29968E+04 7.56103E+04 1.94571E+04-2.06517E+05-2.23008E-09 1.02009E-08
 -1       591-4.70956E+04-1.19620E+04-1.61933E+04-2.23245E+04-3.37991E-10-1.15569E-08
 -1       592-4.94034E+04-1.51497E+04-8.77130E+03-2.56478E+04 2.93250E-09-8.61110E-09
 -1       593-4.87209E+04-1.07809E+04-3.65131E+03-2.35061E+04-3.84205E-10-3.42266E-09
 -1       594-4.71590E+04-1.27829E+04-1.82110E+03-2.57438E+04-5.10568E-10 7.58358E-09
 -1       595-4.88451E+04-1.07764E+04-8.36537E+02-2.35600E+04 4.88649E-09 1.66503E-08
 -1       596-4.70060E+04-1.26746E+04-4.25931E+02-2.57265E+04 9.37869E-09 1.47325E-08
 -1       597-4.88607E+04-1.07872E+04-2.33329E+02-2.35620E+04 6.90505E-09 3.08404E-09
 -1       598-4.69910E+04-1.26705E+04-1.90133E+02-2.57217E+04 6.99174E-12 6.55632E-10
 -1       599-4.88596E+04-1.07875E+04-2.46064E+02-2.35616E+04 1.50976E-09 5.74039E-09
 -1       600-4.70068E+04-1.26757E+04-4.59654E+02-2.57255E+04 1.72940E-09 4.46130E-09
 -1       601-4.88406E+04-1.07765E+04-9.08118E+02-2.35587E+04 1.41631E-09-4.20448E-09
 -1       602-4.71728E+04-1.27929E+04-1.97984E+03-2.57417E+04 9.83164E-10-4.73619E-09
 -1       603-4.87036E+04-1.07835E+04-3.97075E+03-2.35005E+04 2.94222E-10 3.43698E-09
 -1       604-4.96257E+04-1.53532E+04-9.53850E+03-2.56198E+04-2.79897E-09-1.50576E-08
 -1       605-4.69214E+04-1.20803E+04-1.76097E+04-2.22291E+04 1.09782E-09 1.15342E-08
 -1       606 2.74067E+04-1.11008E+04-1.99493E+04 2.63115E+04 3.30147E-10 1.49339E-09
 -1       607 2.39933E+04-3.60001E+03-9.93391E+03 2.95436E+04 8.86757E-10-6.70343E-09
 -1       608 2.59314E+04-6.25508E+02-4.44820E+03 2.61070E+04 2.58296E-10-2.19484E-09
 -1       609 2.55502E+04-1.84263E+02-2.24674E+03 2.97756E+04-1.71349E-09 8.58734E-09
 -1       610 2.57555E+04 4.44622E+00-1.07283E+03 2.60839E+04-2.20825E-09 2.04909E-09
 -1       611 2.56873E+04 1.43250E+01-5.40891E+02 2.98009E+04-3.52338E-09-5.40217E-09
 -1       612 2.57102E+04 2.04892E+01-2.58093E+02 2.60816E+04 1.15724E-08-6.13386E-09
 -1       613 2.56874E+04 2.25067E+01-1.16453E+02 2.98039E+04 2.03436E-08-2.02378E-08
 -1       614 2.56861E+04 1.99105E+01-2.97366E+01 2.60808E+04 6.88760E-09-1.31820E-08
 -1       615 2.56762E+04 2.75665E+01 4.32942E+01 2.98043E+04 1.82945E-09-1.52409E-09
 -1       616 2.56676E+04 2.55507E+01 1.34838E+02 2.60811E+04 2.47837E-10 4.02883E-09
 -1       617 2.56872E+04 5.95135E+01 3.09808E+02 2.98038E+04 4.20164E-09-6.02290E-09
 -1       618 2.56368E+04 1.17329E+02 6.25141E+02 2.60812E+04 6.53336E-09-4.35944E-09
 -1       619 2.59047E+04 5.44892E+02 1.40435E+03 2.98030E+04 1.63527E-08-1.27163E-08
 -1       620 2.54272E+04 1.60153E+03 2.82277E+03 2.60804E+04 1.11232E-08-2.82034E-09
 -1       621 3.01948E+02 2.40226E+05 2.96936E+03 1.72256E+04 1.00522E-09-6.89306E-09
 -1       622 4.14746E+02 2.40963E+05 2.64825E+03 2.54335E+04 9.63155E-10 3.71074E-09
 -1       623 2.42972E+01 2.40413E+05 3.19268E+03 1.71434E+04 1.87254E-09-4.62023E-10
 -1       624 1.53339E+03 2.41963E+05 6.20670E+03 2.55164E+04 1.17419E-09-1.31062E-08
 -1       625 1.35649E+03 2.39190E+05 1.08028E+04 1.71417E+04 2.22553E-09-4.65661E-10
 -1       626 2.08443E+05 5.42052E+04 4.51762E+03 1.07702E+05-7.14863E-10 2.68847E-09
 -1       627 2.06071E+05 5.57658E+04 2.17699E+03 1.11833E+05-4.54929E-09-9.29924E-09
 -1       628 2.08576E+05 5.21110E+04 9.19935E+02 1.08435E+05 1.41245E-09 5.44787E-09
 -1       629 2.05470E+05 5.52015E+04 4.50388E+02 1.12078E+05-2.05091E-10 2.05221E-08
 -1       630 2.08586E+05 5.20118E+04 2.08156E+02 1.08460E+05 2.55659E-09 1.25214E-08
 -1       631 2.05401E+05 5.51842E+04 1.11178E+02 1.12078E+05 4.58476E-09 2.24040E-08
 -1       632 2.08578E+05 5.20183E+04 7.16585E+01 1.08453E+05 5.46152E-09 1.28309E-08
 -1       633 2.05388E+05 5.51887E+04 7.75621E+01 1.12071E+05-1.38016E-10-4.42742E-09
 -1       634 2.08569E+05 5.20185E+04 1.23283E+02 1.08449E+05 2.61934E-09 1.81162E-08
 -1       635 2.05395E+05 5.51894E+04 2.48343E+02 1.12072E+05-6.12670E-09 1.02089E-08
 -1       636 2.08558E+05 5.20162E+04 5.00871E+02 1.08447E+05 4.73284E-09 3.45863E-08
 -1       637 2.05500E+05 5.52682E+04 1.10061E+03 1.12069E+05-2.01914E-09 3.27964E-09
 -1       638 2.08517E+05 5.22604E+04 2.26146E+03 1.08335E+05-1.97042E-09-6.53426E-09
 -1       639 2.06687E+05 5.69199E+04 5.35014E+03 1.11717E+05-1.13801E-09 3.18846E-09
 -1       640 2.08357E+05 5.71883E+04 1.11026E+04 1.06250E+05 2.34058E-09 6.17160E-09
 -1       656 5.47031E+04-1.39148E+06-1.32054E+05-7.59973E+02 7.71252E-10-8.96497E-09
 -1       657-7.23298E+04-1.45111E+06-1.09308E+05 7.23364E+03 4.92037E-10-8.87135E-09
 -1       658 1.73967E+04-1.40845E+06-6.72062E+04-2.29329E+03 2.51703E-10 6.84545E-09
 -1       659-7.79024E+04-1.45375E+06-1.16628E+05 8.35910E+03-1.05774E-09-7.84910E-09
 -1       660 6.02629E+04-1.38885E+06-1.44642E+05-1.88541E+03-8.29459E-10 1.39983E-09
 -1       661 1.65865E+05 1.78338E+04 1.64790E+04 6.48649E+04 6.10271E-10 2.70666E-09
 -1       662 1.74764E+05 3.04481E+04 1.11047E+04 6.16441E+04 7.01277E-10 1.33546E-08
 -1       663 1.69099E+05 2.31224E+04 3.88424E+03 6.39283E+04-5.30235E-10-7.74139E-09
 -1       664 1.71018E+05 2.42605E+04 2.32279E+03 6.27856E+04 2.47383E-10-2.91061E-09
 -1       665 1.69587E+05 2.38476E+04 9.16310E+02 6.37888E+04-8.54584E-10-8.56517E-10
 -1       666 1.70443E+05 2.34289E+04 5.35178E+02 6.29661E+04-3.30066E-09-2.06089E-09
 -1       667 1.69670E+05 2.39322E+04 2.83115E+02 6.37558E+04 9.82197E-10-6.26906E-09
 -1       668 1.70352E+05 2.33650E+04 2.85822E+02 6.30140E+04 2.77964E-09-1.00621E-09
 -1       669 1.69677E+05 2.39095E+04 3.84788E+02 6.37415E+04 4.12336E-09 1.93845E-09
 -1       670 1.70447E+05 2.35715E+04 8.35856E+02 6.30156E+04-8.18879E-10 7.87962E-09
 -1       671 1.69576E+05 2.37298E+04 1.48344E+03 6.37525E+04-1.73244E-09-4.72323E-09
 -1       672 1.71311E+05 2.50147E+04 3.79480E+03 6.28066E+04-2.42549E-09 1.33451E-08
 -1       673 1.68817E+05 2.25028E+04 6.35927E+03 6.39365E+04-2.45564E-10 3.21688E-09
 -1       674 1.77366E+05 3.52297E+04 1.81861E+04 6.10265E+04-6.03620E-10 5.36124E-09
 -1       675 1.63560E+05 1.38006E+04 2.69942E+04 6.54249E+04-3.07045E-09-1.81171E-09
 -1       676 2.11635E+01-2.56321E+05-9.83178E+02-2.19613E+00-2.90157E-10 1.52731E-08
 -1       677-2.61117E+02-2.56559E+05-1.79935E+03 4.38947E+00-1.58641E-09-1.02708E-08
 -1       678 1.74296E+02-2.56152E+05-3.18079E+03-2.19185E+00-1.21531E-10-3.51813E-09
 -1       679-3.18173E+03-2.58479E+05-7.55610E+03 4.37306E+00-5.91058E-10 1.40248E-09
 -1       680 1.89887E+03-2.54402E+05-1.21779E+04-2.15500E+00-1.02227E-09 8.75753E-09
 -1       771-2.71155E+06-5.60858E+05-8.79891E+04-1.21402E+06-2.12603E-08-1.78406E-08
 -1       772-2.66795E+06-6.18122E+05-4.60658E+04-1.27937E+06-1.52504E-08 8.50923E-09
 -1       773-2.72734E+06-5.48381E+05-2.20241E+04-1.21978E+06-8.20728E-09 7.87259E-09
 -1       774-2.65919E+06-6.08880E+05-1.01423E+04-1.29085E+06 2.06637E-08-1.17507E-09
 -1       775-2.73412E+06-5.43577E+05-6.62710E+03-1.22180E+06-3.49246E-10 1.90630E-09
 -1       776-2.66265E+06-6.08359E+05-2.64110E+03-1.29877E+06-3.04863E-09 2.24099E-09
 -1       777-2.73972E+06-5.39470E+05-2.59653E+03-1.22355E+06-1.67347E-09 2.46291E-09
 -1       778-2.66656E+06-6.07991E+05-7.96102E+02-1.30549E+06 2.50293E-09 5.14592E-09
 -1       779-2.74441E+06-5.35952E+05-1.20485E+03-1.22506E+06-5.98084E-09-3.31784E-09
 -1       780-2.67002E+06-6.07603E+05-2.32566E+02-1.31095E+06-6.20275E-09 7.21411E-09
 -1       781-2.74808E+06-5.33153E+05-4.78411E+02-1.22625E+06-1.76078E-08 7.00311E-10
 -1       782-2.67266E+06-6.07238E+05 8.20250E+01-1.31495E+06-2.49711E-08-2.47837E-09
 -1       783-2.75063E+06-5.31242E+05 1.04055E+02-1.22708E+06-1.04919E-08-1.33243E-08
 -1       784-2.67416E+06-6.06796E+05 6.76091E+02-1.31740E+06-1.06684E-08 3.31443E-09
 -1       785-2.75204E+06-5.30175E+05 1.16413E+03-1.22759E+06-2.13222E-08 3.89173E-09
 -1       786 1.26426E+05-9.06404E+03 2.09692E+04-1.34468E+02 1.82340E-09 3.46427E-09
 -1       787 1.35518E+05 1.04933E+04 1.48351E+04 2.31996E+01 2.49562E-09-2.15505E-09
 -1       788 1.29932E+05-1.42078E+03 5.42585E+03-1.07746E+02 1.20406E-09 6.12954E-09
 -1       789 1.31434E+05 1.64378E+03 3.40712E+03-1.98663E+01 6.50044E-10 3.63394E-09
 -1       790 1.30511E+05-2.21686E+02 1.38162E+03-9.14080E+01-9.46902E-10-9.45431E-09
 -1       791 1.30757E+05 2.56265E+02 8.02179E+02-4.82295E+01-2.69533E-09-4.14504E-09
 -1       792 1.30609E+05-3.43047E+01 3.48283E+02-7.93834E+01-9.05340E-10 2.28758E-09
 -1       793 1.30643E+05 3.96070E+01 1.91965E+02-7.08822E+01 6.98229E-10-7.82871E-09
 -1       794 1.30626E+05-5.16555E+00 8.67314E+01-6.87549E+01 8.39531E-10-1.29734E-08
 -1       795 1.30622E+05 5.66700E+00 4.53093E+01-9.30371E+01-1.52356E-09 1.53018E-08
 -1       796 1.30629E+05-3.81608E-01 1.93940E+01-5.72281E+01 1.09864E-09-1.05856E-08
 -1       797 1.30618E+05-1.83518E+00 5.63296E+00-1.19432E+02 1.68176E-09-1.43315E-08
 -1       798 1.30630E+05 2.32967E+00-4.01760E+00-4.23600E+01 3.90551E-10 6.94356E-10
 -1       799 1.30611E+05-1.76676E+01-2.25268E+01-1.55697E+02 1.87689E-09-1.98786E-09
 -1       800 1.30636E+05 1.54278E+01-3.50937E+01-2.09621E+01-1.21654E-11 1.48224E-08
 -1       801 7.58057E+04-4.34897E+06-4.61687E+05 2.21856E+05 3.55794E-08-1.57979E-08
 -1       802-5.32422E+04-2.55997E+06 3.92723E+04-2.08925E+05 9.98407E-08-2.03506E-08
 -1       803-2.48139E+04-4.41624E+06-2.29113E+05 2.21293E+05 4.47508E-08 2.67237E-08
 -1       804-2.49242E+04-3.14773E+06 5.10496E+04 1.71645E+05-7.05859E-09-3.52065E-09
 -1       805 3.82925E+04-3.76644E+06-5.59486E+04-1.58491E+05-3.27054E-09-3.44508E-09
 -1       806-2.53800E+05-4.78943E+04-1.84860E+04-9.91189E+04-5.91035E-09-3.04135E-09
 -1       807-2.55459E+05-4.46716E+04-9.08194E+03-1.03361E+05-6.22003E-09 8.99105E-09
 -1       808-2.54292E+05-4.12480E+04-3.85295E+03-1.02288E+05-9.35006E-09 1.47761E-08
 -1       809-2.53559E+05-4.21119E+04-1.88403E+03-1.03576E+05-5.30940E-09-1.49214E-09
 -1       810-2.54369E+05-4.10164E+04-8.63434E+02-1.02429E+05 2.63026E-09 8.03107E-09
 -1       811-2.53413E+05-4.20080E+04-4.29287E+02-1.03548E+05 1.35378E-09-3.44244E-10
 -1       812-2.54382E+05-4.10355E+04-2.16762E+02-1.02429E+05-1.02864E-09-8.15430E-09
 -1       813-2.53395E+05-4.20091E+04-1.40426E+02-1.03535E+05-5.57111E-09-9.84346E-09
 -1       814-2.54379E+05-4.10421E+04-1.38245E+02-1.02427E+05-1.18234E-11-1.34560E-09
 -1       815-2.53399E+05-4.20103E+04-2.22278E+02-1.03531E+05-1.13323E-09-2.01771E-09
 -1       816-2.54364E+05-4.10400E+04-4.20608E+02-1.02425E+05 1.88447E-09 1.01486E-08
 -1       817-2.53473E+05-4.20499E+04-9.03065E+02-1.03524E+05-5.11091E-09 2.48292E-09
 -1       818-2.54313E+05-4.11654E+04-1.84152E+03-1.02366E+05 3.81988E-11-5.07362E-09
 -1       819-2.54481E+05-4.31648E+04-4.33386E+03-1.03292E+05 2.38288E-09 1.00929E-08
 -1       820-2.53974E+05-4.44318E+04-8.82048E+03-1.00961E+05 6.64477E-09 1.15532E-08
 -1       821-3.10131E+05 1.71655E+04-3.97003E+04 4.55338E+02 1.38451E-07-1.15378E-08
 -1       822-3.27324E+05-1.98718E+04-2.80920E+04-1.13811E+03 2.74038E-07 4.28190E-09
 -1       823-3.16762E+05 2.69172E+03-1.02817E+04 5.02047E+02 1.34849E-07 5.41104E-09
 -1       824-3.19573E+05-3.11456E+03-6.46716E+03-9.71692E+02 6.51752E-10 8.17931E-09
 -1       825-3.17879E+05 4.20753E+02-2.66261E+03 2.88921E+02 8.36803E-10-3.94004E-09
 -1       826-3.18262E+05-4.95387E+02-1.59751E+03-3.84681E+02-4.46594E-10 8.75559E-10
 -1       827-3.18071E+05 7.36464E+01-8.38840E+02-8.49732E+01-1.04738E-09-9.96366E-09
 -1       828-3.18088E+05-1.51178E+02-7.30274E+02 3.51641E+02-3.89091E-09-5.03191E-09
 -1       829-3.18052E+05 7.68442E+01-8.54931E+02-4.47413E+02 9.58664E-11 1.47723E-08
 -1       830-3.18315E+05-5.15578E+02-1.66310E+03 8.97473E+02 9.57609E-10 3.23917E-09
 -1       831-3.17846E+05 4.38613E+02-2.76023E+03-6.30816E+02-2.21380E-09 4.92082E-09
 -1       832-3.19651E+05-3.23828E+03-6.72630E+03 1.00080E+03-1.92756E-09 9.67248E-09
 -1       833-3.16718E+05 2.79781E+03-1.06923E+04-5.50743E+02-1.40603E-09-2.62526E-09
 -1       834-3.27657E+05-2.06602E+04-2.92029E+04 6.10790E+02-1.05205E-09 2.10516E-08
 -1       835-3.09841E+05 1.78465E+04-4.12869E+04-2.40791E+02 5.63310E-09 8.02720E-09
 -1       836-1.05533E+03 2.92410E+05 1.76972E+04-1.63466E+04-1.01045E-09 1.27702E-08
 -1       837 3.84607E+03 2.97919E+05 1.51641E+04-3.29153E+04-8.77208E-10 1.32968E-09
 -1       838-4.09819E+02 2.93928E+05 1.57158E+04-1.62813E+04-4.96584E-10-1.39516E-09
 -1       839 1.00687E+04 3.02557E+05 2.99904E+04-3.29556E+04 1.50976E-10 6.70298E-10
 -1       840-3.06234E+03 2.87728E+05 4.79376E+04-1.63061E+04-3.43789E-10 5.74789E-09
 -1       856-7.23482E+04 7.62353E+03-2.00903E+04-4.20406E+02 3.14685E-10 3.79168E-09
 -1       857-8.06409E+04-8.94518E+03-1.38310E+04 4.86388E+03-1.32417E-09 5.43514E-09
 -1       858-7.56265E+04 1.06839E+03-5.21358E+03-4.42400E+02-4.17629E-10-4.03588E-09
 -1       859-7.68772E+04-1.24545E+03-3.14774E+03 4.89831E+03-1.77391E-09 3.79561E-09
 -1       860-7.61165E+04 1.48826E+02-1.32178E+03-4.54866E+02 1.08611E-09 7.68279E-09
 -1       861-7.63131E+04-1.67042E+02-7.32552E+02 4.91537E+03-3.42646E-09-5.71980E-09
 -1       862-7.61929E+04 1.97195E+01-3.15368E+02-4.59482E+02 1.36770E-09-1.57553E-08
 -1       863-7.62214E+04-1.25571E+01-1.39527E+02 4.91764E+03 4.88896E-09-1.24979E-08
 -1       864-7.62085E+04-2.22314E+00-1.06323E+01-4.57139E+02 1.42532E-09-6.47812E-09
 -1       865-7.61838E+04 4.00482E+01 1.19011E+02 4.90543E+03 6.15060E-09-1.00907E-08
 -1       866-7.62287E+04-3.32006E+01 2.68296E+02-4.47268E+02-8.32131E-10 6.36362E-09
 -1       867-7.60499E+04 2.76460E+02 6.78759E+02 4.87857E+03 3.51804E-09 8.09700E-09
 -1       868-7.63386E+04-2.35232E+02 1.13220E+03-4.30286E+02 6.52506E-10 2.65061E-09
 -1       869-7.52141E+04 1.95663E+03 3.02160E+03 4.83392E+03-4.66031E-10-3.49445E-09
 -1       870-7.70585E+04-1.66899E+03 4.38392E+03-4.02615E+02-1.08867E-09-4.79622E-09
 -1       871-4.66928E+03-1.20097E+04-1.54937E+04 1.03079E+05 1.01863E-10-1.43518E-08
 -1       872-1.93698E+03-1.55199E+04-6.37836E+03 1.33643E+05-5.59339E-10 1.33787E-08
 -1       873 5.30674E+01-1.38681E+04 7.43073E+02 1.02853E+05 3.83807E-10 7.22139E-10
 -1       874 2.42589E+03-1.17287E+04 8.41567E+03 1.33682E+05 1.11640E-10 5.06975E-09
 -1       875 5.53126E+03-1.58668E+04 1.87713E+04 1.03043E+05-1.54614E-11 4.86943E-09
 -1       876 2.45352E+05 4.18759E+04 1.28480E+04 9.90795E+04-1.51454E-09 4.45016E-09
 -1       877 2.46146E+05 4.46367E+04 6.86125E+03 1.02815E+05 5.32054E-10-9.07403E-09
 -1       878 2.46552E+05 4.04542E+04 2.87455E+03 1.00135E+05 4.80395E-09-9.19090E-09
 -1       879 2.44399E+05 4.28948E+04 1.43212E+03 1.02904E+05 1.39665E-08 1.61317E-08
 -1       880 2.46639E+05 4.04389E+04 6.66935E+02 1.00178E+05 7.38873E-09 3.04794E-09
 -1       881 2.44283E+05 4.28206E+04 3.55748E+02 1.02885E+05 3.98859E-09 7.47670E-09
 -1       882 2.46647E+05 4.04498E+04 2.26912E+02 1.00179E+05 8.27413E-09-2.92239E-09
 -1       883 2.44275E+05 4.28169E+04 2.42834E+02 1.02880E+05 1.17741E-08 6.59253E-09
 -1       884 2.46642E+05 4.04472E+04 3.85294E+02 1.00179E+05 4.19726E-09 7.98929E-09
 -1       885 2.44306E+05 4.28224E+04 7.74036E+02 1.02889E+05 9.40361E-10 8.19159E-09
 -1       886 2.46612E+05 4.04246E+04 1.55975E+03 1.00176E+05 5.52430E-09 8.76355E-09
 -1       887 2.44580E+05 4.30021E+04 3.40698E+03 1.02929E+05 1.83340E-09-1.82922E-10
 -1       888 2.46397E+05 4.04624E+04 6.86515E+03 1.00067E+05 8.01265E-10 1.63373E-08
 -1       889 2.48669E+05 4.72508E+04 1.64000E+04 1.02801E+05 7.41970E-10 5.58771E-09
 -1       890 2.43600E+05 4.37858E+04 3.07163E+04 9.74486E+04 3.23848E-09-8.20910E-09
 -1       891-1.30462E+02-1.37871E+05-1.65894E+03 2.48301E+04 3.66526E-10-3.39242E-09
 -1       892-2.31742E+02-1.38280E+05-1.79255E+03 3.76073E+04-8.47194E-10-1.91631E-08
 -1       893-2.03072E+01-1.37924E+05-2.54926E+03 2.48356E+04-1.33696E-10-3.07409E-10
 -1       894-1.35664E+03-1.39250E+05-5.28414E+03 3.74717E+04 1.05911E-09 6.35555E-09
 -1       895-1.06580E+03-1.36823E+05-9.30854E+03 2.49647E+04 1.66574E-09-4.33829E-09
 -1       956-3.11466E+05-4.38457E+03-1.09914E+04 2.17642E+04-4.73847E-10 9.09677E-09
 -1       957-3.13633E+05-1.49333E+03-5.64233E+03 2.62041E+04-1.82717E-09 6.79529E-09
 -1       958-3.12444E+05-1.33703E+02-2.54215E+03 2.16345E+04 6.09361E-10-1.68052E-09
 -1       959-3.12615E+05-3.86694E+01-1.29845E+03 2.63475E+04-3.32057E-09 3.47609E-09
 -1       960-3.12534E+05 2.19732E+01-6.33112E+02 2.16218E+04-3.24053E-09 4.14275E-10
 -1       961-3.12542E+05 1.73305E+01-3.36052E+02 2.63621E+04-1.85651E-09 1.39912E-08
 -1       962-3.12553E+05 1.83790E+01-1.92716E+02 2.16198E+04-2.30466E-09 9.68453E-09
 -1       963-3.12540E+05 1.91299E+01-1.55352E+02 2.63647E+04 1.27045E-09 1.55919E-08
 -1       964-3.12556E+05 2.05935E+01-1.89472E+02 2.16192E+04-2.38600E-09-7.76163E-09
 -1       965-3.12551E+05 2.20421E+01-3.28161E+02 2.63644E+04-8.62281E-09-1.98270E-09
 -1       966-3.12545E+05 2.85627E+01-6.16561E+02 2.16201E+04-6.84963E-09-5.02610E-09
 -1       967-3.12629E+05-2.79008E+01-1.26477E+03 2.63550E+04 9.16316E-11-1.43632E-09
 -1       968-3.12465E+05-1.18721E+02-2.47547E+03 2.16288E+04 6.86214E-10-3.12039E-09
 -1       969-3.13630E+05-1.44093E+03-5.49610E+03 2.62544E+04 1.60367E-09-8.98183E-09
 -1       970-3.11517E+05-4.25668E+03-1.07057E+04 2.17209E+04 5.56611E-10-2.67300E-09
 -1       971-2.90913E+05-1.50110E+03-8.27479E+03 1.36330E+04 2.47201E-09-6.26031E-10
 -1       972-2.92920E+05-1.08351E+03-4.50637E+03 1.89964E+04-2.77851E-10 5.40058E-09
 -1       973-2.91834E+05-2.16191E+01-2.01809E+03 1.35205E+04 4.16458E-09 2.45814E-09
 -1       974-2.91969E+05-2.55566E+01-1.04567E+03 1.91195E+04 9.23023E-09 3.71801E-09
 -1       975-2.91907E+05 1.76569E+01-5.22054E+02 1.35098E+04 4.09545E-09 2.60047E-09
 -1       976-2.91914E+05 1.82493E+01-3.00015E+02 1.91328E+04 4.75211E-11 3.03930E-09
 -1       977-2.91921E+05 1.78389E+01-2.15663E+02 1.35072E+04 2.20621E-09 2.50532E-09
 -1       978-2.91917E+05 2.34000E+01-2.49523E+02 1.91365E+04 6.13352E-09 1.81115E-09
 -1       979-2.91921E+05 2.47985E+01-3.98461E+02 1.35061E+04 2.50145E-09-1.89141E-09
 -1       980-2.91947E+05 2.59326E+01-7.67845E+02 1.91372E+04 2.52487E-09-1.17127E-08
 -1       981-2.91896E+05 4.39481E+01-1.48634E+03 1.35065E+04 1.64607E-09-7.58729E-09
 -1       982-2.92151E+05-8.38362E+01-3.07178E+03 1.91313E+04-3.32875E-10-9.29028E-09
 -1       983-2.91709E+05-5.11520E+01-5.96824E+03 1.35121E+04 2.12935E-09 1.57479E-09
 -1       984-2.95021E+05-3.20073E+03-1.33652E+04 1.90545E+04 1.06138E-09 3.00884E-09
 -1       985-2.89007E+05-4.41834E+03-2.45428E+04 1.35858E+04 1.03637E-09-1.28057E-08
 -3
    1PSTEP                        15           8           1          
  100CL  108 6.09375E-01         409                     0    8           1
 -4  DISP        4    1
 -5  D1          1    2    1    0
 -5  D2          1    2    2    0
 -5  D3          1    2    3    0
 -5  ALL         1    2    0    0    1ALL
 -1         1 1.30195E-03 0.00000E+00 0.00000E+00
 -1         2 1.22690E-03 8.58011E-28-1.32349E-23
 -1         3 2.69069E-04 1.13677E-26 0.00000E+00
 -1         5 1.49516E-04 1.01641E-25-1.65436E-24
 -1         8 1.28243E-03-6.15930E-07 0.00000E+00
 -1         9 1.25091E-03-3.71105E-06 0.00000E+00
 -1        10 2.44813E-04-3.24189E-06 6.61744E-24
 -1        12 1.50381E-04 7.07194E-07-1.65436E-24
 -1        15 1.25900E-03-6.77738E-07-2.06795E-25
 -1        16 1.26583E-03-4.51204E-06 0.00000E+00
 -1        17 1.69329E-04-7.13581E-06 0.00000E+00
 -1        18 1.51566E-04 2.07238E-05 0.00000E+00
 -1        19 1.52978E-04 1.41029E-06 0.00000E+00
 -1        20 1.53124E-04 8.01072E-07 0.00000E+00
 -1        21 1.52369E-04-2.67088E-06 3.30872E-24
 -1        24 2.71928E-05-1.03268E-05 0.00000E+00
 -1        25 1.57440E-04 2.09087E-05 0.00000E+00
 -1        26 1.58141E-04 1.96473E-06 0.00000E+00
 -1        27 1.56203E-04-2.36511E-06 0.00000E+00
 -1        28 1.55830E-04-3.23877E-06 0.00000E+00
 -1        32 0.00000E+00 0.00000E+00 0.00000E+00
 -1        33 1.62241E-04 2.62787E-06 0.00000E+00
 -1        34 1.60350E-04-2.40461E-06 0.00000E+00
 -1        35 1.58605E-04-3.54658E-06 0.00000E+00
 -1        51 1.30069E-03-1.11078E-07 0.00000E+00
 -1        52 1.29835E-03-2.10005E-07 0.00000E+00
 -1        53 1.29513E-03-3.07834E-07 0.00000E+00
 -1        54 1.29125E-03-4.06566E-07 0.00000E+00
 -1        55 1.28695E-03-5.07567E-07-4.96308E-24
 -1        56 1.29893E-03-3.60702E-07-5.29396E-23
 -1        57 1.29531E-03 5.62354E-07 2.64698E-23
 -1        58 1.29126E-03 2.61543E-06 0.00000E+00
 -1        59 1.28688E-03 5.51832E-06-5.29396E-23
 -1        60 1.28231E-03 8.89215E-06 0.00000E+00
 -1        61 1.27772E-03 1.23192E-05-5.29396E-23
 -1        62 1.27327E-03 1.53758E-05-1.05879E-22
 -1        63 1.26911E-03 1.76622E-05 5.29396E-23
 -1        64 1.26536E-03 1.88821E-05-1.05879E-22
 -1        65 1.26209E-03 1.88105E-05-5.29396E-23
 -1        66 1.25933E-03 1.73961E-05 0.00000E+00
 -1        67 1.25706E-03 1.46781E-05 0.00000E+00
 -1        68 1.25519E-03 1.08702E-05-1.05879E-22
 -1        69 1.25364E-03 6.26542E-06-2.64698E-23
 -1        70 1.25223E-03 1.25214E-06 0.00000E+00
 -1        86 1.22797E-03-6.09233E-07 0.00000E+00
 -1        87 1.23113E-03-1.22287E-06 0.00000E+00
 -1        88 1.23577E-03-1.84186E-06 0.00000E+00
 -1        89 1.24121E-03-2.46554E-06-1.32349E-23
 -1        90 1.24656E-03-3.08846E-06-2.64698E-23
 -1       121 2.68388E-04-5.30005E-07 1.32349E-23
 -1       122 2.66348E-04-1.06179E-06 0.00000E+00
 -1       123 2.62956E-04-1.59712E-06 1.32349E-23
 -1       124 2.58224E-04-2.13778E-06-6.61744E-24
 -1       125 2.52169E-04-2.68524E-06 0.00000E+00
 -1       191 1.49540E-04 1.17883E-07 1.65436E-24
 -1       192 1.49612E-04 2.35762E-07 1.65436E-24
 -1       193 1.49732E-04 3.53637E-07 0.00000E+00
 -1       194 1.49901E-04 4.71504E-07 0.00000E+00
 -1       195 1.50117E-04 5.89358E-07-1.65436E-24
 -1       251 1.28175E-03-1.14176E-05 0.00000E+00
 -1       252 1.28035E-03-5.13078E-05 0.00000E+00
 -1       253 1.27795E-03-1.12448E-04 1.32349E-23
 -1       254 1.27472E-03-1.86470E-04 0.00000E+00
 -1       255 1.27142E-03-2.61279E-04 0.00000E+00
 -1       256 1.26889E-03-3.24767E-04-6.61744E-24
 -1       257 1.26735E-03-3.68105E-04 1.32349E-23
 -1       258 1.26661E-03-3.82962E-04-6.61744E-24
 -1       259 1.26588E-03-3.68928E-04-1.32349E-23
 -1       260 1.26438E-03-3.26346E-04 6.61744E-24
 -1       261 1.26188E-03-2.63496E-04-1.32349E-23
 -1       262 1.25862E-03-1.89156E-04-6.61744E-24
 -1       263 1.25540E-03-1.15438E-04-1.32349E-23
 -1       264 1.25301E-03-5.44396E-05-1.32349E-23
 -1       265 1.25161E-03-1.45671E-05-2.64698E-23
 -1       266 1.27852E-03-6.35177E-07 0.00000E+00
 -1       267 1.27462E-03-6.44388E-07 0.00000E+00
 -1       268 1.27071E-03-6.54235E-07 0.00000E+00
 -1       269 1.26681E-03-6.62198E-07-2.06795E-25
 -1       270 1.26290E-03-6.70118E-07 0.00000E+00
 -1       271 1.28002E-03 2.86725E-06 0.00000E+00
 -1       272 1.27766E-03 6.15169E-06 1.32349E-23
 -1       273 1.27540E-03 9.16548E-06 0.00000E+00
 -1       274 1.27327E-03 1.18255E-05 0.00000E+00
 -1       275 1.27130E-03 1.40572E-05 0.00000E+00
 -1       276 1.26952E-03 1.57895E-05 1.32349E-23
 -1       277 1.26795E-03 1.69581E-05-2.64698E-23
 -1       278 1.26661E-03 1.75054E-05 0.00000E+00
 -1       279 1.26553E-03 1.73823E-05 0.00000E+00
 -1       280 1.26471E-03 1.65474E-05 0.00000E+00
 -1       281 1.26418E-03 1.49691E-05-2.64698E-23
 -1       282 1.26392E-03 1.26246E-05 0.00000E+00
 -1       283 1.26396E-03 9.50128E-06 2.64698E-23
 -1       284 1.26429E-03 5.59716E-06 0.00000E+00
 -1       285 1.26491E-03 9.18023E-07-2.64698E-23
 -1       301 1.25358E-03-3.86444E-06 1.32349E-23
 -1       302 1.25549E-03-3.98969E-06 3.30872E-24
 -1       303 1.25715E-03-4.11246E-06-1.32349E-23
 -1       304 1.25909E-03-4.23518E-06 0.00000E+00
 -1       305 1.26181E-03-4.36136E-06 2.64698E-23
 -1       306 1.27732E-03-1.00715E-04-1.05879E-22
 -1       307 1.33744E-03-3.74763E-04 0.00000E+00
 -1       308 1.40520E-03-7.81835E-04 0.00000E+00
 -1       309 1.46962E-03-1.26157E-03 0.00000E+00
 -1       310 1.53456E-03-1.73234E-03 0.00000E+00
 -1       311 1.60220E-03-2.11341E-03 5.29396E-23
 -1       312 1.65739E-03-2.34936E-03-1.05879E-22
 -1       313 1.67104E-03-2.40370E-03 5.29396E-23
 -1       314 1.60961E-03-2.27843E-03 0.00000E+00
 -1       315 1.45067E-03-1.99967E-03 5.29396E-23
 -1       316 1.20406E-03-1.61643E-03-1.05879E-22
 -1       317 9.02155E-04-1.17998E-03 0.00000E+00
 -1       318 6.03800E-04-7.46846E-04-1.05879E-22
 -1       319 3.66872E-04-3.73816E-04-5.29396E-23
 -1       320 2.20109E-04-1.11435E-04 0.00000E+00
 -1       336 2.36012E-04-3.85165E-06-1.32349E-23
 -1       337 2.25631E-04-4.47657E-06 0.00000E+00
 -1       338 2.13715E-04-5.11758E-06 0.00000E+00
 -1       339 2.00318E-04-5.77486E-06-6.61744E-24
 -1       340 1.85500E-04-6.45148E-06 1.32349E-23
 -1       406 1.50694E-04 8.25003E-07-1.65436E-24
 -1       407 1.51055E-04 9.42759E-07-8.27181E-25
 -1       408 1.51464E-04 1.06043E-06 0.00000E+00
 -1       409 1.51921E-04 1.17786E-06-1.65436E-24
 -1       410 1.52426E-04 1.29484E-06 1.65436E-24
 -1       521 1.29347E-03-1.09979E-04-1.05879E-22
 -1       522 1.35454E-03-4.03486E-04 0.00000E+00
 -1       523 1.42090E-03-8.38432E-04-1.05879E-22
 -1       524 1.48184E-03-1.34912E-03 0.00000E+00
 -1       525 1.54362E-03-1.84959E-03 1.05879E-22
 -1       526 1.61052E-03-2.25497E-03-5.29396E-23
 -1       527 1.66658E-03-2.50496E-03-1.05879E-22
 -1       528 1.67983E-03-2.56164E-03-5.29396E-23
 -1       529 1.61189E-03-2.42643E-03 1.05879E-22
 -1       530 1.43783E-03-2.12977E-03 0.00000E+00
 -1       531 1.16736E-03-1.72365E-03 0.00000E+00
 -1       532 8.36439E-04-1.26289E-03 5.29396E-23
 -1       533 5.08897E-04-8.05078E-04-1.05879E-22
 -1       534 2.47608E-04-4.08097E-04 0.00000E+00
 -1       535 8.50930E-05-1.26276E-04 0.00000E+00
 -1       536 1.68828E-04 1.95718E-05 0.00000E+00
 -1       537 1.67644E-04 6.59434E-05 0.00000E+00
 -1       538 1.65846E-04 1.24780E-04 3.30872E-24
 -1       539 1.63741E-04 1.88816E-04 0.00000E+00
 -1       540 1.61845E-04 2.49256E-04 3.30872E-24
 -1       541 1.60596E-04 2.97320E-04 0.00000E+00
 -1       542 1.59996E-04 3.27729E-04 0.00000E+00
 -1       543 1.59813E-04 3.35314E-04 0.00000E+00
 -1       544 1.59559E-04 3.20750E-04-3.30872E-24
 -1       545 1.58787E-04 2.84865E-04 1.65436E-24
 -1       546 1.57412E-04 2.34050E-04 0.00000E+00
 -1       547 1.55588E-04 1.74785E-04 0.00000E+00
 -1       548 1.53790E-04 1.15990E-04-3.30872E-24
 -1       549 1.52483E-04 6.65836E-05 0.00000E+00
 -1       550 1.51782E-04 3.27867E-05 0.00000E+00
 -1       551 1.49749E-04-7.58014E-06 0.00000E+00
 -1       552 1.27370E-04-8.07586E-06 0.00000E+00
 -1       553 1.03052E-04-8.61261E-06-1.00748E-23
 -1       554 7.76673E-05-9.17594E-06 3.30872E-24
 -1       555 5.20913E-05-9.74629E-06 0.00000E+00
 -1       556 1.63566E-04 7.67751E-06 0.00000E+00
 -1       557 1.58956E-04 1.95641E-05 0.00000E+00
 -1       558 1.55390E-04 2.87608E-05 0.00000E+00
 -1       559 1.52760E-04 3.55234E-05 0.00000E+00
 -1       560 1.50963E-04 4.01077E-05 0.00000E+00
 -1       561 1.49895E-04 4.27717E-05 0.00000E+00
 -1       562 1.49454E-04 4.37740E-05 2.64698E-23
 -1       563 1.49541E-04 4.33736E-05 0.00000E+00
 -1       564 1.50057E-04 4.18306E-05 0.00000E+00
 -1       565 1.50901E-04 3.94049E-05 0.00000E+00
 -1       566 1.51978E-04 3.63571E-05 0.00000E+00
 -1       567 1.53189E-04 3.29479E-05 0.00000E+00
 -1       568 1.54438E-04 2.94382E-05 4.13590E-25
 -1       569 1.55627E-04 2.60887E-05 0.00000E+00
 -1       570 1.56659E-04 2.31601E-05 0.00000E+00
 -1       571 1.51651E-04 1.94744E-05 0.00000E+00
 -1       572 1.51739E-04 1.81701E-05 4.13590E-25
 -1       573 1.51827E-04 1.68235E-05 1.65436E-24
 -1       574 1.51915E-04 1.54474E-05-1.65436E-24
 -1       575 1.52004E-04 1.40551E-05 3.30872E-24
 -1       576 1.52092E-04 1.26594E-05 0.00000E+00
 -1       577 1.52180E-04 1.12737E-05 3.30872E-24
 -1       578 1.52269E-04 9.91102E-06 0.00000E+00
 -1       579 1.52357E-04 8.58446E-06 0.00000E+00
 -1       580 1.52446E-04 7.30720E-06 0.00000E+00
 -1       581 1.52534E-04 6.09235E-06-6.61744E-24
 -1       582 1.52623E-04 4.95304E-06 0.00000E+00
 -1       583 1.52712E-04 3.90236E-06 0.00000E+00
 -1       584 1.52801E-04 2.95329E-06 0.00000E+00
 -1       585 1.52890E-04 2.11867E-06 0.00000E+00
 -1       586 1.52495E-04 2.07565E-05 0.00000E+00
 -1       587 1.53393E-04 2.07886E-05-2.06795E-25
 -1       588 1.54298E-04 2.08204E-05 0.00000E+00
 -1       589 1.55248E-04 2.08516E-05 0.00000E+00
 -1       590 1.56283E-04 2.08818E-05 0.00000E+00
 -1       591 1.51982E-04 1.95455E-05 0.00000E+00
 -1       592 1.52404E-04 1.83445E-05 0.00000E+00
 -1       593 1.52832E-04 1.71264E-05 0.00000E+00
 -1       594 1.53264E-04 1.58961E-05 4.13590E-25
 -1       595 1.53698E-04 1.46587E-05 0.00000E+00
 -1       596 1.54134E-04 1.34188E-05 4.13590E-25
 -1       597 1.54568E-04 1.21816E-05 0.00000E+00
 -1       598 1.55000E-04 1.09517E-05 4.13590E-25
 -1       599 1.55427E-04 9.73409E-06 8.27181E-25
 -1       600 1.55848E-04 8.53362E-06-4.13590E-25
 -1       601 1.56260E-04 7.35516E-06 0.00000E+00
 -1       602 1.56662E-04 6.20357E-06 0.00000E+00
 -1       603 1.57053E-04 5.08374E-06-2.06795E-25
 -1       604 1.57431E-04 4.00061E-06 5.16988E-26
 -1       605 1.57793E-04 2.95899E-06 0.00000E+00
 -1       606 1.52992E-04 9.02743E-07 0.00000E+00
 -1       607 1.53002E-04 4.85391E-07 0.00000E+00
 -1       608 1.53011E-04 1.52942E-07 0.00000E+00
 -1       609 1.53020E-04-1.00574E-07 1.65436E-24
 -1       610 1.53029E-04-2.81175E-07 0.00000E+00
 -1       611 1.53038E-04-3.94947E-07 0.00000E+00
 -1       612 1.53046E-04-4.47982E-07 0.00000E+00
 -1       613 1.53055E-04-4.46382E-07 0.00000E+00
 -1       614 1.53064E-04-3.96249E-07-1.65436E-24
 -1       615 1.53073E-04-3.03685E-07 0.00000E+00
 -1       616 1.53081E-04-1.74790E-07 0.00000E+00
 -1       617 1.53090E-04-1.56672E-08 0.00000E+00
 -1       618 1.53099E-04 1.67580E-07 0.00000E+00
 -1       619 1.53107E-04 3.68854E-07 0.00000E+00
 -1       620 1.53116E-04 5.82051E-07 0.00000E+00
 -1       621 1.53642E-04 1.50296E-06-1.65436E-24
 -1       622 1.54415E-04 1.59597E-06-8.27181E-25
 -1       623 1.55274E-04 1.68890E-06-3.30872E-24
 -1       624 1.56197E-04 1.78161E-06 8.27181E-25
 -1       625 1.57160E-04 1.87412E-06-1.65436E-24
 -1       626 1.53269E-04 9.34567E-07 3.30872E-24
 -1       627 1.53534E-04 5.28652E-07 0.00000E+00
 -1       628 1.53776E-04 1.84773E-07 3.30872E-24
 -1       629 1.53998E-04-1.05223E-07 0.00000E+00
 -1       630 1.54203E-04-3.49508E-07 3.30872E-24
 -1       631 1.54394E-04-5.56279E-07 1.65436E-24
 -1       632 1.54574E-04-7.33735E-07 0.00000E+00
 -1       633 1.54747E-04-8.90081E-07 0.00000E+00
 -1       634 1.54914E-04-1.03351E-06 0.00000E+00
 -1       635 1.55079E-04-1.17223E-06 1.65436E-24
 -1       636 1.55246E-04-1.31444E-06 0.00000E+00
 -1       637 1.55417E-04-1.46834E-06-8.27181E-25
 -1       638 1.55596E-04-1.64213E-06 1.65436E-24
 -1       639 1.55785E-04-1.84402E-06 8.27181E-25
 -1       640 1.55987E-04-2.08224E-06 0.00000E+00
 -1       656 1.53130E-04 2.86211E-07 6.61744E-24
 -1       657 1.53536E-04-2.49415E-07 6.61744E-24
 -1       658 1.54203E-04-7.83627E-07-1.32349E-23
 -1       659 1.54986E-04-1.31747E-06 0.00000E+00
 -1       660 1.55710E-04-1.85294E-06 0.00000E+00
 -1       661 1.53128E-04 9.81735E-07 8.27181E-25
 -1       662 1.53164E-04 1.08408E-06 0.00000E+00
 -1       663 1.53229E-04 1.11205E-06 1.65436E-24
 -1       664 1.53319E-04 1.07084E-06 0.00000E+00
 -1       665 1.53434E-04 9.64983E-07 0.00000E+00
 -1       666 1.53572E-04 7.99149E-07-8.27181E-25
 -1       667 1.53730E-04 5.77742E-07 0.00000E+00
 -1       668 1.53908E-04 3.05117E-07 8.27181E-25
 -1       669 1.54103E-04-1.45380E-08-1.65436E-24
 -1       670 1.54314E-04-3.77117E-07 0.00000E+00
 -1       671 1.54540E-04-7.78635E-07 0.00000E+00
 -1       672 1.54779E-04-1.21521E-06-8.27181E-25
 -1       673 1.55029E-04-1.68301E-06 1.65436E-24
 -1       674 1.55289E-04-2.17853E-06 0.00000E+00
 -1       675 1.55558E-04-2.69772E-06 0.00000E+00
 -1       676 1.52948E-04-2.76608E-06-3.30872E-24
 -1       677 1.53526E-04-2.86125E-06 0.00000E+00
 -1       678 1.54104E-04-2.95636E-06 0.00000E+00
 -1       679 1.54681E-04-3.05119E-06 1.65436E-24
 -1       680 1.55256E-04-3.14601E-06 1.65436E-24
 -1       771 1.78605E-05 1.02113E-05 0.00000E+00
 -1       772 9.96648E-06 2.70719E-05 0.00000E+00
 -1       773 3.44233E-06 4.04387E-05-5.29396E-23
 -1       774-1.80481E-06 5.05157E-05 0.00000E+00
 -1       775-5.86628E-06 5.75138E-05-5.29396E-23
 -1       776-8.83705E-06 6.16558E-05 0.00000E+00
 -1       777-1.08123E-05 6.31712E-05-5.29396E-23
 -1       778-1.18894E-05 6.22991E-05 0.00000E+00
 -1       779-1.21655E-05 5.92843E-05 5.29396E-23
 -1       780-1.17394E-05 5.43796E-05 0.00000E+00
 -1       781-1.07096E-05 4.78423E-05-5.29396E-23
 -1       782-9.17595E-06 3.99358E-05 0.00000E+00
 -1       783-7.23783E-06 3.09265E-05-5.29396E-23
 -1       784-4.99567E-06 2.10853E-05 0.00000E+00
 -1       785-2.54934E-06 1.06850E-05 5.29396E-23
 -1       786 1.57480E-04 1.95084E-05 0.00000E+00
 -1       787 1.57523E-04 1.81560E-05 0.00000E+00
 -1       788 1.57566E-04 1.68437E-05 0.00000E+00
 -1       789 1.57610E-04 1.55636E-05 0.00000E+00
 -1       790 1.57654E-04 1.43109E-05 0.00000E+00
 -1       791 1.57698E-04 1.30812E-05-8.27181E-25
 -1       792 1.57742E-04 1.18724E-05-1.65436E-24
 -1       793 1.57786E-04 1.06821E-05 0.00000E+00
 -1       794 1.57831E-04 9.51020E-06 0.00000E+00
 -1       795 1.57875E-04 8.35645E-06 8.27181E-25
 -1       796 1.57919E-04 7.22249E-06 1.65436E-24
 -1       797 1.57963E-04 6.10999E-06-8.27181E-25
 -1       798 1.58008E-04 5.02283E-06 1.65436E-24
 -1       799 1.58052E-04 3.96495E-06-8.27181E-25
 -1       800 1.58096E-04 2.94325E-06 1.65436E-24
 -1       801 1.24874E-04 1.85662E-05 0.00000E+00
 -1       802 2.59344E-05 1.20068E-05 0.00000E+00
 -1       803-6.11811E-05 6.34102E-06 0.00000E+00
 -1       804-5.92683E-05 4.30198E-06-2.64698E-23
 -1       805-2.04116E-05 1.89944E-06 5.29396E-23
 -1       806 1.57863E-04 1.94486E-05 1.65436E-24
 -1       807 1.58272E-04 1.80153E-05 8.27181E-25
 -1       808 1.58669E-04 1.66131E-05 3.30872E-24
 -1       809 1.59053E-04 1.52451E-05 0.00000E+00
 -1       810 1.59423E-04 1.39145E-05 3.30872E-24
 -1       811 1.59778E-04 1.26244E-05 8.27181E-25
 -1       812 1.60116E-04 1.13780E-05 0.00000E+00
 -1       813 1.60437E-04 1.01783E-05-8.27181E-25
 -1       814 1.60739E-04 9.02827E-06-1.65436E-24
 -1       815 1.61021E-04 7.93110E-06 8.27181E-25
 -1       816 1.61283E-04 6.88981E-06 1.65436E-24
 -1       817 1.61523E-04 5.90744E-06-1.65436E-24
 -1       818 1.61739E-04 4.98703E-06 0.00000E+00
 -1       819 1.61931E-04 4.13164E-06 8.27181E-25
 -1       820 1.62099E-04 3.34426E-06 1.65436E-24
 -1       821 1.58026E-04 8.59842E-07-8.27181E-25
 -1       822 1.57905E-04-5.38534E-07 0.00000E+00
 -1       823 1.57783E-04-2.07364E-06-3.30872E-24
 -1       824 1.57660E-04-3.58793E-06-1.65436E-24
 -1       825 1.57537E-04-4.92919E-06 0.00000E+00
 -1       826 1.57415E-04-5.94610E-06 0.00000E+00
 -1       827 1.57292E-04-6.56766E-06-3.30872E-24
 -1       828 1.57170E-04-6.72506E-06 0.00000E+00
 -1       829 1.57048E-04-6.46437E-06 0.00000E+00
 -1       830 1.56925E-04-5.83397E-06 1.65436E-24
 -1       831 1.56803E-04-4.97374E-06-3.30872E-24
 -1       832 1.56681E-04-4.02485E-06-1.65436E-24
 -1       833 1.56558E-04-3.15044E-06 0.00000E+00
 -1       834 1.56438E-04-2.51322E-06-1.65436E-24
 -1       835 1.56317E-04-2.21735E-06-8.27181E-25
 -1       836 1.59012E-04 2.07491E-06 0.00000E+00
 -1       837 1.59766E-04 2.18771E-06 0.00000E+00
 -1       838 1.60435E-04 2.30040E-06-3.30872E-24
 -1       839 1.61050E-04 2.41240E-06 8.27181E-25
 -1       840 1.61641E-04 2.52424E-06-4.13590E-25
 -1       856 1.56183E-04-2.66851E-06 4.13590E-25
 -1       857 1.56160E-04-2.84715E-06 0.00000E+00
 -1       858 1.56138E-04-2.92050E-06 0.00000E+00
 -1       859 1.56114E-04-2.90810E-06 0.00000E+00
 -1       860 1.56091E-04-2.82958E-06 0.00000E+00
 -1       861 1.56068E-04-2.70462E-06 0.00000E+00
 -1       862 1.56044E-04-2.55296E-06 0.00000E+00
 -1       863 1.56020E-04-2.39434E-06 0.00000E+00
 -1       864 1.55997E-04-2.24852E-06 0.00000E+00
 -1       865 1.55973E-04-2.13523E-06 0.00000E+00
 -1       866 1.55950E-04-2.07420E-06-8.27181E-25
 -1       867 1.55926E-04-2.08510E-06-4.13590E-25
 -1       868 1.55903E-04-2.18753E-06-8.27181E-25
 -1       869 1.55879E-04-2.40102E-06 4.13590E-25
 -1       870 1.55855E-04-2.74500E-06 8.27181E-25
 -1       871 1.56763E-04-2.36784E-06-8.27181E-25
 -1       872 1.57455E-04-2.37347E-06 0.00000E+00
 -1       873 1.58219E-04-2.37968E-06 0.00000E+00
 -1       874 1.58996E-04-2.38655E-06 2.06795E-25
 -1       875 1.59726E-04-2.39396E-06-4.13590E-25
 -1       876 1.56432E-04-2.65580E-06 0.00000E+00
 -1       877 1.56641E-04-2.88546E-06 0.00000E+00
 -1       878 1.56830E-04-3.06140E-06-3.30872E-24
 -1       879 1.57002E-04-3.19041E-06 0.00000E+00
 -1       880 1.57158E-04-3.27931E-06 0.00000E+00
 -1       881 1.57302E-04-3.33487E-06 0.00000E+00
 -1       882 1.57437E-04-3.36387E-06 0.00000E+00
 -1       883 1.57564E-04-3.37307E-06 0.00000E+00
 -1       884 1.57685E-04-3.36920E-06 0.00000E+00
 -1       885 1.57805E-04-3.35903E-06 1.65436E-24
 -1       886 1.57925E-04-3.34930E-06-3.30872E-24
 -1       887 1.58047E-04-3.34679E-06 1.65436E-24
 -1       888 1.58174E-04-3.35825E-06 0.00000E+00
 -1       889 1.58309E-04-3.39060E-06 0.00000E+00
 -1       890 1.58453E-04-3.45054E-06 1.65436E-24
 -1       891 1.56425E-04-3.29039E-06 0.00000E+00
 -1       892 1.56999E-04-3.34217E-06 0.00000E+00
 -1       893 1.57527E-04-3.39389E-06 0.00000E+00
 -1       894 1.57987E-04-3.44543E-06-8.27181E-25
 -1       895 1.58353E-04-3.49680E-06-8.27181E-25
 -1       956 1.62125E-04 2.06066E-06 3.30872E-24
 -1       957 1.62007E-04 1.57090E-06 0.00000E+00
 -1       958 1.61888E-04 1.14966E-06 1.65436E-24
 -1       959 1.61770E-04 7.87509E-07 1.65436E-24
 -1       960 1.61651E-04 4.74997E-07 0.00000E+00
 -1       961 1.61533E-04 2.02628E-07-1.65436E-24
 -1       962 1.61414E-04-3.90989E-08 0.00000E+00
 -1       963 1.61295E-04-2.59700E-07 0.00000E+00
 -1       964 1.61177E-04-4.68685E-07-3.30872E-24
 -1       965 1.61058E-04-6.75566E-07-1.65436E-24
 -1       966 1.60940E-04-8.89863E-07 0.00000E+00
 -1       967 1.60821E-04-1.12108E-06 0.00000E+00
 -1       968 1.60703E-04-1.37873E-06 3.30872E-24
 -1       969 1.60584E-04-1.67229E-06-1.65436E-24
 -1       970 1.60466E-04-2.01122E-06 0.00000E+00
 -1       971 1.60242E-04-2.78961E-06-3.30872E-24
 -1       972 1.60133E-04-3.08521E-06 1.65436E-24
 -1       973 1.60023E-04-3.30127E-06 0.00000E+00
 -1       974 1.59913E-04-3.44804E-06 0.00000E+00
 -1       975 1.59804E-04-3.53577E-06 0.00000E+00
 -1       976 1.59694E-04-3.57472E-06 0.00000E+00
 -1       977 1.59584E-04-3.57519E-06 0.00000E+00
 -1       978 1.59475E-04-3.54746E-06 0.00000E+00
 -1       979 1.59365E-04-3.50185E-06-3.30872E-24
 -1       980 1.59255E-04-3.44864E-06 1.65436E-24
 -1       981 1.59146E-04-3.39815E-06-3.30872E-24
 -1       982 1.59036E-04-3.36068E-06 0.00000E+00
 -1       983 1.58927E-04-3.34653E-06 0.00000E+00
 -1       984 1.58818E-04-3.36598E-06 0.00000E+00
 -1       985 1.58709E-04-3.42931E-06 0.00000E+00
 -3
    1PSTEP                        16           8           1          
  100CL  108 6.09375E-01         409                     0    8           1
 -4  STRESS      6    1
 -5  SXX         1    4    1    1
 -5  SYY         1    4    2    2
 -5  SZZ         1    4    3    3
 -5  SXY         1    4    1    2
 -5  SYZ         1    4    2    3
 -5  SZX         1    4    3    1
 -1         1-3.72521E+06-1.43763E+06-8.15162E+05-1.51053E+06 7.42148E-10-1.14058E-07
 -1         2 8.06563E+02-1.73369E+06 2.89041E+03 1.57459E+04 4.60702E-10 1.87102E-08
 -1         3-8.47369E+02-1.50882E+06 3.67471E+02-1.62123E+03-4.37808E-10-4.86471E-08
 -1         5-1.72106E+01 3.37364E+05 8.62953E+00-4.79896E-01-2.44931E-10 1.28821E-08
 -1         8-8.02283E+05-2.74648E+05-7.58866E+04-4.52414E+05 3.23780E-10 2.94822E-08
 -1         9 3.70831E+06-6.98725E+05 6.82265E+05-7.94426E+05 2.39292E-08 4.57745E-08
 -1        10-1.76073E+03-1.57214E+06-3.20876E+03-1.09583E+04-9.75524E-09-6.61623E-09
 -1        12-1.36981E+01 3.37382E+05 2.80427E+02-3.45832E+00-2.50751E-10-1.75924E-08
 -1        15 1.48223E+03 8.14565E+02 4.79128E+03 2.50244E+00-3.08063E-10-2.33378E-08
 -1        16 9.32632E+06-3.93385E+05 1.34352E+06-1.07998E+06 1.93832E-08 7.83863E-08
 -1        17 3.21886E+06 2.11678E+06 8.83550E+05 2.18431E+06 9.73232E-09 1.42783E-08
 -1        18 6.20578E+04 1.19734E+04-1.16403E+04-9.94730E+04 1.24476E-08-4.57339E-09
 -1        19 1.08119E+05 1.25331E+05-7.02072E+02 2.02008E+04 9.58426E-10-4.96402E-09
 -1        20-6.49442E+04-5.08719E+05-1.13614E+05 2.66665E+04 2.99679E-10 7.77436E-09
 -1        21-4.32535E+01-2.72086E+05-8.58155E+02 1.07989E+02 6.14024E-09-1.96643E-08
 -1        24 5.02680E+06 4.51412E+06 1.58549E+06 4.11900E+06-1.06404E-07-4.21229E-08
 -1        25-8.11723E+03-2.22669E+05-2.54360E+04-3.69329E+05-7.40329E-11-2.79997E-09
 -1        26-4.60230E+04 8.15797E+04-2.15110E+04-1.63795E+03 1.51085E-09-3.17505E-09
 -1        27-7.11396E+04-2.75934E+05-1.01818E+05 6.17637E+04 4.61387E-09-3.28509E-09
 -1        28 2.06858E+04-7.74605E+04 1.54939E+04 2.04628E+04-1.14076E-09-3.13013E-09
 -1        32-1.53448E+06-2.69118E+06-1.39336E+05-3.13333E+04-3.27309E-08-8.51696E-09
 -1        33-1.60336E+05 8.11059E+04 2.86188E+04-3.59638E+04-1.11360E-09 6.84850E-10
 -1        34-2.01300E+05-2.15599E+04 5.80997E+02 6.60701E+04-1.71885E-09-9.77570E-09
 -1        35-2.11960E+04-3.07425E+04-1.21909E+03 4.73724E+04-1.18476E-10 6.72784E-09
 -1        51 4.06034E+04-2.52542E+05 8.95618E+04-7.37810E+05-1.16415E-10 7.81583E-08
 -1        52 1.57749E+04-2.39606E+05 4.97395E+04-8.60295E+05 1.60071E-10-6.71353E-08
 -1        53 5.65496E+03-2.54553E+05 3.02717E+04-7.35153E+05 7.60338E-10-6.75354E-08
 -1        54 1.39527E+04-2.51542E+05 3.36941E+04-8.63048E+05 6.76664E-10-1.69432E-07
 -1        55 2.87095E+04-2.62325E+05 5.12818E+04-7.34769E+05 7.78527E-10 4.43579E-08
 -1        56-7.06198E+06-7.95322E+05-6.02297E+05-2.75157E+06 4.49654E-09-4.78176E-08
 -1        57-7.39302E+06-1.25197E+06-4.06194E+05-2.62485E+06 2.22462E-09-3.03116E-08
 -1        58-7.16429E+06-1.00516E+06-1.41528E+05-2.73438E+06 8.87667E-09 1.62472E-08
 -1        59-7.27859E+06-1.00201E+06-8.44029E+04-2.64187E+06-2.37378E-08-1.47676E-07
 -1        60-7.17489E+06-1.03853E+06-3.29198E+04-2.73683E+06-1.36856E-08-6.48633E-08
 -1        61-7.26003E+06-9.68788E+05-1.86644E+04-2.64564E+06-3.43633E-09 1.02918E-08
 -1        62-7.18242E+06-1.03751E+06-8.99077E+03-2.73081E+06 5.20322E-09-2.02176E-08
 -1        63-7.23750E+06-9.83812E+05-7.11807E+03-2.66707E+06 4.36012E-09-4.19474E-08
 -1        64-7.19680E+06-1.02378E+06-8.41140E+03-2.71501E+06 1.13359E-08-3.69997E-08
 -1        65-7.20746E+06-1.01860E+06-1.62232E+04-2.70212E+06-3.08582E-08-1.77203E-07
 -1        66-7.21217E+06-1.00305E+06-2.90014E+04-2.69549E+06 9.16680E-09-7.17519E-08
 -1        67-7.19383E+06-1.07793E+06-7.33511E+04-2.73425E+06-1.54105E-08-7.56299E-08
 -1        68-7.21118E+06-9.64963E+05-1.23176E+05-2.68299E+06-1.60435E-09-7.02130E-09
 -1        69-7.29412E+06-1.29663E+06-3.53572E+05-2.72240E+06-1.84682E-08 7.46913E-08
 -1        70-7.11431E+06-7.89545E+05-5.24018E+05-2.70615E+06-1.32495E-08 8.56235E-08
 -1        86-5.02083E+02-1.74072E+06 1.75847E+03-7.87269E+03-3.48814E-09-7.26459E-08
 -1        87 2.33779E+03-1.73508E+06 5.04992E+03 2.66078E+04-5.84004E-09 4.32850E-08
 -1        88-1.85834E+03-1.73954E+06 7.01525E+03-1.87350E+04-6.14955E-09 1.42897E-08
 -1        89 1.36682E+04-1.73176E+06 1.91435E+04 3.67426E+04-9.62791E-09-8.44057E-08
 -1        90-1.16404E+04-1.74421E+06 2.67907E+04-1.80088E+04-5.10772E-09-1.04262E-08
 -1       121-1.17832E+03-1.51172E+06-1.55356E+02 8.06400E+02 1.12877E-09-1.20017E-08
 -1       122-6.95939E+02-1.50882E+06 7.40108E+02-3.24006E+03-4.11399E-09-5.01495E-09
 -1       123-1.22533E+03-1.51183E+06 6.64744E+02 2.40860E+03 3.33500E-09-1.21836E-08
 -1       124 8.09801E+02-1.50820E+06 2.96003E+03-6.79655E+03-7.43967E-09 6.10999E-09
 -1       125-2.06470E+03-1.51266E+06 3.94861E+03 4.34404E+03 5.16229E-09 3.59178E-08
 -1       191-1.83494E+01 3.37390E+05 9.75950E+00 2.43239E-01-2.65428E-10-9.62154E-09
 -1       192-1.80107E+01 3.37365E+05 1.82977E+01-1.73967E+00-3.32016E-10-3.48819E-08
 -1       193-2.04728E+01 3.37390E+05 3.34883E+01 1.51744E+00-5.18785E-10-2.92421E-08
 -1       194-2.05836E+01 3.37367E+05 6.92738E+01-4.02312E+00-3.11225E-10-7.95490E-09
 -1       195-2.45520E+01 3.37388E+05 1.34959E+02 2.55453E+00-7.24580E-10-1.48348E-08
 -1       251-2.08204E+06-2.07394E+04-1.81040E+05 1.00076E+05 2.59388E-09 1.19180E-08
 -1       252-1.25760E+06 2.29792E+04 3.83690E+04-3.50767E+05-8.34689E-09-1.16270E-07
 -1       253-1.74613E+06-1.13487E+04-3.62625E+04 2.49832E+05-6.92671E-09 1.87893E-08
 -1       254-1.65090E+06 4.66084E+04 5.72256E+03-5.02411E+05 3.24684E-08-1.00308E-07
 -1       255-1.72822E+06-1.18791E+04-1.43350E+04 2.54584E+05 1.37798E-08-7.27248E-08
 -1       256-1.28957E+06 3.96838E+04 8.18706E+04-3.70160E+05 1.45410E-08 2.14211E-08
 -1       257-2.07192E+06-3.35972E+04-8.44881E+04 1.14890E+05 2.87928E-08 1.22568E-07
 -1       258-9.05871E+05 3.05481E+04 1.55069E+05-1.33382E+03-1.02773E-09-7.65876E-08
 -1       259-2.07404E+06-3.37789E+04-8.34435E+04-1.12612E+05-2.37014E-09-3.48978E-08
 -1       260-1.28428E+06 4.06460E+04 8.68795E+04 3.68657E+05 6.27188E-09 7.15982E-08
 -1       261-1.73097E+06-1.30033E+04-7.11389E+03-2.53392E+05-4.36958E-08 8.61079E-08
 -1       262-1.64622E+06 5.52257E+04 2.46791E+04 5.02914E+05 2.15183E-08-1.84442E-08
 -1       263-1.74806E+06-1.87976E+04-5.33154E+03-2.49558E+05-1.60217E-08-5.50408E-08
 -1       264-1.23466E+06 8.11483E+04 1.20653E+05 3.54256E+05-1.01430E-07 1.34200E-08
 -1       265-2.10342E+06-7.09170E+04-6.26596E+04-1.01916E+05-3.21434E-08 4.15766E-08
 -1       266-2.68330E+04-1.25467E+04 6.29597E+04-5.35460E+01-1.27329E-10-2.72800E-08
 -1       267 3.11071E+04 1.46241E+04 4.44981E+04 6.17796E+01 6.09361E-11-3.97295E-09
 -1       268-4.17139E+03-2.07114E+03 1.65398E+04-7.87190E+00 7.27596E-12 2.34481E-08
 -1       269 4.92520E+03 2.47875E+03 1.07505E+04 9.16947E+00 2.78646E-10 2.66439E-08
 -1       270-7.39278E+02-4.07277E+02 5.18944E+03-1.24437E+00-5.03633E-11-2.90132E-08
 -1       271-2.43999E+06-2.98279E+05-1.82327E+05-9.40450E+05 2.12458E-09-4.28045E-08
 -1       272-2.54425E+06-3.93676E+05-1.17394E+05-8.96054E+05-6.88715E-09 1.79589E-08
 -1       273-2.47343E+06-3.44798E+05-4.30373E+04-9.33301E+05-1.62572E-08 5.42459E-08
 -1       274-2.50458E+06-3.36990E+05-2.41440E+04-9.07049E+05-6.15819E-09 2.78815E-08
 -1       275-2.47851E+06-3.49284E+05-1.00327E+04-9.31463E+05 3.37641E-08-1.28603E-08
 -1       276-2.49727E+06-3.32748E+05-5.28550E+03-9.10570E+05-1.62900E-08-1.45799E-08
 -1       277-2.48040E+06-3.48598E+05-2.63242E+03-9.29824E+05 1.03519E-08-4.11401E-08
 -1       278-2.49350E+06-3.35079E+05-1.74081E+03-9.13946E+05 7.24458E-09-9.50529E-08
 -1       279-2.48204E+06-3.47044E+05-1.90097E+03-9.27944E+05-4.48290E-09-1.91505E-07
 -1       280-2.49017E+06-3.38884E+05-3.14570E+03-9.17737E+05 1.33414E-08-8.45375E-10
 -1       281-2.48356E+06-3.44928E+05-5.88539E+03-9.25904E+05 3.77258E-09 2.79638E-08
 -1       282-2.48905E+06-3.46396E+05-1.37403E+04-9.21424E+05-1.51276E-08 8.04278E-08
 -1       283-2.48314E+06-3.39925E+05-2.46462E+04-9.24079E+05 1.13469E-08-1.10595E-08
 -1       284-2.50667E+06-3.83558E+05-6.68203E+04-9.20738E+05-2.13076E-08-1.64237E-07
 -1       285-2.46649E+06-3.11089E+05-1.04025E+05-9.25409E+05-2.28829E-09-3.03189E-08
 -1       301 1.94562E+04-3.44783E+05 1.73021E+05-6.24652E+05 8.65839E-10 2.47455E-08
 -1       302 2.09342E+04-3.01155E+05 1.07672E+05-9.13714E+05-1.16779E-09-5.27461E-08
 -1       303-1.88979E+03-3.28737E+05 7.12175E+04-6.23201E+05 5.45697E-10 1.54560E-08
 -1       304 1.36718E+04-3.02638E+05 8.97010E+04-9.13056E+05-3.05590E-10 1.65019E-08
 -1       305 1.02499E+04-3.35217E+05 1.32701E+05-6.25290E+05 2.71029E-10 1.29439E-08
 -1       306-1.78557E+07-3.25727E+06-4.32292E+06-1.85240E+06-4.70318E-08-2.88419E-08
 -1       307 1.10093E+07-5.64724E+05 2.59294E+06-8.08119E+06-5.31596E-07-1.01223E-07
 -1       308-8.17364E+06 1.07121E+05-4.05670E+05 2.38453E+06-6.85686E-08 2.10539E-07
 -1       309-3.22523E+06 8.15693E+05 8.27086E+05-1.32071E+07 2.86758E-07 1.47120E-08
 -1       310-9.17981E+06-5.52218E+04-6.04186E+05 2.19447E+06-7.42148E-09-8.26440E-08
 -1       311 1.33028E+07-1.25845E+06 3.09356E+06-6.50171E+06 3.41941E-07-9.93023E-08
 -1       312-1.80945E+07-3.23759E+06-3.78778E+06-2.79144E+06-6.86850E-08 5.67525E-09
 -1       313 2.00117E+07 4.42684E+06 5.02788E+06 8.37992E+06-3.40020E-07-6.46251E-08
 -1       314-1.28040E+07-7.79153E+06-3.59155E+06-7.33351E+06 1.34809E-07-1.51485E-07
 -1       315-2.25065E+06 1.24084E+07 2.79924E+06 6.61158E+06-3.75498E-07 4.54020E-09
 -1       316-1.97661E+06-6.26760E+06-3.49806E+05-4.35096E+06-7.91973E-07-2.11905E-07
 -1       317-1.45300E+07 1.20741E+07 8.06986E+05-1.42935E+06 4.91626E-07-3.65584E-07
 -1       318-2.46896E+06-6.54464E+06-6.81629E+05-4.54711E+06-5.99452E-07 5.43369E-08
 -1       319-5.28437E+05 1.27905E+07 2.81412E+06 7.16226E+06-1.10093E-07 1.24317E-07
 -1       320-1.37298E+07-8.09455E+06-4.63618E+06-7.20428E+06 1.10187E-07-1.22527E-08
 -1       336 1.40937E+02-1.63649E+06-1.16915E+04 6.54186E+03-1.99634E-08 9.73159E-09
 -1       337-4.46289E+03-1.63747E+06-1.47924E+04-1.58436E+04-3.78950E-08-8.99490E-09
 -1       338 6.26516E+02-1.63623E+06-2.21528E+04 9.18890E+03-2.68474E-08 6.83576E-09
 -1       339-2.35247E+04-1.65026E+06-5.00077E+04-2.10070E+04-4.79668E-08 4.19095E-09
 -1       340 1.57347E+04-1.62493E+06-7.83570E+04 1.16282E+04-3.10247E-08 2.25482E-08
 -1       406 7.18188E+00 3.37375E+05 5.53056E+02 9.76476E-01-8.76426E-10-7.69705E-09
 -1       407 1.79398E+02 3.37479E+05 1.17664E+03 1.20732E+01-3.36144E-10-1.75442E-08
 -1       408 5.91619E+02 3.37290E+05 2.34923E+03-1.33755E+01-1.28978E-09-1.27357E-08
 -1       409 2.52823E+03 3.38230E+05 5.28984E+03 1.36917E+02-2.90697E-10-7.97309E-09
 -1       410 7.28851E+03 3.36620E+05 1.07984E+04-1.30488E+02-1.47702E-09-9.56607E-09
 -1       521-1.98473E+07-4.07271E+06-5.22998E+06-1.80224E+06-7.01984E-08-2.10712E-08
 -1       522 1.17706E+07-5.10370E+05 2.71878E+06-1.03391E+07-4.60102E-07-2.03174E-07
 -1       523-9.39083E+06-3.89638E+04-4.57113E+05 2.78952E+06 1.36875E-07-1.63898E-07
 -1       524-5.25972E+06 1.98343E+06 9.44050E+05-1.59681E+07 6.20916E-07-2.23019E-07
 -1       525-1.05425E+07-2.84134E+05-6.96617E+05 2.57498E+06 2.62808E-07-9.45729E-08
 -1       526 1.48266E+07-1.42106E+06 3.39046E+06-8.39681E+06 7.05768E-08 6.13218E-08
 -1       527-2.01757E+07-4.16121E+06-4.50694E+06-2.88380E+06 2.22586E-07-5.96046E-08
 -1       528 2.26885E+07 4.90650E+06 5.45626E+06 9.77345E+06-8.78936E-08-1.99667E-07
 -1       529-1.42037E+07-9.30013E+06-4.26667E+06-7.96038E+06 5.72181E-08-1.32830E-07
 -1       530-3.87313E+06 1.51172E+07 3.08120E+06 7.15425E+06-1.36672E-07 3.72733E-07
 -1       531-2.28925E+06-7.44181E+06-3.84751E+05-4.89762E+06-5.49422E-07 1.22935E-07
 -1       532-1.77618E+07 1.44371E+07 9.45124E+05-3.13519E+06 4.11244E-07-5.23039E-07
 -1       533-2.76233E+06-7.71995E+06-7.37073E+05-5.06531E+06-5.56465E-08-7.14936E-07
 -1       534-2.09476E+06 1.55629E+07 3.07251E+06 7.76019E+06-1.11759E-07 5.14061E-07
 -1       535-1.51597E+07-9.68340E+06-5.42197E+06-7.80798E+06 2.32831E-08 3.22572E-07
 -1       536-5.77367E+05-3.84008E+04-3.61492E+03-3.76407E+04-4.83442E-09 3.95739E-08
 -1       537-1.80165E+05 3.87049E+04 6.73515E+04 8.99190E+04-8.61610E-08 8.04453E-08
 -1       538-3.87537E+05 4.71307E+02 8.69311E+03-5.43626E+04 1.94051E-08 9.70458E-08
 -1       539-3.12408E+05 3.11028E+03 1.86127E+04 1.02854E+05 1.05464E-07 1.09637E-07
 -1       540-4.48304E+05-2.04237E+02-1.09492E+04-5.08152E+04 2.89549E-08 9.72699E-08
 -1       541-6.26929E+04 1.02651E+04 6.46564E+04 6.89370E+04 1.12303E-08 7.26222E-08
 -1       542-6.30552E+05-1.22199E+04-5.03188E+04-2.00509E+04 3.22889E-08 1.79344E-08
 -1       543 9.08130E+04 1.64398E+04 9.45139E+04-1.05212E+04-2.81220E-08-3.98304E-08
 -1       544-5.97721E+05-9.74033E+03-4.45924E+04 2.83317E+04-1.50417E-08-3.14290E-08
 -1       545-1.38181E+05 5.12951E+03 4.62860E+04-8.25493E+04-1.96137E-08-6.57565E-08
 -1       546-4.07658E+05 4.10536E+03-7.89114E+03 5.18299E+04 1.93925E-08-7.76971E-08
 -1       547-3.25312E+05-4.52384E+03 3.21563E+03-1.05242E+05-8.68745E-08-9.27701E-08
 -1       548-4.15565E+05 4.02594E+03-1.87672E+04 5.13379E+04-7.90264E-08-8.15530E-08
 -1       549-1.23633E+05 1.15972E+03 2.48197E+04-7.96850E+04-4.82288E-08-5.61472E-08
 -1       550-6.03898E+05-6.07671E+03-9.44000E+04 2.59409E+04 6.85850E-09-2.94567E-08
 -1       551 3.11274E+04-7.30315E+05 7.45717E+03-1.13870E+06-7.93298E-08-3.40515E-09
 -1       552 6.98202E+04-7.59218E+05 2.29764E+04-1.62341E+06-5.81931E-08 3.10829E-08
 -1       553 5.22486E+04-7.60582E+05 4.07009E+04-1.13343E+06-9.33287E-08 2.83326E-08
 -1       554 1.02865E+05-7.66048E+05 9.10643E+04-1.62530E+06-5.76547E-08 1.72258E-08
 -1       555 8.16016E+04-7.81983E+05 1.63197E+05-1.13378E+06-9.45583E-08-1.06156E-08
 -1       556 1.70924E+05-3.02649E+05 5.20453E+04-3.45359E+05-1.58034E-08-2.30211E-08
 -1       557 2.81430E+05-3.91368E+05 2.87631E+04-4.41508E+05 4.91855E-09 2.01981E-08
 -1       558 1.60788E+05-3.03739E+05 9.37626E+03-3.43398E+05-1.45810E-08 9.10222E-09
 -1       559 2.61503E+05-3.96399E+05 5.44493E+03-4.55167E+05 1.12632E-08 7.52516E-09
 -1       560 1.51094E+05-2.97601E+05 9.21383E+02-3.50202E+05-2.32831E-10 1.87356E-09
 -1       561 2.48949E+05-3.91652E+05 9.93350E+02-4.63553E+05 1.43336E-09-6.38829E-09
 -1       562 1.43454E+05-2.92795E+05-3.30815E+02-3.55699E+05 1.16415E-09-8.64020E-10
 -1       563 2.39925E+05-3.87718E+05 2.20064E+02-4.69403E+05 7.24685E-09-1.36788E-09
 -1       564 1.38150E+05-2.89473E+05-2.00878E+02-3.59447E+05 1.48430E-09 2.78624E-09
 -1       565 2.34201E+05-3.85228E+05 9.53390E+01-4.73047E+05 6.06815E-09-8.43011E-09
 -1       566 1.35266E+05-2.87641E+05-9.41525E+01-3.61467E+05-3.13958E-09-5.74801E-09
 -1       567 2.31775E+05-3.84167E+05-2.03720E+02-4.74478E+05 1.91376E-08-9.50240E-09
 -1       568 1.34867E+05-2.87408E+05-7.19760E+02-3.61842E+05-3.25599E-10-5.34783E-10
 -1       569 2.31510E+05-3.84140E+05-1.81543E+03-4.72795E+05-7.42148E-09 1.16706E-08
 -1       570 1.37858E+05-2.90064E+05-4.05885E+03-3.61107E+05 3.66708E-09 9.11768E-09
 -1       571 2.54611E+05 9.25528E+03 1.34368E+04-7.55652E+04 1.45792E-09 1.54791E-08
 -1       572 2.56582E+05 3.36566E+03 6.58420E+03-8.28981E+04 3.83079E-09 3.37604E-09
 -1       573 2.55398E+05 9.47016E+02 2.92539E+03-7.54133E+04 3.36468E-09 8.19000E-10
 -1       574 2.55611E+05 4.62397E+02 1.46648E+03-8.30824E+04-2.13731E-10 2.58842E-09
 -1       575 2.55485E+05 2.30235E+02 6.91857E+02-7.53928E+04-1.94905E-09 2.07629E-08
 -1       576 2.55486E+05 2.24022E+02 3.53580E+02-8.31069E+04-6.34179E-09 8.58381E-09
 -1       577 2.55512E+05 1.83538E+02 1.76021E+02-7.53900E+04-2.89674E-09 1.06193E-08
 -1       578 2.55497E+05 1.99105E+02 1.00263E+02-8.31102E+04-2.70302E-09-5.60703E-09
 -1       579 2.55555E+05 1.63423E+02 6.76067E+01-7.53898E+04 3.34694E-09-1.21399E-08
 -1       580 2.55557E+05 1.69857E+02 7.53441E+01-8.31060E+04-6.57201E-09-1.27620E-08
 -1       581 2.55624E+05 1.30252E+02 1.12889E+02-7.53945E+04 3.75985E-09-9.27685E-11
 -1       582 2.55669E+05 1.56328E+02 2.26569E+02-8.30573E+04 1.54250E-09-5.32418E-09
 -1       583 2.55707E+05 1.82958E+02 4.36660E+02-7.54387E+04 1.24601E-09-9.61836E-09
 -1       584 2.55934E+05 5.34196E+02 9.85205E+02-8.26848E+04 3.87263E-09-9.11950E-09
 -1       585 2.55694E+05 1.38126E+03 1.99827E+03-7.57668E+04 5.36602E-10 2.18643E-09
 -1       586-3.09909E+03 9.32506E+04-3.22099E+03-2.24298E+05-2.17960E-09-1.28045E-08
 -1       587-9.68957E+02 9.29062E+04 3.04514E+02-2.46874E+05-3.39787E-09-3.25222E-08
 -1       588 6.13401E+02 9.28435E+04 3.91578E+03-2.24185E+05-1.91903E-09-3.62252E-09
 -1       589 4.68106E+03 9.49165E+04 1.04866E+04-2.46635E+05-5.90444E-09 1.95078E-08
 -1       590 1.45239E+04 9.16947E+04 2.21274E+04-2.24570E+05-2.31739E-09 7.60338E-09
 -1       591-5.79890E+04-1.34757E+04-1.87151E+04-2.60107E+04-1.21167E-09-7.88896E-09
 -1       592-6.10330E+04-1.67836E+04-1.01374E+04-2.94235E+04 4.55699E-09-1.60708E-09
 -1       593-5.98636E+04-1.21147E+04-4.21985E+03-2.73802E+04 2.65175E-09-7.80938E-09
 -1       594-5.84442E+04-1.40426E+04-2.10462E+03-2.95276E+04 3.24496E-09 1.48548E-08
 -1       595-6.00066E+04-1.21099E+04-9.66522E+02-2.74426E+04-2.34159E-09 8.22386E-09
 -1       596-5.82673E+04-1.39172E+04-4.91680E+02-2.95071E+04 1.31691E-09-6.23021E-09
 -1       597-6.00246E+04-1.21226E+04-2.68437E+02-2.74449E+04-3.49746E-09 4.79321E-09
 -1       598-5.82500E+04-1.39124E+04-2.17083E+02-2.95013E+04-1.30553E-08 6.56760E-09
 -1       599-6.00234E+04-1.21229E+04-2.78901E+02-2.74445E+04-1.76010E-09 4.70618E-09
 -1       600-5.82679E+04-1.39181E+04-5.19387E+02-2.95056E+04 3.42698E-09-1.24685E-08
 -1       601-6.00022E+04-1.21105E+04-1.02530E+03-2.74414E+04 1.39153E-10-1.59575E-08
 -1       602-5.84554E+04-1.40504E+04-2.23489E+03-2.95243E+04-7.24583E-09-5.73345E-09
 -1       603-5.98480E+04-1.21180E+04-4.48203E+03-2.73758E+04-4.03088E-09 1.86578E-08
 -1       604-6.12196E+04-1.69456E+04-1.07668E+04-2.93932E+04-1.37743E-09 2.28888E-08
 -1       605-5.78400E+04-1.35783E+04-1.98771E+04-2.59373E+04 1.02261E-09 6.35464E-09
 -1       606 2.69845E+04-1.24209E+04-2.22937E+04 2.52120E+04 1.13641E-08-1.64059E-08
 -1       607 2.31726E+04-4.04251E+03-1.11018E+04 2.83176E+04 1.48839E-08-1.99555E-08
 -1       608 2.53411E+04-7.16016E+02-4.97051E+03 2.50225E+04 2.60115E-09-6.28233E-09
 -1       609 2.49200E+04-2.28661E+02-2.51076E+03 2.85408E+04 2.45200E-09 4.64979E-09
 -1       610 2.51501E+04-1.54730E+01-1.19841E+03 2.50007E+04-3.15777E-09 5.21209E-09
 -1       611 2.50794E+04-1.01111E+01-6.04217E+02 2.85650E+04-1.31263E-08 9.38189E-09
 -1       612 2.51045E+04-5.81405E-01-2.87772E+02 2.49985E+04-7.04586E-09 3.80305E-09
 -1       613 2.50845E+04-3.78409E+00-1.29396E+02 2.85679E+04 6.48470E-10 4.35921E-09
 -1       614 2.50814E+04-3.70715E+00-3.16820E+01 2.49978E+04-2.52840E-09 9.99103E-09
 -1       615 2.50760E+04-3.26019E-01 5.11910E+01 2.85683E+04-2.56978E-09 2.68778E-09
 -1       616 2.50635E+04 7.86632E-01 1.56271E+02 2.49981E+04 7.53698E-09-6.30985E-09
 -1       617 2.50919E+04 3.47613E+01 3.57735E+02 2.85678E+04 1.76460E-08-1.24285E-08
 -1       618 2.50303E+04 1.05286E+02 7.21445E+02 2.49982E+04 9.93305E-09-4.74665E-09
 -1       619 2.53448E+04 5.93706E+02 1.62036E+03 2.85671E+04-1.09139E-10 1.29926E-08
 -1       620 2.47896E+04 1.81704E+03 3.25692E+03 2.49983E+04 2.79931E-09 4.47790E-09
 -1       621 3.84254E+02 2.67183E+05 3.55418E+03 2.66908E+04 3.94880E-09 8.59654E-09
 -1       622 5.38566E+02 2.68051E+05 3.11123E+03 3.93619E+04 2.83762E-09 9.98944E-09
 -1       623 5.73329E+01 2.67401E+05 3.67283E+03 2.65670E+04 5.01188E-09 2.32440E-08
 -1       624 1.79455E+03 2.69147E+05 7.07768E+03 3.94842E+04 3.25829E-09 5.25051E-09
 -1       625 1.57694E+03 2.66005E+05 1.22886E+04 2.65658E+04 5.78575E-09-8.28891E-10
 -1       626 2.29852E+05 5.70638E+04 4.76691E+03 1.15361E+05-2.45655E-09-1.07066E-08
 -1       627 2.27513E+05 5.85453E+04 2.29711E+03 1.19538E+05-5.70071E-09 6.01472E-09
 -1       628 2.29982E+05 5.48675E+04 9.71090E+02 1.16152E+05-6.49652E-09 1.24958E-08
 -1       629 2.26899E+05 5.79323E+04 4.75356E+02 1.19780E+05 3.31966E-10 1.03324E-08
 -1       630 2.29994E+05 5.47624E+04 2.20117E+02 1.16182E+05 6.73026E-11 1.84579E-09
 -1       631 2.26831E+05 5.79112E+04 1.17999E+02 1.19781E+05 2.64299E-09-4.28827E-10
 -1       632 2.29988E+05 5.47678E+04 7.68577E+01 1.16176E+05 1.62026E-09-1.39721E-09
 -1       633 2.26821E+05 5.79145E+04 8.43915E+01 1.19775E+05-3.48564E-09-1.63232E-09
 -1       634 2.29981E+05 5.47667E+04 1.35285E+02 1.16174E+05-4.70573E-09 1.15667E-08
 -1       635 2.26831E+05 5.79142E+04 2.73122E+02 1.19778E+05 8.46001E-10-1.63391E-09
 -1       636 2.29971E+05 5.47629E+04 5.51228E+02 1.16172E+05-7.76367E-09-7.55426E-09
 -1       637 2.26948E+05 5.80004E+04 1.21161E+03 1.19776E+05-2.09521E-08-8.93397E-09
 -1       638 2.29927E+05 5.50312E+04 2.48949E+03 1.16050E+05-9.79526E-10 1.54032E-08
 -1       639 2.28255E+05 5.98188E+04 5.88989E+03 1.19390E+05 3.11115E-09-8.84847E-09
 -1       640 2.29748E+05 6.04586E+04 1.22226E+04 1.13758E+05 3.07136E-09-1.03500E-09
 -1       656 5.95038E+04-1.51801E+06-1.43642E+05-1.42170E+03-2.18279E-11-3.06008E-09
 -1       657-7.86961E+04-1.58289E+06-1.18947E+05 6.44786E+03-1.60981E-10-1.27636E-08
 -1       658 1.89455E+04-1.53646E+06-7.31930E+04-3.16481E+03 2.94222E-10 9.81974E-09
 -1       659-8.49228E+04-1.58585E+06-1.27128E+05 7.80265E+03-1.07684E-09 1.35798E-08
 -1       660 6.57163E+04-1.51506E+06-1.57708E+05-2.77647E+03-1.45519E-09 1.31277E-08
 -1       661 1.62020E+05 1.72261E+04 1.65057E+04 6.33506E+04-1.00135E-09 8.11451E-09
 -1       662 1.71115E+05 2.96818E+04 1.11231E+04 5.99175E+04 3.23371E-09-1.29859E-08
 -1       663 1.65260E+05 2.25224E+04 3.89046E+03 6.24113E+04-5.05679E-10-1.26824E-08
 -1       664 1.67360E+05 2.34864E+04 2.32684E+03 6.10634E+04 1.96542E-09-5.07345E-09
 -1       665 1.65750E+05 2.32475E+04 9.17925E+02 6.22699E+04-7.32598E-10-3.38400E-09
 -1       666 1.66782E+05 2.26559E+04 5.36623E+02 6.12470E+04 2.48019E-09 1.83389E-10
 -1       667 1.65835E+05 2.33312E+04 2.84467E+02 6.22356E+04-1.26880E-09-2.86143E-09
 -1       668 1.66689E+05 2.25940E+04 2.88525E+02 6.12967E+04-3.08034E-10-1.22172E-08
 -1       669 1.65842E+05 2.33076E+04 3.89547E+02 6.22206E+04-1.18538E-09-7.30410E-10
 -1       670 1.66785E+05 2.28041E+04 8.47231E+02 6.12988E+04-7.10662E-09-1.04336E-09
 -1       671 1.65740E+05 2.31253E+04 1.50398E+03 6.22317E+04-5.80066E-10-3.06721E-09
 -1       672 1.67661E+05 2.42672E+04 3.84764E+03 6.10866E+04 1.22100E-10 3.42516E-09
 -1       673 1.64970E+05 2.18815E+04 6.44793E+03 6.24187E+04-6.93149E-10 2.08179E-08
 -1       674 1.73799E+05 3.46252E+04 1.84397E+04 5.92823E+04-3.29055E-09 1.98543E-09
 -1       675 1.59641E+05 1.30572E+04 2.73708E+04 6.39270E+04-3.55794E-09-1.34114E-08
 -1       676 2.22881E+01-2.72014E+05-1.03430E+03-5.39960E+01 2.58751E-10 4.28037E-09
 -1       677-2.74502E+02-2.72264E+05-1.89293E+03 1.07916E+02 3.50047E-09 5.41542E-09
 -1       678 1.83389E+02-2.71836E+05-3.34622E+03-5.38840E+01 5.69116E-10-1.02959E-08
 -1       679-3.34708E+03-2.74284E+05-7.94914E+03 1.07487E+02 3.51804E-09-3.44123E-09
 -1       680 1.99771E+03-2.69995E+05-1.28113E+04-5.29649E+01 2.88310E-10-6.09283E-10
 -1       771-2.85125E+06-6.36249E+05-1.15584E+05-1.31826E+06-2.54950E-08-2.04309E-08
 -1       772-2.79315E+06-7.07174E+05-6.00200E+04-1.39972E+06-1.80444E-08 6.67205E-09
 -1       773-2.87290E+06-6.19218E+05-2.96790E+04-1.32697E+06-1.44937E-08 8.88394E-09
 -1       774-2.78413E+06-6.94756E+05-1.34363E+04-1.41653E+06 1.86265E-08 2.32831E-10
 -1       775-2.88325E+06-6.11900E+05-9.44115E+03-1.33074E+06-5.76256E-09 2.16096E-09
 -1       776-2.79077E+06-6.93371E+05-3.63116E+03-1.42869E+06-1.08848E-08 3.76895E-09
 -1       777-2.89202E+06-6.05517E+05-3.95576E+03-1.33405E+06 1.60071E-09 4.05271E-09
 -1       778-2.79785E+06-6.92169E+05-1.15361E+03-1.43907E+06 6.02449E-09 6.09361E-09
 -1       779-2.89946E+06-6.00007E+05-1.91095E+03-1.33688E+06-9.98261E-09-4.79486E-09
 -1       780-2.80407E+06-6.91011E+05-3.25780E+02-1.44750E+06-8.23638E-09 4.45652E-10
 -1       781-2.90531E+06-5.95600E+05-7.25958E+02-1.33910E+06-2.20753E-08 1.83718E-09
 -1       782-2.80884E+06-6.90004E+05 2.66681E+02-1.45370E+06-2.75795E-08-5.51518E-09
 -1       783-2.90941E+06-5.92566E+05 4.23742E+02-1.34066E+06-5.25324E-09-1.17964E-08
 -1       784-2.81143E+06-6.88868E+05 1.72535E+03-1.45752E+06-1.70985E-08 2.61934E-10
 -1       785-2.91182E+06-5.90771E+05 3.04749E+03-1.34167E+06-3.10793E-08 3.27054E-09
 -1       786 1.24056E+05-9.31793E+03 2.15570E+04-2.11905E+02-2.53863E-10-1.10867E-08
 -1       787 1.33405E+05 1.07875E+04 1.52508E+04-4.12432E+01 8.67551E-10 6.86850E-09
 -1       788 1.27661E+05-1.46044E+03 5.57761E+03-1.81776E+02 1.79321E-09 4.45152E-09
 -1       789 1.29205E+05 1.68986E+03 3.50195E+03-8.87043E+01-2.00893E-09 8.10434E-09
 -1       790 1.28256E+05-2.27707E+02 1.41903E+03-1.64454E+02-1.28259E-09 1.75476E-09
 -1       791 1.28510E+05 2.63172E+02 8.21859E+02-1.18565E+02-3.77015E-09-4.30431E-09
 -1       792 1.28357E+05-3.48191E+01 3.52777E+02-1.51916E+02-2.08017E-09 1.61980E-09
 -1       793 1.28391E+05 3.84447E+01 1.85764E+02-1.42107E+02 5.54137E-10-8.66073E-09
 -1       794 1.28375E+05-3.12206E+00 6.81599E+01-1.40912E+02 2.18193E-09-6.30403E-09
 -1       795 1.28363E+05-9.47572E+00-1.76122E+00-1.64958E+02-3.11212E-09-7.94321E-09
 -1       796 1.28385E+05 1.30757E+01-6.33326E+01-1.29065E+02 1.89545E-09-1.73694E-09
 -1       797 1.28317E+05-1.00778E+02-1.99528E+02-1.91988E+02 1.86383E-09 8.64904E-09
 -1       798 1.28421E+05 8.81107E+01-3.31123E+02-1.13881E+02 1.19195E-09 5.55700E-09
 -1       799 1.28064E+05-6.50335E+02-9.17165E+02-2.29035E+02 3.60502E-09 4.82660E-09
 -1       800 1.28638E+05 5.62179E+02-1.29969E+03-9.20184E+01 4.73797E-10 1.85441E-08
 -1       801-1.40384E+04-6.80206E+06-8.60468E+05 6.97333E+05 6.62403E-08-3.59432E-08
 -1       802 2.63556E+05 9.82272E+05 9.35382E+05-7.96787E+05 1.84998E-07-1.91649E-08
 -1       803-2.43475E+05-8.59467E+06-9.25631E+05 4.60523E+05 5.99903E-08 2.00107E-08
 -1       804 9.60819E+04-9.31777E+05 6.56986E+05 4.19199E+05-7.32471E-08-6.00194E-08
 -1       805 1.17796E+05-4.90156E+06-1.46944E+05-5.16182E+05-3.03262E-08-3.83793E-08
 -1       806-2.76100E+05-5.26198E+04-2.02034E+04-1.08473E+05-1.08912E-09 5.09272E-09
 -1       807-2.77819E+05-4.91926E+04-9.92571E+03-1.13221E+05 4.46744E-09-3.01743E-09
 -1       808-2.76645E+05-4.53491E+04-4.21088E+03-1.11927E+05 7.61702E-10 2.84285E-09
 -1       809-2.75738E+05-4.63983E+04-2.05904E+03-1.13460E+05-3.75258E-09 1.35817E-08
 -1       810-2.76729E+05-4.50958E+04-9.43719E+02-1.12081E+05-4.35193E-10-7.18387E-09
 -1       811-2.75578E+05-4.62854E+04-4.69282E+02-1.13428E+05 4.07999E-09-3.12048E-09
 -1       812-2.76742E+05-4.51171E+04-2.37205E+02-1.12081E+05 2.81671E-09-4.33556E-09
 -1       813-2.75557E+05-4.62868E+04-1.54020E+02-1.13413E+05-3.17414E-10-2.42244E-09
 -1       814-2.76737E+05-4.51249E+04-1.52284E+02-1.12078E+05 1.14596E-09-5.41695E-09
 -1       815-2.75561E+05-4.62884E+04-2.45285E+02-1.13408E+05 5.21322E-09-6.63249E-09
 -1       816-2.76721E+05-4.51231E+04-4.64595E+02-1.12075E+05 4.16821E-09 1.36165E-08
 -1       817-2.75642E+05-4.63324E+04-9.97400E+02-1.13399E+05-5.94082E-09 7.87168E-09
 -1       818-2.76662E+05-4.52625E+04-2.03410E+03-1.12010E+05-2.53567E-09-8.15226E-09
 -1       819-2.76755E+05-4.75627E+04-4.78670E+03-1.13140E+05-6.12999E-10 1.12639E-08
 -1       820-2.76284E+05-4.88737E+04-9.74235E+03-1.10461E+05-2.74122E-09-1.65253E-08
 -1       821-3.41039E+05 1.88315E+04-4.35706E+04 8.81093E+02 6.58218E-09-2.35195E-09
 -1       822-3.59845E+05-2.18010E+04-3.08197E+04-1.68013E+03 2.69955E-10-5.37875E-09
 -1       823-3.48278E+05 2.95399E+03-1.12813E+04 1.10069E+03-3.64562E-09 3.53248E-09
 -1       824-3.51350E+05-3.41635E+03-7.09293E+03-1.61645E+03 1.09409E-10 5.11773E-09
 -1       825-3.49531E+05 4.60691E+02-2.92618E+03 8.17426E+02 6.75662E-09 8.68465E-09
 -1       826-3.49843E+05-5.40203E+02-1.73561E+03-6.89811E+02 6.09475E-09-1.53295E-09
 -1       827-3.49782E+05 7.76115E+01-9.32713E+02 1.74034E+02 2.08984E-09-1.34663E-08
 -1       828-3.49632E+05-1.62594E+02-7.79442E+02 6.33917E+02-1.48292E-09 1.42746E-09
 -1       829-3.49742E+05 8.29976E+01-9.45304E+02-5.06323E+02 6.38103E-10 1.14727E-08
 -1       830-3.49942E+05-5.65455E+02-1.81346E+03 1.68820E+03 1.02767E-09-2.28042E-09
 -1       831-3.49474E+05 4.82426E+02-3.02358E+03-8.80270E+02-2.55675E-09-3.52554E-09
 -1       832-3.51434E+05-3.54890E+03-7.36515E+03 1.94102E+03-1.68328E-09 1.56319E-10
 -1       833-3.48252E+05 3.06516E+03-1.17148E+04-7.59145E+02-1.93959E-09 1.49498E-08
 -1       834-3.60145E+05-2.26260E+04-3.19728E+04 1.25402E+03-1.91641E-09 1.39271E-08
 -1       835-3.40763E+05 1.95430E+04-4.52366E+04-1.93249E+02 5.16870E-09-2.77942E-09
 -1       836-1.19772E+03 3.23733E+05 1.97580E+04-1.61937E+04-3.57250E-09-3.97176E-09
 -1       837 4.25513E+03 3.29902E+05 1.68405E+04-3.27828E+04-3.84375E-09 1.74982E-08
 -1       838-4.69759E+02 3.25446E+05 1.73291E+04-1.61260E+04-3.06454E-09 1.25940E-08
 -1       839 1.10165E+04 3.34940E+05 3.29493E+04-3.28285E+04-3.05226E-09 2.93608E-09
 -1       840-3.37661E+03 3.18646E+05 5.26153E+04-1.61500E+04-2.80488E-09 8.04511E-09
 -1       856-6.33875E+04 7.75900E+03-2.04470E+04-4.03451E+02 4.28031E-11 5.38876E-09
 -1       857-7.18211E+04-9.10906E+03-1.40761E+04 5.17276E+03 3.93484E-09-1.91139E-08
 -1       858-6.67238E+04 1.08769E+03-5.30585E+03-4.26232E+02-4.91582E-10-1.79512E-09
 -1       859-6.79914E+04-1.27257E+03-3.20275E+03 5.20767E+03-3.64437E-10 6.02080E-09
 -1       860-6.72224E+04 1.51858E+02-1.34372E+03-4.38269E+02 5.72186E-10-3.02333E-09
 -1       861-6.74176E+04-1.74729E+02-7.42275E+02 5.22412E+03-1.23265E-09-3.15998E-09
 -1       862-6.73002E+04 2.03030E+01-3.14700E+02-4.42692E+02-5.56213E-10 5.66357E-09
 -1       863-6.73232E+04-1.59254E+01-1.28591E+02 5.22648E+03 3.42752E-10 3.33877E-09
 -1       864-6.73171E+04-3.38189E+00 1.42321E+01-4.40626E+02-1.70719E-09-5.10809E-09
 -1       865-6.72780E+04 4.88213E+01 1.76885E+02 5.21529E+03 1.39660E-09-1.24994E-08
 -1       866-6.73435E+04-4.46186E+01 3.72599E+02-4.31505E+02 3.42993E-10-1.08934E-08
 -1       867-6.70985E+04 3.70179E+02 9.27496E+02 5.19046E+03-1.85719E-09 1.67443E-08
 -1       868-6.74924E+04-3.19402E+02 1.54369E+03-4.15798E+02-1.00954E-10 4.58158E-11
 -1       869-6.59637E+04 2.65811E+03 4.11420E+03 5.14914E+03-3.63468E-09 3.39230E-09
 -1       870-6.84717E+04-2.27108E+03 5.97006E+03-3.90148E+02-3.18789E-09-1.67893E-09
 -1       871-5.02831E+03-1.58314E+04-1.71200E+04 1.14231E+05-1.82990E-09 4.70845E-09
 -1       872-1.97406E+03-1.97524E+04-7.10561E+03 1.48109E+05-4.60022E-09 1.18926E-08
 -1       873 1.81863E+02-1.78845E+04 6.76527E+02 1.13980E+05-2.66436E-09 7.27289E-09
 -1       874 2.76318E+03-1.56332E+04 8.96089E+03 1.48144E+05-5.15865E-09 2.67937E-09
 -1       875 6.04774E+03-2.00174E+04 2.00920E+04 1.14190E+05-1.92085E-09 1.45064E-09
 -1       876 2.64830E+05 4.49450E+04 1.37447E+04 1.06645E+05 2.61434E-09 4.71755E-09
 -1       877 2.65707E+05 4.78706E+04 7.34014E+03 1.10615E+05 3.41788E-09-1.56638E-09
 -1       878 2.66114E+05 4.34234E+04 3.07517E+03 1.07772E+05-5.62841E-09 7.03949E-09
 -1       879 2.63839E+05 4.60067E+04 1.53215E+03 1.10709E+05-5.20004E-10 8.17460E-09
 -1       880 2.66207E+05 4.34073E+04 7.13592E+02 1.07818E+05-5.84100E-09 4.90655E-09
 -1       881 2.63715E+05 4.59271E+04 3.80852E+02 1.10688E+05-4.68049E-10 3.77923E-09
 -1       882 2.66215E+05 4.34191E+04 2.43294E+02 1.07820E+05 2.90629E-09 1.29859E-08
 -1       883 2.63706E+05 4.59231E+04 2.60968E+02 1.10682E+05-1.55507E-09-8.51841E-10
 -1       884 2.66210E+05 4.34164E+04 4.14617E+02 1.07820E+05-3.30033E-10-1.13209E-08
 -1       885 2.63739E+05 4.59289E+04 8.33285E+02 1.10692E+05 7.56529E-10-5.39421E-09
 -1       886 2.66177E+05 4.33921E+04 1.67930E+03 1.07816E+05-8.39151E-12 9.72204E-09
 -1       887 2.64034E+05 4.61224E+04 3.66817E+03 1.10735E+05 7.88191E-10 1.09094E-09
 -1       888 2.65946E+05 4.34329E+04 7.39147E+03 1.07699E+05 2.36020E-09-6.62567E-10
 -1       889 2.68435E+05 5.06977E+04 1.76571E+04 1.10599E+05 3.40290E-09-7.46195E-09
 -1       890 2.62932E+05 4.70133E+04 3.30711E+04 1.04882E+05 4.73960E-09 8.75661E-09
 -1       891-1.14595E+02-1.47842E+05-1.79587E+03 2.57220E+04-8.17863E-10 3.42993E-09
 -1       892-2.10044E+02-1.48299E+05-1.93451E+03 3.89991E+04 8.87439E-10-1.66074E-09
 -1       893 4.99348E+00-1.47900E+05-2.74493E+03 2.57282E+04-4.15412E-10 3.27645E-09
 -1       894-1.41882E+03-1.49340E+05-5.68529E+03 3.88570E+04 1.00181E-09 8.06904E-09
 -1       895-1.11962E+03-1.46715E+05-1.00134E+04 2.58642E+04-2.87287E-10-2.80761E-09
 -1       956-3.38027E+05-4.80876E+03-1.19828E+04 2.54563E+04 1.31704E-08 4.13820E-10
 -1       957-3.40386E+05-1.66066E+03-6.15099E+03 3.06244E+04 1.35637E-08 3.84716E-09
 -1       958-3.39098E+05-1.72349E+02-2.77152E+03 2.53111E+04-7.05768E-09-5.43673E-09
 -1       959-3.39280E+05-7.27242E+01-1.41543E+03 3.07887E+04-2.42212E-08 1.26881E-08
 -1       960-3.39199E+05-6.53741E-01-6.90182E+02 2.52966E+04-1.23341E-08-2.38106E-09
 -1       961-3.39204E+05-1.00813E+01-3.66173E+02 3.08056E+04 3.37536E-09 1.84173E-11
 -1       962-3.39221E+05-3.45138E+00-2.09842E+02 2.52942E+04-2.25623E-09 1.50533E-08
 -1       963-3.39202E+05-7.42173E+00-1.68866E+02 3.08086E+04 1.27397E-09 2.38090E-08
 -1       964-3.39225E+05-8.19742E-01-2.05701E+02 2.52936E+04-5.14376E-10 8.91532E-10
 -1       965-3.39214E+05-4.47522E+00-3.56064E+02 3.08081E+04-4.13024E-09 5.21027E-09
 -1       966-3.39212E+05 7.17178E+00-6.68999E+02 2.52947E+04 5.72527E-10 1.32263E-08
 -1       967-3.39297E+05-5.97858E+01-1.37224E+03 3.07967E+04 2.15437E-09 2.15985E-08
 -1       968-3.39122E+05-1.54166E+02-2.68604E+03 2.53050E+04-2.80397E-09-6.47901E-09
 -1       969-3.40379E+05-1.59472E+03-5.96333E+03 3.06764E+04-7.00038E-09-1.64870E-08
 -1       970-3.38091E+05-4.64592E+03-1.16163E+04 2.54119E+04-4.30100E-09 7.57427E-09
 -1       971-3.12785E+05-1.58993E+03-8.68143E+03 1.43011E+04-3.09774E-09-6.50090E-10
 -1       972-3.14884E+05-1.15742E+03-4.72783E+03 1.98669E+04-1.50385E-09-2.04363E-09
 -1       973-3.13752E+05-3.74224E+01-2.11743E+03 1.41853E+04-4.60750E-09 1.48589E-08
 -1       974-3.13887E+05-4.73507E+01-1.09736E+03 1.99954E+04-3.37513E-09 1.44955E-08
 -1       975-3.13828E+05 4.02326E+00-5.48351E+02 1.41740E+04-2.43381E-09 3.18084E-09
 -1       976-3.13829E+05-1.19824E+00-3.16040E+02 2.00096E+04-1.08048E-09 9.74410E-09
 -1       977-3.13843E+05 4.41010E+00-2.28807E+02 1.41711E+04-2.15778E-09-7.36577E-10
 -1       978-3.13833E+05 4.36284E+00-2.66975E+02 2.00138E+04 1.19019E-09-1.29637E-08
 -1       979-3.13843E+05 1.19697E+01-4.28275E+02 1.41698E+04 4.00746E-10-5.39990E-09
 -1       980-3.13865E+05 7.10381E+00-8.26524E+02 2.00146E+04 6.74206E-10-6.17479E-09
 -1       981-3.13816E+05 3.26080E+01-1.60056E+03 1.41703E+04 6.56428E-10 3.48410E-09
 -1       982-3.14085E+05-1.11115E+02-3.30820E+03 2.00084E+04-3.79941E-10 1.72904E-08
 -1       983-3.13615E+05-6.98164E+01-6.42778E+03 1.41760E+04-7.55790E-10 1.25817E-08
 -1       984-3.17176E+05-3.46804E+03-1.43945E+04 1.99282E+04 3.99268E-10 1.39871E-08
 -1       985-3.10705E+05-4.77325E+03-2.64329E+04 1.42489E+04 1.39607E-10 9.06221E-09
 -3
    1PSTEP                        17           9           1          
  100CL  109 6.44531E-01         409                     0    9           1
 -4  DISP        4    1
 -5  D1          1    2    1    0
 -5  D2          1    2    2    0
 -5  D3          1    2    3    0
 -5  ALL         1    2    0    0    1ALL
 -1         1 2.12514E-03 0.00000E+00 0.00000E+00
 -1         2 1.84192E-03-1.86572E-29 0.00000E+00
 -1         3 3.16024E-04-6.21310E-27-1.32349E-23
 -1         5 1.67198E-04 5.82400E-27-2.58494E-24
 -1         8 2.10826E-03-5.15370E-07 0.00000E+00
 -1         9 2.06653E-03-1.07427E-05 0.00000E+00
 -1        10 2.86773E-04-3.50908E-06-6.61744E-24
 -1        12 1.68665E-04 7.72703E-07 6.72084E-25
 -1        15 2.08796E-03-5.63570E-07 0.00000E+00
 -1        16 2.09732E-03-1.19355E-05 0.00000E+00
 -1        17 1.96087E-04-7.86611E-06 0.00000E+00
 -1        18 1.71539E-04 2.91834E-05 0.00000E+00
 -1        19 1.73067E-04 1.54002E-06 0.00000E+00
 -1        20 1.73210E-04-5.71572E-06 0.00000E+00
 -1        21 1.72369E-04-1.65780E-05 3.30872E-24
 -1        24 2.95078E-05-1.17351E-05 0.00000E+00
 -1        25 1.80436E-04 2.93947E-05 0.00000E+00
 -1        26 1.81134E-04 2.14491E-06 0.00000E+00
 -1        27 1.79021E-04-9.13527E-06 0.00000E+00
 -1        28 1.78684E-04-1.71808E-05 0.00000E+00
 -1        32 0.00000E+00 0.00000E+00 0.00000E+00
 -1        33 1.88158E-04 2.86686E-06 0.00000E+00
 -1        34 1.86121E-04-9.18472E-06 0.00000E+00
 -1        35 1.84255E-04-1.75107E-05 0.00000E+00
 -1        51 2.12406E-03-9.81697E-08 6.61744E-24
 -1        52 2.12203E-03-1.81345E-07 0.00000E+00
 -1        53 2.11925E-03-2.62439E-07 0.00000E+00
 -1        54 2.11590E-03-3.43601E-07 0.00000E+00
 -1        55 2.11218E-03-4.26402E-07 2.48154E-24
 -1        56 2.12117E-03 5.92759E-07-5.29396E-23
 -1        57 2.11575E-03 4.64692E-06 0.00000E+00
 -1        58 2.10926E-03 1.15229E-05-1.05879E-22
 -1        59 2.10201E-03 2.02956E-05 0.00000E+00
 -1        60 2.09450E-03 2.97607E-05 0.00000E+00
 -1        61 2.08720E-03 3.86508E-05 0.00000E+00
 -1        62 2.08058E-03 4.57904E-05 1.05879E-22
 -1        63 2.07502E-03 5.01398E-05 0.00000E+00
 -1        64 2.07075E-03 5.11006E-05 1.05879E-22
 -1        65 2.06787E-03 4.83416E-05 0.00000E+00
 -1        66 2.06628E-03 4.21225E-05 0.00000E+00
 -1        67 2.06577E-03 3.29792E-05-5.29396E-23
 -1        68 2.06597E-03 2.19137E-05 0.00000E+00
 -1        69 2.06646E-03 1.00894E-05 0.00000E+00
 -1        70 2.06676E-03-1.22269E-06 0.00000E+00
 -1        86 1.85520E-03-1.09381E-06 0.00000E+00
 -1        87 1.89449E-03-2.84502E-06 0.00000E+00
 -1        88 1.94794E-03-5.19460E-06 2.64698E-23
 -1        89 2.00315E-03-7.63545E-06 0.00000E+00
 -1        90 2.04693E-03-9.55936E-06 0.00000E+00
 -1       121 3.15203E-04-5.69943E-07 0.00000E+00
 -1       122 3.12741E-04-1.14248E-06 6.61744E-24
 -1       123 3.08648E-04-1.72016E-06 1.32349E-23
 -1       124 3.02940E-04-2.30554E-06-6.61744E-24
 -1       125 2.95639E-04-2.90081E-06-1.32349E-23
 -1       191 1.67239E-04 1.28826E-07 2.37814E-24
 -1       192 1.67361E-04 2.57643E-07-1.34417E-24
 -1       193 1.67565E-04 3.86449E-07 3.20532E-24
 -1       194 1.67850E-04 5.15233E-07 3.10193E-25
 -1       195 1.68217E-04 6.43988E-07 1.03398E-25
 -1       251 2.10752E-03-1.48888E-05 1.32349E-23
 -1       252 2.10569E-03-6.43576E-05-6.61744E-24
 -1       253 2.10238E-03-1.39312E-04 0.00000E+00
 -1       254 2.09786E-03-2.29502E-04-6.61744E-24
 -1       255 2.09329E-03-3.20186E-04-1.32349E-23
 -1       256 2.08988E-03-3.96616E-04 6.61744E-24
 -1       257 2.08794E-03-4.48251E-04 0.00000E+00
 -1       258 2.08714E-03-4.65166E-04 0.00000E+00
 -1       259 2.08633E-03-4.47081E-04 0.00000E+00
 -1       260 2.08435E-03-3.94658E-04 0.00000E+00
 -1       261 2.08093E-03-3.18114E-04 1.32349E-23
 -1       262 2.07644E-03-2.28263E-04 6.61744E-24
 -1       263 2.07206E-03-1.39854E-04 0.00000E+00
 -1       264 2.06894E-03-6.76080E-05-1.32349E-23
 -1       265 2.06726E-03-2.14701E-05-2.64698E-23
 -1       266 2.10488E-03-5.31000E-07 0.00000E+00
 -1       267 2.10150E-03-5.38108E-07 0.00000E+00
 -1       268 2.09811E-03-5.45755E-07 8.27181E-25
 -1       269 2.09473E-03-5.51803E-07 2.06795E-25
 -1       270 2.09134E-03-5.57813E-07 0.00000E+00
 -1       271 2.10614E-03 2.68644E-06 1.32349E-23
 -1       272 2.10395E-03 5.99720E-06 0.00000E+00
 -1       273 2.10177E-03 9.27750E-06 0.00000E+00
 -1       274 2.09966E-03 1.23759E-05-1.32349E-23
 -1       275 2.09767E-03 1.51461E-05-2.64698E-23
 -1       276 2.09585E-03 1.74440E-05 0.00000E+00
 -1       277 2.09427E-03 1.91305E-05 0.00000E+00
 -1       278 2.09297E-03 2.00728E-05 0.00000E+00
 -1       279 2.09199E-03 2.01463E-05 0.00000E+00
 -1       280 2.09139E-03 1.92352E-05 1.32349E-23
 -1       281 2.09119E-03 1.72343E-05 0.00000E+00
 -1       282 2.09143E-03 1.40497E-05 0.00000E+00
 -1       283 2.09214E-03 9.60043E-06-2.64698E-23
 -1       284 2.09335E-03 3.81932E-06 0.00000E+00
 -1       285 2.09506E-03-3.34828E-06 0.00000E+00
 -1       301 2.07209E-03-1.09652E-05 6.61744E-24
 -1       302 2.07653E-03-1.11546E-05 6.61744E-24
 -1       303 2.08056E-03-1.13398E-05 0.00000E+00
 -1       304 2.08489E-03-1.15252E-05 0.00000E+00
 -1       305 2.09024E-03-1.17171E-05 0.00000E+00
 -1       306 2.10007E-03-1.41999E-04 1.05879E-22
 -1       307 2.16465E-03-5.05698E-04 5.29396E-23
 -1       308 2.22243E-03-1.04406E-03 0.00000E+00
 -1       309 2.26402E-03-1.67505E-03 0.00000E+00
 -1       310 2.30890E-03-2.28837E-03-1.05879E-22
 -1       311 2.37186E-03-2.77536E-03 5.29396E-23
 -1       312 2.43145E-03-3.06314E-03-1.05879E-22
 -1       313 2.44101E-03-3.11052E-03 5.29396E-23
 -1       314 2.34242E-03-2.92313E-03-1.05879E-22
 -1       315 2.09946E-03-2.54815E-03 0.00000E+00
 -1       316 1.72425E-03-2.05204E-03 0.00000E+00
 -1       317 1.26715E-03-1.49962E-03 5.29396E-23
 -1       318 8.20454E-04-9.54087E-04 0.00000E+00
 -1       319 4.73416E-04-4.80324E-04 5.29396E-23
 -1       320 2.65379E-04-1.43767E-04 0.00000E+00
 -1       336 2.76172E-04-4.17863E-06 0.00000E+00
 -1       337 2.63678E-04-4.86977E-06 0.00000E+00
 -1       338 2.49348E-04-5.58410E-06 0.00000E+00
 -1       339 2.33253E-04-6.32204E-06 0.00000E+00
 -1       340 2.15471E-04-7.08753E-06 0.00000E+00
 -1       406 1.69195E-04 9.01365E-07-2.89513E-24
 -1       407 1.69806E-04 1.02994E-06-1.39587E-24
 -1       408 1.70500E-04 1.15839E-06 1.44757E-24
 -1       409 1.71274E-04 1.28654E-06-1.03398E-24
 -1       410 1.72130E-04 1.41415E-06-2.48154E-24
 -1       521 2.13171E-03-1.52015E-04 0.00000E+00
 -1       522 2.19552E-03-5.34733E-04 0.00000E+00
 -1       523 2.24883E-03-1.09943E-03 0.00000E+00
 -1       524 2.28339E-03-1.75807E-03-5.29396E-23
 -1       525 2.32202E-03-2.39740E-03 1.05879E-22
 -1       526 2.38214E-03-2.90601E-03 0.00000E+00
 -1       527 2.44152E-03-3.20531E-03 1.05879E-22
 -1       528 2.44978E-03-3.25298E-03 0.00000E+00
 -1       529 2.34256E-03-3.05408E-03 0.00000E+00
 -1       530 2.08112E-03-2.66188E-03-5.29396E-23
 -1       531 1.67775E-03-2.14608E-03-1.05879E-22
 -1       532 1.18774E-03-1.57465E-03 5.29396E-23
 -1       533 7.08218E-04-1.00969E-03 1.05879E-22
 -1       534 3.33205E-04-5.15037E-04 5.29396E-23
 -1       535 1.07081E-04-1.59973E-04 0.00000E+00
 -1       536 1.95430E-04 2.41262E-05 0.00000E+00
 -1       537 1.93789E-04 7.96687E-05-3.30872E-24
 -1       538 1.91262E-04 1.50201E-04 3.30872E-24
 -1       539 1.88285E-04 2.27083E-04 1.65436E-24
 -1       540 1.85603E-04 2.99736E-04 0.00000E+00
 -1       541 1.83852E-04 3.57598E-04 0.00000E+00
 -1       542 1.83035E-04 3.94401E-04 3.30872E-24
 -1       543 1.82826E-04 4.04008E-04 0.00000E+00
 -1       544 1.82528E-04 3.87160E-04 0.00000E+00
 -1       545 1.81503E-04 3.44789E-04 1.65436E-24
 -1       546 1.79616E-04 2.84441E-04 3.30872E-24
 -1       547 1.77077E-04 2.13772E-04-1.65436E-24
 -1       548 1.74566E-04 1.43515E-04 3.30872E-24
 -1       549 1.72750E-04 8.44019E-05 0.00000E+00
 -1       550 1.71799E-04 4.38562E-05 0.00000E+00
 -1       551 1.72953E-04-8.39497E-06 0.00000E+00
 -1       552 1.46737E-04-8.99289E-06 0.00000E+00
 -1       553 1.18354E-04-9.64469E-06 4.96308E-24
 -1       554 8.87354E-05-1.03318E-05 0.00000E+00
 -1       555 5.88113E-05-1.10296E-05 2.64698E-23
 -1       556 1.89135E-04 9.94442E-06 0.00000E+00
 -1       557 1.83535E-04 2.43440E-05 0.00000E+00
 -1       558 1.79161E-04 3.56014E-05 0.00000E+00
 -1       559 1.75891E-04 4.40070E-05 0.00000E+00
 -1       560 1.73603E-04 4.98514E-05 0.00000E+00
 -1       561 1.72179E-04 5.34274E-05 0.00000E+00
 -1       562 1.71503E-04 5.50290E-05 0.00000E+00
 -1       563 1.71460E-04 5.49508E-05-1.32349E-23
 -1       564 1.71936E-04 5.34883E-05 0.00000E+00
 -1       565 1.72818E-04 5.09376E-05 0.00000E+00
 -1       566 1.73995E-04 4.75952E-05 0.00000E+00
 -1       567 1.75356E-04 4.37579E-05-1.65436E-24
 -1       568 1.76791E-04 3.97228E-05 8.27181E-25
 -1       569 1.78189E-04 3.57866E-05 0.00000E+00
 -1       570 1.79440E-04 3.22464E-05 0.00000E+00
 -1       571 1.71632E-04 2.73912E-05 1.65436E-24
 -1       572 1.71726E-04 2.55372E-05-4.13590E-25
 -1       573 1.71822E-04 2.36358E-05 0.00000E+00
 -1       574 1.71917E-04 2.17022E-05-1.65436E-24
 -1       575 1.72012E-04 1.97517E-05 0.00000E+00
 -1       576 1.72108E-04 1.77993E-05 0.00000E+00
 -1       577 1.72203E-04 1.58605E-05 3.30872E-24
 -1       578 1.72299E-04 1.39506E-05 0.00000E+00
 -1       579 1.72394E-04 1.20848E-05 0.00000E+00
 -1       580 1.72490E-04 1.02784E-05 0.00000E+00
 -1       581 1.72586E-04 8.54671E-06 0.00000E+00
 -1       582 1.72682E-04 6.90502E-06 0.00000E+00
 -1       583 1.72778E-04 5.36859E-06 0.00000E+00
 -1       584 1.72874E-04 3.95251E-06 0.00000E+00
 -1       585 1.72971E-04 2.67176E-06 0.00000E+00
 -1       586 1.72978E-04 2.92207E-05 0.00000E+00
 -1       587 1.74379E-04 2.92574E-05-2.06795E-25
 -1       588 1.75784E-04 2.92937E-05 0.00000E+00
 -1       589 1.77234E-04 2.93294E-05 0.00000E+00
 -1       590 1.78771E-04 2.93639E-05 0.00000E+00
 -1       591 1.72149E-04 2.74770E-05 1.03398E-25
 -1       592 1.72763E-04 2.57496E-05 0.00000E+00
 -1       593 1.73382E-04 2.40070E-05 0.00000E+00
 -1       594 1.74004E-04 2.22541E-05 0.00000E+00
 -1       595 1.74629E-04 2.04957E-05-8.27181E-25
 -1       596 1.75254E-04 1.87364E-05 0.00000E+00
 -1       597 1.75877E-04 1.69810E-05 0.00000E+00
 -1       598 1.76497E-04 1.52344E-05-4.13590E-25
 -1       599 1.77112E-04 1.35012E-05 8.27181E-25
 -1       600 1.77720E-04 1.17862E-05 0.00000E+00
 -1       601 1.78320E-04 1.00941E-05 0.00000E+00
 -1       602 1.78909E-04 8.42962E-06 2.06795E-25
 -1       603 1.79486E-04 6.79759E-06 8.27181E-25
 -1       604 1.80050E-04 5.20283E-06 1.42172E-25
 -1       605 1.80599E-04 3.64999E-06 0.00000E+00
 -1       606 1.73080E-04 6.30035E-07 0.00000E+00
 -1       607 1.73090E-04-1.92235E-07-1.65436E-24
 -1       608 1.73099E-04-9.31936E-07 0.00000E+00
 -1       609 1.73108E-04-1.59487E-06 1.65436E-24
 -1       610 1.73117E-04-2.18690E-06 0.00000E+00
 -1       611 1.73125E-04-2.71395E-06 0.00000E+00
 -1       612 1.73134E-04-3.18193E-06 0.00000E+00
 -1       613 1.73142E-04-3.59680E-06 0.00000E+00
 -1       614 1.73151E-04-3.96448E-06 1.65436E-24
 -1       615 1.73159E-04-4.29091E-06 0.00000E+00
 -1       616 1.73168E-04-4.58203E-06 0.00000E+00
 -1       617 1.73177E-04-4.84377E-06 0.00000E+00
 -1       618 1.73185E-04-5.08208E-06 0.00000E+00
 -1       619 1.73194E-04-5.30288E-06 2.06795E-25
 -1       620 1.73202E-04-5.51211E-06-2.06795E-25
 -1       621 1.74157E-04 1.64124E-06-1.65436E-24
 -1       622 1.75389E-04 1.74280E-06 8.27181E-25
 -1       623 1.76733E-04 1.84420E-06-3.30872E-24
 -1       624 1.78158E-04 1.94531E-06-1.65436E-24
 -1       625 1.79635E-04 2.04618E-06-1.65436E-24
 -1       626 1.73516E-04 6.64661E-07 3.30872E-24
 -1       627 1.73941E-04-1.44926E-07 0.00000E+00
 -1       628 1.74345E-04-8.96581E-07 0.00000E+00
 -1       629 1.74731E-04-1.59849E-06 1.65436E-24
 -1       630 1.75101E-04-2.25886E-06 3.30872E-24
 -1       631 1.75458E-04-2.88591E-06 0.00000E+00
 -1       632 1.75807E-04-3.48788E-06 3.30872E-24
 -1       633 1.76148E-04-4.07301E-06 0.00000E+00
 -1       634 1.76487E-04-4.64951E-06 3.30872E-24
 -1       635 1.76825E-04-5.22561E-06 1.65436E-24
 -1       636 1.77167E-04-5.80956E-06 0.00000E+00
 -1       637 1.77514E-04-6.40957E-06 0.00000E+00
 -1       638 1.77870E-04-7.03389E-06-1.65436E-24
 -1       639 1.78239E-04-7.69076E-06-1.65436E-24
 -1       640 1.78622E-04-8.38844E-06 1.65436E-24
 -1       656 1.73644E-04-6.27160E-06-6.61744E-24
 -1       657 1.74491E-04-6.85003E-06 0.00000E+00
 -1       658 1.75613E-04-7.42704E-06 0.00000E+00
 -1       659 1.76862E-04-8.00371E-06 6.61744E-24
 -1       660 1.78058E-04-8.58211E-06-6.61744E-24
 -1       661 1.73373E-04-5.96199E-06 0.00000E+00
 -1       662 1.73572E-04-6.29530E-06 0.00000E+00
 -1       663 1.73802E-04-6.71089E-06-1.65436E-24
 -1       664 1.74061E-04-7.20272E-06 8.27181E-25
 -1       665 1.74346E-04-7.76541E-06 0.00000E+00
 -1       666 1.74656E-04-8.39352E-06 0.00000E+00
 -1       667 1.74988E-04-9.08183E-06 1.65436E-24
 -1       668 1.75341E-04-9.82520E-06-8.27181E-25
 -1       669 1.75713E-04-1.06187E-05 0.00000E+00
 -1       670 1.76102E-04-1.14574E-05-8.27181E-25
 -1       671 1.76506E-04-1.23365E-05 0.00000E+00
 -1       672 1.76923E-04-1.32515E-05 0.00000E+00
 -1       673 1.77351E-04-1.41976E-05 0.00000E+00
 -1       674 1.77789E-04-1.51708E-05 8.27181E-25
 -1       675 1.78235E-04-1.61660E-05-4.13590E-25
 -1       676 1.73425E-04-1.66790E-05 3.30872E-24
 -1       677 1.74481E-04-1.67801E-05 0.00000E+00
 -1       678 1.75535E-04-1.68810E-05 3.30872E-24
 -1       679 1.76587E-04-1.69817E-05-1.65436E-24
 -1       680 1.77637E-04-1.70824E-05-1.65436E-24
 -1       771 1.85304E-05 1.26936E-05 0.00000E+00
 -1       772 9.27703E-06 3.27576E-05 0.00000E+00
 -1       773 1.66508E-06 4.86698E-05-5.29396E-23
 -1       774-4.41770E-06 6.06684E-05 0.00000E+00
 -1       775-9.08144E-06 6.90003E-05 0.00000E+00
 -1       776-1.24407E-05 7.39274E-05 0.00000E+00
 -1       777-1.46099E-05 7.57206E-05 5.29396E-23
 -1       778-1.57062E-05 7.46626E-05 0.00000E+00
 -1       779-1.58459E-05 7.10439E-05-5.29396E-23
 -1       780-1.51475E-05 6.51649E-05 0.00000E+00
 -1       781-1.37288E-05 5.73319E-05-5.29396E-23
 -1       782-1.17090E-05 4.78591E-05 0.00000E+00
 -1       783-9.20667E-06 3.70646E-05 5.29396E-23
 -1       784-6.34152E-06 2.52720E-05 0.00000E+00
 -1       785-3.23246E-06 1.28077E-05-5.29396E-23
 -1       786 1.80475E-04 2.74685E-05 0.00000E+00
 -1       787 1.80518E-04 2.55917E-05 0.00000E+00
 -1       788 1.80561E-04 2.37561E-05 0.00000E+00
 -1       789 1.80605E-04 2.19535E-05 8.27181E-25
 -1       790 1.80648E-04 2.01792E-05-1.65436E-24
 -1       791 1.80692E-04 1.84285E-05 0.00000E+00
 -1       792 1.80736E-04 1.66991E-05-1.65436E-24
 -1       793 1.80780E-04 1.49889E-05 8.27181E-25
 -1       794 1.80824E-04 1.32977E-05 1.65436E-24
 -1       795 1.80868E-04 1.16252E-05 0.00000E+00
 -1       796 1.80912E-04 9.97332E-06 0.00000E+00
 -1       797 1.80956E-04 8.34376E-06 8.27181E-25
 -1       798 1.81001E-04 6.74068E-06 1.65436E-24
 -1       799 1.81045E-04 5.16828E-06 8.27181E-25
 -1       800 1.81089E-04 3.63387E-06-1.65436E-24
 -1       801 1.39204E-04 2.63356E-05-2.64698E-23
 -1       802 1.43421E-05 1.65882E-05 2.64698E-23
 -1       803-9.31019E-05 8.47906E-06 0.00000E+00
 -1       804-8.39385E-05 5.85932E-06 2.64698E-23
 -1       805-2.79067E-05 2.38352E-06-5.29396E-23
 -1       806 1.81048E-04 2.74029E-05-3.30872E-24
 -1       807 1.81646E-04 2.54374E-05-1.65436E-24
 -1       808 1.82232E-04 2.35030E-05 3.30872E-24
 -1       809 1.82804E-04 2.16037E-05-1.65436E-24
 -1       810 1.83362E-04 1.97430E-05 3.30872E-24
 -1       811 1.83903E-04 1.79247E-05-1.65436E-24
 -1       812 1.84428E-04 1.61523E-05-3.30872E-24
 -1       813 1.84934E-04 1.44296E-05 0.00000E+00
 -1       814 1.85420E-04 1.27602E-05 3.30872E-24
 -1       815 1.85885E-04 1.11475E-05-1.65436E-24
 -1       816 1.86328E-04 9.59538E-06 1.65436E-24
 -1       817 1.86746E-04 8.10726E-06 8.27181E-25
 -1       818 1.87140E-04 6.68678E-06 0.00000E+00
 -1       819 1.87507E-04 5.33753E-06-8.27181E-25
 -1       820 1.87846E-04 4.06306E-06-3.30872E-24
 -1       821 1.81009E-04 3.13522E-07 0.00000E+00
 -1       822 1.80875E-04-2.24417E-06 0.00000E+00
 -1       823 1.80741E-04-5.23173E-06-3.30872E-24
 -1       824 1.80605E-04-8.35008E-06-1.65436E-24
 -1       825 1.80469E-04-1.12658E-05 0.00000E+00
 -1       826 1.80334E-04-1.36466E-05 0.00000E+00
 -1       827 1.80201E-04-1.53023E-05 0.00000E+00
 -1       828 1.80068E-04-1.60472E-05 0.00000E+00
 -1       829 1.79936E-04-1.59374E-05-3.30872E-24
 -1       830 1.79804E-04-1.50342E-05 0.00000E+00
 -1       831 1.79671E-04-1.36096E-05-3.30872E-24
 -1       832 1.79538E-04-1.19387E-05-1.65436E-24
 -1       833 1.79405E-04-1.03622E-05 0.00000E+00
 -1       834 1.79274E-04-9.22016E-06-1.65436E-24
 -1       835 1.79144E-04-8.73750E-06-8.27181E-25
 -1       836 1.82509E-04 2.26473E-06 3.30872E-24
 -1       837 1.83760E-04 2.38748E-06 1.65436E-24
 -1       838 1.84919E-04 2.51016E-06 0.00000E+00
 -1       839 1.86016E-04 2.63213E-06 0.00000E+00
 -1       840 1.87086E-04 2.75394E-06 8.27181E-25
 -1       856 1.79003E-04-9.90392E-06-1.65436E-24
 -1       857 1.78983E-04-1.05406E-05 6.46235E-27
 -1       858 1.78962E-04-1.10660E-05 4.13590E-25
 -1       859 1.78941E-04-1.15005E-05 0.00000E+00
 -1       860 1.78920E-04-1.18649E-05 0.00000E+00
 -1       861 1.78899E-04-1.21799E-05 4.13590E-25
 -1       862 1.78878E-04-1.24663E-05-8.27181E-25
 -1       863 1.78856E-04-1.27448E-05 0.00000E+00
 -1       864 1.78835E-04-1.30363E-05 8.27181E-25
 -1       865 1.78814E-04-1.33616E-05-4.13590E-25
 -1       866 1.78793E-04-1.37414E-05-8.27181E-25
 -1       867 1.78771E-04-1.41964E-05 0.00000E+00
 -1       868 1.78750E-04-1.47473E-05-8.27181E-25
 -1       869 1.78728E-04-1.54147E-05 0.00000E+00
 -1       870 1.78707E-04-1.62191E-05-8.27181E-25
 -1       871 1.80066E-04-9.13929E-06-8.27181E-25
 -1       872 1.81253E-04-9.14652E-06 0.00000E+00
 -1       873 1.82518E-04-9.15441E-06 0.00000E+00
 -1       874 1.83794E-04-9.16301E-06-5.16988E-26
 -1       875 1.85017E-04-9.17218E-06-2.06795E-25
 -1       876 1.79432E-04-9.88999E-06 0.00000E+00
 -1       877 1.79822E-04-1.05799E-05 0.00000E+00
 -1       878 1.80191E-04-1.12128E-05 0.00000E+00
 -1       879 1.80541E-04-1.17958E-05 0.00000E+00
 -1       880 1.80875E-04-1.23362E-05-3.30872E-24
 -1       881 1.81197E-04-1.28410E-05 0.00000E+00
 -1       882 1.81507E-04-1.33175E-05 3.30872E-24
 -1       883 1.81810E-04-1.37728E-05 0.00000E+00
 -1       884 1.82107E-04-1.42140E-05-3.30872E-24
 -1       885 1.82402E-04-1.46483E-05-1.65436E-24
 -1       886 1.82697E-04-1.50828E-05 0.00000E+00
 -1       887 1.82994E-04-1.55246E-05-1.65436E-24
 -1       888 1.83297E-04-1.59808E-05 0.00000E+00
 -1       889 1.83607E-04-1.64589E-05-1.65436E-24
 -1       890 1.83927E-04-1.69659E-05 1.65436E-24
 -1       891 1.79751E-04-1.72362E-05 0.00000E+00
 -1       892 1.80796E-04-1.72918E-05 8.27181E-25
 -1       893 1.81793E-04-1.73472E-05-8.27181E-25
 -1       894 1.82719E-04-1.74024E-05-8.27181E-25
 -1       895 1.83547E-04-1.74575E-05 0.00000E+00
 -1       956 1.88033E-04 1.83609E-06 0.00000E+00
 -1       957 1.87906E-04 8.91708E-07-1.65436E-24
 -1       958 1.87778E-04 2.36398E-08 3.30872E-24
 -1       959 1.87650E-04-7.78753E-07 0.00000E+00
 -1       960 1.87523E-04-1.52615E-06 3.30872E-24
 -1       961 1.87395E-04-2.22926E-06 0.00000E+00
 -1       962 1.87267E-04-2.89880E-06-3.30872E-24
 -1       963 1.87139E-04-3.54551E-06 0.00000E+00
 -1       964 1.87012E-04-4.18014E-06 0.00000E+00
 -1       965 1.86884E-04-4.81340E-06 0.00000E+00
 -1       966 1.86756E-04-5.45605E-06 0.00000E+00
 -1       967 1.86629E-04-6.11881E-06-1.65436E-24
 -1       968 1.86501E-04-6.81241E-06 0.00000E+00
 -1       969 1.86374E-04-7.54756E-06 0.00000E+00
 -1       970 1.86246E-04-8.33491E-06 3.30872E-24
 -1       971 1.86005E-04-1.00310E-05 0.00000E+00
 -1       972 1.85888E-04-1.07844E-05 0.00000E+00
 -1       973 1.85771E-04-1.14551E-05 0.00000E+00
 -1       974 1.85654E-04-1.20538E-05-1.65436E-24
 -1       975 1.85537E-04-1.25911E-05-3.30872E-24
 -1       976 1.85419E-04-1.30777E-05 0.00000E+00
 -1       977 1.85302E-04-1.35244E-05-3.30872E-24
 -1       978 1.85185E-04-1.39417E-05 0.00000E+00
 -1       979 1.85068E-04-1.43405E-05 3.30872E-24
 -1       980 1.84951E-04-1.47313E-05 0.00000E+00
 -1       981 1.84833E-04-1.51251E-05-3.30872E-24
 -1       982 1.84716E-04-1.55323E-05 0.00000E+00
 -1       983 1.84599E-04-1.59639E-05 0.00000E+00
 -1       984 1.84483E-04-1.64303E-05 0.00000E+00
 -1       985 1.84367E-04-1.69425E-05 0.00000E+00
 -3
    1PSTEP                        18           9           1          
  100CL  109 6.44531E-01         409                     0    9           1
 -4  STRESS      6    1
 -5  SXX         1    4    1    1
 -5  SYY         1    4    2    2
 -5  SZZ         1    4    3    3
 -5  SXY         1    4    1    2
 -5  SYZ         1    4    2    3
 -5  SZX         1    4    3    1
 -1         1-4.42963E+06-1.65127E+06-9.74363E+05-1.62388E+06 2.21189E-09 8.70787E-08
 -1         2 3.01999E+04-2.13489E+06 1.25897E+05 3.29455E+05 5.05042E-09-4.10128E-08
 -1         3-1.24274E+03-1.62020E+06 4.06076E+02-2.10250E+03-4.22936E-10-1.80080E-09
 -1         5-4.78455E+01 3.68804E+05 9.48962E+00-9.75871E-01-3.67221E-10-9.59153E-09
 -1         8-6.21586E+05-2.09497E+05-4.91774E+04-4.00596E+05 9.37689E-10-3.03589E-08
 -1         9 8.09548E+06-6.71744E+05 1.35486E+06-1.01666E+06 3.08035E-08-1.89058E-08
 -1        10-2.13273E+03-1.68835E+06-3.86894E+03-1.42074E+04-1.27766E-08-2.06171E-08
 -1        12-4.40536E+01 3.68824E+05 3.10341E+02-6.77751E+00-3.25169E-10 4.00905E-09
 -1        15 1.25876E+03 6.91754E+02 4.06891E+03 1.84231E+00 2.74383E-10 4.05813E-07
 -1        16 1.75964E+07-1.51072E+05 2.47684E+06-1.43395E+06 1.07296E-08-2.27708E-07
 -1        17 6.31883E+06 4.50816E+06 1.70242E+06 4.42720E+06 1.86265E-08 2.08151E-08
 -1        18 1.13043E+05 2.56425E+04-1.61033E+03-1.12194E+05 1.18603E-08 1.56274E-08
 -1        19 1.17409E+05 1.36557E+05-7.33412E+02 2.12618E+04 1.75023E-09-1.07542E-08
 -1        20-7.57475E+04-5.50701E+05-1.23369E+05 2.57816E+04-1.58707E-09 5.56489E-09
 -1        21-4.49440E+01-2.87782E+05-9.01654E+02 2.08426E+02 1.20876E-08 9.39477E-09
 -1        24 1.03404E+07 8.81593E+06 2.92710E+06 8.20060E+06-1.46906E-07-4.83512E-08
 -1        25 7.43490E+04 8.09906E+04 5.23218E+04-5.36485E+05-2.40516E-09 1.75240E-08
 -1        26-5.22546E+04 8.90493E+04-2.36030E+04 9.62154E+01 1.24601E-09 5.08489E-09
 -1        27-7.47037E+04-2.98076E+05-1.09424E+05 6.64055E+04 4.68784E-09 1.61951E-09
 -1        28 2.17214E+04-8.26000E+04 1.64148E+04 2.06125E+04-3.36084E-09 1.28539E-08
 -1        32-1.62984E+06-2.99612E+06-1.74445E+05 2.62650E+05-3.90137E-08-7.36816E-09
 -1        33-1.72054E+05 8.87279E+04 3.10428E+04-3.78099E+04-2.51237E-09-1.09352E-09
 -1        34-2.15780E+05-2.37720E+04 6.50329E+02 7.22163E+04-3.61369E-09 8.46194E-09
 -1        35-2.23404E+04-3.27660E+04-1.30327E+03 5.00821E+04-1.54611E-09-6.27551E-09
 -1        51 4.97306E+04-2.11642E+05 1.07545E+05-6.34965E+05 1.45519E-11 1.31207E-07
 -1        52 1.80157E+04-1.94471E+05 5.80826E+04-7.40302E+05 2.54659E-10 5.37475E-08
 -1        53 5.10288E+03-2.09955E+05 3.28694E+04-6.32650E+05 4.91127E-10 2.85363E-08
 -1        54 1.14770E+04-2.06411E+05 3.23186E+04-7.42700E+05-1.01863E-10-2.82536E-07
 -1        55 2.40535E+04-2.15915E+05 4.55109E+04-6.32333E+05 4.51109E-10-6.32754E-08
 -1        56-8.35201E+06-9.59370E+05-7.22398E+05-3.28204E+06-2.35596E-08-1.72586E-07
 -1        57-8.82285E+06-1.41977E+06-4.85231E+05-3.03449E+06 3.94248E-08-7.32398E-08
 -1        58-8.44553E+06-1.23574E+06-1.69595E+05-3.29028E+06-2.14714E-08-1.23335E-07
 -1        59-8.72214E+06-1.09010E+06-1.00711E+05-3.02494E+06-6.14091E-09-1.68120E-07
 -1        60-8.45394E+06-1.27871E+06-3.92517E+04-3.29670E+06-1.23505E-08-1.57528E-07
 -1        61-8.67886E+06-1.06877E+06-2.17337E+04-3.04841E+06 2.56241E-08-1.49772E-07
 -1        62-8.48678E+06-1.25699E+06-1.17368E+04-3.26595E+06-1.86756E-08-8.96443E-08
 -1        63-8.58680E+06-1.14498E+06-7.09421E+03-3.13494E+06 2.32048E-08-1.77060E-08
 -1        64-8.54138E+06-1.20547E+06-1.18910E+04-3.20682E+06-7.87441E-09 1.62950E-08
 -1        65-8.48343E+06-1.25452E+06-1.82618E+04-3.25489E+06-2.54140E-08-1.29442E-07
 -1        66-8.58998E+06-1.14774E+06-3.60801E+04-3.14586E+06 3.33184E-08 4.60359E-08
 -1        67-8.43126E+06-1.36945E+06-8.86318E+04-3.34904E+06 6.38829E-09-1.91472E-07
 -1        68-8.59857E+06-1.08840E+06-1.49507E+05-3.11579E+06-1.32786E-09-1.99652E-07
 -1        69-8.55763E+06-1.63313E+06-4.29727E+05-3.33379E+06-1.13851E-08-2.06011E-07
 -1        70-8.46796E+06-8.89566E+05-6.37514E+05-3.16061E+06 1.46974E-08-1.12865E-07
 -1        86-3.10297E+04-3.09776E+06-7.37351E+04-1.64010E+05-4.36510E-08 1.34612E-07
 -1        87 3.75673E+04-2.51612E+06 5.14146E+04 4.89032E+05-7.66890E-08 2.35101E-07
 -1        88-1.38281E+03-2.75720E+06-7.80072E+03-3.24539E+05-6.09025E-08-1.61070E-07
 -1        89 3.62884E+04-2.57018E+06 2.03863E+04 5.21271E+05-9.86734E-08 5.26043E-08
 -1        90-2.46467E+04-3.04936E+06-1.13896E+05-1.96517E+05-2.72994E-08 8.31824E-09
 -1       121-1.71151E+03-1.62434E+06-3.80246E+02 1.04385E+03 1.25243E-09 2.10639E-09
 -1       122-1.06119E+03-1.62024E+06 7.91941E+02-4.20458E+03-5.19113E-09-1.25237E-08
 -1       123-1.74353E+03-1.62447E+06 4.73698E+02 3.11676E+03 4.02588E-09-5.25324E-09
 -1       124 6.08170E+02-1.61969E+06 3.09983E+03-8.77889E+03-9.03947E-09 1.36788E-09
 -1       125-2.60778E+03-1.62539E+06 3.86927E+03 5.58395E+03 6.24823E-09 4.09927E-08
 -1       191-5.05254E+01 3.68826E+05 9.26866E+00 5.02631E-01-4.54348E-10-1.39353E-08
 -1       192-4.87448E+01 3.68804E+05 2.01925E+01-3.25518E+00-6.43484E-10-4.98403E-10
 -1       193-5.29016E+01 3.68826E+05 3.55350E+01 2.84324E+00-8.78721E-10 9.53514E-09
 -1       194-5.16320E+01 3.68808E+05 7.66214E+01-7.43147E+00-5.01334E-10 2.87127E-09
 -1       195-5.74640E+01 3.68824E+05 1.47849E+02 4.78256E+00-1.18829E-09-3.52338E-09
 -1       251-2.27309E+06-4.33702E+04-2.34163E+05 1.31199E+05 6.65750E-10-2.00758E-07
 -1       252-1.06784E+06 4.99258E+04 7.56303E+04-4.39997E+05-9.45511E-09-1.26664E-07
 -1       253-1.77391E+06-1.88505E+04-4.40956E+04 3.08649E+05 1.40662E-08 7.63348E-08
 -1       254-1.63755E+06 7.21940E+04 1.37500E+04-6.15113E+05 2.94921E-08-2.24581E-07
 -1       255-1.76011E+06-1.87949E+04-2.06914E+04 3.11393E+05 3.46881E-09 1.58257E-07
 -1       256-1.09291E+06 5.90451E+04 1.24438E+05-4.52216E+05-1.42936E-08 1.60408E-07
 -1       257-2.26480E+06-5.00358E+04-1.25162E+05 1.40839E+05 1.86919E-08 8.37609E-08
 -1       258-5.47066E+05 4.50013E+04 2.27702E+05 9.34025E+03 1.59816E-08 1.16136E-07
 -1       259-2.25194E+06-4.91510E+04-1.20492E+05-1.47041E+05 1.36788E-09-4.19848E-08
 -1       260-1.12030E+06 6.03448E+04 1.24195E+05 4.64616E+05-3.25927E-08-1.01185E-07
 -1       261-1.74849E+06-1.85854E+04-8.46661E+03-3.11636E+05-4.60905E-08-8.76286E-08
 -1       262-1.62896E+06 8.16605E+04 3.72770E+04 6.16474E+05 2.07583E-08 1.18291E-07
 -1       263-1.79394E+06-2.86196E+04-1.00031E+04-3.03521E+05-1.65201E-08 2.53581E-07
 -1       264-1.00487E+06 1.19424E+05 1.82571E+05 4.30926E+05-1.11354E-07 1.85981E-07
 -1       265-2.31308E+06-1.05243E+05-9.22642E+04-1.21037E+05-3.91010E-08 1.22320E-07
 -1       266-2.27877E+04-1.06558E+04 5.34653E+04-3.94190E+01 1.70985E-10-8.25084E-09
 -1       267 2.64172E+04 1.24192E+04 3.77891E+04 4.54824E+01 4.41105E-11-8.97436E-08
 -1       268-3.54250E+03-1.75892E+03 1.40460E+04-5.79521E+00 1.80080E-10-6.92282E-08
 -1       269 4.18265E+03 2.10503E+03 9.12970E+03 6.75060E+00 6.68479E-11-1.03732E-08
 -1       270-6.27821E+02-3.45874E+02 4.40704E+03-9.16102E-01 5.19549E-11 1.77016E-07
 -1       271-2.05174E+06-2.46686E+05-1.52384E+05-7.84895E+05 2.35596E-08 4.38959E-08
 -1       272-2.16179E+06-3.03522E+05-9.81084E+04-7.22010E+05-1.52068E-08 1.06516E-07
 -1       273-2.07917E+06-2.86051E+05-3.59558E+04-7.79532E+05 1.13687E-10 1.73928E-07
 -1       274-2.12935E+06-2.55442E+05-2.01789E+04-7.30356E+05-2.48792E-09 1.55665E-08
 -1       275-2.08321E+06-2.90031E+05-8.38095E+03-7.78215E+05 7.22912E-09-1.70694E-08
 -1       276-2.12309E+06-2.51858E+05-4.39129E+03-7.33047E+05-2.89547E-08 1.24698E-07
 -1       277-2.08488E+06-2.89430E+05-2.22042E+03-7.76693E+05 2.66418E-08-8.69045E-08
 -1       278-2.11899E+06-2.54420E+05-1.36397E+03-7.36216E+05 4.26735E-08-6.20757E-08
 -1       279-2.08665E+06-2.87832E+05-1.59490E+03-7.74602E+05-1.22236E-08-9.33451E-08
 -1       280-2.11450E+06-2.58812E+05-2.32785E+03-7.40368E+05 4.71782E-08 1.28892E-07
 -1       281-2.08865E+06-2.85517E+05-4.67116E+03-7.72022E+05 4.70391E-09 1.03773E-09
 -1       282-2.11105E+06-2.66629E+05-1.03224E+04-7.45150E+05-1.52813E-08-2.96950E-08
 -1       283-2.08945E+06-2.80709E+05-1.89915E+04-7.69250E+05 1.24746E-08 5.11226E-08
 -1       284-2.12125E+06-2.97510E+05-5.05867E+04-7.47431E+05-3.42261E-08-9.38561E-08
 -1       285-2.07829E+06-2.57511E+05-7.93712E+04-7.68475E+05-2.39743E-08-2.82340E-07
 -1       301 1.30141E+04-4.97633E+05 1.73749E+05-8.63598E+05 1.27329E-09-5.31945E-08
 -1       302 1.42532E+04-4.53148E+05 1.05707E+05-1.26237E+06-2.14641E-09-4.42433E-08
 -1       303-6.80881E+03-4.83662E+05 6.42806E+04-8.61441E+05 9.96806E-10-9.38162E-08
 -1       304 1.36513E+03-4.56917E+05 7.25905E+04-1.26161E+06-1.10595E-09-6.76664E-08
 -1       305-2.99037E+03-4.81291E+05 9.96083E+04-8.64142E+05 9.05857E-10-2.11585E-07
 -1       306-2.56807E+07-5.17943E+06-7.03795E+06-1.27219E+06-6.25150E-08 8.13452E-08
 -1       307 2.08626E+07 1.59321E+06 4.52353E+06-1.20485E+07-7.79633E-07 4.27390E-08
 -1       308-7.89510E+06-6.23157E+05-5.56772E+05 4.28135E+06-2.19676E-07 3.16097E-07
 -1       309-3.57574E+06 5.59904E+06 1.65516E+06-1.78926E+07 3.72573E-07 2.11599E-07
 -1       310-1.06951E+07-1.04640E+06-1.28011E+06 4.14139E+06-6.64149E-08-1.22192E-07
 -1       311 2.73277E+07-3.15006E+05 5.48528E+06-8.55326E+06 5.38072E-07-9.07894E-08
 -1       312-2.64887E+07-5.19175E+06-6.59299E+06-3.63005E+06 9.34815E-08 3.84898E-08
 -1       313 3.69210E+07 9.58152E+06 8.50244E+06 1.69526E+07-3.81202E-07 2.28538E-07
 -1       314-1.64433E+07-1.33303E+07-6.07568E+06-1.06300E+07 2.28116E-07-5.35510E-08
 -1       315-7.38006E+05 2.25074E+07 4.67843E+06 1.02778E+07-7.34915E-07-1.64757E-07
 -1       316-2.61898E+04-8.78639E+06-5.15074E+05-3.70934E+06-1.16020E-06-3.68542E-07
 -1       317-1.68264E+07 1.87526E+07 1.62509E+06-5.16000E+06 5.24240E-07-5.66772E-07
 -1       318-1.36886E+06-9.98193E+06-1.33723E+06-4.48162E+06-7.92206E-07 1.07219E-07
 -1       319 4.06068E+06 2.35910E+07 5.24686E+06 1.27294E+07-9.25793E-08 1.75060E-07
 -1       320-1.91327E+07-1.36763E+07-7.71922E+06-1.05256E+07 1.49244E-07-6.51344E-08
 -1       336-3.07998E+02-1.75842E+06-1.36619E+04 8.49560E+03-2.46855E-08 2.49456E-08
 -1       337-5.24193E+03-1.75884E+06-1.77441E+04-2.05474E+04-4.58961E-08-9.02037E-09
 -1       338 5.53102E+02-1.75797E+06-2.74234E+04 1.18605E+04-3.19833E-08 3.78350E-09
 -1       339-2.91211E+04-1.77521E+06-6.21118E+04-2.71130E+04-5.74073E-08 2.66155E-08
 -1       340 1.94396E+04-1.74393E+06-9.75947E+04 1.49491E+04-3.76931E-08 1.05902E-08
 -1       406-2.23691E+01 3.68810E+05 6.10560E+02 2.28545E+00-1.51270E-09 8.99672E-09
 -1       407 1.69811E+02 3.68932E+05 1.30219E+03 1.92497E+01-4.38405E-10 5.01677E-09
 -1       408 6.24859E+02 3.68715E+05 2.59799E+03-2.19419E+01-2.03806E-09 3.69437E-09
 -1       409 2.77139E+03 3.69761E+05 5.85311E+03 2.30488E+02-3.59648E-10 5.57702E-09
 -1       410 8.04143E+03 3.67971E+05 1.19470E+04-2.21336E+02-2.34650E-09-2.13167E-08
 -1       521-2.73152E+07-6.36284E+06-8.24366E+06-9.97140E+05-1.05938E-07 9.83127E-08
 -1       522 2.16496E+07 2.14526E+06 4.60935E+06-1.50111E+07-4.30155E-07-4.00003E-07
 -1       523-8.71332E+06-8.90395E+05-5.80853E+05 4.72778E+06 7.79692E-08-3.62430E-07
 -1       524-6.55976E+06 7.89240E+06 1.80266E+06-2.08045E+07 7.74075E-07-4.97097E-07
 -1       525-1.17115E+07-1.49264E+06-1.41363E+06 4.57553E+06 6.34405E-07-2.74988E-07
 -1       526 2.96855E+07-3.44588E+05 5.79405E+06-1.09537E+07 2.77214E-07-6.96164E-08
 -1       527-2.83109E+07-6.54303E+06-7.60699E+06-3.55111E+06 5.87897E-08 6.18602E-08
 -1       528 4.05042E+07 1.04972E+07 8.90832E+06 1.92364E+07 1.16474E-07-6.35628E-08
 -1       529-1.75267E+07-1.52077E+07-6.98524E+06-1.09002E+07 3.14321E-08-1.45053E-07
 -1       530-2.87702E+06 2.63730E+07 4.96579E+06 1.04107E+07-3.33021E-07 3.40107E-07
 -1       531-1.29975E+05-9.94232E+06-5.24800E+05-3.91843E+06-8.30580E-07 2.74187E-07
 -1       532-1.98716E+07 2.10802E+07 1.79510E+06-8.30427E+06 3.76254E-07-5.34794E-07
 -1       533-1.46897E+06-1.11499E+07-1.41447E+06-4.61582E+06-8.64093E-08-8.95292E-07
 -1       534 2.16407E+06 2.75535E+07 5.49266E+06 1.32610E+07-1.11351E-07 6.29283E-07
 -1       535-2.03194E+07-1.56686E+07-8.83646E+06-1.07789E+07 7.21775E-08 4.00585E-07
 -1       536-6.60036E+05-4.50164E+04-2.87870E+04-4.83646E+04-5.03087E-09 6.52526E-08
 -1       537-9.98550E+04 4.40083E+04 8.01265E+04 1.11685E+05-1.08532E-07 9.39176E-08
 -1       538-3.92388E+05 2.08776E+03 6.20894E+03-6.60167E+04 3.57601E-08 1.06539E-07
 -1       539-2.85454E+05 3.09047E+03 2.30127E+04 1.26161E+05 1.30937E-07 8.38816E-08
 -1       540-4.79030E+05-2.93121E+02-1.71888E+04-6.32586E+04 1.57343E-08 8.66499E-08
 -1       541 6.89866E+04 1.44837E+04 9.10536E+04 8.75152E+04-2.06498E-08 7.70456E-08
 -1       542-7.37293E+05-1.72431E+04-7.17251E+04-2.66883E+04 2.47546E-08 2.91923E-08
 -1       543 2.89594E+05 2.33547E+04 1.34696E+05-1.23161E+04 2.18834E-08-2.51021E-08
 -1       544-6.93735E+05-1.40438E+04-6.37183E+04 3.60466E+04 2.57814E-08-3.23216E-08
 -1       545-3.28413E+04 7.85031E+03 6.74593E+04-1.02524E+05-3.59655E-08-8.44032E-08
 -1       546-4.23492E+05 5.40301E+03-1.05875E+04 6.32532E+04 1.50242E-08-8.99275E-08
 -1       547-3.01590E+05-4.68241E+03 7.82255E+03-1.28872E+05-9.22474E-08-1.27583E-07
 -1       548-4.32185E+05 4.48955E+03-2.20026E+04 6.29350E+04-1.01233E-07-9.43273E-08
 -1       549-1.49405E+04 1.05659E+04 4.74329E+04-1.00105E+05-5.30758E-08-5.93934E-08
 -1       550-7.02462E+05-1.62442E+04-1.16341E+05 3.39227E+04 7.29278E-09-3.44498E-08
 -1       551 3.73346E+04-7.69142E+05-6.28952E+03-1.20996E+06-9.41654E-08-3.17232E-09
 -1       552 8.46357E+04-8.07952E+05 1.53690E+04-1.72546E+06-6.68224E-08 3.99523E-08
 -1       553 6.44892E+04-8.06282E+05 3.57177E+04-1.20383E+06-1.09809E-07 4.23024E-08
 -1       554 1.21236E+05-8.20314E+05 8.54188E+04-1.72742E+06-6.98928E-08 3.13539E-08
 -1       555 9.41259E+04-8.29034E+05 1.54675E+05-1.20387E+06-1.12639E-07-6.21003E-09
 -1       556 2.03334E+05-3.52814E+05 3.88902E+04-3.85249E+05-2.55968E-08-2.40689E-08
 -1       557 3.26994E+05-4.51611E+05 2.25571E+04-4.96308E+05-6.79574E-09 5.98811E-09
 -1       558 1.88434E+05-3.49338E+05 5.71682E+03-3.86790E+05-1.28639E-08-5.15138E-09
 -1       559 3.03668E+05-4.54005E+05 3.92587E+03-5.14085E+05 1.93977E-08-1.94996E-09
 -1       560 1.75355E+05-3.41109E+05-4.05030E+02-3.96128E+05 4.42378E-09 9.60426E-10
 -1       561 2.87052E+05-4.47484E+05 5.39382E+02-5.25328E+05 2.70666E-09 1.35151E-08
 -1       562 1.65020E+05-3.34659E+05-8.97277E+02-4.03595E+05 5.74801E-09 9.27685E-09
 -1       563 2.74795E+05-4.42140E+05 8.14236E+01-5.33312E+05 2.18279E-09 9.45511E-09
 -1       564 1.57706E+05-3.30094E+05-4.31953E+02-4.08771E+05 1.03610E-08 1.59375E-08
 -1       565 2.66777E+05-4.38649E+05 5.59228E+01-5.38428E+05 3.60887E-09 1.17261E-08
 -1       566 1.53524E+05-3.27444E+05-1.92370E+02-4.11698E+05-6.75936E-09-1.45010E-08
 -1       567 2.63031E+05-4.37018E+05-3.03804E+02-5.40686E+05 2.59406E-08 1.74223E-08
 -1       568 1.52551E+05-3.26853E+05-9.75373E+02-4.12475E+05 1.06002E-09 1.23546E-08
 -1       569 2.62259E+05-4.36977E+05-2.46501E+03-5.39142E+05-7.66886E-09 1.71131E-08
 -1       570 1.55811E+05-3.29881E+05-5.41933E+03-4.11553E+05 7.30506E-09-8.28732E-09
 -1       571 2.77219E+05 1.00247E+04 1.43990E+04-8.81137E+04 1.10867E-09 1.66801E-09
 -1       572 2.79315E+05 3.72730E+03 7.05630E+03-9.66684E+04-1.10231E-09-4.46880E-09
 -1       573 2.78053E+05 1.12597E+03 3.13526E+03-8.79455E+04-2.76486E-10 5.45697E-11
 -1       574 2.78267E+05 6.19777E+02 1.57207E+03-9.68784E+04 1.46974E-09-1.83900E-09
 -1       575 2.78144E+05 3.59156E+02 7.41827E+02-8.79226E+04-1.37732E-08 1.39262E-08
 -1       576 2.78135E+05 3.63275E+02 3.79487E+02-9.69064E+04-2.74101E-08 1.72840E-08
 -1       577 2.78178E+05 3.05563E+02 1.89114E+02-8.79195E+04-1.35351E-08 9.76888E-09
 -1       578 2.78157E+05 3.30415E+02 1.08413E+02-9.69102E+04-3.58705E-09 6.07724E-09
 -1       579 2.78239E+05 2.75415E+02 7.34817E+01-8.79191E+04 3.51793E-09-3.74803E-09
 -1       580 2.78243E+05 2.87875E+02 8.33709E+01-9.69056E+04-8.85848E-09 4.33920E-09
 -1       581 2.78336E+05 2.26583E+02 1.24850E+02-8.79246E+04 5.17866E-09 4.09455E-09
 -1       582 2.78393E+05 2.58745E+02 2.52391E+02-9.68486E+04 2.54659E-09-6.68479E-10
 -1       583 2.78454E+05 2.69828E+02 4.84627E+02-8.79767E+04-1.45519E-11 1.06238E-08
 -1       584 2.78721E+05 6.63040E+02 1.09566E+03-9.64098E+04 2.33558E-09-5.46606E-10
 -1       585 2.78469E+05 1.59080E+03 2.21947E+03-8.83630E+04-1.53159E-09-2.58296E-09
 -1       586-3.29603E+03 1.08199E+05-3.03603E+03-2.41248E+05-2.66891E-09-1.92745E-09
 -1       587-1.18892E+03 1.07913E+05 5.97631E+02-2.65516E+05-4.56384E-09-2.56650E-08
 -1       588 4.92267E+02 1.07770E+05 4.45145E+03-2.41118E+05-3.62706E-09-9.63973E-09
 -1       589 4.95628E+03 1.10096E+05 1.16693E+04-2.65281E+05-4.11455E-09-1.85064E-08
 -1       590 1.58691E+04 1.06503E+05 2.45274E+04-2.41532E+05-3.98904E-09-1.71531E-09
 -1       591-6.80605E+04-1.49516E+04-2.10636E+04-2.95172E+04-2.21053E-09-7.54881E-11
 -1       592-7.17522E+04-1.84093E+04-1.14097E+04-3.30563E+04 1.61111E-09-1.00918E-08
 -1       593-7.01680E+04-1.34222E+04-4.74934E+03-3.10608E+04-1.21379E-09 1.08639E-08
 -1       594-6.88421E+04-1.53204E+04-2.36866E+03-3.31688E+04 5.49079E-10 3.18272E-09
 -1       595-7.03288E+04-1.34171E+04-1.08760E+03-3.11310E+04 3.86645E-10 5.83040E-09
 -1       596-6.86430E+04-1.51792E+04-5.52961E+02-3.31453E+04 8.88565E-09-7.73184E-10
 -1       597-7.03489E+04-1.34314E+04-3.01241E+02-3.11336E+04 2.58063E-09 1.62686E-08
 -1       598-6.86234E+04-1.51736E+04-2.42416E+02-3.31387E+04-4.42560E-09 2.25085E-08
 -1       599-7.03477E+04-1.34319E+04-3.09970E+02-3.11333E+04 3.19460E-11-8.49514E-09
 -1       600-6.86433E+04-1.51799E+04-5.76069E+02-3.31434E+04 2.11884E-09-2.77448E-08
 -1       601-7.03243E+04-1.34181E+04-1.13659E+03-3.11299E+04 2.26123E-09-1.00958E-08
 -1       602-6.88514E+04-1.53266E+04-2.47715E+03-3.31644E+04-3.41515E-10 1.37788E-09
 -1       603-7.01536E+04-1.34262E+04-4.96772E+03-3.10572E+04 2.38424E-09 5.47197E-09
 -1       604-7.19116E+04-1.85392E+04-1.19336E+04-3.30237E+04 1.40454E-08 2.06373E-08
 -1       605-6.79305E+04-1.50425E+04-2.20310E+04-2.94608E+04 6.26383E-09 2.78305E-09
 -1       606 2.68753E+04-1.36566E+04-2.44916E+04 2.45119E+04-3.31875E-09 5.68457E-09
 -1       607 2.26895E+04-4.45496E+03-1.21966E+04 2.75401E+04-1.75132E-08-9.29958E-09
 -1       608 2.50735E+04-7.98759E+02-5.46024E+03 2.43346E+04-1.21199E-08 1.46701E-09
 -1       609 2.46145E+04-2.67434E+02-2.75829E+03 2.77581E+04-4.94492E-09 6.06997E-09
 -1       610 2.48677E+04-3.15801E+01-1.31620E+03 2.43138E+04-9.22410E-09 8.72092E-09
 -1       611 2.47939E+04-2.97205E+01-6.63615E+02 2.77817E+04-1.62149E-08 1.05838E-08
 -1       612 2.48210E+04-1.73643E+01-3.15677E+02 2.43117E+04-9.63701E-09 1.67029E-09
 -1       613 2.48031E+04-2.47582E+01-1.41617E+02 2.77844E+04 2.06910E-10 1.26674E-08
 -1       614 2.47984E+04-2.25492E+01-3.36871E+01 2.43110E+04-3.09228E-10 1.33002E-08
 -1       615 2.47965E+04-2.25100E+01 5.82716E+01 2.77849E+04 1.36606E-09 1.55271E-08
 -1       616 2.47808E+04-1.88894E+01 1.75722E+02 2.43113E+04-7.19410E-10-2.05978E-09
 -1       617 2.48166E+04 1.56199E+01 4.01345E+02 2.77844E+04 3.16277E-09 3.82329E-09
 -1       618 2.47451E+04 9.73351E+01 8.09107E+02 2.43115E+04 9.37689E-10 8.24502E-09
 -1       619 2.51015E+04 6.41652E+02 1.81702E+03 2.77837E+04 1.67915E-10-4.74097E-09
 -1       620 2.44759E+04 2.01633E+03 3.65217E+03 2.43125E+04-5.61954E-10 1.18666E-08
 -1       621 4.73397E+02 2.92915E+05 4.11926E+03 3.50450E+04 6.63431E-09-1.33932E-08
 -1       622 6.76163E+02 2.93904E+05 3.55593E+03 5.16451E+04 4.60705E-09-4.55002E-08
 -1       623 1.01682E+02 2.93159E+05 4.12891E+03 3.48853E+04 7.87884E-09 1.79352E-09
 -1       624 2.06235E+03 2.95082E+05 7.90073E+03 5.18011E+04 4.94634E-09 5.47720E-09
 -1       625 1.79956E+03 2.91598E+05 1.36903E+04 3.48844E+04 8.81255E-09 9.86370E-09
 -1       626 2.49932E+05 5.99469E+04 4.99352E+03 1.22818E+05-5.82577E-09 4.78394E-10
 -1       627 2.47599E+05 6.13819E+04 2.40633E+03 1.27065E+05-7.22684E-09 1.95552E-08
 -1       628 2.50061E+05 5.76563E+04 1.01755E+03 1.23659E+05-1.37434E-08 1.40888E-08
 -1       629 2.46971E+05 6.07264E+04 4.98067E+02 1.27306E+05-6.53563E-09 2.82063E-08
 -1       630 2.50075E+05 5.75461E+04 2.30972E+02 1.23694E+05-8.48559E-10-3.92623E-09
 -1       631 2.46904E+05 6.07023E+04 1.24227E+02 1.27308E+05 2.65391E-09 2.78487E-09
 -1       632 2.50070E+05 5.75506E+04 8.16373E+01 1.23689E+05 5.75574E-09-4.62933E-09
 -1       633 2.46895E+05 6.07047E+04 9.07602E+01 1.27303E+05 2.80443E-09-1.14205E-08
 -1       634 2.50065E+05 5.75484E+04 1.46512E+02 1.23688E+05 6.54813E-09 1.84923E-08
 -1       635 2.46907E+05 6.07035E+04 2.96375E+02 1.27308E+05-7.12596E-09-1.64259E-08
 -1       636 2.50055E+05 5.75433E+04 5.98479E+02 1.23687E+05-2.26237E-09-5.01268E-09
 -1       637 2.47036E+05 6.07967E+04 1.31579E+03 1.27307E+05 2.33285E-09-1.36697E-09
 -1       638 2.50008E+05 5.78342E+04 2.70351E+03 1.23555E+05-9.60881E-10-3.02839E-08
 -1       639 2.48456E+05 6.27717E+04 6.39649E+03 1.26888E+05 3.82488E-09 1.24987E-09
 -1       640 2.49813E+05 6.37307E+04 1.32738E+04 1.21068E+05 5.28644E-09 1.28939E-08
 -1       656 6.40929E+04-1.63847E+06-1.54717E+05-2.09423E+03 0.00000E+00 7.03449E-09
 -1       657-8.47807E+04-1.70837E+06-1.28155E+05 5.70179E+03-3.06500E-10-5.60405E-10
 -1       658 2.04227E+04-1.65833E+06-7.89039E+04-4.05775E+03 9.50422E-10-1.35419E-08
 -1       659-9.16129E+04-1.71162E+06-1.37133E+05 7.29485E+03-1.15415E-09 4.45105E-09
 -1       660 7.09098E+04-1.63524E+06-1.70153E+05-3.68728E+03-1.81899E-09-1.12308E-09
 -1       661 1.60283E+05 1.68753E+04 1.66812E+04 6.26641E+04 9.57243E-10-1.18680E-08
 -1       662 1.69627E+05 2.93142E+04 1.12417E+04 5.90213E+04 1.74168E-10-1.69211E-08
 -1       663 1.63559E+05 2.22272E+04 3.93176E+03 6.17137E+04-4.43720E-09 9.35643E-10
 -1       664 1.65829E+05 2.30550E+04 2.35184E+03 6.01818E+04-1.06581E-09-1.08258E-10
 -1       665 1.64055E+05 2.29587E+04 9.27786E+02 6.15693E+04 2.61207E-09-8.44048E-09
 -1       666 1.65242E+05 2.22180E+04 5.42826E+02 6.03698E+04 4.58412E-09-3.23706E-09
 -1       667 1.64142E+05 2.30423E+04 2.88234E+02 6.15336E+04 1.56615E-09-1.31280E-09
 -1       668 1.65147E+05 2.21574E+04 2.93473E+02 6.04218E+04-2.96698E-09-2.11123E-09
 -1       669 1.64150E+05 2.30176E+04 3.97147E+02 6.15176E+04-2.55773E-09 1.53153E-08
 -1       670 1.65244E+05 2.23726E+04 8.64629E+02 6.04245E+04-5.98047E-09-1.62636E-08
 -1       671 1.64045E+05 2.28315E+04 1.53516E+03 6.15289E+04-2.33141E-09-3.41572E-10
 -1       672 1.66138E+05 2.38661E+04 3.92762E+03 6.02079E+04 3.79676E-09 1.62145E-08
 -1       673 1.63260E+05 2.15618E+04 6.58205E+03 6.17199E+04 3.47245E-09 8.87849E-09
 -1       674 1.72403E+05 3.44405E+04 1.88233E+04 5.83669E+04-4.09170E-09 1.90280E-08
 -1       675 1.57821E+05 1.25533E+04 2.79403E+04 6.32586E+04-1.44792E-09 1.41881E-09
 -1       676 2.34777E+01-2.87707E+05-1.08673E+03-1.04216E+02 5.39615E-10-1.39401E-09
 -1       677-2.87925E+02-2.87970E+05-1.98890E+03 2.08271E+02 7.19513E-09-1.65108E-08
 -1       678 1.92751E+02-2.87520E+05-3.51587E+03-1.03987E+02 1.43723E-09-2.96888E-09
 -1       679-3.51635E+03-2.90092E+05-8.35222E+03 2.07396E+02 7.21093E-09-1.97963E-08
 -1       680 2.09912E+03-2.85586E+05-1.34609E+04-1.02187E+02 1.06866E-09-2.06548E-09
 -1       771-2.99237E+06-7.06358E+05-1.44445E+05-1.41457E+06-3.22325E-08-2.79688E-08
 -1       772-2.92209E+06-7.88453E+05-7.46152E+04-1.50929E+06-2.12312E-08 8.25821E-09
 -1       773-3.01986E+06-6.84837E+05-3.77167E+04-1.42660E+06-1.87720E-08 9.93896E-09
 -1       774-2.91288E+06-7.72607E+05-1.68937E+04-1.53150E+06 1.97178E-08 2.85945E-09
 -1       775-3.03386E+06-6.74971E+05-1.24216E+04-1.43229E+06-5.76256E-09 7.10133E-09
 -1       776-2.92290E+06-7.70273E+05-4.67968E+03-1.54806E+06-4.07454E-09 3.64162E-09
 -1       777-3.04593E+06-6.66236E+05-5.41042E+03-1.43730E+06 3.81260E-09 3.38332E-09
 -1       778-2.93341E+06-7.68135E+05-1.54107E+03-1.56225E+06 7.23958E-09 5.42423E-09
 -1       779-3.05625E+06-6.58637E+05-2.67925E+03-1.44159E+06-6.25732E-09-1.11759E-08
 -1       780-2.94265E+06-7.66092E+05-4.46217E+02-1.57381E+06-5.44242E-09-2.92857E-10
 -1       781-3.06443E+06-6.52530E+05-1.03311E+03-1.44495E+06-2.53494E-08-2.62844E-09
 -1       782-2.94976E+06-7.64347E+05 3.78482E+02-1.58233E+06-3.57541E-08-2.28329E-09
 -1       783-3.07018E+06-6.48299E+05 5.93555E+02-1.44730E+06-1.04337E-08-1.85514E-08
 -1       784-2.95367E+06-7.62541E+05 2.43668E+03-1.58758E+06-1.70694E-08-4.32010E-10
 -1       785-3.07357E+06-6.45782E+05 4.30308E+03-1.44881E+06-3.26108E-08 6.33918E-09
 -1       786 1.25372E+05-9.66792E+03 2.23673E+04-2.83458E+02 1.44976E-09 1.46501E-08
 -1       787 1.35073E+05 1.11930E+04 1.58240E+04-1.01233E+02 9.53890E-09 1.13414E-09
 -1       788 1.29112E+05-1.51512E+03 5.78705E+03-2.49883E+02 3.08364E-09-6.50743E-10
 -1       789 1.30715E+05 1.75346E+03 3.63312E+03-1.53156E+02-1.05204E-09-6.82371E-09
 -1       790 1.29730E+05-2.36040E+02 1.47148E+03-2.31550E+02-3.35880E-09-1.26713E-08
 -1       791 1.29993E+05 2.72966E+02 8.50856E+02-1.84576E+02-6.74543E-09 8.62769E-10
 -1       792 1.29835E+05-3.57323E+01 3.62480E+02-2.18465E+02-4.42708E-09 1.45991E-08
 -1       793 1.29869E+05 3.84483E+01 1.84920E+02-2.09154E+02-1.78345E-09-8.09708E-09
 -1       794 1.29855E+05-1.67017E+00 5.65293E+01-2.06971E+02 4.52150E-09 4.83446E-10
 -1       795 1.29835E+05-2.00723E+01-3.44958E+01-2.33098E+02-4.52388E-09-1.11135E-09
 -1       796 1.29868E+05 2.27560E+01-1.21988E+02-1.94520E+02 2.73580E-09 3.28479E-09
 -1       797 1.29761E+05-1.71288E+02-3.45781E+02-2.61655E+02 3.73187E-09-1.23630E-08
 -1       798 1.29929E+05 1.49431E+02-5.64555E+02-1.78414E+02 1.60129E-09-4.56265E-09
 -1       799 1.29331E+05-1.10188E+03-1.55580E+03-3.01340E+02 3.66657E-09 1.70731E-08
 -1       800 1.30297E+05 9.52583E+02-2.20250E+03-1.54836E+02 3.36629E-11 1.33496E-08
 -1       801-1.06263E+05-8.78960E+06-1.19041E+06 1.12873E+06 8.28295E-08-3.44589E-08
 -1       802 5.52345E+05 4.06334E+06 1.70747E+06-1.36288E+06 2.33122E-07-3.51074E-08
 -1       803-4.26913E+05-1.21180E+07-1.52375E+06 7.18617E+05 7.11916E-08 1.25074E-08
 -1       804 2.14732E+05 1.13052E+06 1.20352E+06 5.82718E+05-1.04781E-07-8.86656E-08
 -1       805 1.64535E+05-5.87194E+06-2.32665E+05-8.12245E+05-4.34447E-08-5.62241E-08
 -1       806-2.97168E+05-5.72338E+04-2.19083E+04-1.17458E+05 7.39647E-09-2.49624E-08
 -1       807-2.98934E+05-5.36147E+04-1.07633E+04-1.22723E+05 2.36480E-08-2.81627E-08
 -1       808-2.97766E+05-4.93421E+04-4.56618E+03-1.21195E+05 1.09972E-08-2.89219E-10
 -1       809-2.96674E+05-5.05886E+04-2.23275E+03-1.22985E+05 1.08230E-09 2.60843E-09
 -1       810-2.97856E+05-4.90673E+04-1.02337E+03-1.21361E+05 1.51736E-08-4.37649E-09
 -1       811-2.96499E+05-5.04668E+04-5.08918E+02-1.22951E+05 6.76209E-10-1.30922E-08
 -1       812-2.97870E+05-4.90907E+04-2.57372E+02-1.21361E+05-1.20144E-09 3.09001E-09
 -1       813-2.96475E+05-5.04687E+04-1.67274E+02-1.22934E+05-4.85170E-09-7.82074E-09
 -1       814-2.97864E+05-4.90997E+04-1.65735E+02-1.21357E+05-3.51156E-09-1.25397E-08
 -1       815-2.96479E+05-5.04708E+04-2.67087E+02-1.22927E+05-7.90942E-09 3.24985E-09
 -1       816-2.97845E+05-4.90985E+04-5.06159E+02-1.21354E+05-1.17234E-09 1.63427E-08
 -1       817-2.96566E+05-5.05189E+04-1.08642E+03-1.22917E+05-1.71954E-08 1.51520E-08
 -1       818-2.97780E+05-4.92514E+04-2.21584E+03-1.21282E+05-1.02864E-08-1.77351E-09
 -1       819-2.97779E+05-5.18579E+04-5.21394E+03-1.22631E+05 5.91308E-09-7.52516E-09
 -1       820-2.97364E+05-5.31884E+04-1.06121E+04-1.19598E+05-2.49747E-09-1.72379E-08
 -1       821-3.68632E+05 2.03254E+04-4.71322E+04 1.56181E+03 1.11632E-08-1.41044E-08
 -1       822-3.88538E+05-2.35361E+04-3.32622E+04-3.09260E+03 2.20517E-09-1.75582E-08
 -1       823-3.76241E+05 3.19438E+03-1.21912E+04 2.31685E+03-8.54410E-09-1.00481E-08
 -1       824-3.79498E+05-3.68943E+03-7.65245E+03-3.48851E+03 6.50060E-10-2.33822E-08
 -1       825-3.77671E+05 4.96521E+02-3.17719E+03 1.95777E+03 1.26592E-08 6.69263E-09
 -1       826-3.77573E+05-5.70386E+02-1.80290E+03-1.85499E+03 1.56004E-08 2.20203E-08
 -1       827-3.78154E+05 6.87298E+01-1.06589E+03 6.83271E+02 7.51471E-09-2.62685E-09
 -1       828-3.77184E+05-1.57710E+02-7.36894E+02 9.22227E+02-7.56245E-10-8.38330E-09
 -1       829-3.78056E+05 8.03831E+01-1.06672E+03-8.19484E+02 9.96053E-10 7.17205E-09
 -1       830-3.77794E+05-6.08633E+02-1.90871E+03 3.34128E+03-3.34932E-10 1.38060E-08
 -1       831-3.77555E+05 5.27730E+02-3.26487E+03-1.73582E+03-4.23684E-09 1.20917E-09
 -1       832-3.79581E+05-3.83489E+03-7.93445E+03 4.09176E+03-2.02845E-09 3.87899E-09
 -1       833-3.76275E+05 3.30913E+03-1.26500E+04-1.56998E+03-1.54044E-09 4.54293E-09
 -1       834-3.88715E+05-2.43868E+04-3.44259E+04 2.74346E+03-2.91423E-09 1.44973E-08
 -1       835-3.68415E+05 2.10563E+04-4.88647E+04-3.87479E+02 5.66810E-09 1.13796E-08
 -1       836-1.33199E+03 3.53616E+05 2.17052E+04-1.64523E+04-5.60613E-09 1.03773E-08
 -1       837 4.64296E+03 3.60407E+05 1.84285E+04-3.34864E+04-5.93889E-09 1.18762E-08
 -1       838-5.25917E+02 3.55510E+05 1.88630E+04-1.63813E+04-5.16366E-09 1.08409E-08
 -1       839 1.19216E+04 3.65828E+05 3.57683E+04-3.35366E+04-5.51836E-09-9.20210E-09
 -1       840-3.67539E+03 3.48138E+05 5.70747E+04-1.64064E+04-5.09317E-09 5.23800E-09
 -1       856-5.65206E+04 7.94578E+03-2.09390E+04-3.99311E+02 1.16518E-09 2.34104E-09
 -1       857-6.51509E+04-9.33300E+03-1.44145E+04 5.47554E+03 8.40726E-09-1.72702E-08
 -1       858-5.99370E+04 1.11414E+03-5.43330E+03-4.23032E+02 1.46292E-09 1.57002E-09
 -1       859-6.12299E+04-1.30788E+03-3.27908E+03 5.51123E+03 1.46429E-09 3.15361E-08
 -1       860-6.04474E+04 1.55846E+02-1.37480E+03-4.34809E+02 1.34574E-09 2.02298E-08
 -1       861-6.06427E+04-1.83369E+02-7.57439E+02 5.52730E+03 1.70076E-10-3.49894E-09
 -1       862-6.05272E+04 2.10003E+01-3.17128E+02-4.39090E+02-1.92795E-09-1.16675E-08
 -1       863-6.05452E+04-1.94467E+01-1.20676E+02 5.52971E+03 8.75055E-10-1.72091E-08
 -1       864-6.05453E+04-4.36527E+00 3.51341E+01-4.37220E+02-1.97491E-09 1.66773E-09
 -1       865-6.04933E+04 5.60426E+01 2.26909E+02 5.51925E+03-8.80618E-10-1.63107E-08
 -1       866-6.05771E+04-5.45671E+01 4.63243E+02-4.28631E+02 4.69981E-10-1.21823E-08
 -1       867-6.02738E+04 4.51371E+02 1.14407E+03 5.49590E+03-2.28789E-09-1.28228E-08
 -1       868-6.07601E+04-3.92732E+02 1.90201E+03-4.13865E+02-4.82771E-10 1.11978E-08
 -1       869-5.88782E+04 3.26860E+03 5.06585E+03 5.45724E+03 4.87461E-10-1.78864E-09
 -1       870-6.19653E+04-2.79554E+03 7.35146E+03-3.89894E+02-3.73620E-09-3.90628E-09
 -1       871-5.35549E+03-1.92743E+04-1.86480E+04 1.24652E+05-3.59432E-09 2.36196E-09
 -1       872-1.99381E+03-2.35857E+04-7.78426E+03 1.61626E+05-8.99490E-09-4.34602E-09
 -1       873 3.14854E+02-2.15124E+04 6.24993E+02 1.24378E+05-4.82851E-09-7.62884E-09
 -1       874 3.10129E+03-1.91529E+04 9.49866E+03 1.61658E+05-1.02345E-08-2.40038E-09
 -1       875 6.55750E+03-2.37748E+04 2.13811E+04 1.24607E+05-3.88900E-09-7.65431E-09
 -1       876 2.83648E+05 4.79261E+04 1.46280E+04 1.13971E+05 4.51018E-09 1.15406E-08
 -1       877 2.84604E+05 5.10181E+04 7.81188E+03 1.18177E+05 1.17416E-08-1.26172E-08
 -1       878 2.85016E+05 4.63062E+04 3.27280E+03 1.15170E+05-2.60661E-09-1.29564E-08
 -1       879 2.82616E+05 4.90340E+04 1.63068E+03 1.18276E+05 1.08776E-09-6.72264E-09
 -1       880 2.85114E+05 4.62893E+04 7.59529E+02 1.15219E+05-2.90493E-09 1.01954E-09
 -1       881 2.82484E+05 4.89492E+04 4.05537E+02 1.18254E+05-8.69022E-09 8.54450E-09
 -1       882 2.85123E+05 4.63020E+04 2.59337E+02 1.15221E+05 3.18096E-10 4.85601E-09
 -1       883 2.82474E+05 4.89448E+04 2.78630E+02 1.18247E+05-5.07043E-09 1.46236E-08
 -1       884 2.85117E+05 4.62993E+04 4.43084E+02 1.15221E+05-4.36671E-10-1.06758E-09
 -1       885 2.82510E+05 4.89509E+04 8.90751E+02 1.18257E+05 3.47768E-10 1.44790E-08
 -1       886 2.85082E+05 4.62733E+04 1.79523E+03 1.15217E+05-2.56436E-09 1.44773E-08
 -1       887 2.82825E+05 4.91578E+04 3.92142E+03 1.18303E+05 4.80463E-09 2.16033E-08
 -1       888 2.84834E+05 4.63169E+04 7.90177E+03 1.15092E+05 6.35026E-10 1.63523E-08
 -1       889 2.87529E+05 5.40496E+04 1.88760E+04 1.18158E+05-6.60457E-10-1.30894E-08
 -1       890 2.81611E+05 5.01466E+04 3.53541E+04 1.12083E+05-4.31282E-09 6.31371E-09
 -1       891-9.99587E+01-1.57584E+05-1.92669E+03 2.66912E+04-1.20258E-09-1.24828E-08
 -1       892-1.90207E+02-1.58086E+05-2.07120E+03 4.05072E+04 2.13595E-09-5.68980E-09
 -1       893 2.84074E+01-1.57646E+05-2.93455E+03 2.66981E+04-1.56501E-09 1.24905E-08
 -1       894-1.48102E+03-1.59196E+05-6.07485E+03 4.03581E+04 1.78647E-09-1.77661E-08
 -1       895-1.17336E+03-1.56381E+05-1.06983E+04 2.68413E+04 4.48040E-10-3.10883E-08
 -1       956-3.63444E+05-5.22227E+03-1.29397E+04 2.88689E+04 7.50515E-09-1.72788E-08
 -1       957-3.65986E+05-1.82680E+03-6.64192E+03 3.47066E+04 5.68070E-09-2.85195E-08
 -1       958-3.64605E+05-2.13465E+02-2.99294E+03 2.87092E+04-3.51974E-09-1.92429E-08
 -1       959-3.64797E+05-1.09967E+02-1.52834E+03 3.48907E+04-2.67391E-10 1.25792E-08
 -1       960-3.64716E+05-2.60497E+01-7.45266E+02 2.86929E+04 7.96535E-09 8.38872E-09
 -1       961-3.64718E+05-4.06994E+01-3.95224E+02 3.49098E+04 8.60359E-09 1.22536E-08
 -1       962-3.64742E+05-2.79225E+01-2.26340E+02 2.86902E+04 2.20871E-09 1.01763E-08
 -1       963-3.64717E+05-3.71033E+01-1.81836E+02 3.49132E+04 2.14550E-09-1.01818E-09
 -1       964-3.64747E+05-2.48405E+01-2.21234E+02 2.86895E+04 8.76693E-09 4.00723E-09
 -1       965-3.64729E+05-3.41278E+01-3.82733E+02 3.49126E+04 1.09837E-08-4.53679E-09
 -1       966-3.64732E+05-1.68897E+01-7.19116E+02 2.86909E+04 1.16811E-08-2.53431E-09
 -1       967-3.64817E+05-9.46885E+01-1.47494E+03 3.48993E+04-3.39014E-10 1.01841E-09
 -1       968-3.64633E+05-1.91833E+02-2.88727E+03 2.87027E+04 4.51973E-09-1.14844E-08
 -1       969-3.65976E+05-1.74632E+03-6.40983E+03 3.47613E+04 4.61705E-09-9.43115E-09
 -1       970-3.63521E+05-5.02193E+03-1.24865E+04 2.88226E+04-9.32687E-10 8.10815E-09
 -1       971-3.34035E+05-1.68027E+03-9.10077E+03 1.50114E+04 4.99313E-09 1.24094E-08
 -1       972-3.36229E+05-1.23174E+03-4.95618E+03 2.07971E+04 2.51384E-09-2.01408E-08
 -1       973-3.35049E+05-5.24181E+01-2.21985E+03 1.48918E+04 3.25963E-09-1.36367E-08
 -1       974-3.35184E+05-6.78579E+01-1.15060E+03 2.09313E+04 6.66432E-10-8.61019E-09
 -1       975-3.35129E+05-8.67915E+00-5.75364E+02 1.48798E+04-6.99856E-10 2.19500E-08
 -1       976-3.35124E+05-1.92352E+01-3.32340E+02 2.09466E+04 2.67141E-09 1.97338E-08
 -1       977-3.35144E+05-8.05121E+00-2.41922E+02 1.48766E+04 1.40062E-10-1.63652E-09
 -1       978-3.35129E+05-1.32292E+01-2.84071E+02 2.09512E+04-5.94684E-09-1.04603E-09
 -1       979-3.35144E+05 1.11953E-01-4.57249E+02 1.48752E+04-2.05927E-09 4.77655E-09
 -1       980-3.35163E+05-1.02755E+01-8.83414E+02 2.09521E+04-4.40016E-09-8.81414E-10
 -1       981-3.35116E+05 2.21854E+01-1.71124E+03 1.48757E+04 4.36012E-09-2.05034E-09
 -1       982-3.35398E+05-1.36705E+02-3.53726E+03 2.09457E+04-5.71015E-09-1.55742E-08
 -1       983-3.34901E+05-8.73739E+01-6.87299E+03 1.48817E+04-3.14913E-09 1.13450E-08
 -1       984-3.38704E+05-3.72624E+03-1.53917E+04 2.08618E+04-1.72804E-10 1.74011E-08
 -1       985-3.31789E+05-5.11661E+03-2.82640E+04 1.49540E+04-2.60479E-09-7.27050E-09
 -3
    1PSTEP                        19          10           1          
  100CL  110 6.53320E-01         409                     0   10           1
 -4  DISP        4    1
 -5  D1          1    2    1    0
 -5  D2          1    2    2    0
 -5  D3          1    2    3    0
 -5  ALL         1    2    0    0    1ALL
 -1         1 2.38250E-03 0.00000E+00 0.00000E+00
 -1         2 1.43629E-03 1.74059E-26-2.64698E-23
 -1         3 3.28374E-04-1.13632E-27-1.32349E-23
 -1         5 1.71798E-04 4.78075E-27 2.06795E-25
 -1         8 2.36754E-03-4.76026E-07 0.00000E+00
 -1         9 2.34910E-03-9.02512E-05 0.00000E+00
 -1        10 2.97857E-04-3.47696E-06 0.00000E+00
 -1        12 1.73436E-04 7.89838E-07-1.34417E-24
 -1        15 2.34986E-03-5.15088E-07 2.06795E-25
 -1        16 2.38780E-03-9.16248E-05 0.00000E+00
 -1        17 2.03189E-04-7.85147E-06 0.00000E+00
 -1        18 1.76796E-04 3.15774E-05 0.00000E+00
 -1        19 1.78353E-04 1.57385E-06 0.00000E+00
 -1        20 1.78494E-04-7.59955E-06 0.00000E+00
 -1        21 1.77630E-04-2.05907E-05 0.00000E+00
 -1        24 3.00358E-05-1.18863E-05 0.00000E+00
 -1        25 1.86555E-04 3.17955E-05 0.00000E+00
 -1        26 1.87247E-04 2.19160E-06 0.00000E+00
 -1        27 1.85087E-04-1.10854E-05 0.00000E+00
 -1        28 1.84761E-04-2.12026E-05 0.00000E+00
 -1        32 0.00000E+00 0.00000E+00 0.00000E+00
 -1        33 1.95108E-04 2.92864E-06 0.00000E+00
 -1        34 1.93032E-04-1.11379E-05 0.00000E+00
 -1        35 1.91135E-04-2.15384E-05 0.00000E+00
 -1        51 2.38152E-03-9.33775E-08 6.61744E-24
 -1        52 2.37971E-03-1.70596E-07 0.00000E+00
 -1        53 2.37723E-03-2.45241E-07 0.00000E+00
 -1        54 2.37427E-03-3.19495E-07 0.00000E+00
 -1        55 2.37098E-03-3.95000E-07 3.25702E-24
 -1        56 2.37807E-03 1.20271E-06 0.00000E+00
 -1        57 2.37178E-03 6.90968E-06 5.29396E-23
 -1        58 2.36433E-03 1.56558E-05 0.00000E+00
 -1        59 2.35637E-03 2.56559E-05 0.00000E+00
 -1        60 2.34868E-03 3.49379E-05-1.05879E-22
 -1        61 2.34201E-03 4.15793E-05 0.00000E+00
 -1        62 2.33691E-03 4.40985E-05 1.05879E-22
 -1        63 2.33379E-03 4.13539E-05 0.00000E+00
 -1        64 2.33271E-03 3.30863E-05 1.05879E-22
 -1        65 2.33358E-03 1.95004E-05-5.29396E-23
 -1        66 2.33596E-03 1.70028E-06 0.00000E+00
 -1        67 2.33933E-03-1.88511E-05 0.00000E+00
 -1        68 2.34298E-03-4.02234E-05-1.05879E-22
 -1        69 2.34624E-03-6.04086E-05-5.29396E-23
 -1        70 2.34843E-03-7.76140E-05 0.00000E+00
 -1        86 1.49326E-03-3.30395E-06 5.29396E-23
 -1        87 1.66006E-03-1.85140E-05-1.32349E-23
 -1        88 1.88434E-03-4.41081E-05-2.64698E-23
 -1        89 2.11113E-03-7.02671E-05 1.32349E-23
 -1        90 2.28409E-03-8.64521E-05 2.64698E-23
 -1       121 3.27517E-04-5.63295E-07 0.00000E+00
 -1       122 3.24949E-04-1.12941E-06 0.00000E+00
 -1       123 3.20679E-04-1.70112E-06 0.00000E+00
 -1       124 3.14725E-04-2.28120E-06 0.00000E+00
 -1       125 3.07107E-04-2.87205E-06 0.00000E+00
 -1       191 1.71843E-04 1.31691E-07-1.24077E-24
 -1       192 1.71980E-04 2.63372E-07-1.13737E-24
 -1       193 1.72207E-04 3.95038E-07-3.30872E-24
 -1       194 1.72526E-04 5.26678E-07 4.13590E-25
 -1       195 1.72936E-04 6.58282E-07-2.06795E-25
 -1       251 2.36690E-03-7.14306E-06-1.32349E-23
 -1       252 2.36594E-03-3.29202E-05-6.61744E-24
 -1       253 2.36454E-03-7.33643E-05 1.32349E-23
 -1       254 2.36270E-03-1.23653E-04-6.61744E-24
 -1       255 2.36075E-03-1.76056E-04 0.00000E+00
 -1       256 2.35908E-03-2.22793E-04 6.61744E-24
 -1       257 2.35786E-03-2.57765E-04 0.00000E+00
 -1       258 2.35708E-03-2.75171E-04 0.00000E+00
 -1       259 2.35644E-03-2.74338E-04-2.64698E-23
 -1       260 2.35563E-03-2.55070E-04 0.00000E+00
 -1       261 2.35449E-03-2.22541E-04 2.64698E-23
 -1       262 2.35309E-03-1.82266E-04-1.32349E-23
 -1       263 2.35169E-03-1.42059E-04 0.00000E+00
 -1       264 2.35056E-03-1.09730E-04 0.00000E+00
 -1       265 2.34975E-03-9.07508E-05 0.00000E+00
 -1       266 2.36459E-03-4.89558E-07 3.30872E-24
 -1       267 2.36164E-03-4.95213E-07 0.00000E+00
 -1       268 2.35870E-03-5.01366E-07 0.00000E+00
 -1       269 2.35575E-03-5.06042E-07-2.06795E-25
 -1       270 2.35280E-03-5.10682E-07 0.00000E+00
 -1       271 2.36594E-03 1.58836E-06 0.00000E+00
 -1       272 2.36479E-03 2.41974E-06 0.00000E+00
 -1       273 2.36409E-03 2.03237E-06 0.00000E+00
 -1       274 2.36384E-03 4.41954E-07 0.00000E+00
 -1       275 2.36402E-03-2.32127E-06 0.00000E+00
 -1       276 2.36463E-03-6.21745E-06 0.00000E+00
 -1       277 2.36563E-03-1.11952E-05 2.64698E-23
 -1       278 2.36702E-03-1.71931E-05 0.00000E+00
 -1       279 2.36875E-03-2.41398E-05-2.64698E-23
 -1       280 2.37080E-03-3.19548E-05-1.32349E-23
 -1       281 2.37314E-03-4.05492E-05 0.00000E+00
 -1       282 2.37572E-03-4.98268E-05-1.32349E-23
 -1       283 2.37852E-03-5.96844E-05 0.00000E+00
 -1       284 2.38149E-03-7.00128E-05 0.00000E+00
 -1       285 2.38460E-03-8.06999E-05 2.64698E-23
 -1       301 2.35611E-03-9.05057E-05 6.61744E-24
 -1       302 2.36183E-03-9.07244E-05-6.61744E-24
 -1       303 2.36705E-03-9.09377E-05 0.00000E+00
 -1       304 2.37258E-03-9.11515E-05 0.00000E+00
 -1       305 2.37923E-03-9.13737E-05 0.00000E+00
 -1       306 2.38441E-03-2.30955E-04-1.05879E-22
 -1       307 2.44893E-03-6.17164E-04-5.29396E-23
 -1       308 2.50208E-03-1.18653E-03 1.05879E-22
 -1       309 2.53581E-03-1.85062E-03 5.29396E-23
 -1       310 2.57445E-03-2.49175E-03 0.00000E+00
 -1       311 2.63573E-03-2.99432E-03 5.29396E-23
 -1       312 2.69473E-03-3.28167E-03 0.00000E+00
 -1       313 2.69853E-03-3.31361E-03-5.29396E-23
 -1       314 2.58178E-03-3.09838E-03 1.05879E-22
 -1       315 2.30570E-03-2.69086E-03 0.00000E+00
 -1       316 1.88494E-03-2.16230E-03 1.05879E-22
 -1       317 1.37671E-03-1.58003E-03-5.29396E-23
 -1       318 8.83493E-04-1.00668E-03 1.05879E-22
 -1       319 5.03334E-04-5.07569E-04-5.29396E-23
 -1       320 2.77719E-04-1.52106E-04 0.00000E+00
 -1       336 2.86795E-04-4.14409E-06 0.00000E+00
 -1       337 2.73756E-04-4.83466E-06 6.61744E-24
 -1       338 2.58800E-04-5.55055E-06-1.32349E-23
 -1       339 2.41998E-04-6.29234E-06 0.00000E+00
 -1       340 2.23431E-04-7.06421E-06 0.00000E+00
 -1       406 1.74028E-04 9.21331E-07-1.65436E-24
 -1       407 1.74711E-04 1.05273E-06-4.13590E-25
 -1       408 1.75485E-04 1.18398E-06 1.86116E-24
 -1       409 1.76351E-04 1.31491E-06-6.20385E-25
 -1       410 1.77307E-04 1.44528E-06-2.48154E-24
 -1       521 2.42387E-03-2.41373E-04-1.05879E-22
 -1       522 2.48720E-03-6.46776E-04 0.00000E+00
 -1       523 2.53513E-03-1.24243E-03 1.05879E-22
 -1       524 2.56108E-03-1.93369E-03-5.29396E-23
 -1       525 2.59292E-03-2.60019E-03-1.05879E-22
 -1       526 2.65107E-03-3.12389E-03-5.29396E-23
 -1       527 2.70975E-03-3.42205E-03 0.00000E+00
 -1       528 2.71188E-03-3.45345E-03-1.05879E-22
 -1       529 2.58538E-03-3.22596E-03 0.00000E+00
 -1       530 2.28915E-03-2.80115E-03 5.29396E-23
 -1       531 1.83821E-03-2.25368E-03 1.05879E-22
 -1       532 1.29524E-03-1.65373E-03 0.00000E+00
 -1       533 7.67557E-04-1.06218E-03 0.00000E+00
 -1       534 3.57901E-04-5.42753E-04 0.00000E+00
 -1       535 1.13261E-04-1.68772E-04 1.05879E-22
 -1       536 2.02487E-04 2.55043E-05 0.00000E+00
 -1       537 2.00719E-04 8.33386E-05 0.00000E+00
 -1       538 1.97992E-04 1.56759E-04 3.30872E-24
 -1       539 1.94776E-04 2.36791E-04 0.00000E+00
 -1       540 1.91881E-04 3.12421E-04 0.00000E+00
 -1       541 1.89995E-04 3.72656E-04-1.65436E-24
 -1       542 1.89119E-04 4.10997E-04 0.00000E+00
 -1       543 1.88903E-04 4.21084E-04 0.00000E+00
 -1       544 1.88594E-04 4.03673E-04-3.30872E-24
 -1       545 1.87501E-04 3.59726E-04-1.65436E-24
 -1       546 1.85476E-04 2.97063E-04 3.30872E-24
 -1       547 1.82744E-04 2.23620E-04 0.00000E+00
 -1       548 1.80040E-04 1.50573E-04 0.00000E+00
 -1       549 1.78087E-04 8.90966E-05 1.65436E-24
 -1       550 1.77068E-04 4.69020E-05 1.65436E-24
 -1       551 1.79099E-04-8.39956E-06 0.00000E+00
 -1       552 1.51854E-04-9.02185E-06 0.00000E+00
 -1       553 1.22380E-04-9.70178E-06-1.65436E-24
 -1       554 9.16238E-05-1.04196E-05 3.30872E-24
 -1       555 6.05289E-05-1.11494E-05-1.32349E-23
 -1       556 1.95915E-04 1.07645E-05 0.00000E+00
 -1       557 1.90048E-04 2.58383E-05 0.00000E+00
 -1       558 1.85457E-04 3.76474E-05 0.00000E+00
 -1       559 1.82015E-04 4.64915E-05 0.00000E+00
 -1       560 1.79597E-04 5.26706E-05 0.00000E+00
 -1       561 1.78079E-04 5.64869E-05 0.00000E+00
 -1       562 1.77342E-04 5.82439E-05 0.00000E+00
 -1       563 1.77266E-04 5.82460E-05 0.00000E+00
 -1       564 1.77734E-04 5.67984E-05 0.00000E+00
 -1       565 1.78629E-04 5.42068E-05 0.00000E+00
 -1       566 1.79836E-04 5.07775E-05 0.00000E+00
 -1       567 1.81240E-04 4.68170E-05 0.00000E+00
 -1       568 1.82728E-04 4.26323E-05 8.27181E-25
 -1       569 1.84185E-04 3.85301E-05 0.00000E+00
 -1       570 1.85498E-04 3.48170E-05 0.00000E+00
 -1       571 1.76890E-04 2.96312E-05 0.00000E+00
 -1       572 1.76987E-04 2.76212E-05 1.65436E-24
 -1       573 1.77084E-04 2.55627E-05 1.65436E-24
 -1       574 1.77181E-04 2.34712E-05 8.27181E-25
 -1       575 1.77278E-04 2.13626E-05-3.30872E-24
 -1       576 1.77375E-04 1.92528E-05-1.65436E-24
 -1       577 1.77473E-04 1.71576E-05-3.30872E-24
 -1       578 1.77570E-04 1.50928E-05 0.00000E+00
 -1       579 1.77667E-04 1.30744E-05 6.61744E-24
 -1       580 1.77765E-04 1.11183E-05-3.30872E-24
 -1       581 1.77863E-04 9.24035E-06 0.00000E+00
 -1       582 1.77961E-04 7.45637E-06 0.00000E+00
 -1       583 1.78059E-04 5.78223E-06 6.61744E-24
 -1       584 1.78157E-04 4.23363E-06 0.00000E+00
 -1       585 1.78255E-04 2.82609E-06 6.61744E-24
 -1       586 1.78380E-04 3.16158E-05 0.00000E+00
 -1       587 1.79925E-04 3.16537E-05-4.13590E-25
 -1       588 1.81472E-04 3.16912E-05-8.27181E-25
 -1       589 1.83065E-04 3.17280E-05 0.00000E+00
 -1       590 1.84745E-04 3.17637E-05 0.00000E+00
 -1       591 1.77461E-04 2.97209E-05-1.03398E-25
 -1       592 1.78129E-04 2.78442E-05 0.00000E+00
 -1       593 1.78802E-04 2.59530E-05 0.00000E+00
 -1       594 1.79479E-04 2.40519E-05 0.00000E+00
 -1       595 1.80157E-04 2.21459E-05 0.00000E+00
 -1       596 1.80836E-04 2.02396E-05 4.13590E-25
 -1       597 1.81512E-04 1.83376E-05-8.27181E-25
 -1       598 1.82185E-04 1.64447E-05 0.00000E+00
 -1       599 1.82854E-04 1.45655E-05 0.00000E+00
 -1       600 1.83515E-04 1.27048E-05 0.00000E+00
 -1       601 1.84168E-04 1.08672E-05 0.00000E+00
 -1       602 1.84810E-04 9.05740E-06 0.00000E+00
 -1       603 1.85440E-04 7.28010E-06-4.13590E-25
 -1       604 1.86057E-04 5.54010E-06-9.04729E-26
 -1       605 1.86659E-04 3.84200E-06 0.00000E+00
 -1       606 1.78366E-04 5.48891E-07 0.00000E+00
 -1       607 1.78376E-04-3.89285E-07 0.00000E+00
 -1       608 1.78385E-04-1.24577E-06 0.00000E+00
 -1       609 1.78394E-04-2.02631E-06 0.00000E+00
 -1       610 1.78402E-04-2.73670E-06 3.30872E-24
 -1       611 1.78411E-04-3.38280E-06 0.00000E+00
 -1       612 1.78419E-04-3.97047E-06 0.00000E+00
 -1       613 1.78427E-04-4.50559E-06 0.00000E+00
 -1       614 1.78436E-04-4.99403E-06 0.00000E+00
 -1       615 1.78444E-04-5.44167E-06 0.00000E+00
 -1       616 1.78453E-04-5.85438E-06 0.00000E+00
 -1       617 1.78461E-04-6.23803E-06 0.00000E+00
 -1       618 1.78470E-04-6.59850E-06 0.00000E+00
 -1       619 1.78478E-04-6.94166E-06 0.00000E+00
 -1       620 1.78487E-04-7.27339E-06 2.06795E-25
 -1       621 1.79565E-04 1.67726E-06 0.00000E+00
 -1       622 1.80928E-04 1.78100E-06 0.00000E+00
 -1       623 1.82410E-04 1.88456E-06-1.65436E-24
 -1       624 1.83978E-04 1.98782E-06 1.65436E-24
 -1       625 1.85601E-04 2.09081E-06 0.00000E+00
 -1       626 1.78847E-04 5.84254E-07-3.30872E-24
 -1       627 1.79318E-04-3.40899E-07 0.00000E+00
 -1       628 1.79768E-04-1.20946E-06 6.61744E-24
 -1       629 1.80200E-04-2.02959E-06 0.00000E+00
 -1       630 1.80618E-04-2.80951E-06-3.30872E-24
 -1       631 1.81023E-04-3.55742E-06 1.65436E-24
 -1       632 1.81419E-04-4.28155E-06 0.00000E+00
 -1       633 1.81809E-04-4.99013E-06 0.00000E+00
 -1       634 1.82197E-04-5.69136E-06 3.30872E-24
 -1       635 1.82585E-04-6.39347E-06 0.00000E+00
 -1       636 1.82976E-04-7.10469E-06 3.30872E-24
 -1       637 1.83374E-04-7.83323E-06 0.00000E+00
 -1       638 1.83781E-04-8.58732E-06-1.65436E-24
 -1       639 1.84201E-04-9.37521E-06-8.27181E-25
 -1       640 1.84636E-04-1.02051E-05-3.30872E-24
 -1       656 1.79052E-04-8.16617E-06 0.00000E+00
 -1       657 1.80026E-04-8.75579E-06 0.00000E+00
 -1       658 1.81277E-04-9.34401E-06 0.00000E+00
 -1       659 1.82660E-04-9.93189E-06 0.00000E+00
 -1       660 1.83990E-04-1.05215E-05 0.00000E+00
 -1       661 1.78704E-04-7.96957E-06-8.27181E-25
 -1       662 1.78949E-04-8.42901E-06 0.00000E+00
 -1       663 1.79227E-04-8.97285E-06 0.00000E+00
 -1       664 1.79534E-04-9.59485E-06 0.00000E+00
 -1       665 1.79868E-04-1.02894E-05 0.00000E+00
 -1       666 1.80227E-04-1.10508E-05 8.27181E-25
 -1       667 1.80610E-04-1.18736E-05-1.65436E-24
 -1       668 1.81013E-04-1.27525E-05 0.00000E+00
 -1       669 1.81435E-04-1.36823E-05 0.00000E+00
 -1       670 1.81875E-04-1.46579E-05 8.27181E-25
 -1       671 1.82329E-04-1.56743E-05-1.65436E-24
 -1       672 1.82797E-04-1.67267E-05 0.00000E+00
 -1       673 1.83277E-04-1.78101E-05 0.00000E+00
 -1       674 1.83766E-04-1.89203E-05-8.27181E-25
 -1       675 1.84263E-04-2.00520E-05 4.13590E-25
 -1       676 1.78822E-04-2.06933E-05 0.00000E+00
 -1       677 1.80014E-04-2.07958E-05-1.65436E-24
 -1       678 1.81205E-04-2.08983E-05-3.30872E-24
 -1       679 1.82393E-04-2.10005E-05-1.65436E-24
 -1       680 1.83579E-04-2.11027E-05 0.00000E+00
 -1       771 1.86123E-05 1.35948E-05-5.29396E-23
 -1       772 8.99149E-06 3.45232E-05 0.00000E+00
 -1       773 1.08719E-06 5.11198E-05 0.00000E+00
 -1       774-5.21840E-06 6.36317E-05-2.64698E-23
 -1       775-1.00406E-05 7.23159E-05-5.29396E-23
 -1       776-1.34995E-05 7.74447E-05 0.00000E+00
 -1       777-1.57149E-05 7.93002E-05 5.29396E-23
 -1       778-1.68092E-05 7.81771E-05 0.00000E+00
 -1       779-1.69044E-05 7.43783E-05-5.29396E-23
 -1       780-1.61242E-05 6.82173E-05 7.94093E-23
 -1       781-1.45917E-05 6.00138E-05-5.29396E-23
 -1       782-1.24315E-05 5.00960E-05 0.00000E+00
 -1       783-9.76745E-06 3.87962E-05 0.00000E+00
 -1       784-6.72448E-06 2.64525E-05 0.00000E+00
 -1       785-3.42673E-06 1.34061E-05 5.29396E-23
 -1       786 1.86594E-04 2.97198E-05 0.00000E+00
 -1       787 1.86636E-04 2.76941E-05 4.13590E-25
 -1       788 1.86679E-04 2.57099E-05 8.27181E-25
 -1       789 1.86722E-04 2.37591E-05 0.00000E+00
 -1       790 1.86765E-04 2.18370E-05 0.00000E+00
 -1       791 1.86809E-04 1.99387E-05 0.00000E+00
 -1       792 1.86852E-04 1.80620E-05 0.00000E+00
 -1       793 1.86896E-04 1.62047E-05 0.00000E+00
 -1       794 1.86940E-04 1.43665E-05 0.00000E+00
 -1       795 1.86983E-04 1.25474E-05 0.00000E+00
 -1       796 1.87027E-04 1.07489E-05 1.65436E-24
 -1       797 1.87071E-04 8.97306E-06-8.27181E-25
 -1       798 1.87115E-04 7.22390E-06-1.65436E-24
 -1       799 1.87159E-04 5.50568E-06 8.27181E-25
 -1       800 1.87203E-04 3.82575E-06 1.65436E-24
 -1       801 1.43182E-04 2.85350E-05 0.00000E+00
 -1       802 1.19312E-05 1.78883E-05 0.00000E+00
 -1       803-1.00583E-04 9.09059E-06 0.00000E+00
 -1       804-8.98611E-05 6.30431E-06-2.64698E-23
 -1       805-2.97653E-05 2.52112E-06-5.29396E-23
 -1       806 1.87221E-04 2.96526E-05 1.65436E-24
 -1       807 1.87872E-04 2.75361E-05 1.65436E-24
 -1       808 1.88512E-04 2.54509E-05 0.00000E+00
 -1       809 1.89137E-04 2.34009E-05 0.00000E+00
 -1       810 1.89749E-04 2.13900E-05 0.00000E+00
 -1       811 1.90344E-04 1.94221E-05 0.00000E+00
 -1       812 1.90921E-04 1.75008E-05 0.00000E+00
 -1       813 1.91480E-04 1.56301E-05 0.00000E+00
 -1       814 1.92018E-04 1.38135E-05 1.65436E-24
 -1       815 1.92535E-04 1.20548E-05 8.27181E-25
 -1       816 1.93029E-04 1.03579E-05-1.65436E-24
 -1       817 1.93499E-04 8.72632E-06-8.27181E-25
 -1       818 1.93942E-04 7.16393E-06-3.30872E-24
 -1       819 1.94359E-04 5.67442E-06-8.27181E-25
 -1       820 1.94748E-04 4.26144E-06-1.65436E-24
 -1       821 1.87120E-04 1.09048E-07 1.65436E-24
 -1       822 1.86983E-04-2.91138E-06 0.00000E+00
 -1       823 1.86844E-04-6.50802E-06 3.30872E-24
 -1       824 1.86704E-04-1.03156E-05-1.65436E-24
 -1       825 1.86564E-04-1.39126E-05 0.00000E+00
 -1       826 1.86425E-04-1.68785E-05 1.65436E-24
 -1       827 1.86289E-04-1.89630E-05 0.00000E+00
 -1       828 1.86154E-04-1.99213E-05 0.00000E+00
 -1       829 1.86020E-04-1.98120E-05 0.00000E+00
 -1       830 1.85886E-04-1.87001E-05-1.65436E-24
 -1       831 1.85750E-04-1.69211E-05 0.00000E+00
 -1       832 1.85614E-04-1.48141E-05 0.00000E+00
 -1       833 1.85478E-04-1.28070E-05 3.30872E-24
 -1       834 1.85345E-04-1.13270E-05 0.00000E+00
 -1       835 1.85212E-04-1.06596E-05-8.27181E-25
 -1       836 1.88767E-04 2.31388E-06 0.00000E+00
 -1       837 1.90160E-04 2.43920E-06 1.65436E-24
 -1       838 1.91458E-04 2.56443E-06 0.00000E+00
 -1       839 1.92694E-04 2.68897E-06 0.00000E+00
 -1       840 1.93900E-04 2.81334E-06 0.00000E+00
 -1       856 1.85070E-04-1.19879E-05-8.27181E-25
 -1       857 1.85050E-04-1.27566E-05 0.00000E+00
 -1       858 1.85031E-04-1.34124E-05-4.13590E-25
 -1       859 1.85010E-04-1.39762E-05 0.00000E+00
 -1       860 1.84990E-04-1.44688E-05 0.00000E+00
 -1       861 1.84969E-04-1.49113E-05 2.06795E-25
 -1       862 1.84949E-04-1.53247E-05 0.00000E+00
 -1       863 1.84929E-04-1.57300E-05 4.13590E-25
 -1       864 1.84908E-04-1.61484E-05 8.27181E-25
 -1       865 1.84888E-04-1.66007E-05 0.00000E+00
 -1       866 1.84867E-04-1.71081E-05 0.00000E+00
 -1       867 1.84846E-04-1.76915E-05 4.13590E-25
 -1       868 1.84826E-04-1.83719E-05 0.00000E+00
 -1       869 1.84805E-04-1.91701E-05 0.00000E+00
 -1       870 1.84784E-04-2.01068E-05 8.27181E-25
 -1       871 1.86272E-04-1.10898E-05 0.00000E+00
 -1       872 1.87601E-04-1.10976E-05 0.00000E+00
 -1       873 1.89008E-04-1.11060E-05 0.00000E+00
 -1       874 1.90427E-04-1.11151E-05-2.32645E-25
 -1       875 1.91790E-04-1.11248E-05-4.13590E-25
 -1       876 1.85551E-04-1.19736E-05-3.30872E-24
 -1       877 1.85992E-04-1.27961E-05 0.00000E+00
 -1       878 1.86412E-04-1.35607E-05 0.00000E+00
 -1       879 1.86814E-04-1.42747E-05 0.00000E+00
 -1       880 1.87200E-04-1.49454E-05 0.00000E+00
 -1       881 1.87572E-04-1.55800E-05-1.65436E-24
 -1       882 1.87933E-04-1.61859E-05 3.30872E-24
 -1       883 1.88286E-04-1.67702E-05 0.00000E+00
 -1       884 1.88634E-04-1.73401E-05 0.00000E+00
 -1       885 1.88979E-04-1.79029E-05 0.00000E+00
 -1       886 1.89324E-04-1.84659E-05 0.00000E+00
 -1       887 1.89672E-04-1.90362E-05 0.00000E+00
 -1       888 1.90025E-04-1.96211E-05 0.00000E+00
 -1       889 1.90386E-04-2.02280E-05 0.00000E+00
 -1       890 1.90757E-04-2.08640E-05 0.00000E+00
 -1       891 1.85964E-04-2.12590E-05-1.65436E-24
 -1       892 1.87144E-04-2.13156E-05 8.27181E-25
 -1       893 1.88275E-04-2.13720E-05-1.65436E-24
 -1       894 1.89334E-04-2.14283E-05 4.13590E-25
 -1       895 1.90296E-04-2.14842E-05 0.00000E+00
 -1       956 1.94980E-04 1.76556E-06 1.65436E-24
 -1       957 1.94851E-04 6.91240E-07-8.27181E-25
 -1       958 1.94721E-04-3.04708E-07 0.00000E+00
 -1       959 1.94591E-04-1.23325E-06 0.00000E+00
 -1       960 1.94461E-04-2.10538E-06 0.00000E+00
 -1       961 1.94330E-04-2.93216E-06 1.65436E-24
 -1       962 1.94200E-04-3.72462E-06 0.00000E+00
 -1       963 1.94070E-04-4.49385E-06 1.65436E-24
 -1       964 1.93940E-04-5.25090E-06-3.30872E-24
 -1       965 1.93810E-04-6.00684E-06 0.00000E+00
 -1       966 1.93680E-04-6.77274E-06 0.00000E+00
 -1       967 1.93550E-04-7.55967E-06 0.00000E+00
 -1       968 1.93420E-04-8.37867E-06-3.30872E-24
 -1       969 1.93290E-04-9.24079E-06-1.65436E-24
 -1       970 1.93160E-04-1.01570E-05 3.30872E-24
 -1       971 1.92915E-04-1.21167E-05 0.00000E+00
 -1       972 1.92796E-04-1.30018E-05 0.00000E+00
 -1       973 1.92677E-04-1.38035E-05-3.30872E-24
 -1       974 1.92557E-04-1.45325E-05 0.00000E+00
 -1       975 1.92438E-04-1.51996E-05 0.00000E+00
 -1       976 1.92319E-04-1.58156E-05 1.65436E-24
 -1       977 1.92200E-04-1.63912E-05-3.30872E-24
 -1       978 1.92080E-04-1.69373E-05 0.00000E+00
 -1       979 1.91961E-04-1.74646E-05 0.00000E+00
 -1       980 1.91842E-04-1.79840E-05 1.65436E-24
 -1       981 1.91723E-04-1.85063E-05 0.00000E+00
 -1       982 1.91604E-04-1.90422E-05 0.00000E+00
 -1       983 1.91485E-04-1.96027E-05 0.00000E+00
 -1       984 1.91366E-04-2.01983E-05 1.65436E-24
 -1       985 1.91248E-04-2.08401E-05 3.30872E-24
 -3
    1PSTEP                        20          10           1          
  100CL  110 6.53320E-01         409                     0   10           1
 -4  STRESS      6    1
 -5  SXX         1    4    1    1
 -5  SYY         1    4    2    2
 -5  SZZ         1    4    3    3
 -5  SXY         1    4    1    2
 -5  SYZ         1    4    2    3
 -5  SZX         1    4    3    1
 -1         1-4.75556E+06-1.68005E+06-1.03578E+06-1.59451E+06 8.44011E-10-1.48721E-07
 -1         2 6.12927E+05 8.40005E+06 2.31399E+06 2.77159E+06 1.97178E-08-1.34343E-07
 -1         3-1.35486E+03-1.60047E+06 4.07553E+02-2.16785E+03-5.38364E-10-1.42682E-08
 -1         5-5.94675E+01 3.77051E+05 9.70755E+00-1.13750E+00-4.13725E-10 2.02563E-08
 -1         8-7.90516E+05-2.55862E+05-9.89867E+04-3.33066E+05 2.72848E-11 2.37498E-07
 -1         9 9.58184E+06 1.32230E+06 1.96288E+06-7.20295E+05 5.58794E-10 2.03727E-08
 -1        10-2.21347E+03-1.66781E+06-3.92457E+03-1.46565E+04-1.27202E-08-2.73870E-08
 -1        12-5.56173E+01 3.77071E+05 3.18182E+02-7.83069E+00-5.95456E-10 2.58951E-08
 -1        15 1.16350E+03 6.39406E+02 3.76100E+03 1.48250E+00-1.95172E-10 3.45651E-07
 -1        16 1.99743E+07-2.08461E+05 2.77121E+06-1.73642E+06 1.67444E-08 1.37681E-07
 -1        17 7.26159E+06 5.29498E+06 1.95672E+06 5.13550E+06 2.25293E-08 2.41096E-08
 -1        18 1.26669E+05 2.93252E+04 1.07679E+03-1.15592E+05 1.56003E-08 1.28757E-08
 -1        19 1.19846E+05 1.39486E+05-7.43543E+02 2.15317E+04 1.95778E-09-1.25729E-08
 -1        20-7.87520E+04-5.61698E+05-1.25937E+05 2.54535E+04-1.54614E-09-1.57039E-10
 -1        21-4.52707E+01-2.91706E+05-9.12252E+02 2.38625E+02 1.54377E-08-2.27394E-08
 -1        24 1.19808E+07 1.02239E+07 3.34846E+06 9.49728E+06-1.49419E-07-5.01168E-08
 -1        25 9.75463E+04 1.66314E+05 7.41657E+04-5.85965E+05-1.45510E-09 5.42150E-09
 -1        26-5.37201E+04 9.10509E+04-2.41076E+04 6.01645E+02 1.15870E-09 3.07165E-09
 -1        27-7.52948E+04-3.03789E+05-1.11329E+05 6.76412E+04 4.14138E-09 9.20833E-09
 -1        28 2.19716E+04-8.39155E+04 1.66460E+04 2.06028E+04-3.53631E-09 7.56373E-10
 -1        32-1.65376E+06-3.08035E+06-1.84680E+05 3.50684E+05-4.06289E-08-1.40169E-08
 -1        33-1.75123E+05 9.07344E+04 3.16776E+04-3.82180E+04-2.59524E-09 2.37163E-08
 -1        34-2.19527E+05-2.43646E+04 6.69350E+02 7.38554E+04-4.87121E-09-1.73533E-08
 -1        35-2.26220E+04-3.32842E+04-1.32492E+03 5.07582E+04-5.86331E-09 5.68616E-09
 -1        51 5.34964E+04-1.97561E+05 1.14641E+05-5.77726E+05-4.36557E-11 4.76794E-08
 -1        52 1.89140E+04-1.78599E+05 6.13089E+04-6.73654E+05 1.70985E-10-4.62496E-08
 -1        53 4.83274E+03-1.94009E+05 3.37915E+04-5.75665E+05 3.12866E-10 1.40935E-08
 -1        54 1.02104E+04-1.90122E+05 3.15148E+04-6.75747E+05-6.76664E-10 7.59464E-08
 -1        55 2.17237E+04-1.98888E+05 4.27240E+04-5.75437E+05 9.45874E-11 8.15417E-08
 -1        56-8.84165E+06-1.03603E+06-7.69616E+05-3.50178E+06-3.09665E-08-2.07190E-07
 -1        57-9.48411E+06-1.37811E+06-5.15712E+05-3.07583E+06 8.44011E-09-1.53726E-07
 -1        58-8.93424E+06-1.33168E+06-1.79810E+05-3.51374E+06 9.49876E-09 6.93326E-08
 -1        59-9.35777E+06-1.04757E+06-1.06740E+05-3.08828E+06 4.86375E-08 1.39262E-07
 -1        60-8.96956E+06-1.35532E+06-4.25597E+04-3.49501E+06-1.57852E-08-1.17507E-08
 -1        61-9.23519E+06-1.08852E+06-2.10996E+04-3.17665E+06 2.35086E-08 8.33306E-08
 -1        62-9.04733E+06-1.29566E+06-1.53451E+04-3.41898E+06-1.44064E-09-6.41612E-08
 -1        63-9.06076E+06-1.24206E+06-5.05170E+03-3.35134E+06-1.93395E-08 2.50348E-07
 -1        64-9.13664E+06-1.20666E+06-1.46109E+04-3.31520E+06-1.34860E-08 1.72518E-07
 -1        65-8.92127E+06-1.40070E+06-1.86614E+04-3.54084E+06-3.23271E-08-2.73053E-09
 -1        66-9.19373E+06-1.13244E+06-3.81969E+04-3.23454E+06-2.61189E-08 5.72363E-08
 -1        67-8.88226E+06-1.51447E+06-9.50908E+04-3.63894E+06 5.69980E-09 2.28538E-08
 -1        68-9.18547E+06-1.08750E+06-1.60269E+05-3.22342E+06-4.21896E-08-1.30793E-07
 -1        69-9.06198E+06-1.74166E+06-4.59571E+05-3.54911E+06-2.21207E-08-1.30240E-09
 -1        70-9.01236E+06-9.15593E+05-6.86555E+05-3.31940E+06 5.47152E-09-3.79514E-08
 -1        86-6.22476E+05-8.75366E+06-1.26206E+06-1.32816E+06-1.81291E-07-1.76558E-07
 -1        87 8.96543E+05 1.44243E+06 1.04833E+06 2.93283E+06-3.08672E-07 2.02999E-08
 -1        88-1.27311E+05-2.59927E+06 8.38376E+04-1.57616E+06-2.86764E-07-8.34825E-09
 -1        89 1.21477E+06 1.31038E+06 1.05076E+06 3.00824E+06-4.07388E-07-3.88463E-08
 -1        90-9.07423E+05-8.65213E+06-1.38952E+06-1.41019E+06-9.55588E-08 7.06714E-08
 -1       121-1.86119E+03-1.60497E+06-4.54792E+02 1.07553E+03 1.50537E-09-1.03319E-08
 -1       122-1.17027E+03-1.60052E+06 7.85270E+02-4.33707E+03-5.13600E-09 3.63725E-08
 -1       123-1.88765E+03-1.60510E+06 3.82647E+02 3.21160E+03 4.06578E-09-2.17187E-09
 -1       124 4.93204E+02-1.60002E+06 3.04654E+03-9.06155E+03-9.89985E-09-1.47520E-08
 -1       125-2.73093E+03-1.60601E+06 3.70611E+03 5.76064E+03 6.45741E-09-1.24091E-08
 -1       191-6.27285E+01 3.77071E+05 8.94894E+00 5.89023E-01-4.89101E-10 2.78196E-08
 -1       192-6.03948E+01 3.77051E+05 2.06820E+01-3.72309E+00-6.55294E-10 5.07080E-08
 -1       193-6.51749E+01 3.77071E+05 3.58811E+01 3.25865E+00-9.64171E-10 1.55414E-08
 -1       194-6.33704E+01 3.77054E+05 7.85419E+01-8.47485E+00-4.09854E-10-1.51067E-09
 -1       195-6.98713E+01 3.77068E+05 1.51039E+02 5.48022E+00-1.35785E-09 1.59507E-08
 -1       251-1.92502E+06 2.15228E+04-1.47899E+05 5.14959E+04-1.90084E-09-8.06904E-08
 -1       252-1.58370E+06-2.53352E+04-2.99406E+04-1.84897E+05 1.08894E-08 4.65971E-08
 -1       253-1.80312E+06-1.60021E+03-3.63571E+04 1.61994E+05-6.67205E-09-9.70031E-08
 -1       254-1.75351E+06 1.65991E+04-8.10240E+03-3.09282E+05 3.80169E-10-2.32367E-08
 -1       255-1.77283E+06-4.43820E+03-8.11796E+03 1.76770E+05-1.36788E-08 2.23497E-07
 -1       256-1.63219E+06 1.82927E+04 2.65219E+04-2.38618E+05-1.20672E-08-2.22980E-08
 -1       257-1.91364E+06-1.38073E+04-3.31129E+04 9.06706E+04-4.62023E-09-1.43004E-07
 -1       258-1.45770E+06 1.25840E+04 6.14749E+04-1.03022E+04-1.36847E-08 2.48395E-07
 -1       259-1.93093E+06-1.33540E+04-3.46004E+04-5.14410E+04-5.98448E-09-1.26265E-07
 -1       260-1.59292E+06 1.43049E+04 3.81325E+04 2.32055E+05-6.21003E-09-2.10167E-07
 -1       261-1.79111E+06-3.18350E+03-1.24907E+03-1.51011E+05-3.44985E-08-2.26448E-08
 -1       262-1.74447E+06 2.14488E+04 1.57723E+04 3.30604E+05 1.19969E-08 1.17431E-07
 -1       263-1.79393E+06-7.03651E+03 6.86073E+03-1.50499E+05-5.13182E-09 7.72870E-08
 -1       264-1.57641E+06 4.63609E+04 7.15113E+04 2.30767E+05-6.07961E-08 9.91276E-08
 -1       265-1.94455E+06-4.17974E+04 7.03033E+03-5.06680E+04-2.59588E-08 7.74471E-08
 -1       266-2.10634E+04-9.84970E+03 4.94184E+04-3.17197E+01-1.63709E-10 8.22541E-08
 -1       267 2.44181E+04 1.14793E+04 3.49294E+04 3.65996E+01 1.40972E-10 2.43863E-07
 -1       268-3.27443E+03-1.62583E+03 1.29830E+04-4.66336E+00 1.10958E-10 9.45341E-08
 -1       269 3.86613E+03 1.94573E+03 8.43881E+03 5.43219E+00 1.89175E-10 6.77136E-08
 -1       270-5.80310E+02-3.19699E+02 4.07353E+03-7.37183E-01 1.46770E-10 2.43285E-07
 -1       271-1.83305E+06-2.25463E+05-1.35236E+05-7.06469E+05 2.49565E-09 1.56826E-07
 -1       272-1.88840E+06-3.15297E+05-8.66876E+04-6.95499E+05 6.65868E-08-1.36954E-07
 -1       273-1.85958E+06-2.57949E+05-3.21263E+04-6.99135E+05-1.16124E-08 2.61196E-07
 -1       274-1.85624E+06-2.76538E+05-1.77340E+04-7.07458E+05-2.56878E-08 1.73023E-07
 -1       275-1.86470E+06-2.59818E+05-7.63830E+03-6.96243E+05 3.08792E-08-3.38778E-08
 -1       276-1.84904E+06-2.75584E+05-3.79364E+03-7.13027E+05-1.87501E-08 1.52386E-09
 -1       277-1.86704E+06-2.58254E+05-2.05490E+03-6.93971E+05 3.10611E-08 5.93477E-08
 -1       278-1.84543E+06-2.78596E+05-1.13484E+03-7.17581E+05-1.49812E-08 2.31023E-08
 -1       279-1.86876E+06-2.56484E+05-1.28952E+03-6.92024E+05 4.92582E-09-2.98264E-08
 -1       280-1.84296E+06-2.81760E+05-1.87485E+03-7.21439E+05-6.26292E-08-6.96286E-08
 -1       281-1.87001E+06-2.54794E+05-3.53424E+03-6.90455E+05-1.15697E-08 7.72066E-08
 -1       282-1.84254E+06-2.86342E+05-8.16968E+03-7.24240E+05-1.90039E-09 1.99647E-07
 -1       283-1.86969E+06-2.51815E+05-1.46144E+04-6.89474E+05-1.74914E-08-1.19935E-07
 -1       284-1.85389E+06-3.07789E+05-3.97113E+04-7.23418E+05-8.79800E-09-1.26132E-07
 -1       285-1.85932E+06-2.35112E+05-6.17287E+04-6.90815E+05 1.52686E-08-1.17721E-07
 -1       301 8.34222E+03-5.57909E+05 1.70847E+05-9.73022E+05 4.07454E-10 6.61385E-08
 -1       302 9.35591E+03-5.13636E+05 1.03410E+05-1.42191E+06-8.78936E-09 1.27369E-07
 -1       303-9.98353E+03-5.45738E+05 6.11076E+04-9.70546E+05-8.07631E-10 7.17773E-08
 -1       304-5.21571E+03-5.17714E+05 6.61669E+04-1.42111E+06-8.32370E-09 8.96289E-08
 -1       305-9.80399E+03-5.39329E+05 8.74476E+04-9.73484E+05 8.09450E-10-2.93221E-08
 -1       306-2.77931E+07-5.67688E+06-7.78111E+06-9.85679E+05-7.56700E-08 5.70144E-08
 -1       307 2.31480E+07 2.30414E+06 5.00435E+06-1.34385E+07-8.42163E-07 1.30676E-08
 -1       308-7.55215E+06-8.14326E+05-5.30374E+05 4.73317E+06-1.53377E-07 1.65877E-07
 -1       309-3.47061E+06 7.02436E+06 1.93560E+06-1.91956E+07 3.87095E-07 4.24079E-08
 -1       310-1.14660E+07-1.43060E+06-1.59375E+06 4.63762E+06 1.03901E-07-1.44893E-07
 -1       311 3.22339E+07-1.48943E+05 6.28484E+06-8.77192E+06 7.94302E-07-5.34637E-08
 -1       312-2.89946E+07-5.88923E+06-7.47487E+06-4.20183E+06 2.80677E-07 2.93847E-07
 -1       313 4.10710E+07 1.18599E+07 9.50470E+06 1.99974E+07-3.62139E-07 3.64467E-07
 -1       314-1.69370E+07-1.53041E+07-6.75413E+06-1.15517E+07 4.44124E-07-3.04368E-07
 -1       315-1.10985E+06 2.57988E+07 5.15077E+06 1.06086E+07-1.65150E-07 4.54893E-08
 -1       316 6.41041E+05-9.34477E+06-4.94575E+05-3.23179E+06-9.48668E-07-1.40106E-07
 -1       317-1.70880E+07 2.05127E+07 1.90022E+06-6.75229E+06 5.24975E-07-7.28738E-07
 -1       318-1.20427E+06-1.12237E+07-1.63859E+06-4.39685E+06-9.08069E-07 1.71072E-07
 -1       319 5.54016E+06 2.72881E+07 6.05467E+06 1.45030E+07 1.03755E-08 1.97208E-07
 -1       320-2.07436E+07-1.54665E+07-8.69106E+06-1.15676E+07 1.62981E-07-5.59376E-08
 -1       336-4.97046E+02-1.73744E+06-1.38099E+04 8.74957E+03-2.50548E-08-1.08921E-08
 -1       337-5.33458E+03-1.73750E+06-1.79831E+04-2.11959E+04-4.61516E-08-1.30458E-08
 -1       338 4.41515E+02-1.73696E+06-2.80294E+04 1.22289E+04-3.28964E-08 1.17143E-08
 -1       339-2.97520E+04-1.75435E+06-6.34367E+04-2.79952E+04-5.96110E-08 2.28029E-08
 -1       340 1.97588E+04-1.72262E+06-9.97851E+04 1.54281E+04-3.84280E-08 4.16039E-08
 -1       406-3.39004E+01 3.77054E+05 6.25446E+02 2.74542E+00-1.77084E-09 2.17588E-08
 -1       407 1.63710E+02 3.77181E+05 1.33510E+03 2.11556E+01-4.00618E-10 4.90036E-09
 -1       408 6.29839E+02 3.76957E+05 2.66298E+03-2.42842E+01-2.11753E-09 1.21363E-08
 -1       409 2.83181E+03 3.78032E+05 6.00064E+03 2.56993E+02-1.48248E-10 1.23282E-08
 -1       410 8.23573E+03 3.76192E+05 1.22477E+04-2.47259E+02-2.29738E-09 2.21007E-09
 -1       521-2.93245E+07-6.96757E+06-9.07280E+06-6.56507E+05-6.17001E-08-1.20548E-07
 -1       522 2.38997E+07 3.03587E+06 5.08298E+06-1.66182E+07-4.56581E-07-5.60423E-07
 -1       523-8.25996E+06-1.09744E+06-5.38697E+05 5.17221E+06 3.42843E-08-1.28959E-07
 -1       524-6.68914E+06 9.61739E+06 2.09285E+06-2.21457E+07 7.19738E-07-6.06240E-07
 -1       525-1.23776E+07-1.94841E+06-1.75003E+06 5.06775E+06 5.30737E-07-1.11788E-07
 -1       526 3.49792E+07-2.03905E+05 6.59881E+06-1.12726E+07 2.66009E-08 1.96742E-07
 -1       527-3.07592E+07-7.38059E+06-8.59307E+06-4.08813E+06 1.16415E-08 1.29061E-07
 -1       528 4.48321E+07 1.30442E+07 9.90809E+06 2.26359E+07-1.47265E-08-1.22818E-07
 -1       529-1.79312E+07-1.72855E+07-7.73095E+06-1.16973E+07-2.20432E-07-2.75148E-07
 -1       530-3.41801E+06 3.00067E+07 5.44246E+06 1.04611E+07-3.34956E-07 5.45580E-07
 -1       531 5.80984E+05-1.04601E+07-4.88037E+05-3.33397E+06-6.83489E-07 2.19938E-07
 -1       532-1.99345E+07 2.26899E+07 2.07928E+06-1.03715E+07 4.55824E-07-6.58038E-07
 -1       533-1.27390E+06-1.23645E+07-1.73159E+06-4.39327E+06-2.24827E-07-9.93314E-07
 -1       534 3.56839E+06 3.16561E+07 6.29884E+06 1.50173E+07-9.37143E-08 6.77595E-07
 -1       535-2.18835E+07-1.75904E+07-9.92569E+06-1.17120E+07 6.77537E-08 4.31028E-07
 -1       536-6.81461E+05-4.59790E+04-3.73731E+04-5.12735E+04-5.67707E-09 5.15538E-08
 -1       537-7.89516E+04 4.45071E+04 8.21607E+04 1.17337E+05-9.56143E-08 8.75571E-08
 -1       538-3.93379E+05 2.64403E+03 5.07552E+03-6.89181E+04 3.69889E-08 1.16573E-07
 -1       539-2.77934E+05 2.99638E+03 2.39419E+04 1.32041E+05 1.58838E-07 9.52423E-08
 -1       540-4.87438E+05-3.47057E+02-1.90573E+04-6.64478E+04 3.22555E-08 8.58277E-08
 -1       541 1.04785E+05 1.56290E+04 9.81367E+04 9.23480E+04 3.02625E-08 6.68676E-08
 -1       542-7.65794E+05-1.85818E+04-7.75010E+04-2.84565E+04 5.32796E-08 4.81336E-08
 -1       543 3.43069E+05 2.51937E+04 1.45457E+05-1.27998E+04 2.18524E-08-2.69583E-08
 -1       544-7.19339E+05-1.51965E+04-6.88553E+04 3.81093E+04 9.70658E-09-5.47889E-08
 -1       545-4.32537E+03 8.60006E+03 7.31615E+04-1.07686E+05 7.45433E-09-8.92396E-08
 -1       546-4.27715E+05 5.72883E+03-1.13394E+04 6.61276E+04 2.53131E-08-9.14890E-08
 -1       547-2.94960E+05-4.68126E+03 9.09158E+03-1.34819E+05-1.17894E-07-1.02428E-07
 -1       548-4.36502E+05 4.59950E+03-2.28706E+04 6.58502E+04-9.92366E-08-8.23647E-08
 -1       549 1.42265E+04 1.31073E+04 5.34840E+04-1.05394E+05-6.87987E-08-6.01776E-08
 -1       550-7.28624E+05-1.89705E+04-1.22185E+05 3.60709E+04 7.93989E-09-3.82643E-08
 -1       551 3.89781E+04-7.63970E+05-1.05900E+04-1.22808E+06-1.00030E-07-1.00408E-08
 -1       552 8.86709E+04-8.05622E+05 1.29546E+04-1.75125E+06-6.89179E-08 4.07163E-08
 -1       553 6.78731E+04-8.03054E+05 3.41248E+04-1.22172E+06-1.13941E-07 3.97849E-08
 -1       554 1.26284E+05-8.19543E+05 8.35859E+04-1.75320E+06-7.25558E-08 1.68657E-08
 -1       555 9.75678E+04-8.26198E+05 1.51912E+05-1.22167E+06-1.18729E-07-9.38599E-09
 -1       556 2.12628E+05-3.66959E+05 3.32471E+04-3.95540E+05-2.35741E-08-1.39116E-08
 -1       557 3.39540E+05-4.68354E+05 1.98138E+04-5.10882E+05 4.51109E-10 4.47835E-09
 -1       558 1.96234E+05-3.61843E+05 4.24820E+03-3.98351E+05-2.02563E-08-1.37006E-08
 -1       559 3.15413E+05-4.69736E+05 3.28650E+03-5.29871E+05 1.88884E-08-1.62690E-08
 -1       560 1.82147E+05-3.52994E+05-8.87126E+02-4.08452E+05 1.69675E-08 3.36513E-09
 -1       561 2.97610E+05-4.62683E+05 3.61670E+02-5.41960E+05 1.00117E-08-1.70257E-08
 -1       562 1.71012E+05-3.46060E+05-1.08749E+03-4.16505E+05 3.63798E-10-8.20000E-09
 -1       563 2.84395E+05-4.56921E+05 2.97900E+01-5.50579E+05-4.07454E-10-7.94716E-09
 -1       564 1.63101E+05-3.41126E+05-5.07016E+02-4.22108E+05-5.52973E-10-5.63068E-09
 -1       565 2.75693E+05-4.53132E+05 4.18921E+01-5.56136E+05-4.36557E-10 8.64293E-09
 -1       566 1.58528E+05-3.38230E+05-2.22743E+02-4.25307E+05-1.08630E-08-2.78487E-09
 -1       567 2.71548E+05-4.51328E+05-3.30998E+02-5.58644E+05 2.57678E-08 3.50192E-08
 -1       568 1.57377E+05-3.37528E+05-1.04498E+03-4.26208E+05 1.50430E-09 2.21444E-08
 -1       569 2.70619E+05-4.51274E+05-2.64043E+03-5.57149E+05-8.64384E-09 1.77679E-08
 -1       570 1.60705E+05-3.40654E+05-5.78847E+03-4.25239E+05 1.07175E-08 1.90585E-08
 -1       571 2.83183E+05 1.02316E+04 1.46488E+04-9.15361E+04 1.74805E-09-6.61703E-09
 -1       572 2.85311E+05 3.82912E+03 7.17889E+03-1.00424E+05 1.69985E-09-6.60748E-09
 -1       573 2.84029E+05 1.17970E+03 3.18976E+03-9.13638E+04 1.29967E-08 1.97724E-09
 -1       574 2.84242E+05 6.68688E+02 1.59951E+03-1.00641E+05 2.14159E-08-1.24264E-08
 -1       575 2.84121E+05 3.99884E+02 7.54820E+02-9.13403E+04-3.69340E-10 1.71831E-08
 -1       576 2.84109E+05 4.07352E+02 3.86244E+02-1.00670E+05-2.83655E-08-8.59836E-09
 -1       577 2.84158E+05 3.44250E+02 1.92540E+02-9.13370E+04-1.57506E-08-6.65477E-09
 -1       578 2.84135E+05 3.72051E+02 1.10589E+02-1.00674E+05-4.29782E-09 9.52969E-09
 -1       579 2.84224E+05 3.11000E+02 7.50766E+01-9.13367E+04 5.92263E-09-3.99541E-09
 -1       580 2.84228E+05 3.25436E+02 8.56328E+01-1.00669E+05-7.38510E-09 7.33053E-09
 -1       581 2.84329E+05 2.57381E+02 1.28235E+02-9.13424E+04 7.35599E-09 1.36652E-08
 -1       582 2.84390E+05 2.91497E+02 2.59771E+02-1.00610E+05 7.34508E-09-1.84509E-08
 -1       583 2.84458E+05 2.97554E+02 4.98297E+02-9.13967E+04 1.07175E-08-1.19599E-09
 -1       584 2.84737E+05 7.02962E+02 1.12721E+03-1.00153E+05 1.89593E-08-1.75896E-08
 -1       585 2.84481E+05 1.65333E+03 2.28258E+03-9.17989E+04 5.98084E-09-1.99689E-08
 -1       586-3.35474E+03 1.12250E+05-2.98114E+03-2.45712E+05-4.99040E-09 8.05335E-09
 -1       587-1.25698E+03 1.11981E+05 6.78881E+02-2.70426E+05-3.68891E-09-7.90124E-09
 -1       588 4.50729E+02 1.11814E+05 4.59635E+03-2.45578E+05-2.57205E-09 2.69665E-09
 -1       589 5.01998E+03 1.14210E+05 1.19873E+04-2.70193E+05-8.75843E-09-1.77679E-08
 -1       590 1.62208E+04 1.10516E+05 2.51718E+04-2.46000E+05-4.93856E-09 1.09212E-08
 -1       591-7.07391E+04-1.53235E+04-2.16875E+04-3.04222E+04-7.03949E-10 1.15324E-09
 -1       592-7.46115E+04-1.88123E+04-1.17477E+04-3.39849E+04 7.27382E-09-4.07658E-09
 -1       593-7.29085E+04-1.37494E+04-4.89001E+03-3.20121E+04 4.56090E-09 2.39470E-09
 -1       594-7.16163E+04-1.56308E+04-2.43881E+03-3.40994E+04 1.80478E-10 1.44566E-08
 -1       595-7.30739E+04-1.37441E+04-1.11977E+03-3.20843E+04-2.12658E-09 3.61003E-09
 -1       596-7.14112E+04-1.54853E+04-5.69234E+02-3.40751E+04 3.08722E-09-5.91439E-09
 -1       597-7.30946E+04-1.37589E+04-3.09941E+02-3.20871E+04 2.28852E-10-4.33306E-09
 -1       598-7.13911E+04-1.54796E+04-2.49113E+02-3.40683E+04-4.45993E-09-1.59354E-08
 -1       599-7.30934E+04-1.37594E+04-3.18153E+02-3.20867E+04 2.78578E-09-2.00082E-08
 -1       600-7.14115E+04-1.54860E+04-5.90974E+02-3.40732E+04 1.11536E-08-8.43670E-09
 -1       601-7.30694E+04-1.37452E+04-1.16584E+03-3.20833E+04 4.82214E-09 3.38946E-09
 -1       602-7.16249E+04-1.56364E+04-2.54082E+03-3.40948E+04-7.23503E-09 1.07819E-08
 -1       603-7.28945E+04-1.37535E+04-5.09537E+03-3.20088E+04 3.56886E-09-8.00219E-09
 -1       604-7.47629E+04-1.89326E+04-1.22403E+04-3.39516E+04 5.23141E-09-7.67068E-09
 -1       605-7.06148E+04-1.54107E+04-2.25971E+04-3.03709E+04 8.46035E-09 2.95131E-09
 -1       606 2.67707E+04-1.39843E+04-2.50747E+04 2.42487E+04 2.90947E-09-9.45352E-09
 -1       607 2.24857E+04-4.56430E+03-1.24870E+04 2.72470E+04-2.98314E-09-4.01906E-09
 -1       608 2.49271E+04-8.20631E+02-5.59015E+03 2.40755E+04-2.00271E-09 7.66227E-09
 -1       609 2.44580E+04-2.77717E+02-2.82396E+03 2.74630E+04 4.20550E-09 2.09761E-08
 -1       610 2.47175E+04-3.58639E+01-1.34744E+03 2.40550E+04 9.93168E-10 2.13631E-08
 -1       611 2.46430E+04-3.50075E+01-6.79367E+02 2.74864E+04 4.98039E-09 1.99066E-08
 -1       612 2.46706E+04-2.19069E+01-3.23063E+02 2.40530E+04 4.12183E-09-5.42195E-09
 -1       613 2.46533E+04-3.04808E+01-1.44839E+02 2.74891E+04 7.03130E-09-1.61915E-08
 -1       614 2.46482E+04-2.77030E+01-3.41781E+01 2.40523E+04 3.00315E-09-1.79841E-08
 -1       615 2.46474E+04-2.86111E+01 6.02244E+01 2.74896E+04-2.09502E-09 1.36743E-09
 -1       616 2.46307E+04-2.43117E+01 1.81030E+02 2.40525E+04-7.37600E-10-1.25460E-08
 -1       617 2.46686E+04 1.03103E+01 4.13219E+02 2.74891E+04-6.76891E-10-1.34683E-08
 -1       618 2.45944E+04 9.50753E+01 8.32968E+02 2.40528E+04 1.25965E-10 2.87173E-10
 -1       619 2.49623E+04 6.54579E+02 1.87054E+03 2.74884E+04-2.79715E-09-4.50245E-09
 -1       620 2.43176E+04 2.07046E+03 3.75974E+03 2.40540E+04 2.88730E-09-2.13772E-08
 -1       621 4.99074E+02 2.99637E+05 4.26563E+03 3.74079E+04 7.39328E-09 1.36170E-08
 -1       622 7.17047E+02 3.00656E+05 3.67159E+03 5.51175E+04 5.33510E-09-9.73478E-09
 -1       623 1.16834E+02 2.99887E+05 4.24776E+03 3.72381E+04 8.83733E-09 1.58043E-08
 -1       624 2.13821E+03 3.01854E+05 8.11563E+03 5.52830E+04 5.31952E-09 3.12230E-09
 -1       625 1.86179E+03 2.98282E+05 1.40563E+04 3.72372E+04 9.71613E-09-3.61069E-09
 -1       626 2.55231E+05 6.06550E+04 5.05257E+03 1.24716E+05-6.64841E-10-1.22964E-09
 -1       627 2.52905E+05 6.20722E+04 2.43479E+03 1.28975E+05 2.94131E-09 1.45258E-09
 -1       628 2.55359E+05 5.83402E+04 1.02966E+03 1.25571E+05-4.01269E-09-1.34662E-08
 -1       629 2.52273E+05 6.14051E+04 5.03983E+02 1.29216E+05-3.65026E-09-1.82176E-08
 -1       630 2.55373E+05 5.82286E+04 2.33803E+02 1.25607E+05-4.28190E-09-5.55281E-09
 -1       631 2.52206E+05 6.13802E+04 1.25852E+02 1.29218E+05 1.36865E-08 2.17665E-09
 -1       632 2.55369E+05 5.82328E+04 8.28827E+01 1.25602E+05 1.62972E-08-1.18234E-09
 -1       633 2.52198E+05 6.13823E+04 9.24246E+01 1.29214E+05 5.24437E-09 1.24351E-09
 -1       634 2.55364E+05 5.82303E+04 1.49446E+02 1.25602E+05 2.30455E-09 1.07464E-08
 -1       635 2.52211E+05 6.13808E+04 3.02458E+02 1.29219E+05-1.59429E-09-2.70607E-08
 -1       636 2.55354E+05 5.82249E+04 6.10841E+02 1.25601E+05-2.39424E-10-1.20876E-08
 -1       637 2.52343E+05 6.14759E+04 1.34306E+03 1.29218E+05 8.17636E-10 6.24755E-09
 -1       638 2.55307E+05 5.85217E+04 2.75952E+03 1.25467E+05 2.35741E-09 7.29506E-09
 -1       639 2.53793E+05 6.34919E+04 6.52909E+03 1.28791E+05-2.13731E-11-4.40446E-09
 -1       640 2.55107E+05 6.45411E+04 1.35490E+04 1.22929E+05 4.77439E-09 2.12162E-09
 -1       656 6.52846E+04-1.66987E+06-1.57594E+05-2.30254E+03-2.54659E-10-8.72325E-09
 -1       657-8.63618E+04-1.74108E+06-1.30548E+05 5.45599E+03 4.72937E-11-1.25827E-08
 -1       658 2.08069E+04-1.69010E+06-8.03901E+04-4.32350E+03 7.27823E-10-4.81128E-09
 -1       659-9.33566E+04-1.74440E+06-1.39740E+05 7.11497E+03-2.37924E-09-9.88988E-09
 -1       660 7.22638E+04-1.66656E+06-1.73397E+05-3.96152E+03-2.72121E-09-3.42965E-10
 -1       661 1.59345E+05 1.67273E+04 1.66893E+04 6.22960E+04-2.22553E-09-3.48518E-09
 -1       662 1.68737E+05 2.91288E+04 1.12473E+04 5.86008E+04 1.72150E-09-3.57659E-10
 -1       663 1.62622E+05 2.20816E+04 3.93365E+03 6.13448E+04-9.03697E-10 9.05061E-09
 -1       664 1.64937E+05 2.28670E+04 2.35305E+03 5.97624E+04-1.57240E-09-4.92935E-09
 -1       665 1.63120E+05 2.28132E+04 9.28265E+02 6.12000E+04-8.00071E-10-7.87549E-09
 -1       666 1.64349E+05 2.20303E+04 5.43237E+02 5.99511E+04 5.01774E-09-5.34721E-09
 -1       667 1.63206E+05 2.28966E+04 2.88595E+02 6.11639E+04-1.09517E-09 9.04200E-09
 -1       668 1.64253E+05 2.19700E+04 2.94176E+02 6.00036E+04-8.80846E-09-1.31590E-09
 -1       669 1.63214E+05 2.28717E+04 3.98371E+02 6.11479E+04 4.68816E-10 1.56008E-08
 -1       670 1.64350E+05 2.21862E+04 8.67548E+02 6.00064E+04-6.17464E-09 1.05186E-08
 -1       671 1.63109E+05 2.26849E+04 1.54043E+03 6.11592E+04 1.37712E-09 4.41264E-09
 -1       672 1.65248E+05 2.36848E+04 3.94117E+03 5.97889E+04 4.86159E-09-5.92007E-09
 -1       673 1.62321E+05 2.14110E+04 6.60479E+03 6.13509E+04 1.14596E-10-1.46701E-09
 -1       674 1.71534E+05 3.42959E+04 1.88883E+04 5.79418E+04-5.02587E-09 2.09525E-09
 -1       675 1.56863E+05 1.23711E+04 2.80368E+04 6.28947E+04-5.23869E-09 1.36424E-09
 -1       676 2.37776E+01-2.91630E+05-1.09950E+03-1.19316E+02 6.88289E-10-5.20489E-09
 -1       677-2.91111E+02-2.91896E+05-2.01228E+03 2.38444E+02 8.12429E-09 2.06216E-08
 -1       678 1.95042E+02-2.91441E+05-3.55721E+03-1.19050E+02 2.10434E-09 1.08926E-08
 -1       679-3.55751E+03-2.94043E+05-8.45043E+03 2.37429E+02 8.46546E-09 5.27278E-09
 -1       680 2.12384E+03-2.89484E+05-1.36192E+04-1.16983E+02 2.36469E-10 4.41625E-09
 -1       771-3.02642E+06-7.25263E+05-1.53886E+05-1.43891E+06-2.89001E-08-3.37895E-08
 -1       772-2.95298E+06-8.10436E+05-7.94150E+04-1.53728E+06-1.46538E-08 5.38785E-09
 -1       773-3.05570E+06-7.02384E+05-4.03120E+04-1.45204E+06-5.15138E-09 1.20781E-08
 -1       774-2.94364E+06-7.93421E+05-1.80206E+04-1.56108E+06 2.06055E-08-5.52973E-10
 -1       775-3.07080E+06-6.91766E+05-1.33640E+04-1.45833E+06-2.96859E-09 3.01225E-09
 -1       776-2.95470E+06-7.90780E+05-5.01603E+03-1.57896E+06-9.70613E-09 3.79441E-09
 -1       777-3.08385E+06-6.82329E+05-5.86265E+03-1.46388E+06-2.82307E-09 3.65253E-09
 -1       778-2.96627E+06-7.88342E+05-1.66353E+03-1.59430E+06 3.28873E-09 6.09543E-09
 -1       779-3.09504E+06-6.74103E+05-2.91642E+03-1.46862E+06-7.21775E-09-8.62201E-09
 -1       780-2.97645E+06-7.86013E+05-4.84483E+02-1.60679E+06 1.75351E-09 4.65661E-10
 -1       781-3.10393E+06-6.67481E+05-1.12853E+03-1.47233E+06-2.47819E-08-5.42059E-10
 -1       782-2.98428E+06-7.84030E+05 4.10787E+02-1.61601E+06-4.35684E-08-5.41468E-09
 -1       783-3.11017E+06-6.62888E+05 6.42053E+02-1.47493E+06-1.04992E-08-1.41708E-08
 -1       784-2.98861E+06-7.82013E+05 2.64654E+03-1.62169E+06-1.79316E-08 3.61160E-09
 -1       785-3.11387E+06-6.60151E+05 4.67303E+03-1.47659E+06-3.37932E-08 1.21818E-08
 -1       786 1.25040E+05-9.73404E+03 2.25204E+04-3.02629E+02 2.08485E-09 4.48017E-09
 -1       787 1.34807E+05 1.12697E+04 1.59323E+04-1.17111E+02 6.97120E-09-2.49565E-09
 -1       788 1.28806E+05-1.52542E+03 5.82661E+03-2.68143E+02 3.34934E-09 1.96512E-08
 -1       789 1.30420E+05 1.76549E+03 3.65785E+03-1.70202E+02-1.07447E-09 1.20161E-08
 -1       790 1.29428E+05-2.37581E+02 1.48127E+03-2.49555E+02-2.80604E-09 5.45265E-09
 -1       791 1.29693E+05 2.74805E+02 8.56056E+02-2.02006E+02-8.35789E-09-2.07920E-09
 -1       792 1.29533E+05-3.58451E+01 3.63787E+02-2.36340E+02-3.81920E-09-1.31547E-09
 -1       793 1.29567E+05 3.82365E+01 1.83603E+02-2.26813E+02 1.12788E-10 1.18910E-08
 -1       794 1.29553E+05-1.16195E+00 5.22329E+01-2.24748E+02 3.41938E-09-6.85904E-09
 -1       795 1.29532E+05-2.35892E+01-4.55118E+01-2.50953E+02-4.41583E-09 2.09411E-08
 -1       796 1.29568E+05 2.59463E+01-1.41392E+02-2.12200E+02 3.26003E-09-1.88470E-08
 -1       797 1.29448E+05-1.94479E+02-3.93934E+02-2.79733E+02 4.07455E-09-1.90530E-08
 -1       798 1.29638E+05 1.69600E+02-6.41339E+02-1.95968E+02 2.41553E-09-1.22056E-08
 -1       799 1.28961E+05-1.25036E+03-1.76581E+03-3.19816E+02 5.37772E-09 9.16037E-09
 -1       800 1.30056E+05 1.08096E+03-2.49936E+03-1.72117E+02 2.01630E-10 4.10432E-09
 -1       801-1.35110E+05-9.34235E+06-1.28305E+06 1.25759E+06 8.73988E-08-4.66098E-08
 -1       802 6.36421E+05 4.92591E+06 1.92410E+06-1.53500E+06 2.44996E-07-2.69429E-08
 -1       803-4.77319E+05-1.31012E+07-1.69140E+06 7.98659E+05 7.42075E-08 2.28338E-08
 -1       804 2.47963E+05 1.70923E+06 1.35636E+06 6.26322E+05-1.12945E-07-8.13870E-08
 -1       805 1.76166E+05-6.14054E+06-2.57149E+05-8.98594E+05-4.74320E-08-5.23778E-08
 -1       806-3.02715E+05-5.84196E+04-2.23536E+04-1.19789E+05-3.24872E-09 6.11499E-09
 -1       807-3.04497E+05-5.47471E+04-1.09821E+04-1.25184E+05 2.64390E-08 4.61314E-08
 -1       808-3.03326E+05-5.03657E+04-4.65896E+03-1.23600E+05 3.29692E-09 5.53837E-09
 -1       809-3.02189E+05-5.16604E+04-2.27812E+03-1.25453E+05-2.00725E-09-1.65792E-08
 -1       810-3.03419E+05-5.00853E+04-1.04418E+03-1.23768E+05 3.55885E-09 6.31735E-09
 -1       811-3.02011E+05-5.15362E+04-5.19273E+02-1.25418E+05-1.79443E-09-2.54772E-09
 -1       812-3.03433E+05-5.01093E+04-2.62649E+02-1.23768E+05-9.11950E-09-1.38025E-08
 -1       813-3.01986E+05-5.15383E+04-1.70749E+02-1.25400E+05-4.33420E-09-1.90466E-08
 -1       814-3.03426E+05-5.01187E+04-1.69278E+02-1.23764E+05-2.96495E-09-1.48266E-08
 -1       815-3.01990E+05-5.15404E+04-2.72836E+02-1.25393E+05 1.29330E-09 1.65953E-08
 -1       816-3.03406E+05-5.01176E+04-5.17130E+02-1.23760E+05-3.86990E-09-1.42563E-09
 -1       817-3.02078E+05-5.15896E+04-1.10991E+03-1.25382E+05-1.34605E-08-3.51361E-09
 -1       818-3.03339E+05-5.02741E+04-2.26380E+03-1.23687E+05 2.79215E-10-7.47059E-09
 -1       819-3.03317E+05-5.29574E+04-5.32667E+03-1.25089E+05 8.39418E-09-4.30555E-09
 -1       820-3.02913E+05-5.42971E+04-1.08416E+04-1.21967E+05 3.03953E-09-3.97790E-09
 -1       821-3.74687E+05 2.06529E+04-4.79734E+04 1.84038E+03 1.25054E-08 1.79316E-08
 -1       822-3.94593E+05-2.39197E+04-3.37935E+04-3.77759E+03 4.71812E-09 7.57836E-09
 -1       823-3.82265E+05 3.25033E+03-1.24006E+04 2.87084E+03-9.27094E-09 1.11090E-08
 -1       824-3.85525E+05-3.75132E+03-7.77426E+03-4.42851E+03 5.55078E-10 8.47172E-09
 -1       825-3.83758E+05 5.05073E+02-3.24047E+03 2.49137E+03 1.81466E-08-4.49302E-09
 -1       826-3.83364E+05-5.71333E+02-1.78380E+03-2.47531E+03 2.07022E-08 8.38327E-09
 -1       827-3.84407E+05 5.92427E+01-1.12546E+03 9.17551E+02 9.88845E-09-6.39460E-09
 -1       828-3.82835E+05-1.46898E+02-6.72679E+02 1.00597E+03-5.78666E-10 2.14795E-10
 -1       829-3.84278E+05 7.42913E+01-1.11999E+03-9.89940E+02 9.89360E-10 6.58730E-10
 -1       830-3.83647E+05-6.16603E+02-1.90353E+03 4.10478E+03 1.85622E-09-5.88358E-10
 -1       831-3.83612E+05 5.41329E+02-3.32236E+03-2.18129E+03-3.80337E-09 1.00636E-09
 -1       832-3.85605E+05-3.90291E+03-8.05884E+03 5.11789E+03-3.09040E-09 1.20162E-08
 -1       833-3.82331E+05 3.36620E+03-1.28693E+04-2.00309E+03-3.14326E-09-8.72387E-09
 -1       834-3.94704E+05-2.47774E+04-3.49533E+04 3.45958E+03-2.43421E-09 8.21638E-09
 -1       835-3.74502E+05 2.13882E+04-4.97264E+04-5.22913E+02 5.87849E-09 1.42609E-09
 -1       836-1.36746E+03 3.61448E+05 2.22162E+04-1.64357E+04-6.30462E-09-1.15870E-08
 -1       837 4.74408E+03 3.68403E+05 1.88450E+04-3.35097E+04-6.66239E-09-1.12193E-08
 -1       838-5.40953E+02 3.63390E+05 1.92649E+04-1.63641E+04-5.63568E-09 5.45106E-09
 -1       839 1.21579E+04 3.73924E+05 3.65065E+04-3.35611E+04-5.91672E-09 1.90286E-08
 -1       840-3.75388E+03 3.55868E+05 5.82422E+04-1.63893E+04-5.34419E-09-5.65221E-10
 -1       856-5.43315E+04 7.98104E+03-2.10319E+04-3.98477E+02 1.21270E-09-5.31236E-09
 -1       857-6.29983E+04-9.37581E+03-1.44783E+04 5.54992E+03 3.53359E-09-2.23440E-09
 -1       858-5.77630E+04 1.11917E+03-5.45733E+03-4.22329E+02 3.33665E-09-1.18769E-08
 -1       859-5.90601E+04-1.31510E+03-3.29341E+03 5.58562E+03 7.81711E-10-3.75985E-09
 -1       860-5.82756E+04 1.56635E+02-1.38053E+03-4.33943E+02-1.79654E-09-2.29539E-09
 -1       861-5.84703E+04-1.85523E+02-7.60014E+02 5.60145E+03 7.10081E-10-1.66520E-08
 -1       862-5.83558E+04 2.11543E+01-3.17040E+02-4.38146E+02 4.47670E-10-1.66733E-08
 -1       863-5.83723E+04-2.04982E+01-1.18014E+02 5.60385E+03-1.79917E-09-2.01289E-08
 -1       864-5.83742E+04-4.64593E+00 4.12598E+01-4.36345E+02-2.05220E-09-7.06383E-09
 -1       865-5.83184E+04 5.79940E+01 2.41203E+02 5.59368E+03 1.66561E-09 6.60179E-09
 -1       866-5.84075E+04-5.73842E+01 4.89014E+02-4.27972E+02-2.49429E-10 2.04759E-09
 -1       867-5.80876E+04 4.74310E+02 1.20554E+03 5.57093E+03 2.10090E-09 1.53354E-08
 -1       868-5.86002E+04-4.13530E+02 2.00370E+03-4.13593E+02-1.79426E-09-4.47847E-09
 -1       869-5.66181E+04 3.44174E+03 5.33588E+03 5.53335E+03 7.91240E-09-1.84798E-08
 -1       870-5.98695E+04-2.94434E+03 7.74345E+03-3.90312E+02-2.78158E-09-2.43836E-09
 -1       871-5.43624E+03-2.02321E+04-1.90531E+04 1.27431E+05-4.43288E-09 1.85255E-08
 -1       872-1.99130E+03-2.46489E+04-7.96522E+03 1.65232E+05-9.92713E-09 4.09636E-09
 -1       873 3.55954E+02-2.25193E+04 6.08656E+02 1.27151E+05-4.18822E-09 3.58193E-09
 -1       874 3.19704E+03-2.01342E+04 9.63494E+03 1.65263E+05-1.11322E-08 1.65587E-08
 -1       875 6.69486E+03-2.48145E+04 2.17108E+04 1.27385E+05-5.37329E-09-2.00962E-08
 -1       876 2.88516E+05 4.86864E+04 1.48523E+04 1.15853E+05 6.88101E-09-3.01407E-09
 -1       877 2.89493E+05 5.18194E+04 7.93169E+03 1.20118E+05 1.16045E-08 3.76599E-09
 -1       878 2.89905E+05 4.70415E+04 3.32299E+03 1.17070E+05-6.59611E-09-1.20135E-08
 -1       879 2.87474E+05 4.98046E+04 1.65571E+03 1.20218E+05-1.23646E-09 1.22384E-09
 -1       880 2.90004E+05 4.70244E+04 7.71200E+02 1.17120E+05-3.15777E-09 5.31713E-09
 -1       881 2.87340E+05 4.97185E+04 4.11816E+02 1.20195E+05-8.53072E-09 9.63470E-09
 -1       882 2.90013E+05 4.70374E+04 2.63432E+02 1.17121E+05-1.12059E-08-3.31490E-09
 -1       883 2.87330E+05 4.97140E+04 2.83160E+02 1.20188E+05-1.04442E-08 2.39933E-09
 -1       884 2.90007E+05 4.70346E+04 4.50405E+02 1.17122E+05-8.75696E-09-1.06400E-09
 -1       885 2.87366E+05 4.97203E+04 9.05542E+02 1.20199E+05-1.65948E-08-1.20856E-08
 -1       886 2.89972E+05 4.70082E+04 1.82507E+03 1.17118E+05-7.60305E-09-9.46920E-09
 -1       887 2.87687E+05 4.99306E+04 3.98662E+03 1.20245E+05 1.01306E-09-8.17636E-10
 -1       888 2.89720E+05 4.70526E+04 8.03315E+03 1.16991E+05-1.06894E-10 3.53748E-09
 -1       889 2.92469E+05 5.49039E+04 1.91897E+04 1.20098E+05 1.52378E-09-2.32317E-08
 -1       890 2.86442E+05 5.09466E+04 3.59419E+04 1.13933E+05-2.67255E-09-7.75981E-09
 -1       891-9.52828E+01-1.60075E+05-1.96057E+03 2.69087E+04-1.45269E-09-3.04203E-09
 -1       892-1.83704E+02-1.60589E+05-2.10648E+03 4.08487E+04 3.24690E-09-9.50422E-10
 -1       893 3.53828E+01-1.60138E+05-2.98335E+03 2.69158E+04-9.64292E-10 8.23684E-09
 -1       894-1.49555E+03-1.61717E+05-6.17503E+03 4.06980E+04 2.57660E-09-6.08361E-09
 -1       895-1.18617E+03-1.58852E+05-1.08744E+04 2.70608E+04-1.17120E-09-5.05042E-09
 -1       956-3.70067E+05-5.33147E+03-1.31882E+04 2.97978E+04 1.71331E-08 1.23850E-09
 -1       957-3.72657E+05-1.87206E+03-6.76938E+03 3.58169E+04 2.60916E-08 6.48788E-09
 -1       958-3.71251E+05-2.25872E+02-3.05043E+03 2.96344E+04 1.03937E-08 1.89630E-09
 -1       959-3.71446E+05-1.21671E+02-1.55765E+03 3.60063E+04 8.04766E-09 1.65633E-08
 -1       960-3.71366E+05-3.42995E+01-7.59569E+02 2.96176E+04 9.73068E-09 2.79806E-09
 -1       961-3.71366E+05-5.06264E+01-4.02764E+02 3.60261E+04 1.89611E-08-8.85620E-10
 -1       962-3.71393E+05-3.58947E+01-2.30625E+02 2.96149E+04 1.16529E-08-1.71872E-09
 -1       963-3.71366E+05-4.67692E+01-1.85209E+02 3.60296E+04 6.88215E-09-6.70752E-11
 -1       964-3.71398E+05-3.26978E+01-2.25284E+02 2.96141E+04-1.05672E-09-3.86990E-10
 -1       965-3.71378E+05-4.38089E+01-3.89695E+02 3.60289E+04-5.41968E-09-5.88898E-11
 -1       966-3.71382E+05-2.47986E+01-7.32210E+02 2.96155E+04 3.11024E-09-9.18999E-09
 -1       967-3.71466E+05-1.05802E+02-1.50177E+03 3.60151E+04 2.53749E-09-2.09805E-08
 -1       968-3.71281E+05-2.03375E+02-2.93986E+03 2.96278E+04 1.53750E-09-5.71492E-09
 -1       969-3.72646E+05-1.78801E+03-6.52649E+03 3.58721E+04-7.78527E-10-1.87107E-08
 -1       970-3.70147E+05-5.12197E+03-1.27138E+04 2.97512E+04-2.64299E-09-4.96857E-09
 -1       971-3.39492E+05-1.70294E+03-9.20247E+03 1.51874E+04 5.53246E-09 2.90015E-09
 -1       972-3.41709E+05-1.25081E+03-5.01157E+03 2.10241E+04 3.15549E-09 3.23553E-10
 -1       973-3.40517E+05-5.68095E+01-2.24469E+03 1.50670E+04 1.34332E-09-5.82600E-09
 -1       974-3.40653E+05-7.38877E+01-1.16352E+03 2.11598E+04-1.53204E-09 4.85238E-09
 -1       975-3.40598E+05-1.25165E+01-5.81941E+02 1.50549E+04-1.65801E-09 4.56384E-09
 -1       976-3.40592E+05-2.46691E+01-3.36346E+02 2.11753E+04 4.50905E-09 7.75094E-09
 -1       977-3.40615E+05-1.18300E+01-2.45205E+02 1.50516E+04-8.73297E-09 6.56451E-09
 -1       978-3.40597E+05-1.85552E+01-2.88427E+02 2.11800E+04-1.98738E-08 5.26245E-09
 -1       979-3.40614E+05-3.51365E+00-4.64688E+02 1.50501E+04-8.01327E-09 2.54749E-09
 -1       980-3.40632E+05-1.55481E+01-8.98055E+02 2.11810E+04 3.61553E-10-1.81717E-08
 -1       981-3.40586E+05 1.89306E+01-1.73974E+03 1.50507E+04-2.48656E-09-1.16047E-08
 -1       982-3.40871E+05-1.44089E+02-3.59625E+03 2.11745E+04-8.45716E-10-1.33327E-08
 -1       983-3.40367E+05-9.24611E+01-6.98766E+03 1.50567E+04 8.97217E-10-1.29949E-08
 -1       984-3.44232E+05-3.79352E+03-1.56486E+04 2.10897E+04 2.71393E-09 3.77804E-09
 -1       985-3.37203E+05-5.20560E+03-2.87357E+04 1.51286E+04-6.02950E-09 5.64614E-09
 -3
    1PSTEP                        21          11           1          
  100CL  111 6.62109E-01         409                     0   11           1
 -4  DISP        4    1
 -5  D1          1    2    1    0
 -5  D2          1    2    2    0
 -5  D3          1    2    3    0
 -5  ALL         1    2    0    0    1ALL
 -1         1 2.73512E-03 0.00000E+00 0.00000E+00
 -1         2 1.26384E-03 1.19905E-26 5.29396E-23
 -1         3 3.42256E-04-6.62219E-29 1.32349E-23
 -1         5 1.76926E-04 6.33347E-28-8.27181E-25
 -1         8 2.72485E-03-3.91020E-07 0.00000E+00
 -1         9 2.71754E-03-2.21657E-04 0.00000E+00
 -1        10 3.10365E-04-3.36592E-06 0.00000E+00
 -1        12 1.78770E-04 8.08288E-07 4.13590E-25
 -1        15 2.71324E-03-4.12649E-07-1.03398E-25
 -1        16 2.79610E-03-2.23660E-04 0.00000E+00
 -1        17 2.11246E-04-7.68233E-06 0.00000E+00
 -1        18 1.82715E-04 3.44187E-05 0.00000E+00
 -1        19 1.84303E-04 1.61018E-06 0.00000E+00
 -1        20 1.84442E-04-9.89029E-06 0.00000E+00
 -1        21 1.83549E-04-2.54587E-05 0.00000E+00
 -1        24 3.05437E-05-1.18889E-05 0.00000E+00
 -1        25 1.93505E-04 3.46442E-05 0.00000E+00
 -1        26 1.94186E-04 2.24151E-06 0.00000E+00
 -1        27 1.91975E-04-1.34471E-05 0.00000E+00
 -1        28 1.91663E-04-2.60800E-05 0.00000E+00
 -1        32 0.00000E+00 0.00000E+00 0.00000E+00
 -1        33 2.03052E-04 2.99455E-06 0.00000E+00
 -1        34 2.00935E-04-1.35032E-05 0.00000E+00
 -1        35 1.99004E-04-2.64222E-05 0.00000E+00
 -1        51 2.73442E-03-8.29331E-08-6.61744E-24
 -1        52 2.73316E-03-1.47275E-07-3.30872E-24
 -1        53 2.73144E-03-2.08049E-07 0.00000E+00
 -1        54 2.72940E-03-2.67486E-07 1.65436E-24
 -1        55 2.72717E-03-3.27354E-07-8.27181E-25
 -1        56 2.72615E-03 1.16176E-05 0.00000E+00
 -1        57 2.70734E-03 4.72226E-05-5.29396E-23
 -1        58 2.68154E-03 9.93798E-05-1.05879E-22
 -1        59 2.65238E-03 1.59110E-04 0.00000E+00
 -1        60 2.62440E-03 2.16139E-04-1.05879E-22
 -1        61 2.60195E-03 2.60405E-04-5.29396E-23
 -1        62 2.58799E-03 2.84113E-04 0.00000E+00
 -1        63 2.58431E-03 2.81291E-04 0.00000E+00
 -1        64 2.59055E-03 2.50849E-04 1.05879E-22
 -1        65 2.60539E-03 1.94352E-04 5.29396E-23
 -1        66 2.62624E-03 1.18373E-04 1.05879E-22
 -1        67 2.65029E-03 3.14458E-05 0.00000E+00
 -1        68 2.67440E-03-5.57315E-05 1.05879E-22
 -1        69 2.69550E-03-1.32430E-04 0.00000E+00
 -1        70 2.71070E-03-1.89992E-04-5.29396E-23
 -1        86 1.35532E-03-6.87904E-06-5.29396E-23
 -1        87 1.61915E-03-4.37721E-05 0.00000E+00
 -1        88 1.97399E-03-1.07431E-04 0.00000E+00
 -1        89 2.33407E-03-1.73027E-04 1.32349E-23
 -1        90 2.61051E-03-2.13208E-04 5.29396E-23
 -1       121 3.41361E-04-5.43320E-07 0.00000E+00
 -1       122 3.38678E-04-1.08972E-06 0.00000E+00
 -1       123 3.34217E-04-1.64221E-06 0.00000E+00
 -1       124 3.27996E-04-2.20384E-06 0.00000E+00
 -1       125 3.20034E-04-2.77725E-06-1.32349E-23
 -1       191 1.76977E-04 1.34778E-07-2.48154E-24
 -1       192 1.77131E-04 2.69545E-07 1.65436E-24
 -1       193 1.77387E-04 4.04292E-07 2.48154E-24
 -1       194 1.77745E-04 5.39007E-07 8.27181E-25
 -1       195 1.78206E-04 6.73676E-07-1.65436E-24
 -1       251 2.72455E-03 1.61123E-06 6.61744E-24
 -1       252 2.72424E-03 3.63972E-06-3.30872E-24
 -1       253 2.72392E-03 4.53288E-06 0.00000E+00
 -1       254 2.72361E-03 3.14357E-06 0.00000E+00
 -1       255 2.72329E-03-1.32192E-06 6.61744E-24
 -1       256 2.72294E-03-9.61798E-06-6.61744E-24
 -1       257 2.72256E-03-2.19064E-05 0.00000E+00
 -1       258 2.72212E-03-3.82978E-05-6.61744E-24
 -1       259 2.72161E-03-5.82687E-05 0.00000E+00
 -1       260 2.72105E-03-8.12495E-05 6.61744E-24
 -1       261 2.72043E-03-1.06205E-04 0.00000E+00
 -1       262 2.71980E-03-1.32075E-04 6.61744E-24
 -1       263 2.71917E-03-1.57658E-04-1.32349E-23
 -1       264 2.71858E-03-1.81755E-04-6.61744E-24
 -1       265 2.71803E-03-2.03401E-04-1.32349E-23
 -1       266 2.72292E-03-4.00041E-07-1.65436E-24
 -1       267 2.72098E-03-4.02986E-07 0.00000E+00
 -1       268 2.71905E-03-4.06315E-07 0.00000E+00
 -1       269 2.71711E-03-4.08505E-07-2.06795E-25
 -1       270 2.71518E-03-4.10668E-07-2.06795E-25
 -1       271 2.72416E-03-2.25985E-07 0.00000E+00
 -1       272 2.72456E-03-3.05335E-06 0.00000E+00
 -1       273 2.72600E-03-8.68649E-06 1.32349E-23
 -1       274 2.72840E-03-1.69242E-05 6.61744E-24
 -1       275 2.73166E-03-2.75430E-05 0.00000E+00
 -1       276 2.73571E-03-4.03030E-05-6.61744E-24
 -1       277 2.74043E-03-5.49466E-05-1.32349E-23
 -1       278 2.74572E-03-7.12026E-05 0.00000E+00
 -1       279 2.75150E-03-8.87870E-05 1.32349E-23
 -1       280 2.75764E-03-1.07406E-04-6.61744E-24
 -1       281 2.76404E-03-1.26757E-04 0.00000E+00
 -1       282 2.77059E-03-1.46533E-04 0.00000E+00
 -1       283 2.77718E-03-1.66422E-04-1.32349E-23
 -1       284 2.78370E-03-1.86112E-04 0.00000E+00
 -1       285 2.79004E-03-2.05294E-04 0.00000E+00
 -1       301 2.73179E-03-2.22029E-04 1.32349E-23
 -1       302 2.74431E-03-2.22351E-04 6.61744E-24
 -1       303 2.75604E-03-2.22660E-04-1.32349E-23
 -1       304 2.76795E-03-2.22969E-04 6.61744E-24
 -1       305 2.78098E-03-2.23294E-04 0.00000E+00
 -1       306 2.75597E-03-3.78596E-04 1.05879E-22
 -1       307 2.81984E-03-7.94410E-04 0.00000E+00
 -1       308 2.86649E-03-1.40005E-03 0.00000E+00
 -1       309 2.89082E-03-2.09901E-03 0.00000E+00
 -1       310 2.92299E-03-2.76556E-03 0.00000E+00
 -1       311 2.98302E-03-3.27681E-03 0.00000E+00
 -1       312 3.04021E-03-3.55275E-03 2.11758E-22
 -1       313 3.03318E-03-3.55654E-03 0.00000E+00
 -1       314 2.88823E-03-3.30115E-03 1.05879E-22
 -1       315 2.56516E-03-2.85164E-03 0.00000E+00
 -1       316 2.08342E-03-2.28470E-03 0.00000E+00
 -1       317 1.50977E-03-1.66926E-03 0.00000E+00
 -1       318 9.58794E-04-1.06550E-03 0.00000E+00
 -1       319 5.38387E-04-5.38186E-04 5.29396E-23
 -1       320 2.91946E-04-1.61484E-04-1.05879E-22
 -1       336 2.98798E-04-4.01690E-06 0.00000E+00
 -1       337 2.85159E-04-4.69351E-06 0.00000E+00
 -1       338 2.69507E-04-5.39795E-06-1.32349E-23
 -1       339 2.51915E-04-6.13110E-06-6.61744E-24
 -1       340 2.32465E-04-6.89740E-06 0.00000E+00
 -1       406 1.79436E-04 9.42823E-07 2.48154E-24
 -1       407 1.80205E-04 1.07724E-06-4.13590E-25
 -1       408 1.81076E-04 1.21150E-06-2.06795E-24
 -1       409 1.82050E-04 1.34542E-06 8.27181E-25
 -1       410 1.83126E-04 1.47873E-06 1.24077E-24
 -1       521 2.83510E-03-3.89965E-04 1.05879E-22
 -1       522 2.89710E-03-8.26799E-04 0.00000E+00
 -1       523 2.93700E-03-1.46156E-03 0.00000E+00
 -1       524 2.95163E-03-2.19078E-03 0.00000E+00
 -1       525 2.97553E-03-2.88550E-03 1.05879E-22
 -1       526 3.03194E-03-3.41994E-03 0.00000E+00
 -1       527 3.08877E-03-3.70689E-03 0.00000E+00
 -1       528 3.07928E-03-3.70861E-03 0.00000E+00
 -1       529 2.92148E-03-3.43820E-03 0.00000E+00
 -1       530 2.57285E-03-2.96909E-03 5.29396E-23
 -1       531 2.05373E-03-2.38197E-03 0.00000E+00
 -1       532 1.43766E-03-1.74839E-03 5.29396E-23
 -1       533 8.45123E-04-1.12580E-03 0.00000E+00
 -1       534 3.89622E-04-5.76592E-04-5.29396E-23
 -1       535 1.21020E-04-1.79504E-04-2.11758E-22
 -1       536 2.10492E-04 2.72130E-05-6.61744E-24
 -1       537 2.08576E-04 8.76128E-05 0.00000E+00
 -1       538 2.05616E-04 1.64255E-04 0.00000E+00
 -1       539 2.02124E-04 2.47794E-04 0.00000E+00
 -1       540 1.98981E-04 3.26734E-04-3.30872E-24
 -1       541 1.96939E-04 3.89600E-04 0.00000E+00
 -1       542 1.95996E-04 4.29641E-04 0.00000E+00
 -1       543 1.95771E-04 4.40257E-04 0.00000E+00
 -1       544 1.95449E-04 4.22220E-04 0.00000E+00
 -1       545 1.94277E-04 3.76524E-04 0.00000E+00
 -1       546 1.92095E-04 3.11291E-04 0.00000E+00
 -1       547 1.89139E-04 2.34764E-04 0.00000E+00
 -1       548 1.86211E-04 1.58614E-04-3.30872E-24
 -1       549 1.84099E-04 9.45096E-05 1.65436E-24
 -1       550 1.83001E-04 5.04776E-05-1.65436E-24
 -1       551 1.86071E-04-8.24875E-06 0.00000E+00
 -1       552 1.57654E-04-8.89550E-06 0.00000E+00
 -1       553 1.26936E-04-9.60442E-06 3.30872E-24
 -1       554 9.48732E-05-1.03545E-05-6.61744E-24
 -1       555 6.24249E-05-1.11183E-05-1.32349E-23
 -1       556 2.03606E-04 1.18532E-05 0.00000E+00
 -1       557 1.97433E-04 2.76963E-05 0.00000E+00
 -1       558 1.92595E-04 4.01349E-05 0.00000E+00
 -1       559 1.88956E-04 4.94789E-05 2.64698E-23
 -1       560 1.86389E-04 5.60390E-05 0.00000E+00
 -1       561 1.84765E-04 6.01284E-05 0.00000E+00
 -1       562 1.83958E-04 6.20613E-05 0.00000E+00
 -1       563 1.83846E-04 6.21530E-05 0.00000E+00
 -1       564 1.84305E-04 6.07197E-05 0.00000E+00
 -1       565 1.85216E-04 5.80783E-05 0.00000E+00
 -1       566 1.86458E-04 5.45460E-05 0.00000E+00
 -1       567 1.87914E-04 5.04408E-05 0.00000E+00
 -1       568 1.89464E-04 4.60805E-05 0.00000E+00
 -1       569 1.90991E-04 4.17831E-05 0.00000E+00
 -1       570 1.92377E-04 3.78665E-05 0.00000E+00
 -1       571 1.82811E-04 3.22891E-05 2.48154E-24
 -1       572 1.82910E-04 3.00938E-05-8.27181E-25
 -1       573 1.83008E-04 2.78485E-05-1.65436E-24
 -1       574 1.83108E-04 2.55696E-05-8.27181E-25
 -1       575 1.83207E-04 2.32735E-05 0.00000E+00
 -1       576 1.83306E-04 2.09768E-05 0.00000E+00
 -1       577 1.83405E-04 1.86960E-05 0.00000E+00
 -1       578 1.83504E-04 1.64476E-05 0.00000E+00
 -1       579 1.83604E-04 1.42483E-05 0.00000E+00
 -1       580 1.83703E-04 1.21144E-05 0.00000E+00
 -1       581 1.83803E-04 1.00627E-05 0.00000E+00
 -1       582 1.83903E-04 8.10963E-06-6.61744E-24
 -1       583 1.84002E-04 6.27168E-06 0.00000E+00
 -1       584 1.84103E-04 4.56523E-06 0.00000E+00
 -1       585 1.84203E-04 3.00646E-06 0.00000E+00
 -1       586 1.84473E-04 3.44584E-05 0.00000E+00
 -1       587 1.86189E-04 3.44975E-05 0.00000E+00
 -1       588 1.87907E-04 3.45363E-05-8.27181E-25
 -1       589 1.89671E-04 3.45744E-05 0.00000E+00
 -1       590 1.91523E-04 3.46113E-05 0.00000E+00
 -1       591 1.83445E-04 3.23835E-05-1.03398E-25
 -1       592 1.84179E-04 3.03291E-05-2.06795E-25
 -1       593 1.84916E-04 2.82611E-05 8.27181E-25
 -1       594 1.85657E-04 2.61840E-05 0.00000E+00
 -1       595 1.86400E-04 2.41028E-05 8.27181E-25
 -1       596 1.87142E-04 2.20218E-05-4.13590E-25
 -1       597 1.87882E-04 1.99457E-05 0.00000E+00
 -1       598 1.88619E-04 1.78791E-05 0.00000E+00
 -1       599 1.89350E-04 1.58266E-05-8.27181E-25
 -1       600 1.90074E-04 1.37929E-05 0.00000E+00
 -1       601 1.90790E-04 1.17824E-05-8.27181E-25
 -1       602 1.91496E-04 9.79975E-06 0.00000E+00
 -1       603 1.92189E-04 7.84960E-06-4.13590E-25
 -1       604 1.92869E-04 5.93664E-06 1.29247E-25
 -1       605 1.93534E-04 4.06535E-06 4.13590E-25
 -1       606 1.84316E-04 4.47241E-07 0.00000E+00
 -1       607 1.84326E-04-6.30345E-07 0.00000E+00
 -1       608 1.84335E-04-1.62759E-06 0.00000E+00
 -1       609 1.84343E-04-2.55013E-06 0.00000E+00
 -1       610 1.84351E-04-3.40368E-06 3.30872E-24
 -1       611 1.84360E-04-4.19400E-06 0.00000E+00
 -1       612 1.84368E-04-4.92686E-06 0.00000E+00
 -1       613 1.84376E-04-5.60804E-06 0.00000E+00
 -1       614 1.84384E-04-6.24332E-06 0.00000E+00
 -1       615 1.84393E-04-6.83846E-06 8.27181E-25
 -1       616 1.84401E-04-7.39926E-06 0.00000E+00
 -1       617 1.84409E-04-7.93150E-06 4.13590E-25
 -1       618 1.84418E-04-8.44094E-06 0.00000E+00
 -1       619 1.84426E-04-8.93336E-06 0.00000E+00
 -1       620 1.84434E-04-9.41456E-06 0.00000E+00
 -1       621 1.85661E-04 1.71592E-06-1.65436E-24
 -1       622 1.87180E-04 1.82197E-06-8.27181E-25
 -1       623 1.88827E-04 1.92781E-06 1.65436E-24
 -1       624 1.90566E-04 2.03332E-06 0.00000E+00
 -1       625 1.92364E-04 2.13855E-06-1.65436E-24
 -1       626 1.84851E-04 4.83404E-07 0.00000E+00
 -1       627 1.85377E-04-5.80774E-07 0.00000E+00
 -1       628 1.85882E-04-1.59018E-06 0.00000E+00
 -1       629 1.86370E-04-2.55295E-06 0.00000E+00
 -1       630 1.86844E-04-3.47727E-06 0.00000E+00
 -1       631 1.87306E-04-4.37130E-06 0.00000E+00
 -1       632 1.87760E-04-5.24322E-06 3.30872E-24
 -1       633 1.88209E-04-6.10124E-06 0.00000E+00
 -1       634 1.88656E-04-6.95353E-06-3.30872E-24
 -1       635 1.89103E-04-7.80827E-06-1.65436E-24
 -1       636 1.89555E-04-8.67366E-06 0.00000E+00
 -1       637 1.90013E-04-9.55787E-06-1.65436E-24
 -1       638 1.90482E-04-1.04691E-05 0.00000E+00
 -1       639 1.90964E-04-1.14156E-05 8.27181E-25
 -1       640 1.91461E-04-1.24054E-05 1.65436E-24
 -1       656 1.85150E-04-1.04684E-05-6.61744E-24
 -1       657 1.86276E-04-1.10700E-05 6.61744E-24
 -1       658 1.87683E-04-1.16702E-05 0.00000E+00
 -1       659 1.89224E-04-1.22700E-05-6.61744E-24
 -1       660 1.90716E-04-1.28717E-05 6.61744E-24
 -1       661 1.84707E-04-1.04112E-05 8.27181E-25
 -1       662 1.85009E-04-1.10243E-05 0.00000E+00
 -1       663 1.85344E-04-1.17241E-05 0.00000E+00
 -1       664 1.85709E-04-1.25041E-05-8.27181E-25
 -1       665 1.86103E-04-1.33586E-05 0.00000E+00
 -1       666 1.86522E-04-1.42816E-05 8.27181E-25
 -1       667 1.86964E-04-1.52673E-05 1.65436E-24
 -1       668 1.87428E-04-1.63102E-05 8.27181E-25
 -1       669 1.87911E-04-1.74047E-05-1.65436E-24
 -1       670 1.88412E-04-1.85457E-05 8.27181E-25
 -1       671 1.88928E-04-1.97277E-05-1.65436E-24
 -1       672 1.89457E-04-2.09458E-05-8.27181E-25
 -1       673 1.89997E-04-2.21948E-05-1.65436E-24
 -1       674 1.90547E-04-2.34700E-05-4.13590E-25
 -1       675 1.91104E-04-2.47661E-05-2.06795E-25
 -1       676 1.84906E-04-2.55629E-05 3.30872E-24
 -1       677 1.86262E-04-2.56670E-05 0.00000E+00
 -1       678 1.87617E-04-2.57710E-05 0.00000E+00
 -1       679 1.88969E-04-2.58748E-05 1.65436E-24
 -1       680 1.90318E-04-2.59785E-05 0.00000E+00
 -1       771 1.85975E-05 1.48299E-05 5.29396E-23
 -1       772 8.54780E-06 3.67728E-05 0.00000E+00
 -1       773 3.03958E-07 5.41703E-05-5.29396E-23
 -1       774-6.25840E-06 6.72803E-05 0.00000E+00
 -1       775-1.12609E-05 7.63712E-05-5.29396E-23
 -1       776-1.48302E-05 8.17281E-05-2.64698E-23
 -1       777-1.70925E-05 8.36464E-05 0.00000E+00
 -1       778-1.81768E-05 8.24349E-05 0.00000E+00
 -1       779-1.82114E-05 7.84114E-05 5.29396E-23
 -1       780-1.73265E-05 7.19048E-05 2.64698E-23
 -1       781-1.56516E-05 6.32508E-05 0.00000E+00
 -1       782-1.33175E-05 5.27940E-05 0.00000E+00
 -1       783-1.04542E-05 4.08836E-05-5.29396E-23
 -1       784-7.19306E-06 2.78752E-05-2.64698E-23
 -1       785-3.66431E-06 1.41270E-05 0.00000E+00
 -1       786 1.93543E-04 3.23906E-05 0.00000E+00
 -1       787 1.93585E-04 3.01876E-05 0.00000E+00
 -1       788 1.93627E-04 2.80267E-05-8.27181E-25
 -1       789 1.93670E-04 2.58998E-05 8.27181E-25
 -1       790 1.93712E-04 2.38019E-05 0.00000E+00
 -1       791 1.93755E-04 2.17283E-05 0.00000E+00
 -1       792 1.93798E-04 1.96766E-05 0.00000E+00
 -1       793 1.93841E-04 1.76446E-05 0.00000E+00
 -1       794 1.93883E-04 1.56320E-05 1.65436E-24
 -1       795 1.93926E-04 1.36386E-05 8.27181E-25
 -1       796 1.93969E-04 1.16663E-05 0.00000E+00
 -1       797 1.94013E-04 9.71662E-06-8.27181E-25
 -1       798 1.94056E-04 7.79387E-06-1.65436E-24
 -1       799 1.94099E-04 5.90220E-06 0.00000E+00
 -1       800 1.94142E-04 4.04892E-06 1.65436E-24
 -1       801 1.47719E-04 3.11452E-05-2.64698E-23
 -1       802 9.28078E-06 1.94327E-05 0.00000E+00
 -1       803-1.08948E-04 9.82048E-06 0.00000E+00
 -1       804-9.65322E-05 6.83607E-06 2.64698E-23
 -1       805-3.18894E-05 2.68539E-06-5.29396E-23
 -1       806 1.94235E-04 3.23217E-05 0.00000E+00
 -1       807 1.94951E-04 3.00257E-05 0.00000E+00
 -1       808 1.95655E-04 2.77612E-05 0.00000E+00
 -1       809 1.96344E-04 2.55323E-05 1.65436E-24
 -1       810 1.97019E-04 2.33431E-05 0.00000E+00
 -1       811 1.97677E-04 2.11975E-05-1.65436E-24
 -1       812 1.98318E-04 1.90994E-05-3.30872E-24
 -1       813 1.98940E-04 1.70526E-05 0.00000E+00
 -1       814 1.99541E-04 1.50612E-05 3.30872E-24
 -1       815 2.00119E-04 1.31289E-05 8.27181E-25
 -1       816 2.00675E-04 1.12598E-05 0.00000E+00
 -1       817 2.01205E-04 9.45747E-06 0.00000E+00
 -1       818 2.01709E-04 7.72597E-06-1.65436E-24
 -1       819 2.02186E-04 6.06912E-06-8.27181E-25
 -1       820 2.02633E-04 4.49073E-06-3.30872E-24
 -1       821 1.94056E-04-1.55602E-07-1.65436E-24
 -1       822 1.93915E-04-3.77228E-06 0.00000E+00
 -1       823 1.93772E-04-8.16100E-06 0.00000E+00
 -1       824 1.93626E-04-1.28694E-05 0.00000E+00
 -1       825 1.93481E-04-1.73584E-05 0.00000E+00
 -1       826 1.93338E-04-2.10904E-05 1.65436E-24
 -1       827 1.93199E-04-2.37342E-05-3.30872E-24
 -1       828 1.93062E-04-2.49656E-05-1.65436E-24
 -1       829 1.92926E-04-2.48456E-05 3.30872E-24
 -1       830 1.92789E-04-2.34436E-05 0.00000E+00
 -1       831 1.92650E-04-2.11789E-05 0.00000E+00
 -1       832 1.92511E-04-1.84760E-05 1.65436E-24
 -1       833 1.92372E-04-1.58791E-05 0.00000E+00
 -1       834 1.92237E-04-1.39318E-05 0.00000E+00
 -1       835 1.92102E-04-1.30010E-05 0.00000E+00
 -1       836 1.95878E-04 2.36640E-06 0.00000E+00
 -1       837 1.97442E-04 2.49442E-06-1.65436E-24
 -1       838 1.98909E-04 2.62237E-06 0.00000E+00
 -1       839 2.00311E-04 2.74963E-06 0.00000E+00
 -1       840 2.01682E-04 2.87672E-06 8.27181E-25
 -1       856 1.91959E-04-1.45112E-05 0.00000E+00
 -1       857 1.91940E-04-1.54398E-05-2.58494E-26
 -1       858 1.91921E-04-1.62541E-05 0.00000E+00
 -1       859 1.91901E-04-1.69750E-05 2.06795E-25
 -1       860 1.91882E-04-1.76238E-05 0.00000E+00
 -1       861 1.91863E-04-1.82217E-05 0.00000E+00
 -1       862 1.91843E-04-1.87900E-05-4.13590E-25
 -1       863 1.91824E-04-1.93499E-05 0.00000E+00
 -1       864 1.91804E-04-1.99229E-05 0.00000E+00
 -1       865 1.91784E-04-2.05301E-05 0.00000E+00
 -1       866 1.91765E-04-2.11928E-05 0.00000E+00
 -1       867 1.91745E-04-2.19323E-05-4.13590E-25
 -1       868 1.91725E-04-2.27697E-05 0.00000E+00
 -1       869 1.91705E-04-2.37262E-05 0.00000E+00
 -1       870 1.91685E-04-2.48226E-05 0.00000E+00
 -1       871 1.93327E-04-1.34520E-05 8.27181E-25
 -1       872 1.94826E-04-1.34603E-05 0.00000E+00
 -1       873 1.96404E-04-1.34694E-05 0.00000E+00
 -1       874 1.97994E-04-1.34791E-05 2.06795E-25
 -1       875 1.99527E-04-1.34895E-05 1.03398E-24
 -1       876 1.92501E-04-1.44966E-05 0.00000E+00
 -1       877 1.93005E-04-1.54795E-05-1.65436E-24
 -1       878 1.93487E-04-1.64037E-05 3.30872E-24
 -1       879 1.93950E-04-1.72765E-05 1.65436E-24
 -1       880 1.94397E-04-1.81054E-05 0.00000E+00
 -1       881 1.94831E-04-1.88976E-05 1.65436E-24
 -1       882 1.95253E-04-1.96607E-05-3.30872E-24
 -1       883 1.95668E-04-2.04017E-05 0.00000E+00
 -1       884 1.96076E-04-2.11282E-05 3.30872E-24
 -1       885 1.96482E-04-2.18474E-05 0.00000E+00
 -1       886 1.96888E-04-2.25666E-05 0.00000E+00
 -1       887 1.97297E-04-2.32931E-05 0.00000E+00
 -1       888 1.97711E-04-2.40343E-05 0.00000E+00
 -1       889 1.98132E-04-2.47978E-05 0.00000E+00
 -1       890 1.98564E-04-2.55906E-05-1.65436E-24
 -1       891 1.93029E-04-2.61375E-05 1.65436E-24
 -1       892 1.94371E-04-2.61952E-05 0.00000E+00
 -1       893 1.95664E-04-2.62527E-05 8.27181E-25
 -1       894 1.96884E-04-2.63100E-05-4.13590E-25
 -1       895 1.98005E-04-2.63670E-05 4.13590E-25
 -1       956 2.02922E-04 1.67277E-06 0.00000E+00
 -1       957 2.02789E-04 4.42351E-07-8.27181E-25
 -1       958 2.02657E-04-7.07433E-07 3.30872E-24
 -1       959 2.02524E-04-1.78792E-06 0.00000E+00
 -1       960 2.02391E-04-2.81048E-06 3.30872E-24
 -1       961 2.02258E-04-3.78652E-06 1.65436E-24
 -1       962 2.02126E-04-4.72748E-06 0.00000E+00
 -1       963 2.01993E-04-5.64479E-06 0.00000E+00
 -1       964 2.01860E-04-6.54988E-06 0.00000E+00
 -1       965 2.01727E-04-7.45419E-06 1.65436E-24
 -1       966 2.01595E-04-8.36918E-06 0.00000E+00
 -1       967 2.01462E-04-9.30626E-06 1.65436E-24
 -1       968 2.01329E-04-1.02769E-05 0.00000E+00
 -1       969 2.01197E-04-1.12924E-05 3.30872E-24
 -1       970 2.01065E-04-1.23642E-05 3.30872E-24
 -1       971 2.00815E-04-1.46420E-05 3.30872E-24
 -1       972 2.00693E-04-1.56862E-05 0.00000E+00
 -1       973 2.00572E-04-1.66465E-05 0.00000E+00
 -1       974 2.00451E-04-1.75335E-05-1.65436E-24
 -1       975 2.00330E-04-1.83581E-05 0.00000E+00
 -1       976 2.00208E-04-1.91312E-05 0.00000E+00
 -1       977 2.00087E-04-1.98637E-05 3.30872E-24
 -1       978 1.99966E-04-2.05664E-05-1.65436E-24
 -1       979 1.99844E-04-2.12502E-05-3.30872E-24
 -1       980 1.99723E-04-2.19260E-05 1.65436E-24
 -1       981 1.99602E-04-2.26046E-05 0.00000E+00
 -1       982 1.99481E-04-2.32971E-05 0.00000E+00
 -1       983 1.99360E-04-2.40143E-05-3.30872E-24
 -1       984 1.99239E-04-2.47670E-05 0.00000E+00
 -1       985 1.99119E-04-2.55661E-05-3.30872E-24
 -3
    1PSTEP                        22          11           1          
  100CL  111 6.62109E-01         409                     0   11           1
 -4  STRESS      6    1
 -5  SXX         1    4    1    1
 -5  SYY         1    4    2    2
 -5  SZZ         1    4    3    3
 -5  SXY         1    4    1    2
 -5  SYZ         1    4    2    3
 -5  SZX         1    4    3    1
 -1         1-5.34090E+06-1.49698E+06-1.12537E+06-1.22997E+06-2.57569E-09 3.42145E-07
 -1         2 1.72232E+06 2.50247E+07 5.74913E+06 7.65599E+06 2.83762E-08-1.42900E-08
 -1         3-1.48196E+03-1.54261E+06 4.02462E+02-2.18512E+03-3.99485E-10-2.16969E-08
 -1         5-7.50751E+01 3.85949E+05 9.93761E+00-1.33780E+00-6.45994E-10 7.07241E-08
 -1         8-5.44072E+05-1.98763E+05-6.31889E+04-2.34576E+05-6.36646E-11-2.67100E-08
 -1         9 1.19345E+07 4.40962E+06 2.92935E+06-1.62877E+05 4.19095E-10 1.81771E-07
 -1        10-2.29466E+03-1.60751E+06-3.90654E+03-1.47884E+04-1.37607E-08-4.74269E-08
 -1        12-7.11740E+01 3.85971E+05 3.26686E+02-9.12197E+00-5.76627E-10-2.56114E-08
 -1        15 8.97422E+02 4.93179E+02 2.90089E+03 7.51025E-01-1.14170E-10 4.54051E-07
 -1        16 2.29172E+07-3.60129E+05 3.11201E+06-2.36769E+06 1.72877E-08-2.34072E-07
 -1        17 8.40605E+06 6.28613E+06 2.26865E+06 6.00968E+06 2.18744E-08 4.19794E-08
 -1        18 1.42283E+05 3.35736E+04 4.19415E+03-1.19393E+05 1.43057E-08-5.34601E-09
 -1        19 1.22467E+05 1.42625E+05-7.55737E+02 2.18049E+04 2.17915E-09 4.46598E-09
 -1        20-8.22252E+04-5.73493E+05-1.28708E+05 2.49665E+04-1.75123E-09 4.52807E-09
 -1        21-4.54971E+01-2.95631E+05-9.22436E+02 2.75169E+02 1.12434E-08 1.78336E-08
 -1        24 1.41530E+07 1.21587E+07 3.91270E+06 1.12554E+07-1.67172E-07-5.11839E-08
 -1        25 1.24891E+05 2.67100E+05 9.99288E+04-6.45861E+05-3.50192E-09 4.01069E-09
 -1        26-5.51935E+04 9.32428E+04-2.46177E+04 1.24084E+03 1.02591E-09-3.14117E-10
 -1        27-7.55804E+04-3.09826E+05-1.13280E+05 6.89655E+04 3.34921E-09-6.15425E-09
 -1        28 2.22107E+04-8.52770E+04 1.68791E+04 2.05220E+04-4.18302E-09 2.47388E-09
 -1        32-1.67875E+06-3.17987E+06-1.97842E+05 4.59003E+05-4.20914E-08-1.24347E-08
 -1        33-1.78392E+05 9.29077E+04 3.23588E+04-3.85629E+04-3.48480E-09 2.17709E-08
 -1        34-2.23471E+05-2.50184E+04 6.90982E+02 7.56505E+04-5.03593E-09-1.30740E-08
 -1        35-2.28978E+04-3.38203E+04-1.34747E+03 5.14328E+04-4.84527E-09 6.23913E-09
 -1        51 6.12659E+04-1.66443E+05 1.29380E+05-4.21054E+05-2.91038E-11 8.50196E-08
 -1        52 2.06503E+04-1.43718E+05 6.77255E+04-4.91108E+05 3.09228E-10 8.21892E-08
 -1        53 4.09519E+03-1.59015E+05 3.50016E+04-4.19625E+05 1.20053E-10-1.39262E-07
 -1        54 7.00871E+03-1.54789E+05 2.82261E+04-4.92491E+05-2.18279E-10-6.72608E-08
 -1        55 1.53139E+04-1.61545E+05 3.37053E+04-4.19557E+05 3.60160E-10-1.41154E-08
 -1        56-9.87096E+06-1.48331E+06-9.60496E+05-4.18601E+06 7.77072E-09 3.89409E-08
 -1        57-1.12914E+07-5.52961E+05-5.32108E+05-2.48721E+06 4.29573E-08 2.32249E-07
 -1        58-9.53299E+06-1.98972E+06-2.03724E+05-4.43528E+06 1.38971E-09 1.07342E-07
 -1        59-1.16484E+07 5.64081E+04-1.01972E+05-2.40660E+06 1.96133E-09-2.03403E-07
 -1        60-9.64672E+06-1.99106E+06-6.35662E+04-4.38336E+06 7.42148E-09-1.39167E-07
 -1        61-1.07409E+07-3.90296E+05 4.11359E+04-2.66496E+06 2.69938E-09-1.50296E-07
 -1        62-1.02261E+07-1.68832E+06-1.15555E+05-4.00218E+06 3.07627E-08-1.41430E-07
 -1        63-9.50830E+06-1.31993E+06 9.42034E+04-3.53119E+06-2.05473E-08-1.08063E-07
 -1        64-1.06990E+07-1.19082E+06-1.06766E+05-3.40644E+06-3.69328E-08 5.55337E-08
 -1        65-9.11353E+06-2.07937E+06 3.56258E+04-4.74640E+06-5.85205E-08 4.60668E-08
 -1        66-1.08231E+07-7.88371E+05-5.02934E+04-2.94145E+06 1.98415E-08 1.82426E-08
 -1        67-9.21479E+06-2.37550E+06-9.12852E+04-5.33606E+06-9.94551E-08 1.86135E-07
 -1        68-1.08029E+07-7.48717E+05-1.91505E+05-2.94006E+06-6.29116E-08-1.10304E-08
 -1        69-9.30761E+06-2.41559E+06-4.68628E+05-4.71714E+06-2.99624E-08 1.98066E-07
 -1        70-1.05363E+07-8.97949E+05-8.88101E+05-3.43990E+06 2.09693E-08 2.77651E-08
 -1        86-1.75831E+06-1.71930E+07-3.15132E+06-3.58452E+06-2.89070E-07 1.59489E-08
 -1        87 2.80866E+06 7.37964E+06 2.61912E+06 6.43804E+06-5.04151E-07 2.69210E-08
 -1        88-5.50956E+05-1.76071E+06 2.53028E+05-2.76698E+06-4.47686E-07-5.75392E-08
 -1        89 3.75659E+06 7.01498E+06 2.68780E+06 6.67043E+06-6.05236E-07-2.35399E-07
 -1        90-2.58975E+06-1.69199E+07-3.39495E+06-3.85569E+06-1.51598E-07 5.12227E-09
 -1       121-2.02979E+03-1.54749E+06-5.47044E+02 1.08298E+03 1.49120E-09-1.47847E-08
 -1       122-1.29836E+03-1.54267E+06 7.62372E+02-4.37458E+03-5.41154E-09 1.95178E-08
 -1       123-2.04962E+03-1.54762E+06 2.52545E+02 3.23458E+03 4.47778E-09 1.25729E-08
 -1       124 3.20355E+02-1.54223E+06 2.91947E+03-9.15974E+03-1.07702E-08-2.41325E-08
 -1       125-2.85073E+03-1.54851E+06 3.41840E+03 5.82237E+03 6.49379E-09-2.85327E-08
 -1       191-7.91145E+01 3.85968E+05 8.44245E+00 6.97537E-01-5.55520E-10 1.68675E-08
 -1       192-7.60346E+01 3.85950E+05 2.12070E+01-4.29356E+00-6.80667E-10 2.70302E-09
 -1       193-8.16402E+01 3.85967E+05 3.60974E+01 3.77137E+00-1.07421E-09-6.44104E-09
 -1       194-7.91109E+01 3.85953E+05 8.06205E+01-9.74463E+00-6.24960E-10-1.73031E-08
 -1       195-8.64879E+01 3.85965E+05 1.54343E+02 6.34118E+00-1.51021E-09-9.73705E-09
 -1       251-8.84298E+05 1.75250E+04-4.08903E+04-1.63418E+04 6.89629E-09-3.79368E-08
 -1       252-8.99692E+05-2.02878E+04-2.84355E+04 5.88727E+04-1.51133E-08 7.84016E-08
 -1       253-8.93558E+05 2.71044E+03-1.10431E+04-1.20112E+04 8.53106E-10 7.08669E-08
 -1       254-8.84109E+05-3.30160E+03-4.71991E+03 4.27905E+04 3.95585E-09 1.90234E-07
 -1       255-8.99109E+05 1.36849E+01-4.03961E+03-2.64537E+02-1.24805E-09 2.84797E-08
 -1       256-8.77020E+05-2.96096E+02 1.70906E+03 1.57742E+04-2.52601E-09 3.36479E-07
 -1       257-9.00041E+05-7.46274E+02-1.84188E+03 1.49884E+04 2.06592E-09 1.20553E-07
 -1       258-8.80420E+05 1.09843E+03 3.24311E+03-1.30702E+04-7.91442E-09-1.99531E-07
 -1       259-8.95996E+05-1.15499E+03 1.12051E+03 2.85754E+04 5.89057E-09-2.99764E-07
 -1       260-8.88946E+05 3.32776E+03 5.73912E+03-3.40547E+04 5.55104E-09-2.91177E-08
 -1       261-8.92338E+05-2.33641E+03 8.57805E+03 3.59962E+04 2.94280E-08 2.58501E-07
 -1       262-8.88643E+05 1.22026E+04 2.13777E+04-4.03088E+04-2.12784E-08 2.86953E-07
 -1       263-8.96640E+05-9.73116E+03 3.37640E+04 3.48437E+04 4.08704E-09 9.90949E-08
 -1       264-8.56885E+05 6.70124E+04 9.39148E+04-2.96553E+04 1.62180E-08 8.36735E-09
 -1       265-9.23473E+05-5.73789E+04 1.30028E+05 2.53242E+04 9.37393E-09-2.55750E-08
 -1       266-1.62465E+04-7.59774E+03 3.81149E+04-1.60682E+01 1.81899E-12 1.97983E-07
 -1       267 1.88339E+04 8.85401E+03 2.69412E+04 1.85412E+01 3.63343E-10 1.84247E-07
 -1       268-2.52561E+03-1.25404E+03 1.00138E+04-2.36238E+00-3.54703E-11 2.00832E-07
 -1       269 2.98198E+03 1.50075E+03 6.50891E+03 2.75192E+00 1.04023E-10 3.36774E-07
 -1       270-4.47597E+02-2.46585E+02 3.14194E+03-3.73451E-01-4.91127E-11 4.05046E-09
 -1       271-1.41547E+06-1.82184E+05-1.06906E+05-5.52155E+05-5.44860E-08 2.12895E-07
 -1       272-1.39882E+06-2.99726E+05-6.66275E+04-5.99941E+05 2.91147E-08-2.12952E-07
 -1       273-1.43836E+06-2.04048E+05-2.61199E+04-5.44067E+05-4.00069E-08-1.22967E-07
 -1       274-1.37347E+06-2.73170E+05-1.32888E+04-6.15852E+05 1.27766E-08 2.27745E-07
 -1       275-1.44404E+06-2.03115E+05-6.61835E+03-5.40171E+05-7.74889E-10 1.62527E-08
 -1       276-1.36842E+06-2.74403E+05-2.62480E+03-6.25210E+05-5.26052E-09-1.65401E-07
 -1       277-1.44697E+06-2.00217E+05-1.86206E+03-5.37353E+05 1.23036E-08-6.13454E-09
 -1       278-1.36667E+06-2.77642E+05-6.10555E+02-6.32061E+05-5.44605E-09-9.83309E-08
 -1       279-1.44883E+06-1.97923E+05-7.94654E+02-5.35407E+05-3.86353E-09-1.25530E-07
 -1       280-1.36595E+06-2.79976E+05-8.01443E+02-6.36472E+05 3.31283E-09 1.19059E-07
 -1       281-1.44980E+06-1.96555E+05-1.49381E+03-5.34350E+05-2.69083E-08 9.61606E-08
 -1       282-1.36633E+06-2.81838E+05-3.45699E+03-6.38169E+05-1.96442E-08-9.81072E-09
 -1       283-1.44937E+06-1.95578E+05-6.16477E+03-5.34279E+05 4.77252E-08-4.27701E-07
 -1       284-1.37190E+06-2.89665E+05-1.67702E+04-6.35938E+05-5.89607E-08 1.41972E-08
 -1       285-1.44392E+06-1.89834E+05-2.62963E+04-5.36007E+05 1.17698E-08-2.04671E-07
 -1       301-1.25489E+04-6.57438E+05 1.65944E+05-1.16234E+06-3.33239E-09 1.40950E-07
 -1       302-1.57564E+04-6.09271E+05 9.98860E+04-1.69582E+06-4.14584E-08 1.84518E-08
 -1       303-2.61873E+04-6.51222E+05 5.61511E+04-1.15908E+06-9.41509E-09 6.86541E-08
 -1       304-3.13138E+04-6.17441E+05 5.60042E+04-1.69535E+06-5.29690E-09-5.34055E-08
 -1       305-3.08049E+04-6.39740E+05 6.81864E+04-1.16215E+06-3.23780E-09-1.63986E-07
 -1       306-3.00125E+07-6.18143E+06-8.56688E+06-4.45716E+05-5.82077E-08-1.82888E-07
 -1       307 2.50029E+07 3.28814E+06 5.46422E+06-1.53244E+07-8.26272E-07-1.38447E-07
 -1       308-6.83481E+06-9.75158E+05-4.05577E+05 5.19056E+06-2.63943E-07 4.55417E-07
 -1       309-3.07409E+06 8.64393E+06 2.29555E+06-2.06954E+07 2.51850E-07 2.24412E-07
 -1       310-1.27794E+07-1.95676E+06-2.09801E+06 5.18876E+06 1.27475E-07-6.83794E-08
 -1       311 3.88900E+07-4.61788E+04 7.33990E+06-8.51944E+06 6.55855E-07 1.22236E-07
 -1       312-3.19546E+07-6.86898E+06-8.57321E+06-5.21659E+06 1.45286E-07 9.83709E-08
 -1       313 4.51384E+07 1.53664E+07 1.06772E+07 2.40408E+07-1.71596E-07 3.11993E-07
 -1       314-1.70061E+07-1.79060E+07-7.49981E+06-1.25037E+07 3.60713E-07-3.00934E-08
 -1       315-2.11612E+06 2.97901E+07 5.63347E+06 1.02636E+07-7.18821E-07-9.03092E-08
 -1       316 1.47724E+06-9.77586E+06-4.04510E+05-2.44608E+06-1.35036E-06-3.97267E-07
 -1       317-1.70459E+07 2.23980E+07 2.24624E+06-8.92124E+06 7.18792E-07-9.07195E-07
 -1       318-1.12175E+06-1.29000E+07-2.08832E+06-4.25687E+06-8.58650E-07 8.54488E-08
 -1       319 7.38726E+06 3.21125E+07 7.08740E+06 1.67417E+07-9.12332E-08 3.44502E-07
 -1       320-2.26588E+07-1.76824E+07-9.88611E+06-1.28405E+07 1.97208E-07-2.76777E-08
 -1       336-7.57440E+02-1.67521E+06-1.37156E+04 8.79693E+03-2.64208E-08 4.63988E-08
 -1       337-5.37126E+03-1.67470E+06-1.78841E+04-2.13835E+04-4.92080E-08 3.32930E-08
 -1       338 2.52453E+02-1.67470E+06-2.81849E+04 1.23362E+04-3.46245E-08 1.72149E-08
 -1       339-2.99160E+04-1.69176E+06-6.36774E+04-2.83203E+04-6.29952E-08 1.46829E-08
 -1       340 1.96722E+04-1.66031E+06-1.00324E+05 1.56035E+04-4.08872E-08 3.65217E-08
 -1       406-4.95711E+01 3.85950E+05 6.41437E+02 3.33152E+00-1.78900E-09-3.50883E-09
 -1       407 1.54094E+02 3.86084E+05 1.37081E+03 2.33999E+01-4.92363E-10 3.35585E-08
 -1       408 6.32122E+02 3.85850E+05 2.73327E+03-2.70490E+01-2.24986E-09 1.50649E-08
 -1       409 2.89458E+03 3.86957E+05 6.16056E+03 2.88696E+02-2.60798E-10 5.98720E-09
 -1       410 8.44392E+03 3.85063E+05 1.25734E+04-2.78312E+02-2.96859E-09 3.62888E-09
 -1       521-3.16775E+07-7.67295E+06-1.00640E+07-4.45983E+04-1.67987E-07-2.50875E-08
 -1       522 2.59957E+07 4.37955E+06 5.60465E+06-1.89146E+07-5.84318E-07-2.39233E-07
 -1       523-7.40467E+06-1.29786E+06-3.97086E+05 5.66093E+06 2.42377E-07-1.17856E-07
 -1       524-6.57281E+06 1.17994E+07 2.49922E+06-2.38463E+07 7.64267E-07-6.54138E-07
 -1       525-1.35934E+07-2.62368E+06-2.31969E+06 5.67084E+06 5.37373E-07-2.24769E-07
 -1       526 4.27217E+07-1.58077E+05 7.73850E+06-1.11849E+07 9.74396E-08 1.59896E-07
 -1       527-3.39366E+07-8.61015E+06-9.93368E+06-5.09576E+06 6.63917E-07-1.95228E-07
 -1       528 4.95100E+07 1.72684E+07 1.11910E+07 2.74989E+07 1.80909E-07-3.49275E-07
 -1       529-1.79781E+07-2.02254E+07-8.64332E+06-1.25664E+07 1.78115E-07-2.90922E-07
 -1       530-4.61007E+06 3.47743E+07 5.99465E+06 9.67189E+06-5.11936E-08 7.87724E-07
 -1       531 1.50222E+06-1.08710E+07-3.74909E+05-2.36213E+06-8.66668E-07 5.00120E-07
 -1       532-1.95260E+07 2.44637E+07 2.47113E+06-1.33484E+07 4.67830E-07-7.37695E-07
 -1       533-1.15585E+06-1.41125E+07-2.24049E+06-4.03630E+06-2.76312E-07-1.02777E-06
 -1       534 5.43557E+06 3.74946E+07 7.41560E+06 1.74103E+07-7.70669E-08 7.82020E-07
 -1       535-2.39203E+07-2.01889E+07-1.13943E+07-1.29570E+07 8.16071E-08 4.77768E-07
 -1       536-7.05771E+05-4.64659E+04-4.87098E+04-5.46450E+04-5.34737E-09 4.30537E-08
 -1       537-5.52733E+04 4.43680E+04 8.34604E+04 1.23788E+05-1.05390E-07 9.57007E-08
 -1       538-3.94403E+05 3.38088E+03 3.40063E+03-7.21754E+04 4.54780E-08 1.06253E-07
 -1       539-2.69184E+05 2.80346E+03 2.48036E+04 1.38686E+05 1.39341E-07 9.89508E-08
 -1       540-4.97236E+05-4.17993E+02-2.13394E+04-7.00773E+04-1.23696E-08 8.72999E-08
 -1       541 1.46227E+05 1.69494E+04 1.06280E+05 9.78853E+04-2.13856E-08 8.39069E-08
 -1       542-7.98622E+05-2.01196E+04-8.41841E+04-3.05007E+04 2.52203E-08 3.68746E-08
 -1       543 4.04763E+05 2.73055E+04 1.57851E+05-1.33523E+04-1.60444E-08 7.00311E-10
 -1       544-7.48837E+05-1.65257E+04-7.47860E+04 4.04916E+04-6.93931E-08-3.06783E-08
 -1       545 2.86624E+04 9.47647E+03 7.97510E+04-1.13571E+05 9.95897E-09-9.08681E-08
 -1       546-4.32623E+05 6.09206E+03-1.22222E+04 6.93721E+04 4.16862E-08-9.37246E-08
 -1       547-2.87217E+05-4.65548E+03 1.05746E+04-1.41528E+05-1.29043E-07-1.02243E-07
 -1       548-4.41450E+05 4.71797E+03-2.38682E+04 6.91389E+04-1.14592E-07-1.00108E-07
 -1       549 4.78232E+04 1.60541E+04 6.04624E+04-1.11433E+05-6.28617E-08-9.40468E-08
 -1       550-7.58698E+05-2.21196E+04-1.28892E+05 3.85621E+04 3.18960E-09-3.15740E-08
 -1       551 4.06272E+04-7.44960E+05-1.59586E+04-1.24502E+06-1.03857E-07-7.53789E-09
 -1       552 9.29635E+04-7.89832E+05 9.83721E+03-1.77517E+06-7.11152E-08 2.21771E-08
 -1       553 7.15501E+04-7.86271E+05 3.19313E+04-1.23838E+06-1.15993E-07 2.26428E-08
 -1       554 1.31701E+05-8.05725E+05 8.08443E+04-1.77712E+06-7.29051E-08 9.91531E-09
 -1       555 1.01258E+05-8.09917E+05 1.47670E+05-1.23821E+06-1.23575E-07-4.78030E-09
 -1       556 2.23536E+05-3.83447E+05 2.51663E+04-4.06881E+05-2.23226E-08-7.91624E-09
 -1       557 3.53876E+05-4.87697E+05 1.58408E+04-5.27291E+05-2.35741E-09-1.46247E-09
 -1       558 2.05298E+05-3.76152E+05 2.20069E+03-4.11377E+05-2.45927E-08-2.03727E-10
 -1       559 3.28966E+05-4.87698E+05 2.37766E+03-5.47715E+05 1.92667E-08 1.12632E-08
 -1       560 1.90011E+05-3.66565E+05-1.52975E+03-4.22391E+05 7.85803E-09-2.83762E-09
 -1       561 3.09768E+05-4.80010E+05 1.16518E+02-5.60807E+05-7.34872E-09-2.00198E-08
 -1       562 1.77927E+05-3.59059E+05-1.33088E+03-4.31141E+05-3.36149E-09-1.88447E-08
 -1       563 2.95416E+05-4.73752E+05-3.98910E+01-5.70181E+05-9.89530E-09-8.42920E-09
 -1       564 1.69303E+05-3.53686E+05-6.01363E+02-4.37252E+05 9.54606E-09 1.65073E-09
 -1       565 2.85896E+05-4.69606E+05 2.30840E+01-5.76263E+05 6.31553E-09 4.88853E-09
 -1       566 1.64262E+05-3.50497E+05-2.60283E+02-4.40778E+05-4.51837E-09 6.19730E-09
 -1       567 2.81269E+05-4.67594E+05-3.62755E+02-5.79073E+05 1.27056E-08 1.89175E-08
 -1       568 1.62894E+05-3.49659E+05-1.12543E+03-4.41830E+05-3.85171E-09 1.83354E-09
 -1       569 2.80148E+05-4.67520E+05-2.84219E+03-5.77644E+05-3.63798E-09 3.30401E-08
 -1       570 1.66292E+05-3.52891E+05-6.21292E+03-4.40812E+05 8.80391E-09 1.39999E-08
 -1       571 2.89645E+05 1.04571E+04 1.49127E+04-9.54278E+04 3.85353E-09 1.42500E-08
 -1       572 2.91805E+05 3.94454E+03 7.30844E+03-1.04695E+05 4.70118E-09 8.18727E-09
 -1       573 2.90503E+05 1.24363E+03 3.24737E+03-9.52510E+04 9.54333E-09 1.36797E-08
 -1       574 2.90715E+05 7.28290E+02 1.62852E+03-1.04919E+05 1.69646E-08-4.12911E-09
 -1       575 2.90596E+05 4.50052E+02 7.68571E+02-9.52269E+04 4.58679E-09 1.75287E-08
 -1       576 2.90580E+05 4.61711E+02 3.93416E+02-1.04949E+05-6.54563E-09 2.22080E-08
 -1       577 2.90636E+05 3.92011E+02 1.96191E+02-9.52235E+04-2.39652E-09 1.44364E-08
 -1       578 2.90611E+05 4.23456E+02 1.12955E+02-1.04954E+05-2.51021E-09-1.15142E-09
 -1       579 2.90709E+05 3.54994E+02 7.68508E+01-9.52232E+04 8.75480E-09-1.51349E-08
 -1       580 2.90713E+05 3.71926E+02 8.82406E+01-1.04949E+05-1.19690E-08-2.42508E-08
 -1       581 2.90824E+05 2.95622E+02 1.32173E+02-9.52292E+04 5.40240E-09-5.28689E-09
 -1       582 2.90889E+05 3.32200E+02 2.68415E+02-1.04887E+05-9.49512E-10-2.56805E-08
 -1       583 2.90966E+05 3.32047E+02 5.14303E+02-9.52859E+04-1.08266E-08 1.63868E-09
 -1       584 2.91259E+05 7.51926E+02 1.16419E+03-1.04409E+05-1.57088E-08-7.47718E-09
 -1       585 2.90999E+05 1.72854E+03 2.35654E+03-9.57065E+04-9.61336E-09-1.11177E-08
 -1       586-3.42080E+03 1.16827E+05-2.90901E+03-2.50512E+05-7.09315E-09-9.13451E-09
 -1       587-1.33907E+03 1.16579E+05 7.74826E+02-2.75707E+05-1.02445E-08-1.17757E-08
 -1       588 3.97144E+02 1.16385E+05 4.76029E+03-2.50374E+05-5.02223E-09 5.03587E-09
 -1       589 5.08263E+03 1.18858E+05 1.23430E+04-2.75474E+05-1.19653E-08-1.74523E-08
 -1       590 1.66053E+04 1.15051E+05 2.58908E+04-2.50805E+05-8.59654E-09 7.01220E-09
 -1       591-7.37274E+04-1.57131E+04-2.23765E+04-3.13992E+04-1.70576E-09 3.83261E-09
 -1       592-7.78103E+04-1.92253E+04-1.21209E+04-3.49753E+04-5.89580E-10-5.78211E-10
 -1       593-7.59649E+04-1.40897E+04-5.04534E+03-3.30403E+04-1.69840E-09-3.56613E-09
 -1       594-7.47211E+04-1.59415E+04-2.51627E+03-3.50919E+04-3.27790E-09 3.98794E-09
 -1       595-7.61355E+04-1.40844E+04-1.15528E+03-3.31148E+04-2.96525E-09 9.11628E-09
 -1       596-7.45096E+04-1.57913E+04-5.87193E+02-3.50667E+04 5.57841E-09 2.95756E-08
 -1       597-7.61569E+04-1.40997E+04-3.19525E+02-3.31177E+04 2.19956E-09 1.28711E-09
 -1       598-7.44887E+04-1.57854E+04-2.56455E+02-3.50596E+04-4.22949E-09-1.48384E-09
 -1       599-7.61556E+04-1.41002E+04-3.27082E+02-3.31173E+04 3.03885E-10 4.31749E-09
 -1       600-7.45098E+04-1.57919E+04-6.07201E+02-3.50646E+04 3.50497E-10-1.13430E-08
 -1       601-7.61311E+04-1.40856E+04-1.19767E+03-3.31139E+04 3.42175E-09-5.02632E-09
 -1       602-7.47291E+04-1.59465E+04-2.61009E+03-3.50870E+04 9.46216E-10 1.81191E-08
 -1       603-7.59514E+04-1.40940E+04-5.23423E+03-3.30374E+04 1.85355E-09-2.15641E-09
 -1       604-7.79514E+04-1.93338E+04-1.25739E+04-3.49415E+04 1.29630E-08 8.14907E-10
 -1       605-7.36104E+04-1.57957E+04-2.32129E+04-3.13542E+04 6.71713E-09-1.28148E-09
 -1       606 2.65500E+04-1.43425E+04-2.57123E+04 2.38468E+04-2.26737E-09 1.22670E-08
 -1       607 2.21566E+04-4.68384E+03-1.28047E+04 2.67989E+04-1.76087E-08-2.74758E-09
 -1       608 2.46609E+04-8.44528E+02-5.73218E+03 2.36792E+04-1.38461E-08-3.62866E-09
 -1       609 2.41810E+04-2.89071E+02-2.89576E+03 2.70117E+04 1.69530E-09 2.29693E-09
 -1       610 2.44474E+04-4.06644E+01-1.38157E+03 2.36593E+04 2.33194E-09 1.52152E-08
 -1       611 2.43721E+04-4.10280E+01-6.96582E+02 2.70347E+04 4.00905E-09 9.39463E-09
 -1       612 2.44005E+04-2.71073E+01-3.31115E+02 2.36573E+04-9.69521E-10 2.39720E-09
 -1       613 2.43840E+04-3.70859E+01-1.48336E+02 2.70374E+04 4.05817E-09-8.40600E-09
 -1       614 2.43785E+04-3.36668E+01-3.46602E+01 2.36566E+04 3.40242E-09 1.78807E-09
 -1       615 2.43789E+04-3.57143E+01 6.24577E+01 2.70378E+04-1.60480E-09 1.55758E-08
 -1       616 2.43613E+04-3.06387E+01 1.87030E+02 2.36569E+04 6.86668E-11 1.47738E-08
 -1       617 2.44016E+04 4.04577E+00 4.26605E+02 2.70374E+04-8.08541E-10-7.78687E-09
 -1       618 2.43243E+04 9.22696E+01 8.59856E+02 2.36571E+04-1.24924E-08-6.02404E-09
 -1       619 2.47052E+04 6.68828E+02 1.93084E+03 2.70368E+04-2.06599E-08 8.36008E-09
 -1       620 2.40388E+04 2.13116E+03 3.88094E+03 2.36587E+04-1.16119E-08 3.20601E-08
 -1       621 5.29117E+02 3.06877E+05 4.42465E+03 4.02011E+04 8.44648E-09 3.44153E-09
 -1       622 7.65784E+02 3.07925E+05 3.79734E+03 5.92214E+04 5.66251E-09 3.15958E-09
 -1       623 1.36308E+02 3.07131E+05 4.37674E+03 4.00193E+04 9.86665E-09 9.20954E-09
 -1       624 2.22552E+03 3.09144E+05 8.34880E+03 5.93981E+04 6.24971E-09-3.13230E-09
 -1       625 1.93274E+03 3.05478E+05 1.44534E+04 4.00185E+04 1.07630E-08-1.28414E-08
 -1       626 2.60967E+05 6.13427E+04 5.11357E+03 1.26670E+05-1.29694E-09 4.36557E-10
 -1       627 2.58658E+05 6.27326E+04 2.46418E+03 1.30931E+05-1.76988E-09-1.15697E-08
 -1       628 2.61094E+05 5.90035E+04 1.04219E+03 1.27540E+05-8.99490E-10 1.20904E-08
 -1       629 2.58024E+05 6.20528E+04 5.10093E+02 1.31170E+05-5.36602E-10 2.17688E-08
 -1       630 2.61109E+05 5.88904E+04 2.36738E+02 1.27577E+05 3.77258E-09 6.02938E-09
 -1       631 2.57957E+05 6.20268E+04 1.27546E+02 1.31172E+05 7.27709E-09 2.50844E-09
 -1       632 2.61106E+05 5.88943E+04 8.41939E+01 1.27572E+05-3.74121E-09-8.57563E-09
 -1       633 2.57949E+05 6.20285E+04 9.41997E+01 1.31169E+05 6.62180E-09 3.70505E-09
 -1       634 2.61101E+05 5.88914E+04 1.52591E+02 1.27572E+05-4.80003E-09-1.77542E-08
 -1       635 2.57964E+05 6.20268E+04 3.08988E+02 1.31174E+05-4.86841E-09 5.53609E-09
 -1       636 2.61092E+05 5.88856E+04 6.24118E+02 1.27572E+05 2.49247E-09 1.00117E-08
 -1       637 2.58099E+05 6.21238E+04 1.37236E+03 1.31174E+05 6.62294E-09 1.14005E-08
 -1       638 2.61044E+05 5.91887E+04 2.81970E+03 1.27435E+05 4.89354E-09-4.39786E-09
 -1       639 2.59580E+05 6.41838E+04 6.67158E+03 1.30738E+05 4.78121E-09-2.08172E-08
 -1       640 2.60838E+05 6.53403E+04 1.38447E+04 1.24843E+05 5.06589E-09-8.79118E-09
 -1       656 6.65479E+04-1.70333E+06-1.60643E+05-2.55950E+03-5.31145E-10-1.99479E-08
 -1       657-8.80389E+04-1.77592E+06-1.33087E+05 5.13542E+03-8.91305E-10-2.96979E-08
 -1       658 2.12150E+04-1.72395E+06-8.19696E+04-4.63924E+03-3.56067E-10 8.47699E-09
 -1       659-9.52132E+04-1.77933E+06-1.42515E+05 6.86675E+03-1.19326E-09 7.55389E-10
 -1       660 7.37061E+04-1.69994E+06-1.76853E+05-4.29083E+03-2.53203E-09 2.36063E-08
 -1       661 1.57642E+05 1.64878E+04 1.66433E+04 6.16298E+04-2.24600E-09 1.57161E-08
 -1       662 1.67064E+05 2.88016E+04 1.12165E+04 5.78824E+04-1.71525E-09 4.67116E-09
 -1       663 1.60911E+05 2.18273E+04 3.92280E+03 6.06811E+04-6.62567E-10 2.92334E-09
 -1       664 1.63273E+05 2.25574E+04 2.34667E+03 5.90413E+04-1.27670E-09-8.18261E-11
 -1       665 1.61407E+05 2.25566E+04 9.25749E+02 6.05363E+04-1.25169E-09 9.46943E-09
 -1       666 1.62686E+05 2.17236E+04 5.41925E+02 5.92301E+04 2.13510E-09 3.26211E-09
 -1       667 1.61494E+05 2.26395E+04 2.88080E+02 6.05000E+04 4.75580E-10 3.07099E-09
 -1       668 1.62590E+05 2.16640E+04 2.94068E+02 5.92828E+04-7.28863E-09-6.18927E-09
 -1       669 1.61502E+05 2.26144E+04 3.98569E+02 6.04839E+04-4.50754E-09 1.64797E-08
 -1       670 1.62687E+05 2.18804E+04 8.68297E+02 5.92856E+04-1.20997E-08 1.13431E-08
 -1       671 1.61397E+05 2.24276E+04 1.54187E+03 6.04952E+04 9.23620E-10 6.25107E-10
 -1       672 1.63586E+05 2.33804E+04 3.94494E+03 5.90677E+04 3.82704E-09 4.36330E-09
 -1       673 1.60608E+05 2.11525E+04 6.61114E+03 6.06872E+04 4.36899E-09-3.37968E-09
 -1       674 1.69878E+05 3.40018E+04 1.89065E+04 5.72190E+04 2.36810E-10-2.20755E-08
 -1       675 1.55145E+05 1.21036E+04 2.80639E+04 6.22323E+04-4.20050E-09-1.06229E-08
 -1       676 2.40760E+01-2.95553E+05-1.11178E+03-1.37589E+02-2.90186E-10 1.96214E-08
 -1       677-2.94085E+02-2.95822E+05-2.03475E+03 2.74956E+02 1.13849E-08-9.54120E-09
 -1       678 1.97253E+02-2.95362E+05-3.59693E+03-1.37277E+02 2.54204E-09 6.38617E-09
 -1       679-3.59698E+03-2.97994E+05-8.54481E+03 2.73769E+02 5.75164E-09 1.02833E-08
 -1       680 2.14761E+03-2.93383E+05-1.37713E+04-1.34885E+02 8.16726E-10 1.01870E-08
 -1       771-3.05851E+06-7.46743E+05-1.66389E+05-1.46445E+06-3.34985E-08-3.10538E-08
 -1       772-2.98149E+06-8.35671E+05-8.57986E+04-1.56726E+06-2.19006E-08 8.20728E-09
 -1       773-3.09005E+06-7.22157E+05-4.37111E+04-1.47904E+06-1.15251E-08 9.77889E-09
 -1       774-2.97191E+06-8.17062E+05-1.95076E+04-1.59302E+06 3.18541E-08 2.04091E-09
 -1       775-3.10650E+06-7.10619E+05-1.45746E+04-1.48610E+06-4.24916E-09 3.03407E-09
 -1       776-2.98426E+06-8.14015E+05-5.45322E+03-1.61251E+06-7.63976E-09 9.21500E-09
 -1       777-3.12077E+06-7.00321E+05-6.43355E+03-1.49233E+06-5.03496E-09 3.56522E-10
 -1       778-2.99716E+06-8.11186E+05-1.82006E+03-1.62926E+06 8.60018E-09 7.45058E-09
 -1       779-3.13304E+06-6.91324E+05-3.21311E+03-1.49765E+06-1.08266E-08-4.41651E-09
 -1       780-3.00852E+06-8.08488E+05-5.32876E+02-1.64290E+06-1.46683E-08-6.14818E-10
 -1       781-3.14279E+06-6.84070E+05-1.24726E+03-1.50181E+06-3.32511E-08-2.67937E-09
 -1       782-3.01727E+06-8.06199E+05 4.51476E+02-1.65297E+06-3.91665E-08-6.92762E-09
 -1       783-3.14966E+06-6.79030E+05 7.03763E+02-1.50472E+06-4.11819E-09-6.97582E-09
 -1       784-3.02211E+06-8.03910E+05 2.91105E+03-1.65918E+06-2.18315E-08 3.81078E-10
 -1       785-3.15372E+06-6.76022E+05 5.13973E+03-1.50657E+06-3.94284E-08 7.91260E-09
 -1       786 1.23860E+05-9.77424E+03 2.26136E+04-3.23495E+02 1.25453E-09-1.44382E-08
 -1       787 1.33668E+05 1.13164E+04 1.59982E+04-1.34456E+02 6.34834E-09-9.23751E-09
 -1       788 1.27641E+05-1.53164E+03 5.85062E+03-2.88076E+02 1.08482E-09-1.78238E-09
 -1       789 1.29262E+05 1.77284E+03 3.67279E+03-1.88713E+02 8.50235E-11 4.12109E-09
 -1       790 1.28266E+05-2.38468E+02 1.48700E+03-2.69256E+02-7.48849E-09 2.29630E-09
 -1       791 1.28532E+05 2.75895E+02 8.58754E+02-2.20856E+02-6.74838E-09 1.26016E-08
 -1       792 1.28372E+05-3.58205E+01 3.63704E+02-2.55934E+02-6.61520E-09 4.33621E-09
 -1       793 1.28405E+05 3.77461E+01 1.80871E+02-2.45832E+02 1.46807E-09-9.30229E-09
 -1       794 1.28392E+05-4.68986E-01 4.61162E+01-2.44280E+02 3.38282E-09-1.30835E-08
 -1       795 1.28368E+05-2.82639E+01-6.02760E+01-2.70058E+02-3.46669E-09 4.64928E-09
 -1       796 1.28409E+05 3.01526E+01-1.67086E+02-2.31708E+02 4.25745E-09-8.62599E-11
 -1       797 1.28271E+05-2.25066E+02-4.57474E+02-2.98852E+02 4.87672E-09-3.26209E-09
 -1       798 1.28489E+05 1.96185E+02-7.42590E+02-2.15485E+02 2.46726E-09 1.02742E-09
 -1       799 1.27708E+05-1.44612E+03-2.04269E+03-3.38991E+02 6.42926E-09-3.82374E-09
 -1       800 1.28972E+05 1.25021E+03-2.89072E+03-1.91570E+02 5.00046E-10 1.85140E-08
 -1       801-1.70830E+05-9.99332E+06-1.39266E+06 1.41449E+06 9.18517E-08-4.51764E-08
 -1       802 7.37545E+05 5.94495E+06 2.18029E+06-1.74596E+06 2.58580E-07-3.78132E-08
 -1       803-5.36340E+05-1.42623E+07-1.88988E+06 8.97084E+05 7.73216E-08 2.31048E-08
 -1       804 2.87014E+05 2.39341E+06 1.53652E+06 6.77273E+05-1.20228E-07-1.00121E-07
 -1       805 1.89328E+05-6.45588E+06-2.86741E+05-1.00307E+06-4.96148E-08-6.77619E-08
 -1       806-3.08667E+05-5.96706E+04-2.28261E+04-1.22265E+05-8.71296E-09-7.78709E-09
 -1       807-3.10467E+05-5.59397E+04-1.12142E+04-1.27798E+05 5.25506E-09 8.76008E-09
 -1       808-3.09293E+05-5.14446E+04-4.75744E+03-1.26154E+05-4.64024E-09-3.55737E-09
 -1       809-3.08110E+05-5.27884E+04-2.32627E+03-1.28073E+05-4.05453E-09-7.43057E-10
 -1       810-3.09387E+05-5.11582E+04-1.06627E+03-1.26326E+05 1.05965E-08 1.54630E-08
 -1       811-3.07928E+05-5.26618E+04-5.30271E+02-1.28038E+05 1.15824E-09-1.82390E-08
 -1       812-3.09402E+05-5.11829E+04-2.68266E+02-1.26326E+05-9.04038E-10-3.42561E-09
 -1       813-3.07902E+05-5.26639E+04-1.74465E+02-1.28019E+05-2.40107E-09-2.31103E-09
 -1       814-3.09394E+05-5.11926E+04-1.73097E+02-1.26321E+05-3.04226E-09-4.45380E-09
 -1       815-3.07906E+05-5.26662E+04-2.79055E+02-1.28011E+05 4.37285E-09-4.62023E-09
 -1       816-3.09374E+05-5.11917E+04-5.29012E+02-1.26318E+05 1.17443E-08 3.00806E-08
 -1       817-3.07996E+05-5.27166E+04-1.13536E+03-1.28000E+05-1.04396E-08 3.91076E-08
 -1       818-3.09305E+05-5.13520E+04-2.31576E+03-1.26242E+05 1.82627E-09 1.03114E-08
 -1       819-3.09263E+05-5.41155E+04-5.44879E+03-1.27699E+05 2.42608E-09 1.06811E-08
 -1       820-3.08868E+05-5.54682E+04-1.10903E+04-1.24484E+05 1.39516E-09 1.58900E-08
 -1       821-3.80123E+05 2.09451E+04-4.87931E+04 2.19773E+03 1.41589E-08 3.40515E-09
 -1       822-3.99750E+05-2.42658E+04-3.42619E+04-4.68455E+03 5.87102E-09-4.15457E-09
 -1       823-3.87547E+05 3.30377E+03-1.25996E+04 3.59957E+03-1.24086E-08 9.46920E-09
 -1       824-3.90764E+05-3.80901E+03-7.88209E+03-5.68548E+03 3.12723E-09 1.42378E-08
 -1       825-3.89118E+05 5.13800E+02-3.30559E+03 3.19879E+03 2.19567E-08 7.72275E-09
 -1       826-3.88238E+05-5.66205E+02-1.73010E+03-3.31533E+03 2.47114E-08 7.70058E-09
 -1       827-3.90045E+05 4.25276E+01-1.21208E+03 1.22926E+03 1.17851E-08 3.74811E-09
 -1       828-3.87467E+05-1.26326E+02-5.54078E+02 1.10265E+03-3.16697E-09-1.40936E-09
 -1       829-3.89874E+05 6.24804E+01-1.19776E+03-1.21922E+03 1.78082E-09 7.80699E-09
 -1       830-3.88607E+05-6.21772E+02-1.86901E+03 5.11267E+03 2.08067E-09 3.15288E-09
 -1       831-3.88931E+05 5.57426E+02-3.37912E+03-2.78078E+03-4.89476E-09 2.44927E-09
 -1       832-3.90840E+05-3.96950E+03-8.16931E+03 6.48267E+03-3.39318E-09 4.63956E-10
 -1       833-3.87659E+05 3.42122E+03-1.30807E+04-2.58927E+03-2.51303E-09 3.50610E-09
 -1       834-3.99767E+05-2.51312E+04-3.54127E+04 4.41483E+03-2.23724E-09-8.53697E-09
 -1       835-3.79984E+05 2.16844E+04-5.05695E+04-7.12850E+02 5.06762E-09-2.53931E-09
 -1       836-1.40608E+03 3.69890E+05 2.27695E+04-1.63175E+04-7.22412E-09 1.62208E-08
 -1       837 4.85296E+03 3.77023E+05 1.92947E+04-3.33409E+04-7.87463E-09-2.44354E-08
 -1       838-5.57461E+02 3.71884E+05 1.96972E+04-1.62453E+04-6.35555E-09-2.15005E-08
 -1       839 1.24107E+04 3.82651E+05 3.72989E+04-3.33938E+04-6.69661E-09 2.25782E-09
 -1       840-3.83839E+03 3.64202E+05 5.94948E+04-1.62705E+04-6.30098E-09-1.80488E-08
 -1       856-5.14177E+04 7.99859E+03-2.10780E+04-3.97199E+02 2.99747E-09-2.27556E-09
 -1       857-6.01013E+04-9.39815E+03-1.45099E+04 5.62306E+03 5.02692E-09 2.65181E-08
 -1       858-5.48566E+04 1.12173E+03-5.46921E+03-4.21041E+02 1.63186E-09-1.26529E-08
 -1       859-5.61548E+04-1.31974E+03-3.30038E+03 5.65849E+03 2.75278E-10-2.85331E-09
 -1       860-5.53704E+04 1.57099E+02-1.38311E+03-4.32362E+02-1.33008E-09 7.57808E-09
 -1       861-5.55638E+04-1.87598E+02-7.60710E+02 5.67390E+03-1.73245E-10-1.25222E-08
 -1       862-5.54508E+04 2.12744E+01-3.15881E+02-4.36432E+02-2.69747E-09 1.78520E-09
 -1       863-5.54652E+04-2.17444E+01-1.14303E+02 5.67627E+03-3.37400E-09-3.42035E-09
 -1       864-5.54695E+04-4.98219E+00 4.87658E+01-4.34728E+02-2.61983E-09 9.10427E-09
 -1       865-5.54091E+04 6.02369E+01 2.58236E+02 5.66652E+03-2.40721E-09 7.37953E-09
 -1       866-5.55046E+04-6.07083E+01 5.19549E+02-4.26688E+02 6.69274E-10-6.89585E-09
 -1       867-5.51651E+04 5.01364E+02 1.27824E+03 5.64470E+03-1.40608E-09 1.81797E-09
 -1       868-5.57086E+04-4.38102E+02 2.12394E+03-4.12905E+02-2.56279E-09 1.59753E-09
 -1       869-5.36082E+04 3.64634E+03 5.65507E+03 5.60878E+03 5.81878E-09-1.73370E-08
 -1       870-5.70537E+04-3.12021E+03 8.20686E+03-3.90665E+02-5.81815E-09-1.14887E-08
 -1       871-5.51808E+03-2.13437E+04-1.94937E+04 1.30476E+05-4.98221E-09 3.25872E-09
 -1       872-1.98102E+03-2.58770E+04-8.16374E+03 1.69182E+05-1.01318E-08 1.25910E-08
 -1       873 4.06330E+02-2.36841E+04 5.86780E+02 1.30189E+05-6.07997E-09 5.39455E-09
 -1       874 3.30635E+03-2.12750E+04 9.77362E+03 1.69211E+05-1.39617E-08 1.87326E-08
 -1       875 6.84468E+03-2.60127E+04 2.20510E+04 1.30428E+05-5.76438E-09-1.96269E-09
 -1       876 2.93629E+05 4.94718E+04 1.50821E+04 1.17814E+05-7.67182E-09 1.02045E-09
 -1       877 2.94629E+05 5.26449E+04 8.05445E+03 1.22137E+05-2.08865E-08 2.04309E-08
 -1       878 2.95039E+05 4.78011E+04 3.37442E+03 1.19050E+05-1.07963E-07 3.74334E-08
 -1       879 2.92579E+05 5.05988E+04 1.68135E+03 1.22239E+05-2.56113E-07 1.02757E-07
 -1       880 2.95140E+05 4.77838E+04 7.83165E+02 1.19100E+05-7.30818E-07 3.04442E-07
 -1       881 2.92443E+05 5.05113E+04 4.18264E+02 1.22215E+05-1.63277E-06 6.22490E-07
 -1       882 2.95149E+05 4.77971E+04 2.67657E+02 1.19102E+05-3.92243E-06 1.48672E-06
 -1       883 2.92433E+05 5.05067E+04 2.87865E+02 1.22208E+05-4.21543E-06 1.59794E-06
 -1       884 2.95142E+05 4.77942E+04 4.58037E+02 1.19102E+05-2.09898E-05 7.82970E-06
 -1       885 2.92470E+05 5.05131E+04 9.20977E+02 1.22219E+05-3.92242E-05 1.46615E-05
 -1       886 2.95107E+05 4.77674E+04 1.85622E+03 1.19098E+05-2.09853E-05 7.86835E-06
 -1       887 2.92796E+05 5.07270E+04 4.05468E+03 1.22266E+05-4.20541E-06 1.58836E-06
 -1       888 2.94851E+05 4.78125E+04 8.17029E+03 1.18969E+05-3.93372E-06 1.45919E-06
 -1       889 2.97660E+05 5.57854E+04 1.95173E+04 1.22117E+05-1.63039E-06 6.15621E-07
 -1       890 2.91516E+05 5.17738E+04 3.65555E+04 1.15859E+05-7.36268E-07 2.73909E-07
 -1       891-8.93146E+01-1.62649E+05-1.99632E+03 2.70905E+04-5.53655E-10-3.21234E-09
 -1       892-1.75240E+02-1.63177E+05-2.14349E+03 4.11390E+04 3.93129E-10 8.66112E-09
 -1       893 4.38293E+01-1.62714E+05-3.03429E+03 2.70979E+04-3.34080E-09 1.32704E-08
 -1       894-1.50888E+03-1.64323E+05-6.27941E+03 4.09867E+04 2.50839E-09 1.11868E-08
 -1       895-1.19826E+03-1.61406E+05-1.10578E+04 2.72446E+04 6.83372E-10-1.50721E-08
 -1       956-3.77100E+05-5.44910E+03-1.34518E+04 3.08453E+04 5.56975E-09-4.68367E-09
 -1       957-3.79739E+05-1.92216E+03-6.90459E+03 3.70684E+04-3.83216E-09-6.25096E-09
 -1       958-3.78308E+05-2.40751E+02-3.11142E+03 3.06779E+04-5.23323E-09-2.85036E-09
 -1       959-3.78505E+05-1.36115E+02-1.58874E+03 3.72636E+04 5.40240E-09-1.85914E-08
 -1       960-3.78426E+05-4.47030E+01-7.74741E+02 3.06607E+04 2.50657E-09-2.17681E-08
 -1       961-3.78424E+05-6.31378E+01-4.10761E+02 3.72840E+04 4.27690E-09 1.62754E-08
 -1       962-3.78454E+05-4.59746E+01-2.35169E+02 3.06578E+04 2.07046E-09 7.21980E-09
 -1       963-3.78425E+05-5.89920E+01-1.88789E+02 3.72877E+04 4.83351E-09 1.51103E-08
 -1       964-3.78459E+05-4.26618E+01-2.29588E+02 3.06570E+04-1.12055E-09 1.16158E-08
 -1       965-3.78437E+05-5.60726E+01-3.97098E+02 3.72869E+04-3.69164E-09-1.92704E-08
 -1       966-3.78443E+05-3.48588E+01-7.46141E+02 3.06586E+04 1.66210E-09-1.45401E-08
 -1       967-3.78526E+05-1.19649E+02-1.53031E+03 3.72725E+04-2.67846E-09-1.66015E-08
 -1       968-3.78339E+05-2.17375E+02-2.99581E+03 3.06712E+04 9.74069E-10-1.89216E-08
 -1       969-3.79727E+05-1.83446E+03-6.65061E+03 3.71239E+04 3.76667E-09-3.12008E-09
 -1       970-3.77183E+05-5.23022E+03-1.29558E+04 3.07986E+04 8.16726E-10 8.05267E-09
 -1       971-3.45171E+05-1.72553E+03-9.29919E+03 1.53580E+04 7.00129E-09-1.68348E-08
 -1       972-3.47409E+05-1.27039E+03-5.06425E+03 2.12395E+04 8.01083E-09-2.63358E-08
 -1       973-3.46207E+05-6.20228E+01-2.26833E+03 1.52370E+04-2.71575E-09-9.38940E-09
 -1       974-3.46342E+05-8.10866E+01-1.17583E+03 2.13764E+04-1.17334E-08 6.03313E-09
 -1       975-3.46289E+05-1.72121E+01-5.88234E+02 1.52247E+04-4.21142E-09 6.57292E-09
 -1       976-3.46280E+05-3.13113E+01-3.40238E+02 2.13922E+04 6.72389E-09 1.35481E-09
 -1       977-3.46305E+05-1.64736E+01-2.48492E+02 1.52213E+04-7.11407E-09 6.03859E-09
 -1       978-3.46286E+05-2.50976E+01-2.92905E+02 2.13970E+04-9.19590E-09-1.11356E-09
 -1       979-3.46305E+05-8.00239E+00-4.72425E+02 1.52199E+04-4.34699E-09-7.03119E-09
 -1       980-3.46321E+05-2.20378E+01-9.13334E+02 2.13980E+04-1.32650E-09 5.34294E-09
 -1       981-3.46276E+05 1.48311E+01-1.76951E+03 1.52204E+04 3.01236E-09-7.92028E-09
 -1       982-3.46564E+05-1.52778E+02-3.65788E+03 2.13914E+04-3.31170E-10 8.00804E-09
 -1       983-3.46053E+05-9.84644E+01-7.10745E+03 1.52264E+04 5.42059E-09 3.71369E-09
 -1       984-3.49982E+05-3.86477E+03-1.59169E+04 2.13059E+04 7.18887E-09 1.92438E-09
 -1       985-3.42835E+05-5.29924E+03-2.92284E+04 1.52976E+04-9.25411E-10-8.96762E-10
 -3
    1PSTEP                        23          12           1          
  100CL  112 6.62659E-01         409                     0   12           1
 -4  DISP        4    1
 -5  D1          1    2    1    0
 -5  D2          1    2    2    0
 -5  D3          1    2    3    0
 -5  ALL         1    2    0    0    1ALL
 -1         1 2.73120E-03 0.00000E+00 0.00000E+00
 -1         2 1.30385E-03 1.78201E-27-5.29396E-23
 -1         3 3.42621E-04-9.15115E-28 0.00000E+00
 -1         5 1.77079E-04-1.54787E-27 1.65436E-24
 -1         8 2.72068E-03-3.97032E-07 0.00000E+00
 -1         9 2.71375E-03-2.08698E-04 0.00000E+00
 -1        10 3.10682E-04-3.38346E-06-6.61744E-24
 -1        12 1.78925E-04 8.09018E-07-4.13590E-25
 -1        15 2.70873E-03-4.19485E-07 0.00000E+00
 -1        16 2.78703E-03-2.10622E-04 0.00000E+00
 -1        17 2.11443E-04-7.72030E-06 0.00000E+00
 -1        18 1.82874E-04 3.44511E-05 0.00000E+00
 -1        19 1.84464E-04 1.61163E-06 0.00000E+00
 -1        20 1.84602E-04-9.90120E-06 0.00000E+00
 -1        21 1.83709E-04-2.54850E-05 0.00000E+00
 -1        24 3.05843E-05-1.19376E-05 0.00000E+00
 -1        25 1.93674E-04 3.46768E-05 0.00000E+00
 -1        26 1.94356E-04 2.24354E-06 0.00000E+00
 -1        27 1.92143E-04-1.34609E-05 0.00000E+00
 -1        28 1.91831E-04-2.61068E-05 0.00000E+00
 -1        32 0.00000E+00 0.00000E+00 0.00000E+00
 -1        33 2.03230E-04 2.99727E-06 0.00000E+00
 -1        34 2.01111E-04-1.35172E-05 0.00000E+00
 -1        35 1.99178E-04-2.64493E-05 0.00000E+00
 -1        51 2.73049E-03-8.38120E-08-4.96308E-24
 -1        52 2.72919E-03-1.49098E-07 0.00000E+00
 -1        53 2.72744E-03-2.10852E-07 0.00000E+00
 -1        54 2.72535E-03-2.71307E-07 1.65436E-24
 -1        55 2.72306E-03-3.32229E-07 1.65436E-24
 -1        56 2.72275E-03 1.03247E-05-5.29396E-23
 -1        57 2.70550E-03 4.22431E-05 5.29396E-23
 -1        58 2.68204E-03 8.90302E-05 0.00000E+00
 -1        59 2.65562E-03 1.42560E-04 5.29396E-23
 -1        60 2.63031E-03 1.93552E-04 0.00000E+00
 -1        61 2.60995E-03 2.32925E-04 0.00000E+00
 -1        62 2.59720E-03 2.53673E-04 0.00000E+00
 -1        63 2.59371E-03 2.50441E-04-5.29396E-23
 -1        64 2.59918E-03 2.22289E-04-1.05879E-22
 -1        65 2.61249E-03 1.70657E-04 0.00000E+00
 -1        66 2.63132E-03 1.01481E-04 1.05879E-22
 -1        67 2.65310E-03 2.24431E-05 5.29396E-23
 -1        68 2.67495E-03-5.68360E-05 0.00000E+00
 -1        69 2.69402E-03-1.26706E-04 5.29396E-23
 -1        70 2.70769E-03-1.79366E-04 5.29396E-23
 -1        86 1.39255E-03-6.52961E-06-5.29396E-23
 -1        87 1.64870E-03-4.13310E-05 2.64698E-23
 -1        88 1.99317E-03-1.01277E-04-5.29396E-23
 -1        89 2.34253E-03-1.62970E-04 0.00000E+00
 -1        90 2.61047E-03-2.00742E-04-5.29396E-23
 -1       121 3.41724E-04-5.46191E-07 0.00000E+00
 -1       122 3.39037E-04-1.09547E-06-6.61744E-24
 -1       123 3.34570E-04-1.65086E-06-1.32349E-23
 -1       124 3.28338E-04-2.21542E-06 0.00000E+00
 -1       125 3.20366E-04-2.79179E-06 0.00000E+00
 -1       191 1.77130E-04 1.34900E-07-8.27181E-25
 -1       192 1.77284E-04 2.69789E-07 1.65436E-24
 -1       193 1.77540E-04 4.04657E-07 8.27181E-25
 -1       194 1.77899E-04 5.39494E-07 4.13590E-25
 -1       195 1.78361E-04 6.74285E-07 8.27181E-25
 -1       251 2.72038E-03 1.58679E-06-6.61744E-24
 -1       252 2.72008E-03 3.45471E-06 3.30872E-24
 -1       253 2.71977E-03 4.15274E-06 6.61744E-24
 -1       254 2.71947E-03 2.64143E-06 0.00000E+00
 -1       255 2.71915E-03-1.78364E-06 6.61744E-24
 -1       256 2.71881E-03-9.79042E-06-3.30872E-24
 -1       257 2.71844E-03-2.15041E-05 0.00000E+00
 -1       258 2.71802E-03-3.70034E-05-3.30872E-24
 -1       259 2.71755E-03-5.57939E-05 0.00000E+00
 -1       260 2.71702E-03-7.73398E-05 6.61744E-24
 -1       261 2.71645E-03-1.00687E-04-1.32349E-23
 -1       262 2.71586E-03-1.24861E-04-6.61744E-24
 -1       263 2.71528E-03-1.48761E-04 0.00000E+00
 -1       264 2.71473E-03-1.71287E-04-6.61744E-24
 -1       265 2.71422E-03-1.91554E-04 0.00000E+00
 -1       266 2.71869E-03-4.06279E-07 1.65436E-24
 -1       267 2.71670E-03-4.09350E-07 4.13590E-25
 -1       268 2.71471E-03-4.12812E-07 4.13590E-25
 -1       269 2.71271E-03-4.15116E-07 2.06795E-25
 -1       270 2.71072E-03-4.17392E-07 2.06795E-25
 -1       271 2.71992E-03-9.17962E-08 0.00000E+00
 -1       272 2.72019E-03-2.61516E-06 6.61744E-24
 -1       273 2.72145E-03-7.79432E-06 0.00000E+00
 -1       274 2.72362E-03-1.54429E-05-6.61744E-24
 -1       275 2.72662E-03-2.53530E-05 0.00000E+00
 -1       276 2.73035E-03-3.73007E-05 0.00000E+00
 -1       277 2.73473E-03-5.10451E-05 0.00000E+00
 -1       278 2.73967E-03-6.63319E-05 0.00000E+00
 -1       279 2.74506E-03-8.28947E-05 0.00000E+00
 -1       280 2.75081E-03-1.00457E-04 0.00000E+00
 -1       281 2.75682E-03-1.18734E-04 0.00000E+00
 -1       282 2.76298E-03-1.37436E-04-6.61744E-24
 -1       283 2.76918E-03-1.56269E-04 0.00000E+00
 -1       284 2.77532E-03-1.74940E-04-6.61744E-24
 -1       285 2.78131E-03-1.93154E-04 0.00000E+00
 -1       301 2.72706E-03-2.09056E-04 1.32349E-23
 -1       302 2.73867E-03-2.09364E-04 0.00000E+00
 -1       303 2.74952E-03-2.09661E-04 0.00000E+00
 -1       304 2.76057E-03-2.09958E-04 6.61744E-24
 -1       305 2.77276E-03-2.10271E-04 0.00000E+00
 -1       306 2.75199E-03-3.64845E-04 1.05879E-22
 -1       307 2.81584E-03-7.80314E-04 0.00000E+00
 -1       308 2.86241E-03-1.38631E-03 1.05879E-22
 -1       309 2.88640E-03-2.08642E-03 5.29396E-23
 -1       310 2.91812E-03-2.75478E-03 0.00000E+00
 -1       311 2.97790E-03-3.26835E-03 5.29396E-23
 -1       312 3.03534E-03-3.54678E-03-2.11758E-22
 -1       313 3.02917E-03-3.55287E-03 0.00000E+00
 -1       314 2.88548E-03-3.29927E-03 0.00000E+00
 -1       315 2.56379E-03-2.85096E-03 0.00000E+00
 -1       316 2.08313E-03-2.28466E-03 0.00000E+00
 -1       317 1.51007E-03-1.66951E-03 0.00000E+00
 -1       318 9.59267E-04-1.06582E-03 0.00000E+00
 -1       319 5.38779E-04-5.38450E-04 5.29396E-23
 -1       320 2.92200E-04-1.61611E-04 0.00000E+00
 -1       336 2.99100E-04-4.03773E-06-1.32349E-23
 -1       337 2.85442E-04-4.71767E-06 0.00000E+00
 -1       338 2.69770E-04-5.42552E-06-1.32349E-23
 -1       339 2.52157E-04-6.16211E-06 0.00000E+00
 -1       340 2.32684E-04-6.93192E-06-1.32349E-23
 -1       406 1.79592E-04 9.43675E-07-2.48154E-24
 -1       407 1.80361E-04 1.07822E-06-1.65436E-24
 -1       408 1.81233E-04 1.21260E-06 4.13590E-25
 -1       409 1.82208E-04 1.34664E-06 8.27181E-25
 -1       410 1.83285E-04 1.48006E-06 1.24077E-24
 -1       521 2.82585E-03-3.76098E-04 0.00000E+00
 -1       522 2.88787E-03-8.12286E-04 0.00000E+00
 -1       523 2.92779E-03-1.44689E-03 0.00000E+00
 -1       524 2.94225E-03-2.17661E-03 5.29396E-23
 -1       525 2.96582E-03-2.87254E-03 0.00000E+00
 -1       526 3.02199E-03-3.40884E-03 0.00000E+00
 -1       527 3.07905E-03-3.69811E-03 2.11758E-22
 -1       528 3.07047E-03-3.70223E-03 5.29396E-23
 -1       529 2.91425E-03-3.43393E-03 2.11758E-22
 -1       530 2.56757E-03-2.96642E-03-5.29396E-23
 -1       531 2.05037E-03-2.38033E-03-1.05879E-22
 -1       532 1.43585E-03-1.74741E-03-5.29396E-23
 -1       533 8.44367E-04-1.12528E-03 0.00000E+00
 -1       534 3.89427E-04-5.76408E-04 0.00000E+00
 -1       535 1.21023E-04-1.79503E-04 0.00000E+00
 -1       536 2.10688E-04 2.72056E-05-6.61744E-24
 -1       537 2.08770E-04 8.76531E-05 1.65436E-24
 -1       538 2.05805E-04 1.64354E-04 0.00000E+00
 -1       539 2.02308E-04 2.47956E-04-1.65436E-24
 -1       540 1.99161E-04 3.26954E-04 3.30872E-24
 -1       541 1.97116E-04 3.89866E-04 0.00000E+00
 -1       542 1.96172E-04 4.29938E-04-3.30872E-24
 -1       543 1.95947E-04 4.40563E-04 0.00000E+00
 -1       544 1.95624E-04 4.22516E-04 3.30872E-24
 -1       545 1.94451E-04 3.76790E-04 0.00000E+00
 -1       546 1.92266E-04 3.11514E-04 3.30872E-24
 -1       547 1.89307E-04 2.34935E-04 1.65436E-24
 -1       548 1.86375E-04 1.58733E-04 3.30872E-24
 -1       549 1.84260E-04 9.45839E-05 1.65436E-24
 -1       550 1.83161E-04 5.05214E-05 0.00000E+00
 -1       551 1.86244E-04-8.28835E-06 0.00000E+00
 -1       552 1.57800E-04-8.93685E-06 0.00000E+00
 -1       553 1.27054E-04-9.64760E-06-3.30872E-24
 -1       554 9.49643E-05-1.03995E-05 3.30872E-24
 -1       555 6.24896E-05-1.11652E-05 0.00000E+00
 -1       556 2.03795E-04 1.18349E-05 0.00000E+00
 -1       557 1.97616E-04 2.76947E-05 0.00000E+00
 -1       558 1.92772E-04 4.01468E-05 0.00000E+00
 -1       559 1.89130E-04 4.95019E-05 0.00000E+00
 -1       560 1.86559E-04 5.60705E-05 0.00000E+00
 -1       561 1.84932E-04 6.01662E-05 0.00000E+00
 -1       562 1.84124E-04 6.21034E-05 0.00000E+00
 -1       563 1.84010E-04 6.21978E-05-1.32349E-23
 -1       564 1.84469E-04 6.07656E-05 0.00000E+00
 -1       565 1.85380E-04 5.81240E-05-6.61744E-24
 -1       566 1.86623E-04 5.45907E-05 0.00000E+00
 -1       567 1.88079E-04 5.04835E-05 0.00000E+00
 -1       568 1.89630E-04 4.61209E-05 0.00000E+00
 -1       569 1.91158E-04 4.18208E-05 0.00000E+00
 -1       570 1.92545E-04 3.79016E-05 0.00000E+00
 -1       571 1.82971E-04 3.23196E-05 1.65436E-24
 -1       572 1.83069E-04 3.01223E-05 8.27181E-25
 -1       573 1.83168E-04 2.78749E-05-3.30872E-24
 -1       574 1.83267E-04 2.55939E-05 0.00000E+00
 -1       575 1.83366E-04 2.32957E-05 3.30872E-24
 -1       576 1.83465E-04 2.09968E-05 0.00000E+00
 -1       577 1.83565E-04 1.87138E-05-3.30872E-24
 -1       578 1.83664E-04 1.64633E-05 0.00000E+00
 -1       579 1.83763E-04 1.42619E-05 0.00000E+00
 -1       580 1.83863E-04 1.21260E-05 0.00000E+00
 -1       581 1.83963E-04 1.00724E-05 0.00000E+00
 -1       582 1.84063E-04 8.11738E-06 3.30872E-24
 -1       583 1.84163E-04 6.27766E-06-6.61744E-24
 -1       584 1.84263E-04 4.56956E-06 3.30872E-24
 -1       585 1.84363E-04 3.00928E-06 0.00000E+00
 -1       586 1.84633E-04 3.44909E-05-1.65436E-24
 -1       587 1.86351E-04 3.45300E-05 8.27181E-25
 -1       588 1.88071E-04 3.45689E-05 8.27181E-25
 -1       589 1.89836E-04 3.46070E-05 0.00000E+00
 -1       590 1.91690E-04 3.46439E-05 0.00000E+00
 -1       591 1.83605E-04 3.24141E-05 0.00000E+00
 -1       592 1.84339E-04 3.03577E-05 2.06795E-25
 -1       593 1.85078E-04 2.82878E-05-8.27181E-25
 -1       594 1.85819E-04 2.62088E-05-4.13590E-25
 -1       595 1.86562E-04 2.41256E-05-8.27181E-25
 -1       596 1.87305E-04 2.20426E-05 0.00000E+00
 -1       597 1.88046E-04 1.99646E-05-8.27181E-25
 -1       598 1.88783E-04 1.78960E-05-4.13590E-25
 -1       599 1.89515E-04 1.58416E-05 8.27181E-25
 -1       600 1.90241E-04 1.38059E-05 0.00000E+00
 -1       601 1.90957E-04 1.17935E-05 0.00000E+00
 -1       602 1.91663E-04 9.80895E-06 2.06795E-25
 -1       603 1.92357E-04 7.85694E-06 0.00000E+00
 -1       604 1.93038E-04 5.94216E-06 1.80946E-25
 -1       605 1.93704E-04 4.06910E-06 4.13590E-25
 -1       606 1.84477E-04 4.47541E-07 0.00000E+00
 -1       607 1.84486E-04-6.31125E-07 1.65436E-24
 -1       608 1.84495E-04-1.62938E-06 0.00000E+00
 -1       609 1.84504E-04-2.55286E-06 0.00000E+00
 -1       610 1.84512E-04-3.40731E-06 0.00000E+00
 -1       611 1.84520E-04-4.19846E-06 0.00000E+00
 -1       612 1.84528E-04-4.93210E-06 0.00000E+00
 -1       613 1.84537E-04-5.61403E-06 0.00000E+00
 -1       614 1.84545E-04-6.25000E-06 0.00000E+00
 -1       615 1.84553E-04-6.84581E-06 8.27181E-25
 -1       616 1.84562E-04-7.40726E-06 0.00000E+00
 -1       617 1.84570E-04-7.94010E-06 0.00000E+00
 -1       618 1.84578E-04-8.45013E-06 0.00000E+00
 -1       619 1.84587E-04-8.94314E-06 0.00000E+00
 -1       620 1.84595E-04-9.42491E-06 0.00000E+00
 -1       621 1.85823E-04 1.71747E-06 1.65436E-24
 -1       622 1.87344E-04 1.82362E-06 8.27181E-25
 -1       623 1.88992E-04 1.92956E-06-1.65436E-24
 -1       624 1.90733E-04 2.03517E-06 0.00000E+00
 -1       625 1.92532E-04 2.14049E-06 1.65436E-24
 -1       626 1.85012E-04 4.83732E-07 0.00000E+00
 -1       627 1.85538E-04-5.81517E-07 0.00000E+00
 -1       628 1.86044E-04-1.59195E-06 0.00000E+00
 -1       629 1.86532E-04-2.55570E-06 0.00000E+00
 -1       630 1.87007E-04-3.48097E-06 0.00000E+00
 -1       631 1.87469E-04-4.37592E-06-1.65436E-24
 -1       632 1.87924E-04-5.24875E-06 3.30872E-24
 -1       633 1.88373E-04-6.10765E-06 0.00000E+00
 -1       634 1.88820E-04-6.96083E-06 0.00000E+00
 -1       635 1.89268E-04-7.81645E-06-1.65436E-24
 -1       636 1.89720E-04-8.68272E-06-3.30872E-24
 -1       637 1.90179E-04-9.56784E-06 0.00000E+00
 -1       638 1.90648E-04-1.04800E-05-1.65436E-24
 -1       639 1.91130E-04-1.14274E-05 8.27181E-25
 -1       640 1.91628E-04-1.24183E-05 1.65436E-24
 -1       656 1.85311E-04-1.04798E-05 0.00000E+00
 -1       657 1.86439E-04-1.10819E-05-6.61744E-24
 -1       658 1.87847E-04-1.16826E-05-1.32349E-23
 -1       659 1.89389E-04-1.22829E-05-6.61744E-24
 -1       660 1.90882E-04-1.28851E-05 0.00000E+00
 -1       661 1.84868E-04-1.04227E-05 0.00000E+00
 -1       662 1.85170E-04-1.10364E-05 0.00000E+00
 -1       663 1.85506E-04-1.17370E-05 1.65436E-24
 -1       664 1.85871E-04-1.25179E-05 8.27181E-25
 -1       665 1.86265E-04-1.33732E-05 0.00000E+00
 -1       666 1.86684E-04-1.42971E-05-8.27181E-25
 -1       667 1.87127E-04-1.52838E-05 0.00000E+00
 -1       668 1.87592E-04-1.63277E-05 8.27181E-25
 -1       669 1.88075E-04-1.74233E-05-1.65436E-24
 -1       670 1.88576E-04-1.85653E-05 0.00000E+00
 -1       671 1.89093E-04-1.97485E-05 0.00000E+00
 -1       672 1.89622E-04-2.09677E-05 0.00000E+00
 -1       673 1.90163E-04-2.22179E-05 1.65436E-24
 -1       674 1.90713E-04-2.34943E-05 0.00000E+00
 -1       675 1.91271E-04-2.47916E-05-2.06795E-25
 -1       676 1.85067E-04-2.55892E-05-3.30872E-24
 -1       677 1.86425E-04-2.56934E-05 0.00000E+00
 -1       678 1.87781E-04-2.57976E-05 0.00000E+00
 -1       679 1.89134E-04-2.59014E-05 0.00000E+00
 -1       680 1.90484E-04-2.60052E-05-1.65436E-24
 -1       771 1.86290E-05 1.48004E-05 0.00000E+00
 -1       772 8.57145E-06 3.67598E-05 0.00000E+00
 -1       773 3.20890E-07 5.41710E-05 0.00000E+00
 -1       774-6.24710E-06 6.72921E-05-2.64698E-23
 -1       775-1.12542E-05 7.63916E-05 5.29396E-23
 -1       776-1.48272E-05 8.17549E-05 2.64698E-23
 -1       777-1.70923E-05 8.36771E-05-5.29396E-23
 -1       778-1.81786E-05 8.24677E-05 0.00000E+00
 -1       779-1.82145E-05 7.84444E-05-5.29396E-23
 -1       780-1.73303E-05 7.19362E-05 2.64698E-23
 -1       781-1.56556E-05 6.32792E-05 0.00000E+00
 -1       782-1.33212E-05 5.28183E-05-2.64698E-23
 -1       783-1.04573E-05 4.09027E-05 5.29396E-23
 -1       784-7.19530E-06 2.78883E-05 2.64698E-23
 -1       785-3.66548E-06 1.41337E-05-5.29396E-23
 -1       786 1.93712E-04 3.24214E-05-1.29247E-26
 -1       787 1.93754E-04 3.02165E-05-4.13590E-25
 -1       788 1.93796E-04 2.80538E-05-8.27181E-25
 -1       789 1.93838E-04 2.59249E-05 0.00000E+00
 -1       790 1.93881E-04 2.38251E-05 1.65436E-24
 -1       791 1.93924E-04 2.17496E-05-8.27181E-25
 -1       792 1.93967E-04 1.96959E-05 1.65436E-24
 -1       793 1.94010E-04 1.76619E-05 8.27181E-25
 -1       794 1.94053E-04 1.56474E-05 0.00000E+00
 -1       795 1.94096E-04 1.36520E-05 8.27181E-25
 -1       796 1.94139E-04 1.16776E-05 1.65436E-24
 -1       797 1.94182E-04 9.72602E-06-8.27181E-25
 -1       798 1.94225E-04 7.80133E-06 1.65436E-24
 -1       799 1.94269E-04 5.90777E-06-8.27181E-25
 -1       800 1.94312E-04 4.05268E-06 1.65436E-24
 -1       801 1.47858E-04 3.11751E-05 2.64698E-23
 -1       802 9.33232E-06 1.94494E-05 0.00000E+00
 -1       803-1.08977E-04 9.82616E-06 0.00000E+00
 -1       804-9.65706E-05 6.84003E-06-2.64698E-23
 -1       805-3.19033E-05 2.68687E-06 0.00000E+00
 -1       806 1.94404E-04 3.23524E-05 0.00000E+00
 -1       807 1.95121E-04 3.00544E-05 0.00000E+00
 -1       808 1.95825E-04 2.77879E-05 0.00000E+00
 -1       809 1.96515E-04 2.55571E-05 0.00000E+00
 -1       810 1.97191E-04 2.33659E-05-3.30872E-24
 -1       811 1.97850E-04 2.12183E-05 1.65436E-24
 -1       812 1.98491E-04 1.91182E-05-3.30872E-24
 -1       813 1.99113E-04 1.70695E-05 0.00000E+00
 -1       814 1.99715E-04 1.50761E-05-3.30872E-24
 -1       815 2.00294E-04 1.31419E-05 1.65436E-24
 -1       816 2.00850E-04 1.12709E-05 0.00000E+00
 -1       817 2.01381E-04 9.46675E-06 1.65436E-24
 -1       818 2.01886E-04 7.73350E-06 1.65436E-24
 -1       819 2.02363E-04 6.07497E-06-1.65436E-24
 -1       820 2.02811E-04 4.49497E-06 0.00000E+00
 -1       821 1.94226E-04-1.61702E-07 0.00000E+00
 -1       822 1.94085E-04-3.79941E-06 0.00000E+00
 -1       823 1.93942E-04-8.21819E-06-3.30872E-24
 -1       824 1.93795E-04-1.29617E-05 0.00000E+00
 -1       825 1.93650E-04-1.74857E-05 0.00000E+00
 -1       826 1.93507E-04-2.12469E-05-1.65436E-24
 -1       827 1.93367E-04-2.39107E-05 0.00000E+00
 -1       828 1.93230E-04-2.51490E-05 1.65436E-24
 -1       829 1.93094E-04-2.50230E-05 0.00000E+00
 -1       830 1.92957E-04-2.36023E-05 0.00000E+00
 -1       831 1.92819E-04-2.13097E-05-3.30872E-24
 -1       832 1.92679E-04-1.85738E-05 1.65436E-24
 -1       833 1.92541E-04-1.59440E-05 0.00000E+00
 -1       834 1.92405E-04-1.39693E-05 0.00000E+00
 -1       835 1.92269E-04-1.30202E-05 0.00000E+00
 -1       836 1.96049E-04 2.36855E-06-3.30872E-24
 -1       837 1.97614E-04 2.49668E-06 1.65436E-24
 -1       838 1.99083E-04 2.62475E-06 3.30872E-24
 -1       839 2.00487E-04 2.75212E-06 8.27181E-25
 -1       840 2.01858E-04 2.87933E-06 0.00000E+00
 -1       856 1.92127E-04-1.45261E-05 0.00000E+00
 -1       857 1.92108E-04-1.54557E-05 2.58494E-26
 -1       858 1.92089E-04-1.62707E-05 2.06795E-25
 -1       859 1.92069E-04-1.69924E-05 2.06795E-25
 -1       860 1.92050E-04-1.76419E-05-4.13590E-25
 -1       861 1.92030E-04-1.82404E-05 2.06795E-25
 -1       862 1.92011E-04-1.88093E-05-4.13590E-25
 -1       863 1.91991E-04-1.93699E-05 0.00000E+00
 -1       864 1.91972E-04-1.99435E-05 8.27181E-25
 -1       865 1.91952E-04-2.05513E-05 0.00000E+00
 -1       866 1.91932E-04-2.12148E-05 0.00000E+00
 -1       867 1.91913E-04-2.19550E-05 0.00000E+00
 -1       868 1.91893E-04-2.27933E-05-8.27181E-25
 -1       869 1.91873E-04-2.37507E-05 0.00000E+00
 -1       870 1.91852E-04-2.48482E-05 8.27181E-25
 -1       871 1.93496E-04-1.34659E-05-8.27181E-25
 -1       872 1.94996E-04-1.34742E-05 0.00000E+00
 -1       873 1.96576E-04-1.34832E-05-4.13590E-25
 -1       874 1.98168E-04-1.34930E-05 2.58494E-25
 -1       875 1.99702E-04-1.35034E-05 8.27181E-25
 -1       876 1.92669E-04-1.45115E-05-3.30872E-24
 -1       877 1.93174E-04-1.54954E-05 0.00000E+00
 -1       878 1.93656E-04-1.64205E-05 3.30872E-24
 -1       879 1.94120E-04-1.72942E-05-1.65436E-24
 -1       880 1.94568E-04-1.81239E-05 0.00000E+00
 -1       881 1.95001E-04-1.89170E-05 0.00000E+00
 -1       882 1.95424E-04-1.96808E-05 3.30872E-24
 -1       883 1.95839E-04-2.04226E-05 0.00000E+00
 -1       884 1.96248E-04-2.11498E-05 0.00000E+00
 -1       885 1.96654E-04-2.18697E-05 0.00000E+00
 -1       886 1.97061E-04-2.25897E-05 0.00000E+00
 -1       887 1.97470E-04-2.33170E-05 0.00000E+00
 -1       888 1.97884E-04-2.40590E-05 0.00000E+00
 -1       889 1.98306E-04-2.48232E-05-1.65436E-24
 -1       890 1.98738E-04-2.56169E-05 1.65436E-24
 -1       891 1.93197E-04-2.61644E-05 1.65436E-24
 -1       892 1.94541E-04-2.62221E-05 0.00000E+00
 -1       893 1.95835E-04-2.62797E-05 1.65436E-24
 -1       894 1.97057E-04-2.63370E-05 0.00000E+00
 -1       895 1.98179E-04-2.63941E-05 0.00000E+00
 -1       956 2.03099E-04 1.67414E-06-3.30872E-24
 -1       957 2.02967E-04 4.42460E-07 0.00000E+00
 -1       958 2.02834E-04-7.08505E-07-3.30872E-24
 -1       959 2.02701E-04-1.79010E-06 0.00000E+00
 -1       960 2.02569E-04-2.81371E-06 0.00000E+00
 -1       961 2.02436E-04-3.79077E-06 1.65436E-24
 -1       962 2.02303E-04-4.73269E-06-3.30872E-24
 -1       963 2.02170E-04-5.65094E-06 1.65436E-24
 -1       964 2.02037E-04-6.55695E-06 0.00000E+00
 -1       965 2.01904E-04-7.46218E-06-1.65436E-24
 -1       966 2.01772E-04-8.37808E-06-3.30872E-24
 -1       967 2.01639E-04-9.31610E-06 1.65436E-24
 -1       968 2.01506E-04-1.02877E-05 0.00000E+00
 -1       969 2.01373E-04-1.13042E-05-3.30872E-24
 -1       970 2.01241E-04-1.23771E-05 0.00000E+00
 -1       971 2.00991E-04-1.46570E-05 0.00000E+00
 -1       972 2.00869E-04-1.57023E-05 0.00000E+00
 -1       973 2.00748E-04-1.66635E-05-3.30872E-24
 -1       974 2.00627E-04-1.75514E-05-1.65436E-24
 -1       975 2.00505E-04-1.83768E-05 0.00000E+00
 -1       976 2.00384E-04-1.91507E-05 0.00000E+00
 -1       977 2.00262E-04-1.98840E-05 0.00000E+00
 -1       978 2.00141E-04-2.05874E-05-1.65436E-24
 -1       979 2.00020E-04-2.12719E-05 0.00000E+00
 -1       980 1.99898E-04-2.19484E-05 1.65436E-24
 -1       981 1.99777E-04-2.26278E-05 0.00000E+00
 -1       982 1.99656E-04-2.33210E-05 0.00000E+00
 -1       983 1.99535E-04-2.40389E-05 0.00000E+00
 -1       984 1.99414E-04-2.47924E-05 0.00000E+00
 -1       985 1.99294E-04-2.55923E-05 0.00000E+00
 -3
    1PSTEP                        24          12           1          
  100CL  112 6.62659E-01         409                     0   12           1
 -4  STRESS      6    1
 -5  SXX         1    4    1    1
 -5  SYY         1    4    2    2
 -5  SZZ         1    4    3    3
 -5  SXY         1    4    1    2
 -5  SYZ         1    4    2    3
 -5  SZX         1    4    3    1
 -1         1-5.34835E+06-1.54302E+06-1.13039E+06-1.28830E+06 1.39698E-09-1.98983E-07
 -1         2 1.60624E+06 2.34559E+07 5.42330E+06 7.12943E+06 2.83471E-08 3.78204E-08
 -1         3-1.48642E+03-1.55078E+06 4.04269E+02-2.19992E+03-5.53243E-10 6.19912E-08
 -1         5-7.52216E+01 3.86299E+05 9.94741E+00-1.34139E+00-4.50301E-10 2.06655E-08
 -1         8-5.47859E+05-1.99329E+05-6.25879E+04-2.39329E+05 5.02041E-10-4.21023E-08
 -1         9 1.18672E+07 4.12443E+06 2.86297E+06-2.49553E+05 3.25963E-10-3.12924E-08
 -1        10-2.30087E+03-1.61602E+06-3.92799E+03-1.48873E+04-1.38480E-08-2.54965E-08
 -1        12-7.13171E+01 3.86320E+05 3.27012E+02-9.14420E+00-6.98744E-10 3.41606E-08
 -1        15 9.12115E+02 5.01253E+02 2.94838E+03 7.85858E-01-1.58451E-11 2.95517E-08
 -1        16 2.29354E+07-3.45403E+05 3.11804E+06-2.32689E+06 2.56114E-08 1.08344E-07
 -1        17 8.40419E+06 6.29320E+06 2.26937E+06 6.01818E+06 2.36731E-08 1.90106E-08
 -1        18 1.42580E+05 3.36488E+04 4.24143E+03-1.19499E+05 1.55449E-08-8.62110E-09
 -1        19 1.22569E+05 1.42754E+05-7.55843E+02 2.18212E+04 2.08165E-09 7.17118E-09
 -1        20-8.22907E+04-5.73967E+05-1.28814E+05 2.49864E+04-2.89932E-09 7.97930E-09
 -1        21-4.55326E+01-2.95876E+05-9.23203E+02 2.75661E+02 1.71630E-08-3.00279E-08
 -1        24 1.41170E+07 1.21447E+07 3.90536E+06 1.12433E+07-1.63728E-07-5.56077E-08
 -1        25 1.25318E+05 2.68494E+05 1.00304E+05-6.46576E+05-3.25508E-09 2.68956E-09
 -1        26-5.51797E+04 9.33445E+04-2.46241E+04 1.23031E+03 1.12705E-09-1.66290E-09
 -1        27-7.56164E+04-3.10076E+05-1.13367E+05 6.90253E+04 4.38937E-09 8.22123E-09
 -1        28 2.22288E+04-8.53475E+04 1.68930E+04 2.05395E+04-4.43788E-09-2.02975E-09
 -1        32-1.67989E+06-3.18147E+06-1.97769E+05 4.59741E+05-4.24625E-08-1.10416E-08
 -1        33-1.78531E+05 9.29911E+04 3.23867E+04-3.86083E+04-3.00323E-09 2.81943E-10
 -1        34-2.23655E+05-2.50400E+04 6.91498E+02 7.57136E+04-7.28804E-09-1.25854E-08
 -1        35-2.29167E+04-3.38483E+04-1.34859E+03 5.14754E+04-3.51249E-09 5.36359E-09
 -1        51 6.10579E+04-1.68870E+05 1.29016E+05-4.28474E+05-4.36557E-11 4.63988E-08
 -1        52 2.06141E+04-1.46256E+05 6.75894E+04-4.99745E+05 1.52795E-10 8.30987E-08
 -1        53 4.13056E+03-1.61588E+05 3.50203E+04-4.27011E+05 5.09317E-10 4.30227E-08
 -1        54 7.15371E+03-1.57367E+05 2.84218E+04-5.01170E+05 2.87400E-10-1.29243E-07
 -1        55 1.56133E+04-1.64224E+05 3.41551E+04-4.26933E+05 7.34872E-10-1.18216E-08
 -1        56-9.83762E+06-1.43133E+06-9.39481E+05-4.14158E+06-2.11003E-08-4.45492E-07
 -1        57-1.11984E+07-6.81401E+05-5.40269E+05-2.59581E+06 2.67319E-08-1.87785E-07
 -1        58-9.56916E+06-1.91986E+06-2.02702E+05-4.36439E+06 5.44969E-09 1.81753E-08
 -1        59-1.14689E+07-1.06422E+05-1.05162E+05-2.51668E+06-1.06440E-07 3.96976E-08
 -1        60-9.67355E+06-1.92240E+06-6.06688E+04-4.31418E+06-2.14131E-08 6.74918E-08
 -1        61-1.06827E+07-5.02176E+05 2.88256E+04-2.77428E+06-3.00352E-08 1.34794E-07
 -1        62-1.01789E+07-1.64354E+06-9.66082E+04-3.96483E+06-5.71890E-09 6.39557E-09
 -1        63-9.60515E+06-1.33257E+06 7.48671E+04-3.56775E+06 1.28712E-08 9.87347E-09
 -1        64-1.06059E+07-1.19592E+06-8.90831E+04-3.43024E+06-3.94648E-08 4.16694E-08
 -1        65-9.21316E+06-2.02366E+06 2.45261E+04-4.64107E+06-2.20607E-08-8.35121E-08
 -1        66-1.07362E+07-8.37652E+05-4.87862E+04-3.01708E+06-1.47775E-08-1.09419E-07
 -1        67-9.26904E+06-2.30385E+06-9.44148E+04-5.15686E+06-7.03731E-08-4.16039E-08
 -1        68-1.07163E+07-7.98090E+05-1.89390E+05-3.01610E+06-5.12227E-08 4.51400E-08
 -1        69-9.40685E+06-2.36178E+06-4.78183E+05-4.60982E+06-5.77420E-08-4.20914E-08
 -1        70-1.04424E+07-9.01828E+05-8.65866E+05-3.46466E+06 3.67436E-10-3.18978E-07
 -1        86-1.63933E+06-1.64032E+07-2.97065E+06-3.34325E+06-2.81707E-07-2.95404E-08
 -1        87 2.59791E+06 6.84255E+06 2.46995E+06 6.09126E+06-4.74589E-07 4.95493E-09
 -1        88-4.99507E+05-1.85823E+06 2.36107E+05-2.66668E+06-4.09200E-07-6.66778E-08
 -1        89 3.47660E+06 6.51269E+06 2.53309E+06 6.30336E+06-5.80774E-07-4.75540E-07
 -1        90-2.41304E+06-1.61570E+07-3.20358E+06-3.58909E+06-1.64622E-07 1.73459E-08
 -1       121-2.03601E+03-1.55567E+06-5.48007E+02 1.09034E+03 1.45046E-09 1.04992E-08
 -1       122-1.30163E+03-1.55084E+06 7.66058E+02-4.40407E+03-5.47051E-09-1.28057E-08
 -1       123-2.05576E+03-1.55581E+06 2.55832E+02 3.25646E+03 4.22858E-09 1.39553E-08
 -1       124 3.26310E+02-1.55039E+06 2.93446E+03-9.21846E+03-1.06675E-08 1.20199E-08
 -1       125-2.86076E+03-1.55670E+06 3.43834E+03 5.85880E+03 6.22276E-09-9.05857E-09
 -1       191-7.92686E+01 3.86317E+05 8.44710E+00 6.99416E-01-5.52921E-10 3.65253E-09
 -1       192-7.61821E+01 3.86299E+05 2.12281E+01-4.30222E+00-8.13815E-10-6.23368E-09
 -1       193-8.17969E+01 3.86316E+05 3.61297E+01 3.77866E+00-1.05718E-09-2.26828E-09
 -1       194-7.92617E+01 3.86302E+05 8.07010E+01-9.76307E+00-5.17289E-10 3.18687E-09
 -1       195-8.66497E+01 3.86314E+05 1.54493E+02 6.35339E+00-1.45255E-09 1.37534E-08
 -1       251-8.65591E+05 1.65286E+04-3.85725E+04-1.49988E+04-1.27393E-10 3.20160E-08
 -1       252-8.80074E+05-1.91345E+04-2.68160E+04 5.34726E+04 5.97333E-09-9.66938E-08
 -1       253-8.74310E+05 2.53988E+03-1.04163E+04-1.06301E+04 9.22228E-10-1.19376E-07
 -1       254-8.65911E+05-3.09314E+03-4.53944E+03 3.82153E+04-1.01375E-09 1.50229E-07
 -1       255-8.79079E+05 3.44293E+01-3.69958E+03 2.54149E+02-8.85620E-10 1.39236E-07
 -1       256-8.60001E+05-2.76477E+02 1.38884E+03 1.34665E+04-2.28101E-09 1.22278E-07
 -1       257-8.79727E+05-6.41887E+02-1.54249E+03 1.41054E+04-2.83080E-09 3.16442E-08
 -1       258-8.63102E+05 9.86481E+02 2.90275E+03-1.26133E+04-9.40508E-09 1.96893E-07
 -1       259-8.76248E+05-1.02074E+03 1.29723E+03 2.63310E+04 7.75208E-09-2.92976E-08
 -1       260-8.70252E+05 3.09615E+03 5.65575E+03-3.14538E+04-1.11927E-08-1.91802E-07
 -1       261-8.73280E+05-2.21001E+03 8.67434E+03 3.29647E+04 3.10629E-08-8.00214E-08
 -1       262-8.69256E+05 1.19982E+04 2.15685E+04-3.69950E+04-9.01903E-09 1.78994E-07
 -1       263-8.77527E+05-9.67108E+03 3.41391E+04 3.18834E+04 4.76666E-09 8.92906E-08
 -1       264-8.38174E+05 6.73765E+04 9.46606E+04-2.73165E+04 4.02264E-08 1.48742E-07
 -1       265-9.03820E+05-5.77537E+04 1.31568E+05 2.32718E+04 3.00028E-08 3.91978E-07
 -1       266-1.65125E+04-7.72210E+03 3.87391E+04-1.68134E+01 7.27596E-12-1.17305E-07
 -1       267 1.91423E+04 8.99897E+03 2.73822E+04 1.94010E+01 5.00222E-12-6.02463E-07
 -1       268-2.56695E+03-1.27457E+03 1.01777E+04-2.47193E+00-1.50067E-10-2.95498E-07
 -1       269 3.03081E+03 1.52532E+03 6.61547E+03 2.87954E+00 1.64732E-10 7.92991E-08
 -1       270-4.54925E+02-2.50622E+02 3.19338E+03-3.90771E-01 8.61746E-11 1.11694E-07
 -1       271-1.44634E+06-1.85091E+05-1.09098E+05-5.63487E+05 4.98403E-08 2.45826E-07
 -1       272-1.43587E+06-3.00557E+05-6.82721E+04-6.06618E+05 1.48248E-09 1.78918E-07
 -1       273-1.46954E+06-2.07847E+05-2.65508E+04-5.55436E+05 2.01580E-08 1.09303E-08
 -1       274-1.40979E+06-2.73050E+05-1.36684E+04-6.22130E+05-6.03904E-09 3.85007E-08
 -1       275-1.47517E+06-2.07171E+05-6.66869E+03-5.51608E+05 1.68839E-08 3.22376E-07
 -1       276-1.40445E+06-2.74127E+05-2.73324E+03-6.31095E+05-3.39860E-08 1.89248E-07
 -1       277-1.47804E+06-2.04417E+05-1.86064E+03-5.48840E+05 3.71238E-08 1.39853E-07
 -1       278-1.40248E+06-2.77341E+05-6.61225E+02-6.37668E+05-3.84898E-08 1.12700E-07
 -1       279-1.47987E+06-2.02204E+05-8.27581E+02-5.46914E+05 2.68374E-08-2.07151E-08
 -1       280-1.40161E+06-2.79704E+05-8.93319E+02-6.41938E+05-1.97529E-08 2.44659E-07
 -1       281-1.48082E+06-2.00850E+05-1.65642E+03-5.45853E+05-1.51867E-08 7.22486E-08
 -1       282-1.40199E+06-2.81716E+05-3.84342E+03-6.43628E+05-1.85200E-08 1.18034E-07
 -1       283-1.48036E+06-1.99751E+05-6.84629E+03-5.45759E+05-3.38306E-08 1.13321E-07
 -1       284-1.40815E+06-2.90549E+05-1.86381E+04-6.41418E+05 6.77099E-08 2.74667E-09
 -1       285-1.47446E+06-1.93155E+05-2.91591E+04-5.47518E+05 6.03086E-09-1.62310E-07
 -1       301-9.93457E+03-6.53057E+05 1.66433E+05-1.15113E+06 4.59841E-09 1.12646E-07
 -1       302-1.24258E+04-6.05573E+05 1.00166E+05-1.67981E+06 7.85803E-10 2.99442E-08
 -1       303-2.40409E+04-6.46246E+05 5.64280E+04-1.14793E+06 1.44428E-08-1.64440E-07
 -1       304-2.81376E+04-6.13226E+05 5.64929E+04-1.67929E+06-1.78989E-09-7.10388E-08
 -1       305-2.85474E+04-6.34848E+05 6.90692E+04-1.15101E+06-5.55519E-09-2.70666E-09
 -1       306-3.00974E+07-6.20588E+06-8.59736E+06-4.69137E+05-9.72068E-08-4.85452E-08
 -1       307 2.51841E+07 3.29434E+06 5.49309E+06-1.53067E+07-7.88074E-07 1.29221E-07
 -1       308-6.88065E+06-9.99245E+05-4.23490E+05 5.20545E+06-4.56057E-08 2.16227E-07
 -1       309-3.14286E+06 8.71382E+06 2.29729E+06-2.07115E+07 5.08728E-07 2.30655E-07
 -1       310-1.27106E+07-1.95934E+06-2.07966E+06 5.21077E+06-2.43424E-07-8.36299E-08
 -1       311 3.87988E+07-1.90235E+04 7.33082E+06-8.64161E+06 8.97096E-07-3.22587E-07
 -1       312-3.19926E+07-6.84352E+06-8.57586E+06-5.15635E+06 4.56115E-07 1.43511E-07
 -1       313 4.53302E+07 1.52746E+07 1.06931E+07 2.40029E+07-5.18339E-08 3.17930E-07
 -1       314-1.71013E+07-1.78981E+07-7.52287E+06-1.25322E+07 5.02623E-07-4.40632E-08
 -1       315-2.01085E+06 2.98326E+07 5.65681E+06 1.03789E+07-6.36122E-07 1.23982E-07
 -1       316 1.45659E+06-9.81023E+06-4.18189E+05-2.46922E+06-1.31347E-06-2.16940E-07
 -1       317-1.70750E+07 2.24385E+07 2.24953E+06-8.91551E+06 9.03565E-07-6.85883E-07
 -1       318-1.10024E+06-1.28801E+07-2.07666E+06-4.24746E+06-8.87492E-07 9.13860E-08
 -1       319 7.34340E+06 3.21303E+07 7.08402E+06 1.67261E+07-9.33942E-08 3.16766E-07
 -1       320-2.26638E+07-1.77008E+07-9.89229E+06-1.28501E+07 1.93832E-07-3.57686E-08
 -1       336-7.53753E+02-1.68407E+06-1.37854E+04 8.85878E+03-2.60134E-08 1.84082E-09
 -1       337-5.39206E+03-1.68358E+06-1.79817E+04-2.15269E+04-4.69979E-08-1.90394E-08
 -1       338 2.62486E+02-1.68356E+06-2.83339E+04 1.24171E+04-3.43953E-08 2.79833E-08
 -1       339-3.00704E+04-1.70074E+06-6.40251E+04-2.84993E+04-6.25159E-08 7.36145E-09
 -1       340 1.97894E+04-1.66908E+06-1.00866E+05 1.57005E+04-4.16003E-08 1.79680E-08
 -1       406-4.96963E+01 3.86299E+05 6.42075E+02 3.34312E+00-1.93089E-09 1.38079E-08
 -1       407 1.54176E+02 3.86433E+05 1.37218E+03 2.34053E+01-4.93344E-10 5.73345E-09
 -1       408 6.32679E+02 3.86199E+05 2.73600E+03-2.70660E+01-2.36651E-09 2.18643E-08
 -1       409 2.89740E+03 3.87307E+05 6.16671E+03 2.88956E+02-3.31283E-10 1.97542E-08
 -1       410 8.45230E+03 3.85412E+05 1.25860E+04-2.78588E+02-2.80852E-09 8.80937E-09
 -1       521-3.17166E+07-7.68733E+06-1.00788E+07-7.04503E+04-1.30152E-07 1.08441E-07
 -1       522 2.61292E+07 4.36489E+06 5.62139E+06-1.88704E+07-4.61907E-07-1.46916E-07
 -1       523-7.45078E+06-1.31864E+06-4.14892E+05 5.66732E+06 1.95461E-07-3.29863E-07
 -1       524-6.64818E+06 1.18403E+07 2.49487E+06-2.38292E+07 9.31032E-07-4.41851E-07
 -1       525-1.35160E+07-2.61568E+06-2.29431E+06 5.68120E+06 8.64442E-07-4.28787E-07
 -1       526 4.25205E+07-1.23606E+05 7.71515E+06-1.13038E+07 7.41042E-07-1.90426E-07
 -1       527-3.39238E+07-8.57122E+06-9.91713E+06-5.02797E+06 1.93133E-07-8.01811E-09
 -1       528 4.96340E+07 1.71120E+07 1.11866E+07 2.73947E+07 2.34577E-08-9.99134E-08
 -1       529-1.80609E+07-2.01785E+07-8.65280E+06-1.25800E+07-4.08618E-08-1.07568E-07
 -1       530-4.50332E+06 3.47530E+07 6.00683E+06 9.80071E+06-4.06217E-07 3.40922E-07
 -1       531 1.47245E+06-1.08960E+07-3.89254E+05-2.39500E+06-1.04011E-06 3.05125E-07
 -1       532-1.95640E+07 2.44788E+07 2.46833E+06-1.33029E+07 3.86659E-07-6.25427E-07
 -1       533-1.13768E+06-1.40685E+07-2.22160E+06-4.03446E+06-3.00643E-07-9.60892E-07
 -1       534 5.36777E+06 3.74272E+07 7.39677E+06 1.73586E+07-5.70435E-09 7.66828E-07
 -1       535-2.38943E+07-2.01682E+07-1.13789E+07-1.29465E+07 1.38418E-07 4.86616E-07
 -1       536-7.06254E+05-4.66338E+04-4.85361E+04-5.47081E+04-2.10184E-09 6.77828E-08
 -1       537-5.47864E+04 4.45504E+04 8.37411E+04 1.23902E+05-1.08160E-07 9.64592E-08
 -1       538-3.94425E+05 3.36880E+03 3.46786E+03-7.22315E+04 3.08140E-08 1.14994E-07
 -1       539-2.69009E+05 2.82998E+03 2.48797E+04 1.38800E+05 1.54450E-07 1.15695E-07
 -1       540-4.97415E+05-4.24167E+02-2.13569E+04-7.01408E+04 9.52696E-10 9.97735E-08
 -1       541 1.46975E+05 1.69780E+04 1.06440E+05 9.79809E+04-3.74439E-08 8.77976E-08
 -1       542-7.99200E+05-2.01474E+04-8.42963E+04-3.05366E+04 2.54317E-08 4.90762E-08
 -1       543 4.05853E+05 2.73431E+04 1.58072E+05-1.33634E+04-1.14601E-08 4.92173E-09
 -1       544-7.49349E+05-1.65488E+04-7.48883E+04 4.05332E+04-9.22591E-09-3.55693E-08
 -1       545 2.92426E+04 9.49150E+03 7.98667E+04-1.13675E+05 5.47793E-08-6.58642E-08
 -1       546-4.32704E+05 6.09867E+03-1.22374E+04 6.94278E+04 2.33642E-08-8.95531E-08
 -1       547-2.87077E+05-4.65553E+03 1.06001E+04-1.41645E+05-1.27457E-07-1.16005E-07
 -1       548-4.41534E+05 4.72036E+03-2.38872E+04 6.91952E+04-1.20327E-07-8.72919E-08
 -1       549 4.84185E+04 1.61033E+04 6.05819E+04-1.11538E+05-6.35997E-08-6.14439E-08
 -1       550-7.59222E+05-2.21728E+04-1.29015E+05 3.86049E+04 6.75118E-09-3.58668E-08
 -1       551 4.07326E+04-7.47943E+05-1.59550E+04-1.24633E+06-1.02460E-07-6.25732E-09
 -1       552 9.31656E+04-7.92900E+05 9.86402E+03-1.77707E+06-7.04604E-08 4.41214E-08
 -1       553 7.16984E+04-7.89314E+05 3.19779E+04-1.23968E+06-1.19428E-07 3.52593E-08
 -1       554 1.31944E+05-8.08809E+05 8.09468E+04-1.77902E+06-7.53062E-08 1.67202E-08
 -1       555 1.01427E+05-8.12967E+05 1.47848E+05-1.23951E+06-1.20701E-07-1.44846E-08
 -1       556 2.23741E+05-3.83733E+05 2.54120E+04-4.07187E+05-2.11294E-08-2.42144E-08
 -1       557 3.54241E+05-4.88068E+05 1.59728E+04-5.27656E+05-9.16771E-10-5.66797E-09
 -1       558 2.05490E+05-3.76466E+05 2.24860E+03-4.11669E+05-3.02971E-08-1.29367E-08
 -1       559 3.29263E+05-4.88093E+05 2.40343E+03-5.48111E+05 2.08529E-08-8.54925E-09
 -1       560 1.90179E+05-3.66866E+05-1.52270E+03-4.22702E+05 1.13505E-08-2.37924E-09
 -1       561 3.10032E+05-4.80393E+05 1.21422E+02-5.61225E+05-3.92902E-09-1.15288E-08
 -1       562 1.78075E+05-3.59346E+05-1.33124E+03-4.31467E+05 5.23869E-09-1.93395E-08
 -1       563 2.95655E+05-4.74125E+05-3.90207E+01-5.70615E+05 4.22006E-10-9.10768E-09
 -1       564 1.69436E+05-3.53964E+05-6.02162E+02-4.37588E+05 1.04774E-09-1.16497E-08
 -1       565 2.86118E+05-4.69971E+05 2.32980E+01-5.76709E+05 1.71713E-09 3.89991E-09
 -1       566 1.64386E+05-3.50769E+05-2.60679E+02-4.41121E+05-3.68163E-09-6.32645E-09
 -1       567 2.81482E+05-4.67955E+05-3.63107E+02-5.79525E+05 2.26573E-08-5.75528E-09
 -1       568 1.63014E+05-3.49929E+05-1.12675E+03-4.42176E+05 7.67614E-10 2.11221E-08
 -1       569 2.80357E+05-4.67881E+05-2.84564E+03-5.78097E+05-1.41590E-08 2.62698E-08
 -1       570 1.66414E+05-3.53164E+05-6.22053E+03-4.41156E+05 1.09649E-08 1.89693E-08
 -1       571 2.89884E+05 1.04656E+04 1.49242E+04-9.55214E+04 6.22094E-10-4.83260E-09
 -1       572 2.92045E+05 3.94807E+03 7.31410E+03-1.04797E+05 3.13958E-09-5.56611E-09
 -1       573 2.90742E+05 1.24504E+03 3.24988E+03-9.53445E+04 4.44834E-09-4.38013E-09
 -1       574 2.90954E+05 7.29372E+02 1.62979E+03-1.05022E+05 6.04086E-09-1.42427E-09
 -1       575 2.90835E+05 4.50875E+02 7.69167E+02-9.53203E+04-1.16103E-09 5.95082E-09
 -1       576 2.90819E+05 4.62595E+02 3.93722E+02-1.05052E+05-8.08177E-09 9.00400E-10
 -1       577 2.90875E+05 3.92781E+02 1.96341E+02-9.53169E+04-5.14410E-09 9.71977E-09
 -1       578 2.90850E+05 4.24285E+02 1.13039E+02-1.05056E+05-6.74663E-09-5.39330E-10
 -1       579 2.90948E+05 3.55695E+02 7.68983E+01-9.53166E+04 7.62338E-09-7.26322E-09
 -1       580 2.90953E+05 3.72657E+02 8.82856E+01-1.05052E+05-9.95078E-09 5.91081E-09
 -1       581 2.91063E+05 2.96200E+02 1.32222E+02-9.53226E+04 7.24140E-09 6.19184E-09
 -1       582 2.91128E+05 3.32790E+02 2.68516E+02-1.04990E+05 4.12911E-09 1.78879E-08
 -1       583 2.91205E+05 3.32496E+02 5.14474E+02-9.53794E+04-5.20231E-10 5.81849E-10
 -1       584 2.91499E+05 7.52511E+02 1.16459E+03-1.04511E+05 1.39698E-09 3.23280E-09
 -1       585 2.91239E+05 1.72936E+03 2.35732E+03-9.58003E+04-8.18545E-10 4.08909E-09
 -1       586-3.42338E+03 1.16944E+05-2.91001E+03-2.50702E+05-5.11454E-09-1.26693E-08
 -1       587-1.34060E+03 1.16697E+05 7.76067E+02-2.75916E+05-6.42467E-09-2.08980E-08
 -1       588 3.96817E+02 1.16502E+05 4.76430E+03-2.50564E+05-5.89534E-09 1.11359E-08
 -1       589 5.08584E+03 1.18977E+05 1.23528E+04-2.75683E+05-8.52015E-09 1.77934E-08
 -1       590 1.66175E+04 1.15168E+05 2.59111E+04-2.50995E+05-2.58751E-09 1.15706E-08
 -1       591-7.38079E+04-1.57309E+04-2.23979E+04-3.14349E+04-4.32465E-10-1.00963E-08
 -1       592-7.78941E+04-1.92472E+04-1.21325E+04-3.50152E+04 2.84081E-09 1.13569E-08
 -1       593-7.60476E+04-1.41060E+04-5.05016E+03-3.30775E+04-5.02621E-09-4.93651E-09
 -1       594-7.48019E+04-1.59602E+04-2.51867E+03-3.51319E+04-1.27393E-08-2.10137E-08
 -1       595-7.62184E+04-1.41006E+04-1.15638E+03-3.31521E+04-8.38627E-09 5.70566E-10
 -1       596-7.45902E+04-1.58099E+04-5.87755E+02-3.51067E+04 4.44072E-09 4.26812E-09
 -1       597-7.62398E+04-1.41159E+04-3.19831E+02-3.31549E+04-3.10450E-09-1.51500E-08
 -1       598-7.45693E+04-1.58039E+04-2.56703E+02-3.50996E+04-7.14545E-09 1.32611E-08
 -1       599-7.62385E+04-1.41164E+04-3.27402E+02-3.31546E+04 4.35421E-09 7.08405E-09
 -1       600-7.45904E+04-1.58104E+04-6.07797E+02-3.51046E+04 3.41117E-09-5.28036E-09
 -1       601-7.62139E+04-1.41019E+04-1.19884E+03-3.31511E+04-1.42063E-09 1.39655E-08
 -1       602-7.48099E+04-1.59652E+04-2.61265E+03-3.51269E+04 8.35826E-10-7.31347E-09
 -1       603-7.60341E+04-1.41102E+04-5.23936E+03-3.30745E+04 7.20729E-09-1.06916E-08
 -1       604-7.80354E+04-1.93558E+04-1.25862E+04-3.49813E+04 9.93793E-09-1.18234E-08
 -1       605-7.36908E+04-1.58136E+04-2.32357E+04-3.13897E+04 8.71103E-09 1.56169E-08
 -1       606 2.65731E+04-1.43549E+04-2.57345E+04 2.38671E+04-4.19641E-09 4.43742E-09
 -1       607 2.21759E+04-4.68796E+03-1.28157E+04 2.68218E+04-2.23818E-08 5.07862E-09
 -1       608 2.46822E+04-8.45326E+02-5.73713E+03 2.36994E+04-1.47393E-08 1.30781E-08
 -1       609 2.42019E+04-2.89388E+02-2.89825E+03 2.70348E+04 2.61207E-09 3.91140E-09
 -1       610 2.44685E+04-4.07571E+01-1.38277E+03 2.36795E+04 3.20415E-09 1.02564E-08
 -1       611 2.43932E+04-4.11195E+01-6.97183E+02 2.70578E+04 5.42059E-09 5.79348E-10
 -1       612 2.44216E+04-2.71776E+01-3.31402E+02 2.36775E+04 6.33918E-10 6.68251E-10
 -1       613 2.44051E+04-3.71642E+01-1.48466E+02 2.70605E+04-7.27596E-10 9.92827E-09
 -1       614 2.43996E+04-3.37342E+01-3.46934E+01 2.36768E+04-2.00089E-11 1.58147E-08
 -1       615 2.44000E+04-3.57837E+01 6.25061E+01 2.70609E+04-1.55387E-09 2.43049E-08
 -1       616 2.43823E+04-3.06971E+01 1.87180E+02 2.36770E+04-6.25278E-09-9.77252E-10
 -1       617 2.44227E+04 4.01419E+00 4.26951E+02 2.70604E+04-1.46747E-08-2.25584E-08
 -1       618 2.43453E+04 9.23152E+01 8.60552E+02 2.36773E+04-8.84120E-09-1.87642E-08
 -1       619 2.47265E+04 6.69338E+02 1.93241E+03 2.70598E+04-5.00529E-09-6.86305E-09
 -1       620 2.40596E+04 2.13286E+03 3.88409E+03 2.36789E+04-3.52384E-09-5.88443E-09
 -1       621 5.29938E+02 3.07165E+05 4.43082E+03 4.02399E+04 8.44420E-09 1.27238E-09
 -1       622 7.66947E+02 3.08215E+05 3.80206E+03 5.92783E+04 5.53655E-09-1.52500E-08
 -1       623 1.36554E+02 3.07420E+05 4.38142E+03 4.00579E+04 9.79117E-09 9.43146E-09
 -1       624 2.22786E+03 3.09434E+05 8.35708E+03 5.94552E+04 6.04729E-09-1.42245E-09
 -1       625 1.93473E+03 3.05765E+05 1.44674E+04 4.00571E+04 1.07648E-08 5.57293E-09
 -1       626 2.61178E+05 6.13917E+04 5.11624E+03 1.26773E+05 1.23373E-09-8.05449E-09
 -1       627 2.58866E+05 6.27832E+04 2.46547E+03 1.31037E+05 2.43017E-09-1.69075E-08
 -1       628 2.61305E+05 5.90513E+04 1.04273E+03 1.27643E+05-1.71349E-09 1.13935E-08
 -1       629 2.58232E+05 6.21030E+04 5.10361E+02 1.31276E+05-5.35510E-09 2.83757E-08
 -1       630 2.61320E+05 5.89381E+04 2.36864E+02 1.27680E+05-5.90853E-09-8.00014E-10
 -1       631 2.58166E+05 6.20770E+04 1.27618E+02 1.31278E+05 5.11432E-09-3.27191E-10
 -1       632 2.61316E+05 5.89420E+04 8.42471E+01 1.27676E+05 8.83119E-09 1.72736E-09
 -1       633 2.58157E+05 6.20788E+04 9.42686E+01 1.31275E+05 3.95744E-09-9.70908E-09
 -1       634 2.61312E+05 5.89391E+04 1.52710E+02 1.27675E+05-5.87391E-09 8.28686E-09
 -1       635 2.58172E+05 6.20770E+04 3.09236E+02 1.31281E+05-8.13003E-09 5.31691E-09
 -1       636 2.61303E+05 5.89332E+04 6.24619E+02 1.27675E+05 7.07814E-10 7.27596E-10
 -1       637 2.58307E+05 6.21741E+04 1.37347E+03 1.31280E+05-6.66796E-09 3.12421E-08
 -1       638 2.61254E+05 5.92366E+04 2.82197E+03 1.27538E+05 4.71664E-09 1.88566E-08
 -1       639 2.59790E+05 6.42358E+04 6.67695E+03 1.30843E+05 6.89374E-09 1.17325E-10
 -1       640 2.61049E+05 6.53932E+04 1.38558E+04 1.24944E+05 4.29281E-09-3.89423E-09
 -1       656 6.66030E+04-1.70474E+06-1.60776E+05-2.56239E+03-1.81899E-10-8.62116E-09
 -1       657-8.81118E+04-1.77739E+06-1.33197E+05 5.13651E+03-1.33059E-09-3.40860E-08
 -1       658 2.12325E+04-1.72537E+06-8.20373E+04-4.64563E+03-2.32376E-10-2.82480E-08
 -1       659-9.52919E+04-1.78080E+06-1.42633E+05 6.87080E+03-2.54477E-09 3.66045E-10
 -1       660 7.37670E+04-1.70134E+06-1.76999E+05-4.29665E+03-2.78669E-09-6.31610E-09
 -1       661 1.57779E+05 1.65021E+04 1.66576E+04 6.16832E+04 9.34961E-10 9.81072E-09
 -1       662 1.67209E+05 2.88264E+04 1.12261E+04 5.79325E+04 5.81451E-10-7.08405E-09
 -1       663 1.61051E+05 2.18462E+04 3.92616E+03 6.07336E+04 1.10413E-09-1.50469E-08
 -1       664 1.63415E+05 2.25770E+04 2.34868E+03 5.90925E+04-6.59469E-10 3.16300E-09
 -1       665 1.61548E+05 2.25760E+04 9.26542E+02 6.05887E+04 8.02345E-10-1.58117E-08
 -1       666 1.62827E+05 2.17424E+04 5.42390E+02 5.92815E+04 6.56564E-09-8.43339E-09
 -1       667 1.61635E+05 2.26590E+04 2.88326E+02 6.05524E+04 1.30268E-09 3.15074E-09
 -1       668 1.62731E+05 2.16828E+04 2.94319E+02 5.93342E+04-2.56694E-09-1.08589E-08
 -1       669 1.61642E+05 2.26339E+04 3.98908E+02 6.05362E+04-4.67568E-09 5.23400E-09
 -1       670 1.62828E+05 2.18995E+04 8.69036E+02 5.93371E+04-6.53398E-09-2.19853E-08
 -1       671 1.61537E+05 2.24469E+04 1.54318E+03 6.05475E+04 2.08100E-09-2.01671E-08
 -1       672 1.63728E+05 2.34007E+04 3.94830E+03 5.91190E+04 5.03690E-09-2.15136E-08
 -1       673 1.60747E+05 2.11707E+04 6.61676E+03 6.07397E+04 1.81080E-09-1.22341E-08
 -1       674 1.70025E+05 3.40312E+04 1.89225E+04 5.72688E+04 1.91335E-10 6.31439E-09
 -1       675 1.55280E+05 1.21141E+04 2.80877E+04 6.22861E+04 2.39197E-10 6.76664E-09
 -1       676 2.40963E+01-2.95798E+05-1.11270E+03-1.37835E+02 9.36581E-10-8.28654E-09
 -1       677-2.94327E+02-2.96068E+05-2.03644E+03 2.75448E+02 7.45786E-09 3.71082E-09
 -1       678 1.97417E+02-2.95607E+05-3.59992E+03-1.37523E+02 9.59517E-10 2.13346E-09
 -1       679-3.59997E+03-2.98241E+05-8.55192E+03 2.74258E+02 8.72615E-09-5.75511E-10
 -1       680 2.14940E+03-2.93627E+05-1.37828E+04-1.35126E+02 2.37924E-09 1.54263E-08
 -1       771-3.06107E+06-7.47311E+05-1.66264E+05-1.46562E+06-2.97732E-08-3.17232E-08
 -1       772-2.98395E+06-8.36243E+05-8.57262E+04-1.56843E+06-1.54250E-08 1.32095E-08
 -1       773-3.09261E+06-7.22720E+05-4.36910E+04-1.48019E+06-7.33417E-09 8.49832E-09
 -1       774-2.97440E+06-8.17661E+05-1.94950E+04-1.59422E+06 3.08937E-08-9.02219E-10
 -1       775-3.10908E+06-7.11169E+05-1.45761E+04-1.48726E+06-3.46336E-09 2.75031E-09
 -1       776-2.98676E+06-8.14615E+05-5.45198E+03-1.61374E+06-2.77942E-09 1.48430E-09
 -1       777-3.12337E+06-7.00859E+05-6.43812E+03-1.49349E+06-9.31323E-10-4.78030E-09
 -1       778-2.99968E+06-8.11784E+05-1.82068E+03-1.63051E+06 3.12866E-09 7.65431E-09
 -1       779-3.13565E+06-6.91849E+05-3.21664E+03-1.49882E+06-1.18016E-08-5.12227E-09
 -1       780-3.01105E+06-8.09084E+05-5.33450E+02-1.64416E+06-2.18934E-08-5.38421E-10
 -1       781-3.14541E+06-6.84586E+05-1.24928E+03-1.50298E+06-3.29019E-08-6.76664E-10
 -1       782-3.01981E+06-8.06791E+05 4.51062E+02-1.65424E+06-3.66490E-08-1.53341E-09
 -1       783-3.15229E+06-6.79538E+05 7.02535E+02-1.50590E+06-1.13214E-08-1.64919E-08
 -1       784-3.02467E+06-8.04501E+05 2.90969E+03-1.66047E+06-2.40143E-08 3.82715E-09
 -1       785-3.15636E+06-6.76527E+05 5.13689E+03-1.50775E+06-3.76640E-08 7.60701E-09
 -1       786 1.24097E+05-9.78636E+03 2.26417E+04-3.24296E+02 7.86223E-10 9.17771E-09
 -1       787 1.33917E+05 1.13304E+04 1.60181E+04-1.35103E+02 6.83061E-09 6.85941E-09
 -1       788 1.27883E+05-1.53354E+03 5.85788E+03-2.88818E+02 3.19719E-09 1.35522E-08
 -1       789 1.29506E+05 1.77504E+03 3.67735E+03-1.89441E+02 1.89210E-09 6.87805E-09
 -1       790 1.28508E+05-2.38763E+02 1.48886E+03-2.69975E+02-5.05966E-09 8.44710E-09
 -1       791 1.28775E+05 2.76242E+02 8.59846E+02-2.21622E+02-7.29300E-09 8.30090E-09
 -1       792 1.28614E+05-3.58668E+01 3.64206E+02-2.56639E+02-4.02370E-09 9.31239E-09
 -1       793 1.28648E+05 3.78172E+01 1.81205E+02-2.46629E+02 1.63158E-10-6.00404E-09
 -1       794 1.28635E+05-4.88111E-01 4.63732E+01-2.44968E+02 5.62367E-09 1.48750E-08
 -1       795 1.28611E+05-2.81504E+01-5.98911E+01-2.70900E+02-3.81505E-09 6.27067E-09
 -1       796 1.28652E+05 3.00639E+01-1.66501E+02-2.32368E+02 4.03326E-09 6.19229E-09
 -1       797 1.28514E+05-2.24401E+02-4.56089E+02-2.99770E+02 1.99671E-09-4.34297E-09
 -1       798 1.28732E+05 1.95615E+02-7.40402E+02-2.16097E+02 2.02996E-09 6.51929E-09
 -1       799 1.27953E+05-1.44189E+03-2.03672E+03-3.40043E+02 5.79530E-09-4.63825E-09
 -1       800 1.29214E+05 1.24656E+03-2.88229E+03-1.92097E+02 7.48397E-11 2.14033E-08
 -1       801-1.71353E+05-1.00010E+07-1.39398E+06 1.41626E+06 9.13278E-08-5.47188E-08
 -1       802 7.38761E+05 5.95591E+06 2.18309E+06-1.74839E+06 2.59170E-07-3.29219E-08
 -1       803-5.36968E+05-1.42738E+07-1.89178E+06 8.98504E+05 7.72998E-08 1.55487E-08
 -1       804 2.87436E+05 2.39963E+06 1.53834E+06 6.77610E+05-1.20519E-07-9.47348E-08
 -1       805 1.89425E+05-6.45880E+06-2.86739E+05-1.00407E+06-4.97457E-08-6.22676E-08
 -1       806-3.08907E+05-5.97291E+04-2.28473E+04-1.22374E+05-3.78805E-09-3.06500E-10
 -1       807-3.10707E+05-5.59964E+04-1.12247E+04-1.27914E+05 9.89439E-09-2.92336E-08
 -1       808-3.09534E+05-5.14953E+04-4.76186E+03-1.26267E+05-8.01447E-09-8.74752E-09
 -1       809-3.08348E+05-5.28422E+04-2.32843E+03-1.28189E+05-1.19910E-08-2.16039E-08
 -1       810-3.09628E+05-5.12087E+04-1.06726E+03-1.26439E+05 4.11410E-09-1.20938E-08
 -1       811-3.08165E+05-5.27154E+04-5.30762E+02-1.28154E+05 2.06091E-09 2.70502E-08
 -1       812-3.09642E+05-5.12334E+04-2.68513E+02-1.26438E+05-3.18050E-09 9.11086E-09
 -1       813-3.08140E+05-5.27176E+04-1.74622E+02-1.28135E+05-5.73300E-09-1.51190E-08
 -1       814-3.09635E+05-5.12431E+04-1.73248E+02-1.26434E+05 1.73895E-09 1.57388E-09
 -1       815-3.08143E+05-5.27199E+04-2.79294E+02-1.28128E+05 5.88761E-09 1.08391E-08
 -1       816-3.09614E+05-5.12422E+04-5.29462E+02-1.26430E+05 7.46331E-09 2.37910E-08
 -1       817-3.08233E+05-5.27703E+04-1.13632E+03-1.28116E+05-1.27825E-08 9.72227E-09
 -1       818-3.09545E+05-5.14026E+04-2.31772E+03-1.26355E+05-3.04590E-09-1.23782E-09
 -1       819-3.09502E+05-5.41704E+04-5.45340E+03-1.27815E+05 1.36015E-09-1.04110E-08
 -1       820-3.09108E+05-5.55224E+04-1.10997E+04-1.24595E+05-3.27418E-10 4.59772E-09
 -1       821-3.80321E+05 2.09561E+04-4.88261E+04 2.21139E+03 1.44314E-08-1.27657E-08
 -1       822-3.99929E+05-2.42790E+04-3.42794E+04-4.72753E+03 5.58327E-09-1.45847E-08
 -1       823-3.87735E+05 3.30592E+03-1.26075E+04 3.63043E+03-1.30889E-08-1.21963E-09
 -1       824-3.90949E+05-3.81133E+03-7.88614E+03-5.74500E+03 2.11596E-09 3.17455E-08
 -1       825-3.89310E+05 5.14206E+02-3.30828E+03 3.22900E+03 2.38500E-08 1.32898E-08
 -1       826-3.88405E+05-5.65886E+02-1.72706E+03-3.35635E+03 2.80201E-08-2.00151E-08
 -1       827-3.90251E+05 4.16785E+01-1.21629E+03 1.24162E+03 1.36650E-08-2.78507E-09
 -1       828-3.87622E+05-1.25219E+02-5.47828E+02 1.10416E+03-3.04681E-11 1.82951E-08
 -1       829-3.90078E+05 6.18280E+01-1.20157E+03-1.23155E+03 4.00732E-09 1.05156E-08
 -1       830-3.88777E+05-6.21836E+02-1.86678E+03 5.15598E+03 6.79563E-10-3.14254E-08
 -1       831-3.89120E+05 5.58104E+02-3.38139E+03-2.81021E+03-4.79066E-09-6.05883E-09
 -1       832-3.91024E+05-3.97206E+03-8.17336E+03 6.54277E+03-2.83799E-09 3.98086E-09
 -1       833-3.87850E+05 3.42335E+03-1.30889E+04-2.61839E+03-3.33631E-09 5.99448E-09
 -1       834-3.99941E+05-2.51443E+04-3.54293E+04 4.45681E+03-3.17522E-09 8.35234E-09
 -1       835-3.80184E+05 2.16953E+04-5.06028E+04-7.24162E+02 5.96208E-09 2.58988E-08
 -1       836-1.40748E+03 3.70228E+05 2.27900E+04-1.63474E+04-6.92307E-09 7.38282E-09
 -1       837 4.85715E+03 3.77367E+05 1.93119E+04-3.34020E+04-7.52232E-09 2.55891E-08
 -1       838-5.58033E+02 3.72223E+05 1.97145E+04-1.62751E+04-6.43013E-09-4.81737E-09
 -1       839 1.24212E+04 3.82999E+05 3.73312E+04-3.34549E+04-7.01766E-09 4.29071E-09
 -1       840-3.84178E+03 3.64534E+05 5.95462E+04-1.63003E+04-6.09725E-09-1.26487E-08
 -1       856-5.14679E+04 8.00537E+03-2.10959E+04-3.97467E+02 2.81557E-09 4.12911E-09
 -1       857-6.01589E+04-9.40612E+03-1.45222E+04 5.62782E+03 4.22276E-09-5.13523E-09
 -1       858-5.49098E+04 1.12268E+03-5.47385E+03-4.21348E+02 1.68723E-09 2.76782E-09
 -1       859-5.62090E+04-1.32086E+03-3.30318E+03 5.66331E+03 2.82384E-10 3.14788E-08
 -1       860-5.54240E+04 1.57232E+02-1.38428E+03-4.32689E+02-2.54988E-09 1.09002E-08
 -1       861-5.56175E+04-1.87765E+02-7.61356E+02 5.67875E+03 4.39806E-09-7.10132E-09
 -1       862-5.55044E+04 2.12932E+01-3.16152E+02-4.36766E+02-4.81612E-09 1.30158E-08
 -1       863-5.55188E+04-2.17708E+01-1.14408E+02 5.68112E+03-2.50156E-09 9.41509E-09
 -1       864-5.55231E+04-4.98500E+00 4.87928E+01-4.35059E+02-3.12707E-09 1.21861E-08
 -1       865-5.54627E+04 6.02727E+01 2.58424E+02 5.67136E+03-5.04424E-09 6.57111E-09
 -1       866-5.55583E+04-6.07532E+01 5.19932E+02-4.27004E+02-2.44142E-10 4.27693E-09
 -1       867-5.52185E+04 5.01726E+02 1.27919E+03 5.64950E+03-2.10639E-09 1.24853E-08
 -1       868-5.57625E+04-4.38429E+02 2.12551E+03-4.13197E+02-2.77396E-11-6.29757E-09
 -1       869-5.36605E+04 3.64904E+03 5.65928E+03 5.61352E+03 3.79160E-09-1.93768E-08
 -1       870-5.71086E+04-3.12253E+03 8.21295E+03-3.90921E+02-3.02339E-09 1.31422E-09
 -1       871-5.52236E+03-2.13646E+04-1.95099E+04 1.30583E+05-5.20413E-09 6.66932E-09
 -1       872-1.98220E+03-2.59018E+04-8.17052E+03 1.69320E+05-1.10649E-08 2.66891E-09
 -1       873 4.07023E+02-2.37071E+04 5.87193E+02 1.30295E+05-6.30280E-09 6.49891E-09
 -1       874 3.30951E+03-2.12960E+04 9.78155E+03 1.69349E+05-1.00745E-08 2.84786E-09
 -1       875 6.85055E+03-2.60375E+04 2.20689E+04 1.30534E+05-4.90945E-09 1.25983E-08
 -1       876 2.93871E+05 4.95125E+04 1.50948E+04 1.17911E+05-1.02474E-08 1.76387E-08
 -1       877 2.94872E+05 5.26884E+04 8.06120E+03 1.22238E+05-1.78561E-08 1.54731E-08
 -1       878 2.95282E+05 4.78404E+04 3.37725E+03 1.19148E+05-2.52185E-08 2.62344E-09
 -1       879 2.92820E+05 5.06405E+04 1.68276E+03 1.22340E+05-9.10086E-09 2.43654E-08
 -1       880 2.95383E+05 4.78232E+04 7.83821E+02 1.19198E+05-2.12622E-08 1.69248E-08
 -1       881 2.92684E+05 5.05530E+04 4.18615E+02 1.22316E+05-2.43816E-08-6.30490E-09
 -1       882 2.95392E+05 4.78364E+04 2.67880E+02 1.19200E+05-2.80074E-08-3.14513E-09
 -1       883 2.92674E+05 5.05484E+04 2.88103E+02 1.22309E+05-1.95062E-08 2.18860E-08
 -1       884 2.95386E+05 4.78336E+04 4.58415E+02 1.19200E+05-8.38113E-08 4.97354E-08
 -1       885 2.92710E+05 5.05547E+04 9.21737E+02 1.22319E+05-1.46937E-07 3.61579E-08
 -1       886 2.95350E+05 4.78067E+04 1.85775E+03 1.19196E+05-8.95839E-08 3.49435E-08
 -1       887 2.93037E+05 5.07688E+04 4.05802E+03 1.22367E+05-2.68345E-08 2.12576E-08
 -1       888 2.95094E+05 4.78519E+04 8.17703E+03 1.19067E+05-2.70430E-08-2.50111E-09
 -1       889 2.97905E+05 5.58314E+04 1.95334E+04 1.22218E+05-2.51266E-08-1.17489E-08
 -1       890 2.91756E+05 5.18164E+04 3.65856E+04 1.15955E+05-1.68502E-08-2.78305E-10
 -1       891-8.93192E+01-1.62784E+05-1.99794E+03 2.71129E+04-8.36280E-10 1.19878E-08
 -1       892-1.75283E+02-1.63312E+05-2.14524E+03 4.11730E+04 4.60227E-09 1.69523E-08
 -1       893 4.39198E+01-1.62848E+05-3.03679E+03 2.71202E+04-1.52431E-09-1.45974E-10
 -1       894-1.51005E+03-1.64459E+05-6.28459E+03 4.10207E+04 2.36105E-09-6.18093E-09
 -1       895-1.19922E+03-1.61539E+05-1.10669E+04 2.72671E+04 2.16073E-09-7.88532E-09
 -1       956-3.77409E+05-5.45401E+03-1.34636E+04 3.08736E+04 5.77529E-09 6.14864E-09
 -1       957-3.80051E+05-1.92396E+03-6.91067E+03 3.71022E+04 1.32422E-09 3.61069E-09
 -1       958-3.78619E+05-2.41052E+02-3.11416E+03 3.07060E+04-1.93177E-09 4.73619E-09
 -1       959-3.78816E+05-1.36327E+02-1.59014E+03 3.72977E+04 5.05906E-09-1.02291E-08
 -1       960-3.78737E+05-4.48145E+01-7.75424E+02 3.06888E+04 3.96085E-09-4.31874E-09
 -1       961-3.78735E+05-6.32711E+01-4.11121E+02 3.73181E+04 1.17770E-08 8.57153E-09
 -1       962-3.78765E+05-4.60761E+01-2.35373E+02 3.06859E+04 7.95444E-09-4.51996E-09
 -1       963-3.78736E+05-5.91133E+01-1.88948E+02 3.73217E+04 1.57780E-08-2.66004E-08
 -1       964-3.78770E+05-4.27557E+01-2.29777E+02 3.06851E+04 6.35485E-09-1.04853E-08
 -1       965-3.78748E+05-5.61896E+01-3.97421E+02 3.73210E+04-3.32261E-09-3.87263E-09
 -1       966-3.78754E+05-3.49478E+01-7.46747E+02 3.06866E+04 4.19368E-09 7.96604E-09
 -1       967-3.78837E+05-1.19822E+02-1.53156E+03 3.73066E+04-3.18687E-09 4.53542E-09
 -1       968-3.78650E+05-2.17621E+02-2.99825E+03 3.06993E+04 2.71893E-09-2.87571E-09
 -1       969-3.80039E+05-1.83604E+03-6.65601E+03 3.71578E+04 6.33008E-09 1.06598E-08
 -1       970-3.77493E+05-5.23455E+03-1.29663E+04 3.08268E+04-2.23372E-09 8.10178E-09
 -1       971-3.45455E+05-1.72699E+03-9.30681E+03 1.53709E+04 9.92532E-09-1.45568E-08
 -1       972-3.47695E+05-1.27148E+03-5.06839E+03 2.12573E+04 1.29858E-08 2.43522E-08
 -1       973-3.46492E+05-6.21102E+01-2.27019E+03 1.52498E+04 1.07793E-08-8.84961E-09
 -1       974-3.46627E+05-8.11945E+01-1.17680E+03 2.13943E+04 9.58630E-09-5.24551E-09
 -1       975-3.46574E+05-1.72551E+01-5.88716E+02 1.52375E+04 4.79213E-09-1.21174E-08
 -1       976-3.46566E+05-3.13715E+01-3.40517E+02 2.14101E+04 6.62294E-09-2.09411E-09
 -1       977-3.46590E+05-1.65107E+01-2.48696E+02 1.52341E+04-1.22373E-09-9.65542E-09
 -1       978-3.46571E+05-2.51488E+01-2.93146E+02 2.14149E+04-6.59327E-09 3.56749E-09
 -1       979-3.46590E+05-8.03020E+00-4.72814E+02 1.52327E+04-1.62873E-09 7.75140E-09
 -1       980-3.46606E+05-2.20853E+01-9.14086E+02 2.14159E+04-2.64068E-09 1.43543E-08
 -1       981-3.46561E+05 1.48217E+01-1.77097E+03 1.52332E+04-1.72929E-09-9.19533E-09
 -1       982-3.46849E+05-1.52935E+02-3.66089E+03 2.14093E+04 3.45972E-09 1.62814E-08
 -1       983-3.46338E+05-9.85703E+01-7.11331E+03 1.52392E+04-1.21236E-09 1.86205E-08
 -1       984-3.50271E+05-3.86800E+03-1.59300E+04 2.13237E+04 7.20092E-10 2.34968E-08
 -1       985-3.43117E+05-5.30364E+03-2.92525E+04 1.53105E+04-4.52155E-09 6.29370E-09
 -3
    1PSTEP                        25          13           1          
  100CL  113 6.62796E-01         409                     0   13           1
 -4  DISP        4    1
 -5  D1          1    2    1    0
 -5  D2          1    2    2    0
 -5  D3          1    2    3    0
 -5  ALL         1    2    0    0    1ALL
 -1         1 2.72934E-03 0.00000E+00 0.00000E+00
 -1         2 1.31559E-03-1.62441E-27 0.00000E+00
 -1         3 3.42695E-04-4.39762E-28 0.00000E+00
 -1         5 1.77112E-04-1.96365E-27 0.00000E+00
 -1         8 2.71874E-03-3.98975E-07 0.00000E+00
 -1         9 2.71190E-03-2.04765E-04 0.00000E+00
 -1        10 3.10746E-04-3.38868E-06-6.61744E-24
 -1        12 1.78958E-04 8.09187E-07-4.13590E-25
 -1        15 2.70668E-03-4.21704E-07-1.03398E-25
 -1        16 2.78360E-03-2.06666E-04 0.00000E+00
 -1        17 2.11482E-04-7.73145E-06 0.00000E+00
 -1        18 1.82907E-04 3.44544E-05 0.00000E+00
 -1        19 1.84497E-04 1.61197E-06 0.00000E+00
 -1        20 1.84636E-04-9.89953E-06 0.00000E+00
 -1        21 1.83742E-04-2.54823E-05 0.00000E+00
 -1        24 3.05948E-05-1.19514E-05 0.00000E+00
 -1        25 1.93707E-04 3.46802E-05 0.00000E+00
 -1        26 1.94390E-04 2.24402E-06 0.00000E+00
 -1        27 1.92176E-04-1.34600E-05 0.00000E+00
 -1        28 1.91864E-04-2.61043E-05 0.00000E+00
 -1        32 0.00000E+00 0.00000E+00 0.00000E+00
 -1        33 2.03264E-04 2.99790E-06 0.00000E+00
 -1        34 2.01144E-04-1.35162E-05 0.00000E+00
 -1        35 1.99211E-04-2.64468E-05 0.00000E+00
 -1        51 2.72863E-03-8.40914E-08 0.00000E+00
 -1        52 2.72733E-03-1.49682E-07 0.00000E+00
 -1        53 2.72556E-03-2.11753E-07 0.00000E+00
 -1        54 2.72345E-03-2.72538E-07-1.65436E-24
 -1        55 2.72114E-03-3.33803E-07-3.30872E-24
 -1        56 2.72106E-03 9.91759E-06 0.00000E+00
 -1        57 2.70430E-03 4.06737E-05 0.00000E+00
 -1        58 2.68157E-03 8.57659E-05 0.00000E+00
 -1        59 2.65601E-03 1.37338E-04-5.29396E-23
 -1        60 2.63153E-03 1.86421E-04 0.00000E+00
 -1        61 2.61183E-03 2.24247E-04 5.29396E-23
 -1        62 2.59946E-03 2.44054E-04 0.00000E+00
 -1        63 2.59603E-03 2.40685E-04 0.00000E+00
 -1        64 2.60126E-03 2.13245E-04-1.05879E-22
 -1        65 2.61410E-03 1.63135E-04 0.00000E+00
 -1        66 2.63228E-03 9.60873E-05-1.05879E-22
 -1        67 2.65334E-03 1.95190E-05 0.00000E+00
 -1        68 2.67447E-03-5.72886E-05 1.05879E-22
 -1        69 2.69290E-03-1.25024E-04 0.00000E+00
 -1        70 2.70609E-03-1.76154E-04 5.29396E-23
 -1        86 1.40342E-03-6.42352E-06 0.00000E+00
 -1        87 1.65718E-03-4.05886E-05 2.64698E-23
 -1        88 1.99844E-03-9.94064E-05 0.00000E+00
 -1        89 2.34447E-03-1.59916E-04-1.32349E-23
 -1        90 2.60977E-03-1.96957E-04 0.00000E+00
 -1       121 3.41798E-04-5.47049E-07 0.00000E+00
 -1       122 3.39110E-04-1.09719E-06 6.61744E-24
 -1       123 3.34641E-04-1.65345E-06-1.32349E-23
 -1       124 3.28408E-04-2.21887E-06 0.00000E+00
 -1       125 3.20433E-04-2.79612E-06 0.00000E+00
 -1       191 1.77163E-04 1.34928E-07 0.00000E+00
 -1       192 1.77317E-04 2.69845E-07-1.65436E-24
 -1       193 1.77573E-04 4.04742E-07 1.65436E-24
 -1       194 1.77932E-04 5.39606E-07 4.13590E-25
 -1       195 1.78394E-04 6.74425E-07-2.48154E-24
 -1       251 2.71845E-03 1.59219E-06 0.00000E+00
 -1       252 2.71814E-03 3.44665E-06 0.00000E+00
 -1       253 2.71784E-03 4.13458E-06 0.00000E+00
 -1       254 2.71753E-03 2.64061E-06 3.30872E-24
 -1       255 2.71722E-03-1.72084E-06 6.61744E-24
 -1       256 2.71688E-03-9.59965E-06 0.00000E+00
 -1       257 2.71651E-03-2.11144E-05 0.00000E+00
 -1       258 2.71610E-03-3.63383E-05-3.30872E-24
 -1       259 2.71563E-03-5.47849E-05-6.61744E-24
 -1       260 2.71511E-03-7.59273E-05 6.61744E-24
 -1       261 2.71455E-03-9.88312E-05 0.00000E+00
 -1       262 2.71398E-03-1.22541E-04 0.00000E+00
 -1       263 2.71341E-03-1.45979E-04 1.32349E-23
 -1       264 2.71286E-03-1.68071E-04 6.61744E-24
 -1       265 2.71237E-03-1.87948E-04 0.00000E+00
 -1       266 2.71673E-03-4.08298E-07-1.65436E-24
 -1       267 2.71472E-03-4.11411E-07 0.00000E+00
 -1       268 2.71271E-03-4.14918E-07 0.00000E+00
 -1       269 2.71070E-03-4.17260E-07-2.06795E-25
 -1       270 2.70869E-03-4.19575E-07 2.06795E-25
 -1       271 2.71796E-03-4.97974E-08 0.00000E+00
 -1       272 2.71820E-03-2.47955E-06-6.61744E-24
 -1       273 2.71940E-03-7.51964E-06 1.32349E-23
 -1       274 2.72150E-03-1.49883E-05-6.61744E-24
 -1       275 2.72441E-03-2.46822E-05 0.00000E+00
 -1       276 2.72805E-03-3.63825E-05 0.00000E+00
 -1       277 2.73233E-03-4.98534E-05 0.00000E+00
 -1       278 2.73715E-03-6.48457E-05 6.61744E-24
 -1       279 2.74243E-03-8.10982E-05 1.32349E-23
 -1       280 2.74806E-03-9.83398E-05 0.00000E+00
 -1       281 2.75395E-03-1.16291E-04 0.00000E+00
 -1       282 2.75999E-03-1.34668E-04-6.61744E-24
 -1       283 2.76607E-03-1.53183E-04 1.32349E-23
 -1       284 2.77210E-03-1.71545E-04 0.00000E+00
 -1       285 2.77798E-03-1.89468E-04 0.00000E+00
 -1       301 2.72493E-03-2.05118E-04 1.32349E-23
 -1       302 2.73626E-03-2.05423E-04 0.00000E+00
 -1       303 2.74685E-03-2.05716E-04 1.32349E-23
 -1       304 2.75765E-03-2.06010E-04-6.61744E-24
 -1       305 2.76958E-03-2.06319E-04 0.00000E+00
 -1       306 2.75008E-03-3.60652E-04-1.05879E-22
 -1       307 2.81394E-03-7.75961E-04 0.00000E+00
 -1       308 2.86050E-03-1.38198E-03 0.00000E+00
 -1       309 2.88441E-03-2.08235E-03 0.00000E+00
 -1       310 2.91601E-03-2.75117E-03 0.00000E+00
 -1       311 2.97572E-03-3.26538E-03-5.29396E-23
 -1       312 3.03324E-03-3.54454E-03 2.11758E-22
 -1       313 3.02733E-03-3.55135E-03 0.00000E+00
 -1       314 2.88406E-03-3.29834E-03 1.05879E-22
 -1       315 2.56285E-03-2.85044E-03 5.29396E-23
 -1       316 2.08263E-03-2.28441E-03 0.00000E+00
 -1       317 1.50989E-03-1.66940E-03 0.00000E+00
 -1       318 9.59245E-04-1.06579E-03 0.00000E+00
 -1       319 5.38817E-04-5.38464E-04 0.00000E+00
 -1       320 2.92242E-04-1.61627E-04 0.00000E+00
 -1       336 2.99160E-04-4.04391E-06 0.00000E+00
 -1       337 2.85498E-04-4.72484E-06-6.61744E-24
 -1       338 2.69822E-04-5.43367E-06 0.00000E+00
 -1       339 2.52205E-04-6.17127E-06 0.00000E+00
 -1       340 2.32728E-04-6.94208E-06 0.00000E+00
 -1       406 1.79625E-04 9.43871E-07-3.30872E-24
 -1       407 1.80394E-04 1.07844E-06 8.27181E-25
 -1       408 1.81266E-04 1.21285E-06-3.30872E-24
 -1       409 1.82241E-04 1.34692E-06-8.27181E-25
 -1       410 1.83318E-04 1.48037E-06 8.27181E-25
 -1       521 2.82236E-03-3.71872E-04 1.05879E-22
 -1       522 2.88439E-03-8.07811E-04 0.00000E+00
 -1       523 2.92433E-03-1.44229E-03 1.05879E-22
 -1       524 2.93877E-03-2.17208E-03 0.00000E+00
 -1       525 2.96226E-03-2.86829E-03 0.00000E+00
 -1       526 3.01837E-03-3.40509E-03 0.00000E+00
 -1       527 3.07550E-03-3.69504E-03 2.11758E-22
 -1       528 3.06721E-03-3.69991E-03 0.00000E+00
 -1       529 2.91149E-03-3.43230E-03 2.11758E-22
 -1       530 2.56548E-03-2.96533E-03 0.00000E+00
 -1       531 2.04896E-03-2.37961E-03 0.00000E+00
 -1       532 1.43504E-03-1.74695E-03 0.00000E+00
 -1       533 8.43990E-04-1.12500E-03 1.05879E-22
 -1       534 3.89305E-04-5.76288E-04 0.00000E+00
 -1       535 1.21007E-04-1.79480E-04 0.00000E+00
 -1       536 2.10727E-04 2.72000E-05-6.61744E-24
 -1       537 2.08808E-04 8.76558E-05-1.65436E-24
 -1       538 2.05843E-04 1.64367E-04-3.30872E-24
 -1       539 2.02345E-04 2.47979E-04 0.00000E+00
 -1       540 1.99197E-04 3.26987E-04 0.00000E+00
 -1       541 1.97151E-04 3.89907E-04 0.00000E+00
 -1       542 1.96207E-04 4.29984E-04 0.00000E+00
 -1       543 1.95982E-04 4.40611E-04-1.65436E-24
 -1       544 1.95660E-04 4.22562E-04 3.30872E-24
 -1       545 1.94487E-04 3.76831E-04 0.00000E+00
 -1       546 1.92300E-04 3.11548E-04-3.30872E-24
 -1       547 1.89341E-04 2.34961E-04 0.00000E+00
 -1       548 1.86408E-04 1.58750E-04 3.30872E-24
 -1       549 1.84293E-04 9.45938E-05 1.65436E-24
 -1       550 1.83194E-04 5.05264E-05 0.00000E+00
 -1       551 1.86279E-04-8.29992E-06 0.00000E+00
 -1       552 1.57830E-04-8.94886E-06 0.00000E+00
 -1       553 1.27078E-04-9.66007E-06 0.00000E+00
 -1       554 9.49834E-05-1.04125E-05 3.30872E-24
 -1       555 6.25041E-05-1.11786E-05 1.32349E-23
 -1       556 2.03833E-04 1.18274E-05-5.29396E-23
 -1       557 1.97653E-04 2.76903E-05 0.00000E+00
 -1       558 1.92808E-04 4.01450E-05 5.29396E-23
 -1       559 1.89164E-04 4.95022E-05 2.64698E-23
 -1       560 1.86593E-04 5.60724E-05 0.00000E+00
 -1       561 1.84966E-04 6.01693E-05 0.00000E+00
 -1       562 1.84157E-04 6.21074E-05 0.00000E+00
 -1       563 1.84043E-04 6.22023E-05 0.00000E+00
 -1       564 1.84502E-04 6.07705E-05 0.00000E+00
 -1       565 1.85413E-04 5.81289E-05 0.00000E+00
 -1       566 1.86656E-04 5.45955E-05 0.00000E+00
 -1       567 1.88112E-04 5.04881E-05 0.00000E+00
 -1       568 1.89663E-04 4.61251E-05 0.00000E+00
 -1       569 1.91191E-04 4.18247E-05 0.00000E+00
 -1       570 1.92578E-04 3.79052E-05 0.00000E+00
 -1       571 1.83004E-04 3.23227E-05-8.27181E-25
 -1       572 1.83102E-04 3.01252E-05 1.65436E-24
 -1       573 1.83201E-04 2.78776E-05 1.65436E-24
 -1       574 1.83300E-04 2.55964E-05 8.27181E-25
 -1       575 1.83399E-04 2.32980E-05 3.30872E-24
 -1       576 1.83498E-04 2.09989E-05 1.65436E-24
 -1       577 1.83598E-04 1.87157E-05 3.30872E-24
 -1       578 1.83697E-04 1.64650E-05 0.00000E+00
 -1       579 1.83796E-04 1.42633E-05 0.00000E+00
 -1       580 1.83896E-04 1.21272E-05 0.00000E+00
 -1       581 1.83996E-04 1.00734E-05 0.00000E+00
 -1       582 1.84096E-04 8.11822E-06-3.30872E-24
 -1       583 1.84196E-04 6.27834E-06-6.61744E-24
 -1       584 1.84296E-04 4.57010E-06-3.30872E-24
 -1       585 1.84396E-04 3.00970E-06 6.61744E-24
 -1       586 1.84666E-04 3.44941E-05 1.65436E-24
 -1       587 1.86384E-04 3.45333E-05 8.27181E-25
 -1       588 1.88104E-04 3.45722E-05 0.00000E+00
 -1       589 1.89869E-04 3.46103E-05 0.00000E+00
 -1       590 1.91723E-04 3.46472E-05 0.00000E+00
 -1       591 1.83638E-04 3.24172E-05-1.03398E-25
 -1       592 1.84372E-04 3.03607E-05 0.00000E+00
 -1       593 1.85111E-04 2.82906E-05-8.27181E-25
 -1       594 1.85852E-04 2.62114E-05 4.13590E-25
 -1       595 1.86595E-04 2.41280E-05 8.27181E-25
 -1       596 1.87338E-04 2.20448E-05 0.00000E+00
 -1       597 1.88079E-04 1.99666E-05 8.27181E-25
 -1       598 1.88817E-04 1.78979E-05 0.00000E+00
 -1       599 1.89549E-04 1.58432E-05 8.27181E-25
 -1       600 1.90274E-04 1.38073E-05-4.13590E-25
 -1       601 1.90991E-04 1.17947E-05 8.27181E-25
 -1       602 1.91697E-04 9.81001E-06 2.06795E-25
 -1       603 1.92391E-04 7.85784E-06 4.13590E-25
 -1       604 1.93072E-04 5.94290E-06-5.16988E-26
 -1       605 1.93737E-04 4.06970E-06 0.00000E+00
 -1       606 1.84510E-04 4.47837E-07 0.00000E+00
 -1       607 1.84520E-04-6.30845E-07 0.00000E+00
 -1       608 1.84528E-04-1.62909E-06 0.00000E+00
 -1       609 1.84537E-04-2.55255E-06 1.65436E-24
 -1       610 1.84545E-04-3.40695E-06 0.00000E+00
 -1       611 1.84553E-04-4.19804E-06 0.00000E+00
 -1       612 1.84562E-04-4.93160E-06 0.00000E+00
 -1       613 1.84570E-04-5.61343E-06 0.00000E+00
 -1       614 1.84578E-04-6.24930E-06 0.00000E+00
 -1       615 1.84586E-04-6.84500E-06 0.00000E+00
 -1       616 1.84595E-04-7.40631E-06 0.00000E+00
 -1       617 1.84603E-04-7.93902E-06 0.00000E+00
 -1       618 1.84612E-04-8.44891E-06 0.00000E+00
 -1       619 1.84620E-04-8.94177E-06-2.06795E-25
 -1       620 1.84628E-04-9.42339E-06 0.00000E+00
 -1       621 1.85856E-04 1.71782E-06 3.30872E-24
 -1       622 1.87377E-04 1.82400E-06 8.27181E-25
 -1       623 1.89025E-04 1.92996E-06 0.00000E+00
 -1       624 1.90766E-04 2.03559E-06 1.65436E-24
 -1       625 1.92566E-04 2.14094E-06 1.65436E-24
 -1       626 1.85045E-04 4.84034E-07 0.00000E+00
 -1       627 1.85571E-04-5.81229E-07 0.00000E+00
 -1       628 1.86077E-04-1.59166E-06 0.00000E+00
 -1       629 1.86566E-04-2.55539E-06 1.65436E-24
 -1       630 1.87040E-04-3.48063E-06 0.00000E+00
 -1       631 1.87503E-04-4.37554E-06 0.00000E+00
 -1       632 1.87957E-04-5.24831E-06 3.30872E-24
 -1       633 1.88406E-04-6.10716E-06 0.00000E+00
 -1       634 1.88854E-04-6.96027E-06 0.00000E+00
 -1       635 1.89302E-04-7.81583E-06 0.00000E+00
 -1       636 1.89754E-04-8.68203E-06 3.30872E-24
 -1       637 1.90213E-04-9.56709E-06-1.65436E-24
 -1       638 1.90682E-04-1.04792E-05 0.00000E+00
 -1       639 1.91164E-04-1.14265E-05-8.27181E-25
 -1       640 1.91661E-04-1.24173E-05-1.65436E-24
 -1       656 1.85344E-04-1.04782E-05 0.00000E+00
 -1       657 1.86472E-04-1.10804E-05 0.00000E+00
 -1       658 1.87880E-04-1.16812E-05 1.32349E-23
 -1       659 1.89423E-04-1.22817E-05 6.61744E-24
 -1       660 1.90916E-04-1.28840E-05 0.00000E+00
 -1       661 1.84901E-04-1.04209E-05 8.27181E-25
 -1       662 1.85203E-04-1.10345E-05 0.00000E+00
 -1       663 1.85539E-04-1.17349E-05 0.00000E+00
 -1       664 1.85904E-04-1.25157E-05 8.27181E-25
 -1       665 1.86298E-04-1.33710E-05 0.00000E+00
 -1       666 1.86717E-04-1.42948E-05-8.27181E-25
 -1       667 1.87160E-04-1.52814E-05 0.00000E+00
 -1       668 1.87625E-04-1.63252E-05 0.00000E+00
 -1       669 1.88108E-04-1.74208E-05-1.65436E-24
 -1       670 1.88609E-04-1.85628E-05-8.27181E-25
 -1       671 1.89126E-04-1.97460E-05 1.65436E-24
 -1       672 1.89655E-04-2.09652E-05 0.00000E+00
 -1       673 1.90196E-04-2.22153E-05-1.65436E-24
 -1       674 1.90746E-04-2.34918E-05-4.13590E-25
 -1       675 1.91304E-04-2.47891E-05-2.06795E-25
 -1       676 1.85100E-04-2.55866E-05 3.30872E-24
 -1       677 1.86458E-04-2.56908E-05 1.65436E-24
 -1       678 1.87814E-04-2.57950E-05 0.00000E+00
 -1       679 1.89167E-04-2.58988E-05 0.00000E+00
 -1       680 1.90518E-04-2.60027E-05-3.30872E-24
 -1       771 1.86380E-05 1.47895E-05 0.00000E+00
 -1       772 8.57908E-06 3.67514E-05 0.00000E+00
 -1       773 3.27324E-07 5.41648E-05-5.29396E-23
 -1       774-6.24172E-06 6.72878E-05 2.64698E-23
 -1       775-1.12498E-05 7.63890E-05 5.29396E-23
 -1       776-1.48235E-05 8.17535E-05-2.64698E-23
 -1       777-1.70893E-05 8.36768E-05 5.29396E-23
 -1       778-1.81763E-05 8.24681E-05 2.64698E-23
 -1       779-1.82127E-05 7.84453E-05 5.29396E-23
 -1       780-1.73289E-05 7.19374E-05 0.00000E+00
 -1       781-1.56545E-05 6.32805E-05 0.00000E+00
 -1       782-1.33204E-05 5.28195E-05 0.00000E+00
 -1       783-1.04568E-05 4.09038E-05 0.00000E+00
 -1       784-7.19495E-06 2.78891E-05 2.64698E-23
 -1       785-3.66531E-06 1.41341E-05 0.00000E+00
 -1       786 1.93746E-04 3.24245E-05 0.00000E+00
 -1       787 1.93788E-04 3.02195E-05-4.13590E-25
 -1       788 1.93829E-04 2.80566E-05 0.00000E+00
 -1       789 1.93872E-04 2.59276E-05 0.00000E+00
 -1       790 1.93915E-04 2.38276E-05 0.00000E+00
 -1       791 1.93957E-04 2.17519E-05 0.00000E+00
 -1       792 1.94000E-04 1.96980E-05 1.65436E-24
 -1       793 1.94043E-04 1.76638E-05 0.00000E+00
 -1       794 1.94086E-04 1.56491E-05 0.00000E+00
 -1       795 1.94129E-04 1.36535E-05 8.27181E-25
 -1       796 1.94173E-04 1.16789E-05 0.00000E+00
 -1       797 1.94216E-04 9.72714E-06 0.00000E+00
 -1       798 1.94259E-04 7.80226E-06 0.00000E+00
 -1       799 1.94302E-04 5.90852E-06 0.00000E+00
 -1       800 1.94346E-04 4.05328E-06-1.65436E-24
 -1       801 1.47888E-04 3.11781E-05 2.64698E-23
 -1       802 9.35195E-06 1.94509E-05 0.00000E+00
 -1       803-1.08968E-04 9.82625E-06 0.00000E+00
 -1       804-9.65681E-05 6.84005E-06 0.00000E+00
 -1       805-3.19029E-05 2.68694E-06 0.00000E+00
 -1       806 1.94438E-04 3.23556E-05 1.65436E-24
 -1       807 1.95154E-04 3.00574E-05 0.00000E+00
 -1       808 1.95858E-04 2.77907E-05 0.00000E+00
 -1       809 1.96549E-04 2.55597E-05 0.00000E+00
 -1       810 1.97224E-04 2.33683E-05-3.30872E-24
 -1       811 1.97883E-04 2.12205E-05 0.00000E+00
 -1       812 1.98525E-04 1.91202E-05 0.00000E+00
 -1       813 1.99147E-04 1.70713E-05 1.65436E-24
 -1       814 1.99749E-04 1.50777E-05 3.30872E-24
 -1       815 2.00328E-04 1.31434E-05 8.27181E-25
 -1       816 2.00884E-04 1.12721E-05 0.00000E+00
 -1       817 2.01415E-04 9.46787E-06 0.00000E+00
 -1       818 2.01920E-04 7.73447E-06-3.30872E-24
 -1       819 2.02397E-04 6.07581E-06-1.65436E-24
 -1       820 2.02845E-04 4.49569E-06 1.65436E-24
 -1       821 1.94260E-04-1.62859E-07 0.00000E+00
 -1       822 1.94119E-04-3.80522E-06 0.00000E+00
 -1       823 1.93975E-04-8.23077E-06 3.30872E-24
 -1       824 1.93829E-04-1.29823E-05 0.00000E+00
 -1       825 1.93683E-04-1.75142E-05-3.30872E-24
 -1       826 1.93540E-04-2.12820E-05 1.65436E-24
 -1       827 1.93401E-04-2.39502E-05 0.00000E+00
 -1       828 1.93264E-04-2.51899E-05 0.00000E+00
 -1       829 1.93128E-04-2.50623E-05 0.00000E+00
 -1       830 1.92991E-04-2.36369E-05 1.65436E-24
 -1       831 1.92852E-04-2.13375E-05 0.00000E+00
 -1       832 1.92713E-04-1.85936E-05 0.00000E+00
 -1       833 1.92574E-04-1.59559E-05 3.30872E-24
 -1       834 1.92438E-04-1.39744E-05-1.65436E-24
 -1       835 1.92303E-04-1.30208E-05 0.00000E+00
 -1       836 1.96083E-04 2.36905E-06 3.30872E-24
 -1       837 1.97648E-04 2.49721E-06 1.65436E-24
 -1       838 1.99117E-04 2.62531E-06-3.30872E-24
 -1       839 2.00521E-04 2.75271E-06 0.00000E+00
 -1       840 2.01892E-04 2.87994E-06 0.00000E+00
 -1       856 1.92160E-04-1.45251E-05 8.27181E-25
 -1       857 1.92141E-04-1.54546E-05 0.00000E+00
 -1       858 1.92122E-04-1.62695E-05 0.00000E+00
 -1       859 1.92102E-04-1.69911E-05 0.00000E+00
 -1       860 1.92083E-04-1.76405E-05 4.13590E-25
 -1       861 1.92063E-04-1.82389E-05-2.06795E-25
 -1       862 1.92044E-04-1.88076E-05 0.00000E+00
 -1       863 1.92024E-04-1.93681E-05 2.06795E-25
 -1       864 1.92005E-04-1.99415E-05-8.27181E-25
 -1       865 1.91985E-04-2.05492E-05 4.13590E-25
 -1       866 1.91966E-04-2.12125E-05 0.00000E+00
 -1       867 1.91946E-04-2.19527E-05 0.00000E+00
 -1       868 1.91926E-04-2.27908E-05-8.27181E-25
 -1       869 1.91906E-04-2.37482E-05 0.00000E+00
 -1       870 1.91886E-04-2.48457E-05 0.00000E+00
 -1       871 1.93529E-04-1.34649E-05-8.27181E-25
 -1       872 1.95029E-04-1.34732E-05 0.00000E+00
 -1       873 1.96610E-04-1.34823E-05 0.00000E+00
 -1       874 1.98201E-04-1.34920E-05 4.13590E-25
 -1       875 1.99735E-04-1.35024E-05-1.03398E-24
 -1       876 1.92702E-04-1.45105E-05 0.00000E+00
 -1       877 1.93207E-04-1.54943E-05-1.65436E-24
 -1       878 1.93690E-04-1.64193E-05 0.00000E+00
 -1       879 1.94153E-04-1.72929E-05-1.65436E-24
 -1       880 1.94601E-04-1.81226E-05 0.00000E+00
 -1       881 1.95035E-04-1.89155E-05 0.00000E+00
 -1       882 1.95458E-04-1.96792E-05-3.30872E-24
 -1       883 1.95872E-04-2.04210E-05 0.00000E+00
 -1       884 1.96281E-04-2.11481E-05 0.00000E+00
 -1       885 1.96688E-04-2.18679E-05 0.00000E+00
 -1       886 1.97094E-04-2.25877E-05 0.00000E+00
 -1       887 1.97503E-04-2.33149E-05 0.00000E+00
 -1       888 1.97917E-04-2.40568E-05-3.30872E-24
 -1       889 1.98339E-04-2.48209E-05 0.00000E+00
 -1       890 1.98771E-04-2.56145E-05-1.65436E-24
 -1       891 1.93231E-04-2.61618E-05 0.00000E+00
 -1       892 1.94574E-04-2.62195E-05 8.27181E-25
 -1       893 1.95869E-04-2.62772E-05 8.27181E-25
 -1       894 1.97090E-04-2.63345E-05 4.13590E-25
 -1       895 1.98212E-04-2.63916E-05 8.27181E-25
 -1       956 2.03133E-04 1.67472E-06 1.65436E-24
 -1       957 2.03001E-04 4.43008E-07 0.00000E+00
 -1       958 2.02868E-04-7.07972E-07 3.30872E-24
 -1       959 2.02735E-04-1.78957E-06 0.00000E+00
 -1       960 2.02602E-04-2.81317E-06 0.00000E+00
 -1       961 2.02469E-04-3.79019E-06-1.65436E-24
 -1       962 2.02337E-04-4.73208E-06 0.00000E+00
 -1       963 2.02204E-04-5.65029E-06 0.00000E+00
 -1       964 2.02071E-04-6.55626E-06-3.30872E-24
 -1       965 2.01938E-04-7.46144E-06 0.00000E+00
 -1       966 2.01805E-04-8.37729E-06 3.30872E-24
 -1       967 2.01672E-04-9.31526E-06 0.00000E+00
 -1       968 2.01540E-04-1.02868E-05 0.00000E+00
 -1       969 2.01407E-04-1.13033E-05-3.30872E-24
 -1       970 2.01275E-04-1.23761E-05 3.30872E-24
 -1       971 2.01024E-04-1.46560E-05 0.00000E+00
 -1       972 2.00903E-04-1.57012E-05 0.00000E+00
 -1       973 2.00782E-04-1.66624E-05 3.30872E-24
 -1       974 2.00660E-04-1.75502E-05 0.00000E+00
 -1       975 2.00539E-04-1.83756E-05-3.30872E-24
 -1       976 2.00417E-04-1.91494E-05 0.00000E+00
 -1       977 2.00296E-04-1.98825E-05 3.30872E-24
 -1       978 2.00174E-04-2.05858E-05 0.00000E+00
 -1       979 2.00053E-04-2.12702E-05 0.00000E+00
 -1       980 1.99931E-04-2.19465E-05 0.00000E+00
 -1       981 1.99810E-04-2.26258E-05 0.00000E+00
 -1       982 1.99689E-04-2.33189E-05 0.00000E+00
 -1       983 1.99568E-04-2.40367E-05 0.00000E+00
 -1       984 1.99447E-04-2.47901E-05 0.00000E+00
 -1       985 1.99327E-04-2.55899E-05 0.00000E+00
 -3
    1PSTEP                        26          13           1          
  100CL  113 6.62796E-01         409                     0   13           1
 -4  STRESS      6    1
 -5  SXX         1    4    1    1
 -5  SYY         1    4    2    2
 -5  SZZ         1    4    3    3
 -5  SXY         1    4    1    2
 -5  SYZ         1    4    2    3
 -5  SZX         1    4    3    1
 -1         1-5.34854E+06-1.55669E+06-1.13154E+06-1.30595E+06-3.23053E-09 1.05094E-07
 -1         2 1.57132E+06 2.29769E+07 5.32394E+06 6.97143E+06 2.31666E-08 1.71713E-07
 -1         3-1.48742E+03-1.55322E+06 4.04793E+02-2.20410E+03-6.15103E-10-3.95230E-08
 -1         5-7.52287E+01 3.86379E+05 9.94971E+00-1.34198E+00-4.47445E-10-3.52757E-08
 -1         8-5.49829E+05-1.99713E+05-6.25703E+04-2.40798E+05 2.15550E-10 5.52172E-08
 -1         9 1.18432E+07 4.03738E+06 2.84214E+06-2.74705E+05-2.27010E-09-1.49873E-07
 -1        10-2.30245E+03-1.61857E+06-3.93412E+03-1.49152E+04-1.31895E-08-3.88446E-08
 -1        12-7.13234E+01 3.86400E+05 3.27087E+02-9.14775E+00-5.21126E-10-2.65154E-08
 -1        15 9.17016E+02 5.03945E+02 2.96423E+03 7.97537E-01-1.20849E-10-3.07498E-07
 -1        16 2.29343E+07-3.40887E+05 3.11904E+06-2.31389E+06 1.08848E-08 5.41719E-08
 -1        17 8.40130E+06 6.29308E+06 2.26892E+06 6.01874E+06 2.50351E-08 5.12227E-08
 -1        18 1.42632E+05 3.36613E+04 4.24840E+03-1.19521E+05 1.65849E-08-1.45064E-10
 -1        19 1.22593E+05 1.42784E+05-7.55848E+02 2.18253E+04 2.01817E-09 1.98561E-09
 -1        20-8.23021E+04-5.74076E+05-1.28838E+05 2.49931E+04-2.27434E-09 9.54303E-09
 -1        21-4.55423E+01-2.95937E+05-9.23399E+02 2.75724E+02 1.30721E-08-7.87820E-10
 -1        24 1.41023E+07 1.21366E+07 3.90210E+06 1.12362E+07-1.71878E-07-4.93989E-08
 -1        25 1.25382E+05 2.68679E+05 1.00356E+05-6.46653E+05-2.11649E-09 9.81345E-09
 -1        26-5.51729E+04 9.33687E+04-2.46250E+04 1.22602E+03 1.13869E-09 4.50692E-09
 -1        27-7.56262E+04-3.10134E+05-1.13387E+05 6.90395E+04 4.12577E-09 7.91806E-09
 -1        28 2.22334E+04-8.53646E+04 1.68964E+04 2.05447E+04-3.79137E-09-6.62219E-09
 -1        32-1.68016E+06-3.18171E+06-1.97721E+05 4.59722E+05-4.21060E-08-1.07615E-08
 -1        33-1.78564E+05 9.30102E+04 3.23932E+04-3.86205E+04-2.92300E-09 1.68729E-08
 -1        34-2.23699E+05-2.50447E+04 6.91600E+02 7.57277E+04-5.00607E-09-5.55853E-10
 -1        35-2.29215E+04-3.38551E+04-1.34886E+03 5.14860E+04-3.02419E-09-3.46821E-10
 -1        51 6.09787E+04-1.69650E+05 1.28874E+05-4.30998E+05-7.27596E-11 7.35818E-08
 -1        52 2.05992E+04-1.47077E+05 6.75341E+04-5.02683E+05-6.09361E-11-1.69784E-07
 -1        53 4.14240E+03-1.62418E+05 3.50227E+04-4.29524E+05 6.33008E-10-4.08058E-07
 -1        54 7.20302E+03-1.58199E+05 2.84865E+04-5.04121E+05 5.89353E-10-1.99176E-07
 -1        55 1.57152E+04-1.65091E+05 3.43074E+04-4.29442E+05 2.69210E-10 1.61728E-07
 -1        56-9.82583E+06-1.41526E+06-9.33088E+05-4.12692E+06-8.26549E-09-1.84897E-07
 -1        57-1.11664E+07-7.20650E+05-5.42507E+05-2.62902E+06 5.47734E-08-8.63220E-08
 -1        58-9.57847E+06-1.89774E+06-2.02357E+05-4.34113E+06-3.72966E-08 8.54925E-08
 -1        59-1.14109E+07-1.56591E+05-1.06072E+05-2.55118E+06-1.34974E-08-2.12429E-07
 -1        60-9.68005E+06-1.90067E+06-5.98090E+04-4.29148E+06-1.62981E-09-9.82691E-08
 -1        61-1.06612E+07-5.36481E+05 2.52153E+04-2.80752E+06-5.22814E-08 2.19323E-07
 -1        62-1.01629E+07-1.62960E+06-9.10440E+04-3.95239E+06-2.36614E-08 5.90808E-09
 -1        63-9.63092E+06-1.33594E+06 6.91953E+04-3.57753E+06-4.94038E-08 2.05822E-07
 -1        64-1.05753E+07-1.19770E+06-8.38947E+04-3.43698E+06 3.89991E-09 2.29320E-07
 -1        65-9.24157E+06-2.00515E+06 2.12726E+04-4.60711E+06-2.61934E-08-7.24385E-08
 -1        66-1.07067E+07-8.53179E+05-4.83401E+04-3.03992E+06 1.08630E-08 2.66175E-07
 -1        67-9.28499E+06-2.27983E+06-9.53092E+04-5.10026E+06-1.75532E-08 3.66499E-07
 -1        68-1.06869E+07-8.13646E+05-1.88722E+05-3.03905E+06-3.50465E-08-2.69210E-08
 -1        69-9.43509E+06-2.34376E+06-4.80836E+05-4.57534E+06 4.37467E-09-3.77266E-07
 -1        70-1.04117E+07-9.03305E+05-8.59112E+05-3.47163E+06 1.40826E-08-1.02620E-07
 -1        86-1.60354E+06-1.61619E+07-2.91561E+06-3.27078E+06-2.76090E-07-1.26529E-07
 -1        87 2.53484E+06 6.67752E+06 2.42444E+06 5.98616E+06-4.93448E-07 3.85789E-08
 -1        88-4.84306E+05-1.88735E+06 2.30968E+05-2.63568E+06-4.15715E-07-2.68569E-08
 -1        89 3.39283E+06 6.35793E+06 2.48591E+06 6.19225E+06-6.04188E-07-3.11504E-07
 -1        90-2.35994E+06-1.59237E+07-3.14533E+06-3.50916E+06-1.71109E-07 6.46687E-08
 -1       121-2.03743E+03-1.55812E+06-5.48086E+02 1.09242E+03 1.55586E-09-3.77622E-09
 -1       122-1.30229E+03-1.55328E+06 7.67153E+02-4.41240E+03-5.13026E-09-3.17596E-09
 -1       123-2.05716E+03-1.55825E+06 2.57040E+02 3.26265E+03 4.18561E-09 2.60843E-08
 -1       124 3.28370E+02-1.55284E+06 2.93898E+03-9.23500E+03-1.10399E-08 4.93310E-09
 -1       125-2.86335E+03-1.55915E+06 3.44461E+03 5.86906E+03 6.58474E-09 1.79862E-08
 -1       191-7.92762E+01 3.86397E+05 8.44957E+00 6.99714E-01-5.45595E-10-9.76252E-09
 -1       192-7.61895E+01 3.86380E+05 2.12330E+01-4.30347E+00-8.17640E-10-1.04774E-09
 -1       193-8.18050E+01 3.86397E+05 3.61385E+01 3.77963E+00-1.11931E-09-2.62298E-09
 -1       194-7.92697E+01 3.86383E+05 8.07195E+01-9.76561E+00-5.23026E-10-1.52804E-08
 -1       195-8.66590E+01 3.86394E+05 1.54529E+02 6.35501E+00-1.42136E-09-1.92595E-08
 -1       251-8.62628E+05 1.63215E+04-3.80946E+04-1.47039E+04 3.22618E-09 2.63317E-08
 -1       252-8.76948E+05-1.88936E+04-2.64863E+04 5.22333E+04-4.70448E-09-5.36434E-08
 -1       253-8.71209E+05 2.50521E+03-1.02817E+04-1.03626E+04 1.73372E-09-1.05215E-07
 -1       254-8.63118E+05-3.04838E+03-4.51462E+03 3.72151E+04-8.54914E-09-2.03924E-07
 -1       255-8.75807E+05 4.08685E+01-3.62196E+03 3.10241E+02 2.43608E-09 1.70150E-07
 -1       256-8.57451E+05-2.73703E+02 1.30985E+03 1.29927E+04-2.15550E-09 2.18160E-08
 -1       257-8.76407E+05-6.16758E+02-1.47575E+03 1.38471E+04 7.97172E-10 1.14964E-07
 -1       258-8.60457E+05 9.57800E+02 2.82412E+03-1.24765E+04 1.57536E-09-2.48466E-08
 -1       259-8.73064E+05-9.87949E+02 1.33357E+03 2.57769E+04-9.39690E-09 2.25227E-08
 -1       260-8.67292E+05 3.03809E+03 5.63171E+03-3.08531E+04 2.38157E-08-3.03157E-07
 -1       261-8.70248E+05-2.17679E+03 8.68552E+03 3.22416E+04 1.46428E-08-3.25544E-07
 -1       262-8.66147E+05 1.19359E+04 2.15862E+04-3.62415E+04 5.79102E-09-1.54616E-07
 -1       263-8.74478E+05-9.64403E+03 3.41825E+04 3.11757E+04-3.54095E-09 2.01799E-08
 -1       264-8.35248E+05 6.73759E+04 9.47170E+04-2.67748E+04 2.32643E-08-2.23728E-07
 -1       265-9.00624E+05-5.77681E+04 1.31756E+05 2.27614E+04 1.83005E-08-2.22208E-07
 -1       266-1.66013E+04-7.76361E+03 3.89474E+04-1.70634E+01-1.38243E-10-7.45227E-08
 -1       267 1.92452E+04 9.04736E+03 2.75295E+04 1.96895E+01-5.82077E-11-4.72964E-08
 -1       268-2.58076E+03-1.28143E+03 1.02325E+04-2.50869E+00-3.95630E-11-1.62443E-07
 -1       269 3.04710E+03 1.53352E+03 6.65105E+03 2.92236E+00 3.43334E-11 1.59673E-08
 -1       270-4.57374E+02-2.51972E+02 3.21055E+03-3.96579E-01-2.17597E-10-1.09722E-07
 -1       271-1.45621E+06-1.86041E+05-1.09798E+05-5.67121E+05 3.99814E-09 1.79993E-07
 -1       272-1.44763E+06-3.00885E+05-6.87910E+04-6.08823E+05-3.77786E-08-2.57455E-07
 -1       273-1.47951E+06-2.09076E+05-2.66908E+04-5.59080E+05 2.30430E-08 7.49242E-08
 -1       274-1.42133E+06-2.73077E+05-1.37872E+04-6.24218E+05-3.47300E-08 1.96806E-07
 -1       275-1.48513E+06-2.08478E+05-6.68672E+03-5.55275E+05 2.42981E-08 4.84091E-07
 -1       276-1.41590E+06-2.74105E+05-2.76675E+03-6.33066E+05-3.01916E-08 9.93059E-08
 -1       277-1.48798E+06-2.05766E+05-1.86124E+03-5.52521E+05-6.50471E-09 1.60157E-07
 -1       278-1.41387E+06-2.77311E+05-6.76884E+02-6.39556E+05-1.14378E-08 2.43285E-07
 -1       279-1.48980E+06-2.03577E+05-8.38373E+02-5.50602E+05-1.10958E-10 1.33629E-07
 -1       280-1.41296E+06-2.79684E+05-9.22310E+02-6.43786E+05 4.28863E-08 4.74979E-08
 -1       281-1.49075E+06-2.02226E+05-1.70798E+03-5.49538E+05-6.32344E-08 1.09467E-07
 -1       282-1.41333E+06-2.81743E+05-3.96585E+03-6.45475E+05 1.25224E-08-2.66172E-07
 -1       283-1.49027E+06-2.01089E+05-7.06241E+03-5.49436E+05 2.19777E-08 4.68413E-08
 -1       284-1.41968E+06-2.90896E+05-1.92300E+04-6.43272E+05 3.30649E-08 2.44293E-07
 -1       285-1.48423E+06-1.94224E+05-3.00672E+04-5.51205E+05-1.11004E-08 7.24995E-08
 -1       301-9.14596E+03-6.51563E+05 1.66578E+05-1.14746E+06-1.60071E-10 1.26223E-07
 -1       302-1.14278E+04-6.04279E+05 1.00250E+05-1.67455E+06 3.56522E-09-3.25090E-08
 -1       303-2.33986E+04-6.44565E+05 5.65173E+04-1.14428E+06 2.27665E-08-7.23867E-08
 -1       304-2.71824E+04-6.11770E+05 5.66562E+04-1.67401E+06-1.28493E-08-2.14917E-07
 -1       305-2.78629E+04-6.33201E+05 6.93673E+04-1.14736E+06 4.94947E-09 3.54776E-08
 -1       306-3.01170E+07-6.21177E+06-8.60440E+06-4.77030E+05-1.06520E-07-2.49478E-07
 -1       307 2.52320E+07 3.29389E+06 5.50036E+06-1.52976E+07-8.62041E-07-7.00529E-08
 -1       308-6.89534E+06-1.00576E+06-4.28888E+05 5.20879E+06-2.23750E-07 1.61643E-07
 -1       309-3.16316E+06 8.73017E+06 2.29702E+06-2.07129E+07 3.63812E-07-1.45628E-07
 -1       310-1.26882E+07-1.95892E+06-2.07334E+06 5.21580E+06 9.02219E-09-2.24129E-07
 -1       311 3.87586E+07-1.14222E+04 7.32600E+06-8.67687E+06 5.38188E-07 6.22822E-08
 -1       312-3.19972E+07-6.83425E+06-8.57429E+06-5.13699E+06-1.53668E-08-8.32224E-08
 -1       313 4.53766E+07 1.52407E+07 1.06951E+07 2.39835E+07 1.67667E-07-4.78700E-07
 -1       314-1.71284E+07-1.78902E+07-7.52786E+06-1.25384E+07 5.77304E-07-2.06812E-07
 -1       315-1.97865E+06 2.98362E+07 5.66245E+06 1.04127E+07-4.05737E-07 2.00263E-07
 -1       316 1.44905E+06-9.81928E+06-4.22289E+05-2.47755E+06-1.28665E-06-2.18512E-07
 -1       317-1.70837E+07 2.24462E+07 2.24973E+06-8.90914E+06 6.97080E-07-7.04589E-07
 -1       318-1.09426E+06-1.28709E+07-2.07237E+06-4.24517E+06-9.16421E-07 1.61119E-07
 -1       319 7.32727E+06 3.21250E+07 7.08088E+06 1.67170E+07-1.51340E-08 2.35101E-07
 -1       320-2.26613E+07-1.77013E+07-9.89153E+06-1.28501E+07 1.84751E-07-6.39120E-08
 -1       336-7.52150E+02-1.68672E+06-1.38055E+04 8.87632E+03-2.64627E-08 1.17216E-08
 -1       337-5.39788E+03-1.68624E+06-1.80096E+04-2.15674E+04-4.92223E-08-5.79894E-09
 -1       338 2.65746E+02-1.68621E+06-2.83760E+04 1.24400E+04-3.43070E-08 5.71526E-09
 -1       339-3.01139E+04-1.70342E+06-6.41234E+04-2.85497E+04-6.21067E-08 1.54432E-08
 -1       340 1.98229E+04-1.67171E+06-1.01019E+05 1.57278E+04-4.12801E-08 4.32083E-08
 -1       406-4.96971E+01 3.86380E+05 6.42222E+02 3.34512E+00-2.06201E-09-2.82434E-08
 -1       407 1.54222E+02 3.86514E+05 1.37249E+03 2.34022E+01-3.73461E-10-2.38033E-08
 -1       408 6.32834E+02 3.86280E+05 2.73662E+03-2.70651E+01-2.49634E-09-2.59988E-08
 -1       409 2.89808E+03 3.87388E+05 6.16812E+03 2.88964E+02-1.66779E-10-4.79758E-09
 -1       410 8.45424E+03 3.85492E+05 1.25889E+04-2.78601E+02-2.85218E-09 2.48292E-09
 -1       521-3.17228E+07-7.68992E+06-1.00809E+07-7.91393E+04-5.96046E-08 8.24220E-08
 -1       522 2.61629E+07 4.35775E+06 5.62506E+06-1.88530E+07-4.30504E-07-2.11614E-07
 -1       523-7.46578E+06-1.32411E+06-4.20272E+05 5.66818E+06 1.91940E-07-2.63157E-07
 -1       524-6.66971E+06 1.18471E+07 2.49277E+06-2.38208E+07 6.27246E-07-5.90160E-07
 -1       525-1.34915E+07-2.61193E+06-2.28587E+06 5.68282E+06 3.86965E-07-4.25236E-07
 -1       526 4.24469E+07-1.13823E+05 7.70611E+06-1.13377E+07 1.73226E-07 1.53406E-07
 -1       527-3.39134E+07-8.55763E+06-9.90959E+06-5.00653E+06 1.41095E-07 9.45583E-08
 -1       528 4.96597E+07 1.70583E+07 1.11827E+07 2.73547E+07-1.42842E-07 7.87841E-08
 -1       529-1.80845E+07-2.01588E+07-8.65356E+06-1.25822E+07 3.69095E-07-2.28640E-07
 -1       530-4.47038E+06 3.47368E+07 6.00913E+06 9.83935E+06-3.07729E-07 8.28644E-07
 -1       531 1.46217E+06-1.09024E+07-3.93584E+05-2.40648E+06-1.02444E-06 4.38071E-07
 -1       532-1.95761E+07 2.44797E+07 2.46669E+06-1.32835E+07 3.91170E-07-8.54357E-07
 -1       533-1.13271E+06-1.40523E+07-2.21514E+06-4.03479E+06-3.42348E-07-1.11462E-06
 -1       534 5.34485E+06 3.73954E+07 7.38906E+06 1.73390E+07-8.69040E-08 7.52741E-07
 -1       535-2.38827E+07-2.01568E+07-1.13714E+07-1.29408E+07 6.60075E-08 4.66418E-07
 -1       536-7.06341E+05-4.66805E+04-4.84631E+04-5.47190E+04-5.90535E-09 5.99794E-08
 -1       537-5.46971E+04 4.46026E+04 8.38183E+04 1.23922E+05-1.20269E-07 9.13988E-08
 -1       538-3.94429E+05 3.36383E+03 3.49045E+03-7.22407E+04 3.17260E-08 1.08571E-07
 -1       539-2.68977E+05 2.83789E+03 2.48995E+04 1.38818E+05 1.80642E-07 1.27633E-07
 -1       540-4.97445E+05-4.25746E+02-2.13571E+04-7.01514E+04 3.48791E-08 9.68740E-08
 -1       541 1.47101E+05 1.69834E+04 1.06468E+05 9.79965E+04-2.17206E-08 8.10893E-08
 -1       542-7.99296E+05-2.01521E+04-8.43143E+04-3.05426E+04 5.36866E-08 4.84712E-08
 -1       543 4.06035E+05 2.73495E+04 1.58110E+05-1.33654E+04 1.11868E-10 2.38379E-09
 -1       544-7.49434E+05-1.65526E+04-7.49050E+04 4.05401E+04 4.27599E-09-3.72598E-08
 -1       545 2.93387E+04 9.49393E+03 7.98858E+04-1.13692E+05-2.96502E-08-9.83878E-08
 -1       546-4.32717E+05 6.09980E+03-1.22398E+04 6.94370E+04 5.61113E-09-9.50895E-08
 -1       547-2.87053E+05-4.65562E+03 1.06042E+04-1.41664E+05-1.17095E-07-9.01322E-08
 -1       548-4.41548E+05 4.72080E+03-2.38905E+04 6.92045E+04-1.06598E-07-8.75584E-08
 -1       549 4.85177E+04 1.61112E+04 6.06013E+04-1.11556E+05-7.07502E-08-5.41932E-08
 -1       550-7.59308E+05-2.21813E+04-1.29036E+05 3.86119E+04-3.16504E-10-3.01716E-08
 -1       551 4.07591E+04-7.48830E+05-1.59427E+04-1.24666E+06-1.01674E-07-1.39116E-08
 -1       552 9.32139E+04-7.93805E+05 9.87815E+03-1.77756E+06-6.90343E-08 2.13113E-08
 -1       553 7.17328E+04-7.90213E+05 3.19957E+04-1.24002E+06-1.18438E-07 2.15514E-08
 -1       554 1.32002E+05-8.09715E+05 8.09815E+04-1.77951E+06-7.71470E-08 9.83164E-09
 -1       555 1.01468E+05-8.13868E+05 1.47907E+05-1.23984E+06-1.23720E-07-1.44864E-08
 -1       556 2.23776E+05-3.83780E+05 2.54988E+04-4.07250E+05-2.35741E-08-1.41736E-08
 -1       557 3.54314E+05-4.88133E+05 1.60186E+04-5.27726E+05-8.26549E-09 5.99903E-09
 -1       558 2.05525E+05-3.76526E+05 2.26652E+03-4.11725E+05-2.72121E-08-2.45927E-09
 -1       559 3.29319E+05-4.88168E+05 2.41266E+03-5.48186E+05 2.17697E-08-1.12268E-08
 -1       560 1.90211E+05-3.66923E+05-1.51934E+03-4.22761E+05 1.74623E-08 1.59635E-08
 -1       561 3.10081E+05-4.80466E+05 1.23333E+02-5.61305E+05 1.97906E-09 1.64873E-08
 -1       562 1.78103E+05-3.59401E+05-1.33083E+03-4.31528E+05 3.39060E-09-3.35422E-09
 -1       563 2.95700E+05-4.74195E+05-3.86257E+01-5.70698E+05-9.66247E-09-6.94035E-09
 -1       564 1.69461E+05-3.54017E+05-6.02188E+02-4.37652E+05 9.80799E-09-1.00813E-08
 -1       565 2.86160E+05-4.70041E+05 2.33985E+01-5.76793E+05 1.63564E-08 1.50462E-08
 -1       566 1.64409E+05-3.50820E+05-2.60712E+02-4.41186E+05-5.42059E-09 1.87174E-09
 -1       567 2.81522E+05-4.68023E+05-3.63142E+02-5.79610E+05 1.93904E-08 1.56069E-09
 -1       568 1.63036E+05-3.49980E+05-1.12696E+03-4.42242E+05-3.96631E-09 2.80488E-09
 -1       569 2.80397E+05-4.67950E+05-2.84620E+03-5.78182E+05-1.99161E-08 1.99361E-08
 -1       570 1.66437E+05-3.53215E+05-6.22181E+03-4.41221E+05-2.76486E-10-1.11659E-08
 -1       571 2.89938E+05 1.04676E+04 1.49269E+04-9.55398E+04 5.81440E-09-6.19093E-09
 -1       572 2.92100E+05 3.94882E+03 7.31543E+03-1.04818E+05 6.88260E-09 5.45242E-09
 -1       573 2.90796E+05 1.24530E+03 3.25047E+03-9.53628E+04 4.25825E-09 1.16943E-08
 -1       574 2.91009E+05 7.29551E+02 1.63008E+03-1.05042E+05 2.43926E-09-1.27238E-08
 -1       575 2.90889E+05 4.51001E+02 7.69307E+02-9.53386E+04-5.05405E-09-3.87263E-09
 -1       576 2.90873E+05 4.62729E+02 3.93793E+02-1.05072E+05-1.24119E-08-4.04816E-09
 -1       577 2.90929E+05 3.92897E+02 1.96376E+02-9.53353E+04-3.35876E-09 2.52203E-09
 -1       578 2.90904E+05 4.24410E+02 1.13058E+02-1.05077E+05-3.03908E-09-2.06310E-08
 -1       579 2.91002E+05 3.55800E+02 7.69080E+01-9.53350E+04 7.08496E-09-6.07270E-09
 -1       580 2.91007E+05 3.72764E+02 8.82929E+01-1.05072E+05-8.91851E-09-4.85670E-09
 -1       581 2.91118E+05 2.96282E+02 1.32228E+02-9.53409E+04 4.83305E-09-1.00181E-08
 -1       582 2.91183E+05 3.32871E+02 2.68527E+02-1.05010E+05 6.00994E-09-4.01542E-09
 -1       583 2.91260E+05 3.32549E+02 5.14489E+02-9.53978E+04 3.56158E-09 5.73482E-09
 -1       584 2.91553E+05 7.52573E+02 1.16463E+03-1.04531E+05 4.99313E-09 4.09273E-10
 -1       585 2.91294E+05 1.72943E+03 2.35739E+03-9.58188E+04-2.36651E-09 2.39743E-09
 -1       586-3.42396E+03 1.16968E+05-2.91044E+03-2.50746E+05-8.89895E-09 1.42531E-08
 -1       587-1.34086E+03 1.16720E+05 7.76219E+02-2.75964E+05-7.43057E-09-9.37780E-09
 -1       588 3.96839E+02 1.16526E+05 4.76509E+03-2.50608E+05-4.96402E-09-1.59962E-08
 -1       589 5.08662E+03 1.19001E+05 1.23549E+04-2.75731E+05-1.10158E-08-9.74705E-09
 -1       590 1.66202E+04 1.15191E+05 2.59153E+04-2.51039E+05-6.22094E-09-9.21864E-09
 -1       591-7.38246E+04-1.57351E+04-2.24025E+04-3.14429E+04 4.30873E-10 1.16142E-09
 -1       592-7.79112E+04-1.92525E+04-1.21350E+04-3.50245E+04 5.22060E-09-1.05110E-08
 -1       593-7.60647E+04-1.41099E+04-5.05120E+03-3.30859E+04 6.21073E-09 1.01954E-09
 -1       594-7.48184E+04-1.59649E+04-2.51919E+03-3.51411E+04-1.40490E-09 2.05494E-08
 -1       595-7.62355E+04-1.41045E+04-1.15662E+03-3.31605E+04 1.13165E-09 1.24134E-08
 -1       596-7.46066E+04-1.58145E+04-5.87877E+02-3.51159E+04 8.55219E-09-8.60516E-09
 -1       597-7.62569E+04-1.41198E+04-3.19898E+02-3.31634E+04 3.16055E-09 1.60492E-09
 -1       598-7.45857E+04-1.58086E+04-2.56759E+02-3.51089E+04-8.46438E-09-2.07304E-08
 -1       599-7.62557E+04-1.41203E+04-3.27473E+02-3.31630E+04 4.85659E-09-1.43368E-08
 -1       600-7.46068E+04-1.58151E+04-6.07932E+02-3.51139E+04 6.65159E-09-4.12228E-10
 -1       601-7.62311E+04-1.41058E+04-1.19911E+03-3.31596E+04 1.31342E-08-5.60453E-09
 -1       602-7.48264E+04-1.59698E+04-2.61323E+03-3.51362E+04 4.68390E-09-3.29661E-08
 -1       603-7.60512E+04-1.41141E+04-5.24053E+03-3.30830E+04 3.32489E-09-9.03583E-10
 -1       604-7.80526E+04-1.93612E+04-1.25890E+04-3.49906E+04 1.69985E-09 1.13905E-08
 -1       605-7.37074E+04-1.58179E+04-2.32409E+04-3.13978E+04 2.40493E-09 2.40561E-08
 -1       606 2.65801E+04-1.43577E+04-2.57394E+04 2.38737E+04 6.42376E-09-2.28056E-09
 -1       607 2.21820E+04-4.68888E+03-1.28182E+04 2.68292E+04 2.11367E-09-5.97697E-09
 -1       608 2.46889E+04-8.45503E+02-5.73823E+03 2.37060E+04-3.50883E-09-1.02905E-08
 -1       609 2.42084E+04-2.89454E+02-2.89881E+03 2.70422E+04 4.08181E-09 1.74541E-08
 -1       610 2.44751E+04-4.07736E+01-1.38303E+03 2.36860E+04 8.25094E-09-4.91491E-09
 -1       611 2.43998E+04-4.11332E+01-6.97318E+02 2.70652E+04 9.12769E-09-1.09978E-08
 -1       612 2.44282E+04-2.71869E+01-3.31467E+02 2.36840E+04 8.94124E-09 1.36743E-09
 -1       613 2.44116E+04-3.71729E+01-1.48495E+02 2.70679E+04 1.69966E-08-6.31394E-09
 -1       614 2.44061E+04-3.37411E+01-3.47018E+01 2.36833E+04 1.23373E-08 5.46606E-09
 -1       615 2.44065E+04-3.57889E+01 6.25151E+01 2.70684E+04 4.30191E-09 1.50189E-08
 -1       616 2.43889E+04-3.07007E+01 1.87210E+02 2.36836E+04 3.44789E-09-1.03510E-08
 -1       617 2.44292E+04 4.01800E+00 4.27021E+02 2.70679E+04-4.97266E-10-2.84426E-08
 -1       618 2.43519E+04 9.23337E+01 8.60694E+02 2.36839E+04-1.24805E-08-2.18702E-08
 -1       619 2.47331E+04 6.69453E+02 1.93273E+03 2.70673E+04-2.65989E-08 2.82776E-08
 -1       620 2.40661E+04 2.13322E+03 3.88473E+03 2.36855E+04-8.67612E-09 1.55014E-08
 -1       621 5.30107E+02 3.07231E+05 4.43224E+03 4.02451E+04 7.97172E-09 1.45255E-08
 -1       622 7.67172E+02 3.08281E+05 3.80313E+03 5.92859E+04 5.59839E-09-1.71926E-08
 -1       623 1.36581E+02 3.07486E+05 4.38248E+03 4.00631E+04 9.94805E-09-5.44514E-09
 -1       624 2.22834E+03 3.09501E+05 8.35894E+03 5.94628E+04 6.15501E-09-1.84809E-09
 -1       625 1.93515E+03 3.05831E+05 1.44705E+04 4.00623E+04 1.07348E-08 1.18757E-09
 -1       626 2.61226E+05 6.14041E+04 5.11687E+03 1.26798E+05 2.34922E-09-1.34023E-08
 -1       627 2.58913E+05 6.27962E+04 2.46578E+03 1.31063E+05-4.44925E-09-1.42427E-08
 -1       628 2.61353E+05 5.90634E+04 1.04286E+03 1.27668E+05-6.87669E-09-5.60340E-09
 -1       629 2.58279E+05 6.21159E+04 5.10425E+02 1.31302E+05-4.25825E-09 1.24310E-08
 -1       630 2.61368E+05 5.89503E+04 2.36893E+02 1.27705E+05-5.83577E-09 5.71333E-10
 -1       631 2.58213E+05 6.20899E+04 1.27635E+02 1.31304E+05 2.49588E-09 1.30980E-08
 -1       632 2.61364E+05 5.89541E+04 8.42595E+01 1.27701E+05 8.19000E-09 3.52406E-09
 -1       633 2.58204E+05 6.20917E+04 9.42845E+01 1.31301E+05 4.71800E-10-2.47339E-08
 -1       634 2.61360E+05 5.89512E+04 1.52738E+02 1.27700E+05-2.27942E-09-3.46631E-09
 -1       635 2.58219E+05 6.20899E+04 3.09292E+02 1.31307E+05-6.55243E-09 3.07500E-08
 -1       636 2.61351E+05 5.89454E+04 6.24734E+02 1.27700E+05-2.09411E-09-1.03055E-08
 -1       637 2.58354E+05 6.21870E+04 1.37372E+03 1.31306E+05 2.89560E-09 1.04822E-08
 -1       638 2.61302E+05 5.92488E+04 2.82249E+03 1.27563E+05 3.97677E-09-1.20431E-08
 -1       639 2.59837E+05 6.42491E+04 6.67817E+03 1.30869E+05 6.95741E-09 1.20326E-09
 -1       640 2.61097E+05 6.54065E+04 1.38584E+04 1.24969E+05 3.72347E-09 5.76620E-09
 -1       656 6.66160E+04-1.70507E+06-1.60807E+05-2.56266E+03 4.29281E-10-7.91044E-09
 -1       657-8.81290E+04-1.77774E+06-1.33223E+05 5.13750E+03-2.13731E-10-4.38035E-09
 -1       658 2.12366E+04-1.72570E+06-8.20532E+04-4.64677E+03-1.19599E-10-1.01893E-08
 -1       659-9.53103E+04-1.78115E+06-1.42660E+05 6.87247E+03-4.51109E-10-2.07086E-08
 -1       660 7.37813E+04-1.70167E+06-1.77033E+05-4.29761E+03-3.02680E-09-2.64228E-09
 -1       661 1.57821E+05 1.65066E+04 1.66617E+04 6.16997E+04-3.18778E-09-1.28694E-09
 -1       662 1.67253E+05 2.88341E+04 1.12289E+04 5.79482E+04 1.89516E-09-2.31728E-08
 -1       663 1.61094E+05 2.18520E+04 3.92713E+03 6.07499E+04-2.19745E-09 2.69733E-09
 -1       664 1.63458E+05 2.25832E+04 2.34927E+03 5.91085E+04-1.22282E-09-6.58588E-09
 -1       665 1.61591E+05 2.25821E+04 9.26772E+02 6.06049E+04 9.93737E-10-2.11583E-09
 -1       666 1.62871E+05 2.17484E+04 5.42524E+02 5.92975E+04 8.24940E-09-6.35195E-10
 -1       667 1.61678E+05 2.26651E+04 2.88397E+02 6.05686E+04-2.15778E-10 1.23778E-08
 -1       668 1.62775E+05 2.16888E+04 2.94390E+02 5.93503E+04-1.41949E-09-4.54349E-10
 -1       669 1.61686E+05 2.26400E+04 3.99003E+02 6.05524E+04-3.51989E-09 2.05086E-08
 -1       670 1.62872E+05 2.19055E+04 8.69243E+02 5.93532E+04-6.46504E-09-1.68326E-09
 -1       671 1.61581E+05 2.24529E+04 1.54355E+03 6.05637E+04 1.98143E-09-1.61407E-08
 -1       672 1.63772E+05 2.34071E+04 3.94924E+03 5.91351E+04 9.31630E-09 3.11297E-09
 -1       673 1.60791E+05 2.11764E+04 6.61833E+03 6.07559E+04 1.05751E-09 5.26143E-09
 -1       674 1.70071E+05 3.40401E+04 1.89271E+04 5.72844E+04-4.73699E-09 9.63519E-09
 -1       675 1.55322E+05 1.21177E+04 2.80944E+04 6.23027E+04-3.40651E-09-2.67028E-09
 -1       676 2.41014E+01-2.95860E+05-1.11294E+03-1.37866E+02 3.51861E-11-2.24036E-09
 -1       677-2.94390E+02-2.96129E+05-2.03687E+03 2.75510E+02 8.09428E-09-3.16627E-09
 -1       678 1.97459E+02-2.95668E+05-3.60069E+03-1.37554E+02 1.85696E-09-3.42082E-09
 -1       679-3.60074E+03-2.98303E+05-8.55374E+03 2.74320E+02 7.36577E-09 2.26515E-09
 -1       680 2.14985E+03-2.93687E+05-1.37857E+04-1.35157E+02-2.01362E-09-1.12849E-08
 -1       771-3.06173E+06-7.47427E+05-1.66203E+05-1.46589E+06-3.40806E-08-2.94531E-08
 -1       772-2.98459E+06-8.36352E+05-8.56923E+04-1.56870E+06-2.67755E-08 6.19912E-09
 -1       773-3.09327E+06-7.22839E+05-4.36781E+04-1.48047E+06-1.29803E-08 1.40863E-08
 -1       774-2.97505E+06-8.17782E+05-1.94883E+04-1.59450E+06 2.80706E-08 1.88084E-09
 -1       775-3.10973E+06-7.11286E+05-1.45740E+04-1.48753E+06-2.70666E-09 7.34872E-10
 -1       776-2.98741E+06-8.14737E+05-5.45070E+03-1.61401E+06-8.68749E-09-3.63798E-09
 -1       777-3.12402E+06-7.00973E+05-6.43820E+03-1.49376E+06 1.49012E-08-1.89175E-09
 -1       778-3.00033E+06-8.11906E+05-1.82053E+03-1.63079E+06 2.32394E-08 1.09430E-08
 -1       779-3.13631E+06-6.91962E+05-3.21701E+03-1.49909E+06-9.21136E-09-7.05768E-09
 -1       780-3.01170E+06-8.09206E+05-5.33509E+02-1.64445E+06-1.54250E-08 4.87307E-09
 -1       781-3.14608E+06-6.84697E+05-1.24959E+03-1.50326E+06-3.43571E-08 6.54836E-10
 -1       782-3.02046E+06-8.06913E+05 4.50862E+02-1.65453E+06-3.45171E-08-6.90761E-09
 -1       783-3.15296E+06-6.79649E+05 7.02062E+02-1.50617E+06-7.45786E-09-1.57352E-08
 -1       784-3.02532E+06-8.04623E+05 2.90876E+03-1.66075E+06-1.81426E-08-1.15779E-09
 -1       785-3.15703E+06-6.76637E+05 5.13512E+03-1.50802E+06-3.63289E-08 6.84850E-09
 -1       786 1.24167E+05-9.78971E+03 2.26495E+04-3.24479E+02 9.68075E-10-1.39189E-08
 -1       787 1.33990E+05 1.13343E+04 1.60236E+04-1.35251E+02 5.13917E-09-1.03955E-09
 -1       788 1.27954E+05-1.53407E+03 5.85989E+03-2.88987E+02 6.09553E-09 2.83046E-08
 -1       789 1.29578E+05 1.77565E+03 3.67861E+03-1.89609E+02 1.56230E-09-4.64144E-09
 -1       790 1.28580E+05-2.38844E+02 1.48937E+03-2.70138E+02-4.86341E-09-1.02804E-08
 -1       791 1.28846E+05 2.76338E+02 8.60149E+02-2.21800E+02-8.35317E-09-2.25971E-08
 -1       792 1.28686E+05-3.58800E+01 3.64348E+02-2.56798E+02-3.14745E-09-2.09380E-09
 -1       793 1.28720E+05 3.78384E+01 1.81306E+02-2.46816E+02 7.79082E-10 7.65280E-09
 -1       794 1.28706E+05-4.94977E-01 4.64586E+01-2.45122E+02 4.08786E-09 6.92687E-09
 -1       795 1.28682E+05-2.81085E+01-5.97514E+01-2.71099E+02-3.54740E-09 1.18607E-08
 -1       796 1.28723E+05 3.00301E+01-1.66282E+02-2.32515E+02 3.95186E-09-7.84881E-09
 -1       797 1.28586E+05-2.24149E+02-4.55565E+02-2.99990E+02 5.67245E-09 1.41544E-09
 -1       798 1.28803E+05 1.95399E+02-7.39572E+02-2.16230E+02 2.12349E-09 1.11692E-08
 -1       799 1.28025E+05-1.44029E+03-2.03446E+03-3.40301E+02 4.72746E-09 7.08096E-09
 -1       800 1.29284E+05 1.24518E+03-2.87909E+03-1.92206E+02 5.69475E-10 6.87442E-09
 -1       801-1.71425E+05-1.00018E+07-1.39413E+06 1.41643E+06 9.09786E-08-5.28053E-08
 -1       802 7.38894E+05 5.95690E+06 2.18335E+06-1.74864E+06 2.58529E-07-3.53239E-08
 -1       803-5.37024E+05-1.42746E+07-1.89191E+06 8.98698E+05 7.69360E-08 2.26464E-08
 -1       804 2.87474E+05 2.39998E+06 1.53849E+06 6.77602E+05-1.20286E-07-1.07582E-07
 -1       805 1.89427E+05-6.45897E+06-2.86677E+05-1.00414E+06-5.03569E-08-6.76228E-08
 -1       806-3.08962E+05-5.97431E+04-2.28523E+04-1.22400E+05-5.62659E-09-8.90168E-09
 -1       807-3.10763E+05-5.60099E+04-1.12271E+04-1.27942E+05 2.86491E-10-1.48412E-09
 -1       808-3.09589E+05-5.15074E+04-4.76291E+03-1.26293E+05-1.87265E-09-3.44619E-09
 -1       809-3.08403E+05-5.28551E+04-2.32894E+03-1.28217E+05-2.37924E-09 2.42453E-08
 -1       810-3.09684E+05-5.12207E+04-1.06749E+03-1.26466E+05 7.01129E-09 3.36809E-09
 -1       811-3.08220E+05-5.27283E+04-5.30878E+02-1.28181E+05 5.57066E-09 2.24850E-09
 -1       812-3.09698E+05-5.12454E+04-2.68571E+02-1.26465E+05-5.93900E-09-9.46238E-09
 -1       813-3.08195E+05-5.27305E+04-1.74659E+02-1.28163E+05-4.51473E-09 1.45342E-08
 -1       814-3.09691E+05-5.12552E+04-1.73283E+02-1.26461E+05 9.34961E-10 3.49655E-09
 -1       815-3.08198E+05-5.27327E+04-2.79348E+02-1.28155E+05 7.31234E-10 1.36358E-08
 -1       816-3.09670E+05-5.12543E+04-5.29565E+02-1.26457E+05 3.83989E-09 1.77388E-08
 -1       817-3.08288E+05-5.27832E+04-1.13654E+03-1.28143E+05-1.36611E-08-1.03453E-08
 -1       818-3.09601E+05-5.14148E+04-2.31817E+03-1.26381E+05-1.57979E-09-9.25684E-09
 -1       819-3.09557E+05-5.41836E+04-5.45445E+03-1.27843E+05 7.30279E-09-3.29419E-09
 -1       820-3.09164E+05-5.55353E+04-1.11018E+04-1.24622E+05 2.15914E-09-5.48107E-09
 -1       821-3.80367E+05 2.09587E+04-4.88338E+04 2.21448E+03 1.46431E-08 3.49246E-10
 -1       822-3.99970E+05-2.42821E+04-3.42835E+04-4.73769E+03 5.44084E-09 1.02727E-09
 -1       823-3.87778E+05 3.30643E+03-1.26093E+04 3.63756E+03-1.38019E-08 2.09493E-08
 -1       824-3.90992E+05-3.81187E+03-7.88709E+03-5.75905E+03 1.34888E-10 1.69885E-08
 -1       825-3.89354E+05 5.14303E+02-3.30890E+03 3.23598E+03 2.18588E-08-2.17904E-09
 -1       826-3.88444E+05-5.65812E+02-1.72635E+03-3.36609E+03 2.64635E-08-1.65162E-08
 -1       827-3.90299E+05 4.14790E+01-1.21729E+03 1.24443E+03 1.32481E-08-1.33149E-08
 -1       828-3.87657E+05-1.24957E+02-5.46353E+02 1.10439E+03 1.81922E-09 1.81296E-08
 -1       829-3.90125E+05 6.16730E+01-1.20247E+03-1.23453E+03 2.21033E-09-8.41763E-09
 -1       830-3.88817E+05-6.21846E+02-1.86625E+03 5.16602E+03 5.70203E-10 4.22767E-09
 -1       831-3.89164E+05 5.58261E+02-3.38192E+03-2.81720E+03-4.64210E-09 1.05986E-08
 -1       832-3.91067E+05-3.97266E+03-8.17430E+03 6.55676E+03-6.66761E-09-2.80579E-09
 -1       833-3.87893E+05 3.42384E+03-1.30908E+04-2.62532E+03-2.17773E-09 2.35923E-09
 -1       834-3.99981E+05-2.51473E+04-3.54331E+04 4.46658E+03-1.66034E-09-4.78849E-09
 -1       835-3.80230E+05 2.16978E+04-5.06105E+04-7.26932E+02 4.82129E-09 3.31056E-10
 -1       836-1.40779E+03 3.70306E+05 2.27947E+04-1.63560E+04-7.02039E-09 2.69324E-08
 -1       837 4.85811E+03 3.77446E+05 1.93158E+04-3.34196E+04-7.73537E-09 1.99352E-08
 -1       838-5.58161E+02 3.72301E+05 1.97184E+04-1.62838E+04-6.52562E-09-3.17573E-09
 -1       839 1.24237E+04 3.83080E+05 3.73387E+04-3.34725E+04-6.97401E-09-4.76518E-09
 -1       840-3.84257E+03 3.64611E+05 5.95582E+04-1.63090E+04-6.09361E-09 6.03586E-09
 -1       856-5.14882E+04 8.00725E+03-2.11008E+04-3.97544E+02 4.02110E-09-1.71822E-08
 -1       857-6.01812E+04-9.40834E+03-1.45256E+04 5.62902E+03 4.22409E-09-3.51865E-08
 -1       858-5.49309E+04 1.12294E+03-5.47514E+03-4.21437E+02 1.87447E-09-1.58968E-08
 -1       859-5.62304E+04-1.32117E+03-3.30395E+03 5.66453E+03-3.20409E-09 8.39231E-09
 -1       860-5.54452E+04 1.57269E+02-1.38461E+03-4.32784E+02 3.83039E-10-3.96585E-09
 -1       861-5.56388E+04-1.87807E+02-7.61538E+02 5.67998E+03-1.12240E-09-4.80759E-09
 -1       862-5.55257E+04 2.12982E+01-3.16231E+02-4.36863E+02 5.40435E-10-1.71488E-09
 -1       863-5.55401E+04-2.17757E+01-1.14445E+02 5.68235E+03-7.55260E-09 1.69005E-09
 -1       864-5.55444E+04-4.98511E+00 4.87848E+01-4.35156E+02-2.16599E-09 1.45519E-10
 -1       865-5.54840E+04 6.02782E+01 2.58441E+02 5.67258E+03-5.78461E-09-2.11123E-08
 -1       866-5.55796E+04-6.07591E+01 5.19977E+02-4.27096E+02 1.50089E-09-5.20834E-09
 -1       867-5.52397E+04 5.01772E+02 1.27931E+03 5.65071E+03 2.55795E-10 7.24154E-09
 -1       868-5.57838E+04-4.38470E+02 2.12571E+03-4.13280E+02 2.39891E-09-2.04767E-08
 -1       869-5.36815E+04 3.64938E+03 5.65981E+03 5.61471E+03 4.28824E-09-2.67828E-08
 -1       870-5.71300E+04-3.12282E+03 8.21371E+03-3.90992E+02-3.82738E-09-9.06584E-09
 -1       871-5.52341E+03-2.13682E+04-1.95135E+04 1.30606E+05-5.45879E-09 3.56886E-09
 -1       872-1.98256E+03-2.59063E+04-8.17203E+03 1.69351E+05-1.07520E-08-1.08398E-08
 -1       873 4.07113E+02-2.37111E+04 5.87356E+02 1.30319E+05-7.39101E-09-6.18570E-10
 -1       874 3.31018E+03-2.12996E+04 9.78350E+03 1.69380E+05-1.37798E-08-9.92804E-09
 -1       875 6.85190E+03-2.60420E+04 2.20733E+04 1.30558E+05-5.97538E-09 2.06819E-09
 -1       876 2.93928E+05 4.95224E+04 1.50979E+04 1.17934E+05 3.79783E-08 6.31189E-10
 -1       877 2.94930E+05 5.26989E+04 8.06286E+03 1.22262E+05 9.99162E-08-3.08364E-09
 -1       878 2.95340E+05 4.78500E+04 3.37794E+03 1.19171E+05 2.50716E-07-1.02020E-07
 -1       879 2.92878E+05 5.06507E+04 1.68311E+03 1.22364E+05 6.55327E-07-2.41636E-07
 -1       880 2.95442E+05 4.78327E+04 7.83982E+02 1.19222E+05 1.78242E-06-6.72962E-07
 -1       881 2.92741E+05 5.05631E+04 4.18701E+02 1.22340E+05 3.94818E-06-1.48798E-06
 -1       882 2.95451E+05 4.78460E+04 2.67935E+02 1.19223E+05 9.57349E-06-3.59227E-06
 -1       883 2.92732E+05 5.05585E+04 2.88161E+02 1.22333E+05 1.03075E-05-3.86759E-06
 -1       884 2.95444E+05 4.78432E+04 4.58506E+02 1.19224E+05 5.12659E-05-1.91743E-05
 -1       885 2.92768E+05 5.05649E+04 9.21920E+02 1.22344E+05 9.58118E-05-3.58381E-05
 -1       886 2.95408E+05 4.78163E+04 1.85812E+03 1.19220E+05 5.12699E-05-1.91790E-05
 -1       887 2.93095E+05 5.07790E+04 4.05882E+03 1.22391E+05 1.03411E-05-3.87984E-06
 -1       888 2.95152E+05 4.78615E+04 8.17865E+03 1.19090E+05 9.62187E-06-3.61517E-06
 -1       889 2.97963E+05 5.58426E+04 1.95373E+04 1.22242E+05 3.99806E-06-1.49425E-06
 -1       890 2.91814E+05 5.18268E+04 3.65929E+04 1.15978E+05 1.77940E-06-6.68637E-07
 -1       891-8.93330E+01-1.62816E+05-1.99833E+03 2.71188E+04 1.48680E-09-3.09910E-09
 -1       892-1.75314E+02-1.63344E+05-2.14566E+03 4.11821E+04 2.49611E-09-3.74280E-09
 -1       893 4.39278E+01-1.62881E+05-3.03739E+03 2.71262E+04 2.24418E-10 1.27893E-08
 -1       894-1.51035E+03-1.64492E+05-6.28584E+03 4.10297E+04 3.78327E-09 2.91129E-08
 -1       895-1.19947E+03-1.61571E+05-1.10691E+04 2.72731E+04-7.81370E-10-1.04146E-08
 -1       956-3.77482E+05-5.45515E+03-1.34664E+04 3.08794E+04 6.59475E-09-9.58789E-09
 -1       957-3.80124E+05-1.92437E+03-6.91212E+03 3.71092E+04 1.56524E-09 6.72753E-09
 -1       958-3.78692E+05-2.41106E+02-3.11481E+03 3.07118E+04-5.86442E-09-1.91981E-08
 -1       959-3.78889E+05-1.36357E+02-1.59047E+03 3.73047E+04 2.02090E-09-2.68619E-08
 -1       960-3.78811E+05-4.48238E+01-7.75585E+02 3.06946E+04 4.10910E-09 4.67458E-09
 -1       961-3.78809E+05-6.32821E+01-4.11207E+02 3.73251E+04 6.56291E-09 4.63319E-09
 -1       962-3.78838E+05-4.60833E+01-2.35422E+02 3.06917E+04-5.08135E-09 1.50028E-08
 -1       963-3.78809E+05-5.91215E+01-1.88986E+02 3.73288E+04-9.98125E-09 1.13218E-08
 -1       964-3.78844E+05-4.27610E+01-2.29822E+02 3.06909E+04-7.02299E-09-2.63822E-09
 -1       965-3.78821E+05-5.61965E+01-3.97497E+02 3.73281E+04-5.17593E-09-1.16863E-08
 -1       966-3.78827E+05-3.49515E+01-7.46890E+02 3.06924E+04-3.50155E-11-1.23971E-08
 -1       967-3.78911E+05-1.19842E+02-1.53185E+03 3.73136E+04-2.49747E-09-8.99854E-09
 -1       968-3.78723E+05-2.17660E+02-2.99882E+03 3.07051E+04-1.37607E-09-3.81840E-09
 -1       969-3.80112E+05-1.83639E+03-6.65729E+03 3.71649E+04 2.87400E-09-2.69858E-09
 -1       970-3.77566E+05-5.23555E+03-1.29688E+04 3.08326E+04-4.98403E-10 5.53882E-09
 -1       971-3.45524E+05-1.72735E+03-9.30876E+03 1.53742E+04 6.17729E-09 1.57155E-09
 -1       972-3.47765E+05-1.27175E+03-5.06946E+03 2.12619E+04 3.71847E-09 2.35559E-09
 -1       973-3.46561E+05-6.21240E+01-2.27066E+03 1.52531E+04 4.17731E-09 1.86792E-08
 -1       974-3.46696E+05-8.12100E+01-1.17704E+03 2.13989E+04-2.26282E-09-8.53390E-09
 -1       975-3.46643E+05-1.72574E+01-5.88840E+02 1.52408E+04-3.58568E-09-5.26143E-09
 -1       976-3.46635E+05-3.13747E+01-3.40588E+02 2.14147E+04 1.56365E-09 5.64387E-09
 -1       977-3.46659E+05-1.65115E+01-2.48747E+02 1.52374E+04-3.79282E-09 1.08170E-08
 -1       978-3.46640E+05-2.51495E+01-2.93205E+02 2.14196E+04-7.84257E-09 1.94656E-08
 -1       979-3.46659E+05-8.02867E+00-4.72908E+02 1.52359E+04-4.91497E-09 2.20325E-09
 -1       980-3.46675E+05-2.20852E+01-9.14267E+02 2.14205E+04-5.90057E-09-1.20364E-08
 -1       981-3.46630E+05 1.48277E+01-1.77132E+03 1.52364E+04 1.14028E-10 7.29074E-09
 -1       982-3.46919E+05-1.52961E+02-3.66162E+03 2.14139E+04 1.87595E-09 1.52631E-08
 -1       983-3.46407E+05-9.85877E+01-7.11472E+03 1.52425E+04-2.47610E-09 1.47020E-09
 -1       984-3.50340E+05-3.86876E+03-1.59332E+04 2.13283E+04-2.42039E-09 5.53064E-09
 -1       985-3.43186E+05-5.30469E+03-2.92583E+04 1.53138E+04-3.37150E-09 3.84898E-09
 -3
    1PSTEP                        27          14           1          
  100CL  114 6.62933E-01         409                     0   14           1
 -4  DISP        4    1
 -5  D1          1    2    1    0
 -5  D2          1    2    2    0
 -5  D3          1    2    3    0
 -5  ALL         1    2    0    0    1ALL
 -1         1 2.72663E-03 0.00000E+00 0.00000E+00
 -1         2 1.32896E-03-1.72960E-28 5.29396E-23
 -1         3 3.42754E-04-6.07611E-28 0.00000E+00
 -1         5 1.77139E-04-1.88208E-27 3.30872E-24
 -1         8 2.71593E-03-4.01333E-07 0.00000E+00
 -1         9 2.70918E-03-2.00159E-04 0.00000E+00
 -1        10 3.10795E-04-3.39470E-06 0.00000E+00
 -1        12 1.78985E-04 8.09342E-07 4.13590E-25
 -1        15 2.70373E-03-4.24404E-07 1.03398E-25
 -1        16 2.77904E-03-2.02033E-04 0.00000E+00
 -1        17 2.11512E-04-7.74419E-06 0.00000E+00
 -1        18 1.82933E-04 3.44530E-05 0.00000E+00
 -1        19 1.84523E-04 1.61228E-06 0.00000E+00
 -1        20 1.84662E-04-9.89359E-06 0.00000E+00
 -1        21 1.83768E-04-2.54707E-05 0.00000E+00
 -1        24 3.06056E-05-1.19668E-05 0.00000E+00
 -1        25 1.93732E-04 3.46788E-05 0.00000E+00
 -1        26 1.94415E-04 2.24445E-06 0.00000E+00
 -1        27 1.92201E-04-1.34547E-05 0.00000E+00
 -1        28 1.91888E-04-2.60928E-05 0.00000E+00
 -1        32 0.00000E+00 0.00000E+00 0.00000E+00
 -1        33 2.03287E-04 2.99849E-06 0.00000E+00
 -1        34 2.01167E-04-1.35109E-05 0.00000E+00
 -1        35 1.99234E-04-2.64354E-05 0.00000E+00
 -1        51 2.72591E-03-8.44269E-08 0.00000E+00
 -1        52 2.72460E-03-1.50386E-07 0.00000E+00
 -1        53 2.72281E-03-2.12842E-07 0.00000E+00
 -1        54 2.72069E-03-2.74028E-07-1.65436E-24
 -1        55 2.71835E-03-3.35709E-07-2.48154E-24
 -1        56 2.71855E-03 9.43243E-06 0.00000E+00
 -1        57 2.70237E-03 3.88023E-05 0.00000E+00
 -1        58 2.68050E-03 8.18724E-05-1.05879E-22
 -1        59 2.65597E-03 1.31107E-04 0.00000E+00
 -1        60 2.63248E-03 1.77912E-04 0.00000E+00
 -1        61 2.61356E-03 2.13889E-04 5.29396E-23
 -1        62 2.60165E-03 2.32572E-04 0.00000E+00
 -1        63 2.59829E-03 2.29036E-04 5.29396E-23
 -1        64 2.60324E-03 2.02440E-04-1.05879E-22
 -1        65 2.61550E-03 1.54137E-04-5.29396E-23
 -1        66 2.63292E-03 8.96199E-05 0.00000E+00
 -1        67 2.65311E-03 1.59865E-05 0.00000E+00
 -1        68 2.67338E-03-5.78844E-05-1.05879E-22
 -1        69 2.69104E-03-1.23084E-04 0.00000E+00
 -1        70 2.70365E-03-1.72400E-04 5.29396E-23
 -1        86 1.41577E-03-6.29922E-06 5.29396E-23
 -1        87 1.66670E-03-3.97180E-05-2.64698E-23
 -1        88 2.00413E-03-9.72134E-05 2.64698E-23
 -1        89 2.34622E-03-1.56336E-04 0.00000E+00
 -1        90 2.60841E-03-1.92524E-04 0.00000E+00
 -1       121 3.41856E-04-5.48043E-07 0.00000E+00
 -1       122 3.39168E-04-1.09918E-06 0.00000E+00
 -1       123 3.34697E-04-1.65644E-06-1.32349E-23
 -1       124 3.28462E-04-2.22287E-06-6.61744E-24
 -1       125 3.20484E-04-2.80112E-06 0.00000E+00
 -1       191 1.77190E-04 1.34954E-07 0.00000E+00
 -1       192 1.77344E-04 2.69896E-07-8.27181E-25
 -1       193 1.77601E-04 4.04819E-07 8.27181E-25
 -1       194 1.77959E-04 5.39709E-07 1.65436E-24
 -1       195 1.78421E-04 6.74554E-07 3.30872E-24
 -1       251 2.71563E-03 1.60711E-06-6.61744E-24
 -1       252 2.71533E-03 3.46929E-06 0.00000E+00
 -1       253 2.71503E-03 4.17802E-06 6.61744E-24
 -1       254 2.71472E-03 2.74039E-06 3.30872E-24
 -1       255 2.71441E-03-1.51262E-06-6.61744E-24
 -1       256 2.71408E-03-9.21504E-06 0.00000E+00
 -1       257 2.71371E-03-2.04807E-05 0.00000E+00
 -1       258 2.71330E-03-3.53792E-05-3.30872E-24
 -1       259 2.71284E-03-5.34325E-05 0.00000E+00
 -1       260 2.71233E-03-7.41234E-05 6.61744E-24
 -1       261 2.71178E-03-9.65366E-05-1.32349E-23
 -1       262 2.71122E-03-1.19736E-04 0.00000E+00
 -1       263 2.71066E-03-1.42667E-04 0.00000E+00
 -1       264 2.71013E-03-1.64277E-04 0.00000E+00
 -1       265 2.70964E-03-1.83717E-04 0.00000E+00
 -1       266 2.71390E-03-4.10749E-07-1.65436E-24
 -1       267 2.71186E-03-4.13915E-07-4.13590E-25
 -1       268 2.70983E-03-4.17477E-07 0.00000E+00
 -1       269 2.70780E-03-4.19866E-07-2.06795E-25
 -1       270 2.70576E-03-4.22229E-07-2.06795E-25
 -1       271 2.71512E-03 3.17570E-10 0.00000E+00
 -1       272 2.71531E-03-2.31881E-06 0.00000E+00
 -1       273 2.71645E-03-7.19510E-06 1.32349E-23
 -1       274 2.71846E-03-1.44521E-05 0.00000E+00
 -1       275 2.72128E-03-2.38922E-05 0.00000E+00
 -1       276 2.72481E-03-3.53021E-05 0.00000E+00
 -1       277 2.72896E-03-4.84521E-05-2.64698E-23
 -1       278 2.73366E-03-6.30992E-05-1.32349E-23
 -1       279 2.73881E-03-7.89883E-05 1.32349E-23
 -1       280 2.74430E-03-9.58546E-05 0.00000E+00
 -1       281 2.75004E-03-1.13425E-04-1.32349E-23
 -1       282 2.75594E-03-1.31422E-04 0.00000E+00
 -1       283 2.76189E-03-1.49564E-04-1.32349E-23
 -1       284 2.76778E-03-1.67566E-04 0.00000E+00
 -1       285 2.77353E-03-1.85150E-04 0.00000E+00
 -1       301 2.72187E-03-2.00507E-04-6.61744E-24
 -1       302 2.73289E-03-2.00807E-04-3.30872E-24
 -1       303 2.74318E-03-2.01096E-04 0.00000E+00
 -1       304 2.75367E-03-2.01386E-04 6.61744E-24
 -1       305 2.76531E-03-2.01690E-04-2.64698E-23
 -1       306 2.74729E-03-3.55725E-04-1.05879E-22
 -1       307 2.81114E-03-7.70802E-04-1.05879E-22
 -1       308 2.85771E-03-1.37679E-03 0.00000E+00
 -1       309 2.88155E-03-2.07737E-03 0.00000E+00
 -1       310 2.91303E-03-2.74668E-03 0.00000E+00
 -1       311 2.97266E-03-3.26158E-03-5.29396E-23
 -1       312 3.03027E-03-3.54158E-03 2.11758E-22
 -1       313 3.02468E-03-3.54923E-03 5.29396E-23
 -1       314 2.88193E-03-3.29695E-03 0.00000E+00
 -1       315 2.56135E-03-2.84960E-03 5.29396E-23
 -1       316 2.08173E-03-2.28392E-03 0.00000E+00
 -1       317 1.50944E-03-1.66913E-03-5.29396E-23
 -1       318 9.59086E-04-1.06567E-03 0.00000E+00
 -1       319 5.38798E-04-5.38425E-04 5.29396E-23
 -1       320 2.92265E-04-1.61630E-04-1.05879E-22
 -1       336 2.99206E-04-4.05105E-06 1.32349E-23
 -1       337 2.85541E-04-4.73309E-06-6.61744E-24
 -1       338 2.69861E-04-5.44305E-06 0.00000E+00
 -1       339 2.52240E-04-6.18177E-06 6.61744E-24
 -1       340 2.32760E-04-6.95372E-06 0.00000E+00
 -1       406 1.79652E-04 9.44052E-07-2.48154E-24
 -1       407 1.80421E-04 1.07865E-06 1.24077E-24
 -1       408 1.81293E-04 1.21308E-06 1.24077E-24
 -1       409 1.82267E-04 1.34717E-06 8.27181E-25
 -1       410 1.83344E-04 1.48066E-06 4.13590E-25
 -1       521 2.81773E-03-3.66907E-04 0.00000E+00
 -1       522 2.87977E-03-8.02514E-04 5.29396E-23
 -1       523 2.91976E-03-1.43679E-03 1.05879E-22
 -1       524 2.93419E-03-2.16658E-03 0.00000E+00
 -1       525 2.95761E-03-2.86305E-03 0.00000E+00
 -1       526 3.01365E-03-3.40040E-03 0.00000E+00
 -1       527 3.07086E-03-3.69114E-03-2.11758E-22
 -1       528 3.06290E-03-3.69689E-03 1.05879E-22
 -1       529 2.90781E-03-3.43013E-03 2.11758E-22
 -1       530 2.56263E-03-2.96383E-03 0.00000E+00
 -1       531 2.04701E-03-2.37860E-03 0.00000E+00
 -1       532 1.43388E-03-1.74627E-03 5.29396E-23
 -1       533 8.43431E-04-1.12458E-03-1.05879E-22
 -1       534 3.89113E-04-5.76094E-04-5.29396E-23
 -1       535 1.20976E-04-1.79436E-04-2.11758E-22
 -1       536 2.10757E-04 2.71907E-05 6.61744E-24
 -1       537 2.08837E-04 8.76511E-05 1.65436E-24
 -1       538 2.05871E-04 1.64367E-04 0.00000E+00
 -1       539 2.02373E-04 2.47986E-04 1.65436E-24
 -1       540 1.99225E-04 3.26999E-04 3.30872E-24
 -1       541 1.97179E-04 3.89923E-04 1.65436E-24
 -1       542 1.96235E-04 4.30002E-04 3.30872E-24
 -1       543 1.96009E-04 4.40630E-04-1.65436E-24
 -1       544 1.95687E-04 4.22581E-04 0.00000E+00
 -1       545 1.94514E-04 3.76848E-04 0.00000E+00
 -1       546 1.92327E-04 3.11561E-04 0.00000E+00
 -1       547 1.89367E-04 2.34970E-04 1.65436E-24
 -1       548 1.86435E-04 1.58755E-04 0.00000E+00
 -1       549 1.84319E-04 9.45952E-05 0.00000E+00
 -1       550 1.83220E-04 5.05256E-05 0.00000E+00
 -1       551 1.86305E-04-8.31310E-06 0.00000E+00
 -1       552 1.57852E-04-8.96250E-06 0.00000E+00
 -1       553 1.27097E-04-9.67417E-06-9.92617E-24
 -1       554 9.49989E-05-1.04270E-05 0.00000E+00
 -1       555 6.25167E-05-1.11936E-05 0.00000E+00
 -1       556 2.03861E-04 1.18172E-05 0.00000E+00
 -1       557 1.97680E-04 2.76821E-05 0.00000E+00
 -1       558 1.92834E-04 4.01386E-05-5.29396E-23
 -1       559 1.89190E-04 4.94971E-05 0.00000E+00
 -1       560 1.86619E-04 5.60686E-05 0.00000E+00
 -1       561 1.84991E-04 6.01663E-05 0.00000E+00
 -1       562 1.84182E-04 6.21051E-05 0.00000E+00
 -1       563 1.84068E-04 6.22004E-05 0.00000E+00
 -1       564 1.84527E-04 6.07689E-05 0.00000E+00
 -1       565 1.85438E-04 5.81275E-05 0.00000E+00
 -1       566 1.86680E-04 5.45941E-05 0.00000E+00
 -1       567 1.88137E-04 5.04868E-05-3.30872E-24
 -1       568 1.89688E-04 4.61237E-05 0.00000E+00
 -1       569 1.91216E-04 4.18233E-05 8.27181E-25
 -1       570 1.92603E-04 3.79037E-05 0.00000E+00
 -1       571 1.83030E-04 3.23214E-05-1.65436E-24
 -1       572 1.83128E-04 3.01241E-05-8.27181E-25
 -1       573 1.83227E-04 2.78766E-05-1.65436E-24
 -1       574 1.83326E-04 2.55954E-05 8.27181E-25
 -1       575 1.83425E-04 2.32971E-05 0.00000E+00
 -1       576 1.83524E-04 2.09981E-05 0.00000E+00
 -1       577 1.83624E-04 1.87150E-05-3.30872E-24
 -1       578 1.83723E-04 1.64644E-05 0.00000E+00
 -1       579 1.83823E-04 1.42628E-05 6.61744E-24
 -1       580 1.83922E-04 1.21268E-05 0.00000E+00
 -1       581 1.84022E-04 1.00730E-05 0.00000E+00
 -1       582 1.84122E-04 8.11799E-06 0.00000E+00
 -1       583 1.84222E-04 6.27823E-06 6.61744E-24
 -1       584 1.84322E-04 4.57011E-06 0.00000E+00
 -1       585 1.84423E-04 3.00985E-06 0.00000E+00
 -1       586 1.84692E-04 3.44927E-05 3.30872E-24
 -1       587 1.86410E-04 3.45319E-05 8.27181E-25
 -1       588 1.88129E-04 3.45708E-05 0.00000E+00
 -1       589 1.89894E-04 3.46089E-05 0.00000E+00
 -1       590 1.91748E-04 3.46458E-05 0.00000E+00
 -1       591 1.83664E-04 3.24160E-05 2.06795E-25
 -1       592 1.84398E-04 3.03596E-05 0.00000E+00
 -1       593 1.85137E-04 2.82896E-05 8.27181E-25
 -1       594 1.85878E-04 2.62105E-05 0.00000E+00
 -1       595 1.86621E-04 2.41272E-05-8.27181E-25
 -1       596 1.87364E-04 2.20441E-05-4.13590E-25
 -1       597 1.88105E-04 1.99659E-05 8.27181E-25
 -1       598 1.88842E-04 1.78973E-05 4.13590E-25
 -1       599 1.89574E-04 1.58428E-05 8.27181E-25
 -1       600 1.90300E-04 1.38069E-05 4.13590E-25
 -1       601 1.91016E-04 1.17945E-05 0.00000E+00
 -1       602 1.91722E-04 9.80987E-06 4.13590E-25
 -1       603 1.92416E-04 7.85782E-06 4.13590E-25
 -1       604 1.93097E-04 5.94302E-06 0.00000E+00
 -1       605 1.93763E-04 4.06997E-06 0.00000E+00
 -1       606 1.84536E-04 4.48348E-07 0.00000E+00
 -1       607 1.84546E-04-6.30103E-07 0.00000E+00
 -1       608 1.84555E-04-1.62809E-06 0.00000E+00
 -1       609 1.84563E-04-2.55127E-06 0.00000E+00
 -1       610 1.84571E-04-3.40536E-06 0.00000E+00
 -1       611 1.84580E-04-4.19612E-06 0.00000E+00
 -1       612 1.84588E-04-4.92934E-06 0.00000E+00
 -1       613 1.84596E-04-5.61080E-06 0.00000E+00
 -1       614 1.84604E-04-6.24629E-06 1.65436E-24
 -1       615 1.84613E-04-6.84159E-06 0.00000E+00
 -1       616 1.84621E-04-7.40250E-06 0.00000E+00
 -1       617 1.84630E-04-7.93480E-06-4.13590E-25
 -1       618 1.84638E-04-8.44426E-06 0.00000E+00
 -1       619 1.84646E-04-8.93670E-06 2.06795E-25
 -1       620 1.84654E-04-9.41788E-06 0.00000E+00
 -1       621 1.85882E-04 1.71815E-06 0.00000E+00
 -1       622 1.87403E-04 1.82435E-06 8.27181E-25
 -1       623 1.89051E-04 1.93034E-06 0.00000E+00
 -1       624 1.90792E-04 2.03599E-06 0.00000E+00
 -1       625 1.92591E-04 2.14136E-06 1.65436E-24
 -1       626 1.85072E-04 4.84551E-07 0.00000E+00
 -1       627 1.85598E-04-5.80481E-07 0.00000E+00
 -1       628 1.86103E-04-1.59065E-06 0.00000E+00
 -1       629 1.86592E-04-2.55412E-06 1.65436E-24
 -1       630 1.87066E-04-3.47906E-06-3.30872E-24
 -1       631 1.87528E-04-4.37366E-06 0.00000E+00
 -1       632 1.87983E-04-5.24612E-06-3.30872E-24
 -1       633 1.88432E-04-6.10463E-06 0.00000E+00
 -1       634 1.88879E-04-6.95740E-06 0.00000E+00
 -1       635 1.89327E-04-7.81261E-06-1.65436E-24
 -1       636 1.89779E-04-8.67847E-06-3.30872E-24
 -1       637 1.90238E-04-9.56317E-06 0.00000E+00
 -1       638 1.90707E-04-1.04749E-05 0.00000E+00
 -1       639 1.91189E-04-1.14219E-05-8.27181E-25
 -1       640 1.91686E-04-1.24124E-05 0.00000E+00
 -1       656 1.85370E-04-1.04724E-05 0.00000E+00
 -1       657 1.86497E-04-1.10747E-05-6.61744E-24
 -1       658 1.87905E-04-1.16756E-05-1.32349E-23
 -1       659 1.89448E-04-1.22762E-05 6.61744E-24
 -1       660 1.90941E-04-1.28786E-05 0.00000E+00
 -1       661 1.84927E-04-1.04146E-05 0.00000E+00
 -1       662 1.85230E-04-1.10277E-05 8.27181E-25
 -1       663 1.85565E-04-1.17277E-05-1.65436E-24
 -1       664 1.85930E-04-1.25081E-05 0.00000E+00
 -1       665 1.86324E-04-1.33630E-05 1.65436E-24
 -1       666 1.86743E-04-1.42864E-05 0.00000E+00
 -1       667 1.87186E-04-1.52727E-05-1.65436E-24
 -1       668 1.87650E-04-1.63162E-05 8.27181E-25
 -1       669 1.88134E-04-1.74114E-05 0.00000E+00
 -1       670 1.88634E-04-1.85531E-05 0.00000E+00
 -1       671 1.89151E-04-1.97359E-05 0.00000E+00
 -1       672 1.89680E-04-2.09548E-05 0.00000E+00
 -1       673 1.90221E-04-2.22047E-05 1.65436E-24
 -1       674 1.90771E-04-2.34808E-05-4.13590E-25
 -1       675 1.91329E-04-2.47778E-05 2.06795E-25
 -1       676 1.85126E-04-2.55750E-05-3.30872E-24
 -1       677 1.86483E-04-2.56792E-05-1.65436E-24
 -1       678 1.87839E-04-2.57834E-05-3.30872E-24
 -1       679 1.89192E-04-2.58873E-05 0.00000E+00
 -1       680 1.90542E-04-2.59911E-05 0.00000E+00
 -1       771 1.86480E-05 1.47750E-05-5.29396E-23
 -1       772 8.58838E-06 3.67380E-05 5.29396E-23
 -1       773 3.35898E-07 5.41525E-05 0.00000E+00
 -1       774-6.23387E-06 6.72765E-05 0.00000E+00
 -1       775-1.12426E-05 7.63787E-05 0.00000E+00
 -1       776-1.48171E-05 8.17443E-05 0.00000E+00
 -1       777-1.70836E-05 8.36686E-05 0.00000E+00
 -1       778-1.81712E-05 8.24609E-05 2.64698E-23
 -1       779-1.82083E-05 7.84391E-05 5.29396E-23
 -1       780-1.73252E-05 7.19322E-05 0.00000E+00
 -1       781-1.56514E-05 6.32762E-05 0.00000E+00
 -1       782-1.33179E-05 5.28161E-05 0.00000E+00
 -1       783-1.04549E-05 4.09012E-05 5.29396E-23
 -1       784-7.19373E-06 2.78874E-05 0.00000E+00
 -1       785-3.66470E-06 1.41332E-05 0.00000E+00
 -1       786 1.93770E-04 3.24233E-05 1.29247E-26
 -1       787 1.93812E-04 3.02184E-05 0.00000E+00
 -1       788 1.93854E-04 2.80557E-05 8.27181E-25
 -1       789 1.93897E-04 2.59268E-05 0.00000E+00
 -1       790 1.93940E-04 2.38269E-05 0.00000E+00
 -1       791 1.93982E-04 2.17512E-05 8.27181E-25
 -1       792 1.94025E-04 1.96975E-05 0.00000E+00
 -1       793 1.94068E-04 1.76634E-05-8.27181E-25
 -1       794 1.94111E-04 1.56487E-05-1.65436E-24
 -1       795 1.94155E-04 1.36533E-05 8.27181E-25
 -1       796 1.94198E-04 1.16788E-05 0.00000E+00
 -1       797 1.94241E-04 9.72706E-06-8.27181E-25
 -1       798 1.94284E-04 7.80228E-06 1.65436E-24
 -1       799 1.94328E-04 5.90866E-06 0.00000E+00
 -1       800 1.94371E-04 4.05355E-06 0.00000E+00
 -1       801 1.47913E-04 3.11768E-05 2.64698E-23
 -1       802 9.37812E-06 1.94499E-05-2.64698E-23
 -1       803-1.08944E-04 9.82506E-06 0.00000E+00
 -1       804-9.65538E-05 6.83912E-06 2.64698E-23
 -1       805-3.18988E-05 2.68674E-06 0.00000E+00
 -1       806 1.94463E-04 3.23543E-05-1.65436E-24
 -1       807 1.95179E-04 3.00563E-05-1.65436E-24
 -1       808 1.95883E-04 2.77897E-05 0.00000E+00
 -1       809 1.96573E-04 2.55588E-05 1.65436E-24
 -1       810 1.97249E-04 2.33675E-05 0.00000E+00
 -1       811 1.97908E-04 2.12198E-05-1.65436E-24
 -1       812 1.98549E-04 1.91195E-05 3.30872E-24
 -1       813 1.99171E-04 1.70708E-05 0.00000E+00
 -1       814 1.99773E-04 1.50773E-05 0.00000E+00
 -1       815 2.00352E-04 1.31430E-05 8.27181E-25
 -1       816 2.00908E-04 1.12719E-05-1.65436E-24
 -1       817 2.01439E-04 9.46780E-06 1.65436E-24
 -1       818 2.01944E-04 7.73455E-06 0.00000E+00
 -1       819 2.02420E-04 6.07604E-06-8.27181E-25
 -1       820 2.02868E-04 4.49609E-06-1.65436E-24
 -1       821 1.94285E-04-1.63654E-07 0.00000E+00
 -1       822 1.94144E-04-3.81008E-06 0.00000E+00
 -1       823 1.94000E-04-8.24167E-06-3.30872E-24
 -1       824 1.93854E-04-1.30003E-05 1.65436E-24
 -1       825 1.93708E-04-1.75393E-05-3.30872E-24
 -1       826 1.93565E-04-2.13131E-05 0.00000E+00
 -1       827 1.93426E-04-2.39852E-05 3.30872E-24
 -1       828 1.93289E-04-2.52259E-05 0.00000E+00
 -1       829 1.93153E-04-2.50965E-05 0.00000E+00
 -1       830 1.93016E-04-2.36665E-05 1.65436E-24
 -1       831 1.92877E-04-2.13605E-05 0.00000E+00
 -1       832 1.92738E-04-1.86088E-05-1.65436E-24
 -1       833 1.92599E-04-1.59634E-05 3.30872E-24
 -1       834 1.92463E-04-1.39754E-05 0.00000E+00
 -1       835 1.92327E-04-1.30172E-05 0.00000E+00
 -1       836 1.96108E-04 2.36951E-06 0.00000E+00
 -1       837 1.97673E-04 2.49770E-06 1.65436E-24
 -1       838 1.99141E-04 2.62582E-06 0.00000E+00
 -1       839 2.00545E-04 2.75324E-06 0.00000E+00
 -1       840 2.01916E-04 2.88051E-06 0.00000E+00
 -1       856 1.92185E-04-1.45194E-05 0.00000E+00
 -1       857 1.92166E-04-1.54486E-05 0.00000E+00
 -1       858 1.92147E-04-1.62632E-05 0.00000E+00
 -1       859 1.92127E-04-1.69843E-05 0.00000E+00
 -1       860 1.92108E-04-1.76332E-05 0.00000E+00
 -1       861 1.92088E-04-1.82312E-05 0.00000E+00
 -1       862 1.92069E-04-1.87995E-05 0.00000E+00
 -1       863 1.92049E-04-1.93595E-05-2.06795E-25
 -1       864 1.92030E-04-1.99325E-05-8.27181E-25
 -1       865 1.92010E-04-2.05398E-05-4.13590E-25
 -1       866 1.91990E-04-2.12027E-05 0.00000E+00
 -1       867 1.91971E-04-2.19424E-05 0.00000E+00
 -1       868 1.91951E-04-2.27802E-05 0.00000E+00
 -1       869 1.91930E-04-2.37372E-05 0.00000E+00
 -1       870 1.91910E-04-2.48344E-05 8.27181E-25
 -1       871 1.93554E-04-1.34596E-05 0.00000E+00
 -1       872 1.95054E-04-1.34679E-05 0.00000E+00
 -1       873 1.96634E-04-1.34770E-05 0.00000E+00
 -1       874 1.98225E-04-1.34867E-05-2.32645E-25
 -1       875 1.99759E-04-1.34971E-05 0.00000E+00
 -1       876 1.92727E-04-1.45048E-05 0.00000E+00
 -1       877 1.93231E-04-1.54883E-05-1.65436E-24
 -1       878 1.93714E-04-1.64130E-05 3.30872E-24
 -1       879 1.94178E-04-1.72862E-05 1.65436E-24
 -1       880 1.94625E-04-1.81154E-05-3.30872E-24
 -1       881 1.95059E-04-1.89080E-05 1.65436E-24
 -1       882 1.95482E-04-1.96713E-05 3.30872E-24
 -1       883 1.95896E-04-2.04127E-05 1.65436E-24
 -1       884 1.96305E-04-2.11394E-05 3.30872E-24
 -1       885 1.96711E-04-2.18588E-05-1.65436E-24
 -1       886 1.97118E-04-2.25782E-05-3.30872E-24
 -1       887 1.97526E-04-2.33050E-05-1.65436E-24
 -1       888 1.97941E-04-2.40465E-05 0.00000E+00
 -1       889 1.98362E-04-2.48102E-05 0.00000E+00
 -1       890 1.98794E-04-2.56034E-05-1.65436E-24
 -1       891 1.93255E-04-2.61503E-05 0.00000E+00
 -1       892 1.94598E-04-2.62080E-05 8.27181E-25
 -1       893 1.95892E-04-2.62657E-05 1.65436E-24
 -1       894 1.97113E-04-2.63230E-05 8.27181E-25
 -1       895 1.98235E-04-2.63801E-05 0.00000E+00
 -1       956 2.03157E-04 1.67553E-06-1.65436E-24
 -1       957 2.03024E-04 4.44063E-07-8.27181E-25
 -1       958 2.02892E-04-7.06659E-07 3.30872E-24
 -1       959 2.02759E-04-1.78798E-06-1.65436E-24
 -1       960 2.02626E-04-2.81130E-06 3.30872E-24
 -1       961 2.02493E-04-3.78803E-06-1.65436E-24
 -1       962 2.02360E-04-4.72961E-06 3.30872E-24
 -1       963 2.02227E-04-5.64751E-06 1.65436E-24
 -1       964 2.02094E-04-6.55317E-06-3.30872E-24
 -1       965 2.01961E-04-7.45803E-06 1.65436E-24
 -1       966 2.01829E-04-8.37356E-06-3.30872E-24
 -1       967 2.01696E-04-9.31121E-06 0.00000E+00
 -1       968 2.01563E-04-1.02824E-05 6.61744E-24
 -1       969 2.01430E-04-1.12986E-05 0.00000E+00
 -1       970 2.01298E-04-1.23711E-05 0.00000E+00
 -1       971 2.01047E-04-1.46504E-05-3.30872E-24
 -1       972 2.00926E-04-1.56953E-05 1.65436E-24
 -1       973 2.00805E-04-1.66561E-05 0.00000E+00
 -1       974 2.00683E-04-1.75435E-05-1.65436E-24
 -1       975 2.00562E-04-1.83685E-05 0.00000E+00
 -1       976 2.00440E-04-1.91419E-05-1.65436E-24
 -1       977 2.00319E-04-1.98746E-05-3.30872E-24
 -1       978 2.00197E-04-2.05775E-05 1.65436E-24
 -1       979 2.00076E-04-2.12615E-05 0.00000E+00
 -1       980 1.99954E-04-2.19375E-05-1.65436E-24
 -1       981 1.99833E-04-2.26163E-05 0.00000E+00
 -1       982 1.99712E-04-2.33090E-05-1.65436E-24
 -1       983 1.99591E-04-2.40264E-05 3.30872E-24
 -1       984 1.99470E-04-2.47794E-05 0.00000E+00
 -1       985 1.99350E-04-2.55788E-05-3.30872E-24
 -3
    1PSTEP                        28          14           1          
  100CL  114 6.62933E-01         409                     0   14           1
 -4  STRESS      6    1
 -5  SXX         1    4    1    1
 -5  SYY         1    4    2    2
 -5  SZZ         1    4    3    3
 -5  SXY         1    4    1    2
 -5  SYZ         1    4    2    3
 -5  SZX         1    4    3    1
 -1         1-5.34727E+06-1.57243E+06-1.13263E+06-1.32653E+06-1.90630E-09 1.52650E-07
 -1         2 1.53059E+06 2.24143E+07 5.20725E+06 6.78744E+06 2.48547E-08-1.58907E-08
 -1         3-1.48830E+03-1.55605E+06 4.05387E+02-2.20875E+03-6.63988E-10-5.70362E-08
 -1         5-7.52072E+01 3.86453E+05 9.95187E+00-1.34226E+00-4.57300E-10-1.19198E-08
 -1         8-5.52753E+05-2.00321E+05-6.26750E+04-2.42541E+05-5.45697E-12 9.03638E-08
 -1         9 1.18121E+07 3.93511E+06 2.81723E+06-3.03382E+05-1.07684E-08-1.35740E-08
 -1        10-2.30407E+03-1.62152E+06-3.94101E+03-1.49462E+04-1.36843E-08 4.62239E-09
 -1        12-7.13010E+01 3.86474E+05 3.27155E+02-9.14934E+00-7.49953E-10 1.24337E-08
 -1        15 9.23078E+02 5.07276E+02 2.98383E+03 8.12027E-01-5.97140E-11 1.34156E-07
 -1        16 2.29277E+07-3.35559E+05 3.11953E+06-2.29816E+06-1.45907E-08-6.91507E-08
 -1        17 8.39606E+06 6.29114E+06 2.26786E+06 6.01777E+06 2.67697E-08 1.78465E-08
 -1        18 1.42662E+05 3.36677E+04 4.25064E+03-1.19539E+05 1.30995E-08-7.64840E-09
 -1        19 1.22615E+05 1.42812E+05-7.55831E+02 2.18293E+04 2.17024E-09-6.08270E-09
 -1        20-8.23085E+04-5.74177E+05-1.28860E+05 2.50014E+04-1.94890E-09-5.82077E-10
 -1        21-4.55527E+01-2.95998E+05-9.23600E+02 2.75728E+02 1.20353E-08-1.27451E-08
 -1        24 1.40820E+07 1.21239E+07 3.89744E+06 1.12249E+07-1.64291E-07-4.86228E-08
 -1        25 1.25404E+05 2.68705E+05 1.00369E+05-6.46630E+05-2.24891E-09 6.03886E-09
 -1        26-5.51632E+04 9.33916E+04-2.46251E+04 1.22011E+03 1.02227E-09 8.82713E-09
 -1        27-7.56369E+04-3.10188E+05-1.13407E+05 6.90529E+04 4.41878E-09 2.31648E-09
 -1        28 2.22381E+04-8.53813E+04 1.68999E+04 2.05506E+04-3.77690E-09 3.41362E-09
 -1        32-1.68042E+06-3.18180E+06-1.97644E+05 4.59507E+05-4.23970E-08-1.42243E-08
 -1        33-1.78595E+05 9.30277E+04 3.23992E+04-3.86334E+04-3.01001E-09-6.74390E-09
 -1        34-2.23741E+05-2.50489E+04 6.91674E+02 7.57402E+04-5.66739E-09-7.91215E-09
 -1        35-2.29264E+04-3.38617E+04-1.34913E+03 5.14967E+04-5.08593E-09 1.65771E-09
 -1        51 6.08741E+04-1.70591E+05 1.28685E+05-4.34150E+05-1.01863E-10 2.84635E-07
 -1        52 2.05788E+04-1.48072E+05 6.74588E+04-5.06353E+05-1.56433E-10-7.90169E-09
 -1        53 4.15705E+03-1.63424E+05 3.50230E+04-4.32662E+05 2.23736E-10-1.99216E-08
 -1        54 7.26462E+03-1.59208E+05 2.85660E+04-5.07808E+05-2.03727E-10-2.15121E-07
 -1        55 1.58424E+04-1.66142E+05 3.44972E+04-4.32576E+05 2.14641E-10 1.52029E-07
 -1        56-9.81073E+06-1.39626E+06-9.25587E+05-4.10893E+06 1.08557E-08-7.80856E-08
 -1        57-1.11262E+07-7.66636E+05-5.44945E+05-2.66793E+06 6.35991E-08-1.54927E-07
 -1        58-9.58800E+06-1.87123E+06-2.01915E+05-4.31272E+06-3.97486E-08 4.73738E-08
 -1        59-1.13405E+07-2.15621E+05-1.07079E+05-2.59211E+06 5.30363E-08-5.03242E-08
 -1        60-9.68630E+06-1.87464E+06-5.88041E+04-4.26376E+06-4.50746E-09 5.89862E-08
 -1        61-1.06334E+07-5.76740E+05 2.10842E+04-2.84631E+06-1.65892E-09-7.43603E-09
 -1        62-1.01428E+07-1.61306E+06-8.46606E+04-3.93706E+06 3.92902E-09 2.37451E-07
 -1        63-9.65845E+06-1.33954E+06 6.26952E+04-3.58801E+06 4.12620E-08 3.00264E-07
 -1        64-1.05378E+07-1.19988E+06-7.79438E+04-3.44446E+06-8.92032E-09 5.24378E-08
 -1        65-9.27331E+06-1.98244E+06 1.75572E+04-4.56605E+06-5.63305E-08-2.75791E-07
 -1        66-1.06699E+07-8.71620E+05-4.78093E+04-3.06645E+06 8.49104E-09 1.51849E-08
 -1        67-9.30297E+06-2.25022E+06-9.62950E+04-5.03260E+06-3.83952E-08-2.05067E-07
 -1        68-1.06502E+07-8.32120E+05-1.87904E+05-3.06570E+06-4.35139E-08-2.00889E-07
 -1        69-9.46656E+06-2.32155E+06-4.83749E+05-4.53372E+06-6.80384E-08 1.62698E-07
 -1        70-1.03741E+07-9.05198E+05-8.51192E+05-3.47935E+06 2.47710E-08 2.64845E-07
 -1        86-1.56178E+06-1.58784E+07-2.85102E+06-3.18634E+06-2.68457E-07 6.97037E-09
 -1        87 2.46157E+06 6.48312E+06 2.37104E+06 5.86314E+06-4.66534E-07-2.56059E-08
 -1        88-4.66673E+05-1.92107E+06 2.24978E+05-2.59901E+06-4.04887E-07-8.24070E-08
 -1        89 3.29551E+06 6.17538E+06 2.43053E+06 6.06229E+06-6.06145E-07-9.60463E-08
 -1        90-2.29801E+06-1.56493E+07-3.07697E+06-3.41614E+06-1.49379E-07 3.33093E-08
 -1       121-2.03870E+03-1.56096E+06-5.48007E+02 1.09474E+03 1.45509E-09-1.24783E-08
 -1       122-1.30279E+03-1.55611E+06 7.68416E+02-4.42166E+03-5.48000E-09 7.18865E-09
 -1       123-2.05843E+03-1.56109E+06 2.58625E+02 3.26954E+03 4.35159E-09 4.64570E-08
 -1       124 3.30985E+02-1.55567E+06 2.94426E+03-9.25333E+03-1.04064E-08 5.00531E-08
 -1       125-2.86603E+03-1.56198E+06 3.45213E+03 5.88043E+03 6.75027E-09-7.70524E-09
 -1       191-7.92536E+01 3.86471E+05 8.45332E+00 6.99844E-01-5.73456E-10-1.93049E-08
 -1       192-7.61681E+01 3.86453E+05 2.12375E+01-4.30381E+00-8.30120E-10-2.63090E-08
 -1       193-8.17830E+01 3.86470E+05 3.61480E+01 3.77978E+00-1.01933E-09-2.69083E-08
 -1       194-7.92490E+01 3.86457E+05 8.07364E+01-9.76614E+00-4.17920E-10-4.36021E-08
 -1       195-8.66379E+01 3.86468E+05 1.54563E+02 6.35525E+00-1.45571E-09-6.96127E-09
 -1       251-8.61226E+05 1.61526E+04-3.77076E+04-1.44348E+04 2.92727E-09-9.44419E-08
 -1       252-8.75446E+05-1.86955E+04-2.62241E+04 5.10503E+04 6.99686E-09 1.36599E-07
 -1       253-8.69670E+05 2.47777E+03-1.01671E+04-1.01492E+04-3.44698E-09-1.63718E-08
 -1       254-8.61938E+05-3.00941E+03-4.50937E+03 3.63010E+04 4.67014E-09-6.64369E-08
 -1       255-8.74109E+05 4.94950E+01-3.54870E+03 3.10761E+02-5.55610E-09 1.84600E-07
 -1       256-8.56484E+05-2.72230E+02 1.22680E+03 1.25872E+04 4.70743E-09 8.36772E-08
 -1       257-8.74677E+05-5.90640E+02-1.41244E+03 1.35528E+04 1.37834E-09 1.23859E-07
 -1       258-8.59379E+05 9.27477E+02 2.74581E+03-1.23171E+04-7.77948E-09 3.75172E-07
 -1       259-8.71469E+05-9.54007E+02 1.36517E+03 2.52126E+04-3.14731E-09-1.42680E-08
 -1       260-8.65905E+05 2.97671E+03 5.60236E+03-3.02726E+04 1.73956E-08-4.07727E-07
 -1       261-8.68798E+05-2.14060E+03 8.68494E+03 3.15251E+04 1.30798E-08-2.91624E-07
 -1       262-8.64624E+05 1.18591E+04 2.15757E+04-3.55233E+04-9.84296E-09-1.16709E-08
 -1       263-8.73007E+05-9.60426E+03 3.41800E+04 3.04731E+04 1.29666E-08 2.09513E-07
 -1       264-8.33934E+05 6.72876E+04 9.46510E+04-2.62493E+04 1.34118E-08 1.79860E-07
 -1       265-8.98982E+05-5.77068E+04 1.31766E+05 2.22385E+04 1.10299E-08 7.32980E-08
 -1       266-1.67110E+04-7.81492E+03 3.92049E+04-1.73735E+01 7.27596E-11-2.16086E-08
 -1       267 1.93724E+04 9.10716E+03 2.77115E+04 2.00473E+01-8.91305E-11-3.34767E-07
 -1       268-2.59782E+03-1.28990E+03 1.03001E+04-2.55427E+00-7.82165E-11 5.52695E-08
 -1       269 3.06724E+03 1.54365E+03 6.69501E+03 2.97546E+00-1.04592E-10 8.27716E-08
 -1       270-4.60397E+02-2.53638E+02 3.23177E+03-4.03785E-01-1.06411E-10-8.01738E-08
 -1       271-1.46812E+06-1.87200E+05-1.10641E+05-5.71510E+05-5.42059E-09 1.08987E-07
 -1       272-1.46175E+06-3.01319E+05-6.94119E+04-6.11528E+05-7.57063E-08-1.43074E-07
 -1       273-1.49154E+06-2.10565E+05-2.68606E+04-5.63482E+05 2.25155E-08 1.53068E-08
 -1       274-1.43520E+06-2.73152E+05-1.39288E+04-6.26788E+05-2.54367E-08 1.05670E-07
 -1       275-1.49714E+06-2.10059E+05-6.70948E+03-5.59701E+05 2.06528E-08 2.26269E-07
 -1       276-1.42967E+06-2.74121E+05-2.80628E+03-6.35500E+05 4.46198E-09 3.40578E-07
 -1       277-1.49997E+06-2.07397E+05-1.86246E+03-5.56965E+05-1.72258E-09 8.60055E-08
 -1       278-1.42756E+06-2.77318E+05-6.95243E+02-6.41896E+05 5.13719E-08 8.01811E-09
 -1       279-1.50177E+06-2.05235E+05-8.51349E+02-5.55053E+05-2.31139E-08-3.01440E-07
 -1       280-1.42660E+06-2.79701E+05-9.56809E+02-6.46079E+05-3.93538E-09 2.16017E-07
 -1       281-1.50272E+06-2.03888E+05-1.76966E+03-5.53986E+05-2.39834E-09 5.82361E-08
 -1       282-1.42697E+06-2.81819E+05-4.11249E+03-6.47769E+05-9.98534E-09 2.68180E-07
 -1       283-1.50224E+06-2.02703E+05-7.32154E+03-5.53874E+05-1.40422E-08-9.01455E-08
 -1       284-1.43355E+06-2.91356E+05-1.99397E+04-6.45572E+05 1.91941E-08-3.97667E-07
 -1       285-1.49602E+06-1.95516E+05-3.11568E+04-5.55654E+05-2.82389E-08-2.58133E-07
 -1       301-8.22522E+03-6.49690E+05 1.66746E+05-1.14296E+06-4.33647E-09-3.25381E-08
 -1       302-1.02673E+04-6.02637E+05 1.00350E+05-1.66812E+06-1.42900E-08 3.55805E-07
 -1       303-2.26520E+04-6.42470E+05 5.66261E+04-1.13980E+06 5.31145E-09 1.55813E-07
 -1       304-2.60684E+04-6.09935E+05 5.68585E+04-1.66756E+06-2.91766E-08 9.67702E-08
 -1       305-2.70603E+04-6.31154E+05 6.97388E+04-1.14289E+06-2.00234E-08-5.72036E-08
 -1       306-3.01349E+07-6.21745E+06-8.61086E+06-4.86898E+05-1.13854E-07-1.48313E-07
 -1       307 2.52826E+07 3.29150E+06 5.50767E+06-1.52841E+07-8.78019E-07-2.44036E-07
 -1       308-6.91315E+06-1.01275E+06-4.35169E+05 5.21176E+06-3.10887E-07 5.01313E-08
 -1       309-3.18648E+06 8.74542E+06 2.29607E+06-2.07118E+07 4.81727E-07 3.51793E-09
 -1       310-1.26607E+07-1.95746E+06-2.06535E+06 5.22038E+06 9.29576E-08-4.98694E-08
 -1       311 3.87016E+07-3.06637E+03 7.31870E+06-8.71670E+06 7.90227E-07 4.00178E-08
 -1       312-3.19969E+07-6.82215E+06-8.57056E+06-5.11347E+06 7.76490E-08 1.17463E-07
 -1       313 4.54215E+07 1.51964E+07 1.06953E+07 2.39544E+07-1.41328E-07 1.92755E-07
 -1       314-1.71587E+07-1.78766E+07-7.53211E+06-1.25436E+07 3.20724E-07 8.98144E-08
 -1       315-1.94076E+06 2.98331E+07 5.66790E+06 1.04515E+07-5.42976E-07-1.98197E-07
 -1       316 1.43922E+06-9.82875E+06-4.27043E+05-2.48836E+06-1.35106E-06-1.92900E-07
 -1       317-1.70936E+07 2.24517E+07 2.24932E+06-8.89797E+06 7.17468E-07-9.26026E-07
 -1       318-1.08771E+06-1.28576E+07-2.06675E+06-4.24292E+06-9.63453E-07 8.70787E-08
 -1       319 7.30614E+06 3.21100E+07 7.07552E+06 1.67030E+07-4.16185E-08 2.24478E-07
 -1       320-2.26551E+07-1.76979E+07-9.88853E+06-1.28479E+07 1.97673E-07-6.60657E-08
 -1       336-7.49885E+02-1.68979E+06-1.38280E+04 8.89586E+03-2.59643E-08 4.57658E-09
 -1       337-5.40431E+03-1.68932E+06-1.80410E+04-2.16124E+04-4.77794E-08-8.75298E-09
 -1       338 2.69734E+02-1.68928E+06-2.84226E+04 1.24653E+04-3.48682E-08 1.16815E-08
 -1       339-3.01622E+04-1.70653E+06-6.42328E+04-2.86054E+04-6.35237E-08-3.47973E-09
 -1       340 1.98605E+04-1.67475E+06-1.01188E+05 1.57580E+04-4.22006E-08 1.79607E-08
 -1       406-4.96684E+01 3.86453E+05 6.42358E+02 3.34626E+00-2.08379E-09 1.05883E-08
 -1       407 1.54291E+02 3.86587E+05 1.37278E+03 2.33949E+01-5.55225E-10 1.57552E-08
 -1       408 6.33005E+02 3.86353E+05 2.73720E+03-2.70593E+01-2.45109E-09-8.01629E-09
 -1       409 2.89871E+03 3.87462E+05 6.16941E+03 2.88917E+02-4.50314E-10-3.06245E-08
 -1       410 8.45604E+03 3.85565E+05 1.25915E+04-2.78561E+02-2.95404E-09-3.88172E-09
 -1       521-3.17254E+07-7.69153E+06-1.00814E+07-8.99951E+04-9.27830E-08-1.17056E-07
 -1       522 2.61969E+07 4.34723E+06 5.62823E+06-1.88294E+07-6.00063E-07-3.68833E-07
 -1       523-7.48415E+06-1.32985E+06-4.26550E+05 5.66831E+06 6.31553E-08-2.71073E-07
 -1       524-6.69387E+06 1.18507E+07 2.48968E+06-2.38085E+07 8.42905E-07-2.61003E-07
 -1       525-1.34618E+07-2.60649E+06-2.27539E+06 5.68351E+06 4.04078E-07-2.53669E-07
 -1       526 4.23506E+07-1.02940E+05 7.69395E+06-1.13756E+07 5.91972E-08-2.87284E-07
 -1       527-3.38961E+07-8.54026E+06-9.89874E+06-4.98073E+06 9.66247E-09-4.44124E-08
 -1       528 4.96803E+07 1.69905E+07 1.11760E+07 2.73011E+07-3.01050E-07-2.67028E-07
 -1       529-1.81108E+07-2.01314E+07-8.65277E+06-1.25831E+07-1.80211E-07-2.15019E-07
 -1       530-4.43136E+06 3.47101E+07 6.01072E+06 9.88422E+06-2.49638E-07 4.73403E-07
 -1       531 1.44916E+06-1.09090E+07-3.98630E+05-2.42113E+06-8.39296E-07 2.51050E-07
 -1       532-1.95906E+07 2.44777E+07 2.46415E+06-1.32563E+07 5.65502E-07-6.67998E-07
 -1       533-1.12731E+06-1.40310E+07-2.20698E+06-4.03588E+06-1.14262E-07-9.70322E-07
 -1       534 5.31611E+06 3.73490E+07 7.37844E+06 1.73129E+07-3.95812E-09 7.12462E-07
 -1       535-2.38662E+07-2.01393E+07-1.13604E+07-1.29323E+07 1.10595E-07 4.43310E-07
 -1       536-7.06395E+05-4.67318E+04-4.83613E+04-5.47251E+04-6.28825E-09 6.52108E-08
 -1       537-5.46394E+04 4.46611E+04 8.39023E+04 1.23932E+05-1.12413E-07 1.06227E-07
 -1       538-3.94432E+05 3.35697E+03 3.51867E+03-7.22454E+04 3.53039E-08 1.01430E-07
 -1       539-2.68958E+05 2.84704E+03 2.49201E+04 1.38828E+05 1.71470E-07 1.40928E-07
 -1       540-4.97461E+05-4.27353E+02-2.13532E+04-7.01568E+04 3.74448E-08 1.09491E-07
 -1       541 1.47168E+05 1.69871E+04 1.06485E+05 9.80042E+04-4.44306E-08 8.37354E-08
 -1       542-7.99344E+05-2.01547E+04-8.43224E+04-3.05456E+04 5.68998E-08 4.70773E-08
 -1       543 4.06127E+05 2.73527E+04 1.58129E+05-1.33666E+04-3.25531E-09-3.62334E-08
 -1       544-7.49475E+05-1.65544E+04-7.49131E+04 4.05435E+04 4.15685E-09-5.02327E-08
 -1       545 2.93872E+04 9.49508E+03 7.98955E+04-1.13701E+05 9.76070E-09-7.64303E-08
 -1       546-4.32722E+05 6.10044E+03-1.22410E+04 6.94415E+04 3.74444E-08-8.04720E-08
 -1       547-2.87041E+05-4.65579E+03 1.06062E+04-1.41674E+05-1.17514E-07-1.28361E-07
 -1       548-4.41555E+05 4.72109E+03-2.38925E+04 6.92090E+04-1.14103E-07-1.07575E-07
 -1       549 4.85687E+04 1.61147E+04 6.06107E+04-1.11565E+05-6.63356E-08-6.93860E-08
 -1       550-7.59352E+05-2.21853E+04-1.29047E+05 3.86152E+04 8.98490E-09-5.11263E-08
 -1       551 4.07857E+04-7.49856E+05-1.59194E+04-1.24701E+06-1.02460E-07 1.43773E-08
 -1       552 9.32602E+04-7.94844E+05 9.89949E+03-1.77806E+06-7.12025E-08 6.08852E-08
 -1       553 7.17645E+04-7.91249E+05 3.20194E+04-1.24036E+06-1.17696E-07 3.23489E-08
 -1       554 1.32056E+05-8.10751E+05 8.10251E+04-1.78001E+06-7.47532E-08 1.74787E-08
 -1       555 1.01506E+05-8.14904E+05 1.47981E+05-1.24019E+06-1.23262E-07-1.44173E-08
 -1       556 2.23796E+05-3.83803E+05 2.56103E+04-4.07301E+05-2.30502E-08-2.14204E-08
 -1       557 3.54371E+05-4.88171E+05 1.60770E+04-5.27775E+05-1.78989E-09 2.43745E-09
 -1       558 2.05548E+05-3.76567E+05 2.29023E+03-4.11764E+05-2.42726E-08-1.03828E-08
 -1       559 3.29357E+05-4.88219E+05 2.42460E+03-5.48238E+05 2.36323E-08-1.82263E-08
 -1       560 1.90231E+05-3.66962E+05-1.51443E+03-4.22802E+05 1.13505E-08 4.55475E-09
 -1       561 3.10114E+05-4.80516E+05 1.25909E+02-5.61360E+05 2.91038E-10-1.99980E-08
 -1       562 1.78121E+05-3.59438E+05-1.32993E+03-4.31571E+05 5.84987E-09-7.42148E-09
 -1       563 2.95730E+05-4.74244E+05-3.80584E+01-5.70755E+05 8.84756E-09 7.09042E-09
 -1       564 1.69478E+05-3.54053E+05-6.02044E+02-4.37696E+05 7.55244E-09-4.82123E-09
 -1       565 2.86188E+05-4.70089E+05 2.35447E+01-5.76852E+05 1.52359E-08 7.50333E-09
 -1       566 1.64424E+05-3.50856E+05-2.60681E+02-4.41231E+05-5.67525E-10-3.09956E-09
 -1       567 2.81549E+05-4.68071E+05-3.63124E+02-5.79669E+05 1.81899E-08 1.65892E-08
 -1       568 1.63052E+05-3.50016E+05-1.12704E+03-4.42287E+05-6.45468E-09-9.87711E-09
 -1       569 2.80424E+05-4.67997E+05-2.84647E+03-5.78241E+05-4.57112E-09 2.13113E-08
 -1       570 1.66453E+05-3.53251E+05-6.22248E+03-4.41266E+05 1.10667E-08 7.71979E-09
 -1       571 2.89986E+05 1.04693E+04 1.49295E+04-9.55534E+04 4.11819E-09 1.41604E-08
 -1       572 2.92149E+05 3.94946E+03 7.31668E+03-1.04833E+05-8.70841E-10 1.42509E-08
 -1       573 2.90845E+05 1.24548E+03 3.25103E+03-9.53764E+04 1.36170E-08-1.41090E-08
 -1       574 2.91057E+05 7.29642E+02 1.63036E+03-1.05057E+05 2.39488E-08-1.06083E-08
 -1       575 2.90938E+05 4.51049E+02 7.69439E+02-9.53522E+04 4.96098E-09 1.62881E-08
 -1       576 2.90922E+05 4.62779E+02 3.93860E+02-1.05087E+05-1.07523E-08 7.41784E-09
 -1       577 2.90978E+05 3.92939E+02 1.96409E+02-9.53489E+04-6.26551E-09-7.74889E-10
 -1       578 2.90953E+05 4.24455E+02 1.13075E+02-1.05092E+05-6.83895E-09 4.68208E-09
 -1       579 2.91051E+05 3.55836E+02 7.69158E+01-9.53485E+04 7.17955E-09-7.20502E-09
 -1       580 2.91056E+05 3.72798E+02 8.82965E+01-1.05087E+05-2.94676E-09-1.03037E-08
 -1       581 2.91166E+05 2.96303E+02 1.32227E+02-9.53545E+04 1.15288E-08 1.44028E-08
 -1       582 2.91232E+05 3.32886E+02 2.68523E+02-1.05025E+05 2.91766E-09 2.40107E-09
 -1       583 2.91309E+05 3.32546E+02 5.14477E+02-9.54113E+04-4.28918E-09 3.91651E-09
 -1       584 2.91602E+05 7.52554E+02 1.16460E+03-1.04546E+05 1.53523E-09 1.66460E-09
 -1       585 2.91343E+05 1.72937E+03 2.35733E+03-9.58324E+04-1.48611E-09-3.80896E-09
 -1       586-3.42450E+03 1.16986E+05-2.91105E+03-2.50786E+05-3.17050E-09 9.12382E-09
 -1       587-1.34100E+03 1.16739E+05 7.76219E+02-2.76008E+05-5.09681E-09 1.23451E-08
 -1       588 3.96963E+02 1.16544E+05 4.76568E+03-2.50648E+05-4.79849E-09 1.04219E-08
 -1       589 5.08739E+03 1.19020E+05 1.23565E+04-2.75776E+05-8.72205E-09-1.60726E-08
 -1       590 1.66224E+04 1.15209E+05 2.59188E+04-2.51079E+05-4.31919E-09 1.12923E-08
 -1       591-7.38378E+04-1.57391E+04-2.24064E+04-3.14502E+04-3.83511E-09-5.71890E-09
 -1       592-7.79246E+04-1.92577E+04-1.21371E+04-3.50330E+04-1.61754E-09-2.05338E-08
 -1       593-7.60784E+04-1.41136E+04-5.05209E+03-3.30934E+04 5.30407E-09-3.19369E-09
 -1       594-7.48312E+04-1.59695E+04-2.51963E+03-3.51497E+04 5.48033E-09 3.10865E-09
 -1       595-7.62491E+04-1.41083E+04-1.15682E+03-3.31681E+04-2.13804E-09 6.10716E-09
 -1       596-7.46194E+04-1.58191E+04-5.87980E+02-3.51245E+04 3.68846E-09 7.32945E-09
 -1       597-7.62706E+04-1.41236E+04-3.19956E+02-3.31709E+04 9.36325E-10 1.06617E-08
 -1       598-7.45985E+04-1.58132E+04-2.56807E+02-3.51174E+04-8.23718E-09 2.53847E-08
 -1       599-7.62693E+04-1.41241E+04-3.27538E+02-3.31706E+04 4.14536E-09-2.58422E-09
 -1       600-7.46196E+04-1.58197E+04-6.08053E+02-3.51225E+04-5.77893E-09-1.33077E-08
 -1       601-7.62447E+04-1.41095E+04-1.19935E+03-3.31671E+04-6.74504E-09-7.68478E-09
 -1       602-7.48392E+04-1.59745E+04-2.61375E+03-3.51448E+04-1.49364E-08-1.93727E-08
 -1       603-7.60648E+04-1.41179E+04-5.24158E+03-3.30905E+04-6.67796E-10 5.83668E-09
 -1       604-7.80661E+04-1.93665E+04-1.25916E+04-3.49991E+04 4.12894E-09 6.03382E-09
 -1       605-7.37205E+04-1.58220E+04-2.32456E+04-3.14050E+04 4.20579E-09 1.34787E-08
 -1       606 2.65882E+04-1.43602E+04-2.57438E+04 2.38818E+04 5.80985E-09-7.89828E-09
 -1       607 2.21895E+04-4.68969E+03-1.28203E+04 2.68382E+04-4.15639E-10-9.56607E-09
 -1       608 2.46967E+04-8.45657E+02-5.73921E+03 2.37140E+04 7.27596E-12-1.61208E-10
 -1       609 2.42162E+04-2.89508E+02-2.89931E+03 2.70514E+04 6.43195E-09 1.28755E-08
 -1       610 2.44829E+04-4.07835E+01-1.38327E+03 2.36940E+04 3.70710E-09-1.70348E-09
 -1       611 2.44075E+04-4.11379E+01-6.97437E+02 2.70744E+04 5.82804E-09-2.38106E-09
 -1       612 2.44359E+04-2.71882E+01-3.31524E+02 2.36920E+04 1.02200E-08-1.02434E-08
 -1       613 2.44194E+04-3.71710E+01-1.48522E+02 2.70771E+04 2.48087E-08 4.70072E-09
 -1       614 2.44139E+04-3.37384E+01-3.47104E+01 2.36913E+04 1.09349E-08 2.16496E-08
 -1       615 2.44143E+04-3.57822E+01 6.25212E+01 2.70775E+04-8.47194E-10 1.07127E-08
 -1       616 2.43966E+04-3.06937E+01 1.87233E+02 2.36916E+04 4.62205E-09-9.96715E-09
 -1       617 2.44369E+04 4.03321E+00 4.27075E+02 2.70770E+04 1.86424E-09 4.61409E-09
 -1       618 2.43596E+04 9.23592E+01 8.60804E+02 2.36919E+04 1.03000E-08 6.04746E-09
 -1       619 2.47409E+04 6.69555E+02 1.93297E+03 2.70764E+04 1.90321E-08-5.65683E-09
 -1       620 2.40738E+04 2.13351E+03 3.88522E+03 2.36934E+04 1.06346E-08-4.02588E-09
 -1       621 5.30240E+02 3.07292E+05 4.43353E+03 4.02458E+04 8.29368E-09-1.84718E-09
 -1       622 7.67335E+02 3.08343E+05 3.80411E+03 5.92870E+04 5.78666E-09 1.95996E-09
 -1       623 1.36575E+02 3.07548E+05 4.38343E+03 4.00638E+04 9.66168E-09-1.01436E-08
 -1       624 2.22872E+03 3.09563E+05 8.36061E+03 5.94639E+04 5.80042E-09-2.44818E-08
 -1       625 1.93549E+03 3.05892E+05 1.44733E+04 4.00630E+04 1.04110E-08 1.55319E-09
 -1       626 2.61269E+05 6.14168E+04 5.11746E+03 1.26822E+05 1.45255E-08 3.13594E-09
 -1       627 2.58956E+05 6.28094E+04 2.46606E+03 1.31089E+05 2.16132E-08-1.78381E-08
 -1       628 2.61396E+05 5.90758E+04 1.04298E+03 1.27693E+05 5.08498E-09-5.37329E-09
 -1       629 2.58321E+05 6.21291E+04 5.10485E+02 1.31328E+05-1.46065E-09-9.61509E-09
 -1       630 2.61411E+05 5.89626E+04 2.36921E+02 1.27730E+05 1.16361E-08-9.94874E-09
 -1       631 2.58255E+05 6.21032E+04 1.27650E+02 1.31330E+05 2.71411E-08-1.21825E-08
 -1       632 2.61407E+05 5.89665E+04 8.42710E+01 1.27725E+05 1.12836E-08-2.50845E-08
 -1       633 2.58247E+05 6.21049E+04 9.42990E+01 1.31326E+05 4.67844E-09-3.36627E-09
 -1       634 2.61403E+05 5.89636E+04 1.52763E+02 1.27725E+05-1.09774E-08-3.30044E-08
 -1       635 2.58261E+05 6.21031E+04 3.09343E+02 1.31332E+05-1.83303E-09 1.21790E-08
 -1       636 2.61394E+05 5.89577E+04 6.24838E+02 1.27725E+05 6.73754E-09 3.69469E-08
 -1       637 2.58397E+05 6.22003E+04 1.37395E+03 1.31332E+05-3.39173E-09 1.70394E-09
 -1       638 2.61345E+05 5.92612E+04 2.82296E+03 1.27588E+05-3.59614E-09-1.21918E-08
 -1       639 2.59879E+05 6.42626E+04 6.67928E+03 1.30895E+05 4.36467E-09-1.92813E-08
 -1       640 2.61140E+05 6.54199E+04 1.38607E+04 1.24993E+05 1.86265E-09 7.56017E-10
 -1       656 6.66282E+04-1.70538E+06-1.60837E+05-2.56250E+03-1.09139E-10-2.42051E-09
 -1       657-8.81451E+04-1.77806E+06-1.33247E+05 5.13919E+03 1.22964E-09 1.03566E-08
 -1       658 2.12405E+04-1.72602E+06-8.20681E+04-4.64747E+03 6.54609E-10-1.08261E-08
 -1       659-9.53275E+04-1.78147E+06-1.42686E+05 6.87478E+03-2.29193E-09-1.65106E-08
 -1       660 7.37946E+04-1.70198E+06-1.77065E+05-4.29808E+03-1.18598E-09 6.27153E-09
 -1       661 1.57872E+05 1.65121E+04 1.66664E+04 6.17193E+04-1.36970E-09 6.90216E-09
 -1       662 1.67306E+05 2.88433E+04 1.12320E+04 5.79670E+04-2.42551E-10-9.15952E-09
 -1       663 1.61145E+05 2.18590E+04 3.92824E+03 6.07692E+04 1.53614E-09 6.52540E-09
 -1       664 1.63510E+05 2.25906E+04 2.34993E+03 5.91276E+04-5.22482E-09-9.50163E-09
 -1       665 1.61642E+05 2.25893E+04 9.27033E+02 6.06242E+04 7.06279E-10 2.27996E-09
 -1       666 1.62922E+05 2.17556E+04 5.42676E+02 5.93167E+04 4.51209E-09-1.46309E-08
 -1       667 1.61729E+05 2.26723E+04 2.88477E+02 6.05878E+04-1.83570E-09-1.18785E-08
 -1       668 1.62826E+05 2.16960E+04 2.94470E+02 5.93695E+04-2.62470E-09-2.85089E-08
 -1       669 1.61737E+05 2.26472E+04 3.99110E+02 6.05716E+04-2.85780E-09 1.67864E-09
 -1       670 1.62923E+05 2.19128E+04 8.69473E+02 5.93724E+04-1.08067E-08 3.52986E-09
 -1       671 1.61632E+05 2.24600E+04 1.54396E+03 6.05830E+04 1.24793E-09-1.90688E-08
 -1       672 1.63823E+05 2.34147E+04 3.95028E+03 5.91542E+04 3.59232E-09-8.35735E-09
 -1       673 1.60842E+05 2.11832E+04 6.62008E+03 6.07752E+04 5.91615E-09 2.60161E-09
 -1       674 1.70124E+05 3.40506E+04 1.89321E+04 5.73031E+04-2.56421E-09 2.08679E-08
 -1       675 1.55372E+05 1.21221E+04 2.81018E+04 6.23224E+04-1.95450E-09 8.37463E-09
 -1       676 2.41066E+01-2.95921E+05-1.11318E+03-1.37868E+02 6.75584E-11 2.56344E-09
 -1       677-2.94454E+02-2.96190E+05-2.03731E+03 2.75514E+02 7.43140E-09-1.00811E-08
 -1       678 1.97502E+02-2.95729E+05-3.60147E+03-1.37556E+02 1.25010E-09-3.93116E-09
 -1       679-3.60152E+03-2.98365E+05-8.55559E+03 2.74323E+02 8.26071E-09-1.69896E-08
 -1       680 2.15032E+03-2.93748E+05-1.37887E+04-1.35158E+02 1.02227E-09-3.14060E-12
 -1       771-3.06241E+06-7.47517E+05-1.66111E+05-1.46615E+06-3.62925E-08-4.24043E-08
 -1       772-2.98525E+06-8.36428E+05-8.56429E+04-1.56895E+06-2.79106E-08 9.14224E-09
 -1       773-3.09394E+06-7.22935E+05-4.36576E+04-1.48072E+06-1.28057E-08 1.08266E-08
 -1       774-2.97572E+06-8.17874E+05-1.94781E+04-1.59474E+06 3.05445E-08-5.80621E-09
 -1       775-3.11040E+06-7.11382E+05-1.45694E+04-1.48778E+06 8.14907E-10 1.04774E-09
 -1       776-2.98808E+06-8.14831E+05-5.44848E+03-1.61426E+06-2.77942E-09 1.29512E-09
 -1       777-3.12469E+06-7.01069E+05-6.43725E+03-1.49402E+06-2.91038E-11 2.51021E-09
 -1       778-3.00100E+06-8.12001E+05-1.82007E+03-1.63104E+06-3.60887E-09 1.44428E-08
 -1       779-3.13698E+06-6.92057E+05-3.21688E+03-1.49934E+06-1.54396E-08-6.42467E-09
 -1       780-3.01237E+06-8.09301E+05-5.33485E+02-1.64470E+06-8.53470E-09-4.70209E-09
 -1       781-3.14675E+06-6.84792E+05-1.24972E+03-1.50351E+06-3.00352E-08-7.10315E-09
 -1       782-3.02113E+06-8.07009E+05 4.50566E+02-1.65478E+06-3.95303E-08-1.08266E-08
 -1       783-3.15363E+06-6.79743E+05 7.01428E+02-1.50642E+06-2.53203E-09-1.73072E-08
 -1       784-3.02599E+06-8.04720E+05 2.90725E+03-1.66101E+06-1.88338E-08-4.87489E-10
 -1       785-3.15770E+06-6.76732E+05 5.13231E+03-1.50827E+06-3.79187E-08 7.07405E-09
 -1       786 1.24246E+05-9.79337E+03 2.26579E+04-3.24647E+02 2.06036E-09 1.70221E-08
 -1       787 1.34073E+05 1.13385E+04 1.60295E+04-1.35384E+02 6.78587E-09 1.27020E-08
 -1       788 1.28035E+05-1.53464E+03 5.86208E+03-2.89140E+02 3.65816E-09 1.35424E-09
 -1       789 1.29659E+05 1.77631E+03 3.67999E+03-1.89764E+02-1.12952E-09-3.03908E-09
 -1       790 1.28661E+05-2.38934E+02 1.48993E+03-2.70285E+02-3.69573E-09-5.85749E-09
 -1       791 1.28928E+05 2.76443E+02 8.60483E+02-2.21966E+02-9.17389E-09-1.04252E-08
 -1       792 1.28767E+05-3.58946E+01 3.64506E+02-2.56941E+02-4.37078E-09-4.21494E-10
 -1       793 1.28801E+05 3.78628E+01 1.81423E+02-2.46991E+02-1.66881E-09-8.44821E-09
 -1       794 1.28788E+05-5.03850E-01 4.65647E+01-2.45260E+02 5.15764E-09 8.94855E-09
 -1       795 1.28764E+05-2.80536E+01-5.95696E+01-2.71287E+02-4.75803E-09 2.20921E-08
 -1       796 1.28804E+05 2.99849E+01-1.65993E+02-2.32644E+02 4.11211E-09-4.82042E-09
 -1       797 1.28667E+05-2.23814E+02-4.54868E+02-3.00202E+02 3.31153E-09-1.03041E-08
 -1       798 1.28884E+05 1.95110E+02-7.38468E+02-2.16344E+02 2.50505E-09 2.02801E-08
 -1       799 1.28107E+05-1.43816E+03-2.03144E+03-3.40555E+02 5.61646E-09 2.46924E-08
 -1       800 1.29365E+05 1.24334E+03-2.87483E+03-1.92293E+02 8.94467E-10 2.24524E-08
 -1       801-1.71440E+05-1.00016E+07-1.39410E+06 1.41634E+06 8.98726E-08-6.24350E-08
 -1       802 7.38860E+05 5.95620E+06 2.18319E+06-1.74853E+06 2.59373E-07-3.27273E-08
 -1       803-5.36982E+05-1.42736E+07-1.89170E+06 8.98733E+05 7.73398E-08 1.64837E-08
 -1       804 2.87449E+05 2.39916E+06 1.53833E+06 6.77502E+05-1.19584E-07-1.10575E-07
 -1       805 1.89405E+05-6.45861E+06-2.86557E+05-1.00402E+06-4.98039E-08-6.69716E-08
 -1       806-3.09013E+05-5.97564E+04-2.28571E+04-1.22424E+05-1.08116E-08-5.16593E-10
 -1       807-3.10814E+05-5.60229E+04-1.12295E+04-1.27968E+05 1.10101E-08 3.18568E-09
 -1       808-3.09641E+05-5.15190E+04-4.76390E+03-1.26318E+05 3.43334E-09 2.60405E-08
 -1       809-3.08453E+05-5.28674E+04-2.32943E+03-1.28243E+05-9.19908E-09-2.54545E-09
 -1       810-3.09735E+05-5.12323E+04-1.06771E+03-1.26491E+05 5.69253E-09 1.74648E-08
 -1       811-3.08271E+05-5.27406E+04-5.30988E+02-1.28207E+05 1.83172E-09 6.24459E-09
 -1       812-3.09749E+05-5.12570E+04-2.68626E+02-1.26490E+05-5.52427E-09 4.95947E-09
 -1       813-3.08246E+05-5.27428E+04-1.74694E+02-1.28189E+05-1.02173E-08 1.30208E-08
 -1       814-3.09742E+05-5.12667E+04-1.73315E+02-1.26486E+05-1.73713E-10 1.22600E-09
 -1       815-3.08249E+05-5.27451E+04-2.79398E+02-1.28181E+05 3.22780E-09-3.32227E-08
 -1       816-3.09722E+05-5.12658E+04-5.29658E+02-1.26482E+05 4.99494E-09 1.87583E-09
 -1       817-3.08339E+05-5.27955E+04-1.13674E+03-1.28169E+05-1.51326E-08 3.01429E-08
 -1       818-3.09653E+05-5.14263E+04-2.31857E+03-1.26406E+05 6.73026E-10 3.24872E-09
 -1       819-3.09608E+05-5.41961E+04-5.45540E+03-1.27869E+05-2.13231E-09-3.32593E-08
 -1       820-3.09215E+05-5.55476E+04-1.11037E+04-1.24646E+05-4.03816E-10 2.92175E-10
 -1       821-3.80409E+05 2.09611E+04-4.88410E+04 2.21725E+03 1.44848E-08-6.00994E-09
 -1       822-4.00008E+05-2.42850E+04-3.42873E+04-4.74725E+03 5.77722E-09 1.02636E-09
 -1       823-3.87818E+05 3.30690E+03-1.26110E+04 3.64411E+03-1.19866E-08 2.45745E-09
 -1       824-3.91031E+05-3.81238E+03-7.88797E+03-5.77227E+03 3.09565E-09 2.82926E-08
 -1       825-3.89395E+05 5.14395E+02-3.30949E+03 3.24240E+03 2.19000E-08-1.62208E-08
 -1       826-3.88479E+05-5.65746E+02-1.72568E+03-3.37529E+03 2.58692E-08-3.37019E-08
 -1       827-3.90343E+05 4.12933E+01-1.21821E+03 1.24697E+03 1.03624E-08-2.76591E-08
 -1       828-3.87690E+05-1.24712E+02-5.44973E+02 1.10448E+03-1.42876E-09 1.47782E-08
 -1       829-3.90169E+05 6.15269E+01-1.20331E+03-1.23739E+03 4.63115E-09 4.28861E-09
 -1       830-3.88853E+05-6.21853E+02-1.86575E+03 5.17526E+03 8.91099E-10-7.60235E-09
 -1       831-3.89205E+05 5.58405E+02-3.38242E+03-2.82382E+03-6.17568E-09-9.06948E-09
 -1       832-3.91106E+05-3.97321E+03-8.17518E+03 6.56971E+03-2.57110E-09 1.32563E-08
 -1       833-3.87934E+05 3.42430E+03-1.30926E+04-2.63190E+03-2.30969E-09 2.77487E-09
 -1       834-4.00018E+05-2.51502E+04-3.54367E+04 4.47562E+03-3.20435E-09 4.14366E-09
 -1       835-3.80273E+05 2.17002E+04-5.06177E+04-7.29638E+02 5.18355E-09 9.32778E-09
 -1       836-1.40807E+03 3.70377E+05 2.27989E+04-1.63659E+04-7.01129E-09 5.24597E-09
 -1       837 4.85898E+03 3.77520E+05 1.93194E+04-3.34396E+04-7.59530E-09 2.14163E-09
 -1       838-5.58273E+02 3.72374E+05 1.97221E+04-1.62936E+04-6.56428E-09-3.95721E-09
 -1       839 1.24260E+04 3.83154E+05 3.73457E+04-3.34925E+04-6.80893E-09-2.02862E-08
 -1       840-3.84329E+03 3.64682E+05 5.95692E+04-1.63189E+04-6.02813E-09-1.99002E-09
 -1       856-5.15160E+04 8.00932E+03-2.11063E+04-3.97632E+02 4.08022E-09-8.64111E-09
 -1       857-6.02113E+04-9.41076E+03-1.45294E+04 5.63022E+03 6.74331E-09 1.11977E-08
 -1       858-5.49596E+04 1.12323E+03-5.47655E+03-4.21537E+02 2.38191E-09 3.23007E-09
 -1       859-5.62595E+04-1.32151E+03-3.30481E+03 5.66575E+03-7.72332E-10 1.46761E-08
 -1       860-5.54740E+04 1.57309E+02-1.38497E+03-4.32892E+02-2.03411E-09-1.32457E-09
 -1       861-5.56677E+04-1.87851E+02-7.61739E+02 5.68121E+03 3.35683E-09-2.04302E-08
 -1       862-5.55545E+04 2.13037E+01-3.16322E+02-4.36974E+02-2.03821E-09 3.49331E-09
 -1       863-5.55690E+04-2.17789E+01-1.14493E+02 5.68359E+03-2.39156E-09 2.41104E-08
 -1       864-5.55733E+04-4.98461E+00 4.87625E+01-4.35265E+02-2.65143E-09-2.98279E-09
 -1       865-5.55129E+04 6.02804E+01 2.58431E+02 5.67381E+03-5.16138E-10-3.20381E-09
 -1       866-5.56084E+04-6.07596E+01 5.19973E+02-4.27199E+02 1.04501E-09-5.58168E-09
 -1       867-5.52686E+04 5.01776E+02 1.27931E+03 5.65192E+03 3.43994E-09 7.08906E-09
 -1       868-5.58126E+04-4.38472E+02 2.12571E+03-4.13373E+02-3.11275E-09-8.89713E-09
 -1       869-5.37104E+04 3.64939E+03 5.65982E+03 5.61590E+03-1.11186E-09-1.84136E-08
 -1       870-5.71589E+04-3.12283E+03 8.21374E+03-3.91070E+02-4.75575E-09-1.85687E-08
 -1       871-5.52443E+03-2.13703E+04-1.95168E+04 1.30627E+05-5.41513E-09 1.19589E-08
 -1       872-1.98298E+03-2.59091E+04-8.17336E+03 1.69378E+05-1.01491E-08 1.04737E-08
 -1       873 4.07121E+02-2.37136E+04 5.87576E+02 1.30340E+05-5.13955E-09 1.38772E-08
 -1       874 3.31072E+03-2.13016E+04 9.78543E+03 1.69408E+05-1.11049E-08 2.12985E-08
 -1       875 6.85314E+03-2.60449E+04 2.20775E+04 1.30579E+05-5.16775E-09 4.36194E-09
 -1       876 2.93984E+05 4.95321E+04 1.51009E+04 1.17957E+05 9.36677E-08-2.90565E-08
 -1       877 2.94985E+05 5.27093E+04 8.06449E+03 1.22285E+05 2.39972E-07-7.31961E-08
 -1       878 2.95396E+05 4.78593E+04 3.37862E+03 1.19194E+05 6.44184E-07-2.36611E-07
 -1       879 2.92933E+05 5.06606E+04 1.68345E+03 1.22387E+05 1.65591E-06-6.14651E-07
 -1       880 2.95497E+05 4.78420E+04 7.84140E+02 1.19245E+05 4.54770E-06-1.71506E-06
 -1       881 2.92796E+05 5.05730E+04 4.18785E+02 1.22364E+05 1.00998E-05-3.77168E-06
 -1       882 2.95506E+05 4.78553E+04 2.67988E+02 1.19246E+05 2.44972E-05-9.17483E-06
 -1       883 2.92787E+05 5.05684E+04 2.88217E+02 1.22356E+05 2.63673E-05-9.86933E-06
 -1       884 2.95500E+05 4.78525E+04 4.58593E+02 1.19247E+05 1.31010E-04-4.90204E-05
 -1       885 2.92823E+05 5.05748E+04 9.22096E+02 1.22367E+05 2.44831E-04-9.15977E-05
 -1       886 2.95464E+05 4.78256E+04 1.85848E+03 1.19243E+05 1.31001E-04-4.90117E-05
 -1       887 2.93150E+05 5.07889E+04 4.05960E+03 1.22415E+05 2.63723E-05-9.91325E-06
 -1       888 2.95207E+05 4.78708E+04 8.18021E+03 1.19113E+05 2.45507E-05-9.16758E-06
 -1       889 2.98020E+05 5.58535E+04 1.95410E+04 1.22265E+05 1.01694E-05-3.80177E-06
 -1       890 2.91868E+05 5.18369E+04 3.65998E+04 1.16000E+05 4.53369E-06-1.67488E-06
 -1       891-8.93591E+01-1.62848E+05-1.99869E+03 2.71251E+04-1.71872E-09-4.53156E-09
 -1       892-1.75363E+02-1.63376E+05-2.14606E+03 4.11916E+04 4.24143E-09-1.08050E-08
 -1       893 4.39215E+01-1.62913E+05-3.03798E+03 2.71325E+04 6.95763E-11-1.12518E-08
 -1       894-1.51067E+03-1.64524E+05-6.28705E+03 4.10392E+04 4.00541E-09 6.34236E-09
 -1       895-1.19972E+03-1.61603E+05-1.10712E+04 2.72794E+04 8.22638E-10-1.09776E-09
 -1       956-3.77551E+05-5.45622E+03-1.34691E+04 3.08840E+04 8.56562E-09-2.24595E-08
 -1       957-3.80194E+05-1.92473E+03-6.91348E+03 3.71148E+04-3.10547E-09 4.22938E-09
 -1       958-3.78762E+05-2.41139E+02-3.11543E+03 3.07164E+04-1.33059E-09-1.33427E-08
 -1       959-3.78958E+05-1.36363E+02-1.59079E+03 3.73103E+04 1.56215E-08-1.12686E-09
 -1       960-3.78880E+05-4.48151E+01-7.75739E+02 3.06991E+04 1.34369E-08 1.03512E-08
 -1       961-3.78878E+05-6.32714E+01-4.11287E+02 3.73307E+04 9.86051E-09 3.87217E-09
 -1       962-3.78907E+05-4.60728E+01-2.35468E+02 3.06962E+04 3.10229E-09 2.13818E-08
 -1       963-3.78878E+05-5.91082E+01-1.89022E+02 3.73344E+04 8.18886E-09 1.28291E-08
 -1       964-3.78913E+05-4.27485E+01-2.29864E+02 3.06955E+04-4.42300E-09-1.54121E-08
 -1       965-3.78890E+05-5.61817E+01-3.97569E+02 3.73336E+04-8.56204E-09 5.26143E-10
 -1       966-3.78896E+05-3.49371E+01-7.47024E+02 3.06970E+04 4.33238E-09-8.40441E-09
 -1       967-3.78980E+05-1.19838E+02-1.53212E+03 3.73192E+04 4.25644E-09 8.56426E-09
 -1       968-3.78792E+05-2.17679E+02-2.99936E+03 3.07097E+04 2.07228E-09-1.11959E-09
 -1       969-3.80182E+05-1.83670E+03-6.65848E+03 3.71704E+04 4.83669E-09 3.46120E-10
 -1       970-3.77635E+05-5.23647E+03-1.29711E+04 3.08372E+04-1.47884E-09 1.26010E-08
 -1       971-3.45590E+05-1.72772E+03-9.31077E+03 1.53776E+04 9.66611E-09-1.18787E-08
 -1       972-3.47832E+05-1.27201E+03-5.07055E+03 2.12666E+04 4.35830E-09 3.19005E-09
 -1       973-3.46628E+05-6.21300E+01-2.27115E+03 1.52565E+04 3.43152E-09 2.08024E-09
 -1       974-3.46763E+05-8.12143E+01-1.17730E+03 2.14037E+04-1.61890E-09 4.19050E-09
 -1       975-3.46710E+05-1.72515E+01-5.88966E+02 1.52441E+04 5.20231E-10-4.48767E-09
 -1       976-3.46701E+05-3.13662E+01-3.40660E+02 2.14195E+04 2.17460E-09-5.38023E-09
 -1       977-3.46726E+05-1.65040E+01-2.48798E+02 1.52407E+04-4.38240E-09 1.46746E-08
 -1       978-3.46707E+05-2.51386E+01-2.93262E+02 2.14243E+04-8.94352E-09 2.38358E-08
 -1       979-3.46726E+05-8.01885E+00-4.72999E+02 1.52393E+04-7.54181E-09 3.40151E-10
 -1       980-3.46742E+05-2.20734E+01-9.14442E+02 2.14253E+04 3.63428E-10-2.26225E-09
 -1       981-3.46697E+05 1.48417E+01-1.77166E+03 1.52398E+04 5.25688E-09-1.94615E-08
 -1       982-3.46985E+05-1.52975E+02-3.66232E+03 2.14187E+04 3.86740E-09 1.67003E-08
 -1       983-3.46474E+05-9.85963E+01-7.11607E+03 1.52458E+04 1.16734E-09 9.80413E-09
 -1       984-3.50408E+05-3.86948E+03-1.59362E+04 2.13331E+04 3.77486E-09 1.07400E-09
 -1       985-3.43252E+05-5.30569E+03-2.92639E+04 1.53171E+04 8.87667E-10-1.15760E-08
 -3
    1PSTEP                        29          15           1          
  100CL  115 6.63036E-01         409                     0   15           1
 -4  DISP        4    1
 -5  D1          1    2    1    0
 -5  D2          1    2    2    0
 -5  D3          1    2    3    0
 -5  ALL         1    2    0    0    1ALL
 -1         1 2.72350E-03 0.00000E+00 0.00000E+00
 -1         2 1.34108E-03 1.85141E-28 0.00000E+00
 -1         3 3.42776E-04-5.67405E-28-1.32349E-23
 -1         5 1.77153E-04-1.54330E-27 3.30872E-24
 -1         8 2.71269E-03-4.03633E-07 0.00000E+00
 -1         9 2.70601E-03-1.95831E-04 0.00000E+00
 -1        10 3.10812E-04-3.40027E-06 0.00000E+00
 -1        12 1.78998E-04 8.09440E-07-4.13590E-25
 -1        15 2.70035E-03-4.27047E-07-1.03398E-25
 -1        16 2.77415E-03-1.97680E-04 0.00000E+00
 -1        17 2.11521E-04-7.75582E-06 0.00000E+00
 -1        18 1.82944E-04 3.44458E-05 0.00000E+00
 -1        19 1.84534E-04 1.61248E-06 0.00000E+00
 -1        20 1.84673E-04-9.88359E-06 0.00000E+00
 -1        21 1.83779E-04-2.54503E-05 3.30872E-24
 -1        24 3.06140E-05-1.19804E-05 0.00000E+00
 -1        25 1.93740E-04 3.46717E-05 0.00000E+00
 -1        26 1.94423E-04 2.24474E-06 0.00000E+00
 -1        27 1.92208E-04-1.34451E-05 0.00000E+00
 -1        28 1.91896E-04-2.60725E-05 0.00000E+00
 -1        32 0.00000E+00 0.00000E+00 0.00000E+00
 -1        33 2.03292E-04 2.99887E-06 0.00000E+00
 -1        34 2.01172E-04-1.35013E-05 0.00000E+00
 -1        35 1.99238E-04-2.64151E-05 0.00000E+00
 -1        51 2.72277E-03-8.47506E-08-4.96308E-24
 -1        52 2.72144E-03-1.51069E-07 3.30872E-24
 -1        53 2.71964E-03-2.13899E-07 0.00000E+00
 -1        54 2.71750E-03-2.75478E-07 0.00000E+00
 -1        55 2.71514E-03-3.37566E-07-1.65436E-24
 -1        56 2.71560E-03 8.96885E-06-5.29396E-23
 -1        57 2.69997E-03 3.70131E-05 5.29396E-23
 -1        58 2.67894E-03 7.81488E-05 0.00000E+00
 -1        59 2.65538E-03 1.25146E-04 5.29396E-23
 -1        60 2.63283E-03 1.69770E-04 0.00000E+00
 -1        61 2.61465E-03 2.03977E-04 5.29396E-23
 -1        62 2.60318E-03 2.21584E-04-1.05879E-22
 -1        63 2.59989E-03 2.17885E-04 5.29396E-23
 -1        64 2.60458E-03 1.92092E-04-1.05879E-22
 -1        65 2.61628E-03 1.45510E-04 0.00000E+00
 -1        66 2.63297E-03 8.34043E-05 0.00000E+00
 -1        67 2.65233E-03 1.25678E-05 0.00000E+00
 -1        68 2.67176E-03-5.85050E-05-1.05879E-22
 -1        69 2.68869E-03-1.21290E-04 5.29396E-23
 -1        70 2.70075E-03-1.68880E-04 5.29396E-23
 -1        86 1.42692E-03-6.18241E-06 0.00000E+00
 -1        87 1.67516E-03-3.88991E-05 0.00000E+00
 -1        88 2.00896E-03-9.51514E-05 0.00000E+00
 -1        89 2.34730E-03-1.52972E-04 0.00000E+00
 -1        90 2.60652E-03-1.88358E-04 5.29396E-23
 -1       121 3.41879E-04-5.48964E-07 1.32349E-23
 -1       122 3.39190E-04-1.10102E-06-6.61744E-24
 -1       123 3.34719E-04-1.65920E-06 0.00000E+00
 -1       124 3.28482E-04-2.22656E-06 0.00000E+00
 -1       125 3.20503E-04-2.80575E-06 1.32349E-23
 -1       191 1.77204E-04 1.34970E-07 8.27181E-25
 -1       192 1.77358E-04 2.69929E-07 8.27181E-25
 -1       193 1.77614E-04 4.04868E-07-2.48154E-24
 -1       194 1.77973E-04 5.39775E-07 0.00000E+00
 -1       195 1.78434E-04 6.74636E-07 0.00000E+00
 -1       251 2.71239E-03 1.63035E-06 6.61744E-24
 -1       252 2.71209E-03 3.52489E-06 0.00000E+00
 -1       253 2.71179E-03 4.28803E-06 0.00000E+00
 -1       254 2.71148E-03 2.94180E-06 3.30872E-24
 -1       255 2.71117E-03-1.17313E-06 6.61744E-24
 -1       256 2.71084E-03-8.68161E-06-3.30872E-24
 -1       257 2.71047E-03-1.96962E-05 0.00000E+00
 -1       258 2.71007E-03-3.42857E-05 3.30872E-24
 -1       259 2.70961E-03-5.19798E-05 6.61744E-24
 -1       260 2.70911E-03-7.22692E-05 0.00000E+00
 -1       261 2.70857E-03-9.42526E-05 0.00000E+00
 -1       262 2.70802E-03-1.17008E-04-6.61744E-24
 -1       263 2.70747E-03-1.39498E-04 0.00000E+00
 -1       264 2.70694E-03-1.60685E-04-6.61744E-24
 -1       265 2.70646E-03-1.79734E-04 0.00000E+00
 -1       266 2.71064E-03-4.13143E-07-1.65436E-24
 -1       267 2.70858E-03-4.16362E-07-4.13590E-25
 -1       268 2.70652E-03-4.19979E-07 0.00000E+00
 -1       269 2.70446E-03-4.22416E-07 2.06795E-25
 -1       270 2.70241E-03-4.24825E-07 0.00000E+00
 -1       271 2.71186E-03 4.84130E-08-1.32349E-23
 -1       272 2.71200E-03-2.16573E-06 0.00000E+00
 -1       273 2.71308E-03-6.88715E-06 0.00000E+00
 -1       274 2.71502E-03-1.39445E-05 0.00000E+00
 -1       275 2.71774E-03-2.31452E-05 2.64698E-23
 -1       276 2.72116E-03-3.42817E-05 1.32349E-23
 -1       277 2.72520E-03-4.71298E-05 2.64698E-23
 -1       278 2.72978E-03-6.14523E-05-1.32349E-23
 -1       279 2.73480E-03-7.69999E-05 2.64698E-23
 -1       280 2.74016E-03-9.35138E-05 6.61744E-24
 -1       281 2.74577E-03-1.10727E-04-1.32349E-23
 -1       282 2.75153E-03-1.28368E-04 0.00000E+00
 -1       283 2.75735E-03-1.46160E-04 0.00000E+00
 -1       284 2.76312E-03-1.63826E-04 0.00000E+00
 -1       285 2.76875E-03-1.81091E-04 1.32349E-23
 -1       301 2.71839E-03-1.96174E-04-6.61744E-24
 -1       302 2.72912E-03-1.96470E-04 0.00000E+00
 -1       303 2.73912E-03-1.96756E-04 0.00000E+00
 -1       304 2.74933E-03-1.97042E-04 0.00000E+00
 -1       305 2.76070E-03-1.97342E-04-2.64698E-23
 -1       306 2.74404E-03-3.51080E-04 1.05879E-22
 -1       307 2.80790E-03-7.65889E-04 0.00000E+00
 -1       308 2.85448E-03-1.37177E-03 0.00000E+00
 -1       309 2.87829E-03-2.07248E-03-5.29396E-23
 -1       310 2.90967E-03-2.74215E-03 0.00000E+00
 -1       311 2.96924E-03-3.25765E-03 0.00000E+00
 -1       312 3.02693E-03-3.53842E-03-2.11758E-22
 -1       313 3.02164E-03-3.54688E-03 0.00000E+00
 -1       314 2.87941E-03-3.29533E-03 0.00000E+00
 -1       315 2.55948E-03-2.84854E-03 5.29396E-23
 -1       316 2.08052E-03-2.28325E-03 0.00000E+00
 -1       317 1.50877E-03-1.66872E-03 5.29396E-23
 -1       318 9.58791E-04-1.06543E-03 1.05879E-22
 -1       319 5.38709E-04-5.38330E-04 0.00000E+00
 -1       320 2.92255E-04-1.61613E-04-1.05879E-22
 -1       336 2.99222E-04-4.05762E-06 1.32349E-23
 -1       337 2.85555E-04-4.74068E-06-6.61744E-24
 -1       338 2.69874E-04-5.45167E-06-1.32349E-23
 -1       339 2.52251E-04-6.19141E-06-6.61744E-24
 -1       340 2.32770E-04-6.96436E-06 0.00000E+00
 -1       406 1.79664E-04 9.44167E-07-8.27181E-25
 -1       407 1.80433E-04 1.07878E-06 0.00000E+00
 -1       408 1.81305E-04 1.21323E-06 4.13590E-25
 -1       409 1.82279E-04 1.34734E-06 1.44757E-24
 -1       410 1.83356E-04 1.48084E-06 2.48154E-24
 -1       521 2.81277E-03-3.62227E-04 1.05879E-22
 -1       522 2.87483E-03-7.97476E-04 0.00000E+00
 -1       523 2.91487E-03-1.43148E-03 0.00000E+00
 -1       524 2.92932E-03-2.16120E-03 0.00000E+00
 -1       525 2.95269E-03-2.85786E-03-1.05879E-22
 -1       526 3.00869E-03-3.39566E-03-5.29396E-23
 -1       527 3.06596E-03-3.68712E-03 0.00000E+00
 -1       528 3.05832E-03-3.69371E-03 1.05879E-22
 -1       529 2.90386E-03-3.42778E-03 0.00000E+00
 -1       530 2.55953E-03-2.96217E-03 0.00000E+00
 -1       531 2.04483E-03-2.37745E-03 1.05879E-22
 -1       532 1.43256E-03-1.74548E-03 0.00000E+00
 -1       533 8.42775E-04-1.12409E-03 0.00000E+00
 -1       534 3.88877E-04-5.75854E-04 0.00000E+00
 -1       535 1.20932E-04-1.79375E-04 0.00000E+00
 -1       536 2.10766E-04 2.71789E-05 0.00000E+00
 -1       537 2.08847E-04 8.76383E-05 0.00000E+00
 -1       538 2.05881E-04 1.64353E-04 3.30872E-24
 -1       539 2.02383E-04 2.47969E-04 0.00000E+00
 -1       540 1.99235E-04 3.26980E-04 3.30872E-24
 -1       541 1.97188E-04 3.89903E-04 0.00000E+00
 -1       542 1.96244E-04 4.29981E-04-3.30872E-24
 -1       543 1.96019E-04 4.40609E-04-1.65436E-24
 -1       544 1.95697E-04 4.22560E-04-3.30872E-24
 -1       545 1.94524E-04 3.76828E-04 0.00000E+00
 -1       546 1.92338E-04 3.11544E-04-3.30872E-24
 -1       547 1.89378E-04 2.34955E-04 1.65436E-24
 -1       548 1.86445E-04 1.58742E-04-3.30872E-24
 -1       549 1.84329E-04 9.45855E-05 1.65436E-24
 -1       550 1.83230E-04 5.05175E-05-1.65436E-24
 -1       551 1.86313E-04-8.32508E-06 0.00000E+00
 -1       552 1.57860E-04-8.97482E-06 0.00000E+00
 -1       553 1.27104E-04-9.68684E-06-6.61744E-24
 -1       554 9.50058E-05-1.04400E-05 6.61744E-24
 -1       555 6.25240E-05-1.12069E-05 0.00000E+00
 -1       556 2.03870E-04 1.18058E-05-5.29396E-23
 -1       557 1.97689E-04 2.76710E-05 0.00000E+00
 -1       558 1.92843E-04 4.01277E-05 0.00000E+00
 -1       559 1.89199E-04 4.94865E-05 0.00000E+00
 -1       560 1.86627E-04 5.60581E-05 0.00000E+00
 -1       561 1.85000E-04 6.01561E-05 0.00000E+00
 -1       562 1.84191E-04 6.20951E-05 0.00000E+00
 -1       563 1.84077E-04 6.21906E-05 0.00000E+00
 -1       564 1.84535E-04 6.07593E-05 0.00000E+00
 -1       565 1.85446E-04 5.81182E-05 0.00000E+00
 -1       566 1.86689E-04 5.45851E-05 0.00000E+00
 -1       567 1.88145E-04 5.04780E-05 0.00000E+00
 -1       568 1.89696E-04 4.61154E-05 0.00000E+00
 -1       569 1.91224E-04 4.18153E-05 0.00000E+00
 -1       570 1.92610E-04 3.78961E-05 0.00000E+00
 -1       571 1.83040E-04 3.23148E-05-1.65436E-24
 -1       572 1.83139E-04 3.01179E-05 1.65436E-24
 -1       573 1.83238E-04 2.78709E-05 0.00000E+00
 -1       574 1.83337E-04 2.55903E-05 8.27181E-25
 -1       575 1.83436E-04 2.32924E-05 0.00000E+00
 -1       576 1.83535E-04 2.09939E-05 0.00000E+00
 -1       577 1.83635E-04 1.87112E-05 3.30872E-24
 -1       578 1.83734E-04 1.64610E-05 0.00000E+00
 -1       579 1.83833E-04 1.42599E-05 0.00000E+00
 -1       580 1.83933E-04 1.21244E-05 0.00000E+00
 -1       581 1.84033E-04 1.00710E-05 0.00000E+00
 -1       582 1.84133E-04 8.11644E-06 0.00000E+00
 -1       583 1.84233E-04 6.27711E-06 0.00000E+00
 -1       584 1.84333E-04 4.56943E-06-3.30872E-24
 -1       585 1.84434E-04 3.00961E-06 0.00000E+00
 -1       586 1.84702E-04 3.44856E-05 0.00000E+00
 -1       587 1.86420E-04 3.45248E-05 8.27181E-25
 -1       588 1.88139E-04 3.45636E-05 0.00000E+00
 -1       589 1.89903E-04 3.46018E-05 0.00000E+00
 -1       590 1.91756E-04 3.46387E-05 0.00000E+00
 -1       591 1.83675E-04 3.24093E-05-2.06795E-25
 -1       592 1.84408E-04 3.03534E-05-2.06795E-25
 -1       593 1.85147E-04 2.82839E-05 0.00000E+00
 -1       594 1.85888E-04 2.62053E-05 0.00000E+00
 -1       595 1.86631E-04 2.41224E-05-8.27181E-25
 -1       596 1.87373E-04 2.20398E-05 4.13590E-25
 -1       597 1.88114E-04 1.99621E-05 0.00000E+00
 -1       598 1.88851E-04 1.78939E-05-4.13590E-25
 -1       599 1.89583E-04 1.58398E-05-8.27181E-25
 -1       600 1.90308E-04 1.38044E-05 0.00000E+00
 -1       601 1.91025E-04 1.17923E-05 8.27181E-25
 -1       602 1.91731E-04 9.80821E-06-2.06795E-25
 -1       603 1.92425E-04 7.85662E-06 0.00000E+00
 -1       604 1.93105E-04 5.94230E-06-1.03398E-25
 -1       605 1.93771E-04 4.06974E-06 0.00000E+00
 -1       606 1.84547E-04 4.49010E-07 0.00000E+00
 -1       607 1.84557E-04-6.28948E-07 0.00000E+00
 -1       608 1.84566E-04-1.62642E-06 0.00000E+00
 -1       609 1.84574E-04-2.54905E-06-1.65436E-24
 -1       610 1.84582E-04-3.40257E-06-3.30872E-24
 -1       611 1.84590E-04-4.19275E-06 0.00000E+00
 -1       612 1.84599E-04-4.92536E-06 0.00000E+00
 -1       613 1.84607E-04-5.60619E-06 0.00000E+00
 -1       614 1.84615E-04-6.24104E-06 0.00000E+00
 -1       615 1.84624E-04-6.83569E-06-8.27181E-25
 -1       616 1.84632E-04-7.39593E-06-1.65436E-24
 -1       617 1.84640E-04-7.92756E-06 0.00000E+00
 -1       618 1.84649E-04-8.43634E-06 0.00000E+00
 -1       619 1.84657E-04-8.92809E-06 0.00000E+00
 -1       620 1.84665E-04-9.40858E-06 0.00000E+00
 -1       621 1.85893E-04 1.71837E-06-1.65436E-24
 -1       622 1.87413E-04 1.82458E-06 0.00000E+00
 -1       623 1.89060E-04 1.93058E-06-1.65436E-24
 -1       624 1.90801E-04 2.03624E-06 0.00000E+00
 -1       625 1.92600E-04 2.14163E-06-1.65436E-24
 -1       626 1.85082E-04 4.85216E-07 0.00000E+00
 -1       627 1.85608E-04-5.79322E-07 0.00000E+00
 -1       628 1.86114E-04-1.58898E-06 0.00000E+00
 -1       629 1.86602E-04-2.55190E-06 3.30872E-24
 -1       630 1.87076E-04-3.47629E-06 0.00000E+00
 -1       631 1.87538E-04-4.37032E-06-1.65436E-24
 -1       632 1.87992E-04-5.24218E-06 0.00000E+00
 -1       633 1.88441E-04-6.10010E-06 0.00000E+00
 -1       634 1.88888E-04-6.95225E-06-3.30872E-24
 -1       635 1.89336E-04-7.80684E-06-1.65436E-24
 -1       636 1.89788E-04-8.67207E-06-3.30872E-24
 -1       637 1.90246E-04-9.55613E-06-1.65436E-24
 -1       638 1.90715E-04-1.04672E-05-1.65436E-24
 -1       639 1.91197E-04-1.14136E-05-8.27181E-25
 -1       640 1.91694E-04-1.24034E-05-1.65436E-24
 -1       656 1.85380E-04-1.04624E-05-6.61744E-24
 -1       657 1.86507E-04-1.10648E-05-6.61744E-24
 -1       658 1.87914E-04-1.16658E-05 0.00000E+00
 -1       659 1.89457E-04-1.22665E-05 0.00000E+00
 -1       660 1.90949E-04-1.28689E-05 0.00000E+00
 -1       661 1.84938E-04-1.04039E-05 8.27181E-25
 -1       662 1.85240E-04-1.10163E-05 8.27181E-25
 -1       663 1.85575E-04-1.17157E-05 0.00000E+00
 -1       664 1.85940E-04-1.24954E-05 0.00000E+00
 -1       665 1.86334E-04-1.33496E-05 0.00000E+00
 -1       666 1.86753E-04-1.42724E-05-8.27181E-25
 -1       667 1.87195E-04-1.52580E-05-1.65436E-24
 -1       668 1.87659E-04-1.63008E-05 0.00000E+00
 -1       669 1.88142E-04-1.73954E-05-1.65436E-24
 -1       670 1.88643E-04-1.85364E-05 8.27181E-25
 -1       671 1.89159E-04-1.97186E-05-1.65436E-24
 -1       672 1.89688E-04-2.09369E-05-8.27181E-25
 -1       673 1.90229E-04-2.21862E-05 0.00000E+00
 -1       674 1.90779E-04-2.34617E-05 0.00000E+00
 -1       675 1.91337E-04-2.47581E-05-2.06795E-25
 -1       676 1.85136E-04-2.55546E-05 0.00000E+00
 -1       677 1.86493E-04-2.56589E-05 0.00000E+00
 -1       678 1.87848E-04-2.57631E-05 0.00000E+00
 -1       679 1.89201E-04-2.58669E-05 0.00000E+00
 -1       680 1.90550E-04-2.59708E-05 0.00000E+00
 -1       771 1.86569E-05 1.47597E-05 0.00000E+00
 -1       772 8.59752E-06 3.67215E-05 2.64698E-23
 -1       773 3.45098E-07 5.41352E-05-5.29396E-23
 -1       774-6.22477E-06 6.72590E-05 0.00000E+00
 -1       775-1.12338E-05 7.63612E-05 0.00000E+00
 -1       776-1.48087E-05 8.17272E-05 0.00000E+00
 -1       777-1.70757E-05 8.36523E-05 0.00000E+00
 -1       778-1.81639E-05 8.24457E-05 2.64698E-23
 -1       779-1.82017E-05 7.84252E-05 0.00000E+00
 -1       780-1.73194E-05 7.19198E-05 0.00000E+00
 -1       781-1.56465E-05 6.32656E-05-1.05879E-22
 -1       782-1.33139E-05 5.28074E-05 2.64698E-23
 -1       783-1.04519E-05 4.08946E-05 5.29396E-23
 -1       784-7.19168E-06 2.78829E-05 0.00000E+00
 -1       785-3.66367E-06 1.41310E-05 5.29396E-23
 -1       786 1.93778E-04 3.24167E-05 0.00000E+00
 -1       787 1.93820E-04 3.02123E-05-4.13590E-25
 -1       788 1.93862E-04 2.80500E-05-8.27181E-25
 -1       789 1.93904E-04 2.59216E-05 0.00000E+00
 -1       790 1.93947E-04 2.38222E-05 0.00000E+00
 -1       791 1.93990E-04 2.17470E-05 0.00000E+00
 -1       792 1.94033E-04 1.96937E-05 0.00000E+00
 -1       793 1.94076E-04 1.76600E-05-8.27181E-25
 -1       794 1.94119E-04 1.56458E-05-1.65436E-24
 -1       795 1.94162E-04 1.36508E-05-8.27181E-25
 -1       796 1.94205E-04 1.16767E-05 0.00000E+00
 -1       797 1.94249E-04 9.72545E-06 0.00000E+00
 -1       798 1.94292E-04 7.80112E-06-1.65436E-24
 -1       799 1.94335E-04 5.90795E-06 0.00000E+00
 -1       800 1.94379E-04 4.05333E-06 0.00000E+00
 -1       801 1.47926E-04 3.11703E-05 0.00000E+00
 -1       802 9.40624E-06 1.94457E-05-2.64698E-23
 -1       803-1.08907E-04 9.82250E-06 0.00000E+00
 -1       804-9.65278E-05 6.83721E-06 0.00000E+00
 -1       805-3.18908E-05 2.68621E-06 0.00000E+00
 -1       806 1.94470E-04 3.23477E-05 3.30872E-24
 -1       807 1.95186E-04 3.00501E-05 1.65436E-24
 -1       808 1.95890E-04 2.77840E-05 0.00000E+00
 -1       809 1.96580E-04 2.55535E-05-1.65436E-24
 -1       810 1.97255E-04 2.33627E-05 3.30872E-24
 -1       811 1.97914E-04 2.12154E-05 1.65436E-24
 -1       812 1.98555E-04 1.91157E-05-3.30872E-24
 -1       813 1.99177E-04 1.70674E-05 0.00000E+00
 -1       814 1.99778E-04 1.50743E-05 0.00000E+00
 -1       815 2.00358E-04 1.31405E-05-8.27181E-25
 -1       816 2.00913E-04 1.12699E-05 3.30872E-24
 -1       817 2.01444E-04 9.46623E-06 1.65436E-24
 -1       818 2.01949E-04 7.73345E-06 3.30872E-24
 -1       819 2.02425E-04 6.07542E-06-8.27181E-25
 -1       820 2.02873E-04 4.49597E-06-1.65436E-24
 -1       821 1.94293E-04-1.63781E-07-1.65436E-24
 -1       822 1.94152E-04-3.81247E-06 1.65436E-24
 -1       823 1.94008E-04-8.24764E-06-3.30872E-24
 -1       824 1.93862E-04-1.30106E-05-1.65436E-24
 -1       825 1.93716E-04-1.75539E-05 0.00000E+00
 -1       826 1.93573E-04-2.13312E-05 1.65436E-24
 -1       827 1.93434E-04-2.40054E-05 3.30872E-24
 -1       828 1.93297E-04-2.52465E-05 0.00000E+00
 -1       829 1.93160E-04-2.51155E-05-3.30872E-24
 -1       830 1.93023E-04-2.36821E-05-1.65436E-24
 -1       831 1.92885E-04-2.13715E-05-3.30872E-24
 -1       832 1.92745E-04-1.86143E-05 1.65436E-24
 -1       833 1.92606E-04-1.59634E-05 0.00000E+00
 -1       834 1.92470E-04-1.39707E-05 0.00000E+00
 -1       835 1.92335E-04-1.30091E-05-8.27181E-25
 -1       836 1.96116E-04 2.36981E-06-3.30872E-24
 -1       837 1.97680E-04 2.49801E-06 1.65436E-24
 -1       838 1.99147E-04 2.62616E-06 0.00000E+00
 -1       839 2.00550E-04 2.75360E-06-8.27181E-25
 -1       840 2.01921E-04 2.88087E-06 8.27181E-25
 -1       856 1.92192E-04-1.45092E-05 8.27181E-25
 -1       857 1.92173E-04-1.54377E-05-2.58494E-26
 -1       858 1.92154E-04-1.62516E-05 2.06795E-25
 -1       859 1.92135E-04-1.69721E-05 2.06795E-25
 -1       860 1.92115E-04-1.76203E-05-4.13590E-25
 -1       861 1.92096E-04-1.82176E-05 0.00000E+00
 -1       862 1.92076E-04-1.87852E-05 0.00000E+00
 -1       863 1.92057E-04-1.93445E-05 2.06795E-25
 -1       864 1.92037E-04-1.99168E-05 8.27181E-25
 -1       865 1.92017E-04-2.05234E-05-4.13590E-25
 -1       866 1.91998E-04-2.11856E-05 0.00000E+00
 -1       867 1.91978E-04-2.19246E-05-4.13590E-25
 -1       868 1.91958E-04-2.27618E-05 0.00000E+00
 -1       869 1.91938E-04-2.37181E-05-4.13590E-25
 -1       870 1.91918E-04-2.48147E-05 0.00000E+00
 -1       871 1.93561E-04-1.34500E-05 8.27181E-25
 -1       872 1.95060E-04-1.34583E-05 0.00000E+00
 -1       873 1.96640E-04-1.34674E-05 0.00000E+00
 -1       874 1.98230E-04-1.34772E-05 2.84343E-25
 -1       875 1.99763E-04-1.34875E-05-1.24077E-24
 -1       876 1.92735E-04-1.44946E-05 3.30872E-24
 -1       877 1.93239E-04-1.54774E-05 0.00000E+00
 -1       878 1.93721E-04-1.64015E-05 3.30872E-24
 -1       879 1.94185E-04-1.72740E-05 0.00000E+00
 -1       880 1.94632E-04-1.81026E-05 0.00000E+00
 -1       881 1.95065E-04-1.88945E-05-1.65436E-24
 -1       882 1.95488E-04-1.96572E-05-3.30872E-24
 -1       883 1.95902E-04-2.03978E-05 0.00000E+00
 -1       884 1.96311E-04-2.11238E-05 0.00000E+00
 -1       885 1.96717E-04-2.18426E-05 1.65436E-24
 -1       886 1.97123E-04-2.25613E-05 0.00000E+00
 -1       887 1.97531E-04-2.32874E-05 0.00000E+00
 -1       888 1.97945E-04-2.40282E-05 0.00000E+00
 -1       889 1.98367E-04-2.47913E-05 0.00000E+00
 -1       890 1.98799E-04-2.55838E-05 1.65436E-24
 -1       891 1.93262E-04-2.61300E-05 0.00000E+00
 -1       892 1.94604E-04-2.61878E-05 0.00000E+00
 -1       893 1.95898E-04-2.62454E-05 8.27181E-25
 -1       894 1.97118E-04-2.63027E-05 8.27181E-25
 -1       895 1.98240E-04-2.63599E-05-8.27181E-25
 -1       956 2.03161E-04 1.67644E-06 1.65436E-24
 -1       957 2.03029E-04 4.45511E-07 0.00000E+00
 -1       958 2.02896E-04-7.04665E-07 0.00000E+00
 -1       959 2.02763E-04-1.78543E-06 0.00000E+00
 -1       960 2.02630E-04-2.80819E-06 3.30872E-24
 -1       961 2.02497E-04-3.78435E-06 0.00000E+00
 -1       962 2.02364E-04-4.72536E-06-3.30872E-24
 -1       963 2.02231E-04-5.64267E-06 0.00000E+00
 -1       964 2.02099E-04-6.54774E-06 3.30872E-24
 -1       965 2.01966E-04-7.45201E-06 0.00000E+00
 -1       966 2.01833E-04-8.36695E-06-3.30872E-24
 -1       967 2.01700E-04-9.30401E-06 1.65436E-24
 -1       968 2.01567E-04-1.02746E-05-6.61744E-24
 -1       969 2.01434E-04-1.12902E-05-3.30872E-24
 -1       970 2.01302E-04-1.23621E-05 3.30872E-24
 -1       971 2.01052E-04-1.46402E-05-3.30872E-24
 -1       972 2.00930E-04-1.56845E-05-1.65436E-24
 -1       973 2.00809E-04-1.66446E-05 0.00000E+00
 -1       974 2.00687E-04-1.75314E-05 0.00000E+00
 -1       975 2.00566E-04-1.83558E-05 0.00000E+00
 -1       976 2.00444E-04-1.91285E-05 0.00000E+00
 -1       977 2.00323E-04-1.98605E-05-3.30872E-24
 -1       978 2.00201E-04-2.05627E-05 0.00000E+00
 -1       979 2.00080E-04-2.12460E-05 0.00000E+00
 -1       980 1.99958E-04-2.19213E-05 1.65436E-24
 -1       981 1.99837E-04-2.25995E-05 3.30872E-24
 -1       982 1.99716E-04-2.32915E-05 0.00000E+00
 -1       983 1.99595E-04-2.40082E-05 0.00000E+00
 -1       984 1.99474E-04-2.47605E-05 1.65436E-24
 -1       985 1.99354E-04-2.55592E-05 0.00000E+00
 -3
    1PSTEP                        30          15           1          
  100CL  115 6.63036E-01         409                     0   15           1
 -4  STRESS      6    1
 -5  SXX         1    4    1    1
 -5  SYY         1    4    2    2
 -5  SZZ         1    4    3    3
 -5  SXY         1    4    1    2
 -5  SYZ         1    4    2    3
 -5  SZX         1    4    3    1
 -1         1-5.34446E+06-1.58689E+06-1.13335E+06-1.34573E+06 6.69388E-10-2.52738E-07
 -1         2 1.49251E+06 2.18842E+07 5.09734E+06 6.61566E+06 3.19269E-08-2.49696E-07
 -1         3-1.48881E+03-1.55868E+06 4.05923E+02-2.21284E+03-5.73973E-10-3.58923E-08
 -1         5-7.51539E+01 3.86499E+05 9.95329E+00-1.34208E+00-7.04429E-10-2.29466E-08
 -1         8-5.56195E+05-2.01070E+05-6.29154E+04-2.44202E+05 8.00355E-11-2.70742E-07
 -1         9 1.17797E+07 3.83873E+06 2.79326E+06-3.29504E+05-2.07219E-09 2.77068E-08
 -1        10-2.30532E+03-1.62426E+06-3.94714E+03-1.49734E+04-1.45828E-08-2.17841E-08
 -1        12-7.12470E+01 3.86521E+05 3.27198E+02-9.14799E+00-7.13570E-10 2.23372E-08
 -1        15 9.29116E+02 5.10595E+02 3.00335E+03 8.26528E-01-2.99394E-10-1.84967E-07
 -1        16 2.29156E+07-3.30513E+05 3.11926E+06-2.28284E+06 1.65116E-08 2.76137E-07
 -1        17 8.38909E+06 6.28732E+06 2.26628E+06 6.01506E+06 2.59839E-08 3.39584E-08
 -1        18 1.42657E+05 3.36646E+04 4.24620E+03-1.19547E+05 1.61469E-08 6.92444E-09
 -1        19 1.22628E+05 1.42830E+05-7.55790E+02 2.18323E+04 2.13113E-09-2.60625E-09
 -1        20-8.23070E+04-5.74242E+05-1.28874E+05 2.50097E+04-1.63906E-09 1.31319E-08
 -1        21-4.55614E+01-2.96044E+05-9.23756E+02 2.75654E+02 1.37391E-08-3.54735E-08
 -1        24 1.40596E+07 1.21086E+07 3.89214E+06 1.12112E+07-1.63777E-07-5.21541E-08
 -1        25 1.25367E+05 2.68519E+05 1.00326E+05-6.46484E+05-2.69365E-09 1.31025E-08
 -1        26-5.51519E+04 9.34072E+04-2.46242E+04 1.21358E+03 1.07393E-09-5.94068E-09
 -1        27-7.56461E+04-3.10224E+05-1.13420E+05 6.90619E+04 4.16685E-09 9.44480E-09
 -1        28 2.22418E+04-8.53932E+04 1.69024E+04 2.05559E+04-4.10984E-09 4.47260E-09
 -1        32-1.68060E+06-3.18168E+06-1.97548E+05 4.59089E+05-4.30737E-08-8.19841E-09
 -1        33-1.78615E+05 9.30385E+04 3.24031E+04-3.86441E+04-3.15792E-09 7.81680E-09
 -1        34-2.23770E+05-2.50512E+04 6.91695E+02 7.57476E+04-4.69857E-09-3.58265E-09
 -1        35-2.29301E+04-3.38664E+04-1.34931E+03 5.15047E+04-6.36716E-09 2.46534E-09
 -1        51 6.07627E+04-1.71505E+05 1.28481E+05-4.37326E+05-7.27596E-11-6.30171E-08
 -1        52 2.05565E+04-1.49042E+05 6.73767E+04-5.10052E+05 2.81034E-10-2.09951E-07
 -1        53 4.17170E+03-1.64404E+05 3.50205E+04-4.35824E+05 1.45519E-10-3.24544E-07
 -1        54 7.32673E+03-1.60191E+05 2.86447E+04-5.11522E+05-6.18456E-11-1.26340E-07
 -1        55 1.59707E+04-1.67167E+05 3.46879E+04-4.35734E+05 2.76486E-10 1.78301E-07
 -1        56-9.79509E+06-1.37825E+06-9.18528E+05-4.09117E+06-1.64146E-08-2.55037E-07
 -1        57-1.10857E+07-8.09775E+05-5.47037E+05-2.70438E+06 1.38316E-08 1.77410E-07
 -1        58-9.59538E+06-1.84576E+06-2.01467E+05-4.28483E+06-3.78786E-08 1.23036E-08
 -1        59-1.12719E+07-2.71265E+05-1.07973E+05-2.63098E+06-1.77729E-08-1.05421E-07
 -1        60-9.69061E+06-1.84965E+06-5.78701E+04-4.23655E+06-7.36945E-08 3.19953E-07
 -1        61-1.06043E+07-6.14568E+05 1.73065E+04-2.88249E+06 4.77121E-08 9.14661E-08
 -1        62-1.01225E+07-1.59732E+06-7.88128E+04-3.92186E+06-1.05501E-08-2.11367E-08
 -1        63-9.68139E+06-1.34253E+06 5.67473E+04-3.59678E+06-4.27826E-09 1.17139E-07
 -1        64-1.05008E+07-1.20203E+06-7.24959E+04-3.45100E+06-4.43833E-08-1.60839E-07
 -1        65-9.30137E+06-1.96007E+06 1.41641E+04-4.52615E+06-4.29864E-08-3.16041E-07
 -1        66-1.06330E+07-8.89187E+05-4.73132E+04-3.09106E+06 2.04454E-09-2.71430E-08
 -1        67-9.31900E+06-2.22096E+06-9.71681E+04-4.96771E+06-4.93528E-08-3.89828E-08
 -1        68-1.06134E+07-8.49719E+05-1.87108E+05-3.09040E+06-6.59202E-08 1.01805E-07
 -1        69-9.49431E+06-2.29957E+06-4.86280E+05-4.49338E+06-3.16249E-08 1.10449E-08
 -1        70-1.03370E+07-9.07133E+05-8.43743E+05-3.48606E+06 1.98743E-08 3.56231E-08
 -1        86-1.52273E+06-1.56111E+07-2.79022E+06-3.10748E+06-2.75071E-07-9.30304E-08
 -1        87 2.39328E+06 6.29932E+06 2.32074E+06 5.74766E+06-4.55104E-07 5.53446E-08
 -1        88-4.50336E+05-1.95243E+06 2.19357E+05-2.56423E+06-4.04949E-07-1.31109E-07
 -1        89 3.20481E+06 6.00253E+06 2.37837E+06 5.94038E+06-5.69533E-07-2.88173E-07
 -1        90-2.24013E+06-1.53904E+07-3.01264E+06-3.32935E+06-1.51511E-07-2.98314E-09
 -1       121-2.03947E+03-1.56358E+06-5.47742E+02 1.09678E+03 1.28132E-09-2.71393E-09
 -1       122-1.30296E+03-1.55874E+06 7.69582E+02-4.42979E+03-5.64940E-09-1.03028E-08
 -1       123-2.05921E+03-1.56372E+06 2.60301E+02 3.27560E+03 4.19550E-09 4.32919E-09
 -1       124 3.33665E+02-1.55829E+06 2.94920E+03-9.26938E+03-1.03942E-08 3.46554E-08
 -1       125-2.86815E+03-1.56461E+06 3.45938E+03 5.89038E+03 6.47378E-09-4.76211E-09
 -1       191-7.91978E+01 3.86518E+05 8.45777E+00 6.99725E-01-5.98488E-10-1.12104E-08
 -1       192-7.61149E+01 3.86500E+05 2.12404E+01-4.30291E+00-7.49878E-10-1.89539E-08
 -1       193-8.17274E+01 3.86517E+05 3.61561E+01 3.77881E+00-1.06811E-09-1.90885E-08
 -1       194-7.91961E+01 3.86503E+05 8.07470E+01-9.76392E+00-4.51998E-10-4.97312E-09
 -1       195-8.65828E+01 3.86515E+05 1.54587E+02 6.35362E+00-1.46982E-09 6.09907E-09
 -1       251-8.62260E+05 1.60779E+04-3.75406E+04-1.42640E+04-3.04292E-09-2.45313E-07
 -1       252-8.76486E+05-1.86055E+04-2.61192E+04 5.02263E+04 6.56598E-10-3.21147E-07
 -1       253-8.70604E+05 2.46650E+03-1.01087E+04-1.00554E+04-2.52930E-09-1.69178E-07
 -1       254-8.63206E+05-2.98843E+03-4.53228E+03 3.57169E+04 6.54461E-09-2.64491E-07
 -1       255-8.74934E+05 5.85213E+01-3.49934E+03 2.41804E+02 4.78894E-09 7.58037E-08
 -1       256-8.57882E+05-2.73283E+02 1.15722E+03 1.23652E+04-1.79157E-08 3.48030E-07
 -1       257-8.75494E+05-5.69724E+02-1.36852E+03 1.32851E+04 3.61365E-09 7.01008E-08
 -1       258-8.60670E+05 9.01895E+02 2.68553E+03-1.21682E+04-8.90907E-09-4.01920E-08
 -1       259-8.72392E+05-9.26770E+02 1.38324E+03 2.47730E+04-4.74029E-09 2.33855E-08
 -1       260-8.66968E+05 2.92516E+03 5.57248E+03-2.98581E+04-2.94023E-09-3.40193E-07
 -1       261-8.69823E+05-2.10921E+03 8.66891E+03 3.09909E+04 1.90595E-08-8.12838E-08
 -1       262-8.65597E+05 1.17810E+04 2.15304E+04-3.50233E+04-9.93804E-09 4.82240E-07
 -1       263-8.74011E+05-9.55728E+03 3.41176E+04 2.99475E+04-4.33118E-09 2.20078E-07
 -1       264-8.35105E+05 6.71038E+04 9.44384E+04-2.58716E+04 4.56298E-08 2.04416E-07
 -1       265-8.99823E+05-5.75604E+04 1.31540E+05 2.18272E+04 8.66896E-09-4.36557E-10
 -1       266-1.68203E+04-7.86603E+03 3.94614E+04-1.76837E+01 1.30967E-10-4.01913E-08
 -1       267 1.94991E+04 9.16674E+03 2.78927E+04 2.04052E+01 1.09139E-11-3.06730E-07
 -1       268-2.61481E+03-1.29833E+03 1.03675E+04-2.59988E+00-6.54836E-11-1.20121E-07
 -1       269 3.08731E+03 1.55375E+03 6.73881E+03 3.02858E+00 1.25965E-10 8.96011E-08
 -1       270-4.63409E+02-2.55297E+02 3.25292E+03-4.10995E-01 1.54387E-10 1.75848E-07
 -1       271-1.47967E+06-1.88337E+05-1.11456E+05-5.75773E+05 3.84898E-09 9.36125E-08
 -1       272-1.47539E+06-3.01780E+05-7.00087E+04-6.14196E+05-4.87853E-09-1.07888E-07
 -1       273-1.50320E+06-2.12018E+05-2.70263E+04-5.67755E+05 5.96265E-09-3.12990E-07
 -1       274-1.44860E+06-2.73268E+05-1.40643E+04-6.29332E+05-3.28946E-08-2.43500E-07
 -1       275-1.50879E+06-2.11599E+05-6.73263E+03-5.63999E+05 7.19228E-09 4.34784E-08
 -1       276-1.44297E+06-2.74181E+05-2.84383E+03-6.37919E+05 4.00451E-08 3.22507E-08
 -1       277-1.51160E+06-2.08982E+05-1.86423E+03-5.61280E+05-1.71167E-08-8.30669E-08
 -1       278-1.44080E+06-2.77368E+05-7.12656E+02-6.44227E+05 4.55293E-08 1.86007E-07
 -1       279-1.51339E+06-2.06845E+05-8.64043E+02-5.59373E+05-2.69720E-08 9.45265E-08
 -1       280-1.43979E+06-2.79763E+05-9.89947E+02-6.48368E+05 7.14817E-09 1.56386E-07
 -1       281-1.51434E+06-2.05500E+05-1.82911E+03-5.58302E+05-8.37099E-09 9.30492E-08
 -1       282-1.44017E+06-2.81937E+05-4.25380E+03-6.50061E+05-3.05727E-08 3.03474E-07
 -1       283-1.51384E+06-2.04270E+05-7.57140E+03-5.58181E+05 2.86810E-08 5.18562E-08
 -1       284-1.44695E+06-2.91846E+05-2.06239E+04-6.47870E+05 5.26398E-08-1.76446E-07
 -1       285-1.50746E+06-1.96772E+05-3.22077E+04-5.59972E+05-4.67835E-08 1.69035E-07
 -1       301-7.36397E+03-6.47800E+05 1.66902E+05-1.13853E+06 8.26549E-09 4.12110E-08
 -1       302-9.18652E+03-6.00958E+05 1.00443E+05-1.66177E+06-9.40054E-09-1.07757E-08
 -1       303-2.19569E+04-6.40366E+05 5.67326E+04-1.13540E+06-4.94038E-09-1.77373E-07
 -1       304-2.50274E+04-6.08073E+05 5.70606E+04-1.66119E+06-1.48575E-08-3.86412E-07
 -1       305-2.63057E+04-6.29103E+05 7.01118E+04-1.13849E+06-5.14956E-09-2.22368E-07
 -1       306-3.01462E+07-6.22144E+06-8.61497E+06-4.96849E+05-1.07917E-07 1.92958E-08
 -1       307 2.53237E+07 3.28720E+06 5.51322E+06-1.52682E+07-8.04037E-07 2.41591E-07
 -1       308-6.93053E+06-1.01859E+06-4.41018E+05 5.21350E+06-2.18337E-07 3.69604E-07
 -1       309-3.20789E+06 8.75543E+06 2.29447E+06-2.07078E+07 4.81697E-07 5.46424E-09
 -1       310-1.26335E+07-1.95503E+06-2.05719E+06 5.22325E+06-2.21597E-07-4.01982E-07
 -1       311 3.86371E+07 4.16060E+03 7.31003E+06-8.75249E+06 6.40430E-07-1.29105E-07
 -1       312-3.19906E+07-6.80942E+06-8.56497E+06-5.09047E+06 2.89059E-07 1.98444E-07
 -1       313 4.54530E+07 1.51495E+07 1.06931E+07 2.39201E+07-2.11672E-07 1.79949E-07
 -1       314-1.71856E+07-1.78591E+07-7.53432E+06-1.25464E+07 4.55067E-07-1.29105E-07
 -1       315-1.90500E+06 2.98220E+07 5.67173E+06 1.04868E+07-7.63190E-07 3.69328E-08
 -1       316 1.42886E+06-9.83639E+06-4.31453E+05-2.49966E+06-1.20727E-06-2.60625E-07
 -1       317-1.71028E+07 2.24528E+07 2.24823E+06-8.88340E+06 9.59917E-07-6.89492E-07
 -1       318-1.08204E+06-1.28422E+07-2.06081E+06-4.24132E+06-9.14442E-07 1.28464E-07
 -1       319 7.28380E+06 3.20864E+07 7.06861E+06 1.66859E+07-9.48785E-08 2.00787E-07
 -1       320-2.26457E+07-1.76902E+07-9.88338E+06-1.28432E+07 1.82190E-07-5.98666E-08
 -1       336-7.47329E+02-1.69263E+06-1.38482E+04 8.91309E+03-2.69647E-08 4.91855E-09
 -1       337-5.40991E+03-1.69217E+06-1.80690E+04-2.16519E+04-4.93856E-08-1.29003E-08
 -1       338 2.73668E+02-1.69212E+06-2.84636E+04 1.24876E+04-3.45772E-08 7.47968E-09
 -1       339-3.02046E+04-1.70941E+06-6.43291E+04-2.86542E+04-6.29061E-08 1.74987E-08
 -1       340 1.98940E+04-1.67758E+06-1.01337E+05 1.57844E+04-4.13238E-08 2.46873E-08
 -1       406-4.96085E+01 3.86500E+05 6.42445E+02 3.34598E+00-2.00637E-09 1.43282E-08
 -1       407 1.54374E+02 3.86634E+05 1.37295E+03 2.33839E+01-4.99981E-10 8.81846E-09
 -1       408 6.33152E+02 3.86400E+05 2.73756E+03-2.70485E+01-2.37947E-09 1.69093E-08
 -1       409 2.89915E+03 3.87508E+05 6.17021E+03 2.88810E+02-7.43967E-10 4.20805E-08
 -1       410 8.45719E+03 3.85612E+05 1.25931E+04-2.78461E+02-2.76668E-09 2.15969E-08
 -1       521-3.17229E+07-7.69148E+06-1.00798E+07-1.00940E+05-6.07688E-08 5.40749E-08
 -1       522 2.62228E+07 4.33497E+06 5.62995E+06-1.88037E+07-5.40836E-07-6.08066E-07
 -1       523-7.50228E+06-1.33449E+06-4.32418E+05 5.66748E+06 7.92206E-08-3.13681E-07
 -1       524-6.71540E+06 1.18491E+07 2.48609E+06-2.37940E+07 8.58839E-07-1.33066E-07
 -1       525-1.34330E+07-2.60020E+06-2.26491E+06 5.68282E+06 5.10772E-07-1.95578E-08
 -1       526 4.22490E+07-9.33682E+04 7.68080E+06-1.14093E+07-6.17583E-08 1.21188E-07
 -1       527-3.38741E+07-8.52234E+06-9.88633E+06-4.95575E+06 6.54254E-08 1.44209E-08
 -1       528 4.96891E+07 1.69213E+07 1.11674E+07 2.72434E+07-6.23986E-08 1.48430E-07
 -1       529-1.81342E+07-2.01010E+07-8.65016E+06-1.25821E+07 1.58092E-07-1.59023E-07
 -1       530-4.39427E+06 3.46765E+07 6.01097E+06 9.92593E+06-1.80007E-07 5.48549E-07
 -1       531 1.43583E+06-1.09141E+07-4.03343E+05-2.43622E+06-8.68196E-07 3.42377E-07
 -1       532-1.96047E+07 2.44725E+07 2.46107E+06-1.32258E+07 4.44430E-07-9.20998E-07
 -1       533-1.12272E+06-1.40086E+07-2.19868E+06-4.03769E+06-2.31172E-07-1.04698E-06
 -1       534 5.28702E+06 3.72954E+07 7.36670E+06 1.72849E+07-9.10659E-08 7.73056E-07
 -1       535-2.38474E+07-2.01183E+07-1.13475E+07-1.29221E+07 1.02911E-07 4.49712E-07
 -1       536-7.06393E+05-4.67763E+04-4.82478E+04-5.47235E+04-2.44199E-10 4.99167E-08
 -1       537-5.46371E+04 4.47132E+04 8.39739E+04 1.23927E+05-1.13029E-07 1.08024E-07
 -1       538-3.94432E+05 3.34937E+03 3.54711E+03-7.22428E+04 2.25505E-08 1.12753E-07
 -1       539-2.68959E+05 2.85550E+03 2.49366E+04 1.38822E+05 1.61115E-07 1.27775E-07
 -1       540-4.97455E+05-4.28597E+02-2.13450E+04-7.01540E+04 1.95355E-08 1.01048E-07
 -1       541 1.47141E+05 1.69875E+04 1.06484E+05 9.79995E+04-2.48747E-10 7.24939E-08
 -1       542-7.99319E+05-2.01537E+04-8.43158E+04-3.05440E+04 4.08427E-08 3.09124E-08
 -1       543 4.06082E+05 2.73513E+04 1.58121E+05-1.33666E+04 3.32152E-08-2.52217E-08
 -1       544-7.49451E+05-1.65534E+04-7.49081E+04 4.05416E+04-3.84898E-09-3.82186E-08
 -1       545 2.93618E+04 9.49427E+03 7.98904E+04-1.13696E+05-4.95572E-09-7.22077E-08
 -1       546-4.32717E+05 6.10026E+03-1.22402E+04 6.94388E+04 1.49769E-08-9.27680E-08
 -1       547-2.87046E+05-4.65601E+03 1.06048E+04-1.41669E+05-1.33405E-07-1.18922E-07
 -1       548-4.41550E+05 4.72111E+03-2.38921E+04 6.92063E+04-1.08544E-07-9.68298E-08
 -1       549 4.85444E+04 1.61117E+04 6.06045E+04-1.11560E+05-6.46741E-08-4.47965E-08
 -1       550-7.59328E+05-2.21822E+04-1.29043E+05 3.86130E+04 9.20136E-09-1.85919E-08
 -1       551 4.08058E+04-7.50803E+05-1.58877E+04-1.24728E+06-1.02620E-07-2.44472E-09
 -1       552 9.32921E+04-7.95797E+05 9.92482E+03-1.77846E+06-7.22503E-08 3.62197E-08
 -1       553 7.17849E+04-7.92200E+05 3.20450E+04-1.24063E+06-1.20155E-07 3.95376E-08
 -1       554 1.32093E+05-8.11696E+05 8.10694E+04-1.78040E+06-7.44767E-08 3.23926E-08
 -1       555 1.01532E+05-8.15854E+05 1.48055E+05-1.24046E+06-1.22265E-07-9.76979E-09
 -1       556 2.23790E+05-3.83788E+05 2.57257E+04-4.07322E+05-2.07801E-08-1.92958E-08
 -1       557 3.54390E+05-4.88164E+05 1.61369E+04-5.27784E+05 6.11180E-09-1.01900E-08
 -1       558 2.05550E+05-3.76573E+05 2.31548E+03-4.11772E+05-1.73459E-08-2.47383E-09
 -1       559 3.29363E+05-4.88226E+05 2.43707E+03-5.48248E+05 2.50729E-08 4.87489E-10
 -1       560 1.90233E+05-3.66968E+05-1.50873E+03-4.22809E+05 1.58616E-08 3.09228E-09
 -1       561 3.10118E+05-4.80524E+05 1.28702E+02-5.61370E+05 1.48430E-09 1.22891E-08
 -1       562 1.78123E+05-3.59445E+05-1.32861E+03-4.31579E+05 3.01225E-09 1.10595E-09
 -1       563 2.95734E+05-4.74252E+05-3.74099E+01-5.70765E+05-5.73345E-09-1.24819E-08
 -1       564 1.69479E+05-3.54059E+05-6.01717E+02-4.37704E+05 2.91038E-09-1.03137E-08
 -1       565 2.86192E+05-4.70097E+05 2.37136E+01-5.76862E+05 3.05590E-09-4.48881E-09
 -1       566 1.64426E+05-3.50862E+05-2.60574E+02-4.41239E+05-9.29867E-09-1.07066E-08
 -1       567 2.81553E+05-4.68079E+05-3.63043E+02-5.79679E+05 2.22935E-08-4.91491E-09
 -1       568 1.63053E+05-3.50022E+05-1.12695E+03-4.42294E+05 1.23964E-09-1.00699E-08
 -1       569 2.80428E+05-4.68006E+05-2.84629E+03-5.78251E+05-4.22006E-10-8.70205E-09
 -1       570 1.66455E+05-3.53258E+05-6.22219E+03-4.41274E+05 5.10045E-09-1.71358E-08
 -1       571 2.90016E+05 1.04704E+04 1.49312E+04-9.55573E+04 1.65892E-09 2.31921E-10
 -1       572 2.92179E+05 3.94978E+03 7.31752E+03-1.04837E+05 1.84946E-09 7.89441E-10
 -1       573 2.90875E+05 1.24550E+03 3.25140E+03-9.53803E+04-9.25502E-09 3.17323E-09
 -1       574 2.91087E+05 7.29595E+02 1.63055E+03-1.05062E+05-1.96396E-08-3.91992E-10
 -1       575 2.90968E+05 4.50985E+02 7.69526E+02-9.53561E+04-1.51247E-08 1.53032E-08
 -1       576 2.90952E+05 4.62707E+02 3.93905E+02-1.05092E+05-1.02889E-08 1.70567E-08
 -1       577 2.91008E+05 3.92874E+02 1.96430E+02-9.53527E+04-7.34963E-09-7.59428E-10
 -1       578 2.90983E+05 4.24385E+02 1.13084E+02-1.05096E+05-4.74756E-09-4.80577E-09
 -1       579 2.91081E+05 3.55773E+02 7.69189E+01-9.53524E+04-6.05723E-09-8.69477E-10
 -1       580 2.91086E+05 3.72730E+02 8.82942E+01-1.05091E+05-2.49474E-08-6.43104E-09
 -1       581 2.91196E+05 2.96240E+02 1.32219E+02-9.53584E+04 2.81943E-10-2.52840E-10
 -1       582 2.91262E+05 3.32812E+02 2.68502E+02-1.05029E+05 5.00586E-09-9.80981E-09
 -1       583 2.91339E+05 3.32469E+02 5.14434E+02-9.54152E+04-1.09139E-11-9.89598E-09
 -1       584 2.91632E+05 7.52433E+02 1.16451E+03-1.04551E+05 8.70932E-09-1.92131E-08
 -1       585 2.91372E+05 1.72917E+03 2.35713E+03-9.58363E+04-9.34961E-10-8.17454E-09
 -1       586-3.42483E+03 1.16993E+05-2.91174E+03-2.50812E+05-5.99584E-09 1.72361E-08
 -1       587-1.34095E+03 1.16745E+05 7.76019E+02-2.76037E+05-6.08998E-09 3.31756E-08
 -1       588 3.97186E+02 1.16551E+05 4.76587E+03-2.50673E+05-4.16003E-09 2.92775E-08
 -1       589 5.08794E+03 1.19027E+05 1.23572E+04-2.75804E+05-7.87259E-09 1.90703E-08
 -1       590 1.66237E+04 1.15216E+05 2.59204E+04-2.51105E+05-4.19459E-09 2.23390E-08
 -1       591-7.38433E+04-1.57419E+04-2.24085E+04-3.14546E+04 2.62889E-09 3.70437E-09
 -1       592-7.79298E+04-1.92615E+04-1.21382E+04-3.50385E+04 4.00902E-10 1.11581E-08
 -1       593-7.60841E+04-1.41162E+04-5.05255E+03-3.30980E+04 3.52134E-09 1.18519E-08
 -1       594-7.48361E+04-1.59730E+04-2.51986E+03-3.51552E+04 3.07156E-09-4.64976E-09
 -1       595-7.62549E+04-1.41109E+04-1.15693E+03-3.31726E+04 7.59300E-10 1.23987E-08
 -1       596-7.46243E+04-1.58226E+04-5.88035E+02-3.51300E+04 1.23713E-08 1.74507E-08
 -1       597-7.62763E+04-1.41262E+04-3.19987E+02-3.31755E+04 5.59567E-09-1.24263E-08
 -1       598-7.46034E+04-1.58166E+04-2.56834E+02-3.51230E+04 5.31077E-09-3.74903E-08
 -1       599-7.62751E+04-1.41267E+04-3.27576E+02-3.31752E+04 1.04492E-08-1.34164E-08
 -1       600-7.46245E+04-1.58231E+04-6.08126E+02-3.51280E+04 1.65210E-09 3.93970E-09
 -1       601-7.62504E+04-1.41121E+04-1.19949E+03-3.31717E+04-4.41264E-09-5.24778E-10
 -1       602-7.48441E+04-1.59780E+04-2.61407E+03-3.51503E+04-6.01585E-09-1.23223E-08
 -1       603-7.60705E+04-1.41205E+04-5.24222E+03-3.30950E+04 1.59321E-09-1.04765E-08
 -1       604-7.80714E+04-1.93704E+04-1.25931E+04-3.50046E+04-2.81943E-09 1.07564E-08
 -1       605-7.37259E+04-1.58248E+04-2.32484E+04-3.14093E+04-3.81021E-10 3.79441E-09
 -1       606 2.65959E+04-1.43616E+04-2.57464E+04 2.38897E+04 7.79528E-09 3.11297E-09
 -1       607 2.21967E+04-4.69015E+03-1.28216E+04 2.68472E+04 8.03993E-10 2.66755E-09
 -1       608 2.47042E+04-8.45744E+02-5.73978E+03 2.37218E+04-3.01770E-09 6.41421E-10
 -1       609 2.42236E+04-2.89533E+02-2.89959E+03 2.70603E+04 5.31509E-09-8.12486E-09
 -1       610 2.44904E+04-4.07826E+01-1.38341E+03 2.37019E+04 5.74073E-09 4.63024E-09
 -1       611 2.44150E+04-4.11297E+01-6.97506E+02 2.70834E+04 6.18456E-09 1.51340E-08
 -1       612 2.44434E+04-2.71788E+01-3.31559E+02 2.36998E+04-1.13541E-08 3.20915E-09
 -1       613 2.44268E+04-3.71559E+01-1.48538E+02 2.70861E+04-2.17769E-08 5.62363E-09
 -1       614 2.44213E+04-3.37238E+01-3.47169E+01 2.36992E+04-9.41509E-09-2.16983E-09
 -1       615 2.44217E+04-3.57618E+01 6.25220E+01 2.70865E+04 5.03496E-09 8.73115E-09
 -1       616 2.44040E+04-3.06745E+01 1.87240E+02 2.36994E+04-3.81351E-09 6.97514E-09
 -1       617 2.44444E+04 4.05941E+00 4.27095E+02 2.70860E+04-1.24637E-08-8.56608E-09
 -1       618 2.43670E+04 9.23873E+01 8.60845E+02 2.36997E+04 9.54969E-12 7.80119E-10
 -1       619 2.47483E+04 6.69616E+02 1.93307E+03 2.70854E+04 1.14145E-08 2.17801E-09
 -1       620 2.40812E+04 2.13364E+03 3.88541E+03 2.37013E+04 6.90761E-09 1.27125E-08
 -1       621 5.30294E+02 3.07331E+05 4.43434E+03 4.02407E+04 8.14225E-09-1.25874E-09
 -1       622 7.67374E+02 3.08382E+05 3.80471E+03 5.92795E+04 5.53109E-09 9.17271E-09
 -1       623 1.36528E+02 3.07587E+05 4.38400E+03 4.00587E+04 9.59233E-09 9.21136E-09
 -1       624 2.22887E+03 3.09603E+05 8.36159E+03 5.94563E+04 5.98754E-09-5.41968E-09
 -1       625 1.93563E+03 3.05931E+05 1.44750E+04 4.00579E+04 1.06547E-08-3.18482E-09
 -1       626 2.61295E+05 6.14265E+04 5.11787E+03 1.26840E+05 5.34328E-10 1.92940E-08
 -1       627 2.58981E+05 6.28198E+04 2.46626E+03 1.31107E+05-1.93027E-08-5.75426E-09
 -1       628 2.61422E+05 5.90853E+04 1.04306E+03 1.27710E+05-1.25301E-08 4.81577E-10
 -1       629 2.58347E+05 6.21395E+04 5.10525E+02 1.31347E+05-9.60381E-09-1.36246E-08
 -1       630 2.61437E+05 5.89721E+04 2.36939E+02 1.27747E+05 5.12318E-09 1.93972E-09
 -1       631 2.58280E+05 6.21135E+04 1.27661E+02 1.31348E+05 2.21000E-08 2.85805E-08
 -1       632 2.61433E+05 5.89760E+04 8.42784E+01 1.27743E+05 1.73904E-08-7.98650E-09
 -1       633 2.58272E+05 6.21152E+04 9.43082E+01 1.31345E+05 9.06766E-09-5.11773E-09
 -1       634 2.61429E+05 5.89731E+04 1.52778E+02 1.27743E+05-1.66278E-09 2.99979E-08
 -1       635 2.58286E+05 6.21135E+04 3.09375E+02 1.31351E+05-4.54912E-09 2.48756E-08
 -1       636 2.61420E+05 5.89672E+04 6.24902E+02 1.27742E+05-5.12046E-10 1.02791E-08
 -1       637 2.58422E+05 6.22106E+04 1.37409E+03 1.31350E+05 1.13323E-09-7.51834E-09
 -1       638 2.61371E+05 5.92707E+04 2.82325E+03 1.27605E+05 5.53882E-09-3.14867E-09
 -1       639 2.59905E+05 6.42732E+04 6.67997E+03 1.30913E+05 9.62518E-09 1.94975E-08
 -1       640 2.61166E+05 6.54301E+04 1.38621E+04 1.25010E+05 5.41149E-09-4.74597E-09
 -1       656 6.66364E+04-1.70558E+06-1.60856E+05-2.56181E+03-3.85626E-10-1.09186E-08
 -1       657-8.81559E+04-1.77827E+06-1.33263E+05 5.14135E+03-3.31966E-10-2.16281E-08
 -1       658 2.12430E+04-1.72622E+06-8.20779E+04-4.64742E+03 5.19776E-10-4.44800E-09
 -1       659-9.53388E+04-1.78168E+06-1.42703E+05 6.87735E+03-1.99361E-09 9.30492E-09
 -1       660 7.38033E+04-1.70218E+06-1.77086E+05-4.29779E+03-2.27737E-09 1.82254E-08
 -1       661 1.57919E+05 1.65175E+04 1.66707E+04 6.17380E+04-3.04681E-10 2.93021E-08
 -1       662 1.67356E+05 2.88521E+04 1.12349E+04 5.79851E+04-1.96906E-10 5.04451E-09
 -1       663 1.61194E+05 2.18657E+04 3.92924E+03 6.07876E+04-6.92921E-10-6.88033E-09
 -1       664 1.63559E+05 2.25978E+04 2.35053E+03 5.91460E+04-3.94095E-09-1.29973E-08
 -1       665 1.61691E+05 2.25961E+04 9.27269E+02 6.06426E+04-4.44885E-09 8.57747E-09
 -1       666 1.62971E+05 2.17626E+04 5.42813E+02 5.93352E+04 1.14944E-08 7.68841E-09
 -1       667 1.61778E+05 2.26792E+04 2.88548E+02 6.06062E+04 3.74229E-10 1.14363E-08
 -1       668 1.62875E+05 2.17030E+04 2.94540E+02 5.93880E+04-2.11998E-09-5.38020E-09
 -1       669 1.61786E+05 2.26541E+04 3.99203E+02 6.05900E+04-3.57608E-09 9.28202E-09
 -1       670 1.62972E+05 2.19198E+04 8.69675E+02 5.93909E+04-6.96441E-09-1.10050E-08
 -1       671 1.61681E+05 2.24669E+04 1.54431E+03 6.06014E+04-1.06652E-10 7.69114E-09
 -1       672 1.63872E+05 2.34221E+04 3.95119E+03 5.91727E+04 7.52209E-09 2.12639E-08
 -1       673 1.60890E+05 2.11898E+04 6.62161E+03 6.07936E+04 4.26758E-09-6.85759E-10
 -1       674 1.70174E+05 3.40604E+04 1.89364E+04 5.73211E+04 7.85803E-10-1.91797E-08
 -1       675 1.55419E+05 1.21266E+04 2.81083E+04 6.23412E+04-3.23780E-09 1.92867E-08
 -1       676 2.41105E+01-2.95967E+05-1.11337E+03-1.37831E+02-1.86446E-11-1.73876E-09
 -1       677-2.94505E+02-2.96236E+05-2.03766E+03 2.75440E+02 6.70479E-09-5.19006E-09
 -1       678 1.97535E+02-2.95775E+05-3.60207E+03-1.37519E+02 8.13770E-10-4.90132E-10
 -1       679-3.60213E+03-2.98411E+05-8.55704E+03 2.74250E+02 9.42055E-09-2.76385E-08
 -1       680 2.15068E+03-2.93794E+05-1.37910E+04-1.35122E+02 9.15861E-10-1.42802E-08
 -1       771-3.06294E+06-7.47553E+05-1.66004E+05-1.46633E+06-3.10247E-08-2.52912E-08
 -1       772-2.98577E+06-8.36444E+05-8.55858E+04-1.56911E+06-2.29338E-08 4.76939E-09
 -1       773-3.09445E+06-7.22979E+05-4.36322E+04-1.48089E+06-9.66247E-09 1.07684E-08
 -1       774-2.97625E+06-8.17906E+05-1.94660E+04-1.59490E+06 3.02680E-08-2.98314E-10
 -1       775-3.11092E+06-7.11427E+05-1.45628E+04-1.48795E+06-8.78936E-09 4.56203E-09
 -1       776-2.98861E+06-8.14865E+05-5.44560E+03-1.61441E+06-1.39698E-08 3.53612E-09
 -1       777-3.12521E+06-7.01116E+05-6.43519E+03-1.49418E+06-1.74623E-09 3.93629E-09
 -1       778-3.00152E+06-8.12037E+05-1.81933E+03-1.63118E+06 4.65661E-10 1.53268E-08
 -1       779-3.13749E+06-6.92105E+05-3.21613E+03-1.49950E+06-1.86265E-08-3.82352E-09
 -1       780-3.01289E+06-8.09339E+05-5.33360E+02-1.64485E+06-5.33328E-09 3.93629E-09
 -1       781-3.14726E+06-6.84841E+05-1.24958E+03-1.50367E+06-2.47965E-08 7.58155E-09
 -1       782-3.02165E+06-8.07048E+05 4.50222E+02-1.65493E+06-3.67290E-08-4.25734E-09
 -1       783-3.15414E+06-6.79793E+05 7.00743E+02-1.50658E+06-9.08040E-09-1.52327E-08
 -1       784-3.02651E+06-8.04760E+05 2.90536E+03-1.66115E+06-2.04163E-08-1.33105E-09
 -1       785-3.15820E+06-6.76782E+05 5.12887E+03-1.50843E+06-3.82897E-08 6.96673E-09
 -1       786 1.24319E+05-9.79651E+03 2.26652E+04-3.24751E+02 3.11153E-09-3.27873E-09
 -1       787 1.34149E+05 1.13422E+04 1.60347E+04-1.35467E+02 6.77415E-09-1.37882E-08
 -1       788 1.28109E+05-1.53513E+03 5.86396E+03-2.89234E+02 3.79055E-09 1.09053E-08
 -1       789 1.29734E+05 1.77688E+03 3.68117E+03-1.89862E+02-1.92976E-09 9.93964E-09
 -1       790 1.28735E+05-2.39011E+02 1.49042E+03-2.70373E+02-5.10436E-09 1.39827E-08
 -1       791 1.29002E+05 2.76534E+02 8.60771E+02-2.22072E+02-6.50445E-09 1.87169E-08
 -1       792 1.28841E+05-3.59077E+01 3.64646E+02-2.57026E+02-3.83269E-09 1.09835E-08
 -1       793 1.28875E+05 3.78853E+01 1.81531E+02-2.47105E+02-1.63864E-10 7.58419E-09
 -1       794 1.28862E+05-5.13117E-01 4.66709E+01-2.45341E+02 3.86961E-09-2.70897E-08
 -1       795 1.28838E+05-2.79955E+01-5.93787E+01-2.71413E+02-3.91217E-09-1.27211E-09
 -1       796 1.28878E+05 2.99364E+01-1.65684E+02-2.32718E+02 3.03157E-09 2.78310E-09
 -1       797 1.28741E+05-2.23456E+02-4.54122E+02-3.00349E+02 5.47312E-09 4.91795E-10
 -1       798 1.28958E+05 1.94801E+02-7.37284E+02-2.16404E+02 2.50245E-09 1.42205E-08
 -1       799 1.28182E+05-1.43587E+03-2.02821E+03-3.40739E+02 6.34124E-09 6.66631E-10
 -1       800 1.29438E+05 1.24136E+03-2.87026E+03-1.92329E+02 6.74531E-10 2.07642E-08
 -1       801-1.71377E+05-9.99999E+06-1.39384E+06 1.41593E+06 9.30158E-08-4.15057E-08
 -1       802 7.38618E+05 5.95348E+06 2.18251E+06-1.74799E+06 2.62153E-07-3.07518E-08
 -1       803-5.36824E+05-1.42702E+07-1.89111E+06 8.98555E+05 7.80892E-08 2.19588E-08
 -1       804 2.87345E+05 2.39703E+06 1.53782E+06 6.77311E+05-1.20817E-07-1.03062E-07
 -1       805 1.89360E+05-6.45765E+06-2.86390E+05-1.00370E+06-5.02623E-08-6.02467E-08
 -1       806-3.09046E+05-5.97656E+04-2.28603E+04-1.22440E+05-9.69067E-09-4.37876E-09
 -1       807-3.10847E+05-5.60319E+04-1.12310E+04-1.27985E+05 4.17140E-09 1.16356E-08
 -1       808-3.09674E+05-5.15270E+04-4.76457E+03-1.26335E+05-9.29913E-09-1.62954E-08
 -1       809-3.08486E+05-5.28760E+04-2.32975E+03-1.28260E+05-7.60156E-09-1.42400E-08
 -1       810-3.09768E+05-5.12402E+04-1.06786E+03-1.26507E+05 1.12582E-08-9.47921E-10
 -1       811-3.08303E+05-5.27492E+04-5.31062E+02-1.28225E+05-6.53017E-10 7.37009E-09
 -1       812-3.09783E+05-5.12649E+04-2.68662E+02-1.26507E+05-3.62706E-09-1.02805E-08
 -1       813-3.08278E+05-5.27513E+04-1.74716E+02-1.28206E+05-3.25872E-09 7.09110E-09
 -1       814-3.09776E+05-5.12747E+04-1.73336E+02-1.26503E+05-3.37786E-09-1.10231E-08
 -1       815-3.08282E+05-5.27536E+04-2.79429E+02-1.28199E+05-1.11731E-09 7.19615E-09
 -1       816-3.09755E+05-5.12738E+04-5.29716E+02-1.26499E+05 6.07270E-09 7.30915E-09
 -1       817-3.08372E+05-5.28041E+04-1.13686E+03-1.28187E+05-8.52560E-09 2.04006E-08
 -1       818-3.09686E+05-5.14343E+04-2.31882E+03-1.26423E+05-7.23048E-10-1.45792E-09
 -1       819-3.09641E+05-5.42048E+04-5.45599E+03-1.27886E+05 3.29419E-09-6.93717E-09
 -1       820-3.09248E+05-5.55560E+04-1.11049E+04-1.24663E+05 3.81988E-09-1.35105E-09
 -1       821-3.80436E+05 2.09627E+04-4.88457E+04 2.21890E+03 1.43900E-08-1.28275E-08
 -1       822-4.00033E+05-2.42869E+04-3.42898E+04-4.75364E+03 6.14911E-09 6.83576E-09
 -1       823-3.87844E+05 3.30722E+03-1.26122E+04 3.64826E+03-1.34065E-08-3.08773E-09
 -1       824-3.91057E+05-3.81272E+03-7.88856E+03-5.78108E+03 2.51034E-09-6.42046E-09
 -1       825-3.89421E+05 5.14459E+02-3.30987E+03 3.24648E+03 2.06136E-08-1.71872E-09
 -1       826-3.88502E+05-5.65705E+02-1.72524E+03-3.38150E+03 2.88783E-08 1.54557E-08
 -1       827-3.90371E+05 4.11725E+01-1.21882E+03 1.24851E+03 1.29839E-08-9.61464E-09
 -1       828-3.87711E+05-1.24549E+02-5.44066E+02 1.10435E+03-2.70414E-09-1.26749E-08
 -1       829-3.90197E+05 6.14295E+01-1.20386E+03-1.23940E+03 3.13298E-09-7.49779E-09
 -1       830-3.88877E+05-6.21852E+02-1.86542E+03 5.18115E+03 3.31408E-09-1.70197E-08
 -1       831-3.89231E+05 5.58498E+02-3.38274E+03-2.82830E+03-6.08706E-09-1.06675E-08
 -1       832-3.91132E+05-3.97356E+03-8.17575E+03 6.57807E+03-3.57288E-09-5.02951E-09
 -1       833-3.87960E+05 3.42460E+03-1.30938E+04-2.63637E+03-1.81606E-09 1.50339E-09
 -1       834-4.00042E+05-2.51520E+04-3.54390E+04 4.48144E+03-1.78601E-09 1.06538E-08
 -1       835-3.80301E+05 2.17017E+04-5.06224E+04-7.31583E+02 5.55721E-09 1.42172E-08
 -1       836-1.40824E+03 3.70423E+05 2.28015E+04-1.63749E+04-7.10406E-09 1.84946E-09
 -1       837 4.85953E+03 3.77566E+05 1.93217E+04-3.34575E+04-7.76549E-09 2.28920E-09
 -1       838-5.58339E+02 3.72420E+05 1.97244E+04-1.63026E+04-6.46696E-09 1.10622E-08
 -1       839 1.24275E+04 3.83202E+05 3.73502E+04-3.35104E+04-6.87623E-09-2.92084E-09
 -1       840-3.84375E+03 3.64727E+05 5.95764E+04-1.63279E+04-6.19912E-09 2.99687E-09
 -1       856-5.15466E+04 8.01111E+03-2.11110E+04-3.97712E+02 3.26952E-09 2.03072E-08
 -1       857-6.02438E+04-9.41286E+03-1.45326E+04 5.63114E+03 6.92660E-09 4.50609E-09
 -1       858-5.49910E+04 1.12348E+03-5.47778E+03-4.21628E+02 5.23130E-09-1.51117E-08
 -1       859-5.62911E+04-1.32180E+03-3.30555E+03 5.66669E+03-3.49668E-09 1.81635E-08
 -1       860-5.55055E+04 1.57344E+02-1.38528E+03-4.32989E+02 8.20279E-10-2.11703E-08
 -1       861-5.56992E+04-1.87886E+02-7.61915E+02 5.68215E+03 4.53777E-09-9.19350E-09
 -1       862-5.55860E+04 2.13082E+01-3.16404E+02-4.37075E+02-2.21058E-09-2.23687E-09
 -1       863-5.56005E+04-2.17791E+01-1.14544E+02 5.68453E+03-5.54958E-09-4.24431E-09
 -1       864-5.56048E+04-4.98348E+00 4.87272E+01-4.35364E+02-2.48636E-09-2.67868E-09
 -1       865-5.55444E+04 6.02777E+01 2.58386E+02 5.67475E+03-5.41523E-09 7.30665E-10
 -1       866-5.56399E+04-6.07532E+01 5.19905E+02-4.27292E+02 1.28921E-10-1.21338E-08
 -1       867-5.53001E+04 5.01722E+02 1.27916E+03 5.65284E+03-7.53516E-10-1.33950E-08
 -1       868-5.58441E+04-4.38423E+02 2.12547E+03-4.13456E+02-3.61729E-09-1.34615E-08
 -1       869-5.37421E+04 3.64898E+03 5.65917E+03 5.61679E+03-1.10097E-09-1.62623E-08
 -1       870-5.71902E+04-3.12247E+03 8.21279E+03-3.91136E+02-3.63173E-09-1.36738E-08
 -1       871-5.52516E+03-2.13697E+04-1.95188E+04 1.30640E+05-4.78394E-09-1.20581E-08
 -1       872-1.98338E+03-2.59090E+04-8.17412E+03 1.69394E+05-1.18316E-08-8.14907E-09
 -1       873 4.07021E+02-2.37133E+04 5.87816E+02 1.30352E+05-6.03313E-09-1.72512E-08
 -1       874 3.31097E+03-2.13010E+04 9.78685E+03 1.69424E+05-1.06829E-08 1.18837E-08
 -1       875 6.85392E+03-2.60450E+04 2.20806E+04 1.30592E+05-5.54064E-09 7.64339E-09
 -1       876 2.94022E+05 4.95390E+04 1.51031E+04 1.17973E+05 2.77169E-09 8.80391E-10
 -1       877 2.95024E+05 5.27167E+04 8.06567E+03 1.22302E+05 1.07700E-08 1.40151E-08
 -1       878 2.95435E+05 4.78659E+04 3.37912E+03 1.19210E+05-1.36283E-08 5.29212E-09
 -1       879 2.92971E+05 5.06677E+04 1.68369E+03 1.22404E+05-1.27739E-08 9.02310E-09
 -1       880 2.95536E+05 4.78487E+04 7.84255E+02 1.19261E+05-1.81749E-08 6.97230E-09
 -1       881 2.92834E+05 5.05801E+04 4.18846E+02 1.22380E+05-1.93303E-08-1.35992E-09
 -1       882 2.95545E+05 4.78619E+04 2.68026E+02 1.19262E+05-1.27693E-08-1.20291E-08
 -1       883 2.92825E+05 5.05755E+04 2.88257E+02 1.22373E+05-2.07150E-08-1.83894E-08
 -1       884 2.95538E+05 4.78591E+04 4.58656E+02 1.19263E+05-7.03824E-09-1.10078E-08
 -1       885 2.92861E+05 5.05819E+04 9.22220E+02 1.22384E+05-5.53712E-10-2.98247E-08
 -1       886 2.95502E+05 4.78322E+04 1.85873E+03 1.19259E+05-2.91779E-09 4.20914E-09
 -1       887 2.93188E+05 5.07961E+04 4.06014E+03 1.22431E+05 1.24023E-08 3.44187E-09
 -1       888 2.95246E+05 4.78774E+04 8.18131E+03 1.19129E+05 1.80580E-09 4.52064E-09
 -1       889 2.98058E+05 5.58613E+04 1.95436E+04 1.22282E+05-1.54903E-08 9.20772E-09
 -1       890 2.91906E+05 5.18440E+04 3.66047E+04 1.16015E+05-1.34778E-08 7.66340E-09
 -1       891-8.93947E+01-1.62871E+05-1.99894E+03 2.71303E+04-2.11094E-09-3.19096E-09
 -1       892-1.75424E+02-1.63399E+05-2.14634E+03 4.11995E+04 3.21643E-09 2.91061E-09
 -1       893 4.38983E+01-1.62935E+05-3.03838E+03 2.71377E+04-2.03818E-09-5.56292E-09
 -1       894-1.51092E+03-1.64547E+05-6.28790E+03 4.10470E+04 2.01999E-09 7.56518E-09
 -1       895-1.19992E+03-1.61626E+05-1.10727E+04 2.72846E+04-1.00613E-09-6.68388E-09
 -1       956-3.77597E+05-5.45691E+03-1.34709E+04 3.08859E+04 9.26229E-09-3.48973E-09
 -1       957-3.80240E+05-1.92495E+03-6.91441E+03 3.71171E+04 2.71575E-09 2.82523E-08
 -1       958-3.78808E+05-2.41136E+02-3.11585E+03 3.07183E+04-4.91582E-09-1.27784E-09
 -1       959-3.79005E+05-1.36338E+02-1.59100E+03 3.73126E+04 1.62663E-09-6.93922E-09
 -1       960-3.78926E+05-4.47852E+01-7.75842E+02 3.07010E+04 5.89534E-09-2.94085E-09
 -1       961-3.78924E+05-6.32352E+01-4.11342E+02 3.73330E+04 9.20227E-09 1.66765E-08
 -1       962-3.78954E+05-4.60419E+01-2.35499E+02 3.06981E+04 1.47202E-09 1.94741E-08
 -1       963-3.78924E+05-5.90703E+01-1.89046E+02 3.73367E+04 4.86580E-09-8.42283E-09
 -1       964-3.78959E+05-4.27163E+01-2.29892E+02 3.06974E+04-1.89556E-09 1.02757E-08
 -1       965-3.78937E+05-5.61424E+01-3.97617E+02 3.73360E+04-1.12641E-08 1.68409E-08
 -1       966-3.78943E+05-3.49029E+01-7.47114E+02 3.06989E+04 1.94359E-09 2.99747E-09
 -1       967-3.79026E+05-1.19806E+02-1.53231E+03 3.73216E+04 1.77693E-09-5.88557E-09
 -1       968-3.78839E+05-2.17666E+02-2.99972E+03 3.07116E+04-1.22327E-10-9.06232E-09
 -1       969-3.80228E+05-1.83687E+03-6.65928E+03 3.71727E+04 1.42063E-09 6.51843E-09
 -1       970-3.77681E+05-5.23705E+03-1.29727E+04 3.08391E+04-7.35781E-10 3.34603E-09
 -1       971-3.45637E+05-1.72800E+03-9.31234E+03 1.53802E+04 7.76254E-09-4.94737E-10
 -1       972-3.47879E+05-1.27221E+03-5.07140E+03 2.12703E+04 7.51834E-09-1.21240E-08
 -1       973-3.46675E+05-6.21244E+01-2.27154E+03 1.52591E+04 2.19916E-09-8.69591E-09
 -1       974-3.46810E+05-8.12030E+01-1.17749E+03 2.14074E+04-4.37353E-09 1.22241E-08
 -1       975-3.46757E+05-1.72364E+01-5.89065E+02 1.52467E+04-1.89630E-10 2.61713E-08
 -1       976-3.46748E+05-3.13448E+01-3.40715E+02 2.14232E+04 1.58070E-09-8.39850E-09
 -1       977-3.46773E+05-1.64877E+01-2.48836E+02 1.52433E+04-3.71733E-09-1.29916E-08
 -1       978-3.46754E+05-2.51152E+01-2.93304E+02 2.14281E+04-5.41149E-09 5.59339E-10
 -1       979-3.46773E+05-8.00077E+00-4.73063E+02 1.52419E+04-4.74506E-09-9.96806E-10
 -1       980-3.46789E+05-2.20493E+01-9.14564E+02 2.14290E+04-3.74460E-09 1.00556E-08
 -1       981-3.46744E+05 1.48627E+01-1.77189E+03 1.52424E+04-3.40276E-09-1.65142E-09
 -1       982-3.47032E+05-1.52969E+02-3.66280E+03 2.14224E+04-3.67527E-09 1.61501E-08
 -1       983-3.46521E+05-9.85913E+01-7.11702E+03 1.52484E+04-4.82260E-09 1.15908E-08
 -1       984-3.50456E+05-3.86998E+03-1.59384E+04 2.13368E+04-6.07315E-10 2.33487E-08
 -1       985-3.43298E+05-5.30638E+03-2.92678E+04 1.53198E+04-1.07539E-08-3.19233E-09
 -3
    1PSTEP                        31          16           1          
  100CL  116 6.63139E-01         409                     0   16           1
 -4  DISP        4    1
 -5  D1          1    2    1    0
 -5  D2          1    2    2    0
 -5  D3          1    2    3    0
 -5  ALL         1    2    0    0    1ALL
 -1         1 2.70710E-03 0.00000E+00 0.00000E+00
 -1         2 1.37803E-03 2.88111E-27 0.00000E+00
 -1         3 3.42548E-04-5.78969E-28 0.00000E+00
 -1         5 1.77082E-04-1.20892E-27 8.27181E-25
 -1         8 2.69590E-03-4.12211E-07 0.00000E+00
 -1         9 2.68928E-03-1.81045E-04 0.00000E+00
 -1        10 3.10598E-04-3.41832E-06 6.61744E-24
 -1        12 1.78921E-04 8.09326E-07-4.13590E-25
 -1        15 2.68302E-03-4.36983E-07 0.00000E+00
 -1        16 2.75169E-03-1.82811E-04 0.00000E+00
 -1        17 2.11377E-04-7.79218E-06 0.00000E+00
 -1        18 1.82849E-04 3.43658E-05 0.00000E+00
 -1        19 1.84439E-04 1.61226E-06 0.00000E+00
 -1        20 1.84578E-04-9.80717E-06 0.00000E+00
 -1        21 1.83684E-04-2.52903E-05 3.30872E-24
 -1        24 3.06269E-05-1.20187E-05 0.00000E+00
 -1        25 1.93614E-04 3.45915E-05 0.00000E+00
 -1        26 1.94298E-04 2.24448E-06 0.00000E+00
 -1        27 1.92084E-04-1.33683E-05 0.00000E+00
 -1        28 1.91771E-04-2.59125E-05 0.00000E+00
 -1        32 0.00000E+00 0.00000E+00 0.00000E+00
 -1        33 2.03136E-04 2.99856E-06 0.00000E+00
 -1        34 2.01016E-04-1.34245E-05 0.00000E+00
 -1        35 1.99083E-04-2.62552E-05 0.00000E+00
 -1        51 2.70635E-03-8.59237E-08 3.30872E-24
 -1        52 2.70498E-03-1.53572E-07 3.30872E-24
 -1        53 2.70312E-03-2.17802E-07 0.00000E+00
 -1        54 2.70089E-03-2.80850E-07 0.00000E+00
 -1        55 2.69844E-03-3.44471E-07 2.48154E-24
 -1        56 2.69988E-03 7.34074E-06 0.00000E+00
 -1        57 2.68618E-03 3.07215E-05 0.00000E+00
 -1        58 2.66804E-03 6.50464E-05-1.05879E-22
 -1        59 2.64786E-03 1.04164E-04 5.29396E-23
 -1        60 2.62859E-03 1.41105E-04 1.05879E-22
 -1        61 2.61302E-03 1.69075E-04 0.00000E+00
 -1        62 2.60309E-03 1.82884E-04 0.00000E+00
 -1        63 2.60007E-03 1.78603E-04 5.29396E-23
 -1        64 2.60381E-03 1.55615E-04 0.00000E+00
 -1        65 2.61358E-03 1.15061E-04-5.29396E-23
 -1        66 2.62764E-03 6.13926E-05 0.00000E+00
 -1        67 2.64403E-03 3.38073E-07 0.00000E+00
 -1        68 2.66051E-03-6.09546E-05 0.00000E+00
 -1        69 2.67482E-03-1.15307E-04 0.00000E+00
 -1        70 2.68494E-03-1.56882E-04 5.29396E-23
 -1        86 1.46045E-03-5.78294E-06 0.00000E+00
 -1        87 1.69922E-03-3.60931E-05 0.00000E+00
 -1        88 2.02024E-03-8.80917E-05 0.00000E+00
 -1        89 2.34541E-03-1.41466E-04 0.00000E+00
 -1        90 2.59426E-03-1.74119E-04 0.00000E+00
 -1       121 3.41651E-04-5.51987E-07 0.00000E+00
 -1       122 3.38963E-04-1.10706E-06-6.61744E-24
 -1       123 3.34493E-04-1.66826E-06 0.00000E+00
 -1       124 3.28260E-04-2.23863E-06-6.61744E-24
 -1       125 3.20284E-04-2.82081E-06-1.32349E-23
 -1       191 1.77133E-04 1.34951E-07 8.27181E-25
 -1       192 1.77287E-04 2.69890E-07 0.00000E+00
 -1       193 1.77542E-04 4.04810E-07 2.48154E-24
 -1       194 1.77900E-04 5.39698E-07 8.27181E-25
 -1       195 1.78359E-04 6.74541E-07 1.65436E-24
 -1       251 2.69559E-03 1.79299E-06 0.00000E+00
 -1       252 2.69528E-03 4.02513E-06 0.00000E+00
 -1       253 2.69496E-03 5.28977E-06-6.61744E-24
 -1       254 2.69465E-03 4.60477E-06 0.00000E+00
 -1       255 2.69433E-03 1.29097E-06 0.00000E+00
 -1       256 2.69400E-03-5.29705E-06 0.00000E+00
 -1       257 2.69363E-03-1.52963E-05 1.32349E-23
 -1       258 2.69323E-03-2.87998E-05 6.61744E-24
 -1       259 2.69279E-03-4.53572E-05-1.32349E-23
 -1       260 2.69230E-03-6.44783E-05-6.61744E-24
 -1       261 2.69178E-03-8.52748E-05 0.00000E+00
 -1       262 2.69124E-03-1.06838E-04 0.00000E+00
 -1       263 2.69071E-03-1.28138E-04-1.32349E-23
 -1       264 2.69019E-03-1.48151E-04 6.61744E-24
 -1       265 2.68972E-03-1.66052E-04 1.32349E-23
 -1       266 2.69375E-03-4.22090E-07 0.00000E+00
 -1       267 2.69161E-03-4.25518E-07 0.00000E+00
 -1       268 2.68946E-03-4.29354E-07 8.27181E-25
 -1       269 2.68731E-03-4.31980E-07-2.06795E-25
 -1       270 2.68517E-03-4.34578E-07 0.00000E+00
 -1       271 2.69498E-03 2.21997E-07-1.32349E-23
 -1       272 2.69497E-03-1.62379E-06 0.00000E+00
 -1       273 2.69582E-03-5.80692E-06 0.00000E+00
 -1       274 2.69749E-03-1.21735E-05 0.00000E+00
 -1       275 2.69988E-03-2.05494E-05 0.00000E+00
 -1       276 2.70295E-03-3.07458E-05-1.32349E-23
 -1       277 2.70660E-03-4.25579E-05 0.00000E+00
 -1       278 2.71075E-03-5.57684E-05 0.00000E+00
 -1       279 2.71533E-03-7.01484E-05-2.64698E-23
 -1       280 2.72024E-03-8.54595E-05-1.32349E-23
 -1       281 2.72540E-03-1.01455E-04 2.64698E-23
 -1       282 2.73071E-03-1.17884E-04 6.61744E-24
 -1       283 2.73609E-03-1.34491E-04 1.32349E-23
 -1       284 2.74144E-03-1.51018E-04 0.00000E+00
 -1       285 2.74666E-03-1.67210E-04 0.00000E+00
 -1       301 2.70062E-03-1.81372E-04-6.61744E-24
 -1       302 2.71036E-03-1.81654E-04-3.30872E-24
 -1       303 2.71941E-03-1.81928E-04 0.00000E+00
 -1       304 2.72870E-03-1.82201E-04 6.61744E-24
 -1       305 2.73915E-03-1.82488E-04 2.64698E-23
 -1       306 2.72704E-03-3.35042E-04 0.00000E+00
 -1       307 2.79093E-03-7.48474E-04 0.00000E+00
 -1       308 2.83770E-03-1.35330E-03 0.00000E+00
 -1       309 2.86160E-03-2.05365E-03-5.29396E-23
 -1       310 2.89287E-03-2.72384E-03 1.05879E-22
 -1       311 2.95229E-03-3.24085E-03-5.29396E-23
 -1       312 3.01024E-03-3.52404E-03 1.05879E-22
 -1       313 3.00602E-03-3.53536E-03 0.00000E+00
 -1       314 2.86586E-03-3.28669E-03-1.05879E-22
 -1       315 2.54876E-03-2.84236E-03 0.00000E+00
 -1       316 2.07293E-03-2.27892E-03-1.05879E-22
 -1       317 1.50408E-03-1.66576E-03 0.00000E+00
 -1       318 9.56378E-04-1.06359E-03 0.00000E+00
 -1       319 5.37722E-04-5.37436E-04-5.29396E-23
 -1       320 2.91927E-04-1.61372E-04 0.00000E+00
 -1       336 2.99013E-04-4.07887E-06 0.00000E+00
 -1       337 2.85354E-04-4.76510E-06 6.61744E-24
 -1       338 2.69682E-04-5.47920E-06 0.00000E+00
 -1       339 2.52073E-04-6.22199E-06 0.00000E+00
 -1       340 2.32607E-04-6.99792E-06 1.32349E-23
 -1       406 1.79585E-04 9.44035E-07-1.65436E-24
 -1       407 1.80352E-04 1.07863E-06-4.13590E-25
 -1       408 1.81221E-04 1.21306E-06 2.06795E-24
 -1       409 1.82192E-04 1.34716E-06-1.03398E-24
 -1       410 1.83265E-04 1.48064E-06 8.27181E-25
 -1       521 2.79006E-03-3.46082E-04 0.00000E+00
 -1       522 2.85219E-03-7.79656E-04 0.00000E+00
 -1       523 2.89257E-03-1.41210E-03 1.05879E-22
 -1       524 2.90732E-03-2.14083E-03 5.29396E-23
 -1       525 2.93074E-03-2.83739E-03 0.00000E+00
 -1       526 2.98662E-03-3.37628E-03 0.00000E+00
 -1       527 3.04414E-03-3.67000E-03 2.11758E-22
 -1       528 3.03765E-03-3.67958E-03-5.29396E-23
 -1       529 2.88560E-03-3.41689E-03-2.11758E-22
 -1       530 2.54477E-03-2.95413E-03 5.29396E-23
 -1       531 2.03414E-03-2.37163E-03 1.05879E-22
 -1       532 1.42582E-03-1.74134E-03 0.00000E+00
 -1       533 8.39287E-04-1.12139E-03-1.05879E-22
 -1       534 3.87541E-04-5.74479E-04 0.00000E+00
 -1       535 1.20645E-04-1.78981E-04 0.00000E+00
 -1       536 2.10623E-04 2.71099E-05-6.61744E-24
 -1       537 2.08707E-04 8.75132E-05 0.00000E+00
 -1       538 2.05746E-04 1.64156E-04-3.30872E-24
 -1       539 2.02254E-04 2.47694E-04-1.65436E-24
 -1       540 1.99112E-04 3.26631E-04 0.00000E+00
 -1       541 1.97069E-04 3.89495E-04 0.00000E+00
 -1       542 1.96127E-04 4.29535E-04 3.30872E-24
 -1       543 1.95902E-04 4.40151E-04 0.00000E+00
 -1       544 1.95580E-04 4.22117E-04 0.00000E+00
 -1       545 1.94409E-04 3.76426E-04-1.65436E-24
 -1       546 1.92226E-04 3.11200E-04-3.30872E-24
 -1       547 1.89271E-04 2.34682E-04 0.00000E+00
 -1       548 1.86344E-04 1.58541E-04-3.30872E-24
 -1       549 1.84232E-04 9.44448E-05 1.65436E-24
 -1       550 1.83135E-04 5.04197E-05 1.65436E-24
 -1       551 1.86190E-04-8.36203E-06 0.00000E+00
 -1       552 1.57759E-04-9.01223E-06 0.00000E+00
 -1       553 1.27028E-04-9.72459E-06 9.92617E-24
 -1       554 9.49564E-05-1.04780E-05 0.00000E+00
 -1       555 6.25042E-05-1.12451E-05-1.32349E-23
 -1       556 2.03734E-04 1.17508E-05 0.00000E+00
 -1       557 1.97559E-04 2.76005E-05-2.64698E-23
 -1       558 1.92717E-04 4.00446E-05-5.29396E-23
 -1       559 1.89077E-04 4.93935E-05 0.00000E+00
 -1       560 1.86508E-04 5.59577E-05 0.00000E+00
 -1       561 1.84883E-04 6.00505E-05 0.00000E+00
 -1       562 1.84075E-04 6.19864E-05 0.00000E+00
 -1       563 1.83961E-04 6.20807E-05 0.00000E+00
 -1       564 1.84420E-04 6.06497E-05 0.00000E+00
 -1       565 1.85330E-04 5.80104E-05 0.00000E+00
 -1       566 1.86572E-04 5.44802E-05 0.00000E+00
 -1       567 1.88026E-04 5.03770E-05 0.00000E+00
 -1       568 1.89576E-04 4.60190E-05-1.65436E-24
 -1       569 1.91102E-04 4.17241E-05 8.27181E-25
 -1       570 1.92486E-04 3.78104E-05 0.00000E+00
 -1       571 1.82945E-04 3.22400E-05-1.65436E-24
 -1       572 1.83044E-04 3.00484E-05 8.27181E-25
 -1       573 1.83143E-04 2.78068E-05-1.65436E-24
 -1       574 1.83242E-04 2.55314E-05 8.27181E-25
 -1       575 1.83341E-04 2.32388E-05 3.30872E-24
 -1       576 1.83440E-04 2.09455E-05-1.65436E-24
 -1       577 1.83539E-04 1.86681E-05 3.30872E-24
 -1       578 1.83639E-04 1.64231E-05 3.30872E-24
 -1       579 1.83738E-04 1.42270E-05 6.61744E-24
 -1       580 1.83838E-04 1.20965E-05 0.00000E+00
 -1       581 1.83938E-04 1.00481E-05 0.00000E+00
 -1       582 1.84038E-04 8.09827E-06 0.00000E+00
 -1       583 1.84138E-04 6.26363E-06 0.00000E+00
 -1       584 1.84238E-04 4.56052E-06 0.00000E+00
 -1       585 1.84338E-04 3.00512E-06 0.00000E+00
 -1       586 1.84602E-04 3.44055E-05 0.00000E+00
 -1       587 1.86314E-04 3.44447E-05 4.13590E-25
 -1       588 1.88028E-04 3.44835E-05 8.27181E-25
 -1       589 1.89787E-04 3.45217E-05 0.00000E+00
 -1       590 1.91635E-04 3.45585E-05 0.00000E+00
 -1       591 1.83578E-04 3.23344E-05-2.06795E-25
 -1       592 1.84309E-04 3.02836E-05 2.06795E-25
 -1       593 1.85046E-04 2.82191E-05 0.00000E+00
 -1       594 1.85785E-04 2.61456E-05 0.00000E+00
 -1       595 1.86526E-04 2.40677E-05 8.27181E-25
 -1       596 1.87267E-04 2.19900E-05 4.13590E-25
 -1       597 1.88006E-04 1.99172E-05-8.27181E-25
 -1       598 1.88742E-04 1.78539E-05 0.00000E+00
 -1       599 1.89472E-04 1.58047E-05-8.27181E-25
 -1       600 1.90195E-04 1.37742E-05 0.00000E+00
 -1       601 1.90910E-04 1.17671E-05 0.00000E+00
 -1       602 1.91614E-04 9.78786E-06 2.06795E-25
 -1       603 1.92306E-04 7.84124E-06-4.13590E-25
 -1       604 1.92985E-04 5.93191E-06 0.00000E+00
 -1       605 1.93648E-04 4.06439E-06 0.00000E+00
 -1       606 1.84452E-04 4.53014E-07 3.30872E-24
 -1       607 1.84462E-04-6.20616E-07 0.00000E+00
 -1       608 1.84470E-04-1.61365E-06 0.00000E+00
 -1       609 1.84479E-04-2.53176E-06 1.65436E-24
 -1       610 1.84487E-04-3.38067E-06 0.00000E+00
 -1       611 1.84495E-04-4.16615E-06 0.00000E+00
 -1       612 1.84504E-04-4.89398E-06 0.00000E+00
 -1       613 1.84512E-04-5.56998E-06 0.00000E+00
 -1       614 1.84520E-04-6.19994E-06-1.65436E-24
 -1       615 1.84529E-04-6.78964E-06 0.00000E+00
 -1       616 1.84537E-04-7.34489E-06 0.00000E+00
 -1       617 1.84545E-04-7.87148E-06 0.00000E+00
 -1       618 1.84554E-04-8.37520E-06 0.00000E+00
 -1       619 1.84562E-04-8.86187E-06 0.00000E+00
 -1       620 1.84570E-04-9.33726E-06 0.00000E+00
 -1       621 1.85793E-04 1.71814E-06-1.65436E-24
 -1       622 1.87308E-04 1.82435E-06 1.65436E-24
 -1       623 1.88951E-04 1.93034E-06-1.65436E-24
 -1       624 1.90687E-04 2.03600E-06 0.00000E+00
 -1       625 1.92481E-04 2.14137E-06-1.65436E-24
 -1       626 1.84986E-04 4.89213E-07 0.00000E+00
 -1       627 1.85510E-04-5.71006E-07 0.00000E+00
 -1       628 1.86014E-04-1.57624E-06-6.61744E-24
 -1       629 1.86500E-04-2.53464E-06 1.65436E-24
 -1       630 1.86972E-04-3.45441E-06 0.00000E+00
 -1       631 1.87433E-04-4.34374E-06 0.00000E+00
 -1       632 1.87885E-04-5.21083E-06-3.30872E-24
 -1       633 1.88333E-04-6.06390E-06-1.65436E-24
 -1       634 1.88777E-04-6.91115E-06 0.00000E+00
 -1       635 1.89223E-04-7.76076E-06-1.65436E-24
 -1       636 1.89673E-04-8.62097E-06-3.30872E-24
 -1       637 1.90130E-04-9.49997E-06 1.65436E-24
 -1       638 1.90597E-04-1.04060E-05-1.65436E-24
 -1       639 1.91076E-04-1.13472E-05-8.27181E-25
 -1       640 1.91572E-04-1.23319E-05-1.65436E-24
 -1       656 1.85280E-04-1.03860E-05 0.00000E+00
 -1       657 1.86402E-04-1.09883E-05-6.61744E-24
 -1       658 1.87805E-04-1.15892E-05-1.32349E-23
 -1       659 1.89342E-04-1.21898E-05 0.00000E+00
 -1       660 1.90830E-04-1.27922E-05 0.00000E+00
 -1       661 1.84841E-04-1.03223E-05 0.00000E+00
 -1       662 1.85141E-04-1.09296E-05 0.00000E+00
 -1       663 1.85474E-04-1.16238E-05 0.00000E+00
 -1       664 1.85838E-04-1.23983E-05 0.00000E+00
 -1       665 1.86229E-04-1.32472E-05 0.00000E+00
 -1       666 1.86646E-04-1.41647E-05 8.27181E-25
 -1       667 1.87087E-04-1.51450E-05 0.00000E+00
 -1       668 1.87549E-04-1.61825E-05-8.27181E-25
 -1       669 1.88031E-04-1.72718E-05 1.65436E-24
 -1       670 1.88529E-04-1.84076E-05 0.00000E+00
 -1       671 1.89043E-04-1.95845E-05 0.00000E+00
 -1       672 1.89571E-04-2.07976E-05-8.27181E-25
 -1       673 1.90110E-04-2.20416E-05 1.65436E-24
 -1       674 1.90658E-04-2.33120E-05 4.13590E-25
 -1       675 1.91214E-04-2.46033E-05 2.06795E-25
 -1       676 1.85037E-04-2.53946E-05 0.00000E+00
 -1       677 1.86388E-04-2.54989E-05 1.65436E-24
 -1       678 1.87738E-04-2.56031E-05-3.30872E-24
 -1       679 1.89086E-04-2.57070E-05 1.65436E-24
 -1       680 1.90431E-04-2.58109E-05 0.00000E+00
 -1       771 1.86821E-05 1.46904E-05 0.00000E+00
 -1       772 8.63253E-06 3.66274E-05 5.29396E-23
 -1       773 3.87491E-07 5.40221E-05-5.29396E-23
 -1       774-6.17723E-06 6.71323E-05-2.64698E-23
 -1       775-1.11832E-05 7.62262E-05 0.00000E+00
 -1       776-1.47568E-05 8.15886E-05-2.64698E-23
 -1       777-1.70242E-05 8.35146E-05 5.29396E-23
 -1       778-1.81144E-05 8.23129E-05 0.00000E+00
 -1       779-1.81555E-05 7.83008E-05 0.00000E+00
 -1       780-1.72777E-05 7.18071E-05-2.64698E-23
 -1       781-1.56102E-05 6.31674E-05 0.00000E+00
 -1       782-1.32839E-05 5.27260E-05 0.00000E+00
 -1       783-1.04288E-05 4.08319E-05 0.00000E+00
 -1       784-7.17600E-06 2.78402E-05 2.64698E-23
 -1       785-3.65575E-06 1.41094E-05 0.00000E+00
 -1       786 1.93652E-04 3.23417E-05 0.00000E+00
 -1       787 1.93694E-04 3.01424E-05 0.00000E+00
 -1       788 1.93736E-04 2.79852E-05-8.27181E-25
 -1       789 1.93779E-04 2.58618E-05-8.27181E-25
 -1       790 1.93822E-04 2.37674E-05-1.65436E-24
 -1       791 1.93865E-04 2.16972E-05 0.00000E+00
 -1       792 1.93908E-04 1.96489E-05-1.65436E-24
 -1       793 1.93951E-04 1.76202E-05-8.27181E-25
 -1       794 1.93994E-04 1.56108E-05-1.65436E-24
 -1       795 1.94037E-04 1.36207E-05 8.27181E-25
 -1       796 1.94080E-04 1.16516E-05 0.00000E+00
 -1       797 1.94124E-04 9.70521E-06 0.00000E+00
 -1       798 1.94167E-04 7.78581E-06 1.65436E-24
 -1       799 1.94211E-04 5.89760E-06 0.00000E+00
 -1       800 1.94254E-04 4.04798E-06-1.65436E-24
 -1       801 1.47864E-04 3.10968E-05 0.00000E+00
 -1       802 9.53618E-06 1.94015E-05 0.00000E+00
 -1       803-1.08632E-04 9.79998E-06 5.29396E-23
 -1       804-9.63190E-05 6.82065E-06-2.64698E-23
 -1       805-3.18249E-05 2.68128E-06 5.29396E-23
 -1       806 1.94342E-04 3.22727E-05-1.65436E-24
 -1       807 1.95056E-04 2.99802E-05 0.00000E+00
 -1       808 1.95758E-04 2.77193E-05 0.00000E+00
 -1       809 1.96446E-04 2.54938E-05 0.00000E+00
 -1       810 1.97120E-04 2.33081E-05 0.00000E+00
 -1       811 1.97777E-04 2.11658E-05 0.00000E+00
 -1       812 1.98416E-04 1.90711E-05 0.00000E+00
 -1       813 1.99036E-04 1.70277E-05-1.65436E-24
 -1       814 1.99636E-04 1.50397E-05 3.30872E-24
 -1       815 2.00213E-04 1.31108E-05 8.27181E-25
 -1       816 2.00767E-04 1.12451E-05-3.30872E-24
 -1       817 2.01296E-04 9.44637E-06 0.00000E+00
 -1       818 2.01798E-04 7.71849E-06 3.30872E-24
 -1       819 2.02273E-04 6.06536E-06-8.27181E-25
 -1       820 2.02719E-04 4.49079E-06 1.65436E-24
 -1       821 1.94169E-04-1.58264E-07 1.65436E-24
 -1       822 1.94027E-04-3.79988E-06-1.65436E-24
 -1       823 1.93884E-04-8.22710E-06-3.30872E-24
 -1       824 1.93737E-04-1.29817E-05 0.00000E+00
 -1       825 1.93592E-04-1.75168E-05 3.30872E-24
 -1       826 1.93449E-04-2.12864E-05-1.65436E-24
 -1       827 1.93309E-04-2.39541E-05 0.00000E+00
 -1       828 1.93172E-04-2.51900E-05 0.00000E+00
 -1       829 1.93036E-04-2.50552E-05 0.00000E+00
 -1       830 1.92899E-04-2.36192E-05 0.00000E+00
 -1       831 1.92761E-04-2.13069E-05 3.30872E-24
 -1       832 1.92621E-04-1.85485E-05 0.00000E+00
 -1       833 1.92482E-04-1.58963E-05 0.00000E+00
 -1       834 1.92346E-04-1.39015E-05 0.00000E+00
 -1       835 1.92211E-04-1.29369E-05 0.00000E+00
 -1       836 1.95986E-04 2.36954E-06 0.00000E+00
 -1       837 1.97545E-04 2.49774E-06 1.65436E-24
 -1       838 1.99007E-04 2.62587E-06 3.30872E-24
 -1       839 2.00405E-04 2.75330E-06 8.27181E-25
 -1       840 2.01771E-04 2.88057E-06-8.27181E-25
 -1       856 1.92068E-04-1.44273E-05 0.00000E+00
 -1       857 1.92049E-04-1.53506E-05 0.00000E+00
 -1       858 1.92030E-04-1.61593E-05 2.06795E-25
 -1       859 1.92010E-04-1.68745E-05 0.00000E+00
 -1       860 1.91991E-04-1.75175E-05 0.00000E+00
 -1       861 1.91971E-04-1.81095E-05 0.00000E+00
 -1       862 1.91952E-04-1.86718E-05 0.00000E+00
 -1       863 1.91932E-04-1.92259E-05-2.06795E-25
 -1       864 1.91912E-04-1.97929E-05 8.27181E-25
 -1       865 1.91893E-04-2.03943E-05 0.00000E+00
 -1       866 1.91873E-04-2.10512E-05 8.27181E-25
 -1       867 1.91853E-04-2.17851E-05 0.00000E+00
 -1       868 1.91833E-04-2.26171E-05 0.00000E+00
 -1       869 1.91813E-04-2.35683E-05-4.13590E-25
 -1       870 1.91793E-04-2.46598E-05-8.27181E-25
 -1       871 1.93431E-04-1.33732E-05 8.27181E-25
 -1       872 1.94926E-04-1.33816E-05 0.00000E+00
 -1       873 1.96500E-04-1.33906E-05 0.00000E+00
 -1       874 1.98085E-04-1.34003E-05 1.80946E-25
 -1       875 1.99613E-04-1.34107E-05-1.03398E-24
 -1       876 1.92608E-04-1.44127E-05-3.30872E-24
 -1       877 1.93111E-04-1.53903E-05 0.00000E+00
 -1       878 1.93591E-04-1.63091E-05 0.00000E+00
 -1       879 1.94053E-04-1.71765E-05-1.65436E-24
 -1       880 1.94498E-04-1.79999E-05 0.00000E+00
 -1       881 1.94929E-04-1.87866E-05-1.65436E-24
 -1       882 1.95350E-04-1.95440E-05 0.00000E+00
 -1       883 1.95762E-04-2.02795E-05-1.65436E-24
 -1       884 1.96169E-04-2.10003E-05-3.30872E-24
 -1       885 1.96573E-04-2.17138E-05 0.00000E+00
 -1       886 1.96977E-04-2.24273E-05 0.00000E+00
 -1       887 1.97384E-04-2.31482E-05 0.00000E+00
 -1       888 1.97796E-04-2.38838E-05-3.30872E-24
 -1       889 1.98215E-04-2.46417E-05-1.65436E-24
 -1       890 1.98645E-04-2.54290E-05 0.00000E+00
 -1       891 1.93132E-04-2.59701E-05 0.00000E+00
 -1       892 1.94469E-04-2.60278E-05 0.00000E+00
 -1       893 1.95758E-04-2.60854E-05 1.65436E-24
 -1       894 1.96973E-04-2.61428E-05 4.13590E-25
 -1       895 1.98090E-04-2.61999E-05 4.13590E-25
 -1       956 2.03006E-04 1.68096E-06-1.65436E-24
 -1       957 2.02873E-04 4.54831E-07-8.27181E-25
 -1       958 2.02741E-04-6.90563E-07 0.00000E+00
 -1       959 2.02608E-04-1.76656E-06 1.65436E-24
 -1       960 2.02475E-04-2.78456E-06-3.30872E-24
 -1       961 2.02342E-04-3.75598E-06 0.00000E+00
 -1       962 2.02209E-04-4.69223E-06-3.30872E-24
 -1       963 2.02076E-04-5.60479E-06-1.65436E-24
 -1       964 2.01943E-04-6.50509E-06 0.00000E+00
 -1       965 2.01810E-04-7.40458E-06 1.65436E-24
 -1       966 2.01677E-04-8.31471E-06 0.00000E+00
 -1       967 2.01545E-04-9.24692E-06-1.65436E-24
 -1       968 2.01412E-04-1.02127E-05-6.61744E-24
 -1       969 2.01279E-04-1.12233E-05 0.00000E+00
 -1       970 2.01147E-04-1.22903E-05 3.30872E-24
 -1       971 2.00896E-04-1.45583E-05 3.30872E-24
 -1       972 2.00775E-04-1.55975E-05 1.65436E-24
 -1       973 2.00654E-04-1.65524E-05-3.30872E-24
 -1       974 2.00532E-04-1.74341E-05-1.65436E-24
 -1       975 2.00411E-04-1.82532E-05 0.00000E+00
 -1       976 2.00289E-04-1.90208E-05-1.65436E-24
 -1       977 2.00168E-04-1.97476E-05 0.00000E+00
 -1       978 2.00046E-04-2.04445E-05-1.65436E-24
 -1       979 1.99925E-04-2.11226E-05 0.00000E+00
 -1       980 1.99803E-04-2.17926E-05 0.00000E+00
 -1       981 1.99682E-04-2.24656E-05-3.30872E-24
 -1       982 1.99561E-04-2.31523E-05 0.00000E+00
 -1       983 1.99439E-04-2.38638E-05 3.30872E-24
 -1       984 1.99319E-04-2.46109E-05 0.00000E+00
 -1       985 1.99198E-04-2.54044E-05 3.30872E-24
 -3
    1PSTEP                        32          16           1          
  100CL  116 6.63139E-01         409                     0   16           1
 -4  STRESS      6    1
 -5  SXX         1    4    1    1
 -5  SYY         1    4    2    2
 -5  SZZ         1    4    3    3
 -5  SXY         1    4    1    2
 -5  SYZ         1    4    2    3
 -5  SZX         1    4    3    1
 -1         1-5.32054E+06-1.63279E+06-1.13306E+06-1.40947E+06-2.35741E-09 7.87841E-08
 -1         2 1.36363E+06 2.00603E+07 4.71960E+06 6.03669E+06 2.52621E-08-9.42964E-08
 -1         3-1.48753E+03-1.56732E+06 4.07539E+02-2.22409E+03-6.51802E-10-8.36008E-09
 -1         5-7.46559E+01 3.86442E+05 9.95247E+00-1.33721E+00-4.89185E-10-4.01087E-09
 -1         8-5.74482E+05-2.05280E+05-6.50849E+04-2.50088E+05 8.18545E-12 1.57288E-07
 -1         9 1.16378E+07 3.50688E+06 2.70595E+06-4.11962E+05 9.11532E-09 2.23517E-07
 -1        10-2.30708E+03-1.63327E+06-3.96485E+03-1.50478E+04-1.37443E-08-4.40288E-08
 -1        12-7.07482E+01 3.86463E+05 3.27137E+02-9.11618E+00-6.55632E-10-8.96844E-08
 -1        15 9.52809E+02 5.23623E+02 3.07989E+03 8.84079E-01-2.87287E-10-1.03506E-07
 -1        16 2.28187E+07-3.12901E+05 3.11129E+06-2.22544E+06 9.25502E-09 4.29184E-08
 -1        17 8.34564E+06 6.25520E+06 2.25525E+06 5.98871E+06 2.85741E-08 3.90108E-08
 -1        18 1.42313E+05 3.35665E+04 4.16826E+03-1.19489E+05 1.27595E-08 1.65633E-08
 -1        19 1.22611E+05 1.42815E+05-7.55417E+02 2.18349E+04 2.23117E-09 5.51336E-09
 -1        20-8.22293E+04-5.74174E+05-1.28854E+05 2.50434E+04-1.98982E-09-4.15882E-09
 -1        21-4.55815E+01-2.96090E+05-9.23977E+02 2.74665E+02 1.72400E-08-4.90710E-09
 -1        24 1.39511E+07 1.20234E+07 3.86524E+06 1.11347E+07-1.59654E-07-5.62674E-08
 -1        25 1.24682E+05 2.65862E+05 9.96614E+04-6.44796E+05-6.91580E-10 6.48997E-09
 -1        26-5.50934E+04 9.34036E+04-2.46119E+04 1.18197E+03 1.02409E-09 1.32460E-08
 -1        27-7.56691E+04-3.10197E+05-1.13417E+05 6.90592E+04 3.93205E-09 9.13284E-09
 -1        28 2.22471E+04-8.53977E+04 1.69047E+04 2.05727E+04-5.43997E-09 1.65625E-09
 -1        32-1.68057E+06-3.17920E+06-1.96998E+05 4.55608E+05-4.16912E-08-1.45442E-08
 -1        33-1.78602E+05 9.30230E+04 3.23996E+04-3.86666E+04-3.18638E-09 6.19942E-09
 -1        34-2.23767E+05-2.50438E+04 6.91295E+02 7.57301E+04-6.37971E-09-5.05588E-09
 -1        35-2.29346E+04-3.38683E+04-1.34935E+03 5.15129E+04-4.90076E-09 1.28663E-08
 -1        51 6.02625E+04-1.74869E+05 1.27553E+05-4.50112E+05-1.16415E-10 7.09624E-08
 -1        52 2.04513E+04-1.52653E+05 6.69912E+04-5.24944E+05-2.22826E-10 7.30106E-08
 -1        53 4.22982E+03-1.68043E+05 3.49862E+04-4.48556E+05 1.12777E-10 3.89919E-08
 -1        54 7.57747E+03-1.63843E+05 2.89502E+04-5.26477E+05-2.94676E-10-2.71586E-07
 -1        55 1.64880E+04-1.70988E+05 3.54515E+04-4.48451E+05 2.21917E-10 2.28005E-07
 -1        56-9.72796E+06-1.31575E+06-8.94310E+05-4.02317E+06 1.20199E-08-6.92671E-09
 -1        57-1.09231E+07-9.54727E+05-5.52339E+05-2.82585E+06-3.02680E-09-1.03173E-07
 -1        58-9.60488E+06-1.75478E+06-1.99601E+05-4.18004E+06-2.43672E-08 3.15049E-09
 -1        59-1.10170E+07-4.60346E+05-1.10486E+05-2.76474E+06 6.91489E-09-2.45876E-07
 -1        60-9.68974E+06-1.76045E+06-5.47274E+04-4.13434E+06-1.17652E-08-2.94604E-08
 -1        61-1.04807E+07-7.42035E+05 5.36846E+03-3.00177E+06-4.74611E-08 1.71720E-07
 -1        62-1.00388E+07-1.54215E+06-6.01977E+04-3.86309E+06-3.20724E-08-7.14936E-08
 -1        63-9.73297E+06-1.34913E+06 3.78855E+04-3.61678E+06-4.56930E-08 2.77720E-07
 -1        64-1.03583E+07-1.20972E+06-5.51803E+04-3.46833E+06-7.49569E-08-3.57832E-08
 -1        65-9.37923E+06-1.87578E+06 3.50972E+03-4.37971E+06-3.49246E-09-3.24726E-07
 -1        66-1.04864E+07-9.49982E+05-4.55801E+04-3.17070E+06-2.64845E-09 1.03464E-07
 -1        67-9.36307E+06-2.11012E+06-9.95849E+04-4.73675E+06 1.74223E-08-1.10165E-07
 -1        68-1.04672E+07-9.10611E+05-1.84074E+05-3.17023E+06-8.91705E-08 1.06083E-07
 -1        69-9.57045E+06-2.21599E+06-4.92990E+05-4.34607E+06 3.90764E-09-1.28908E-07
 -1        70-1.01950E+07-9.14621E+05-8.18207E+05-3.50355E+06-7.96354E-09-1.39873E-07
 -1        86-1.39052E+06-1.46907E+07-2.58150E+06-2.84133E+06-2.59533E-07-1.32874E-07
 -1        87 2.16429E+06 5.66291E+06 2.14801E+06 5.35363E+06-4.43368E-07-2.08966E-08
 -1        88-3.95824E+05-2.05683E+06 2.00330E+05-2.44273E+06-3.81491E-07-1.18249E-07
 -1        89 2.90061E+06 5.40202E+06 2.19922E+06 5.52512E+06-5.51474E-07-1.49064E-07
 -1        90-2.04433E+06-1.44975E+07-2.79192E+06-3.03720E+06-1.23542E-07 1.89466E-07
 -1       121-2.03800E+03-1.57222E+06-5.45016E+02 1.10241E+03 1.49157E-09-1.19326E-08
 -1       122-1.30069E+03-1.56738E+06 7.73351E+02-4.45206E+03-5.19431E-09-3.84425E-08
 -1       123-2.05792E+03-1.57235E+06 2.67810E+02 3.29232E+03 4.63751E-09-3.63070E-09
 -1       124 3.44938E+02-1.56693E+06 2.96582E+03-9.31285E+03-1.01181E-08 1.95778E-08
 -1       125-2.87151E+03-1.57325E+06 3.48597E+03 5.91733E+03 6.40102E-09-5.53337E-09
 -1       191-7.86752E+01 3.86460E+05 8.48195E+00 6.97006E-01-5.46168E-10 2.50984E-08
 -1       192-7.56166E+01 3.86442E+05 2.12374E+01-4.28809E+00-6.94740E-10 1.82299E-08
 -1       193-8.12039E+01 3.86460E+05 3.61750E+01 3.76500E+00-1.04824E-09-1.02445E-08
 -1       194-7.86965E+01 3.86446E+05 8.07327E+01-9.73038E+00-6.20425E-10-3.34549E-08
 -1       195-8.60576E+01 3.86457E+05 1.54583E+02 6.33042E+00-1.56104E-09-5.65160E-08
 -1       251-8.88235E+05 1.66266E+04-3.88606E+04-1.44222E+04-5.59618E-09 1.36863E-07
 -1       252-9.03405E+05-1.92184E+04-2.71114E+04 4.99704E+04 9.69496E-09-2.44334E-07
 -1       253-8.96499E+05 2.56522E+03-1.03844E+04-1.07153E+04-1.08190E-08-4.64059E-07
 -1       254-8.90260E+05-3.06199E+03-4.88404E+03 3.61935E+04 9.64621E-09-1.55659E-07
 -1       255-9.00811E+05 1.01037E+02-3.50798E+03-6.47866E+02 1.59821E-09 3.41965E-08
 -1       256-8.84773E+05-2.96785E+02 9.79876E+02 1.30460E+04-6.24095E-09 1.49865E-08
 -1       257-9.01540E+05-5.25462E+02-1.35278E+03 1.24223E+04 3.63616E-09-2.66525E-08
 -1       258-8.87180E+05 8.39922E+02 2.58757E+03-1.16714E+04-1.64191E-08 1.12120E-07
 -1       259-8.98615E+05-8.68422E+02 1.34321E+03 2.40667E+04 8.36280E-09 1.35302E-08
 -1       260-8.93208E+05 2.79808E+03 5.44255E+03-2.96429E+04-9.47875E-09-2.89774E-08
 -1       261-8.96115E+05-2.01675E+03 8.46856E+03 3.04080E+04 9.52906E-09 1.03063E-07
 -1       262-8.91860E+05 1.14454E+04 2.10389E+04-3.49227E+04-2.07963E-08-3.43013E-07
 -1       263-9.00204E+05-9.29519E+03 3.33370E+04 2.93551E+04 7.19047E-09-2.18370E-08
 -1       264-8.62100E+05 6.55078E+04 9.22748E+04-2.56528E+04 3.09285E-08 2.59926E-07
 -1       265-9.25396E+05-5.62043E+04 1.28536E+05 2.11271E+04 7.26607E-09 2.80103E-07
 -1       266-1.72490E+04-8.06641E+03 4.04672E+04-1.89155E+01 1.12777E-10 1.97628E-08
 -1       267 1.99961E+04 9.40036E+03 2.86036E+04 2.18265E+01-1.22782E-10-1.60465E-07
 -1       268-2.68143E+03-1.33140E+03 1.06317E+04-2.78097E+00-1.06411E-10-1.86227E-08
 -1       269 3.16600E+03 1.59336E+03 6.91054E+03 3.23951E+00-2.80693E-10 1.89823E-07
 -1       270-4.75202E+02-2.61787E+02 3.33582E+03-4.39615E-01 7.28733E-11 2.53287E-07
 -1       271-1.52215E+06-1.92628E+05-1.14429E+05-5.91498E+05 7.30506E-09 1.26965E-07
 -1       272-1.52512E+06-3.03786E+05-7.21570E+04-6.24369E+05 1.60071E-09 2.80224E-07
 -1       273-1.54610E+06-2.17427E+05-2.76404E+04-5.83516E+05 2.58660E-09 1.83529E-07
 -1       274-1.49747E+06-2.74035E+05-1.45472E+04-6.39101E+05 3.35403E-08 5.25251E-08
 -1       275-1.55164E+06-2.17302E+05-6.82501E+03-5.79842E+05-2.66664E-09 9.33323E-09
 -1       276-1.49155E+06-2.74745E+05-2.97473E+03-6.47272E+05-3.05890E-08-8.25703E-08
 -1       277-1.55439E+06-2.14836E+05-1.87443E+03-5.77177E+05-2.95950E-09 4.84197E-08
 -1       278-1.48915E+06-2.77901E+05-7.72493E+02-6.53295E+05 3.29155E-08 1.68102E-08
 -1       279-1.55615E+06-2.12778E+05-9.10408E+02-5.75288E+05-2.40780E-08-2.74248E-07
 -1       280-1.48799E+06-2.80340E+05-1.10793E+03-6.57307E+05-2.46769E-08 5.92127E-08
 -1       281-1.55709E+06-2.11434E+05-2.04335E+03-5.74201E+05 1.42272E-08 1.33597E-07
 -1       282-1.48835E+06-2.82725E+05-4.76427E+03-6.59019E+05 3.92743E-09 1.06815E-07
 -1       283-1.55656E+06-2.10037E+05-8.47628E+03-5.74041E+05-3.80363E-08-2.34113E-08
 -1       284-1.49589E+06-2.93985E+05-2.31017E+04-6.56852E+05-5.58106E-09-3.01312E-07
 -1       285-1.54958E+06-2.01417E+05-3.60193E+04-5.75868E+05 2.55704E-08 7.91224E-08
 -1       301-4.45647E+03-6.40154E+05 1.67422E+05-1.12161E+06 9.60426E-09 1.95309E-07
 -1       302-5.57702E+03-5.93996E+05 1.00769E+05-1.63745E+06 1.68002E-08-2.15208E-07
 -1       303-1.96368E+04-6.31968E+05 5.71383E+04-1.11856E+06 8.47649E-09 3.93902E-08
 -1       304-2.15151E+04-6.00470E+05 5.78596E+04-1.63681E+06-1.06520E-08-2.89619E-08
 -1       305-2.37151E+04-6.20959E+05 7.16037E+04-1.12167E+06 1.33223E-08-3.45171E-08
 -1       306-3.01318E+07-6.22211E+06-8.61013E+06-5.37245E+05-4.93601E-08-1.01310E-07
 -1       307 2.54035E+07 3.25297E+06 5.51937E+06-1.51826E+07-8.83432E-07 2.68017E-07
 -1       308-6.99588E+06-1.03155E+06-4.60414E+05 5.20928E+06-9.57516E-08 3.45419E-07
 -1       309-3.27624E+06 8.74820E+06 2.28221E+06-2.06652E+07 3.19604E-07 4.15890E-07
 -1       310-1.25285E+07-1.93649E+06-2.02313E+06 5.21931E+06-3.49246E-10-2.98183E-07
 -1       311 3.83124E+07 2.26324E+04 7.26308E+06-8.85885E+06 5.70202E-07 4.47035E-08
 -1       312-3.19100E+07-6.75284E+06-8.52586E+06-5.00345E+06-2.20025E-07 1.71611E-07
 -1       313 4.54596E+07 1.49401E+07 1.06621E+07 2.37367E+07-5.32484E-07-5.36675E-08
 -1       314-1.72616E+07-1.77533E+07-7.52486E+06-1.25350E+07 4.47966E-07-2.25089E-07
 -1       315-1.78152E+06 2.97057E+07 5.67249E+06 1.05968E+07-5.04879E-07 1.08557E-08
 -1       316 1.38282E+06-9.85022E+06-4.45914E+05-2.54908E+06-1.15549E-06-7.69214E-08
 -1       317-1.71321E+07 2.24178E+07 2.23771E+06-8.79476E+06 8.91509E-07-6.90838E-07
 -1       318-1.06743E+06-1.27630E+07-2.03428E+06-4.24052E+06-9.11590E-07 1.61701E-07
 -1       319 7.18365E+06 3.19150E+07 7.02719E+06 1.65910E+07-1.65019E-08 1.59489E-07
 -1       320-2.25795E+07-1.76209E+07-9.84350E+06-1.28031E+07 1.96393E-07-7.75326E-08
 -1       336-7.34509E+02-1.70198E+06-1.39070E+04 8.96100E+03-2.64772E-08 6.38101E-09
 -1       337-5.42487E+03-1.70156E+06-1.81501E+04-2.17600E+04-4.96200E-08 4.40923E-09
 -1       338 2.88876E+02-1.70147E+06-2.85760E+04 1.25485E+04-3.50446E-08-1.96924E-08
 -1       339-3.03209E+04-1.71887E+06-6.45961E+04-2.87856E+04-6.30253E-08 1.01300E-08
 -1       340 1.99904E+04-1.68686E+06-1.01747E+05 1.58557E+04-4.21387E-08 4.47653E-08
 -1       406-4.90897E+01 3.86443E+05 6.42350E+02 3.33217E+00-2.14894E-09-2.14677E-08
 -1       407 1.54828E+02 3.86576E+05 1.37270E+03 2.33066E+01-7.30445E-10 2.06164E-08
 -1       408 6.33537E+02 3.86343E+05 2.73708E+03-2.69605E+01-2.29625E-09 9.15134E-09
 -1       409 2.89905E+03 3.87450E+05 6.16908E+03 2.87840E+02-3.16845E-10 1.02846E-08
 -1       410 8.45603E+03 3.85555E+05 1.25909E+04-2.77525E+02-2.89037E-09-8.40555E-09
 -1       521-3.16660E+07-7.67633E+06-1.00542E+07-1.45436E+05-1.12806E-07-5.02332E-08
 -1       522 2.62534E+07 4.27041E+06 5.62384E+06-1.86819E+07-4.41883E-07-1.72789E-07
 -1       523-7.57243E+06-1.34314E+06-4.52128E+05 5.65531E+06-1.03028E-08-2.56070E-07
 -1       524-6.77792E+06 1.17967E+07 2.46717E+06-2.37178E+07 7.56321E-07-3.93404E-07
 -1       525-1.33256E+07-2.56754E+06-2.22292E+06 5.66775E+06 4.05184E-07-1.20897E-07
 -1       526 4.17963E+07-6.71580E+04 7.61937E+06-1.15057E+07 1.54600E-07 4.71045E-07
 -1       527-3.37442E+07-8.44584E+06-9.82265E+06-4.86341E+06 1.00932E-07 4.99422E-08
 -1       528 4.96177E+07 1.66330E+07 1.11160E+07 2.69761E+07 4.35626E-07-4.56930E-09
 -1       529-1.82003E+07-1.99514E+07-8.62334E+06-1.25618E+07-1.47265E-08-1.79047E-07
 -1       530-4.26352E+06 3.44797E+07 6.00002E+06 1.00636E+07-1.95403E-07 5.03846E-07
 -1       531 1.37983E+06-1.09213E+07-4.19111E+05-2.50028E+06-7.85818E-07 4.19386E-07
 -1       532-1.96565E+07 2.44227E+07 2.44388E+06-1.30750E+07 3.72485E-07-6.44490E-07
 -1       533-1.11170E+06-1.39079E+07-2.16417E+06-4.05124E+06-2.53465E-07-1.02108E-06
 -1       534 5.16753E+06 3.70167E+07 7.30975E+06 1.71560E+07-2.75322E-08 7.54255E-07
 -1       535-2.37517E+07-2.00032E+07-1.12799E+07-1.28668E+07 1.01398E-07 4.54660E-07
 -1       536-7.05878E+05-4.68917E+04-4.76890E+04-5.46477E+04 6.98947E-10 5.78557E-08
 -1       537-5.51263E+04 4.48633E+04 8.41497E+04 1.23779E+05-1.13151E-07 9.99444E-08
 -1       538-3.94414E+05 3.31246E+03 3.66259E+03-7.21681E+04 2.24483E-08 1.04868E-07
 -1       539-2.69147E+05 2.88315E+03 2.49645E+04 1.38668E+05 1.63943E-07 1.16320E-07
 -1       540-4.97231E+05-4.30292E+02-2.12734E+04-7.00706E+04 1.47261E-08 1.22397E-07
 -1       541 1.46191E+05 1.69609E+04 1.06308E+05 9.78704E+04-8.70978E-08 6.34612E-08
 -1       542-7.98560E+05-2.01188E+04-8.41567E+04-3.04966E+04 4.38481E-08 4.07521E-08
 -1       543 4.04656E+05 2.73029E+04 1.57836E+05-1.33548E+04 3.86135E-08-3.89100E-08
 -1       544-7.48764E+05-1.65224E+04-7.47691E+04 4.04860E+04-4.88076E-08-3.57320E-08
 -1       545 2.85957E+04 9.47347E+03 7.97373E+04-1.13561E+05-2.97849E-08-6.25585E-08
 -1       546-4.32599E+05 6.09227E+03-1.22192E+04 6.93639E+04 1.98340E-08-9.33086E-08
 -1       547-2.87224E+05-4.65742E+03 1.05697E+04-1.41515E+05-9.88759E-08-9.74627E-08
 -1       548-4.41434E+05 4.71877E+03-2.38701E+04 6.91303E+04-1.05728E-07-8.61191E-08
 -1       549 4.77699E+04 1.60413E+04 6.04405E+04-1.11421E+05-6.58320E-08-6.55089E-08
 -1       550-7.58630E+05-2.21076E+04-1.28892E+05 3.85543E+04 3.86626E-09-2.01562E-08
 -1       551 4.08271E+04-7.53881E+05-1.56849E+04-1.24768E+06-1.04294E-07-7.71252E-09
 -1       552 9.32904E+04-7.98822E+05 1.00619E+04-1.77907E+06-7.31961E-08 2.74013E-08
 -1       553 7.17640E+04-7.95241E+05 3.21632E+04-1.24104E+06-1.19675E-07 3.12721E-08
 -1       554 1.32081E+05-8.14660E+05 8.12517E+04-1.78102E+06-7.42148E-08 2.32212E-08
 -1       555 1.01526E+05-8.18882E+05 1.48352E+05-1.24087E+06-1.25365E-07-8.79118E-09
 -1       556 2.23543E+05-3.83399E+05 2.62226E+04-4.07145E+05-2.24682E-08 1.83645E-08
 -1       557 3.54141E+05-4.87735E+05 1.63899E+04-5.27465E+05 1.86265E-09 1.02191E-08
 -1       558 2.05361E+05-3.76288E+05 2.43019E+03-4.11520E+05-2.51457E-08-6.98492E-09
 -1       559 3.29090E+05-4.87869E+05 2.49150E+03-5.47899E+05 2.48983E-08-5.23869E-10
 -1       560 1.90071E+05-3.66700E+05-1.47894E+03-4.22537E+05 7.27596E-09 2.46582E-08
 -1       561 3.09872E+05-4.80182E+05 1.41796E+02-5.61000E+05 8.10542E-09 7.36145E-09
 -1       562 1.77981E+05-3.59188E+05-1.31968E+03-4.31292E+05-2.61934E-10 6.99220E-09
 -1       563 2.95511E+05-4.73920E+05-3.40902E+01-5.70380E+05-9.00036E-09 6.64477E-09
 -1       564 1.69353E+05-3.53812E+05-5.98758E+02-4.37407E+05 6.34464E-09 1.26920E-09
 -1       565 2.85987E+05-4.69772E+05 2.45917E+01-5.76465E+05 2.28465E-08-1.64646E-08
 -1       566 1.64310E+05-3.50621E+05-2.59465E+02-4.40934E+05 3.05590E-09-2.51130E-08
 -1       567 2.81359E+05-4.67759E+05-3.62151E+02-5.79276E+05 2.12822E-08 1.65273E-08
 -1       568 1.62942E+05-3.49784E+05-1.12501E+03-4.41986E+05-8.53470E-09 9.60063E-09
 -1       569 2.80239E+05-4.67686E+05-2.84155E+03-5.77846E+05-4.41560E-09-1.50176E-08
 -1       570 1.66343E+05-3.53018E+05-6.21247E+03-4.40966E+05 1.09867E-09-1.70239E-08
 -1       571 2.89963E+05 1.04686E+04 1.49304E+04-9.54859E+04 4.68754E-09 1.83254E-08
 -1       572 2.92126E+05 3.94820E+03 7.31714E+03-1.04758E+05 5.84669E-09 1.06902E-08
 -1       573 2.90822E+05 1.24418E+03 3.25123E+03-9.53089E+04 7.88805E-09 8.80482E-09
 -1       574 2.91034E+05 7.28171E+02 1.63046E+03-1.04983E+05 2.00343E-08 8.24457E-09
 -1       575 2.90915E+05 4.49715E+02 7.69483E+02-9.52847E+04 1.05460E-08 1.47684E-08
 -1       576 2.90899E+05 4.61323E+02 3.93878E+02-1.05013E+05-4.84033E-09 1.11577E-08
 -1       577 2.90955E+05 3.91653E+02 1.96412E+02-9.52814E+04 1.46974E-09 9.85892E-09
 -1       578 2.90930E+05 4.23072E+02 1.13062E+02-1.05017E+05-5.52927E-09-1.06866E-09
 -1       579 2.91028E+05 3.54641E+02 7.68905E+01-9.52811E+04 1.13887E-08-4.87762E-09
 -1       580 2.91032E+05 3.71525E+02 8.82329E+01-1.05013E+05 5.22414E-09 8.85575E-09
 -1       581 2.91143E+05 2.95231E+02 1.32112E+02-9.52870E+04 1.41990E-08 1.59171E-08
 -1       582 2.91208E+05 3.31719E+02 2.68261E+02-1.04951E+05 4.11455E-09-3.97904E-09
 -1       583 2.91285E+05 3.31506E+02 5.13977E+02-9.53438E+04 5.25688E-09-1.02732E-08
 -1       584 2.91577E+05 7.51040E+02 1.16345E+03-1.04473E+05 9.45874E-09-1.57793E-08
 -1       585 2.91318E+05 1.72699E+03 2.35501E+03-9.57645E+04 6.73026E-10 1.76078E-09
 -1       586-3.42432E+03 1.16915E+05-2.91519E+03-2.50782E+05-5.08408E-09 3.77850E-09
 -1       587-1.33902E+03 1.16666E+05 7.73434E+02-2.76004E+05-9.06221E-09 1.55027E-08
 -1       588 3.98981E+02 1.16473E+05 4.76292E+03-2.50644E+05-6.14818E-09-1.25801E-08
 -1       589 5.08820E+03 1.18947E+05 1.23517E+04-2.75771E+05-9.21682E-09-6.62794E-08
 -1       590 1.66190E+04 1.15138E+05 2.59096E+04-2.51075E+05-4.82487E-09-9.69339E-09
 -1       591-7.37959E+04-1.57414E+04-2.23996E+04-3.14464E+04-1.05674E-08 1.09749E-08
 -1       592-7.78771E+04-1.92633E+04-1.21335E+04-3.50331E+04 3.83565E-10 1.47713E-09
 -1       593-7.60358E+04-1.41163E+04-5.05056E+03-3.30891E+04 5.30785E-09-1.60530E-08
 -1       594-7.47846E+04-1.59761E+04-2.51887E+03-3.51499E+04-2.77363E-09 1.27570E-08
 -1       595-7.62066E+04-1.41110E+04-1.15648E+03-3.31637E+04-4.18407E-09 9.29343E-09
 -1       596-7.45728E+04-1.58258E+04-5.87808E+02-3.51247E+04 8.47791E-10 1.71068E-08
 -1       597-7.62280E+04-1.41263E+04-3.19871E+02-3.31666E+04 7.98059E-09 2.73969E-08
 -1       598-7.45520E+04-1.58199E+04-2.56756E+02-3.51176E+04-2.31512E-09 2.40232E-09
 -1       599-7.62267E+04-1.41268E+04-3.27494E+02-3.31662E+04 7.41318E-09-6.60646E-09
 -1       600-7.45730E+04-1.58264E+04-6.07989E+02-3.51226E+04 9.90809E-09-1.49180E-09
 -1       601-7.62021E+04-1.41122E+04-1.19923E+03-3.31628E+04 4.45175E-09-2.40857E-09
 -1       602-7.47926E+04-1.59812E+04-2.61350E+03-3.51450E+04-3.12696E-09 5.12841E-10
 -1       603-7.60223E+04-1.41206E+04-5.24108E+03-3.30861E+04 7.74889E-10 9.49194E-09
 -1       604-7.80192E+04-1.93728E+04-1.25904E+04-3.49992E+04 3.56926E-09 7.68000E-09
 -1       605-7.36781E+04-1.58246E+04-2.32433E+04-3.14008E+04 4.38069E-09 1.26201E-08
 -1       606 2.66222E+04-1.43580E+04-2.57400E+04 2.39204E+04 9.18862E-09-1.77945E-08
 -1       607 2.22240E+04-4.68894E+03-1.28185E+04 2.68816E+04 1.15324E-09-2.82307E-09
 -1       608 2.47308E+04-8.45484E+02-5.73838E+03 2.37523E+04-2.36287E-09-1.30808E-09
 -1       609 2.42504E+04-2.89363E+02-2.89888E+03 2.70950E+04 2.36560E-09-9.65588E-09
 -1       610 2.45170E+04-4.06800E+01-1.38307E+03 2.37323E+04 9.06766E-10 5.35874E-09
 -1       611 2.44416E+04-4.09815E+01-6.97337E+02 2.71181E+04 1.73304E-09-7.91192E-09
 -1       612 2.44699E+04-2.70440E+01-3.31484E+02 2.37303E+04-2.00871E-08-4.35466E-09
 -1       613 2.44534E+04-3.69757E+01-1.48509E+02 2.71208E+04-3.59287E-08-3.04681E-10
 -1       614 2.44479E+04-3.35585E+01-3.47249E+01 2.37296E+04-1.78106E-08 1.53786E-08
 -1       615 2.44482E+04-3.55563E+01 6.24769E+01 2.71212E+04-2.34104E-09-3.96312E-10
 -1       616 2.44305E+04-3.04888E+01 1.87135E+02 2.37298E+04 3.91447E-09-8.09291E-09
 -1       617 2.44708E+04 4.26326E+00 4.26868E+02 2.71208E+04 3.37604E-09-3.30640E-08
 -1       618 2.43935E+04 9.25236E+01 8.60391E+02 2.37301E+04-2.28601E-09-1.15110E-08
 -1       619 2.47746E+04 6.69482E+02 1.93205E+03 2.71202E+04-2.94676E-10 6.73754E-09
 -1       620 2.41078E+04 2.13271E+03 3.88337E+03 2.37317E+04 9.78048E-10 3.36377E-09
 -1       621 5.29797E+02 3.07288E+05 4.43326E+03 4.01671E+04 8.23275E-09 3.45608E-09
 -1       622 7.66429E+02 3.08338E+05 3.80373E+03 5.91714E+04 5.53428E-09 2.04454E-09
 -1       623 1.35966E+02 3.07543E+05 4.38289E+03 3.99855E+04 9.88894E-09-1.76233E-08
 -1       624 2.22742E+03 3.09559E+05 8.35945E+03 5.93479E+04 6.22765E-09-4.12354E-08
 -1       625 1.93453E+03 3.05888E+05 1.44713E+04 3.99847E+04 1.07452E-08 9.32459E-10
 -1       626 2.61247E+05 6.14393E+04 5.11772E+03 1.26848E+05-7.34690E-09-8.33552E-09
 -1       627 2.58931E+05 6.28348E+04 2.46619E+03 1.31117E+05-1.22600E-08-1.18706E-08
 -1       628 2.61375E+05 5.90980E+04 1.04303E+03 1.27718E+05-1.35897E-08 1.66601E-08
 -1       629 2.58297E+05 6.21547E+04 5.10511E+02 1.31357E+05-4.59113E-09 2.32230E-08
 -1       630 2.61389E+05 5.89848E+04 2.36930E+02 1.27755E+05 4.61250E-09 2.81162E-08
 -1       631 2.58230E+05 6.21288E+04 1.27654E+02 1.31359E+05 5.89534E-09 2.45890E-08
 -1       632 2.61386E+05 5.89887E+04 8.42719E+01 1.27751E+05 1.24492E-08-5.56861E-09
 -1       633 2.58222E+05 6.21305E+04 9.42966E+01 1.31355E+05 2.69124E-08-5.87988E-09
 -1       634 2.61381E+05 5.89858E+04 1.52755E+02 1.27750E+05 6.63670E-09-1.49134E-08
 -1       635 2.58236E+05 6.21288E+04 3.09327E+02 1.31361E+05-1.09111E-10-3.70619E-10
 -1       636 2.61372E+05 5.89800E+04 6.24803E+02 1.27750E+05 4.05771E-09 3.52748E-09
 -1       637 2.58371E+05 6.22259E+04 1.37387E+03 1.31360E+05 5.36261E-09 3.65753E-09
 -1       638 2.61324E+05 5.92834E+04 2.82280E+03 1.27613E+05 4.09227E-09 1.83841E-08
 -1       639 2.59854E+05 6.42882E+04 6.67890E+03 1.30924E+05 6.61498E-09 1.06809E-08
 -1       640 2.61118E+05 6.54418E+04 1.38599E+04 1.25018E+05 1.76578E-09-1.37229E-08
 -1       656 6.66326E+04-1.70544E+06-1.60847E+05-2.55435E+03-2.11003E-10-1.93622E-08
 -1       657-8.81506E+04-1.77812E+06-1.33255E+05 5.15431E+03 2.91038E-11-1.39095E-09
 -1       658 2.12416E+04-1.72608E+06-8.20723E+04-4.64049E+03 2.06455E-10-1.28173E-08
 -1       659-9.53314E+04-1.78153E+06-1.42692E+05 6.88990E+03-2.06273E-09-1.76521E-09
 -1       660 7.37974E+04-1.70204E+06-1.77071E+05-4.28991E+03-2.05910E-09 9.41472E-09
 -1       661 1.58090E+05 1.65376E+04 1.66836E+04 6.18045E+04-3.22507E-09-5.19321E-10
 -1       662 1.67531E+05 2.88837E+04 1.12436E+04 5.80510E+04-2.47474E-09-1.60901E-09
 -1       663 1.61367E+05 2.18899E+04 3.93228E+03 6.08534E+04-1.69814E-09 1.70621E-09
 -1       664 1.63732E+05 2.26246E+04 2.35234E+03 5.92129E+04 4.32397E-09-1.37202E-08
 -1       665 1.61864E+05 2.26209E+04 9.27983E+02 6.07083E+04 1.13465E-09-1.66959E-08
 -1       666 1.63143E+05 2.17888E+04 5.43226E+02 5.94022E+04 8.67587E-09-5.15938E-09
 -1       667 1.61951E+05 2.27040E+04 2.88760E+02 6.06719E+04-2.76827E-10 4.82435E-09
 -1       668 1.63047E+05 2.17291E+04 2.94741E+02 5.94551E+04-5.45924E-09 2.51157E-09
 -1       669 1.61959E+05 2.26789E+04 3.99461E+02 6.06556E+04-5.05005E-09 1.19337E-08
 -1       670 1.63144E+05 2.19461E+04 8.70225E+02 5.94579E+04-9.28653E-09-1.10242E-08
 -1       671 1.61854E+05 2.24916E+04 1.54528E+03 6.06670E+04-4.86025E-10-1.70698E-08
 -1       672 1.64045E+05 2.34494E+04 3.95368E+03 5.92396E+04 6.56816E-09 1.97674E-08
 -1       673 1.61063E+05 2.12136E+04 6.62577E+03 6.08594E+04 1.71769E-09 2.09034E-08
 -1       674 1.70351E+05 3.40944E+04 1.89483E+04 5.73869E+04-2.67960E-09-8.16817E-09
 -1       675 1.55589E+05 1.21447E+04 2.81260E+04 6.24079E+04-2.30557E-09-8.33097E-09
 -1       676 2.41153E+01-2.96013E+05-1.11364E+03-1.37337E+02 2.03906E-09-5.61525E-09
 -1       677-2.94585E+02-2.96283E+05-2.03815E+03 2.74452E+02 1.14555E-08-2.22702E-08
 -1       678 1.97582E+02-2.95821E+05-3.60294E+03-1.37026E+02 1.35810E-09-5.38036E-09
 -1       679-3.60300E+03-2.98458E+05-8.55909E+03 2.73266E+02 6.80109E-09-3.90265E-09
 -1       680 2.15120E+03-2.93839E+05-1.37943E+04-1.34637E+02-6.48470E-10 2.89589E-08
 -1       771-3.06376E+06-7.47196E+05-1.65437E+05-1.46630E+06-3.30037E-08-2.99769E-08
 -1       772-2.98664E+06-8.35951E+05-8.52894E+04-1.56891E+06-2.35887E-08 1.10231E-08
 -1       773-3.09519E+06-7.22683E+05-4.34884E+04-1.48079E+06-1.42027E-08 1.10886E-08
 -1       774-2.97715E+06-8.17495E+05-1.94001E+04-1.59465E+06 3.41679E-08-1.49157E-09
 -1       775-3.11161E+06-7.11156E+05-1.45182E+04-1.48783E+06-4.88944E-09 3.15049E-09
 -1       776-2.98948E+06-8.14471E+05-5.42812E+03-1.61413E+06-1.38680E-08 8.07631E-09
 -1       777-3.12587E+06-7.00867E+05-6.41707E+03-1.49404E+06 5.44242E-09 5.22414E-09
 -1       778-3.00235E+06-8.11656E+05-1.81388E+03-1.63086E+06 1.34896E-08 7.11225E-09
 -1       779-3.13812E+06-6.91876E+05-3.20759E+03-1.49934E+06-1.44209E-08-5.06407E-09
 -1       780-3.01368E+06-8.08970E+05-5.31955E+02-1.64449E+06-1.55851E-08 2.51021E-09
 -1       781-3.14787E+06-6.84628E+05-1.24660E+03-1.50349E+06-3.20870E-08 2.67755E-09
 -1       782-3.02242E+06-8.06689E+05 4.48406E+02-1.65455E+06-4.41432E-08-6.02176E-09
 -1       783-3.15473E+06-6.79592E+05 6.97549E+02-1.50640E+06-6.20639E-09-1.03200E-08
 -1       784-3.02726E+06-8.04410E+05 2.89450E+03-1.66077E+06-1.80480E-08 2.86491E-09
 -1       785-3.15879E+06-6.76589E+05 5.10938E+03-1.50824E+06-3.88391E-08 7.77982E-09
 -1       786 1.24546E+05-9.80443E+03 2.26835E+04-3.24602E+02 1.13024E-09-3.03953E-09
 -1       787 1.34384E+05 1.13513E+04 1.60476E+04-1.35330E+02 7.19478E-09-5.81440E-09
 -1       788 1.28339E+05-1.53638E+03 5.86871E+03-2.89075E+02 3.71716E-09 7.39988E-09
 -1       789 1.29965E+05 1.77832E+03 3.68416E+03-1.89745E+02 1.42249E-09-3.59762E-09
 -1       790 1.28966E+05-2.39207E+02 1.49165E+03-2.70205E+02-4.65209E-09 9.76053E-09
 -1       791 1.29233E+05 2.76763E+02 8.61519E+02-2.21972E+02-8.59011E-09 3.96550E-08
 -1       792 1.29072E+05-3.59445E+01 3.65038E+02-2.56850E+02-4.04881E-09 1.15869E-08
 -1       793 1.29106E+05 3.79586E+01 1.81892E+02-2.47023E+02 1.17255E-09-9.65190E-09
 -1       794 1.29093E+05-5.53608E-01 4.70965E+01-2.45154E+02 4.70225E-09 9.45656E-09
 -1       795 1.29069E+05-2.77346E+01-5.85341E+01-2.71362E+02-4.54676E-09 2.46446E-08
 -1       796 1.29109E+05 2.97121E+01-1.64280E+02-2.32511E+02 2.95196E-09 3.96300E-09
 -1       797 1.28973E+05-2.21809E+02-4.50698E+02-3.00357E+02 4.56266E-09-2.86772E-09
 -1       798 1.29189E+05 1.93375E+02-7.31842E+02-2.16159E+02 2.54181E-09 2.99934E-09
 -1       799 1.28418E+05-1.42536E+03-2.01334E+03-3.40848E+02 6.39903E-09 1.00167E-08
 -1       800 1.29665E+05 1.23228E+03-2.84925E+03-1.92021E+02 3.29244E-10 1.87973E-08
 -1       801-1.70424E+05-9.98191E+06-1.39081E+06 1.41142E+06 8.99308E-08-5.49771E-08
 -1       802 7.35787E+05 5.92438E+06 2.17523E+06-1.74194E+06 2.58624E-07-3.68027E-08
 -1       803-5.35144E+05-1.42364E+07-1.88526E+06 8.95929E+05 7.79692E-08 1.91540E-08
 -1       804 2.86236E+05 2.37668E+06 1.53260E+06 6.75715E+05-1.20828E-07-9.85501E-08
 -1       805 1.88964E+05-6.44834E+06-2.85305E+05-1.00058E+06-5.04078E-08-5.97229E-08
 -1       806-3.09013E+05-5.97648E+04-2.28593E+04-1.22433E+05 2.51748E-09 6.04905E-09
 -1       807-3.10813E+05-5.60318E+04-1.12306E+04-1.27979E+05 1.59298E-08-2.42466E-08
 -1       808-3.09640E+05-5.15266E+04-4.76436E+03-1.26328E+05-2.68119E-09-9.04231E-09
 -1       809-3.08452E+05-5.28761E+04-2.32965E+03-1.28254E+05-3.77281E-09-1.90742E-08
 -1       810-3.09735E+05-5.12398E+04-1.06781E+03-1.26500E+05 7.84803E-09 2.56773E-09
 -1       811-3.08269E+05-5.27493E+04-5.31037E+02-1.28219E+05 5.00177E-09-8.83711E-09
 -1       812-3.09749E+05-5.12645E+04-2.68646E+02-1.26500E+05-9.02128E-09-2.66891E-09
 -1       813-3.08244E+05-5.27514E+04-1.74701E+02-1.28200E+05-8.10360E-09 1.69930E-08
 -1       814-3.09742E+05-5.12742E+04-1.73312E+02-1.26496E+05 2.62753E-09 2.86109E-08
 -1       815-3.08248E+05-5.27537E+04-2.79384E+02-1.28192E+05-3.97449E-10 2.72951E-08
 -1       816-3.09721E+05-5.12734E+04-5.29626E+02-1.26492E+05 2.02272E-09 5.24824E-09
 -1       817-3.08338E+05-5.28042E+04-1.13667E+03-1.28181E+05-1.75150E-08 2.61207E-09
 -1       818-3.09652E+05-5.14339E+04-2.31843E+03-1.26416E+05-1.80717E-09 5.67979E-10
 -1       819-3.09607E+05-5.42047E+04-5.45506E+03-1.27880E+05 2.01635E-09-3.29351E-09
 -1       820-3.09214E+05-5.55549E+04-1.11031E+04-1.24656E+05-1.20235E-09-1.92540E-09
 -1       821-3.80413E+05 2.09618E+04-4.88428E+04 2.21546E+03 1.44026E-08 1.28384E-08
 -1       822-4.00011E+05-2.42858E+04-3.42883E+04-4.75060E+03 4.57209E-09-2.00907E-09
 -1       823-3.87822E+05 3.30706E+03-1.26115E+04 3.64319E+03-1.29166E-08 9.13678E-09
 -1       824-3.91035E+05-3.81258E+03-7.88822E+03-5.77666E+03 1.28680E-09-8.29061E-09
 -1       825-3.89398E+05 5.14457E+02-3.30961E+03 3.24166E+03 2.16406E-08 1.69662E-08
 -1       826-3.88482E+05-5.65780E+02-1.72560E+03-3.37930E+03 2.46404E-08 1.95738E-08
 -1       827-3.90347E+05 4.12772E+01-1.21838E+03 1.24567E+03 1.26675E-08-2.29733E-09
 -1       828-3.87692E+05-1.24655E+02-5.44725E+02 1.10198E+03-1.20610E-09-2.66756E-08
 -1       829-3.90173E+05 6.14822E+01-1.20348E+03-1.23965E+03 1.91537E-09-7.09863E-09
 -1       830-3.88856E+05-6.21792E+02-1.86564E+03 5.17454E+03 3.22233E-09 1.41772E-08
 -1       831-3.89208E+05 5.58397E+02-3.38251E+03-2.82690E+03-4.61326E-09 5.02541E-09
 -1       832-3.91110E+05-3.97323E+03-8.17533E+03 6.57004E+03-4.01870E-09 1.48880E-08
 -1       833-3.87937E+05 3.42435E+03-1.30929E+04-2.63521E+03-2.05354E-09 1.14687E-08
 -1       834-4.00021E+05-2.51506E+04-3.54373E+04 4.47572E+03-4.26746E-09-1.68711E-10
 -1       835-3.80277E+05 2.17006E+04-5.06189E+04-7.32485E+02 6.31312E-09 9.32414E-09
 -1       836-1.40790E+03 3.70373E+05 2.27970E+04-1.64024E+04-7.16318E-09 1.89639E-08
 -1       837 4.85877E+03 3.77515E+05 1.93184E+04-3.35110E+04-7.62748E-09 1.82872E-08
 -1       838-5.58173E+02 3.72369E+05 1.97219E+04-1.63300E+04-6.47060E-09 2.47796E-08
 -1       839 1.24263E+04 3.83150E+05 3.73460E+04-3.35638E+04-7.16909E-09 1.07502E-08
 -1       840-3.84326E+03 3.64677E+05 5.95701E+04-1.63554E+04-6.17729E-09 1.80748E-08
 -1       856-5.16942E+04 8.01575E+03-2.11232E+04-3.97953E+02 4.79065E-09-4.96402E-09
 -1       857-6.03965E+04-9.41826E+03-1.45410E+04 5.63216E+03 2.33291E-09 9.38508E-09
 -1       858-5.51405E+04 1.12413E+03-5.48096E+03-4.21900E+02 1.06752E-10-6.17297E-09
 -1       859-5.64415E+04-1.32251E+03-3.30747E+03 5.66777E+03-4.02980E-09 2.96225E-08
 -1       860-5.56554E+04 1.57431E+02-1.38610E+03-4.33289E+02-4.94566E-10 4.21261E-09
 -1       861-5.58493E+04-1.87938E+02-7.62395E+02 5.68327E+03 2.73820E-09-2.17334E-08
 -1       862-5.57360E+04 2.13185E+01-3.16659E+02-4.37385E+02-1.59009E-09-1.36501E-08
 -1       863-5.57505E+04-2.17526E+01-1.14763E+02 5.68565E+03-4.03381E-09-1.42653E-08
 -1       864-5.57547E+04-4.97311E+00 4.84694E+01-4.35668E+02-2.12819E-09-1.76512E-08
 -1       865-5.56944E+04 6.02231E+01 2.57899E+02 5.67584E+03 2.12034E-09 3.10681E-09
 -1       866-5.57898E+04-6.06648E+01 5.19070E+02-4.27573E+02 2.85809E-10-1.96508E-10
 -1       867-5.54505E+04 5.01001E+02 1.27720E+03 5.65387E+03 4.97971E-09 4.70664E-10
 -1       868-5.59937E+04-4.37765E+02 2.12223E+03-4.13695E+02-4.47466E-09-1.74607E-08
 -1       869-5.38948E+04 3.64348E+03 5.65060E+03 5.61771E+03 5.41689E-10-1.79843E-08
 -1       870-5.73378E+04-3.11775E+03 8.20033E+03-3.91307E+02-5.07782E-09-3.56954E-08
 -1       871-5.52550E+03-2.13448E+04-1.95151E+04 1.30610E+05-4.59659E-09 1.92904E-09
 -1       872-1.98473E+03-2.58827E+04-8.17205E+03 1.69355E+05-1.13869E-08-1.77060E-08
 -1       873 4.05655E+02-2.36880E+04 5.88951E+02 1.30323E+05-5.54701E-09-4.42469E-09
 -1       874 3.30934E+03-2.12750E+04 9.78789E+03 1.69385E+05-1.11249E-08-4.95220E-10
 -1       875 6.85291E+03-2.60198E+04 2.20819E+04 1.30562E+05-4.31828E-09-8.32188E-09
 -1       876 2.94021E+05 4.95417E+04 1.51045E+04 1.17976E+05 7.63339E-09 1.30003E-08
 -1       877 2.95023E+05 5.27200E+04 8.06639E+03 1.22306E+05 1.51813E-08 1.13714E-08
 -1       878 2.95434E+05 4.78685E+04 3.37942E+03 1.19213E+05-3.03771E-09 1.17507E-09
 -1       879 2.92970E+05 5.06709E+04 1.68384E+03 1.22408E+05 5.63659E-10 1.55660E-08
 -1       880 2.95535E+05 4.78512E+04 7.84323E+02 1.19264E+05-1.39266E-09-4.06271E-09
 -1       881 2.92833E+05 5.05833E+04 4.18880E+02 1.22384E+05-3.96813E-09-5.24577E-09
 -1       882 2.95544E+05 4.78645E+04 2.68043E+02 1.19266E+05 7.42830E-10 1.14775E-08
 -1       883 2.92824E+05 5.05787E+04 2.88269E+02 1.22377E+05-1.17785E-08 7.41944E-09
 -1       884 2.95537E+05 4.78617E+04 4.58669E+02 1.19266E+05-2.68210E-09-5.14046E-09
 -1       885 2.92860E+05 5.05850E+04 9.22240E+02 1.22388E+05 4.68341E-09 1.14125E-08
 -1       886 2.95502E+05 4.78348E+04 1.85877E+03 1.19262E+05-2.78437E-09 1.28882E-08
 -1       887 2.93187E+05 5.07992E+04 4.06023E+03 1.22435E+05 1.40869E-09-1.18514E-08
 -1       888 2.95245E+05 4.78800E+04 8.18148E+03 1.19132E+05-5.90475E-09 2.29011E-09
 -1       889 2.98057E+05 5.58646E+04 1.95440E+04 1.22286E+05-7.26288E-10 1.94223E-09
 -1       890 2.91906E+05 5.18467E+04 3.66055E+04 1.16019E+05-2.99178E-09-4.36557E-10
 -1       891-8.96222E+01-1.62880E+05-1.99888E+03 2.71411E+04-2.34877E-10 2.80806E-09
 -1       892-1.75776E+02-1.63408E+05-2.14634E+03 4.12153E+04 1.24624E-09 4.61819E-09
 -1       893 4.36533E+01-1.62945E+05-3.03844E+03 2.71484E+04-2.56432E-09 1.33755E-08
 -1       894-1.51134E+03-1.64556E+05-6.28807E+03 4.10628E+04 3.15140E-10-1.38789E-08
 -1       895-1.20022E+03-1.61635E+05-1.10731E+04 2.72954E+04 3.72893E-11 5.88079E-09
 -1       956-3.77578E+05-5.45636E+03-1.34704E+04 3.08690E+04 8.90759E-09-6.17570E-09
 -1       957-3.80221E+05-1.92448E+03-6.91414E+03 3.70970E+04 1.05001E-09-1.35560E-08
 -1       958-3.78789E+05-2.40807E+02-3.11572E+03 3.07014E+04-5.84714E-09-2.08474E-08
 -1       959-3.78985E+05-1.35954E+02-1.59094E+03 3.72925E+04 2.45245E-09 1.69639E-08
 -1       960-3.78907E+05-4.44750E+01-7.75812E+02 3.06842E+04 5.00859E-09-6.47015E-09
 -1       961-3.78905E+05-6.28617E+01-4.11326E+02 3.73129E+04 9.49763E-09-9.05470E-09
 -1       962-3.78934E+05-4.57362E+01-2.35489E+02 3.06813E+04 3.11320E-09 7.05427E-09
 -1       963-3.78905E+05-5.86984E+01-1.89037E+02 3.73166E+04 6.44150E-09 3.43107E-09
 -1       964-3.78940E+05-4.24089E+01-2.29880E+02 3.06805E+04 2.49656E-09-5.57611E-09
 -1       965-3.78917E+05-5.57654E+01-3.97595E+02 3.73158E+04-7.96939E-09 8.12111E-09
 -1       966-3.78924E+05-3.45879E+01-7.47070E+02 3.06820E+04 1.79625E-09 3.97222E-10
 -1       967-3.79007E+05-1.19414E+02-1.53222E+03 3.73014E+04-3.78077E-09-1.94450E-09
 -1       968-3.78819E+05-2.17326E+02-2.99954E+03 3.06947E+04 1.67074E-09-1.41821E-08
 -1       969-3.80209E+05-1.83636E+03-6.65889E+03 3.71527E+04 5.43332E-09-1.22293E-09
 -1       970-3.77662E+05-5.23640E+03-1.29719E+04 3.08221E+04-2.03545E-09-4.12911E-10
 -1       971-3.45649E+05-1.72830E+03-9.31470E+03 1.53839E+04 9.86074E-09 7.16253E-09
 -1       972-3.47891E+05-1.27233E+03-5.07269E+03 2.12761E+04 8.81346E-09-3.27873E-09
 -1       973-3.46686E+05-6.19973E+01-2.27211E+03 1.52627E+04 4.01360E-09 4.16253E-09
 -1       974-3.46822E+05-8.10177E+01-1.17779E+03 2.14133E+04 7.78982E-10 1.13569E-08
 -1       975-3.46769E+05-1.70938E+01-5.89208E+02 1.52504E+04-3.16277E-09-9.21898E-09
 -1       976-3.46760E+05-3.11429E+01-3.40788E+02 2.14291E+04 4.61114E-09-1.10895E-08
 -1       977-3.46785E+05-1.63425E+01-2.48873E+02 1.52470E+04-2.84581E-09-3.06329E-09
 -1       978-3.46765E+05-2.49099E+01-2.93325E+02 2.14340E+04-6.52415E-09 1.58666E-08
 -1       979-3.46785E+05-7.85404E+00-4.73079E+02 1.52455E+04-4.48068E-09 2.00748E-09
 -1       980-3.46801E+05-2.18432E+01-9.14584E+02 2.14349E+04-3.46984E-09 1.57363E-08
 -1       981-3.46756E+05 1.50093E+01-1.77193E+03 1.52460E+04-5.93445E-11-3.70915E-09
 -1       982-3.47044E+05-1.52767E+02-3.66287E+03 2.14283E+04 5.86431E-09-1.08139E-09
 -1       983-3.46532E+05-9.84493E+01-7.11715E+03 1.52521E+04 3.00679E-09 1.20667E-08
 -1       984-3.50467E+05-3.86984E+03-1.59387E+04 2.13427E+04 5.64523E-09 4.92093E-09
 -1       985-3.43310E+05-5.30633E+03-2.92683E+04 1.53235E+04 1.86446E-10 3.03189E-08
 -3
    1PSTEP                        33          17           1          
  100CL  117 6.63178E-01         409                     0   17           1
 -4  DISP        4    1
 -5  D1          1    2    1    0
 -5  D2          1    2    2    0
 -5  D3          1    2    3    0
 -5  ALL         1    2    0    0    1ALL
 -1         1 2.76542E-03 0.00000E+00 0.00000E+00
 -1         2 1.27706E-03-5.55872E-27 0.00000E+00
 -1         3 3.43672E-04-4.80015E-28 0.00000E+00
 -1         5 1.77461E-04-4.79911E-27 2.48154E-24
 -1         8 2.75538E-03-3.86379E-07 0.00000E+00
 -1         9 2.74830E-03-2.25830E-04 0.00000E+00
 -1        10 3.11636E-04-3.36507E-06 6.61744E-24
 -1        12 1.79324E-04 8.10305E-07 1.24077E-24
 -1        15 2.74405E-03-4.07246E-07 1.03398E-25
 -1        16 2.82832E-03-2.27857E-04 0.00000E+00
 -1        17 2.12062E-04-7.68694E-06 0.00000E+00
 -1        18 1.83323E-04 3.46865E-05 0.00000E+00
 -1        19 1.84914E-04 1.61416E-06 0.00000E+00
 -1        20 1.85053E-04-1.00980E-05 0.00000E+00
 -1        21 1.84157E-04-2.59018E-05 3.30872E-24
 -1        24 3.06104E-05-1.19146E-05 0.00000E+00
 -1        25 1.94209E-04 3.49127E-05 0.00000E+00
 -1        26 1.94890E-04 2.24699E-06 0.00000E+00
 -1        27 1.92673E-04-1.36626E-05 0.00000E+00
 -1        28 1.92362E-04-2.65242E-05 0.00000E+00
 -1        32 0.00000E+00 0.00000E+00 0.00000E+00
 -1        33 2.03848E-04 3.00180E-06 0.00000E+00
 -1        34 2.01726E-04-1.37191E-05 0.00000E+00
 -1        35 1.99791E-04-2.68671E-05 0.00000E+00
 -1        51 2.76474E-03-8.23649E-08 6.61744E-24
 -1        52 2.76350E-03-1.45993E-07 0.00000E+00
 -1        53 2.76182E-03-2.06003E-07 0.00000E+00
 -1        54 2.75983E-03-2.64629E-07-1.65436E-24
 -1        55 2.75764E-03-3.23647E-07-1.65436E-24
 -1        56 2.75622E-03 1.21176E-05 0.00000E+00
 -1        57 2.73683E-03 4.91709E-05 5.29396E-23
 -1        58 2.71016E-03 1.03446E-04 1.05879E-22
 -1        59 2.68001E-03 1.65625E-04 5.29396E-23
 -1        60 2.65107E-03 2.25035E-04 0.00000E+00
 -1        61 2.62784E-03 2.71228E-04 5.29396E-23
 -1        62 2.61340E-03 2.96098E-04 0.00000E+00
 -1        63 2.60964E-03 2.93435E-04 0.00000E+00
 -1        64 2.61616E-03 2.62114E-04 0.00000E+00
 -1        65 2.63162E-03 2.03767E-04-5.29396E-23
 -1        66 2.65333E-03 1.25230E-04-1.05879E-22
 -1        67 2.67836E-03 3.53613E-05 5.29396E-23
 -1        68 2.70345E-03-5.47471E-05 1.05879E-22
 -1        69 2.72539E-03-1.33975E-04 0.00000E+00
 -1        70 2.74120E-03-1.93341E-04 0.00000E+00
 -1        86 1.36967E-03-7.00210E-06-5.29396E-23
 -1        87 1.63666E-03-4.45979E-05 0.00000E+00
 -1        88 1.99573E-03-1.09466E-04 5.29396E-23
 -1        89 2.36011E-03-1.76296E-04-1.32349E-23
 -1        90 2.63989E-03-2.17230E-04 5.29396E-23
 -1       121 3.42773E-04-5.43020E-07 1.32349E-23
 -1       122 3.40078E-04-1.08914E-06 0.00000E+00
 -1       123 3.35597E-04-1.64142E-06-1.32349E-23
 -1       124 3.29347E-04-2.20292E-06 6.61744E-24
 -1       125 3.21349E-04-2.77630E-06 0.00000E+00
 -1       191 1.77512E-04 1.35116E-07 1.65436E-24
 -1       192 1.77668E-04 2.70220E-07-4.13590E-25
 -1       193 1.77926E-04 4.05303E-07-2.48154E-24
 -1       194 1.78289E-04 5.40354E-07 1.24077E-24
 -1       195 1.78754E-04 6.75359E-07-3.30872E-24
 -1       251 2.75509E-03 1.42453E-06 0.00000E+00
 -1       252 2.75479E-03 2.97952E-06-3.30872E-24
 -1       253 2.75449E-03 3.20860E-06 0.00000E+00
 -1       254 2.75419E-03 1.05796E-06-3.30872E-24
 -1       255 2.75388E-03-4.17319E-06 6.61744E-24
 -1       256 2.75354E-03-1.31480E-05-3.30872E-24
 -1       257 2.75316E-03-2.59746E-05 0.00000E+00
 -1       258 2.75273E-03-4.27141E-05 0.00000E+00
 -1       259 2.75224E-03-6.28481E-05-6.61744E-24
 -1       260 2.75169E-03-8.58162E-05 0.00000E+00
 -1       261 2.75110E-03-1.10638E-04 0.00000E+00
 -1       262 2.75049E-03-1.36311E-04 0.00000E+00
 -1       263 2.74989E-03-1.61706E-04 0.00000E+00
 -1       264 2.74931E-03-1.85697E-04 0.00000E+00
 -1       265 2.74879E-03-2.07368E-04 0.00000E+00
 -1       266 2.75349E-03-3.95189E-07-1.65436E-24
 -1       267 2.75160E-03-3.98017E-07 0.00000E+00
 -1       268 2.74971E-03-4.01223E-07-4.13590E-25
 -1       269 2.74783E-03-4.03308E-07 0.00000E+00
 -1       270 2.74594E-03-4.05366E-07 2.06795E-25
 -1       271 2.75472E-03-2.91662E-07 0.00000E+00
 -1       272 2.75517E-03-3.23837E-06-6.61744E-24
 -1       273 2.75669E-03-9.03530E-06-1.32349E-23
 -1       274 2.75917E-03-1.74764E-05 0.00000E+00
 -1       275 2.76253E-03-2.83331E-05 1.32349E-23
 -1       276 2.76668E-03-4.13603E-05 0.00000E+00
 -1       277 2.77152E-03-5.62954E-05 0.00000E+00
 -1       278 2.77694E-03-7.28619E-05 0.00000E+00
 -1       279 2.78284E-03-9.07705E-05-1.32349E-23
 -1       280 2.78911E-03-1.09722E-04-6.61744E-24
 -1       281 2.79565E-03-1.29408E-04 0.00000E+00
 -1       282 2.80233E-03-1.49518E-04 0.00000E+00
 -1       283 2.80905E-03-1.69733E-04 0.00000E+00
 -1       284 2.81569E-03-1.89738E-04 6.61744E-24
 -1       285 2.82215E-03-2.09216E-04-1.32349E-23
 -1       301 2.76282E-03-2.26207E-04-6.61744E-24
 -1       302 2.77559E-03-2.26532E-04-6.61744E-24
 -1       303 2.78756E-03-2.26845E-04-1.32349E-23
 -1       304 2.79969E-03-2.27158E-04 6.61744E-24
 -1       305 2.81296E-03-2.27486E-04 0.00000E+00
 -1       306 2.78692E-03-3.83894E-04-1.05879E-22
 -1       307 2.85070E-03-8.02185E-04-5.29396E-23
 -1       308 2.89668E-03-1.41118E-03 0.00000E+00
 -1       309 2.91997E-03-2.11373E-03 5.29396E-23
 -1       310 2.95133E-03-2.78335E-03-1.05879E-22
 -1       311 3.01113E-03-3.29646E-03 0.00000E+00
 -1       312 3.06829E-03-3.57259E-03 2.11758E-22
 -1       313 3.06072E-03-3.57505E-03 5.29396E-23
 -1       314 2.91387E-03-3.31709E-03-1.05879E-22
 -1       315 2.58731E-03-2.86463E-03 0.00000E+00
 -1       316 2.10072E-03-2.29483E-03 0.00000E+00
 -1       317 1.52161E-03-1.67684E-03 0.00000E+00
 -1       318 9.65647E-04-1.07063E-03 0.00000E+00
 -1       319 5.41665E-04-5.40935E-04 0.00000E+00
 -1       320 2.93332E-04-1.62358E-04-1.05879E-22
 -1       336 3.00017E-04-4.01632E-06 1.32349E-23
 -1       337 2.86315E-04-4.69341E-06 0.00000E+00
 -1       338 2.70591E-04-5.39860E-06 0.00000E+00
 -1       339 2.52919E-04-6.13277E-06 0.00000E+00
 -1       340 2.33379E-04-6.90041E-06 1.32349E-23
 -1       406 1.79997E-04 9.45173E-07-2.48154E-24
 -1       407 1.80773E-04 1.07993E-06-4.13590E-25
 -1       408 1.81654E-04 1.21451E-06 0.00000E+00
 -1       409 1.82637E-04 1.34876E-06-6.20385E-25
 -1       410 1.83725E-04 1.48239E-06-2.48154E-24
 -1       521 2.86749E-03-3.95292E-04 1.05879E-22
 -1       522 2.92935E-03-8.34632E-04 0.00000E+00
 -1       523 2.96848E-03-1.47279E-03 0.00000E+00
 -1       524 2.98196E-03-2.20559E-03 0.00000E+00
 -1       525 3.00496E-03-2.90338E-03 0.00000E+00
 -1       526 3.06110E-03-3.43966E-03 0.00000E+00
 -1       527 3.11788E-03-3.72674E-03-2.11758E-22
 -1       528 3.10779E-03-3.72704E-03 0.00000E+00
 -1       529 2.94795E-03-3.45393E-03-2.11758E-22
 -1       530 2.59557E-03-2.98184E-03-5.29396E-23
 -1       531 2.07130E-03-2.39192E-03 0.00000E+00
 -1       532 1.44947E-03-1.75593E-03 0.00000E+00
 -1       533 8.51673E-04-1.13100E-03 0.00000E+00
 -1       534 3.92357E-04-5.79443E-04 0.00000E+00
 -1       535 1.21717E-04-1.80448E-04-2.11758E-22
 -1       536 2.11303E-04 2.73590E-05 0.00000E+00
 -1       537 2.09373E-04 8.80064E-05 1.65436E-24
 -1       538 2.06390E-04 1.64958E-04 0.00000E+00
 -1       539 2.02871E-04 2.48833E-04 0.00000E+00
 -1       540 1.99704E-04 3.28089E-04 3.30872E-24
 -1       541 1.97646E-04 3.91206E-04-1.65436E-24
 -1       542 1.96697E-04 4.31409E-04 0.00000E+00
 -1       543 1.96471E-04 4.42075E-04 0.00000E+00
 -1       544 1.96147E-04 4.23979E-04 0.00000E+00
 -1       545 1.94969E-04 3.78117E-04-1.65436E-24
 -1       546 1.92770E-04 3.12640E-04-3.30872E-24
 -1       547 1.89793E-04 2.35821E-04 0.00000E+00
 -1       548 1.86844E-04 1.59375E-04 0.00000E+00
 -1       549 1.84716E-04 9.50213E-05 1.65436E-24
 -1       550 1.83611E-04 5.08148E-05-1.65436E-24
 -1       551 1.86779E-04-8.25586E-06 0.00000E+00
 -1       552 1.58245E-04-8.90572E-06 0.00000E+00
 -1       553 1.27402E-04-9.61821E-06 0.00000E+00
 -1       554 9.52094E-05-1.03722E-05-6.61744E-24
 -1       555 6.26274E-05-1.11400E-05 0.00000E+00
 -1       556 2.04386E-04 1.19400E-05 0.00000E+00
 -1       557 1.98183E-04 2.78596E-05 0.00000E+00
 -1       558 1.93319E-04 4.03608E-05 0.00000E+00
 -1       559 1.89662E-04 4.97547E-05 0.00000E+00
 -1       560 1.87080E-04 5.63529E-05 0.00000E+00
 -1       561 1.85445E-04 6.04696E-05 0.00000E+00
 -1       562 1.84631E-04 6.24203E-05 0.00000E+00
 -1       563 1.84515E-04 6.25212E-05-1.32349E-23
 -1       564 1.84973E-04 6.10898E-05 0.00000E+00
 -1       565 1.85885E-04 5.84439E-05 0.00000E+00
 -1       566 1.87131E-04 5.49020E-05 0.00000E+00
 -1       567 1.88591E-04 5.07830E-05 0.00000E+00
 -1       568 1.90147E-04 4.64060E-05 1.65436E-24
 -1       569 1.91681E-04 4.20899E-05-8.27181E-25
 -1       570 1.93074E-04 3.81540E-05 0.00000E+00
 -1       571 1.83419E-04 3.25397E-05 3.30872E-24
 -1       572 1.83518E-04 3.03270E-05-4.13590E-25
 -1       573 1.83617E-04 2.80641E-05-1.65436E-24
 -1       574 1.83716E-04 2.57675E-05 0.00000E+00
 -1       575 1.83815E-04 2.34538E-05-3.30872E-24
 -1       576 1.83915E-04 2.11395E-05-1.65436E-24
 -1       577 1.84014E-04 1.88411E-05 3.30872E-24
 -1       578 1.84114E-04 1.65755E-05 0.00000E+00
 -1       579 1.84213E-04 1.43590E-05 0.00000E+00
 -1       580 1.84313E-04 1.22084E-05 0.00000E+00
 -1       581 1.84413E-04 1.01404E-05 6.61744E-24
 -1       582 1.84513E-04 8.17135E-06 0.00000E+00
 -1       583 1.84613E-04 6.31802E-06-6.61744E-24
 -1       584 1.84713E-04 4.59677E-06 0.00000E+00
 -1       585 1.84814E-04 3.02386E-06-6.61744E-24
 -1       586 1.85097E-04 3.47263E-05 0.00000E+00
 -1       587 1.86829E-04 3.47656E-05-8.27181E-25
 -1       588 1.88563E-04 3.48045E-05 0.00000E+00
 -1       589 1.90342E-04 3.48427E-05 0.00000E+00
 -1       590 1.92210E-04 3.48797E-05 0.00000E+00
 -1       591 1.84059E-04 3.26346E-05 1.03398E-25
 -1       592 1.84799E-04 3.05634E-05 0.00000E+00
 -1       593 1.85543E-04 2.84788E-05-8.27181E-25
 -1       594 1.86289E-04 2.63852E-05 4.13590E-25
 -1       595 1.87038E-04 2.42874E-05 0.00000E+00
 -1       596 1.87786E-04 2.21900E-05 0.00000E+00
 -1       597 1.88532E-04 2.00975E-05 8.27181E-25
 -1       598 1.89275E-04 1.80146E-05 4.13590E-25
 -1       599 1.90012E-04 1.59458E-05 0.00000E+00
 -1       600 1.90742E-04 1.38957E-05 4.13590E-25
 -1       601 1.91464E-04 1.18690E-05 0.00000E+00
 -1       602 1.92176E-04 9.87009E-06-4.13590E-25
 -1       603 1.92875E-04 7.90372E-06-8.27181E-25
 -1       604 1.93561E-04 5.97453E-06-7.75482E-26
 -1       605 1.94232E-04 4.08704E-06 0.00000E+00
 -1       606 1.84928E-04 4.38441E-07 0.00000E+00
 -1       607 1.84937E-04-6.52009E-07-1.65436E-24
 -1       608 1.84946E-04-1.66219E-06 0.00000E+00
 -1       609 1.84954E-04-2.59776E-06 0.00000E+00
 -1       610 1.84963E-04-3.46440E-06 0.00000E+00
 -1       611 1.84971E-04-4.26788E-06 0.00000E+00
 -1       612 1.84979E-04-5.01395E-06 0.00000E+00
 -1       613 1.84987E-04-5.70840E-06 0.00000E+00
 -1       614 1.84996E-04-6.35699E-06 0.00000E+00
 -1       615 1.85004E-04-6.96549E-06 0.00000E+00
 -1       616 1.85012E-04-7.53968E-06 0.00000E+00
 -1       617 1.85021E-04-8.08534E-06 0.00000E+00
 -1       618 1.85029E-04-8.60822E-06 0.00000E+00
 -1       619 1.85037E-04-9.11411E-06 0.00000E+00
 -1       620 1.85045E-04-9.60878E-06 2.06795E-25
 -1       621 1.86286E-04 1.72015E-06 1.65436E-24
 -1       622 1.87820E-04 1.82646E-06 8.27181E-25
 -1       623 1.89482E-04 1.93255E-06 1.65436E-24
 -1       624 1.91237E-04 2.03831E-06 0.00000E+00
 -1       625 1.93051E-04 2.14379E-06-3.30872E-24
 -1       626 1.85467E-04 4.74689E-07 0.00000E+00
 -1       627 1.85998E-04-6.02314E-07 0.00000E+00
 -1       628 1.86509E-04-1.62468E-06 0.00000E+00
 -1       629 1.87002E-04-2.60055E-06 0.00000E+00
 -1       630 1.87481E-04-3.53810E-06 3.30872E-24
 -1       631 1.87948E-04-4.44550E-06 1.65436E-24
 -1       632 1.88408E-04-5.33093E-06 3.30872E-24
 -1       633 1.88862E-04-6.20259E-06 0.00000E+00
 -1       634 1.89314E-04-7.06866E-06 0.00000E+00
 -1       635 1.89767E-04-7.93732E-06-1.65436E-24
 -1       636 1.90224E-04-8.81677E-06 0.00000E+00
 -1       637 1.90688E-04-9.71519E-06 0.00000E+00
 -1       638 1.91163E-04-1.06408E-05 1.65436E-24
 -1       639 1.91650E-04-1.16017E-05-8.27181E-25
 -1       640 1.92153E-04-1.26062E-05 0.00000E+00
 -1       656 1.85774E-04-1.06773E-05 6.61744E-24
 -1       657 1.86915E-04-1.12803E-05 0.00000E+00
 -1       658 1.88336E-04-1.18818E-05 0.00000E+00
 -1       659 1.89892E-04-1.24830E-05 0.00000E+00
 -1       660 1.91399E-04-1.30860E-05-6.61744E-24
 -1       661 1.85323E-04-1.06326E-05 0.00000E+00
 -1       662 1.85630E-04-1.12595E-05 0.00000E+00
 -1       663 1.85971E-04-1.19734E-05-1.65436E-24
 -1       664 1.86341E-04-1.27679E-05 0.00000E+00
 -1       665 1.86740E-04-1.36369E-05 0.00000E+00
 -1       666 1.87164E-04-1.45746E-05 0.00000E+00
 -1       667 1.87612E-04-1.55752E-05-1.65436E-24
 -1       668 1.88082E-04-1.66330E-05 0.00000E+00
 -1       669 1.88571E-04-1.77427E-05 0.00000E+00
 -1       670 1.89077E-04-1.88988E-05 0.00000E+00
 -1       671 1.89598E-04-2.00960E-05 1.65436E-24
 -1       672 1.90133E-04-2.13293E-05-8.27181E-25
 -1       673 1.90679E-04-2.25936E-05 0.00000E+00
 -1       674 1.91234E-04-2.38840E-05-4.13590E-25
 -1       675 1.91798E-04-2.51952E-05 0.00000E+00
 -1       676 1.85529E-04-2.60061E-05 0.00000E+00
 -1       677 1.86901E-04-2.61104E-05 0.00000E+00
 -1       678 1.88271E-04-2.62147E-05 3.30872E-24
 -1       679 1.89638E-04-2.63186E-05-1.65436E-24
 -1       680 1.91002E-04-2.64225E-05 0.00000E+00
 -1       771 1.86130E-05 1.49242E-05 0.00000E+00
 -1       772 8.52099E-06 3.69658E-05 0.00000E+00
 -1       773 2.43425E-07 5.44416E-05 0.00000E+00
 -1       774-6.34472E-06 6.76106E-05-2.64698E-23
 -1       775-1.13657E-05 7.67422E-05-5.29396E-23
 -1       776-1.49467E-05 8.21227E-05 0.00000E+00
 -1       777-1.72147E-05 8.40487E-05 0.00000E+00
 -1       778-1.82992E-05 8.28304E-05 0.00000E+00
 -1       779-1.83291E-05 7.87871E-05 5.29396E-23
 -1       780-1.74353E-05 7.22489E-05 0.00000E+00
 -1       781-1.57477E-05 6.35533E-05 5.29396E-23
 -1       782-1.33981E-05 5.30465E-05 0.00000E+00
 -1       783-1.05168E-05 4.10792E-05-5.29396E-23
 -1       784-7.23583E-06 2.80085E-05 2.64698E-23
 -1       785-3.68601E-06 1.41946E-05 0.00000E+00
 -1       786 1.94247E-04 3.26424E-05 0.00000E+00
 -1       787 1.94289E-04 3.04228E-05 4.13590E-25
 -1       788 1.94331E-04 2.82454E-05 8.27181E-25
 -1       789 1.94373E-04 2.61019E-05 8.27181E-25
 -1       790 1.94416E-04 2.39875E-05 0.00000E+00
 -1       791 1.94458E-04 2.18974E-05 0.00000E+00
 -1       792 1.94501E-04 1.98292E-05 0.00000E+00
 -1       793 1.94544E-04 1.77808E-05-8.27181E-25
 -1       794 1.94587E-04 1.57518E-05 1.65436E-24
 -1       795 1.94630E-04 1.37420E-05-8.27181E-25
 -1       796 1.94673E-04 1.17532E-05 0.00000E+00
 -1       797 1.94716E-04 9.78719E-06 0.00000E+00
 -1       798 1.94759E-04 7.84809E-06 0.00000E+00
 -1       799 1.94802E-04 5.94012E-06 8.27181E-25
 -1       800 1.94846E-04 4.07060E-06 0.00000E+00
 -1       801 1.48199E-04 3.13912E-05 0.00000E+00
 -1       802 9.09724E-06 1.95777E-05 0.00000E+00
 -1       803-1.09667E-04 9.88754E-06-5.29396E-23
 -1       804-9.71191E-05 6.88484E-06 0.00000E+00
 -1       805-3.20790E-05 2.70064E-06 5.29396E-23
 -1       806 1.94945E-04 3.25734E-05 1.65436E-24
 -1       807 1.95667E-04 3.02605E-05-1.65436E-24
 -1       808 1.96376E-04 2.79791E-05 3.30872E-24
 -1       809 1.97072E-04 2.57334E-05 1.65436E-24
 -1       810 1.97753E-04 2.35274E-05 3.30872E-24
 -1       811 1.98417E-04 2.13651E-05 1.65436E-24
 -1       812 1.99064E-04 1.92503E-05-3.30872E-24
 -1       813 1.99691E-04 1.71870E-05 1.65436E-24
 -1       814 2.00298E-04 1.51791E-05 0.00000E+00
 -1       815 2.00882E-04 1.32305E-05-8.27181E-25
 -1       816 2.01443E-04 1.13452E-05-1.65436E-24
 -1       817 2.01979E-04 9.52687E-06 8.27181E-25
 -1       818 2.02489E-04 7.77952E-06 0.00000E+00
 -1       819 2.02971E-04 6.10703E-06 8.27181E-25
 -1       820 2.03424E-04 4.51319E-06 0.00000E+00
 -1       821 1.94760E-04-1.83353E-07 0.00000E+00
 -1       822 1.94618E-04-3.86729E-06-1.65436E-24
 -1       823 1.94474E-04-8.34700E-06 3.30872E-24
 -1       824 1.94327E-04-1.31596E-05-1.65436E-24
 -1       825 1.94182E-04-1.77521E-05-3.30872E-24
 -1       826 1.94038E-04-2.15724E-05 0.00000E+00
 -1       827 1.93899E-04-2.42797E-05 0.00000E+00
 -1       828 1.93762E-04-2.55400E-05 1.65436E-24
 -1       829 1.93625E-04-2.54148E-05 0.00000E+00
 -1       830 1.93488E-04-2.39737E-05 0.00000E+00
 -1       831 1.93350E-04-2.16462E-05 0.00000E+00
 -1       832 1.93210E-04-1.88670E-05 1.65436E-24
 -1       833 1.93071E-04-1.61944E-05-3.30872E-24
 -1       834 1.92935E-04-1.41861E-05-1.65436E-24
 -1       835 1.92799E-04-1.32188E-05 0.00000E+00
 -1       836 1.96597E-04 2.37217E-06 0.00000E+00
 -1       837 1.98177E-04 2.50048E-06 1.65436E-24
 -1       838 1.99659E-04 2.62874E-06-3.30872E-24
 -1       839 2.01078E-04 2.75630E-06 8.27181E-25
 -1       840 2.02463E-04 2.88369E-06 8.27181E-25
 -1       856 1.92657E-04-1.47415E-05 8.27181E-25
 -1       857 1.92638E-04-1.56848E-05 0.00000E+00
 -1       858 1.92619E-04-1.65134E-05 0.00000E+00
 -1       859 1.92599E-04-1.72486E-05 0.00000E+00
 -1       860 1.92580E-04-1.79115E-05 0.00000E+00
 -1       861 1.92561E-04-1.85234E-05 2.06795E-25
 -1       862 1.92541E-04-1.91057E-05 0.00000E+00
 -1       863 1.92522E-04-1.96796E-05 2.06795E-25
 -1       864 1.92502E-04-2.02665E-05 0.00000E+00
 -1       865 1.92483E-04-2.08877E-05 0.00000E+00
 -1       866 1.92463E-04-2.15645E-05 8.27181E-25
 -1       867 1.92444E-04-2.23182E-05 0.00000E+00
 -1       868 1.92424E-04-2.31699E-05 0.00000E+00
 -1       869 1.92404E-04-2.41408E-05 4.13590E-25
 -1       870 1.92384E-04-2.52519E-05 0.00000E+00
 -1       871 1.94040E-04-1.36676E-05-8.27181E-25
 -1       872 1.95555E-04-1.36760E-05 0.00000E+00
 -1       873 1.97149E-04-1.36851E-05 0.00000E+00
 -1       874 1.98755E-04-1.36949E-05 7.75482E-26
 -1       875 2.00303E-04-1.37053E-05 0.00000E+00
 -1       876 1.93204E-04-1.47269E-05 0.00000E+00
 -1       877 1.93714E-04-1.57245E-05-1.65436E-24
 -1       878 1.94202E-04-1.66632E-05 0.00000E+00
 -1       879 1.94671E-04-1.75505E-05 1.65436E-24
 -1       880 1.95124E-04-1.83937E-05 0.00000E+00
 -1       881 1.95563E-04-1.92003E-05-1.65436E-24
 -1       882 1.95991E-04-1.99776E-05-3.30872E-24
 -1       883 1.96411E-04-2.07329E-05-1.65436E-24
 -1       884 1.96825E-04-2.14736E-05 0.00000E+00
 -1       885 1.97237E-04-2.22069E-05-1.65436E-24
 -1       886 1.97648E-04-2.29403E-05 0.00000E+00
 -1       887 1.98062E-04-2.36810E-05-1.65436E-24
 -1       888 1.98482E-04-2.44365E-05 0.00000E+00
 -1       889 1.98909E-04-2.52141E-05 0.00000E+00
 -1       890 1.99346E-04-2.60212E-05 0.00000E+00
 -1       891 1.93742E-04-2.65818E-05 0.00000E+00
 -1       892 1.95099E-04-2.66396E-05 0.00000E+00
 -1       893 1.96408E-04-2.66972E-05 1.65436E-24
 -1       894 1.97643E-04-2.67547E-05 4.13590E-25
 -1       895 1.98779E-04-2.68118E-05 0.00000E+00
 -1       956 2.03718E-04 1.66531E-06 1.65436E-24
 -1       957 2.03585E-04 4.20463E-07 8.27181E-25
 -1       958 2.03452E-04-7.43510E-07-3.30872E-24
 -1       959 2.03319E-04-1.83798E-06 0.00000E+00
 -1       960 2.03186E-04-2.87436E-06 3.30872E-24
 -1       961 2.03053E-04-3.86410E-06 0.00000E+00
 -1       962 2.02920E-04-4.81865E-06-3.30872E-24
 -1       963 2.02787E-04-5.74951E-06 0.00000E+00
 -1       964 2.02654E-04-6.66815E-06 0.00000E+00
 -1       965 2.02521E-04-7.58602E-06-1.65436E-24
 -1       966 2.02388E-04-8.51463E-06 3.30872E-24
 -1       967 2.02255E-04-9.46545E-06 0.00000E+00
 -1       968 2.02122E-04-1.04499E-05 0.00000E+00
 -1       969 2.01989E-04-1.14795E-05 0.00000E+00
 -1       970 2.01857E-04-1.25656E-05-3.30872E-24
 -1       971 2.01606E-04-1.48725E-05 0.00000E+00
 -1       972 2.01485E-04-1.59314E-05 0.00000E+00
 -1       973 2.01363E-04-1.69061E-05 0.00000E+00
 -1       974 2.01242E-04-1.78075E-05 0.00000E+00
 -1       975 2.01120E-04-1.86465E-05 3.30872E-24
 -1       976 2.00998E-04-1.94339E-05-1.65436E-24
 -1       977 2.00877E-04-2.01806E-05 3.30872E-24
 -1       978 2.00755E-04-2.08974E-05 0.00000E+00
 -1       979 2.00634E-04-2.15954E-05 0.00000E+00
 -1       980 2.00512E-04-2.22853E-05 0.00000E+00
 -1       981 2.00391E-04-2.29782E-05-3.30872E-24
 -1       982 2.00269E-04-2.36849E-05 0.00000E+00
 -1       983 2.00148E-04-2.44162E-05 0.00000E+00
 -1       984 2.00027E-04-2.51832E-05 0.00000E+00
 -1       985 1.99907E-04-2.59966E-05 0.00000E+00
 -3
    1PSTEP                        34          17           1          
  100CL  117 6.63178E-01         409                     0   17           1
 -4  FORC        4    1
 -5  F1          1    2    1    0
 -5  F2          1    2    2    0
 -5  F3          1    2    3    0
 -5  ALL         1    2    0    0    1ALL
 -1         1 3.03641E-02 0.00000E+00 0.00000E+00
 -1         2 0.00000E+00 0.00000E+00 0.00000E+00
 -1         3 0.00000E+00 0.00000E+00 0.00000E+00
 -1         5 0.00000E+00 0.00000E+00 0.00000E+00
 -1         8 1.53165E-03-1.21042E-03 0.00000E+00
 -1         9-8.81723E-02 1.59399E-02 0.00000E+00
 -1        10-2.85691E-07 1.69344E-06 0.00000E+00
 -1        12 0.00000E+00 0.00000E+00 0.00000E+00
 -1        15 0.00000E+00 0.00000E+00 0.00000E+00
 -1        16-1.47619E-02-1.40342E-01 0.00000E+00
 -1        17-1.98777E-03 1.11187E-03 0.00000E+00
 -1        18 1.85733E-05 1.53365E-05 0.00000E+00
 -1        19 5.26248E-06-1.28861E-06 0.00000E+00
 -1        20-8.72753E-06 9.69344E-07 0.00000E+00
 -1        21 0.00000E+00 3.47230E-06 0.00000E+00
 -1        24-5.49782E-03 1.76798E-03 0.00000E+00
 -1        25 1.02166E-05-9.51688E-06 0.00000E+00
 -1        26-5.64378E-06-3.90609E-06 0.00000E+00
 -1        27-2.89552E-06 5.54305E-06 0.00000E+00
 -1        28-2.70703E-06 1.65176E-06 0.00000E+00
 -1        32 0.00000E+00 0.00000E+00 0.00000E+00
 -1        33-3.77463E-07-7.09222E-06 0.00000E+00
 -1        34-2.06627E-06-7.32695E-06 0.00000E+00
 -1        35-1.22871E-05-7.89859E-06 0.00000E+00
 -1        51 0.00000E+00 0.00000E+00 0.00000E+00
 -1        52 0.00000E+00 0.00000E+00 0.00000E+00
 -1        53 0.00000E+00 0.00000E+00 0.00000E+00
 -1        54 0.00000E+00 0.00000E+00 0.00000E+00
 -1        55 0.00000E+00 0.00000E+00 0.00000E+00
 -1        56 0.00000E+00 0.00000E+00 0.00000E+00
 -1        57 0.00000E+00 0.00000E+00 0.00000E+00
 -1        58 0.00000E+00 0.00000E+00 0.00000E+00
 -1        59 0.00000E+00 0.00000E+00 0.00000E+00
 -1        60 0.00000E+00 0.00000E+00 0.00000E+00
 -1        61 0.00000E+00 0.00000E+00 0.00000E+00
 -1        62 0.00000E+00 0.00000E+00 0.00000E+00
 -1        63 0.00000E+00 0.00000E+00 0.00000E+00
 -1        64 0.00000E+00 0.00000E+00 0.00000E+00
 -1        65 0.00000E+00 0.00000E+00 0.00000E+00
 -1        66 0.00000E+00 0.00000E+00 0.00000E+00
 -1        67 0.00000E+00 0.00000E+00 0.00000E+00
 -1        68 0.00000E+00 0.00000E+00 0.00000E+00
 -1        69 0.00000E+00 0.00000E+00 0.00000E+00
 -1        70 0.00000E+00 0.00000E+00 0.00000E+00
 -1        86 0.00000E+00 0.00000E+00 0.00000E+00
 -1        87 0.00000E+00 0.00000E+00 0.00000E+00
 -1        88 0.00000E+00 0.00000E+00 0.00000E+00
 -1        89 0.00000E+00 0.00000E+00 0.00000E+00
 -1        90 0.00000E+00 0.00000E+00 0.00000E+00
 -1       121 0.00000E+00 0.00000E+00 0.00000E+00
 -1       122 0.00000E+00 0.00000E+00 0.00000E+00
 -1       123 0.00000E+00 0.00000E+00 0.00000E+00
 -1       124 0.00000E+00 0.00000E+00 0.00000E+00
 -1       125 0.00000E+00 0.00000E+00 0.00000E+00
 -1       191 0.00000E+00 0.00000E+00 0.00000E+00
 -1       192 0.00000E+00 0.00000E+00 0.00000E+00
 -1       193 0.00000E+00 0.00000E+00 0.00000E+00
 -1       194 0.00000E+00 0.00000E+00 0.00000E+00
 -1       195 0.00000E+00 0.00000E+00 0.00000E+00
 -1       251 0.00000E+00 0.00000E+00 0.00000E+00
 -1       252 0.00000E+00 0.00000E+00 0.00000E+00
 -1       253 0.00000E+00 0.00000E+00 0.00000E+00
 -1       254 0.00000E+00 0.00000E+00 0.00000E+00
 -1       255 0.00000E+00 0.00000E+00 0.00000E+00
 -1       256 0.00000E+00 0.00000E+00 0.00000E+00
 -1       257 0.00000E+00 0.00000E+00 0.00000E+00
 -1       258 0.00000E+00 0.00000E+00 0.00000E+00
 -1       259 0.00000E+00 0.00000E+00 0.00000E+00
 -1       260 0.00000E+00 0.00000E+00 0.00000E+00
 -1       261 0.00000E+00 0.00000E+00 0.00000E+00
 -1       262 0.00000E+00 0.00000E+00 0.00000E+00
 -1       263 0.00000E+00 0.00000E+00 0.00000E+00
 -1       264 0.00000E+00 0.00000E+00 0.00000E+00
 -1       265 0.00000E+00 0.00000E+00 0.00000E+00
 -1       266 0.00000E+00 0.00000E+00 0.00000E+00
 -1       267 0.00000E+00 0.00000E+00 0.00000E+00
 -1       268 0.00000E+00 0.00000E+00 0.00000E+00
 -1       269 0.00000E+00 0.00000E+00 0.00000E+00
 -1       270 0.00000E+00 0.00000E+00 0.00000E+00
 -1       271 0.00000E+00 0.00000E+00 0.00000E+00
 -1       272 0.00000E+00 0.00000E+00 0.00000E+00
 -1       273 0.00000E+00 0.00000E+00 0.00000E+00
 -1       274 0.00000E+00 0.00000E+00 0.00000E+00
 -1       275 0.00000E+00 0.00000E+00 0.00000E+00
 -1       276 0.00000E+00 0.00000E+00 0.00000E+00
 -1       277 0.00000E+00 0.00000E+00 0.00000E+00
 -1       278 0.00000E+00 0.00000E+00 0.00000E+00
 -1       279 0.00000E+00 0.00000E+00 0.00000E+00
 -1       280 0.00000E+00 0.00000E+00 0.00000E+00
 -1       281 0.00000E+00 0.00000E+00 0.00000E+00
 -1       282 0.00000E+00 0.00000E+00 0.00000E+00
 -1       283 0.00000E+00 0.00000E+00 0.00000E+00
 -1       284 0.00000E+00 0.00000E+00 0.00000E+00
 -1       285 0.00000E+00 0.00000E+00 0.00000E+00
 -1       301 0.00000E+00 0.00000E+00 0.00000E+00
 -1       302 0.00000E+00 0.00000E+00 0.00000E+00
 -1       303 0.00000E+00 0.00000E+00 0.00000E+00
 -1       304 0.00000E+00 0.00000E+00 0.00000E+00
 -1       305 0.00000E+00 0.00000E+00 0.00000E+00
 -1       306 0.00000E+00 0.00000E+00 0.00000E+00
 -1       307 0.00000E+00 0.00000E+00 0.00000E+00
 -1       308 0.00000E+00 0.00000E+00 0.00000E+00
 -1       309 0.00000E+00 0.00000E+00 0.00000E+00
 -1       310 0.00000E+00 0.00000E+00 0.00000E+00
 -1       311 0.00000E+00 0.00000E+00 0.00000E+00
 -1       312 0.00000E+00 0.00000E+00 0.00000E+00
 -1       313 0.00000E+00 0.00000E+00 0.00000E+00
 -1       314 0.00000E+00 0.00000E+00 0.00000E+00
 -1       315 0.00000E+00 0.00000E+00 0.00000E+00
 -1       316 0.00000E+00 0.00000E+00 0.00000E+00
 -1       317 0.00000E+00 0.00000E+00 0.00000E+00
 -1       318 0.00000E+00 0.00000E+00 0.00000E+00
 -1       319 0.00000E+00 0.00000E+00 0.00000E+00
 -1       320 0.00000E+00 0.00000E+00 0.00000E+00
 -1       336 0.00000E+00 0.00000E+00 0.00000E+00
 -1       337 0.00000E+00 0.00000E+00 0.00000E+00
 -1       338 0.00000E+00 0.00000E+00 0.00000E+00
 -1       339 0.00000E+00 0.00000E+00 0.00000E+00
 -1       340 0.00000E+00 0.00000E+00 0.00000E+00
 -1       406 0.00000E+00 0.00000E+00 0.00000E+00
 -1       407 0.00000E+00 0.00000E+00 0.00000E+00
 -1       408 0.00000E+00 0.00000E+00 0.00000E+00
 -1       409 0.00000E+00 0.00000E+00 0.00000E+00
 -1       410 0.00000E+00 0.00000E+00 0.00000E+00
 -1       521 0.00000E+00 0.00000E+00 0.00000E+00
 -1       522 0.00000E+00 0.00000E+00 0.00000E+00
 -1       523 0.00000E+00 0.00000E+00 0.00000E+00
 -1       524 0.00000E+00 0.00000E+00 0.00000E+00
 -1       525 0.00000E+00 0.00000E+00 0.00000E+00
 -1       526 0.00000E+00 0.00000E+00 0.00000E+00
 -1       527 0.00000E+00 0.00000E+00 0.00000E+00
 -1       528 0.00000E+00 0.00000E+00 0.00000E+00
 -1       529 0.00000E+00 0.00000E+00 0.00000E+00
 -1       530 0.00000E+00 0.00000E+00 0.00000E+00
 -1       531 0.00000E+00 0.00000E+00 0.00000E+00
 -1       532 0.00000E+00 0.00000E+00 0.00000E+00
 -1       533 0.00000E+00 0.00000E+00 0.00000E+00
 -1       534 0.00000E+00 0.00000E+00 0.00000E+00
 -1       535 0.00000E+00 0.00000E+00 0.00000E+00
 -1       536 0.00000E+00 0.00000E+00 0.00000E+00
 -1       537 0.00000E+00 0.00000E+00 0.00000E+00
 -1       538 0.00000E+00 0.00000E+00 0.00000E+00
 -1       539 0.00000E+00 0.00000E+00 0.00000E+00
 -1       540 0.00000E+00 0.00000E+00 0.00000E+00
 -1       541 0.00000E+00 0.00000E+00 0.00000E+00
 -1       542 0.00000E+00 0.00000E+00 0.00000E+00
 -1       543 0.00000E+00 0.00000E+00 0.00000E+00
 -1       544 0.00000E+00 0.00000E+00 0.00000E+00
 -1       545 0.00000E+00 0.00000E+00 0.00000E+00
 -1       546 0.00000E+00 0.00000E+00 0.00000E+00
 -1       547 0.00000E+00 0.00000E+00 0.00000E+00
 -1       548 0.00000E+00 0.00000E+00 0.00000E+00
 -1       549 0.00000E+00 0.00000E+00 0.00000E+00
 -1       550 0.00000E+00 0.00000E+00 0.00000E+00
 -1       551 0.00000E+00 0.00000E+00 0.00000E+00
 -1       552 0.00000E+00 0.00000E+00 0.00000E+00
 -1       553 0.00000E+00 0.00000E+00 0.00000E+00
 -1       554 0.00000E+00 0.00000E+00 0.00000E+00
 -1       555 0.00000E+00 0.00000E+00 0.00000E+00
 -1       556 0.00000E+00 0.00000E+00 0.00000E+00
 -1       557 0.00000E+00 0.00000E+00 0.00000E+00
 -1       558 0.00000E+00 0.00000E+00 0.00000E+00
 -1       559 0.00000E+00 0.00000E+00 0.00000E+00
 -1       560 0.00000E+00 0.00000E+00 0.00000E+00
 -1       561 0.00000E+00 0.00000E+00 0.00000E+00
 -1       562 0.00000E+00 0.00000E+00 0.00000E+00
 -1       563 0.00000E+00 0.00000E+00 0.00000E+00
 -1       564 0.00000E+00 0.00000E+00 0.00000E+00
 -1       565 0.00000E+00 0.00000E+00 0.00000E+00
 -1       566 0.00000E+00 0.00000E+00 0.00000E+00
 -1       567 0.00000E+00 0.00000E+00 0.00000E+00
 -1       568 0.00000E+00 0.00000E+00 0.00000E+00
 -1       569 0.00000E+00 0.00000E+00 0.00000E+00
 -1       570 0.00000E+00 0.00000E+00 0.00000E+00
 -1       571 0.00000E+00 0.00000E+00 0.00000E+00
 -1       572 0.00000E+00 0.00000E+00 0.00000E+00
 -1       573 0.00000E+00 0.00000E+00 0.00000E+00
 -1       574 0.00000E+00 0.00000E+00 0.00000E+00
 -1       575 0.00000E+00 0.00000E+00 0.00000E+00
 -1       576 0.00000E+00 0.00000E+00 0.00000E+00
 -1       577 0.00000E+00 0.00000E+00 0.00000E+00
 -1       578 0.00000E+00 0.00000E+00 0.00000E+00
 -1       579 0.00000E+00 0.00000E+00 0.00000E+00
 -1       580 0.00000E+00 0.00000E+00 0.00000E+00
 -1       581 0.00000E+00 0.00000E+00 0.00000E+00
 -1       582 0.00000E+00 0.00000E+00 0.00000E+00
 -1       583 0.00000E+00 0.00000E+00 0.00000E+00
 -1       584 0.00000E+00 0.00000E+00 0.00000E+00
 -1       585 0.00000E+00 0.00000E+00 0.00000E+00
 -1       586 0.00000E+00 0.00000E+00 0.00000E+00
 -1       587 0.00000E+00 0.00000E+00 0.00000E+00
 -1       588 0.00000E+00 0.00000E+00 0.00000E+00
 -1       589 0.00000E+00 0.00000E+00 0.00000E+00
 -1       590 0.00000E+00 0.00000E+00 0.00000E+00
 -1       591 0.00000E+00 0.00000E+00 0.00000E+00
 -1       592 0.00000E+00 0.00000E+00 0.00000E+00
 -1       593 0.00000E+00 0.00000E+00 0.00000E+00
 -1       594 0.00000E+00 0.00000E+00 0.00000E+00
 -1       595 0.00000E+00 0.00000E+00 0.00000E+00
 -1       596 0.00000E+00 0.00000E+00 0.00000E+00
 -1       597 0.00000E+00 0.00000E+00 0.00000E+00
 -1       598 0.00000E+00 0.00000E+00 0.00000E+00
 -1       599 0.00000E+00 0.00000E+00 0.00000E+00
 -1       600 0.00000E+00 0.00000E+00 0.00000E+00
 -1       601 0.00000E+00 0.00000E+00 0.00000E+00
 -1       602 0.00000E+00 0.00000E+00 0.00000E+00
 -1       603 0.00000E+00 0.00000E+00 0.00000E+00
 -1       604 0.00000E+00 0.00000E+00 0.00000E+00
 -1       605 0.00000E+00 0.00000E+00 0.00000E+00
 -1       606 0.00000E+00 0.00000E+00 0.00000E+00
 -1       607 0.00000E+00 0.00000E+00 0.00000E+00
 -1       608 0.00000E+00 0.00000E+00 0.00000E+00
 -1       609 0.00000E+00 0.00000E+00 0.00000E+00
 -1       610 0.00000E+00 0.00000E+00 0.00000E+00
 -1       611 0.00000E+00 0.00000E+00 0.00000E+00
 -1       612 0.00000E+00 0.00000E+00 0.00000E+00
 -1       613 0.00000E+00 0.00000E+00 0.00000E+00
 -1       614 0.00000E+00 0.00000E+00 0.00000E+00
 -1       615 0.00000E+00 0.00000E+00 0.00000E+00
 -1       616 0.00000E+00 0.00000E+00 0.00000E+00
 -1       617 0.00000E+00 0.00000E+00 0.00000E+00
 -1       618 0.00000E+00 0.00000E+00 0.00000E+00
 -1       619 0.00000E+00 0.00000E+00 0.00000E+00
 -1       620 0.00000E+00 0.00000E+00 0.00000E+00
 -1       621 0.00000E+00 0.00000E+00 0.00000E+00
 -1       622 0.00000E+00 0.00000E+00 0.00000E+00
 -1       623 0.00000E+00 0.00000E+00 0.00000E+00
 -1       624 0.00000E+00 0.00000E+00 0.00000E+00
 -1       625 0.00000E+00 0.00000E+00 0.00000E+00
 -1       626 0.00000E+00 0.00000E+00 0.00000E+00
 -1       627 0.00000E+00 0.00000E+00 0.00000E+00
 -1       628 0.00000E+00 0.00000E+00 0.00000E+00
 -1       629 0.00000E+00 0.00000E+00 0.00000E+00
 -1       630 0.00000E+00 0.00000E+00 0.00000E+00
 -1       631 0.00000E+00 0.00000E+00 0.00000E+00
 -1       632 0.00000E+00 0.00000E+00 0.00000E+00
 -1       633 0.00000E+00 0.00000E+00 0.00000E+00
 -1       634 0.00000E+00 0.00000E+00 0.00000E+00
 -1       635 0.00000E+00 0.00000E+00 0.00000E+00
 -1       636 0.00000E+00 0.00000E+00 0.00000E+00
 -1       637 0.00000E+00 0.00000E+00 0.00000E+00
 -1       638 0.00000E+00 0.00000E+00 0.00000E+00
 -1       639 0.00000E+00 0.00000E+00 0.00000E+00
 -1       640 0.00000E+00 0.00000E+00 0.00000E+00
 -1       656 0.00000E+00 0.00000E+00 0.00000E+00
 -1       657 0.00000E+00 0.00000E+00 0.00000E+00
 -1       658 0.00000E+00 0.00000E+00 0.00000E+00
 -1       659 0.00000E+00 0.00000E+00 0.00000E+00
 -1       660 0.00000E+00 0.00000E+00 0.00000E+00
 -1       661 0.00000E+00 0.00000E+00 0.00000E+00
 -1       662 0.00000E+00 0.00000E+00 0.00000E+00
 -1       663 0.00000E+00 0.00000E+00 0.00000E+00
 -1       664 0.00000E+00 0.00000E+00 0.00000E+00
 -1       665 0.00000E+00 0.00000E+00 0.00000E+00
 -1       666 0.00000E+00 0.00000E+00 0.00000E+00
 -1       667 0.00000E+00 0.00000E+00 0.00000E+00
 -1       668 0.00000E+00 0.00000E+00 0.00000E+00
 -1       669 0.00000E+00 0.00000E+00 0.00000E+00
 -1       670 0.00000E+00 0.00000E+00 0.00000E+00
 -1       671 0.00000E+00 0.00000E+00 0.00000E+00
 -1       672 0.00000E+00 0.00000E+00 0.00000E+00
 -1       673 0.00000E+00 0.00000E+00 0.00000E+00
 -1       674 0.00000E+00 0.00000E+00 0.00000E+00
 -1       675 0.00000E+00 0.00000E+00 0.00000E+00
 -1       676 0.00000E+00 0.00000E+00 0.00000E+00
 -1       677 0.00000E+00 0.00000E+00 0.00000E+00
 -1       678 0.00000E+00 0.00000E+00 0.00000E+00
 -1       679 0.00000E+00 0.00000E+00 0.00000E+00
 -1       680 0.00000E+00 0.00000E+00 0.00000E+00
 -1       771 0.00000E+00 0.00000E+00 0.00000E+00
 -1       772 0.00000E+00 0.00000E+00 0.00000E+00
 -1       773 0.00000E+00 0.00000E+00 0.00000E+00
 -1       774 0.00000E+00 0.00000E+00 0.00000E+00
 -1       775 0.00000E+00 0.00000E+00 0.00000E+00
 -1       776 0.00000E+00 0.00000E+00 0.00000E+00
 -1       777 0.00000E+00 0.00000E+00 0.00000E+00
 -1       778 0.00000E+00 0.00000E+00 0.00000E+00
 -1       779 0.00000E+00 0.00000E+00 0.00000E+00
 -1       780 0.00000E+00 0.00000E+00 0.00000E+00
 -1       781 0.00000E+00 0.00000E+00 0.00000E+00
 -1       782 0.00000E+00 0.00000E+00 0.00000E+00
 -1       783 0.00000E+00 0.00000E+00 0.00000E+00
 -1       784 0.00000E+00 0.00000E+00 0.00000E+00
 -1       785 0.00000E+00 0.00000E+00 0.00000E+00
 -1       786 0.00000E+00 0.00000E+00 0.00000E+00
 -1       787 0.00000E+00 0.00000E+00 0.00000E+00
 -1       788 0.00000E+00 0.00000E+00 0.00000E+00
 -1       789 0.00000E+00 0.00000E+00 0.00000E+00
 -1       790 0.00000E+00 0.00000E+00 0.00000E+00
 -1       791 0.00000E+00 0.00000E+00 0.00000E+00
 -1       792 0.00000E+00 0.00000E+00 0.00000E+00
 -1       793 0.00000E+00 0.00000E+00 0.00000E+00
 -1       794 0.00000E+00 0.00000E+00 0.00000E+00
 -1       795 0.00000E+00 0.00000E+00 0.00000E+00
 -1       796 0.00000E+00 0.00000E+00 0.00000E+00
 -1       797 0.00000E+00 0.00000E+00 0.00000E+00
 -1       798 0.00000E+00 0.00000E+00 0.00000E+00
 -1       799 0.00000E+00 0.00000E+00 0.00000E+00
 -1       800 0.00000E+00 0.00000E+00 0.00000E+00
 -1       801 0.00000E+00 0.00000E+00 0.00000E+00
 -1       802 0.00000E+00 0.00000E+00 0.00000E+00
 -1       803 0.00000E+00 0.00000E+00 0.00000E+00
 -1       804 0.00000E+00 0.00000E+00 0.00000E+00
 -1       805 0.00000E+00 0.00000E+00 0.00000E+00
 -1       806 0.00000E+00 0.00000E+00 0.00000E+00
 -1       807 0.00000E+00 0.00000E+00 0.00000E+00
 -1       808 0.00000E+00 0.00000E+00 0.00000E+00
 -1       809 0.00000E+00 0.00000E+00 0.00000E+00
 -1       810 0.00000E+00 0.00000E+00 0.00000E+00
 -1       811 0.00000E+00 0.00000E+00 0.00000E+00
 -1       812 0.00000E+00 0.00000E+00 0.00000E+00
 -1       813 0.00000E+00 0.00000E+00 0.00000E+00
 -1       814 0.00000E+00 0.00000E+00 0.00000E+00
 -1       815 0.00000E+00 0.00000E+00 0.00000E+00
 -1       816 0.00000E+00 0.00000E+00 0.00000E+00
 -1       817 0.00000E+00 0.00000E+00 0.00000E+00
 -1       818 0.00000E+00 0.00000E+00 0.00000E+00
 -1       819 0.00000E+00 0.00000E+00 0.00000E+00
 -1       820 0.00000E+00 0.00000E+00 0.00000E+00
 -1       821 0.00000E+00 0.00000E+00 0.00000E+00
 -1       822 0.00000E+00 0.00000E+00 0.00000E+00
 -1       823 0.00000E+00 0.00000E+00 0.00000E+00
 -1       824 0.00000E+00 0.00000E+00 0.00000E+00
 -1       825 0.00000E+00 0.00000E+00 0.00000E+00
 -1       826 0.00000E+00 0.00000E+00 0.00000E+00
 -1       827 0.00000E+00 0.00000E+00 0.00000E+00
 -1       828 0.00000E+00 0.00000E+00 0.00000E+00
 -1       829 0.00000E+00 0.00000E+00 0.00000E+00
 -1       830 0.00000E+00 0.00000E+00 0.00000E+00
 -1       831 0.00000E+00 0.00000E+00 0.00000E+00
 -1       832 0.00000E+00 0.00000E+00 0.00000E+00
 -1       833 0.00000E+00 0.00000E+00 0.00000E+00
 -1       834 0.00000E+00 0.00000E+00 0.00000E+00
 -1       835 0.00000E+00 0.00000E+00 0.00000E+00
 -1       836 0.00000E+00 0.00000E+00 0.00000E+00
 -1       837 0.00000E+00 0.00000E+00 0.00000E+00
 -1       838 0.00000E+00 0.00000E+00 0.00000E+00
 -1       839 0.00000E+00 0.00000E+00 0.00000E+00
 -1       840 0.00000E+00 0.00000E+00 0.00000E+00
 -1       856 0.00000E+00 0.00000E+00 0.00000E+00
 -1       857 0.00000E+00 0.00000E+00 0.00000E+00
 -1       858 0.00000E+00 0.00000E+00 0.00000E+00
 -1       859 0.00000E+00 0.00000E+00 0.00000E+00
 -1       860 0.00000E+00 0.00000E+00 0.00000E+00
 -1       861 0.00000E+00 0.00000E+00 0.00000E+00
 -1       862 0.00000E+00 0.00000E+00 0.00000E+00
 -1       863 0.00000E+00 0.00000E+00 0.00000E+00
 -1       864 0.00000E+00 0.00000E+00 0.00000E+00
 -1       865 0.00000E+00 0.00000E+00 0.00000E+00
 -1       866 0.00000E+00 0.00000E+00 0.00000E+00
 -1       867 0.00000E+00 0.00000E+00 0.00000E+00
 -1       868 0.00000E+00 0.00000E+00 0.00000E+00
 -1       869 0.00000E+00 0.00000E+00 0.00000E+00
 -1       870 0.00000E+00 0.00000E+00 0.00000E+00
 -1       871 0.00000E+00 0.00000E+00 0.00000E+00
 -1       872 0.00000E+00 0.00000E+00 0.00000E+00
 -1       873 0.00000E+00 0.00000E+00 0.00000E+00
 -1       874 0.00000E+00 0.00000E+00 0.00000E+00
 -1       875 0.00000E+00 0.00000E+00 0.00000E+00
 -1       876 0.00000E+00 0.00000E+00 0.00000E+00
 -1       877 0.00000E+00 0.00000E+00 0.00000E+00
 -1       878 0.00000E+00 0.00000E+00 0.00000E+00
 -1       879 0.00000E+00 0.00000E+00 0.00000E+00
 -1       880 0.00000E+00 0.00000E+00 0.00000E+00
 -1       881 0.00000E+00 0.00000E+00 0.00000E+00
 -1       882 0.00000E+00 0.00000E+00 0.00000E+00
 -1       883 0.00000E+00 0.00000E+00 0.00000E+00
 -1       884 0.00000E+00 0.00000E+00 0.00000E+00
 -1       885 0.00000E+00 0.00000E+00 0.00000E+00
 -1       886 0.00000E+00 0.00000E+00 0.00000E+00
 -1       887 0.00000E+00 0.00000E+00 0.00000E+00
 -1       888 0.00000E+00 0.00000E+00 0.00000E+00
 -1       889 0.00000E+00 0.00000E+00 0.00000E+00
 -1       890 0.00000E+00 0.00000E+00 0.00000E+00
 -1       891 0.00000E+00 0.00000E+00 0.00000E+00
 -1       892 0.00000E+00 0.00000E+00 0.00000E+00
 -1       893 0.00000E+00 0.00000E+00 0.00000E+00
 -1       894 0.00000E+00 0.00000E+00 0.00000E+00
 -1       895 0.00000E+00 0.00000E+00 0.00000E+00
 -1       956 0.00000E+00 0.00000E+00 0.00000E+00
 -1       957 0.00000E+00 0.00000E+00 0.00000E+00
 -1       958 0.00000E+00 0.00000E+00 0.00000E+00
 -1       959 0.00000E+00 0.00000E+00 0.00000E+00
 -1       960 0.00000E+00 0.00000E+00 0.00000E+00
 -1       961 0.00000E+00 0.00000E+00 0.00000E+00
 -1       962 0.00000E+00 0.00000E+00 0.00000E+00
 -1       963 0.00000E+00 0.00000E+00 0.00000E+00
 -1       964 0.00000E+00 0.00000E+00 0.00000E+00
 -1       965 0.00000E+00 0.00000E+00 0.00000E+00
 -1       966 0.00000E+00 0.00000E+00 0.00000E+00
 -1       967 0.00000E+00 0.00000E+00 0.00000E+00
 -1       968 0.00000E+00 0.00000E+00 0.00000E+00
 -1       969 0.00000E+00 0.00000E+00 0.00000E+00
 -1       970 0.00000E+00 0.00000E+00 0.00000E+00
 -1       971 0.00000E+00 0.00000E+00 0.00000E+00
 -1       972 0.00000E+00 0.00000E+00 0.00000E+00
 -1       973 0.00000E+00 0.00000E+00 0.00000E+00
 -1       974 0.00000E+00 0.00000E+00 0.00000E+00
 -1       975 0.00000E+00 0.00000E+00 0.00000E+00
 -1       976 0.00000E+00 0.00000E+00 0.00000E+00
 -1       977 0.00000E+00 0.00000E+00 0.00000E+00
 -1       978 0.00000E+00 0.00000E+00 0.00000E+00
 -1       979 0.00000E+00 0.00000E+00 0.00000E+00
 -1       980 0.00000E+00 0.00000E+00 0.00000E+00
 -1       981 0.00000E+00 0.00000E+00 0.00000E+00
 -1       982 0.00000E+00 0.00000E+00 0.00000E+00
 -1       983 0.00000E+00 0.00000E+00 0.00000E+00
 -1       984 0.00000E+00 0.00000E+00 0.00000E+00
 -1       985 0.00000E+00 0.00000E+00 0.00000E+00
 -3
