
 stresses (elem, integ.pnt.,sxx,syy,szz,sxy,sxz,syz) for set ELALL and time  0.1000000E+01

         1   1  3.742106E+06  1.388785E+07  3.570560E+06 -2.290513E+06  1.815390E+05  1.212313E+06
         1   2  3.039358E+06  1.184331E+07  2.487051E+06 -2.062381E+06  6.057817E+05  5.347302E+05
         1   3  2.533606E+06  9.949558E+06  1.890532E+06 -2.209959E+06  6.928678E+05 -1.401403E+05
         1   4  1.274205E+05 -8.656271E+05  1.365975E+05 -2.155427E+06  1.866867E+05  8.889270E+04
         1   5  2.809879E+04 -8.766535E+05  6.999780E+04 -1.967921E+06  6.097525E+05  5.660379E+04
         1   6  1.701417E+04 -8.496737E+05  4.861756E+04 -2.156192E+06  6.925736E+05  2.463950E+04
         1   7 -3.501864E+06 -1.541836E+07 -3.307431E+06 -2.023005E+06  1.914506E+05 -1.008470E+06
         1   8 -2.992471E+06 -1.344195E+07 -2.353499E+06 -1.874974E+06  6.136383E+05 -4.121049E+05
         1   9 -2.505739E+06 -1.153529E+07 -1.797082E+06 -2.102976E+06  6.923038E+05  1.866750E+05
         1  10  3.741685E+06  1.388629E+07  3.567791E+06 -2.290690E+06  6.388213E-11 -1.101271E-08
         1  11  3.038887E+06  1.184291E+07  2.485829E+06 -2.062640E+06 -3.549636E-09  6.495483E-09
         1  12  2.533086E+06  9.949408E+06  1.889596E+06 -2.209882E+06 -1.617073E-08  2.587505E-08
         1  13  1.273809E+05 -8.656450E+05  1.365169E+05 -2.155441E+06  6.497014E-09 -1.304858E-10
         1  14  2.769871E+04 -8.767568E+05  6.929289E+04 -1.967949E+06 -1.242673E-08 -3.000176E-11
         1  15  1.649908E+04 -8.498031E+05  4.771514E+04 -2.156206E+06  1.110459E-08  3.993626E-11
         1  16 -3.502184E+06 -1.541948E+07 -3.309455E+06 -2.022849E+06  2.108677E-09  1.073018E-08
         1  17 -2.992921E+06 -1.344223E+07 -2.354528E+06 -1.874769E+06  1.687422E-09 -6.583411E-09
         1  18 -2.506263E+06 -1.153545E+07 -1.798051E+06 -2.103081E+06  1.205222E-10 -2.528541E-08
         1  19  3.742106E+06  1.388785E+07  3.570560E+06 -2.290513E+06 -1.815390E+05 -1.212313E+06
         1  20  3.039358E+06  1.184331E+07  2.487051E+06 -2.062381E+06 -6.057817E+05 -5.347302E+05
         1  21  2.533606E+06  9.949558E+06  1.890532E+06 -2.209959E+06 -6.928678E+05  1.401403E+05
         1  22  1.274205E+05 -8.656271E+05  1.365975E+05 -2.155427E+06 -1.866867E+05 -8.889270E+04
         1  23  2.809879E+04 -8.766535E+05  6.999780E+04 -1.967921E+06 -6.097525E+05 -5.660379E+04
         1  24  1.701417E+04 -8.496737E+05  4.861756E+04 -2.156192E+06 -6.925736E+05 -2.463950E+04
         1  25 -3.501864E+06 -1.541836E+07 -3.307431E+06 -2.023005E+06 -1.914506E+05  1.008470E+06
         1  26 -2.992471E+06 -1.344195E+07 -2.353499E+06 -1.874974E+06 -6.136383E+05  4.121049E+05
         1  27 -2.505739E+06 -1.153529E+07 -1.797082E+06 -2.102976E+06 -6.923038E+05 -1.866750E+05
         2   1  2.238823E+06  8.666888E+06  1.642077E+06 -2.224079E+06  6.324892E+05 -1.268776E+05
         2   2  1.774866E+06  6.690167E+06  1.264761E+06 -2.012121E+06  5.403210E+05 -2.127836E+05
         2   3  1.341416E+06  4.734694E+06  9.501531E+05 -2.199224E+06  4.140138E+05 -2.992362E+05
         2   4  2.377749E+04 -8.519030E+05  4.303129E+04 -2.161375E+06  6.320284E+05  1.668902E+04
         2   5  2.724035E+04 -8.501812E+05  4.211680E+04 -1.961632E+06  5.387657E+05 -4.549916E+03
         2   6  5.032817E+04 -8.420765E+05  5.943088E+04 -2.161237E+06  4.111490E+05 -2.659284E+04
         2   7 -2.195990E+06 -1.028207E+07 -1.558807E+06 -2.099320E+06  6.315915E+05  1.581479E+05
         2   8 -1.723241E+06 -8.334412E+06 -1.181951E+06 -1.911556E+06  5.372315E+05  2.012636E+05
         2   9 -1.242275E+06 -6.387905E+06 -8.318298E+05 -2.123469E+06  4.083002E+05  2.437042E+05
         2  10  2.238390E+06  8.666763E+06  1.641297E+06 -2.224015E+06 -1.120878E-08  4.799898E-08
         2  11  1.774541E+06  6.690040E+06  1.264130E+06 -2.012029E+06  1.222089E-08 -4.345415E-09
         2  12  1.341209E+06  4.734553E+06  9.496661E+05 -2.199125E+06 -8.064305E-10 -5.648350E-08
         2  13  2.334861E+04 -8.520104E+05  4.228026E+04 -2.161384E+06  1.123561E-08 -1.467256E-10
         2  14  2.692880E+04 -8.502590E+05  4.157157E+04 -1.961631E+06  1.798948E-08  1.979058E-10
         2  15  5.014661E+04 -8.421226E+05  5.911222E+04 -2.161229E+06 -3.671285E-09  9.272004E-11
         2  16 -2.196425E+06 -1.028221E+07 -1.559606E+06 -2.099401E+06 -1.864133E-09 -4.737919E-08
         2  17 -1.723562E+06 -8.334534E+06 -1.182572E+06 -1.911644E+06 -2.138240E-09  3.682737E-09
         2  18 -1.242470E+06 -6.388014E+06 -8.322572E+05 -2.123549E+06 -2.386977E-10  5.582254E-08
         2  19  2.238823E+06  8.666888E+06  1.642077E+06 -2.224079E+06 -6.324892E+05  1.268776E+05
         2  20  1.774866E+06  6.690167E+06  1.264761E+06 -2.012121E+06 -5.403210E+05  2.127836E+05
         2  21  1.341416E+06  4.734694E+06  9.501531E+05 -2.199224E+06 -4.140138E+05  2.992362E+05
         2  22  2.377749E+04 -8.519030E+05  4.303129E+04 -2.161375E+06 -6.320284E+05 -1.668902E+04
         2  23  2.724035E+04 -8.501812E+05  4.211680E+04 -1.961632E+06 -5.387657E+05  4.549916E+03
         2  24  5.032817E+04 -8.420765E+05  5.943088E+04 -2.161237E+06 -4.111490E+05  2.659284E+04
         2  25 -2.195990E+06 -1.028207E+07 -1.558807E+06 -2.099320E+06 -6.315915E+05 -1.581479E+05
         2  26 -1.723241E+06 -8.334412E+06 -1.181951E+06 -1.911556E+06 -5.372315E+05 -2.012636E+05
         2  27 -1.242275E+06 -6.387905E+06 -8.318298E+05 -2.123469E+06 -4.083002E+05 -2.437042E+05
         3   1  1.053145E+06  3.483968E+06  7.550741E+05 -2.204062E+06  3.286897E+05 -3.081781E+05
         3   2  6.431944E+05  1.506640E+06  4.916462E+05 -1.909844E+06  1.864623E+05 -3.696486E+05
         3   3  3.605094E+05 -4.346358E+05  2.977719E+05 -2.016685E+06  4.625827E+04 -4.311669E+05
         3   4  5.407128E+04 -8.338720E+05  7.316776E+04 -2.161808E+06  3.255807E+05 -3.755260E+04
         3   5  1.008262E+05 -8.486181E+05  1.248811E+05 -1.960230E+06  1.832386E+05 -1.030852E+05
         3   6  2.758047E+05 -8.306688E+05  2.487747E+05 -2.159513E+06  4.293754E+04 -1.688303E+05
         3   7 -9.458852E+05 -5.133044E+06 -6.089312E+05 -2.119775E+06  3.224938E+05  2.312683E+05
         3   8 -4.417614E+05 -3.198182E+06 -2.417453E+05 -2.010394E+06  1.799635E+05  1.625073E+05
         3   9  1.912096E+05 -1.226347E+06  2.000476E+05 -2.302246E+06  3.949452E+04  9.334729E+04
         3  10  1.053005E+06  3.483838E+06  7.546954E+05 -2.203981E+06 -4.435714E-09 -9.311115E-09
         3  11  6.431209E+05  1.506485E+06  4.913257E+05 -1.909789E+06 -1.247781E-09 -1.130966E-09
         3  12  3.604572E+05 -4.348360E+05  2.974186E+05 -2.016669E+06 -1.826031E-09  6.334808E-09
         3  13  5.395720E+04 -8.339019E+05  7.296621E+04 -2.161798E+06 -5.632619E-10 -4.918754E-10
         3  14  1.007874E+05 -8.486384E+05  1.247984E+05 -1.960214E+06  1.425102E-09 -2.983105E-10
         3  15  2.757951E+05 -8.306999E+05  2.487177E+05 -2.159507E+06  3.726193E-09  5.846734E-11
         3  16 -9.460118E+05 -5.133130E+06 -6.092291E+05 -2.119835E+06  1.189793E-09  8.819256E-09
         3  17 -4.418034E+05 -3.198219E+06 -2.418564E+05 -2.010418E+06  3.228686E-09  9.977900E-10
         3  18  1.912056E+05 -1.226356E+06  2.000282E+05 -2.302249E+06 -1.550424E-09 -6.025607E-09
         3  19  1.053145E+06  3.483968E+06  7.550741E+05 -2.204062E+06 -3.286897E+05  3.081781E+05
         3  20  6.431944E+05  1.506640E+06  4.916462E+05 -1.909844E+06 -1.864623E+05  3.696486E+05
         3  21  3.605094E+05 -4.346358E+05  2.977719E+05 -2.016685E+06 -4.625827E+04  4.311669E+05
         3  22  5.407128E+04 -8.338720E+05  7.316776E+04 -2.161808E+06 -3.255807E+05  3.755260E+04
         3  23  1.008262E+05 -8.486181E+05  1.248811E+05 -1.960230E+06 -1.832386E+05  1.030852E+05
         3  24  2.758047E+05 -8.306688E+05  2.487747E+05 -2.159513E+06 -4.293754E+04  1.688303E+05
         3  25 -9.458852E+05 -5.133044E+06 -6.089312E+05 -2.119775E+06 -3.224938E+05 -2.312683E+05
         3  26 -4.417614E+05 -3.198182E+06 -2.417453E+05 -2.010394E+06 -1.799635E+05 -1.625073E+05
         3  27  1.912096E+05 -1.226347E+06  2.000476E+05 -2.302246E+06 -3.949452E+04 -9.334729E+04
         4   1 -7.514689E+06 -2.289521E+06 -1.498755E+06 -2.577691E+06 -7.616479E+05 -2.753416E+05
         4   2 -7.260313E+06 -1.124535E+06 -7.689172E+05 -2.716956E+06 -4.928436E+05 -1.565564E+05
         4   3 -7.395768E+06 -1.200431E+06 -5.625825E+05 -2.646689E+06 -2.159716E+05 -5.925643E+04
         4   4 -6.516514E+06 -1.748468E+06 -1.190342E+06 -2.140058E+06 -7.547921E+05 -2.730293E+05
         4   5 -6.261661E+06 -7.047622E+05 -4.881834E+05 -2.402930E+06 -4.918205E+05 -1.562207E+05
         4   6 -6.394737E+06 -8.996696E+05 -3.041940E+05 -2.456488E+06 -2.207882E+05 -6.101644E+04
         4   7 -5.517298E+06 -1.206993E+06 -8.820271E+05 -1.701677E+06 -7.479232E+05 -2.707071E+05
         4   8 -5.262033E+06 -2.848643E+05 -2.075450E+05 -2.088419E+06 -4.907949E+05 -1.558839E+05
         4   9 -5.392726E+06 -5.989263E+05 -4.588269E+04 -2.266046E+06 -2.256131E+05 -6.277811E+04
         4  10 -7.515340E+06 -2.289762E+06 -1.500005E+06 -2.577861E+06  3.013641E-10  1.808960E-10
         4  11 -7.260583E+06 -1.124628E+06 -7.694265E+05 -2.717018E+06 -8.619334E-09  1.120437E-09
         4  12 -7.395820E+06 -1.200448E+06 -5.626780E+05 -2.646700E+06  7.023009E-10 -5.552977E-10
         4  13 -6.517152E+06 -1.748704E+06 -1.191567E+06 -2.140225E+06 -8.356204E-09 -2.068493E-11
         4  14 -6.261930E+06 -7.048545E+05 -4.886897E+05 -2.402993E+06  2.155810E-08 -2.816296E-10
         4  15 -6.394791E+06 -8.996869E+05 -3.042938E+05 -2.456499E+06 -2.711872E-10  5.559124E-10
         4  16 -5.517923E+06 -1.207224E+06 -8.832277E+05 -1.701841E+06  4.018852E-09 -8.938412E-10
         4  17 -5.262300E+06 -2.849561E+05 -2.080483E+05 -2.088481E+06  7.481622E-09 -1.354652E-09
         4  18 -5.392783E+06 -5.989444E+05 -4.598680E+04 -2.266057E+06  6.509102E-09  5.834875E-10
         4  19 -7.514689E+06 -2.289521E+06 -1.498755E+06 -2.577691E+06  7.616479E+05  2.753416E+05
         4  20 -7.260313E+06 -1.124535E+06 -7.689172E+05 -2.716956E+06  4.928436E+05  1.565564E+05
         4  21 -7.395768E+06 -1.200431E+06 -5.625825E+05 -2.646689E+06  2.159716E+05  5.925643E+04
         4  22 -6.516514E+06 -1.748468E+06 -1.190342E+06 -2.140058E+06  7.547921E+05  2.730293E+05
         4  23 -6.261661E+06 -7.047622E+05 -4.881834E+05 -2.402930E+06  4.918205E+05  1.562207E+05
         4  24 -6.394737E+06 -8.996696E+05 -3.041940E+05 -2.456488E+06  2.207882E+05  6.101644E+04
         4  25 -5.517298E+06 -1.206993E+06 -8.820271E+05 -1.701677E+06  7.479232E+05  2.707071E+05
         4  26 -5.262033E+06 -2.848643E+05 -2.075450E+05 -2.088419E+06  4.907949E+05  1.558839E+05
         4  27 -5.392726E+06 -5.989263E+05 -4.588269E+04 -2.266046E+06  2.256131E+05  6.277811E+04
         5   1 -6.944809E+06 -1.292303E+06 -4.174141E+05 -2.575536E+06 -1.734071E+05 -4.974581E+04
         5   2 -6.842191E+06 -1.029696E+06 -2.451114E+05 -2.494108E+06 -1.110394E+05 -2.939639E+04
         5   3 -6.680861E+06 -1.051564E+06 -1.621027E+05 -2.518768E+06 -4.746351E+04 -1.227663E+04
         5   4 -6.345980E+06 -1.046204E+06 -2.499249E+05 -2.392983E+06 -1.737616E+05 -4.988570E+04
         5   5 -6.367213E+06 -8.461221E+05 -1.146543E+05 -2.361340E+06 -1.122712E+05 -2.985466E+04
         5   6 -6.329514E+06 -9.302522E+05 -6.790181E+04 -2.435796E+06 -4.958666E+04 -1.306109E+04
         5   7 -5.746801E+06 -8.000658E+05 -8.246982E+04 -2.210262E+06 -1.741164E+05 -5.002572E+04
         5   8 -5.892016E+06 -6.625332E+05  1.578180E+04 -2.228478E+06 -1.135040E+05 -3.031333E+04
         5   9 -5.978049E+06 -8.089391E+05  2.628808E+04 -2.352783E+06 -5.171114E+04 -1.384595E+04
         5  10 -6.944842E+06 -1.292314E+06 -4.174761E+05 -2.575543E+06 -6.709213E-10  1.568344E-10
         5  11 -6.842205E+06 -1.029700E+06 -2.451365E+05 -2.494111E+06 -4.523553E-09 -9.937894E-10
         5  12 -6.680863E+06 -1.051564E+06 -1.621073E+05 -2.518769E+06 -4.770242E-09 -3.147411E-09
         5  13 -6.346013E+06 -1.046215E+06 -2.499871E+05 -2.392990E+06 -1.245522E-08  1.242062E-10
         5  14 -6.367227E+06 -8.461265E+05 -1.146799E+05 -2.361343E+06 -2.979350E-09 -1.607762E-09
         5  15 -6.329517E+06 -9.302531E+05 -6.790680E+04 -2.435796E+06  7.471942E-09 -4.061556E-09
         5  16 -5.746835E+06 -8.000767E+05 -8.253215E+04 -2.210269E+06  8.123387E-09  3.154282E-10
         5  17 -5.892031E+06 -6.625377E+05  1.575558E+04 -2.228481E+06  1.770807E-08 -3.279903E-09
         5  18 -5.978052E+06 -8.089400E+05  2.628263E+04 -2.352783E+06 -5.750854E-09 -4.721689E-09
         5  19 -6.944809E+06 -1.292303E+06 -4.174141E+05 -2.575536E+06  1.734071E+05  4.974581E+04
         5  20 -6.842191E+06 -1.029696E+06 -2.451114E+05 -2.494108E+06  1.110394E+05  2.939639E+04
         5  21 -6.680861E+06 -1.051564E+06 -1.621027E+05 -2.518768E+06  4.746351E+04  1.227663E+04
         5  22 -6.345980E+06 -1.046204E+06 -2.499249E+05 -2.392983E+06  1.737616E+05  4.988570E+04
         5  23 -6.367213E+06 -8.461221E+05 -1.146543E+05 -2.361340E+06  1.122712E+05  2.985466E+04
         5  24 -6.329514E+06 -9.302522E+05 -6.790181E+04 -2.435796E+06  4.958666E+04  1.306109E+04
         5  25 -5.746801E+06 -8.000658E+05 -8.246982E+04 -2.210262E+06  1.741164E+05  5.002572E+04
         5  26 -5.892016E+06 -6.625332E+05  1.578180E+04 -2.228478E+06  1.135040E+05  3.031333E+04
         5  27 -5.978049E+06 -8.089391E+05  2.628808E+04 -2.352783E+06  5.171114E+04  1.384595E+04
         6   1 -6.245812E+06 -9.242836E+05 -3.314973E+04 -2.409870E+06 -3.665034E+04 -1.262916E+04
         6   2 -6.164028E+06 -7.836163E+05  3.274439E+04 -2.297350E+06 -2.093871E+04 -1.291459E+04
         6   3 -5.958917E+06 -7.980867E+05  8.241371E+04 -2.334741E+06 -5.263968E+03 -1.307696E+04
         6   4 -6.321965E+06 -9.503168E+05 -5.388729E+04 -2.427492E+06 -3.821411E+04 -1.320754E+04
         6   5 -6.382520E+06 -8.650796E+05 -2.668554E+04 -2.355344E+06 -2.246866E+04 -1.348103E+04
         6   6 -6.319769E+06 -9.349939E+05 -1.573190E+04 -2.433116E+06 -6.763606E+03 -1.363277E+04
         6   7 -6.398113E+06 -9.763501E+05 -7.462542E+04 -2.445113E+06 -3.977766E+04 -1.378587E+04
         6   8 -6.600968E+06 -9.465408E+05 -8.611994E+04 -2.413319E+06 -2.399801E+04 -1.404726E+04
         6   9 -6.680495E+06 -1.071894E+06 -1.138895E+05 -2.531440E+06 -8.262280E+03 -1.418821E+04
         6  10 -6.245813E+06 -9.242841E+05 -3.315258E+04 -2.409870E+06 -2.520919E-09 -1.825904E-09
         6  11 -6.164028E+06 -7.836166E+05  3.274324E+04 -2.297350E+06 -1.313032E-09  5.631150E-09
         6  12 -5.958917E+06 -7.980869E+05  8.241334E+04 -2.334741E+06 -5.573835E-09  7.365108E-10
         6  13 -6.321967E+06 -9.503174E+05 -5.389039E+04 -2.427493E+06 -1.453818E-10 -7.105636E-10
         6  14 -6.382521E+06 -8.650800E+05 -2.668684E+04 -2.355344E+06  7.684452E-09  6.272031E-09
         6  15 -6.319769E+06 -9.349942E+05 -1.573234E+04 -2.433117E+06 -6.042909E-09 -6.703729E-10
         6  16 -6.398115E+06 -9.763507E+05 -7.462879E+04 -2.445113E+06 -4.065602E-09  1.214957E-09
         6  17 -6.600968E+06 -9.465411E+05 -8.612141E+04 -2.413319E+06  1.400187E-09  3.042950E-09
         6  18 -6.680495E+06 -1.071894E+06 -1.138900E+05 -2.531440E+06  1.491111E-09 -4.067871E-09
         6  19 -6.245812E+06 -9.242836E+05 -3.314973E+04 -2.409870E+06  3.665034E+04  1.262916E+04
         6  20 -6.164028E+06 -7.836163E+05  3.274439E+04 -2.297350E+06  2.093871E+04  1.291459E+04
         6  21 -5.958917E+06 -7.980867E+05  8.241371E+04 -2.334741E+06  5.263968E+03  1.307696E+04
         6  22 -6.321965E+06 -9.503168E+05 -5.388729E+04 -2.427492E+06  3.821411E+04  1.320754E+04
         6  23 -6.382520E+06 -8.650796E+05 -2.668554E+04 -2.355344E+06  2.246866E+04  1.348103E+04
         6  24 -6.319769E+06 -9.349939E+05 -1.573190E+04 -2.433116E+06  6.763606E+03  1.363277E+04
         6  25 -6.398113E+06 -9.763501E+05 -7.462542E+04 -2.445113E+06  3.977766E+04  1.378587E+04
         6  26 -6.600968E+06 -9.465408E+05 -8.611994E+04 -2.413319E+06  2.399801E+04  1.404726E+04
         6  27 -6.680495E+06 -1.071894E+06 -1.138895E+05 -2.531440E+06  8.262280E+03  1.418821E+04
         7   1 -5.585046E+06 -6.520962E+05  1.899015E+05 -2.224990E+06 -1.689086E+03 -1.538253E+04
         7   2 -5.527656E+06 -5.577535E+05  2.238968E+05 -2.137075E+06  3.420791E+03 -1.899113E+04
         7   3 -5.367918E+06 -5.675564E+05  2.551626E+05 -2.164935E+06  7.992245E+03 -2.111281E+04
         7   4 -6.325446E+06 -9.298988E+05 -1.228304E+04 -2.423294E+06 -3.298212E+03 -1.598042E+04
         7   5 -6.376478E+06 -8.772070E+05 -7.466559E+03 -2.365602E+06  2.237817E+03 -1.943314E+04
         7   6 -6.325255E+06 -9.287606E+05 -5.721340E+03 -2.423701E+06  7.234420E+03 -2.139817E+04
         7   7 -7.065313E+06 -1.207671E+06 -2.145168E+05 -2.621383E+06 -4.905199E+03 -1.657752E+04
         7   8 -7.224601E+06 -1.196621E+06 -2.388950E+05 -2.593845E+06  1.056643E+03 -1.987449E+04
         7   9 -7.281706E+06 -1.289914E+06 -2.666887E+05 -2.682103E+06  6.477893E+03 -2.168304E+04
         7  10 -5.585046E+06 -6.520964E+05  1.899011E+05 -2.224990E+06 -7.382862E-09 -5.312492E-09
         7  11 -5.527656E+06 -5.577539E+05  2.238961E+05 -2.137075E+06 -6.362215E-09 -2.314939E-09
         7  12 -5.367918E+06 -5.675569E+05  2.551616E+05 -2.164935E+06 -5.304426E-09 -2.505185E-09
         7  13 -6.325446E+06 -9.298991E+05 -1.228354E+04 -2.423294E+06 -2.159014E-09 -5.332605E-09
         7  14 -6.376478E+06 -8.772074E+05 -7.467277E+03 -2.365602E+06  5.841227E-09 -5.146991E-09
         7  15 -6.325255E+06 -9.287611E+05 -5.722295E+03 -2.423701E+06 -9.307324E-09 -4.195548E-09
         7  16 -7.065313E+06 -1.207672E+06 -2.145174E+05 -2.621383E+06  1.736258E-10 -5.200390E-09
         7  17 -7.224601E+06 -1.196621E+06 -2.388958E+05 -2.593845E+06  7.594513E-09 -2.646555E-09
         7  18 -7.281706E+06 -1.289914E+06 -2.666897E+05 -2.682103E+06  1.270589E-08 -9.092698E-10
         7  19 -5.585046E+06 -6.520962E+05  1.899015E+05 -2.224990E+06  1.689086E+03  1.538253E+04
         7  20 -5.527656E+06 -5.577535E+05  2.238968E+05 -2.137075E+06 -3.420791E+03  1.899113E+04
         7  21 -5.367918E+06 -5.675564E+05  2.551626E+05 -2.164935E+06 -7.992245E+03  2.111281E+04
         7  22 -6.325446E+06 -9.298988E+05 -1.228304E+04 -2.423294E+06  3.298212E+03  1.598042E+04
         7  23 -6.376478E+06 -8.772070E+05 -7.466559E+03 -2.365602E+06 -2.237817E+03  1.943314E+04
         7  24 -6.325255E+06 -9.287606E+05 -5.721340E+03 -2.423701E+06 -7.234420E+03  2.139817E+04
         7  25 -7.065313E+06 -1.207671E+06 -2.145168E+05 -2.621383E+06  4.905199E+03  1.657752E+04
         7  26 -7.224601E+06 -1.196621E+06 -2.388950E+05 -2.593845E+06 -1.056643E+03  1.987449E+04
         7  27 -7.281706E+06 -1.289914E+06 -2.666887E+05 -2.682103E+06 -6.477893E+03  2.168304E+04
         8   1 -5.155730E+06 -4.681308E+05  3.175192E+05 -2.087830E+06  9.889741E+03 -2.254586E+04
         8   2 -5.136923E+06 -4.318648E+05  3.266197E+05 -2.053644E+06  1.384932E+04 -2.408565E+04
         8   3 -5.075010E+06 -4.362237E+05  3.341179E+05 -2.061654E+06  1.699779E+04 -2.344439E+04
         8   4 -6.338556E+06 -9.144592E+05 -5.427054E+03 -2.407491E+06  8.805933E+03 -2.295467E+04
         8   5 -6.360185E+06 -8.950772E+05 -7.298549E+03 -2.386014E+06  1.339153E+04 -2.426171E+04
         8   6 -6.338841E+06 -9.164591E+05 -1.127683E+04 -2.406738E+06  1.716502E+04 -2.338570E+04
         8   7 -7.520027E+06 -1.360709E+06 -3.285001E+05 -2.726597E+06  7.724422E+03 -2.336262E+04
         8   8 -7.581997E+06 -1.358203E+06 -3.413530E+05 -2.717787E+06  1.293474E+04 -2.443741E+04
         8   9 -7.601126E+06 -1.396601E+06 -3.568179E+05 -2.751183E+06  1.733186E+04 -2.332717E+04
         8  10 -5.155731E+06 -4.681314E+05  3.175181E+05 -2.087830E+06  3.146472E-09  6.885409E-10
         8  11 -5.136923E+06 -4.318655E+05  3.266183E+05 -2.053644E+06  2.313545E-09  5.341593E-09
         8  12 -5.075011E+06 -4.362244E+05  3.341163E+05 -2.061653E+06 -4.762681E-09  3.492822E-09
         8  13 -6.338557E+06 -9.144597E+05 -5.428186E+03 -2.407490E+06  8.593876E-09 -2.974672E-09
         8  14 -6.360185E+06 -8.950778E+05 -7.299988E+03 -2.386014E+06  9.004250E-09  2.880594E-09
         8  15 -6.338841E+06 -9.164597E+05 -1.127841E+04 -2.406738E+06  5.221086E-10  2.284686E-09
         8  16 -7.520027E+06 -1.360709E+06 -3.285012E+05 -2.726597E+06 -3.620412E-09 -6.911342E-12
         8  17 -7.581998E+06 -1.358204E+06 -3.413545E+05 -2.717787E+06 -1.094138E-08  1.549451E-09
         8  18 -7.601126E+06 -1.396601E+06 -3.568195E+05 -2.751183E+06  6.461165E-09  2.034778E-09
         8  19 -5.155730E+06 -4.681308E+05  3.175192E+05 -2.087830E+06 -9.889741E+03  2.254586E+04
         8  20 -5.136923E+06 -4.318648E+05  3.266197E+05 -2.053644E+06 -1.384932E+04  2.408565E+04
         8  21 -5.075010E+06 -4.362237E+05  3.341179E+05 -2.061654E+06 -1.699779E+04  2.344439E+04
         8  22 -6.338556E+06 -9.144592E+05 -5.427054E+03 -2.407491E+06 -8.805933E+03  2.295467E+04
         8  23 -6.360185E+06 -8.950772E+05 -7.298549E+03 -2.386014E+06 -1.339153E+04  2.426171E+04
         8  24 -6.338841E+06 -9.164591E+05 -1.127683E+04 -2.406738E+06 -1.716502E+04  2.338570E+04
         8  25 -7.520027E+06 -1.360709E+06 -3.285001E+05 -2.726597E+06 -7.724422E+03  2.336262E+04
         8  26 -7.581997E+06 -1.358203E+06 -3.413530E+05 -2.717787E+06 -1.293474E+04  2.443741E+04
         8  27 -7.601126E+06 -1.396601E+06 -3.568179E+05 -2.751183E+06 -1.733186E+04  2.332717E+04
         9   1 -5.086576E+06 -4.161226E+05  3.326196E+05 -2.043398E+06  1.942780E+04 -2.256448E+04
         9   2 -5.108421E+06 -4.440564E+05  3.114393E+05 -2.072188E+06  3.134469E+04 -1.763150E+04
         9   3 -5.169718E+06 -4.540799E+05  2.773215E+05 -2.053745E+06  4.241903E+04 -1.050144E+04
         9   4 -6.356343E+06 -8.976099E+05 -1.421277E+04 -2.389079E+06  1.920413E+04 -2.265343E+04
         9   5 -6.337586E+06 -9.133642E+05 -2.485526E+04 -2.410101E+06  3.173493E+04 -1.748754E+04
         9   6 -6.358433E+06 -9.113567E+05 -4.894770E+04 -2.383883E+06  4.342319E+04 -1.012228E+04
         9   7 -7.624548E+06 -1.379004E+06 -3.611920E+05 -2.734116E+06  1.898097E+04 -2.274220E+04
         9   8 -7.565285E+06 -1.382579E+06 -3.612877E+05 -2.747403E+06  3.212426E+04 -1.734393E+04
         9   9 -7.545776E+06 -1.368541E+06 -3.753463E+05 -2.713441E+06  4.442515E+04 -9.743968E+03
         9  10 -5.086577E+06 -4.161233E+05  3.326179E+05 -2.043398E+06 -8.723739E-09  4.803653E-09
         9  11 -5.108422E+06 -4.440570E+05  3.114369E+05 -2.072187E+06 -1.845618E-10  4.806663E-09
         9  12 -5.169720E+06 -4.540805E+05  2.773179E+05 -2.053745E+06 -1.263831E-08  1.270185E-09
         9  13 -6.356344E+06 -8.976105E+05 -1.421442E+04 -2.389078E+06  1.200166E-08  3.842529E-09
         9  14 -6.337587E+06 -9.133648E+05 -2.485773E+04 -2.410100E+06 -9.212923E-09  6.625088E-09
         9  15 -6.358436E+06 -9.113573E+05 -4.895146E+04 -2.383882E+06 -1.638880E-09  4.838545E-09
         9  16 -7.624549E+06 -1.379004E+06 -3.611937E+05 -2.734116E+06  3.139118E-10  4.273643E-09
         9  17 -7.565286E+06 -1.382579E+06 -3.612902E+05 -2.747402E+06  1.404311E-08  5.460944E-09
         9  18 -7.545779E+06 -1.368542E+06 -3.753502E+05 -2.713441E+06 -4.119547E-09  4.579566E-09
         9  19 -5.086576E+06 -4.161226E+05  3.326196E+05 -2.043398E+06 -1.942780E+04  2.256448E+04
         9  20 -5.108421E+06 -4.440564E+05  3.114393E+05 -2.072188E+06 -3.134469E+04  1.763150E+04
         9  21 -5.169718E+06 -4.540799E+05  2.773215E+05 -2.053745E+06 -4.241903E+04  1.050144E+04
         9  22 -6.356343E+06 -8.976099E+05 -1.421277E+04 -2.389079E+06 -1.920413E+04  2.265343E+04
         9  23 -6.337586E+06 -9.133642E+05 -2.485526E+04 -2.410101E+06 -3.173493E+04  1.748754E+04
         9  24 -6.358433E+06 -9.113567E+05 -4.894770E+04 -2.383883E+06 -4.342319E+04  1.012228E+04
         9  25 -7.624548E+06 -1.379004E+06 -3.611920E+05 -2.734116E+06 -1.898097E+04  2.274220E+04
         9  26 -7.565285E+06 -1.382579E+06 -3.612877E+05 -2.747403E+06 -3.212426E+04  1.734393E+04
         9  27 -7.545776E+06 -1.368541E+06 -3.753463E+05 -2.713441E+06 -4.442515E+04  9.743968E+03
        10   1 -5.397008E+06 -5.147542E+05  2.047019E+05 -2.116474E+06  5.100419E+04 -5.099995E+03
        10   2 -5.441942E+06 -5.751457E+05  1.329878E+05 -2.188974E+06  1.045144E+05  1.918176E+04
        10   3 -5.647641E+06 -6.774474E+05 -1.866002E+04 -2.110687E+06  1.574358E+05  4.493068E+04
        10   4 -6.378716E+06 -8.808443E+05 -6.199610E+04 -2.377555E+06  5.171075E+04 -4.831786E+03
        10   5 -6.306162E+06 -9.117085E+05 -1.048204E+05 -2.433122E+06  1.055732E+05  1.958468E+04
        10   6 -6.394536E+06 -9.846650E+05 -2.279371E+05 -2.337870E+06  1.588579E+05  4.547026E+04
        10   7 -7.359491E+06 -1.246888E+06 -3.287814E+05 -2.638264E+06  5.241602E+04 -4.564046E+03
        10   8 -7.169658E+06 -1.248218E+06 -3.426978E+05 -2.676958E+06  1.066303E+05  1.998690E+04
        10   9 -7.140886E+06 -1.291824E+06 -4.372673E+05 -2.564796E+06  1.602780E+05  4.600893E+04
        10  10 -5.397011E+06 -5.147549E+05  2.046969E+05 -2.116473E+06  7.403370E-09  1.264117E-09
        10  11 -5.441954E+06 -5.751491E+05  1.329663E+05 -2.188975E+06 -6.931215E-09 -3.666821E-09
        10  12 -5.647669E+06 -6.774563E+05 -1.871091E+04 -2.110692E+06 -7.320078E-09 -8.405526E-09
        10  13 -6.378719E+06 -8.808451E+05 -6.200122E+04 -2.377554E+06 -1.558936E-08 -3.153912E-10
        10  14 -6.306174E+06 -9.117120E+05 -1.048423E+05 -2.433124E+06 -1.091152E-08 -6.227267E-09
        10  15 -6.394564E+06 -9.846741E+05 -2.279890E+05 -2.337876E+06 -4.400127E-09 -5.545049E-09
        10  16 -7.359494E+06 -1.246888E+06 -3.287867E+05 -2.638264E+06 -9.476514E-09 -7.481556E-11
        10  17 -7.169670E+06 -1.248222E+06 -3.427202E+05 -2.676960E+06 -3.633434E-09 -5.363748E-09
        10  18 -7.140915E+06 -1.291834E+06 -4.373202E+05 -2.564802E+06 -9.906525E-10  1.328024E-09
        10  19 -5.397008E+06 -5.147542E+05  2.047019E+05 -2.116474E+06 -5.100419E+04  5.099995E+03
        10  20 -5.441942E+06 -5.751457E+05  1.329878E+05 -2.188974E+06 -1.045144E+05 -1.918176E+04
        10  21 -5.647641E+06 -6.774474E+05 -1.866002E+04 -2.110687E+06 -1.574358E+05 -4.493068E+04
        10  22 -6.378716E+06 -8.808443E+05 -6.199610E+04 -2.377555E+06 -5.171075E+04  4.831786E+03
        10  23 -6.306162E+06 -9.117085E+05 -1.048204E+05 -2.433122E+06 -1.055732E+05 -1.958468E+04
        10  24 -6.394536E+06 -9.846650E+05 -2.279371E+05 -2.337870E+06 -1.588579E+05 -4.547026E+04
        10  25 -7.359491E+06 -1.246888E+06 -3.287814E+05 -2.638264E+06 -5.241602E+04  4.564046E+03
        10  26 -7.169658E+06 -1.248218E+06 -3.426978E+05 -2.676958E+06 -1.066303E+05 -1.998690E+04
        10  27 -7.140886E+06 -1.291824E+06 -4.372673E+05 -2.564796E+06 -1.602780E+05 -4.600893E+04
        11   1 -5.995180E+06 -7.566409E+05 -1.713306E+05 -2.349182E+06  1.967958E+05  6.396313E+04
        11   2 -5.990890E+06 -6.557964E+05 -3.773343E+05 -2.367042E+06  4.396374E+05  1.636897E+05
        11   3 -6.558918E+06 -1.472047E+06 -1.057486E+06 -1.954070E+06  6.827696E+05  2.625048E+05
        11   4 -6.437016E+06 -8.548182E+05 -2.778872E+05 -2.400201E+06  1.984145E+05  6.461389E+04
        11   5 -6.209252E+06 -7.803510E+05 -4.453117E+05 -2.468145E+06  4.409005E+05  1.641407E+05
        11   6 -6.553891E+06 -1.623130E+06 -1.086677E+06 -2.105142E+06  6.837756E+05  2.626830E+05
        11   7 -6.878653E+06 -9.530005E+05 -3.844544E+05 -2.451202E+06  2.000319E+05  6.526464E+04
        11   8 -6.427562E+06 -9.048814E+05 -5.132936E+05 -2.569209E+06  4.421631E+05  1.645913E+05
        11   9 -6.548810E+06 -1.774093E+06 -1.115853E+06 -2.256202E+06  6.847816E+05  2.628606E+05
        11  10 -5.995223E+06 -7.566559E+05 -1.714120E+05 -2.349192E+06 -7.121505E-09 -3.251536E-09
        11  11 -5.991107E+06 -6.558781E+05 -3.777526E+05 -2.367100E+06 -2.172613E-09  1.734335E-09
        11  12 -6.559442E+06 -1.472249E+06 -1.058503E+06 -1.954215E+06 -8.772001E-10 -1.133358E-09
        11  13 -6.437060E+06 -8.548335E+05 -2.779700E+05 -2.400212E+06 -1.283997E-08  9.387589E-11
        11  14 -6.209470E+06 -7.804331E+05 -4.457326E+05 -2.468203E+06 -9.152663E-09  1.098146E-08
        11  15 -6.554417E+06 -1.623332E+06 -1.087697E+06 -2.105288E+06 -1.514515E-08 -2.508804E-09
        11  16 -6.878698E+06 -9.530160E+05 -3.845387E+05 -2.451213E+06 -1.447095E-08  2.901571E-09
        11  17 -6.427781E+06 -9.049640E+05 -5.137170E+05 -2.569268E+06 -1.751733E-09 -4.159162E-09
        11  18 -6.549337E+06 -1.774295E+06 -1.116877E+06 -2.256348E+06  9.502438E-10 -2.338736E-09
        11  19 -5.995180E+06 -7.566409E+05 -1.713306E+05 -2.349182E+06 -1.967958E+05 -6.396313E+04
        11  20 -5.990890E+06 -6.557964E+05 -3.773343E+05 -2.367042E+06 -4.396374E+05 -1.636897E+05
        11  21 -6.558918E+06 -1.472047E+06 -1.057486E+06 -1.954070E+06 -6.827696E+05 -2.625048E+05
        11  22 -6.437016E+06 -8.548182E+05 -2.778872E+05 -2.400201E+06 -1.984145E+05 -6.461389E+04
        11  23 -6.209252E+06 -7.803510E+05 -4.453117E+05 -2.468145E+06 -4.409005E+05 -1.641407E+05
        11  24 -6.553891E+06 -1.623130E+06 -1.086677E+06 -2.105142E+06 -6.837756E+05 -2.626830E+05
        11  25 -6.878653E+06 -9.530005E+05 -3.844544E+05 -2.451202E+06 -2.000319E+05 -6.526464E+04
        11  26 -6.427562E+06 -9.048814E+05 -5.132936E+05 -2.569209E+06 -4.421631E+05 -1.645913E+05
        11  27 -6.548810E+06 -1.774093E+06 -1.115853E+06 -2.256202E+06 -6.847816E+05 -2.628606E+05
        12   1  7.959244E+04  1.639716E+06  9.906691E+04  1.586903E+03  2.461807E+03 -1.954189E+03
        12   2  7.558679E+04  1.638643E+06  1.031541E+05 -2.914893E+03  2.420530E+03 -1.440004E+04
        12   3  9.195775E+04  1.646270E+06  1.208218E+05  2.824326E+03  2.754078E+03 -2.684563E+04
        12   4  1.463410E+03  1.326529E+06  2.109263E+04  2.269751E+03  2.461877E+03 -1.925674E+03
        12   5 -3.362771E+03  1.322171E+06  2.435567E+04 -2.840097E+03  2.420622E+03 -1.441105E+04
        12   6  1.219982E+04  1.326523E+06  4.123116E+04  2.291389E+03  2.754298E+03 -2.689609E+04
        12   7 -7.667298E+04  1.013431E+06 -5.688901E+04  2.952260E+03  2.461946E+03 -1.897173E+03
        12   8 -8.231985E+04  1.005791E+06 -5.445025E+04 -2.765315E+03  2.420713E+03 -1.442205E+04
        12   9 -6.756579E+04  1.006869E+06 -3.836712E+04  1.758768E+03  2.754519E+03 -2.694653E+04
        12  10  7.959244E+04  1.639716E+06  9.906689E+04  1.586907E+03  4.419985E-09  2.618067E-09
        12  11  7.558673E+04  1.638643E+06  1.031537E+05 -2.914865E+03 -1.705437E-09 -4.372430E-10
        12  12  9.195755E+04  1.646269E+06  1.208204E+05  2.824385E+03 -3.860828E-09 -1.059278E-09
        12  13  1.463402E+03  1.326529E+06  2.109261E+04  2.269755E+03 -1.416058E-08  1.509536E-10
        12  14 -3.362833E+03  1.322171E+06  2.435527E+04 -2.840069E+03 -6.183507E-09 -1.952255E-11
        12  15  1.219961E+04  1.326522E+06  4.122979E+04  2.291449E+03 -6.444653E-09  4.901085E-10
        12  16 -7.667299E+04  1.013431E+06 -5.688903E+04  2.952264E+03 -1.171954E-08 -2.718762E-09
        12  17 -8.231992E+04  1.005790E+06 -5.445065E+04 -2.765287E+03  1.550343E-08  2.886875E-10
        12  18 -6.756600E+04  1.006868E+06 -3.836850E+04  1.758828E+03 -5.673212E-09  8.077423E-10
        12  19  7.959244E+04  1.639716E+06  9.906691E+04  1.586903E+03 -2.461807E+03  1.954189E+03
        12  20  7.558679E+04  1.638643E+06  1.031541E+05 -2.914893E+03 -2.420530E+03  1.440004E+04
        12  21  9.195775E+04  1.646270E+06  1.208218E+05  2.824326E+03 -2.754078E+03  2.684563E+04
        12  22  1.463410E+03  1.326529E+06  2.109263E+04  2.269751E+03 -2.461877E+03  1.925674E+03
        12  23 -3.362771E+03  1.322171E+06  2.435567E+04 -2.840097E+03 -2.420622E+03  1.441105E+04
        12  24  1.219982E+04  1.326523E+06  4.123116E+04  2.291389E+03 -2.754298E+03  2.689609E+04
        12  25 -7.667298E+04  1.013431E+06 -5.688901E+04  2.952260E+03 -2.461946E+03  1.897173E+03
        12  26 -8.231985E+04  1.005791E+06 -5.445025E+04 -2.765315E+03 -2.420713E+03  1.442205E+04
        12  27 -6.756579E+04  1.006869E+06 -3.836712E+04  1.758768E+03 -2.754519E+03  2.694653E+04
        13   1  1.015862E+05  1.749486E+06  1.538594E+05  3.466346E+03  3.106299E+03 -3.517364E+04
        13   2  8.739674E+04  1.741270E+06  1.840977E+05 -9.137238E+03  3.637003E+03 -7.608316E+04
        13   3  1.902603E+05  1.771491E+06  2.709610E+05  1.294466E+04  3.923794E+03 -1.169945E+05
        13   4 -2.301056E+03  1.333118E+06  5.018091E+04  7.594532E+03  3.106352E+03 -3.522405E+04
        13   5 -1.920951E+04  1.313873E+06  7.770001E+04 -9.564938E+03  3.637323E+03 -7.607965E+04
        13   6  8.096819E+04  1.333077E+06  1.618338E+05  7.962501E+03  3.924897E+03 -1.169364E+05
        13   7 -1.062013E+05  9.169073E+05 -5.351056E+04  1.172005E+04  3.106403E+03 -3.527442E+04
        13   8 -1.258295E+05  8.866414E+05 -2.871139E+04 -9.992201E+03  3.637643E+03 -7.607613E+04
        13   9 -2.833822E+04  8.948379E+05  5.269216E+04  2.984046E+03  3.925999E+03 -1.168782E+05
        13  10  1.015859E+05  1.749484E+06  1.538571E+05  3.466433E+03 -2.173239E-09  1.077674E-09
        13  11  8.739517E+04  1.741264E+06  1.840869E+05 -9.137015E+03 -7.094602E-09 -8.218609E-10
        13  12  1.902566E+05  1.771476E+06  2.709354E+05  1.294503E+04  1.355985E-10 -1.985638E-09
        13  13 -2.301399E+03  1.333117E+06  5.017857E+04  7.594620E+03 -2.146960E-09  1.935024E-09
        13  14 -1.921107E+04  1.313867E+06  7.768913E+04 -9.564715E+03 -1.878990E-08 -5.446880E-11
        13  15  8.096451E+04  1.333063E+06  1.618081E+05  7.962871E+03  5.025492E-09  1.197082E-09
        13  16 -1.062017E+05  9.169060E+05 -5.351291E+04  1.172013E+04 -6.464056E-09 -1.975224E-09
        13  17 -1.258310E+05  8.866352E+05 -2.872228E+04 -9.991978E+03  5.635699E-09  3.262308E-10
        13  18 -2.834190E+04  8.948232E+05  5.266649E+04  2.984416E+03 -6.305944E-09  1.507197E-09
        13  19  1.015862E+05  1.749486E+06  1.538594E+05  3.466346E+03 -3.106299E+03  3.517364E+04
        13  20  8.739674E+04  1.741270E+06  1.840977E+05 -9.137238E+03 -3.637003E+03  7.608316E+04
        13  21  1.902603E+05  1.771491E+06  2.709610E+05  1.294466E+04 -3.923794E+03  1.169945E+05
        13  22 -2.301056E+03  1.333118E+06  5.018091E+04  7.594532E+03 -3.106352E+03  3.522405E+04
        13  23 -1.920951E+04  1.313873E+06  7.770001E+04 -9.564938E+03 -3.637323E+03  7.607965E+04
        13  24  8.096819E+04  1.333077E+06  1.618338E+05  7.962501E+03 -3.924897E+03  1.169364E+05
        13  25 -1.062013E+05  9.169073E+05 -5.351056E+04  1.172005E+04 -3.106403E+03  3.527442E+04
        13  26 -1.258295E+05  8.866414E+05 -2.871139E+04 -9.992201E+03 -3.637643E+03  7.607613E+04
        13  27 -2.833822E+04  8.948379E+05  5.269216E+04  2.984046E+03 -3.925999E+03  1.168782E+05
        14   1  1.486896E+05  2.038361E+06  3.609915E+05 -9.056273E+03  5.573299E+03 -1.490360E+05
        14   2  4.634364E+04  1.950458E+06  4.668014E+05 -1.266495E+04  8.391635E+03 -3.116230E+05
        14   3  7.069100E+05  2.084817E+06  8.711308E+05  5.981043E+04  6.295552E+03 -4.742450E+05
        14   4 -1.733115E+04  1.373935E+06  1.955292E+05  1.542076E+04  5.570597E+03 -1.494548E+05
        14   5 -1.250394E+05  1.262667E+06  2.957032E+05 -2.026272E+04  8.395381E+03 -3.112952E+05
        14   6  5.304763E+05  1.373756E+06  6.941149E+05  2.013877E+04  6.320039E+03 -4.731644E+05
        14   7 -1.833830E+05  7.099091E+05  3.003400E+04  3.987219E+04  5.567858E+03 -1.498731E+05
        14   8 -2.964577E+05  5.753043E+05  1.245697E+05 -2.785134E+04  8.399123E+03 -3.109676E+05
        14   9  3.540113E+05  6.631574E+05  5.170623E+05 -1.948660E+04  6.344414E+03 -4.720848E+05
        14  10  1.486836E+05  2.038337E+06  3.609498E+05 -9.055605E+03 -6.417750E-09 -1.310825E-09
        14  11  4.631760E+04  1.950354E+06  4.666194E+05 -1.266284E+04 -1.907890E-08 -4.508638E-10
        14  12  7.068498E+05  2.084576E+06  8.707094E+05  5.981284E+04 -1.696143E-10 -2.040483E-09
        14  13 -1.733717E+04  1.373911E+06  1.954872E+05  1.542143E+04 -2.393467E-09  4.216562E-09
        14  14 -1.250654E+05  1.262563E+06  2.955214E+05 -2.026062E+04 -8.970346E-09  2.289684E-11
        14  15  5.304163E+05  1.373516E+06  6.936950E+05  2.014118E+04 -1.366448E-09  2.315276E-09
        14  16 -1.833891E+05  7.098850E+05  2.999178E+04  3.987286E+04 -4.190663E-10 -9.710165E-10
        14  17 -2.964836E+05  5.752006E+05  1.243881E+05 -2.784924E+04  1.972843E-08 -5.631938E-10
        14  18  3.539515E+05  6.629184E+05  5.166438E+05 -1.948419E+04  8.249272E-09  8.430539E-10
        14  19  1.486896E+05  2.038361E+06  3.609915E+05 -9.056273E+03 -5.573299E+03  1.490360E+05
        14  20  4.634364E+04  1.950458E+06  4.668014E+05 -1.266495E+04 -8.391635E+03  3.116230E+05
        14  21  7.069100E+05  2.084817E+06  8.711308E+05  5.981043E+04 -6.295552E+03  4.742450E+05
        14  22 -1.733115E+04  1.373935E+06  1.955292E+05  1.542076E+04 -5.570597E+03  1.494548E+05
        14  23 -1.250394E+05  1.262667E+06  2.957032E+05 -2.026272E+04 -8.395381E+03  3.112952E+05
        14  24  5.304763E+05  1.373756E+06  6.941149E+05  2.013877E+04 -6.320039E+03  4.731644E+05
        14  25 -1.833830E+05  7.099091E+05  3.003400E+04  3.987219E+04 -5.567858E+03  1.498731E+05
        14  26 -2.964577E+05  5.753043E+05  1.245697E+05 -2.785134E+04 -8.399123E+03  3.109676E+05
        14  27  3.540113E+05  6.631574E+05  5.170623E+05 -1.948660E+04 -6.344414E+03  4.720848E+05
        15   1  4.691759E+05  1.949852E+05  4.449000E+05 -9.062418E+02  7.495809E+04 -4.105256E+01
        15   2  4.678757E+05  1.890547E+05  4.436082E+05 -8.867322E+02  7.481338E+04 -3.458359E+02
        15   3  4.670142E+05  1.857308E+05  4.431572E+05 -3.588396E+03  7.438193E+04 -6.517916E+02
        15   4 -6.198370E+02 -1.708060E+06  4.027516E+02 -6.049173E+02  7.497383E+04 -3.996333E+01
        15   5 -7.738512E+02 -1.709343E+06  2.099056E+02  7.563159E+02  7.482884E+04 -1.583275E+02
        15   6 -5.242120E+02 -1.708056E+06  7.286295E+02 -6.041000E+02  7.439671E+04 -2.778641E+02
        15   7 -4.706728E+05 -3.607762E+06 -4.443408E+05 -3.043052E+02  7.498961E+04 -3.887719E+01
        15   8 -4.696794E+05 -3.604413E+06 -4.434334E+05  2.395252E+03  7.484434E+04  2.861230E+01
        15   9 -4.683173E+05 -3.598531E+06 -4.419439E+05  2.372707E+03  7.441153E+04  9.493195E+01
        15  10  4.691699E+05  1.949836E+05  4.448895E+05 -9.062393E+02 -3.264349E-09 -1.646196E-09
        15  11  4.678697E+05  1.890532E+05  4.435976E+05 -8.867114E+02  7.509743E-09 -5.167571E-09
        15  12  4.670082E+05  1.857293E+05  4.431468E+05 -3.588357E+03  5.022229E-09 -5.040914E-09
        15  13 -6.258682E+02 -1.708062E+06  3.921969E+02 -6.049148E+02  1.003495E-09  4.226088E-11
        15  14 -7.798591E+02 -1.709344E+06  1.993917E+02  7.563254E+02  2.159863E-08  6.251756E-10
        15  15 -5.301507E+02 -1.708057E+06  7.182366E+02 -6.040834E+02  6.206374E-10  2.282413E-10
        15  16 -4.706788E+05 -3.607763E+06 -4.443514E+05 -3.043028E+02  5.284725E-09  1.696211E-09
        15  17 -4.696854E+05 -3.604415E+06 -4.434439E+05  2.395250E+03 -1.286928E-08  3.300995E-09
        15  18 -4.683233E+05 -3.598532E+06 -4.419543E+05  2.372701E+03 -1.398326E-08  4.591515E-09
        15  19  4.691759E+05  1.949852E+05  4.449000E+05 -9.062418E+02 -7.495809E+04  4.105256E+01
        15  20  4.678757E+05  1.890547E+05  4.436082E+05 -8.867322E+02 -7.481338E+04  3.458359E+02
        15  21  4.670142E+05  1.857308E+05  4.431572E+05 -3.588396E+03 -7.438193E+04  6.517916E+02
        15  22 -6.198370E+02 -1.708060E+06  4.027516E+02 -6.049173E+02 -7.497383E+04  3.996333E+01
        15  23 -7.738512E+02 -1.709343E+06  2.099056E+02  7.563159E+02 -7.482884E+04  1.583275E+02
        15  24 -5.242120E+02 -1.708056E+06  7.286295E+02 -6.041000E+02 -7.439671E+04  2.778641E+02
        15  25 -4.706728E+05 -3.607762E+06 -4.443408E+05 -3.043052E+02 -7.498961E+04  3.887719E+01
        15  26 -4.696794E+05 -3.604413E+06 -4.434334E+05  2.395252E+03 -7.484434E+04 -2.861230E+01
        15  27 -4.683173E+05 -3.598531E+06 -4.419439E+05  2.372707E+03 -7.441153E+04 -9.493195E+01
        16   1  4.644751E+05  1.761066E+05  4.408866E+05 -5.500363E+03  7.442175E+04 -1.703061E+02
        16   2  4.608828E+05  1.607832E+05  4.380398E+05 -2.496351E+03  7.360131E+04 -2.380182E+03
        16   3  4.589594E+05  1.484872E+05  4.375520E+05 -7.615832E+03  7.032801E+04 -4.602977E+03
        16   4 -6.467536E+02 -1.708007E+06  8.916360E+02 -1.806137E+03  7.443790E+04 -4.283703E+02
        16   5 -8.298899E+02 -1.709374E+06  1.180934E+03  2.258615E+03  7.361191E+04 -1.045753E+03
        16   6  3.785366E+02 -1.707993E+06  2.724470E+03 -1.801668E+03  7.032973E+04 -1.676112E+03
        16   7 -4.660207E+05 -3.588843E+06 -4.393447E+05  1.878883E+03  7.445407E+04 -6.856540E+02
        16   8 -4.627910E+05 -3.576302E+06 -4.359158E+05  7.001900E+03  7.362255E+04  2.846868E+02
        16   9 -4.584476E+05 -3.561292E+06 -4.323385E+05  3.998397E+03  7.033151E+04  1.242063E+03
        16  10  4.644692E+05  1.761051E+05  4.408762E+05 -5.500353E+03  1.749064E-09  5.077017E-09
        16  11  4.608770E+05  1.607817E+05  4.380296E+05 -2.496210E+03  5.043392E-09 -6.085557E-09
        16  12  4.589541E+05  1.484859E+05  4.375427E+05 -7.615571E+03 -9.598842E-09 -8.374551E-09
        16  13 -6.526989E+02 -1.708008E+06  8.812314E+02 -1.806111E+03 -1.303917E-08 -4.007737E-11
        16  14 -8.357043E+02 -1.709375E+06  1.170758E+03  2.258677E+03 -5.400765E-09  1.852474E-09
        16  15  3.732287E+02 -1.707994E+06  2.715177E+03 -1.801573E+03  1.126519E-08  2.174494E-10
        16  16 -4.660266E+05 -3.588844E+06 -4.393551E+05  1.878924E+03 -1.338688E-08 -3.664598E-09
        16  17 -4.627968E+05 -3.576303E+06 -4.359260E+05  7.001883E+03 -6.748032E-09  5.825993E-10
        16  18 -4.584529E+05 -3.561294E+06 -4.323478E+05  3.998327E+03 -1.738934E-09  7.331260E-09
        16  19  4.644751E+05  1.761066E+05  4.408866E+05 -5.500363E+03 -7.442175E+04  1.703061E+02
        16  20  4.608828E+05  1.607832E+05  4.380398E+05 -2.496351E+03 -7.360131E+04  2.380182E+03
        16  21  4.589594E+05  1.484872E+05  4.375520E+05 -7.615832E+03 -7.032801E+04  4.602977E+03
        16  22 -6.467536E+02 -1.708007E+06  8.916360E+02 -1.806137E+03 -7.443790E+04  4.283703E+02
        16  23 -8.298899E+02 -1.709374E+06  1.180934E+03  2.258615E+03 -7.361191E+04  1.045753E+03
        16  24  3.785366E+02 -1.707993E+06  2.724470E+03 -1.801668E+03 -7.032973E+04  1.676112E+03
        16  25 -4.660207E+05 -3.588843E+06 -4.393447E+05  1.878883E+03 -7.445407E+04  6.856540E+02
        16  26 -4.627910E+05 -3.576302E+06 -4.359158E+05  7.001900E+03 -7.362255E+04 -2.846868E+02
        16  27 -4.584476E+05 -3.561292E+06 -4.323385E+05  3.998397E+03 -7.033151E+04 -1.242063E+03
        17   1  4.524102E+05  1.303927E+05  4.314519E+05 -1.141465E+04  7.505829E+04  7.688191E+03
        17   2  4.461075E+05  1.028989E+05  4.294825E+05 -2.369073E+03  6.949434E+04 -2.225438E+04
        17   3  4.571135E+05  8.566866E+04  4.517621E+05 -7.937599E+03  2.207627E+04 -5.247938E+04
        17   4 -1.112832E+03 -1.707353E+06  3.320468E+03 -3.266683E+03  7.512119E+04 -2.169896E+03
        17   5 -1.697386E+03 -1.710115E+06  5.118700E+03  4.077171E+03  6.941012E+04 -4.964657E+03
        17   6  1.033166E+04 -1.707322E+06  1.231585E+04 -3.197370E+03  2.179038E+04 -8.043060E+03
        17   7 -4.548750E+05 -3.541978E+06 -4.250393E+05  4.860723E+03  7.518394E+04 -1.199899E+04
        17   8 -4.497359E+05 -3.520094E+06 -4.194682E+05  1.050871E+04  6.932614E+04  1.227491E+04
        17   9 -4.366878E+05 -3.497375E+06 -4.273590E+05  1.533890E+03  2.150475E+04  3.626518E+04
        17  10  4.524041E+05  1.303911E+05  4.314412E+05 -1.141511E+04 -7.352103E-09  5.564577E-09
        17  11  4.461021E+05  1.028971E+05  4.294725E+05 -2.367828E+03  1.309611E-09  1.123173E-09
        17  12  4.571122E+05  8.566557E+04  4.517560E+05 -7.936666E+03 -3.788517E-09  9.862641E-10
        17  13 -1.118888E+03 -1.707354E+06  3.309862E+03 -3.266551E+03  1.116198E-09  1.531811E-10
        17  14 -1.702562E+03 -1.710116E+06  5.109607E+03  4.077449E+03 -4.786451E-09  3.117414E-09
        17  15  1.033113E+04 -1.707322E+06  1.231483E+04 -3.197229E+03  2.433044E-09  4.604257E-10
        17  16 -4.548811E+05 -3.541980E+06 -4.250502E+05  4.861451E+03  7.444929E-09 -2.816028E-09
        17  17 -4.497411E+05 -3.520095E+06 -4.194776E+05  1.050802E+04 -6.108115E-09 -1.016099E-08
        17  18 -4.366886E+05 -3.497377E+06 -4.273623E+05  1.533260E+03 -8.610472E-09 -2.418416E-09
        17  19  4.524102E+05  1.303927E+05  4.314519E+05 -1.141465E+04 -7.505829E+04 -7.688191E+03
        17  20  4.461075E+05  1.028989E+05  4.294825E+05 -2.369073E+03 -6.949434E+04  2.225438E+04
        17  21  4.571135E+05  8.566866E+04  4.517621E+05 -7.937599E+03 -2.207627E+04  5.247938E+04
        17  22 -1.112832E+03 -1.707353E+06  3.320468E+03 -3.266683E+03 -7.512119E+04  2.169896E+03
        17  23 -1.697386E+03 -1.710115E+06  5.118700E+03  4.077171E+03 -6.941012E+04  4.964657E+03
        17  24  1.033166E+04 -1.707322E+06  1.231585E+04 -3.197370E+03 -2.179038E+04  8.043060E+03
        17  25 -4.548750E+05 -3.541978E+06 -4.250393E+05  4.860723E+03 -7.518394E+04  1.199899E+04
        17  26 -4.497359E+05 -3.520094E+06 -4.194682E+05  1.050871E+04 -6.932614E+04 -1.227491E+04
        17  27 -4.366878E+05 -3.497375E+06 -4.273590E+05  1.533890E+03 -2.150475E+04 -3.626518E+04
        18   1  6.115232E+04  7.978798E+05  3.435094E+04 -1.892607E+00  2.146389E+04 -1.558416E-01
        18   2  6.115566E+04  7.978953E+05  3.435692E+04 -1.182736E+01  2.146465E+04 -5.780320E+00
        18   3  6.115940E+04  7.979155E+05  3.436792E+04 -1.988288E+01  2.146616E+04 -1.140470E+01
        18   4 -1.553232E+01  5.261682E+05  1.280193E+01  4.177358E-01  2.146488E+04 -1.072536E+00
        18   5 -1.644243E+01  5.261656E+05  1.547633E+01 -5.218424E-01  2.146564E+04 -8.512113E+00
        18   6 -1.664117E+01  5.261682E+05  2.443540E+01  4.181710E-01  2.146715E+04 -1.595162E+01
        18   7 -6.118639E+04  2.545323E+05 -3.432557E+04  2.727202E+00  2.146587E+04 -1.988848E+00
        18   8 -6.119155E+04  2.545117E+05 -3.432620E+04  1.077930E+01  2.146663E+04 -1.124277E+01
        18   9 -6.119569E+04  2.544966E+05 -3.431928E+04  2.071134E+01  2.146815E+04 -2.049665E+01
        18  10  6.115182E+04  7.978797E+05  3.435007E+04 -1.892604E+00  2.981988E-09 -5.164564E-08
        18  11  6.115517E+04  7.978951E+05  3.435605E+04 -1.182726E+01 -1.017381E-09  3.860671E-08
        18  12  6.115891E+04  7.979154E+05  3.436705E+04 -1.988268E+01  5.933509E-09  1.245960E-07
        18  13 -1.602719E+01  5.261681E+05  1.193589E+01  4.177543E-01 -5.704673E-09 -2.268596E-11
        18  14 -1.693735E+01  5.261655E+05  1.461023E+01 -5.216954E-01  3.292305E-09 -1.094231E-10
        18  15 -1.713615E+01  5.261681E+05  2.356918E+01  4.184465E-01 -1.801279E-08  1.046456E-10
        18  16 -6.118688E+04  2.545322E+05 -3.432644E+04  2.727236E+00  7.277618E-09  5.158412E-08
        18  17 -6.119205E+04  2.545116E+05 -3.432707E+04  1.077950E+01  9.627760E-09 -3.864061E-08
        18  18 -6.119619E+04  2.544965E+05 -3.432015E+04  2.071170E+01  2.230791E-09 -1.245055E-07
        18  19  6.115232E+04  7.978798E+05  3.435094E+04 -1.892607E+00 -2.146389E+04  1.558415E-01
        18  20  6.115566E+04  7.978953E+05  3.435692E+04 -1.182736E+01 -2.146465E+04  5.780320E+00
        18  21  6.115940E+04  7.979155E+05  3.436792E+04 -1.988288E+01 -2.146616E+04  1.140470E+01
        18  22 -1.553232E+01  5.261682E+05  1.280193E+01  4.177360E-01 -2.146488E+04  1.072536E+00
        18  23 -1.644243E+01  5.261656E+05  1.547633E+01 -5.218425E-01 -2.146564E+04  8.512113E+00
        18  24 -1.664117E+01  5.261682E+05  2.443540E+01  4.181706E-01 -2.146715E+04  1.595162E+01
        18  25 -6.118639E+04  2.545323E+05 -3.432557E+04  2.727202E+00 -2.146587E+04  1.988849E+00
        18  26 -6.119155E+04  2.545117E+05 -3.432620E+04  1.077930E+01 -2.146663E+04  1.124277E+01
        18  27 -6.119569E+04  2.544966E+05 -3.431928E+04  2.071134E+01 -2.146815E+04  2.049665E+01
        19   1  6.116390E+04  7.979380E+05  3.437816E+04 -2.357119E+01  2.146754E+04 -1.458379E+01
        19   2  6.117389E+04  7.979872E+05  3.440936E+04 -3.921858E+01  2.146977E+04 -4.229251E+01
        19   3  6.118541E+04  7.980445E+05  3.446023E+04 -4.643165E+01  2.147124E+04 -7.000091E+01
        19   4 -1.719458E+01  5.261687E+05  3.134890E+01  1.874874E+00  2.146853E+04 -2.084474E+01
        19   5 -1.977639E+01  5.261649E+05  5.276352E+01 -2.342370E+00  2.147076E+04 -4.671284E+01
        19   6 -2.114284E+01  5.261687E+05  9.258032E+01  1.874911E+00  2.147223E+04 -7.258062E+01
        19   7 -6.120130E+04  2.544753E+05 -3.431570E+04  2.731107E+01  2.146952E+04 -2.710309E+01
        19   8 -6.121645E+04  2.544184E+05 -3.430407E+04  3.451935E+01  2.147175E+04 -5.113133E+01
        19   9 -6.123070E+04  2.543688E+05 -3.427530E+04  5.016236E+01  2.147322E+04 -7.515925E+01
        19  10  6.116341E+04  7.979379E+05  3.437730E+04 -2.357094E+01  5.593194E-09 -6.175243E-08
        19  11  6.117339E+04  7.979871E+05  3.440849E+04 -3.921785E+01  2.619697E-09 -3.569629E-08
        19  12  6.118491E+04  7.980443E+05  3.445936E+04 -4.643044E+01  1.737690E-09 -4.875925E-09
        19  13 -1.768963E+01  5.261686E+05  3.048256E+01  1.875234E+00 -1.602361E-08  7.484489E-11
        19  14 -2.027154E+01  5.261648E+05  5.189701E+01 -2.341563E+00  1.551008E-09 -3.315661E-10
        19  15 -2.163806E+01  5.261686E+05  9.171368E+01  1.876166E+00  1.179297E-10  2.000058E-10
        19  16 -6.120179E+04  2.544752E+05 -3.431657E+04  2.731154E+01  3.391156E-09  6.154727E-08
        19  17 -6.121694E+04  2.544183E+05 -3.430493E+04  3.452024E+01  3.569840E-09  3.552156E-08
        19  18 -6.123120E+04  2.543687E+05 -3.427617E+04  5.016366E+01  5.836397E-09  4.913098E-09
        19  19  6.116390E+04  7.979380E+05  3.437816E+04 -2.357119E+01 -2.146754E+04  1.458379E+01
        19  20  6.117389E+04  7.979872E+05  3.440936E+04 -3.921858E+01 -2.146977E+04  4.229251E+01
        19  21  6.118541E+04  7.980445E+05  3.446023E+04 -4.643165E+01 -2.147124E+04  7.000091E+01
        19  22 -1.719458E+01  5.261687E+05  3.134890E+01  1.874874E+00 -2.146853E+04  2.084474E+01
        19  23 -1.977639E+01  5.261649E+05  5.276352E+01 -2.342370E+00 -2.147076E+04  4.671284E+01
        19  24 -2.114284E+01  5.261687E+05  9.258032E+01  1.874911E+00 -2.147223E+04  7.258062E+01
        19  25 -6.120130E+04  2.544753E+05 -3.431570E+04  2.731107E+01 -2.146952E+04  2.710309E+01
        19  26 -6.121645E+04  2.544184E+05 -3.430407E+04  3.451935E+01 -2.147175E+04  5.113133E+01
        19  27 -6.123070E+04  2.543688E+05 -3.427530E+04  5.016236E+01 -2.147322E+04  7.515925E+01
        20   1  6.119473E+04  7.980921E+05  3.449900E+04 -5.317979E+01  2.147245E+04 -8.841733E+01
        20   2  6.121420E+04  7.981681E+05  3.461801E+04 -7.525282E+01  2.146780E+04 -2.226070E+02
        20   3  6.124972E+04  7.982695E+05  3.482958E+04 -8.319084E+01  2.145093E+04 -3.567978E+02
        20   4 -2.263684E+01  5.261716E+05  1.220578E+02  3.141071E+00  2.147345E+04 -9.179461E+01
        20   5 -2.617799E+01  5.261613E+05  2.122054E+02 -3.925910E+00  2.146878E+04 -1.966211E+02
        20   6 -1.875639E+01  5.261715E+05  3.745657E+02  3.142086E+00  2.145191E+04 -3.014492E+02
        20   7 -6.124301E+04  2.543269E+05 -3.425512E+04  5.943951E+01  2.147444E+04 -9.517047E+01
        20   8 -6.126957E+04  2.542305E+05 -3.419384E+04  6.737231E+01  2.146977E+04 -1.706460E+02
        20   9 -6.129025E+04  2.541494E+05 -3.408070E+04  8.944005E+01  2.145289E+04 -2.461235E+02
        20  10  6.119424E+04  7.980920E+05  3.449814E+04 -5.317826E+01  2.526005E-09 -7.575077E-08
        20  11  6.121370E+04  7.981680E+05  3.461715E+04 -7.524897E+01 -1.360642E-09 -1.257904E-08
        20  12  6.124922E+04  7.982694E+05  3.482872E+04 -8.318467E+01  6.654963E-09  5.092405E-08
        20  13 -2.313212E+01  5.261714E+05  1.211911E+02  3.142659E+00  6.766622E-09  1.607117E-10
        20  14 -2.667305E+01  5.261612E+05  2.113390E+02 -3.922511E+00  6.187160E-09 -5.464691E-10
        20  15 -1.925069E+01  5.261714E+05  3.737006E+02  3.147293E+00  2.062397E-10  3.263138E-10
        20  16 -6.124351E+04  2.543267E+05 -3.425599E+04  5.944115E+01  4.658407E-09  7.536450E-08
        20  17 -6.127006E+04  2.542304E+05 -3.419471E+04  6.737526E+01 -2.560314E-09  1.236127E-08
        20  18 -6.129074E+04  2.541493E+05 -3.408156E+04  8.944430E+01 -1.076518E-08 -5.070706E-08
        20  19  6.119473E+04  7.980921E+05  3.449900E+04 -5.317979E+01 -2.147245E+04  8.841733E+01
        20  20  6.121420E+04  7.981681E+05  3.461801E+04 -7.525282E+01 -2.146780E+04  2.226070E+02
        20  21  6.124972E+04  7.982695E+05  3.482958E+04 -8.319084E+01 -2.145093E+04  3.567978E+02
        20  22 -2.263684E+01  5.261716E+05  1.220578E+02  3.141072E+00 -2.147345E+04  9.179461E+01
        20  23 -2.617799E+01  5.261613E+05  2.122054E+02 -3.925910E+00 -2.146878E+04  1.966211E+02
        20  24 -1.875639E+01  5.261715E+05  3.745657E+02  3.142086E+00 -2.145191E+04  3.014492E+02
        20  25 -6.124301E+04  2.543269E+05 -3.425512E+04  5.943951E+01 -2.147444E+04  9.517047E+01
        20  26 -6.126957E+04  2.542305E+05 -3.419384E+04  6.737231E+01 -2.146977E+04  1.706460E+02
        20  27 -6.129025E+04  2.541494E+05 -3.408070E+04  8.944005E+01 -2.145289E+04  2.461235E+02
        21   1 -3.945176E+05  1.504893E+05  2.760051E+05 -3.620550E+03  3.622093E+05  6.409540E+03
        21   2 -4.583256E+05 -3.481324E+05 -2.463419E+04  2.096678E+04  2.390530E+05  1.060907E+04
        21   3 -3.373743E+05 -2.576936E+05 -9.341983E+04 -4.657427E+04  1.159414E+05  7.420434E+03
        21   4  6.410211E+05  4.085877E+05  5.344275E+05 -3.080026E+04  3.636996E+05  6.402411E+03
        21   5  5.486323E+05 -9.662330E+04  2.263512E+05  1.706878E+04  2.394737E+05  1.060745E+04
        21   6  6.409425E+05 -1.308527E+04  1.506023E+05 -2.718168E+04  1.152982E+05  7.420492E+03
        21   7  1.677534E+06  6.666087E+05  7.927699E+05 -5.802743E+04  3.651919E+05  6.395167E+03
        21   8  1.556510E+06  1.548097E+05  4.772605E+05  1.316300E+04  2.398948E+05  1.060583E+04
        21   9  1.620127E+06  2.314523E+05  3.945525E+05 -7.759281E+03  1.146539E+05  7.420508E+03
        21  10 -3.946586E+05  1.504540E+05  2.757583E+05 -3.622419E+03  5.527996E-10  5.593338E-11
        21  11 -4.583871E+05 -3.481479E+05 -2.474185E+04  2.096474E+04  1.096973E-09  4.300543E-10
        21  12 -3.373887E+05 -2.576973E+05 -9.344521E+04 -4.657497E+04  1.955061E-09  4.268001E-10
        21  13  6.408792E+05  4.085522E+05  5.341791E+05 -3.080214E+04 -4.345750E-09  1.505376E-10
        21  14  5.485708E+05 -9.663879E+04  2.262433E+05  1.706674E+04  5.650203E-09  2.226391E-10
        21  15  6.409282E+05 -1.308890E+04  1.505772E+05 -2.718236E+04 -1.523507E-09 -9.504927E-11
        21  16  1.677391E+06  6.665730E+05  7.925199E+05 -5.802931E+04  5.948335E-09  5.370110E-10
        21  17  1.556448E+06  1.547941E+05  4.771524E+05  1.316095E+04 -8.407672E-09  2.144901E-10
        21  18  1.620113E+06  2.314487E+05  3.945278E+05 -7.759965E+03  1.170535E-09 -4.359947E-10
        21  19 -3.945176E+05  1.504893E+05  2.760051E+05 -3.620550E+03 -3.622093E+05 -6.409540E+03
        21  20 -4.583256E+05 -3.481324E+05 -2.463419E+04  2.096678E+04 -2.390530E+05 -1.060907E+04
        21  21 -3.373743E+05 -2.576936E+05 -9.341983E+04 -4.657427E+04 -1.159414E+05 -7.420434E+03
        21  22  6.410211E+05  4.085877E+05  5.344275E+05 -3.080026E+04 -3.636996E+05 -6.402411E+03
        21  23  5.486323E+05 -9.662330E+04  2.263512E+05  1.706878E+04 -2.394737E+05 -1.060745E+04
        21  24  6.409425E+05 -1.308527E+04  1.506023E+05 -2.718168E+04 -1.152982E+05 -7.420492E+03
        21  25  1.677534E+06  6.666087E+05  7.927699E+05 -5.802743E+04 -3.651919E+05 -6.395167E+03
        21  26  1.556510E+06  1.548097E+05  4.772605E+05  1.316300E+04 -2.398948E+05 -1.060583E+04
        21  27  1.620127E+06  2.314523E+05  3.945525E+05 -7.759281E+03 -1.146539E+05 -7.420508E+03
        22   1 -3.919662E+04 -9.965822E+04 -3.721234E+04 -1.837604E+04  9.011200E+04  5.277086E+03
        22   2 -3.611700E+04 -1.713281E+05 -9.764958E+04  1.050937E+04  5.934306E+04  5.088926E+03
        22   3  1.302461E+03 -1.531804E+05 -1.140121E+05 -2.413861E+04  2.857258E+04  4.044536E+03
        22   4  6.077006E+05  6.191063E+04  1.240583E+05 -2.203867E+04  9.021384E+04  5.276304E+03
        22   5  5.905122E+05 -1.479390E+04  5.856728E+04  9.802897E+03  5.931374E+04  5.088469E+03
        22   6  6.076632E+05 -1.703921E+03  3.721117E+04 -2.188486E+04  2.841310E+04  4.044508E+03
        22   7  1.254977E+06  2.234480E+05  2.852974E+05 -2.570535E+04  9.031576E+04  5.275521E+03
        22   8  1.217497E+06  1.417108E+05  2.147546E+05  9.095620E+03  5.928437E+04  5.088012E+03
        22   9  1.214357E+06  1.497449E+05  1.884068E+05 -1.962884E+04  2.825344E+04  4.044478E+03
        22  10 -3.920534E+04 -9.966043E+04 -3.722765E+04 -1.837642E+04 -4.288694E-09 -3.731035E-11
        22  11 -3.612079E+04 -1.713291E+05 -9.765624E+04  1.050913E+04  4.349712E-09 -1.341025E-10
        22  12  1.301580E+03 -1.531807E+05 -1.140137E+05 -2.413871E+04  6.933973E-09  3.587270E-10
        22  13  6.076919E+05  6.190841E+04  1.240429E+05 -2.203905E+04 -4.327887E-09 -5.037624E-10
        22  14  5.905084E+05 -1.479487E+04  5.856063E+04  9.802654E+03  1.490443E-08  1.106476E-09
        22  15  6.076624E+05 -1.704155E+03  3.720963E+04 -2.188495E+04  4.311072E-09 -9.382748E-10
        22  16  1.254968E+06  2.234458E+05  2.852821E+05 -2.570573E+04 -3.702052E-12  2.966992E-10
        22  17  1.217493E+06  1.417098E+05  2.147480E+05  9.095377E+03 -6.675903E-09  1.223280E-09
        22  18  1.214356E+06  1.497447E+05  1.884053E+05 -1.962893E+04  4.040805E-09 -1.234735E-09
        22  19 -3.919662E+04 -9.965822E+04 -3.721234E+04 -1.837604E+04 -9.011200E+04 -5.277086E+03
        22  20 -3.611700E+04 -1.713281E+05 -9.764958E+04  1.050937E+04 -5.934306E+04 -5.088926E+03
        22  21  1.302461E+03 -1.531804E+05 -1.140121E+05 -2.413861E+04 -2.857258E+04 -4.044536E+03
        22  22  6.077006E+05  6.191063E+04  1.240583E+05 -2.203867E+04 -9.021384E+04 -5.276304E+03
        22  23  5.905122E+05 -1.479390E+04  5.856728E+04  9.802897E+03 -5.931374E+04 -5.088469E+03
        22  24  6.076632E+05 -1.703921E+03  3.721117E+04 -2.188486E+04 -2.841310E+04 -4.044508E+03
        22  25  1.254977E+06  2.234480E+05  2.852974E+05 -2.570535E+04 -9.031576E+04 -5.275521E+03
        22  26  1.217497E+06  1.417108E+05  2.147546E+05  9.095620E+03 -5.928437E+04 -5.088012E+03
        22  27  1.214357E+06  1.497449E+05  1.884068E+05 -1.962884E+04 -2.825344E+04 -4.044478E+03
        23   1  2.434746E+05 -8.022664E+04 -5.964669E+04 -1.768046E+04  2.237708E+04  3.356769E+03
        23   2  2.559132E+05 -8.777885E+04 -7.021409E+04  6.505612E+03  1.458432E+04  2.631028E+03
        23   3  2.748214E+05 -8.165764E+04 -7.188293E+04 -1.833711E+04  6.790196E+03  1.944601E+03
        23   4  6.015519E+05  9.201952E+03  2.956725E+04 -1.869427E+04  2.229502E+04  3.356733E+03
        23   5  5.983081E+05 -2.258419E+03  1.513751E+04  5.812985E+03  1.450299E+04  2.631111E+03
        23   6  6.015318E+05 -4.905749E+01  9.602521E+03 -1.870687E+04  6.709814E+03  1.944786E+03
        23   7  9.597454E+05  9.862091E+04  1.187716E+05 -1.970862E+04  2.221290E+04  3.356698E+03
        23   8  9.408091E+05  8.325320E+04  1.004803E+05  5.120032E+03  1.442163E+04  2.631194E+03
        23   9  9.283390E+05  8.155149E+04  9.107995E+04 -1.907674E+04  6.629389E+03  1.944972E+03
        23  10  2.434741E+05 -8.022679E+04 -5.964765E+04 -1.768052E+04  2.070797E-09 -1.558989E-10
        23  11  2.559130E+05 -8.777892E+04 -7.021450E+04  6.505581E+03  7.298038E-09 -4.466972E-10
        23  12  2.748214E+05 -8.165765E+04 -7.188303E+04 -1.833712E+04  8.493196E-09  9.651830E-10
        23  13  6.015514E+05  9.201807E+03  2.956629E+04 -1.869433E+04 -4.315675E-09 -1.487850E-09
        23  14  5.983079E+05 -2.258482E+03  1.513711E+04  5.812954E+03 -1.263684E-08 -4.830805E-10
        23  15  6.015318E+05 -4.907362E+01  9.602429E+03 -1.870688E+04  1.577583E-09  9.547299E-10
        23  16  9.597449E+05  9.862076E+04  1.187706E+05 -1.970868E+04 -4.251621E-09 -2.058003E-09
        23  17  9.408089E+05  8.325313E+04  1.004799E+05  5.120002E+03 -1.130380E-08 -5.512474E-10
        23  18  9.283389E+05  8.155147E+04  9.107986E+04 -1.907675E+04 -9.704867E-10  1.989903E-09
        23  19  2.434746E+05 -8.022664E+04 -5.964669E+04 -1.768046E+04 -2.237708E+04 -3.356769E+03
        23  20  2.559132E+05 -8.777885E+04 -7.021409E+04  6.505612E+03 -1.458432E+04 -2.631028E+03
        23  21  2.748214E+05 -8.165764E+04 -7.188293E+04 -1.833711E+04 -6.790196E+03 -1.944601E+03
        23  22  6.015519E+05  9.201952E+03  2.956725E+04 -1.869427E+04 -2.229502E+04 -3.356733E+03
        23  23  5.983081E+05 -2.258419E+03  1.513751E+04  5.812985E+03 -1.450299E+04 -2.631111E+03
        23  24  6.015318E+05 -4.905749E+01  9.602521E+03 -1.870687E+04 -6.709814E+03 -1.944786E+03
        23  25  9.597454E+05  9.862091E+04  1.187716E+05 -1.970862E+04 -2.221290E+04 -3.356698E+03
        23  26  9.408091E+05  8.325320E+04  1.004803E+05  5.120032E+03 -1.442163E+04 -2.631194E+03
        23  27  9.283390E+05  8.155149E+04  9.107995E+04 -1.907674E+04 -6.629389E+03 -1.944972E+03
        24   1  4.758397E+05 -2.969713E+04 -2.334098E+04 -1.681825E+04  5.216140E+03  1.536742E+03
        24   2  4.889947E+05 -2.808965E+04 -2.289524E+04  4.276668E+03  2.813834E+03  8.454601E+02
        24   3  5.029279E+05 -2.403912E+04 -2.030608E+04 -1.699880E+04  4.112029E+02  2.067262E+02
        24   4  6.002997E+05  1.377299E+03  7.634566E+03 -1.721970E+04  5.129680E+03  1.537015E+03
        24   5  5.999083E+05 -3.896810E+02  4.750004E+03  3.963456E+03  2.733264E+03  8.457448E+02
        24   6  6.002936E+05  2.850972E+02  4.004444E+03 -1.722329E+04  3.365734E+02  2.070189E+02
        24   7  7.247738E+05  3.245057E+04  3.860895E+04 -1.762123E+04  5.043203E+03  1.537288E+03
        24   8  7.108331E+05  2.730936E+04  3.239433E+04  3.650199E+03  2.652679E+03  8.460296E+02
        24   9  6.976679E+05  2.460860E+04  2.831425E+04 -1.744781E+04  2.619321E+02  2.073117E+02
        24  10  4.758397E+05 -2.969714E+04 -2.334104E+04 -1.681825E+04  2.629518E-09  1.396392E-10
        24  11  4.889947E+05 -2.808965E+04 -2.289526E+04  4.276666E+03  2.372178E-09 -1.629455E-09
        24  12  5.029279E+05 -2.403912E+04 -2.030608E+04 -1.699880E+04  5.736160E-10 -6.356379E-10
        24  13  6.002997E+05  1.377289E+03  7.634512E+03 -1.721971E+04  2.526286E-11  3.973918E-10
        24  14  5.999083E+05 -3.896838E+02  4.749988E+03  3.963454E+03  4.576720E-10  1.680960E-10
        24  15  6.002936E+05  2.850971E+02  4.004444E+03 -1.722329E+04  9.579391E-09  1.642537E-09
        24  16  7.247738E+05  3.245056E+04  3.860890E+04 -1.762123E+04 -4.780676E-09  1.013114E-09
        24  17  7.108331E+05  2.730936E+04  3.239431E+04  3.650198E+03 -8.293146E-09 -1.219955E-09
        24  18  6.976679E+05  2.460860E+04  2.831425E+04 -1.744781E+04 -2.857331E-09  1.129172E-10
        24  19  4.758397E+05 -2.969713E+04 -2.334098E+04 -1.681825E+04 -5.216140E+03 -1.536742E+03
        24  20  4.889947E+05 -2.808965E+04 -2.289524E+04  4.276668E+03 -2.813834E+03 -8.454601E+02
        24  21  5.029279E+05 -2.403912E+04 -2.030608E+04 -1.699880E+04 -4.112029E+02 -2.067262E+02
        24  22  6.002997E+05  1.377299E+03  7.634566E+03 -1.721970E+04 -5.129680E+03 -1.537015E+03
        24  23  5.999083E+05 -3.896810E+02  4.750004E+03  3.963456E+03 -2.733264E+03 -8.457448E+02
        24  24  6.002936E+05  2.850972E+02  4.004444E+03 -1.722329E+04 -3.365734E+02 -2.070189E+02
        24  25  7.247738E+05  3.245057E+04  3.860895E+04 -1.762123E+04 -5.043203E+03 -1.537288E+03
        24  26  7.108331E+05  2.730936E+04  3.239433E+04  3.650199E+03 -2.652679E+03 -8.460296E+02
        24  27  6.976679E+05  2.460860E+04  2.831425E+04 -1.744781E+04 -2.619321E+02 -2.073117E+02
        25   1  6.902542E+05  2.274926E+04  2.647505E+04 -1.740037E+04 -3.196518E+02 -1.490468E+02
        25   2  7.033961E+05  2.544535E+04  3.059444E+04  3.637482E+03 -2.738320E+03 -7.884648E+02
        25   3  7.172936E+05  3.061888E+04  3.686926E+04 -1.758343E+04 -5.156814E+03 -1.475475E+03
        25   4  6.002896E+05  2.759483E+02  4.011702E+03 -1.719877E+04 -3.946839E+02 -1.487514E+02
        25   5  5.999142E+05 -3.952670E+02  4.804908E+03  3.932728E+03 -2.818722E+03 -7.881775E+02
        25   6  6.002953E+05  1.412112E+03  7.757525E+03 -1.719497E+04 -5.242536E+03 -1.475199E+03
        25   7  5.103324E+05 -2.219798E+04 -1.845225E+04 -1.699720E+04 -4.697050E+02 -1.484561E+02
        25   8  4.964420E+05 -2.623669E+04 -2.098543E+04  4.227934E+03 -2.899112E+03 -7.878902E+02
        25   9  4.833094E+05 -2.779569E+04 -2.135524E+04 -1.680657E+04 -5.328241E+03 -1.474923E+03
        25  10  6.902542E+05  2.274926E+04  2.647505E+04 -1.740037E+04  2.083123E-09  3.299306E-10
        25  11  7.033961E+05  2.544535E+04  3.059443E+04  3.637480E+03  1.247054E-09 -5.857747E-10
        25  12  7.172936E+05  3.061887E+04  3.686921E+04 -1.758344E+04  3.979675E-09 -1.138272E-09
        25  13  6.002896E+05  2.759482E+02  4.011701E+03 -1.719877E+04 -8.655214E-09  2.967708E-09
        25  14  5.999142E+05 -3.952698E+02  4.804892E+03  3.932726E+03 -1.462157E-08  1.864174E-09
        25  15  6.002952E+05  1.412102E+03  7.757470E+03 -1.719498E+04 -3.896514E-09  1.287976E-09
        25  16  5.103324E+05 -2.219798E+04 -1.845225E+04 -1.699720E+04 -2.094810E-09  1.445770E-10
        25  17  4.964420E+05 -2.623669E+04 -2.098545E+04  4.227932E+03 -4.004737E-09 -1.177717E-09
        25  18  4.833093E+05 -2.779570E+04 -2.135530E+04 -1.680658E+04 -1.144511E-09 -2.787340E-09
        25  19  6.902542E+05  2.274926E+04  2.647505E+04 -1.740037E+04  3.196518E+02  1.490468E+02
        25  20  7.033961E+05  2.544535E+04  3.059444E+04  3.637482E+03  2.738320E+03  7.884648E+02
        25  21  7.172936E+05  3.061888E+04  3.686926E+04 -1.758343E+04  5.156814E+03  1.475475E+03
        25  22  6.002896E+05  2.759483E+02  4.011702E+03 -1.719877E+04  3.946839E+02  1.487514E+02
        25  23  5.999142E+05 -3.952670E+02  4.804908E+03  3.932728E+03  2.818722E+03  7.881775E+02
        25  24  6.002953E+05  1.412112E+03  7.757525E+03 -1.719497E+04  5.242536E+03  1.475199E+03
        25  25  5.103324E+05 -2.219798E+04 -1.845225E+04 -1.699720E+04  4.697050E+02  1.484561E+02
        25  26  4.964420E+05 -2.623669E+04 -2.098543E+04  4.227934E+03  2.899112E+03  7.878902E+02
        25  27  4.833094E+05 -2.779569E+04 -2.135524E+04 -1.680657E+04  5.328241E+03  1.474923E+03
        26   1  9.198587E+05  7.942685E+04  8.912480E+04 -1.898631E+04 -6.766710E+03 -1.880639E+03
        26   2  9.322231E+05  8.106467E+04  9.862207E+04  5.018169E+03 -1.470309E+04 -2.563025E+03
        26   3  9.510178E+05  9.663837E+04  1.171471E+05 -1.966454E+04 -2.263833E+04 -3.281470E+03
        26   4  6.015253E+05 -5.837975E+01  9.758629E+03 -1.863210E+04 -6.846986E+03 -1.880445E+03
        26   5  5.983188E+05 -2.301204E+03  1.542095E+04  5.719212E+03 -1.478395E+04 -2.562932E+03
        26   6  6.015445E+05  9.395656E+03  3.011473E+04 -1.861829E+04 -2.271957E+04 -3.281494E+03
        26   7  2.832837E+05 -7.955124E+04 -6.961516E+04 -1.827800E+04 -6.927220E+03 -1.880252E+03
        26   8  2.645155E+05 -8.567546E+04 -6.778855E+04  6.419935E+03 -1.486477E+04 -2.562841E+03
        26   9  2.521818E+05 -7.785624E+04 -5.692681E+04 -1.757258E+04 -2.280076E+04 -3.281518E+03
        26  10  9.198586E+05  7.942684E+04  8.912471E+04 -1.898632E+04 -5.169913E-10 -1.846825E-09
        26  11  9.322229E+05  8.106461E+04  9.862165E+04  5.018139E+03  8.514893E-09 -3.277904E-10
        26  12  9.510173E+05  9.663822E+04  1.171461E+05 -1.966460E+04 -3.008690E-10 -3.018935E-10
        26  13  6.015253E+05 -5.839612E+01  9.758534E+03 -1.863211E+04  5.222343E-11  1.478579E-10
        26  14  5.983186E+05 -2.301270E+03  1.542052E+04  5.719182E+03 -6.111540E-09 -8.467982E-11
        26  15  6.015440E+05  9.395506E+03  3.011374E+04 -1.861835E+04  6.478493E-09 -6.070405E-10
        26  16  2.832837E+05 -7.955125E+04 -6.961525E+04 -1.827801E+04 -5.936192E-09 -1.922149E-09
        26  17  2.645152E+05 -8.567553E+04 -6.778897E+04  6.419904E+03 -1.140546E-08 -7.399924E-10
        26  18  2.521813E+05 -7.785639E+04 -5.692780E+04 -1.757264E+04 -6.719234E-10 -4.952954E-10
        26  19  9.198587E+05  7.942685E+04  8.912480E+04 -1.898631E+04  6.766710E+03  1.880639E+03
        26  20  9.322231E+05  8.106467E+04  9.862207E+04  5.018169E+03  1.470309E+04  2.563025E+03
        26  21  9.510178E+05  9.663837E+04  1.171471E+05 -1.966454E+04  2.263833E+04  3.281470E+03
        26  22  6.015253E+05 -5.837975E+01  9.758629E+03 -1.863210E+04  6.846986E+03  1.880445E+03
        26  23  5.983188E+05 -2.301204E+03  1.542095E+04  5.719212E+03  1.478395E+04  2.562932E+03
        26  24  6.015445E+05  9.395656E+03  3.011473E+04 -1.861829E+04  2.271957E+04  3.281494E+03
        26  25  2.832837E+05 -7.955124E+04 -6.961516E+04 -1.827800E+04  6.927220E+03  1.880252E+03
        26  26  2.645155E+05 -8.567546E+04 -6.778855E+04  6.419935E+03  1.486477E+04  2.562841E+03
        26  27  2.521818E+05 -7.785624E+04 -5.692681E+04 -1.757258E+04  2.280076E+04  3.281518E+03
        27   1  1.203524E+06  1.469879E+05  1.863705E+05 -1.948010E+04 -2.878869E+04 -3.961378E+03
        27   2  1.206367E+06  1.386704E+05  2.131181E+05  8.821886E+03 -6.040206E+04 -4.992521E+03
        27   3  1.243758E+06  2.218350E+05  2.848084E+05 -2.575505E+04 -9.201630E+04 -5.179760E+03
        27   4  6.077129E+05 -1.744615E+03  3.788566E+04 -2.174382E+04 -2.894658E+04 -3.961378E+03
        27   5  5.904561E+05 -1.507116E+04  5.968862E+04  9.624509E+03 -6.043110E+04 -4.992967E+03
        27   6  6.077483E+05  6.310795E+04  1.263750E+05 -2.188983E+04 -9.191549E+04 -5.180579E+03
        27   7  1.222282E+04 -1.505038E+05 -1.106258E+05 -2.400532E+04 -2.910430E+04 -3.961376E+03
        27   8 -2.511105E+04 -1.688412E+05 -9.376939E+04  1.042626E+04 -6.046010E+04 -4.993412E+03
        27   9 -2.789539E+04 -9.564944E+04 -3.208867E+04 -1.802876E+04 -9.181473E+04 -5.181397E+03
        27  10  1.203523E+06  1.469877E+05  1.863689E+05 -1.948019E+04 -5.905098E-10 -2.898757E-10
        27  11  1.206363E+06  1.386694E+05  2.131113E+05  8.821643E+03  9.730326E-09  9.610922E-10
        27  12  1.243749E+06  2.218327E+05  2.847925E+05 -2.575544E+04  2.526713E-09  1.029501E-11
        27  13  6.077120E+05 -1.744856E+03  3.788405E+04 -2.174392E+04  4.252617E-09 -7.802320E-10
        27  14  5.904521E+05 -1.507217E+04  5.968171E+04  9.624266E+03 -6.553829E-09  5.293994E-10
        27  15  6.077392E+05  6.310565E+04  1.263591E+05 -2.189021E+04  1.078499E-09 -4.283481E-10
        27  16  1.222191E+04 -1.505040E+05 -1.106275E+05 -2.400541E+04  2.733616E-09 -6.994858E-10
        27  17 -2.511498E+04 -1.688422E+05 -9.377631E+04  1.042602E+04 -1.074791E-08  3.242011E-10
        27  18 -2.790445E+04 -9.565173E+04 -3.210456E+04 -1.802914E+04 -6.327271E-09  1.657272E-09
        27  19  1.203524E+06  1.469879E+05  1.863705E+05 -1.948010E+04  2.878869E+04  3.961378E+03
        27  20  1.206367E+06  1.386704E+05  2.131181E+05  8.821886E+03  6.040206E+04  4.992521E+03
        27  21  1.243758E+06  2.218350E+05  2.848084E+05 -2.575505E+04  9.201630E+04  5.179760E+03
        27  22  6.077129E+05 -1.744615E+03  3.788566E+04 -2.174382E+04  2.894658E+04  3.961378E+03
        27  23  5.904561E+05 -1.507116E+04  5.968862E+04  9.624509E+03  6.043110E+04  4.992967E+03
        27  24  6.077483E+05  6.310795E+04  1.263750E+05 -2.188983E+04  9.191549E+04  5.180579E+03
        27  25  1.222282E+04 -1.505038E+05 -1.106258E+05 -2.400532E+04  2.910430E+04  3.961376E+03
        27  26 -2.511105E+04 -1.688412E+05 -9.376939E+04  1.042626E+04  6.046010E+04  4.993412E+03
        27  27 -2.789539E+04 -9.564944E+04 -3.208867E+04 -1.802876E+04  9.181473E+04  5.181397E+03
        28   1  1.605707E+06  2.274639E+05  3.936074E+05 -7.395115E+03 -1.168240E+05 -7.296091E+03
        28   2  1.540586E+06  1.492097E+05  4.777784E+05  1.247370E+04 -2.443962E+05 -1.044161E+04
        28   3  1.662485E+06  6.703712E+05  7.988788E+05 -5.870839E+04 -3.720237E+05 -6.308532E+03
        28   4  6.414793E+05 -1.333658E+04  1.533822E+05 -2.696106E+04 -1.174578E+05 -7.295779E+03
        28   5  5.479754E+05 -9.841504E+04  2.306683E+05  1.678028E+04 -2.439783E+05 -1.044345E+04
        28   6  6.415526E+05  4.162339E+05  5.444199E+05 -3.053537E+04 -3.705481E+05 -6.317058E+03
        28   7 -3.219064E+05 -2.542057E+05 -8.691257E+04 -4.649738E+04 -1.180906E+05 -7.295425E+03
        28   8 -4.437431E+05 -3.461137E+05 -1.651562E+04  2.107863E+04 -2.435607E+05 -1.044528E+04
        28   9 -3.784346E+05  1.620219E+05  2.898833E+05 -2.410552E+03 -3.690744E+05 -6.325467E+03
        28  10  1.605692E+06  2.274602E+05  3.935817E+05 -7.395801E+03  2.417446E-09  1.688767E-09
        28  11  1.540522E+06  1.491936E+05  4.776662E+05  1.247165E+04  1.508106E-08  1.959632E-09
        28  12  1.662337E+06  6.703342E+05  7.986193E+05 -5.871028E+04  3.967174E-09 -1.022678E-09
        28  13  6.414645E+05 -1.334034E+04  1.533562E+05 -2.696175E+04  4.324285E-09  3.133712E-10
        28  14  5.479115E+05 -9.843112E+04  2.305564E+05  1.677823E+04 -5.162154E-09 -4.285515E-10
        28  15  6.414053E+05  4.161971E+05  5.441620E+05 -3.053725E+04 -3.072415E-09  4.034099E-10
        28  16 -3.219214E+05 -2.542095E+05 -8.693888E+04 -4.649808E+04 -2.432324E-09  1.285704E-09
        28  17 -4.438069E+05 -3.461297E+05 -1.662737E+04  2.107658E+04 -1.392679E-08  2.645999E-09
        28  18 -3.785809E+05  1.619853E+05  2.896271E+05 -2.412432E+03 -5.135542E-09  4.652507E-10
        28  19  1.605707E+06  2.274639E+05  3.936074E+05 -7.395115E+03  1.168240E+05  7.296091E+03
        28  20  1.540586E+06  1.492097E+05  4.777784E+05  1.247370E+04  2.443962E+05  1.044161E+04
        28  21  1.662485E+06  6.703712E+05  7.988788E+05 -5.870839E+04  3.720237E+05  6.308532E+03
        28  22  6.414793E+05 -1.333658E+04  1.533822E+05 -2.696106E+04  1.174578E+05  7.295779E+03
        28  23  5.479754E+05 -9.841504E+04  2.306683E+05  1.678028E+04  2.439783E+05  1.044345E+04
        28  24  6.415526E+05  4.162339E+05  5.444199E+05 -3.053537E+04  3.705481E+05  6.317058E+03
        28  25 -3.219064E+05 -2.542057E+05 -8.691257E+04 -4.649738E+04  1.180906E+05  7.295425E+03
        28  26 -4.437431E+05 -3.461137E+05 -1.651562E+04  2.107863E+04  2.435607E+05  1.044528E+04
        28  27 -3.784346E+05  1.620219E+05  2.898833E+05 -2.410552E+03  3.690744E+05  6.325467E+03
        29   1  3.131079E+05  2.730601E+04  4.087614E+05 -2.336396E+04 -2.677377E+03  2.787018E+05
        29   2 -7.351761E+04 -3.479634E+04  1.745446E+05 -6.973448E+03 -1.755145E+03  1.833010E+05
        29   3 -1.047482E+04  2.799305E+04  1.149050E+05  1.252236E+04 -8.388607E+02  8.789580E+04
        29   4  3.126075E+05  2.780437E+04  4.087613E+05  2.724269E+03 -2.665664E+03  2.787019E+05
        29   5 -7.364397E+04 -3.467011E+04  1.745446E+05 -3.728022E+02 -1.753196E+03  1.833011E+05
        29   6 -1.022862E+04  2.774636E+04  1.149050E+05 -3.632476E+02 -8.406853E+02  8.789578E+04
        29   7  3.121097E+05  2.830419E+04  4.087614E+05  2.881251E+04 -2.653950E+03  2.787020E+05
        29   8 -7.377016E+04 -3.454379E+04  1.745446E+05  6.227844E+03 -1.751246E+03  1.833011E+05
        29   9 -9.981796E+03  2.750003E+04  1.149050E+05 -1.324885E+04 -8.425098E+02  8.789577E+04
        29  10  3.130870E+05  2.722262E+04  4.086155E+05 -2.336336E+04  2.259442E-09  2.975211E-10
        29  11 -7.352663E+04 -3.483241E+04  1.744815E+05 -6.973189E+03 -3.108482E-09  7.235228E-11
        29  12 -1.047690E+04  2.798476E+04  1.148905E+05  1.252242E+04  4.038354E-09 -3.116875E-11
        29  13  3.125867E+05  2.772098E+04  4.086153E+05  2.724867E+03 -6.041323E-10  6.522671E-11
        29  14 -7.365299E+04 -3.470618E+04  1.744815E+05 -3.725435E+02  6.707770E-09 -1.439286E-11
        29  15 -1.023070E+04  2.773807E+04  1.148904E+05 -3.631881E+02  1.013194E-08 -2.192814E-11
        29  16  3.120889E+05  2.822081E+04  4.086155E+05  2.881310E+04 -6.355344E-09 -1.320948E-10
        29  17 -7.377918E+04 -3.457986E+04  1.744815E+05  6.228102E+03  6.959153E-09 -5.253719E-11
        29  18 -9.983871E+03  2.749173E+04  1.148905E+05 -1.324879E+04 -9.146453E-10 -1.449969E-10
        29  19  3.131079E+05  2.730601E+04  4.087614E+05 -2.336396E+04  2.677377E+03 -2.787018E+05
        29  20 -7.351761E+04 -3.479634E+04  1.745446E+05 -6.973448E+03  1.755145E+03 -1.833010E+05
        29  21 -1.047482E+04  2.799305E+04  1.149050E+05  1.252236E+04  8.388607E+02 -8.789580E+04
        29  22  3.126075E+05  2.780437E+04  4.087613E+05  2.724269E+03  2.665664E+03 -2.787019E+05
        29  23 -7.364397E+04 -3.467011E+04  1.745446E+05 -3.728022E+02  1.753196E+03 -1.833011E+05
        29  24 -1.022862E+04  2.774636E+04  1.149050E+05 -3.632476E+02  8.406853E+02 -8.789578E+04
        29  25  3.121097E+05  2.830419E+04  4.087614E+05  2.881251E+04  2.653950E+03 -2.787020E+05
        29  26 -7.377016E+04 -3.454379E+04  1.745446E+05  6.227844E+03  1.751246E+03 -1.833011E+05
        29  27 -9.981796E+03  2.750003E+04  1.149050E+05 -1.324885E+04  8.425098E+02 -8.789577E+04
        30   1  4.800097E+04  4.477155E+03  9.527104E+04 -3.416278E+03 -6.588255E+02  6.883745E+04
        30   2 -1.132976E+04 -5.697264E+03  4.586108E+04 -9.574183E+02 -4.282363E+02  4.476638E+04
        30   3 -1.406974E+03  4.582754E+03  2.944053E+04  1.968218E+03 -1.978766E+02  2.069556E+04
        30   4  4.792765E+04  4.550434E+03  9.527104E+04  4.149223E+02 -6.584006E+02  6.883746E+04
        30   5 -1.134704E+04 -5.679985E+03  4.586108E+04 -5.420791E+01 -4.281712E+02  4.476638E+04
        30   6 -1.368246E+03  4.544014E+03  2.944052E+04 -5.655339E+01 -1.979441E+02  2.069556E+04
        30   7  4.785439E+04  4.623744E+03  9.527104E+04  4.246123E+03 -6.579757E+02  6.883746E+04
        30   8 -1.136432E+04 -5.662705E+03  4.586108E+04  8.490025E+02 -4.281060E+02  4.476639E+04
        30   9 -1.329503E+03  4.505283E+03  2.944053E+04 -2.081324E+03 -1.980116E+02  2.069555E+04
        30  10  4.799970E+04  4.472067E+03  9.526214E+04 -3.416242E+03 -1.208156E-09  2.603925E-10
        30  11 -1.133030E+04 -5.699416E+03  4.585731E+04 -9.574029E+02  6.423472E-09  1.184413E-10
        30  12 -1.407089E+03  4.582294E+03  2.943972E+04  1.968221E+03  3.018842E-09 -2.195473E-11
        30  13  4.792638E+04  4.545346E+03  9.526213E+04  4.149588E+02  3.410055E-09 -2.890282E-10
        30  14 -1.134758E+04 -5.682137E+03  4.585731E+04 -5.419247E+01 -2.924203E-09 -1.681851E-10
        30  15 -1.368361E+03  4.543554E+03  2.943972E+04 -5.655009E+01  4.840182E-10 -1.507767E-10
        30  16  4.785311E+04  4.618656E+03  9.526214E+04  4.246160E+03 -2.124966E-09 -4.947662E-10
        30  17 -1.136486E+04 -5.664857E+03  4.585731E+04  8.490180E+02 -2.745329E-09 -4.188511E-10
        30  18 -1.329618E+03  4.504823E+03  2.943972E+04 -2.081321E+03 -8.560786E-09 -8.666755E-11
        30  19  4.800097E+04  4.477155E+03  9.527104E+04 -3.416278E+03  6.588255E+02 -6.883745E+04
        30  20 -1.132976E+04 -5.697264E+03  4.586108E+04 -9.574183E+02  4.282363E+02 -4.476638E+04
        30  21 -1.406974E+03  4.582754E+03  2.944053E+04  1.968218E+03  1.978766E+02 -2.069556E+04
        30  22  4.792765E+04  4.550434E+03  9.527104E+04  4.149223E+02  6.584006E+02 -6.883746E+04
        30  23 -1.134704E+04 -5.679985E+03  4.586108E+04 -5.420791E+01  4.281712E+02 -4.476638E+04
        30  24 -1.368246E+03  4.544014E+03  2.944052E+04 -5.655339E+01  1.979441E+02 -2.069556E+04
        30  25  4.785439E+04  4.623744E+03  9.527104E+04  4.246123E+03  6.579757E+02 -6.883746E+04
        30  26 -1.136432E+04 -5.662705E+03  4.586108E+04  8.490025E+02  4.281060E+02 -4.476639E+04
        30  27 -1.329503E+03  4.505283E+03  2.944053E+04 -2.081324E+03  1.980116E+02 -2.069555E+04
        31   1  7.290504E+03  8.769137E+02  2.423746E+04 -5.283638E+02 -1.514260E+02  1.583040E+04
        31   2 -1.989353E+03 -1.111334E+03  1.438761E+04 -1.090071E+02 -8.106413E+01  8.475317E+03
        31   3  8.738981E+02  8.949207E+02  1.236257E+04  3.882880E+02 -1.071516E+01  1.120371E+03
        31   4  7.279226E+03  8.881909E+02  2.423746E+04  6.113309E+01 -1.514110E+02  1.583040E+04
        31   5 -1.991277E+03 -1.109410E+03  1.438761E+04 -8.435457E+00 -8.106276E+01  8.475317E+03
        31   6  8.813273E+02  8.874911E+02  1.236257E+04 -5.895934E-02 -1.071586E+01  1.120371E+03
        31   7  7.267949E+03  8.994689E+02  2.423746E+04  6.506300E+02 -1.513959E+02  1.583040E+04
        31   8 -1.993201E+03 -1.107486E+03  1.438761E+04  9.213615E+01 -8.106138E+01  8.475317E+03
        31   9  8.887570E+02  8.800618E+02  1.236257E+04 -3.884059E+02 -1.071656E+01  1.120371E+03
        31  10  7.290437E+03  8.766446E+02  2.423699E+04 -5.283618E+02  2.892837E-09 -6.024493E-10
        31  11 -1.989373E+03 -1.111411E+03  1.438747E+04 -1.090065E+02 -9.517751E-09 -1.866008E-10
        31  12  8.738978E+02  8.949193E+02  1.236257E+04  3.882880E+02  3.887800E-10  7.156854E-10
        31  13  7.279159E+03  8.879218E+02  2.423699E+04  6.113502E+01 -5.536269E-09 -1.734814E-10
        31  14 -1.991297E+03 -1.109487E+03  1.438747E+04 -8.434904E+00 -1.034587E-08 -1.467267E-10
        31  15  8.813269E+02  8.874897E+02  1.236257E+04 -5.894958E-02  5.433350E-09 -3.827428E-11
        31  16  7.267882E+03  8.991998E+02  2.423699E+04  6.506319E+02 -1.006896E-08  5.750358E-10
        31  17 -1.993221E+03 -1.107563E+03  1.438747E+04  9.213670E+01  4.257655E-09  4.818089E-11
        31  18  8.887567E+02  8.800605E+02  1.236257E+04 -3.884059E+02 -4.167651E-09 -7.151687E-10
        31  19  7.290504E+03  8.769137E+02  2.423746E+04 -5.283638E+02  1.514260E+02 -1.583040E+04
        31  20 -1.989353E+03 -1.111334E+03  1.438761E+04 -1.090071E+02  8.106413E+01 -8.475317E+03
        31  21  8.738981E+02  8.949207E+02  1.236257E+04  3.882880E+02  1.071516E+01 -1.120371E+03
        31  22  7.279226E+03  8.881909E+02  2.423746E+04  6.113309E+01  1.514110E+02 -1.583040E+04
        31  23 -1.991277E+03 -1.109410E+03  1.438761E+04 -8.435457E+00  8.106276E+01 -8.475317E+03
        31  24  8.813273E+02  8.874911E+02  1.236257E+04 -5.895930E-02  1.071586E+01 -1.120371E+03
        31  25  7.267949E+03  8.994689E+02  2.423746E+04  6.506300E+02  1.513959E+02 -1.583040E+04
        31  26 -1.993201E+03 -1.107486E+03  1.438761E+04  9.213615E+01  8.106138E+01 -8.475317E+03
        31  27  8.887570E+02  8.800618E+02  1.236257E+04 -3.884059E+02  1.071656E+01 -1.120371E+03
        32   1 -1.009474E+07 -3.334528E+06 -2.110214E+06 -3.522251E+06 -8.968642E+05 -3.101268E+05
        32   2 -9.862707E+06 -2.027255E+06 -1.283190E+06 -3.653318E+06 -5.875553E+05 -1.188997E+05
        32   3 -1.008583E+07 -1.988049E+06 -1.041934E+06 -3.511792E+06 -2.525057E+05  5.622529E+03
        32   4 -7.509215E+06 -2.045497E+06 -1.338212E+06 -2.514429E+06 -8.546254E+05 -2.943875E+05
        32   5 -7.211734E+06 -9.291061E+05 -5.576631E+05 -2.836710E+06 -5.752095E+05 -1.142986E+05
        32   6 -7.361413E+06 -1.071702E+06 -3.370113E+05 -2.886999E+06 -2.700857E+05 -1.047449E+03
        32   7 -4.916911E+06 -7.545467E+05 -5.668789E+05 -1.502274E+06 -8.121829E+05 -2.785180E+05
        32   8 -4.553817E+06  1.698533E+05  1.672171E+05 -2.016759E+06 -5.628000E+05 -1.096685E+05
        32   9 -4.629698E+06 -1.552644E+05  3.673097E+05 -2.259858E+06 -2.877498E+05 -7.740723E+03
        32  10 -1.009565E+07 -3.334854E+06 -2.111938E+06 -3.522478E+06 -8.432874E-09 -1.497825E-09
        32  11 -9.863087E+06 -2.027366E+06 -1.283877E+06 -3.653375E+06 -8.547536E-09  8.101921E-10
        32  12 -1.008590E+07 -1.988067E+06 -1.042056E+06 -3.511791E+06 -3.857337E-11  1.397580E-09
        32  13 -7.510031E+06 -2.045790E+06 -1.339768E+06 -2.514633E+06 -1.962446E-08  4.336594E-10
        32  14 -7.212096E+06 -9.292106E+05 -5.583179E+05 -2.836763E+06 -7.806234E-10  2.859388E-10
        32  15 -7.361492E+06 -1.071722E+06 -3.371500E+05 -2.886999E+06  2.621722E-09 -2.364930E-09
        32  16 -4.917645E+06 -7.548096E+05 -5.682764E+05 -1.502457E+06  1.354644E-08  2.194202E-09
        32  17 -4.554162E+06  1.697543E+05  1.665939E+05 -2.016809E+06 -4.821023E-09 -1.090023E-09
        32  18 -4.629787E+06 -1.552869E+05  3.671528E+05 -2.259860E+06  9.443662E-10 -5.408172E-09
        32  19 -1.009474E+07 -3.334528E+06 -2.110214E+06 -3.522251E+06  8.968642E+05  3.101268E+05
        32  20 -9.862707E+06 -2.027255E+06 -1.283190E+06 -3.653318E+06  5.875553E+05  1.188997E+05
        32  21 -1.008583E+07 -1.988049E+06 -1.041934E+06 -3.511792E+06  2.525057E+05 -5.622529E+03
        32  22 -7.509215E+06 -2.045497E+06 -1.338212E+06 -2.514429E+06  8.546254E+05  2.943875E+05
        32  23 -7.211734E+06 -9.291061E+05 -5.576631E+05 -2.836710E+06  5.752095E+05  1.142986E+05
        32  24 -7.361413E+06 -1.071702E+06 -3.370113E+05 -2.886999E+06  2.700857E+05  1.047449E+03
        32  25 -4.916911E+06 -7.545467E+05 -5.668789E+05 -1.502274E+06  8.121829E+05  2.785180E+05
        32  26 -4.553817E+06  1.698533E+05  1.672171E+05 -2.016759E+06  5.628000E+05  1.096685E+05
        32  27 -4.629698E+06 -1.552644E+05  3.673097E+05 -2.259858E+06  2.877498E+05  7.740723E+03
        33   1 -9.721502E+06 -2.174444E+06 -9.277301E+05 -3.513847E+06 -2.182432E+05  4.437698E+03
        33   2 -9.574800E+06 -1.911582E+06 -7.342961E+05 -3.421443E+06 -1.463708E+05  2.971483E+04
        33   3 -9.374491E+06 -1.890644E+06 -6.299054E+05 -3.414711E+06 -7.183520E+04  4.791474E+04
        33   4 -7.306183E+06 -1.224945E+06 -2.743958E+05 -2.821499E+06 -2.179462E+05  4.513464E+03
        33   5 -7.325187E+06 -1.049924E+06 -1.315822E+05 -2.799139E+06 -1.491034E+05  2.865793E+04
        33   6 -7.289781E+06 -1.115862E+06 -7.510043E+04 -2.862483E+06 -7.762324E+04  4.572287E+04
        33   7 -4.885137E+06 -2.749740E+05  3.784105E+05 -2.126632E+06 -2.176465E+05  4.590394E+03
        33   8 -5.070607E+06 -1.879260E+05  4.706832E+05 -2.174752E+06 -1.518463E+05  2.759714E+04
        33   9 -5.200810E+06 -3.408550E+05  4.793264E+05 -2.308566E+06 -8.343269E+04  4.352332E+04
        33  10 -9.721554E+06 -2.174457E+06 -9.278210E+05 -3.513846E+06 -2.671083E-09 -9.948288E-10
        33  11 -9.574824E+06 -1.911589E+06 -7.343385E+05 -3.421440E+06  3.156719E-10  2.097448E-09
        33  12 -9.374497E+06 -1.890647E+06 -6.299194E+05 -3.414708E+06  3.808758E-10 -6.638631E-10
        33  13 -7.306234E+06 -1.224958E+06 -2.744861E+05 -2.821498E+06  1.557671E-10 -1.857638E-09
        33  14 -7.325212E+06 -1.049931E+06 -1.316259E+05 -2.799136E+06  1.447488E-10  2.061909E-09
        33  15 -7.289789E+06 -1.115866E+06 -7.511572E+04 -2.862480E+06 -7.987301E-10 -8.963763E-10
        33  16 -4.885188E+06 -2.749868E+05  3.783208E+05 -2.126632E+06  5.460217E-09 -1.910173E-09
        33  17 -5.070632E+06 -1.879331E+05  4.706381E+05 -2.174749E+06  3.224092E-09  1.249730E-09
        33  18 -5.200818E+06 -3.408589E+05  4.793097E+05 -2.308564E+06  1.636898E-09 -2.332120E-10
        33  19 -9.721502E+06 -2.174444E+06 -9.277301E+05 -3.513847E+06  2.182432E+05 -4.437698E+03
        33  20 -9.574800E+06 -1.911582E+06 -7.342961E+05 -3.421443E+06  1.463708E+05 -2.971483E+04
        33  21 -9.374491E+06 -1.890644E+06 -6.299054E+05 -3.414711E+06  7.183520E+04 -4.791474E+04
        33  22 -7.306183E+06 -1.224945E+06 -2.743958E+05 -2.821499E+06  2.179462E+05 -4.513464E+03
        33  23 -7.325187E+06 -1.049924E+06 -1.315822E+05 -2.799139E+06  1.491034E+05 -2.865793E+04
        33  24 -7.289781E+06 -1.115862E+06 -7.510043E+04 -2.862483E+06  7.762324E+04 -4.572287E+04
        33  25 -4.885137E+06 -2.749740E+05  3.784105E+05 -2.126632E+06  2.176465E+05 -4.590394E+03
        33  26 -5.070607E+06 -1.879260E+05  4.706832E+05 -2.174752E+06  1.518463E+05 -2.759714E+04
        33  27 -5.200810E+06 -3.408550E+05  4.793264E+05 -2.308566E+06  8.343269E+04 -4.352332E+04
        34   1 -9.017271E+06 -1.801913E+06 -5.236605E+05 -3.340348E+06 -5.996617E+04  4.492375E+04
        34   2 -8.832434E+06 -1.612631E+06 -4.267264E+05 -3.185400E+06 -3.994662E+04  4.067708E+04
        34   3 -8.501775E+06 -1.588530E+06 -3.453016E+05 -3.199138E+06 -1.937184E+04  3.484202E+04
        34   4 -7.275189E+06 -1.141248E+06 -5.888684E+04 -2.864841E+06 -6.448082E+04  4.321747E+04
        34   5 -7.347093E+06 -1.052154E+06 -3.053932E+04 -2.782914E+06 -4.515580E+04  3.872080E+04
        34   6 -7.273095E+06 -1.128049E+06 -1.710258E+04 -2.869674E+06 -2.528373E+04  3.263487E+04
        34   7 -5.530132E+06 -4.803931E+05  4.056199E+05 -2.388106E+06 -6.900944E+04  4.150594E+04
        34   8 -5.859594E+06 -4.915458E+05  3.654534E+05 -2.379546E+06 -5.037878E+04  3.675936E+04
        34   9 -6.042943E+06 -6.674845E+05  3.109627E+05 -2.539614E+06 -3.120858E+04  3.042294E+04
        34  10 -9.017276E+06 -1.801916E+06 -5.236711E+05 -3.340346E+06 -2.613465E-09 -2.986147E-09
        34  11 -8.832436E+06 -1.612633E+06 -4.267325E+05 -3.185398E+06  4.439251E-09  5.242222E-10
        34  12 -8.501776E+06 -1.588531E+06 -3.453045E+05 -3.199138E+06  3.107443E-09 -5.432575E-10
        34  13 -7.275194E+06 -1.141251E+06 -5.889818E+04 -2.864839E+06  4.444774E-09 -9.264251E-10
        34  14 -7.347096E+06 -1.052156E+06 -3.054597E+04 -2.782913E+06 -4.606766E-09 -5.495657E-10
        34  15 -7.273096E+06 -1.128050E+06 -1.710578E+04 -2.869673E+06 -1.045760E-08 -6.897605E-10
        34  16 -5.530138E+06 -4.803962E+05  4.056077E+05 -2.388104E+06  4.064115E-09  4.757923E-10
        34  17 -5.859597E+06 -4.915479E+05  3.654461E+05 -2.379545E+06  9.103901E-09  6.737584E-10
        34  18 -6.042944E+06 -6.674858E+05  3.109592E+05 -2.539614E+06 -4.265960E-09 -7.687033E-11
        34  19 -9.017271E+06 -1.801913E+06 -5.236605E+05 -3.340348E+06  5.996617E+04 -4.492375E+04
        34  20 -8.832434E+06 -1.612631E+06 -4.267264E+05 -3.185400E+06  3.994662E+04 -4.067708E+04
        34  21 -8.501775E+06 -1.588530E+06 -3.453016E+05 -3.199138E+06  1.937184E+04 -3.484202E+04
        34  22 -7.275189E+06 -1.141248E+06 -5.888684E+04 -2.864841E+06  6.448082E+04 -4.321747E+04
        34  23 -7.347093E+06 -1.052154E+06 -3.053932E+04 -2.782914E+06  4.515580E+04 -3.872080E+04
        34  24 -7.273095E+06 -1.128049E+06 -1.710258E+04 -2.869674E+06  2.528373E+04 -3.263487E+04
        34  25 -5.530132E+06 -4.803931E+05  4.056199E+05 -2.388106E+06  6.900944E+04 -4.150594E+04
        34  26 -5.859594E+06 -4.915458E+05  3.654534E+05 -2.379546E+06  5.037878E+04 -3.675936E+04
        34  27 -6.042943E+06 -6.674845E+05  3.109627E+05 -2.539614E+06  3.120858E+04 -3.042294E+04
        35   1 -8.076132E+06 -1.438921E+06 -2.277816E+05 -3.092916E+06 -1.415771E+04  2.835030E+04
        35   2 -7.862292E+06 -1.237640E+06 -1.432748E+05 -2.911963E+06 -5.238748E+03  1.703993E+04
        35   3 -7.476223E+06 -1.211617E+06 -6.238750E+04 -2.931164E+06  3.822396E+03  5.303401E+03
        35   4 -7.267686E+06 -1.135122E+06 -1.347518E+04 -2.874773E+06 -2.006269E+04  2.615157E+04
        35   5 -7.353611E+06 -1.046642E+06 -7.847966E+03 -2.774993E+06 -1.133779E+04  1.477296E+04
        35   6 -7.267371E+06 -1.133375E+06 -5.676894E+03 -2.875391E+06 -2.473151E+03  2.967931E+03
        35   7 -6.458596E+06 -8.312837E+05  2.007755E+05 -2.656369E+06 -2.597622E+04  2.394964E+04
        35   8 -6.844677E+06 -8.556288E+05  1.275561E+05 -2.637919E+06 -1.744237E+04  1.250393E+04
        35   9 -7.058479E+06 -1.055132E+06  5.102950E+04 -2.819600E+06 -8.771003E+03  6.316137E+02
        35  10 -8.076133E+06 -1.438922E+06 -2.277835E+05 -3.092915E+06 -1.446097E-09 -2.501655E-09
        35  11 -7.862292E+06 -1.237640E+06 -1.432754E+05 -2.911963E+06  1.025476E-08 -1.462903E-09
        35  12 -7.476223E+06 -1.211617E+06 -6.238758E+04 -2.931164E+06 -7.173087E-10  4.856225E-09
        35  13 -7.267687E+06 -1.135123E+06 -1.347722E+04 -2.874773E+06 -3.979625E-09 -2.439661E-09
        35  14 -7.353611E+06 -1.046642E+06 -7.848616E+03 -2.774992E+06  4.512403E-09 -7.858905E-10
        35  15 -7.267371E+06 -1.133375E+06 -5.676922E+03 -2.875391E+06 -2.482800E-09  3.355289E-09
        35  16 -6.458597E+06 -8.312845E+05  2.007732E+05 -2.656369E+06 -1.802923E-09 -1.173519E-09
        35  17 -6.844678E+06 -8.556290E+05  1.275553E+05 -2.637919E+06 -4.504715E-09  9.793384E-10
        35  18 -7.058479E+06 -1.055132E+06  5.102935E+04 -2.819600E+06 -2.847914E-09  1.493273E-09
        35  19 -8.076132E+06 -1.438921E+06 -2.277816E+05 -3.092916E+06  1.415771E+04 -2.835030E+04
        35  20 -7.862292E+06 -1.237640E+06 -1.432748E+05 -2.911963E+06  5.238748E+03 -1.703993E+04
        35  21 -7.476223E+06 -1.211617E+06 -6.238750E+04 -2.931164E+06 -3.822396E+03 -5.303401E+03
        35  22 -7.267686E+06 -1.135122E+06 -1.347518E+04 -2.874773E+06  2.006269E+04 -2.615157E+04
        35  23 -7.353611E+06 -1.046642E+06 -7.847966E+03 -2.774993E+06  1.133779E+04 -1.477296E+04
        35  24 -7.267371E+06 -1.133375E+06 -5.676894E+03 -2.875391E+06  2.473151E+03 -2.967931E+03
        35  25 -6.458596E+06 -8.312837E+05  2.007755E+05 -2.656369E+06  2.597622E+04 -2.394964E+04
        35  26 -6.844677E+06 -8.556288E+05  1.275561E+05 -2.637919E+06  1.744237E+04 -1.250393E+04
        35  27 -7.058479E+06 -1.055132E+06  5.102950E+04 -2.819600E+06  8.771003E+03 -6.316137E+02
        36   1 -7.026345E+06 -1.042964E+06  5.989471E+04 -2.810750E+06  7.640190E+03 -2.246187E+03
        36   2 -6.813088E+06 -8.439256E+05  1.376117E+05 -2.629496E+06  1.546163E+04 -1.441812E+04
        36   3 -6.427556E+06 -8.192187E+05  2.127935E+05 -2.648019E+06  2.313562E+04 -2.613488E+04
        36   4 -7.267398E+06 -1.133335E+06 -5.381298E+03 -2.875261E+06  1.342765E+03 -4.582434E+03
        36   5 -7.353603E+06 -1.046821E+06 -6.197781E+03 -2.775109E+06  9.371444E+03 -1.668214E+04
        36   6 -7.267651E+06 -1.134697E+06 -9.708894E+03 -2.874783E+06  1.725096E+04 -2.832672E+04
        36   7 -7.508395E+06 -1.223704E+06 -7.066259E+04 -2.939750E+06 -4.951968E+03 -6.917688E+03
        36   8 -7.893836E+06 -1.249702E+06 -1.500336E+05 -2.920608E+06  3.287099E+03 -1.894399E+04
        36   9 -8.107062E+06 -1.450137E+06 -2.322745E+05 -3.101269E+06  1.137505E+04 -3.051529E+04
        36  10 -7.026345E+06 -1.042964E+06  5.989459E+04 -2.810750E+06  2.442368E-09  6.921806E-09
        36  11 -6.813089E+06 -8.439259E+05  1.376109E+05 -2.629495E+06  4.665545E-09 -1.880254E-09
        36  12 -6.427557E+06 -8.192196E+05  2.127912E+05 -2.648018E+06  2.748123E-09 -1.187361E-09
        36  13 -7.267398E+06 -1.133335E+06 -5.381341E+03 -2.875261E+06 -3.858765E-10  2.333457E-09
        36  14 -7.353603E+06 -1.046822E+06 -6.198467E+03 -2.775109E+06  1.020212E-09 -8.365872E-10
        36  15 -7.267651E+06 -1.134698E+06 -9.710954E+03 -2.874782E+06 -4.024728E-09  1.532943E-09
        36  16 -7.508395E+06 -1.223704E+06 -7.066273E+04 -2.939750E+06  1.947996E-09 -2.491163E-09
        36  17 -7.893836E+06 -1.249702E+06 -1.500343E+05 -2.920608E+06 -3.134341E-09 -4.975181E-10
        36  18 -8.107063E+06 -1.450138E+06 -2.322765E+05 -3.101268E+06  1.413579E-09  2.690818E-09
        36  19 -7.026345E+06 -1.042964E+06  5.989471E+04 -2.810750E+06 -7.640190E+03  2.246187E+03
        36  20 -6.813088E+06 -8.439256E+05  1.376117E+05 -2.629496E+06 -1.546163E+04  1.441812E+04
        36  21 -6.427556E+06 -8.192187E+05  2.127935E+05 -2.648019E+06 -2.313562E+04  2.613488E+04
        36  22 -7.267398E+06 -1.133335E+06 -5.381298E+03 -2.875261E+06 -1.342765E+03  4.582434E+03
        36  23 -7.353603E+06 -1.046821E+06 -6.197781E+03 -2.775109E+06 -9.371444E+03  1.668214E+04
        36  24 -7.267651E+06 -1.134697E+06 -9.708894E+03 -2.874783E+06 -1.725096E+04  2.832672E+04
        36  25 -7.508395E+06 -1.223704E+06 -7.066259E+04 -2.939750E+06  4.951968E+03  6.917688E+03
        36  26 -7.893836E+06 -1.249702E+06 -1.500336E+05 -2.920608E+06 -3.287099E+03  1.894399E+04
        36  27 -8.107062E+06 -1.450137E+06 -2.322745E+05 -3.101269E+06 -1.137505E+04  3.051529E+04
        37   1 -6.014378E+06 -6.561322E+05  3.237129E+05 -2.530840E+06  2.763003E+04 -3.284356E+04
        37   2 -5.832833E+06 -4.823614E+05  3.819311E+05 -2.372550E+06  4.204007E+04 -4.087883E+04
        37   3 -5.503811E+06 -4.676479E+05  4.306444E+05 -2.382693E+06  5.590423E+04 -4.731463E+04
        37   4 -7.272968E+06 -1.127964E+06 -1.202016E+04 -2.869189E+06  2.173925E+04 -3.504364E+04
        37   5 -7.347379E+06 -1.053110E+06 -2.124471E+04 -2.783207E+06  3.686708E+04 -4.282243E+04
        37   6 -7.274517E+06 -1.137507E+06 -4.056212E+04 -2.865710E+06  5.144374E+04 -4.900141E+04
        37   7 -8.530003E+06 -1.599702E+06 -3.478895E+05 -3.206910E+06  1.586174E+04 -3.723881E+04
        37   8 -8.859679E+06 -1.623720E+06 -4.246195E+05 -3.192946E+06  3.170806E+04 -4.476082E+04
        37   9 -9.042158E+06 -1.807171E+06 -5.120428E+05 -3.347465E+06  4.699725E+04 -5.068293E+04
        37  10 -6.014379E+06 -6.561335E+05  3.237095E+05 -2.530840E+06  1.463811E-09 -9.911616E-10
        37  11 -5.832835E+06 -4.823637E+05  3.819247E+05 -2.372549E+06 -3.088355E-09 -2.444899E-09
        37  12 -5.503815E+06 -4.676512E+05  4.306344E+05 -2.382691E+06  8.584269E-09 -6.973990E-10
        37  13 -7.272969E+06 -1.127965E+06 -1.202334E+04 -2.869189E+06  2.704090E-09  1.573235E-09
        37  14 -7.347381E+06 -1.053112E+06 -2.125070E+04 -2.783205E+06  1.213336E-09 -2.577634E-09
        37  15 -7.274521E+06 -1.137510E+06 -4.057159E+04 -2.865708E+06  1.164335E-08 -3.226684E-09
        37  16 -8.530004E+06 -1.599703E+06 -3.478926E+05 -3.206909E+06  9.282594E-09  3.472313E-09
        37  17 -8.859680E+06 -1.623722E+06 -4.246252E+05 -3.192944E+06  5.651686E-09 -2.553997E-09
        37  18 -9.042161E+06 -1.807175E+06 -5.120518E+05 -3.347463E+06 -9.379062E-09 -4.879797E-09
        37  19 -6.014378E+06 -6.561322E+05  3.237129E+05 -2.530840E+06 -2.763003E+04  3.284356E+04
        37  20 -5.832833E+06 -4.823614E+05  3.819311E+05 -2.372550E+06 -4.204007E+04  4.087883E+04
        37  21 -5.503811E+06 -4.676479E+05  4.306444E+05 -2.382693E+06 -5.590423E+04  4.731463E+04
        37  22 -7.272968E+06 -1.127964E+06 -1.202016E+04 -2.869189E+06 -2.173925E+04  3.504364E+04
        37  23 -7.347379E+06 -1.053110E+06 -2.124471E+04 -2.783207E+06 -3.686708E+04  4.282243E+04
        37  24 -7.274517E+06 -1.137507E+06 -4.056212E+04 -2.865710E+06 -5.144374E+04  4.900141E+04
        37  25 -8.530003E+06 -1.599702E+06 -3.478895E+05 -3.206910E+06 -1.586174E+04  3.723881E+04
        37  26 -8.859679E+06 -1.623720E+06 -4.246195E+05 -3.192946E+06 -3.170806E+04  4.476082E+04
        37  27 -9.042158E+06 -1.807171E+06 -5.120428E+05 -3.347465E+06 -4.699725E+04  5.068293E+04
        38   1 -5.180074E+06 -3.301550E+05  5.086281E+05 -2.296697E+06  6.694391E+04 -5.054524E+04
        38   2 -5.053880E+06 -1.883039E+05  5.166438E+05 -2.171203E+06  1.140169E+05 -4.257188E+04
        38   3 -4.855237E+06 -2.423823E+05  4.685656E+05 -2.139962E+06  1.584868E+05 -2.756190E+04
        38   4 -7.287477E+06 -1.116713E+06 -5.157377E+04 -2.860361E+06  6.121414E+04 -5.271685E+04
        38   5 -7.328996E+06 -1.055990E+06 -9.067690E+04 -2.799068E+06  1.114104E+05 -4.358094E+04
        38   6 -7.298867E+06 -1.192092E+06 -1.885439E+05 -2.832051E+06  1.589856E+05 -2.740374E+04
        38   7 -9.390553E+06 -1.903033E+06 -6.121649E+05 -3.422289E+06  5.550574E+04 -5.488072E+04
        38   8 -9.599058E+06 -1.923338E+06 -6.984547E+05 -3.424823E+06  1.088140E+05 -4.458620E+04
        38   9 -9.736661E+06 -2.141352E+06 -8.461869E+05 -3.521620E+06  1.594813E+05 -2.724690E+04
        38  10 -5.180079E+06 -3.301589E+05  5.086148E+05 -2.296694E+06  2.998967E-09 -9.801339E-10
        38  11 -5.053894E+06 -1.883094E+05  5.166158E+05 -2.171199E+06  5.130469E-09  3.650824E-09
        38  12 -4.855264E+06 -2.423899E+05  4.685166E+05 -2.139958E+06  1.005541E-08  4.668109E-09
        38  13 -7.287481E+06 -1.116717E+06 -5.158603E+04 -2.860358E+06  1.700532E-10 -7.037962E-10
        38  14 -7.329010E+06 -1.055995E+06 -9.070395E+04 -2.799064E+06  6.355504E-09  2.564955E-09
        38  15 -7.298895E+06 -1.192099E+06 -1.885933E+05 -2.832048E+06  5.232548E-09 -6.302032E-10
        38  16 -9.390557E+06 -1.903037E+06 -6.121764E+05 -3.422287E+06 -4.075515E-09 -1.080212E-09
        38  17 -9.599071E+06 -1.923343E+06 -6.984809E+05 -3.424819E+06 -9.523699E-10  2.298481E-09
        38  18 -9.736689E+06 -2.141359E+06 -8.462367E+05 -3.521617E+06 -5.952667E-09 -1.514424E-09
        38  19 -5.180074E+06 -3.301550E+05  5.086281E+05 -2.296697E+06 -6.694391E+04  5.054524E+04
        38  20 -5.053880E+06 -1.883039E+05  5.166438E+05 -2.171203E+06 -1.140169E+05  4.257188E+04
        38  21 -4.855237E+06 -2.423823E+05  4.685656E+05 -2.139962E+06 -1.584868E+05  2.756190E+04
        38  22 -7.287477E+06 -1.116713E+06 -5.157377E+04 -2.860361E+06 -6.121414E+04  5.271685E+04
        38  23 -7.328996E+06 -1.055990E+06 -9.067690E+04 -2.799068E+06 -1.114104E+05  4.358094E+04
        38  24 -7.298867E+06 -1.192092E+06 -1.885439E+05 -2.832051E+06 -1.589856E+05  2.740374E+04
        38  25 -9.390553E+06 -1.903033E+06 -6.121649E+05 -3.422289E+06 -5.550574E+04  5.488072E+04
        38  26 -9.599058E+06 -1.923338E+06 -6.984547E+05 -3.424823E+06 -1.088140E+05  4.458620E+04
        38  27 -9.736661E+06 -2.141352E+06 -8.461869E+05 -3.521620E+06 -1.594813E+05  2.724690E+04
        39   1 -4.626361E+06 -1.335443E+05  4.757020E+05 -2.210123E+06  2.136671E+05 -2.082960E+04
        39   2 -4.561492E+06  1.050314E+05  3.433896E+05 -2.029345E+06  3.935218E+05  4.460117E+04
        39   3 -4.780000E+06 -5.244764E+05 -1.472983E+05 -1.675440E+06  5.478578E+05  1.764615E+05
        39   4 -7.340871E+06 -1.082519E+06 -2.315204E+05 -2.872199E+06  1.962639E+05 -2.745960E+04
        39   5 -7.246259E+06 -9.786691E+05 -3.837146E+05 -2.830977E+06  4.063978E+05  4.945891E+04
        39   6 -7.442544E+06 -1.751320E+06 -9.197718E+05 -2.616245E+06  5.909517E+05  1.928425E+05
        39   7 -1.004818E+07 -2.031303E+06 -9.393557E+05 -3.531748E+06  1.789436E+05 -3.406399E+04
        39   8 -9.923943E+06 -2.061656E+06 -1.111467E+06 -3.629342E+06  4.192086E+05  5.428843E+04
        39   9 -1.009805E+07 -2.976745E+06 -1.692935E+06 -3.553031E+06  6.338344E+05  2.091064E+05
        39  10 -4.626410E+06 -1.335571E+05  4.756149E+05 -2.210119E+06 -6.629321E-09 -5.151116E-10
        39  11 -4.561660E+06  1.049872E+05  3.430924E+05 -2.029359E+06 -6.452092E-09  5.650748E-09
        39  12 -4.780332E+06 -5.245915E+05 -1.479263E+05 -1.675518E+06  8.398832E-09  1.771929E-09
        39  13 -7.340913E+06 -1.082531E+06 -2.315950E+05 -2.872194E+06  4.097533E-10  1.163364E-09
        39  14 -7.246439E+06 -9.787168E+05 -3.840336E+05 -2.830994E+06  2.181157E-09 -2.382277E-10
        39  15 -7.442933E+06 -1.751456E+06 -9.205079E+05 -2.616338E+06 -7.083075E-09  5.631711E-09
        39  16 -1.004822E+07 -2.031313E+06 -9.394188E+05 -3.531744E+06  5.553078E-09  4.302451E-09
        39  17 -9.924135E+06 -2.061707E+06 -1.111809E+06 -3.629361E+06 -3.456029E-09  7.198835E-09
        39  18 -1.009849E+07 -2.976903E+06 -1.693787E+06 -3.553139E+06 -5.438349E-09  8.283500E-10
        39  19 -4.626361E+06 -1.335443E+05  4.757020E+05 -2.210123E+06 -2.136671E+05  2.082960E+04
        39  20 -4.561492E+06  1.050314E+05  3.433896E+05 -2.029345E+06 -3.935218E+05 -4.460117E+04
        39  21 -4.780000E+06 -5.244764E+05 -1.472983E+05 -1.675440E+06 -5.478578E+05 -1.764615E+05
        39  22 -7.340871E+06 -1.082519E+06 -2.315204E+05 -2.872199E+06 -1.962639E+05  2.745960E+04
        39  23 -7.246259E+06 -9.786691E+05 -3.837146E+05 -2.830977E+06 -4.063978E+05 -4.945891E+04
        39  24 -7.442544E+06 -1.751320E+06 -9.197718E+05 -2.616245E+06 -5.909517E+05 -1.928425E+05
        39  25 -1.004818E+07 -2.031303E+06 -9.393557E+05 -3.531748E+06 -1.789436E+05  3.406399E+04
        39  26 -9.923943E+06 -2.061656E+06 -1.111467E+06 -3.629342E+06 -4.192086E+05 -5.428843E+04
        39  27 -1.009805E+07 -2.976745E+06 -1.692935E+06 -3.553031E+06 -6.338344E+05 -2.091064E+05
        40   1  3.721698E+05  7.259852E+04  4.364219E+05 -1.506157E+05 -2.749060E+03  2.914085E+05
        40   2  3.465308E+04  1.040611E+05  2.293335E+05 -3.793121E+04  4.987841E+00  1.751081E+05
        40   3  7.786768E+03  2.289778E+05  1.758080E+05  1.011442E+05  5.060788E+03  5.881118E+04
        40   4  3.849089E+05  1.432555E+05  4.531238E+05  5.992693E+04 -2.645414E+03  2.909095E+05
        40   5  3.104667E+04  9.630671E+04  2.282651E+05  4.489842E+04  5.848195E+01  1.718323E+05
        40   6 -1.175030E+04  1.432338E+05  1.588725E+05  5.625971E+04  5.112074E+03  5.277263E+04
        40   7  3.978147E+05  2.140125E+05  4.698493E+05  2.704929E+05 -2.542117E+03  2.904104E+05
        40   8  2.746603E+04  8.856710E+04  2.272005E+05  1.277269E+05  1.111024E+02  1.685566E+05
        40   9 -3.128013E+04  5.750121E+04  1.419378E+05  1.138158E+04  5.164237E+03  4.673489E+04
        40  10  3.721470E+05  7.250737E+04  4.362623E+05 -1.506151E+05  6.933426E-10  3.123687E-08
        40  11  3.464485E+04  1.040282E+05  2.292759E+05 -3.793121E+04 -1.139566E-08  8.669162E-09
        40  12  7.785812E+03  2.289741E+05  1.758015E+05  1.011439E+05 -1.587185E-08 -2.618177E-08
        40  13  3.848862E+05  1.431646E+05  4.529648E+05  5.992755E+04 -6.063075E-09 -2.430778E-09
        40  14  3.103874E+04  9.627501E+04  2.282097E+05  4.489841E+04  5.727483E-09  2.741627E-09
        40  15 -1.175107E+04  1.432308E+05  1.588672E+05  5.625950E+04 -1.195133E-09  1.671282E-09
        40  16  3.977921E+05  2.139220E+05  4.696909E+05  2.704935E+05  1.439130E-09 -2.876712E-08
        40  17  2.745840E+04  8.853661E+04  2.271471E+05  1.277268E+05  1.101110E-09 -5.881811E-09
        40  18 -3.128074E+04  5.749886E+04  1.419337E+05  1.138138E+04  5.381340E-09  2.942879E-08
        40  19  3.721698E+05  7.259852E+04  4.364219E+05 -1.506157E+05  2.749060E+03 -2.914085E+05
        40  20  3.465308E+04  1.040611E+05  2.293335E+05 -3.793121E+04 -4.987841E+00 -1.751081E+05
        40  21  7.786768E+03  2.289778E+05  1.758080E+05  1.011442E+05 -5.060788E+03 -5.881118E+04
        40  22  3.849089E+05  1.432555E+05  4.531238E+05  5.992693E+04  2.645414E+03 -2.909095E+05
        40  23  3.104667E+04  9.630671E+04  2.282651E+05  4.489842E+04 -5.848195E+01 -1.718323E+05
        40  24 -1.175030E+04  1.432338E+05  1.588725E+05  5.625971E+04 -5.112074E+03 -5.277263E+04
        40  25  3.978147E+05  2.140125E+05  4.698493E+05  2.704929E+05  2.542117E+03 -2.904104E+05
        40  26  2.746603E+04  8.856710E+04  2.272005E+05  1.277269E+05 -1.111024E+02 -1.685566E+05
        40  27 -3.128013E+04  5.750121E+04  1.419378E+05  1.138158E+04 -5.164237E+03 -4.673489E+04
        41   1  4.671334E+04  2.665460E+05  1.753521E+05  4.425238E+04  8.294438E+03  3.401704E+04
        41   2  5.228091E+04  3.324732E+05  1.917330E+05  4.363070E+04  1.347712E+04 -4.049327E+04
        41   3  9.794042E+04  4.187243E+05  2.668009E+05  6.765987E+04  1.807311E+04 -1.150193E+05
        41   4  1.284280E+04  1.268604E+05  1.469759E+05  5.665939E+04  8.347141E+03  2.838082E+04
        41   5  3.713291E+02  1.167558E+05  1.478531E+05  4.440374E+04  1.352326E+04 -4.542245E+04
        41   6  2.787794E+04  1.268553E+05  2.069396E+05  5.679823E+04  1.811541E+04 -1.192326E+05
        41   7 -2.102839E+04 -1.280634E+04  1.185989E+05  6.906359E+04  8.399624E+03  2.274583E+04
        41   8 -5.154114E+04 -9.891731E+04  1.039709E+05  4.517661E+04  1.356940E+04 -5.034995E+04
        41   9 -4.218937E+04 -1.649326E+05  1.470739E+05  4.594196E+04  1.815788E+04 -1.234440E+05
        41  10  4.671295E+04  2.665447E+05  1.753498E+05  4.425215E+04 -7.405107E-09  1.489054E-09
        41  11  5.228027E+04  3.324714E+05  1.917296E+05  4.363114E+04  1.332022E-08  4.601768E-09
        41  12  9.793653E+04  4.187101E+05  2.667755E+05  6.766155E+04  5.592535E-09 -3.837293E-09
        41  13  1.284251E+04  1.268595E+05  1.469743E+05  5.665920E+04 -2.689590E-09 -2.103758E-09
        41  14  3.705790E+02  1.167535E+05  1.478489E+05  4.440424E+04 -8.057038E-09  2.753291E-09
        41  15  2.787377E+04  1.268399E+05  2.069123E+05  5.679997E+04  2.990227E-09  1.540016E-09
        41  16 -2.102860E+04 -1.280691E+04  1.185978E+05  6.906344E+04  1.143057E-08  1.367911E-09
        41  17 -5.154202E+04 -9.892008E+04  1.039658E+05  4.517716E+04  6.115789E-09 -1.869133E-09
        41  18 -4.219382E+04 -1.649490E+05  1.470446E+05  4.594376E+04  3.435232E-09  6.702929E-09
        41  19  4.671334E+04  2.665460E+05  1.753521E+05  4.425238E+04 -8.294438E+03 -3.401704E+04
        41  20  5.228091E+04  3.324732E+05  1.917330E+05  4.363070E+04 -1.347712E+04  4.049327E+04
        41  21  9.794042E+04  4.187243E+05  2.668009E+05  6.765987E+04 -1.807311E+04  1.150193E+05
        41  22  1.284280E+04  1.268604E+05  1.469759E+05  5.665939E+04 -8.347141E+03 -2.838082E+04
        41  23  3.713291E+02  1.167558E+05  1.478531E+05  4.440374E+04 -1.352326E+04  4.542245E+04
        41  24  2.787794E+04  1.268553E+05  2.069396E+05  5.679823E+04 -1.811541E+04  1.192326E+05
        41  25 -2.102839E+04 -1.280634E+04  1.185989E+05  6.906359E+04 -8.399624E+03 -2.274583E+04
        41  26 -5.154114E+04 -9.891731E+04  1.039709E+05  4.517661E+04 -1.356940E+04  5.034995E+04
        41  27 -4.218937E+04 -1.649326E+05  1.470739E+05  4.594196E+04 -1.815788E+04  1.234440E+05
        42   1  6.277878E+04  5.072288E+05  3.210588E+05 -3.663068E+04  2.182335E+04 -1.472337E+05
        42   2  1.602688E+05  4.975734E+05  5.034163E+05  1.995035E+05  2.358836E+04 -3.792086E+05
        42   3  8.576936E+05  6.688050E+05  9.869861E+05  4.635881E+05  1.193081E+04 -6.113393E+05
        42   4 -2.253599E+04  1.619527E+05  2.499926E+05  5.585283E+04  2.187194E+04 -1.546028E+05
        42   5  6.086764E+04  7.289565E+04  4.134141E+05  4.555286E+04  2.360614E+04 -3.708720E+05
        42   6  7.414818E+05  1.620032E+05  8.672393E+05  6.312194E+04  1.209785E+04 -5.872604E+05
        42   7 -1.078269E+05 -1.831925E+05  1.789244E+05  1.482841E+05  2.191836E+04 -1.619678E+05
        42   8 -3.845455E+04 -3.515596E+05  3.234152E+05 -1.082910E+05  2.361981E+04 -3.625409E+05
        42   9  6.258592E+05 -3.442130E+05  7.475646E+05 -3.370183E+05  1.223404E+04 -5.632012E+05
        42  10  6.277246E+04  5.072054E+05  3.210172E+05 -3.662810E+04 -7.896063E-11 -2.903599E-09
        42  11  1.602297E+05  4.974190E+05  5.031452E+05  1.995107E+05 -4.673627E-09  8.626302E-10
        42  12  8.575933E+05  6.684042E+05  9.862842E+05  4.635940E+05 -2.573129E-09 -3.298159E-09
        42  13 -2.254292E+04  1.619269E+05  2.499468E+05  5.585555E+04 -8.455183E-09 -2.616999E-09
        42  14  6.083014E+04  7.274788E+04  4.131546E+05  4.555991E+04 -2.319225E-09  2.559386E-09
        42  15  7.413891E+05  1.616331E+05  8.665911E+05  6.312766E+04 -6.691622E-09  1.448526E-09
        42  16 -1.078344E+05 -1.832208E+05  1.788742E+05  1.482870E+05  4.234532E-09  5.713825E-09
        42  17 -3.849044E+04 -3.517009E+05  3.231670E+05 -1.082841E+05 -1.147812E-08  1.502763E-09
        42  18  6.257738E+05 -3.445536E+05  7.469679E+05 -3.370128E+05  1.948011E-10  6.102627E-09
        42  19  6.277878E+04  5.072288E+05  3.210588E+05 -3.663068E+04 -2.182335E+04  1.472337E+05
        42  20  1.602688E+05  4.975734E+05  5.034163E+05  1.995035E+05 -2.358836E+04  3.792086E+05
        42  21  8.576936E+05  6.688050E+05  9.869861E+05  4.635881E+05 -1.193081E+04  6.113393E+05
        42  22 -2.253599E+04  1.619527E+05  2.499926E+05  5.585283E+04 -2.187194E+04  1.546028E+05
        42  23  6.086764E+04  7.289565E+04  4.134141E+05  4.555286E+04 -2.360614E+04  3.708720E+05
        42  24  7.414818E+05  1.620032E+05  8.672393E+05  6.312194E+04 -1.209785E+04  5.872604E+05
        42  25 -1.078269E+05 -1.831925E+05  1.789244E+05  1.482841E+05 -2.191836E+04  1.619678E+05
        42  26 -3.845455E+04 -3.515596E+05  3.234152E+05 -1.082910E+05 -2.361981E+04  3.625409E+05
        42  27  6.258592E+05 -3.442130E+05  7.475646E+05 -3.370183E+05 -1.223404E+04  5.632012E+05
        43   1 -7.572255E+06 -1.733759E+06 -1.224163E+06 -2.467399E+06 -1.082626E+06 -4.316952E+05
        43   2 -7.353311E+06 -6.356812E+05 -3.170243E+05 -3.279324E+06 -6.923062E+05 -2.995324E+05
        43   3 -8.432472E+06 -6.598953E+05 -1.701997E+05 -2.971077E+06 -3.170458E+05 -1.298325E+05
        43   4 -9.544647E+06 -2.326188E+06 -1.740154E+06 -2.846136E+06 -1.087254E+06 -4.338677E+05
        43   5 -8.799797E+06 -1.153717E+06 -7.096181E+05 -3.641243E+06 -6.907290E+05 -2.989856E+05
        43   6 -9.356665E+06 -1.107444E+06 -4.463676E+05 -3.315763E+06 -3.089096E+05 -1.265824E+05
        43   7 -1.151322E+07 -2.918686E+06 -2.256448E+06 -3.223937E+06 -1.091859E+06 -4.360361E+05
        43   8 -1.024424E+07 -1.671691E+06 -1.102398E+06 -4.002418E+06 -6.891539E+05 -2.984394E+05
        43   9 -1.028000E+07 -1.554787E+06 -7.226234E+05 -3.659928E+06 -3.007866E+05 -1.233403E+05
        43  10 -7.573578E+06 -1.734281E+06 -1.226751E+06 -2.467779E+06  4.397817E-09  2.535202E-10
        43  11 -7.353856E+06 -6.359096E+05 -3.181092E+05 -3.279493E+06  4.471612E-09  8.084630E-09
        43  12 -8.432586E+06 -6.599411E+05 -1.704236E+05 -2.971111E+06  3.142594E-09  2.677015E-09
        43  13 -9.545985E+06 -2.326717E+06 -1.742773E+06 -2.846520E+06  4.363843E-09 -3.763665E-09
        43  14 -8.800340E+06 -1.153945E+06 -7.107009E+05 -3.641411E+06  8.562259E-09 -8.060774E-09
        43  15 -9.356773E+06 -1.107488E+06 -4.465807E+05 -3.315795E+06 -1.124796E-08  4.349046E-10
        43  16 -1.151457E+07 -2.919222E+06 -2.259098E+06 -3.224326E+06 -2.441039E-09 -2.873019E-10
        43  17 -1.024479E+07 -1.671918E+06 -1.103478E+06 -4.002586E+06 -6.882879E-09 -4.088302E-09
        43  18 -1.028010E+07 -1.554828E+06 -7.228258E+05 -3.659958E+06  1.089988E-09 -8.925989E-10
        43  19 -7.572255E+06 -1.733759E+06 -1.224163E+06 -2.467399E+06  1.082626E+06  4.316952E+05
        43  20 -7.353311E+06 -6.356812E+05 -3.170243E+05 -3.279324E+06  6.923062E+05  2.995324E+05
        43  21 -8.432472E+06 -6.598953E+05 -1.701997E+05 -2.971077E+06  3.170458E+05  1.298325E+05
        43  22 -9.544647E+06 -2.326188E+06 -1.740154E+06 -2.846136E+06  1.087254E+06  4.338677E+05
        43  23 -8.799797E+06 -1.153717E+06 -7.096181E+05 -3.641243E+06  6.907290E+05  2.989856E+05
        43  24 -9.356665E+06 -1.107444E+06 -4.463676E+05 -3.315763E+06  3.089096E+05  1.265824E+05
        43  25 -1.151322E+07 -2.918686E+06 -2.256448E+06 -3.223937E+06  1.091859E+06  4.360361E+05
        43  26 -1.024424E+07 -1.671691E+06 -1.102398E+06 -4.002418E+06  6.891539E+05  2.984394E+05
        43  27 -1.028000E+07 -1.554787E+06 -7.226234E+05 -3.659928E+06  3.007866E+05  1.233403E+05
        44   1 -1.075401E+07 -1.912766E+06 -7.807515E+05 -3.645675E+06 -2.531765E+05 -8.373166E+04
        44   2 -1.083409E+07 -2.118888E+06 -6.914638E+05 -4.115586E+06 -1.703861E+05 -3.379147E+04
        44   3 -1.155756E+07 -2.019478E+06 -7.341138E+05 -3.896401E+06 -8.553145E+04  1.098853E+04
        44   4 -9.291820E+06 -1.314519E+06 -3.663960E+05 -3.208151E+06 -2.501499E+05 -8.255881E+04
        44   5 -8.956361E+06 -1.383145E+06 -1.673924E+05 -3.585180E+06 -1.681956E+05 -3.294947E+04
        44   6 -9.263894E+06 -1.145695E+06 -9.940935E+04 -3.273390E+06 -8.411371E+04  1.152481E+04
        44   7 -7.827536E+06 -7.160664E+05  4.775189E+04 -2.769652E+06 -2.471146E+05 -8.138218E+04
        44   8 -7.075188E+06 -6.471502E+05  3.563451E+05 -3.053285E+06 -1.659970E+05 -3.210421E+04
        44   9 -6.965089E+06 -2.716149E+05  5.348050E+05 -2.648272E+06 -8.268961E+04  1.206348E+04
        44  10 -1.075408E+07 -1.912791E+06 -7.808877E+05 -3.645693E+06  5.700389E-10  6.458208E-09
        44  11 -1.083412E+07 -2.118898E+06 -6.915216E+05 -4.115590E+06 -1.193909E-08  5.696348E-10
        44  12 -1.155757E+07 -2.019480E+06 -7.341280E+05 -3.896400E+06 -4.082941E-09  1.215699E-09
        44  13 -9.291889E+06 -1.314543E+06 -3.665286E+05 -3.208168E+06  2.480149E-09 -4.370792E-09
        44  14 -8.956392E+06 -1.383154E+06 -1.674485E+05 -3.585185E+06  1.417082E-09  6.403979E-09
        44  15 -9.263902E+06 -1.145697E+06 -9.942306E+04 -3.273389E+06 -3.721807E-09 -1.060034E-09
        44  16 -7.827604E+06 -7.160903E+05  4.762287E+04 -2.769669E+06  6.144042E-09  9.013136E-10
        44  17 -7.075218E+06 -6.471589E+05  3.562907E+05 -3.053290E+06 -2.903617E-09 -3.246560E-11
        44  18 -6.965097E+06 -2.716169E+05  5.347917E+05 -2.648271E+06  5.956238E-10 -1.309797E-09
        44  19 -1.075401E+07 -1.912766E+06 -7.807515E+05 -3.645675E+06  2.531765E+05  8.373166E+04
        44  20 -1.083409E+07 -2.118888E+06 -6.914638E+05 -4.115586E+06  1.703861E+05  3.379147E+04
        44  21 -1.155756E+07 -2.019478E+06 -7.341138E+05 -3.896401E+06  8.553145E+04 -1.098853E+04
        44  22 -9.291820E+06 -1.314519E+06 -3.663960E+05 -3.208151E+06  2.501499E+05  8.255881E+04
        44  23 -8.956361E+06 -1.383145E+06 -1.673924E+05 -3.585180E+06  1.681956E+05  3.294947E+04
        44  24 -9.263894E+06 -1.145695E+06 -9.940935E+04 -3.273390E+06  8.411371E+04 -1.152481E+04
        44  25 -7.827536E+06 -7.160664E+05  4.775189E+04 -2.769652E+06  2.471146E+05  8.138218E+04
        44  26 -7.075188E+06 -6.471502E+05  3.563451E+05 -3.053285E+06  1.659970E+05  3.210421E+04
        44  27 -6.965089E+06 -2.716149E+05  5.348050E+05 -2.648272E+06  8.268961E+04 -1.206348E+04
        45   1 -1.271350E+07 -2.661474E+06 -1.072532E+06 -4.366045E+06 -7.710731E+04  2.341893E+04
        45   2 -1.278203E+07 -2.670411E+06 -1.054064E+06 -4.415096E+06 -5.589112E+04  4.230279E+04
        45   3 -1.281529E+07 -2.636915E+06 -1.037425E+06 -4.362232E+06 -2.845642E+04  4.462654E+04
        45   4 -9.126656E+06 -1.277979E+06 -7.387762E+04 -3.376280E+06 -7.383792E+04  2.464358E+04
        45   5 -9.142939E+06 -1.287518E+06 -4.622896E+04 -3.431759E+06 -5.577947E+04  4.231782E+04
        45   6 -9.122807E+06 -1.253578E+06 -1.772687E+04 -3.385330E+06 -3.151798E+04  4.347823E+04
        45   7 -5.527252E+06  1.063252E+05  9.235641E+05 -2.381229E+06 -7.054638E+04  2.587686E+04
        45   8 -5.490927E+06  9.612207E+04  9.603706E+05 -2.443116E+06 -5.566656E+04  4.233344E+04
        45   9 -5.417046E+06  1.304414E+05  1.000708E+06 -2.403104E+06 -3.459976E+04  4.232264E+04
        45  10 -1.271350E+07 -2.661477E+06 -1.072545E+06 -4.366044E+06 -3.152603E-09 -1.205973E-09
        45  11 -1.278204E+07 -2.670414E+06 -1.054073E+06 -4.415094E+06  9.200017E-10  2.477063E-10
        45  12 -1.281529E+07 -2.636917E+06 -1.037430E+06 -4.362231E+06  4.015924E-09  2.165954E-10
        45  13 -9.126662E+06 -1.277982E+06 -7.388911E+04 -3.376278E+06 -8.542031E-09 -3.956777E-10
        45  14 -9.142943E+06 -1.287521E+06 -4.623819E+04 -3.431757E+06  1.986324E-09  4.629307E-09
        45  15 -9.122808E+06 -1.253580E+06 -1.773227E+04 -3.385329E+06  2.374500E-09  2.537799E-09
        45  16 -5.527257E+06  1.063231E+05  9.235535E+05 -2.381227E+06  2.150693E-09 -2.728895E-09
        45  17 -5.490930E+06  9.611932E+04  9.603614E+05 -2.443114E+06 -5.571405E-09  2.041654E-09
        45  18 -5.417048E+06  1.304391E+05  1.000703E+06 -2.403102E+06 -5.991541E-09  6.035297E-09
        45  19 -1.271350E+07 -2.661474E+06 -1.072532E+06 -4.366045E+06  7.710731E+04 -2.341893E+04
        45  20 -1.278203E+07 -2.670411E+06 -1.054064E+06 -4.415096E+06  5.589112E+04 -4.230279E+04
        45  21 -1.281529E+07 -2.636915E+06 -1.037425E+06 -4.362232E+06  2.845642E+04 -4.462654E+04
        45  22 -9.126656E+06 -1.277979E+06 -7.387762E+04 -3.376280E+06  7.383792E+04 -2.464358E+04
        45  23 -9.142939E+06 -1.287518E+06 -4.622896E+04 -3.431759E+06  5.577947E+04 -4.231782E+04
        45  24 -9.122807E+06 -1.253578E+06 -1.772687E+04 -3.385330E+06  3.151798E+04 -4.347823E+04
        45  25 -5.527252E+06  1.063252E+05  9.235641E+05 -2.381229E+06  7.054638E+04 -2.587686E+04
        45  26 -5.490927E+06  9.612207E+04  9.603706E+05 -2.443116E+06  5.566656E+04 -4.233344E+04
        45  27 -5.417046E+06  1.304414E+05  1.000708E+06 -2.403104E+06  3.459976E+04 -4.232264E+04
        46   1 -1.176423E+07 -2.405260E+06 -7.734292E+05 -4.247308E+06 -2.737151E+04  3.925601E+04
        46   2 -1.166489E+07 -2.025998E+06 -6.712122E+05 -3.874445E+06 -1.641493E+04  3.520951E+04
        46   3 -1.105853E+07 -2.116163E+06 -5.673315E+05 -4.051513E+06 -1.620662E+03  2.006375E+04
        46   4 -9.018111E+06 -1.380738E+06 -1.737331E+04 -3.524433E+06 -2.771774E+04  3.911452E+04
        46   5 -9.271493E+06 -1.140241E+06 -1.361378E+04 -3.251937E+06 -1.893522E+04  3.429275E+04
        46   6 -9.017533E+06 -1.368501E+06 -6.406712E+03 -3.529261E+06 -6.327889E+03  1.839083E+04
        46   7 -6.264658E+06 -3.558479E+05  7.379877E+05 -2.798630E+06 -2.806562E+04  3.897248E+04
        46   8 -6.872534E+06 -2.542278E+05  6.434573E+05 -2.627240E+06 -2.146630E+04  3.337215E+04
        46   9 -6.972508E+06 -6.206732E+05  5.541335E+05 -3.005450E+06 -1.105228E+04  1.671186E+04
        46  10 -1.176423E+07 -2.405261E+06 -7.734335E+05 -4.247308E+06  2.244531E-09 -4.761174E-09
        46  11 -1.166489E+07 -2.025999E+06 -6.712151E+05 -3.874444E+06  1.083935E-09 -1.392799E-08
        46  12 -1.105853E+07 -2.116163E+06 -5.673323E+05 -4.051513E+06  7.150178E-09 -1.641350E-08
        46  13 -9.018112E+06 -1.380740E+06 -1.737761E+04 -3.524432E+06 -1.592049E-08  1.594397E-10
        46  14 -9.271493E+06 -1.140243E+06 -1.361665E+04 -3.251936E+06  2.416403E-09  1.186110E-08
        46  15 -9.017534E+06 -1.368501E+06 -6.407419E+03 -3.529261E+06  1.795160E-08  1.702695E-08
        46  16 -6.264659E+06 -3.558498E+05  7.379834E+05 -2.798629E+06 -3.960417E-09  2.105916E-09
        46  17 -6.872535E+06 -2.542291E+05  6.434544E+05 -2.627239E+06 -2.771527E-09 -2.696175E-09
        46  18 -6.972509E+06 -6.206736E+05  5.541327E+05 -3.005450E+06 -5.401794E-09 -1.286169E-08
        46  19 -1.176423E+07 -2.405260E+06 -7.734292E+05 -4.247308E+06  2.737151E+04 -3.925601E+04
        46  20 -1.166489E+07 -2.025998E+06 -6.712122E+05 -3.874445E+06  1.641493E+04 -3.520951E+04
        46  21 -1.105853E+07 -2.116163E+06 -5.673315E+05 -4.051513E+06  1.620662E+03 -2.006375E+04
        46  22 -9.018111E+06 -1.380738E+06 -1.737331E+04 -3.524433E+06  2.771774E+04 -3.911452E+04
        46  23 -9.271493E+06 -1.140241E+06 -1.361378E+04 -3.251937E+06  1.893522E+04 -3.429275E+04
        46  24 -9.017533E+06 -1.368501E+06 -6.406712E+03 -3.529261E+06  6.327889E+03 -1.839083E+04
        46  25 -6.264658E+06 -3.558479E+05  7.379877E+05 -2.798630E+06  2.806562E+04 -3.897248E+04
        46  26 -6.872534E+06 -2.542278E+05  6.434573E+05 -2.627240E+06  2.146630E+04 -3.337215E+04
        46  27 -6.972508E+06 -6.206732E+05  5.541335E+05 -3.005450E+06  1.105228E+04 -1.671186E+04
        47   1 -8.591926E+06 -1.253804E+06  1.030833E+05 -3.464378E+06  3.267115E+03  6.754463E+03
        47   2 -8.429025E+06 -7.824479E+05  2.256633E+05 -2.980697E+06  1.470767E+04 -9.556916E+03
        47   3 -7.673483E+06 -9.207970E+05  3.411132E+05 -3.220049E+06  2.480416E+04 -2.187199E+04
        47   4 -8.997593E+06 -1.401226E+06 -9.254139E+03 -3.566794E+06 -7.483561E+02  5.335754E+03
        47   5 -9.294022E+06 -1.100138E+06 -1.109334E+04 -3.203717E+06  1.148097E+04 -1.070532E+04
        47   6 -8.998135E+06 -1.409005E+06 -2.068378E+04 -3.563829E+06  2.236093E+04 -2.274813E+04
        47   7 -9.403103E+06 -1.548643E+06 -1.216072E+05 -3.669150E+06 -4.760938E+03  3.918045E+03
        47   8 -1.015830E+07 -1.417798E+06 -2.479190E+05 -3.426457E+06  8.259228E+03 -1.185196E+04
        47   9 -1.032109E+07 -1.897135E+06 -3.826414E+05 -3.906942E+06  1.992343E+04 -2.362221E+04
        47  10 -8.591926E+06 -1.253804E+06  1.030832E+05 -3.464378E+06  8.200006E-09 -1.120240E-10
        47  11 -8.429025E+06 -7.824481E+05  2.256628E+05 -2.980697E+06 -1.366138E-09  7.647160E-10
        47  12 -7.673484E+06 -9.207976E+05  3.411112E+05 -3.220049E+06  5.045147E-09  1.138096E-08
        47  13 -8.997593E+06 -1.401226E+06 -9.254194E+03 -3.566794E+06  8.691705E-09 -1.344964E-08
        47  14 -9.294022E+06 -1.100139E+06 -1.109380E+04 -3.203717E+06  1.680914E-08  2.026743E-08
        47  15 -8.998136E+06 -1.409005E+06 -2.068569E+04 -3.563828E+06  1.328570E-09 -6.528051E-09
        47  16 -9.403103E+06 -1.548643E+06 -1.216073E+05 -3.669150E+06  1.086052E-08 -8.253164E-09
        47  17 -1.015830E+07 -1.417798E+06 -2.479194E+05 -3.426456E+06 -1.220396E-08 -2.708023E-08
        47  18 -1.032109E+07 -1.897136E+06 -3.826432E+05 -3.906942E+06 -9.498796E-09  2.437982E-09
        47  19 -8.591926E+06 -1.253804E+06  1.030833E+05 -3.464378E+06 -3.267115E+03 -6.754463E+03
        47  20 -8.429025E+06 -7.824479E+05  2.256633E+05 -2.980697E+06 -1.470767E+04  9.556916E+03
        47  21 -7.673483E+06 -9.207970E+05  3.411132E+05 -3.220049E+06 -2.480416E+04  2.187199E+04
        47  22 -8.997593E+06 -1.401226E+06 -9.254139E+03 -3.566794E+06  7.483561E+02 -5.335754E+03
        47  23 -9.294022E+06 -1.100138E+06 -1.109334E+04 -3.203717E+06 -1.148097E+04  1.070532E+04
        47  24 -8.998135E+06 -1.409005E+06 -2.068378E+04 -3.563829E+06 -2.236093E+04  2.274813E+04
        47  25 -9.403103E+06 -1.548643E+06 -1.216072E+05 -3.669150E+06  4.760938E+03 -3.918045E+03
        47  26 -1.015830E+07 -1.417798E+06 -2.479190E+05 -3.426457E+06 -8.259228E+03  1.185196E+04
        47  27 -1.032109E+07 -1.897135E+06 -3.826414E+05 -3.906942E+06 -1.992343E+04  2.362221E+04
        48   1 -5.826927E+06 -1.233456E+05  8.667851E+05 -2.624594E+06  3.314450E+04 -3.052903E+04
        48   2 -5.817160E+06  6.624259E+04  8.857157E+05 -2.433907E+06  5.836281E+04 -3.713838E+04
        48   3 -5.497260E+06  1.636552E+03  9.017103E+05 -2.485658E+06  7.798267E+04 -2.812270E+04
        48   4 -9.061668E+06 -1.314829E+06 -1.978209E+04 -3.463719E+06  2.873507E+04 -3.212946E+04
        48   5 -9.218362E+06 -1.204557E+06 -4.831560E+04 -3.335922E+06  5.697147E+04 -3.767064E+04
        48   6 -9.065875E+06 -1.349549E+06 -8.231563E+04 -3.450690E+06  7.958822E+04 -2.754882E+04
        48   7 -1.228630E+07 -2.505851E+06 -9.073022E+05 -4.298882E+06  2.435088E+04 -3.372093E+04
        48   8 -1.260837E+07 -2.474776E+06 -9.834090E+05 -4.233442E+06  5.558807E+04 -3.820009E+04
        48   9 -1.262217E+07 -2.700025E+06 -1.067523E+06 -4.410660E+06  8.118261E+04 -2.697925E+04
        48  10 -5.826928E+06 -1.233469E+05  8.667813E+05 -2.624593E+06 -4.692426E-09 -1.751806E-09
        48  11 -5.817164E+06  6.624021E+04  8.857067E+05 -2.433905E+06 -3.991803E-09  3.414576E-10
        48  12 -5.497267E+06  1.634072E+03  9.016974E+05 -2.485656E+06  4.315810E-09 -7.057477E-09
        48  13 -9.061669E+06 -1.314830E+06 -1.978557E+04 -3.463718E+06 -3.051317E-09 -4.910370E-09
        48  14 -9.218366E+06 -1.204559E+06 -4.832440E+04 -3.335920E+06  8.632171E-09 -7.288131E-09
        48  15 -9.065882E+06 -1.349552E+06 -8.232907E+04 -3.450688E+06  4.546650E-10 -5.437929E-09
        48  16 -1.228630E+07 -2.505853E+06 -9.073055E+05 -4.298882E+06  3.539851E-09 -1.291926E-09
        48  17 -1.260838E+07 -2.474778E+06 -9.834176E+05 -4.233440E+06  1.025305E-08  9.912384E-09
        48  18 -1.262217E+07 -2.700027E+06 -1.067537E+06 -4.410658E+06  7.907297E-10 -2.928732E-09
        48  19 -5.826927E+06 -1.233456E+05  8.667851E+05 -2.624594E+06 -3.314450E+04  3.052903E+04
        48  20 -5.817160E+06  6.624259E+04  8.857157E+05 -2.433907E+06 -5.836281E+04  3.713838E+04
        48  21 -5.497260E+06  1.636552E+03  9.017103E+05 -2.485658E+06 -7.798267E+04  2.812270E+04
        48  22 -9.061668E+06 -1.314829E+06 -1.978209E+04 -3.463719E+06 -2.873507E+04  3.212946E+04
        48  23 -9.218362E+06 -1.204557E+06 -4.831560E+04 -3.335922E+06 -5.697147E+04  3.767064E+04
        48  24 -9.065875E+06 -1.349549E+06 -8.231563E+04 -3.450690E+06 -7.958822E+04  2.754882E+04
        48  25 -1.228630E+07 -2.505851E+06 -9.073022E+05 -4.298882E+06 -2.435088E+04  3.372093E+04
        48  26 -1.260837E+07 -2.474776E+06 -9.834090E+05 -4.233442E+06 -5.558807E+04  3.820009E+04
        48  27 -1.262217E+07 -2.700025E+06 -1.067523E+06 -4.410660E+06 -8.118261E+04  2.697925E+04
        49   1 -5.836232E+06  7.688096E+04  8.225360E+05 -2.419658E+06  9.445107E+04 -2.002853E+04
        49   2 -5.931123E+06 -1.288860E+05  6.733057E+05 -2.664432E+06  1.881286E+05  1.815417E+04
        49   3 -6.408771E+06 -2.495669E+05  3.968502E+05 -2.432591E+06  2.765754E+05  6.955217E+04
        49   4 -9.207102E+06 -1.190870E+06 -1.051775E+05 -3.322356E+06  9.334080E+04 -2.046610E+04
        49   5 -9.029982E+06 -1.325100E+06 -1.855633E+05 -3.525457E+06  1.892120E+05  1.854717E+04
        49   6 -9.236979E+06 -1.375587E+06 -3.954749E+05 -3.251693E+06  2.798859E+05  7.081227E+04
        49   7 -1.256696E+07 -2.458033E+06 -1.033940E+06 -4.220604E+06  9.223620E+04 -2.090169E+04
        49   8 -1.211951E+07 -2.520693E+06 -1.045331E+06 -4.382534E+06  1.902874E+05  1.893694E+04
        49   9 -1.205740E+07 -2.500963E+06 -1.188563E+06 -4.067322E+06  2.831767E+05  7.206425E+04
        49  10 -5.836242E+06  7.687812E+04  8.225184E+05 -2.419657E+06 -4.148413E-09 -3.044561E-09
        49  11 -5.931162E+06 -1.288960E+05  6.732378E+05 -2.664435E+06 -7.074220E-09  1.055917E-08
        49  12 -6.408855E+06 -2.495930E+05  3.966956E+05 -2.432607E+06  5.485356E-09  6.077861E-09
        49  13 -9.207111E+06 -1.190873E+06 -1.051949E+05 -3.322354E+06 -1.810445E-09 -7.034915E-10
        49  14 -9.030021E+06 -1.325111E+06 -1.856322E+05 -3.525460E+06  2.553756E-09  3.196486E-09
        49  15 -9.237065E+06 -1.375614E+06 -3.956342E+05 -3.251709E+06  4.593678E-09 -2.173912E-09
        49  16 -1.256697E+07 -2.458036E+06 -1.033957E+06 -4.220603E+06  8.903507E-10 -1.192445E-09
        49  17 -1.211955E+07 -2.520703E+06 -1.045401E+06 -4.382537E+06 -1.106524E-09  4.679376E-09
        49  18 -1.205749E+07 -2.500990E+06 -1.188727E+06 -4.067339E+06 -1.530482E-08 -1.293912E-08
        49  19 -5.836232E+06  7.688096E+04  8.225360E+05 -2.419658E+06 -9.445107E+04  2.002853E+04
        49  20 -5.931123E+06 -1.288860E+05  6.733057E+05 -2.664432E+06 -1.881286E+05 -1.815417E+04
        49  21 -6.408771E+06 -2.495669E+05  3.968502E+05 -2.432591E+06 -2.765754E+05 -6.955217E+04
        49  22 -9.207102E+06 -1.190870E+06 -1.051775E+05 -3.322356E+06 -9.334080E+04  2.046610E+04
        49  23 -9.029982E+06 -1.325100E+06 -1.855633E+05 -3.525457E+06 -1.892120E+05 -1.854717E+04
        49  24 -9.236979E+06 -1.375587E+06 -3.954749E+05 -3.251693E+06 -2.798859E+05 -7.081227E+04
        49  25 -1.256696E+07 -2.458033E+06 -1.033940E+06 -4.220604E+06 -9.223620E+04  2.090169E+04
        49  26 -1.211951E+07 -2.520693E+06 -1.045331E+06 -4.382534E+06 -1.902874E+05 -1.893694E+04
        49  27 -1.205740E+07 -2.500963E+06 -1.188563E+06 -4.067322E+06 -2.831767E+05 -7.206425E+04
        50   1 -8.586566E+06 -8.807508E+05 -2.854111E+05 -3.174891E+06  3.411033E+05  1.113204E+05
        50   2 -8.537899E+06 -1.005172E+06 -6.964358E+05 -3.548649E+06  7.602586E+05  2.952528E+05
        50   3 -9.927475E+06 -2.354204E+06 -1.948110E+06 -2.706694E+06  1.184012E+06  4.664413E+05
        50   4 -9.380312E+06 -1.097938E+06 -4.867234E+05 -3.307651E+06  3.456790E+05  1.131693E+05
        50   5 -8.765256E+06 -1.142356E+06 -7.697585E+05 -3.660125E+06  7.621658E+05  2.959250E+05
        50   6 -9.588087E+06 -2.411048E+06 -1.891193E+06 -2.796596E+06  1.183690E+06  4.658662E+05
        50   7 -1.017343E+07 -1.315142E+06 -6.880803E+05 -3.440289E+06  3.502478E+05  1.150172E+05
        50   8 -8.992557E+06 -1.279510E+06 -8.430862E+05 -3.771557E+06  7.640722E+05  2.965965E+05
        50   9 -9.248513E+06 -2.467794E+06 -1.834258E+06 -2.886557E+06  1.183368E+06  4.652914E+05
        50  10 -8.586696E+06 -8.807961E+05 -2.856569E+05 -3.174922E+06  7.235696E-10 -2.668289E-09
        50  11 -8.538551E+06 -1.005425E+06 -6.977065E+05 -3.548831E+06 -1.039930E-08  8.084358E-09
        50  12 -9.929061E+06 -2.354825E+06 -1.951206E+06 -2.707144E+06 -1.239438E-09  5.367098E-09
        50  13 -9.380446E+06 -1.097985E+06 -4.869763E+05 -3.307683E+06  4.232562E-09 -1.408061E-08
        50  14 -8.765912E+06 -1.142611E+06 -7.710361E+05 -3.660309E+06 -1.379672E-08 -7.318613E-09
        50  15 -9.589672E+06 -2.411668E+06 -1.894285E+06 -2.797045E+06  4.652253E-10  1.149556E-08
        50  16 -1.017357E+07 -1.315190E+06 -6.883404E+05 -3.440322E+06  7.788515E-09 -4.001461E-09
        50  17 -8.993216E+06 -1.279766E+06 -8.443708E+05 -3.771741E+06  8.131562E-10  9.524478E-09
        50  18 -9.250096E+06 -2.468414E+06 -1.837347E+06 -2.887006E+06  2.077479E-09  5.034873E-09
        50  19 -8.586566E+06 -8.807508E+05 -2.854111E+05 -3.174891E+06 -3.411033E+05 -1.113204E+05
        50  20 -8.537899E+06 -1.005172E+06 -6.964358E+05 -3.548649E+06 -7.602586E+05 -2.952528E+05
        50  21 -9.927475E+06 -2.354204E+06 -1.948110E+06 -2.706694E+06 -1.184012E+06 -4.664413E+05
        50  22 -9.380312E+06 -1.097938E+06 -4.867234E+05 -3.307651E+06 -3.456790E+05 -1.131693E+05
        50  23 -8.765256E+06 -1.142356E+06 -7.697585E+05 -3.660125E+06 -7.621658E+05 -2.959250E+05
        50  24 -9.588087E+06 -2.411048E+06 -1.891193E+06 -2.796596E+06 -1.183690E+06 -4.658662E+05
        50  25 -1.017343E+07 -1.315142E+06 -6.880803E+05 -3.440289E+06 -3.502478E+05 -1.150172E+05
        50  26 -8.992557E+06 -1.279510E+06 -8.430862E+05 -3.771557E+06 -7.640722E+05 -2.965965E+05
        50  27 -9.248513E+06 -2.467794E+06 -1.834258E+06 -2.886557E+06 -1.183368E+06 -4.652914E+05
        51   1  5.004063E+05  2.115221E+05  4.888632E+05 -1.128651E+04  2.321206E+04  3.570296E+04
        51   2  4.996652E+05  1.721563E+05  4.659234E+05 -4.897399E+03  7.323760E+04  1.280710E+04
        51   3  4.897394E+05  1.363247E+05  4.564286E+05 -2.038643E+04  7.565851E+04 -1.042072E+04
        51   4 -1.250907E+04 -1.845740E+06 -1.670973E+04 -4.924699E+03  2.352984E+04 -8.486525E+03
        51   5  5.877147E+02 -1.844996E+06 -1.016061E+04  6.061455E+03  7.338018E+04 -2.809394E+03
        51   6 -4.879327E+02 -1.845697E+06 -1.002890E+04 -4.833377E+03  7.555658E+04  2.534066E+03
        51   7 -5.257385E+05 -3.899140E+06 -5.225873E+05  1.422779E+03  2.384726E+04 -5.252979E+04
        51   8 -4.987813E+05 -3.858400E+06 -4.865252E+05  1.699198E+04  7.352246E+04 -1.837542E+04
        51   9 -4.909957E+05 -3.824097E+06 -4.767563E+05  1.067790E+04  7.545514E+04  1.544773E+04
        51  10  5.004054E+05  2.115206E+05  4.888598E+05 -1.128718E+04 -2.621981E-09  5.865261E-09
        51  11  4.996594E+05  1.721547E+05  4.659130E+05 -4.898154E+03 -4.346064E-09  3.346584E-09
        51  12  4.897332E+05  1.363230E+05  4.564177E+05 -2.038579E+04 -3.968130E-09 -7.949204E-09
        51  13 -1.250968E+04 -1.845740E+06 -1.671090E+04 -4.924538E+03 -6.570425E-09  7.557928E-09
        51  14  5.819353E+02 -1.844997E+06 -1.017074E+04  6.061621E+03 -2.328849E-09  2.966729E-10
        51  15 -4.940595E+02 -1.845698E+06 -1.003963E+04 -4.833531E+03 -1.316029E-09  5.546119E-09
        51  16 -5.257398E+05 -3.899143E+06 -5.225936E+05  1.423790E+03 -8.257788E-09 -5.847278E-09
        51  17 -4.987872E+05 -3.858402E+06 -4.865360E+05  1.699307E+04  8.456444E-10 -9.484544E-09
        51  18 -4.910019E+05 -3.824098E+06 -4.767675E+05  1.067696E+04  9.371656E-09  9.100943E-09
        51  19  5.004063E+05  2.115221E+05  4.888632E+05 -1.128651E+04 -2.321206E+04 -3.570296E+04
        51  20  4.996652E+05  1.721563E+05  4.659234E+05 -4.897399E+03 -7.323760E+04 -1.280710E+04
        51  21  4.897394E+05  1.363247E+05  4.564286E+05 -2.038643E+04 -7.565851E+04  1.042072E+04
        51  22 -1.250907E+04 -1.845740E+06 -1.670973E+04 -4.924699E+03 -2.352984E+04  8.486525E+03
        51  23  5.877147E+02 -1.844996E+06 -1.016061E+04  6.061455E+03 -7.338018E+04  2.809394E+03
        51  24 -4.879327E+02 -1.845697E+06 -1.002890E+04 -4.833377E+03 -7.555658E+04 -2.534066E+03
        51  25 -5.257385E+05 -3.899140E+06 -5.225873E+05  1.422779E+03 -2.384726E+04  5.252979E+04
        51  26 -4.987813E+05 -3.858400E+06 -4.865252E+05  1.699198E+04 -7.352246E+04  1.837542E+04
        51  27 -4.909957E+05 -3.824097E+06 -4.767563E+05  1.067790E+04 -7.545514E+04 -1.544773E+04
        52   1  4.775099E+05  8.752949E+04  4.459469E+05 -1.914303E+04  6.843331E+04  6.355155E+03
        52   2  4.666667E+05  3.922783E+04  4.291425E+05 -7.156409E+03  6.921850E+04  1.096601E+04
        52   3  4.460127E+05 -1.010747E+04  4.073328E+05 -2.585214E+04  6.471466E+04  1.551359E+04
        52   4 -9.995049E+02 -1.845682E+06 -1.105848E+04 -6.795368E+03  6.846802E+04  4.263178E+03
        52   5  4.116288E+02 -1.844868E+06 -1.527711E+04  8.506566E+03  6.922144E+04  1.202880E+04
        52   6 -8.557657E+03 -1.845652E+06 -2.670822E+04 -6.879954E+03  6.467867E+04  1.973139E+04
        52   7 -4.797771E+05 -3.775453E+06 -4.683231E+05  5.521904E+03  6.850272E+04  2.177669E+03
        52   8 -4.660975E+05 -3.725692E+06 -4.599421E+05  2.413032E+04  6.922446E+04  1.308834E+04
        52   9 -4.633694E+05 -3.678094E+06 -4.609831E+05  1.204474E+04  6.464288E+04  2.393671E+04
        52  10  4.775049E+05  8.752819E+04  4.459380E+05 -1.914338E+04 -6.278840E-09 -2.247072E-10
        52  11  4.666616E+05  3.922641E+04  4.291333E+05 -7.157020E+03  1.096474E-09  2.145340E-09
        52  12  4.460081E+05 -1.010885E+04  4.073245E+05 -2.585295E+04  3.296551E-09 -8.225530E-09
        52  13 -1.004539E+03 -1.845684E+06 -1.106731E+04 -6.795603E+03  1.386075E-08  1.054671E-08
        52  14  4.064488E+02 -1.844869E+06 -1.528638E+04  8.505895E+03 -4.776347E-09  9.355553E-11
        52  15 -8.562250E+03 -1.845653E+06 -2.671681E+04 -6.880983E+03 -6.250793E-09  6.701114E-09
        52  16 -4.797822E+05 -3.775454E+06 -4.683319E+05  5.521784E+03 -2.650086E-09  1.639421E-10
        52  17 -4.661027E+05 -3.725694E+06 -4.599514E+05  2.412959E+04 -9.104134E-09 -1.106084E-08
        52  18 -4.633740E+05 -3.678096E+06 -4.609920E+05  1.204349E+04 -3.442075E-09  9.136328E-09
        52  19  4.775099E+05  8.752949E+04  4.459469E+05 -1.914303E+04 -6.843331E+04 -6.355155E+03
        52  20  4.666667E+05  3.922783E+04  4.291425E+05 -7.156409E+03 -6.921850E+04 -1.096601E+04
        52  21  4.460127E+05 -1.010747E+04  4.073328E+05 -2.585214E+04 -6.471466E+04 -1.551359E+04
        52  22 -9.995049E+02 -1.845682E+06 -1.105848E+04 -6.795368E+03 -6.846802E+04 -4.263178E+03
        52  23  4.116288E+02 -1.844868E+06 -1.527711E+04  8.506566E+03 -6.922144E+04 -1.202880E+04
        52  24 -8.557657E+03 -1.845652E+06 -2.670822E+04 -6.879954E+03 -6.467867E+04 -1.973139E+04
        52  25 -4.797771E+05 -3.775453E+06 -4.683231E+05  5.521904E+03 -6.850272E+04 -2.177669E+03
        52  26 -4.660975E+05 -3.725692E+06 -4.599421E+05  2.413032E+04 -6.922446E+04 -1.308834E+04
        52  27 -4.633694E+05 -3.678094E+06 -4.609831E+05  1.204474E+04 -6.464288E+04 -2.393671E+04
        53   1  4.436483E+05 -7.650889E+04  3.851457E+05 -1.127435E+04  6.760017E+04  3.258369E+04
        53   2  4.343379E+05 -1.235004E+05  3.522473E+05 -1.618349E+04  6.190773E+04  3.825037E+04
        53   3  3.210721E+05 -1.961443E+05  2.898811E+05 -6.071289E+04  1.888950E+04  4.338877E+04
        53   4  4.859229E+03 -1.851796E+06 -3.253246E+04 -8.417605E+03  6.770841E+04  2.471338E+04
        53   5  9.799365E+03 -1.837017E+06 -5.231844E+04  1.074121E+04  6.173172E+04  5.271738E+04
        53   6 -9.325692E+04 -1.851854E+06 -1.171741E+05 -9.732704E+03  1.838362E+04  8.019131E+04
        53   7 -4.341550E+05 -3.624176E+06 -4.504272E+05 -5.560329E+03  6.781674E+04  1.686537E+04
        53   8 -4.149482E+05 -3.547827E+06 -4.570866E+05  3.759982E+04  6.155673E+04  6.714450E+04
        53   9 -5.077823E+05 -3.505057E+06 -5.244258E+05  4.111976E+04  1.788312E+04  1.168956E+05
        53  10  4.436431E+05 -7.651125E+04  3.851351E+05 -1.127612E+04 -1.539594E-09 -7.595812E-09
        53  11  4.343334E+05 -1.235030E+05  3.522374E+05 -1.618540E+04 -6.479299E-10  1.204517E-09
        53  12  3.210712E+05 -1.961464E+05  2.898769E+05 -6.071355E+04  2.024263E-10  2.065822E-09
        53  13  4.854145E+03 -1.851798E+06 -3.254221E+04 -8.418954E+03 -4.143277E-09  1.254041E-08
        53  14  9.794528E+03 -1.837021E+06 -5.233083E+04  1.073859E+04  2.182085E-09 -8.314232E-10
        53  15 -9.325901E+04 -1.851861E+06 -1.171869E+05 -9.733893E+03 -1.464525E-08  7.863315E-09
        53  16 -4.341600E+05 -3.624178E+06 -4.504364E+05 -5.561252E+03  5.558934E-10  7.771335E-09
        53  17 -4.149534E+05 -3.547833E+06 -4.571022E+05  3.759649E+04 -4.623189E-09 -1.236634E-08
        53  18 -5.077864E+05 -3.505072E+06 -5.244523E+05  4.111808E+04  8.528646E-10 -1.445181E-10
        53  19  4.436483E+05 -7.650889E+04  3.851457E+05 -1.127435E+04 -6.760017E+04 -3.258369E+04
        53  20  4.343379E+05 -1.235004E+05  3.522473E+05 -1.618349E+04 -6.190773E+04 -3.825037E+04
        53  21  3.210721E+05 -1.961443E+05  2.898811E+05 -6.071289E+04 -1.888950E+04 -4.338877E+04
        53  22  4.859229E+03 -1.851796E+06 -3.253246E+04 -8.417605E+03 -6.770841E+04 -2.471338E+04
        53  23  9.799365E+03 -1.837017E+06 -5.231844E+04  1.074121E+04 -6.173172E+04 -5.271738E+04
        53  24 -9.325692E+04 -1.851854E+06 -1.171741E+05 -9.732704E+03 -1.838362E+04 -8.019131E+04
        53  25 -4.341550E+05 -3.624176E+06 -4.504272E+05 -5.560329E+03 -6.781674E+04 -1.686537E+04
        53  26 -4.149482E+05 -3.547827E+06 -4.570866E+05  3.759982E+04 -6.155673E+04 -6.714450E+04
        53  27 -5.077823E+05 -3.505057E+06 -5.244258E+05  4.111976E+04 -1.788312E+04 -1.168956E+05
        54   1  6.127346E+04  7.983580E+05  3.498482E+04 -1.050415E+02  2.144043E+04 -4.394996E+02
        54   2  6.136292E+04  7.984170E+05  3.550046E+04 -7.359102E+01  2.136673E+04 -1.104004E+03
        54   3  6.161783E+04  7.986078E+05  3.649093E+04 -3.153892E+01  2.119619E+04 -1.768558E+03
        54   4 -1.647518E+01  5.261873E+05  4.951964E+02  2.349050E+00  2.144141E+04 -3.781774E+02
        54   5  2.370741E+01  5.261415E+05  8.691447E+02 -2.923791E+00  2.136762E+04 -8.098531E+02
        54   6  1.890020E+02  5.261871E+05  1.556479E+03  2.404828E+00  2.119698E+04 -1.241575E+03
        54   7 -6.130944E+04  2.540925E+05 -3.399468E+04  1.096953E+02  2.144238E+04 -3.168807E+02
        54   8 -6.131854E+04  2.539419E+05 -3.376245E+04  6.771666E+01  2.136851E+04 -5.158248E+02
        54   9 -6.124289E+04  2.538424E+05 -3.337830E+04  3.633931E+01  2.119777E+04 -7.148112E+02
        54  10  6.127297E+04  7.983579E+05  3.498396E+04 -1.050339E+02 -3.225508E-09  6.111555E-08
        54  11  6.136243E+04  7.984169E+05  3.549960E+04 -7.357202E+01 -1.284656E-09 -4.831852E-08
        54  12  6.161735E+04  7.986077E+05  3.649008E+04 -3.150873E+01 -7.165952E-09 -1.517805E-07
        54  13 -1.696902E+01  5.261872E+05  4.943320E+02  2.355579E+00  5.306801E-09  3.562251E-10
        54  14  2.321683E+01  5.261413E+05  8.682853E+02 -2.909857E+00  2.358507E-08 -7.416348E-10
        54  15  1.885190E+02  5.261870E+05  1.555631E+03  2.426020E+00  2.434467E-08  4.389103E-10
        54  16 -6.130993E+04  2.540924E+05 -3.399555E+04  1.097008E+02 -7.506422E-09 -6.157978E-08
        54  17 -6.131903E+04  2.539418E+05 -3.376331E+04  6.772554E+01 -3.558918E-09  4.811374E-08
        54  18 -6.124337E+04  2.538422E+05 -3.337915E+04  3.635152E+01 -8.003434E-09  1.519408E-07
        54  19  6.127346E+04  7.983580E+05  3.498482E+04 -1.050415E+02 -2.144043E+04  4.394996E+02
        54  20  6.136292E+04  7.984170E+05  3.550046E+04 -7.359102E+01 -2.136673E+04  1.104004E+03
        54  21  6.161783E+04  7.986078E+05  3.649093E+04 -3.153892E+01 -2.119619E+04  1.768558E+03
        54  22 -1.647518E+01  5.261873E+05  4.951964E+02  2.349050E+00 -2.144141E+04  3.781774E+02
        54  23  2.370741E+01  5.261415E+05  8.691447E+02 -2.923791E+00 -2.136762E+04  8.098531E+02
        54  24  1.890020E+02  5.261871E+05  1.556479E+03  2.404829E+00 -2.119698E+04  1.241575E+03
        54  25 -6.130944E+04  2.540925E+05 -3.399468E+04  1.096953E+02 -2.144238E+04  3.168807E+02
        54  26 -6.131854E+04  2.539419E+05 -3.376245E+04  6.771666E+01 -2.136851E+04  5.158248E+02
        54  27 -6.124289E+04  2.538424E+05 -3.337830E+04  3.633931E+01 -2.119777E+04  7.148112E+02
        55   1  6.177404E+04  7.988534E+05  3.720493E+04 -1.295658E+02  2.108848E+04 -2.128463E+03
        55   2  6.263097E+04  7.985829E+05  3.977647E+04  7.619173E+02  2.048601E+04 -5.715379E+03
        55   3  6.508791E+04  7.991826E+05  4.508218E+04  1.616692E+03  1.916089E+04 -9.302678E+03
        55   4  2.765941E+02  5.262933E+05  2.067092E+03 -8.193409E+00  2.108923E+04 -1.545427E+03
        55   5  9.419363E+02  5.260081E+05  3.691361E+03  1.063995E+01  2.048599E+04 -3.395410E+03
        55   6  2.906373E+03  5.262923E+05  6.845128E+03 -7.239044E+00  1.915996E+04 -5.245763E+03
        55   7 -6.122393E+04  2.538091E+05 -3.307111E+04  1.131299E+02  2.108998E+04 -9.626348E+02
        55   8 -6.075024E+04  2.535091E+05 -3.239428E+04 -7.402851E+02  2.048598E+04 -1.076410E+03
        55   9 -5.927846E+04  2.534774E+05 -3.139283E+04 -1.630418E+03  1.915901E+04 -1.190550E+03
        55  10  6.177356E+04  7.988533E+05  3.720408E+04 -1.295297E+02 -5.939618E-09  8.953784E-08
        55  11  6.263051E+04  7.985827E+05  3.977562E+04  7.620116E+02  1.410945E-08  4.867842E-08
        55  12  6.508750E+04  7.991824E+05  4.508133E+04  1.616835E+03  1.543924E-09  3.195579E-09
        55  13  2.761158E+02  5.262931E+05  2.066251E+03 -8.167165E+00  3.176100E-08  3.594916E-10
        55  14  9.414824E+02  5.260080E+05  3.690551E+03  1.069596E+01  2.278673E-08 -8.950849E-10
        55  15  2.905971E+03  5.262921E+05  6.844387E+03 -7.158112E+00  8.014210E-09  4.910347E-10
        55  16 -6.122441E+04  2.538090E+05 -3.307195E+04  1.131462E+02 -9.196459E-09 -9.016764E-08
        55  17 -6.075069E+04  2.535090E+05 -3.239508E+04 -7.402674E+02 -7.510999E-09 -4.903951E-08
        55  18 -5.927886E+04  2.534773E+05 -3.139352E+04 -1.630399E+03  9.162875E-11 -3.056174E-09
        55  19  6.177404E+04  7.988534E+05  3.720493E+04 -1.295658E+02 -2.108848E+04  2.128463E+03
        55  20  6.263097E+04  7.985829E+05  3.977647E+04  7.619173E+02 -2.048601E+04  5.715379E+03
        55  21  6.508791E+04  7.991826E+05  4.508218E+04  1.616692E+03 -1.916089E+04  9.302678E+03
        55  22  2.765941E+02  5.262933E+05  2.067092E+03 -8.193409E+00 -2.108923E+04  1.545427E+03
        55  23  9.419363E+02  5.260081E+05  3.691361E+03  1.063995E+01 -2.048599E+04  3.395410E+03
        55  24  2.906373E+03  5.262923E+05  6.845128E+03 -7.239044E+00 -1.915996E+04  5.245763E+03
        55  25 -6.122393E+04  2.538091E+05 -3.307111E+04  1.131299E+02 -2.108998E+04  9.626348E+02
        55  26 -6.075024E+04  2.535091E+05 -3.239428E+04 -7.402851E+02 -2.048598E+04  1.076410E+03
        55  27 -5.927846E+04  2.534774E+05 -3.139283E+04 -1.630418E+03 -1.915901E+04  1.190550E+03
        56   1  6.657063E+04  8.005135E+05  4.884963E+04  1.038341E+03  1.832364E+04 -1.092362E+04
        56   2  7.521644E+04  7.974665E+05  6.351136E+04  1.146825E+04  1.379295E+04 -3.242544E+04
        56   3  9.893249E+04  8.009859E+05  9.592792E+04  2.147085E+04  3.911254E+03 -5.393065E+04
        56   4  4.003463E+03  5.271299E+05  9.179610E+03 -9.495141E+01  1.832237E+04 -6.440691E+03
        56   5  1.146079E+04  5.249573E+05  1.696500E+04  1.250823E+02  1.378540E+04 -1.508557E+04
        56   6  3.176108E+04  5.271227E+05  3.358565E+04 -8.227203E+01  3.897066E+03 -2.373353E+04
        56   7 -5.856712E+04  2.538216E+05 -3.049156E+04 -1.227716E+03  1.832108E+04 -1.959648E+03
        56   8 -5.229817E+04  2.525220E+05 -2.958264E+04 -1.121295E+04  1.377722E+04  2.246948E+03
        56   9 -3.541328E+04  2.533319E+05 -2.875782E+04 -2.162581E+04  3.880781E+03  6.450408E+03
        56  10  6.657024E+04  8.005133E+05  4.884878E+04  1.038502E+03 -1.894809E-09  5.879573E-09
        56  11  7.521595E+04  7.974653E+05  6.350903E+04  1.146861E+04 -1.781667E-09  1.625990E-09
        56  12  9.893170E+04  8.009828E+05  9.592243E+04  2.147102E+04 -1.138443E-09  1.215538E-09
        56  13  4.003091E+03  5.271298E+05  9.178901E+03 -9.485639E+01  2.235238E-09  4.725008E-10
        56  14  1.146052E+04  5.249570E+05  1.696421E+04  1.252497E+02  5.658560E-09 -9.323929E-10
        56  15  3.176091E+04  5.271221E+05  3.358456E+04 -8.219756E+01  1.394103E-09  6.765467E-10
        56  16 -5.856749E+04  2.538215E+05 -3.049220E+04 -1.227687E+03 -8.427169E-10 -6.573425E-09
        56  17 -5.229837E+04  2.525219E+05 -2.958300E+04 -1.121298E+04 -1.962252E-09 -1.915345E-09
        56  18 -3.541331E+04  2.533319E+05 -2.875793E+04 -2.162583E+04 -5.465975E-10 -1.077442E-09
        56  19  6.657063E+04  8.005135E+05  4.884963E+04  1.038341E+03 -1.832364E+04  1.092362E+04
        56  20  7.521644E+04  7.974665E+05  6.351136E+04  1.146825E+04 -1.379295E+04  3.242544E+04
        56  21  9.893249E+04  8.009859E+05  9.592792E+04  2.147085E+04 -3.911254E+03  5.393065E+04
        56  22  4.003463E+03  5.271299E+05  9.179610E+03 -9.495141E+01 -1.832237E+04  6.440691E+03
        56  23  1.146079E+04  5.249573E+05  1.696500E+04  1.250823E+02 -1.378540E+04  1.508557E+04
        56  24  3.176108E+04  5.271227E+05  3.358565E+04 -8.227203E+01 -3.897066E+03  2.373353E+04
        56  25 -5.856712E+04  2.538216E+05 -3.049156E+04 -1.227716E+03 -1.832108E+04  1.959648E+03
        56  26 -5.229817E+04  2.525220E+05 -2.958264E+04 -1.121295E+04 -1.377722E+04 -2.246948E+03
        56  27 -3.541328E+04  2.533319E+05 -2.875782E+04 -2.162581E+04 -3.880781E+03 -6.450408E+03
        57   1  2.775917E+06  4.323104E+06  2.588449E+06  1.399077E+06 -1.635071E+06 -7.923780E+05
        57   2  1.293910E+06  3.658986E+06  3.161376E+06 -2.100409E+06 -9.719821E+05 -7.732115E+05
        57   3 -3.644458E+06  4.827929E+06  3.002059E+06 -4.595760E+05 -4.754804E+05 -3.778525E+05
        57   4 -1.633663E+07 -2.913115E+06 -2.693182E+06 -3.787033E+06 -1.686548E+06 -8.143216E+05
        57   5 -1.440186E+07 -2.740910E+06 -1.241963E+06 -6.795807E+06 -9.574338E+05 -7.678844E+05
        57   6 -1.601340E+07 -8.067943E+05 -6.070183E+05 -4.654659E+06 -3.933360E+05 -3.402993E+05
        57   7 -3.509573E+07 -1.013077E+07 -8.008895E+06 -8.830300E+06 -1.735412E+06 -8.353286E+05
        57   8 -2.985611E+07 -9.118824E+06 -5.669132E+06 -1.138083E+07 -9.429234E+05 -7.625877E+05
        57   9 -2.823046E+07 -6.418468E+06 -4.231995E+06 -8.768856E+06 -3.129813E+05 -3.036242E+05
        57  10  2.772896E+06  4.321723E+06  2.582283E+06  1.398041E+06 -1.230805E-08  4.480314E-09
        57  11  1.292735E+06  3.658091E+06  3.158475E+06 -2.101012E+06 -2.177202E-08  1.180545E-08
        57  12 -3.644740E+06  4.827715E+06  3.001365E+06 -4.597202E+05  1.193351E-08 -4.681626E-09
        57  13 -1.633994E+07 -2.914628E+06 -2.699954E+06 -3.788156E+06 -4.507232E-09 -2.572222E-09
        57  14 -1.440303E+07 -2.741808E+06 -1.244871E+06 -6.796408E+06 -2.058121E-08 -7.251649E-09
        57  15 -1.601361E+07 -8.069624E+05 -6.075379E+05 -4.654768E+06  3.959833E-09 -1.168519E-08
        57  16 -3.509933E+07 -1.013242E+07 -8.016300E+06 -8.831512E+06  3.296084E-09  3.121268E-09
        57  17 -2.985728E+07 -9.119725E+06 -5.672046E+06 -1.138143E+07  1.300686E-08 -1.347893E-08
        57  18 -2.823059E+07 -6.418597E+06 -4.232367E+06 -8.768934E+06 -5.236696E-09  1.082040E-08
        57  19  2.775917E+06  4.323104E+06  2.588449E+06  1.399077E+06  1.635071E+06  7.923780E+05
        57  20  1.293910E+06  3.658986E+06  3.161376E+06 -2.100409E+06  9.719821E+05  7.732115E+05
        57  21 -3.644458E+06  4.827929E+06  3.002059E+06 -4.595760E+05  4.754804E+05  3.778525E+05
        57  22 -1.633663E+07 -2.913115E+06 -2.693182E+06 -3.787033E+06  1.686548E+06  8.143216E+05
        57  23 -1.440186E+07 -2.740910E+06 -1.241963E+06 -6.795807E+06  9.574338E+05  7.678844E+05
        57  24 -1.601340E+07 -8.067943E+05 -6.070183E+05 -4.654659E+06  3.933360E+05  3.402993E+05
        57  25 -3.509573E+07 -1.013077E+07 -8.008895E+06 -8.830300E+06  1.735412E+06  8.353286E+05
        57  26 -2.985611E+07 -9.118824E+06 -5.669132E+06 -1.138083E+07  9.429234E+05  7.625877E+05
        57  27 -2.823046E+07 -6.418468E+06 -4.231995E+06 -8.768856E+06  3.129813E+05  3.036242E+05
        58   1 -2.080946E+07 -2.979476E+06 -1.855116E+06 -5.822536E+06 -4.148616E+05 -1.689215E+05
        58   2 -2.197353E+07 -6.721824E+06 -2.605012E+06 -9.410117E+06 -3.301922E+05  1.577452E+04
        58   3 -2.822353E+07 -5.847907E+06 -3.558557E+06 -7.885010E+06 -2.335883E+05  1.821750E+05
        58   4 -1.645748E+07 -9.419783E+05 -5.573512E+05 -4.319973E+06 -3.895445E+05 -1.572790E+05
        58   5 -1.389490E+07 -3.240552E+06 -2.681135E+05 -6.871278E+06 -3.082184E+05  2.536749E+04
        58   6 -1.642001E+07 -9.192131E+05 -1.761309E+05 -4.321009E+06 -2.140507E+05  1.902195E+05
        58   7 -1.208635E+07  1.098686E+06  7.383773E+05 -2.806913E+06 -3.640061E+05 -1.455247E+05
        58   8 -5.750506E+06  2.483243E+05  2.062138E+06 -4.300267E+06 -2.858846E+05  3.512201E+04
        58   9 -4.475671E+06  4.022909E+06  3.192369E+06 -6.918139E+05 -1.940571E+05  1.984618E+05
        58  10 -2.080966E+07 -2.979555E+06 -1.855507E+06 -5.822594E+06 -8.981526E-09  9.106300E-10
        58  11 -2.197365E+07 -6.721855E+06 -2.605224E+06 -9.410113E+06  2.063645E-08  2.468300E-08
        58  12 -2.822359E+07 -5.847957E+06 -3.558724E+06 -7.884976E+06  1.992330E-08 -3.952373E-08
        58  13 -1.645765E+07 -9.420475E+05 -5.576923E+05 -4.320023E+06 -2.563496E-09  2.707100E-08
        58  14 -1.389500E+07 -3.240579E+06 -2.682966E+05 -6.871272E+06  1.591737E-08 -2.366653E-08
        58  15 -1.642007E+07 -9.192639E+05 -1.762855E+05 -4.320977E+06 -2.104304E-08  1.971580E-08
        58  16 -1.208650E+07  1.098626E+06  7.380827E+05 -2.806956E+06  7.982481E-09 -2.777999E-08
        58  17 -5.750594E+06  2.483009E+05  2.061981E+06 -4.300259E+06 -2.749929E-08 -6.545544E-08
        58  18 -4.475722E+06  4.022857E+06  3.192225E+06 -6.917830E+05  3.944556E-09  1.899531E-08
        58  19 -2.080946E+07 -2.979476E+06 -1.855116E+06 -5.822536E+06  4.148616E+05  1.689215E+05
        58  20 -2.197353E+07 -6.721824E+06 -2.605012E+06 -9.410117E+06  3.301922E+05 -1.577452E+04
        58  21 -2.822353E+07 -5.847907E+06 -3.558557E+06 -7.885010E+06  2.335883E+05 -1.821750E+05
        58  22 -1.645748E+07 -9.419783E+05 -5.573512E+05 -4.319973E+06  3.895445E+05  1.572790E+05
        58  23 -1.389490E+07 -3.240552E+06 -2.681135E+05 -6.871278E+06  3.082184E+05 -2.536749E+04
        58  24 -1.642001E+07 -9.192131E+05 -1.761309E+05 -4.321009E+06  2.140507E+05 -1.902195E+05
        58  25 -1.208635E+07  1.098686E+06  7.383773E+05 -2.806913E+06  3.640061E+05  1.455247E+05
        58  26 -5.750506E+06  2.483243E+05  2.062138E+06 -4.300267E+06  2.858846E+05 -3.512201E+04
        58  27 -4.475671E+06  4.022909E+06  3.192369E+06 -6.918139E+05  1.940571E+05 -1.984618E+05
        59   1 -3.719332E+07 -1.086600E+07 -6.388286E+06 -1.166895E+07 -2.941204E+05  2.500160E+05
        59   2 -3.961230E+07 -1.135754E+07 -6.913131E+06 -1.211974E+07 -2.079122E+05  3.834835E+05
        59   3 -3.910970E+07 -1.032646E+07 -6.587267E+06 -1.077285E+07 -6.672330E+04  3.714602E+05
        59   4 -1.473706E+07 -1.649261E+06  7.065902E+04 -5.087541E+06 -2.644183E+05  2.611644E+05
        59   5 -1.624806E+07 -2.463883E+06 -3.320986E+05 -5.972304E+06 -2.056054E+05  3.830284E+05
        59   6 -1.474482E+07 -1.686430E+06  1.445617E+05 -5.051716E+06 -9.260030E+04  3.618585E+05
        59   7  8.230376E+06  7.612212E+06  6.479102E+06  1.725490E+06 -2.333717E+05  2.728992E+05
        59   8  7.666195E+06  6.458390E+06  6.196428E+06  3.966689E+05 -2.031857E+05  3.826551E+05
        59   9  1.021120E+07  6.966788E+06  6.821555E+06  8.795165E+05 -1.196802E+05  3.519022E+05
        59  10 -3.719343E+07 -1.086609E+07 -6.388569E+06 -1.166889E+07  7.551411E-09 -3.946570E-08
        59  11 -3.961238E+07 -1.135771E+07 -6.913486E+06 -1.211968E+07  5.156501E-09  3.563638E-08
        59  12 -3.910974E+07 -1.032661E+07 -6.587534E+06 -1.077283E+07 -7.947916E-09  4.718049E-08
        59  13 -1.473715E+07 -1.649352E+06  7.039972E+04 -5.087486E+06 -5.950708E-09  2.756975E-08
        59  14 -1.624815E+07 -2.464050E+06 -3.324510E+05 -5.972241E+06 -1.383333E-08  9.980149E-10
        59  15 -1.474486E+07 -1.686572E+06  1.443015E+05 -5.051689E+06  6.652731E-10 -9.066629E-09
        59  16  8.230299E+06  7.612119E+06  6.478862E+06  1.725540E+06 -6.537364E-09  3.173498E-08
        59  17  7.666112E+06  6.458224E+06  6.196078E+06  3.967308E+05 -1.008789E-08 -1.051058E-08
        59  18  1.021115E+07  6.966653E+06  6.821298E+06  8.795500E+05  1.139476E-08 -6.201341E-08
        59  19 -3.719332E+07 -1.086600E+07 -6.388286E+06 -1.166895E+07  2.941204E+05 -2.500160E+05
        59  20 -3.961230E+07 -1.135754E+07 -6.913131E+06 -1.211974E+07  2.079122E+05 -3.834835E+05
        59  21 -3.910970E+07 -1.032646E+07 -6.587267E+06 -1.077285E+07  6.672330E+04 -3.714602E+05
        59  22 -1.473706E+07 -1.649261E+06  7.065902E+04 -5.087541E+06  2.644183E+05 -2.611644E+05
        59  23 -1.624806E+07 -2.463883E+06 -3.320986E+05 -5.972304E+06  2.056054E+05 -3.830284E+05
        59  24 -1.474482E+07 -1.686430E+06  1.445617E+05 -5.051716E+06  9.260030E+04 -3.618585E+05
        59  25  8.230376E+06  7.612212E+06  6.479102E+06  1.725490E+06  2.333717E+05 -2.728992E+05
        59  26  7.666195E+06  6.458390E+06  6.196428E+06  3.966689E+05  2.031857E+05 -3.826551E+05
        59  27  1.021120E+07  6.966788E+06  6.821555E+06  8.795165E+05  1.196802E+05 -3.519022E+05
        60   1 -3.159121E+07 -8.747661E+06 -4.708828E+06 -1.032119E+07 -1.111422E+05  3.044519E+05
        60   2 -3.052854E+07 -5.657196E+06 -3.854518E+06 -7.009367E+06 -4.485088E+04  2.450048E+05
        60   3 -2.508596E+07 -5.858722E+06 -2.807181E+06 -8.583910E+06  3.932935E+04  9.792568E+04
        60   4 -1.435020E+07 -2.837793E+06 -1.234168E+04 -6.491937E+06 -1.179141E+05  3.017129E+05
        60   5 -1.654942E+07 -1.026714E+06 -8.234406E+04 -4.107638E+06 -6.965857E+04  2.375549E+05
        60   6 -1.436154E+07 -2.483814E+06  5.880520E+04 -6.605887E+06 -4.019912E+03  8.661964E+04
        60   7  3.183451E+06  3.075545E+06  4.657353E+06 -2.564065E+06 -1.248981E+05  2.989235E+05
        60   8 -2.378918E+06  3.603329E+06  3.672526E+06 -1.146393E+06 -9.508838E+04  2.299348E+05
        60   9 -3.525908E+06  8.888543E+05  2.914829E+06 -4.597209E+06 -4.818849E+04  7.510949E+04
        60  10 -3.159124E+07 -8.747763E+06 -4.709024E+06 -1.032116E+07  1.703819E-08  2.804826E-08
        60  11 -3.052856E+07 -5.657261E+06 -3.854634E+06 -7.009358E+06  1.424182E-08 -7.562973E-09
        60  12 -2.508596E+07 -5.858733E+06 -2.807202E+06 -8.583913E+06 -2.464998E-08 -5.481633E-08
        60  13 -1.435023E+07 -2.837894E+06 -1.253725E+04 -6.491908E+06  1.125783E-09 -4.952563E-08
        60  14 -1.654944E+07 -1.026775E+06 -8.245828E+04 -4.107625E+06  3.142787E-08  2.650654E-08
        60  15 -1.436154E+07 -2.483822E+06  5.879112E+04 -6.605887E+06  1.611113E-08 -2.279543E-08
        60  16  3.183410E+06  3.075446E+06  4.657157E+06 -2.564036E+06 -4.637549E-09 -3.385192E-08
        60  17 -2.378942E+06  3.603271E+06  3.672410E+06 -1.146376E+06 -6.852010E-08 -8.047729E-09
        60  18 -3.525912E+06  8.888477E+05  2.914814E+06 -4.597207E+06 -1.140441E-08  2.198973E-08
        60  19 -3.159121E+07 -8.747661E+06 -4.708828E+06 -1.032119E+07  1.111422E+05 -3.044519E+05
        60  20 -3.052854E+07 -5.657196E+06 -3.854518E+06 -7.009367E+06  4.485088E+04 -2.450048E+05
        60  21 -2.508596E+07 -5.858722E+06 -2.807181E+06 -8.583910E+06 -3.932935E+04 -9.792568E+04
        60  22 -1.435020E+07 -2.837793E+06 -1.234168E+04 -6.491937E+06  1.179141E+05 -3.017129E+05
        60  23 -1.654942E+07 -1.026714E+06 -8.234406E+04 -4.107638E+06  6.965857E+04 -2.375549E+05
        60  24 -1.436154E+07 -2.483814E+06  5.880520E+04 -6.605887E+06  4.019912E+03 -8.661964E+04
        60  25  3.183451E+06  3.075545E+06  4.657353E+06 -2.564065E+06  1.248981E+05 -2.989235E+05
        60  26 -2.378918E+06  3.603329E+06  3.672526E+06 -1.146393E+06  9.508838E+04 -2.299348E+05
        60  27 -3.525908E+06  8.888543E+05  2.914829E+06 -4.597209E+06  4.818849E+04 -7.510949E+04
        61   1 -6.364143E+06 -7.559837E+04  2.155079E+06 -5.246341E+06  4.200261E+04 -3.040228E+04
        61   2 -4.799948E+06  2.865239E+06  3.041627E+06 -1.569889E+06  8.460147E+04 -1.876201E+05
        61   3  9.437094E+05  2.221356E+06  4.041153E+06 -3.276387E+06  1.138941E+05 -2.741207E+05
        61   4 -1.439855E+07 -2.566862E+06  3.265497E+04 -6.713158E+06 -7.640651E+02 -4.141846E+04
        61   5 -1.647171E+07 -9.216796E+05 -4.939361E+04 -3.965103E+06  5.726636E+04 -1.955033E+05
        61   6 -1.438832E+07 -2.880040E+06 -3.134506E+04 -6.612724E+06  1.018070E+05 -2.782087E+05
        61   7 -2.237170E+07 -5.059496E+06 -2.095258E+06 -8.163367E+06 -4.294178E+04 -5.229006E+04
        61   8 -2.801348E+07 -4.709278E+06 -3.152130E+06 -6.320638E+06  3.048116E+04 -2.032365E+05
        61   9 -2.949649E+07 -7.979966E+06 -4.124211E+06 -9.875785E+06  9.004006E+04 -2.822110E+05
        61  10 -6.364145E+06 -7.559982E+04  2.155074E+06 -5.246340E+06  2.560363E-08  7.567369E-09
        61  11 -4.799965E+06  2.865200E+06  3.041548E+06 -1.569877E+06 -2.160566E-08  4.975343E-08
        61  12  9.436758E+05  2.221273E+06  4.040989E+06 -3.276362E+06 -1.413966E-08 -2.255438E-08
        61  13 -1.439855E+07 -2.566863E+06  3.265175E+04 -6.713158E+06  2.341246E-08  1.473389E-08
        61  14 -1.647172E+07 -9.217211E+05 -4.947096E+04 -3.965094E+06  1.263259E-08  6.090983E-08
        61  15 -1.438835E+07 -2.880126E+06 -3.150863E+04 -6.612701E+06  7.216673E-09  8.434255E-08
        61  16 -2.237171E+07 -5.059500E+06 -2.095267E+06 -8.163368E+06 -3.939460E-08  6.435721E-08
        61  17 -2.801349E+07 -4.709323E+06 -3.152208E+06 -6.320633E+06 -3.182894E-08 -5.772879E-08
        61  18 -2.949652E+07 -7.980053E+06 -4.124375E+06 -9.875764E+06  1.682108E-09  2.549225E-08
        61  19 -6.364143E+06 -7.559837E+04  2.155079E+06 -5.246341E+06 -4.200261E+04  3.040228E+04
        61  20 -4.799948E+06  2.865239E+06  3.041627E+06 -1.569889E+06 -8.460147E+04  1.876201E+05
        61  21  9.437094E+05  2.221356E+06  4.041153E+06 -3.276387E+06 -1.138941E+05  2.741207E+05
        61  22 -1.439855E+07 -2.566862E+06  3.265497E+04 -6.713158E+06  7.640651E+02  4.141846E+04
        61  23 -1.647171E+07 -9.216796E+05 -4.939361E+04 -3.965103E+06 -5.726636E+04  1.955033E+05
        61  24 -1.438832E+07 -2.880040E+06 -3.134506E+04 -6.612724E+06 -1.018070E+05  2.782087E+05
        61  25 -2.237170E+07 -5.059496E+06 -2.095258E+06 -8.163367E+06  4.294178E+04  5.229006E+04
        61  26 -2.801348E+07 -4.709278E+06 -3.152130E+06 -6.320638E+06 -3.048116E+04  2.032365E+05
        61  27 -2.949649E+07 -7.979966E+06 -4.124211E+06 -9.875785E+06 -9.004006E+04  2.822110E+05
        62   1  1.015876E+07  6.656548E+06  6.751665E+06  4.730317E+05  1.126262E+05 -3.392638E+05
        62   2  7.780607E+06  6.564458E+06  6.241804E+06  4.942824E+05  2.008278E+05 -3.875158E+05
        62   3  9.157088E+06  7.570025E+06  6.655878E+06  1.647839E+06  2.382805E+05 -2.929651E+05
        62   4 -1.460363E+07 -1.772169E+06  1.554263E+05 -5.218507E+06  8.160502E+04 -3.501051E+05
        62   5 -1.643033E+07 -2.306690E+06 -3.350356E+05 -5.781770E+06  1.997434E+05 -3.891806E+05
        62   6 -1.459705E+07 -1.816851E+06  6.980053E+04 -5.221313E+06  2.662191E+05 -2.828974E+05
        62   7 -3.878541E+07 -1.019205E+07 -6.494317E+06 -1.071077E+07  5.193940E+04 -3.605549E+05
        62   8 -4.007892E+07 -1.115292E+07 -6.965165E+06 -1.183793E+07  1.986951E+05 -3.908735E+05
        62   9 -3.780629E+07 -1.116105E+07 -6.569636E+06 -1.185039E+07  2.929081E+05 -2.733664E+05
        62  10  1.015872E+07  6.656422E+06  6.751427E+06  4.730621E+05  6.096810E-09  7.485739E-09
        62  11  7.780525E+06  6.564288E+06  6.241449E+06  4.943444E+05  1.268970E-08  1.613461E-09
        62  12  9.157005E+06  7.569919E+06  6.655612E+06  1.647894E+06 -2.231895E-08 -9.182027E-09
        62  13 -1.460367E+07 -1.772302E+06  1.551853E+05 -5.218484E+06  2.862663E-09  9.933498E-09
        62  14 -1.643041E+07 -2.306862E+06 -3.353925E+05 -5.781707E+06 -4.250944E-09 -2.072221E-08
        62  15 -1.459715E+07 -1.816955E+06  6.951760E+04 -5.221253E+06  1.687226E-09  5.740233E-10
        62  16 -3.878545E+07 -1.019219E+07 -6.494565E+06 -1.071075E+07 -2.880869E-09  2.502355E-08
        62  17 -4.007900E+07 -1.115310E+07 -6.965524E+06 -1.183787E+07  1.116927E-08  3.201380E-08
        62  18 -3.780640E+07 -1.116115E+07 -6.569940E+06 -1.185032E+07  2.222112E-08 -2.282855E-08
        62  19  1.015876E+07  6.656548E+06  6.751665E+06  4.730317E+05 -1.126262E+05  3.392638E+05
        62  20  7.780607E+06  6.564458E+06  6.241804E+06  4.942824E+05 -2.008278E+05  3.875158E+05
        62  21  9.157088E+06  7.570025E+06  6.655878E+06  1.647839E+06 -2.382805E+05  2.929651E+05
        62  22 -1.460363E+07 -1.772169E+06  1.554263E+05 -5.218507E+06 -8.160502E+04  3.501051E+05
        62  23 -1.643033E+07 -2.306690E+06 -3.350356E+05 -5.781770E+06 -1.997434E+05  3.891806E+05
        62  24 -1.459705E+07 -1.816851E+06  6.980053E+04 -5.221313E+06 -2.662191E+05  2.828974E+05
        62  25 -3.878541E+07 -1.019205E+07 -6.494317E+06 -1.071077E+07 -5.193940E+04  3.605549E+05
        62  26 -4.007892E+07 -1.115292E+07 -6.965165E+06 -1.183793E+07 -1.986951E+05  3.908735E+05
        62  27 -3.780629E+07 -1.116105E+07 -6.569636E+06 -1.185039E+07 -2.929081E+05  2.733664E+05
        63   1 -1.938930E+06  4.860650E+06  3.870033E+06 -4.315316E+04  2.035700E+05 -2.297238E+05
        63   2 -3.406359E+06  1.320573E+06  2.752563E+06 -3.503798E+06  3.016907E+05 -8.067774E+04
        63   3 -9.294339E+06  2.262778E+06  1.543796E+06 -1.974685E+06  3.775547E+05  1.029845E+05
        63   4 -1.629234E+07 -9.912506E+05 -1.578695E+05 -4.332248E+06  2.185299E+05 -2.239321E+05
        63   5 -1.408160E+07 -3.209208E+06 -2.889688E+05 -6.841907E+06  3.223502E+05 -7.187521E+04
        63   6 -1.632455E+07 -9.540539E+05 -5.190729E+05 -4.360289E+06  4.046554E+05  1.154158E+05
        63   7 -3.044340E+07 -6.825152E+06 -4.205694E+06 -8.529353E+06  2.330766E+05 -2.183214E+05
        63   8 -2.464423E+07 -7.726483E+06 -3.341840E+06 -1.012557E+07  3.425666E+05 -6.327113E+04
        63   9 -2.330540E+07 -4.163402E+06 -2.587127E+06 -6.719591E+06  4.313711E+05  1.276587E+05
        63  10 -1.938989E+06  4.860583E+06  3.869857E+06 -4.311570E+04 -9.955540E-09 -2.964036E-09
        63  11 -3.406458E+06  1.320542E+06  2.752380E+06 -3.503778E+06 -3.315274E-08  2.413263E-08
        63  12 -9.294496E+06  2.262728E+06  1.543503E+06 -1.974717E+06 -2.738662E-09 -9.821563E-09
        63  13 -1.629240E+07 -9.913168E+05 -1.580536E+05 -4.332209E+06 -6.667879E-09 -1.903706E-08
        63  14 -1.408171E+07 -3.209242E+06 -2.891767E+05 -6.841889E+06  1.289749E-08 -3.189380E-09
        63  15 -1.632473E+07 -9.541140E+05 -5.194153E+05 -4.360327E+06 -3.143929E-09  6.500355E-08
        63  16 -3.044347E+07 -6.825217E+06 -4.205887E+06 -8.529312E+06  2.420008E-08  6.997305E-09
        63  17 -2.464436E+07 -7.726520E+06 -3.342074E+06 -1.012556E+07  2.717028E-08  6.699130E-09
        63  18 -2.330561E+07 -4.163473E+06 -2.587523E+06 -6.719636E+06 -1.641844E-08  3.192611E-08
        63  19 -1.938930E+06  4.860650E+06  3.870033E+06 -4.315316E+04 -2.035700E+05  2.297238E+05
        63  20 -3.406359E+06  1.320573E+06  2.752563E+06 -3.503798E+06 -3.016907E+05  8.067774E+04
        63  21 -9.294339E+06  2.262778E+06  1.543796E+06 -1.974685E+06 -3.775547E+05 -1.029845E+05
        63  22 -1.629234E+07 -9.912506E+05 -1.578695E+05 -4.332248E+06 -2.185299E+05  2.239321E+05
        63  23 -1.408160E+07 -3.209208E+06 -2.889688E+05 -6.841907E+06 -3.223502E+05  7.187521E+04
        63  24 -1.632455E+07 -9.540539E+05 -5.190729E+05 -4.360289E+06 -4.046554E+05 -1.154158E+05
        63  25 -3.044340E+07 -6.825152E+06 -4.205694E+06 -8.529353E+06 -2.330766E+05  2.183214E+05
        63  26 -2.464423E+07 -7.726483E+06 -3.341840E+06 -1.012557E+07 -3.425666E+05  6.327113E+04
        63  27 -2.330540E+07 -4.163402E+06 -2.587127E+06 -6.719591E+06 -4.313711E+05 -1.276587E+05
        64   1 -2.602370E+07 -5.320674E+06 -3.544191E+06 -7.964168E+06  3.284690E+05  2.630703E+05
        64   2 -2.744810E+07 -8.355161E+06 -4.993707E+06 -1.085347E+07  9.281145E+05  7.177570E+05
        64   3 -3.333912E+07 -9.332279E+06 -7.428191E+06 -8.371676E+06  1.679408E+06  8.176689E+05
        64   4 -1.619180E+07 -7.437117E+05 -6.159527E+05 -4.600005E+06  4.056353E+05  2.986482E+05
        64   5 -1.414745E+07 -2.814739E+06 -1.178851E+06 -6.853420E+06  9.431398E+05  7.235579E+05
        64   6 -1.651746E+07 -2.768940E+06 -2.647432E+06 -3.748751E+06  1.635241E+06  7.981616E+05
        64   7 -6.261624E+06  3.849081E+06  2.301927E+06 -1.182479E+06  4.841973E+05  3.349243E+05
        64   8 -6.680817E+05  2.742827E+06  2.618288E+06 -2.770524E+06  9.582654E+05  7.294105E+05
        64   9  5.885782E+05  3.811047E+06  2.105716E+06  9.916746E+05  1.588975E+06  7.778860E+05
        64  10 -2.602384E+07 -5.320780E+06 -3.544538E+06 -7.964239E+06  5.803804E-09  2.949290E-08
        64  11 -2.744922E+07 -8.355979E+06 -4.996426E+06 -1.085402E+07  3.699789E-09 -6.493849E-08
        64  12 -3.334249E+07 -9.333837E+06 -7.435133E+06 -8.372821E+06 -6.451707E-09 -2.811979E-08
        64  13 -1.619201E+07 -7.438540E+05 -6.164411E+05 -4.600104E+06  4.871413E-08 -4.387267E-08
        64  14 -1.414857E+07 -2.815558E+06 -1.181580E+06 -6.853978E+06  1.788966E-08  2.205197E-08
        64  15 -1.652058E+07 -2.770377E+06 -2.653825E+06 -3.749818E+06  1.341722E-08 -8.881088E-09
        64  16 -6.261907E+06  3.848898E+06  2.301272E+06 -1.182609E+06 -1.615662E-08 -3.914875E-08
        64  17 -6.692134E+05  2.742007E+06  2.615550E+06 -2.771087E+06  2.374664E-08 -4.770629E-08
        64  18  5.857126E+05  3.809726E+06  2.099851E+06  9.906843E+05  2.862568E-08 -2.168258E-08
        64  19 -2.602370E+07 -5.320674E+06 -3.544191E+06 -7.964168E+06 -3.284690E+05 -2.630703E+05
        64  20 -2.744810E+07 -8.355161E+06 -4.993707E+06 -1.085347E+07 -9.281145E+05 -7.177570E+05
        64  21 -3.333912E+07 -9.332279E+06 -7.428191E+06 -8.371676E+06 -1.679408E+06 -8.176689E+05
        64  22 -1.619180E+07 -7.437117E+05 -6.159527E+05 -4.600005E+06 -4.056353E+05 -2.986482E+05
        64  23 -1.414745E+07 -2.814739E+06 -1.178851E+06 -6.853420E+06 -9.431398E+05 -7.235579E+05
        64  24 -1.651746E+07 -2.768940E+06 -2.647432E+06 -3.748751E+06 -1.635241E+06 -7.981616E+05
        64  25 -6.261624E+06  3.849081E+06  2.301927E+06 -1.182479E+06 -4.841973E+05 -3.349243E+05
        64  26 -6.680817E+05  2.742827E+06  2.618288E+06 -2.770524E+06 -9.582654E+05 -7.294105E+05
        64  27  5.885782E+05  3.811047E+06  2.105716E+06  9.916746E+05 -1.588975E+06 -7.778860E+05
        65   1 -5.426555E+05  1.125109E+05  1.499047E+05  1.351808E+04  1.097489E+05  1.522935E+03
        65   2 -5.758544E+05 -4.300032E+04  5.524630E+04 -1.346136E+04  7.221197E+04  1.178096E+03
        65   3 -5.609322E+05 -1.973735E+04  2.944727E+04  5.911703E+03  3.466921E+04  1.279502E+03
        65   4 -4.984057E+05  1.233706E+05  1.609322E+05  7.812380E+03  1.097519E+05  1.521886E+03
        65   5 -5.224896E+05 -2.969692E+04  6.857796E+04 -1.447056E+04  7.224490E+04  1.178368E+03
        65   6 -4.984609E+05 -4.003265E+03  4.505907E+04  9.598588E+03  3.473144E+04  1.280515E+03
        65   7 -4.541539E+05  1.342304E+05  1.719595E+05  2.106263E+03  1.097550E+05  1.520837E+03
        65   8 -4.691222E+05 -1.639374E+04  8.190940E+04 -1.547986E+04  7.227783E+04  1.178640E+03
        65   9 -4.359860E+05  1.173057E+04  6.067058E+04  1.328583E+04  3.479368E+04  1.281528E+03
        65  10 -5.426685E+05  1.125077E+05  1.498821E+05  1.351795E+04  1.421169E-09  5.905661E-09
        65  11 -5.758600E+05 -4.300172E+04  5.523649E+04 -1.346143E+04  2.107386E-09 -5.737497E-09
        65  12 -5.609335E+05 -1.973767E+04  2.944500E+04  5.911667E+03  9.104194E-09 -2.957178E-09
        65  13 -4.984186E+05  1.233674E+05  1.609095E+05  7.812246E+03  3.762338E-09  2.096868E-09
        65  14 -5.224952E+05 -2.969833E+04  6.856814E+04 -1.447063E+04 -1.475507E-09 -1.890196E-08
        65  15 -4.984622E+05 -4.003591E+03  4.505680E+04  9.598552E+03 -2.406115E-09 -2.489117E-09
        65  16 -4.541669E+05  1.342271E+05  1.719369E+05  2.106129E+03 -6.878543E-09 -1.898013E-09
        65  17 -4.691278E+05 -1.639515E+04  8.189958E+04 -1.547993E+04 -1.096309E-08 -3.336585E-09
        65  18 -4.359873E+05  1.173024E+04  6.066830E+04  1.328580E+04 -1.134140E-08 -7.131701E-09
        65  19 -5.426555E+05  1.125109E+05  1.499047E+05  1.351808E+04 -1.097489E+05 -1.522935E+03
        65  20 -5.758544E+05 -4.300032E+04  5.524630E+04 -1.346136E+04 -7.221197E+04 -1.178096E+03
        65  21 -5.609322E+05 -1.973735E+04  2.944727E+04  5.911703E+03 -3.466921E+04 -1.279502E+03
        65  22 -4.984057E+05  1.233706E+05  1.609322E+05  7.812380E+03 -1.097519E+05 -1.521886E+03
        65  23 -5.224896E+05 -2.969692E+04  6.857796E+04 -1.447056E+04 -7.224490E+04 -1.178368E+03
        65  24 -4.984609E+05 -4.003265E+03  4.505907E+04  9.598588E+03 -3.473144E+04 -1.280515E+03
        65  25 -4.541539E+05  1.342304E+05  1.719595E+05  2.106263E+03 -1.097550E+05 -1.520837E+03
        65  26 -4.691222E+05 -1.639374E+04  8.190940E+04 -1.547986E+04 -7.227783E+04 -1.178640E+03
        65  27 -4.359860E+05  1.173057E+04  6.067058E+04  1.328583E+04 -3.479368E+04 -1.281528E+03
        66   1 -8.914541E+05 -7.671288E+04 -5.860188E+04  3.956466E+03  2.707428E+04  1.655482E+03
        66   2 -9.065165E+05 -1.031591E+05 -8.097490E+04 -1.492740E+04  1.786003E+04  2.097199E+03
        66   3 -9.058827E+05 -1.011211E+05 -8.874725E+04  3.791380E+03  8.650913E+03  2.255172E+03
        66   4 -5.056940E+05  1.982401E+04  3.785886E+04  6.865306E+03  2.713662E+04  1.656207E+03
        66   5 -5.135285E+05 -4.809159E+03  1.727020E+04 -1.180154E+04  1.789696E+04  2.097538E+03
        66   6 -5.056643E+05 -9.607535E+02  1.129459E+04  7.132837E+03  8.662325E+03  2.255201E+03
        66   7 -1.197989E+05  1.163497E+05  1.343083E+05  9.775514E+03  2.719899E+04  1.656933E+03
        66   8 -1.204004E+05  9.352914E+04  1.155036E+05 -8.674089E+03  1.793390E+04  2.097878E+03
        66   9 -1.053005E+05  9.918755E+04  1.113243E+05  1.047610E+04  8.673744E+03  2.255231E+03
        66  10 -8.914548E+05 -7.671308E+04 -5.860326E+04  3.956430E+03  3.801717E-09 -8.311177E-09
        66  11 -9.065168E+05 -1.031592E+05 -8.097551E+04 -1.492744E+04 -5.448331E-09  6.322646E-09
        66  12 -9.058828E+05 -1.011212E+05 -8.874740E+04  3.791364E+03 -1.975569E-09 -8.554030E-09
        66  13 -5.056948E+05  1.982381E+04  3.785747E+04  6.865270E+03 -7.582756E-10 -5.232651E-09
        66  14 -5.135289E+05 -4.809250E+03  1.726959E+04 -1.180157E+04  4.934109E-09 -3.333694E-09
        66  15 -5.056644E+05 -9.607791E+02  1.129444E+04  7.132821E+03 -1.513104E-09 -1.087605E-08
        66  16 -1.197997E+05  1.163495E+05  1.343069E+05  9.775478E+03 -1.533304E-09  3.988215E-09
        66  17 -1.204008E+05  9.352905E+04  1.155030E+05 -8.674119E+03 -6.361491E-09 -1.703968E-08
        66  18 -1.053006E+05  9.918752E+04  1.113242E+05  1.047608E+04 -3.075302E-09 -2.621237E-09
        66  19 -8.914541E+05 -7.671288E+04 -5.860188E+04  3.956466E+03 -2.707428E+04 -1.655482E+03
        66  20 -9.065165E+05 -1.031591E+05 -8.097490E+04 -1.492740E+04 -1.786003E+04 -2.097199E+03
        66  21 -9.058827E+05 -1.011211E+05 -8.874725E+04  3.791380E+03 -8.650913E+03 -2.255172E+03
        66  22 -5.056940E+05  1.982401E+04  3.785886E+04  6.865306E+03 -2.713662E+04 -1.656207E+03
        66  23 -5.135285E+05 -4.809159E+03  1.727020E+04 -1.180154E+04 -1.789696E+04 -2.097538E+03
        66  24 -5.056643E+05 -9.607535E+02  1.129459E+04  7.132837E+03 -8.662325E+03 -2.255201E+03
        66  25 -1.197989E+05  1.163497E+05  1.343083E+05  9.775514E+03 -2.719899E+04 -1.656933E+03
        66  26 -1.204004E+05  9.352914E+04  1.155036E+05 -8.674089E+03 -1.793390E+04 -2.097878E+03
        66  27 -1.053005E+05  9.918755E+04  1.113243E+05  1.047610E+04 -8.673744E+03 -2.255231E+03
        67   1 -1.101922E+06 -1.459247E+05 -1.395398E+05 -1.848585E+03  6.510891E+03  2.495515E+03
        67   2 -1.115310E+06 -1.511937E+05 -1.467217E+05 -8.082458E+03  4.468805E+03  2.937185E+03
        67   3 -1.107580E+06 -1.509665E+05 -1.472955E+05  4.425726E+02  2.431178E+03  2.799393E+03
        67   4 -5.045210E+05  3.580148E+03  9.841028E+03  1.946258E+03  6.569104E+03  2.495865E+03
        67   5 -5.150777E+05 -1.002990E+03  3.343856E+03 -5.417166E+03  4.483606E+03  2.937097E+03
        67   6 -5.044998E+05 -7.673458E+01  3.484220E+03  1.977410E+03  2.402555E+03  2.799123E+03
        67   7  9.320376E+04  1.530580E+05  1.591949E+05  5.744068E+03  6.627370E+03  2.496214E+03
        67   8  8.548155E+04  1.491605E+05  1.533822E+05 -2.749782E+03  4.498419E+03  2.937009E+03
        67   9  9.891071E+04  1.507856E+05  1.542364E+05  3.513452E+03  2.373903E+03  2.798854E+03
        67  10 -1.101922E+06 -1.459247E+05 -1.395399E+05 -1.848598E+03  9.401464E-09  1.576026E-09
        67  11 -1.115310E+06 -1.511938E+05 -1.467218E+05 -8.082469E+03  1.467584E-09  3.650698E-09
        67  12 -1.107580E+06 -1.509665E+05 -1.472955E+05  4.425671E+02  1.504345E-09 -1.144781E-09
        67  13 -5.045211E+05  3.580130E+03  9.840935E+03  1.946245E+03 -1.985314E-09 -3.370896E-09
        67  14 -5.150777E+05 -1.003005E+03  3.343802E+03 -5.417177E+03  3.409768E-09  6.279885E-11
        67  15 -5.044998E+05 -7.674454E+01  3.484194E+03  1.977404E+03  4.042920E-09  2.253162E-09
        67  16  9.320371E+04  1.530580E+05  1.591948E+05  5.744054E+03 -7.385964E-09 -6.770407E-09
        67  17  8.548153E+04  1.491605E+05  1.533822E+05 -2.749793E+03 -1.060489E-08 -4.024414E-09
        67  18  9.891070E+04  1.507856E+05  1.542364E+05  3.513446E+03 -4.089982E-09 -2.529840E-09
        67  19 -1.101922E+06 -1.459247E+05 -1.395398E+05 -1.848585E+03 -6.510891E+03 -2.495515E+03
        67  20 -1.115310E+06 -1.511937E+05 -1.467217E+05 -8.082458E+03 -4.468805E+03 -2.937185E+03
        67  21 -1.107580E+06 -1.509665E+05 -1.472955E+05  4.425726E+02 -2.431178E+03 -2.799393E+03
        67  22 -5.045210E+05  3.580148E+03  9.841028E+03  1.946258E+03 -6.569104E+03 -2.495865E+03
        67  23 -5.150777E+05 -1.002990E+03  3.343856E+03 -5.417166E+03 -4.483606E+03 -2.937097E+03
        67  24 -5.044998E+05 -7.673458E+01  3.484220E+03  1.977410E+03 -2.402555E+03 -2.799123E+03
        67  25  9.320376E+04  1.530580E+05  1.591949E+05  5.744068E+03 -6.627370E+03 -2.496214E+03
        67  26  8.548155E+04  1.491605E+05  1.533822E+05 -2.749782E+03 -4.498419E+03 -2.937009E+03
        67  27  9.891071E+04  1.507856E+05  1.542364E+05  3.513452E+03 -2.373903E+03 -2.798854E+03
        68   1 -1.112632E+06 -1.516356E+05 -1.491196E+05 -5.302203E+03  1.549015E+03  2.802165E+03
        68   2 -1.120303E+06 -1.518147E+05 -1.516010E+05  2.651736E+03  1.353275E+03  2.936232E+03
        68   3 -1.107521E+06 -1.503583E+05 -1.495321E+05 -2.789511E+03  1.156326E+03  2.466630E+03
        68   4 -5.046489E+05  4.775515E+02  2.886207E+03 -4.289353E+03  1.581452E+03  2.802058E+03
        68   5 -5.148962E+05 -3.484514E+02 -2.450741E+02  2.409304E+03  1.342104E+03  2.936058E+03
        68   6 -5.046710E+05  4.763518E+02  1.204930E+03 -4.286417E+03  1.101547E+03  2.466649E+03
        68   7  1.036692E+05  1.525627E+05  1.548640E+05 -3.275675E+03  1.613921E+03  2.801951E+03
        68   8  9.084344E+04  1.510901E+05  1.510832E+05  2.166680E+03  1.330921E+03  2.935885E+03
        68   9  9.850836E+04  1.512835E+05  1.519145E+05 -5.784522E+03  1.046714E+03  2.466668E+03
        68  10 -1.112632E+06 -1.516356E+05 -1.491196E+05 -5.302206E+03 -1.661551E-09 -1.081070E-09
        68  11 -1.120303E+06 -1.518147E+05 -1.516010E+05  2.651732E+03  1.357982E-09  2.534486E-09
        68  12 -1.107521E+06 -1.503583E+05 -1.495321E+05 -2.789514E+03 -9.227646E-09  5.749030E-09
        68  13 -5.046489E+05  4.775424E+02  2.886187E+03 -4.289356E+03  5.015667E-09  4.672185E-10
        68  14 -5.148962E+05 -3.484611E+02 -2.450937E+02  2.409301E+03 -2.174374E-09 -9.531864E-10
        68  15 -5.046710E+05  4.763450E+02  1.204916E+03 -4.286419E+03 -9.014077E-09  6.357554E-10
        68  16  1.036692E+05  1.525627E+05  1.548640E+05 -3.275678E+03  7.116374E-10  1.421848E-09
        68  17  9.084344E+04  1.510901E+05  1.510832E+05  2.166677E+03  1.126255E-09 -1.243279E-09
        68  18  9.850835E+04  1.512835E+05  1.519145E+05 -5.784524E+03  2.775026E-09 -1.757500E-09
        68  19 -1.112632E+06 -1.516356E+05 -1.491196E+05 -5.302203E+03 -1.549015E+03 -2.802165E+03
        68  20 -1.120303E+06 -1.518147E+05 -1.516010E+05  2.651736E+03 -1.353275E+03 -2.936232E+03
        68  21 -1.107521E+06 -1.503583E+05 -1.495321E+05 -2.789511E+03 -1.156326E+03 -2.466630E+03
        68  22 -5.046489E+05  4.775515E+02  2.886207E+03 -4.289353E+03 -1.581452E+03 -2.802058E+03
        68  23 -5.148962E+05 -3.484514E+02 -2.450741E+02  2.409304E+03 -1.342104E+03 -2.936058E+03
        68  24 -5.046710E+05  4.763518E+02  1.204930E+03 -4.286417E+03 -1.101547E+03 -2.466649E+03
        68  25  1.036692E+05  1.525627E+05  1.548640E+05 -3.275675E+03 -1.613921E+03 -2.801951E+03
        68  26  9.084344E+04  1.510901E+05  1.510832E+05  2.166680E+03 -1.330921E+03 -2.935885E+03
        68  27  9.850836E+04  1.512835E+05  1.519145E+05 -5.784522E+03 -1.046714E+03 -2.466668E+03
        69   1 -9.211730E+05 -1.039083E+05 -1.032632E+05 -8.274755E+03  7.993573E+02  2.219157E+03
        69   2 -9.182788E+05 -1.017876E+05 -1.029084E+05  1.079729E+04  1.295861E+03  1.964111E+03
        69   3 -9.070146E+05 -9.987882E+04 -1.012292E+05 -7.133108E+03  1.788306E+03  1.309048E+03
        69   4 -5.072930E+05 -3.686282E+02  1.879225E+02 -9.535154E+03  7.959106E+02  2.219079E+03
        69   5 -5.115021E+05 -1.547307E+01 -1.221135E+03  8.966599E+03  1.263914E+03  1.964223E+03
        69   6 -5.073328E+05  1.335618E+02 -1.285529E+03 -9.532571E+03  1.727854E+03  1.309464E+03
        69   7 -9.325757E+04  1.031581E+05  1.036261E+05 -1.079622E+04  7.924614E+02  2.219001E+03
        69   8 -1.045753E+05  1.017441E+05  1.004536E+05  7.134931E+03  1.231946E+03  1.964335E+03
        69   9 -1.075060E+05  1.001339E+05  9.864603E+04 -1.193330E+04  1.667362E+03  1.309880E+03
        69  10 -9.211730E+05 -1.039083E+05 -1.032632E+05 -8.274757E+03 -3.448395E-09  9.035835E-10
        69  11 -9.182788E+05 -1.017876E+05 -1.029084E+05  1.079729E+04  4.845568E-09 -1.315787E-09
        69  12 -9.070146E+05 -9.987882E+04 -1.012292E+05 -7.133110E+03 -4.864228E-09  1.189126E-09
        69  13 -5.072930E+05 -3.686336E+02  1.879120E+02 -9.535155E+03 -9.023222E-10  4.438274E-09
        69  14 -5.115021E+05 -1.547764E+01 -1.221145E+03  8.966597E+03 -3.290970E-09  6.594870E-09
        69  15 -5.073328E+05  1.335592E+02 -1.285537E+03 -9.532573E+03 -4.297261E-09 -7.131998E-09
        69  16 -9.325757E+04  1.031581E+05  1.036261E+05 -1.079623E+04  3.086820E-10 -9.968295E-10
        69  17 -1.045753E+05  1.017441E+05  1.004536E+05  7.134929E+03 -9.583780E-09  3.123233E-09
        69  18 -1.075060E+05  1.001339E+05  9.864602E+04 -1.193330E+04  2.902532E-09  3.880753E-09
        69  19 -9.211730E+05 -1.039083E+05 -1.032632E+05 -8.274755E+03 -7.993573E+02 -2.219157E+03
        69  20 -9.182788E+05 -1.017876E+05 -1.029084E+05  1.079729E+04 -1.295861E+03 -1.964111E+03
        69  21 -9.070146E+05 -9.987882E+04 -1.012292E+05 -7.133108E+03 -1.788306E+03 -1.309048E+03
        69  22 -5.072930E+05 -3.686282E+02  1.879225E+02 -9.535154E+03 -7.959106E+02 -2.219079E+03
        69  23 -5.115021E+05 -1.547307E+01 -1.221135E+03  8.966599E+03 -1.263914E+03 -1.964223E+03
        69  24 -5.073328E+05  1.335618E+02 -1.285529E+03 -9.532571E+03 -1.727854E+03 -1.309464E+03
        69  25 -9.325757E+04  1.031581E+05  1.036261E+05 -1.079622E+04 -7.924614E+02 -2.219001E+03
        69  26 -1.045753E+05  1.017441E+05  1.004536E+05  7.134931E+03 -1.231946E+03 -1.964335E+03
        69  27 -1.075060E+05  1.001339E+05  9.864603E+04 -1.193330E+04 -1.667362E+03 -1.309880E+03
        70   1 -5.898538E+05 -2.023203E+04 -2.246655E+04 -1.159544E+04  2.043810E+03  8.799572E+02
        70   2 -5.796100E+05 -1.712334E+04 -2.170949E+04  1.252648E+04  4.089613E+03  2.989709E+02
        70   3 -5.714237E+05 -1.812576E+04 -2.346858E+04 -1.145435E+04  6.135025E+03 -2.917332E+02
        70   4 -5.095992E+05 -1.614187E+02 -2.432016E+03 -1.199417E+04  2.003752E+03  8.802850E+02
        70   5 -5.085755E+05  6.483294E+02 -3.954654E+03  1.204582E+04  4.049056E+03  2.993186E+02
        70   6 -5.096093E+05 -2.652670E+03 -7.992933E+03 -1.201660E+04  6.093941E+03 -2.913653E+02
        70   7 -4.293388E+05  1.990871E+04  1.760203E+04 -1.239295E+04  1.963689E+03  8.806128E+02
        70   8 -4.375365E+05  1.841962E+04  1.379981E+04  1.156511E+04  4.008496E+03  2.996663E+02
        70   9 -4.477914E+05  1.282013E+04  7.482426E+03 -1.257890E+04  6.052852E+03 -2.909974E+02
        70  10 -5.898538E+05 -2.023203E+04 -2.246656E+04 -1.159544E+04 -5.625930E-09  8.556065E-09
        70  11 -5.796100E+05 -1.712335E+04 -2.170953E+04  1.252648E+04  1.029767E-10 -5.338070E-09
        70  12 -5.714238E+05 -1.812577E+04 -2.346865E+04 -1.145434E+04 -6.724345E-09  1.227097E-09
        70  13 -5.095992E+05 -1.614207E+02 -2.432025E+03 -1.199418E+04 -6.731178E-09 -5.636942E-09
        70  14 -5.085756E+05  6.483249E+02 -3.954685E+03  1.204582E+04  2.955046E-09 -1.704824E-08
        70  15 -5.096093E+05 -2.652680E+03 -7.993003E+03 -1.201660E+04  5.655531E-09  5.114874E-09
        70  16 -4.293388E+05  1.990871E+04  1.760202E+04 -1.239295E+04  8.117795E-09  7.856223E-09
        70  17 -4.375365E+05  1.841962E+04  1.379978E+04  1.156511E+04  1.794813E-09 -1.420058E-08
        70  18 -4.477914E+05  1.282012E+04  7.482357E+03 -1.257890E+04  6.318732E-09 -2.594275E-09
        70  19 -5.898538E+05 -2.023203E+04 -2.246655E+04 -1.159544E+04 -2.043810E+03 -8.799572E+02
        70  20 -5.796100E+05 -1.712334E+04 -2.170949E+04  1.252648E+04 -4.089613E+03 -2.989709E+02
        70  21 -5.714237E+05 -1.812576E+04 -2.346858E+04 -1.145435E+04 -6.135025E+03  2.917332E+02
        70  22 -5.095992E+05 -1.614187E+02 -2.432016E+03 -1.199417E+04 -2.003752E+03 -8.802850E+02
        70  23 -5.085755E+05  6.483294E+02 -3.954654E+03  1.204582E+04 -4.049056E+03 -2.993186E+02
        70  24 -5.096093E+05 -2.652670E+03 -7.992933E+03 -1.201660E+04 -6.093941E+03  2.913653E+02
        70  25 -4.293388E+05  1.990871E+04  1.760203E+04 -1.239295E+04 -1.963689E+03 -8.806128E+02
        70  26 -4.375365E+05  1.841962E+04  1.379981E+04  1.156511E+04 -4.008496E+03 -2.996663E+02
        70  27 -4.477914E+05  1.282013E+04  7.482426E+03 -1.257890E+04 -6.052852E+03  2.909974E+02
        71   1 -2.294168E+05  7.106698E+04  6.044166E+04 -1.315084E+04  7.741797E+03 -8.073909E+02
        71   2 -2.194045E+05  7.625710E+04  5.602351E+04  9.239470E+03  1.610251E+04 -1.582570E+03
        71   3 -2.128706E+05  5.686349E+04  4.076402E+04 -1.148514E+04  2.446949E+04 -1.670444E+03
        71   4 -5.099519E+05  8.823250E+02 -9.691427E+03 -1.084927E+04  7.664050E+03 -8.067308E+02
        71   5 -5.081931E+05  4.034465E+03 -1.613587E+04  1.065066E+04  1.607079E+04 -1.582381E+03
        71   6 -5.099254E+05 -1.741236E+04 -3.345763E+04 -1.096561E+04  2.448370E+04 -1.670613E+03
        71   7 -7.904156E+05 -6.930827E+04 -7.983046E+04 -8.548580E+03  7.586337E+03 -8.060711E+02
        71   8 -7.969061E+05 -6.819446E+04 -8.830154E+04  1.206134E+04  1.603909E+04 -1.582193E+03
        71   9 -8.069002E+05 -9.169488E+04 -1.076859E+05 -1.044620E+04  2.449791E+04 -1.670782E+03
        71  10 -2.294169E+05  7.106696E+04  6.044155E+04 -1.315083E+04 -4.944114E-09 -6.515128E-09
        71  11 -2.194048E+05  7.625702E+04  5.602302E+04  9.239490E+03  7.639613E-09  4.584036E-09
        71  12 -2.128713E+05  5.686333E+04  4.076289E+04 -1.148510E+04  3.615428E-09  3.001940E-09
        71  13 -5.099520E+05  8.823086E+02 -9.691538E+03 -1.084926E+04 -2.267641E-09  5.542460E-09
        71  14 -5.081934E+05  4.034392E+03 -1.613636E+04  1.065068E+04 -1.202646E-09  3.284408E-09
        71  15 -5.099261E+05 -1.741252E+04 -3.345876E+04 -1.096558E+04 -2.155882E-09  2.553215E-09
        71  16 -7.904156E+05 -6.930828E+04 -7.983057E+04 -8.548575E+03  6.953171E-09  8.016839E-09
        71  17 -7.969063E+05 -6.819453E+04 -8.830203E+04  1.206136E+04  5.147734E-09  1.055685E-08
        71  18 -8.069009E+05 -9.169504E+04 -1.076871E+05 -1.044617E+04 -6.183189E-09 -3.257667E-09
        71  19 -2.294168E+05  7.106698E+04  6.044166E+04 -1.315084E+04 -7.741797E+03  8.073909E+02
        71  20 -2.194045E+05  7.625710E+04  5.602351E+04  9.239470E+03 -1.610251E+04  1.582570E+03
        71  21 -2.128706E+05  5.686349E+04  4.076402E+04 -1.148514E+04 -2.446949E+04  1.670444E+03
        71  22 -5.099519E+05  8.823251E+02 -9.691427E+03 -1.084927E+04 -7.664050E+03  8.067308E+02
        71  23 -5.081931E+05  4.034465E+03 -1.613587E+04  1.065066E+04 -1.607079E+04  1.582381E+03
        71  24 -5.099254E+05 -1.741236E+04 -3.345763E+04 -1.096561E+04 -2.448370E+04  1.670613E+03
        71  25 -7.904156E+05 -6.930827E+04 -7.983046E+04 -8.548580E+03 -7.586337E+03  8.060711E+02
        71  26 -7.969061E+05 -6.819446E+04 -8.830154E+04  1.206134E+04 -1.603909E+04  1.582193E+03
        71  27 -8.069002E+05 -9.169488E+04 -1.076859E+05 -1.044620E+04 -2.449791E+04  1.670782E+03
        72   1  3.191549E+04  1.409175E+05  9.707983E+04 -1.135901E+04  3.116959E+04 -2.348303E+03
        72   2  4.991952E+04  1.637968E+05  7.525681E+04  5.343789E+03  6.481869E+04 -3.231959E+03
        72   3  4.084116E+04  2.998817E+04 -4.340207E+03 -1.153237E+03  9.847463E+04 -1.151520E+03
        72   4 -5.152492E+05  4.063535E+03 -3.965405E+04 -6.402458E+03  3.099296E+04 -2.347361E+03
        72   5 -5.016650E+05  2.590565E+04 -6.252962E+04  5.154824E+03  6.482913E+04 -3.232303E+03
        72   6 -5.152413E+05 -1.090530E+05 -1.433485E+05 -6.488946E+03  9.867188E+04 -1.152582E+03
        72   7 -1.062142E+06 -1.328130E+05 -1.764105E+05 -1.449925E+03  3.081648E+04 -2.346421E+03
        72   8 -1.052974E+06 -1.120084E+05 -2.003390E+05  4.966226E+03  6.483954E+04 -3.232648E+03
        72   9 -1.071043E+06 -2.481175E+05 -2.823802E+05 -1.181983E+04  9.886893E+04 -1.153648E+03
        72  10  3.191445E+04  1.409173E+05  9.707800E+04 -1.135895E+04 -7.240939E-09  3.914295E-10
        72  11  4.991500E+04  1.637956E+05  7.524889E+04  5.343958E+03 -3.598008E-09 -1.694424E-10
        72  12  4.083075E+04  2.998557E+04 -4.358432E+03 -1.153146E+03 -3.942224E-10 -3.437634E-10
        72  13 -5.152502E+05  4.063271E+03 -3.965587E+04 -6.402400E+03 -9.652502E-09  7.196249E-09
        72  14 -5.016695E+05  2.590451E+04 -6.253755E+04  5.154993E+03  2.538139E-09 -1.503593E-09
        72  15 -5.152518E+05 -1.090556E+05 -1.433668E+05 -6.488854E+03 -2.676235E-09  5.629227E-11
        72  16 -1.062143E+06 -1.328133E+05 -1.764123E+05 -1.449866E+03 -1.393767E-09 -4.128320E-09
        72  17 -1.052978E+06 -1.120096E+05 -2.003469E+05  4.966395E+03 -5.137639E-09  4.084983E-10
        72  18 -1.071054E+06 -2.481201E+05 -2.823986E+05 -1.181974E+04 -8.159964E-10 -4.344550E-10
        72  19  3.191549E+04  1.409175E+05  9.707983E+04 -1.135901E+04 -3.116959E+04  2.348303E+03
        72  20  4.991952E+04  1.637968E+05  7.525681E+04  5.343789E+03 -6.481869E+04  3.231959E+03
        72  21  4.084116E+04  2.998817E+04 -4.340207E+03 -1.153237E+03 -9.847463E+04  1.151520E+03
        72  22 -5.152492E+05  4.063535E+03 -3.965405E+04 -6.402458E+03 -3.099296E+04  2.347361E+03
        72  23 -5.016650E+05  2.590565E+04 -6.252962E+04  5.154824E+03 -6.482913E+04  3.232303E+03
        72  24 -5.152413E+05 -1.090530E+05 -1.433485E+05 -6.488946E+03 -9.867188E+04  1.152582E+03
        72  25 -1.062142E+06 -1.328130E+05 -1.764105E+05 -1.449925E+03 -3.081648E+04  2.346421E+03
        72  26 -1.052974E+06 -1.120084E+05 -2.003390E+05  4.966226E+03 -6.483954E+04  3.232648E+03
        72  27 -1.071043E+06 -2.481175E+05 -2.823802E+05 -1.181983E+04 -9.886893E+04  1.153648E+03
        73   1  3.064764E+06  1.092981E+07  2.923017E+06 -2.075325E+06  1.353843E+05  5.930883E+05
        73   2  2.338498E+06  8.442565E+06  2.049726E+06 -1.665346E+06  4.373411E+05  1.801235E+05
        73   3  1.767426E+06  6.039689E+06  1.480789E+06 -1.991194E+06  4.201701E+05 -2.360973E+05
        73   4  1.100989E+05 -1.034786E+06  6.503556E+04 -1.880113E+06  1.457402E+05  3.029261E+04
        73   5  4.665490E+04 -1.033304E+06  4.217498E+04 -1.512453E+06  4.411743E+05  1.455607E+04
        73   6  7.130612E+04 -1.020519E+06  5.121239E+04 -1.881101E+06  4.153164E+05 -6.147536E+03
        73   7 -2.854667E+06 -1.286883E+07 -2.801869E+06 -1.687877E+06  1.558604E+05 -5.218466E+05
        73   8 -2.250941E+06 -1.042510E+07 -1.970399E+06 -1.361401E+06  4.449613E+05 -1.485475E+05
        73   9 -1.627862E+06 -8.033404E+06 -1.380758E+06 -1.771951E+06  4.105119E+05  2.212554E+05
        73  10  3.064651E+06  1.092943E+07  2.922331E+06 -2.075389E+06  7.697966E-09  2.553646E-09
        73  11  2.338284E+06  8.442479E+06  2.049305E+06 -1.665409E+06  2.715290E-09  7.824505E-10
        73  12  1.767222E+06  6.039583E+06  1.480356E+06 -1.991114E+06 -4.782621E-09 -3.042050E-09
        73  13  1.100759E+05 -1.034793E+06  6.499388E+04 -1.880116E+06  4.399001E-09  3.724378E-10
        73  14  4.644593E+04 -1.033357E+06  4.180896E+04 -1.512458E+06  1.454230E-08 -1.937276E-08
        73  15  7.112101E+04 -1.020565E+06  5.088841E+04 -1.881100E+06  7.103174E-09 -4.103242E-09
        73  16 -2.854768E+06 -1.286913E+07 -2.802435E+06 -1.687812E+06  6.789386E-09  9.111968E-09
        73  17 -2.251160E+06 -1.042518E+07 -1.970813E+06 -1.361348E+06  2.251442E-08 -8.698912E-09
        73  18 -1.628056E+06 -8.033503E+06 -1.381169E+06 -1.772025E+06  3.918216E-09 -5.865675E-09
        73  19  3.064764E+06  1.092981E+07  2.923017E+06 -2.075325E+06 -1.353843E+05 -5.930883E+05
        73  20  2.338498E+06  8.442565E+06  2.049726E+06 -1.665346E+06 -4.373411E+05 -1.801235E+05
        73  21  1.767426E+06  6.039689E+06  1.480789E+06 -1.991194E+06 -4.201701E+05  2.360973E+05
        73  22  1.100989E+05 -1.034786E+06  6.503556E+04 -1.880113E+06 -1.457402E+05 -3.029261E+04
        73  23  4.665490E+04 -1.033304E+06  4.217498E+04 -1.512453E+06 -4.411743E+05 -1.455607E+04
        73  24  7.130612E+04 -1.020519E+06  5.121239E+04 -1.881101E+06 -4.153164E+05  6.147536E+03
        73  25 -2.854667E+06 -1.286883E+07 -2.801869E+06 -1.687877E+06 -1.558604E+05  5.218466E+05
        73  26 -2.250941E+06 -1.042510E+07 -1.970399E+06 -1.361401E+06 -4.449613E+05  1.485475E+05
        73  27 -1.627862E+06 -8.033404E+06 -1.380758E+06 -1.771951E+06 -4.105119E+05 -2.212554E+05
        74   1  1.354969E+06  4.280319E+06  1.135000E+06 -1.980566E+06  3.140768E+05 -1.760184E+05
        74   2  7.555553E+05  1.847429E+06  6.610642E+05 -1.555502E+06  1.831638E+05 -2.324097E+05
        74   3  2.123961E+05 -5.957991E+05  2.281946E+05 -1.884849E+06  4.421276E+04 -2.891691E+05
        74   4  7.864422E+04 -1.022547E+06  5.843822E+04 -1.884962E+06  3.105566E+05 -1.835983E+04
        74   5  6.828574E+04 -1.011422E+06  8.797219E+04 -1.507371E+06  1.792019E+05 -6.498417E+04
        74   6  1.128312E+05 -1.018101E+06  1.519054E+05 -1.884256E+06  3.977853E+04 -1.121814E+05
        74   7 -1.199404E+06 -6.298689E+06 -1.019499E+06 -1.789996E+06  3.070673E+05  1.379844E+05
        74   8 -6.194687E+05 -3.862420E+06 -4.854297E+05 -1.459412E+06  1.752555E+05  1.016876E+05
        74   9  1.327311E+04 -1.440162E+06  7.572720E+04 -1.883663E+06  3.534282E+04  6.468917E+04
        74  10  1.354855E+06  4.280259E+06  1.134757E+06 -1.980522E+06 -6.902609E-09  1.502765E-08
        74  11  7.555050E+05  1.847363E+06  6.609004E+05 -1.555467E+06  4.250270E-09 -7.233125E-10
        74  12  2.123716E+05 -5.958894E+05  2.280338E+05 -1.884838E+06 -3.987385E-09 -1.660399E-08
        74  13  7.854066E+04 -1.022573E+06  5.825654E+04 -1.884957E+06 -1.505591E-09  1.227471E-10
        74  14  6.825018E+04 -1.011435E+06  8.790407E+04 -1.507361E+06 -2.020478E-08 -2.389310E-08
        74  15  1.128261E+05 -1.018115E+06  1.518788E+05 -1.884252E+06 -2.146062E-09 -3.640153E-09
        74  16 -1.199510E+06 -6.298735E+06 -1.019713E+06 -1.790030E+06 -2.349951E-09  1.288459E-09
        74  17 -6.195045E+05 -3.862440E+06 -4.855071E+05 -1.459427E+06 -1.634707E-08 -1.449918E-08
        74  18  1.327063E+04 -1.440167E+06  7.571693E+04 -1.883665E+06  2.884210E-09  6.051193E-09
        74  19  1.354969E+06  4.280319E+06  1.135000E+06 -1.980566E+06 -3.140768E+05  1.760184E+05
        74  20  7.555553E+05  1.847429E+06  6.610642E+05 -1.555502E+06 -1.831638E+05  2.324097E+05
        74  21  2.123961E+05 -5.957991E+05  2.281946E+05 -1.884849E+06 -4.421276E+04  2.891691E+05
        74  22  7.864422E+04 -1.022547E+06  5.843822E+04 -1.884962E+06 -3.105566E+05  1.835983E+04
        74  23  6.828574E+04 -1.011422E+06  8.797219E+04 -1.507371E+06 -1.792019E+05  6.498417E+04
        74  24  1.128312E+05 -1.018101E+06  1.519054E+05 -1.884256E+06 -3.977853E+04  1.121814E+05
        74  25 -1.199404E+06 -6.298689E+06 -1.019499E+06 -1.789996E+06 -3.070673E+05 -1.379844E+05
        74  26 -6.194687E+05 -3.862420E+06 -4.854297E+05 -1.459412E+06 -1.752555E+05 -1.016876E+05
        74  27  1.327311E+04 -1.440162E+06  7.572720E+04 -1.883663E+06 -3.534282E+04 -6.468917E+04
        75   1 -2.443548E+05 -2.312349E+06 -8.725098E+04 -1.931009E+06 -5.496394E+04 -3.544452E+05
        75   2 -7.941608E+05 -4.774359E+06 -4.827495E+05 -1.309785E+06 -1.428781E+05 -3.136167E+05
        75   3 -8.672064E+05 -7.151057E+06 -7.942668E+05 -1.429231E+06 -5.358307E+04 -2.692908E+05
        75   4  7.333435E+04 -9.887934E+05  1.925150E+05 -1.883996E+06 -6.032904E+04 -1.412456E+05
        75   5  1.258477E+05 -1.049301E+06  3.335864E+05 -1.507201E+06 -1.426626E+05 -3.171327E+05
        75   6  6.912981E+05 -9.938564E+05  7.086680E+05 -1.869889E+06 -4.830434E+04 -4.893970E+05
        75   7  3.909479E+05  3.365283E+05  4.723562E+05 -1.836870E+06 -6.565512E+04  7.240333E+04
        75   8  1.045033E+06  2.688876E+06  1.149089E+06 -1.705734E+06 -1.424457E+05 -3.206654E+05
        75   9  2.247603E+06  5.198617E+06  2.209080E+06 -2.314728E+06 -4.274077E+04 -7.116813E+05
        75  10 -2.443920E+05 -2.312485E+06 -8.749389E+04 -1.931025E+06  6.154455E-09 -6.122366E-09
        75  11 -7.942095E+05 -4.774471E+06 -4.829745E+05 -1.309822E+06  1.267271E-08  7.621602E-10
        75  12 -8.672293E+05 -7.151136E+06 -7.944101E+05 -1.429242E+06  1.789177E-09  5.903165E-09
        75  13  7.332504E+04 -9.888159E+05  1.924705E+05 -1.884003E+06  8.300625E-09  2.776969E-10
        75  14  1.257987E+05 -1.049414E+06  3.333583E+05 -1.507237E+06 -1.854335E-08 -2.304542E-08
        75  15  6.912311E+05 -9.941145E+05  7.082124E+05 -1.869908E+06  6.796891E-09 -4.383297E-09
        75  16  3.909419E+05  3.365216E+05  4.723383E+05 -1.836867E+06 -3.033796E-09  2.432961E-08
        75  17  1.044983E+06  2.688760E+06  1.148858E+06 -1.705770E+06  1.499422E-08 -1.557921E-08
        75  18  2.247466E+06  5.198076E+06  2.208132E+06 -2.314753E+06  9.784971E-09 -1.643715E-08
        75  19 -2.443548E+05 -2.312349E+06 -8.725098E+04 -1.931009E+06  5.496394E+04  3.544452E+05
        75  20 -7.941608E+05 -4.774359E+06 -4.827495E+05 -1.309785E+06  1.428781E+05  3.136167E+05
        75  21 -8.672064E+05 -7.151057E+06 -7.942668E+05 -1.429231E+06  5.358307E+04  2.692908E+05
        75  22  7.333435E+04 -9.887934E+05  1.925150E+05 -1.883996E+06  6.032904E+04  1.412456E+05
        75  23  1.258477E+05 -1.049301E+06  3.335864E+05 -1.507201E+06  1.426626E+05  3.171327E+05
        75  24  6.912981E+05 -9.938564E+05  7.086680E+05 -1.869889E+06  4.830434E+04  4.893970E+05
        75  25  3.909479E+05  3.365283E+05  4.723562E+05 -1.836870E+06  6.565512E+04 -7.240333E+04
        75  26  1.045033E+06  2.688876E+06  1.149089E+06 -1.705734E+06  1.424457E+05  3.206654E+05
        75  27  2.247603E+06  5.198617E+06  2.209080E+06 -2.314728E+06  4.274077E+04  7.116813E+05
        76   1 -8.573379E+06 -3.492869E+06 -2.075532E+06 -2.882124E+06 -4.532374E+05 -2.073276E+04
        76   2 -8.026071E+06 -3.349158E+06 -1.739130E+06 -2.654619E+06 -3.156108E+05  3.874748E+05
        76   3 -7.343778E+06 -3.235516E+06 -1.567717E+06 -2.592291E+06 -8.179843E+04  5.508796E+05
        76   4  2.301393E+05 -2.056369E+05  2.297718E+05 -5.095179E+05  9.303860E+04  1.919152E+05
        76   5  1.198176E+05 -3.117606E+05  1.012912E+05 -3.913109E+05 -7.885549E+04  4.785230E+05
        76   6  2.060103E+05 -3.866066E+05  5.606972E+04 -4.381557E+05 -1.555045E+05  5.218947E+05
        76   7  9.110011E+06  3.086145E+06  2.529769E+06  1.893565E+06  6.479486E+05  4.076889E+05
        76   8  8.333264E+06  2.730931E+06  1.937668E+06  1.899444E+06  1.613090E+05  5.708570E+05
        76   9  7.814555E+06  2.467710E+06  1.676621E+06  1.740550E+06 -2.302003E+05  4.925283E+05
        76  10 -8.573602E+06 -3.492925E+06 -2.075924E+06 -2.882132E+06 -2.542050E-10 -1.606463E-09
        76  11 -8.026218E+06 -3.349346E+06 -1.739599E+06 -2.654520E+06  1.761676E-09  7.785537E-09
        76  12 -7.343867E+06 -3.235844E+06 -1.568300E+06 -2.592255E+06  6.675907E-09  7.725540E-09
        76  13  2.301201E+05 -2.056788E+05  2.296863E+05 -5.095323E+05  8.311433E-09  8.850566E-09
        76  14  1.197495E+05 -3.120082E+05  1.008491E+05 -3.912806E+05 -2.965879E-09 -1.167766E-08
        76  15  2.059113E+05 -3.869056E+05  5.551237E+04 -4.380904E+05  6.985906E-09  1.089124E-08
        76  16  9.109522E+06  3.085857E+06  2.528683E+06  1.893354E+06  2.665904E-09 -1.803437E-09
        76  17  8.333149E+06  2.730575E+06  1.937009E+06  1.899371E+06 -8.248362E-10 -2.975748E-09
        76  18  7.814433E+06  2.467435E+06  1.676065E+06  1.740641E+06 -1.032602E-08  1.125966E-09
        76  19 -8.573379E+06 -3.492869E+06 -2.075532E+06 -2.882124E+06  4.532374E+05  2.073276E+04
        76  20 -8.026071E+06 -3.349158E+06 -1.739130E+06 -2.654619E+06  3.156108E+05 -3.874748E+05
        76  21 -7.343778E+06 -3.235516E+06 -1.567717E+06 -2.592291E+06  8.179843E+04 -5.508796E+05
        76  22  2.301393E+05 -2.056369E+05  2.297718E+05 -5.095179E+05 -9.303860E+04 -1.919152E+05
        76  23  1.198176E+05 -3.117606E+05  1.012912E+05 -3.913109E+05  7.885549E+04 -4.785230E+05
        76  24  2.060103E+05 -3.866066E+05  5.606972E+04 -4.381557E+05  1.555045E+05 -5.218947E+05
        76  25  9.110011E+06  3.086145E+06  2.529769E+06  1.893565E+06 -6.479486E+05 -4.076889E+05
        76  26  8.333264E+06  2.730931E+06  1.937668E+06  1.899444E+06 -1.613090E+05 -5.708570E+05
        76  27  7.814555E+06  2.467710E+06  1.676621E+06  1.740550E+06  2.302003E+05 -4.925283E+05
        77   1 -6.952293E+06 -3.049259E+06 -1.493760E+06 -2.460886E+06 -1.312756E+05  4.960311E+05
        77   2 -6.440972E+06 -2.762995E+06 -1.372949E+06 -2.220547E+06 -1.146888E+05  4.765785E+05
        77   3 -5.791367E+06 -2.599656E+06 -1.254295E+06 -2.122284E+06 -9.281347E+04  4.425917E+05
        77   4  2.013859E+05 -3.782705E+05  4.287774E+04 -4.486164E+05 -1.501481E+05  4.882211E+05
        77   5  1.318987E+05 -3.186902E+05  2.150319E+04 -3.769754E+05 -1.520309E+05  4.618325E+05
        77   6  2.039683E+05 -3.782919E+05  1.264214E+04 -4.474434E+05 -1.486641E+05  4.209901E+05
        77   7  7.407644E+06  2.297238E+06  1.576574E+06  1.585257E+06 -1.692646E+05  4.803228E+05
        77   8  6.749200E+06  2.129411E+06  1.413542E+06  1.484768E+06 -1.898087E+05  4.469244E+05
        77   9  6.236227E+06  1.846182E+06  1.277591E+06  1.242434E+06 -2.051045E+05  3.991673E+05
        77  10 -6.952377E+06 -3.049528E+06 -1.494254E+06 -2.460833E+06  1.121499E-08  7.084682E-09
        77  11 -6.441047E+06 -2.763243E+06 -1.373400E+06 -2.220503E+06  7.265490E-09  7.958770E-09
        77  12 -5.791429E+06 -2.599868E+06 -1.254679E+06 -2.122251E+06 -7.251548E-09  2.681052E-10
        77  13  2.012978E+05 -3.785325E+05  4.238742E+04 -4.485574E+05 -2.400889E-09 -3.768569E-09
        77  14  1.318167E+05 -3.189255E+05  2.105894E+04 -3.769188E+05 -1.104654E-08  6.520849E-10
        77  15  2.038970E+05 -3.784882E+05  1.226756E+04 -4.473930E+05 -2.535345E-09  1.852180E-09
        77  16  7.407551E+06  2.296982E+06  1.576087E+06  1.585322E+06 -1.353272E-08  2.820700E-09
        77  17  6.749108E+06  2.129187E+06  1.413099E+06  1.484836E+06 -1.036952E-08 -5.243288E-09
        77  18  6.236139E+06  1.845999E+06  1.277213E+06  1.242499E+06  1.030128E-08  6.090410E-09
        77  19 -6.952293E+06 -3.049259E+06 -1.493760E+06 -2.460886E+06  1.312756E+05 -4.960311E+05
        77  20 -6.440972E+06 -2.762995E+06 -1.372949E+06 -2.220547E+06  1.146888E+05 -4.765785E+05
        77  21 -5.791367E+06 -2.599656E+06 -1.254295E+06 -2.122284E+06  9.281347E+04 -4.425917E+05
        77  22  2.013859E+05 -3.782705E+05  4.287774E+04 -4.486164E+05  1.501481E+05 -4.882211E+05
        77  23  1.318987E+05 -3.186902E+05  2.150319E+04 -3.769754E+05  1.520309E+05 -4.618325E+05
        77  24  2.039683E+05 -3.782919E+05  1.264214E+04 -4.474434E+05  1.486641E+05 -4.209901E+05
        77  25  7.407644E+06  2.297238E+06  1.576574E+06  1.585257E+06  1.692646E+05 -4.803228E+05
        77  26  6.749200E+06  2.129411E+06  1.413542E+06  1.484768E+06  1.898087E+05 -4.469244E+05
        77  27  6.236227E+06  1.846182E+06  1.277591E+06  1.242434E+06  2.051045E+05 -3.991673E+05
        78   1 -5.383115E+06 -2.441987E+06 -1.167241E+06 -2.005174E+06 -8.796475E+04  4.152161E+05
        78   2 -4.865765E+06 -2.155524E+06 -1.048771E+06 -1.766590E+06 -7.293618E+04  3.728340E+05
        78   3 -4.214289E+06 -1.995626E+06 -9.278706E+05 -1.671910E+06 -5.780396E+04  3.295019E+05
        78   4  2.036821E+05 -3.771142E+05  9.274097E+03 -4.484605E+05 -1.406626E+05  3.949169E+05
        78   5  1.381018E+05 -3.111975E+05  4.478580E+03 -3.770764E+05 -1.268322E+05  3.522343E+05
        78   6  2.064561E+05 -3.715765E+05  3.007831E+03 -4.496677E+05 -1.128987E+05  3.086070E+05
        78   7  5.822621E+06  1.690467E+06  1.184100E+06  1.121287E+06 -1.938788E+05  3.744237E+05
        78   8  5.167712E+06  1.535264E+06  1.056373E+06  1.022837E+06 -1.812017E+05  3.314576E+05
        78   9  4.647252E+06  1.254103E+06  9.328258E+05  7.806393E+05 -1.684198E+05  2.875531E+05
        78  10 -5.383170E+06 -2.442174E+06 -1.167580E+06 -2.005144E+06 -1.063133E-09  2.222563E-09
        78  11 -4.865808E+06 -2.155675E+06 -1.049043E+06 -1.766568E+06 -4.389238E-09 -2.502571E-09
        78  12 -4.214321E+06 -1.995744E+06 -9.280810E+05 -1.671894E+06 -2.381168E-08 -1.031628E-08
        78  13  2.036190E+05 -3.772870E+05  8.943846E+03 -4.484158E+05  7.423097E-09 -2.411966E-10
        78  14  1.380512E+05 -3.113350E+05  4.215212E+03 -3.770404E+05  5.772360E-09 -1.975949E-10
        78  15  2.064169E+05 -3.716822E+05  2.804918E+03 -4.496396E+05 -8.014698E-09 -1.128137E-08
        78  16  5.822543E+06  1.690306E+06  1.183766E+06  1.121346E+06  6.481386E-09  8.541065E-09
        78  17  5.167647E+06  1.535137E+06  1.056105E+06  1.022885E+06  1.706042E-08  1.055667E-08
        78  18  4.647200E+06  1.254007E+06  9.326172E+05  7.806782E+05  2.881094E-09  7.162764E-09
        78  19 -5.383115E+06 -2.441987E+06 -1.167241E+06 -2.005174E+06  8.796475E+04 -4.152161E+05
        78  20 -4.865765E+06 -2.155524E+06 -1.048771E+06 -1.766590E+06  7.293618E+04 -3.728340E+05
        78  21 -4.214289E+06 -1.995626E+06 -9.278706E+05 -1.671910E+06  5.780396E+04 -3.295019E+05
        78  22  2.036821E+05 -3.771142E+05  9.274097E+03 -4.484605E+05  1.406626E+05 -3.949169E+05
        78  23  1.381018E+05 -3.111975E+05  4.478580E+03 -3.770764E+05  1.268322E+05 -3.522343E+05
        78  24  2.064561E+05 -3.715765E+05  3.007831E+03 -4.496677E+05  1.128987E+05 -3.086070E+05
        78  25  5.822621E+06  1.690467E+06  1.184100E+06  1.121287E+06  1.938788E+05 -3.744237E+05
        78  26  5.167712E+06  1.535264E+06  1.056373E+06  1.022837E+06  1.812017E+05 -3.314576E+05
        78  27  4.647252E+06  1.254103E+06  9.328258E+05  7.806393E+05  1.684198E+05 -2.875531E+05
        79   1 -3.802403E+06 -1.841138E+06 -8.381240E+05 -1.557028E+06 -4.885621E+04  3.040686E+05
        79   2 -3.279149E+06 -1.558205E+06 -7.170857E+05 -1.320238E+06 -3.289776E+04  2.607290E+05
        79   3 -2.625402E+06 -1.402083E+06 -5.950481E+05 -1.229067E+06 -1.707074E+04  2.172710E+05
        79   4  2.064802E+05 -3.708742E+05  2.106697E+03 -4.500263E+05 -1.038251E+05  2.833000E+05
        79   5  1.423666E+05 -3.055198E+05  9.303713E+02 -3.776112E+05 -8.800988E+04  2.400128E+05
        79   6  2.083701E+05 -3.669414E+05  8.334101E+02 -4.509114E+05 -7.232601E+04  1.966083E+05
        79   7  4.231828E+06  1.100717E+06  8.414690E+05  6.635889E+05 -1.591786E+05  2.623881E+05
        79   8  3.575883E+06  9.481289E+05  7.183210E+05  5.698205E+05 -1.434510E+05  2.191740E+05
        79   9  3.050385E+06  6.688591E+05  5.962934E+05  3.305314E+05 -1.278544E+05  1.758440E+05
        79  10 -3.802431E+06 -1.841238E+06 -8.383024E+05 -1.557016E+06 -7.936896E-09 -3.874933E-09
        79  11 -3.279168E+06 -1.558279E+06 -7.172155E+05 -1.320231E+06  3.516881E-09  1.289396E-09
        79  12 -2.625415E+06 -1.402134E+06 -5.951375E+05 -1.229065E+06  1.495834E-08  9.289976E-09
        79  13  2.064470E+05 -3.709633E+05  1.935627E+03 -4.500026E+05 -1.073652E-08 -1.418663E-08
        79  14  1.423428E+05 -3.055837E+05  8.075696E+02 -3.775942E+05 -2.162124E-09 -1.135801E-08
        79  15  2.083542E+05 -3.669843E+05  7.509451E+02 -4.508999E+05 -8.768549E-09 -1.643649E-09
        79  16  4.231782E+06  1.100636E+06  8.412921E+05  6.636225E+05 -1.315815E-08 -5.569158E-09
        79  17  3.575848E+06  9.480718E+05  7.181921E+05  5.698458E+05 -1.641806E-08 -1.538591E-08
        79  18  3.050359E+06  6.688215E+05  5.962047E+05  3.305494E+05 -1.939913E-08 -1.047580E-08
        79  19 -3.802403E+06 -1.841138E+06 -8.381240E+05 -1.557028E+06  4.885621E+04 -3.040686E+05
        79  20 -3.279149E+06 -1.558205E+06 -7.170857E+05 -1.320238E+06  3.289776E+04 -2.607290E+05
        79  21 -2.625402E+06 -1.402083E+06 -5.950481E+05 -1.229067E+06  1.707074E+04 -2.172710E+05
        79  22  2.064802E+05 -3.708742E+05  2.106697E+03 -4.500263E+05  1.038251E+05 -2.833000E+05
        79  23  1.423666E+05 -3.055198E+05  9.303713E+02 -3.776112E+05  8.800988E+04 -2.400128E+05
        79  24  2.083701E+05 -3.669414E+05  8.334101E+02 -4.509114E+05  7.232601E+04 -1.966083E+05
        79  25  4.231828E+06  1.100717E+06  8.414690E+05  6.635889E+05  1.591786E+05 -2.623881E+05
        79  26  3.575883E+06  9.481289E+05  7.183210E+05  5.698205E+05  1.434510E+05 -2.191740E+05
        79  27  3.050385E+06  6.688591E+05  5.962934E+05  3.305314E+05  1.278544E+05 -1.758440E+05
        80   1 -2.211143E+06 -1.249115E+06 -5.046466E+05 -1.115295E+06 -7.755078E+03  1.920072E+05
        80   2 -1.684045E+06 -9.687435E+05 -3.827567E+05 -8.794423E+05  8.294387E+03  1.486535E+05
        80   3 -1.028702E+06 -8.152535E+05 -2.605801E+05 -7.902525E+05  2.425703E+04  1.052798E+05
        80   4  2.084093E+05 -3.665063E+05  5.490262E+02 -4.511119E+05 -6.305076E+04  1.713786E+05
        80   5  1.449853E+05 -3.020158E+05  2.709724E+02 -3.779568E+05 -4.703373E+04  1.280692E+05
        80   6  2.094245E+05 -3.644109E+05  2.870761E+02 -4.515775E+05 -3.110371E+04  8.474077E+04
        80   7  2.633961E+06  5.165793E+05  5.054420E+05  2.154625E+05 -1.185791E+05  1.506634E+05
        80   8  1.977436E+06  3.649804E+05  3.831280E+05  1.248906E+05 -1.025374E+05  1.074195E+05
        80   9  1.449111E+06  8.655171E+04  2.610802E+05 -1.122816E+05 -8.658300E+04  6.415775E+04
        80  10 -2.211153E+06 -1.249155E+06 -5.047160E+05 -1.115294E+06  1.359325E-09  5.418047E-09
        80  11 -1.684051E+06 -9.687672E+05 -3.827984E+05 -8.794433E+05  7.429485E-09  9.616279E-09
        80  12 -1.028705E+06 -8.152655E+05 -2.606021E+05 -7.902545E+05  1.157520E-08  5.409513E-09
        80  13  2.083971E+05 -3.665389E+05  4.863665E+02 -4.511032E+05  2.552324E-09  4.202653E-09
        80  14  1.449785E+05 -3.020340E+05  2.359955E+02 -3.779519E+05  7.815289E-09  4.832824E-09
        80  15  2.094216E+05 -3.644189E+05  2.717646E+02 -4.515754E+05  7.432790E-09  1.767815E-09
        80  16  2.633940E+06  5.165512E+05  5.053729E+05  2.154769E+05  1.878604E-10  6.173733E-09
        80  17  1.977421E+06  3.649652E+05  3.830866E+05  1.248994E+05  4.746093E-09  1.055227E-08
        80  18  1.449102E+06  8.654528E+04  2.610584E+05 -1.122772E+05 -5.172736E-09 -8.706648E-09
        80  19 -2.211143E+06 -1.249115E+06 -5.046466E+05 -1.115295E+06  7.755078E+03 -1.920072E+05
        80  20 -1.684045E+06 -9.687435E+05 -3.827567E+05 -8.794423E+05 -8.294387E+03 -1.486535E+05
        80  21 -1.028702E+06 -8.152535E+05 -2.605801E+05 -7.902525E+05 -2.425703E+04 -1.052798E+05
        80  22  2.084093E+05 -3.665063E+05  5.490262E+02 -4.511119E+05  6.305076E+04 -1.713786E+05
        80  23  1.449853E+05 -3.020158E+05  2.709724E+02 -3.779568E+05  4.703373E+04 -1.280692E+05
        80  24  2.094245E+05 -3.644109E+05  2.870761E+02 -4.515775E+05  3.110371E+04 -8.474077E+04
        80  25  2.633961E+06  5.165793E+05  5.054420E+05  2.154625E+05  1.185791E+05 -1.506634E+05
        80  26  1.977436E+06  3.649804E+05  3.831280E+05  1.248906E+05  1.025374E+05 -1.074195E+05
        80  27  1.449111E+06  8.655171E+04  2.610802E+05 -1.122816E+05  8.658300E+04 -6.415775E+04
        81   1 -6.128726E+05 -6.631515E+05 -1.699990E+05 -6.768750E+05  3.366843E+04  8.006178E+04
        81   2 -8.396334E+04 -3.842816E+05 -4.785860E+04 -4.410692E+05  4.923824E+04  3.672744E+04
        81   3  5.723645E+05 -2.322255E+05  7.462051E+04 -3.523079E+05  6.466568E+04 -6.258286E+03
        81   4  2.094271E+05 -3.642412E+05  1.806677E+02 -4.516585E+05 -2.180180E+04  5.950146E+04
        81   5  1.460155E+05 -3.006419E+05  5.746497E+01 -3.780935E+05 -5.810111E+03  1.632985E+04
        81   6  2.095577E+05 -3.639766E+05 -7.082039E+01 -4.517161E+05  1.003936E+04 -2.649197E+04
        81   7  1.032432E+06 -6.527143E+04  1.703396E+05 -2.261636E+05 -7.735145E+04  3.891163E+04
        81   8  3.760559E+05 -2.169951E+05  4.798390E+04 -3.150943E+05 -6.088060E+04 -4.075970E+03
        81   9 -1.531078E+05 -4.957146E+05 -7.475629E+04 -5.510692E+05 -4.455272E+04 -4.671292E+04
        81  10 -6.128756E+05 -6.631587E+05 -1.700132E+05 -6.768772E+05  4.385138E-09  4.603977E-10
        81  11 -8.396630E+04 -3.842837E+05 -4.786569E+04 -4.410707E+05 -1.317822E-08 -6.341028E-09
        81  12  5.723600E+05 -2.322266E+05  7.461259E+04 -3.523075E+05 -2.257456E-08 -1.198709E-08
        81  13  2.094256E+05 -3.642451E+05  1.731218E+02 -4.516574E+05 -2.053376E-09 -1.717953E-09
        81  14  1.460153E+05 -3.006422E+05  5.690044E+01 -3.780935E+05  6.007805E-09  3.330248E-09
        81  15  2.095574E+05 -3.639774E+05 -7.232853E+01 -4.517159E+05 -1.051087E-08 -1.372667E-08
        81  16  1.032425E+06 -6.527465E+04  1.703255E+05 -2.261611E+05  7.119699E-09  1.530974E-09
        81  17  3.760519E+05 -2.169961E+05  4.797691E+04 -3.150945E+05  7.731760E-09  7.038595E-10
        81  18 -1.531106E+05 -4.957175E+05 -7.476413E+04 -5.510709E+05  1.044188E-08  5.174464E-09
        81  19 -6.128726E+05 -6.631515E+05 -1.699990E+05 -6.768750E+05 -3.366843E+04 -8.006178E+04
        81  20 -8.396334E+04 -3.842816E+05 -4.785860E+04 -4.410692E+05 -4.923824E+04 -3.672744E+04
        81  21  5.723645E+05 -2.322255E+05  7.462051E+04 -3.523079E+05 -6.466568E+04  6.258286E+03
        81  22  2.094271E+05 -3.642412E+05  1.806677E+02 -4.516585E+05  2.180180E+04 -5.950146E+04
        81  23  1.460155E+05 -3.006419E+05  5.746497E+01 -3.780935E+05  5.810111E+03 -1.632985E+04
        81  24  2.095577E+05 -3.639766E+05 -7.082039E+01 -4.517161E+05 -1.003936E+04  2.649197E+04
        81  25  1.032432E+06 -6.527143E+04  1.703396E+05 -2.261636E+05  7.735145E+04 -3.891163E+04
        81  26  3.760559E+05 -2.169951E+05  4.798390E+04 -3.150943E+05  6.088060E+04  4.075970E+03
        81  27 -1.531078E+05 -4.957146E+05 -7.475629E+04 -5.510692E+05  4.455272E+04  4.671292E+04
        82   1  9.891043E+05 -8.032376E+04  1.651202E+05 -2.385354E+05  7.545140E+04 -3.110084E+04
        82   2  1.517453E+06  1.981421E+05  2.890907E+05 -2.249856E+03  8.310816E+04 -7.450013E+04
        82   3  2.174753E+06  3.514125E+05  4.189936E+05  8.753149E+04  8.857022E+04 -1.118578E+05
        82   4  2.094724E+05 -3.640132E+05 -1.450098E+02 -4.516186E+05  1.944107E+04 -5.185775E+04
        82   5  1.455457E+05 -3.014597E+05 -5.580558E+02 -3.780921E+05  3.481970E+04 -9.243493E+04
        82   6  2.087070E+05 -3.656748E+05 -1.130432E+03 -4.512327E+05  4.800818E+04 -1.269597E+05
        82   7 -5.695292E+05 -6.476505E+05 -1.654293E+05 -6.644529E+05 -3.649324E+04 -7.258646E+04
        82   8 -1.224442E+06 -8.009111E+05 -2.903014E+05 -7.531712E+05 -1.335413E+04 -1.103271E+05
        82   9 -1.753433E+06 -1.082465E+06 -4.214724E+05 -9.884374E+05  7.583905E+03 -1.420103E+05
        82  10  9.890979E+05 -8.032632E+04  1.651077E+05 -2.385335E+05  1.647174E-08  8.456068E-09
        82  11  1.517444E+06  1.981343E+05  2.890673E+05 -2.244874E+03  2.400790E-08  3.921916E-09
        82  12  2.174741E+06  3.513970E+05  4.189554E+05  8.753946E+04  3.399966E-09  2.292283E-09
        82  13  2.094712E+05 -3.640162E+05 -1.507732E+02 -4.516177E+05  4.915604E-09 -9.326787E-09
        82  14  1.455421E+05 -3.014692E+05 -5.763889E+02 -3.780895E+05  4.343859E-09 -2.369702E-09
        82  15  2.087002E+05 -3.656927E+05 -1.165050E+03 -4.512278E+05 -1.693389E-09 -4.566915E-09
        82  16 -5.695320E+05 -6.476565E+05 -1.654417E+05 -6.644550E+05 -3.230356E-08 -1.255801E-08
        82  17 -1.224446E+06 -8.009243E+05 -2.903246E+05 -7.531724E+05 -1.747800E-08 -6.454731E-09
        82  18 -1.753438E+06 -1.082486E+06 -4.215104E+05 -9.884365E+05 -6.653817E-09 -7.817529E-10
        82  19  9.891043E+05 -8.032376E+04  1.651202E+05 -2.385354E+05 -7.545140E+04  3.110084E+04
        82  20  1.517453E+06  1.981421E+05  2.890907E+05 -2.249856E+03 -8.310816E+04  7.450013E+04
        82  21  2.174753E+06  3.514125E+05  4.189936E+05  8.753149E+04 -8.857022E+04  1.118578E+05
        82  22  2.094724E+05 -3.640132E+05 -1.450098E+02 -4.516186E+05 -1.944107E+04  5.185775E+04
        82  23  1.455457E+05 -3.014597E+05 -5.580558E+02 -3.780921E+05 -3.481970E+04  9.243493E+04
        82  24  2.087070E+05 -3.656748E+05 -1.130432E+03 -4.512327E+05 -4.800818E+04  1.269597E+05
        82  25 -5.695292E+05 -6.476505E+05 -1.654293E+05 -6.644529E+05  3.649324E+04  7.258646E+04
        82  26 -1.224442E+06 -8.009111E+05 -2.903014E+05 -7.531712E+05  1.335413E+04  1.103271E+05
        82  27 -1.753433E+06 -1.082465E+06 -4.214724E+05 -9.884374E+05 -7.583905E+03  1.420103E+05
        83   1  2.594354E+06  5.053399E+05  5.079357E+05  2.040518E+05  1.223277E+05 -1.308888E+05
        83   2  3.113043E+06  7.858058E+05  6.676343E+05  4.353626E+05 -7.957434E+03 -1.776861E+05
        83   3  3.781569E+06  9.675265E+05  9.296136E+05  5.263857E+05 -1.766497E+05 -1.223430E+05
        83   4  2.075837E+05 -3.649697E+05 -1.410948E+03 -4.501160E+05  5.845198E+04 -1.546912E+05
        83   5  1.447539E+05 -3.057314E+05 -3.184832E+03 -3.789736E+05  5.975560E+04 -1.525244E+05
        83   6  2.055305E+05 -3.712334E+05 -6.534765E+03 -4.482940E+05  2.270531E+04 -4.791786E+04
        83   7 -2.173416E+06 -1.234835E+06 -5.110678E+05 -1.101982E+06 -5.160212E+03 -1.783958E+05
        83   8 -2.814677E+06 -1.396597E+06 -6.745449E+05 -1.189751E+06  1.271190E+05 -1.274937E+05
        83   9 -3.358003E+06 -1.709147E+06 -9.435698E+05 -1.417883E+06  2.208020E+05  2.603477E+04
        83  10  2.594334E+06  5.053175E+05  5.078755E+05  2.040647E+05  1.902172E-09  3.635923E-09
        83  11  3.113035E+06  7.857719E+05  6.675748E+05  4.353614E+05  9.114039E-09  3.897745E-09
        83  12  3.781532E+06  9.675021E+05  9.295272E+05  5.263684E+05  4.585151E-10  6.962189E-10
        83  13  2.075736E+05 -3.649963E+05 -1.462333E+03 -4.501087E+05 -1.551362E-09  4.575975E-09
        83  14  1.447439E+05 -3.057574E+05 -3.235254E+03 -3.789662E+05 -8.921455E-09  1.702659E-09
        83  15  2.055293E+05 -3.712360E+05 -6.540047E+03 -4.482931E+05 -3.934129E-09  2.333737E-10
        83  16 -2.173425E+06 -1.234869E+06 -5.111277E+05 -1.101983E+06 -7.406506E-09  2.455388E-09
        83  17 -2.814699E+06 -1.396619E+06 -6.746058E+05 -1.189738E+06  3.536809E-09  7.212704E-10
        83  18 -3.358056E+06 -1.709161E+06 -9.436632E+05 -1.417887E+06 -5.978653E-09 -7.212436E-10
        83  19  2.594354E+06  5.053399E+05  5.079357E+05  2.040518E+05 -1.223277E+05  1.308888E+05
        83  20  3.113043E+06  7.858058E+05  6.676343E+05  4.353626E+05  7.957434E+03  1.776861E+05
        83  21  3.781569E+06  9.675265E+05  9.296136E+05  5.263857E+05  1.766497E+05  1.223430E+05
        83  22  2.075837E+05 -3.649697E+05 -1.410948E+03 -4.501160E+05 -5.845198E+04  1.546912E+05
        83  23  1.447539E+05 -3.057314E+05 -3.184832E+03 -3.789736E+05 -5.975560E+04  1.525244E+05
        83  24  2.055305E+05 -3.712334E+05 -6.534765E+03 -4.482940E+05 -2.270531E+04  4.791786E+04
        83  25 -2.173416E+06 -1.234835E+06 -5.110678E+05 -1.101982E+06  5.160212E+03  1.783958E+05
        83  26 -2.814677E+06 -1.396597E+06 -6.745449E+05 -1.189751E+06 -1.271190E+05  1.274937E+05
        83  27 -3.358003E+06 -1.709147E+06 -9.435698E+05 -1.417883E+06 -2.208020E+05 -2.603477E+04
        84   1 -2.099773E+05 -1.068889E+05 -9.581078E+04 -7.638942E+04 -2.423675E+04  7.036362E+03
        84   2 -1.354061E+05 -1.077509E+05 -7.161310E+04 -8.359779E+04 -6.012554E+03  2.341552E+04
        84   3 -6.043583E+04 -9.761497E+04 -5.653003E+04 -1.018222E+05  1.221619E+04  2.771215E+04
        84   4  3.847187E+05  3.957615E+04  4.185703E+04 -1.034030E+05  2.957710E+04  7.032471E+03
        84   5  3.820236E+05  1.427711E+04  2.114237E+04 -9.789831E+04  1.880994E+04  2.341035E+04
        84   6  3.847507E+05  5.002471E+03  1.144238E+04 -1.034081E+05  8.044816E+03  2.771110E+04
        84   7  9.797491E+05  1.860207E+05  1.795125E+05 -1.304427E+05  8.344212E+04  7.023902E+03
        84   8  8.997161E+05  1.362913E+05  1.138900E+05 -1.122111E+05  4.365254E+04  2.340405E+04
        84   9  8.301356E+05  1.076104E+05  7.941061E+04 -1.049953E+05  3.870564E+03  2.771008E+04
        84  10 -2.099779E+05 -1.068891E+05 -9.581198E+04 -7.638928E+04  9.725602E-08 -1.244373E-09
        84  11 -1.354063E+05 -1.077515E+05 -7.161420E+04 -8.359768E+04 -9.354737E-09 -3.598021E-09
        84  12 -6.043620E+04 -9.761583E+04 -5.653176E+04 -1.018225E+05 -1.131751E-07 -2.019254E-09
        84  13  3.847177E+05  3.957586E+04  4.185529E+04 -1.034032E+05  1.428639E-10  8.375406E-10
        84  14  3.820231E+05  1.427643E+04  2.114067E+04 -9.789866E+04  4.450915E-09  5.871863E-09
        84  15  3.847504E+05  5.001628E+03  1.144082E+04 -1.034083E+05  4.691790E-09  1.428763E-08
        84  16  9.797416E+05  1.860188E+05  1.794993E+05 -1.304431E+05 -9.701753E-08 -1.314164E-09
        84  17  8.997139E+05  1.362902E+05  1.138854E+05 -1.122119E+05  1.067881E-08 -4.240395E-09
        84  18  8.301354E+05  1.076096E+05  7.940914E+04 -1.049953E+05  1.204651E-07 -4.503787E-09
        84  19 -2.099773E+05 -1.068889E+05 -9.581078E+04 -7.638942E+04  2.423675E+04 -7.036362E+03
        84  20 -1.354061E+05 -1.077509E+05 -7.161310E+04 -8.359779E+04  6.012554E+03 -2.341552E+04
        84  21 -6.043583E+04 -9.761497E+04 -5.653003E+04 -1.018222E+05 -1.221619E+04 -2.771215E+04
        84  22  3.847187E+05  3.957615E+04  4.185703E+04 -1.034030E+05 -2.957710E+04 -7.032471E+03
        84  23  3.820236E+05  1.427711E+04  2.114237E+04 -9.789831E+04 -1.880994E+04 -2.341035E+04
        84  24  3.847507E+05  5.002471E+03  1.144238E+04 -1.034081E+05 -8.044816E+03 -2.771110E+04
        84  25  9.797491E+05  1.860207E+05  1.795125E+05 -1.304427E+05 -8.344212E+04 -7.023902E+03
        84  26  8.997161E+05  1.362913E+05  1.138900E+05 -1.122111E+05 -4.365254E+04 -2.340405E+04
        84  27  8.301356E+05  1.076104E+05  7.941061E+04 -1.049953E+05 -3.870564E+03 -2.771008E+04
        85   1 -1.456946E+04 -8.773555E+04 -5.016794E+04 -1.014121E+05  1.168884E+04  2.614068E+04
        85   2  6.007865E+04 -7.234477E+04 -3.996938E+04 -9.655548E+04  1.330323E+04  2.318329E+04
        85   3  1.347618E+05 -5.601009E+04 -3.058472E+04 -1.036108E+05  1.491697E+04  1.859298E+04
        85   4  3.837104E+05  3.645935E+03  8.532323E+03 -1.036078E+05  6.554939E+03  2.614026E+04
        85   5  3.833644E+05  1.211613E+03  4.601928E+03 -9.765252E+04  4.248830E+03  2.318462E+04
        85   6  3.837277E+05  4.014261E+02  2.578846E+03 -1.036087E+05  1.941901E+03  1.859651E+04
        85   7  7.821499E+05  9.502005E+04  6.722985E+04 -1.058048E+05  1.417876E+03  2.613988E+04
        85   8  7.067564E+05  7.476345E+04  4.917236E+04 -9.875015E+04 -4.810069E+03  2.318598E+04
        85   9  6.327573E+05  5.681039E+04  3.574254E+04 -1.036066E+05 -1.103812E+04  1.860004E+04
        85  10 -1.456979E+04 -8.773632E+04 -5.016948E+04 -1.014124E+05  1.096546E-07 -4.423981E-10
        85  11  6.007832E+04 -7.234539E+04 -3.997073E+04 -9.655573E+04  3.193566E-09 -5.496423E-11
        85  12  1.347614E+05 -5.601052E+04 -3.058578E+04 -1.036110E+05 -9.555803E-08 -1.640361E-09
        85  13  3.837102E+05  3.645189E+03  8.530957E+03 -1.036079E+05  4.453576E-09  1.603691E-08
        85  14  3.833642E+05  1.211031E+03  4.600884E+03 -9.765260E+04  8.803826E-09  1.070737E-08
        85  15  3.837276E+05  4.010536E+02  2.578189E+03 -1.036087E+05 -7.096651E-10  1.638853E-09
        85  16  7.821497E+05  9.501932E+04  6.722856E+04 -1.058049E+05 -1.043941E-07 -1.619474E-09
        85  17  7.067562E+05  7.476287E+04  4.917131E+04 -9.875006E+04 -4.034061E-09  1.995361E-09
        85  18  6.327570E+05  5.680999E+04  3.574166E+04 -1.036064E+05  9.545954E-08 -1.206351E-10
        85  19 -1.456946E+04 -8.773555E+04 -5.016794E+04 -1.014121E+05 -1.168884E+04 -2.614068E+04
        85  20  6.007865E+04 -7.234477E+04 -3.996938E+04 -9.655548E+04 -1.330323E+04 -2.318329E+04
        85  21  1.347618E+05 -5.601009E+04 -3.058472E+04 -1.036108E+05 -1.491697E+04 -1.859298E+04
        85  22  3.837104E+05  3.645935E+03  8.532323E+03 -1.036078E+05 -6.554939E+03 -2.614026E+04
        85  23  3.833644E+05  1.211613E+03  4.601928E+03 -9.765252E+04 -4.248830E+03 -2.318462E+04
        85  24  3.837277E+05  4.014261E+02  2.578846E+03 -1.036087E+05 -1.941901E+03 -1.859651E+04
        85  25  7.821499E+05  9.502005E+04  6.722985E+04 -1.058048E+05 -1.417876E+03 -2.613988E+04
        85  26  7.067564E+05  7.476345E+04  4.917236E+04 -9.875015E+04  4.810069E+03 -2.318598E+04
        85  27  6.327573E+05  5.681039E+04  3.574254E+04 -1.036066E+05  1.103812E+04 -1.860004E+04
        86   1  1.807783E+05 -4.558493E+04 -2.471983E+04 -1.035411E+05  1.466648E+04  1.537146E+04
        86   2  2.554122E+05 -2.885980E+04 -1.561061E+04 -9.759587E+04  1.465364E+04  9.802364E+03
        86   3  3.300658E+05 -1.206653E+04 -6.477290E+03 -1.036808E+05  1.464040E+04  4.013481E+03
        86   4  3.835977E+05  2.986076E+02  1.942457E+03 -1.036350E+05  1.561648E+03  1.537551E+04
        86   5  3.835477E+05  9.750250E+01  1.086739E+03 -9.762008E+04  1.020339E+03  9.807067E+03
        86   6  3.836044E+05  5.662173E+01  6.217039E+02 -1.036351E+05  4.786353E+02  4.018855E+03
        86   7  5.864595E+05  4.618051E+04  2.860511E+04 -1.037290E+05 -1.154726E+04  1.537956E+04
        86   8  5.117004E+05  2.905422E+04  1.778468E+04 -9.764430E+04 -1.261564E+04  9.811771E+03
        86   9  4.371464E+05  1.217976E+04  7.721429E+03 -1.035894E+05 -1.368429E+04  4.024227E+03
        86  10  1.807780E+05 -4.558524E+04 -2.472068E+04 -1.035412E+05 -5.941265E-09 -2.395956E-09
        86  11  2.554119E+05 -2.885997E+04 -1.561119E+04 -9.759598E+04 -4.300339E-08 -2.285927E-10
        86  12  3.300656E+05 -1.206660E+04 -6.477723E+03 -1.036809E+05 -7.737862E-08  2.910117E-09
        86  13  3.835976E+05  2.983531E+02  1.942008E+03 -1.036350E+05 -1.386254E-10 -4.509691E-09
        86  14  3.835477E+05  9.739892E+01  1.086556E+03 -9.762009E+04 -2.178976E-09 -1.189039E-08
        86  15  3.836044E+05  5.660432E+01  6.216731E+02 -1.036351E+05 -2.730964E-10 -1.530490E-08
        86  16  5.864593E+05  4.618022E+04  2.860442E+04 -1.037289E+05  4.560165E-09 -2.343932E-09
        86  17  5.117002E+05  2.905408E+04  1.778420E+04 -9.764420E+04  3.088186E-08 -2.457677E-09
        86  18  4.371462E+05  1.217969E+04  7.721047E+03 -1.035894E+05  7.177803E-08  4.623403E-10
        86  19  1.807783E+05 -4.558493E+04 -2.471983E+04 -1.035411E+05 -1.466648E+04 -1.537146E+04
        86  20  2.554122E+05 -2.885980E+04 -1.561061E+04 -9.759587E+04 -1.465364E+04 -9.802364E+03
        86  21  3.300658E+05 -1.206653E+04 -6.477290E+03 -1.036808E+05 -1.464040E+04 -4.013481E+03
        86  22  3.835977E+05  2.986076E+02  1.942457E+03 -1.036350E+05 -1.561648E+03 -1.537551E+04
        86  23  3.835477E+05  9.750250E+01  1.086739E+03 -9.762008E+04 -1.020339E+03 -9.807067E+03
        86  24  3.836044E+05  5.662173E+01  6.217039E+02 -1.036351E+05 -4.786353E+02 -4.018855E+03
        86  25  5.864595E+05  4.618051E+04  2.860511E+04 -1.037290E+05  1.154726E+04 -1.537956E+04
        86  26  5.117004E+05  2.905422E+04  1.778468E+04 -9.764430E+04  1.261564E+04 -9.811771E+03
        86  27  4.371464E+05  1.217976E+04  7.721429E+03 -1.035894E+05  1.368429E+04 -4.024227E+03
        87   1  3.760953E+05 -1.637043E+03 -4.993511E+02 -1.036753E+05  1.455996E+04  5.703503E+02
        87   2  4.507375E+05  1.515257E+04  8.709029E+03 -9.765923E+04  1.448175E+04 -5.346638E+03
        87   3  5.253942E+05  3.195027E+04  1.796908E+04 -1.036890E+05  1.440374E+04 -1.128744E+04
        87   4  3.835851E+05  5.457721E+01  4.720244E+02 -1.036387E+05  3.806933E+02  5.757985E+02
        87   5  3.835747E+05  3.910871E+01  2.718389E+02 -9.761572E+04  2.443387E+02 -5.341421E+03
        87   6  3.835817E+05  4.159709E+01  1.627574E+02 -1.036387E+05  1.081863E+02 -1.128247E+04
        87   7  3.910754E+05  1.746303E+03  1.444155E+03 -1.036020E+05 -1.379874E+04  5.812450E+02
        87   8  3.164169E+05 -1.507442E+04 -8.164602E+03 -9.757221E+04 -1.399161E+04 -5.336206E+03
        87   9  2.417903E+05 -3.186778E+04 -1.764285E+04 -1.035884E+05 -1.418427E+04 -1.127750E+04
        87  10  3.760951E+05 -1.637100E+03 -4.997499E+02 -1.036753E+05  6.943264E-08  3.261824E-09
        87  11  4.507373E+05  1.515248E+04  8.708582E+03 -9.765917E+04  4.133879E-08  1.077825E-09
        87  12  5.253940E+05  3.195008E+04  1.796845E+04 -1.036888E+05  8.012224E-09  2.394734E-10
        87  13  3.835851E+05  5.457681E+01  4.720235E+02 -1.036387E+05 -1.364773E-12 -1.456982E-08
        87  14  3.835747E+05  3.907805E+01  2.717852E+02 -9.761572E+04 -4.403553E-09 -7.594352E-09
        87  15  3.835817E+05  4.146037E+01  1.625181E+02 -1.036387E+05 -9.014782E-09 -2.130334E-09
        87  16  3.910752E+05  1.746251E+03  1.443797E+03 -1.036020E+05 -6.733017E-08  2.679094E-09
        87  17  3.164167E+05 -1.507451E+04 -8.165023E+03 -9.757227E+04 -4.239346E-08  3.541748E-09
        87  18  2.417900E+05 -3.186797E+04 -1.764347E+04 -1.035885E+05  2.477216E-10  9.509505E-10
        87  19  3.760953E+05 -1.637043E+03 -4.993511E+02 -1.036753E+05 -1.455996E+04 -5.703503E+02
        87  20  4.507375E+05  1.515257E+04  8.709029E+03 -9.765923E+04 -1.448175E+04  5.346638E+03
        87  21  5.253942E+05  3.195027E+04  1.796908E+04 -1.036890E+05 -1.440374E+04  1.128744E+04
        87  22  3.835851E+05  5.457721E+01  4.720244E+02 -1.036387E+05 -3.806933E+02 -5.757985E+02
        87  23  3.835747E+05  3.910871E+01  2.718389E+02 -9.761572E+04 -2.443387E+02  5.341421E+03
        87  24  3.835817E+05  4.159709E+01  1.627574E+02 -1.036387E+05 -1.081863E+02  1.128247E+04
        87  25  3.910754E+05  1.746303E+03  1.444155E+03 -1.036020E+05  1.379874E+04 -5.812450E+02
        87  26  3.164169E+05 -1.507442E+04 -8.164602E+03 -9.757221E+04  1.399161E+04  5.336206E+03
        87  27  2.417903E+05 -3.186778E+04 -1.764285E+04 -1.035884E+05  1.418427E+04  1.127750E+04
        88   1  5.714387E+05  4.236872E+04  2.402279E+04 -1.036940E+05  1.437635E+04 -1.475436E+04
        88   2  6.460989E+05  5.915385E+04  3.336653E+04 -9.767162E+04  1.423394E+04 -2.068565E+04
        88   3  7.207897E+05  7.596215E+04  4.280862E+04 -1.036965E+05  1.409232E+04 -2.657583E+04
        88   4  3.835767E+05  3.857431E+01  1.288412E+02 -1.036390E+05  8.076835E+01 -1.474976E+04
        88   5  3.835661E+05  2.312872E+01  8.681302E+01 -9.761526E+04  3.624687E+01 -2.068209E+04
        88   6  3.835632E+05  1.397020E+01  7.465969E+01 -1.036390E+05 -7.467028E+00 -2.657332E+04
        88   7  1.957514E+05 -4.229291E+04 -2.376447E+04 -1.035841E+05 -1.421071E+04 -1.474517E+04
        88   8  1.211044E+05 -5.911029E+04 -3.319238E+04 -9.755891E+04 -1.415574E+04 -2.067854E+04
        88   9  4.645379E+04 -7.593875E+04 -4.265894E+04 -1.035816E+05 -1.409998E+04 -2.657081E+04
        88  10  5.714384E+05  4.236843E+04  2.402199E+04 -1.036938E+05  1.395029E-07  1.759378E-09
        88  11  6.460986E+05  5.915333E+04  3.336534E+04 -9.767138E+04  1.012633E-09  3.585881E-09
        88  12  7.207893E+05  7.596134E+04  4.280692E+04 -1.036962E+05 -1.280022E-07  1.807773E-09
        88  13  3.835766E+05  3.834065E+01  1.284323E+02 -1.036390E+05  2.779541E-10  1.006006E-09
        88  14  3.835660E+05  2.266931E+01  8.600905E+01 -9.761525E+04  8.870968E-09  3.868034E-09
        88  15  3.835630E+05  1.321179E+01  7.333248E+01 -1.036390E+05 -3.707345E-09  2.850409E-09
        88  16  1.957511E+05 -4.229320E+04 -2.376526E+04 -1.035843E+05 -1.364740E-07  1.243015E-09
        88  17  1.211041E+05 -5.911081E+04 -3.319356E+04 -9.755914E+04 -8.375794E-09  4.866378E-09
        88  18  4.645339E+04 -7.593956E+04 -4.266064E+04 -1.035819E+05  1.304011E-07  4.234358E-09
        88  19  5.714387E+05  4.236872E+04  2.402279E+04 -1.036940E+05 -1.437635E+04  1.475436E+04
        88  20  6.460989E+05  5.915385E+04  3.336653E+04 -9.767162E+04 -1.423394E+04  2.068565E+04
        88  21  7.207897E+05  7.596215E+04  4.280862E+04 -1.036965E+05 -1.409232E+04  2.657583E+04
        88  22  3.835767E+05  3.857431E+01  1.288412E+02 -1.036390E+05 -8.076835E+01  1.474976E+04
        88  23  3.835661E+05  2.312872E+01  8.681302E+01 -9.761526E+04 -3.624687E+01  2.068209E+04
        88  24  3.835632E+05  1.397020E+01  7.465969E+01 -1.036390E+05  7.467028E+00  2.657332E+04
        88  25  1.957514E+05 -4.229291E+04 -2.376447E+04 -1.035841E+05  1.421071E+04  1.474517E+04
        88  26  1.211044E+05 -5.911029E+04 -3.319238E+04 -9.755891E+04  1.415574E+04  2.067854E+04
        88  27  4.645379E+04 -7.593875E+04 -4.265894E+04 -1.035816E+05  1.409998E+04  2.657081E+04
        89   1  7.668801E+05  8.639544E+04  4.897184E+04 -1.036906E+05  1.405380E+04 -3.000119E+04
        89   2  8.415177E+05  1.032415E+05  5.874857E+04 -9.766484E+04  1.319459E+04 -3.569088E+04
        89   3  9.163224E+05  1.202437E+05  6.912608E+04 -1.036680E+05  1.233663E+04 -4.104335E+04
        89   4  3.835602E+05  4.608135E+00  7.737408E+01 -1.036350E+05 -2.157170E+01 -2.999950E+04
        89   5  3.835374E+05 -1.819275E+01  9.859055E+01 -9.762029E+04 -7.116033E+01 -3.569107E+04
        89   6  3.835367E+05 -2.488595E+01  1.587837E+02 -1.036350E+05 -1.194167E+02 -4.104529E+04
        89   7  3.912833E+02 -8.639214E+04 -4.881694E+04 -1.035795E+05 -1.408868E+04 -2.999781E+04
        89   8 -7.422769E+04 -1.032864E+05 -5.855164E+04 -9.757575E+04 -1.332761E+04 -3.569125E+04
        89   9 -1.489583E+05 -1.203052E+05 -6.880946E+04 -1.036020E+05 -1.256531E+04 -4.104723E+04
        89  10  7.668797E+05  8.639442E+04  4.896978E+04 -1.036902E+05  1.661095E-09  6.679261E-10
        89  11  8.415172E+05  1.032401E+05  5.874585E+04 -9.766446E+04 -3.200449E-09  1.052508E-09
        89  12  9.163218E+05  1.202418E+05  6.912263E+04 -1.036676E+05 -5.030840E-09 -1.719218E-09
        89  13  3.835600E+05  3.641550E+00  7.568255E+01 -1.036350E+05 -4.300167E-09  1.108968E-09
        89  14  3.835371E+05 -1.956089E+01  9.619629E+01 -9.762029E+04 -1.306823E-08 -3.037625E-10
        89  15  3.835363E+05 -2.669537E+01  1.556172E+02 -1.036350E+05  1.518068E-09 -9.485372E-10
        89  16  3.908284E+02 -8.639316E+04 -4.881900E+04 -1.035798E+05  3.827422E-09  1.743574E-09
        89  17 -7.422822E+04 -1.032879E+05 -5.855437E+04 -9.757613E+04 -2.884117E-09 -1.577755E-09
        89  18 -1.489590E+05 -1.203070E+05 -6.881293E+04 -1.036024E+05  1.767543E-09 -3.372040E-10
        89  19  7.668801E+05  8.639544E+04  4.897184E+04 -1.036906E+05 -1.405380E+04  3.000119E+04
        89  20  8.415177E+05  1.032415E+05  5.874857E+04 -9.766484E+04 -1.319459E+04  3.569088E+04
        89  21  9.163224E+05  1.202437E+05  6.912608E+04 -1.036680E+05 -1.233663E+04  4.104335E+04
        89  22  3.835602E+05  4.608135E+00  7.737408E+01 -1.036350E+05  2.157170E+01  2.999950E+04
        89  23  3.835374E+05 -1.819275E+01  9.859055E+01 -9.762029E+04  7.116033E+01  3.569107E+04
        89  24  3.835367E+05 -2.488595E+01  1.587837E+02 -1.036350E+05  1.194167E+02  4.104529E+04
        89  25  3.912833E+02 -8.639214E+04 -4.881694E+04 -1.035795E+05  1.408868E+04  2.999781E+04
        89  26 -7.422769E+04 -1.032864E+05 -5.855164E+04 -9.757575E+04  1.332761E+04  3.569125E+04
        89  27 -1.489583E+05 -1.203052E+05 -6.880946E+04 -1.036020E+05  1.256531E+04  4.104723E+04
        90   1  9.626133E+05  1.308314E+05  7.591160E+04 -1.036041E+05  1.210935E+04 -4.412808E+04
        90   2  1.036844E+06  1.482084E+05  8.859661E+04 -9.772360E+04  5.912269E+03 -4.797618E+04
        90   3  1.112209E+06  1.667615E+05  1.056134E+05 -1.036881E+05 -2.848629E+02 -4.931914E+04
        90   4  3.835411E+05 -3.170385E+01  2.062866E+02 -1.035942E+05 -1.497897E+02 -4.413117E+04
        90   5  3.834822E+05 -2.128839E+00  3.555114E+02 -9.767131E+04 -3.259962E+02 -4.798130E+04
        90   6  3.835080E+05  1.596407E+02  6.596806E+02 -1.035942E+05 -5.014438E+02 -4.932491E+04
        90   7 -1.951883E+05 -1.309088E+05 -7.550058E+04 -1.035843E+05 -1.239806E+04 -4.413425E+04
        90   8 -2.694450E+05 -1.482310E+05 -8.788946E+04 -9.761905E+04 -6.558006E+03 -4.798643E+04
        90   9 -3.446575E+05 -1.664664E+05 -1.043023E+05 -1.035004E+05 -7.177813E+02 -4.933068E+04
        90  10  9.626126E+05  1.308293E+05  7.590767E+04 -1.036036E+05  1.052331E-09 -2.919354E-09
        90  11  1.036843E+06  1.482059E+05  8.859222E+04 -9.772337E+04  7.664172E-09 -2.894802E-09
        90  12  1.112208E+06  1.667589E+05  1.056088E+05 -1.036881E+05  6.030964E-10 -2.481849E-09
        90  13  3.835406E+05 -3.379557E+01  2.026261E+02 -1.035942E+05 -4.321044E-09 -1.047943E-09
        90  14  3.834816E+05 -4.601483E+00  3.511842E+02 -9.767132E+04 -2.128683E-09 -1.645123E-09
        90  15  3.835074E+05  1.570276E+02  6.551073E+02 -1.035942E+05 -1.499781E-08 -2.174690E-09
        90  16 -1.951890E+05 -1.309109E+05 -7.550453E+04 -1.035847E+05  2.965194E-10  6.763189E-10
        90  17 -2.694457E+05 -1.482335E+05 -8.789387E+04 -9.761931E+04 -3.342213E-09 -2.150401E-10
        90  18 -3.446582E+05 -1.664691E+05 -1.043069E+05 -1.035004E+05 -5.025708E-09 -1.732800E-09
        90  19  9.626133E+05  1.308314E+05  7.591160E+04 -1.036041E+05 -1.210935E+04  4.412808E+04
        90  20  1.036844E+06  1.482084E+05  8.859661E+04 -9.772360E+04 -5.912269E+03  4.797618E+04
        90  21  1.112209E+06  1.667615E+05  1.056134E+05 -1.036881E+05  2.848629E+02  4.931914E+04
        90  22  3.835411E+05 -3.170385E+01  2.062866E+02 -1.035942E+05  1.497897E+02  4.413117E+04
        90  23  3.834822E+05 -2.128839E+00  3.555114E+02 -9.767131E+04  3.259962E+02  4.798130E+04
        90  24  3.835080E+05  1.596407E+02  6.596806E+02 -1.035942E+05  5.014438E+02  4.932491E+04
        90  25 -1.951883E+05 -1.309088E+05 -7.550058E+04 -1.035843E+05  1.239806E+04  4.413425E+04
        90  26 -2.694450E+05 -1.482310E+05 -8.788946E+04 -9.761905E+04  6.558006E+03  4.798643E+04
        90  27 -3.446575E+05 -1.664664E+05 -1.043023E+05 -1.035004E+05  7.177813E+02  4.933068E+04
        91   1  1.159767E+06  1.785332E+05  1.168307E+05 -1.032973E+05 -1.876939E+03 -4.987195E+04
        91   2  1.230646E+06  2.000558E+05  1.506415E+05 -9.900374E+04 -4.725862E+04 -4.008595E+04
        91   3  1.309728E+06  2.305846E+05  2.162249E+05 -1.051783E+05 -9.265992E+04 -1.176328E+04
        91   4  3.835821E+05  2.489544E+02  8.853293E+02 -1.032877E+05 -6.171117E+02 -4.987787E+04
        91   5  3.833240E+05  9.504252E+02  1.625012E+03 -9.805440E+04 -1.432327E+03 -4.007981E+04
        91   6  3.835410E+05  2.934491E+03  3.224101E+03 -1.032882E+05 -2.260038E+03 -1.173358E+04
        91   7 -3.919985E+05 -1.780637E+05 -1.150716E+05 -1.032781E+05  6.412070E+02 -4.988380E+04
        91   8 -4.632919E+05 -1.981930E+05 -1.474097E+05 -9.710639E+04  4.433338E+04 -4.007353E+04
        91   9 -5.418357E+05 -2.247711E+05 -2.098028E+05 -1.014010E+05  8.800629E+04 -1.170332E+04
        91  10  1.159766E+06  1.785306E+05  1.168260E+05 -1.032974E+05  1.557862E-09 -1.957247E-09
        91  11  1.230643E+06  2.000534E+05  1.506343E+05 -9.900527E+04 -6.430991E-09 -1.556901E-09
        91  12  1.309718E+06  2.305821E+05  2.162085E+05 -1.051792E+05  6.618862E-10 -3.465490E-10
        91  13  3.835815E+05  2.462823E+02  8.806527E+02 -1.032877E+05 -4.747939E-09 -2.620448E-09
        91  14  3.833236E+05  9.486994E+02  1.621989E+03 -9.805445E+04 -1.684715E-09  4.222981E-10
        91  15  3.835410E+05  2.934342E+03  3.223833E+03 -1.032882E+05 -4.230978E-09  1.130108E-10
        91  16 -3.919992E+05 -1.780664E+05 -1.150763E+05 -1.032781E+05 -3.640877E-09 -1.636827E-09
        91  17 -4.632945E+05 -1.981952E+05 -1.474165E+05 -9.710496E+04 -2.283877E-09  6.612096E-10
        91  18 -5.418440E+05 -2.247733E+05 -2.098176E+05 -1.014002E+05 -2.240343E-09 -1.565012E-10
        91  19  1.159767E+06  1.785332E+05  1.168307E+05 -1.032973E+05  1.876939E+03  4.987195E+04
        91  20  1.230646E+06  2.000558E+05  1.506415E+05 -9.900374E+04  4.725862E+04  4.008595E+04
        91  21  1.309728E+06  2.305846E+05  2.162249E+05 -1.051783E+05  9.265992E+04  1.176328E+04
        91  22  3.835821E+05  2.489544E+02  8.853293E+02 -1.032877E+05  6.171117E+02  4.987787E+04
        91  23  3.833240E+05  9.504252E+02  1.625012E+03 -9.805440E+04  1.432327E+03  4.007981E+04
        91  24  3.835410E+05  2.934491E+03  3.224101E+03 -1.032882E+05  2.260038E+03  1.173358E+04
        91  25 -3.919985E+05 -1.780637E+05 -1.150716E+05 -1.032781E+05 -6.412070E+02  4.988380E+04
        91  26 -4.632919E+05 -1.981930E+05 -1.474097E+05 -9.710639E+04 -4.433338E+04  4.007353E+04
        91  27 -5.418357E+05 -2.247711E+05 -2.098028E+05 -1.014010E+05 -8.800629E+04  1.170332E+04
        92   1  1.353470E+05  7.199116E+05  1.300602E+05 -3.483081E+05  3.613791E+03  1.559907E+04
        92   2  7.673577E+04  4.610827E+05  6.556809E+04 -3.317511E+05  7.888991E+03 -1.225627E+04
        92   3  1.891342E+04  2.061408E+05  1.938829E+04 -3.554541E+05 -5.371440E+02 -4.009995E+04
        92   4 -1.141818E+04  1.279820E+05 -1.218541E+04 -3.559097E+05  3.631693E+03 -9.871649E+03
        92   5 -3.851687E+03  1.287429E+05 -5.175381E+03 -3.357751E+05  7.885727E+03 -7.220129E+03
        92   6 -7.855381E+02  1.280379E+05 -1.024768E+03 -3.559043E+05 -5.650505E+02 -4.567784E+03
        92   7 -1.582083E+05 -4.636255E+05 -1.544534E+05 -3.635039E+05  3.650231E+03 -3.531820E+04
        92   8 -8.444625E+04 -2.034928E+05 -7.592509E+04 -3.397969E+05  7.882397E+03 -2.186641E+03
        92   9 -2.048429E+04  4.994321E+04 -2.143357E+04 -3.563544E+05 -5.930112E+02  3.095989E+04
        92  10  1.353469E+05  7.199113E+05  1.300597E+05 -3.483082E+05  2.897072E-09  1.341082E-08
        92  11  7.673567E+04  4.610825E+05  6.556769E+04 -3.317510E+05  8.729026E-09  1.613724E-09
        92  12  1.891298E+04  2.061391E+05  1.938526E+04 -3.554541E+05  4.236516E-09 -1.029196E-08
        92  13 -1.141823E+04  1.279819E+05 -1.218562E+04 -3.559097E+05  6.260002E-09 -1.965330E-11
        92  14 -3.851767E+03  1.287429E+05 -5.175596E+03 -3.357751E+05  8.877287E-09  2.103868E-10
        92  15 -7.855440E+02  1.280379E+05 -1.024808E+03 -3.559043E+05  2.147881E-09 -7.286534E-11
        92  16 -1.582086E+05 -4.636269E+05 -1.544558E+05 -3.635038E+05  1.845726E-09 -1.367067E-08
        92  17 -8.444632E+04 -2.034928E+05 -7.592522E+04 -3.397969E+05  5.012110E-09 -1.642263E-09
        92  18 -2.048455E+04  4.994218E+04 -2.143537E+04 -3.563544E+05 -3.142520E-10  1.062018E-08
        92  19  1.353470E+05  7.199116E+05  1.300602E+05 -3.483081E+05 -3.613791E+03 -1.559907E+04
        92  20  7.673577E+04  4.610827E+05  6.556809E+04 -3.317511E+05 -7.888991E+03  1.225627E+04
        92  21  1.891342E+04  2.061408E+05  1.938829E+04 -3.554541E+05  5.371440E+02  4.009995E+04
        92  22 -1.141818E+04  1.279820E+05 -1.218541E+04 -3.559097E+05 -3.631693E+03  9.871649E+03
        92  23 -3.851687E+03  1.287429E+05 -5.175381E+03 -3.357751E+05 -7.885727E+03  7.220129E+03
        92  24 -7.855381E+02  1.280379E+05 -1.024768E+03 -3.559043E+05  5.650505E+02  4.567784E+03
        92  25 -1.582083E+05 -4.636255E+05 -1.544534E+05 -3.635039E+05 -3.650231E+03  3.531820E+04
        92  26 -8.444625E+04 -2.034928E+05 -7.592509E+04 -3.397969E+05 -7.882397E+03  2.186641E+03
        92  27 -2.048429E+04  4.994321E+04 -2.143357E+04 -3.563544E+05  5.930112E+02 -3.095989E+04
        93   1 -1.750976E+04  4.709450E+04 -4.182526E+03 -3.554872E+05 -9.857399E+03 -4.089694E+04
        93   2 -7.543064E+04 -2.096421E+05 -4.217219E+04 -3.337908E+05 -2.408952E+04 -3.890731E+04
        93   3 -1.324334E+05 -4.663349E+05 -8.122997E+04 -3.530816E+05 -3.653418E+04 -3.691591E+04
        93   4 -2.440454E+02  1.285238E+05  7.177132E+02 -3.560648E+05 -9.885730E+03 -4.604858E+03
        93   5  1.483919E+03  1.281332E+05  4.590078E+03 -3.355707E+05 -2.411132E+04 -6.912323E+03
        93   6  4.877374E+03  1.284644E+05  1.037403E+04 -3.560619E+05 -3.655001E+04 -9.217248E+03
        93   7  1.702223E+04  2.099632E+05  5.623235E+03 -3.566425E+05 -9.914125E+03  3.169162E+04
        93   8  7.839400E+04  4.660265E+05  5.135486E+04 -3.373517E+05 -2.413329E+04  2.509930E+04
        93   9  1.421714E+05  7.236192E+05  1.019730E+05 -3.590450E+05 -3.656609E+04  1.850695E+04
        93  10 -1.751032E+04  4.709268E+04 -4.185853E+03 -3.554875E+05  2.730185E-09  1.493592E-08
        93  11 -7.543167E+04 -2.096438E+05 -4.217613E+04 -3.337915E+05  2.547731E-09  1.666145E-08
        93  12 -1.324352E+05 -4.663367E+05 -8.123505E+04 -3.530827E+05 -2.205401E-11  1.675513E-08
        93  13 -2.441561E+02  1.285238E+05  7.174896E+02 -3.560648E+05 -2.582980E-09  2.004091E-11
        93  14  1.483282E+03  1.281330E+05  4.588895E+03 -3.355709E+05 -8.247900E-09  2.373941E-10
        93  15  4.875916E+03  1.284640E+05  1.037136E+04 -3.560621E+05 -1.641147E-08 -3.796047E-11
        93  16  1.702186E+04  2.099621E+05  5.621164E+03 -3.566423E+05  1.677834E-09 -1.484123E-08
        93  17  7.839321E+04  4.660257E+05  5.135259E+04 -3.373512E+05  2.201437E-09 -1.632132E-08
        93  18  1.421699E+05  7.236185E+05  1.019699E+05 -3.590445E+05  1.036479E-08 -1.663533E-08
        93  19 -1.750976E+04  4.709450E+04 -4.182526E+03 -3.554872E+05  9.857399E+03  4.089694E+04
        93  20 -7.543064E+04 -2.096421E+05 -4.217219E+04 -3.337908E+05  2.408952E+04  3.890731E+04
        93  21 -1.324334E+05 -4.663349E+05 -8.122997E+04 -3.530816E+05  3.653418E+04  3.691591E+04
        93  22 -2.440454E+02  1.285238E+05  7.177132E+02 -3.560648E+05  9.885730E+03  4.604858E+03
        93  23  1.483919E+03  1.281332E+05  4.590078E+03 -3.355707E+05  2.411132E+04  6.912323E+03
        93  24  4.877374E+03  1.284644E+05  1.037403E+04 -3.560619E+05  3.655001E+04  9.217248E+03
        93  25  1.702223E+04  2.099632E+05  5.623235E+03 -3.566425E+05  9.914125E+03 -3.169162E+04
        93  26  7.839400E+04  4.660265E+05  5.135486E+04 -3.373517E+05  2.413329E+04 -2.509930E+04
        93  27  1.421714E+05  7.236192E+05  1.019730E+05 -3.590450E+05  3.656609E+04 -1.850695E+04
        94   1 -1.684158E+05 -6.252042E+05 -1.055629E+05 -3.533967E+05 -4.405197E+04 -3.679343E+04
        94   2 -2.199921E+05 -8.801312E+05 -1.591660E+05 -3.172035E+05 -4.173233E+04  1.206926E+04
        94   3 -2.615048E+05 -1.138767E+06 -2.420762E+05 -3.201690E+05 -1.323286E+04  6.090046E+04
        94   4  6.634522E+03  1.298472E+05  1.438654E+04 -3.556533E+05 -4.406346E+04 -1.106029E+04
        94   5  1.868511E+04  1.261998E+05  2.733364E+04 -3.360699E+05 -4.170832E+04 -2.495878E+04
        94   6  5.168973E+04  1.296732E+05  5.457319E+04 -3.556357E+05 -1.319558E+04 -3.886737E+04
        94   7  1.816568E+05  8.854677E+05  1.343239E+05 -3.579124E+05 -4.407512E+04  1.470304E+04
        94   8  2.573064E+05  1.133517E+06  2.137961E+05 -3.549673E+05 -4.168208E+04 -6.204532E+04
        94   9  3.647801E+05  1.399622E+06  3.511512E+05 -3.911750E+05 -1.314698E+04 -1.388379E+05
        94  10 -1.684183E+05 -6.252062E+05 -1.055691E+05 -3.533981E+05  5.966622E-09 -2.285638E-09
        94  11 -2.199941E+05 -8.801318E+05 -1.591695E+05 -3.172031E+05  1.212970E-08 -1.320273E-08
        94  12 -2.615060E+05 -1.138771E+06 -2.420835E+05 -3.201683E+05  3.702387E-09 -2.198496E-08
        94  13  6.632404E+03  1.298466E+05  1.438266E+04 -3.556536E+05 -1.236639E-08  1.275565E-10
        94  14  1.868307E+04  1.261987E+05  2.732919E+04 -3.360707E+05 -9.492308E-09 -1.328515E-10
        94  15  5.168914E+04  1.296716E+05  5.457002E+04 -3.556361E+05 -2.593820E-09 -1.671845E-12
        94  16  1.816547E+05  8.854670E+05  1.343199E+05 -3.579118E+05  5.777974E-09  2.373371E-09
        94  17  2.573035E+05  1.133512E+06  2.137856E+05 -3.549694E+05 -6.895514E-12  1.370849E-08
        94  18  3.647748E+05  1.399601E+06  3.511147E+05 -3.911764E+05 -1.494320E-09  2.206118E-08
        94  19 -1.684158E+05 -6.252042E+05 -1.055629E+05 -3.533967E+05  4.405197E+04  3.679343E+04
        94  20 -2.199921E+05 -8.801312E+05 -1.591660E+05 -3.172035E+05  4.173233E+04 -1.206926E+04
        94  21 -2.615048E+05 -1.138767E+06 -2.420762E+05 -3.201690E+05  1.323286E+04 -6.090046E+04
        94  22  6.634522E+03  1.298472E+05  1.438654E+04 -3.556533E+05  4.406346E+04  1.106029E+04
        94  23  1.868511E+04  1.261998E+05  2.733364E+04 -3.360699E+05  4.170832E+04  2.495878E+04
        94  24  5.168973E+04  1.296732E+05  5.457319E+04 -3.556357E+05  1.319558E+04  3.886737E+04
        94  25  1.816568E+05  8.854677E+05  1.343239E+05 -3.579124E+05  4.407512E+04 -1.470304E+04
        94  26  2.573064E+05  1.133517E+06  2.137961E+05 -3.549673E+05  4.168208E+04  6.204532E+04
        94  27  3.647801E+05  1.399622E+06  3.511512E+05 -3.911750E+05  1.314698E+04  1.388379E+05
        95   1 -2.739179E+05 -1.645118E+05 -1.139200E+05 -1.084834E+05 -5.145117E+04 -1.614672E+04
        95   2 -2.536695E+05 -9.506949E+04 -6.754098E+04 -1.010453E+05 -3.261839E+04 -2.298654E+03
        95   3 -2.472455E+05 -7.420268E+04 -4.866286E+04 -8.884369E+04 -1.172777E+04  6.067188E+03
        95   4 -1.024172E+05 -7.421425E+04 -6.371615E+04 -3.503401E+04 -4.189266E+04 -1.256430E+04
        95   5 -9.261083E+04 -2.570040E+04 -2.828203E+04 -4.672442E+04 -2.909157E+04 -9.768491E+02
        95   6 -9.542963E+04 -2.456161E+04 -1.556534E+04 -5.365339E+04 -1.423345E+04  5.127570E+03
        95   7  6.911222E+04  1.609375E+04 -1.351516E+04  3.843576E+04 -3.233137E+04 -8.979823E+03
        95   8  6.847354E+04  4.367304E+04  1.097489E+04  7.610089E+03 -2.556376E+04  3.454631E+02
        95   9  5.641003E+04  2.508026E+04  1.753102E+04 -1.845560E+04 -1.673980E+04  4.187764E+03
        95  10 -2.739208E+05 -1.645127E+05 -1.139255E+05 -1.084841E+05 -1.023545E-09 -8.255166E-10
        95  11 -2.536706E+05 -9.506978E+04 -6.754299E+04 -1.010454E+05 -1.660839E-08 -3.343215E-09
        95  12 -2.472456E+05 -7.420275E+04 -4.866318E+04 -8.884363E+04 -2.467837E-08 -9.106091E-09
        95  13 -1.024191E+05 -7.421489E+04 -6.371975E+04 -3.503443E+04 -8.829870E-09  2.511477E-10
        95  14 -9.261174E+04 -2.570063E+04 -2.828363E+04 -4.672444E+04  2.395191E-09 -2.526000E-09
        95  15 -9.542985E+04 -2.456169E+04 -1.556577E+04 -5.365333E+04 -1.688520E-08 -1.087237E-08
        95  16  6.911108E+04  1.609338E+04 -1.351728E+04  3.843553E+04  5.303383E-10  3.688038E-09
        95  17  6.847283E+04  4.367287E+04  1.097367E+04  7.610096E+03 -2.062113E-10  8.112331E-09
        95  18  5.640972E+04  2.508016E+04  1.753046E+04 -1.845555E+04  5.444205E-09  4.532843E-09
        95  19 -2.739179E+05 -1.645118E+05 -1.139200E+05 -1.084834E+05  5.145117E+04  1.614672E+04
        95  20 -2.536695E+05 -9.506949E+04 -6.754098E+04 -1.010453E+05  3.261839E+04  2.298654E+03
        95  21 -2.472455E+05 -7.420268E+04 -4.866286E+04 -8.884369E+04  1.172777E+04 -6.067188E+03
        95  22 -1.024172E+05 -7.421425E+04 -6.371615E+04 -3.503401E+04  4.189266E+04  1.256430E+04
        95  23 -9.261083E+04 -2.570040E+04 -2.828203E+04 -4.672442E+04  2.909157E+04  9.768491E+02
        95  24 -9.542963E+04 -2.456161E+04 -1.556534E+04 -5.365339E+04  1.423345E+04 -5.127570E+03
        95  25  6.911222E+04  1.609375E+04 -1.351516E+04  3.843576E+04  3.233137E+04  8.979823E+03
        95  26  6.847354E+04  4.367304E+04  1.097489E+04  7.610089E+03  2.556376E+04 -3.454631E+02
        95  27  5.641003E+04  2.508026E+04  1.753102E+04 -1.845560E+04  1.673980E+04 -4.187764E+03
        96   1 -2.239426E+05 -7.692923E+04 -4.172763E+04 -8.802447E+04 -1.085616E+04  5.069117E+03
        96   2 -2.048155E+05 -6.378128E+04 -3.092305E+04 -7.916658E+04 -6.938205E+03  5.289106E+03
        96   3 -1.815364E+05 -5.806933E+04 -2.327628E+04 -7.607860E+04 -2.918525E+03  5.237630E+03
        96   4 -9.342706E+04 -2.804286E+04 -1.213047E+04 -5.135438E+04 -1.191338E+04  4.672562E+03
        96   5 -9.537974E+04 -2.327229E+04 -6.359202E+03 -4.887471E+04 -8.293604E+03  4.780861E+03
        96   6 -9.312145E+04 -2.587840E+04 -3.508969E+03 -5.216518E+04 -4.572221E+03  4.617668E+03
        96   7  3.710474E+04  2.084461E+04  1.746536E+04 -1.467741E+04 -1.297083E+04  4.275916E+03
        96   8  1.406804E+04  1.723765E+04  1.820389E+04 -1.857795E+04 -9.649262E+03  4.272517E+03
        96   9 -4.698106E+03  6.313295E+03  1.625802E+04 -2.824851E+04 -6.226182E+03  3.997610E+03
        96  10 -2.239427E+05 -7.692928E+04 -4.172790E+04 -8.802442E+04  1.619558E-10  1.025727E-09
        96  11 -2.048155E+05 -6.378133E+04 -3.092320E+04 -7.916655E+04 -5.984668E-09  5.604086E-09
        96  12 -1.815364E+05 -5.806936E+04 -2.327635E+04 -7.607859E+04 -9.449288E-09  5.901059E-09
        96  13 -9.342722E+04 -2.804292E+04 -1.213078E+04 -5.135433E+04 -1.364040E-08 -1.318255E-08
        96  14 -9.537982E+04 -2.327233E+04 -6.359374E+03 -4.887468E+04 -4.153374E-10 -9.135505E-09
        96  15 -9.312148E+04 -2.587842E+04 -3.509048E+03 -5.216516E+04 -1.906889E-10 -6.289092E-09
        96  16  3.710455E+04  2.084455E+04  1.746501E+04 -1.467736E+04 -1.662911E-08 -7.427556E-09
        96  17  1.406793E+04  1.723760E+04  1.820368E+04 -1.857792E+04 -3.453353E-09 -4.127426E-09
        96  18 -4.698152E+03  6.313268E+03  1.625791E+04 -2.824849E+04  3.233734E-09  1.239938E-09
        96  19 -2.239426E+05 -7.692923E+04 -4.172763E+04 -8.802447E+04  1.085616E+04 -5.069117E+03
        96  20 -2.048155E+05 -6.378128E+04 -3.092305E+04 -7.916658E+04  6.938205E+03 -5.289106E+03
        96  21 -1.815364E+05 -5.806933E+04 -2.327628E+04 -7.607860E+04  2.918525E+03 -5.237630E+03
        96  22 -9.342706E+04 -2.804286E+04 -1.213047E+04 -5.135438E+04  1.191338E+04 -4.672562E+03
        96  23 -9.537974E+04 -2.327229E+04 -6.359202E+03 -4.887471E+04  8.293604E+03 -4.780861E+03
        96  24 -9.312145E+04 -2.587840E+04 -3.508969E+03 -5.216518E+04  4.572221E+03 -4.617668E+03
        96  25  3.710474E+04  2.084461E+04  1.746536E+04 -1.467741E+04  1.297083E+04 -4.275916E+03
        96  26  1.406804E+04  1.723765E+04  1.820389E+04 -1.857795E+04  9.649262E+03 -4.272517E+03
        96  27 -4.698106E+03  6.313295E+03  1.625802E+04 -2.824851E+04  6.226182E+03 -3.997610E+03
        97   1 -1.651589E+05 -5.255066E+04 -1.872013E+04 -7.184599E+04 -2.170263E+03  4.530190E+03
        97   2 -1.462948E+05 -4.188066E+04 -1.278163E+04 -6.286954E+04 -8.871933E+02  3.364258E+03
        97   3 -1.221874E+05 -3.669420E+04 -7.420185E+03 -6.006377E+04  4.008698E+02  2.184736E+03
        97   4 -9.297057E+04 -2.602504E+04 -2.652132E+03 -5.204092E+04 -3.752579E+03  3.937032E+03
        97   5 -9.558809E+04 -2.324941E+04 -1.456445E+03 -4.896864E+04 -2.484384E+03  2.765577E+03
        97   6 -9.295988E+04 -2.595428E+04 -8.259364E+02 -5.206711E+04 -1.211227E+03  1.580524E+03
        97   7 -2.077696E+04  5.009733E+02  1.341555E+04 -3.223376E+04 -5.335094E+03  3.343800E+03
        97   8 -4.487898E+04 -4.618030E+03  9.868539E+03 -3.506674E+04 -4.081711E+03  2.166845E+03
        97   9 -6.373164E+04 -1.521438E+04  5.768216E+03 -4.407014E+04 -2.823396E+03  9.762856E+02
        97  10 -1.651589E+05 -5.255068E+04 -1.872018E+04 -7.184598E+04  6.658988E-10  8.360238E-09
        97  11 -1.462948E+05 -4.188067E+04 -1.278165E+04 -6.286954E+04  1.394461E-08  5.002258E-09
        97  12 -1.221874E+05 -3.669420E+04 -7.420195E+03 -6.006378E+04  8.686353E-09  2.536974E-09
        97  13 -9.297059E+04 -2.602506E+04 -2.652187E+03 -5.204091E+04  9.686705E-09 -5.253941E-09
        97  14 -9.558810E+04 -2.324942E+04 -1.456471E+03 -4.896863E+04  4.373944E-09 -2.581272E-09
        97  15 -9.295988E+04 -2.595429E+04 -8.259439E+02 -5.206710E+04  5.233146E-09  1.059692E-09
        97  16 -2.077699E+04  5.009537E+02  1.341548E+04 -3.223374E+04 -7.090445E-09 -1.056848E-09
        97  17 -4.487900E+04 -4.618040E+03  9.868499E+03 -3.506674E+04 -9.412536E-09 -6.750179E-11
        97  18 -6.373165E+04 -1.521438E+04  5.768199E+03 -4.407014E+04 -4.756102E-09  2.285585E-09
        97  19 -1.651589E+05 -5.255066E+04 -1.872013E+04 -7.184599E+04  2.170263E+03 -4.530190E+03
        97  20 -1.462948E+05 -4.188066E+04 -1.278163E+04 -6.286954E+04  8.871933E+02 -3.364258E+03
        97  21 -1.221874E+05 -3.669420E+04 -7.420185E+03 -6.006377E+04 -4.008698E+02 -2.184736E+03
        97  22 -9.297057E+04 -2.602504E+04 -2.652132E+03 -5.204092E+04  3.752579E+03 -3.937032E+03
        97  23 -9.558809E+04 -2.324941E+04 -1.456445E+03 -4.896864E+04  2.484384E+03 -2.765577E+03
        97  24 -9.295988E+04 -2.595428E+04 -8.259364E+02 -5.206711E+04  1.211227E+03 -1.580524E+03
        97  25 -2.077696E+04  5.009733E+02  1.341555E+04 -3.223376E+04  5.335094E+03 -3.343800E+03
        97  26 -4.487898E+04 -4.618030E+03  9.868539E+03 -3.506674E+04  4.081711E+03 -2.166845E+03
        97  27 -6.373164E+04 -1.521438E+04  5.768216E+03 -4.407014E+04  2.823396E+03 -9.762856E+02
        98   1 -1.061754E+05 -3.079826E+04 -3.522541E+03 -5.567991E+04  8.381581E+02  1.377126E+03
        98   2 -8.736638E+04 -2.021384E+04  1.437661E+03 -4.668671E+04  1.589407E+03 -8.021920E+00
        98   3 -6.320985E+04 -1.501370E+04  6.245283E+03 -4.386439E+04  2.340885E+03 -1.393740E+03
        98   4 -9.294088E+04 -2.595805E+04 -6.387835E+02 -5.205776E+04 -7.704855E+02  7.742221E+02
        98   5 -9.561444E+04 -2.326708E+04 -4.073212E+02 -4.897170E+04 -1.990400E+01 -6.111897E+02
        98   6 -9.294126E+04 -2.596048E+04 -3.280343E+02 -5.205686E+04  7.308976E+02 -1.997170E+03
        98   7 -7.970610E+04 -2.111778E+04  2.244999E+03 -4.843551E+04 -2.379177E+03  1.713002E+02
        98   8 -1.038625E+05 -2.632031E+04 -2.252304E+03 -5.125666E+04 -1.629197E+03 -1.214351E+03
        98   9 -1.226718E+05 -3.690721E+04 -6.901397E+03 -6.024896E+04 -8.790072E+02 -2.600569E+03
        98  10 -1.061754E+05 -3.079826E+04 -3.522546E+03 -5.567991E+04  5.230178E-09  1.793629E-09
        98  11 -8.736639E+04 -2.021384E+04  1.437656E+03 -4.668671E+04  8.325396E-09 -3.013784E-09
        98  12 -6.320986E+04 -1.501370E+04  6.245269E+03 -4.386439E+04  6.458640E-09 -3.055555E-09
        98  13 -9.294088E+04 -2.595805E+04 -6.387857E+02 -5.205776E+04 -4.467964E-09  6.373129E-10
        98  14 -9.561444E+04 -2.326708E+04 -4.073219E+02 -4.897170E+04 -7.356890E-09 -3.375903E-09
        98  15 -9.294127E+04 -2.596049E+04 -3.280428E+02 -5.205686E+04 -9.187533E-09 -2.952726E-09
        98  16 -7.970610E+04 -2.111778E+04  2.244988E+03 -4.843551E+04 -1.203172E-08 -5.508280E-10
        98  17 -1.038625E+05 -2.632032E+04 -2.252312E+03 -5.125666E+04 -7.062012E-09 -4.246869E-09
        98  18 -1.226718E+05 -3.690721E+04 -6.901411E+03 -6.024896E+04 -8.675180E-09 -2.732694E-09
        98  19 -1.061754E+05 -3.079826E+04 -3.522541E+03 -5.567991E+04 -8.381581E+02 -1.377126E+03
        98  20 -8.736638E+04 -2.021384E+04  1.437661E+03 -4.668671E+04 -1.589407E+03  8.021920E+00
        98  21 -6.320985E+04 -1.501370E+04  6.245283E+03 -4.386439E+04 -2.340885E+03  1.393740E+03
        98  22 -9.294088E+04 -2.595805E+04 -6.387835E+02 -5.205776E+04  7.704855E+02 -7.742221E+02
        98  23 -9.561444E+04 -2.326708E+04 -4.073212E+02 -4.897170E+04  1.990400E+01  6.111897E+02
        98  24 -9.294126E+04 -2.596048E+04 -3.280343E+02 -5.205686E+04 -7.308976E+02  1.997170E+03
        98  25 -7.970610E+04 -2.111778E+04  2.244999E+03 -4.843551E+04  2.379177E+03 -1.713002E+02
        98  26 -1.038625E+05 -2.632031E+04 -2.252304E+03 -5.125666E+04  1.629197E+03  1.214351E+03
        98  27 -1.226718E+05 -3.690721E+04 -6.901397E+03 -6.024896E+04  8.790072E+02  2.600569E+03
        99   1 -4.723021E+04 -9.103469E+03  9.950941E+03 -3.947711E+04  2.714977E+03 -2.224168E+03
        99   2 -2.842424E+04  1.480835E+03  1.457680E+04 -3.048522E+04  3.477852E+03 -3.605234E+03
        99   3 -4.273151E+03  6.681168E+03  1.904149E+04 -2.766304E+04  4.240422E+03 -4.985168E+03
        99   4 -9.294219E+04 -2.596052E+04 -3.327913E+02 -5.205670E+04  1.105016E+03 -2.827610E+03
        99   5 -9.561477E+04 -2.326853E+04 -4.340486E+02 -4.897188E+04  1.869060E+03 -4.208304E+03
        99   6 -9.294294E+04 -2.596076E+04 -6.973931E+02 -5.205693E+04  2.632795E+03 -5.587873E+03
        99   7 -1.386518E+05 -4.281731E+04 -1.061657E+04 -6.463537E+04 -5.048059E+02 -3.431000E+03
        99   8 -1.628008E+05 -4.801756E+04 -1.544518E+04 -6.745671E+04  2.604577E+02 -4.811304E+03
        99   9 -1.816054E+05 -5.860231E+04 -2.043692E+04 -7.644778E+04  1.025406E+03 -6.190488E+03
        99  10 -4.723022E+04 -9.103477E+03  9.950918E+03 -3.947710E+04  6.185470E-09 -3.951961E-10
        99  11 -2.842425E+04  1.480818E+03  1.457676E+04 -3.048521E+04 -9.216925E-09  2.659735E-09
        99  12 -4.273177E+03  6.681136E+03  1.904141E+04 -2.766302E+04  1.659141E-09  2.519671E-09
        99  13 -9.294219E+04 -2.596053E+04 -3.328086E+02 -5.205670E+04  4.572646E-09 -6.001344E-10
        99  14 -9.561478E+04 -2.326855E+04 -4.340885E+02 -4.897188E+04 -6.281390E-10  1.966133E-09
        99  15 -9.294295E+04 -2.596080E+04 -6.974648E+02 -5.205692E+04 -5.124380E-10  1.804668E-09
        99  16 -1.386518E+05 -4.281732E+04 -1.061659E+04 -6.463537E+04 -3.495195E-09 -4.196766E-10
        99  17 -1.628008E+05 -4.801758E+04 -1.544522E+04 -6.745671E+04  2.618709E-09  7.712875E-10
        99  18 -1.816054E+05 -5.860235E+04 -2.043699E+04 -7.644778E+04  1.182488E-09  6.882764E-10
        99  19 -4.723021E+04 -9.103469E+03  9.950941E+03 -3.947711E+04 -2.714977E+03  2.224168E+03
        99  20 -2.842424E+04  1.480835E+03  1.457680E+04 -3.048522E+04 -3.477852E+03  3.605234E+03
        99  21 -4.273151E+03  6.681168E+03  1.904149E+04 -2.766304E+04 -4.240422E+03  4.985168E+03
        99  22 -9.294219E+04 -2.596052E+04 -3.327913E+02 -5.205670E+04 -1.105016E+03  2.827610E+03
        99  23 -9.561477E+04 -2.326853E+04 -4.340486E+02 -4.897188E+04 -1.869060E+03  4.208304E+03
        99  24 -9.294294E+04 -2.596076E+04 -6.973931E+02 -5.205693E+04 -2.632795E+03  5.587873E+03
        99  25 -1.386518E+05 -4.281731E+04 -1.061657E+04 -6.463537E+04  5.048059E+02  3.431000E+03
        99  26 -1.628008E+05 -4.801756E+04 -1.544518E+04 -6.745671E+04 -2.604577E+02  4.811304E+03
        99  27 -1.816054E+05 -5.860231E+04 -2.043692E+04 -7.644778E+04 -1.025406E+03  6.190488E+03
       100   1  1.169156E+04  1.258204E+04  2.254054E+04 -2.329981E+04  4.697365E+03 -5.785192E+03
       100   2  3.053481E+04  2.317472E+04  2.656902E+04 -1.429797E+04  6.024141E+03 -6.946860E+03
       100   3  5.461310E+04  2.828213E+04  2.999040E+04 -1.146238E+04  7.344053E+03 -8.089567E+03
       100   4 -9.296516E+04 -2.595674E+04 -9.066023E+02 -5.206682E+04  3.085145E+03 -6.389680E+03
       100   5 -9.558723E+04 -2.325252E+04 -1.606903E+03 -4.896882E+04  4.432573E+03 -7.543733E+03
       100   6 -9.297865E+04 -2.603779E+04 -2.930717E+03 -5.203736E+04  5.773104E+03 -8.678831E+03
       100   7 -1.976108E+05 -6.449468E+04 -2.435443E+04 -8.082938E+04  1.473219E+03 -6.994058E+03
       100   8 -2.216928E+05 -6.967839E+04 -2.978371E+04 -8.363311E+04  2.841361E+03 -8.140473E+03
       100   9 -2.405475E+05 -8.035568E+04 -3.585292E+04 -9.260325E+04  4.202570E+03 -9.267939E+03
       100  10  1.169153E+04  1.258200E+04  2.254044E+04 -2.329979E+04  5.315638E-09  7.486293E-10
       100  11  3.053476E+04  2.317466E+04  2.656887E+04 -1.429793E+04  3.217330E-09  1.157486E-10
       100  12  5.461303E+04  2.828205E+04  2.999017E+04 -1.146233E+04  7.552971E-10  2.002185E-10
       100  13 -9.296519E+04 -2.595679E+04 -9.066969E+02 -5.206680E+04 -3.465848E-10  7.575186E-10
       100  14 -9.558726E+04 -2.325258E+04 -1.607047E+03 -4.896879E+04 -8.880249E-09  5.449024E-10
       100  15 -9.297871E+04 -2.603788E+04 -2.930922E+03 -5.203731E+04 -8.237254E-09  6.220274E-10
       100  16 -1.976109E+05 -6.449474E+04 -2.435452E+04 -8.082937E+04  5.131164E-10  1.083636E-09
       100  17 -2.216928E+05 -6.967846E+04 -2.978385E+04 -8.363309E+04 -3.925780E-10  1.306495E-09
       100  18 -2.405475E+05 -8.035578E+04 -3.585312E+04 -9.260322E+04 -5.685108E-09  9.558075E-10
       100  19  1.169156E+04  1.258204E+04  2.254054E+04 -2.329981E+04 -4.697365E+03  5.785192E+03
       100  20  3.053481E+04  2.317472E+04  2.656902E+04 -1.429797E+04 -6.024141E+03  6.946860E+03
       100  21  5.461310E+04  2.828213E+04  2.999040E+04 -1.146238E+04 -7.344053E+03  8.089567E+03
       100  22 -9.296516E+04 -2.595674E+04 -9.066023E+02 -5.206682E+04 -3.085145E+03  6.389680E+03
       100  23 -9.558723E+04 -2.325252E+04 -1.606903E+03 -4.896882E+04 -4.432573E+03  7.543733E+03
       100  24 -9.297865E+04 -2.603779E+04 -2.930717E+03 -5.203736E+04 -5.773104E+03  8.678831E+03
       100  25 -1.976108E+05 -6.449468E+04 -2.435443E+04 -8.082938E+04 -1.473219E+03  6.994058E+03
       100  26 -2.216928E+05 -6.967839E+04 -2.978371E+04 -8.363311E+04 -2.841361E+03  8.140473E+03
       100  27 -2.405475E+05 -8.035568E+04 -3.585292E+04 -9.260325E+04 -4.202570E+03  9.267939E+03
       101   1  7.068790E+04  3.408262E+04  3.273459E+04 -7.517031E+03  8.316377E+03 -8.718570E+03
       101   2  8.942051E+04  4.503427E+04  3.439955E+04  2.214425E+03  1.195094E+04 -8.870474E+03
       101   3  1.123184E+05  4.849045E+04  3.316303E+04  6.232018E+03  1.544535E+04 -8.647427E+03
       101   4 -9.314609E+04 -2.587450E+04 -3.878303E+03 -5.217244E+04  6.646947E+03 -9.344856E+03
       101   5 -9.535736E+04 -2.328315E+04 -7.030928E+03 -4.886673E+04  1.069323E+04 -9.342539E+03
       101   6 -9.348609E+04 -2.826975E+04 -1.341201E+04 -5.127544E+04  1.459922E+04 -8.965261E+03
       101   7 -2.569541E+05 -8.583008E+04 -4.049318E+04 -9.681740E+04  4.977984E+03 -9.970970E+03
       101   8 -2.801015E+05 -9.159816E+04 -4.846375E+04 -9.993413E+04  9.435917E+03 -9.814454E+03
       101   9 -2.992480E+05 -1.050265E+05 -5.998982E+04 -1.087654E+05  1.375339E+04 -9.282980E+03
       101  10  7.068780E+04  3.408252E+04  3.273432E+04 -7.516973E+03  1.438027E-09 -3.639416E-10
       101  11  8.942034E+04  4.503414E+04  3.439914E+04  2.214511E+03  2.939823E-09 -1.004099E-09
       101  12  1.123181E+05  4.849031E+04  3.316244E+04  6.232126E+03  7.520416E-09 -1.017547E-09
       101  13 -9.314616E+04 -2.587461E+04 -3.878550E+03 -5.217239E+04 -4.461519E-09  6.259153E-10
       101  14 -9.535751E+04 -2.328328E+04 -7.031307E+03 -4.886665E+04  2.050216E-09  3.731168E-10
       101  15 -9.348634E+04 -2.826989E+04 -1.341257E+04 -5.127534E+04  6.892543E-09 -1.303460E-09
       101  16 -2.569542E+05 -8.583019E+04 -4.049341E+04 -9.681736E+04 -9.560645E-09  1.802103E-09
       101  17 -2.801016E+05 -9.159829E+04 -4.846409E+04 -9.993406E+04 -2.308333E-09  2.029218E-09
       101  18 -2.992483E+05 -1.050267E+05 -5.999034E+04 -1.087653E+05  3.440864E-09 -1.206912E-09
       101  19  7.068790E+04  3.408262E+04  3.273459E+04 -7.517031E+03 -8.316377E+03  8.718570E+03
       101  20  8.942051E+04  4.503427E+04  3.439955E+04  2.214425E+03 -1.195094E+04  8.870474E+03
       101  21  1.123184E+05  4.849045E+04  3.316303E+04  6.232018E+03 -1.544535E+04  8.647427E+03
       101  22 -9.314609E+04 -2.587450E+04 -3.878303E+03 -5.217244E+04 -6.646947E+03  9.344856E+03
       101  23 -9.535736E+04 -2.328315E+04 -7.030928E+03 -4.886673E+04 -1.069323E+04  9.342539E+03
       101  24 -9.348609E+04 -2.826975E+04 -1.341201E+04 -5.127544E+04 -1.459922E+04  8.965261E+03
       101  25 -2.569541E+05 -8.583008E+04 -4.049318E+04 -9.681740E+04 -4.977984E+03  9.970970E+03
       101  26 -2.801015E+05 -9.159816E+04 -4.846375E+04 -9.993413E+04 -9.435917E+03  9.814454E+03
       101  27 -2.992480E+05 -1.050265E+05 -5.998982E+04 -1.087654E+05 -1.375339E+04  9.282980E+03
       102   1  1.319868E+05  5.255943E+04  3.278154E+04  1.623648E+03  2.000860E+04 -8.394359E+03
       102   2  1.432051E+05  7.199145E+04  2.542097E+04  2.938197E+04  2.785085E+04 -4.079846E+03
       102   3  1.414868E+05  4.134829E+04 -4.528955E+02  6.314165E+04  3.285354E+04  7.801571E+03
       102   4 -9.571215E+04 -2.440936E+04 -1.720986E+04 -5.380309E+04  1.716254E+04 -9.462385E+03
       102   5 -9.228343E+04 -2.598505E+04 -3.127112E+04 -4.650740E+04  3.333278E+04 -2.023728E+03
       102   6 -1.034485E+05 -7.929794E+04 -7.044862E+04 -3.320951E+04  4.666248E+04  1.298246E+04
       102   7 -3.233588E+05 -1.013761E+05 -6.720428E+04 -1.092121E+05  1.431762E+04 -1.053007E+04
       102   8 -3.277138E+05 -1.239523E+05 -8.796645E+04 -1.223683E+05  3.881241E+04  3.128412E+01
       102   9 -3.483183E+05 -1.999242E+05 -1.404478E+05 -1.295202E+05  6.046523E+04  1.815941E+04
       102  10  1.319864E+05  5.255924E+04  3.278066E+04  1.623784E+03  5.558614E-09 -9.353022E-10
       102  11  1.432043E+05  7.199123E+04  2.541948E+04  2.938206E+04 -5.488422E-09  5.710349E-10
       102  12  1.414856E+05  4.134794E+04 -4.550376E+02  6.314145E+04  9.054354E-10 -3.491591E-10
       102  13 -9.571249E+04 -2.440953E+04 -1.721058E+04 -5.380296E+04  5.270274E-09 -2.578731E-09
       102  14 -9.228462E+04 -2.598535E+04 -3.127322E+04 -4.650734E+04 -5.736450E-09 -2.244949E-09
       102  15 -1.034508E+05 -7.929870E+04 -7.045303E+04 -3.321000E+04 -6.781889E-09 -3.773939E-10
       102  16 -3.233590E+05 -1.013763E+05 -6.720488E+04 -1.092119E+05  1.879362E-10 -3.366700E-09
       102  17 -3.277154E+05 -1.239527E+05 -8.796929E+04 -1.223683E+05  1.429903E-09 -4.248402E-09
       102  18 -3.483224E+05 -1.999255E+05 -1.404553E+05 -1.295211E+05  1.040413E-09 -1.005154E-09
       102  19  1.319868E+05  5.255943E+04  3.278154E+04  1.623648E+03 -2.000860E+04  8.394359E+03
       102  20  1.432051E+05  7.199145E+04  2.542097E+04  2.938197E+04 -2.785085E+04  4.079846E+03
       102  21  1.414868E+05  4.134829E+04 -4.528955E+02  6.314165E+04 -3.285354E+04 -7.801571E+03
       102  22 -9.571215E+04 -2.440936E+04 -1.720986E+04 -5.380309E+04 -1.716254E+04  9.462385E+03
       102  23 -9.228343E+04 -2.598505E+04 -3.127112E+04 -4.650740E+04 -3.333278E+04  2.023728E+03
       102  24 -1.034485E+05 -7.929794E+04 -7.044862E+04 -3.320951E+04 -4.666248E+04 -1.298246E+04
       102  25 -3.233588E+05 -1.013761E+05 -6.720428E+04 -1.092121E+05 -1.431762E+04  1.053007E+04
       102  26 -3.277138E+05 -1.239523E+05 -8.796645E+04 -1.223683E+05 -3.881241E+04 -3.128412E+01
       102  27 -3.483183E+05 -1.999242E+05 -1.404478E+05 -1.295202E+05 -6.046523E+04 -1.815941E+04
       103   1  9.947851E+05  1.704552E+05  1.515768E+05  1.389357E+04  3.904885E+04 -1.317862E+04
       103   2  9.503432E+05  1.929195E+05  1.304893E+05  3.081727E+04  1.449468E+04 -4.531343E+04
       103   3  9.034836E+05  1.927200E+05  1.197308E+05  5.480283E+04 -1.006621E+04 -5.693105E+04
       103   4  5.382251E+04 -6.111463E+04 -6.618122E+04  5.350764E+04 -4.644785E+04 -1.323510E+04
       103   5  5.864066E+04 -1.793656E+04 -3.280808E+04  4.995160E+04 -2.959335E+04 -4.535413E+04
       103   6  5.384600E+04 -4.627425E+03 -1.784971E+04  5.345708E+04 -1.274760E+04 -5.694083E+04
       103   7 -8.863038E+05 -2.927368E+05 -2.839701E+05  9.306114E+04 -1.318161E+05 -1.330253E+04
       103   8 -8.322856E+05 -2.288352E+05 -1.961303E+05  6.905758E+04 -7.361979E+04 -4.539758E+04
       103   9 -7.950763E+05 -2.020114E+05 -1.554501E+05  5.211304E+04 -1.542545E+04 -5.695061E+04
       103  10  9.947834E+05  1.704546E+05  1.515736E+05  1.389399E+04  1.203209E-07  7.153045E-10
       103  11  9.503425E+05  1.929172E+05  1.304850E+05  3.081780E+04 -1.827327E-09  6.397262E-10
       103  12  9.034827E+05  1.927165E+05  1.197245E+05  5.480237E+04 -1.287795E-07 -7.581471E-10
       103  13  5.382015E+04 -6.111540E+04 -6.618560E+04  5.350714E+04  2.799114E-11  1.436926E-09
       103  14  5.863917E+04 -1.793900E+04 -3.281359E+04  4.995052E+04 -6.477784E-11  1.709168E-09
       103  15  5.384495E+04 -4.630950E+03 -1.785611E+04  5.345649E+04  6.126461E-10  1.475820E-09
       103  16 -8.863225E+05 -2.927416E+05 -2.840031E+05  9.305973E+04 -1.242868E-07  1.060596E-09
       103  17 -8.322920E+05 -2.288389E+05 -1.961444E+05  6.905489E+04  4.383143E-09  3.254256E-10
       103  18 -7.950774E+05 -2.020150E+05 -1.554566E+05  5.211233E+04  1.385932E-07 -7.784012E-10
       103  19  9.947851E+05  1.704552E+05  1.515768E+05  1.389357E+04 -3.904885E+04  1.317862E+04
       103  20  9.503432E+05  1.929195E+05  1.304893E+05  3.081727E+04 -1.449468E+04  4.531343E+04
       103  21  9.034836E+05  1.927200E+05  1.197308E+05  5.480283E+04  1.006621E+04  5.693105E+04
       103  22  5.382251E+04 -6.111463E+04 -6.618122E+04  5.350764E+04  4.644785E+04  1.323510E+04
       103  23  5.864066E+04 -1.793656E+04 -3.280808E+04  4.995160E+04  2.959335E+04  4.535413E+04
       103  24  5.384600E+04 -4.627425E+03 -1.784971E+04  5.345708E+04  1.274760E+04  5.694083E+04
       103  25 -8.863038E+05 -2.927368E+05 -2.839701E+05  9.306114E+04  1.318161E+05  1.330253E+04
       103  26 -8.322856E+05 -2.288352E+05 -1.961303E+05  6.905758E+04  7.361979E+04  4.539758E+04
       103  27 -7.950763E+05 -2.020114E+05 -1.554501E+05  5.211304E+04  1.542545E+04  5.695061E+04
       104   1  8.754910E+05  1.859469E+05  1.165759E+05  5.245525E+04 -7.276005E+03 -5.700231E+04
       104   2  8.301242E+05  1.773447E+05  1.106747E+05  4.939096E+04 -8.254887E+03 -5.742146E+04
       104   3  7.845779E+05  1.674166E+05  1.050873E+05  5.482826E+04 -9.237008E+03 -5.553559E+04
       104   4  5.577142E+04 -3.902695E+03 -1.343443E+04  5.378072E+04 -1.043570E+04 -5.701266E+04
       104   5  5.627708E+04 -9.414878E+02 -7.331675E+03  4.952723E+04 -6.765971E+03 -5.742668E+04
       104   6  5.579452E+04 -1.139164E+02 -4.142653E+03  5.377605E+04 -3.099465E+03 -5.553421E+04
       104   7 -7.632801E+05 -1.937857E+05 -1.434618E+05  5.510419E+04 -1.359137E+04 -5.702303E+04
       104   8 -7.169710E+05 -1.792565E+05 -1.253508E+05  4.966315E+04 -5.278833E+03 -5.743191E+04
       104   9 -6.724561E+05 -1.676695E+05 -1.133829E+05  5.272494E+04  3.031170E+03 -5.553286E+04
       104  10  8.754901E+05  1.859434E+05  1.165697E+05  5.245491E+04 -3.835740E-08 -4.199982E-10
       104  11  8.301232E+05  1.773412E+05  1.106683E+05  4.939058E+04  6.873712E-09  5.935169E-09
       104  12  7.845770E+05  1.674132E+05  1.050813E+05  5.482785E+04  4.494310E-08  6.356003E-09
       104  13  5.577043E+04 -3.906215E+03 -1.344074E+04  5.378024E+04 -4.309359E-09 -1.849172E-09
       104  14  5.627614E+04 -9.450414E+02 -7.337958E+03  4.952692E+04 -1.548453E-10 -5.661612E-09
       104  15  5.579368E+04 -1.172308E+02 -4.148467E+03  5.377591E+04  2.716440E-09 -1.435516E-08
       104  16 -7.632811E+05 -1.937893E+05 -1.434683E+05  5.510356E+04  3.503375E-08  1.480355E-09
       104  17 -7.169719E+05 -1.792600E+05 -1.253570E+05  4.966290E+04  8.854573E-10  4.161671E-09
       104  18 -6.724569E+05 -1.676728E+05 -1.133887E+05  5.272507E+04 -4.531142E-08  4.184921E-09
       104  19  8.754910E+05  1.859469E+05  1.165759E+05  5.245525E+04  7.276005E+03  5.700231E+04
       104  20  8.301242E+05  1.773447E+05  1.106747E+05  4.939096E+04  8.254887E+03  5.742146E+04
       104  21  7.845779E+05  1.674166E+05  1.050873E+05  5.482826E+04  9.237008E+03  5.553559E+04
       104  22  5.577142E+04 -3.902695E+03 -1.343443E+04  5.378072E+04  1.043570E+04  5.701266E+04
       104  23  5.627708E+04 -9.414878E+02 -7.331675E+03  4.952723E+04  6.765971E+03  5.742668E+04
       104  24  5.579452E+04 -1.139164E+02 -4.142653E+03  5.377605E+04  3.099465E+03  5.553421E+04
       104  25 -7.632801E+05 -1.937857E+05 -1.434618E+05  5.510419E+04  1.359137E+04  5.702303E+04
       104  26 -7.169710E+05 -1.792565E+05 -1.253508E+05  4.966315E+04  5.278833E+03  5.743191E+04
       104  27 -6.724561E+05 -1.676695E+05 -1.133829E+05  5.272494E+04 -3.031170E+03  5.553286E+04
       105   1  7.559664E+05  1.607344E+05  1.013257E+05  5.461426E+04 -8.558069E+03 -5.368672E+04
       105   2  7.105694E+05  1.503656E+05  9.545404E+04  5.028573E+04 -8.202220E+03 -5.054374E+04
       105   3  6.651248E+05  1.399698E+05  8.934578E+04  5.461452E+04 -7.848092E+03 -4.714210E+04
       105   4  5.599071E+04 -8.535033E+01 -3.134926E+03  5.381105E+04 -2.475287E+03 -5.368459E+04
       105   5  5.607086E+04  7.978225E+01 -1.772734E+03  4.948196E+04 -1.598527E+03 -5.053958E+04
       105   6  5.601075E+04  1.275137E+02 -1.009249E+03  5.381073E+04 -7.234644E+02 -4.713577E+04
       105   7 -6.434932E+05 -1.609282E+05 -1.076048E+05  5.300860E+04  3.600920E+03 -5.368247E+04
       105   8 -5.979974E+05 -1.502261E+05 -9.900736E+04  4.867891E+04  4.998492E+03 -5.053543E+04
       105   9 -5.527305E+05 -1.397321E+05 -9.137098E+04  5.300761E+04  6.394463E+03 -4.712946E+04
       105  10  7.559656E+05  1.607313E+05  1.013201E+05  5.461389E+04 -3.860037E-08  5.702538E-09
       105  11  7.105687E+05  1.503628E+05  9.544911E+04  5.028539E+04 -4.370231E-09  2.095538E-09
       105  12  6.651242E+05  1.399674E+05  8.934149E+04  5.461422E+04  2.757547E-08 -1.612135E-09
       105  13  5.598993E+04 -8.844686E+01 -3.140354E+03  5.381094E+04 -5.323979E-11 -1.613100E-08
       105  14  5.607017E+04  7.703868E+01 -1.777539E+03  4.948189E+04 -6.653188E-09 -7.550928E-09
       105  15  5.601015E+04  1.251277E+02 -1.013425E+03  5.381070E+04 -4.234172E-09 -9.600151E-10
       105  16 -6.434940E+05 -1.609313E+05 -1.076102E+05  5.300875E+04  4.349098E-08  3.989197E-09
       105  17 -5.979981E+05 -1.502288E+05 -9.901221E+04  4.867911E+04  2.433674E-09  2.046866E-09
       105  18 -5.527311E+05 -1.397345E+05 -9.137523E+04  5.300785E+04 -2.359389E-08 -7.278547E-10
       105  19  7.559664E+05  1.607344E+05  1.013257E+05  5.461426E+04  8.558069E+03  5.368672E+04
       105  20  7.105694E+05  1.503656E+05  9.545404E+04  5.028573E+04  8.202220E+03  5.054374E+04
       105  21  6.651248E+05  1.399698E+05  8.934578E+04  5.461452E+04  7.848092E+03  4.714210E+04
       105  22  5.599071E+04 -8.535033E+01 -3.134926E+03  5.381105E+04  2.475287E+03  5.368459E+04
       105  23  5.607086E+04  7.978225E+01 -1.772734E+03  4.948196E+04  1.598527E+03  5.053958E+04
       105  24  5.601075E+04  1.275137E+02 -1.009249E+03  5.381073E+04  7.234644E+02  4.713577E+04
       105  25 -6.434932E+05 -1.609282E+05 -1.076048E+05  5.300860E+04 -3.600920E+03  5.368247E+04
       105  26 -5.979974E+05 -1.502261E+05 -9.900736E+04  4.867891E+04 -4.998492E+03  5.053543E+04
       105  27 -5.527305E+05 -1.397321E+05 -9.137098E+04  5.300761E+04 -6.394463E+03  4.712946E+04
       106   1  6.364826E+05  1.333511E+05  8.513904E+04  5.457449E+04 -7.684236E+03 -4.507832E+04
       106   2  5.910895E+05  1.229336E+05  7.877603E+04  5.019536E+04 -7.534004E+03 -4.153623E+04
       106   3  5.456755E+05  1.125505E+05  7.232054E+04  5.448730E+04 -7.384993E+03 -3.796533E+04
       106   4  5.604087E+04  1.295524E+02 -7.623575E+02  5.381381E+04 -5.663979E+02 -4.507123E+04
       106   5  5.606596E+04  1.283462E+02 -4.285990E+02  4.947805E+04 -3.585068E+02 -4.152786E+04
       106   6  5.605730E+04  1.513868E+02 -2.278004E+02  5.381379E+04 -1.518285E+02 -3.795566E+04
       106   7 -5.240621E+05 -1.331077E+05 -8.666974E+04  5.305373E+04  6.545063E+03 -4.506415E+04
       106   8 -4.786697E+05 -1.226903E+05 -7.963830E+04  4.876126E+04  6.811063E+03 -4.151950E+04
       106   9 -4.333199E+05 -1.122590E+05 -7.278036E+04  5.314072E+04  7.075868E+03 -3.794601E+04
       106  10  6.364819E+05  1.333489E+05  8.513511E+04  5.457421E+04  4.789427E-09 -3.248532E-09
       106  11  5.910889E+05  1.229317E+05  7.877269E+04  5.019511E+04  2.856227E-10  2.087335E-09
       106  12  5.456750E+05  1.125490E+05  7.231772E+04  5.448708E+04  2.510104E-09  4.862918E-09
       106  13  5.604032E+04  1.273709E+02 -7.661757E+02  5.381379E+04 -4.296362E-09 -1.772371E-09
       106  14  5.606550E+04  1.264942E+02 -4.318401E+02  4.947804E+04 -1.309507E-08  1.708900E-09
       106  15  5.605692E+04  1.498397E+02 -2.305077E+02  5.381378E+04 -1.126140E-08  2.979222E-10
       106  16 -5.240627E+05 -1.331099E+05 -8.667364E+04  5.305396E+04 -8.603419E-09 -1.444012E-09
       106  17 -4.786703E+05 -1.226921E+05 -7.964162E+04  4.876148E+04 -1.059811E-09 -2.212123E-09
       106  18 -4.333203E+05 -1.122605E+05 -7.278316E+04  5.314094E+04 -2.756115E-09 -2.359098E-09
       106  19  6.364826E+05  1.333511E+05  8.513904E+04  5.457449E+04  7.684236E+03  4.507832E+04
       106  20  5.910895E+05  1.229336E+05  7.877603E+04  5.019536E+04  7.534004E+03  4.153623E+04
       106  21  5.456755E+05  1.125505E+05  7.232054E+04  5.448730E+04  7.384993E+03  3.796533E+04
       106  22  5.604087E+04  1.295524E+02 -7.623575E+02  5.381381E+04  5.663979E+02  4.507123E+04
       106  23  5.606596E+04  1.283462E+02 -4.285990E+02  4.947805E+04  3.585068E+02  4.152786E+04
       106  24  5.605730E+04  1.513868E+02 -2.278004E+02  5.381379E+04  1.518285E+02  3.795566E+04
       106  25 -5.240621E+05 -1.331077E+05 -8.666974E+04  5.305373E+04 -6.545063E+03  4.506415E+04
       106  26 -4.786697E+05 -1.226903E+05 -7.963830E+04  4.876126E+04 -6.811063E+03  4.151950E+04
       106  27 -4.333199E+05 -1.122590E+05 -7.278036E+04  5.314072E+04 -7.075868E+03  3.794601E+04
       107   1  5.170341E+05  1.059454E+05  6.797162E+04  5.445945E+04 -7.351380E+03 -3.587780E+04
       107   2  4.716527E+05  9.553661E+04  6.144194E+04  5.007516E+04 -7.335958E+03 -3.229153E+04
       107   3  4.262542E+05  8.516335E+04  5.490349E+04  5.436628E+04 -7.321451E+03 -2.870232E+04
       107   4  5.606562E+04  1.560948E+02 -1.590645E+02  5.381474E+04 -1.195104E+02 -3.586752E+04
       107   5  5.608177E+04  1.484449E+02 -5.358416E+01  4.947686E+04 -9.837306E+01 -3.228030E+04
       107   6  5.607839E+04  1.755884E+02  3.921005E+01  5.381472E+04 -7.815040E+01 -2.869015E+04
       107   7 -4.046892E+05 -1.056431E+05 -6.829342E+04  5.317042E+04  7.107213E+03 -3.585724E+04
       107   8 -3.593155E+05 -9.524777E+04 -6.155208E+04  4.887889E+04  7.134567E+03 -3.226908E+04
       107   9 -3.139596E+05 -8.481857E+04 -5.482741E+04  5.326343E+04  7.161010E+03 -2.867799E+04
       107  10  5.170337E+05  1.059440E+05  6.796910E+04  5.445924E+04  7.066445E-08  3.918535E-09
       107  11  4.716524E+05  9.553548E+04  6.143988E+04  5.007497E+04  1.033367E-08  2.235332E-09
       107  12  4.262539E+05  8.516246E+04  5.490184E+04  5.436611E+04 -5.935486E-08  2.982517E-09
       107  13  5.606527E+04  1.547133E+02 -1.614822E+02  5.381473E+04  4.919080E-11  6.776637E-09
       107  14  5.608149E+04  1.473259E+02 -5.554239E+01  4.947685E+04 -1.760311E-10  4.787695E-09
       107  15  5.607817E+04  1.747045E+02  3.766318E+01  5.381472E+04 -6.929967E-09  2.175792E-09
       107  16 -4.046896E+05 -1.056445E+05 -6.829593E+04  5.317062E+04 -7.653927E-08  2.570392E-09
       107  17 -3.593158E+05 -9.524890E+04 -6.155413E+04  4.887907E+04 -1.437458E-08  4.287861E-09
       107  18 -3.139599E+05 -8.481947E+04 -5.482905E+04  5.326360E+04  6.512114E-08  1.189328E-09
       107  19  5.170341E+05  1.059454E+05  6.797162E+04  5.445945E+04  7.351380E+03  3.587780E+04
       107  20  4.716527E+05  9.553661E+04  6.144194E+04  5.007516E+04  7.335958E+03  3.229153E+04
       107  21  4.262542E+05  8.516335E+04  5.490349E+04  5.436628E+04  7.321451E+03  2.870232E+04
       107  22  5.606562E+04  1.560948E+02 -1.590645E+02  5.381474E+04  1.195104E+02  3.586752E+04
       107  23  5.608177E+04  1.484449E+02 -5.358416E+01  4.947686E+04  9.837306E+01  3.228030E+04
       107  24  5.607839E+04  1.755884E+02  3.921005E+01  5.381472E+04  7.815040E+01  2.869015E+04
       107  25 -4.046892E+05 -1.056431E+05 -6.829342E+04  5.317042E+04 -7.107213E+03  3.585724E+04
       107  26 -3.593155E+05 -9.524777E+04 -6.155208E+04  4.887889E+04 -7.134567E+03  3.226908E+04
       107  27 -3.139596E+05 -8.481857E+04 -5.482741E+04  5.326343E+04 -7.161010E+03  2.867799E+04
       108   1  3.976220E+05  7.855994E+04  5.053833E+04  5.433488E+04 -7.335633E+03 -2.661246E+04
       108   2  3.522449E+05  6.815451E+04  4.403096E+04  4.993949E+04 -7.443875E+03 -2.302210E+04
       108   3  3.068626E+05  5.780339E+04  3.759721E+04  5.421678E+04 -7.552758E+03 -1.943217E+04
       108   4  5.608500E+04  1.796987E+02  8.693757E+01  5.381410E+04 -9.287201E+01 -2.659981E+04
       108   5  5.609312E+04  1.729498E+02  2.077700E+02  4.947761E+04 -2.021958E+02 -2.300880E+04
       108   6  5.609410E+04  2.207481E+02  4.028462E+02  5.381404E+04 -3.121674E+02 -1.941821E+04
       108   7 -2.853346E+05 -7.820596E+04 -5.036638E+04  5.329356E+04  7.146070E+03 -2.658718E+04
       108   8 -2.399704E+05 -6.781269E+04 -4.361683E+04  4.901591E+04  7.036172E+03 -2.299550E+04
       108   9 -1.946111E+05 -5.736481E+04 -3.679248E+04  5.341143E+04  6.925619E+03 -1.940425E+04
       108  10  3.976218E+05  7.855916E+04  5.053690E+04  5.433473E+04 -4.293348E-11  5.902706E-09
       108  11  3.522447E+05  6.815393E+04  4.402986E+04  4.993935E+04 -3.824961E-09  4.577355E-09
       108  12  3.068624E+05  5.780297E+04  3.759639E+04  5.421666E+04 -1.042744E-08  7.493641E-09
       108  13  5.608481E+04  1.789389E+02  8.560790E+01  5.381410E+04 -7.610090E-12  2.964321E-09
       108  14  5.609298E+04  1.723813E+02  2.067751E+02  4.947760E+04 -1.533787E-08  3.795444E-09
       108  15  5.609400E+04  2.203432E+02  4.021374E+02  5.381403E+04  5.831394E-11  3.426574E-09
       108  16 -2.853348E+05 -7.820674E+04 -5.036780E+04  5.329371E+04 -2.464520E-09  1.288494E-09
       108  17 -2.399706E+05 -6.781327E+04 -4.361792E+04  4.901604E+04 -5.525130E-09 -6.231504E-09
       108  18 -1.946112E+05 -5.736523E+04 -3.679328E+04  5.341154E+04  4.327688E-10 -7.617233E-10
       108  19  3.976220E+05  7.855994E+04  5.053833E+04  5.433488E+04  7.335633E+03  2.661246E+04
       108  20  3.522449E+05  6.815451E+04  4.403096E+04  4.993949E+04  7.443875E+03  2.302210E+04
       108  21  3.068626E+05  5.780339E+04  3.759721E+04  5.421678E+04  7.552758E+03  1.943217E+04
       108  22  5.608500E+04  1.796987E+02  8.693757E+01  5.381410E+04  9.287201E+01  2.659981E+04
       108  23  5.609312E+04  1.729498E+02  2.077700E+02  4.947761E+04  2.021958E+02  2.300880E+04
       108  24  5.609410E+04  2.207481E+02  4.028462E+02  5.381404E+04  3.121674E+02  1.941821E+04
       108  25 -2.853346E+05 -7.820596E+04 -5.036638E+04  5.329356E+04 -7.146070E+03  2.658718E+04
       108  26 -2.399704E+05 -6.781269E+04 -4.361683E+04  4.901591E+04 -7.036172E+03  2.299550E+04
       108  27 -1.946111E+05 -5.736481E+04 -3.679248E+04  5.341143E+04 -6.925619E+03  1.940425E+04
       109   1  2.782582E+05  5.120259E+04  3.332277E+04  5.420899E+04 -7.637503E+03 -1.734278E+04
       109   2  2.328351E+05  4.089699E+04  2.712097E+04  4.965072E+04 -8.118441E+03 -1.375643E+04
       109   3  1.875167E+05  3.091397E+04  2.130065E+04  5.376286E+04 -8.599716E+03 -1.017566E+04
       109   4  5.612134E+04  2.267196E+02  5.410493E+02  5.381362E+04 -3.971321E+02 -1.732850E+04
       109   5  5.607209E+04  3.203155E+02  9.707905E+02  4.947784E+04 -8.895336E+02 -1.374178E+04
       109   6  5.612675E+04  7.383860E+02  1.789670E+03  5.381259E+04 -1.382304E+03 -1.016065E+04
       109   7 -1.659657E+05 -5.075143E+04 -3.224137E+04  5.341837E+04  6.840755E+03 -1.731423E+04
       109   8 -1.206594E+05 -4.025779E+04 -2.517976E+04  4.930500E+04  6.337400E+03 -1.372713E+04
       109   9 -7.524577E+04 -2.943798E+04 -1.772143E+04  5.386230E+04  5.833643E+03 -1.014563E+04
       109  10  2.782580E+05  5.120225E+04  3.332210E+04  5.420888E+04  3.233107E-09  1.077700E-08
       109  11  2.328350E+05  4.089677E+04  2.712049E+04  4.965063E+04 -1.521033E-09  2.749679E-09
       109  12  1.875166E+05  3.091384E+04  2.130031E+04  5.376278E+04  6.602923E-09  2.571127E-09
       109  13  5.612126E+04  2.263971E+02  5.404847E+02  5.381361E+04 -4.314902E-09  5.778014E-09
       109  14  5.607204E+04  3.201125E+02  9.704341E+02  4.947783E+04 -4.585666E-09  3.592633E-09
       109  15  5.612672E+04  7.382746E+02  1.789472E+03  5.381258E+04  5.440830E-09 -1.785791E-09
       109  16 -1.659659E+05 -5.075176E+04 -3.224202E+04  5.341846E+04  2.967380E-09  2.818598E-09
       109  17 -1.206595E+05 -4.025801E+04 -2.518019E+04  4.930507E+04  6.619085E-10  1.657931E-09
       109  18 -7.524583E+04 -2.943810E+04 -1.772169E+04  5.386235E+04 -9.925713E-09 -5.920216E-09
       109  19  2.782582E+05  5.120259E+04  3.332277E+04  5.420899E+04  7.637503E+03  1.734278E+04
       109  20  2.328351E+05  4.089699E+04  2.712097E+04  4.965072E+04  8.118441E+03  1.375643E+04
       109  21  1.875167E+05  3.091397E+04  2.130065E+04  5.376286E+04  8.599716E+03  1.017566E+04
       109  22  5.612134E+04  2.267196E+02  5.410493E+02  5.381362E+04  3.971321E+02  1.732850E+04
       109  23  5.607209E+04  3.203155E+02  9.707905E+02  4.947784E+04  8.895336E+02  1.374178E+04
       109  24  5.612675E+04  7.383860E+02  1.789670E+03  5.381259E+04  1.382304E+03  1.016065E+04
       109  25 -1.659657E+05 -5.075143E+04 -3.224137E+04  5.341837E+04 -6.840755E+03  1.731423E+04
       109  26 -1.206594E+05 -4.025779E+04 -2.517976E+04  4.930500E+04 -6.337400E+03  1.372713E+04
       109  27 -7.524577E+04 -2.943798E+04 -1.772143E+04  5.386230E+04 -5.833643E+03  1.014563E+04
       110   1  1.591432E+05  2.440380E+04  1.747187E+04  5.407727E+04 -8.912900E+03 -8.091322E+03
       110   2  1.131681E+05  1.574662E+04  1.279714E+04  4.693716E+04 -1.106481E+04 -4.540653E+03
       110   3  6.843438E+04  1.110576E+04  1.051390E+04  4.845954E+04 -1.321665E+04 -1.039195E+03
       110   4  5.638429E+04  8.353937E+02  2.380151E+03  5.381229E+04 -1.694624E+03 -8.076143E+03
       110   5  5.575653E+04  2.594527E+03  4.376941E+03  4.947327E+04 -3.945870E+03 -4.525604E+03
       110   6  5.638588E+04  8.387571E+03  8.834261E+03  5.379661E+04 -6.197177E+03 -1.024299E+03
       110   7 -4.636391E+04 -2.273347E+04 -1.271156E+04  5.354734E+04  5.522507E+03 -8.060968E+03
       110   8 -1.651597E+03 -1.055766E+04 -4.043121E+03  5.200912E+04  3.172442E+03 -4.510496E+03
       110   9  4.433769E+04  5.669505E+03  7.154817E+03  5.913357E+04  8.221693E+02 -1.009282E+03
       110  10  1.591431E+05  2.440371E+04  1.747160E+04  5.407721E+04  1.687273E-09  4.561221E-10
       110  11  1.131680E+05  1.574656E+04  1.279687E+04  4.693712E+04 -2.177220E-09 -2.525236E-09
       110  12  6.843419E+04  1.110572E+04  1.051357E+04  4.845953E+04  2.218693E-10 -6.546010E-10
       110  13  5.638427E+04  8.353229E+02  2.380023E+03  5.381228E+04  8.654541E-09  2.704554E-09
       110  14  5.575651E+04  2.594501E+03  4.376873E+03  4.947325E+04 -3.056037E-10 -6.026600E-09
       110  15  5.638584E+04  8.387559E+03  8.834187E+03  5.379660E+04  4.399291E-09  2.952075E-09
       110  16 -4.636396E+04 -2.273355E+04 -1.271174E+04  5.354738E+04 -1.902681E-09 -2.231403E-09
       110  17 -1.651613E+03 -1.055769E+04 -4.043178E+03  5.200913E+04 -1.263925E-08 -3.631654E-09
       110  18  4.433769E+04  5.669503E+03  7.154814E+03  5.913357E+04  3.444415E-09 -1.267217E-09
       110  19  1.591432E+05  2.440380E+04  1.747187E+04  5.407727E+04  8.912900E+03  8.091322E+03
       110  20  1.131681E+05  1.574662E+04  1.279714E+04  4.693716E+04  1.106481E+04  4.540653E+03
       110  21  6.843438E+04  1.110576E+04  1.051390E+04  4.845954E+04  1.321665E+04  1.039195E+03
       110  22  5.638429E+04  8.353937E+02  2.380151E+03  5.381229E+04  1.694624E+03  8.076143E+03
       110  23  5.575653E+04  2.594527E+03  4.376941E+03  4.947327E+04  3.945870E+03  4.525604E+03
       110  24  5.638588E+04  8.387571E+03  8.834261E+03  5.379661E+04  6.197177E+03  1.024299E+03
       110  25 -4.636391E+04 -2.273347E+04 -1.271156E+04  5.354734E+04 -5.522507E+03  8.060968E+03
       110  26 -1.651597E+03 -1.055766E+04 -4.043121E+03  5.200912E+04 -3.172442E+03  4.510496E+03
       110  27  4.433769E+04  5.669505E+03  7.154817E+03  5.913357E+04 -8.221693E+02  1.009282E+03
       111   1 -3.424636E+04  2.422458E+05 -3.137984E+04  9.531844E+03 -2.296997E+03 -3.170405E+03
       111   2 -3.591798E+04  2.602067E+05 -2.695302E+04  9.255121E+03 -7.319788E+03 -5.797605E+02
       111   3 -3.216816E+04  2.791980E+05 -2.285611E+04  1.468980E+04 -7.884147E+03  2.013395E+03
       111   4  7.790247E+03  4.118830E+05  9.253255E+03  1.377603E+04 -2.301336E+03  5.359809E+03
       111   5  6.222102E+02  4.109149E+05  5.105159E+03  1.091849E+04 -7.321214E+03  2.705523E+03
       111   6 -2.149588E+02  4.118862E+05  4.267716E+03  1.377220E+04 -7.883169E+03  5.360156E+01
       111   7  4.982488E+04  5.815469E+05  4.988460E+04  1.802138E+04 -2.305559E+03  1.389234E+04
       111   8  3.716094E+04  5.616445E+05  3.716208E+04  1.258228E+04 -7.322622E+03  5.991592E+03
       111   9  3.173714E+04  5.445911E+05  3.139062E+04  1.285441E+04 -7.882186E+03 -1.906603E+03
       111  10 -3.424637E+04  2.422457E+05 -3.137987E+04  9.531838E+03 -6.475557E-09 -1.906475E-10
       111  11 -3.591804E+04  2.602067E+05 -2.695312E+04  9.255118E+03 -1.138353E-08 -1.192662E-10
       111  12 -3.216822E+04  2.791979E+05 -2.285623E+04  1.468981E+04  4.963647E-09  2.091761E-09
       111  13  7.790234E+03  4.118830E+05  9.253191E+03  1.377604E+04  4.443779E-09 -7.226779E-10
       111  14  6.221507E+02  4.109149E+05  5.105044E+03  1.091851E+04 -2.653030E-09  8.557847E-11
       111  15 -2.150256E+02  4.118862E+05  4.267600E+03  1.377220E+04  1.403692E-09  4.098451E-11
       111  16  4.982482E+04  5.815466E+05  4.988423E+04  1.802141E+04 -2.200655E-09  4.535364E-10
       111  17  3.716088E+04  5.616444E+05  3.716191E+04  1.258232E+04 -1.092677E-09 -1.580608E-09
       111  18  3.173707E+04  5.445911E+05  3.139050E+04  1.285440E+04 -1.580342E-09 -2.301649E-09
       111  19 -3.424636E+04  2.422458E+05 -3.137984E+04  9.531844E+03  2.296997E+03  3.170405E+03
       111  20 -3.591798E+04  2.602067E+05 -2.695302E+04  9.255121E+03  7.319788E+03  5.797605E+02
       111  21 -3.216816E+04  2.791980E+05 -2.285611E+04  1.468980E+04  7.884147E+03 -2.013395E+03
       111  22  7.790247E+03  4.118830E+05  9.253255E+03  1.377603E+04  2.301336E+03 -5.359809E+03
       111  23  6.222102E+02  4.109149E+05  5.105159E+03  1.091849E+04  7.321214E+03 -2.705523E+03
       111  24 -2.149588E+02  4.118862E+05  4.267716E+03  1.377220E+04  7.883169E+03 -5.360156E+01
       111  25  4.982488E+04  5.815469E+05  4.988460E+04  1.802138E+04  2.305559E+03 -1.389234E+04
       111  26  3.716094E+04  5.616445E+05  3.716208E+04  1.258228E+04  7.322622E+03 -5.991592E+03
       111  27  3.173714E+04  5.445911E+05  3.139062E+04  1.285441E+04  7.882186E+03  1.906603E+03
       112   1 -2.849669E+04  2.923979E+05 -2.002261E+04  1.345684E+04 -7.005375E+03  2.143522E+02
       112   2 -2.422009E+04  3.104343E+05 -1.492814E+04  1.094518E+04 -6.124088E+03 -2.246558E+03
       112   3 -1.847925E+04  3.291656E+05 -7.864081E+03  1.436096E+04 -4.967748E+03 -4.707540E+03
       112   4  2.247188E+02  4.116225E+05  4.408309E+03  1.382098E+04 -7.004909E+03 -6.594727E+02
       112   5  3.524637E+01  4.112474E+05  5.575532E+03  1.085752E+04 -6.123542E+03 -3.444379E+03
       112   6  1.366120E+03  4.116231E+05  8.937064E+03  1.382143E+04 -4.967142E+03 -6.229287E+03
       112   7  2.894524E+04  5.308606E+05  2.883848E+04  1.418519E+04 -7.004443E+03 -1.533462E+03
       112   8  2.428995E+04  5.120702E+05  2.607868E+04  1.076984E+04 -6.122996E+03 -4.642390E+03
       112   9  2.121107E+04  4.940870E+05  2.573786E+04  1.328183E+04 -4.966534E+03 -7.751233E+03
       112  10 -2.849675E+04  2.923979E+05 -2.002270E+04  1.345684E+04  4.569230E-09  2.265843E-08
       112  11 -2.422014E+04  3.104343E+05 -1.492822E+04  1.094517E+04 -4.480422E-09  4.625869E-09
       112  12 -1.847929E+04  3.291656E+05 -7.864169E+03  1.436094E+04 -4.127326E-09 -1.384113E-08
       112  13  2.246660E+02  4.116225E+05  4.408216E+03  1.382097E+04 -5.149912E-09 -4.744606E-10
       112  14  3.520292E+01  4.112474E+05  5.575439E+03  1.085750E+04 -2.846670E-09  2.357016E-10
       112  15  1.366083E+03  4.116230E+05  8.936945E+03  1.382141E+04 -7.202970E-09 -1.240715E-10
       112  16  2.894519E+04  5.308606E+05  2.883838E+04  1.418518E+04 -9.557655E-09 -2.244264E-08
       112  17  2.428991E+04  5.120702E+05  2.607857E+04  1.076982E+04 -1.021217E-08 -6.001027E-09
       112  18  2.121103E+04  4.940869E+05  2.573770E+04  1.328180E+04 -1.827141E-09  1.362052E-08
       112  19 -2.849669E+04  2.923979E+05 -2.002261E+04  1.345684E+04  7.005375E+03 -2.143522E+02
       112  20 -2.422009E+04  3.104343E+05 -1.492814E+04  1.094518E+04  6.124088E+03  2.246558E+03
       112  21 -1.847925E+04  3.291656E+05 -7.864081E+03  1.436096E+04  4.967748E+03  4.707540E+03
       112  22  2.247188E+02  4.116225E+05  4.408309E+03  1.382098E+04  7.004909E+03  6.594727E+02
       112  23  3.524637E+01  4.112474E+05  5.575532E+03  1.085752E+04  6.123542E+03  3.444379E+03
       112  24  1.366120E+03  4.116231E+05  8.937064E+03  1.382143E+04  4.967142E+03  6.229287E+03
       112  25  2.894524E+04  5.308606E+05  2.883848E+04  1.418519E+04  7.004443E+03  1.533462E+03
       112  26  2.428995E+04  5.120702E+05  2.607868E+04  1.076984E+04  6.122996E+03  4.642390E+03
       112  27  2.121107E+04  4.940870E+05  2.573786E+04  1.328183E+04  4.966534E+03  7.751233E+03
       113   1 -1.765208E+04  3.441157E+05 -2.857738E+03  9.610160E+03 -4.284608E+03 -6.465878E+03
       113   2 -9.367324E+03  3.583888E+05  8.570246E+03  1.818931E+04 -2.840048E+03 -1.568068E+04
       113   3  2.672355E+04  3.808177E+05  3.294798E+04  3.273922E+04 -7.308370E+02 -2.489538E+04
       113   4 -1.023511E+03  4.133001E+05  1.114799E+04  1.382803E+04 -4.284157E+03 -7.771195E+03
       113   5  2.888363E+03  4.091513E+05  1.907837E+04  1.084910E+04 -2.839136E+03 -1.776901E+04
       113   6  3.474074E+04  4.132936E+05  4.050163E+04  1.384059E+04 -7.291482E+02 -2.776650E+04
       113   7  1.560483E+04  4.824891E+05  2.515349E+04  1.804637E+04 -4.283725E+03 -9.076655E+03
       113   8  1.514409E+04  4.599163E+05  2.958640E+04  3.508275E+03 -2.838176E+03 -1.985751E+04
       113   9  4.275920E+04  4.457713E+05  4.805542E+04 -5.059034E+03 -7.272848E+02 -3.063776E+04
       113  10 -1.765211E+04  3.441157E+05 -2.857851E+03  9.610138E+03 -1.150682E-10  2.502166E-09
       113  11 -9.367399E+03  3.583885E+05  8.569769E+03  1.818928E+04  6.490316E-09 -4.680942E-09
       113  12  2.672339E+04  3.808170E+05  3.294682E+04  3.273921E+04  5.382122E-10 -9.884666E-09
       113  13 -1.023547E+03  4.133000E+05  1.114784E+04  1.382800E+04  1.993691E-09 -4.287174E-10
       113  14  2.888270E+03  4.091509E+05  1.907776E+04  1.084906E+04  2.713580E-09  1.488637E-10
       113  15  3.474053E+04  4.132928E+05  4.050018E+04  1.384057E+04 -6.016331E-09 -1.273917E-10
       113  16  1.560479E+04  4.824890E+05  2.515330E+04  1.804634E+04  6.333918E-10 -2.296572E-09
       113  17  1.514398E+04  4.599159E+05  2.958564E+04  3.508229E+03  9.656694E-09  3.353016E-09
       113  18  4.275895E+04  4.457702E+05  4.805366E+04 -5.059052E+03  7.360455E-09  9.652722E-09
       113  19 -1.765208E+04  3.441157E+05 -2.857738E+03  9.610160E+03  4.284608E+03  6.465878E+03
       113  20 -9.367324E+03  3.583888E+05  8.570246E+03  1.818931E+04  2.840048E+03  1.568068E+04
       113  21  2.672355E+04  3.808177E+05  3.294798E+04  3.273922E+04  7.308370E+02  2.489538E+04
       113  22 -1.023511E+03  4.133001E+05  1.114799E+04  1.382803E+04  4.284157E+03  7.771195E+03
       113  23  2.888363E+03  4.091513E+05  1.907837E+04  1.084910E+04  2.839136E+03  1.776901E+04
       113  24  3.474074E+04  4.132936E+05  4.050163E+04  1.384059E+04  7.291482E+02  2.776650E+04
       113  25  1.560483E+04  4.824891E+05  2.515349E+04  1.804637E+04  4.283725E+03  9.076655E+03
       113  26  1.514409E+04  4.599163E+05  2.958640E+04  3.508275E+03  2.838176E+03  1.985751E+04
       113  27  4.275920E+04  4.457713E+05  4.805542E+04 -5.059034E+03  7.272848E+02  3.063776E+04
       114   1  1.064100E+06  3.855696E+05  1.995152E+05  3.933651E+05  7.884205E+04  1.744676E+04
       114   2  1.012499E+06  3.434901E+05  1.407645E+05  3.765677E+05  5.109441E+04 -2.187343E+04
       114   3  9.639426E+05  3.211525E+05  1.131073E+05  3.656895E+05  1.674359E+04 -4.359341E+04
       114   4  3.439604E+05  1.081353E+05  1.468730E+04  1.879507E+05  1.357359E+04 -7.082979E+03
       114   5  3.449925E+05  9.599744E+04  6.930824E+03  1.871026E+05  1.950236E+04 -3.375388E+04
       114   6  3.424118E+05  9.694627E+04  3.624754E+03  1.921722E+05  1.881906E+04 -4.281811E+04
       114   7 -3.756349E+05 -1.692421E+05 -1.701568E+05 -1.723462E+04 -5.160950E+04 -3.157853E+04
       114   8 -3.220369E+05 -1.514462E+05 -1.269160E+05 -2.168425E+03 -1.205259E+04 -4.561991E+04
       114   9 -2.787100E+05 -1.272223E+05 -1.058696E+05  1.881704E+04  2.089232E+04 -4.204365E+04
       114  10  1.064094E+06  3.855676E+05  1.995030E+05  3.933640E+05  3.391206E-10  1.069137E-09
       114  11  1.012496E+06  3.434889E+05  1.407587E+05  3.765686E+05  6.321129E-09  1.035911E-09
       114  12  9.639418E+05  3.211504E+05  1.131032E+05  3.656901E+05  3.068814E-09 -3.186425E-10
       114  13  3.439602E+05  1.081352E+05  1.468686E+04  1.879508E+05  4.618880E-09  1.481569E-09
       114  14  3.449918E+05  9.599611E+04  6.927968E+03  1.871031E+05 -2.274762E-09 -5.261919E-10
       114  15  3.424109E+05  9.694420E+04  3.620642E+03  1.921729E+05  6.461438E-09 -9.083650E-10
       114  16 -3.756380E+05 -1.692439E+05 -1.701636E+05 -1.723593E+04  9.217485E-09 -8.022718E-10
       114  17 -3.220376E+05 -1.514485E+05 -1.269202E+05 -2.168868E+03 -5.514803E-09 -3.713763E-09
       114  18 -2.787109E+05 -1.272243E+05 -1.058737E+05  1.881774E+04  3.469146E-09 -2.263874E-09
       114  19  1.064100E+06  3.855696E+05  1.995152E+05  3.933651E+05 -7.884205E+04 -1.744676E+04
       114  20  1.012499E+06  3.434901E+05  1.407645E+05  3.765677E+05 -5.109441E+04  2.187343E+04
       114  21  9.639426E+05  3.211525E+05  1.131073E+05  3.656895E+05 -1.674359E+04  4.359341E+04
       114  22  3.439604E+05  1.081353E+05  1.468730E+04  1.879507E+05 -1.357359E+04  7.082979E+03
       114  23  3.449925E+05  9.599744E+04  6.930824E+03  1.871026E+05 -1.950236E+04  3.375388E+04
       114  24  3.424118E+05  9.694627E+04  3.624754E+03  1.921722E+05 -1.881906E+04  4.281811E+04
       114  25 -3.756349E+05 -1.692421E+05 -1.701568E+05 -1.723462E+04  5.160950E+04  3.157853E+04
       114  26 -3.220369E+05 -1.514462E+05 -1.269160E+05 -2.168425E+03  1.205259E+04  4.561991E+04
       114  27 -2.787100E+05 -1.272223E+05 -1.058696E+05  1.881704E+04 -2.089232E+04  4.204365E+04
       115   1  9.290342E+05  3.092560E+05  1.044357E+05  3.570262E+05  1.725209E+04 -4.214686E+04
       115   2  8.809830E+05  2.856421E+05  9.068942E+04  3.385659E+05  1.270679E+04 -4.241063E+04
       115   3  8.264324E+05  2.705741E+05  8.025255E+04  3.285279E+05  7.500535E+03 -4.091951E+04
       115   4  3.418106E+05  9.705422E+04  2.707653E+03  1.922577E+05  1.799683E+04 -4.187157E+04
       115   5  3.453584E+05  9.280575E+04  1.414161E+03  1.881663E+05  1.680946E+04 -4.087144E+04
       115   6  3.417412E+05  9.643968E+04  7.731246E+02  1.924967E+05  1.496053E+04 -3.811566E+04
       115   7 -2.450549E+05 -1.151160E+05 -9.903248E+04  2.763282E+04  1.874082E+04 -4.159658E+04
       115   8 -1.899638E+05 -1.000028E+05 -8.786900E+04  3.788713E+04  2.090840E+04 -3.933366E+04
       115   9 -1.426993E+05 -7.767088E+04 -7.871145E+04  5.656489E+04  2.241436E+04 -3.531412E+04
       115  10  9.290335E+05  3.092540E+05  1.044318E+05  3.570268E+05  2.318537E-09 -3.208155E-09
       115  11  8.809824E+05  2.856401E+05  9.068573E+04  3.385663E+05  7.367708E-09 -4.749875E-09
       115  12  8.264319E+05  2.705723E+05  8.024930E+04  3.285281E+05  6.253688E-09 -2.791853E-09
       115  13  3.418098E+05  9.705225E+04  2.703748E+03  1.922583E+05  9.371365E-09 -1.492509E-09
       115  14  3.453576E+05  9.280388E+04  1.410490E+03  1.881668E+05  3.109110E-10 -9.286491E-09
       115  15  3.417405E+05  9.643806E+04  7.699733E+02  1.924972E+05 -1.294938E-08 -3.646252E-09
       115  16 -2.450557E+05 -1.151180E+05 -9.903639E+04  2.763344E+04 -9.385860E-09 -5.424195E-10
       115  17 -1.899647E+05 -1.000045E+05 -8.787273E+04  3.788779E+04 -9.200986E-09 -1.509096E-09
       115  18 -1.427001E+05 -7.767236E+04 -7.871474E+04  5.656553E+04 -1.131218E-08 -5.750825E-09
       115  19  9.290342E+05  3.092560E+05  1.044357E+05  3.570262E+05 -1.725209E+04  4.214686E+04
       115  20  8.809830E+05  2.856421E+05  9.068942E+04  3.385659E+05 -1.270679E+04  4.241063E+04
       115  21  8.264324E+05  2.705741E+05  8.025255E+04  3.285279E+05 -7.500535E+03  4.091951E+04
       115  22  3.418106E+05  9.705422E+04  2.707653E+03  1.922577E+05 -1.799683E+04  4.187157E+04
       115  23  3.453584E+05  9.280575E+04  1.414161E+03  1.881663E+05 -1.680946E+04  4.087144E+04
       115  24  3.417412E+05  9.643968E+04  7.731246E+02  1.924967E+05 -1.496053E+04  3.811566E+04
       115  25 -2.450549E+05 -1.151160E+05 -9.903248E+04  2.763282E+04 -1.874082E+04  4.159658E+04
       115  26 -1.899638E+05 -1.000028E+05 -8.786900E+04  3.788713E+04 -2.090840E+04  3.933366E+04
       115  27 -1.426993E+05 -7.767088E+04 -7.871145E+04  5.656489E+04 -2.241436E+04  3.531412E+04
       116   1  7.935936E+05  2.588201E+05  7.431017E+04  3.194203E+05  6.660096E+03 -3.859167E+04
       116   2  7.460665E+05  2.366109E+05  6.545550E+04  3.007669E+05  4.695809E+03 -3.486037E+04
       116   3  6.911307E+05  2.220218E+05  5.699373E+04  2.906961E+05  2.665159E+03 -3.095597E+04
       116   4  3.416902E+05  9.646373E+04  5.801065E+02  1.924980E+05  1.398366E+04 -3.583830E+04
       116   5  3.454385E+05  9.269199E+04  3.204757E+02  1.882085E+05  1.235061E+04 -3.198108E+04
       116   6  3.417087E+05  9.647487E+04  1.909903E+02  1.925013E+05  1.065111E+04 -2.795068E+04
       116   7 -1.099896E+05 -6.586976E+04 -7.315285E+04  6.566368E+04  2.130151E+04 -3.308710E+04
       116   8 -5.501762E+04 -5.121040E+04 -6.481777E+04  7.571830E+04  2.000018E+04 -2.910376E+04
       116   9 -7.586431E+03 -2.906093E+04 -5.661519E+04  9.435720E+04  1.863239E+04 -2.494715E+04
       116  10  7.935931E+05  2.588185E+05  7.430729E+04  3.194205E+05  4.403092E-08  2.124222E-08
       116  11  7.460661E+05  2.366096E+05  6.545317E+04  3.007670E+05 -1.479929E-09  1.093038E-08
       116  12  6.911304E+05  2.220208E+05  5.699192E+04  2.906961E+05 -5.437969E-08 -1.219506E-08
       116  13  3.416897E+05  9.646230E+04  5.773248E+02  1.924984E+05 -4.342516E-09  6.315922E-10
       116  14  3.454381E+05  9.269085E+04  3.182666E+02  1.882089E+05  7.765423E-09  6.008807E-09
       116  15  3.417084E+05  9.647400E+04  1.893087E+02  1.925015E+05 -3.559674E-09  1.280016E-08
       116  16 -1.099904E+05 -6.587106E+04 -7.315576E+04  6.566425E+04 -4.765931E-08 -2.197549E-08
       116  17 -5.501828E+04 -5.121142E+04 -6.482011E+04  7.571877E+04  1.730530E-08  6.392487E-09
       116  18 -7.586971E+03 -2.906169E+04 -5.661702E+04  9.435757E+04  5.571085E-08  2.847097E-08
       116  19  7.935936E+05  2.588201E+05  7.431017E+04  3.194203E+05 -6.660096E+03  3.859167E+04
       116  20  7.460665E+05  2.366109E+05  6.545550E+04  3.007669E+05 -4.695809E+03  3.486037E+04
       116  21  6.911307E+05  2.220218E+05  5.699373E+04  2.906961E+05 -2.665159E+03  3.095597E+04
       116  22  3.416902E+05  9.646373E+04  5.801065E+02  1.924980E+05 -1.398366E+04  3.583830E+04
       116  23  3.454385E+05  9.269199E+04  3.204757E+02  1.882085E+05 -1.235061E+04  3.198108E+04
       116  24  3.417087E+05  9.647487E+04  1.909903E+02  1.925013E+05 -1.065111E+04  2.795068E+04
       116  25 -1.099896E+05 -6.586976E+04 -7.315285E+04  6.566368E+04 -2.130151E+04  3.308710E+04
       116  26 -5.501762E+04 -5.121040E+04 -6.481777E+04  7.571830E+04 -2.000018E+04  2.910376E+04
       116  27 -7.586431E+03 -2.906093E+04 -5.661519E+04  9.435720E+04 -1.863239E+04  2.494715E+04
       117   1  6.585305E+05  2.102891E+05  5.141290E+04  2.815611E+05  1.736310E+03 -2.852572E+04
       117   2  6.111331E+05  1.881877E+05  4.317285E+04  2.628957E+05  7.783067E+01 -2.438227E+04
       117   3  5.562331E+05  1.736197E+05  3.500048E+04  2.528100E+05 -1.587176E+03 -2.022363E+04
       117   4  3.417062E+05  9.648202E+04  1.533526E+02  1.924969E+05  9.706153E+03 -2.552584E+04
       117   5  3.454683E+05  9.273024E+04  1.153644E+02  1.882051E+05  8.076573E+03 -2.137064E+04
       117   6  3.417188E+05  9.650570E+04  1.216961E+02  1.924920E+05  6.440462E+03 -1.720025E+04
       117   7  2.498973E+04 -1.731456E+04 -5.110800E+04  1.034752E+05  1.767169E+04 -2.252759E+04
       117   8  7.988068E+04 -2.719294E+03 -4.294290E+04  1.135449E+05  1.607164E+04 -1.836038E+04
       117   9  1.272563E+05  1.939743E+04 -3.475712E+04  1.321942E+05  1.446507E+04 -1.417802E+04
       117  10  6.585303E+05  2.102882E+05  5.141137E+04  2.815612E+05 -4.135888E-09  2.268994E-09
       117  11  6.111330E+05  1.881871E+05  4.317173E+04  2.628957E+05  4.887562E-09  3.007886E-09
       117  12  5.562330E+05  1.736193E+05  3.499970E+04  2.528099E+05 -3.471564E-09  1.668014E-09
       117  13  3.417060E+05  9.648130E+04  1.519509E+02  1.924970E+05 -1.709334E-09  7.352156E-09
       117  14  3.454681E+05  9.272973E+04  1.143834E+02  1.882052E+05 -7.644703E-09  2.483491E-09
       117  15  3.417186E+05  9.650537E+04  1.210620E+02  1.924920E+05 -1.011083E-08 -1.466337E-09
       117  16  2.498926E+04 -1.731519E+04 -5.110954E+04  1.034755E+05 -6.990013E-09  1.236631E-08
       117  17  7.988031E+04 -2.719725E+03 -4.294402E+04  1.135451E+05 -1.045479E-08  1.036930E-09
       117  18  1.272560E+05  1.939715E+04 -3.475789E+04  1.321944E+05 -1.256735E-08 -9.545084E-09
       117  19  6.585305E+05  2.102891E+05  5.141290E+04  2.815611E+05 -1.736310E+03  2.852572E+04
       117  20  6.111331E+05  1.881877E+05  4.317285E+04  2.628957E+05 -7.783067E+01  2.438227E+04
       117  21  5.562331E+05  1.736197E+05  3.500048E+04  2.528100E+05  1.587176E+03  2.022363E+04
       117  22  3.417062E+05  9.648202E+04  1.533526E+02  1.924969E+05 -9.706153E+03  2.552584E+04
       117  23  3.454683E+05  9.273024E+04  1.153644E+02  1.882051E+05 -8.076573E+03  2.137064E+04
       117  24  3.417188E+05  9.650570E+04  1.216961E+02  1.924920E+05 -6.440462E+03  1.720025E+04
       117  25  2.498973E+04 -1.731456E+04 -5.110800E+04  1.034752E+05 -1.767169E+04  2.252759E+04
       117  26  7.988068E+04 -2.719294E+03 -4.294290E+04  1.135449E+05 -1.607164E+04  1.836038E+04
       117  27  1.272563E+05  1.939743E+04 -3.475712E+04  1.321942E+05 -1.446507E+04  1.417802E+04
       118   1  5.236857E+05  1.618890E+05  2.949710E+04  2.436786E+05 -2.527192E+03 -1.778648E+04
       118   2  4.763323E+05  1.397934E+05  2.140744E+04  2.250242E+05 -4.200435E+03 -1.362706E+04
       118   3  4.214727E+05  1.252228E+05  1.338763E+04  2.149446E+05 -5.871381E+03 -9.474810E+03
       118   4  3.417244E+05  9.650887E+04  1.395734E+02  1.924915E+05  5.497767E+03 -1.476372E+04
       118   5  3.454794E+05  9.274759E+04  2.152978E+02  1.882043E+05  3.810677E+03 -1.060907E+04
       118   6  3.417291E+05  9.651422E+04  3.719117E+02  1.924912E+05  2.125882E+03 -6.461592E+03
       118   7  1.597966E+05  3.113144E+04 -2.921895E+04  1.413178E+05  1.352033E+04 -1.174187E+04
       118   8  2.146442E+05  4.570329E+04 -2.097715E+04  1.513914E+05  1.182005E+04 -7.591729E+03
       118   9  2.619925E+05  6.780631E+04 -1.264369E+04  1.700405E+05  1.012206E+04 -3.448784E+03
       118  10  5.236856E+05  1.618887E+05  2.949649E+04  2.436786E+05  3.495327E-08  1.994790E-08
       118  11  4.763322E+05  1.397932E+05  2.140706E+04  2.250242E+05  3.823774E-09  7.578479E-09
       118  12  4.214726E+05  1.252227E+05  1.338740E+04  2.149446E+05 -4.617058E-08 -1.542117E-08
       118  13  3.417243E+05  9.650863E+04  1.391069E+02  1.924915E+05  4.029232E-09 -1.729715E-09
       118  14  3.454794E+05  9.274747E+04  2.150590E+02  1.882043E+05  3.236192E-09  8.182406E-09
       118  15  3.417291E+05  9.651417E+04  3.718247E+02  1.924912E+05  2.760153E-09  4.671246E-09
       118  16  1.597963E+05  3.113124E+04 -2.921955E+04  1.413180E+05 -2.988020E-08 -1.829818E-08
       118  17  2.146440E+05  4.570319E+04 -2.097752E+04  1.513915E+05  2.415593E-08  6.336305E-09
       118  18  2.619924E+05  6.780627E+04 -1.264390E+04  1.700406E+05  5.481029E-08  2.151269E-08
       118  19  5.236857E+05  1.618890E+05  2.949710E+04  2.436786E+05  2.527192E+03  1.778648E+04
       118  20  4.763323E+05  1.397934E+05  2.140744E+04  2.250242E+05  4.200435E+03  1.362706E+04
       118  21  4.214727E+05  1.252228E+05  1.338763E+04  2.149446E+05  5.871381E+03  9.474810E+03
       118  22  3.417244E+05  9.650887E+04  1.395734E+02  1.924915E+05 -5.497767E+03  1.476372E+04
       118  23  3.454794E+05  9.274759E+04  2.152978E+02  1.882043E+05 -3.810677E+03  1.060907E+04
       118  24  3.417291E+05  9.651422E+04  3.719117E+02  1.924912E+05 -2.125882E+03  6.461592E+03
       118  25  1.597966E+05  3.113144E+04 -2.921895E+04  1.413178E+05 -1.352033E+04  1.174187E+04
       118  26  2.146442E+05  4.570329E+04 -2.097715E+04  1.513914E+05 -1.182005E+04  7.591729E+03
       118  27  2.619925E+05  6.780631E+04 -1.264369E+04  1.700405E+05 -1.012206E+04  3.448784E+03
       119   1  3.889482E+05  1.134979E+05  7.981757E+03  2.058323E+05 -6.866777E+03 -7.064532E+03
       119   2  3.415935E+05  9.139033E+04  1.458173E+02  1.871754E+05 -8.714959E+03 -3.025423E+03
       119   3  2.867795E+05  7.684809E+04 -7.465597E+03  1.770841E+05 -1.053258E+04  9.328194E+02
       119   4  3.417439E+05  9.651190E+04  4.908942E+02  1.924960E+05  1.135759E+03 -4.049211E+03
       119   5  3.454646E+05  9.274863E+04  8.829403E+02  1.882007E+05 -8.673530E+02 -6.850225E+01
       119   6  3.417534E+05  9.658085E+04  1.621886E+03  1.924699E+05 -2.839944E+03  3.831350E+03
       119   7  2.945426E+05  7.952644E+04 -6.999590E+03  1.791608E+05  9.137565E+03 -1.034167E+03
       119   8  3.493358E+05  9.410699E+04  1.620327E+03  1.892260E+05  6.980305E+03  2.888436E+03
       119   9  3.967312E+05  1.163142E+05  1.070972E+04  2.078571E+05  4.853502E+03  6.730182E+03
       119  10  3.889481E+05  1.134978E+05  7.981575E+03  2.058323E+05  5.403031E-08  2.013467E-08
       119  11  3.415935E+05  9.139030E+04  1.456575E+02  1.871753E+05 -1.637214E-09  3.812180E-10
       119  12  2.867794E+05  7.684806E+04 -7.465807E+03  1.770841E+05 -5.206392E-08 -2.134107E-08
       119  13  3.417439E+05  9.651188E+04  4.908610E+02  1.924960E+05 -1.008528E-09  1.471574E-09
       119  14  3.454646E+05  9.274863E+04  8.829389E+02  1.882007E+05 -5.899376E-10  1.992747E-10
       119  15  3.417534E+05  9.658083E+04  1.621843E+03  1.924699E+05  6.077496E-09 -8.046676E-10
       119  16  2.945425E+05  7.952642E+04 -6.999748E+03  1.791608E+05 -5.505982E-08 -1.810068E-08
       119  17  3.493357E+05  9.410697E+04  1.620220E+03  1.892260E+05  2.224480E-09  2.975995E-10
       119  18  3.967312E+05  1.163141E+05  1.070959E+04  2.078571E+05  5.793586E-08  2.011294E-08
       119  19  3.889482E+05  1.134979E+05  7.981757E+03  2.058323E+05  6.866777E+03  7.064532E+03
       119  20  3.415935E+05  9.139033E+04  1.458173E+02  1.871754E+05  8.714959E+03  3.025423E+03
       119  21  2.867795E+05  7.684809E+04 -7.465597E+03  1.770841E+05  1.053258E+04 -9.328194E+02
       119  22  3.417439E+05  9.651190E+04  4.908942E+02  1.924960E+05 -1.135759E+03  4.049211E+03
       119  23  3.454646E+05  9.274863E+04  8.829403E+02  1.882007E+05  8.673530E+02  6.850225E+01
       119  24  3.417534E+05  9.658085E+04  1.621886E+03  1.924699E+05  2.839944E+03 -3.831350E+03
       119  25  2.945426E+05  7.952644E+04 -6.999590E+03  1.791608E+05 -9.137565E+03  1.034167E+03
       119  26  3.493358E+05  9.410699E+04  1.620327E+03  1.892260E+05 -6.980305E+03 -2.888436E+03
       119  27  3.967312E+05  1.163142E+05  1.070972E+04  2.078571E+05 -4.853502E+03 -6.730182E+03
       120   1  2.542127E+05  6.518826E+04 -1.253924E+04  1.681055E+05 -1.178746E+04  3.181471E+03
       120   2  2.071696E+05  4.291840E+04 -1.962180E+04  1.488458E+05 -1.362163E+04  6.661785E+03
       120   3  1.530523E+05  2.902372E+04 -2.611791E+04  1.378863E+05 -1.515009E+04  9.331658E+03
       120   4  3.418646E+05  9.657692E+04  2.165105E+03  1.925028E+05 -4.033434E+03  6.103010E+03
       120   5  3.453777E+05  9.315448E+04  3.982676E+03  1.880063E+05 -7.417013E+03  8.999131E+03
       120   6  3.421203E+05  9.841336E+04  7.613709E+03  1.918087E+05 -1.049495E+04  1.108490E+04
       120   7  4.295248E+05  1.279664E+05  1.686950E+04  2.169033E+05  3.721753E+03  9.024980E+03
       120   8  4.836053E+05  1.433923E+05  2.758656E+04  2.271748E+05 -1.210964E+03  1.133702E+04
       120   9  5.312239E+05  1.678059E+05  4.134364E+04  2.457459E+05 -5.838345E+03  1.283871E+04
       120  10  2.542126E+05  6.518821E+04 -1.253952E+04  1.681055E+05  4.675994E-08  1.430579E-08
       120  11  2.071694E+05  4.291831E+04 -1.962223E+04  1.488459E+05  8.642445E-09  5.115406E-09
       120  12  1.530520E+05  2.902356E+04 -2.611851E+04  1.378864E+05 -3.721746E-08 -2.183181E-08
       120  13  3.418646E+05  9.657688E+04  2.165004E+03  1.925028E+05  3.810192E-09  3.104495E-09
       120  14  3.453776E+05  9.315438E+04  3.982420E+03  1.880064E+05  3.533134E-09  3.068793E-09
       120  15  3.421202E+05  9.841319E+04  7.613271E+03  1.918088E+05  9.932145E-10  3.432547E-09
       120  16  4.295248E+05  1.279663E+05  1.686933E+04  2.169033E+05 -4.353654E-08 -1.347297E-08
       120  17  4.836053E+05  1.433921E+05  2.758631E+04  2.271749E+05  1.419709E-08  5.729231E-09
       120  18  5.312239E+05  1.678057E+05  4.134327E+04  2.457460E+05  5.405870E-08  1.717716E-08
       120  19  2.542127E+05  6.518826E+04 -1.253924E+04  1.681055E+05  1.178746E+04 -3.181471E+03
       120  20  2.071696E+05  4.291840E+04 -1.962180E+04  1.488458E+05  1.362163E+04 -6.661785E+03
       120  21  1.530523E+05  2.902372E+04 -2.611791E+04  1.378863E+05  1.515009E+04 -9.331658E+03
       120  22  3.418646E+05  9.657692E+04  2.165105E+03  1.925028E+05  4.033434E+03 -6.103010E+03
       120  23  3.453777E+05  9.315448E+04  3.982676E+03  1.880063E+05  7.417013E+03 -8.999131E+03
       120  24  3.421203E+05  9.841336E+04  7.613709E+03  1.918087E+05  1.049495E+04 -1.108490E+04
       120  25  4.295248E+05  1.279664E+05  1.686950E+04  2.169033E+05 -3.721753E+03 -9.024980E+03
       120  26  4.836053E+05  1.433923E+05  2.758656E+04  2.271748E+05  1.210964E+03 -1.133702E+04
       120  27  5.312239E+05  1.678059E+05  4.134364E+04  2.457459E+05  5.838345E+03 -1.283871E+04
       121   1  1.199006E+05  1.849835E+04 -3.008007E+04  1.305149E+05 -1.759594E+04  1.048985E+04
       121   2  8.004163E+04 -6.121100E+03 -3.637676E+04  9.965887E+04 -1.170296E+04  1.122335E+04
       121   3  3.819717E+04 -8.511777E+03 -4.247827E+04  7.243287E+04 -2.753014E+03  3.835630E+03
       121   4  3.433646E+05  9.859995E+04  1.019036E+04  1.920895E+05 -1.232881E+04  1.247341E+04
       121   5  3.450430E+05  1.016485E+05  1.950741E+04  1.843595E+05 -2.195155E+04  7.362446E+03
       121   6  3.478046E+05  1.299939E+05  4.131044E+04  1.802597E+05 -2.851822E+04 -5.867651E+03
       121   7  5.668848E+05  1.787074E+05  5.046019E+04  2.536856E+05 -7.059574E+03  1.445774E+04
       121   8  6.101166E+05  2.094285E+05  7.538804E+04  2.690951E+05 -3.220482E+04  3.499336E+03
       121   9  6.575017E+05  2.685154E+05  1.250916E+05  2.881373E+05 -5.429689E+04 -1.557833E+04
       121  10  1.199002E+05  1.849815E+04 -3.008086E+04  1.305151E+05  6.293525E-09 -3.824653E-09
       121  11  8.004145E+04 -6.121272E+03 -3.637726E+04  9.965897E+04  2.370017E-09  3.658198E-09
       121  12  3.819716E+04 -8.511794E+03 -4.247832E+04  7.243287E+04  4.015498E-10 -1.102481E-09
       121  13  3.433644E+05  9.859974E+04  1.018978E+04  1.920896E+05  7.127745E-10 -6.243352E-09
       121  14  3.450425E+05  1.016483E+05  1.950640E+04  1.843597E+05  1.085078E-08 -3.521943E-09
       121  15  3.478037E+05  1.299936E+05  4.130885E+04  1.802596E+05 -2.365215E-10  5.035391E-10
       121  16  5.668847E+05  1.787072E+05  5.045970E+04  2.536857E+05  3.835609E-09 -2.291051E-09
       121  17  6.101155E+05  2.094282E+05  7.538607E+04  2.690952E+05  2.543594E-09 -3.446262E-09
       121  18  6.574984E+05  2.685143E+05  1.250856E+05  2.881366E+05  5.156043E-09  6.596768E-10
       121  19  1.199006E+05  1.849835E+04 -3.008007E+04  1.305149E+05  1.759594E+04 -1.048985E+04
       121  20  8.004163E+04 -6.121100E+03 -3.637676E+04  9.965887E+04  1.170296E+04 -1.122335E+04
       121  21  3.819717E+04 -8.511777E+03 -4.247827E+04  7.243287E+04  2.753014E+03 -3.835630E+03
       121  22  3.433646E+05  9.859995E+04  1.019036E+04  1.920895E+05  1.232881E+04 -1.247341E+04
       121  23  3.450430E+05  1.016485E+05  1.950741E+04  1.843595E+05  2.195155E+04 -7.362446E+03
       121  24  3.478046E+05  1.299939E+05  4.131044E+04  1.802597E+05  2.851822E+04  5.867651E+03
       121  25  5.668848E+05  1.787074E+05  5.046019E+04  2.536856E+05  7.059574E+03 -1.445774E+04
       121  26  6.101166E+05  2.094285E+05  7.538804E+04  2.690951E+05  3.220482E+04 -3.499336E+03
       121  27  6.575017E+05  2.685154E+05  1.250916E+05  2.881373E+05  5.429689E+04  1.557833E+04
       122   1 -3.669971E+05 -2.213547E+06 -4.672094E+05  3.696723E+04 -1.660593E+02 -2.722134E+05
       122   2  2.725933E+04 -2.141871E+06 -2.354908E+05  6.452029E+03 -1.580149E+03 -1.703713E+05
       122   3 -4.525669E+04 -2.199456E+06 -1.867443E+05 -2.913299E+03 -1.116777E+03 -6.852689E+04
       122   4 -3.159625E+05 -2.010376E+06 -4.163153E+05  9.970279E+03 -1.546726E+02 -2.720138E+05
       122   5  7.642202E+04 -1.945641E+06 -1.864551E+05 -3.067200E+02 -1.578314E+03 -1.703677E+05
       122   6  2.145785E+03 -2.010093E+06 -1.393881E+05  1.056807E+04 -1.118087E+03 -6.872059E+04
       122   7 -2.649284E+05 -1.807166E+06 -3.654239E+05 -1.703552E+04 -1.433066E+02 -2.718141E+05
       122   8  1.255820E+05 -1.749376E+06 -1.374223E+05 -7.067600E+03 -1.576479E+03 -1.703642E+05
       122   9  4.954624E+04 -1.820697E+06 -9.203460E+04  2.405358E+04 -1.119406E+03 -6.891435E+04
       122  10 -3.670170E+05 -2.213627E+06 -4.673492E+05  3.696720E+04 -3.045867E-10  9.403421E-10
       122  11  2.725150E+04 -2.141902E+06 -2.355456E+05  6.451812E+03  6.713754E-09  2.189814E-09
       122  12 -4.525796E+04 -2.199461E+06 -1.867531E+05 -2.913360E+03  3.916291E-09  5.870554E-10
       122  13 -3.159825E+05 -2.010456E+06 -4.164548E+05  9.970245E+03  6.861443E-11  3.661276E-09
       122  14  7.641419E+04 -1.945672E+06 -1.865098E+05 -3.069368E+02 -1.018067E-08 -2.424357E-09
       122  15  2.144511E+03 -2.010098E+06 -1.393970E+05  1.056801E+04 -1.453966E-09  1.770909E-09
       122  16 -2.649483E+05 -1.807245E+06 -3.655631E+05 -1.703555E+04 -5.617827E-09 -1.542765E-11
       122  17  1.255741E+05 -1.749407E+06 -1.374770E+05 -7.067816E+03 -8.100091E-09 -5.005453E-09
       122  18  4.954495E+04 -1.820703E+06 -9.204356E+04  2.405352E+04 -8.331424E-09  7.680789E-10
       122  19 -3.669971E+05 -2.213547E+06 -4.672094E+05  3.696723E+04  1.660593E+02  2.722134E+05
       122  20  2.725933E+04 -2.141871E+06 -2.354908E+05  6.452029E+03  1.580149E+03  1.703713E+05
       122  21 -4.525669E+04 -2.199456E+06 -1.867443E+05 -2.913299E+03  1.116777E+03  6.852689E+04
       122  22 -3.159625E+05 -2.010376E+06 -4.163153E+05  9.970279E+03  1.546726E+02  2.720138E+05
       122  23  7.642202E+04 -1.945641E+06 -1.864551E+05 -3.067200E+02  1.578314E+03  1.703677E+05
       122  24  2.145785E+03 -2.010093E+06 -1.393881E+05  1.056807E+04  1.118087E+03  6.872059E+04
       122  25 -2.649284E+05 -1.807166E+06 -3.654239E+05 -1.703552E+04  1.433066E+02  2.718141E+05
       122  26  1.255820E+05 -1.749376E+06 -1.374223E+05 -7.067600E+03  1.576479E+03  1.703642E+05
       122  27  4.954624E+04 -1.820697E+06 -9.203460E+04  2.405358E+04  1.119406E+03  6.891435E+04
       123   1 -6.123279E+04 -2.048651E+06 -1.404396E+05  1.936211E+04 -5.861105E+02 -4.468288E+04
       123   2  1.249906E+04 -2.016131E+06 -1.068675E+05 -3.809930E+03 -3.901483E+02  5.347446E+03
       123   3 -6.150198E+04 -2.027011E+06 -1.428521E+05  6.873396E+03 -4.623883E+01  5.537858E+04
       123   4 -4.680829E+04 -1.991089E+06 -1.260619E+05  1.319583E+04 -5.856486E+02 -4.470436E+04
       123   5  2.420246E+04 -1.969396E+06 -9.518759E+04 -3.727832E+03 -3.901239E+02  5.311846E+03
       123   6 -5.251132E+04 -1.991098E+06 -1.338563E+05  1.320382E+04 -4.564715E+01  5.532800E+04
       123   7 -3.238390E+04 -1.933523E+06 -1.116845E+05  7.028979E+03 -5.851863E+02 -4.472585E+04
       123   8  3.590570E+04 -1.922658E+06 -8.350785E+04 -3.645729E+03 -3.900996E+02  5.276243E+03
       123   9 -4.352060E+04 -1.955183E+06 -1.248606E+05  1.953461E+04 -4.505653E+01  5.527740E+04
       123  10 -6.123333E+04 -2.048653E+06 -1.404434E+05  1.936209E+04  1.088629E-09  6.021705E-10
       123  11  1.249906E+04 -2.016131E+06 -1.068675E+05 -3.809928E+03  5.315797E-09  6.913373E-10
       123  12 -6.150280E+04 -2.027014E+06 -1.428579E+05  6.873398E+03 -1.277332E-09 -1.320624E-09
       123  13 -4.680883E+04 -1.991091E+06 -1.260657E+05  1.319581E+04 -3.892924E-09  3.240080E-09
       123  14  2.420246E+04 -1.969396E+06 -9.518764E+04 -3.727831E+03  2.067683E-09 -3.261894E-10
       123  15 -5.251214E+04 -1.991101E+06 -1.338621E+05  1.320382E+04 -8.698616E-09  1.024803E-09
       123  16 -3.238444E+04 -1.933525E+06 -1.116883E+05  7.028958E+03  2.288669E-09  8.580020E-10
       123  17  3.590569E+04 -1.922658E+06 -8.350791E+04 -3.645727E+03  3.091670E-09 -7.956491E-10
       123  18 -4.352143E+04 -1.955186E+06 -1.248663E+05  1.953461E+04 -1.004996E-08  1.652728E-09
       123  19 -6.123279E+04 -2.048651E+06 -1.404396E+05  1.936211E+04  5.861105E+02  4.468288E+04
       123  20  1.249906E+04 -2.016131E+06 -1.068675E+05 -3.809930E+03  3.901483E+02 -5.347446E+03
       123  21 -6.150198E+04 -2.027011E+06 -1.428521E+05  6.873396E+03  4.623883E+01 -5.537858E+04
       123  22 -4.680829E+04 -1.991089E+06 -1.260619E+05  1.319583E+04  5.856486E+02  4.470436E+04
       123  23  2.420246E+04 -1.969396E+06 -9.518759E+04 -3.727832E+03  3.901239E+02 -5.311846E+03
       123  24 -5.251132E+04 -1.991098E+06 -1.338563E+05  1.320382E+04  4.564715E+01 -5.532800E+04
       123  25 -3.238390E+04 -1.933523E+06 -1.116845E+05  7.028979E+03  5.851863E+02  4.472585E+04
       123  26  3.590570E+04 -1.922658E+06 -8.350785E+04 -3.645729E+03  3.900996E+02 -5.276243E+03
       123  27 -4.352060E+04 -1.955183E+06 -1.248606E+05  1.953461E+04  4.505653E+01 -5.527740E+04
       124   1  3.293943E+04 -1.898350E+06 -1.214263E+05  2.736478E+04  5.118813E+02  8.119350E+04
       124   2  1.159545E+05 -1.817120E+06 -1.744080E+05 -1.000491E+04  1.019872E+03  1.931582E+05
       124   3 -3.185499E+05 -1.879595E+06 -4.296996E+05 -1.784902E+04  9.528375E+01  3.051257E+05
       124   4  4.162363E+03 -2.013323E+06 -1.501864E+05  1.237258E+04  5.100035E+02  8.102860E+04
       124   5  8.477339E+04 -1.941600E+06 -2.055056E+05 -2.596066E+03  1.022186E+03  1.931440E+05
       124   6 -3.522189E+05 -2.013639E+06 -4.632701E+05  1.195905E+04  1.097674E+02  3.052606E+05
       124   7 -2.461486E+04 -2.128284E+06 -1.789473E+05 -2.616826E+03  5.081334E+02  8.086372E+04
       124   8  5.359135E+04 -2.066066E+06 -2.366044E+05  4.811289E+03  1.024500E+03  1.931299E+05
       124   9 -3.858859E+05 -2.147664E+06 -4.968415E+05  4.176067E+04  1.242668E+02  3.053954E+05
       124  10  3.293765E+04 -1.898357E+06 -1.214388E+05  2.736474E+04  4.787430E-09  8.680404E-10
       124  11  1.159444E+05 -1.817160E+06 -1.744783E+05 -1.000507E+04 -2.560205E-09  3.131630E-10
       124  12 -3.185750E+05 -1.879696E+06 -4.298751E+05 -1.784904E+04 -4.724519E-09  7.825773E-11
       124  13  4.160593E+03 -2.013330E+06 -1.501987E+05  1.237255E+04 -1.460193E-09  2.439144E-09
       124  14  8.476333E+04 -1.941640E+06 -2.055760E+05 -2.596225E+03 -2.977769E-09 -6.732863E-10
       124  15 -3.522440E+05 -2.013739E+06 -4.634458E+05  1.195902E+04 -2.641323E-09  1.197819E-09
       124  16 -2.461662E+04 -2.128291E+06 -1.789596E+05 -2.616859E+03 -7.999784E-09  4.192205E-10
       124  17  5.358129E+04 -2.066106E+06 -2.366748E+05  4.811130E+03 -2.672014E-09 -2.885796E-09
       124  18 -3.859110E+05 -2.147765E+06 -4.970173E+05  4.176064E+04  4.659970E-09  3.390108E-11
       124  19  3.293943E+04 -1.898350E+06 -1.214263E+05  2.736478E+04 -5.118813E+02 -8.119350E+04
       124  20  1.159545E+05 -1.817120E+06 -1.744080E+05 -1.000491E+04 -1.019872E+03 -1.931582E+05
       124  21 -3.185499E+05 -1.879595E+06 -4.296996E+05 -1.784902E+04 -9.528375E+01 -3.051257E+05
       124  22  4.162363E+03 -2.013323E+06 -1.501864E+05  1.237258E+04 -5.100035E+02 -8.102860E+04
       124  23  8.477339E+04 -1.941600E+06 -2.055056E+05 -2.596066E+03 -1.022186E+03 -1.931440E+05
       124  24 -3.522189E+05 -2.013639E+06 -4.632701E+05  1.195905E+04 -1.097674E+02 -3.052606E+05
       124  25 -2.461486E+04 -2.128284E+06 -1.789473E+05 -2.616826E+03 -5.081334E+02 -8.086372E+04
       124  26  5.359135E+04 -2.066066E+06 -2.366044E+05  4.811289E+03 -1.024500E+03 -1.931299E+05
       124  27 -3.858859E+05 -2.147664E+06 -4.968415E+05  4.176067E+04 -1.242668E+02 -3.053954E+05
       125   1  2.895114E+05  8.848343E+04  6.214125E+04  1.034787E+05  4.803656E+04  1.857344E+04
       125   2  2.764792E+05  1.894017E+04  1.734892E+04  1.174301E+05  3.066028E+04  1.291220E+04
       125   3  2.942351E+05  2.323735E+04  5.665624E+03  1.114163E+05  1.360889E+04  6.389592E+03
       125   4  3.498906E+05  1.007140E+05  7.657677E+04  1.091222E+05  4.839517E+04  1.870772E+04
       125   5  3.306073E+05  3.658676E+04  3.145379E+04  1.293636E+05  3.076536E+04  1.295165E+04
       125   6  3.421601E+05  4.634581E+04  1.963838E+04  1.296403E+05  1.346054E+04  6.333772E+03
       125   7  4.102732E+05  1.129444E+05  9.101205E+04  1.147659E+05  4.875382E+04  1.884200E+04
       125   8  3.847382E+05  5.423332E+04  4.555840E+04  1.412979E+05  3.087044E+04  1.299111E+04
       125   9  3.900875E+05  6.945492E+04  3.361094E+04  1.478658E+05  1.331218E+04  6.277945E+03
       125  10  2.895088E+05  8.848245E+04  6.213626E+04  1.034780E+05  2.369977E-09  5.557012E-09
       125  11  2.764781E+05  1.893974E+04  1.734684E+04  1.174297E+05  1.389691E-09  6.794990E-09
       125  12  2.942349E+05  2.323726E+04  5.665199E+03  1.114162E+05 -4.822714E-09  3.517678E-10
       125  13  3.498880E+05  1.007130E+05  7.657172E+04  1.091215E+05  4.206901E-09 -3.342922E-09
       125  14  3.306063E+05  3.658632E+04  3.145169E+04  1.293632E+05 -2.353489E-09 -6.285170E-09
       125  15  3.421599E+05  4.634572E+04  1.963796E+04  1.296403E+05 -6.964690E-10  2.835534E-10
       125  16  4.102706E+05  1.129434E+05  9.100692E+04  1.147651E+05  2.044134E-09  3.018602E-09
       125  17  3.847372E+05  5.423288E+04  4.555629E+04  1.412976E+05  1.251888E-09  9.072484E-10
       125  18  3.900873E+05  6.945483E+04  3.361053E+04  1.478658E+05  2.862456E-09  3.055487E-09
       125  19  2.895114E+05  8.848343E+04  6.214125E+04  1.034787E+05 -4.803656E+04 -1.857344E+04
       125  20  2.764792E+05  1.894017E+04  1.734892E+04  1.174301E+05 -3.066028E+04 -1.291220E+04
       125  21  2.942351E+05  2.323735E+04  5.665624E+03  1.114163E+05 -1.360889E+04 -6.389592E+03
       125  22  3.498906E+05  1.007140E+05  7.657677E+04  1.091222E+05 -4.839517E+04 -1.870772E+04
       125  23  3.306073E+05  3.658676E+04  3.145379E+04  1.293636E+05 -3.076536E+04 -1.295165E+04
       125  24  3.421601E+05  4.634581E+04  1.963838E+04  1.296403E+05 -1.346054E+04 -6.333772E+03
       125  25  4.102732E+05  1.129444E+05  9.101205E+04  1.147659E+05 -4.875382E+04 -1.884200E+04
       125  26  3.847382E+05  5.423332E+04  4.555840E+04  1.412979E+05 -3.087044E+04 -1.299111E+04
       125  27  3.900875E+05  6.945492E+04  3.361094E+04  1.478658E+05 -1.331218E+04 -6.277945E+03
       126   1  2.883936E+05  3.706706E+04  2.486892E+03  1.121511E+05  1.055293E+04  5.074400E+03
       126   2  2.866530E+05  2.787353E+04 -6.096177E+03  1.142789E+05  6.631569E+03  3.688356E+03
       126   3  2.896039E+05  2.848232E+04 -9.005771E+03  1.134437E+05  2.748239E+03  2.201562E+03
       126   4  3.396157E+05  5.505946E+04  1.612567E+04  1.247581E+05  1.059212E+04  5.089143E+03
       126   5  3.367431E+05  4.646476E+04  7.419016E+03  1.276318E+05  6.640984E+03  3.691895E+03
       126   6  3.385676E+05  4.767777E+04  4.409063E+03  1.275428E+05  2.727893E+03  2.193889E+03
       126   7  3.908404E+05  7.305193E+04  2.976422E+04  1.373660E+05  1.063131E+04  5.103886E+03
       126   8  3.868356E+05  6.505609E+04  2.093397E+04  1.409857E+05  6.650400E+03  3.695434E+03
       126   9  3.875335E+05  6.687337E+04  1.782366E+04  1.416428E+05  2.707546E+03  2.186216E+03
       126  10  2.883935E+05  3.706700E+04  2.486634E+03  1.121510E+05  2.999236E-09  3.529399E-09
       126  11  2.866529E+05  2.787351E+04 -6.096285E+03  1.142788E+05  5.571825E-09  7.892313E-09
       126  12  2.896039E+05  2.848232E+04 -9.005794E+03  1.134437E+05 -5.498833E-10  7.963775E-09
       126  13  3.396156E+05  5.505940E+04  1.612541E+04  1.247580E+05  3.173064E-09  2.544775E-09
       126  14  3.367431E+05  4.646473E+04  7.418908E+03  1.276318E+05 -5.573240E-11 -8.226863E-09
       126  15  3.385676E+05  4.767776E+04  4.409040E+03  1.275428E+05 -1.396693E-09  7.314777E-09
       126  16  3.908402E+05  7.305187E+04  2.976396E+04  1.373659E+05 -4.916658E-09 -2.527031E-09
       126  17  3.868355E+05  6.505607E+04  2.093387E+04  1.409857E+05 -7.302338E-09  1.004546E-09
       126  18  3.875335E+05  6.687337E+04  1.782363E+04  1.416428E+05 -4.427917E-09  2.889733E-09
       126  19  2.883936E+05  3.706706E+04  2.486892E+03  1.121511E+05 -1.055293E+04 -5.074400E+03
       126  20  2.866530E+05  2.787353E+04 -6.096177E+03  1.142789E+05 -6.631569E+03 -3.688356E+03
       126  21  2.896039E+05  2.848232E+04 -9.005771E+03  1.134437E+05 -2.748239E+03 -2.201562E+03
       126  22  3.396157E+05  5.505946E+04  1.612567E+04  1.247581E+05 -1.059212E+04 -5.089143E+03
       126  23  3.367431E+05  4.646476E+04  7.419016E+03  1.276318E+05 -6.640984E+03 -3.691895E+03
       126  24  3.385676E+05  4.767777E+04  4.409063E+03  1.275428E+05 -2.727893E+03 -2.193889E+03
       126  25  3.908404E+05  7.305193E+04  2.976422E+04  1.373660E+05 -1.063131E+04 -5.103886E+03
       126  26  3.868356E+05  6.505609E+04  2.093397E+04  1.409857E+05 -6.650400E+03 -3.695434E+03
       126  27  3.875335E+05  6.687337E+04  1.782366E+04  1.416428E+05 -2.707546E+03 -2.186216E+03
       127   1  2.894047E+05  3.062275E+04 -9.687736E+03  1.137486E+05  2.083835E+03  1.925051E+03
       127   2  2.892198E+05  2.951897E+04 -1.137905E+04  1.141641E+05  1.184161E+03  1.587430E+03
       127   3  2.898821E+05  2.960326E+04 -1.202208E+04  1.140235E+05  2.875543E+02  1.241621E+03
       127   4  3.381542E+05  4.887356E+04  3.500148E+03  1.269043E+05  2.085573E+03  1.925699E+03
       127   5  3.376601E+05  4.778354E+04  1.749474E+03  1.273692E+05  1.183440E+03  1.587152E+03
       127   6  3.380136E+05  4.788203E+04  1.048984E+03  1.272782E+05  2.843739E+02  1.240417E+03
       127   7  3.869060E+05  6.712453E+04  1.668784E+04  1.400609E+05  2.087312E+03  1.926347E+03
       127   8  3.861027E+05  6.604827E+04  1.487780E+04  1.405753E+05  1.182718E+03  1.586873E+03
       127   9  3.861474E+05  6.616094E+04  1.411984E+04  1.405338E+05  2.811933E+02  1.239212E+03
       127  10  2.894047E+05  3.062275E+04 -9.687751E+03  1.137486E+05  2.831311E-09  1.141441E-09
       127  11  2.892198E+05  2.951897E+04 -1.137906E+04  1.141641E+05 -2.110615E-09 -3.426173E-09
       127  12  2.898821E+05  2.960326E+04 -1.202208E+04  1.140235E+05 -4.879251E-09 -6.656130E-09
       127  13  3.381542E+05  4.887356E+04  3.500132E+03  1.269043E+05 -3.660513E-09  2.745999E-09
       127  14  3.376601E+05  4.778354E+04  1.749466E+03  1.273692E+05  2.367306E-09 -2.109620E-09
       127  15  3.380136E+05  4.788203E+04  1.048981E+03  1.272782E+05 -4.353808E-09  1.232865E-09
       127  16  3.869060E+05  6.712453E+04  1.668783E+04  1.400609E+05 -9.266398E-09 -2.177194E-09
       127  17  3.861027E+05  6.604826E+04  1.487780E+04  1.405753E+05  1.171019E-08 -2.088669E-09
       127  18  3.861474E+05  6.616094E+04  1.411983E+04  1.405338E+05  6.410481E-09  2.057630E-09
       127  19  2.894047E+05  3.062275E+04 -9.687736E+03  1.137486E+05 -2.083835E+03 -1.925051E+03
       127  20  2.892198E+05  2.951897E+04 -1.137905E+04  1.141641E+05 -1.184161E+03 -1.587430E+03
       127  21  2.898821E+05  2.960326E+04 -1.202208E+04  1.140235E+05 -2.875543E+02 -1.241621E+03
       127  22  3.381542E+05  4.887356E+04  3.500148E+03  1.269043E+05 -2.085573E+03 -1.925699E+03
       127  23  3.376601E+05  4.778354E+04  1.749474E+03  1.273692E+05 -1.183440E+03 -1.587152E+03
       127  24  3.380136E+05  4.788203E+04  1.048984E+03  1.272782E+05 -2.843739E+02 -1.240417E+03
       127  25  3.869060E+05  6.712453E+04  1.668784E+04  1.400609E+05 -2.087312E+03 -1.926347E+03
       127  26  3.861027E+05  6.604827E+04  1.487780E+04  1.405753E+05 -1.182718E+03 -1.586873E+03
       127  27  3.861474E+05  6.616094E+04  1.411984E+04  1.405338E+05 -2.811933E+02 -1.239212E+03
       128   1  2.900850E+05  3.001776E+04 -1.212131E+04  1.141752E+05  1.307323E+02  1.176868E+03
       128   2  2.900515E+05  2.988117E+04 -1.241634E+04  1.142436E+05 -1.416331E+02  1.070945E+03
       128   3  2.901953E+05  2.992661E+04 -1.244448E+04  1.142143E+05 -4.151198E+02  9.679942E+02
       128   4  3.379225E+05  4.806540E+04  8.457762E+02  1.272266E+05  1.294868E+02  1.176392E+03
       128   5  3.378264E+05  4.792212E+04  5.374992E+02  1.272952E+05 -1.420298E+02  1.070789E+03
       128   6  3.379076E+05  4.796066E+04  4.954363E+02  1.272661E+05 -4.146681E+02  9.681583E+02
       128   7  3.857621E+05  6.611314E+04  1.381263E+04  1.402790E+05  1.282413E+02  1.175917E+03
       128   8  3.856035E+05  6.596321E+04  1.349114E+04  1.403477E+05 -1.424265E+02  1.070634E+03
       128   9  3.856221E+05  6.599487E+04  1.343517E+04  1.403188E+05 -4.142163E+02  9.683224E+02
       128  10  2.900850E+05  3.001775E+04 -1.212131E+04  1.141752E+05 -3.056816E-09 -1.945935E-09
       128  11  2.900515E+05  2.988117E+04 -1.241634E+04  1.142436E+05  4.759226E-10  2.509176E-09
       128  12  2.901953E+05  2.992661E+04 -1.244448E+04  1.142143E+05 -1.207160E-09 -3.408083E-10
       128  13  3.379225E+05  4.806540E+04  8.457735E+02  1.272266E+05 -5.659107E-10  1.465443E-09
       128  14  3.378264E+05  4.792212E+04  5.374970E+02  1.272952E+05 -9.359796E-09 -5.600744E-10
       128  15  3.379076E+05  4.796066E+04  4.954342E+02  1.272661E+05 -5.063184E-09 -1.578881E-09
       128  16  3.857621E+05  6.611314E+04  1.381263E+04  1.402790E+05  7.205055E-10  1.353352E-09
       128  17  3.856035E+05  6.596321E+04  1.349113E+04  1.403477E+05  1.977903E-09  1.734820E-09
       128  18  3.856221E+05  6.599487E+04  1.343517E+04  1.403188E+05 -1.009734E-10  5.826110E-09
       128  19  2.900850E+05  3.001776E+04 -1.212131E+04  1.141752E+05 -1.307323E+02 -1.176868E+03
       128  20  2.900515E+05  2.988117E+04 -1.241634E+04  1.142436E+05  1.416331E+02 -1.070945E+03
       128  21  2.901953E+05  2.992661E+04 -1.244448E+04  1.142143E+05  4.151198E+02 -9.679942E+02
       128  22  3.379225E+05  4.806540E+04  8.457762E+02  1.272266E+05 -1.294868E+02 -1.176392E+03
       128  23  3.378264E+05  4.792212E+04  5.374992E+02  1.272952E+05  1.420298E+02 -1.070789E+03
       128  24  3.379076E+05  4.796066E+04  4.954363E+02  1.272661E+05  4.146681E+02 -9.681583E+02
       128  25  3.857621E+05  6.611314E+04  1.381263E+04  1.402790E+05 -1.282413E+02 -1.175917E+03
       128  26  3.856035E+05  6.596321E+04  1.349114E+04  1.403477E+05  1.424265E+02 -1.070634E+03
       128  27  3.856221E+05  6.599487E+04  1.343517E+04  1.403188E+05  4.142163E+02 -9.683224E+02
       129   1  2.900582E+05  2.994706E+04 -1.243473E+04  1.142716E+05 -4.999934E+02  9.367617E+02
       129   2  2.899431E+05  2.977017E+04 -1.227035E+04  1.141583E+05 -8.678866E+02  8.006770E+02
       129   3  2.899050E+05  3.002320E+04 -1.174281E+04  1.140965E+05 -1.236908E+03  6.675987E+02
       129   4  3.378806E+05  4.798220E+04  5.272841E+02  1.273119E+05 -4.998016E+02  9.368278E+02
       129   5  3.378560E+05  4.786493E+04  7.212307E+02  1.272493E+05 -8.668442E+02  8.010634E+02
       129   6  3.379082E+05  4.817742E+04  1.277637E+03  1.272384E+05 -1.235015E+03  6.683054E+02
       129   7  3.857051E+05  6.601747E+04  1.348910E+04  1.403531E+05 -4.996099E+02  9.368940E+02
       129   8  3.857710E+05  6.595982E+04  1.371260E+04  1.403413E+05 -8.658017E+02  8.014499E+02
       129   9  3.859134E+05  6.633175E+04  1.429786E+04  1.403811E+05 -1.233121E+03  6.690121E+02
       129  10  2.900582E+05  2.994706E+04 -1.243474E+04  1.142716E+05  1.709434E-09  1.525626E-09
       129  11  2.899431E+05  2.977017E+04 -1.227035E+04  1.141583E+05 -4.304393E-10  1.703743E-09
       129  12  2.899050E+05  3.002320E+04 -1.174282E+04  1.140965E+05  2.861579E-09  6.913518E-10
       129  13  3.378806E+05  4.798220E+04  5.272820E+02  1.273119E+05 -4.918693E-09  2.353279E-09
       129  14  3.378560E+05  4.786493E+04  7.212280E+02  1.272493E+05  2.309922E-09  4.085344E-09
       129  15  3.379082E+05  4.817742E+04  1.277633E+03  1.272384E+05 -1.164672E-09  9.725107E-10
       129  16  3.857051E+05  6.601747E+04  1.348910E+04  1.403531E+05  6.431001E-10 -1.676436E-10
       129  17  3.857710E+05  6.595981E+04  1.371259E+04  1.403413E+05  3.463675E-09 -6.295478E-09
       129  18  3.859134E+05  6.633175E+04  1.429786E+04  1.403812E+05 -7.683169E-09 -6.132224E-09
       129  19  2.900582E+05  2.994706E+04 -1.243473E+04  1.142716E+05  4.999934E+02 -9.367617E+02
       129  20  2.899431E+05  2.977017E+04 -1.227035E+04  1.141583E+05  8.678866E+02 -8.006770E+02
       129  21  2.899050E+05  3.002320E+04 -1.174281E+04  1.140965E+05  1.236908E+03 -6.675987E+02
       129  22  3.378806E+05  4.798220E+04  5.272841E+02  1.273119E+05  4.998016E+02 -9.368278E+02
       129  23  3.378560E+05  4.786493E+04  7.212307E+02  1.272493E+05  8.668442E+02 -8.010634E+02
       129  24  3.379082E+05  4.817742E+04  1.277637E+03  1.272384E+05  1.235015E+03 -6.683054E+02
       129  25  3.857051E+05  6.601747E+04  1.348910E+04  1.403531E+05  4.996099E+02 -9.368940E+02
       129  26  3.857710E+05  6.595982E+04  1.371260E+04  1.403413E+05  8.658017E+02 -8.014499E+02
       129  27  3.859134E+05  6.633175E+04  1.429786E+04  1.403811E+05  1.233121E+03 -6.690121E+02
       130   1  2.892799E+05  2.974338E+04 -1.154746E+04  1.142890E+05 -1.481170E+03  5.828666E+02
       130   2  2.888863E+05  2.904586E+04 -1.046863E+04  1.138578E+05 -2.912790E+03  5.445962E+01
       130   3  2.892648E+05  3.082604E+04 -7.721565E+03  1.131909E+05 -4.341285E+03 -4.823293E+02
       130   4  3.379686E+05  4.796804E+04  1.622836E+03  1.274247E+05 -1.477299E+03  5.843181E+02
       130   5  3.376950E+05  4.752633E+04  2.774909E+03  1.272423E+05 -2.911474E+03  5.494818E+01
       130   6  3.381940E+05  4.956273E+04  5.597140E+03  1.268243E+05 -4.342524E+03 -4.828043E+02
       130   7  3.866597E+05  6.619286E+04  1.479294E+04  1.405613E+05 -1.473428E+03  5.857698E+02
       130   8  3.865061E+05  6.600696E+04  1.601824E+04  1.406278E+05 -2.910159E+03  5.543679E+01
       130   9  3.871256E+05  6.829958E+04  1.891563E+04  1.404586E+05 -4.343764E+03 -4.832793E+02
       130  10  2.892799E+05  2.974338E+04 -1.154746E+04  1.142890E+05  3.236886E-10  1.894333E-09
       130  11  2.888863E+05  2.904586E+04 -1.046864E+04  1.138578E+05 -1.791566E-09  5.678617E-09
       130  12  2.892648E+05  3.082603E+04 -7.721601E+03  1.131909E+05 -4.446677E-10 -1.765455E-09
       130  13  3.379686E+05  4.796804E+04  1.622831E+03  1.274247E+05 -1.051575E-09  3.012219E-09
       130  14  3.376950E+05  4.752633E+04  2.774894E+03  1.272423E+05 -2.124210E-08  4.544109E-09
       130  15  3.381940E+05  4.956272E+04  5.597104E+03  1.268243E+05  1.521570E-09 -2.066321E-09
       130  16  3.866597E+05  6.619286E+04  1.479294E+04  1.405613E+05 -4.052003E-09  2.790117E-09
       130  17  3.865061E+05  6.600696E+04  1.601823E+04  1.406278E+05  2.236857E-09  8.162881E-09
       130  18  3.871256E+05  6.829957E+04  1.891559E+04  1.404586E+05  1.513133E-09 -2.113860E-09
       130  19  2.892799E+05  2.974338E+04 -1.154746E+04  1.142890E+05  1.481170E+03 -5.828666E+02
       130  20  2.888863E+05  2.904586E+04 -1.046863E+04  1.138578E+05  2.912790E+03 -5.445962E+01
       130  21  2.892648E+05  3.082604E+04 -7.721565E+03  1.131909E+05  4.341285E+03  4.823293E+02
       130  22  3.379686E+05  4.796804E+04  1.622836E+03  1.274247E+05  1.477299E+03 -5.843181E+02
       130  23  3.376950E+05  4.752633E+04  2.774909E+03  1.272423E+05  2.911474E+03 -5.494818E+01
       130  24  3.381940E+05  4.956273E+04  5.597140E+03  1.268243E+05  4.342524E+03  4.828043E+02
       130  25  3.866597E+05  6.619286E+04  1.479294E+04  1.405613E+05  1.473428E+03 -5.857698E+02
       130  26  3.865061E+05  6.600696E+04  1.601824E+04  1.406278E+05  2.910159E+03 -5.543679E+01
       130  27  3.871256E+05  6.829958E+04  1.891563E+04  1.404586E+05  4.343764E+03  4.832793E+02
       131   1  2.878227E+05  2.961767E+04 -6.532910E+03  1.151847E+05 -5.414803E+03 -8.583053E+02
       131   2  2.861474E+05  2.581850E+04 -1.813752E+03  1.132835E+05 -1.168041E+04 -3.190380E+03
       131   3  2.910056E+05  3.873429E+04  1.201632E+04  1.077516E+05 -1.790736E+04 -5.625327E+03
       131   4  3.387688E+05  4.773243E+04  7.059589E+03  1.279496E+05 -5.393464E+03 -8.502700E+02
       131   5  3.363365E+05  4.529723E+04  1.189552E+04  1.275352E+05 -1.168963E+04 -3.193866E+03
       131   6  3.404432E+05  5.958216E+04  2.586600E+04  1.234903E+05 -1.794714E+04 -5.640373E+03
       131   7  3.897173E+05  6.584725E+04  2.065184E+04  1.407154E+05 -5.372122E+03 -8.422341E+02
       131   8  3.865279E+05  6.477614E+04  2.560456E+04  1.417880E+05 -1.169884E+04 -3.197353E+03
       131   9  3.898832E+05  8.043038E+04  3.971547E+04  1.392303E+05 -1.798691E+04 -5.655421E+03
       131  10  2.878227E+05  2.961766E+04 -6.532966E+03  1.151847E+05 -1.164078E-09 -3.368089E-10
       131  11  2.861473E+05  2.581845E+04 -1.814028E+03  1.132834E+05  8.080213E-09  8.261884E-09
       131  12  2.910053E+05  3.873417E+04  1.201566E+04  1.077516E+05  7.988486E-09  5.068872E-11
       131  13  3.387688E+05  4.773242E+04  7.059533E+03  1.279496E+05 -4.676627E-09 -5.199141E-09
       131  14  3.363363E+05  4.529718E+04  1.189524E+04  1.275352E+05  2.126134E-09  7.518978E-09
       131  15  3.404428E+05  5.958204E+04  2.586533E+04  1.234903E+05 -6.751167E-09 -3.153774E-10
       131  16  3.897173E+05  6.584724E+04  2.065178E+04  1.407154E+05  7.888651E-09 -1.767912E-10
       131  17  3.865278E+05  6.477609E+04  2.560428E+04  1.417880E+05  2.881911E-09  1.131022E-09
       131  18  3.898828E+05  8.043026E+04  3.971480E+04  1.392302E+05 -1.258642E-08 -2.155953E-10
       131  19  2.878227E+05  2.961767E+04 -6.532910E+03  1.151847E+05  5.414803E+03  8.583053E+02
       131  20  2.861474E+05  2.581850E+04 -1.813752E+03  1.132835E+05  1.168041E+04  3.190380E+03
       131  21  2.910056E+05  3.873429E+04  1.201632E+04  1.077516E+05  1.790736E+04  5.625327E+03
       131  22  3.387688E+05  4.773243E+04  7.059589E+03  1.279496E+05  5.393464E+03  8.502700E+02
       131  23  3.363365E+05  4.529723E+04  1.189552E+04  1.275352E+05  1.168963E+04  3.193866E+03
       131  24  3.404432E+05  5.958216E+04  2.586600E+04  1.234903E+05  1.794714E+04  5.640373E+03
       131  25  3.897173E+05  6.584725E+04  2.065184E+04  1.407154E+05  5.372122E+03  8.422341E+02
       131  26  3.865279E+05  6.477614E+04  2.560456E+04  1.417880E+05  1.169884E+04  3.197353E+03
       131  27  3.898832E+05  8.043038E+04  3.971547E+04  1.392303E+05  1.798691E+04  5.655421E+03
       132   1  2.861212E+05  3.166732E+04  1.727288E+04  1.237003E+05 -2.284313E+04 -7.314710E+03
       132   2  2.767421E+05  6.028263E+03  3.608241E+04  1.119575E+05 -5.043390E+04 -1.759615E+04
       132   3  3.153259E+05  1.003295E+05  1.081233E+05  6.983815E+04 -7.769410E+04 -2.875563E+04
       132   4  3.444506E+05  4.567825E+04  3.150279E+04  1.314083E+05 -2.269146E+04 -7.257302E+03
       132   5  3.266100E+05  2.933327E+04  5.046195E+04  1.301800E+05 -5.054134E+04 -1.763702E+04
       132   6  3.567791E+05  1.329730E+05  1.228543E+05  9.857661E+04 -7.806015E+04 -2.889594E+04
       132   7  4.027835E+05  5.968908E+04  4.573250E+04  1.391168E+05 -2.253978E+04 -7.199894E+03
       132   8  3.764802E+05  5.263878E+04  6.484121E+04  1.484038E+05 -5.064879E+04 -1.767790E+04
       132   9  3.982344E+05  1.656189E+05  1.375851E+05  1.273172E+05 -7.842623E+04 -2.903629E+04
       132  10  2.861206E+05  3.166713E+04  1.727180E+04  1.237001E+05  5.128868E-09 -1.498431E-09
       132  11  2.767393E+05  6.027248E+03  3.607705E+04  1.119568E+05 -6.983728E-09  2.433776E-09
       132  12  3.153192E+05  1.003270E+05  1.081104E+05  6.983635E+04  9.883478E-10  4.534592E-09
       132  13  3.444500E+05  4.567805E+04  3.150172E+04  1.314082E+05  3.851298E-09 -1.694529E-09
       132  14  3.266072E+05  2.933225E+04  5.045657E+04  1.301793E+05 -9.399276E-09 -4.769350E-09
       132  15  3.567723E+05  1.329705E+05  1.228413E+05  9.857479E+04 -4.000262E-09 -9.395056E-10
       132  16  4.027829E+05  5.968889E+04  4.573145E+04  1.391167E+05 -4.730498E-09 -8.204325E-10
       132  17  3.764774E+05  5.263775E+04  6.483580E+04  1.484031E+05  3.334595E-09  9.817773E-10
       132  18  3.982276E+05  1.656164E+05  1.375720E+05  1.273153E+05 -3.611605E-09 -8.879476E-10
       132  19  2.861212E+05  3.166732E+04  1.727288E+04  1.237003E+05  2.284313E+04  7.314710E+03
       132  20  2.767421E+05  6.028263E+03  3.608241E+04  1.119575E+05  5.043390E+04  1.759615E+04
       132  21  3.153259E+05  1.003295E+05  1.081233E+05  6.983815E+04  7.769410E+04  2.875563E+04
       132  22  3.444506E+05  4.567825E+04  3.150279E+04  1.314083E+05  2.269146E+04  7.257302E+03
       132  23  3.266100E+05  2.933327E+04  5.046195E+04  1.301800E+05  5.054134E+04  1.763702E+04
       132  24  3.567791E+05  1.329730E+05  1.228543E+05  9.857661E+04  7.806015E+04  2.889594E+04
       132  25  4.027835E+05  5.968908E+04  4.573250E+04  1.391168E+05  2.253978E+04  7.199894E+03
       132  26  3.764802E+05  5.263878E+04  6.484121E+04  1.484038E+05  5.064879E+04  1.767790E+04
       132  27  3.982344E+05  1.656189E+05  1.375851E+05  1.273172E+05  7.842623E+04  2.903629E+04
       133   1 -1.023359E+02 -4.314721E+05 -1.445017E+03 -6.281099E+01 -2.899513E+01  1.080534E+02
       133   2 -2.827314E+02 -4.322428E+05 -1.958499E+03  1.344140E+02 -5.562494E+01  9.255767E+02
       133   3 -7.418544E+02 -4.331907E+05 -3.074401E+03 -1.336117E+02 -9.545626E+01  1.743099E+03
       133   4  8.048905E-01 -4.310496E+05 -1.352424E+03 -1.033327E+02 -2.900711E+01  1.214795E+02
       133   5  3.309333E+01 -4.309603E+05 -1.662547E+03  1.291963E+02 -5.564508E+01  9.481876E+02
       133   6 -2.149373E+02 -4.310498E+05 -2.581469E+03 -1.035248E+02 -9.548447E+01  1.774896E+03
       133   7  1.039456E+02 -4.306271E+05 -1.259831E+03 -1.438545E+02 -2.901909E+01  1.349055E+02
       133   8  3.489179E+02 -4.296777E+05 -1.366596E+03  1.239786E+02 -5.566523E+01  9.707986E+02
       133   9  3.119795E+02 -4.289088E+05 -2.088536E+03 -7.343785E+01 -9.551267E+01  1.806693E+03
       133  10 -1.023359E+02 -4.314721E+05 -1.445017E+03 -6.281098E+01  1.373035E-09  4.672443E-09
       133  11 -2.827316E+02 -4.322428E+05 -1.958500E+03  1.344140E+02 -3.733982E-10  1.225768E-08
       133  12 -7.418552E+02 -4.331907E+05 -3.074407E+03 -1.336116E+02  6.001518E-09  9.026475E-09
       133  13  8.048858E-01 -4.310496E+05 -1.352424E+03 -1.033327E+02  1.335006E-08 -8.068027E-10
       133  14  3.309308E+01 -4.309603E+05 -1.662549E+03  1.291963E+02 -1.295034E-09  5.197553E-10
       133  15 -2.149381E+02 -4.310498E+05 -2.581475E+03 -1.035247E+02 -3.073832E-09  3.911392E-10
       133  16  1.039456E+02 -4.306271E+05 -1.259831E+03 -1.438545E+02 -2.967498E-09 -5.853620E-09
       133  17  3.489177E+02 -4.296777E+05 -1.366598E+03  1.239786E+02 -4.204343E-10 -6.606525E-09
       133  18  3.119786E+02 -4.289088E+05 -2.088542E+03 -7.343771E+01 -3.030580E-09 -2.824589E-09
       133  19 -1.023359E+02 -4.314721E+05 -1.445017E+03 -6.281099E+01  2.899513E+01 -1.080534E+02
       133  20 -2.827314E+02 -4.322428E+05 -1.958499E+03  1.344140E+02  5.562494E+01 -9.255767E+02
       133  21 -7.418544E+02 -4.331907E+05 -3.074401E+03 -1.336117E+02  9.545626E+01 -1.743099E+03
       133  22  8.048906E-01 -4.310496E+05 -1.352424E+03 -1.033327E+02  2.900711E+01 -1.214795E+02
       133  23  3.309333E+01 -4.309603E+05 -1.662547E+03  1.291963E+02  5.564508E+01 -9.481876E+02
       133  24 -2.149373E+02 -4.310498E+05 -2.581469E+03 -1.035248E+02  9.548447E+01 -1.774896E+03
       133  25  1.039456E+02 -4.306271E+05 -1.259831E+03 -1.438545E+02  2.901909E+01 -1.349055E+02
       133  26  3.489179E+02 -4.296777E+05 -1.366596E+03  1.239786E+02  5.566523E+01 -9.707986E+02
       133  27  3.119795E+02 -4.289088E+05 -2.088536E+03 -7.343785E+01  9.551267E+01 -1.806693E+03
       134   1 -5.704591E+02 -4.342565E+05 -3.930607E+03  3.842679E+02 -1.228742E+02  2.257097E+03
       134   2 -6.821758E+02 -4.345258E+05 -6.272556E+03 -1.162489E+02 -1.646698E+02  4.989429E+03
       134   3 -4.075899E+03 -4.359729E+05 -1.121500E+04 -1.082443E+03 -1.976877E+02  7.721757E+03
       134   4  1.662980E+02 -4.312714E+05 -3.238527E+03 -1.026893E+02 -1.229030E+02  2.287542E+03
       134   5  2.637676E+02 -4.306836E+05 -5.384258E+03  1.287807E+02 -1.646893E+02  5.013778E+03
       134   6 -2.919700E+03 -4.312725E+05 -1.012623E+04 -1.054271E+02 -1.976916E+02  7.740016E+03
       134   7  9.030554E+02 -4.282863E+05 -2.546448E+03 -5.896489E+02 -1.229319E+02  2.317987E+03
       134   8  1.209710E+03 -4.268414E+05 -4.495961E+03  3.738118E+02 -1.647089E+02  5.038128E+03
       134   9 -1.763499E+03 -4.265721E+05 -9.037467E+03  8.715967E+02 -1.976954E+02  7.758274E+03
       134  10 -5.704605E+02 -4.342565E+05 -3.930617E+03  3.842681E+02 -1.721115E-09  8.301765E-10
       134  11 -6.821825E+02 -4.345259E+05 -6.272603E+03 -1.162482E+02  1.112144E-08  3.665405E-10
       134  12 -4.075915E+03 -4.359730E+05 -1.121511E+04 -1.082442E+03  2.950288E-09 -5.696169E-09
       134  13  1.662966E+02 -4.312714E+05 -3.238537E+03 -1.026891E+02  6.906710E-09 -1.925433E-09
       134  14  2.637608E+02 -4.306837E+05 -5.384305E+03  1.287814E+02  5.555026E-09  1.101072E-09
       134  15 -2.919716E+03 -4.312726E+05 -1.012634E+04 -1.054259E+02  3.865161E-09 -2.764748E-09
       134  16  9.030540E+02 -4.282863E+05 -2.546458E+03 -5.896487E+02  3.601058E-09  1.198494E-09
       134  17  1.209703E+03 -4.268415E+05 -4.496009E+03  3.738125E+02  7.955329E-09  6.400305E-09
       134  18 -1.763515E+03 -4.265722E+05 -9.037580E+03  8.715979E+02 -8.006530E-10  6.936609E-09
       134  19 -5.704591E+02 -4.342565E+05 -3.930607E+03  3.842679E+02  1.228742E+02 -2.257097E+03
       134  20 -6.821758E+02 -4.345258E+05 -6.272556E+03 -1.162489E+02  1.646698E+02 -4.989429E+03
       134  21 -4.075899E+03 -4.359729E+05 -1.121500E+04 -1.082443E+03  1.976877E+02 -7.721757E+03
       134  22  1.662980E+02 -4.312714E+05 -3.238527E+03 -1.026893E+02  1.229030E+02 -2.287542E+03
       134  23  2.637676E+02 -4.306836E+05 -5.384258E+03  1.287807E+02  1.646893E+02 -5.013778E+03
       134  24 -2.919700E+03 -4.312725E+05 -1.012623E+04 -1.054271E+02  1.976916E+02 -7.740016E+03
       134  25  9.030554E+02 -4.282863E+05 -2.546448E+03 -5.896489E+02  1.229319E+02 -2.317987E+03
       134  26  1.209710E+03 -4.268414E+05 -4.495961E+03  3.738118E+02  1.647089E+02 -5.038128E+03
       134  27 -1.763499E+03 -4.265721E+05 -9.037467E+03  8.715967E+02  1.976954E+02 -7.758274E+03
       135   1  6.897023E+02 -4.391543E+05 -1.381408E+04  5.412828E+03 -2.454981E+02  9.528654E+03
       135   2  1.342714E+03 -4.341393E+05 -2.213139E+04 -4.627105E+03 -2.709347E+02  2.070276E+04
       135   3 -3.928723E+04 -4.409038E+05 -4.804794E+04 -1.514726E+04 -1.125240E+02  3.187687E+04
       135   4  2.064082E+03 -4.336221E+05 -1.253535E+04 -9.687633E+01 -2.456487E+02  9.603439E+03
       135   5  2.908011E+03 -4.277476E+05 -2.064919E+04  1.259433E+02 -2.707288E+02  2.064950E+04
       135   6 -3.750894E+04 -4.336303E+05 -4.627322E+04 -1.317376E+02 -1.115927E+02  3.169558E+04
       135   7  3.438574E+03 -4.280898E+05 -1.125662E+04 -5.606630E+03 -2.458006E+02  9.678225E+03
       135   8  4.473390E+03 -4.213557E+05 -1.916697E+04  4.879041E+03 -2.705237E+02  2.059623E+04
       135   9 -3.572981E+04 -4.263564E+05 -4.449838E+04  1.488396E+04 -1.106702E+02  3.151429E+04
       135  10  6.896778E+02 -4.391544E+05 -1.381425E+04  5.412830E+03 -1.068502E-09  5.110161E-09
       135  11  1.342599E+03 -4.341398E+05 -2.213220E+04 -4.627100E+03 -2.028802E-09  6.378588E-09
       135  12 -3.928751E+04 -4.409049E+05 -4.804986E+04 -1.514725E+04 -5.114925E-09  1.471201E-09
       135  13  2.064057E+03 -4.336222E+05 -1.253553E+04 -9.687443E+01  6.274102E-09 -2.936928E-09
       135  14  2.907896E+03 -4.277480E+05 -2.064999E+04  1.259478E+02 -6.607135E-09 -6.933113E-10
       135  15 -3.750921E+04 -4.336314E+05 -4.627511E+04 -1.317347E+02  7.357680E-09  2.555604E-10
       135  16  3.438549E+03 -4.280899E+05 -1.125679E+04 -5.606628E+03  2.500743E-09 -4.162832E-09
       135  17  4.473276E+03 -4.213562E+05 -1.916777E+04  4.879045E+03 -4.678562E-11 -5.049136E-09
       135  18 -3.573008E+04 -4.263574E+05 -4.450025E+04  1.488396E+04  4.141043E-09  1.615133E-09
       135  19  6.897023E+02 -4.391543E+05 -1.381408E+04  5.412828E+03  2.454981E+02 -9.528654E+03
       135  20  1.342714E+03 -4.341393E+05 -2.213139E+04 -4.627105E+03  2.709347E+02 -2.070276E+04
       135  21 -3.928723E+04 -4.409038E+05 -4.804794E+04 -1.514726E+04  1.125240E+02 -3.187687E+04
       135  22  2.064082E+03 -4.336221E+05 -1.253535E+04 -9.687633E+01  2.456487E+02 -9.603439E+03
       135  23  2.908011E+03 -4.277476E+05 -2.064919E+04  1.259433E+02  2.707288E+02 -2.064950E+04
       135  24 -3.750894E+04 -4.336303E+05 -4.627322E+04 -1.317376E+02  1.115927E+02 -3.169558E+04
       135  25  3.438574E+03 -4.280898E+05 -1.125662E+04 -5.606630E+03  2.458006E+02 -9.678225E+03
       135  26  4.473390E+03 -4.213557E+05 -1.916697E+04  4.879041E+03  2.705237E+02 -2.059623E+04
       135  27 -3.572981E+04 -4.263564E+05 -4.449838E+04  1.488396E+04  1.106702E+02 -3.151429E+04
       136   1 -1.234974E+07 -4.177209E+06 -2.330606E+06 -4.246088E+06 -6.369601E+05 -1.109129E+05
       136   2 -1.211862E+07 -3.769000E+06 -1.882772E+06 -4.158782E+06 -4.466971E+05  2.875965E+05
       136   3 -1.193914E+07 -3.625075E+06 -1.716824E+06 -4.081133E+06 -1.684203E+05  4.656029E+05
       136   4 -4.723490E+06 -1.078927E+06 -2.629385E+05 -1.962766E+06 -2.167147E+05  5.540997E+04
       136   5 -4.706259E+06 -8.730401E+05 -1.191822E+05 -1.996207E+06 -2.637066E+05  3.591379E+05
       136   6 -4.691414E+06 -8.819159E+05 -6.423212E+04 -2.039563E+06 -2.233974E+05  4.435529E+05
       136   7  2.960551E+06  2.025218E+06  1.800202E+06  3.471623E+05  2.093609E+05  2.242260E+05
       136   8  2.762188E+06  2.028279E+06  1.640604E+06  1.908154E+05 -7.827628E+04  4.316744E+05
       136   9  2.610305E+06  1.865746E+06  1.584939E+06  2.435931E+04 -2.790894E+05  4.212341E+05
       136  10 -1.235019E+07 -4.177335E+06 -2.331408E+06 -4.246146E+06 -5.006518E-09  6.778447E-09
       136  11 -1.211886E+07 -3.769142E+06 -1.883305E+06 -4.158678E+06 -9.673803E-09  6.030130E-09
       136  12 -1.193923E+07 -3.625315E+06 -1.717284E+06 -4.081069E+06  1.029850E-08  1.097716E-08
       136  13 -4.723542E+06 -1.078943E+06 -2.630330E+05 -1.962756E+06  8.265673E-09  1.887710E-09
       136  14 -4.706368E+06 -8.731968E+05 -1.195545E+05 -1.996131E+06  1.221008E-08  1.265935E-08
       136  15 -4.691520E+06 -8.821399E+05 -6.469443E+04 -2.039483E+06 -2.543845E-09 -3.971160E-10
       136  16  2.960491E+06  2.025153E+06  1.800026E+06  3.471246E+05 -1.202404E-09 -8.388209E-09
       136  17  2.762132E+06  2.028078E+06  1.640243E+06  1.908425E+05  5.580972E-09 -2.495379E-09
       136  18  2.610175E+06  1.865535E+06  1.584460E+06  2.445369E+04 -1.598515E-09 -2.072721E-08
       136  19 -1.234974E+07 -4.177209E+06 -2.330606E+06 -4.246088E+06  6.369601E+05  1.109129E+05
       136  20 -1.211862E+07 -3.769000E+06 -1.882772E+06 -4.158782E+06  4.466971E+05 -2.875965E+05
       136  21 -1.193914E+07 -3.625075E+06 -1.716824E+06 -4.081133E+06  1.684203E+05 -4.656029E+05
       136  22 -4.723490E+06 -1.078927E+06 -2.629385E+05 -1.962766E+06  2.167147E+05 -5.540997E+04
       136  23 -4.706259E+06 -8.730401E+05 -1.191822E+05 -1.996207E+06  2.637066E+05 -3.591379E+05
       136  24 -4.691414E+06 -8.819159E+05 -6.423212E+04 -2.039563E+06  2.233974E+05 -4.435529E+05
       136  25  2.960551E+06  2.025218E+06  1.800202E+06  3.471623E+05 -2.093609E+05 -2.242260E+05
       136  26  2.762188E+06  2.028279E+06  1.640604E+06  1.908154E+05  7.827628E+04 -4.316744E+05
       136  27  2.610305E+06  1.865746E+06  1.584939E+06  2.435931E+04  2.790894E+05 -4.212341E+05
       137   1 -1.170850E+07 -3.582504E+06 -1.664608E+06 -4.035985E+06 -2.080186E+05  4.234617E+05
       137   2 -1.147198E+07 -3.416895E+06 -1.565652E+06 -3.909568E+06 -1.792873E+05  4.293586E+05
       137   3 -1.115616E+07 -3.331482E+06 -1.485782E+06 -3.858551E+06 -1.460602E+05  4.233421E+05
       137   4 -4.679497E+06 -8.992495E+05 -5.023307E+04 -2.035027E+06 -2.066988E+05  4.234666E+05
       137   5 -4.718848E+06 -8.543056E+05 -2.795182E+04 -1.999435E+06 -1.906558E+05  4.244725E+05
       137   6 -4.676316E+06 -8.868145E+05 -1.440208E+04 -2.039209E+06 -1.701568E+05  4.136271E+05
       137   7  2.400155E+06  1.788421E+06  1.560843E+06 -1.275681E+04 -2.053638E+05  4.234820E+05
       137   8  2.081047E+06  1.712267E+06  1.506753E+06 -6.978743E+04 -2.021634E+05  4.195366E+05
       137   9  1.846529E+06  1.561404E+06  1.454231E+06 -2.020728E+05 -1.945339E+05  4.038081E+05
       137  10 -1.170860E+07 -3.582708E+06 -1.665025E+06 -4.035914E+06 -2.945074E-08 -1.265594E-09
       137  11 -1.147206E+07 -3.417101E+06 -1.566058E+06 -3.909506E+06 -1.262101E-08  1.583369E-08
       137  12 -1.115623E+07 -3.331679E+06 -1.486158E+06 -3.858501E+06  1.875294E-08  1.152015E-08
       137  13 -4.679591E+06 -8.994529E+05 -5.064927E+04 -2.034957E+06  7.973589E-09 -2.267007E-09
       137  14 -4.718935E+06 -8.545083E+05 -2.835766E+04 -1.999370E+06 -6.679606E-09 -8.357931E-09
       137  15 -4.676393E+06 -8.870055E+05 -1.477701E+04 -2.039152E+06 -3.988715E-09 -1.650989E-09
       137  16  2.400062E+06  1.788218E+06  1.560428E+06 -1.268700E+04  1.919241E-08  6.801832E-09
       137  17  2.080956E+06  1.712068E+06  1.506347E+06 -6.971933E+04 -6.367880E-09  6.999512E-09
       137  18  1.846445E+06  1.561220E+06  1.453854E+06 -2.020097E+05 -1.829757E-08 -1.066915E-09
       137  19 -1.170850E+07 -3.582504E+06 -1.664608E+06 -4.035985E+06  2.080186E+05 -4.234617E+05
       137  20 -1.147198E+07 -3.416895E+06 -1.565652E+06 -3.909568E+06  1.792873E+05 -4.293586E+05
       137  21 -1.115616E+07 -3.331482E+06 -1.485782E+06 -3.858551E+06  1.460602E+05 -4.233421E+05
       137  22 -4.679497E+06 -8.992495E+05 -5.023307E+04 -2.035027E+06  2.066988E+05 -4.234666E+05
       137  23 -4.718848E+06 -8.543056E+05 -2.795182E+04 -1.999435E+06  1.906558E+05 -4.244725E+05
       137  24 -4.676316E+06 -8.868145E+05 -1.440208E+04 -2.039209E+06  1.701568E+05 -4.136271E+05
       137  25  2.400155E+06  1.788421E+06  1.560843E+06 -1.275681E+04  2.053638E+05 -4.234820E+05
       137  26  2.081047E+06  1.712267E+06  1.506753E+06 -6.978743E+04  2.021634E+05 -4.195366E+05
       137  27  1.846529E+06  1.561404E+06  1.454231E+06 -2.020728E+05  1.945339E+05 -4.038081E+05
       138   1 -1.092789E+07 -3.244849E+06 -1.428946E+06 -3.794209E+06 -1.408245E+05  4.105240E+05
       138   2 -1.065515E+07 -3.074001E+06 -1.351478E+06 -3.652084E+06 -1.273643E+05  3.912851E+05
       138   3 -1.028986E+07 -2.984217E+06 -1.275026E+06 -3.600363E+06 -1.135229E+05  3.705831E+05
       138   4 -4.673528E+06 -8.892926E+05 -1.108930E+04 -2.041577E+06 -1.630363E+05  4.015927E+05
       138   5 -4.718948E+06 -8.468245E+05 -7.264423E+03 -1.996900E+06 -1.511002E+05  3.818617E+05
       138   6 -4.671622E+06 -8.850334E+05 -3.231298E+03 -2.042607E+06 -1.387884E+05  3.606739E+05
       138   7  1.620963E+06  1.469583E+06  1.404240E+06 -2.723844E+05 -1.854977E+05  3.925689E+05
       138   8  1.253353E+06  1.383273E+06  1.334673E+06 -3.268981E+05 -1.750885E+05  3.723448E+05
       138   9  9.788959E+05  1.216698E+06  1.266521E+06 -4.716781E+05 -1.643077E+05  3.506708E+05
       138  10 -1.092796E+07 -3.245035E+06 -1.429299E+06 -3.794162E+06  9.510259E-09  5.984963E-09
       138  11 -1.065521E+07 -3.074169E+06 -1.351796E+06 -3.652044E+06  5.979617E-09  4.439318E-10
       138  12 -1.028991E+07 -2.984367E+06 -1.275307E+06 -3.600329E+06 -7.188385E-09 -4.496762E-09
       138  13 -4.673600E+06 -8.894724E+05 -1.144140E+04 -2.041524E+06  3.261796E-09 -5.470528E-09
       138  14 -4.719011E+06 -8.469868E+05 -7.580522E+03 -1.996854E+06  1.319647E-09 -2.177352E-09
       138  15 -4.671678E+06 -8.851779E+05 -3.511221E+03 -2.042567E+06 -5.891408E-09 -6.580446E-09
       138  16  1.620885E+06  1.469409E+06  1.403887E+06 -2.723260E+05 -7.772828E-10  2.270018E-09
       138  17  1.253284E+06  1.383116E+06  1.334356E+06 -3.268457E+05  3.362284E-09  1.656302E-09
       138  18  9.788341E+05  1.216560E+06  1.266240E+06 -4.716318E+05  5.772087E-09 -4.130551E-09
       138  19 -1.092789E+07 -3.244849E+06 -1.428946E+06 -3.794209E+06  1.408245E+05 -4.105240E+05
       138  20 -1.065515E+07 -3.074001E+06 -1.351478E+06 -3.652084E+06  1.273643E+05 -3.912851E+05
       138  21 -1.028986E+07 -2.984217E+06 -1.275026E+06 -3.600363E+06  1.135229E+05 -3.705831E+05
       138  22 -4.673528E+06 -8.892926E+05 -1.108930E+04 -2.041577E+06  1.630363E+05 -4.015927E+05
       138  23 -4.718948E+06 -8.468245E+05 -7.264423E+03 -1.996900E+06  1.511002E+05 -3.818617E+05
       138  24 -4.671622E+06 -8.850334E+05 -3.231298E+03 -2.042607E+06  1.387884E+05 -3.606739E+05
       138  25  1.620963E+06  1.469583E+06  1.404240E+06 -2.723844E+05  1.854977E+05 -3.925689E+05
       138  26  1.253353E+06  1.383273E+06  1.334673E+06 -3.268981E+05  1.750885E+05 -3.723448E+05
       138  27  9.788959E+05  1.216698E+06  1.266521E+06 -4.716781E+05  1.643077E+05 -3.506708E+05
       139   1 -1.003477E+07 -2.887078E+06 -1.214117E+06 -3.529234E+06 -1.070216E+05  3.572421E+05
       139   2 -9.728140E+06 -2.702589E+06 -1.133287E+06 -3.374822E+06 -9.567890E+04  3.336663E+05
       139   3 -9.323459E+06 -2.607274E+06 -1.051852E+06 -3.322129E+06 -8.419972E+04  3.092819E+05
       139   4 -4.669740E+06 -8.865302E+05 -2.628337E+03 -2.044970E+06 -1.329792E+05  3.471274E+05
       139   5 -4.717931E+06 -8.402002E+05 -2.327624E+03 -1.994545E+06 -1.224821E+05  3.233192E+05
       139   6 -4.668045E+06 -8.828232E+05 -7.594998E+02 -2.045840E+06 -1.118509E+05  2.987055E+05
       139   7  7.246875E+05  1.116311E+06  1.206998E+06 -5.487360E+05 -1.591851E+05  3.369209E+05
       139   8  3.179234E+05  1.024162E+06  1.127017E+06 -6.038793E+05 -1.495243E+05  3.128838E+05
       139   9  9.514243E+03  8.433058E+05  1.048947E+06 -7.606308E+05 -1.397309E+05  2.880448E+05
       139  10 -1.003481E+07 -2.887218E+06 -1.214378E+06 -3.529203E+06 -6.332996E-09 -3.859346E-09
       139  11 -9.728179E+06 -2.702711E+06 -1.133513E+06 -3.374796E+06 -6.401322E-09  1.787548E-09
       139  12 -9.323492E+06 -2.607378E+06 -1.052045E+06 -3.322108E+06 -2.594178E-10 -4.057596E-10
       139  13 -4.669791E+06 -8.866640E+05 -2.887329E+03 -2.044933E+06 -5.021479E-09 -3.447156E-09
       139  14 -4.717975E+06 -8.403162E+05 -2.551673E+03 -1.994513E+06 -2.125901E-09  1.245262E-09
       139  15 -4.668082E+06 -8.829221E+05 -9.501829E+02 -2.045813E+06  1.468136E-09  4.350879E-09
       139  16  7.246300E+05  1.116183E+06  1.206738E+06 -5.486929E+05  4.193537E-09 -2.340471E-09
       139  17  3.178733E+05  1.024051E+06  1.126792E+06 -6.038417E+05  3.620401E-09  3.161934E-09
       139  18  9.471162E+03  8.432117E+05  1.048755E+06 -7.605985E+05  2.958128E-09  4.282260E-09
       139  19 -1.003477E+07 -2.887078E+06 -1.214117E+06 -3.529234E+06  1.070216E+05 -3.572421E+05
       139  20 -9.728140E+06 -2.702589E+06 -1.133287E+06 -3.374822E+06  9.567890E+04 -3.336663E+05
       139  21 -9.323459E+06 -2.607274E+06 -1.051852E+06 -3.322129E+06  8.419972E+04 -3.092819E+05
       139  22 -4.669740E+06 -8.865302E+05 -2.628337E+03 -2.044970E+06  1.329792E+05 -3.471274E+05
       139  23 -4.717931E+06 -8.402002E+05 -2.327624E+03 -1.994545E+06  1.224821E+05 -3.233192E+05
       139  24 -4.668045E+06 -8.828232E+05 -7.594998E+02 -2.045840E+06  1.118509E+05 -2.987055E+05
       139  25  7.246875E+05  1.116311E+06  1.206998E+06 -5.487360E+05  1.591851E+05 -3.369209E+05
       139  26  3.179234E+05  1.024162E+06  1.127017E+06 -6.038793E+05  1.495243E+05 -3.128838E+05
       139  27  9.514243E+03  8.433058E+05  1.048947E+06 -7.606308E+05  1.397309E+05 -2.880448E+05
       140   1 -9.044128E+06 -2.502645E+06 -9.861736E+05 -3.245831E+06 -7.770929E+04  2.945626E+05
       140   2 -8.709049E+06 -2.307049E+06 -8.999345E+05 -3.081569E+06 -6.653572E+04  2.686332E+05
       140   3 -8.272143E+06 -2.207569E+06 -8.132800E+05 -3.028447E+06 -5.527309E+04  2.420776E+05
       140   4 -4.666586E+06 -8.839866E+05 -7.941624E+02 -2.047829E+06 -1.060417E+05  2.837819E+05
       140   5 -4.716741E+06 -8.344230E+05 -1.132885E+03 -1.992621E+06 -9.552777E+04  2.576806E+05
       140   6 -4.665119E+06 -8.808049E+05 -5.432668E+02 -2.048564E+06 -8.492646E+04  2.309555E+05
       140   7 -2.694887E+05  7.361378E+05  9.833605E+05 -8.419634E+05 -1.345940E+05  2.729200E+05
       140   8 -7.081960E+05  6.393988E+05  8.966466E+05 -8.971666E+05 -1.247246E+05  2.466527E+05
       140   9 -1.044871E+06  4.469118E+05  8.113547E+05 -1.063402E+06 -1.147686E+05  2.197640E+05
       140  10 -9.044158E+06 -2.502739E+06 -9.863476E+05 -3.245813E+06  1.682464E-09  8.531500E-10
       140  11 -8.709073E+06 -2.307128E+06 -9.000781E+05 -3.081555E+06  4.937185E-10  5.432585E-09
       140  12 -8.272162E+06 -2.207633E+06 -8.133956E+05 -3.028437E+06 -2.528214E-09 -2.955041E-09
       140  13 -4.666619E+06 -8.840759E+05 -9.661801E+02 -2.047805E+06  2.005112E-09  2.514962E-09
       140  14 -4.716768E+06 -8.344965E+05 -1.274441E+03 -1.992601E+06  1.408317E-09  3.758145E-10
       140  15 -4.665141E+06 -8.808639E+05 -6.567614E+02 -2.048549E+06  4.234878E-10 -2.049290E-09
       140  16 -2.695280E+05  7.360532E+05  9.831869E+05 -8.419339E+05  2.264998E-09  2.796359E-09
       140  17 -7.082289E+05  6.393295E+05  8.965034E+05 -8.971419E+05 -2.092263E-10 -1.698672E-09
       140  18 -1.044898E+06  4.468565E+05  8.112395E+05 -1.063382E+06  1.884220E-09  1.430247E-09
       140  19 -9.044128E+06 -2.502645E+06 -9.861736E+05 -3.245831E+06  7.770929E+04 -2.945626E+05
       140  20 -8.709049E+06 -2.307049E+06 -8.999345E+05 -3.081569E+06  6.653572E+04 -2.686332E+05
       140  21 -8.272143E+06 -2.207569E+06 -8.132800E+05 -3.028447E+06  5.527309E+04 -2.420776E+05
       140  22 -4.666586E+06 -8.839866E+05 -7.941624E+02 -2.047829E+06  1.060417E+05 -2.837819E+05
       140  23 -4.716741E+06 -8.344230E+05 -1.132885E+03 -1.992621E+06  9.552777E+04 -2.576806E+05
       140  24 -4.665119E+06 -8.808049E+05 -5.432668E+02 -2.048564E+06  8.492646E+04 -2.309555E+05
       140  25 -2.694887E+05  7.361378E+05  9.833605E+05 -8.419634E+05  1.345940E+05 -2.729200E+05
       140  26 -7.081960E+05  6.393988E+05  8.966466E+05 -8.971666E+05  1.247246E+05 -2.466527E+05
       140  27 -1.044871E+06  4.469118E+05  8.113547E+05 -1.063402E+06  1.147686E+05 -2.197640E+05
       141   1 -7.973256E+06 -2.097063E+06 -7.435481E+05 -2.948044E+06 -4.866895E+04  2.262908E+05
       141   2 -7.616031E+06 -1.893260E+06 -6.530605E+05 -2.776284E+06 -3.703118E+04  1.987982E+05
       141   3 -7.154433E+06 -1.790984E+06 -5.628414E+05 -2.723012E+06 -2.533573E+04  1.708525E+05
       141   4 -4.664064E+06 -8.816754E+05 -8.227767E+02 -2.050134E+06 -7.885191E+04  2.150136E+05
       141   5 -4.715637E+06 -8.297789E+05 -1.525613E+03 -1.991143E+06 -6.769439E+04  1.874001E+05
       141   6 -4.662952E+06 -8.792979E+05 -2.127160E+03 -2.050673E+06 -5.648061E+04  1.593349E+05
       141   7 -1.343695E+06  3.345282E+05  7.412147E+05 -1.147776E+06 -1.092113E+05  2.036715E+05
       141   8 -1.806672E+06  2.343190E+05  6.494790E+05 -1.202599E+06 -9.851439E+04  1.759445E+05
       141   9 -2.165161E+06  3.283352E+04  5.581934E+05 -1.375835E+06 -8.776202E+04  1.477673E+05
       141  10 -7.973272E+06 -2.097118E+06 -7.436485E+05 -2.948035E+06  1.288980E-10 -3.517400E-09
       141  11 -7.616043E+06 -1.893303E+06 -6.531372E+05 -2.776278E+06 -2.025683E-09  1.443262E-09
       141  12 -7.154442E+06 -1.791015E+06 -5.628974E+05 -2.723008E+06 -8.770564E-10 -3.815259E-09
       141  13 -4.664083E+06 -8.817266E+05 -9.210812E+02 -2.050120E+06 -2.189814E-10 -8.116319E-10
       141  14 -4.715652E+06 -8.298177E+05 -1.600026E+03 -1.991133E+06  1.141105E-09  8.150082E-09
       141  15 -4.662962E+06 -8.793260E+05 -2.180724E+03 -2.050665E+06 -3.671412E-10  6.944843E-09
       141  16 -1.343719E+06  3.344806E+05  7.411146E+05 -1.147758E+06 -2.175074E-09 -9.482434E-10
       141  17 -1.806691E+06  2.342832E+05  6.494027E+05 -1.202585E+06 -1.980909E-09 -7.673636E-09
       141  18 -2.165175E+06  3.280809E+04  5.581380E+05 -1.375825E+06  3.684768E-09  1.519021E-08
       141  19 -7.973256E+06 -2.097063E+06 -7.435481E+05 -2.948044E+06  4.866895E+04 -2.262908E+05
       141  20 -7.616031E+06 -1.893260E+06 -6.530605E+05 -2.776284E+06  3.703118E+04 -1.987982E+05
       141  21 -7.154433E+06 -1.790984E+06 -5.628414E+05 -2.723012E+06  2.533573E+04 -1.708525E+05
       141  22 -4.664064E+06 -8.816754E+05 -8.227767E+02 -2.050134E+06  7.885191E+04 -2.150136E+05
       141  23 -4.715637E+06 -8.297789E+05 -1.525613E+03 -1.991143E+06  6.769439E+04 -1.874001E+05
       141  24 -4.662952E+06 -8.792979E+05 -2.127160E+03 -2.050673E+06  5.648061E+04 -1.593349E+05
       141  25 -1.343695E+06  3.345282E+05  7.412147E+05 -1.147776E+06  1.092113E+05 -2.036715E+05
       141  26 -1.806672E+06  2.343190E+05  6.494790E+05 -1.202599E+06  9.851439E+04 -1.759445E+05
       141  27 -2.165161E+06  3.283352E+04  5.581934E+05 -1.375835E+06  8.776202E+04 -1.477673E+05
       142   1 -6.841265E+06 -1.676288E+06 -4.905762E+05 -2.639810E+06 -1.839981E+04  1.543877E+05
       142   2 -6.468922E+06 -1.466973E+06 -3.987490E+05 -2.462394E+06 -4.720184E+03  1.264638E+05
       142   3 -5.991414E+06 -1.364305E+06 -3.093785E+05 -2.408097E+06  8.983737E+03  9.829162E+04
       142   4 -4.662355E+06 -8.797396E+05 -2.945795E+03 -2.051824E+06 -4.991401E+04  1.427632E+05
       142   5 -4.714646E+06 -8.265986E+05 -5.399695E+03 -1.990082E+06 -3.649698E+04  1.147782E+05
       142   6 -4.661923E+06 -8.800483E+05 -1.010445E+04 -2.051510E+06 -2.305807E+04  8.654503E+04
       142   7 -2.478629E+06 -8.285368E+04  4.843842E+05 -1.461931E+06 -8.154868E+04  1.310944E+05
       142   8 -2.957241E+06 -1.860049E+05  3.877581E+05 -1.516535E+06 -6.837164E+04  1.030568E+05
       142   9 -3.330630E+06 -3.956646E+05  2.890628E+05 -1.694216E+06 -5.517481E+04  7.477108E+04
       142  10 -6.841272E+06 -1.676314E+06 -4.906215E+05 -2.639808E+06  6.405207E-09 -3.622470E-09
       142  11 -6.468926E+06 -1.466990E+06 -3.987790E+05 -2.462394E+06 -3.315943E-09 -1.541275E-08
       142  12 -5.991417E+06 -1.364316E+06 -3.093968E+05 -2.408098E+06 -2.005492E-09  1.021724E-09
       142  13 -4.662364E+06 -8.797621E+05 -2.988666E+03 -2.051819E+06 -1.058810E-09  1.426579E-09
       142  14 -4.714651E+06 -8.266131E+05 -5.426886E+03 -1.990079E+06  4.869526E-10 -4.407969E-09
       142  15 -4.661926E+06 -8.800564E+05 -1.011949E+04 -2.051509E+06 -3.763634E-09  2.710392E-09
       142  16 -2.478641E+06 -8.287386E+04  4.843396E+05 -1.461922E+06 -8.983923E-09  7.538184E-09
       142  17 -2.957249E+06 -1.860175E+05  3.877294E+05 -1.516529E+06  1.253884E-09 -2.766071E-09
       142  18 -3.330635E+06 -3.956714E+05  2.890466E+05 -1.694213E+06  7.259352E-10  1.336216E-10
       142  19 -6.841265E+06 -1.676288E+06 -4.905762E+05 -2.639810E+06  1.839981E+04 -1.543877E+05
       142  20 -6.468922E+06 -1.466973E+06 -3.987490E+05 -2.462394E+06  4.720184E+03 -1.264638E+05
       142  21 -5.991414E+06 -1.364305E+06 -3.093785E+05 -2.408097E+06 -8.983737E+03 -9.829162E+04
       142  22 -4.662355E+06 -8.797396E+05 -2.945795E+03 -2.051824E+06  4.991401E+04 -1.427632E+05
       142  23 -4.714646E+06 -8.265986E+05 -5.399695E+03 -1.990082E+06  3.649698E+04 -1.147782E+05
       142  24 -4.661923E+06 -8.800483E+05 -1.010445E+04 -2.051510E+06  2.305807E+04 -8.654503E+04
       142  25 -2.478629E+06 -8.285368E+04  4.843842E+05 -1.461931E+06  8.154868E+04 -1.310944E+05
       142  26 -2.957241E+06 -1.860049E+05  3.877581E+05 -1.516535E+06  6.837164E+04 -1.030568E+05
       142  27 -3.330630E+06 -3.956646E+05  2.890628E+05 -1.694216E+06  5.517481E+04 -7.477108E+04
       143   1 -5.667055E+06 -1.248181E+06 -2.374147E+05 -2.329403E+06  1.718568E+04  8.177674E+04
       143   2 -5.292115E+06 -1.030345E+06 -1.522485E+05 -2.135230E+06  4.007300E+04  5.681374E+04
       143   3 -4.825043E+06 -9.548190E+05 -8.584045E+04 -2.058102E+06  6.276281E+04  3.235211E+04
       143   4 -4.663240E+06 -8.773847E+05 -1.305639E+04 -2.053978E+06 -1.519911E+04  6.991982E+04
       143   5 -4.711913E+06 -8.269762E+05 -2.379825E+04 -1.987792E+06  8.235793E+03  4.516726E+04
       143   6 -4.668762E+06 -9.189881E+05 -5.373196E+04 -2.038733E+06  3.146457E+04  2.091292E+04
       143   7 -3.658395E+06 -5.065074E+05  2.112438E+05 -1.778137E+06 -4.764094E+04  5.804130E+04
       143   8 -4.131374E+06 -6.235911E+05  1.046339E+05 -1.840230E+06 -2.363344E+04  3.351012E+04
       143   9 -4.512458E+06 -8.831580E+05 -2.162122E+04 -2.019360E+06  1.584859E+02  9.473633E+03
       143  10 -5.667057E+06 -1.248188E+06 -2.374278E+05 -2.329404E+06 -1.132684E-09 -6.373329E-09
       143  11 -5.292118E+06 -1.030349E+06 -1.522577E+05 -2.135232E+06 -7.702186E-09 -1.115110E-08
       143  12 -4.825047E+06 -9.548212E+05 -8.584990E+04 -2.058104E+06 -6.031679E-09 -4.315780E-09
       143  13 -4.663242E+06 -8.773900E+05 -1.306599E+04 -2.053977E+06 -1.446520E-09  7.039375E-09
       143  14 -4.711914E+06 -8.269784E+05 -2.380221E+04 -1.987792E+06 -3.196902E-09  4.993749E-09
       143  15 -4.668764E+06 -9.189889E+05 -5.373466E+04 -2.038733E+06  7.903096E-10 -7.211269E-09
       143  16 -3.658398E+06 -5.065116E+05  2.112333E+05 -1.778135E+06  3.425457E-09  7.276597E-09
       143  17 -4.131375E+06 -6.235925E+05  1.046307E+05 -1.840230E+06  6.855568E-09  1.135655E-08
       143  18 -4.512458E+06 -8.831581E+05 -2.162139E+04 -2.019360E+06  9.742941E-09  1.157624E-09
       143  19 -5.667055E+06 -1.248181E+06 -2.374147E+05 -2.329403E+06 -1.718568E+04 -8.177674E+04
       143  20 -5.292115E+06 -1.030345E+06 -1.522485E+05 -2.135230E+06 -4.007300E+04 -5.681374E+04
       143  21 -4.825043E+06 -9.548190E+05 -8.584045E+04 -2.058102E+06 -6.276281E+04 -3.235211E+04
       143  22 -4.663240E+06 -8.773847E+05 -1.305639E+04 -2.053978E+06  1.519911E+04 -6.991982E+04
       143  23 -4.711913E+06 -8.269762E+05 -2.379825E+04 -1.987792E+06 -8.235793E+03 -4.516726E+04
       143  24 -4.668762E+06 -9.189881E+05 -5.373196E+04 -2.038733E+06 -3.146457E+04 -2.091292E+04
       143  25 -3.658395E+06 -5.065074E+05  2.112438E+05 -1.778137E+06  4.764094E+04 -5.804130E+04
       143  26 -4.131374E+06 -6.235911E+05  1.046339E+05 -1.840230E+06  2.363344E+04 -3.351012E+04
       143  27 -4.512458E+06 -8.831580E+05 -2.162122E+04 -2.019360E+06 -1.584859E+02 -9.473633E+03
       144   1  3.627623E+05  7.708906E+04  1.007068E+05  3.820252E+03  6.828402E+04 -2.011164E+01
       144   2  3.473985E+05 -1.765620E+04  4.330704E+04  8.715084E+02  4.494974E+04 -2.417467E+01
       144   3  3.627332E+05 -1.743981E+03  2.875940E+04 -1.956869E+03  2.161493E+04 -1.681294E+01
       144   4  3.600520E+05  7.641397E+04  1.000302E+05 -2.588827E+01  6.828277E+04 -2.053421E+01
       144   5  3.447090E+05 -1.832766E+04  4.263572E+04 -9.501530E+01  4.494938E+04 -2.424457E+01
       144   6  3.600645E+05 -2.411755E+03  2.809289E+04 -4.379170E+01  2.161546E+04 -1.674650E+01
       144   7  3.573416E+05  7.573893E+04  9.935360E+04 -3.872012E+03  6.828151E+04 -2.095675E+01
       144   8  3.420195E+05 -1.899912E+04  4.196440E+04 -1.061535E+03  4.494902E+04 -2.431446E+01
       144   9  3.573959E+05 -3.079516E+03  2.742638E+04  1.869278E+03  2.161600E+04 -1.668005E+01
       144  10  3.627573E+05  7.708780E+04  1.006981E+05  3.820254E+03  2.111303E-09  3.857445E-10
       144  11  3.473963E+05 -1.765674E+04  4.330325E+04  8.715093E+02  5.706584E-09 -2.132996E-10
       144  12  3.627327E+05 -1.744106E+03  2.875853E+04 -1.956869E+03 -2.942126E-09 -9.192050E-10
       144  13  3.600470E+05  7.641272E+04  1.000215E+05 -2.588714E+01  4.433683E-09 -2.765396E-10
       144  14  3.447068E+05 -1.832820E+04  4.263193E+04 -9.501442E+01 -8.494498E-09 -3.646266E-10
       144  15  3.600640E+05 -2.411880E+03  2.809201E+04 -4.379141E+01 -1.213338E-09 -5.298433E-10
       144  16  3.573366E+05  7.573768E+04  9.934485E+04 -3.872011E+03 -4.106566E-09 -6.629950E-11
       144  17  3.420173E+05 -1.899966E+04  4.196060E+04 -1.061534E+03 -2.036293E-09 -1.306111E-10
       144  18  3.573954E+05 -3.079641E+03  2.742550E+04  1.869278E+03 -6.854858E-10 -1.051603E-09
       144  19  3.627623E+05  7.708906E+04  1.007068E+05  3.820252E+03 -6.828402E+04  2.011164E+01
       144  20  3.473985E+05 -1.765620E+04  4.330704E+04  8.715084E+02 -4.494974E+04  2.417467E+01
       144  21  3.627332E+05 -1.743981E+03  2.875940E+04 -1.956869E+03 -2.161493E+04  1.681294E+01
       144  22  3.600520E+05  7.641397E+04  1.000302E+05 -2.588827E+01 -6.828277E+04  2.053421E+01
       144  23  3.447090E+05 -1.832766E+04  4.263572E+04 -9.501530E+01 -4.494938E+04  2.424457E+01
       144  24  3.600645E+05 -2.411755E+03  2.809289E+04 -4.379170E+01 -2.161546E+04  1.674650E+01
       144  25  3.573416E+05  7.573893E+04  9.935360E+04 -3.872012E+03 -6.828151E+04  2.095675E+01
       144  26  3.420195E+05 -1.899912E+04  4.196440E+04 -1.061535E+03 -4.494902E+04  2.431446E+01
       144  27  3.573959E+05 -3.079516E+03  2.742638E+04  1.869278E+03 -2.161600E+04  1.668005E+01
       145   1  3.565988E+05  1.246472E+04  2.382839E+04  5.162036E+02  1.694450E+04 -1.311991E+01
       145   2  3.540606E+05 -2.302091E+03  1.159484E+04  6.380742E+01  1.113717E+04 -1.261347E+01
       145   3  3.565926E+05  1.899071E+02  7.455404E+03 -3.641293E+02  5.329868E+03 -1.180131E+01
       145   4  3.543657E+05  1.190704E+04  2.327085E+04 -5.746471E+01  1.694440E+04 -1.313555E+01
       145   5  3.518319E+05 -2.858893E+03  1.103838E+04 -7.091402E+01  1.113712E+04 -1.261588E+01
       145   6  3.543683E+05 -3.659899E+02  6.900025E+03 -5.990410E+01  5.329849E+03 -1.179870E+01
       145   7  3.521326E+05  1.134936E+04  2.271331E+04 -6.311310E+02  1.694430E+04 -1.315119E+01
       145   8  3.496032E+05 -3.415695E+03  1.048192E+04 -2.056350E+02  1.113706E+04 -1.261829E+01
       145   9  3.521440E+05 -9.218869E+02  6.344646E+03  2.443200E+02  5.329830E+03 -1.179609E+01
       145  10  3.565985E+05  1.246465E+04  2.382786E+04  5.162038E+02  3.081741E-09 -7.007867E-10
       145  11  3.540605E+05 -2.302124E+03  1.159460E+04  6.380753E+01  2.362007E-09  2.423126E-10
       145  12  3.565926E+05  1.898995E+02  7.455350E+03 -3.641292E+02  1.302336E-09 -9.859624E-11
       145  13  3.543654E+05  1.190697E+04  2.327031E+04 -5.746453E+01  4.437103E-09 -9.350895E-10
       145  14  3.518318E+05 -2.858926E+03  1.103815E+04 -7.091390E+01 -6.272930E-09 -2.034490E-10
       145  15  3.543683E+05 -3.659975E+02  6.899971E+03 -5.990405E+01 -2.285064E-09 -3.469852E-10
       145  16  3.521323E+05  1.134928E+04  2.271277E+04 -6.311308E+02 -9.044655E-10 -7.331434E-10
       145  17  3.496031E+05 -3.415729E+03  1.048169E+04 -2.056349E+02 -2.056534E-09  1.508513E-11
       145  18  3.521440E+05 -9.218945E+02  6.344592E+03  2.443200E+02 -2.766845E-09  7.257617E-11
       145  19  3.565988E+05  1.246472E+04  2.382839E+04  5.162036E+02 -1.694450E+04  1.311991E+01
       145  20  3.540606E+05 -2.302091E+03  1.159484E+04  6.380742E+01 -1.113717E+04  1.261347E+01
       145  21  3.565926E+05  1.899071E+02  7.455404E+03 -3.641293E+02 -5.329868E+03  1.180131E+01
       145  22  3.543657E+05  1.190704E+04  2.327085E+04 -5.746471E+01 -1.694440E+04  1.313555E+01
       145  23  3.518319E+05 -2.858893E+03  1.103838E+04 -7.091402E+01 -1.113712E+04  1.261588E+01
       145  24  3.543683E+05 -3.659899E+02  6.900025E+03 -5.990410E+01 -5.329849E+03  1.179870E+01
       145  25  3.521326E+05  1.134936E+04  2.271331E+04 -6.311310E+02 -1.694430E+04  1.315119E+01
       145  26  3.496032E+05 -3.415695E+03  1.048192E+04 -2.056350E+02 -1.113706E+04  1.261829E+01
       145  27  3.521440E+05 -9.218869E+02  6.344646E+03  2.443200E+02 -5.329830E+03  1.179609E+01
       146   1  3.557626E+05  2.428353E+03  6.119939E+03  6.703316E+00  4.200108E+03 -1.131371E+01
       146   2  3.553430E+05  1.403410E+02  3.407108E+03 -3.348487E+01  2.750772E+03 -1.114070E+01
       146   3  3.557827E+05  5.345923E+02  2.308060E+03 -1.249088E+02  1.301459E+03 -1.264597E+01
       146   4  3.534320E+05  1.846087E+03  5.538041E+03 -7.568476E+01  4.200152E+03 -1.131428E+01
       146   5  3.530026E+05 -4.444102E+02  2.822753E+03 -5.023212E+01  2.750700E+03 -1.114076E+01
       146   6  3.534326E+05 -5.261828E+01  1.721331E+03 -7.601618E+01  1.301270E+03 -1.264584E+01
       146   7  3.511015E+05  1.263821E+03  4.956143E+03 -1.580725E+02  4.200196E+03 -1.131485E+01
       146   8  3.506623E+05 -1.029162E+03  2.238397E+03 -6.697930E+01  2.750627E+03 -1.114083E+01
       146   9  3.510824E+05 -6.398293E+02  1.134602E+03 -2.712374E+01  1.301082E+03 -1.264571E+01
       146  10  3.557625E+05  2.428348E+03  6.119905E+03  6.703355E+00  2.061179E-09  1.004806E-10
       146  11  3.553430E+05  1.403389E+02  3.407094E+03 -3.348485E+01  3.063663E-09  4.974035E-10
       146  12  3.557827E+05  5.345918E+02  2.308056E+03 -1.249088E+02 -1.144646E-10  2.528407E-11
       146  13  3.534320E+05  1.846082E+03  5.538008E+03 -7.568472E+01  4.164225E-09 -4.604411E-10
       146  14  3.530026E+05 -4.444122E+02  2.822739E+03 -5.023210E+01 -1.077125E-08 -4.830892E-11
       146  15  3.534326E+05 -5.261874E+01  1.721328E+03 -7.601616E+01  4.057989E-09  2.730483E-10
       146  16  3.511015E+05  1.263816E+03  4.956110E+03 -1.580725E+02 -4.320807E-09 -9.286610E-12
       146  17  3.506623E+05 -1.029164E+03  2.238383E+03 -6.697928E+01 -1.462074E-10  5.785976E-10
       146  18  3.510824E+05 -6.398297E+02  1.134599E+03 -2.712372E+01  5.401761E-09  4.383706E-11
       146  19  3.557626E+05  2.428353E+03  6.119939E+03  6.703315E+00 -4.200108E+03  1.131371E+01
       146  20  3.553430E+05  1.403410E+02  3.407108E+03 -3.348487E+01 -2.750772E+03  1.114070E+01
       146  21  3.557827E+05  5.345923E+02  2.308060E+03 -1.249088E+02 -1.301459E+03  1.264597E+01
       146  22  3.534320E+05  1.846087E+03  5.538041E+03 -7.568476E+01 -4.200152E+03  1.131428E+01
       146  23  3.530026E+05 -4.444102E+02  2.822753E+03 -5.023212E+01 -2.750700E+03  1.114076E+01
       146  24  3.534326E+05 -5.261828E+01  1.721331E+03 -7.601618E+01 -1.301270E+03  1.264584E+01
       146  25  3.511015E+05  1.263821E+03  4.956143E+03 -1.580725E+02 -4.200196E+03  1.131485E+01
       146  26  3.506623E+05 -1.029162E+03  2.238397E+03 -6.697930E+01 -2.750627E+03  1.114083E+01
       146  27  3.510824E+05 -6.398293E+02  1.134602E+03 -2.712374E+01 -1.301082E+03  1.264571E+01
       147   1  3.563036E+05  1.039952E+03  2.119196E+03 -8.407656E+01  1.021283E+03 -1.318650E+01
       147   2  3.562512E+05  6.915911E+02  1.520712E+03 -2.480415E+01  6.380615E+02 -1.396665E+01
       147   3  3.563569E+05  7.737712E+02  1.279347E+03 -1.037222E+02  2.548343E+02 -1.729324E+01
       147   4  3.532766E+05  2.836409E+02  1.363370E+03 -9.519998E+01  1.021311E+03 -1.318653E+01
       147   5  3.531977E+05 -7.136433E+01  7.582765E+02 -2.612566E+01  6.379076E+02 -1.396663E+01
       147   6  3.532768E+05  4.204547E+00  5.104297E+02 -9.524170E+01  2.544987E+02 -1.729320E+01
       147   7  3.502497E+05 -4.726713E+02  6.075435E+02 -1.063233E+02  1.021339E+03 -1.318656E+01
       147   8  3.501442E+05 -8.343204E+02 -4.159214E+00 -2.744716E+01  6.377538E+02 -1.396662E+01
       147   9  3.501966E+05 -7.653628E+02 -2.584882E+02 -8.676124E+01  2.541631E+02 -1.729316E+01
       147  10  3.563036E+05  1.039952E+03  2.119194E+03 -8.407655E+01 -1.034747E-09 -1.585249E-10
       147  11  3.562512E+05  6.915910E+02  1.520711E+03 -2.480414E+01  3.192986E-09  2.670667E-10
       147  12  3.563569E+05  7.737712E+02  1.279347E+03 -1.037222E+02  8.118319E-10  6.128925E-11
       147  13  3.532766E+05  2.836406E+02  1.363368E+03 -9.519997E+01 -1.683512E-11 -8.484683E-11
       147  14  3.531977E+05 -7.136444E+01  7.582758E+02 -2.612565E+01 -2.218030E-09  3.427606E-10
       147  15  3.532768E+05  4.204530E+00  5.104295E+02 -9.524170E+01 -3.071009E-09 -9.712496E-11
       147  16  3.502497E+05 -4.726715E+02  6.075416E+02 -1.063233E+02  8.314351E-11  1.751533E-10
       147  17  3.501442E+05 -8.343205E+02 -4.159978E+00 -2.744716E+01 -2.161446E-09  8.394494E-11
       147  18  3.501966E+05 -7.653629E+02 -2.584883E+02 -8.676124E+01 -6.333579E-10  3.857241E-10
       147  19  3.563036E+05  1.039952E+03  2.119196E+03 -8.407656E+01 -1.021283E+03  1.318650E+01
       147  20  3.562512E+05  6.915911E+02  1.520712E+03 -2.480415E+01 -6.380615E+02  1.396665E+01
       147  21  3.563569E+05  7.737712E+02  1.279347E+03 -1.037222E+02 -2.548343E+02  1.729324E+01
       147  22  3.532766E+05  2.836409E+02  1.363370E+03 -9.519998E+01 -1.021311E+03  1.318653E+01
       147  23  3.531977E+05 -7.136433E+01  7.582765E+02 -2.612566E+01 -6.379076E+02  1.396663E+01
       147  24  3.532768E+05  4.204547E+00  5.104297E+02 -9.524170E+01 -2.544987E+02  1.729320E+01
       147  25  3.502497E+05 -4.726713E+02  6.075435E+02 -1.063233E+02 -1.021339E+03  1.318656E+01
       147  26  3.501442E+05 -8.343204E+02 -4.159214E+00 -2.744716E+01 -6.377538E+02  1.396662E+01
       147  27  3.501966E+05 -7.653628E+02 -2.584882E+02 -8.676124E+01 -2.541631E+02  1.729316E+01
       148   1  3.577589E+05  1.165768E+03  1.566298E+03 -1.193348E+02  1.681069E+02 -1.868982E+01
       148   2  3.577738E+05  1.107783E+03  1.511606E+03  7.061195E+00 -2.059977E+01 -2.073693E+01
       148   3  3.578589E+05  1.227666E+03  1.624399E+03 -1.270313E+02 -2.093066E+02 -2.627099E+01
       148   4  3.532572E+05  4.096621E+01  4.421963E+02 -1.224047E+02  1.680826E+02 -1.868982E+01
       148   5  3.532222E+05 -2.949574E+01  3.751058E+02  7.840210E+00 -2.087400E+01 -2.073692E+01
       148   6  3.532572E+05  7.795399E+01  4.756739E+02 -1.224035E+02 -2.098308E+02 -2.627096E+01
       148   7  3.487556E+05 -1.083837E+03 -6.819070E+02 -1.254746E+02  1.680584E+02 -1.868983E+01
       148   8  3.486705E+05 -1.166776E+03 -7.613963E+02  8.619219E+00 -2.114823E+01 -2.073690E+01
       148   9  3.486556E+05 -1.071759E+03 -6.730528E+02 -1.177757E+02 -2.103550E+02 -2.627094E+01
       148  10  3.577589E+05  1.165768E+03  1.566298E+03 -1.193348E+02  2.175217E-09  1.485604E-11
       148  11  3.577738E+05  1.107783E+03  1.511606E+03  7.061193E+00  5.449357E-09 -5.619363E-10
       148  12  3.578589E+05  1.227666E+03  1.624399E+03 -1.270313E+02  1.100416E-09  1.331855E-10
       148  13  3.532572E+05  4.096620E+01  4.421963E+02 -1.224047E+02  4.555270E-09 -4.036229E-10
       148  14  3.532222E+05 -2.949574E+01  3.751058E+02  7.840209E+00 -1.899135E-09 -4.368096E-10
       148  15  3.532572E+05  7.795398E+01  4.756738E+02 -1.224035E+02 -2.632342E-09  1.606330E-10
       148  16  3.487556E+05 -1.083837E+03 -6.819070E+02 -1.254746E+02  2.249882E-09 -1.705404E-10
       148  17  3.486705E+05 -1.166776E+03 -7.613963E+02  8.619219E+00 -3.171921E-09 -4.698354E-10
       148  18  3.486556E+05 -1.071759E+03 -6.730529E+02 -1.177757E+02  4.742403E-09  5.667212E-10
       148  19  3.577589E+05  1.165768E+03  1.566298E+03 -1.193348E+02 -1.681069E+02  1.868982E+01
       148  20  3.577738E+05  1.107783E+03  1.511606E+03  7.061194E+00  2.059977E+01  2.073693E+01
       148  21  3.578589E+05  1.227666E+03  1.624399E+03 -1.270313E+02  2.093066E+02  2.627099E+01
       148  22  3.532572E+05  4.096621E+01  4.421963E+02 -1.224047E+02 -1.680826E+02  1.868982E+01
       148  23  3.532222E+05 -2.949574E+01  3.751058E+02  7.840210E+00  2.087400E+01  2.073692E+01
       148  24  3.532572E+05  7.795399E+01  4.756739E+02 -1.224035E+02  2.098308E+02  2.627096E+01
       148  25  3.487556E+05 -1.083837E+03 -6.819070E+02 -1.254746E+02 -1.680584E+02  1.868983E+01
       148  26  3.486705E+05 -1.166776E+03 -7.613963E+02  8.619218E+00  2.114823E+01  2.073690E+01
       148  27  3.486556E+05 -1.071759E+03 -6.730528E+02 -1.177757E+02  2.103550E+02  2.627094E+01
       149   1  3.604302E+05  1.773792E+03  2.334612E+03 -1.512002E+02 -3.030386E+02 -2.912438E+01
       149   2  3.603929E+05  1.678724E+03  2.629874E+03  5.544554E+01 -7.269760E+02 -3.324378E+01
       149   3  3.606024E+05  2.339315E+03  3.390496E+03 -1.876817E+02 -1.150907E+03 -4.064552E+01
       149   4  3.532965E+05 -8.659664E+00  5.532524E+02 -1.644715E+02 -3.032166E+02 -2.912438E+01
       149   5  3.531730E+05 -1.252243E+02  8.271743E+02  6.041596E+01 -7.273861E+02 -3.324379E+01
       149   6  3.532964E+05  5.139148E+02  1.566621E+03 -1.644702E+02 -1.151549E+03 -4.064559E+01
       149   7  3.461628E+05 -1.791115E+03 -1.228111E+03 -1.777426E+02 -3.033946E+02 -2.912438E+01
       149   8  3.459531E+05 -1.929177E+03 -9.755296E+02  6.538632E+01 -7.277961E+02 -3.324381E+01
       149   9  3.459904E+05 -1.311489E+03 -2.572578E+02 -1.412590E+02 -1.152191E+03 -4.064566E+01
       149  10  3.604302E+05  1.773792E+03  2.334612E+03 -1.512002E+02 -3.050210E-09  4.959446E-10
       149  11  3.603929E+05  1.678724E+03  2.629873E+03  5.544552E+01 -3.030600E-10 -4.094424E-10
       149  12  3.606024E+05  2.339315E+03  3.390494E+03 -1.876817E+02 -4.554837E-11 -1.269532E-10
       149  13  3.532965E+05 -8.659690E+00  5.532522E+02 -1.644715E+02  1.744651E-14  2.163955E-10
       149  14  3.531730E+05 -1.252245E+02  8.271733E+02  6.041594E+01 -6.590353E-09 -4.248889E-10
       149  15  3.532964E+05  5.139144E+02  1.566619E+03 -1.644702E+02  2.090470E-09 -1.856626E-11
       149  16  3.461628E+05 -1.791115E+03 -1.228111E+03 -1.777426E+02 -1.892207E-10  5.162611E-10
       149  17  3.459531E+05 -1.929177E+03 -9.755306E+02  6.538630E+01 -3.296865E-09 -5.196748E-10
       149  18  3.459904E+05 -1.311490E+03 -2.572603E+02 -1.412590E+02 -3.904487E-09 -1.050082E-10
       149  19  3.604302E+05  1.773792E+03  2.334612E+03 -1.512002E+02  3.030386E+02  2.912438E+01
       149  20  3.603929E+05  1.678724E+03  2.629874E+03  5.544554E+01  7.269760E+02  3.324378E+01
       149  21  3.606024E+05  2.339315E+03  3.390496E+03 -1.876817E+02  1.150907E+03  4.064552E+01
       149  22  3.532965E+05 -8.659664E+00  5.532524E+02 -1.644715E+02  3.032166E+02  2.912438E+01
       149  23  3.531730E+05 -1.252243E+02  8.271743E+02  6.041596E+01  7.273861E+02  3.324379E+01
       149  24  3.532964E+05  5.139148E+02  1.566621E+03 -1.644702E+02  1.151549E+03  4.064559E+01
       149  25  3.461628E+05 -1.791115E+03 -1.228111E+03 -1.777426E+02  3.033946E+02  2.912438E+01
       149  26  3.459531E+05 -1.929177E+03 -9.755296E+02  6.538632E+01  7.277961E+02  3.324381E+01
       149  27  3.459904E+05 -1.311489E+03 -2.572578E+02 -1.412590E+02  1.152191E+03  4.064566E+01
       150   1  3.651563E+05  2.797202E+03  4.837078E+03 -1.473910E+02 -1.469267E+03 -4.753382E+01
       150   2  3.645905E+05  2.137607E+03  6.017071E+03  1.081147E+02 -3.092668E+03 -5.653401E+01
       150   3  3.654458E+05  6.287377E+03  9.457377E+03 -3.914091E+02 -4.716096E+03 -5.754078E+01
       150   4  3.535574E+05 -1.009169E+02  1.940746E+03 -2.321884E+02 -1.470181E+03 -4.753369E+01
       150   5  3.528465E+05 -7.966820E+02  3.084894E+03  1.451258E+02 -3.092980E+03 -5.653428E+01
       150   6  3.535567E+05  3.316862E+03  6.488965E+03 -2.325885E+02 -4.715805E+03 -5.754203E+01
       150   7  3.419587E+05 -2.999046E+03 -9.555960E+02 -3.169842E+02 -1.471096E+03 -4.753357E+01
       150   8  3.411027E+05 -3.730981E+03  1.527055E+02  1.821363E+02 -3.093292E+03 -5.653456E+01
       150   9  3.416677E+05  3.463368E+02  3.520541E+03 -7.377097E+01 -4.715514E+03 -5.754327E+01
       150  10  3.651563E+05  2.797202E+03  4.837074E+03 -1.473911E+02  3.202212E-09  1.597499E-10
       150  11  3.645905E+05  2.137604E+03  6.017054E+03  1.081146E+02 -2.077412E-09 -4.159888E-10
       150  12  3.654458E+05  6.287371E+03  9.457335E+03 -3.914093E+02  1.789028E-09  1.956271E-12
       150  13  3.535574E+05 -1.009175E+02  1.940742E+03 -2.321884E+02  8.401971E-12  2.427604E-10
       150  14  3.528465E+05 -7.966846E+02  3.084876E+03  1.451257E+02  4.308456E-09 -1.933174E-10
       150  15  3.535566E+05  3.316856E+03  6.488923E+03 -2.325887E+02 -2.107456E-09 -7.517749E-11
       150  16  3.419587E+05 -2.999047E+03 -9.556001E+02 -3.169842E+02 -2.093738E-09  5.789426E-10
       150  17  3.411027E+05 -3.730984E+03  1.526875E+02  1.821361E+02 -1.165410E-08 -1.465521E-10
       150  18  3.416676E+05  3.463308E+02  3.520500E+03 -7.377119E+01 -3.440097E-09  4.515356E-10
       150  19  3.651563E+05  2.797202E+03  4.837078E+03 -1.473910E+02  1.469267E+03  4.753382E+01
       150  20  3.645905E+05  2.137607E+03  6.017071E+03  1.081147E+02  3.092668E+03  5.653401E+01
       150  21  3.654458E+05  6.287377E+03  9.457377E+03 -3.914091E+02  4.716096E+03  5.754078E+01
       150  22  3.535574E+05 -1.009169E+02  1.940746E+03 -2.321884E+02  1.470181E+03  4.753369E+01
       150  23  3.528465E+05 -7.966820E+02  3.084894E+03  1.451258E+02  3.092980E+03  5.653428E+01
       150  24  3.535567E+05  3.316862E+03  6.488965E+03 -2.325885E+02  4.715805E+03  5.754203E+01
       150  25  3.419587E+05 -2.999046E+03 -9.555960E+02 -3.169842E+02  1.471096E+03  4.753357E+01
       150  26  3.411027E+05 -3.730981E+03  1.527055E+02  1.821363E+02  3.093292E+03  5.653456E+01
       150  27  3.416677E+05  3.463368E+02  3.520541E+03 -7.377097E+01  4.715514E+03  5.754327E+01
       151   1  3.741910E+05  4.087105E+03  1.258687E+04  1.920733E+02 -6.013172E+03 -8.141583E+01
       151   2  3.701434E+05 -2.884344E+02  1.669245E+04  1.891556E+01 -1.252165E+04 -1.085460E+02
       151   3  3.746708E+05  2.616888E+04  3.274598E+04 -1.416855E+03 -1.903014E+04 -4.341037E+01
       151   4  3.551472E+05 -6.713871E+02  7.831582E+03 -3.429665E+02 -6.018247E+03 -8.141163E+01
       151   5  3.508582E+05 -5.106653E+03  1.187809E+04  2.848881E+02 -1.251990E+04 -1.085512E+02
       151   6  3.551434E+05  2.129026E+04  2.786809E+04 -3.498675E+02 -1.902157E+04 -4.344053E+01
       151   7  3.361037E+05 -5.429906E+03  3.076265E+03 -8.779899E+02 -6.023322E+03 -8.140742E+01
       151   8  3.315734E+05 -9.924899E+03  7.063708E+03  5.508524E+02 -1.251815E+04 -1.085564E+02
       151   9  3.356164E+05  1.641161E+04  2.299017E+04  7.170862E+02 -1.901300E+04 -4.347067E+01
       151  10  3.741910E+05  4.087096E+03  1.258680E+04  1.920730E+02  1.170400E-09 -5.067961E-10
       151  11  3.701432E+05 -2.884764E+02  1.669215E+04  1.891447E+01  7.959213E-10 -7.548341E-10
       151  12  3.746704E+05  2.616878E+04  3.274530E+04 -1.416855E+03 -5.929729E-10 -3.405711E-10
       151  13  3.551471E+05 -6.713968E+02  7.831513E+03 -3.429669E+02  8.238375E-09 -7.676845E-10
       151  14  3.508580E+05 -5.106695E+03  1.187780E+04  2.848870E+02  4.687743E-09  3.186853E-10
       151  15  3.551430E+05  2.129016E+04  2.786741E+04 -3.498681E+02  5.734959E-10 -1.227585E-10
       151  16  3.361036E+05 -5.429915E+03  3.076196E+03 -8.779903E+02  4.217770E-09 -8.921259E-11
       151  17  3.315732E+05 -9.924941E+03  7.063414E+03  5.508513E+02 -8.359327E-10  1.685065E-10
       151  18  3.356160E+05  1.641151E+04  2.298949E+04  7.170856E+02 -4.214601E-10 -4.034749E-10
       151  19  3.741910E+05  4.087105E+03  1.258687E+04  1.920733E+02  6.013172E+03  8.141583E+01
       151  20  3.701434E+05 -2.884344E+02  1.669245E+04  1.891556E+01  1.252165E+04  1.085460E+02
       151  21  3.746708E+05  2.616888E+04  3.274598E+04 -1.416855E+03  1.903014E+04  4.341037E+01
       151  22  3.551472E+05 -6.713871E+02  7.831582E+03 -3.429665E+02  6.018247E+03  8.141163E+01
       151  23  3.508582E+05 -5.106653E+03  1.187809E+04  2.848881E+02  1.251990E+04  1.085512E+02
       151  24  3.551434E+05  2.129026E+04  2.786809E+04 -3.498675E+02  1.902157E+04  4.344053E+01
       151  25  3.361037E+05 -5.429906E+03  3.076265E+03 -8.779899E+02  6.023322E+03  8.140742E+01
       151  26  3.315734E+05 -9.924899E+03  7.063708E+03  5.508524E+02  1.251815E+04  1.085564E+02
       151  27  3.356164E+05  1.641161E+04  2.299017E+04  7.170862E+02  1.901300E+04  4.347067E+01
       152   1  1.038924E+06  3.857826E+06  1.018118E+06 -1.801179E+05  9.150959E+03 -7.966385E+04
       152   2  9.875645E+05  3.308191E+06  9.439674E+05  3.103948E+04  2.438305E+04 -6.604994E+04
       152   3  1.054205E+06  3.650947E+06  1.062935E+06 -2.848211E+05  1.461914E+04 -5.296571E+04
       152   4  5.377008E+03 -2.855260E+05 -1.506797E+04 -1.681569E+05  9.163512E+03 -8.130523E+04
       152   5 -2.258919E+04 -7.326956E+05 -6.392261E+04  9.670814E+04  2.439070E+04 -6.597044E+04
       152   6  6.491972E+04 -2.909286E+05  7.892799E+04 -1.656417E+05  1.455353E+04 -5.116459E+04
       152   7 -1.029462E+06 -4.413372E+06 -1.049545E+06 -1.562536E+05  9.176045E+03 -8.293425E+04
       152   8 -1.033966E+06 -4.758817E+06 -1.073042E+06  1.620302E+05  2.439838E+04 -6.589032E+04
       152   9 -9.255130E+05 -4.218757E+06 -9.062503E+05 -4.707818E+04  1.448837E+04 -4.937403E+04
       152  10  1.038922E+06  3.857819E+06  1.018106E+06 -1.801173E+05  2.415379E-09 -3.956015E-09
       152  11  9.875627E+05  3.308187E+06  9.439581E+05  3.104078E+04 -3.857556E-09 -2.251211E-08
       152  12  1.054204E+06  3.650944E+06  1.062929E+06 -2.848205E+05  1.919767E-08 -4.885417E-08
       152  13  5.375142E+03 -2.855332E+05 -1.508056E+04 -1.681563E+05 -3.140196E-09  7.134191E-11
       152  14 -2.259100E+04 -7.327004E+05 -6.393191E+04  9.670944E+04 -2.877534E-08 -1.239639E-08
       152  15  6.491879E+04 -2.909315E+05  7.892267E+04 -1.656411E+05  1.347202E-08 -4.795445E-09
       152  16 -1.029464E+06 -4.413380E+06 -1.049558E+06 -1.562530E+05 -7.231597E-09 -3.743871E-09
       152  17 -1.033968E+06 -4.758821E+06 -1.073052E+06  1.620315E+05 -1.537546E-08 -1.307924E-08
       152  18 -9.255139E+05 -4.218760E+06 -9.062553E+05 -4.707761E+04  6.653042E-09  3.574820E-08
       152  19  1.038924E+06  3.857826E+06  1.018118E+06 -1.801179E+05 -9.150959E+03  7.966385E+04
       152  20  9.875645E+05  3.308191E+06  9.439674E+05  3.103948E+04 -2.438305E+04  6.604994E+04
       152  21  1.054205E+06  3.650947E+06  1.062935E+06 -2.848211E+05 -1.461914E+04  5.296571E+04
       152  22  5.377008E+03 -2.855260E+05 -1.506797E+04 -1.681569E+05 -9.163512E+03  8.130523E+04
       152  23 -2.258919E+04 -7.326956E+05 -6.392261E+04  9.670814E+04 -2.439070E+04  6.597044E+04
       152  24  6.491972E+04 -2.909286E+05  7.892799E+04 -1.656417E+05 -1.455353E+04  5.116459E+04
       152  25 -1.029462E+06 -4.413372E+06 -1.049545E+06 -1.562536E+05 -9.176045E+03  8.293425E+04
       152  26 -1.033966E+06 -4.758817E+06 -1.073042E+06  1.620302E+05 -2.439838E+04  6.589032E+04
       152  27 -9.255130E+05 -4.218757E+06 -9.062503E+05 -4.707818E+04 -1.448837E+04  4.937403E+04
       153   1 -6.684412E+04 -6.501511E+05  5.786506E+02 -1.784165E+05  6.397878E+03 -6.839871E+04
       153   2 -8.779435E+04 -7.512024E+05  3.560384E+04  1.243275E+05  3.747285E+03 -1.213257E+05
       153   3 -1.026235E+03 -8.769348E+05  1.202426E+05 -1.639508E+05  1.585717E+03 -1.742138E+05
       153   4 -2.615730E+04 -4.888299E+05  4.115272E+04 -1.837928E+05  6.382312E+03 -6.804344E+04
       153   5 -1.838868E+04 -4.761264E+05  1.044738E+05  1.142863E+05  3.735009E+03 -1.210284E+05
       153   6  9.708936E+04 -4.881261E+05  2.174255E+05 -1.786396E+05  1.577166E+03 -1.739840E+05
       153   7  1.452758E+04 -3.274850E+05  8.172481E+04 -1.891701E+05  6.366741E+03 -6.768808E+04
       153   8  5.101145E+04 -2.009816E+05  1.733380E+05  1.042414E+05  3.722726E+03 -1.207309E+05
       153   9  1.951939E+05 -9.918011E+04  3.145969E+05 -1.933363E+05  1.568605E+03 -1.737541E+05
       153  10 -6.684542E+04 -6.501562E+05  5.697738E+02 -1.784162E+05 -4.021331E-10 -6.206862E-08
       153  11 -8.779832E+04 -7.512182E+05  3.557612E+04  1.243279E+05  6.845624E-09 -5.259147E-08
       153  12 -1.034398E+03 -8.769674E+05  1.201855E+05 -1.639505E+05 -1.482480E-08 -4.766126E-08
       153  13 -2.615859E+04 -4.888348E+05  4.114394E+04 -1.837924E+05  8.453235E-09  1.371590E-10
       153  14 -1.839263E+04 -4.761421E+05  1.044462E+05  1.142867E+05  2.613531E-08 -2.262981E-08
       153  15  9.708122E+04 -4.881586E+05  2.173685E+05 -1.786394E+05  3.565521E-08 -4.662360E-09
       153  16  1.452631E+04 -3.274899E+05  8.171612E+04 -1.891698E+05  6.367025E-09 -7.495904E-09
       153  17  5.100752E+04 -2.009973E+05  1.733106E+05  1.042417E+05 -3.944921E-08 -1.711115E-08
       153  18  1.951858E+05 -9.921252E+04  3.145402E+05 -1.933360E+05 -7.335403E-09  3.328935E-08
       153  19 -6.684412E+04 -6.501511E+05  5.786506E+02 -1.784165E+05 -6.397878E+03  6.839871E+04
       153  20 -8.779435E+04 -7.512024E+05  3.560384E+04  1.243275E+05 -3.747285E+03  1.213257E+05
       153  21 -1.026235E+03 -8.769348E+05  1.202426E+05 -1.639508E+05 -1.585717E+03  1.742138E+05
       153  22 -2.615730E+04 -4.888299E+05  4.115272E+04 -1.837928E+05 -6.382312E+03  6.804344E+04
       153  23 -1.838868E+04 -4.761264E+05  1.044738E+05  1.142863E+05 -3.735009E+03  1.210284E+05
       153  24  9.708936E+04 -4.881261E+05  2.174255E+05 -1.786396E+05 -1.577166E+03  1.739840E+05
       153  25  1.452758E+04 -3.274850E+05  8.172481E+04 -1.891701E+05 -6.366741E+03  6.768808E+04
       153  26  5.101145E+04 -2.009816E+05  1.733380E+05  1.042414E+05 -3.722726E+03  1.207309E+05
       153  27  1.951939E+05 -9.918011E+04  3.145969E+05 -1.933363E+05 -1.568605E+03  1.737541E+05
       154   1 -1.068392E+06 -4.529935E+06 -7.563610E+05 -6.777825E+04 -6.464472E+03 -2.324781E+05
       154   2 -1.340441E+06 -5.337195E+06 -7.584950E+05  1.600779E+05 -1.775669E+04 -4.509773E+05
       154   3 -3.013754E+05 -4.721511E+06 -7.469761E+04 -1.415657E+05 -1.089257E+04 -6.694687E+05
       154   4  2.765530E+04 -1.726110E+05  3.359670E+05 -1.683216E+05 -6.494959E+03 -2.316015E+05
       154   5 -2.211604E+05 -8.821770E+05  3.583393E+05  9.495630E+04 -1.770792E+04 -4.527912E+05
       154   6  8.401188E+05 -1.663746E+05  1.066477E+06 -1.711218E+05 -1.085801E+04 -6.740098E+05
       154   7  1.122278E+06  4.202003E+06  1.426855E+06 -2.694191E+05 -6.525785E+03 -2.307140E+05
       154   8  8.966206E+05  3.590933E+06  1.473668E+06  2.943755E+04 -1.765915E+04 -4.546087E+05
       154   9  1.980045E+06  4.407666E+06  2.206080E+06 -2.009033E+05 -1.082323E+04 -6.785696E+05
       154  10 -1.068406E+06 -4.529994E+06 -7.564634E+05 -6.777947E+04  1.980067E-09 -4.703113E-08
       154  11 -1.340497E+06 -5.337415E+06 -7.588809E+05  1.600714E+05 -1.213145E-09 -2.287241E-08
       154  12 -3.014969E+05 -4.721994E+06 -7.554639E+04 -1.415716E+05 -8.776280E-10 -1.007808E-09
       154  13  2.764085E+04 -1.726686E+05  3.358661E+05 -1.683228E+05 -1.935213E-08 -3.966573E-10
       154  14 -2.212159E+05 -8.823973E+05  3.579530E+05  9.494985E+04 -7.000118E-10 -8.977036E-09
       154  15  8.399967E+05 -1.668622E+05  1.065623E+06 -1.711277E+05 -4.535365E-09  3.403844E-10
       154  16  1.122263E+06  4.201947E+06  1.426756E+06 -2.694203E+05  1.732803E-08 -9.411569E-09
       154  17  8.965652E+05  3.590712E+06  1.473281E+06  2.943111E+04 -1.115151E-08 -4.490469E-09
       154  18  1.979922E+06  4.407175E+06  2.205221E+06 -2.009093E+05 -3.043920E-09  1.724941E-09
       154  19 -1.068392E+06 -4.529935E+06 -7.563610E+05 -6.777825E+04  6.464472E+03  2.324781E+05
       154  20 -1.340441E+06 -5.337195E+06 -7.584950E+05  1.600779E+05  1.775669E+04  4.509773E+05
       154  21 -3.013754E+05 -4.721511E+06 -7.469761E+04 -1.415657E+05  1.089257E+04  6.694687E+05
       154  22  2.765530E+04 -1.726110E+05  3.359670E+05 -1.683216E+05  6.494959E+03  2.316015E+05
       154  23 -2.211604E+05 -8.821770E+05  3.583393E+05  9.495630E+04  1.770792E+04  4.527912E+05
       154  24  8.401188E+05 -1.663746E+05  1.066477E+06 -1.711218E+05  1.085801E+04  6.740098E+05
       154  25  1.122278E+06  4.202003E+06  1.426855E+06 -2.694191E+05  6.525785E+03  2.307140E+05
       154  26  8.966206E+05  3.590933E+06  1.473668E+06  2.943755E+04  1.765915E+04  4.546087E+05
       154  27  1.980045E+06  4.407666E+06  2.206080E+06 -2.009033E+05  1.082323E+04  6.785696E+05
       155   1 -3.846881E+05 -1.615474E+05 -7.351619E+04 -1.866131E+05 -4.525226E+04 -1.751191E+04
       155   2 -3.679743E+05 -9.026548E+04 -2.999103E+04 -1.763327E+05 -2.644793E+04 -1.241356E+04
       155   3 -3.635178E+05 -5.829371E+04 -9.733729E+03 -1.613131E+05 -7.632409E+03 -7.342717E+03
       155   4 -4.184846E+05 -1.356910E+05 -7.449789E+04 -1.561748E+05 -4.817440E+04 -1.861037E+04
       155   5 -4.083256E+05 -8.735128E+04 -3.477230E+04 -1.692916E+05 -2.942147E+04 -1.352873E+04
       155   6 -4.104143E+05 -7.831487E+04 -1.827466E+04 -1.776698E+05 -1.065722E+04 -8.476107E+03
       155   7 -4.522758E+05 -1.098288E+05 -7.547855E+04 -1.257384E+05 -5.109630E+04 -1.970921E+04
       155   8 -4.486742E+05 -8.443631E+04 -3.955331E+04 -1.622512E+05 -3.239479E+04 -1.464404E+04
       155   9 -4.573088E+05 -9.833567E+04 -2.681570E+04 -1.940255E+05 -1.368182E+04 -9.609374E+03
       155  10 -3.846904E+05 -1.615483E+05 -7.352062E+04 -1.866137E+05 -4.984515E-09 -7.232156E-10
       155  11 -3.679751E+05 -9.026583E+04 -2.999263E+04 -1.763330E+05 -3.989537E-10  4.163805E-09
       155  12 -3.635179E+05 -5.829378E+04 -9.733940E+03 -1.613131E+05  1.278472E-08  9.628864E-10
       155  13 -4.184871E+05 -1.356920E+05 -7.450291E+04 -1.561755E+05 -6.071280E-10  1.569493E-09
       155  14 -4.083265E+05 -8.735171E+04 -3.477427E+04 -1.692919E+05  1.202913E-08  3.918935E-09
       155  15 -4.104145E+05 -7.831498E+04 -1.827501E+04 -1.776699E+05  6.589023E-09  9.332175E-10
       155  16 -4.522787E+05 -1.098300E+05 -7.548419E+04 -1.257392E+05  7.371257E-09  3.779267E-09
       155  17 -4.486754E+05 -8.443682E+04 -3.955568E+04 -1.622516E+05  1.015582E-08  3.356134E-09
       155  18 -4.573090E+05 -9.833582E+04 -2.681623E+04 -1.940256E+05 -2.139935E-09 -3.261162E-10
       155  19 -3.846881E+05 -1.615474E+05 -7.351619E+04 -1.866131E+05  4.525226E+04  1.751191E+04
       155  20 -3.679743E+05 -9.026548E+04 -2.999103E+04 -1.763327E+05  2.644793E+04  1.241356E+04
       155  21 -3.635178E+05 -5.829371E+04 -9.733729E+03 -1.613131E+05  7.632409E+03  7.342717E+03
       155  22 -4.184846E+05 -1.356910E+05 -7.449789E+04 -1.561748E+05  4.817440E+04  1.861037E+04
       155  23 -4.083256E+05 -8.735128E+04 -3.477230E+04 -1.692916E+05  2.942147E+04  1.352873E+04
       155  24 -4.104143E+05 -7.831487E+04 -1.827466E+04 -1.776698E+05  1.065722E+04  8.476107E+03
       155  25 -4.522758E+05 -1.098288E+05 -7.547855E+04 -1.257384E+05  5.109630E+04  1.970921E+04
       155  26 -4.486742E+05 -8.443631E+04 -3.955331E+04 -1.622512E+05  3.239479E+04  1.464404E+04
       155  27 -4.573088E+05 -9.833567E+04 -2.681570E+04 -1.940255E+05  1.368182E+04  9.609374E+03
       156   1 -3.441375E+05 -5.674789E+04 -2.633885E+03 -1.599892E+05 -5.189067E+03 -7.588753E+03
       156   2 -3.240191E+05 -4.418972E+04  7.627587E+03 -1.519509E+05 -8.896610E+02 -7.971381E+03
       156   3 -3.016093E+05 -3.712770E+04  1.464898E+04 -1.475733E+05  3.410672E+03 -8.355806E+03
       156   4 -4.082886E+05 -7.866058E+04 -1.374907E+04 -1.765922E+05 -8.209968E+03 -8.720796E+03
       156   5 -4.092366E+05 -7.450605E+04 -7.227614E+03 -1.752888E+05 -3.914234E+03 -9.104895E+03
       156   6 -4.078929E+05 -7.584706E+04 -3.943451E+03 -1.776463E+05  3.823411E+02 -9.490845E+03
       156   7 -4.724346E+05 -1.005727E+05 -2.486416E+04 -1.931934E+05 -1.123051E+04 -9.852718E+03
       156   8 -4.944463E+05 -1.048217E+05 -2.208300E+04 -1.986238E+05 -6.938365E+03 -1.023825E+04
       156   9 -5.141655E+05 -1.145657E+05 -2.253649E+04 -2.077148E+05 -2.645467E+03 -1.062568E+04
       156  10 -3.441376E+05 -5.674796E+04 -2.634044E+03 -1.599892E+05  1.175597E-08 -3.572333E-09
       156  11 -3.240191E+05 -4.418979E+04  7.627467E+03 -1.519509E+05 -4.250826E-08 -1.938536E-08
       156  12 -3.016094E+05 -3.712778E+04  1.464883E+04 -1.475732E+05 -8.503222E-08 -3.215544E-08
       156  13 -4.082887E+05 -7.866068E+04 -1.374934E+04 -1.765922E+05  1.194800E-09 -1.408280E-09
       156  14 -4.092366E+05 -7.450614E+04 -7.227799E+03 -1.752889E+05 -2.657970E-09 -5.153675E-09
       156  15 -4.078929E+05 -7.584715E+04 -3.943620E+03 -1.776463E+05 -2.707028E-08 -1.586683E-08
       156  16 -4.724348E+05 -1.005729E+05 -2.486458E+04 -1.931935E+05  2.628014E-10  2.835499E-09
       156  17 -4.944464E+05 -1.048218E+05 -2.208329E+04 -1.986239E+05  1.181865E-08  1.744386E-08
       156  18 -5.141656E+05 -1.145658E+05 -2.253671E+04 -2.077148E+05  3.471150E-08  1.743504E-08
       156  19 -3.441375E+05 -5.674789E+04 -2.633885E+03 -1.599892E+05  5.189067E+03  7.588753E+03
       156  20 -3.240191E+05 -4.418972E+04  7.627587E+03 -1.519509E+05  8.896610E+02  7.971381E+03
       156  21 -3.016093E+05 -3.712770E+04  1.464898E+04 -1.475733E+05 -3.410672E+03  8.355806E+03
       156  22 -4.082886E+05 -7.866058E+04 -1.374907E+04 -1.765922E+05  8.209968E+03  8.720796E+03
       156  23 -4.092366E+05 -7.450605E+04 -7.227614E+03 -1.752888E+05  3.914234E+03  9.104895E+03
       156  24 -4.078929E+05 -7.584706E+04 -3.943451E+03 -1.776463E+05 -3.823411E+02  9.490845E+03
       156  25 -4.724346E+05 -1.005727E+05 -2.486416E+04 -1.931934E+05  1.123051E+04  9.852718E+03
       156  26 -4.944463E+05 -1.048217E+05 -2.208300E+04 -1.986238E+05  6.938365E+03  1.023825E+04
       156  27 -5.141655E+05 -1.145657E+05 -2.253649E+04 -2.077148E+05  2.645467E+03  1.062568E+04
       157   1 -2.871879E+05 -3.228260E+04  1.820353E+04 -1.438098E+05  4.336566E+03 -9.170947E+03
       157   2 -2.671981E+05 -2.267139E+04  2.327648E+04 -1.357978E+05  5.797754E+03 -1.061904E+04
       157   3 -2.438577E+05 -1.666626E+04  2.772403E+04 -1.318008E+05  7.258842E+03 -1.206628E+04
       157   4 -4.077220E+05 -7.587904E+04 -2.958749E+03 -1.775561E+05  1.309532E+03 -1.030559E+04
       157   5 -4.093935E+05 -7.404161E+04 -1.616102E+03 -1.755618E+05  2.771934E+03 -1.175342E+04
       157   6 -4.077148E+05 -7.581062E+04 -8.998419E+02 -1.775828E+05  4.234200E+03 -1.320040E+04
       157   7 -5.282407E+05 -1.194740E+05 -2.412143E+04 -2.112963E+05 -1.716875E+03 -1.144000E+04
       157   8 -5.515666E+05 -1.254096E+05 -2.650906E+04 -2.153171E+05 -2.531332E+02 -1.288752E+04
       157   9 -5.715418E+05 -1.349517E+05 -2.952402E+04 -2.233531E+05  1.210439E+03 -1.433420E+04
       157  10 -2.871880E+05 -3.228270E+04  1.820334E+04 -1.438098E+05  1.695614E-08  1.241140E-08
       157  11 -2.671982E+05 -2.267152E+04  2.327621E+04 -1.357978E+05  3.549076E-08  1.934773E-08
       157  12 -2.438578E+05 -1.666643E+04  2.772366E+04 -1.318007E+05  2.117935E-08  1.325827E-08
       157  13 -4.077221E+05 -7.587915E+04 -2.958952E+03 -1.775561E+05 -2.372732E-08 -1.557459E-08
       157  14 -4.093935E+05 -7.404176E+04 -1.616376E+03 -1.755618E+05 -7.312696E-09 -6.530735E-09
       157  15 -4.077149E+05 -7.581081E+04 -9.002030E+02 -1.775828E+05  5.353707E-09 -5.869120E-09
       157  16 -5.282407E+05 -1.194742E+05 -2.412168E+04 -2.112963E+05 -6.575290E-08 -2.450211E-08
       157  17 -5.515666E+05 -1.254097E+05 -2.650937E+04 -2.153171E+05 -3.149580E-08 -1.230554E-08
       157  18 -5.715418E+05 -1.349519E+05 -2.952441E+04 -2.233531E+05 -1.254355E-08 -5.335482E-09
       157  19 -2.871879E+05 -3.228260E+04  1.820353E+04 -1.438098E+05 -4.336566E+03  9.170947E+03
       157  20 -2.671981E+05 -2.267139E+04  2.327648E+04 -1.357978E+05 -5.797754E+03  1.061904E+04
       157  21 -2.438577E+05 -1.666626E+04  2.772403E+04 -1.318008E+05 -7.258842E+03  1.206628E+04
       157  22 -4.077220E+05 -7.587904E+04 -2.958749E+03 -1.775561E+05 -1.309532E+03  1.030559E+04
       157  23 -4.093935E+05 -7.404161E+04 -1.616102E+03 -1.755618E+05 -2.771934E+03  1.175342E+04
       157  24 -4.077148E+05 -7.581062E+04 -8.998419E+02 -1.775828E+05 -4.234200E+03  1.320040E+04
       157  25 -5.282407E+05 -1.194740E+05 -2.412143E+04 -2.112963E+05  1.716875E+03  1.144000E+04
       157  26 -5.515666E+05 -1.254096E+05 -2.650906E+04 -2.153171E+05  2.531332E+02  1.288752E+04
       157  27 -5.715418E+05 -1.349517E+05 -2.952402E+04 -2.233531E+05 -1.210439E+03  1.433420E+04
       158   1 -2.297963E+05 -1.161188E+04  3.050764E+04 -1.279021E+05  7.769894E+03 -1.303522E+04
       158   2 -2.099163E+05 -2.107282E+03  3.451433E+04 -1.198797E+05  8.619992E+03 -1.470882E+04
       158   3 -1.865730E+05  3.907365E+03  3.837673E+04 -1.158588E+05  9.469609E+03 -1.638032E+04
       158   4 -4.076942E+05 -7.581476E+04 -6.819349E+02 -1.775687E+05  4.746785E+03 -1.416891E+04
       158   5 -4.094283E+05 -7.407949E+04 -3.985472E+02 -1.755646E+05  5.600294E+03 -1.584151E+04
       158   6 -4.077005E+05 -7.583525E+04 -2.623108E+02 -1.775625E+05  6.453313E+03 -1.751200E+04
       158   7 -5.855605E+05 -1.400153E+05 -3.187296E+04 -2.272225E+05  1.724568E+03 -1.530226E+04
       158   8 -6.088992E+05 -1.460482E+05 -3.531291E+04 -2.312331E+05  2.581614E+03 -1.697381E+04
       158   9 -6.287763E+05 -1.555732E+05 -3.890283E+04 -2.392457E+05  3.438159E+03 -1.864325E+04
       158  10 -2.297964E+05 -1.161208E+04  3.050721E+04 -1.279020E+05 -1.398055E-08 -1.275145E-09
       158  11 -2.099164E+05 -2.107534E+03  3.451379E+04 -1.198796E+05  1.826654E-08  5.493878E-09
       158  12 -1.865731E+05  3.907053E+03  3.837605E+04 -1.158587E+05  2.102581E-08  9.039642E-09
       158  13 -4.076943E+05 -7.581498E+04 -6.823544E+02 -1.775687E+05  1.365325E-08 -5.767766E-09
       158  14 -4.094284E+05 -7.407977E+04 -3.990776E+02 -1.755646E+05  1.521567E-08 -1.052312E-09
       158  15 -4.077006E+05 -7.583559E+04 -2.629652E+02 -1.775624E+05  1.067032E-08  2.133586E-09
       158  16 -5.855606E+05 -1.400155E+05 -3.187341E+04 -2.272225E+05  2.834120E-08  7.360213E-09
       158  17 -6.088992E+05 -1.460486E+05 -3.531346E+04 -2.312331E+05  1.179286E-08  2.063551E-09
       158  18 -6.287764E+05 -1.555735E+05 -3.890350E+04 -2.392456E+05 -8.027002E-09 -2.548006E-09
       158  19 -2.297963E+05 -1.161188E+04  3.050764E+04 -1.279021E+05 -7.769894E+03  1.303522E+04
       158  20 -2.099163E+05 -2.107282E+03  3.451433E+04 -1.198797E+05 -8.619992E+03  1.470882E+04
       158  21 -1.865730E+05  3.907365E+03  3.837673E+04 -1.158588E+05 -9.469609E+03  1.638032E+04
       158  22 -4.076942E+05 -7.581476E+04 -6.819349E+02 -1.775687E+05 -4.746785E+03  1.416891E+04
       158  23 -4.094283E+05 -7.407949E+04 -3.985472E+02 -1.755646E+05 -5.600294E+03  1.584151E+04
       158  24 -4.077005E+05 -7.583525E+04 -2.623108E+02 -1.775625E+05 -6.453313E+03  1.751200E+04
       158  25 -5.855605E+05 -1.400153E+05 -3.187296E+04 -2.272225E+05 -1.724568E+03  1.530226E+04
       158  26 -6.088992E+05 -1.460482E+05 -3.531291E+04 -2.312331E+05 -2.581614E+03  1.697381E+04
       158  27 -6.287763E+05 -1.555732E+05 -3.890283E+04 -2.392457E+05 -3.438159E+03  1.864325E+04
       159   1 -1.725771E+05  8.971710E+03  4.096792E+04 -1.119591E+05  9.890694E+03 -1.738010E+04
       159   2 -1.527616E+05  1.846849E+04  4.468829E+04 -1.039486E+05  1.064160E+04 -1.908126E+04
       159   3 -1.294740E+05  2.448870E+04  4.833762E+04 -9.992585E+04  1.138927E+04 -2.077283E+04
       159   4 -4.077015E+05 -7.583611E+04 -2.322344E+02 -1.775590E+05  6.875548E+03 -1.851152E+04
       159   5 -4.094376E+05 -7.410081E+04 -2.310890E+02 -1.755639E+05  7.642859E+03 -2.020688E+04
       159   6 -4.077053E+05 -7.584521E+04 -3.139191E+02 -1.775567E+05  8.406942E+03 -2.189263E+04
       159   7 -6.427651E+05 -1.606377E+05 -4.143341E+04 -2.431350E+05  3.861648E+03 -1.964248E+04
       159   8 -6.660439E+05 -1.666637E+05 -4.515246E+04 -2.471516E+05  4.645442E+03 -2.133199E+04
       159   9 -6.858575E+05 -1.761727E+05 -4.896857E+04 -2.551558E+05  5.426007E+03 -2.301192E+04
       159  10 -1.725773E+05  8.971360E+03  4.096717E+04 -1.119590E+05  8.069269E-09  2.454801E-09
       159  11 -1.527618E+05  1.846807E+04  4.468740E+04 -1.039484E+05  8.345635E-09  2.687600E-09
       159  12 -1.294743E+05  2.448820E+04  4.833657E+04 -9.992566E+04  1.408670E-08  5.389890E-11
       159  13 -4.077017E+05 -7.583649E+04 -2.329670E+02 -1.775589E+05  7.259933E-09  3.876443E-09
       159  14 -4.094378E+05 -7.410126E+04 -2.319658E+02 -1.755638E+05 -7.274119E-09  3.813271E-09
       159  15 -4.077055E+05 -7.584574E+04 -3.149524E+02 -1.775565E+05 -3.203629E-10 -2.177152E-09
       159  16 -6.427652E+05 -1.606381E+05 -4.143416E+04 -2.431350E+05 -6.312970E-09  5.243598E-09
       159  17 -6.660440E+05 -1.666642E+05 -4.515336E+04 -2.471515E+05 -1.296682E-08  4.747569E-09
       159  18 -6.858577E+05 -1.761733E+05 -4.896962E+04 -2.551557E+05 -1.530269E-08 -4.245470E-09
       159  19 -1.725771E+05  8.971710E+03  4.096792E+04 -1.119591E+05 -9.890694E+03  1.738010E+04
       159  20 -1.527616E+05  1.846849E+04  4.468829E+04 -1.039486E+05 -1.064160E+04  1.908126E+04
       159  21 -1.294740E+05  2.448870E+04  4.833762E+04 -9.992585E+04 -1.138927E+04  2.077283E+04
       159  22 -4.077015E+05 -7.583611E+04 -2.322344E+02 -1.775590E+05 -6.875548E+03  1.851152E+04
       159  23 -4.094376E+05 -7.410081E+04 -2.310890E+02 -1.755639E+05 -7.642859E+03  2.020688E+04
       159  24 -4.077053E+05 -7.584521E+04 -3.139191E+02 -1.775567E+05 -8.406942E+03  2.189263E+04
       159  25 -6.427651E+05 -1.606377E+05 -4.143341E+04 -2.431350E+05 -3.861648E+03  1.964248E+04
       159  26 -6.660439E+05 -1.666637E+05 -4.515246E+04 -2.471516E+05 -4.645442E+03  2.133199E+04
       159  27 -6.858575E+05 -1.761727E+05 -4.896857E+04 -2.551558E+05 -5.426007E+03  2.301192E+04
       160   1 -1.155207E+05  2.954398E+04  5.082024E+04 -9.604071E+04  1.183438E+04 -2.175581E+04
       160   2 -9.575977E+04  3.902742E+04  5.431193E+04 -8.805240E+04  1.264395E+04 -2.337233E+04
       160   3 -7.255287E+04  4.503283E+04  5.767097E+04 -8.403380E+04  1.341998E+04 -2.489829E+04
       160   4 -4.077183E+05 -7.584300E+04 -3.919930E+02 -1.775570E+05  8.844114E+03 -2.287882E+04
       160   5 -4.094316E+05 -7.410990E+04 -6.691449E+02 -1.755652E+05  9.810039E+03 -2.443709E+04
       160   6 -4.077301E+05 -7.588605E+04 -1.202826E+03 -1.775434E+05  1.074241E+04 -2.590477E+04
       160   7 -6.998254E+05 -1.812217E+05 -5.160680E+04 -2.590375E+05  5.855353E+03 -2.400127E+04
       160   8 -7.229976E+05 -1.872371E+05 -5.565276E+04 -2.630362E+05  6.977672E+03 -2.550127E+04
       160   9 -7.427851E+05 -1.967928E+05 -6.007914E+04 -2.710050E+05  8.066403E+03 -2.691067E+04
       160  10 -1.155210E+05  2.954344E+04  5.081908E+04 -9.604050E+04  2.611403E-08  4.023737E-09
       160  11 -9.576009E+04  3.902679E+04  5.431060E+04 -8.805216E+04  1.062679E-08  5.682855E-09
       160  12 -7.255323E+04  4.503211E+04  5.766947E+04 -8.403353E+04 -1.218163E-08 -5.055181E-09
       160  13 -4.077185E+05 -7.584358E+04 -3.931234E+02 -1.775569E+05  6.976860E-09 -2.188469E-09
       160  14 -4.094319E+05 -7.411057E+04 -6.704476E+02 -1.755650E+05  1.840693E-08  3.376166E-09
       160  15 -4.077304E+05 -7.588681E+04 -1.204304E+03 -1.775432E+05  1.085709E-08  1.531456E-09
       160  16 -6.998256E+05 -1.812223E+05 -5.160795E+04 -2.590374E+05 -1.315747E-08 -8.420121E-09
       160  17 -7.229978E+05 -1.872378E+05 -5.565408E+04 -2.630360E+05  9.601039E-09  5.236470E-10
       160  18 -7.427854E+05 -1.967936E+05 -6.008062E+04 -2.710048E+05  3.159517E-08  9.351602E-09
       160  19 -1.155207E+05  2.954398E+04  5.082024E+04 -9.604071E+04 -1.183438E+04  2.175581E+04
       160  20 -9.575977E+04  3.902742E+04  5.431193E+04 -8.805240E+04 -1.264395E+04  2.337233E+04
       160  21 -7.255287E+04  4.503283E+04  5.767097E+04 -8.403380E+04 -1.341998E+04  2.489829E+04
       160  22 -4.077183E+05 -7.584300E+04 -3.919930E+02 -1.775570E+05 -8.844114E+03  2.287882E+04
       160  23 -4.094316E+05 -7.410990E+04 -6.691449E+02 -1.755652E+05 -9.810039E+03  2.443709E+04
       160  24 -4.077301E+05 -7.588605E+04 -1.202826E+03 -1.775434E+05 -1.074241E+04  2.590477E+04
       160  25 -6.998254E+05 -1.812217E+05 -5.160680E+04 -2.590375E+05 -5.855353E+03  2.400127E+04
       160  26 -7.229976E+05 -1.872371E+05 -5.565276E+04 -2.630362E+05 -6.977672E+03  2.550127E+04
       160  27 -7.427851E+05 -1.967928E+05 -6.007914E+04 -2.710050E+05 -8.066403E+03  2.691067E+04
       161   1 -5.859468E+04  5.004943E+04  5.990058E+04 -8.025259E+04  1.411869E+04 -2.573017E+04
       161   2 -3.912086E+04  5.963334E+04  6.301980E+04 -7.197777E+04  1.427265E+04 -2.694268E+04
       161   3 -1.636999E+04  6.535883E+04  6.621211E+04 -6.745214E+04  1.405021E+04 -2.715176E+04
       161   4 -4.078122E+05 -7.586162E+04 -1.596761E+03 -1.775615E+05  1.132414E+04 -2.678080E+04
       161   5 -4.093627E+05 -7.433407E+04 -2.920059E+03 -1.754727E+05  1.321354E+04 -2.734227E+04
       161   6 -4.079808E+05 -7.700957E+04 -5.545951E+03 -1.771337E+05  1.472644E+04 -2.689993E+04
       161   7 -7.569045E+05 -2.017624E+05 -6.309893E+04 -2.748204E+05  8.531227E+03 -2.783082E+04
       161   8 -7.794619E+05 -2.082890E+05 -6.886499E+04 -2.789105E+05  1.215509E+04 -2.774160E+04
       161   9 -7.994308E+05 -2.193634E+05 -7.730967E+04 -2.867508E+05  1.540221E+04 -2.664828E+04
       161  10 -5.859507E+04  5.004866E+04  5.989896E+04 -8.025230E+04  5.014508E-08  2.008606E-08
       161  11 -3.912127E+04  5.963251E+04  6.301805E+04 -7.197746E+04  5.001485E-09  3.064496E-09
       161  12 -1.637040E+04  6.535798E+04  6.621036E+04 -6.745184E+04 -5.266066E-08 -1.900322E-08
       161  13 -4.078125E+05 -7.586242E+04 -1.598349E+03 -1.775613E+05  3.330748E-09  1.710842E-09
       161  14 -4.093631E+05 -7.433492E+04 -2.921792E+03 -1.754724E+05  1.102665E-08  3.852714E-09
       161  15 -4.079813E+05 -7.701041E+04 -5.547718E+03 -1.771334E+05  5.253206E-09  1.559057E-09
       161  16 -7.569048E+05 -2.017632E+05 -6.310052E+04 -2.748202E+05 -4.563279E-08 -1.591883E-08
       161  17 -7.794623E+05 -2.082899E+05 -6.886672E+04 -2.789103E+05 -8.005743E-09  5.021154E-09
       161  18 -7.994313E+05 -2.193642E+05 -7.731145E+04 -2.867504E+05  5.268710E-08  2.133848E-08
       161  19 -5.859468E+04  5.004943E+04  5.990058E+04 -8.025259E+04 -1.411869E+04  2.573017E+04
       161  20 -3.912086E+04  5.963334E+04  6.301980E+04 -7.197777E+04 -1.427265E+04  2.694268E+04
       161  21 -1.636999E+04  6.535883E+04  6.621211E+04 -6.745214E+04 -1.405021E+04  2.715176E+04
       161  22 -4.078122E+05 -7.586162E+04 -1.596761E+03 -1.775615E+05 -1.132414E+04  2.678080E+04
       161  23 -4.093627E+05 -7.433407E+04 -2.920059E+03 -1.754727E+05 -1.321354E+04  2.734227E+04
       161  24 -4.079808E+05 -7.700957E+04 -5.545951E+03 -1.771337E+05 -1.472644E+04  2.689993E+04
       161  25 -7.569045E+05 -2.017624E+05 -6.309893E+04 -2.748204E+05 -8.531227E+03  2.783082E+04
       161  26 -7.794619E+05 -2.082890E+05 -6.886499E+04 -2.789105E+05 -1.215509E+04  2.774160E+04
       161  27 -7.994308E+05 -2.193634E+05 -7.730967E+04 -2.867508E+05 -1.540221E+04  2.664828E+04
       162   1 -1.589893E+03  6.971697E+04  6.782043E+04 -6.522535E+04  1.640498E+04 -2.676718E+04
       162   2  1.227203E+04  8.154555E+04  7.337835E+04 -4.911499E+04  2.114623E+03 -2.611337E+04
       162   3  2.653345E+04  8.001788E+04  8.512338E+04 -3.271685E+04 -1.643688E+04 -1.412391E+04
       162   4 -4.089643E+05 -7.674881E+04 -7.369608E+03 -1.774242E+05  1.572395E+04 -2.702509E+04
       162   5 -4.088559E+05 -7.967790E+04 -1.402379E+04 -1.732324E+05  2.104845E+04 -1.900297E+04
       162   6 -4.122379E+05 -9.985507E+04 -3.003750E+04 -1.687526E+05  2.211091E+04  3.591481E+02
       162   7 -8.161641E+05 -2.231996E+05 -8.256569E+04 -2.895548E+05  1.504339E+04 -2.728283E+04
       162   8 -8.297941E+05 -2.408790E+05 -1.014320E+05 -2.972683E+05  3.996819E+04 -1.189841E+04
       162   9 -8.508051E+05 -2.796988E+05 -1.452050E+05 -3.046929E+05  6.062786E+04  1.482819E+04
       162  10 -1.590374E+03  6.971613E+04  6.781858E+04 -6.522500E+04 -4.701064E-09 -2.295046E-09
       162  11  1.227184E+04  8.154482E+04  7.337706E+04 -4.911494E+04 -2.147336E-09 -5.758959E-10
       162  12  2.653311E+04  8.001759E+04  8.512249E+04 -3.271704E+04 -2.921916E-09 -2.051947E-10
       162  13 -4.089647E+05 -7.674966E+04 -7.371445E+03 -1.774239E+05 -4.195065E-09 -1.183740E-09
       162  14 -4.088565E+05 -7.967841E+04 -1.402530E+04 -1.732320E+05  4.380013E-09 -1.274985E-09
       162  15 -4.122384E+05 -9.985520E+04 -3.003841E+04 -1.687526E+05  2.145854E-09  4.311464E-10
       162  16 -8.161645E+05 -2.232005E+05 -8.256752E+04 -2.895544E+05 -2.925921E-09  1.422913E-09
       162  17 -8.297959E+05 -2.408795E+05 -1.014353E+05 -2.972679E+05 -3.225235E-09  1.209052E-09
       162  18 -8.508091E+05 -2.797000E+05 -1.452123E+05 -3.046936E+05 -1.198088E-09  3.879420E-10
       162  19 -1.589893E+03  6.971697E+04  6.782043E+04 -6.522535E+04 -1.640498E+04  2.676718E+04
       162  20  1.227203E+04  8.154555E+04  7.337835E+04 -4.911499E+04 -2.114623E+03  2.611337E+04
       162  21  2.653345E+04  8.001788E+04  8.512338E+04 -3.271685E+04  1.643688E+04  1.412391E+04
       162  22 -4.089643E+05 -7.674881E+04 -7.369608E+03 -1.774242E+05 -1.572395E+04  2.702509E+04
       162  23 -4.088559E+05 -7.967790E+04 -1.402379E+04 -1.732324E+05 -2.104845E+04  1.900297E+04
       162  24 -4.122379E+05 -9.985507E+04 -3.003750E+04 -1.687526E+05 -2.211091E+04 -3.591481E+02
       162  25 -8.161641E+05 -2.231996E+05 -8.256569E+04 -2.895548E+05 -1.504339E+04  2.728283E+04
       162  26 -8.297941E+05 -2.408790E+05 -1.014320E+05 -2.972683E+05 -3.996819E+04  1.189841E+04
       162  27 -8.508051E+05 -2.796988E+05 -1.452050E+05 -3.046929E+05 -6.062786E+04 -1.482819E+04
       163   1 -5.701460E+05 -1.235357E+05 -1.615346E+05 -7.690582E+03 -1.099352E+05 -2.471007E+01
       163   2 -5.446348E+05  2.931192E+04 -6.887911E+04 -1.120856E+03 -7.235243E+04 -1.060871E+01
       163   3 -5.686022E+05  3.854235E+03 -4.527723E+04  1.536178E+03 -3.477057E+04 -5.408252E+01
       163   4 -5.685137E+05 -1.231223E+05 -1.611257E+05 -1.498936E+03 -1.099331E+05 -2.580663E+01
       163   5 -5.437590E+05  2.953220E+04 -6.866038E+04  4.358204E+02 -7.235442E+04 -1.079092E+01
       163   6 -5.684818E+05  3.882162E+03 -4.524566E+04 -1.542203E+03 -3.477669E+04 -5.391199E+01
       163   7 -5.668814E+05 -1.227087E+05 -1.607168E+05  4.692727E+03 -1.099311E+05 -2.690314E+01
       163   8 -5.428831E+05  2.975249E+04 -6.844164E+04  1.992499E+03 -7.235640E+04 -1.097315E+01
       163   9 -5.683615E+05  3.910125E+03 -4.521407E+04 -4.620585E+03 -3.478281E+04 -5.374140E+01
       163  10 -5.701590E+05 -1.235390E+05 -1.615573E+05 -7.690584E+03 -1.861523E-10 -6.098357E-11
       163  11 -5.446405E+05  2.931051E+04 -6.888896E+04 -1.120856E+03 -3.240540E-09 -3.770370E-10
       163  12 -5.686035E+05  3.853910E+03 -4.527951E+04  1.536177E+03  1.922960E-09  6.002757E-11
       163  13 -5.685267E+05 -1.231255E+05 -1.611485E+05 -1.498938E+03 -1.918118E-10  2.203591E-10
       163  14 -5.437646E+05  2.953079E+04 -6.867022E+04  4.358198E+02  8.617162E-09 -3.474421E-10
       163  15 -5.684831E+05  3.881837E+03 -4.524793E+04 -1.542204E+03  1.302172E-09  4.196437E-10
       163  16 -5.668944E+05 -1.227120E+05 -1.607396E+05  4.692724E+03 -5.138463E-11  5.516790E-11
       163  17 -5.428887E+05  2.975109E+04 -6.845149E+04  1.992498E+03 -5.096893E-09 -8.973935E-10
       163  18 -5.683628E+05  3.909799E+03 -4.521635E+04 -4.620587E+03 -3.604277E-09 -1.068827E-10
       163  19 -5.701460E+05 -1.235357E+05 -1.615346E+05 -7.690582E+03  1.099352E+05  2.471007E+01
       163  20 -5.446348E+05  2.931192E+04 -6.887911E+04 -1.120856E+03  7.235243E+04  1.060871E+01
       163  21 -5.686022E+05  3.854235E+03 -4.527723E+04  1.536178E+03  3.477057E+04  5.408252E+01
       163  22 -5.685137E+05 -1.231223E+05 -1.611257E+05 -1.498936E+03  1.099331E+05  2.580663E+01
       163  23 -5.437590E+05  2.953220E+04 -6.866038E+04  4.358204E+02  7.235442E+04  1.079092E+01
       163  24 -5.684818E+05  3.882162E+03 -4.524566E+04 -1.542203E+03  3.477669E+04  5.391199E+01
       163  25 -5.668814E+05 -1.227087E+05 -1.607168E+05  4.692727E+03  1.099311E+05  2.690314E+01
       163  26 -5.428831E+05  2.975249E+04 -6.844164E+04  1.992499E+03  7.235640E+04  1.097315E+01
       163  27 -5.683615E+05  3.910125E+03 -4.521407E+04 -4.620585E+03  3.478281E+04  5.374140E+01
       164   1 -5.321633E+05 -1.239595E+04 -3.069431E+04 -2.296287E+03 -2.725660E+04 -9.690229E+01
       164   2 -5.274682E+05  1.155157E+04 -1.084574E+04  4.337995E+01 -1.790415E+04 -1.421627E+02
       164   3 -5.309005E+05  7.685723E+03 -4.033681E+03 -8.846408E+02 -8.551514E+03 -1.645104E+02
       164   4 -5.593026E+05 -1.918326E+04 -3.747908E+04 -1.379528E+03 -2.726009E+04 -9.694442E+01
       164   5 -5.552351E+05  4.607185E+03 -1.778539E+04  2.506271E+02 -1.790635E+04 -1.421704E+02
       164   6 -5.592957E+05  5.833812E+02 -1.112949E+04 -1.386927E+03 -8.552437E+03 -1.645047E+02
       164   7 -5.864412E+05 -2.597063E+04 -4.426391E+04 -4.628089E+02 -2.726359E+04 -9.698655E+01
       164   8 -5.830014E+05 -2.337255E+03 -2.472509E+04  4.578649E+02 -1.790855E+04 -1.421782E+02
       164   9 -5.876902E+05 -6.519020E+03 -1.822535E+04 -1.889190E+03 -8.553359E+03 -1.644989E+02
       164  10 -5.321641E+05 -1.239615E+04 -3.069570E+04 -2.296289E+03  2.234586E-09 -5.200093E-10
       164  11 -5.274685E+05  1.155148E+04 -1.084635E+04  4.337790E+01 -2.605943E-09 -2.235748E-10
       164  12 -5.309005E+05  7.685703E+03 -4.033819E+03 -8.846420E+02 -1.823058E-09  1.333793E-09
       164  13 -5.593034E+05 -1.918346E+04 -3.748048E+04 -1.379530E+03 -8.634413E-09 -7.343049E-10
       164  14 -5.552355E+05  4.607099E+03 -1.778599E+04  2.506251E+02  2.153889E-09 -1.386660E-09
       164  15 -5.592958E+05  5.833615E+02 -1.112962E+04 -1.386928E+03 -4.529520E-09  3.711191E-10
       164  16 -5.864420E+05 -2.597083E+04 -4.426531E+04 -4.628111E+02 -2.521407E-09  2.052933E-11
       164  17 -5.830018E+05 -2.337342E+03 -2.472569E+04  4.578629E+02  2.063490E-09 -1.323913E-09
       164  18 -5.876903E+05 -6.519040E+03 -1.822549E+04 -1.889191E+03  2.855029E-09  1.387875E-09
       164  19 -5.321633E+05 -1.239595E+04 -3.069431E+04 -2.296287E+03  2.725660E+04  9.690229E+01
       164  20 -5.274682E+05  1.155157E+04 -1.084574E+04  4.337995E+01  1.790415E+04  1.421627E+02
       164  21 -5.309005E+05  7.685723E+03 -4.033681E+03 -8.846408E+02  8.551514E+03  1.645104E+02
       164  22 -5.593026E+05 -1.918326E+04 -3.747908E+04 -1.379528E+03  2.726009E+04  9.694442E+01
       164  23 -5.552351E+05  4.607185E+03 -1.778539E+04  2.506271E+02  1.790635E+04  1.421704E+02
       164  24 -5.592957E+05  5.833812E+02 -1.112949E+04 -1.386927E+03  8.552437E+03  1.645047E+02
       164  25 -5.864412E+05 -2.597063E+04 -4.426391E+04 -4.628089E+02  2.726359E+04  9.698655E+01
       164  26 -5.830014E+05 -2.337255E+03 -2.472509E+04  4.578649E+02  1.790855E+04  1.421782E+02
       164  27 -5.876902E+05 -6.519020E+03 -1.822535E+04 -1.889190E+03  8.553359E+03  1.644989E+02
       165   1 -5.118222E+05  8.521030E+03  2.546651E+03 -1.074441E+03 -6.727649E+03 -1.886218E+02
       165   2 -5.109210E+05  1.227525E+04  6.948263E+03 -2.699082E+02 -4.371456E+03 -2.284231E+02
       165   3 -5.112893E+05  1.170111E+04  8.756909E+03 -8.497186E+02 -2.015295E+03 -2.186343E+02
       165   4 -5.577735E+05 -2.971673E+03 -8.939349E+03 -9.642375E+02 -6.732070E+03 -1.886271E+02
       165   5 -5.571377E+05  7.164041E+02 -4.602212E+03 -2.731319E+02 -4.372462E+03 -2.284252E+02
       165   6 -5.577720E+05  7.534491E+01 -2.860546E+03 -9.663762E+02 -2.012886E+03 -2.186325E+02
       165   7 -6.037230E+05 -1.446454E+04 -2.042551E+04 -8.540423E+02 -6.736491E+03 -1.886325E+02
       165   8 -6.033524E+05 -1.084261E+04 -1.615285E+04 -2.763559E+02 -4.373467E+03 -2.284273E+02
       165   9 -6.042528E+05 -1.155059E+04 -1.447816E+04 -1.083026E+03 -2.010478E+03 -2.186307E+02
       165  10 -5.118222E+05  8.521017E+03  2.546566E+03 -1.074442E+03 -1.189959E-10  2.409430E-09
       165  11 -5.109210E+05  1.227525E+04  6.948227E+03 -2.699090E+02 -4.646472E-10  9.329508E-10
       165  12 -5.112893E+05  1.170111E+04  8.756901E+03 -8.497190E+02  4.320855E-09 -4.294904E-10
       165  13 -5.577736E+05 -2.971685E+03 -8.939434E+03 -9.642386E+02 -3.879947E-09  2.524685E-10
       165  14 -5.571377E+05  7.163990E+02 -4.602248E+03 -2.731328E+02 -4.307871E-09  1.083180E-09
       165  15 -5.577720E+05  7.534378E+01 -2.860553E+03 -9.663765E+02  8.815104E-10  3.380604E-09
       165  16 -6.037230E+05 -1.446455E+04 -2.042559E+04 -8.540433E+02  3.024500E-09  1.624851E-09
       165  17 -6.033525E+05 -1.084261E+04 -1.615288E+04 -2.763567E+02  9.567167E-10  1.220998E-09
       165  18 -6.042528E+05 -1.155059E+04 -1.447817E+04 -1.083026E+03 -1.454284E-10  2.879874E-09
       165  19 -5.118222E+05  8.521030E+03  2.546651E+03 -1.074441E+03  6.727649E+03  1.886218E+02
       165  20 -5.109210E+05  1.227525E+04  6.948263E+03 -2.699082E+02  4.371456E+03  2.284231E+02
       165  21 -5.112893E+05  1.170111E+04  8.756909E+03 -8.497186E+02  2.015295E+03  2.186343E+02
       165  22 -5.577735E+05 -2.971673E+03 -8.939349E+03 -9.642375E+02  6.732070E+03  1.886271E+02
       165  23 -5.571377E+05  7.164041E+02 -4.602212E+03 -2.731319E+02  4.372462E+03  2.284252E+02
       165  24 -5.577720E+05  7.534492E+01 -2.860546E+03 -9.663762E+02  2.012886E+03  2.186325E+02
       165  25 -6.037230E+05 -1.446454E+04 -2.042551E+04 -8.540423E+02  6.736491E+03  1.886325E+02
       165  26 -6.033524E+05 -1.084261E+04 -1.615285E+04 -2.763559E+02  4.373467E+03  2.284273E+02
       165  27 -6.042528E+05 -1.155059E+04 -1.447816E+04 -1.083026E+03  2.010478E+03  2.186307E+02
       166   1 -5.096236E+05  1.152525E+04  9.659326E+03 -4.111227E+02 -1.542459E+03 -2.203975E+02
       166   2 -5.097367E+05  1.205632E+04  1.048205E+04 -8.909910E+02 -8.208941E+02 -2.331515E+02
       166   3 -5.100127E+05  1.182811E+04  1.066915E+04 -3.614913E+02 -9.941776E+01 -1.940990E+02
       166   4 -5.575264E+05 -4.554334E+02 -2.313170E+03 -4.333084E+02 -1.545220E+03 -2.204020E+02
       166   5 -5.574445E+05  1.244406E+02 -1.441068E+03 -9.382234E+02 -8.199770E+02 -2.331513E+02
       166   6 -5.575263E+05 -5.563199E+01 -1.207186E+03 -4.337649E+02 -9.482165E+01 -1.940926E+02
       166   7 -6.054270E+05 -1.243629E+04 -1.428584E+04 -4.554930E+02 -1.547982E+03 -2.204064E+02
       166   8 -6.051502E+05 -1.180761E+04 -1.336436E+04 -9.854529E+02 -8.190600E+02 -2.331511E+02
       166   9 -6.050378E+05 -1.193955E+04 -1.308369E+04 -5.060339E+02 -9.022590E+01 -1.940862E+02
       166  10 -5.096236E+05  1.152525E+04  9.659322E+03 -4.111230E+02  1.173038E-09 -2.476601E-10
       166  11 -5.097367E+05  1.205632E+04  1.048205E+04 -8.909912E+02 -8.414415E-09  3.363668E-09
       166  12 -5.100127E+05  1.182811E+04  1.066915E+04 -3.614913E+02  5.385755E-09  3.105887E-09
       166  13 -5.575264E+05 -4.554341E+02 -2.313175E+03 -4.333087E+02  7.016453E-12  1.301336E-09
       166  14 -5.574445E+05  1.244403E+02 -1.441069E+03 -9.382236E+02 -9.008799E-09  1.713120E-09
       166  15 -5.575263E+05 -5.563203E+01 -1.207186E+03 -4.337649E+02 -4.787697E-09  5.525018E-10
       166  16 -6.054270E+05 -1.243629E+04 -1.428584E+04 -4.554933E+02  5.700739E-10  1.709810E-09
       166  17 -6.051502E+05 -1.180761E+04 -1.336436E+04 -9.854531E+02  2.813944E-09 -1.939111E-09
       166  18 -6.050378E+05 -1.193955E+04 -1.308369E+04 -5.060339E+02 -4.592392E-09 -6.985284E-10
       166  19 -5.096236E+05  1.152525E+04  9.659326E+03 -4.111227E+02  1.542459E+03  2.203975E+02
       166  20 -5.097367E+05  1.205632E+04  1.048205E+04 -8.909910E+02  8.208941E+02  2.331515E+02
       166  21 -5.100127E+05  1.182811E+04  1.066915E+04 -3.614913E+02  9.941776E+01  1.940990E+02
       166  22 -5.575264E+05 -4.554334E+02 -2.313170E+03 -4.333084E+02  1.545220E+03  2.204020E+02
       166  23 -5.574445E+05  1.244406E+02 -1.441068E+03 -9.382234E+02  8.199770E+02  2.331513E+02
       166  24 -5.575263E+05 -5.563199E+01 -1.207186E+03 -4.337649E+02  9.482165E+01  1.940926E+02
       166  25 -6.054270E+05 -1.243629E+04 -1.428584E+04 -4.554930E+02  1.547982E+03  2.204064E+02
       166  26 -6.051502E+05 -1.180761E+04 -1.336436E+04 -9.854529E+02  8.190600E+02  2.331511E+02
       166  27 -6.050378E+05 -1.193955E+04 -1.308369E+04 -5.060339E+02  9.022590E+01  1.940862E+02
       167   1 -5.252715E+05  8.013325E+03  6.848775E+03  4.169747E+01  1.234978E+02 -1.735495E+02
       167   2 -5.257285E+05  8.053112E+03  6.458442E+03 -1.454745E+03  8.583054E+02 -1.524555E+02
       167   3 -5.264344E+05  7.316907E+03  5.403627E+03  8.362004E+01  1.593051E+03 -9.754411E+01
       167   4 -5.575448E+05 -5.823370E+01 -1.216255E+03  1.623484E+01  1.237052E+02 -1.735497E+02
       167   5 -5.574205E+05  1.267123E+02 -1.462098E+03 -1.500768E+03  8.609130E+02 -1.524512E+02
       167   6 -5.575453E+05 -4.647717E+02 -2.374111E+03  1.704604E+01  1.598059E+03 -9.753466E+01
       167   7 -5.898173E+05 -8.129871E+03 -9.281364E+03 -9.226862E+00  1.239125E+02 -1.735499E+02
       167   8 -5.891116E+05 -7.799763E+03 -9.382713E+03 -1.546789E+03  8.635205E+02 -1.524470E+02
       167   9 -5.886555E+05 -8.246524E+03 -1.015192E+04 -4.952505E+01  1.603068E+03 -9.752521E+01
       167  10 -5.252715E+05  8.013325E+03  6.848775E+03  4.169749E+01  5.058742E-09  1.975857E-09
       167  11 -5.257285E+05  8.053111E+03  6.458441E+03 -1.454745E+03 -7.126766E-09  1.799222E-09
       167  12 -5.264344E+05  7.316906E+03  5.403622E+03  8.362016E+01  3.979205E-09 -3.999161E-09
       167  13 -5.575448E+05 -5.823374E+01 -1.216255E+03  1.623486E+01 -4.185028E-10  5.604836E-09
       167  14 -5.574205E+05  1.267121E+02 -1.462099E+03 -1.500768E+03 -2.357644E-09  2.111114E-09
       167  15 -5.575453E+05 -4.647724E+02 -2.374116E+03  1.704617E+01  2.349805E-11 -4.203080E-09
       167  16 -5.898173E+05 -8.129871E+03 -9.281364E+03 -9.226846E+00 -5.037039E-10  3.171134E-09
       167  17 -5.891116E+05 -7.799763E+03 -9.382715E+03 -1.546789E+03  2.681804E-09 -7.645510E-10
       167  18 -5.886555E+05 -8.246524E+03 -1.015193E+04 -4.952492E+01 -3.409886E-09 -3.428339E-09
       167  19 -5.252715E+05  8.013325E+03  6.848775E+03  4.169747E+01 -1.234978E+02  1.735495E+02
       167  20 -5.257285E+05  8.053112E+03  6.458442E+03 -1.454745E+03 -8.583054E+02  1.524555E+02
       167  21 -5.264344E+05  7.316907E+03  5.403627E+03  8.362004E+01 -1.593051E+03  9.754411E+01
       167  22 -5.575448E+05 -5.823370E+01 -1.216255E+03  1.623484E+01 -1.237052E+02  1.735497E+02
       167  23 -5.574205E+05  1.267123E+02 -1.462098E+03 -1.500768E+03 -8.609130E+02  1.524512E+02
       167  24 -5.575453E+05 -4.647717E+02 -2.374111E+03  1.704604E+01 -1.598059E+03  9.753466E+01
       167  25 -5.898173E+05 -8.129871E+03 -9.281364E+03 -9.226861E+00 -1.239125E+02  1.735499E+02
       167  26 -5.891116E+05 -7.799763E+03 -9.382713E+03 -1.546789E+03 -8.635205E+02  1.524470E+02
       167  27 -5.886555E+05 -8.246524E+03 -1.015192E+04 -4.952505E+01 -1.603068E+03  9.752521E+01
       168   1 -5.530076E+05  1.280681E+03 -1.744429E+03  1.442367E+02  2.076432E+03 -6.106659E+01
       168   2 -5.530413E+05  1.747523E+03 -3.714794E+03 -1.719963E+03  4.501972E+03 -9.776044E+00
       168   3 -5.545230E+05 -2.236257E+03 -8.381843E+03  3.667418E+02  6.927503E+03  4.103993E+01
       168   4 -5.578112E+05  8.003251E+01 -2.942942E+03  2.178681E+02  2.079780E+03 -6.105964E+01
       168   5 -5.570879E+05  7.352502E+02 -4.726234E+03 -1.754389E+03  4.505272E+03 -9.769590E+00
       168   6 -5.578127E+05 -3.060160E+03 -9.206187E+03  2.242610E+02  6.930758E+03  4.104504E+01
       168   7 -5.626149E+05 -1.120617E+03 -4.141457E+03  2.914990E+02  2.083128E+03 -6.105269E+01
       168   8 -5.611346E+05 -2.770234E+02 -5.737675E+03 -1.788814E+03  4.508572E+03 -9.763137E+00
       168   9 -5.611024E+05 -3.884064E+03 -1.003053E+04  8.178098E+01  6.934014E+03  4.105015E+01
       168  10 -5.530076E+05  1.280680E+03 -1.744437E+03  1.442368E+02  4.139597E-09 -4.145531E-10
       168  11 -5.530413E+05  1.747517E+03 -3.714832E+03 -1.719963E+03 -7.419452E-09  3.371110E-09
       168  12 -5.545230E+05 -2.236270E+03 -8.381934E+03  3.667416E+02  3.525241E-09 -1.894845E-10
       168  13 -5.578113E+05  8.003134E+01 -2.942950E+03  2.178682E+02  2.119179E-11 -2.992121E-09
       168  14 -5.570880E+05  7.352447E+02 -4.726272E+03 -1.754389E+03 -6.466502E-09  1.688238E-09
       168  15 -5.578127E+05 -3.060173E+03 -9.206277E+03  2.242608E+02 -3.217546E-09  7.452175E-10
       168  16 -5.626149E+05 -1.120619E+03 -4.141465E+03  2.914991E+02 -6.321320E-09 -2.017911E-12
       168  17 -5.611346E+05 -2.770288E+02 -5.737713E+03 -1.788814E+03  3.349147E-10 -4.280553E-09
       168  18 -5.611024E+05 -3.884077E+03 -1.003062E+04  8.178075E+01 -3.709733E-09 -3.642836E-10
       168  19 -5.530076E+05  1.280681E+03 -1.744429E+03  1.442367E+02 -2.076432E+03  6.106659E+01
       168  20 -5.530413E+05  1.747523E+03 -3.714794E+03 -1.719963E+03 -4.501972E+03  9.776044E+00
       168  21 -5.545230E+05 -2.236257E+03 -8.381843E+03  3.667418E+02 -6.927503E+03 -4.103993E+01
       168  22 -5.578112E+05  8.003251E+01 -2.942942E+03  2.178681E+02 -2.079780E+03  6.105964E+01
       168  23 -5.570879E+05  7.352502E+02 -4.726234E+03 -1.754389E+03 -4.505272E+03  9.769590E+00
       168  24 -5.578127E+05 -3.060160E+03 -9.206187E+03  2.242610E+02 -6.930758E+03 -4.104504E+01
       168  25 -5.626149E+05 -1.120617E+03 -4.141457E+03  2.914990E+02 -2.083128E+03  6.105269E+01
       168  26 -5.611346E+05 -2.770234E+02 -5.737675E+03 -1.788814E+03 -4.508572E+03  9.763137E+00
       168  27 -5.611024E+05 -3.884064E+03 -1.003053E+04  8.178098E+01 -6.934014E+03 -4.105015E+01
       169   1 -5.837856E+05 -5.503974E+03 -1.756300E+04 -4.465551E+02  8.798980E+03  8.568701E+01
       169   2 -5.802479E+05 -1.535226E+03 -2.457592E+04 -1.420509E+03  1.843095E+04  1.620386E+02
       169   3 -5.851031E+05 -2.618254E+04 -4.501413E+04  1.047389E+03  2.806285E+04  1.794218E+02
       169   4 -5.593546E+05  6.096415E+02 -1.145400E+04  9.403923E+01  8.805443E+03  8.570700E+01
       169   5 -5.551619E+05  4.738036E+03 -1.830657E+04 -1.608491E+03  1.843351E+04  1.620365E+02
       169   6 -5.593612E+05 -1.974833E+04 -3.858134E+04  1.308344E+02  2.806152E+04  1.793761E+02
       169   7 -5.349230E+05  6.723213E+03 -5.345056E+03  6.346546E+02  8.811907E+03  8.572700E+01
       169   8 -5.300754E+05  1.101125E+04 -1.203727E+04 -1.796480E+03  1.843607E+04  1.620344E+02
       169   9 -5.336187E+05 -1.331417E+04 -3.214860E+04 -7.857586E+02  2.806018E+04  1.793303E+02
       169  10 -5.837856E+05 -5.503995E+03 -1.756314E+04 -4.465557E+02  2.275440E-09  3.294927E-09
       169  11 -5.802482E+05 -1.535317E+03 -2.457656E+04 -1.420511E+03 -1.734367E-09  3.886205E-09
       169  12 -5.851040E+05 -2.618275E+04 -4.501561E+04  1.047385E+03 -1.824048E-11  2.607850E-09
       169  13 -5.593546E+05  6.096207E+02 -1.145415E+04  9.403862E+01  4.139059E-12  1.586508E-09
       169  14 -5.551623E+05  4.737945E+03 -1.830721E+04 -1.608493E+03  4.299421E-09  3.632177E-09
       169  15 -5.593620E+05 -1.974855E+04 -3.858282E+04  1.308303E+02 -5.831408E-09 -3.593700E-10
       169  16 -5.349231E+05  6.723192E+03 -5.345202E+03  6.346540E+02 -8.591002E-09  6.490772E-10
       169  17 -5.300758E+05  1.101116E+04 -1.203791E+04 -1.796483E+03 -6.567582E-09 -9.042513E-10
       169  18 -5.336195E+05 -1.331439E+04 -3.215008E+04 -7.857626E+02 -2.883969E-09 -2.778756E-09
       169  19 -5.837856E+05 -5.503974E+03 -1.756300E+04 -4.465551E+02 -8.798980E+03 -8.568701E+01
       169  20 -5.802479E+05 -1.535226E+03 -2.457592E+04 -1.420509E+03 -1.843095E+04 -1.620386E+02
       169  21 -5.851031E+05 -2.618254E+04 -4.501413E+04  1.047389E+03 -2.806285E+04 -1.794218E+02
       169  22 -5.593546E+05  6.096415E+02 -1.145400E+04  9.403923E+01 -8.805443E+03 -8.570700E+01
       169  23 -5.551619E+05  4.738036E+03 -1.830657E+04 -1.608491E+03 -1.843351E+04 -1.620365E+02
       169  24 -5.593612E+05 -1.974833E+04 -3.858134E+04  1.308344E+02 -2.806152E+04 -1.793761E+02
       169  25 -5.349230E+05  6.723213E+03 -5.345056E+03  6.346546E+02 -8.811907E+03 -8.572700E+01
       169  26 -5.300754E+05  1.101125E+04 -1.203727E+04 -1.796480E+03 -1.843607E+04 -1.620344E+02
       169  27 -5.336187E+05 -1.331417E+04 -3.214860E+04 -7.857586E+02 -2.806018E+04 -1.793303E+02
       170   1 -6.135013E+05 -7.195718E+03 -5.775036E+04 -3.556260E+03  3.578342E+04  2.420353E+02
       170   2 -5.884234E+05  1.913566E+04 -8.193859E+04  4.274076E+02  7.448137E+04  3.620211E+02
       170   3 -6.141751E+05 -1.380577E+05 -1.771937E+05  6.174275E+03  1.131807E+05  2.413676E+02
       170   4 -5.687812E+05  4.003638E+03 -4.656851E+04 -3.297336E+02  3.579771E+04  2.422419E+02
       170   5 -5.433858E+05  3.039367E+04 -7.068462E+04 -1.123197E+03  7.448077E+04  3.618267E+02
       170   6 -5.688139E+05 -1.267315E+05 -1.658536E+05 -1.533809E+02  1.131652E+05  2.401836E+02
       170   7 -5.240592E+05  1.520288E+04 -3.538680E+04  2.897025E+03  3.581200E+04  2.424485E+02
       170   8 -4.983464E+05  4.165153E+04 -5.943080E+04 -2.673914E+03  7.448016E+04  3.616322E+02
       170   9 -5.234508E+05 -1.154053E+05 -1.545137E+05 -6.481500E+03  1.131498E+05  2.390000E+02
       170  10 -6.135026E+05 -7.196063E+03 -5.775277E+04 -3.556267E+03 -1.832588E-09  6.630760E-10
       170  11 -5.884294E+05  1.913417E+04 -8.194903E+04  4.273859E+02  6.901889E-09 -1.013497E-09
       170  12 -6.141888E+05 -1.380612E+05 -1.772178E+05  6.174253E+03 -5.245485E-10 -3.950751E-10
       170  13 -5.687825E+05  4.003294E+03 -4.657092E+04 -3.297406E+02 -4.691564E-09  3.028135E-09
       170  14 -5.433918E+05  3.039218E+04 -7.069506E+04 -1.123218E+03 -1.760439E-09 -3.042139E-09
       170  15 -5.688277E+05 -1.267350E+05 -1.658777E+05 -1.534028E+02  8.497139E-10  1.898999E-09
       170  16 -5.240606E+05  1.520254E+04 -3.538921E+04  2.897018E+03 -4.621130E-09  1.600013E-09
       170  17 -4.983524E+05  4.165004E+04 -5.944124E+04 -2.673936E+03 -4.584187E-09  7.621240E-10
       170  18 -5.234645E+05 -1.154087E+05 -1.545377E+05 -6.481522E+03 -2.004304E-09 -6.703835E-10
       170  19 -6.135013E+05 -7.195718E+03 -5.775036E+04 -3.556260E+03 -3.578342E+04 -2.420353E+02
       170  20 -5.884234E+05  1.913566E+04 -8.193859E+04  4.274076E+02 -7.448137E+04 -3.620211E+02
       170  21 -6.141751E+05 -1.380577E+05 -1.771937E+05  6.174275E+03 -1.131807E+05 -2.413676E+02
       170  22 -5.687812E+05  4.003638E+03 -4.656851E+04 -3.297336E+02 -3.579771E+04 -2.422419E+02
       170  23 -5.433858E+05  3.039367E+04 -7.068462E+04 -1.123197E+03 -7.448077E+04 -3.618267E+02
       170  24 -5.688139E+05 -1.267315E+05 -1.658536E+05 -1.533809E+02 -1.131652E+05 -2.401836E+02
       170  25 -5.240592E+05  1.520288E+04 -3.538680E+04  2.897025E+03 -3.581200E+04 -2.424485E+02
       170  26 -4.983464E+05  4.165153E+04 -5.943080E+04 -2.673914E+03 -7.448016E+04 -3.616322E+02
       170  27 -5.234508E+05 -1.154053E+05 -1.545137E+05 -6.481500E+03 -1.131498E+05 -2.390000E+02
       171   1  1.916517E+05  1.089049E+06  2.013331E+05 -9.132502E+04  6.317491E+03  5.570155E+04
       171   2  1.066200E+05  9.669685E+05  1.343243E+05 -4.917718E+04  1.843558E+04  2.635496E+04
       171   3  7.917188E+04  8.631155E+05  1.007981E+05 -6.018857E+04  1.551932E+04 -2.994424E+03
       171   4  5.292235E+04  5.311051E+05  6.524585E+04 -6.772528E+04  6.327996E+03  4.012209E+04
       171   5 -2.376777E+03  5.230438E+05  3.295170E+04 -4.116195E+04  1.843925E+04  2.271248E+04
       171   6 -2.138742E+03  5.311457E+05  2.587622E+04 -6.775725E+04  1.551284E+04  5.294619E+03
       171   7 -8.582776E+04 -2.655416E+04 -7.086279E+04 -4.414672E+04  6.337324E+03  2.455657E+04
       171   8 -1.113870E+05  7.930175E+04 -6.843367E+04 -3.315245E+04  1.844283E+04  1.907257E+04
       171   9 -8.345667E+04  1.992784E+05 -4.905239E+04 -7.532181E+04  1.550617E+04  1.357928E+04
       171  10  1.916508E+05  1.089046E+06  2.013272E+05 -9.132531E+04  2.885562E-09 -1.604337E-09
       171  11  1.066195E+05  9.669676E+05  1.343223E+05 -4.917757E+04 -8.685796E-10  5.202834E-09
       171  12  7.917162E+04  8.631154E+05  1.007976E+05 -6.018854E+04  2.788590E-09  9.102642E-09
       171  13  5.292187E+04  5.311033E+05  6.524275E+04 -6.772549E+04 -5.362497E-09 -5.762339E-10
       171  14 -2.377281E+03  5.230432E+05  3.295010E+04 -4.116229E+04  4.593375E-09  6.351866E-10
       171  15 -2.139008E+03  5.311456E+05  2.587571E+04 -6.775731E+04 -4.491853E-09 -5.544786E-10
       171  16 -8.582797E+04 -2.655482E+04 -7.086400E+04 -4.414684E+04  2.892088E-09  1.700204E-09
       171  17 -1.113875E+05  7.930127E+04 -6.843499E+04 -3.315274E+04 -3.735356E-09 -5.461146E-09
       171  18 -8.345697E+04  1.992782E+05 -4.905319E+04 -7.532198E+04 -7.188713E-09 -8.866244E-09
       171  19  1.916517E+05  1.089049E+06  2.013331E+05 -9.132502E+04 -6.317491E+03 -5.570155E+04
       171  20  1.066200E+05  9.669685E+05  1.343243E+05 -4.917718E+04 -1.843558E+04 -2.635496E+04
       171  21  7.917188E+04  8.631155E+05  1.007981E+05 -6.018857E+04 -1.551932E+04  2.994424E+03
       171  22  5.292235E+04  5.311051E+05  6.524585E+04 -6.772528E+04 -6.327996E+03 -4.012209E+04
       171  23 -2.376777E+03  5.230438E+05  3.295170E+04 -4.116195E+04 -1.843925E+04 -2.271248E+04
       171  24 -2.138742E+03  5.311457E+05  2.587622E+04 -6.775725E+04 -1.551284E+04 -5.294619E+03
       171  25 -8.582776E+04 -2.655416E+04 -7.086279E+04 -4.414672E+04 -6.337324E+03 -2.455657E+04
       171  26 -1.113870E+05  7.930175E+04 -6.843367E+04 -3.315245E+04 -1.844283E+04 -1.907257E+04
       171  27 -8.345667E+04  1.992784E+05 -4.905239E+04 -7.532181E+04 -1.550617E+04 -1.357928E+04
       172   1  5.971866E+04  7.598786E+05  7.773716E+04 -7.098993E+04  1.044642E+04 -2.817958E+03
       172   2  2.829715E+04  6.446649E+05  5.465048E+04 -4.059829E+04  5.498548E+03 -1.708905E+04
       172   3  1.129668E+04  5.348186E+05  4.442887E+04 -6.378999E+04  2.828489E+02 -3.135889E+04
       172   4  3.048026E+03  5.287467E+05  2.538087E+04 -6.784333E+04  1.044317E+04  1.007811E+03
       172   5 -7.606106E+02  5.260898E+05  2.785352E+04 -4.104843E+04  5.494827E+03 -1.304857E+04
       172   6  9.816588E+03  5.287510E+05  4.304395E+04 -6.783684E+04  2.787578E+02 -2.710621E+04
       172   7 -5.362624E+04  2.976644E+05 -2.697881E+04 -6.469789E+04  1.043995E+04  4.832169E+03
       172   8 -2.981932E+04  4.075277E+05  1.055721E+03 -4.149849E+04  5.491098E+03 -9.008854E+03
       172   9  8.336568E+03  5.226835E+05  4.165910E+04 -7.188366E+04  2.746114E+02 -2.285358E+04
       172  10  5.971854E+04  7.598785E+05  7.773694E+04 -7.098990E+04 -3.084614E-09 -1.232277E-08
       172  11  2.829703E+04  6.446646E+05  5.464988E+04 -4.059821E+04  8.523123E-10 -2.732274E-09
       172  12  1.129641E+04  5.348175E+05  4.442703E+04 -6.378999E+04 -3.321667E-09  9.087174E-09
       172  13  3.047908E+03  5.287467E+05  2.538066E+04 -6.784334E+04 -1.843077E-09 -9.230758E-10
       172  14 -7.606887E+02  5.260896E+05  2.785314E+04 -4.104837E+04 -2.784881E-09  9.612351E-10
       172  15  9.816391E+03  5.287502E+05  4.304257E+04 -6.783684E+04 -6.245842E-09 -8.925200E-10
       172  16 -5.362636E+04  2.976644E+05 -2.697906E+04 -6.469794E+04 -7.274432E-09  1.295440E-08
       172  17 -2.981938E+04  4.075276E+05  1.055512E+03 -4.149845E+04  8.164130E-10  1.953764E-09
       172  18  8.336428E+03  5.226829E+05  4.165812E+04 -7.188365E+04 -1.412864E-09 -8.834309E-09
       172  19  5.971866E+04  7.598786E+05  7.773716E+04 -7.098993E+04 -1.044642E+04  2.817958E+03
       172  20  2.829715E+04  6.446649E+05  5.465048E+04 -4.059829E+04 -5.498548E+03  1.708905E+04
       172  21  1.129668E+04  5.348186E+05  4.442887E+04 -6.378999E+04 -2.828489E+02  3.135889E+04
       172  22  3.048026E+03  5.287467E+05  2.538087E+04 -6.784333E+04 -1.044317E+04 -1.007811E+03
       172  23 -7.606106E+02  5.260898E+05  2.785352E+04 -4.104843E+04 -5.494827E+03  1.304857E+04
       172  24  9.816588E+03  5.287510E+05  4.304395E+04 -6.783684E+04 -2.787578E+02  2.710621E+04
       172  25 -5.362624E+04  2.976644E+05 -2.697881E+04 -6.469789E+04 -1.043995E+04 -4.832169E+03
       172  26 -2.981932E+04  4.075277E+05  1.055721E+03 -4.149849E+04 -5.491098E+03  9.008854E+03
       172  27  8.336568E+03  5.226835E+05  4.165910E+04 -7.188366E+04 -2.746114E+02  2.285358E+04
       173   1 -3.078654E+04  4.428576E+05  3.029840E+04 -8.970558E+04 -4.173896E+03 -4.164377E+04
       173   2 -5.727793E+04  3.087665E+05  3.576750E+04 -1.941311E+04 -8.204160E+03 -7.861805E+04
       173   3  6.937451E+04  2.177114E+05  1.035759E+05 -2.337588E+03 -3.108832E+03 -1.155768E+05
       173   4 -7.650905E+03  5.374084E+05  5.173766E+04 -6.779459E+04 -4.182155E+03 -3.481427E+04
       173   5 -6.484055E+03  5.152577E+05  8.310882E+04 -4.112407E+04 -8.200862E+03 -7.903648E+04
       173   6  1.490470E+05  5.373587E+05  1.818296E+05 -6.766286E+04 -3.090147E+03 -1.232501E+05
       173   7  1.548594E+04  6.319688E+05  7.317679E+04 -4.588022E+04 -4.189931E+03 -2.798373E+04
       173   8  4.430861E+04  7.217893E+05  1.304476E+05 -6.284230E+04 -8.197536E+03 -7.945505E+04
       173   9  2.287279E+05  8.571083E+05  2.600784E+05 -1.330218E+05 -3.069856E+03 -1.309273E+05
       173  10 -3.078702E+04  4.428557E+05  3.029511E+04 -8.970572E+04 -1.045566E-09  2.288783E-09
       173  11 -5.727966E+04  3.087599E+05  3.575576E+04 -1.941363E+04  6.130512E-09 -1.104901E-10
       173  12  6.937091E+04  2.176971E+05  1.035508E+05 -2.337877E+03  2.379457E-09  1.229136E-09
       173  13 -7.651248E+03  5.374071E+05  5.173536E+04 -6.779470E+04 -7.073577E-09 -8.526060E-10
       173  14 -6.485803E+03  5.152510E+05  8.309696E+04 -4.112459E+04  3.242347E-09  5.328537E-10
       173  15  1.490429E+05  5.373424E+05  1.818011E+05 -6.766317E+04  6.959418E-09 -3.122448E-10
       173  16  1.548572E+04  6.319679E+05  7.317529E+04 -4.588031E+04 -3.156742E-09 -1.977809E-09
       173  17  4.430684E+04  7.217825E+05  1.304356E+05 -6.284283E+04  9.826012E-10 -6.843903E-10
       173  18  2.287233E+05  8.570899E+05  2.600463E+05 -1.330221E+05  8.575646E-09 -7.600544E-10
       173  19 -3.078654E+04  4.428576E+05  3.029840E+04 -8.970558E+04  4.173896E+03  4.164377E+04
       173  20 -5.727793E+04  3.087665E+05  3.576750E+04 -1.941311E+04  8.204160E+03  7.861805E+04
       173  21  6.937451E+04  2.177114E+05  1.035759E+05 -2.337588E+03  3.108832E+03  1.155768E+05
       173  22 -7.650905E+03  5.374084E+05  5.173766E+04 -6.779459E+04  4.182155E+03  3.481427E+04
       173  23 -6.484055E+03  5.152577E+05  8.310882E+04 -4.112407E+04  8.200862E+03  7.903648E+04
       173  24  1.490470E+05  5.373587E+05  1.818296E+05 -6.766286E+04  3.090147E+03  1.232501E+05
       173  25  1.548594E+04  6.319688E+05  7.317679E+04 -4.588022E+04  4.189931E+03  2.798373E+04
       173  26  4.430861E+04  7.217893E+05  1.304476E+05 -6.284230E+04  8.197536E+03  7.945505E+04
       173  27  2.287279E+05  8.571083E+05  2.600784E+05 -1.330218E+05  3.069856E+03  1.309273E+05
       174   1 -4.333518E+04 -3.100851E+04 -5.159850E+04 -8.042697E+03 -6.082145E+04 -1.118473E+03
       174   2 -3.943870E+04  5.088703E+04 -2.825868E+03 -4.241553E+03 -4.034678E+04 -3.069895E+03
       174   3 -6.210009E+04  3.709400E+04  8.704647E+03  1.178460E+04 -1.987609E+04 -2.540115E+03
       174   4 -1.993093E+05 -6.992447E+04 -9.039454E+04  5.340447E+03 -6.173777E+04 -1.121041E+03
       174   5 -1.859625E+05  1.437784E+04 -3.889471E+04 -8.216812E+02 -4.055347E+04 -3.070481E+03
       174   6 -1.993037E+05  2.855831E+03 -2.513656E+04  5.241339E+03 -1.937281E+04 -2.539119E+03
       174   7 -3.552609E+05 -1.088416E+05 -1.291923E+05  1.872022E+04 -6.265387E+04 -1.123650E+03
       174   8 -3.324668E+05 -2.213290E+04 -7.496512E+04  2.597375E+03 -4.076012E+04 -3.071069E+03
       174   9 -3.364900E+05 -3.138359E+04 -5.897913E+04 -1.300476E+03 -1.886965E+04 -2.538132E+03
       174  10 -4.333915E+04 -3.100951E+04 -5.160545E+04 -8.042752E+03 -2.728006E-09  3.746278E-10
       174  11 -3.944045E+04  5.088658E+04 -2.828945E+03 -4.241652E+03  3.298854E-09  4.334528E-09
       174  12 -6.210051E+04  3.709389E+04  8.703892E+03  1.178456E+04 -2.718072E-09  1.815312E-09
       174  13 -1.993134E+05 -6.992550E+04 -9.040171E+04  5.340391E+03  8.410550E-10 -9.534340E-10
       174  14 -1.859643E+05  1.437739E+04 -3.889782E+04 -8.217815E+02  3.301170E-10 -2.746565E-09
       174  15 -1.993041E+05  2.855723E+03 -2.513727E+04  5.241300E+03 -4.123518E-09  3.315167E-09
       174  16 -3.552652E+05 -1.088426E+05 -1.291997E+05  1.872016E+04  3.279495E-09  8.874732E-11
       174  17 -3.324686E+05 -2.213335E+04 -7.496827E+04  2.597274E+03 -1.956766E-09  3.755642E-09
       174  18 -3.364904E+05 -3.138369E+04 -5.897981E+04 -1.300515E+03  4.422850E-09  2.431876E-10
       174  19 -4.333518E+04 -3.100851E+04 -5.159850E+04 -8.042697E+03  6.082145E+04  1.118473E+03
       174  20 -3.943870E+04  5.088703E+04 -2.825868E+03 -4.241553E+03  4.034678E+04  3.069895E+03
       174  21 -6.210009E+04  3.709400E+04  8.704647E+03  1.178460E+04  1.987609E+04  2.540115E+03
       174  22 -1.993093E+05 -6.992447E+04 -9.039454E+04  5.340447E+03  6.173777E+04  1.121041E+03
       174  23 -1.859625E+05  1.437784E+04 -3.889471E+04 -8.216812E+02  4.055347E+04  3.070481E+03
       174  24 -1.993037E+05  2.855831E+03 -2.513656E+04  5.241339E+03  1.937281E+04  2.539119E+03
       174  25 -3.552609E+05 -1.088416E+05 -1.291923E+05  1.872022E+04  6.265387E+04  1.123650E+03
       174  26 -3.324668E+05 -2.213290E+04 -7.496512E+04  2.597375E+03  4.076012E+04  3.071069E+03
       174  27 -3.364900E+05 -3.138359E+04 -5.897913E+04 -1.300476E+03  1.886965E+04  2.538132E+03
       175   1 -8.463877E+04  1.779300E+04  6.325073E+03  3.740222E+03 -1.526862E+04 -1.965225E+03
       175   2 -9.221312E+04  2.691651E+04  1.456519E+04 -1.184785E+03 -1.010042E+04 -1.906135E+03
       175   3 -1.037477E+05  2.297910E+04  1.617096E+04  6.351547E+03 -4.933003E+03 -1.537841E+03
       175   4 -1.942563E+05 -9.535693E+03 -2.071864E+04  5.339454E+03 -1.529689E+04 -1.965338E+03
       175   5 -1.922676E+05  1.971496E+03 -1.009808E+04 -8.999256E+02 -1.004048E+04 -1.906053E+03
       175   6 -1.942553E+05  4.012163E+02 -6.174011E+03  5.322200E+03 -4.784779E+03 -1.537562E+03
       175   7 -3.038629E+05 -3.686527E+04 -4.776324E+04  6.938398E+03 -1.532514E+04 -1.965451E+03
       175   8 -2.923129E+05 -2.297427E+04 -3.476209E+04 -6.151167E+02 -9.980548E+03 -1.905970E+03
       175   9 -2.847555E+05 -2.217727E+04 -2.851959E+04  4.292999E+03 -4.636576E+03 -1.537283E+03
       175  10 -8.463902E+04  1.779294E+04  6.324628E+03  3.740198E+03 -1.805389E-09 -1.377534E-09
       175  11 -9.221323E+04  2.691648E+04  1.456499E+04 -1.184800E+03 -3.566358E-09  4.441630E-10
       175  12 -1.037477E+05  2.297909E+04  1.617091E+04  6.351541E+03 -2.057393E-09  4.409248E-09
       175  13 -1.942566E+05 -9.535760E+03 -2.071909E+04  5.339430E+03  9.413859E-09  6.993594E-09
       175  14 -1.922677E+05  1.971465E+03 -1.009828E+04 -8.999410E+02  4.277399E-10 -1.078672E-08
       175  15 -1.942554E+05  4.012076E+02 -6.174058E+03  5.322194E+03 -4.881783E-09  5.048351E-09
       175  16 -3.038632E+05 -3.686534E+04 -4.776369E+04  6.938374E+03  7.160543E-09 -4.259446E-09
       175  17 -2.923130E+05 -2.297430E+04 -3.476229E+04 -6.151320E+02 -7.824163E-09 -4.035631E-09
       175  18 -2.847555E+05 -2.217728E+04 -2.851964E+04  4.292993E+03 -8.798858E-10 -5.490616E-10
       175  19 -8.463877E+04  1.779300E+04  6.325073E+03  3.740222E+03  1.526862E+04  1.965225E+03
       175  20 -9.221312E+04  2.691651E+04  1.456519E+04 -1.184785E+03  1.010042E+04  1.906135E+03
       175  21 -1.037477E+05  2.297910E+04  1.617096E+04  6.351547E+03  4.933003E+03  1.537841E+03
       175  22 -1.942563E+05 -9.535693E+03 -2.071864E+04  5.339454E+03  1.529689E+04  1.965338E+03
       175  23 -1.922676E+05  1.971496E+03 -1.009808E+04 -8.999256E+02  1.004048E+04  1.906053E+03
       175  24 -1.942553E+05  4.012163E+02 -6.174011E+03  5.322200E+03  4.784779E+03  1.537562E+03
       175  25 -3.038629E+05 -3.686527E+04 -4.776324E+04  6.938398E+03  1.532514E+04  1.965451E+03
       175  26 -2.923129E+05 -2.297427E+04 -3.476209E+04 -6.151167E+02  9.980548E+03  1.905970E+03
       175  27 -2.847555E+05 -2.217727E+04 -2.851959E+04  4.292999E+03  4.636576E+03  1.537283E+03
       176   1 -1.311138E+05  1.427930E+04  1.045760E+04  5.250023E+03 -3.874358E+03 -1.292271E+03
       176   2 -1.404632E+05  1.341421E+04  1.043393E+04 -9.080497E+02 -2.582526E+03 -9.851186E+02
       176   3 -1.504691E+05  1.081397E+04  9.124033E+03  5.560065E+03 -1.290829E+03 -6.381440E+02
       176   4 -1.935169E+05 -1.275252E+03 -4.904935E+03  5.366434E+03 -3.792138E+03 -1.292118E+03
       176   5 -1.931875E+05  2.674606E+02 -2.565850E+03 -9.480316E+02 -2.488958E+03 -9.849344E+02
       176   6 -1.935167E+05  7.301289E+01 -1.520938E+03  5.363758E+03 -1.185894E+03 -6.379274E+02
       176   7 -2.559164E+05 -1.683010E+04 -2.026775E+04  5.482832E+03 -3.709925E+03 -1.291964E+03
       176   8 -2.459093E+05 -1.287949E+04 -1.556584E+04 -9.880113E+02 -2.395398E+03 -9.847501E+02
       176   9 -2.365627E+05 -1.066809E+04 -1.216605E+04  5.167463E+03 -1.080965E+03 -6.377108E+02
       176  10 -1.311138E+05  1.427930E+04  1.045757E+04  5.250019E+03  8.448395E-09 -2.002399E-09
       176  11 -1.404632E+05  1.341420E+04  1.043392E+04 -9.080518E+02  1.861357E-09 -3.999518E-09
       176  12 -1.504691E+05  1.081397E+04  9.124029E+03  5.560065E+03 -5.898628E-09 -3.101353E-09
       176  13 -1.935169E+05 -1.275257E+03 -4.904965E+03  5.366430E+03 -3.249891E-09 -1.956721E-09
       176  14 -1.931875E+05  2.674579E+02 -2.565863E+03 -9.480335E+02 -4.222586E-09 -6.483171E-09
       176  15 -1.935167E+05  7.301208E+01 -1.520941E+03  5.363757E+03 -3.160228E-10 -1.807010E-09
       176  16 -2.559164E+05 -1.683010E+04 -2.026778E+04  5.482828E+03 -1.290602E-08 -5.498741E-09
       176  17 -2.459094E+05 -1.287950E+04 -1.556585E+04 -9.880132E+02 -5.953443E-09  1.248590E-09
       176  18 -2.365627E+05 -1.066809E+04 -1.216605E+04  5.167462E+03  6.364604E-09  7.684042E-09
       176  19 -1.311138E+05  1.427930E+04  1.045760E+04  5.250023E+03  3.874358E+03  1.292271E+03
       176  20 -1.404632E+05  1.341421E+04  1.043393E+04 -9.080497E+02  2.582526E+03  9.851186E+02
       176  21 -1.504691E+05  1.081397E+04  9.124033E+03  5.560065E+03  1.290829E+03  6.381440E+02
       176  22 -1.935169E+05 -1.275252E+03 -4.904935E+03  5.366434E+03  3.792138E+03  1.292118E+03
       176  23 -1.931875E+05  2.674606E+02 -2.565850E+03 -9.480316E+02  2.488958E+03  9.849344E+02
       176  24 -1.935167E+05  7.301289E+01 -1.520938E+03  5.363758E+03  1.185894E+03  6.379274E+02
       176  25 -2.559164E+05 -1.683010E+04 -2.026775E+04  5.482832E+03  3.709925E+03  1.291964E+03
       176  26 -2.459093E+05 -1.287949E+04 -1.556584E+04 -9.880113E+02  2.395398E+03  9.847501E+02
       176  27 -2.365627E+05 -1.066809E+04 -1.216605E+04  5.167463E+03  1.080965E+03  6.377108E+02
       177   1 -1.787285E+05  3.502981E+03  2.407526E+03  5.380829E+03 -1.039728E+03 -4.323399E+02
       177   2 -1.883774E+05  1.268057E+03  5.810570E+02 -9.589625E+02 -7.209432E+02 -9.355242E+01
       177   3 -1.981815E+05 -1.155301E+03 -1.513916E+03  5.389920E+03 -4.021778E+02  2.493680E+02
       177   4 -1.934045E+05 -1.505715E+02 -1.181546E+03  5.378780E+03 -9.429565E+02 -4.321367E+02
       177   5 -1.933267E+05  3.391375E+01 -6.392692E+02 -9.657500E+02 -6.229907E+02 -9.334616E+01
       177   6 -1.934044E+05  2.976399E+01 -3.663188E+02  5.378400E+03 -3.030388E+02  2.495777E+02
       177   7 -2.080802E+05 -3.804140E+03 -4.770634E+03  5.376731E+03 -8.461879E+02 -4.319336E+02
       177   8 -1.982759E+05 -1.200231E+03 -1.859597E+03 -9.725374E+02 -5.250390E+02 -9.313991E+01
       177   9 -1.886273E+05  1.214827E+03  7.812769E+02  5.366881E+03 -2.038990E+02  2.497874E+02
       177  10 -1.787285E+05  3.502981E+03  2.407524E+03  5.380829E+03  2.697070E-09 -5.321315E-09
       177  11 -1.883774E+05  1.268056E+03  5.810560E+02 -9.589626E+02  2.287792E-10  2.438702E-09
       177  12 -1.981815E+05 -1.155301E+03 -1.513917E+03  5.389920E+03 -5.298687E-09  1.972681E-09
       177  13 -1.934045E+05 -1.505719E+02 -1.181548E+03  5.378780E+03 -7.489482E-09  2.883077E-09
       177  14 -1.933267E+05  3.391364E+01 -6.392699E+02 -9.657500E+02  2.299625E-09 -1.974370E-09
       177  15 -1.934044E+05  2.976390E+01 -3.663191E+02  5.378400E+03 -4.079868E-09  6.275177E-10
       177  16 -2.080802E+05 -3.804141E+03 -4.770636E+03  5.376731E+03 -3.856671E-09  4.924849E-09
       177  17 -1.982759E+05 -1.200231E+03 -1.859598E+03 -9.725374E+02 -7.750273E-09  5.282113E-09
       177  18 -1.886273E+05  1.214827E+03  7.812767E+02  5.366881E+03 -9.990650E-10  2.481112E-09
       177  19 -1.787285E+05  3.502981E+03  2.407526E+03  5.380829E+03  1.039728E+03  4.323399E+02
       177  20 -1.883774E+05  1.268057E+03  5.810570E+02 -9.589625E+02  7.209432E+02  9.355242E+01
       177  21 -1.981815E+05 -1.155301E+03 -1.513916E+03  5.389920E+03  4.021778E+02 -2.493680E+02
       177  22 -1.934045E+05 -1.505715E+02 -1.181546E+03  5.378780E+03  9.429565E+02  4.321367E+02
       177  23 -1.933267E+05  3.391375E+01 -6.392692E+02 -9.657500E+02  6.229907E+02  9.334616E+01
       177  24 -1.934044E+05  2.976399E+01 -3.663188E+02  5.378400E+03  3.030388E+02 -2.495777E+02
       177  25 -2.080802E+05 -3.804140E+03 -4.770634E+03  5.376731E+03  8.461879E+02  4.319336E+02
       177  26 -1.982759E+05 -1.200231E+03 -1.859597E+03 -9.725374E+02  5.250390E+02  9.313991E+01
       177  27 -1.886273E+05  1.214827E+03  7.812769E+02  5.366881E+03  2.038990E+02 -2.497874E+02
       178   1 -2.265565E+05 -8.277459E+03 -8.485621E+03  5.316168E+03 -3.451001E+02  4.507429E+02
       178   2 -2.362190E+05 -1.068893E+04 -1.070772E+04 -1.019052E+03 -2.754847E+02  7.930609E+02
       178   3 -2.459423E+05 -1.307383E+04 -1.298068E+04  5.292258E+03 -2.058104E+02  1.128383E+03
       178   4 -1.933837E+05  9.014196E-01 -2.750926E+02  5.369182E+03 -2.455850E+02  4.509508E+02
       178   5 -1.933533E+05  4.724994E-01 -1.374920E+02 -9.540826E+02 -1.779825E+02  7.932578E+02
       178   6 -1.933836E+05  2.693929E+01 -4.937397E+01  5.369128E+03 -1.103202E+02  1.128569E+03
       178   7 -1.602099E+05  8.279180E+03  7.935354E+03  5.422198E+03 -1.460645E+02  4.511587E+02
       178   8 -1.504859E+05  1.068974E+04  1.043260E+04 -8.891097E+02 -8.047368E+01  7.934546E+02
       178   9 -1.408223E+05  1.312751E+04  1.288173E+04  5.446003E+03 -1.482182E+01  1.128755E+03
       178  10 -2.265565E+05 -8.277459E+03 -8.485621E+03  5.316169E+03 -3.929396E-09  7.520317E-10
       178  11 -2.362190E+05 -1.068893E+04 -1.070773E+04 -1.019052E+03  7.583483E-11 -2.758669E-09
       178  12 -2.459423E+05 -1.307384E+04 -1.298068E+04  5.292258E+03 -7.409214E-09 -2.270098E-09
       178  13 -1.933837E+05  9.011849E-01 -2.750931E+02  5.369182E+03  5.287034E-09  6.825316E-09
       178  14 -1.933533E+05  4.718151E-01 -1.374932E+02 -9.540825E+02  4.313577E-09 -2.387616E-09
       178  15 -1.933836E+05  2.693792E+01 -4.937638E+01  5.369128E+03 -1.448735E-09 -1.176692E-09
       178  16 -1.602099E+05  8.279179E+03  7.935353E+03  5.422198E+03  1.494665E-09  1.410430E-09
       178  17 -1.504859E+05  1.068974E+04  1.043260E+04 -8.891096E+02 -6.059686E-09 -9.476966E-09
       178  18 -1.408223E+05  1.312751E+04  1.288172E+04  5.446003E+03  1.142961E-09 -4.046775E-09
       178  19 -2.265565E+05 -8.277459E+03 -8.485621E+03  5.316168E+03  3.451001E+02 -4.507429E+02
       178  20 -2.362190E+05 -1.068893E+04 -1.070772E+04 -1.019052E+03  2.754847E+02 -7.930609E+02
       178  21 -2.459423E+05 -1.307383E+04 -1.298068E+04  5.292258E+03  2.058104E+02 -1.128383E+03
       178  22 -1.933837E+05  9.014196E-01 -2.750926E+02  5.369182E+03  2.455850E+02 -4.509508E+02
       178  23 -1.933533E+05  4.724993E-01 -1.374920E+02 -9.540826E+02  1.779825E+02 -7.932578E+02
       178  24 -1.933836E+05  2.693929E+01 -4.937397E+01  5.369128E+03  1.103202E+02 -1.128569E+03
       178  25 -1.602099E+05  8.279180E+03  7.935354E+03  5.422198E+03  1.460645E+02 -4.511587E+02
       178  26 -1.504859E+05  1.068974E+04  1.043260E+04 -8.891097E+02  8.047368E+01 -7.934546E+02
       178  27 -1.408223E+05  1.312751E+04  1.288173E+04  5.446003E+03  1.482182E+01 -1.128755E+03
       179   1 -2.741089E+05 -2.012208E+04 -1.995261E+04  5.220136E+03 -2.109419E+02  1.333515E+03
       179   2 -2.836875E+05 -2.253624E+04 -2.221708E+04 -1.039561E+03 -2.256440E+02  1.675957E+03
       179   3 -2.932683E+05 -2.484460E+04 -2.445203E+04  5.195297E+03 -2.401600E+02  1.969100E+03
       179   4 -1.933712E+05  1.789622E+01 -1.294234E+01  5.335393E+03 -1.052579E+02  1.333713E+03
       179   5 -1.933713E+05 -1.367429E+01  5.378780E+01 -9.118687E+02 -1.341570E+02  1.676113E+03
       179   6 -1.933710E+05  6.305921E+01  1.599393E+02  5.335312E+03 -1.628705E+02  1.969218E+03
       179   7 -1.126277E+05  2.015739E+04  1.992624E+04  5.450661E+03  4.398319E-01  1.333910E+03
       179   8 -1.030476E+05  2.250828E+04  2.232405E+04 -7.841611E+02 -4.265666E+01  1.676269E+03
       179   9 -9.346462E+04  2.496998E+04  2.477117E+04  5.475346E+03 -8.556848E+01  1.969335E+03
       179  10 -2.741089E+05 -2.012208E+04 -1.995261E+04  5.220137E+03 -4.637232E-09 -7.410640E-10
       179  11 -2.836875E+05 -2.253624E+04 -2.221709E+04 -1.039561E+03 -5.272359E-09 -6.275006E-09
       179  12 -2.932684E+05 -2.484461E+04 -2.445204E+04  5.195297E+03  3.142638E-09 -1.890881E-09
       179  13 -1.933712E+05  1.789431E+01 -1.294570E+01  5.335393E+03  1.069112E-09 -2.334760E-09
       179  14 -1.933713E+05 -1.367731E+01  5.378249E+01 -9.118685E+02 -4.306803E-09  6.721462E-10
       179  15 -1.933710E+05  6.305504E+01  1.599319E+02  5.335312E+03 -3.656464E-09  2.647894E-09
       179  16 -1.126277E+05  2.015738E+04  1.992624E+04  5.450661E+03  1.029698E-09  4.357639E-09
       179  17 -1.030476E+05  2.250828E+04  2.232405E+04 -7.841610E+02 -5.911095E-09 -3.884561E-09
       179  18 -9.346463E+04  2.496997E+04  2.477117E+04  5.475346E+03 -4.672351E-09  5.544590E-09
       179  19 -2.741089E+05 -2.012208E+04 -1.995261E+04  5.220136E+03  2.109419E+02 -1.333515E+03
       179  20 -2.836875E+05 -2.253624E+04 -2.221708E+04 -1.039561E+03  2.256440E+02 -1.675957E+03
       179  21 -2.932683E+05 -2.484460E+04 -2.445203E+04  5.195297E+03  2.401600E+02 -1.969100E+03
       179  22 -1.933712E+05  1.789622E+01 -1.294234E+01  5.335393E+03  1.052579E+02 -1.333713E+03
       179  23 -1.933713E+05 -1.367429E+01  5.378780E+01 -9.118687E+02  1.341570E+02 -1.676113E+03
       179  24 -1.933710E+05  6.305921E+01  1.599393E+02  5.335312E+03  1.628705E+02 -1.969218E+03
       179  25 -1.126277E+05  2.015739E+04  1.992624E+04  5.450661E+03 -4.398318E-01 -1.333910E+03
       179  26 -1.030476E+05  2.250828E+04  2.232405E+04 -7.841611E+02  4.265666E+01 -1.676269E+03
       179  27 -9.346462E+04  2.496998E+04  2.477117E+04  5.475346E+03  8.556848E+01 -1.969335E+03
       180   1 -3.209551E+05 -3.182676E+04 -3.128269E+04  5.145998E+03 -3.545398E+02  2.219579E+03
       180   2 -3.304186E+05 -3.424312E+04 -3.341429E+04 -1.016119E+03 -4.372450E+02  2.578474E+03
       180   3 -3.397272E+05 -3.614885E+04 -3.536127E+04  5.057782E+03 -5.192671E+02  2.563917E+03
       180   4 -1.933346E+05  4.625551E+00  2.154944E+02  5.278080E+03 -1.974525E+02  2.219820E+03
       180   5 -1.934211E+05 -7.990576E+01  3.617444E+02 -8.401045E+02 -3.877021E+02  2.578515E+03
       180   6 -1.933342E+05  3.648097E+02  7.672836E+02  5.277560E+03 -5.772699E+02  2.563796E+03
       180   7 -6.569925E+04  3.183480E+04  3.171247E+04  5.410182E+03 -4.033287E+01  2.220060E+03
       180   8 -5.640658E+04  3.408190E+04  3.413639E+04 -6.640583E+02 -3.381483E+02  2.578556E+03
       180   9 -4.692171E+04  3.687687E+04  3.689425E+04  5.497382E+03 -6.352864E+02  2.563675E+03
       180  10 -3.209551E+05 -3.182677E+04 -3.128270E+04  5.145999E+03  3.767734E-09 -1.316271E-09
       180  11 -3.304186E+05 -3.424312E+04 -3.341430E+04 -1.016118E+03 -4.734546E-10  2.075232E-09
       180  12 -3.397272E+05 -3.614886E+04 -3.536129E+04  5.057783E+03  1.471287E-09 -1.740141E-09
       180  13 -1.933346E+05  4.620249E+00  2.154851E+02  5.278080E+03  1.051953E-09 -1.482637E-09
       180  14 -1.934211E+05 -7.991294E+01  3.617316E+02 -8.401037E+02 -2.365465E-09  5.141241E-10
       180  15 -1.933342E+05  3.648026E+02  7.672706E+02  5.277561E+03 -3.145777E-09  1.485114E-09
       180  16 -6.569925E+04  3.183479E+04  3.171246E+04  5.410182E+03 -8.448127E-09 -8.889068E-10
       180  17 -5.640658E+04  3.408190E+04  3.413637E+04 -6.640576E+02 -1.114445E-08 -1.470855E-08
       180  18 -4.692171E+04  3.687687E+04  3.689424E+04  5.497383E+03  1.428501E-09  1.078638E-09
       180  19 -3.209551E+05 -3.182676E+04 -3.128269E+04  5.145998E+03  3.545398E+02 -2.219579E+03
       180  20 -3.304186E+05 -3.424312E+04 -3.341429E+04 -1.016119E+03  4.372450E+02 -2.578474E+03
       180  21 -3.397272E+05 -3.614885E+04 -3.536127E+04  5.057782E+03  5.192671E+02 -2.563917E+03
       180  22 -1.933346E+05  4.625551E+00  2.154944E+02  5.278080E+03  1.974525E+02 -2.219820E+03
       180  23 -1.934211E+05 -7.990576E+01  3.617444E+02 -8.401045E+02  3.877021E+02 -2.578515E+03
       180  24 -1.933342E+05  3.648097E+02  7.672836E+02  5.277560E+03  5.772699E+02 -2.563796E+03
       180  25 -6.569925E+04  3.183480E+04  3.171247E+04  5.410182E+03  4.033287E+01 -2.220060E+03
       180  26 -5.640658E+04  3.408190E+04  3.413639E+04 -6.640583E+02  3.381483E+02 -2.578556E+03
       180  27 -4.692171E+04  3.687687E+04  3.689425E+04  5.497382E+03  6.352864E+02 -2.563675E+03
       181   1 -3.665602E+05 -4.334230E+04 -4.183237E+04  5.253671E+03 -1.314258E+03  3.205197E+03
       181   2 -3.761645E+05 -4.604406E+04 -4.349904E+04 -1.018908E+03 -1.238340E+03  3.737028E+03
       181   3 -3.848306E+05 -4.527716E+04 -4.433183E+04  4.548747E+03 -1.159356E+03  1.276883E+03
       181   4 -1.931340E+05 -9.267618E+01  9.365940E+02  5.190879E+03 -7.306779E+02  3.205916E+03
       181   5 -1.936773E+05 -5.470262E+02  1.436722E+03 -7.304480E+02 -1.516223E+03  3.736642E+03
       181   6 -1.931333E+05  2.616346E+03  3.368881E+03  5.188235E+03 -2.298690E+03  1.275779E+03
       181   7 -1.968044E+04  4.315471E+04  4.370333E+04  5.128060E+03 -1.469347E+02  3.206635E+03
       181   8 -1.115987E+04  4.494753E+04  4.637002E+04 -4.419111E+02 -1.794187E+03  3.736257E+03
       181   9 -1.402709E+03  5.050709E+04  5.106685E+04  5.827914E+03 -3.438376E+03  1.274674E+03
       181  10 -3.665602E+05 -4.334232E+04 -4.183239E+04  5.253674E+03 -2.589176E-09  9.604190E-10
       181  11 -3.761645E+05 -4.604408E+04 -4.349907E+04 -1.018905E+03 -6.382700E-09  2.799814E-09
       181  12 -3.848306E+05 -4.527716E+04 -4.433184E+04  4.548748E+03  1.040346E-10  5.597354E-09
       181  13 -1.931340E+05 -9.268736E+01  9.365736E+02  5.190881E+03  7.134457E-10  3.144498E-09
       181  14 -1.936773E+05 -5.470418E+02  1.436692E+03 -7.304434E+02  4.305323E-09  5.208308E-09
       181  15 -1.931333E+05  2.616342E+03  3.368868E+03  5.188238E+03 -2.720384E-09  1.755464E-09
       181  16 -1.968044E+04  4.315470E+04  4.370331E+04  5.128061E+03  5.287032E-09  5.664651E-09
       181  17 -1.115988E+04  4.494752E+04  4.636999E+04 -4.419057E+02  5.331063E-10  2.330242E-09
       181  18 -1.402722E+03  5.050708E+04  5.106682E+04  5.827917E+03 -2.410610E-09  4.539563E-10
       181  19 -3.665602E+05 -4.334230E+04 -4.183237E+04  5.253671E+03  1.314258E+03 -3.205197E+03
       181  20 -3.761645E+05 -4.604406E+04 -4.349904E+04 -1.018908E+03  1.238340E+03 -3.737028E+03
       181  21 -3.848306E+05 -4.527716E+04 -4.433183E+04  4.548747E+03  1.159356E+03 -1.276883E+03
       181  22 -1.931340E+05 -9.267618E+01  9.365940E+02  5.190879E+03  7.306779E+02 -3.205916E+03
       181  23 -1.936773E+05 -5.470262E+02  1.436722E+03 -7.304480E+02  1.516223E+03 -3.736642E+03
       181  24 -1.931333E+05  2.616346E+03  3.368881E+03  5.188235E+03  2.298690E+03 -1.275779E+03
       181  25 -1.968044E+04  4.315471E+04  4.370333E+04  5.128060E+03  1.469347E+02 -3.206635E+03
       181  26 -1.115987E+04  4.494753E+04  4.637002E+04 -4.419111E+02  1.794187E+03 -3.736257E+03
       181  27 -1.402709E+03  5.050709E+04  5.106685E+04  5.827914E+03  3.438376E+03 -1.274674E+03
       182   1 -2.874639E+05 -9.840718E+05 -2.854033E+05  2.310474E+05 -1.105636E+04 -8.837712E+04
       182   2 -1.821989E+05 -7.419415E+05 -1.757786E+05  1.829247E+05 -3.291006E+04 -3.988265E+04
       182   3 -1.174581E+05 -5.159690E+05 -1.078650E+05  1.972679E+05 -2.927549E+04  8.662743E+03
       182   4 -4.954473E+04 -2.519701E+04 -5.561364E+04  2.019101E+05 -1.109400E+04 -4.036151E+04
       182   5 -7.607465E+03 -2.012505E+04 -2.508612E+04  1.706967E+05 -3.291592E+04 -2.728152E+04
       182   6 -1.121036E+01 -2.508919E+04 -1.163263E+04  2.019518E+05 -2.926039E+04 -1.417063E+04
       182   7  1.883120E+05  9.345276E+05  1.741200E+05  1.727277E+05 -1.113614E+04  7.728080E+03
       182   8  1.669513E+05  7.021853E+05  1.255782E+05  1.584542E+05 -3.292227E+04 -1.466595E+04
       182   9  1.174216E+05  4.660229E+05  8.459014E+04  2.066394E+05 -2.924565E+04 -3.702168E+04
       182  10 -2.874661E+05 -9.840802E+05 -2.854182E+05  2.310466E+05  5.385527E-09  5.248063E-09
       182  11 -1.822005E+05 -7.419435E+05 -1.757836E+05  1.829237E+05  7.733073E-09  1.054285E-09
       182  12 -1.174591E+05 -5.159693E+05 -1.078668E+05  1.972681E+05  5.898910E-09 -5.649416E-09
       182  13 -4.954530E+04 -2.519879E+04 -5.561693E+04  2.019098E+05  1.556533E-09  1.081243E-09
       182  14 -7.608828E+03 -2.012614E+04 -2.508955E+04  1.706960E+05  1.017184E-08  8.839196E-10
       182  15 -1.218343E+01 -2.508963E+04 -1.163462E+04  2.019514E+05  8.661162E-09  2.000138E-09
       182  16  1.883119E+05  9.345275E+05  1.741197E+05  1.727277E+05  2.145326E-09 -4.044843E-09
       182  17  1.669501E+05  7.021848E+05  1.255758E+05  1.584539E+05  2.899984E-09  3.131835E-11
       182  18  1.174203E+05  4.660212E+05  8.458596E+04  2.066385E+05  1.829969E-09  5.011178E-09
       182  19 -2.874639E+05 -9.840718E+05 -2.854033E+05  2.310474E+05  1.105636E+04  8.837712E+04
       182  20 -1.821989E+05 -7.419415E+05 -1.757786E+05  1.829247E+05  3.291006E+04  3.988265E+04
       182  21 -1.174581E+05 -5.159690E+05 -1.078650E+05  1.972679E+05  2.927549E+04 -8.662743E+03
       182  22 -4.954473E+04 -2.519701E+04 -5.561364E+04  2.019101E+05  1.109400E+04  4.036151E+04
       182  23 -7.607465E+03 -2.012505E+04 -2.508612E+04  1.706967E+05  3.291592E+04  2.728152E+04
       182  24 -1.121036E+01 -2.508919E+04 -1.163263E+04  2.019518E+05  2.926039E+04  1.417063E+04
       182  25  1.883120E+05  9.345276E+05  1.741200E+05  1.727277E+05  1.113614E+04 -7.728080E+03
       182  26  1.669513E+05  7.021853E+05  1.255782E+05  1.584542E+05  3.292227E+04  1.466595E+04
       182  27  1.174216E+05  4.660229E+05  8.459014E+04  2.066394E+05  2.924565E+04  3.702168E+04
       183   1 -8.120299E+04 -3.526660E+05 -7.179735E+04  2.025318E+05 -1.961701E+04  5.383059E+03
       183   2 -2.303454E+04 -1.188461E+05 -1.665175E+04  1.705852E+05 -6.341931E+03  5.047452E+03
       183   3  3.532805E+04  1.152651E+05  3.878987E+04  2.025483E+05  7.253051E+03  4.710812E+03
       183   4 -2.263120E+03 -2.276202E+04 -7.077558E+03  2.022624E+05 -1.960662E+04 -1.286973E+04
       183   5 -1.980997E+02 -2.291393E+04  1.588677E+03  1.703090E+05 -6.331995E+03 -1.365230E+04
       183   6  2.142386E+03 -2.274740E+04  1.086446E+04  2.022647E+05  7.262370E+03 -1.443577E+04
       183   7  7.667036E+04  3.072470E+05  5.763823E+04  2.019930E+05 -1.959623E+04 -3.113202E+04
       183   8  2.263799E+04  7.302784E+04  1.983000E+04  1.700328E+05 -6.322043E+03 -3.235487E+04
       183   9 -3.104427E+04 -1.607410E+05 -1.706055E+04  2.019811E+05  7.271707E+03 -3.357818E+04
       183  10 -8.120341E+04 -3.526661E+05 -7.179813E+04  2.025319E+05  2.372218E-09 -1.829808E-08
       183  11 -2.303459E+04 -1.188461E+05 -1.665187E+04  1.705852E+05  2.296695E-09  1.074435E-09
       183  12  3.532799E+04  1.152651E+05  3.878973E+04  2.025483E+05  5.211843E-09  1.954549E-08
       183  13 -2.263577E+03 -2.276230E+04 -7.078591E+03  2.022622E+05  3.528120E-09 -5.581344E-12
       183  14 -1.981928E+02 -2.291414E+04  1.588251E+03  1.703089E+05 -2.549582E-09  3.060257E-09
       183  15  2.142273E+03 -2.274764E+04  1.086397E+04  2.022648E+05 -3.567341E-09  2.169647E-10
       183  16  7.666968E+04  3.072458E+05  5.763569E+04  2.019925E+05  4.594124E-09  1.929784E-08
       183  17  2.263766E+04  7.302671E+04  1.982796E+04  1.700326E+05 -2.014410E-09 -1.226950E-09
       183  18 -3.104463E+04 -1.607422E+05 -1.706277E+04  2.019813E+05 -3.301538E-09 -2.003186E-08
       183  19 -8.120299E+04 -3.526660E+05 -7.179735E+04  2.025318E+05  1.961701E+04 -5.383059E+03
       183  20 -2.303454E+04 -1.188461E+05 -1.665175E+04  1.705852E+05  6.341931E+03 -5.047452E+03
       183  21  3.532805E+04  1.152651E+05  3.878987E+04  2.025483E+05 -7.253051E+03 -4.710812E+03
       183  22 -2.263120E+03 -2.276202E+04 -7.077558E+03  2.022624E+05  1.960662E+04  1.286973E+04
       183  23 -1.980997E+02 -2.291393E+04  1.588677E+03  1.703090E+05  6.331995E+03  1.365230E+04
       183  24  2.142386E+03 -2.274740E+04  1.086446E+04  2.022647E+05 -7.262370E+03  1.443577E+04
       183  25  7.667036E+04  3.072470E+05  5.763823E+04  2.019930E+05  1.959623E+04  3.113202E+04
       183  26  2.263799E+04  7.302784E+04  1.983000E+04  1.700328E+05  6.322043E+03  3.235487E+04
       183  27 -3.104427E+04 -1.607410E+05 -1.706055E+04  2.019811E+05 -7.271707E+03  3.357818E+04
       184   1  7.096898E+04  2.789698E+05  7.543956E+04  1.957520E+05  1.690458E+04  6.401091E+03
       184   2  1.371553E+05  5.041238E+05  1.439411E+05  1.851594E+05  2.292749E+04 -3.917823E+04
       184   3  2.513017E+05  7.474407E+05  2.541282E+05  2.374009E+05  8.235533E+03 -8.479665E+04
       184   4 -6.848621E+02 -1.991518E+04  1.605137E+04  2.020143E+05  1.691688E+04 -1.636820E+04
       184   5  8.710648E+03 -2.651731E+04  3.208329E+04  1.706227E+05  2.292596E+04 -3.308546E+04
       184   6  6.108416E+04 -1.999320E+04  6.978183E+04  2.020607E+05  8.215151E+03 -4.982423E+04
       184   7 -7.234373E+04 -3.187136E+05 -4.333930E+04  2.082734E+05  1.692872E+04 -3.912676E+04
       184   8 -1.197513E+05 -5.568922E+05 -7.979018E+04  1.560986E+05  2.292413E+04 -2.699780E+04
       184   9 -1.291708E+05 -7.868830E+05 -1.146011E+05  1.667643E+05  8.190785E+03 -1.489481E+04
       184  10  7.096866E+04  2.789696E+05  7.543894E+04  1.957519E+05  3.713682E-09 -2.483244E-08
       184  11  1.371543E+05  5.041220E+05  1.439373E+05  1.851602E+05  2.902556E-09  1.015463E-09
       184  12  2.512997E+05  7.474330E+05  2.541146E+05  2.374015E+05 -3.384637E-09  2.686210E-08
       184  13 -6.852415E+02 -1.991554E+04  1.605032E+04  2.020145E+05 -3.402434E-09 -5.484645E-10
       184  14  8.709789E+03 -2.651863E+04  3.208024E+04  1.706233E+05  3.236336E-09  2.378351E-09
       184  15  6.108342E+04 -1.999588E+04  6.977703E+04  2.020610E+05  2.465940E-09  4.773321E-10
       184  16 -7.234445E+04 -3.187153E+05 -4.334272E+04  2.082740E+05 -6.255475E-10  2.553887E-08
       184  17 -1.197521E+05 -5.568931E+05 -7.979254E+04  1.560991E+05  3.121176E-09 -3.216063E-10
       184  18 -1.291710E+05 -7.868833E+05 -1.146017E+05  1.667644E+05  2.600277E-09 -2.774198E-08
       184  19  7.096898E+04  2.789698E+05  7.543956E+04  1.957520E+05 -1.690458E+04 -6.401091E+03
       184  20  1.371553E+05  5.041238E+05  1.439411E+05  1.851594E+05 -2.292749E+04  3.917823E+04
       184  21  2.513017E+05  7.474407E+05  2.541282E+05  2.374009E+05 -8.235533E+03  8.479665E+04
       184  22 -6.848621E+02 -1.991518E+04  1.605137E+04  2.020143E+05 -1.691688E+04  1.636820E+04
       184  23  8.710648E+03 -2.651731E+04  3.208329E+04  1.706227E+05 -2.292596E+04  3.308546E+04
       184  24  6.108416E+04 -1.999320E+04  6.978183E+04  2.020607E+05 -8.215151E+03  4.982423E+04
       184  25 -7.234373E+04 -3.187136E+05 -4.333930E+04  2.082734E+05 -1.692872E+04  3.912676E+04
       184  26 -1.197513E+05 -5.568922E+05 -7.979018E+04  1.560986E+05 -2.292413E+04  2.699780E+04
       184  27 -1.291708E+05 -7.868830E+05 -1.146011E+05  1.667643E+05 -8.190785E+03  1.489481E+04
       185   1  6.769441E+05  2.271203E+05  1.218863E+05  2.513588E+05  4.919091E+04  1.399279E+04
       185   2  6.572353E+05  1.680218E+05  7.954387E+04  2.441414E+05  3.170692E+04 -2.634052E+03
       185   3  6.488894E+05  1.496485E+05  6.243996E+04  2.337188E+05  1.140241E+04 -1.176509E+04
       185   4  4.283282E+05  1.119681E+05  5.235474E+04  1.610794E+05  3.507537E+04  8.675722E+03
       185   5  4.205946E+05  7.204774E+04  2.328944E+04  1.703644E+05  2.602555E+04 -4.774567E+03
       185   6  4.225595E+05  7.119053E+04  1.278949E+04  1.764428E+05  1.415371E+04 -1.072915E+04
       185   7  1.797789E+05 -3.167808E+03 -1.718015E+04  7.083773E+04  2.096629E+04  3.362325E+03
       185   8  1.840115E+05 -2.391845E+04 -3.296848E+04  9.661449E+04  2.034655E+04 -6.913998E+03
       185   9  1.962789E+05 -7.265717E+03 -3.686462E+04  1.191847E+05  1.690396E+04 -9.693555E+03
       185  10  6.769415E+05  2.271194E+05  1.218814E+05  2.513582E+05  1.257669E-09 -2.573707E-09
       185  11  6.572342E+05  1.680215E+05  7.954197E+04  2.441415E+05 -5.656652E-09 -6.836044E-09
       185  12  6.488892E+05  1.496483E+05  6.243946E+04  2.337189E+05  2.140672E-09 -7.567008E-09
       185  13  4.283268E+05  1.119677E+05  5.235229E+04  1.610791E+05  9.163541E-10 -4.394623E-09
       185  14  4.205939E+05  7.204754E+04  2.328812E+04  1.703645E+05  7.562133E-10 -5.175087E-09
       185  15  4.225592E+05  7.119035E+04  1.278890E+04  1.764429E+05  1.832394E-09 -3.153987E-09
       185  16  1.797784E+05 -3.167938E+03 -1.718100E+04  7.083767E+04 -1.035134E-08 -1.834726E-09
       185  17  1.840111E+05 -2.391862E+04 -3.296934E+04  9.661461E+04 -1.019513E-08  1.078425E-09
       185  18  1.962786E+05 -7.265895E+03 -3.686533E+04  1.191849E+05  7.008705E-09  9.804810E-10
       185  19  6.769441E+05  2.271203E+05  1.218863E+05  2.513588E+05 -4.919091E+04 -1.399279E+04
       185  20  6.572353E+05  1.680218E+05  7.954387E+04  2.441414E+05 -3.170692E+04  2.634052E+03
       185  21  6.488894E+05  1.496485E+05  6.243996E+04  2.337188E+05 -1.140241E+04  1.176509E+04
       185  22  4.283282E+05  1.119681E+05  5.235474E+04  1.610794E+05 -3.507537E+04 -8.675722E+03
       185  23  4.205946E+05  7.204774E+04  2.328944E+04  1.703644E+05 -2.602555E+04  4.774567E+03
       185  24  4.225595E+05  7.119053E+04  1.278949E+04  1.764428E+05 -1.415371E+04  1.072915E+04
       185  25  1.797789E+05 -3.167808E+03 -1.718015E+04  7.083773E+04 -2.096629E+04 -3.362325E+03
       185  26  1.840115E+05 -2.391845E+04 -3.296848E+04  9.661449E+04 -2.034655E+04  6.913998E+03
       185  27  1.962789E+05 -7.265717E+03 -3.686462E+04  1.191847E+05 -1.690396E+04  9.693555E+03
       186   1  6.275817E+05  1.509584E+05  5.636164E+04  2.323963E+05  1.135205E+04 -1.038956E+04
       186   2  6.092241E+05  1.387568E+05  4.670073E+04  2.239357E+05  7.954667E+03 -1.064172E+04
       186   3  5.868357E+05  1.333028E+05  3.976314E+04  2.209358E+05  4.415586E+03 -1.051814E+04
       186   4  4.209036E+05  7.396239E+04  9.952246E+03  1.746131E+05  1.215125E+04 -1.008891E+04
       186   5  4.228398E+05  6.976562E+04  5.226032E+03  1.722094E+05  9.177292E+03 -1.018141E+04
       186   6  4.206613E+05  7.223284E+04  2.888417E+03  1.752662E+05  6.061519E+03 -9.898154E+03
       186   7  2.142685E+05 -3.030154E+03 -3.645986E+04  1.168477E+05  1.295016E+04 -9.788374E+03
       186   8  2.364912E+05  7.773986E+02 -3.625066E+04  1.204976E+05  1.039952E+04 -9.721252E+03
       186   9  2.545158E+05  1.116544E+04 -3.398770E+04  1.296081E+05  7.706964E+03 -9.278346E+03
       186  10  6.275815E+05  1.509583E+05  5.636120E+04  2.323964E+05  8.018440E-09 -2.930503E-09
       186  11  6.092240E+05  1.387567E+05  4.670040E+04  2.239358E+05  1.101158E-09  2.412474E-09
       186  12  5.868356E+05  1.333026E+05  3.976289E+04  2.209359E+05  7.639663E-09  1.404199E-09
       186  13  4.209034E+05  7.396224E+04  9.951777E+03  1.746132E+05  4.200538E-09  2.340142E-09
       186  14  4.228397E+05  6.976548E+04  5.225679E+03  1.722095E+05 -8.308111E-09  6.476307E-09
       186  15  4.206612E+05  7.223272E+04  2.888163E+03  1.752663E+05  4.930493E-09  4.831451E-10
       186  16  2.142683E+05 -3.030302E+03 -3.646035E+04  1.168478E+05  1.601475E-09 -2.728337E-09
       186  17  2.364910E+05  7.772680E+02 -3.625104E+04  1.204976E+05 -6.605603E-10 -6.748454E-09
       186  18  2.545157E+05  1.116533E+04 -3.398798E+04  1.296082E+05 -3.846654E-09 -8.145982E-09
       186  19  6.275817E+05  1.509584E+05  5.636164E+04  2.323963E+05 -1.135205E+04  1.038956E+04
       186  20  6.092241E+05  1.387568E+05  4.670073E+04  2.239357E+05 -7.954667E+03  1.064172E+04
       186  21  5.868357E+05  1.333028E+05  3.976314E+04  2.209358E+05 -4.415586E+03  1.051814E+04
       186  22  4.209036E+05  7.396239E+04  9.952246E+03  1.746131E+05 -1.215125E+04  1.008891E+04
       186  23  4.228398E+05  6.976562E+04  5.226032E+03  1.722094E+05 -9.177292E+03  1.018141E+04
       186  24  4.206613E+05  7.223284E+04  2.888417E+03  1.752662E+05 -6.061519E+03  9.898154E+03
       186  25  2.142685E+05 -3.030154E+03 -3.645986E+04  1.168477E+05 -1.295016E+04  9.788374E+03
       186  26  2.364912E+05  7.773986E+02 -3.625066E+04  1.204976E+05 -1.039952E+04  9.721252E+03
       186  27  2.545158E+05  1.116544E+04 -3.398770E+04  1.296081E+05 -7.706964E+03  9.278346E+03
       187   1  5.713670E+05  1.279977E+05  3.558390E+04  2.168728E+05  3.791167E+03 -9.792801E+03
       187   2  5.533349E+05  1.178582E+05  3.011253E+04  2.083402E+05  2.645809E+03 -8.644613E+03
       187   3  5.303663E+05  1.128587E+05  2.512674E+04  2.055666E+05  1.493693E+03 -7.479074E+03
       187   4  4.205434E+05  7.234456E+04  2.185918E+03  1.751633E+05  5.336744E+03 -9.210536E+03
       187   5  4.230111E+05  6.975273E+04  1.211862E+03  1.722930E+05  4.211071E+03 -8.054799E+03
       187   6  4.205383E+05  7.229725E+04  7.079892E+02  1.751818E+05  3.078618E+03 -6.881716E+03
       187   7  2.697418E+05  1.669282E+04 -3.121374E+04  1.334627E+05  6.881924E+03 -8.628420E+03
       187   8  2.927040E+05  2.164843E+04 -2.768998E+04  1.362527E+05  5.775982E+03 -7.465116E+03
       187   9  3.107224E+05  3.173670E+04 -2.371151E+04  1.448019E+05  4.663241E+03 -6.284473E+03
       187  10  5.713669E+05  1.279976E+05  3.558369E+04  2.168729E+05  1.566502E-08  7.556929E-09
       187  11  5.533349E+05  1.178581E+05  3.011238E+04  2.083402E+05  3.179014E-10  6.566460E-09
       187  12  5.303663E+05  1.128587E+05  2.512663E+04  2.055666E+05 -1.839620E-08 -1.070557E-09
       187  13  4.205434E+05  7.234446E+04  2.185705E+03  1.751633E+05  2.039365E-09  4.317670E-10
       187  14  4.230111E+05  6.975265E+04  1.211707E+03  1.722931E+05  1.493715E-08  8.959997E-09
       187  15  4.205383E+05  7.229719E+04  7.078824E+02  1.751818E+05  2.573771E-09 -1.373210E-09
       187  16  2.697417E+05  1.669273E+04 -3.121397E+04  1.334628E+05 -9.735832E-09 -1.260424E-08
       187  17  2.927039E+05  2.164836E+04 -2.769015E+04  1.362527E+05  1.104418E-08  6.402064E-09
       187  18  3.107224E+05  3.173665E+04 -2.371163E+04  1.448020E+05  2.722054E-08  1.047650E-08
       187  19  5.713670E+05  1.279977E+05  3.558390E+04  2.168728E+05 -3.791167E+03  9.792801E+03
       187  20  5.533349E+05  1.178582E+05  3.011253E+04  2.083402E+05 -2.645809E+03  8.644613E+03
       187  21  5.303663E+05  1.128587E+05  2.512674E+04  2.055666E+05 -1.493693E+03  7.479074E+03
       187  22  4.205434E+05  7.234456E+04  2.185918E+03  1.751633E+05 -5.336744E+03  9.210536E+03
       187  23  4.230111E+05  6.975273E+04  1.211862E+03  1.722930E+05 -4.211071E+03  8.054799E+03
       187  24  4.205383E+05  7.229725E+04  7.079892E+02  1.751818E+05 -3.078618E+03  6.881716E+03
       187  25  2.697418E+05  1.669282E+04 -3.121374E+04  1.334627E+05 -6.881924E+03  8.628420E+03
       187  26  2.927040E+05  2.164843E+04 -2.768998E+04  1.362527E+05 -5.775982E+03  7.465116E+03
       187  27  3.107224E+05  3.173670E+04 -2.371151E+04  1.448019E+05 -4.663241E+03  6.284473E+03
       188   1  5.152593E+05  1.072748E+05  2.150567E+04  2.013993E+05  1.085491E+03 -6.697045E+03
       188   2  4.973245E+05  9.722462E+04  1.688175E+04  1.928750E+05  3.546469E+02 -5.368998E+03
       188   3  4.743802E+05  9.222139E+04  1.240895E+04  1.900927E+05 -3.762956E+02 -4.040983E+03
       188   4  4.205263E+05  7.229765E+04  5.636483E+02  1.751706E+05  2.664170E+03 -6.101983E+03
       188   5  4.230322E+05  6.977577E+04  4.051304E+02  1.722994E+05  1.933315E+03 -4.773871E+03
       188   6  4.205280E+05  7.230089E+04  3.977278E+02  1.751699E+05  1.202351E+03 -3.445787E+03
       188   7  3.258030E+05  3.732144E+04 -2.037874E+04  1.489458E+05  4.242579E+03 -5.507023E+03
       188   8  3.487454E+05  4.232735E+04 -1.607182E+04  1.517259E+05  3.511779E+03 -4.178820E+03
       188   9  3.666784E+05  5.238049E+04 -1.161376E+04  1.602483E+05  2.780860E+03 -2.850643E+03
       188  10  5.152593E+05  1.072748E+05  2.150558E+04  2.013993E+05  1.395745E-08  8.085390E-09
       188  11  4.973245E+05  9.722459E+04  1.688170E+04  1.928750E+05 -3.471927E-10  4.907626E-09
       188  12  4.743802E+05  9.222138E+04  1.240892E+04  1.900927E+05 -2.305057E-08 -8.062699E-09
       188  13  4.205263E+05  7.229761E+04  5.635650E+02  1.751706E+05  2.018833E-09  1.810650E-09
       188  14  4.230322E+05  6.977574E+04  4.050806E+02  1.722994E+05  1.665323E-08  7.383733E-09
       188  15  4.205280E+05  7.230088E+04  3.977027E+02  1.751700E+05  4.510475E-09 -9.566631E-10
       188  16  3.258029E+05  3.732140E+04 -2.037884E+04  1.489458E+05 -1.425716E-08 -5.932090E-09
       188  17  3.487454E+05  4.232733E+04 -1.607188E+04  1.517260E+05  7.266120E-09  8.455570E-09
       188  18  3.666784E+05  5.238048E+04 -1.161379E+04  1.602483E+05  2.768094E-08  1.245263E-08
       188  19  5.152593E+05  1.072748E+05  2.150567E+04  2.013993E+05 -1.085491E+03  6.697045E+03
       188  20  4.973245E+05  9.722462E+04  1.688175E+04  1.928750E+05 -3.546469E+02  5.368998E+03
       188  21  4.743802E+05  9.222139E+04  1.240895E+04  1.900927E+05  3.762956E+02  4.040983E+03
       188  22  4.205263E+05  7.229765E+04  5.636483E+02  1.751706E+05 -2.664170E+03  6.101983E+03
       188  23  4.230322E+05  6.977577E+04  4.051304E+02  1.722994E+05 -1.933315E+03  4.773871E+03
       188  24  4.205280E+05  7.230089E+04  3.977278E+02  1.751699E+05 -1.202351E+03  3.445787E+03
       188  25  3.258030E+05  3.732144E+04 -2.037874E+04  1.489458E+05 -4.242579E+03  5.507023E+03
       188  26  3.487454E+05  4.232735E+04 -1.607182E+04  1.517259E+05 -3.511779E+03  4.178820E+03
       188  27  3.666784E+05  5.238049E+04 -1.161376E+04  1.602483E+05 -2.780860E+03  2.850643E+03
       189   1  4.593299E+05  8.663816E+04  8.984936E+03  1.859343E+05 -7.538749E+02 -3.250222E+03
       189   2  4.414043E+05  7.659704E+04  4.747674E+03  1.774256E+05 -1.613647E+03 -1.971906E+03
       189   3  4.184928E+05  7.160335E+04  7.584017E+02  1.746563E+05 -2.473116E+03 -6.943713E+02
       189   4  4.205334E+05  7.230037E+04  4.444866E+02  1.751696E+05  8.240272E+02 -2.655277E+03
       189   5  4.230262E+05  6.977344E+04  6.664671E+02  1.723014E+05 -3.665705E+01 -1.377288E+03
       189   6  4.205327E+05  7.229402E+04  1.137128E+03  1.751721E+05 -8.970475E+02 -1.000868E+02
       189   7  3.817384E+05  5.796270E+04 -8.096041E+03  1.644056E+05  2.401822E+03 -2.060372E+03
       189   8  4.046484E+05  6.294989E+04 -3.414732E+03  1.671772E+05  1.540277E+03 -7.826926E+02
       189   9  4.225726E+05  7.298469E+04  1.515860E+03  1.756880E+05  6.790160E+02  4.941955E+02
       189  10  4.593299E+05  8.663815E+04  8.984915E+03  1.859343E+05 -3.445113E-08 -1.150526E-08
       189  11  4.414043E+05  7.659703E+04  4.747661E+03  1.774256E+05 -1.361811E-08  3.936510E-09
       189  12  4.184928E+05  7.160335E+04  7.583893E+02  1.746563E+05  1.886567E-08  7.266697E-09
       189  13  4.205334E+05  7.230036E+04  4.444720E+02  1.751696E+05  2.374331E-09 -3.456867E-09
       189  14  4.230262E+05  6.977343E+04  6.664635E+02  1.723014E+05 -3.617210E-09 -4.456061E-09
       189  15  4.205327E+05  7.229402E+04  1.137126E+03  1.751721E+05  2.787068E-09 -7.294373E-09
       189  16  3.817384E+05  5.796269E+04 -8.096060E+03  1.644056E+05  2.838962E-08  9.969147E-09
       189  17  4.046484E+05  6.294988E+04 -3.414738E+03  1.671772E+05  9.111933E-09 -4.277376E-09
       189  18  4.225726E+05  7.298469E+04  1.515859E+03  1.756880E+05 -1.708100E-08 -1.478038E-08
       189  19  4.593299E+05  8.663816E+04  8.984936E+03  1.859343E+05  7.538749E+02  3.250222E+03
       189  20  4.414043E+05  7.659704E+04  4.747674E+03  1.774256E+05  1.613647E+03  1.971906E+03
       189  21  4.184928E+05  7.160335E+04  7.584017E+02  1.746563E+05  2.473116E+03  6.943713E+02
       189  22  4.205334E+05  7.230037E+04  4.444866E+02  1.751696E+05 -8.240272E+02  2.655277E+03
       189  23  4.230262E+05  6.977344E+04  6.664671E+02  1.723014E+05  3.665705E+01  1.377288E+03
       189  24  4.205327E+05  7.229402E+04  1.137128E+03  1.751721E+05  8.970475E+02  1.000868E+02
       189  25  3.817384E+05  5.796270E+04 -8.096041E+03  1.644056E+05 -2.401822E+03  2.060372E+03
       189  26  4.046484E+05  6.294989E+04 -3.414732E+03  1.671772E+05 -1.540277E+03  7.826926E+02
       189  27  4.225726E+05  7.298469E+04  1.515860E+03  1.756880E+05 -6.790160E+02 -4.941955E+02
       190   1  4.034570E+05  6.603745E+04 -2.350556E+03  1.705416E+05 -3.003154E+03  3.919218E+01
       190   2  3.854338E+05  5.597517E+04 -5.627181E+03  1.620142E+05 -4.856135E+03  9.382636E+02
       190   3  3.626124E+05  5.113375E+04 -7.874292E+03  1.592335E+05 -6.704474E+03  1.825287E+03
       190   4  4.205686E+05  7.228856E+04  1.497763E+03  1.751906E+05 -1.423771E+03  6.347211E+02
       190   5  4.229742E+05  6.973473E+04  2.684990E+03  1.722952E+05 -3.290417E+03  1.528607E+03
       190   6  4.205842E+05  7.240458E+04  4.912621E+03  1.751464E+05 -5.152464E+03  2.410428E+03
       190   7  4.376807E+05  7.853974E+04  5.346104E+03  1.798398E+05  1.556704E+02  1.230271E+03
       190   8  4.605161E+05  8.349445E+04  1.099712E+04  1.825768E+05 -1.724591E+03  2.118990E+03
       190   9  4.785594E+05  9.367568E+04  1.769934E+04  1.910607E+05 -3.600296E+03  2.995628E+03
       190  10  4.034569E+05  6.603745E+04 -2.350573E+03  1.705416E+05 -2.622815E-08 -1.247375E-08
       190  11  3.854338E+05  5.597516E+04 -5.627227E+03  1.620142E+05  2.237815E-09  1.067591E-09
       190  12  3.626124E+05  5.113373E+04 -7.874383E+03  1.592335E+05  4.645717E-08  2.150718E-08
       190  13  4.205686E+05  7.228856E+04  1.497758E+03  1.751906E+05  7.011410E-10 -1.764498E-09
       190  14  4.229742E+05  6.973473E+04  2.684965E+03  1.722952E+05  2.213734E-09  6.238032E-10
       190  15  4.205842E+05  7.240457E+04  4.912560E+03  1.751464E+05  3.135544E-09  4.502001E-09
       190  16  4.376807E+05  7.853973E+04  5.346101E+03  1.798398E+05  2.867431E-08  9.622781E-09
       190  17  4.605161E+05  8.349445E+04  1.099711E+04  1.825768E+05 -6.650847E-09  8.060881E-09
       190  18  4.785594E+05  9.367567E+04  1.769930E+04  1.910607E+05 -3.692221E-08 -1.769779E-08
       190  19  4.034570E+05  6.603745E+04 -2.350556E+03  1.705416E+05  3.003154E+03 -3.919218E+01
       190  20  3.854338E+05  5.597517E+04 -5.627181E+03  1.620142E+05  4.856135E+03 -9.382636E+02
       190  21  3.626124E+05  5.113375E+04 -7.874292E+03  1.592335E+05  6.704474E+03 -1.825287E+03
       190  22  4.205686E+05  7.228856E+04  1.497763E+03  1.751906E+05  1.423771E+03 -6.347211E+02
       190  23  4.229742E+05  6.973473E+04  2.684990E+03  1.722952E+05  3.290417E+03 -1.528607E+03
       190  24  4.205842E+05  7.240458E+04  4.912621E+03  1.751464E+05  5.152464E+03 -2.410428E+03
       190  25  4.376807E+05  7.853974E+04  5.346104E+03  1.798398E+05 -1.556704E+02 -1.230271E+03
       190  26  4.605161E+05  8.349445E+04  1.099712E+04  1.825768E+05  1.724591E+03 -2.118990E+03
       190  27  4.785594E+05  9.367568E+04  1.769934E+04  1.910607E+05  3.600296E+03 -2.995628E+03
       191   1  3.473698E+05  4.573952E+04 -9.741645E+03  1.558082E+05 -8.000385E+03  2.285167E+03
       191   2  3.294387E+05  3.506499E+04 -8.979993E+03  1.460270E+05 -1.417227E+04  1.461129E+03
       191   3  3.085342E+05  3.300576E+04 -3.042619E+03  1.413019E+05 -2.025102E+04  3.909393E+02
       191   4  4.208562E+05  7.215154E+04  6.509254E+03  1.753769E+05 -6.383270E+03  2.894822E+03
       191   5  4.225927E+05  6.977835E+04  1.180818E+04  1.721086E+05 -1.283288E+04  1.965974E+03
       191   6  4.214100E+05  7.607478E+04  2.250211E+04  1.738962E+05 -1.918958E+04  7.908883E+02
       191   7  4.943475E+05  9.856373E+04  2.275970E+04  1.949475E+05 -4.765958E+03  3.504546E+03
       191   8  5.157555E+05  1.044924E+05  3.259581E+04  1.981938E+05 -1.149327E+04  2.470902E+03
       191   9  5.342995E+05  1.191453E+05  4.804623E+04  2.064961E+05 -1.812793E+04  1.190924E+03
       191  10  3.473698E+05  4.573950E+04 -9.741775E+03  1.558083E+05 -9.664311E-09 -1.328951E-09
       191  11  3.294385E+05  3.506494E+04 -8.980374E+03  1.460270E+05 -4.508705E-09  5.423942E-09
       191  12  3.085337E+05  3.300565E+04 -3.043390E+03  1.413019E+05  7.343189E-09  1.297632E-09
       191  13  4.208561E+05  7.215152E+04  6.509162E+03  1.753769E+05  5.378347E-09 -1.327804E-09
       191  14  4.225925E+05  6.977830E+04  1.180786E+04  1.721086E+05 -5.534356E-09  3.196824E-09
       191  15  4.214096E+05  7.607468E+04  2.250142E+04  1.738962E+05 -3.800522E-10 -1.546043E-09
       191  16  4.943475E+05  9.856371E+04  2.275963E+04  1.949475E+05  1.684938E-08  4.401962E-09
       191  17  5.157553E+05  1.044924E+05  3.259555E+04  1.981939E+05  8.890219E-10  4.741890E-10
       191  18  5.342991E+05  1.191452E+05  4.804561E+04  2.064962E+05 -1.096826E-08 -2.107817E-09
       191  19  3.473698E+05  4.573952E+04 -9.741645E+03  1.558082E+05  8.000385E+03 -2.285167E+03
       191  20  3.294387E+05  3.506499E+04 -8.979993E+03  1.460270E+05  1.417227E+04 -1.461129E+03
       191  21  3.085342E+05  3.300576E+04 -3.042619E+03  1.413019E+05  2.025102E+04 -3.909393E+02
       191  22  4.208562E+05  7.215154E+04  6.509254E+03  1.753769E+05  6.383270E+03 -2.894822E+03
       191  23  4.225927E+05  6.977835E+04  1.180818E+04  1.721086E+05  1.283288E+04 -1.965974E+03
       191  24  4.214100E+05  7.607478E+04  2.250211E+04  1.738962E+05  1.918958E+04 -7.908883E+02
       191  25  4.943475E+05  9.856373E+04  2.275970E+04  1.949475E+05  4.765958E+03 -3.504546E+03
       191  26  5.157555E+05  1.044924E+05  3.259581E+04  1.981938E+05  1.149327E+04 -2.470902E+03
       191  27  5.342995E+05  1.191453E+05  4.804623E+04  2.064961E+05  1.812793E+04 -1.190924E+03
       192   1  2.874263E+05  3.072408E+04  6.762795E+01  1.521398E+05 -2.542107E+04 -3.267130E+02
       192   2  2.819787E+05  5.939060E+03  1.797592E+04  1.112319E+05 -4.771958E+04 -9.150862E+03
       192   3  3.033555E+05  6.240215E+04  7.350031E+04  5.622725E+04 -6.817033E+04 -2.287575E+04
       192   4  4.250610E+05  6.990182E+04  2.892005E+04  1.781367E+05 -2.308355E+04  5.547652E+02
       192   5  4.176446E+05  7.483941E+04  5.267528E+04  1.678054E+05 -5.089922E+04 -1.035109E+04
       192   6  4.381342E+05  1.621015E+05  1.184107E+05  1.433801E+05 -7.686725E+04 -2.615973E+04
       192   7  5.627154E+05  1.090796E+05  5.777166E+04  2.041381E+05 -2.074545E+04  1.436348E+03
       192   8  5.533285E+05  1.437458E+05  8.737293E+04  2.243912E+05 -5.407957E+04 -1.155182E+04
       192   9  5.729337E+05  2.618213E+05  1.633194E+05  2.305530E+05 -8.556600E+04 -2.944612E+04
       192  10  2.874256E+05  3.072391E+04  6.641391E+01  1.521398E+05 -2.785343E-09 -5.835848E-09
       192  11  2.819763E+05  5.938360E+03  1.797149E+04  1.112315E+05 -9.658991E-09 -1.402277E-09
       192  12  3.033503E+05  6.240034E+04  7.349060E+04  5.622599E+04  1.396243E-09  5.455990E-09
       192  13  4.250604E+05  6.990168E+04  2.891904E+04  1.781367E+05 -3.603256E-09 -5.119159E-09
       192  14  4.176418E+05  7.483860E+04  5.267022E+04  1.678049E+05 -1.927338E-09 -5.036724E-10
       192  15  4.381277E+05  1.620992E+05  1.183984E+05  1.433785E+05  2.352565E-10  3.183490E-09
       192  16  5.627149E+05  1.090795E+05  5.777085E+04  2.041381E+05  3.559454E-10  4.613017E-09
       192  17  5.533253E+05  1.437449E+05  8.736719E+04  2.243907E+05 -3.333255E-09  7.546124E-10
       192  18  5.729256E+05  2.618185E+05  1.633040E+05  2.305510E+05 -5.953808E-09 -3.166359E-09
       192  19  2.874263E+05  3.072408E+04  6.762795E+01  1.521398E+05  2.542107E+04  3.267130E+02
       192  20  2.819787E+05  5.939060E+03  1.797592E+04  1.112319E+05  4.771958E+04  9.150862E+03
       192  21  3.033555E+05  6.240215E+04  7.350031E+04  5.622725E+04  6.817033E+04  2.287575E+04
       192  22  4.250610E+05  6.990182E+04  2.892005E+04  1.781367E+05  2.308355E+04 -5.547652E+02
       192  23  4.176446E+05  7.483941E+04  5.267528E+04  1.678054E+05  5.089922E+04  1.035109E+04
       192  24  4.381342E+05  1.621015E+05  1.184107E+05  1.433801E+05  7.686725E+04  2.615973E+04
       192  25  5.627154E+05  1.090796E+05  5.777166E+04  2.041381E+05  2.074545E+04 -1.436348E+03
       192  26  5.533285E+05  1.437458E+05  8.737293E+04  2.243912E+05  5.407957E+04  1.155182E+04
       192  27  5.729337E+05  2.618213E+05  1.633194E+05  2.305530E+05  8.556600E+04  2.944612E+04
       193   1 -3.304463E+03 -2.300136E+05 -4.888410E+03  6.181533E+04  1.160528E+03  1.079242E+03
       193   2  2.146062E+04 -1.471308E+05  1.522318E+04  4.569671E+04  5.499092E+03  3.476338E+03
       193   3  4.169580E+04 -6.561614E+04  3.265681E+04  5.841971E+04  1.037905E+04  5.874772E+03
       193   4 -5.141790E+03 -2.380354E+05 -6.076639E+03  5.913722E+04  1.163965E+03 -3.314919E+03
       193   5 -3.357632E+02 -2.374003E+05 -3.480075E+03  4.471841E+04  5.503231E+03 -1.502799E+03
       193   6  4.174915E+01 -2.380395E+05 -3.155300E+03  5.914171E+04  1.038392E+04  3.103514E+02
       193   7 -6.979083E+03 -2.460572E+05 -7.264792E+03  5.645915E+04  1.167439E+03 -7.709025E+03
       193   8 -2.213265E+04 -3.276621E+05 -2.218368E+04  4.374025E+04  5.507386E+03 -6.481225E+03
       193   9 -4.161418E+04 -4.104346E+05 -3.896892E+04  5.986352E+04  1.038877E+04 -5.252549E+03
       193  10 -3.304465E+03 -2.300136E+05 -4.888415E+03  6.181533E+04 -9.071641E-10 -1.652976E-08
       193  11  2.146059E+04 -1.471308E+05  1.522310E+04  4.569670E+04 -3.339806E-09  7.241125E-09
       193  12  4.169568E+04 -6.561620E+04  3.265654E+04  5.841966E+04 -5.091544E-09  2.361964E-08
       193  13 -5.141795E+03 -2.380354E+05 -6.076662E+03  5.913723E+04  7.051469E-09 -2.128600E-09
       193  14 -3.357963E+02 -2.374003E+05 -3.480136E+03  4.471842E+04  4.471597E-09 -3.773434E-09
       193  15  4.163336E+01 -2.380395E+05 -3.155502E+03  5.914171E+04 -3.570333E-09 -1.055153E-09
       193  16 -6.979101E+03 -2.460572E+05 -7.264906E+03  5.645916E+04 -9.612086E-10  1.898706E-08
       193  17 -2.213269E+04 -3.276622E+05 -2.218381E+04  4.374028E+04  4.176223E-09 -6.265355E-09
       193  18 -4.161430E+04 -4.104346E+05 -3.896918E+04  5.986356E+04 -3.891956E-09 -2.119421E-08
       193  19 -3.304463E+03 -2.300136E+05 -4.888410E+03  6.181533E+04 -1.160528E+03 -1.079242E+03
       193  20  2.146062E+04 -1.471308E+05  1.522318E+04  4.569671E+04 -5.499092E+03 -3.476338E+03
       193  21  4.169580E+04 -6.561614E+04  3.265681E+04  5.841971E+04 -1.037905E+04 -5.874772E+03
       193  22 -5.141790E+03 -2.380354E+05 -6.076639E+03  5.913722E+04 -1.163965E+03  3.314919E+03
       193  23 -3.357632E+02 -2.374003E+05 -3.480075E+03  4.471841E+04 -5.503231E+03  1.502799E+03
       193  24  4.174915E+01 -2.380395E+05 -3.155300E+03  5.914171E+04 -1.038392E+04 -3.103514E+02
       193  25 -6.979083E+03 -2.460572E+05 -7.264792E+03  5.645915E+04 -1.167439E+03  7.709025E+03
       193  26 -2.213265E+04 -3.276621E+05 -2.218368E+04  4.374025E+04 -5.507386E+03  6.481225E+03
       193  27 -4.161418E+04 -4.104346E+05 -3.896892E+04  5.986352E+04 -1.038877E+04  5.252549E+03
       194   1  5.637596E+04 -3.773633E+03  4.569224E+04  5.931574E+04  1.345020E+04  6.483440E+03
       194   2  7.636730E+04  7.858568E+04  6.167798E+04  4.441983E+04  1.826054E+04  7.899000E+03
       194   3  9.505952E+04  1.605454E+05  7.644089E+04  5.833658E+04  2.227660E+04  9.315501E+03
       194   4 -2.664881E+02 -2.378851E+05 -3.381937E+03  5.913456E+04  1.345546E+04  8.573399E+02
       194   5 -1.205290E+02 -2.376157E+05 -4.533935E+03  4.472720E+04  1.826587E+04  3.129523E+03
       194   6 -1.422524E+03 -2.379014E+05 -7.504210E+03  5.913348E+04  2.228179E+04  5.402465E+03
       194   7 -5.691243E+04 -4.719448E+05 -5.245905E+04  5.895345E+04  1.346073E+04 -4.766673E+03
       194   8 -7.661476E+04 -5.537224E+05 -7.075132E+04  4.503443E+04  1.827120E+04 -1.637565E+03
       194   9 -9.791479E+04 -6.361983E+05 -9.145819E+04  5.992988E+04  2.228698E+04  1.491899E+03
       194  10  5.637575E+04 -3.773727E+03  4.569182E+04  5.931567E+04 -7.633323E-09  4.023227E-09
       194  11  7.636693E+04  7.858552E+04  6.167723E+04  4.441971E+04 -1.084467E-09  2.938532E-09
       194  12  9.505896E+04  1.605451E+05  7.643979E+04  5.833642E+04 -3.882969E-09 -4.287605E-09
       194  13 -2.666826E+02 -2.378852E+05 -3.382279E+03  5.913455E+04 -9.678055E-09 -5.688311E-12
       194  14 -1.208899E+02 -2.376158E+05 -4.534580E+03  4.472715E+04  1.824556E-09 -3.769542E-09
       194  15 -1.423065E+03 -2.379016E+05 -7.505198E+03  5.913338E+04 -1.003205E-08 -9.107444E-10
       194  16 -5.691263E+04 -4.719449E+05 -5.245943E+04  5.895351E+04 -2.145259E-09 -8.546747E-10
       194  17 -7.661512E+04 -5.537225E+05 -7.075195E+04  4.503446E+04 -1.157425E-09 -5.600041E-09
       194  18 -9.791532E+04 -6.361984E+05 -9.145913E+04  5.992985E+04  6.594796E-10  6.326207E-09
       194  19  5.637596E+04 -3.773633E+03  4.569224E+04  5.931574E+04 -1.345020E+04 -6.483440E+03
       194  20  7.636730E+04  7.858568E+04  6.167798E+04  4.441983E+04 -1.826054E+04 -7.899000E+03
       194  21  9.505952E+04  1.605454E+05  7.644089E+04  5.833658E+04 -2.227660E+04 -9.315501E+03
       194  22 -2.664881E+02 -2.378851E+05 -3.381937E+03  5.913456E+04 -1.345546E+04 -8.573399E+02
       194  23 -1.205290E+02 -2.376157E+05 -4.533935E+03  4.472720E+04 -1.826587E+04 -3.129523E+03
       194  24 -1.422524E+03 -2.379014E+05 -7.504210E+03  5.913348E+04 -2.228179E+04 -5.402465E+03
       194  25 -5.691243E+04 -4.719448E+05 -5.245905E+04  5.895345E+04 -1.346073E+04  4.766673E+03
       194  26 -7.661476E+04 -5.537224E+05 -7.075132E+04  4.503443E+04 -1.827120E+04  1.637565E+03
       194  27 -9.791479E+04 -6.361983E+05 -9.145819E+04  5.992988E+04 -2.228698E+04 -1.491899E+03
       195   1  1.123577E+05  2.211674E+05  8.732239E+04  6.236638E+04  2.622452E+04  1.498613E+04
       195   2  1.299910E+05  3.053581E+05  1.013423E+05  3.875997E+04  2.554954E+04  5.374052E+03
       195   3  1.258390E+05  3.855305E+05  1.162069E+05  4.307911E+04  8.193938E+03 -4.264124E+03
       195   4  9.226007E+02 -2.393793E+05 -9.361121E+03  5.894648E+04  2.623516E+04  6.712004E+03
       195   5 -1.719456E+03 -2.358159E+05 -1.597817E+04  4.496285E+04  2.553875E+04  1.511826E+04
       195   6 -2.928525E+04 -2.394097E+05 -3.426672E+04  5.890694E+04  8.154877E+03  2.349923E+04
       195   7 -1.105261E+05 -6.997255E+05 -1.060562E+05  5.552920E+04  2.624590E+04 -1.556087E+03
       195   8 -1.334491E+05 -7.767148E+05 -1.333156E+05  5.116034E+04  2.552816E+04  2.485408E+04
       195   9 -1.844366E+05 -8.639904E+05 -1.847652E+05  7.471889E+04  8.117212E+03  5.123475E+04
       195  10  1.123569E+05  2.211670E+05  8.732068E+04  6.236606E+04  3.308298E-09  2.894155E-09
       195  11  1.299903E+05  3.053579E+05  1.013410E+05  3.875985E+04  6.391991E-09  7.933013E-09
       195  12  1.258389E+05  3.855305E+05  1.162068E+05  4.307914E+04  4.705148E-09  7.607940E-09
       195  13  9.218496E+02 -2.393796E+05 -9.362499E+03  5.894634E+04 -4.244033E-09 -4.695157E-11
       195  14 -1.720218E+03 -2.358163E+05 -1.597982E+04  4.496254E+04  4.739819E-09  7.157000E-10
       195  15 -2.928547E+04 -2.394103E+05 -3.426788E+04  5.890678E+04  4.472244E-09 -2.317939E-09
       195  16 -1.105268E+05 -6.997257E+05 -1.060575E+05  5.552923E+04 -3.184938E-09 -7.779806E-10
       195  17 -1.334500E+05 -7.767157E+05 -1.333180E+05  5.115983E+04 -5.141932E-09 -8.725521E-09
       195  18 -1.844374E+05 -8.639933E+05 -1.847703E+05  7.471855E+04  1.384480E-09 -6.298336E-09
       195  19  1.123577E+05  2.211674E+05  8.732239E+04  6.236638E+04 -2.622452E+04 -1.498613E+04
       195  20  1.299910E+05  3.053581E+05  1.013423E+05  3.875997E+04 -2.554954E+04 -5.374052E+03
       195  21  1.258390E+05  3.855305E+05  1.162069E+05  4.307911E+04 -8.193938E+03  4.264124E+03
       195  22  9.226007E+02 -2.393793E+05 -9.361121E+03  5.894648E+04 -2.623516E+04 -6.712004E+03
       195  23 -1.719456E+03 -2.358159E+05 -1.597817E+04  4.496285E+04 -2.553875E+04 -1.511826E+04
       195  24 -2.928525E+04 -2.394097E+05 -3.426672E+04  5.890694E+04 -8.154877E+03 -2.349923E+04
       195  25 -1.105261E+05 -6.997255E+05 -1.060562E+05  5.552920E+04 -2.624590E+04  1.556087E+03
       195  26 -1.334491E+05 -7.767148E+05 -1.333156E+05  5.116034E+04 -2.552816E+04 -2.485408E+04
       195  27 -1.844366E+05 -8.639904E+05 -1.847652E+05  7.471889E+04 -8.117212E+03 -5.123475E+04
       196   1  1.293924E+04  9.863884E+04  8.798984E+04  1.896802E+04  1.189528E+04 -7.654698E+03
       196   2 -2.783507E+04  1.123123E+05  7.869529E+04  2.676272E+04  5.279385E+02 -2.552170E+04
       196   3 -7.163449E+04  1.079046E+05  7.229361E+04  4.354136E+04 -1.084725E+04 -3.025649E+04
       196   4 -5.320626E+05 -3.597860E+04 -4.014689E+04  4.088828E+04 -2.795076E+04 -7.686304E+03
       196   5 -5.286745E+05 -7.490058E+03 -1.943079E+04  3.637998E+04 -1.788866E+04 -2.553963E+04
       196   6 -5.320401E+05 -8.130728E+02 -1.071116E+04  4.085631E+04 -7.835285E+03 -3.025544E+04
       196   7 -1.076787E+06 -1.706146E+05 -1.682978E+05  6.278912E+04 -6.776202E+04 -7.720739E+03
       196   8 -1.029272E+06 -1.273070E+05 -1.175676E+05  4.598925E+04 -3.629071E+04 -2.555814E+04
       196   9 -9.922392E+05 -1.095426E+05 -9.372417E+04  3.817326E+04 -4.825492E+03 -3.025442E+04
       196  10  1.293907E+04  9.863874E+04  8.798946E+04  1.896810E+04 -1.080275E-09  3.927386E-10
       196  11 -2.783524E+04  1.123116E+05  7.869406E+04  2.676274E+04  1.114700E-08  2.165905E-10
       196  12 -7.163486E+04  1.079036E+05  7.229167E+04  4.354110E+04  3.008795E-09  7.543306E-10
       196  13 -5.320635E+05 -3.597887E+04 -4.014847E+04  4.088811E+04  4.146659E-09  1.066846E-09
       196  14 -5.286750E+05 -7.490844E+03 -1.943262E+04  3.637961E+04 -2.153813E-09  3.715325E-10
       196  15 -5.320405E+05 -8.140720E+02 -1.071300E+04  4.085612E+04  4.031560E-09  9.947558E-10
       196  16 -1.076791E+06 -1.706159E+05 -1.683065E+05  6.278870E+04 -1.544677E-09  6.939874E-10
       196  17 -1.029274E+06 -1.273080E+05 -1.175713E+05  4.598850E+04 -1.243849E-08 -1.738836E-09
       196  18 -9.922395E+05 -1.095436E+05 -9.372594E+04  3.817314E+04 -7.099088E-09 -3.227300E-09
       196  19  1.293924E+04  9.863884E+04  8.798984E+04  1.896802E+04 -1.189528E+04  7.654698E+03
       196  20 -2.783507E+04  1.123123E+05  7.869529E+04  2.676272E+04 -5.279385E+02  2.552170E+04
       196  21 -7.163449E+04  1.079046E+05  7.229361E+04  4.354136E+04  1.084725E+04  3.025649E+04
       196  22 -5.320626E+05 -3.597860E+04 -4.014689E+04  4.088828E+04  2.795076E+04  7.686304E+03
       196  23 -5.286745E+05 -7.490058E+03 -1.943079E+04  3.637998E+04  1.788866E+04  2.553963E+04
       196  24 -5.320401E+05 -8.130728E+02 -1.071116E+04  4.085631E+04  7.835285E+03  3.025544E+04
       196  25 -1.076787E+06 -1.706146E+05 -1.682978E+05  6.278912E+04  6.776202E+04  7.720739E+03
       196  26 -1.029272E+06 -1.273070E+05 -1.175676E+05  4.598925E+04  3.629071E+04  2.555814E+04
       196  27 -9.922392E+05 -1.095426E+05 -9.372417E+04  3.817326E+04  4.825492E+03  3.025442E+04
       197   1 -9.860122E+04  1.003847E+05  6.910722E+04  4.078626E+04 -7.786596E+03 -2.896886E+04
       197   2 -1.407604E+05  9.141498E+04  6.363593E+04  3.628626E+04 -7.373104E+03 -2.758264E+04
       197   3 -1.831704E+05  8.168515E+04  5.770402E+04  4.163244E+04 -6.961484E+03 -2.507209E+04
       197   4 -5.306621E+05 -1.512065E+03 -8.174385E+03  4.105229E+04 -6.439372E+03 -2.896924E+04
       197   5 -5.303708E+05 -1.637722E+02 -4.504939E+03  3.612808E+04 -4.192476E+03 -2.758069E+04
       197   6 -5.306503E+05  1.058654E+02 -2.570292E+03  4.105045E+04 -1.947391E+03 -2.506744E+04
       197   7 -9.625408E+05 -1.034192E+05 -8.546310E+04  4.131809E+04 -5.093058E+03 -2.896962E+04
       197   8 -9.198325E+05 -9.175077E+04 -7.265119E+04  3.596996E+04 -1.013783E+03 -2.757873E+04
       197   9 -8.780116E+05 -8.147993E+04 -6.284871E+04  4.046876E+04  3.063980E+03 -2.506279E+04
       197  10 -9.860151E+04  1.003838E+05  6.910553E+04  4.078608E+04 -3.497162E-08 -1.587648E-09
       197  11 -1.407607E+05  9.141414E+04  6.363440E+04  3.628610E+04  3.793071E-08 -2.268550E-09
       197  12 -1.831706E+05  8.168446E+04  5.770274E+04  4.163230E+04  9.607877E-08 -1.275193E-09
       197  13 -5.306624E+05 -1.512977E+03 -8.176040E+03  4.105214E+04 -3.196850E-11 -8.392619E-10
       197  14 -5.303711E+05 -1.645935E+02 -4.506401E+03  3.612799E+04  2.135747E-09  2.433557E-09
       197  15 -5.306505E+05  1.051898E+02 -2.571480E+03  4.105041E+04  8.453939E-09  5.504640E-09
       197  16 -9.625411E+05 -1.034201E+05 -8.546473E+04  4.131797E+04  3.569706E-08 -1.562173E-09
       197  17 -9.198327E+05 -9.175159E+04 -7.265262E+04  3.596994E+04 -4.109178E-08 -1.489910E-09
       197  18 -8.780118E+05 -8.148060E+04 -6.284991E+04  4.046882E+04 -9.571821E-08 -1.853692E-09
       197  19 -9.860122E+04  1.003847E+05  6.910722E+04  4.078626E+04  7.786596E+03  2.896886E+04
       197  20 -1.407604E+05  9.141498E+04  6.363593E+04  3.628626E+04  7.373104E+03  2.758264E+04
       197  21 -1.831704E+05  8.168515E+04  5.770402E+04  4.163244E+04  6.961484E+03  2.507209E+04
       197  22 -5.306621E+05 -1.512065E+03 -8.174385E+03  4.105229E+04  6.439372E+03  2.896924E+04
       197  23 -5.303708E+05 -1.637722E+02 -4.504939E+03  3.612808E+04  4.192476E+03  2.758069E+04
       197  24 -5.306503E+05  1.058654E+02 -2.570292E+03  4.105045E+04  1.947391E+03  2.506744E+04
       197  25 -9.625408E+05 -1.034192E+05 -8.546310E+04  4.131809E+04  5.093058E+03  2.896962E+04
       197  26 -9.198325E+05 -9.175077E+04 -7.265119E+04  3.596996E+04  1.013783E+03  2.757873E+04
       197  27 -8.780116E+05 -8.147993E+04 -6.284871E+04  4.046876E+04 -3.063980E+03  2.506279E+04
       198   1 -2.108984E+05  7.506733E+04  5.327855E+04  4.146190E+04 -6.427859E+03 -2.326470E+04
       198   2 -2.532277E+05  6.515544E+04  4.673955E+04  3.643949E+04 -6.034976E+03 -2.022805E+04
       198   3 -2.956279E+05  5.524176E+04  3.993854E+04  4.135425E+04 -5.642879E+03 -1.709361E+04
       198   4 -5.305422E+05  6.498455E+01 -1.955098E+03  4.107093E+04 -1.553220E+03 -2.325986E+04
       198   5 -5.304880E+05  1.063795E+02 -1.121813E+03  3.610218E+04 -1.001181E+03 -2.022251E+04
       198   6 -5.305342E+05  1.183585E+02 -6.613162E+02  4.107086E+04 -4.499028E+02 -1.708734E+04
       198   7 -8.500855E+05 -7.494284E+04 -5.719218E+04  4.068014E+04  3.318987E+03 -2.325502E+04
       198   8 -8.076726E+05 -6.494680E+04 -4.898572E+04  3.576500E+04  4.030434E+03 -2.021697E+04
       198   9 -7.653862E+05 -5.500800E+04 -4.126298E+04  4.078756E+04  4.741168E+03 -1.708107E+04
       198  10 -2.108986E+05  7.506673E+04  5.327746E+04  4.146178E+04 -5.244264E-08  3.083997E-09
       198  11 -2.532279E+05  6.515500E+04  4.673872E+04  3.643939E+04 -2.662504E-08  6.481680E-09
       198  12 -2.956281E+05  5.524144E+04  3.993794E+04  4.135417E+04 -1.481476E-08  1.547831E-09
       198  13 -5.305423E+05  6.440309E+01 -1.956119E+03  4.107091E+04 -8.168269E-09  7.424757E-09
       198  14 -5.304881E+05  1.059402E+02 -1.122583E+03  3.610216E+04 -4.300058E-09  9.848979E-09
       198  15 -5.305343E+05  1.180450E+02 -6.618651E+02  4.107086E+04 -6.713857E-10  5.355632E-09
       198  16 -8.500856E+05 -7.494343E+04 -5.719321E+04  4.068020E+04  5.266366E-08  3.503364E-10
       198  17 -8.076728E+05 -6.494725E+04 -4.898652E+04  3.576507E+04  2.479110E-08  3.724981E-09
       198  18 -7.653863E+05 -5.500832E+04 -4.126357E+04  4.078763E+04  7.824143E-09  2.173540E-09
       198  19 -2.108984E+05  7.506733E+04  5.327855E+04  4.146190E+04  6.427859E+03  2.326470E+04
       198  20 -2.532277E+05  6.515544E+04  4.673955E+04  3.643949E+04  6.034976E+03  2.022805E+04
       198  21 -2.956279E+05  5.524176E+04  3.993854E+04  4.135425E+04  5.642879E+03  1.709361E+04
       198  22 -5.305422E+05  6.498455E+01 -1.955098E+03  4.107093E+04  1.553220E+03  2.325986E+04
       198  23 -5.304880E+05  1.063795E+02 -1.121813E+03  3.610218E+04  1.001181E+03  2.022251E+04
       198  24 -5.305342E+05  1.183585E+02 -6.613162E+02  4.107086E+04  4.499028E+02  1.708734E+04
       198  25 -8.500855E+05 -7.494284E+04 -5.719218E+04  4.068014E+04 -3.318987E+03  2.325502E+04
       198  26 -8.076726E+05 -6.494680E+04 -4.898572E+04  3.576500E+04 -4.030434E+03  2.021697E+04
       198  27 -7.653862E+05 -5.500800E+04 -4.126298E+04  4.078756E+04 -4.741168E+03  1.708107E+04
       199   1 -3.234472E+05  4.867347E+04  3.509245E+04  4.131863E+04 -5.528588E+03 -1.523904E+04
       199   2 -3.658494E+05  3.872892E+04  2.804099E+04  3.628464E+04 -5.379911E+03 -1.205738E+04
       199   3 -4.082915E+05  2.881092E+04  2.089126E+04  4.120748E+04 -5.231650E+03 -8.866745E+03
       199   4 -5.305194E+05  1.168857E+02 -5.170088E+02  4.107523E+04 -3.456542E+02 -1.523253E+04
       199   5 -5.304947E+05  1.071164E+02 -3.381109E+02  3.609673E+04 -1.825735E+02 -1.205055E+04
       199   6 -5.305148E+05  1.212916E+02 -2.677746E+02  4.107522E+04 -1.989809E+01 -8.859576E+03
       199   7 -7.375495E+05 -4.844198E+04 -3.612782E+04  4.083189E+04  4.835604E+03 -1.522603E+04
       199   8 -6.951133E+05 -3.851613E+04 -2.871804E+04  3.590887E+04  5.013428E+03 -1.204372E+04
       199   9 -6.527233E+05 -2.856913E+04 -2.142722E+04  4.094299E+04  5.190859E+03 -8.852408E+03
       199  10 -3.234473E+05  4.867321E+04  3.509196E+04  4.131856E+04  6.859556E-09 -2.188001E-09
       199  11 -3.658495E+05  3.872876E+04  2.804066E+04  3.628458E+04 -5.384271E-09  4.170893E-10
       199  12 -4.082915E+05  2.881083E+04  2.089106E+04  4.120744E+04 -4.946592E-09  2.754407E-09
       199  13 -5.305195E+05  1.166366E+02 -5.174449E+02  4.107522E+04  2.578331E-11 -7.211970E-10
       199  14 -5.304947E+05  1.069605E+02 -3.383838E+02  3.609673E+04 -2.536414E-09 -5.577147E-10
       199  15 -5.305148E+05  1.212073E+02 -2.679220E+02  4.107522E+04 -1.469523E-09 -2.658433E-10
       199  16 -7.375496E+05 -4.844224E+04 -3.612830E+04  4.083195E+04 -2.176108E-09 -1.526466E-10
       199  17 -6.951134E+05 -3.851629E+04 -2.871836E+04  3.590892E+04  4.247033E-09 -2.133207E-09
       199  18 -6.527234E+05 -2.856922E+04 -2.142742E+04  4.094303E+04  9.448689E-09 -1.095888E-09
       199  19 -3.234472E+05  4.867347E+04  3.509245E+04  4.131863E+04  5.528588E+03  1.523904E+04
       199  20 -3.658494E+05  3.872892E+04  2.804099E+04  3.628464E+04  5.379911E+03  1.205738E+04
       199  21 -4.082915E+05  2.881092E+04  2.089126E+04  4.120748E+04  5.231650E+03  8.866745E+03
       199  22 -5.305194E+05  1.168857E+02 -5.170088E+02  4.107523E+04  3.456542E+02  1.523253E+04
       199  23 -5.304947E+05  1.071164E+02 -3.381109E+02  3.609673E+04  1.825735E+02  1.205055E+04
       199  24 -5.305148E+05  1.212916E+02 -2.677746E+02  4.107522E+04  1.989809E+01  8.859576E+03
       199  25 -7.375495E+05 -4.844198E+04 -3.612782E+04  4.083189E+04 -4.835604E+03  1.522603E+04
       199  26 -6.951133E+05 -3.851613E+04 -2.871804E+04  3.590887E+04 -5.013428E+03  1.204372E+04
       199  27 -6.527233E+05 -2.856913E+04 -2.142722E+04  4.094299E+04 -5.190859E+03  8.852408E+03
       200   1 -4.361488E+05  2.223987E+04  1.590277E+04  4.117579E+04 -5.186328E+03 -7.006542E+03
       200   2 -4.785739E+05  1.229287E+04  8.621427E+03  3.613294E+04 -5.025266E+03 -3.812735E+03
       200   3 -5.210467E+05  2.369101E+03  1.231361E+03  4.105539E+04 -4.864331E+03 -6.228828E+02
       200   4 -5.305142E+05  1.227657E+02 -2.649552E+02  4.107708E+04  2.597749E+01 -6.999249E+03
       200   5 -5.304897E+05  1.151405E+02 -3.215756E+02  3.609441E+04  1.804461E+02 -3.805355E+03
       200   6 -5.305128E+05  1.321293E+02 -4.822182E+02  4.107707E+04  3.347987E+02 -6.154121E+02
       200   7 -6.248708E+05 -2.199480E+04 -1.643287E+04  4.097838E+04  5.237515E+03 -6.991958E+03
       200   8 -5.824027E+05 -1.206272E+04 -9.264569E+03  3.605587E+04  5.385736E+03 -3.797974E+03
       200   9 -5.399788E+05 -2.104832E+03 -2.195699E+03  4.109876E+04  5.533852E+03 -6.079409E+02
       200  10 -4.361489E+05  2.223981E+04  1.590262E+04  4.117576E+04  1.221102E-08  2.195234E-09
       200  11 -4.785739E+05  1.229285E+04  8.621353E+03  3.613293E+04  4.962003E-09  9.922896E-10
       200  12 -5.210467E+05  2.369094E+03  1.231316E+03  4.105538E+04 -5.767397E-09 -8.089919E-10
       200  13 -5.305142E+05  1.227131E+02 -2.650472E+02  4.107708E+04 -4.121857E-10  4.490497E-09
       200  14 -5.304897E+05  1.151250E+02 -3.216029E+02  3.609441E+04 -2.337405E-09  1.369190E-09
       200  15 -5.305128E+05  1.321289E+02 -4.822191E+02  4.107707E+04  4.993350E-09  4.001550E-10
       200  16 -6.248709E+05 -2.199486E+04 -1.643302E+04  4.097841E+04 -6.581645E-09  1.318670E-09
       200  17 -5.824028E+05 -1.206274E+04 -9.264650E+03  3.605589E+04 -3.623946E-09 -1.183254E-09
       200  18 -5.399788E+05 -2.104841E+03 -2.195758E+03  4.109876E+04  6.108215E-09  2.519747E-10
       200  19 -4.361488E+05  2.223987E+04  1.590277E+04  4.117579E+04  5.186328E+03  7.006542E+03
       200  20 -4.785739E+05  1.229287E+04  8.621427E+03  3.613294E+04  5.025266E+03  3.812735E+03
       200  21 -5.210467E+05  2.369101E+03  1.231361E+03  4.105539E+04  4.864331E+03  6.228828E+02
       200  22 -5.305142E+05  1.227657E+02 -2.649552E+02  4.107708E+04 -2.597749E+01  6.999249E+03
       200  23 -5.304897E+05  1.151405E+02 -3.215756E+02  3.609441E+04 -1.804461E+02  3.805355E+03
       200  24 -5.305128E+05  1.321293E+02 -4.822182E+02  4.107707E+04 -3.347987E+02  6.154121E+02
       200  25 -6.248708E+05 -2.199480E+04 -1.643287E+04  4.097838E+04 -5.237515E+03  6.991958E+03
       200  26 -5.824027E+05 -1.206272E+04 -9.264569E+03  3.605587E+04 -5.385736E+03  3.797974E+03
       200  27 -5.399788E+05 -2.104832E+03 -2.195699E+03  4.109876E+04 -5.533852E+03  6.079409E+02
       201   1 -5.489253E+05 -4.202480E+03 -3.896200E+03  4.100948E+04 -4.775095E+03  1.236136E+03
       201   2 -5.913103E+05 -1.415289E+04 -1.157363E+04  3.596094E+04 -4.170393E+03  4.399783E+03
       201   3 -6.338159E+05 -2.414393E+04 -1.966468E+04  4.087362E+04 -3.565510E+03  7.504237E+03
       201   4 -5.305258E+05  1.362914E+02 -6.141708E+02  4.107612E+04  4.312549E+02  1.243612E+03
       201   5 -5.304739E+05  1.301064E+02 -1.035783E+03  3.609557E+04  9.393053E+02  4.407006E+03
       201   6 -5.305276E+05  1.001666E+02 -1.803866E+03  4.107618E+04  1.447576E+03  7.511211E+03
       201   7 -5.121258E+05  4.475059E+03  2.667948E+03  4.114277E+04  5.637755E+03  1.251089E+03
       201   8 -4.696338E+05  1.441292E+04  9.502030E+03  3.623022E+04  6.049489E+03  4.414230E+03
       201   9 -4.272288E+05  2.434370E+04  1.605667E+04  4.127878E+04  6.461472E+03  7.518188E+03
       201  10 -5.489253E+05 -4.202488E+03 -3.896246E+03  4.100948E+04 -7.900573E-09  4.773760E-10
       201  11 -5.913103E+05 -1.415292E+04 -1.157369E+04  3.596095E+04 -2.506218E-09  2.141986E-10
       201  12 -6.338160E+05 -2.414400E+04 -1.966481E+04  4.087364E+04  6.144200E-09  3.360232E-09
       201  13 -5.305258E+05  1.362897E+02 -6.141741E+02  4.107612E+04  4.320245E-09 -3.783892E-10
       201  14 -5.304739E+05  1.300853E+02 -1.035821E+03  3.609557E+04  8.608495E-09 -3.888641E-09
       201  15 -5.305276E+05  1.001055E+02 -1.803976E+03  4.107617E+04  2.766296E-09 -4.438175E-09
       201  16 -5.121259E+05  4.475049E+03  2.667885E+03  4.114276E+04  1.335980E-08  3.130563E-09
       201  17 -4.696338E+05  1.441289E+04  9.501924E+03  3.623020E+04 -7.359706E-09 -2.053670E-09
       201  18 -4.272288E+05  2.434363E+04  1.605649E+04  4.127874E+04 -8.373167E-09  4.451375E-09
       201  19 -5.489253E+05 -4.202480E+03 -3.896200E+03  4.100948E+04  4.775095E+03 -1.236136E+03
       201  20 -5.913103E+05 -1.415289E+04 -1.157363E+04  3.596094E+04  4.170393E+03 -4.399783E+03
       201  21 -6.338159E+05 -2.414393E+04 -1.966468E+04  4.087362E+04  3.565510E+03 -7.504237E+03
       201  22 -5.305258E+05  1.362914E+02 -6.141708E+02  4.107612E+04 -4.312549E+02 -1.243612E+03
       201  23 -5.304739E+05  1.301064E+02 -1.035783E+03  3.609557E+04 -9.393053E+02 -4.407006E+03
       201  24 -5.305276E+05  1.001666E+02 -1.803866E+03  4.107618E+04 -1.447576E+03 -7.511211E+03
       201  25 -5.121258E+05  4.475059E+03  2.667948E+03  4.114277E+04 -5.637755E+03 -1.251089E+03
       201  26 -4.696338E+05  1.441292E+04  9.502030E+03  3.623022E+04 -6.049489E+03 -4.414230E+03
       201  27 -4.272288E+05  2.434370E+04  1.605667E+04  4.127878E+04 -6.461472E+03 -7.518188E+03
       202   1 -6.617967E+05 -3.069060E+04 -2.526216E+04  4.067244E+04 -3.288996E+03  9.335797E+03
       202   2 -7.038436E+05 -4.093048E+04 -3.467578E+04  3.608152E+04 -9.619975E+01  1.212227E+04
       202   3 -7.466301E+05 -5.235720E+04 -4.647444E+04  4.140180E+04  3.097559E+03  1.421875E+04
       202   4 -5.306268E+05  1.405878E+02 -2.371181E+03  4.106471E+04  1.810340E+03  9.342763E+03
       202   5 -5.303566E+05 -1.041859E+02 -4.153232E+03  3.611020E+04  3.878417E+03  1.212739E+04
       202   6 -5.306326E+05 -1.340237E+03 -7.538465E+03  4.106675E+04  5.947686E+03  1.422212E+04
       202   7 -3.994400E+05  3.097085E+04  2.051928E+04  4.145706E+04  6.910720E+03  9.349734E+03
       202   8 -3.568400E+05  4.072047E+04  2.636828E+04  3.613888E+04  7.854113E+03  1.213251E+04
       202   9 -3.145896E+05  4.967413E+04  3.139573E+04  4.073156E+04  8.798777E+03  1.422548E+04
       202  10 -6.617968E+05 -3.069069E+04 -2.526234E+04  4.067247E+04 -2.258898E-08  6.333055E-09
       202  11 -7.038437E+05 -4.093064E+04 -3.467606E+04  3.608152E+04 -3.891884E-09  3.867902E-09
       202  12 -7.466302E+05 -5.235742E+04 -4.647484E+04  4.140177E+04  1.314261E-08  2.514490E-09
       202  13 -5.306269E+05  1.404932E+02 -2.371352E+03  4.106470E+04 -4.298799E-09 -3.127611E-09
       202  14 -5.303566E+05 -1.043478E+02 -4.153537E+03  3.611016E+04  2.146379E-09 -2.142184E-09
       202  15 -5.306327E+05 -1.340464E+03 -7.538912E+03  4.106668E+04  1.769581E-09 -2.770003E-09
       202  16 -3.994401E+05  3.097074E+04  2.051903E+04  4.145701E+04  2.392009E-08  5.204222E-09
       202  17 -3.568401E+05  4.072030E+04  2.636789E+04  3.613880E+04 -6.157705E-09 -1.544628E-09
       202  18 -3.145897E+05  4.967389E+04  3.139520E+04  4.073146E+04 -1.076091E-08 -6.312418E-09
       202  19 -6.617967E+05 -3.069060E+04 -2.526216E+04  4.067244E+04  3.288996E+03 -9.335797E+03
       202  20 -7.038436E+05 -4.093048E+04 -3.467578E+04  3.608152E+04  9.619975E+01 -1.212227E+04
       202  21 -7.466301E+05 -5.235720E+04 -4.647444E+04  4.140180E+04 -3.097559E+03 -1.421875E+04
       202  22 -5.306268E+05  1.405878E+02 -2.371181E+03  4.106471E+04 -1.810340E+03 -9.342763E+03
       202  23 -5.303566E+05 -1.041859E+02 -4.153232E+03  3.611020E+04 -3.878417E+03 -1.212739E+04
       202  24 -5.306326E+05 -1.340237E+03 -7.538465E+03  4.106675E+04 -5.947686E+03 -1.422212E+04
       202  25 -3.994400E+05  3.097085E+04  2.051928E+04  4.145706E+04 -6.910720E+03 -9.349734E+03
       202  26 -3.568400E+05  4.072047E+04  2.636828E+04  3.613888E+04 -7.854113E+03 -1.213251E+04
       202  27 -3.145896E+05  4.967413E+04  3.139573E+04  4.073156E+04 -8.798777E+03 -1.422548E+04
       203   1 -7.760989E+05 -5.845296E+04 -5.426594E+04  3.854043E+04  3.362242E+03  1.573047E+04
       203   2 -8.142742E+05 -7.526242E+04 -7.439316E+04  4.517490E+04  2.577559E+04  1.410002E+04
       203   3 -8.609947E+05 -1.144865E+05 -1.147311E+05  6.120285E+04  4.819631E+04  4.403618E+03
       203   4 -5.319036E+05 -6.925895E+02 -9.878304E+03  4.094595E+04  7.234115E+03  1.573501E+04
       203   5 -5.287828E+05 -6.851936E+03 -1.791734E+04  3.626927E+04  1.649997E+04  1.408750E+04
       203   6 -5.319199E+05 -3.313597E+04 -3.702590E+04  4.098660E+04  2.577489E+04  4.374909E+03
       203   7 -2.876502E+05  5.706445E+04  3.450701E+04  4.335242E+04  1.110747E+04  1.573959E+04
       203   8 -2.432130E+05  6.155394E+04  3.855482E+04  2.735942E+04  7.220172E+03  1.407525E+04
       203   9 -2.027434E+05  4.820862E+04  4.067391E+04  2.075954E+04  3.341633E+03  4.347670E+03
       203  10 -7.760990E+05 -5.845323E+04 -5.426643E+04  3.854038E+04 -3.094068E-08  1.023767E-09
       203  11 -8.142750E+05 -7.526281E+04 -7.439478E+04  4.517461E+04 -1.149430E-09 -2.512199E-09
       203  12 -8.609972E+05 -1.144871E+05 -1.147355E+05  6.120268E+04  3.166232E-08 -4.739145E-10
       203  13 -5.319037E+05 -6.928694E+02 -9.878868E+03  4.094585E+04  3.913365E-09  1.282442E-09
       203  14 -5.287832E+05 -6.852222E+03 -1.791823E+04  3.626908E+04  4.671244E-09 -3.397610E-09
       203  15 -5.319206E+05 -3.313617E+04 -3.702718E+04  4.098651E+04 -4.482857E-09  1.039831E-09
       203  16 -2.876504E+05  5.706415E+04  3.450631E+04  4.335228E+04  2.868980E-08 -2.998944E-09
       203  17 -2.432131E+05  6.155371E+04  3.855435E+04  2.735934E+04 -1.246745E-08  5.672069E-10
       203  18 -2.027434E+05  4.820860E+04  4.067385E+04  2.075952E+04 -2.429208E-08 -6.017138E-10
       203  19 -7.760989E+05 -5.845296E+04 -5.426594E+04  3.854043E+04 -3.362242E+03 -1.573047E+04
       203  20 -8.142742E+05 -7.526242E+04 -7.439316E+04  4.517490E+04 -2.577559E+04 -1.410002E+04
       203  21 -8.609947E+05 -1.144865E+05 -1.147311E+05  6.120285E+04 -4.819631E+04 -4.403618E+03
       203  22 -5.319036E+05 -6.925895E+02 -9.878304E+03  4.094595E+04 -7.234115E+03 -1.573501E+04
       203  23 -5.287828E+05 -6.851936E+03 -1.791734E+04  3.626927E+04 -1.649997E+04 -1.408750E+04
       203  24 -5.319199E+05 -3.313597E+04 -3.702590E+04  4.098660E+04 -2.577489E+04 -4.374909E+03
       203  25 -2.876502E+05  5.706445E+04  3.450701E+04  4.335242E+04 -1.110747E+04 -1.573959E+04
       203  26 -2.432130E+05  6.155394E+04  3.855482E+04  2.735942E+04 -7.220172E+03 -1.407525E+04
       203  27 -2.027434E+05  4.820862E+04  4.067391E+04  2.075954E+04 -3.341633E+03 -4.347670E+03
       204   1 -1.287539E+04  9.513683E+04  8.647543E+04  1.454493E+04  4.693784E+03 -6.889728E+03
       204   2 -4.948428E+04  1.071501E+05  8.102838E+04  1.775972E+04 -2.968622E+03 -2.235306E+04
       204   3 -8.970818E+04  1.006716E+05  7.596189E+04  3.239893E+04 -1.064493E+04 -2.504969E+04
       204   4 -5.047691E+05 -2.675026E+04 -3.113603E+04  2.877931E+04 -2.149951E+04 -6.921439E+03
       204   5 -5.016201E+05 -2.406690E+03 -1.457511E+04  2.304871E+04 -1.384490E+04 -2.236859E+04
       204   6 -5.047518E+05  7.772515E+02 -8.276884E+03  2.874317E+04 -6.204510E+03 -2.504460E+04
       204   7 -9.964391E+05 -1.486537E+05 -1.487619E+05  4.300228E+04 -4.767214E+04 -6.954365E+03
       204   8 -9.535627E+05 -1.119766E+05 -1.101897E+05  2.833373E+04 -2.471337E+04 -2.238431E+04
       204   9 -9.196313E+05 -9.912781E+04 -9.252455E+04  2.508985E+04 -1.767003E+03 -2.503957E+04
       204  10 -1.287543E+04  9.513677E+04  8.647530E+04  1.454496E+04 -2.546445E-09  6.927658E-10
       204  11 -4.948442E+04  1.071496E+05  8.102743E+04  1.775967E+04 -5.261024E-09  2.866330E-09
       204  12 -8.970847E+04  1.006709E+05  7.596049E+04  3.239871E+04 -9.633197E-10  2.000045E-09
       204  13 -5.047696E+05 -2.675043E+04 -3.113698E+04  2.877919E+04 -3.958576E-09 -2.593824E-09
       204  14 -5.016205E+05 -2.407278E+03 -1.457641E+04  2.304846E+04 -6.240768E-09 -3.348027E-09
       204  15 -5.047520E+05  7.765678E+02 -8.278135E+03  2.874305E+04 -6.747530E-09  1.623505E-09
       204  16 -9.964415E+05 -1.486544E+05 -1.487662E+05  4.300202E+04  8.859122E-09  1.702468E-10
       204  17 -9.535635E+05 -1.119773E+05 -1.101918E+05  2.833328E+04  2.471573E-09  3.707672E-09
       204  18 -9.196314E+05 -9.912849E+04 -9.252574E+04  2.508982E+04  4.931431E-09  4.621045E-09
       204  19 -1.287539E+04  9.513683E+04  8.647543E+04  1.454493E+04 -4.693784E+03  6.889728E+03
       204  20 -4.948428E+04  1.071501E+05  8.102838E+04  1.775972E+04  2.968622E+03  2.235306E+04
       204  21 -8.970818E+04  1.006716E+05  7.596189E+04  3.239893E+04  1.064493E+04  2.504969E+04
       204  22 -5.047691E+05 -2.675026E+04 -3.113603E+04  2.877931E+04  2.149951E+04  6.921439E+03
       204  23 -5.016201E+05 -2.406690E+03 -1.457511E+04  2.304871E+04  1.384490E+04  2.236859E+04
       204  24 -5.047518E+05  7.772515E+02 -8.276884E+03  2.874317E+04  6.204510E+03  2.504460E+04
       204  25 -9.964391E+05 -1.486537E+05 -1.487619E+05  4.300228E+04  4.767214E+04  6.954365E+03
       204  26 -9.535627E+05 -1.119766E+05 -1.101897E+05  2.833373E+04  2.471337E+04  2.238431E+04
       204  27 -9.196313E+05 -9.912781E+04 -9.252455E+04  2.508985E+04  1.767003E+03  2.503957E+04
       205   1 -1.164127E+05  9.218407E+04  7.228481E+04  2.900305E+04 -6.517570E+03 -2.311061E+04
       205   2 -1.547181E+05  8.380380E+04  6.675201E+04  2.319070E+04 -5.591467E+03 -2.156394E+04
       205   3 -1.933500E+05  7.467866E+04  6.042556E+04  2.952271E+04 -4.667262E+03 -1.930680E+04
       205   4 -5.034583E+05 -9.995935E+02 -6.461551E+03  2.891136E+04 -5.087467E+03 -2.310961E+04
       205   5 -5.032154E+05  1.586733E+01 -3.563773E+03  2.283806E+04 -3.309915E+03 -2.156131E+04
       205   6 -5.034491E+05  1.381692E+02 -2.051830E+03  2.890955E+04 -1.534216E+03 -1.930233E+04
       205   7 -8.903613E+05 -9.419261E+04 -8.521576E+04  2.881968E+04 -3.658238E+03 -2.310862E+04
       205   8 -8.515968E+05 -8.377959E+04 -7.388579E+04  2.248557E+04 -1.029618E+03 -2.155868E+04
       205   9 -8.134565E+05 -7.440826E+04 -6.453412E+04  2.829667E+04  1.597295E+03 -1.929788E+04
       205  10 -1.164128E+05  9.218348E+04  7.228373E+04  2.900293E+04  3.857410E-08  2.239886E-09
       205  11 -1.547183E+05  8.380329E+04  6.675108E+04  2.319061E+04 -3.014022E-09  7.816139E-09
       205  12 -1.933501E+05  7.467825E+04  6.042482E+04  2.952264E+04 -4.626893E-08  1.195354E-08
       205  13 -5.034585E+05 -1.000174E+03 -6.462603E+03  2.891127E+04  3.959644E-09  6.740716E-09
       205  14 -5.032155E+05  1.536529E+01 -3.564667E+03  2.283800E+04  2.461886E-09 -8.931922E-09
       205  15 -5.034492E+05  1.377685E+02 -2.052535E+03  2.890953E+04  1.340555E-09 -6.863268E-10
       205  16 -8.903615E+05 -9.419318E+04 -8.521678E+04  2.881961E+04 -3.220203E-08  7.356809E-10
       205  17 -8.515970E+05 -8.378009E+04 -7.388666E+04  2.248556E+04  2.302199E-09 -4.219783E-10
       205  18 -8.134566E+05 -7.440866E+04 -6.453482E+04  2.829669E+04  5.347481E-08  2.891682E-09
       205  19 -1.164127E+05  9.218407E+04  7.228481E+04  2.900305E+04  6.517570E+03  2.311061E+04
       205  20 -1.547181E+05  8.380380E+04  6.675201E+04  2.319070E+04  5.591467E+03  2.156394E+04
       205  21 -1.933500E+05  7.467866E+04  6.042556E+04  2.952271E+04  4.667262E+03  1.930680E+04
       205  22 -5.034583E+05 -9.995935E+02 -6.461551E+03  2.891136E+04  5.087467E+03  2.310961E+04
       205  23 -5.032154E+05  1.586733E+01 -3.563773E+03  2.283806E+04  3.309915E+03  2.156131E+04
       205  24 -5.034491E+05  1.381692E+02 -2.051830E+03  2.890955E+04  1.534216E+03  1.930233E+04
       205  25 -8.903613E+05 -9.419261E+04 -8.521576E+04  2.881968E+04  3.658238E+03  2.310862E+04
       205  26 -8.515968E+05 -8.377959E+04 -7.388579E+04  2.248557E+04  1.029618E+03  2.155868E+04
       205  27 -8.134565E+05 -7.440826E+04 -6.453412E+04  2.829667E+04 -1.597295E+03  1.929788E+04
       206   1 -2.209779E+05  6.791044E+04  5.515287E+04  2.935037E+04 -4.186049E+03 -1.779776E+04
       206   2 -2.595310E+05  5.866852E+04  4.810072E+04  2.318021E+04 -3.784124E+03 -1.530134E+04
       206   3 -2.981741E+05  4.943582E+04  4.077877E+04  2.923969E+04 -3.382902E+03 -1.276318E+04
       206   4 -5.033619E+05  6.518815E+01 -1.572578E+03  2.892890E+04 -1.216614E+03 -1.779332E+04
       206   5 -5.033091E+05  8.729869E+01 -9.207287E+02  2.281390E+04 -7.648630E+02 -1.529648E+04
       206   6 -5.033559E+05  1.101634E+02 -5.732240E+02  2.892882E+04 -3.137900E+02 -1.275788E+04
       206   7 -7.856699E+05 -6.778498E+04 -5.830206E+04  2.850759E+04  1.751496E+03 -1.778888E+04
       206   8 -7.470305E+05 -5.849759E+04 -4.994517E+04  2.244771E+04  2.253235E+03 -1.529161E+04
       206   9 -7.084974E+05 -4.921810E+04 -4.192735E+04  2.861804E+04  2.754327E+03 -1.275258E+04
       206  10 -2.209780E+05  6.791010E+04  5.515224E+04  2.935031E+04  1.819713E-08  7.543024E-10
       206  11 -2.595311E+05  5.866827E+04  4.810025E+04  2.318017E+04  7.685860E-09 -6.776719E-09
       206  12 -2.981742E+05  4.943564E+04  4.077845E+04  2.923965E+04 -6.772273E-09 -3.391048E-09
       206  13 -5.033620E+05  6.484786E+01 -1.573176E+03  2.892888E+04  4.285569E-09 -6.803553E-09
       206  14 -5.033092E+05  8.704734E+01 -9.211694E+02  2.281389E+04  3.560857E-09 -1.190292E-08
       206  15 -5.033559E+05  1.099886E+02 -5.735300E+02  2.892882E+04 -1.725011E-10 -4.159855E-09
       206  16 -7.856700E+05 -6.778532E+04 -5.830266E+04  2.850762E+04 -1.009161E-08  1.650631E-10
       206  17 -7.470306E+05 -5.849785E+04 -4.994562E+04  2.244774E+04 -3.562981E-09  2.884858E-09
       206  18 -7.084974E+05 -4.921827E+04 -4.192767E+04  2.861807E+04 -1.283075E-09  3.287154E-09
       206  19 -2.209779E+05  6.791044E+04  5.515287E+04  2.935037E+04  4.186049E+03  1.779776E+04
       206  20 -2.595310E+05  5.866852E+04  4.810072E+04  2.318021E+04  3.784124E+03  1.530134E+04
       206  21 -2.981741E+05  4.943582E+04  4.077877E+04  2.923969E+04  3.382902E+03  1.276318E+04
       206  22 -5.033619E+05  6.518815E+01 -1.572578E+03  2.892890E+04  1.216614E+03  1.779332E+04
       206  23 -5.033091E+05  8.729869E+01 -9.207287E+02  2.281390E+04  7.648630E+02  1.529648E+04
       206  24 -5.033559E+05  1.101634E+02 -5.732240E+02  2.892882E+04  3.137900E+02  1.275788E+04
       206  25 -7.856699E+05 -6.778498E+04 -5.830206E+04  2.850759E+04 -1.751496E+03  1.778888E+04
       206  26 -7.470305E+05 -5.849759E+04 -4.994517E+04  2.244771E+04 -2.253235E+03  1.529161E+04
       206  27 -7.084974E+05 -4.921810E+04 -4.192735E+04  2.861804E+04 -2.754327E+03  1.275258E+04
       207   1 -3.259369E+05  4.272187E+04  3.509634E+04  2.920042E+04 -3.283774E+03 -1.127413E+04
       207   2 -3.645909E+05  3.342856E+04  2.751315E+04  2.300672E+04 -3.106462E+03 -8.719326E+03
       207   3 -4.033089E+05  2.417844E+04  1.981185E+04  2.907194E+04 -2.929522E+03 -6.160949E+03
       207   4 -5.033462E+05  1.091085E+02 -4.734590E+02  2.893533E+04 -2.217347E+02 -1.126867E+04
       207   5 -5.033114E+05  9.265087E+01 -3.765197E+02  2.280578E+04 -4.026370E+01 -8.713667E+03
       207   6 -5.033428E+05  1.187342E+02 -4.005989E+02  2.893531E+04  1.408478E+02 -6.155082E+03
       207   7 -6.807254E+05 -4.250559E+04 -3.604482E+04  2.867030E+04  2.839446E+03 -1.126322E+04
       207   8 -6.420136E+05 -3.324444E+04 -2.826714E+04  2.260488E+04  3.025263E+03 -8.708009E+03
       207   9 -6.033672E+05 -2.394159E+04 -2.061353E+04  2.879870E+04  3.210732E+03 -6.149215E+03
       207  10 -3.259370E+05  4.272174E+04  3.509608E+04  2.920039E+04  4.437387E-09 -2.668839E-09
       207  11 -3.645909E+05  3.342848E+04  2.751299E+04  2.300670E+04 -9.856864E-09  1.015285E-10
       207  12 -4.033089E+05  2.417840E+04  1.981176E+04  2.907193E+04 -2.123843E-08  1.376983E-09
       207  13 -5.033462E+05  1.089721E+02 -4.736977E+02  2.893532E+04  8.635857E-12  1.511126E-09
       207  14 -5.033115E+05  9.256935E+01 -3.766623E+02  2.280578E+04 -2.778848E-09 -3.579021E-09
       207  15 -5.033428E+05  1.186935E+02 -4.006701E+02  2.893531E+04 -2.338354E-09  1.045151E-09
       207  16 -6.807255E+05 -4.250573E+04 -3.604507E+04  2.867032E+04 -3.656580E-09 -2.570309E-12
       207  17 -6.420136E+05 -3.324453E+04 -2.826730E+04  2.260490E+04  8.234054E-09  4.809906E-09
       207  18 -6.033672E+05 -2.394163E+04 -2.061362E+04  2.879872E+04  1.239131E-08  4.778192E-09
       207  19 -3.259369E+05  4.272187E+04  3.509634E+04  2.920042E+04  3.283774E+03  1.127413E+04
       207  20 -3.645909E+05  3.342856E+04  2.751315E+04  2.300672E+04  3.106462E+03  8.719326E+03
       207  21 -4.033089E+05  2.417844E+04  1.981185E+04  2.907194E+04  2.929522E+03  6.160949E+03
       207  22 -5.033462E+05  1.091085E+02 -4.734590E+02  2.893533E+04  2.217347E+02  1.126867E+04
       207  23 -5.033114E+05  9.265087E+01 -3.765197E+02  2.280578E+04  4.026370E+01  8.713667E+03
       207  24 -5.033428E+05  1.187342E+02 -4.005989E+02  2.893531E+04 -1.408478E+02  6.155082E+03
       207  25 -6.807254E+05 -4.250559E+04 -3.604482E+04  2.867030E+04 -2.839446E+03  1.126322E+04
       207  26 -6.420136E+05 -3.324444E+04 -2.826714E+04  2.260488E+04 -3.025263E+03  8.708009E+03
       207  27 -6.033672E+05 -2.394159E+04 -2.061353E+04  2.879870E+04 -3.210732E+03  6.149215E+03
       208   1 -4.311289E+05  1.745505E+04  1.396107E+04  2.903024E+04 -2.855177E+03 -4.670586E+03
       208   2 -4.698075E+05  8.155464E+03  6.046010E+03  2.281475E+04 -2.519152E+03 -2.109746E+03
       208   3 -5.085767E+05 -1.105282E+03 -2.093017E+03  2.887086E+04 -2.183237E+03  4.501681E+02
       208   4 -5.033477E+05  1.196157E+02 -4.585992E+02  2.893810E+04  2.159686E+02 -4.664643E+03
       208   5 -5.033011E+05  1.064200E+02 -6.875821E+02  2.280228E+04  5.507549E+02 -2.103759E+03
       208   6 -5.033470E+05  1.322090E+02 -1.139818E+03  2.893808E+04  8.854524E+02  4.562025E+02
       208   7 -5.755615E+05 -1.721614E+04 -1.487850E+04  2.884597E+04  3.286764E+03 -4.658700E+03
       208   8 -5.367936E+05 -7.942688E+03 -7.421197E+03  2.278980E+04  3.620500E+03 -2.097772E+03
       208   9 -4.981172E+05  1.369704E+03 -1.865843E+02  2.900530E+04  3.954167E+03  4.622375E+02
       208  10 -4.311289E+05  1.745503E+04  1.396102E+04  2.903023E+04  6.738331E-09 -8.217419E-10
       208  11 -4.698075E+05  8.155458E+03  6.045990E+03  2.281475E+04 -5.302658E-09 -4.235882E-09
       208  12 -5.085767E+05 -1.105284E+03 -2.093026E+03  2.887086E+04 -9.297641E-09  1.179032E-09
       208  13 -5.033477E+05  1.195923E+02 -4.586402E+02  2.893810E+04 -3.417798E-10  3.852040E-09
       208  14 -5.033011E+05  1.064151E+02 -6.875910E+02  2.280228E+04 -3.168668E-09 -6.505123E-09
       208  15 -5.033470E+05  1.322086E+02 -1.139819E+03  2.893808E+04  5.091413E-09 -1.043610E-09
       208  16 -5.755615E+05 -1.721616E+04 -1.487856E+04  2.884598E+04 -8.668253E-09  1.182273E-09
       208  17 -5.367936E+05 -7.942697E+03 -7.421229E+03  2.278981E+04 -3.812033E-09 -1.584030E-08
       208  18 -4.981172E+05  1.369699E+03 -1.866141E+02  2.900530E+04  1.870384E-08 -1.609020E-09
       208  19 -4.311289E+05  1.745505E+04  1.396107E+04  2.903024E+04  2.855177E+03  4.670586E+03
       208  20 -4.698075E+05  8.155464E+03  6.046010E+03  2.281475E+04  2.519152E+03  2.109746E+03
       208  21 -5.085767E+05 -1.105282E+03 -2.093017E+03  2.887086E+04  2.183237E+03 -4.501681E+02
       208  22 -5.033477E+05  1.196157E+02 -4.585992E+02  2.893810E+04 -2.159686E+02  4.664643E+03
       208  23 -5.033011E+05  1.064200E+02 -6.875821E+02  2.280228E+04 -5.507549E+02  2.103759E+03
       208  24 -5.033470E+05  1.322090E+02 -1.139818E+03  2.893808E+04 -8.854524E+02 -4.562025E+02
       208  25 -5.755615E+05 -1.721614E+04 -1.487850E+04  2.884597E+04 -3.286764E+03  4.658700E+03
       208  26 -5.367936E+05 -7.942688E+03 -7.421197E+03  2.278980E+04 -3.620500E+03  2.097772E+03
       208  27 -4.981172E+05  1.369704E+03 -1.865843E+02  2.900530E+04 -3.954167E+03 -4.622375E+02
       209   1 -5.364354E+05 -7.824695E+03 -8.234326E+03  2.880009E+04 -1.954518E+03  1.942352E+03
       209   2 -5.750248E+05 -1.711267E+04 -1.700068E+04  2.256872E+04 -6.601990E+02  4.495340E+03
       209   3 -6.138607E+05 -2.648565E+04 -2.664634E+04  2.860453E+04  6.342899E+02  7.021661E+03
       209   4 -5.033804E+05  1.403588E+02 -1.486076E+03  2.893701E+04  1.119992E+03  1.948381E+03
       209   5 -5.032606E+05  1.376210E+02 -2.561442E+03  2.280355E+04  2.382405E+03  4.501203E+03
       209   6 -5.033825E+05  5.569129E+01 -4.493647E+03  2.893719E+04  3.645067E+03  7.027363E+03
       209   7 -4.703243E+05  8.105349E+03  5.262151E+03  2.907394E+04  4.194662E+03  1.954412E+03
       209   8 -4.314915E+05  1.738760E+04  1.187757E+04  2.303841E+04  5.425355E+03  4.507067E+03
       209   9 -3.928927E+05  2.659628E+04  1.765846E+04  2.926990E+04  6.656370E+03  7.033068E+03
       209  10 -5.364354E+05 -7.824700E+03 -8.234340E+03  2.880009E+04 -1.338669E-09  3.582810E-09
       209  11 -5.750248E+05 -1.711269E+04 -1.700072E+04  2.256872E+04  5.087309E-09 -1.077637E-09
       209  12 -6.138607E+05 -2.648570E+04 -2.664643E+04  2.860453E+04  1.549001E-11  2.601266E-10
       209  13 -5.033804E+05  1.403544E+02 -1.486086E+03  2.893701E+04  4.308616E-09  3.601519E-09
       209  14 -5.032606E+05  1.375977E+02 -2.561491E+03  2.280355E+04 -7.484868E-09  3.571192E-09
       209  15 -5.033826E+05  5.563471E+01 -4.493765E+03  2.893717E+04  1.153044E-10  1.626793E-09
       209  16 -4.703244E+05  8.105340E+03  5.262110E+03  2.907393E+04  4.148597E-10  6.916683E-09
       209  17 -4.314915E+05  1.738757E+04  1.187747E+04  2.303839E+04  2.201921E-09 -2.741838E-09
       209  18 -3.928928E+05  2.659622E+04  1.765828E+04  2.926986E+04 -4.628311E-09  2.213987E-09
       209  19 -5.364354E+05 -7.824695E+03 -8.234326E+03  2.880009E+04  1.954518E+03 -1.942352E+03
       209  20 -5.750248E+05 -1.711267E+04 -1.700068E+04  2.256872E+04  6.601990E+02 -4.495340E+03
       209  21 -6.138607E+05 -2.648565E+04 -2.664634E+04  2.860453E+04 -6.342899E+02 -7.021661E+03
       209  22 -5.033804E+05  1.403588E+02 -1.486076E+03  2.893701E+04 -1.119992E+03 -1.948381E+03
       209  23 -5.032606E+05  1.376210E+02 -2.561442E+03  2.280355E+04 -2.382405E+03 -4.501203E+03
       209  24 -5.033825E+05  5.569129E+01 -4.493647E+03  2.893719E+04 -3.645067E+03 -7.027363E+03
       209  25 -4.703243E+05  8.105349E+03  5.262151E+03  2.907394E+04 -4.194662E+03 -1.954412E+03
       209  26 -4.314915E+05  1.738760E+04  1.187757E+04  2.303841E+04 -5.425355E+03 -4.507067E+03
       209  27 -3.928927E+05  2.659628E+04  1.765846E+04  2.926990E+04 -6.656370E+03 -7.033068E+03
       210   1 -6.419265E+05 -3.299156E+04 -3.383078E+04  2.807837E+04  1.439061E+03  8.529510E+03
       210   2 -6.798463E+05 -4.256601E+04 -4.602591E+04  2.273744E+04  7.130051E+03  1.090663E+04
       210   3 -7.192467E+05 -5.490214E+04 -6.263209E+04  2.962343E+04  1.282191E+04  1.281357E+04
       210   4 -5.036377E+05  2.744148E+02 -5.896736E+03  2.892676E+04  4.558983E+03  8.535316E+03
       210   5 -5.029491E+05 -1.418811E+01 -1.028195E+04  2.281642E+04  9.687496E+03  1.091114E+04
       210   6 -5.036441E+05 -2.966082E+03 -1.868631E+04  2.893282E+04  1.481722E+04  1.281683E+04
       210   7 -3.653306E+05  3.353921E+04  2.203636E+04  2.977534E+04  7.679587E+03  8.541129E+03
       210   8 -3.260220E+05  4.253569E+04  2.546042E+04  2.289541E+04  1.224566E+04  1.091564E+04
       210   9 -2.879972E+05  4.896707E+04  2.525704E+04  2.824195E+04  1.681322E+04  1.282008E+04
       210  10 -6.419265E+05 -3.299164E+04 -3.383092E+04  2.807836E+04  1.129525E-08 -3.244466E-09
       210  11 -6.798464E+05 -4.256615E+04 -4.602623E+04  2.273738E+04  8.708390E-10  1.183295E-10
       210  12 -7.192469E+05 -5.490236E+04 -6.263271E+04  2.962329E+04 -1.703944E-08 -2.157120E-09
       210  13 -5.036377E+05  2.743310E+02 -5.896912E+03  2.892673E+04 -8.226616E-09 -4.506520E-09
       210  14 -5.029492E+05 -1.434114E+01 -1.028235E+04  2.281634E+04  4.948273E-09  7.587266E-09
       210  15 -5.036444E+05 -2.966317E+03 -1.868703E+04  2.893267E+04  1.693741E-09  6.940149E-09
       210  16 -3.653307E+05  3.353911E+04  2.203611E+04  2.977529E+04 -1.504536E-08 -1.513380E-09
       210  17 -3.260222E+05  4.253552E+04  2.545991E+04  2.289530E+04  1.016996E-09 -1.059698E-08
       210  18 -2.879976E+05  4.896682E+04  2.525620E+04  2.824178E+04  1.466204E-08 -3.285660E-09
       210  19 -6.419265E+05 -3.299156E+04 -3.383078E+04  2.807837E+04 -1.439061E+03 -8.529510E+03
       210  20 -6.798463E+05 -4.256601E+04 -4.602591E+04  2.273744E+04 -7.130051E+03 -1.090663E+04
       210  21 -7.192467E+05 -5.490214E+04 -6.263209E+04  2.962343E+04 -1.282191E+04 -1.281357E+04
       210  22 -5.036377E+05  2.744148E+02 -5.896736E+03  2.892676E+04 -4.558983E+03 -8.535316E+03
       210  23 -5.029491E+05 -1.418811E+01 -1.028195E+04  2.281642E+04 -9.687496E+03 -1.091114E+04
       210  24 -5.036441E+05 -2.966082E+03 -1.868631E+04  2.893282E+04 -1.481722E+04 -1.281683E+04
       210  25 -3.653306E+05  3.353921E+04  2.203636E+04  2.977534E+04 -7.679587E+03 -8.541129E+03
       210  26 -3.260220E+05  4.253569E+04  2.546042E+04  2.289541E+04 -1.224566E+04 -1.091564E+04
       210  27 -2.879972E+05  4.896707E+04  2.525704E+04  2.824195E+04 -1.681322E+04 -1.282008E+04
       211   1 -7.509820E+05 -5.651194E+04 -7.350605E+04  1.918932E+04  1.406363E+04  1.460441E+04
       211   2 -7.796914E+05 -7.516573E+04 -1.018700E+05  3.921035E+04  4.628667E+04  1.375515E+04
       211   3 -8.284251E+05 -1.569673E+05 -1.670219E+05  7.103925E+04  7.852015E+04  4.446809E+03
       211   4 -5.073937E+05  2.192661E+03 -2.394615E+04  2.880940E+04  1.805314E+04  1.461129E+04
       211   5 -4.982782E+05 -6.967863E+03 -4.216191E+04  2.297207E+04  4.014087E+04  1.374295E+04
       211   6 -5.074198E+05 -7.750198E+04 -9.011342E+04  2.894489E+04  6.224172E+04  4.414570E+03
       211   7 -2.637486E+05  6.089390E+04  2.561075E+04  3.843330E+04  2.204418E+04  1.461829E+04
       211   8 -2.167897E+05  6.122589E+04  1.754192E+04  6.726283E+03  3.399232E+04  1.373107E+04
       211   9 -1.863155E+05  1.962761E+03 -1.321032E+04 -1.317137E+04  4.595490E+04  4.384551E+03
       211  10 -7.509823E+05 -5.651222E+04 -7.350683E+04  1.918915E+04  1.499258E-08 -1.622583E-09
       211  11 -7.796937E+05 -7.516650E+04 -1.018744E+05  3.920984E+04  1.517179E-08 -2.090272E-09
       211  12 -8.284317E+05 -1.569690E+05 -1.670335E+05  7.103896E+04 -3.628345E-09  3.849954E-09
       211  13 -5.073941E+05  2.192344E+03 -2.394717E+04  2.880918E+04 -1.425853E-11  8.054998E-09
       211  14 -4.982800E+05 -6.968499E+03 -4.216529E+04  2.297163E+04  5.568635E-09  9.230416E-09
       211  15 -5.074240E+05 -7.750304E+04 -9.012075E+04  2.894467E+04 -9.812003E-09  1.901410E-09
       211  16 -2.637492E+05  6.089354E+04  2.560943E+04  3.843304E+04 -1.568079E-08 -1.353531E-09
       211  17 -2.167909E+05  6.122538E+04  1.753940E+04  6.725907E+03 -1.521638E-08  2.027827E-09
       211  18 -1.863178E+05  1.962173E+03 -1.321433E+04 -1.317153E+04  9.606640E-10 -1.502102E-09
       211  19 -7.509820E+05 -5.651194E+04 -7.350605E+04  1.918932E+04 -1.406363E+04 -1.460441E+04
       211  20 -7.796914E+05 -7.516573E+04 -1.018700E+05  3.921035E+04 -4.628667E+04 -1.375515E+04
       211  21 -8.284251E+05 -1.569673E+05 -1.670219E+05  7.103925E+04 -7.852015E+04 -4.446809E+03
       211  22 -5.073937E+05  2.192661E+03 -2.394615E+04  2.880940E+04 -1.805314E+04 -1.461129E+04
       211  23 -4.982782E+05 -6.967863E+03 -4.216191E+04  2.297207E+04 -4.014087E+04 -1.374295E+04
       211  24 -5.074198E+05 -7.750198E+04 -9.011342E+04  2.894489E+04 -6.224172E+04 -4.414570E+03
       211  25 -2.637486E+05  6.089390E+04  2.561075E+04  3.843330E+04 -2.204418E+04 -1.461829E+04
       211  26 -2.167897E+05  6.122589E+04  1.754192E+04  6.726283E+03 -3.399232E+04 -1.373107E+04
       211  27 -1.863155E+05  1.962761E+03 -1.321032E+04 -1.317137E+04 -4.595490E+04 -4.384551E+03
