    1C
    1UUSER                                                              
    1UDATE              11.october.2022                                 
    1UTIME              18:49:19                                        
    1UHOST                                                              
    1UPGM               CalculiX                                        
    1UVERSION           Version 2.20                             
    1UCOMPILETIME       Sun Jul 31 18:08:37 CEST 2022                    
    1UDIR                                                               
    1UDBN                                                               
    1UMAT    1MESH_MATERIAL                                             
    2C                           409                                     1
 -1         1 0.00000E+00 0.00000E+00 0.00000E+00
 -1         2 1.66667E-02 0.00000E+00 0.00000E+00
 -1         3 3.33333E-02 0.00000E+00 0.00000E+00
 -1         5 6.66667E-02 0.00000E+00 0.00000E+00
 -1         8 0.00000E+00 6.25000E-03 0.00000E+00
 -1         9 1.66667E-02 6.25000E-03 0.00000E+00
 -1        10 3.33333E-02 6.25000E-03 0.00000E+00
 -1        12 6.66667E-02 6.25000E-03 0.00000E+00
 -1        15 0.00000E+00 1.25000E-02 0.00000E+00
 -1        16 1.66667E-02 1.25000E-02 0.00000E+00
 -1        17 3.33333E-02 1.25000E-02 0.00000E+00
 -1        18 5.00000E-02 1.25000E-02 0.00000E+00
 -1        19 6.66667E-02 1.25000E-02 0.00000E+00
 -1        20 8.33333E-02 1.25000E-02 0.00000E+00
 -1        21 1.00000E-01 1.25000E-02 0.00000E+00
 -1        24 3.33333E-02 1.87500E-02 0.00000E+00
 -1        25 5.00000E-02 1.87500E-02 0.00000E+00
 -1        26 6.66667E-02 1.87500E-02 0.00000E+00
 -1        27 8.33333E-02 1.87500E-02 0.00000E+00
 -1        28 1.00000E-01 1.87500E-02 0.00000E+00
 -1        32 5.00000E-02 2.50000E-02 0.00000E+00
 -1        33 6.66667E-02 2.50000E-02 0.00000E+00
 -1        34 8.33333E-02 2.50000E-02 0.00000E+00
 -1        35 1.00000E-01 2.50000E-02 0.00000E+00
 -1        51 0.00000E+00 1.04167E-03 0.00000E+00
 -1        52 0.00000E+00 2.08333E-03 0.00000E+00
 -1        53 0.00000E+00 3.12500E-03 0.00000E+00
 -1        54 0.00000E+00 4.16667E-03 0.00000E+00
 -1        55 0.00000E+00 5.20833E-03 0.00000E+00
 -1        56 1.04167E-03 3.90630E-04 0.00000E+00
 -1        57 2.08333E-03 7.81250E-04 0.00000E+00
 -1        58 3.12500E-03 1.17188E-03 0.00000E+00
 -1        59 4.16667E-03 1.56250E-03 0.00000E+00
 -1        60 5.20833E-03 1.95312E-03 0.00000E+00
 -1        61 6.25000E-03 2.34375E-03 0.00000E+00
 -1        62 7.29167E-03 2.73438E-03 0.00000E+00
 -1        63 8.33333E-03 3.12500E-03 0.00000E+00
 -1        64 9.37500E-03 3.51563E-03 0.00000E+00
 -1        65 1.04167E-02 3.90625E-03 0.00000E+00
 -1        66 1.14583E-02 4.29688E-03 0.00000E+00
 -1        67 1.25000E-02 4.68750E-03 0.00000E+00
 -1        68 1.35417E-02 5.07813E-03 0.00000E+00
 -1        69 1.45833E-02 5.46875E-03 0.00000E+00
 -1        70 1.56250E-02 5.85938E-03 0.00000E+00
 -1        86 1.66667E-02 1.04167E-03 0.00000E+00
 -1        87 1.66667E-02 2.08333E-03 0.00000E+00
 -1        88 1.66667E-02 3.12500E-03 0.00000E+00
 -1        89 1.66667E-02 4.16667E-03 0.00000E+00
 -1        90 1.66667E-02 5.20833E-03 0.00000E+00
 -1       121 3.33333E-02 1.04167E-03 0.00000E+00
 -1       122 3.33333E-02 2.08333E-03 0.00000E+00
 -1       123 3.33333E-02 3.12500E-03 0.00000E+00
 -1       124 3.33333E-02 4.16667E-03 0.00000E+00
 -1       125 3.33333E-02 5.20833E-03 0.00000E+00
 -1       191 6.66667E-02 1.04167E-03 0.00000E+00
 -1       192 6.66667E-02 2.08333E-03 0.00000E+00
 -1       193 6.66667E-02 3.12500E-03 0.00000E+00
 -1       194 6.66667E-02 4.16667E-03 0.00000E+00
 -1       195 6.66667E-02 5.20833E-03 0.00000E+00
 -1       251 1.04167E-03 6.25000E-03 0.00000E+00
 -1       252 2.08333E-03 6.25000E-03 0.00000E+00
 -1       253 3.12500E-03 6.25000E-03 0.00000E+00
 -1       254 4.16667E-03 6.25000E-03 0.00000E+00
 -1       255 5.20833E-03 6.25000E-03 0.00000E+00
 -1       256 6.25000E-03 6.25000E-03 0.00000E+00
 -1       257 7.29167E-03 6.25000E-03 0.00000E+00
 -1       258 8.33333E-03 6.25000E-03 0.00000E+00
 -1       259 9.37500E-03 6.25000E-03 0.00000E+00
 -1       260 1.04167E-02 6.25000E-03 0.00000E+00
 -1       261 1.14583E-02 6.25000E-03 0.00000E+00
 -1       262 1.25000E-02 6.25000E-03 0.00000E+00
 -1       263 1.35417E-02 6.25000E-03 0.00000E+00
 -1       264 1.45833E-02 6.25000E-03 0.00000E+00
 -1       265 1.56250E-02 6.25000E-03 0.00000E+00
 -1       266 0.00000E+00 7.29167E-03 0.00000E+00
 -1       267 0.00000E+00 8.33333E-03 0.00000E+00
 -1       268 0.00000E+00 9.37500E-03 0.00000E+00
 -1       269 0.00000E+00 1.04167E-02 0.00000E+00
 -1       270 0.00000E+00 1.14583E-02 0.00000E+00
 -1       271 1.04167E-03 6.64063E-03 0.00000E+00
 -1       272 2.08333E-03 7.03125E-03 0.00000E+00
 -1       273 3.12500E-03 7.42188E-03 0.00000E+00
 -1       274 4.16667E-03 7.81250E-03 0.00000E+00
 -1       275 5.20833E-03 8.20313E-03 0.00000E+00
 -1       276 6.25000E-03 8.59375E-03 0.00000E+00
 -1       277 7.29167E-03 8.98438E-03 0.00000E+00
 -1       278 8.33333E-03 9.37500E-03 0.00000E+00
 -1       279 9.37500E-03 9.76562E-03 0.00000E+00
 -1       280 1.04167E-02 1.01562E-02 0.00000E+00
 -1       281 1.14583E-02 1.05469E-02 0.00000E+00
 -1       282 1.25000E-02 1.09375E-02 0.00000E+00
 -1       283 1.35417E-02 1.13281E-02 0.00000E+00
 -1       284 1.45833E-02 1.17188E-02 0.00000E+00
 -1       285 1.56250E-02 1.21094E-02 0.00000E+00
 -1       301 1.66667E-02 7.29167E-03 0.00000E+00
 -1       302 1.66667E-02 8.33333E-03 0.00000E+00
 -1       303 1.66667E-02 9.37500E-03 0.00000E+00
 -1       304 1.66667E-02 1.04167E-02 0.00000E+00
 -1       305 1.66667E-02 1.14583E-02 0.00000E+00
 -1       306 1.77083E-02 6.64063E-03 0.00000E+00
 -1       307 1.87500E-02 7.03125E-03 0.00000E+00
 -1       308 1.97917E-02 7.42188E-03 0.00000E+00
 -1       309 2.08333E-02 7.81250E-03 0.00000E+00
 -1       310 2.18750E-02 8.20313E-03 0.00000E+00
 -1       311 2.29167E-02 8.59375E-03 0.00000E+00
 -1       312 2.39583E-02 8.98438E-03 0.00000E+00
 -1       313 2.50000E-02 9.37500E-03 0.00000E+00
 -1       314 2.60417E-02 9.76562E-03 0.00000E+00
 -1       315 2.70833E-02 1.01562E-02 0.00000E+00
 -1       316 2.81250E-02 1.05469E-02 0.00000E+00
 -1       317 2.91667E-02 1.09375E-02 0.00000E+00
 -1       318 3.02083E-02 1.13281E-02 0.00000E+00
 -1       319 3.12500E-02 1.17188E-02 0.00000E+00
 -1       320 3.22917E-02 1.21094E-02 0.00000E+00
 -1       336 3.33333E-02 7.29167E-03 0.00000E+00
 -1       337 3.33333E-02 8.33333E-03 0.00000E+00
 -1       338 3.33333E-02 9.37500E-03 0.00000E+00
 -1       339 3.33333E-02 1.04167E-02 0.00000E+00
 -1       340 3.33333E-02 1.14583E-02 0.00000E+00
 -1       406 6.66667E-02 7.29167E-03 0.00000E+00
 -1       407 6.66667E-02 8.33333E-03 0.00000E+00
 -1       408 6.66667E-02 9.37500E-03 0.00000E+00
 -1       409 6.66667E-02 1.04167E-02 0.00000E+00
 -1       410 6.66667E-02 1.14583E-02 0.00000E+00
 -1       521 1.77083E-02 1.28906E-02 0.00000E+00
 -1       522 1.87500E-02 1.32813E-02 0.00000E+00
 -1       523 1.97917E-02 1.36719E-02 0.00000E+00
 -1       524 2.08333E-02 1.40625E-02 0.00000E+00
 -1       525 2.18750E-02 1.44531E-02 0.00000E+00
 -1       526 2.29167E-02 1.48437E-02 0.00000E+00
 -1       527 2.39583E-02 1.52344E-02 0.00000E+00
 -1       528 2.50000E-02 1.56250E-02 0.00000E+00
 -1       529 2.60417E-02 1.60156E-02 0.00000E+00
 -1       530 2.70833E-02 1.64062E-02 0.00000E+00
 -1       531 2.81250E-02 1.67969E-02 0.00000E+00
 -1       532 2.91667E-02 1.71875E-02 0.00000E+00
 -1       533 3.02083E-02 1.75781E-02 0.00000E+00
 -1       534 3.12500E-02 1.79687E-02 0.00000E+00
 -1       535 3.22917E-02 1.83594E-02 0.00000E+00
 -1       536 3.43750E-02 1.25000E-02 0.00000E+00
 -1       537 3.54167E-02 1.25000E-02 0.00000E+00
 -1       538 3.64583E-02 1.25000E-02 0.00000E+00
 -1       539 3.75000E-02 1.25000E-02 0.00000E+00
 -1       540 3.85417E-02 1.25000E-02 0.00000E+00
 -1       541 3.95833E-02 1.25000E-02 0.00000E+00
 -1       542 4.06250E-02 1.25000E-02 0.00000E+00
 -1       543 4.16667E-02 1.25000E-02 0.00000E+00
 -1       544 4.27083E-02 1.25000E-02 0.00000E+00
 -1       545 4.37500E-02 1.25000E-02 0.00000E+00
 -1       546 4.47917E-02 1.25000E-02 0.00000E+00
 -1       547 4.58333E-02 1.25000E-02 0.00000E+00
 -1       548 4.68750E-02 1.25000E-02 0.00000E+00
 -1       549 4.79167E-02 1.25000E-02 0.00000E+00
 -1       550 4.89583E-02 1.25000E-02 0.00000E+00
 -1       551 3.33333E-02 1.35417E-02 0.00000E+00
 -1       552 3.33333E-02 1.45833E-02 0.00000E+00
 -1       553 3.33333E-02 1.56250E-02 0.00000E+00
 -1       554 3.33333E-02 1.66667E-02 0.00000E+00
 -1       555 3.33333E-02 1.77083E-02 0.00000E+00
 -1       556 3.43750E-02 1.28906E-02 0.00000E+00
 -1       557 3.54167E-02 1.32813E-02 0.00000E+00
 -1       558 3.64583E-02 1.36719E-02 0.00000E+00
 -1       559 3.75000E-02 1.40625E-02 0.00000E+00
 -1       560 3.85417E-02 1.44531E-02 0.00000E+00
 -1       561 3.95833E-02 1.48437E-02 0.00000E+00
 -1       562 4.06250E-02 1.52344E-02 0.00000E+00
 -1       563 4.16667E-02 1.56250E-02 0.00000E+00
 -1       564 4.27083E-02 1.60156E-02 0.00000E+00
 -1       565 4.37500E-02 1.64062E-02 0.00000E+00
 -1       566 4.47917E-02 1.67969E-02 0.00000E+00
 -1       567 4.58333E-02 1.71875E-02 0.00000E+00
 -1       568 4.68750E-02 1.75781E-02 0.00000E+00
 -1       569 4.79167E-02 1.79687E-02 0.00000E+00
 -1       570 4.89583E-02 1.83594E-02 0.00000E+00
 -1       571 5.10417E-02 1.25000E-02 0.00000E+00
 -1       572 5.20833E-02 1.25000E-02 0.00000E+00
 -1       573 5.31250E-02 1.25000E-02 0.00000E+00
 -1       574 5.41667E-02 1.25000E-02 0.00000E+00
 -1       575 5.52083E-02 1.25000E-02 0.00000E+00
 -1       576 5.62500E-02 1.25000E-02 0.00000E+00
 -1       577 5.72917E-02 1.25000E-02 0.00000E+00
 -1       578 5.83333E-02 1.25000E-02 0.00000E+00
 -1       579 5.93750E-02 1.25000E-02 0.00000E+00
 -1       580 6.04167E-02 1.25000E-02 0.00000E+00
 -1       581 6.14583E-02 1.25000E-02 0.00000E+00
 -1       582 6.25000E-02 1.25000E-02 0.00000E+00
 -1       583 6.35417E-02 1.25000E-02 0.00000E+00
 -1       584 6.45833E-02 1.25000E-02 0.00000E+00
 -1       585 6.56250E-02 1.25000E-02 0.00000E+00
 -1       586 5.00000E-02 1.35417E-02 0.00000E+00
 -1       587 5.00000E-02 1.45833E-02 0.00000E+00
 -1       588 5.00000E-02 1.56250E-02 0.00000E+00
 -1       589 5.00000E-02 1.66667E-02 0.00000E+00
 -1       590 5.00000E-02 1.77083E-02 0.00000E+00
 -1       591 5.10417E-02 1.28906E-02 0.00000E+00
 -1       592 5.20833E-02 1.32813E-02 0.00000E+00
 -1       593 5.31250E-02 1.36719E-02 0.00000E+00
 -1       594 5.41667E-02 1.40625E-02 0.00000E+00
 -1       595 5.52083E-02 1.44531E-02 0.00000E+00
 -1       596 5.62500E-02 1.48437E-02 0.00000E+00
 -1       597 5.72917E-02 1.52344E-02 0.00000E+00
 -1       598 5.83333E-02 1.56250E-02 0.00000E+00
 -1       599 5.93750E-02 1.60156E-02 0.00000E+00
 -1       600 6.04167E-02 1.64062E-02 0.00000E+00
 -1       601 6.14583E-02 1.67969E-02 0.00000E+00
 -1       602 6.25000E-02 1.71875E-02 0.00000E+00
 -1       603 6.35417E-02 1.75781E-02 0.00000E+00
 -1       604 6.45833E-02 1.79687E-02 0.00000E+00
 -1       605 6.56250E-02 1.83594E-02 0.00000E+00
 -1       606 6.77083E-02 1.25000E-02 0.00000E+00
 -1       607 6.87500E-02 1.25000E-02 0.00000E+00
 -1       608 6.97917E-02 1.25000E-02 0.00000E+00
 -1       609 7.08333E-02 1.25000E-02 0.00000E+00
 -1       610 7.18750E-02 1.25000E-02 0.00000E+00
 -1       611 7.29167E-02 1.25000E-02 0.00000E+00
 -1       612 7.39583E-02 1.25000E-02 0.00000E+00
 -1       613 7.50000E-02 1.25000E-02 0.00000E+00
 -1       614 7.60417E-02 1.25000E-02 0.00000E+00
 -1       615 7.70833E-02 1.25000E-02 0.00000E+00
 -1       616 7.81250E-02 1.25000E-02 0.00000E+00
 -1       617 7.91667E-02 1.25000E-02 0.00000E+00
 -1       618 8.02083E-02 1.25000E-02 0.00000E+00
 -1       619 8.12500E-02 1.25000E-02 0.00000E+00
 -1       620 8.22917E-02 1.25000E-02 0.00000E+00
 -1       621 6.66667E-02 1.35417E-02 0.00000E+00
 -1       622 6.66667E-02 1.45833E-02 0.00000E+00
 -1       623 6.66667E-02 1.56250E-02 0.00000E+00
 -1       624 6.66667E-02 1.66667E-02 0.00000E+00
 -1       625 6.66667E-02 1.77083E-02 0.00000E+00
 -1       626 6.77083E-02 1.28906E-02 0.00000E+00
 -1       627 6.87500E-02 1.32813E-02 0.00000E+00
 -1       628 6.97917E-02 1.36719E-02 0.00000E+00
 -1       629 7.08333E-02 1.40625E-02 0.00000E+00
 -1       630 7.18750E-02 1.44531E-02 0.00000E+00
 -1       631 7.29167E-02 1.48437E-02 0.00000E+00
 -1       632 7.39583E-02 1.52344E-02 0.00000E+00
 -1       633 7.50000E-02 1.56250E-02 0.00000E+00
 -1       634 7.60417E-02 1.60156E-02 0.00000E+00
 -1       635 7.70833E-02 1.64062E-02 0.00000E+00
 -1       636 7.81250E-02 1.67969E-02 0.00000E+00
 -1       637 7.91667E-02 1.71875E-02 0.00000E+00
 -1       638 8.02083E-02 1.75781E-02 0.00000E+00
 -1       639 8.12500E-02 1.79687E-02 0.00000E+00
 -1       640 8.22917E-02 1.83594E-02 0.00000E+00
 -1       656 8.33333E-02 1.35417E-02 0.00000E+00
 -1       657 8.33333E-02 1.45833E-02 0.00000E+00
 -1       658 8.33333E-02 1.56250E-02 0.00000E+00
 -1       659 8.33333E-02 1.66667E-02 0.00000E+00
 -1       660 8.33333E-02 1.77083E-02 0.00000E+00
 -1       661 8.43750E-02 1.28906E-02 0.00000E+00
 -1       662 8.54167E-02 1.32813E-02 0.00000E+00
 -1       663 8.64583E-02 1.36719E-02 0.00000E+00
 -1       664 8.75000E-02 1.40625E-02 0.00000E+00
 -1       665 8.85417E-02 1.44531E-02 0.00000E+00
 -1       666 8.95833E-02 1.48437E-02 0.00000E+00
 -1       667 9.06250E-02 1.52344E-02 0.00000E+00
 -1       668 9.16667E-02 1.56250E-02 0.00000E+00
 -1       669 9.27083E-02 1.60156E-02 0.00000E+00
 -1       670 9.37500E-02 1.64062E-02 0.00000E+00
 -1       671 9.47917E-02 1.67969E-02 0.00000E+00
 -1       672 9.58333E-02 1.71875E-02 0.00000E+00
 -1       673 9.68750E-02 1.75781E-02 0.00000E+00
 -1       674 9.79167E-02 1.79687E-02 0.00000E+00
 -1       675 9.89583E-02 1.83594E-02 0.00000E+00
 -1       676 1.00000E-01 1.35417E-02 0.00000E+00
 -1       677 1.00000E-01 1.45833E-02 0.00000E+00
 -1       678 1.00000E-01 1.56250E-02 0.00000E+00
 -1       679 1.00000E-01 1.66667E-02 0.00000E+00
 -1       680 1.00000E-01 1.77083E-02 0.00000E+00
 -1       771 3.43750E-02 1.91406E-02 0.00000E+00
 -1       772 3.54167E-02 1.95312E-02 0.00000E+00
 -1       773 3.64583E-02 1.99219E-02 0.00000E+00
 -1       774 3.75000E-02 2.03125E-02 0.00000E+00
 -1       775 3.85417E-02 2.07031E-02 0.00000E+00
 -1       776 3.95833E-02 2.10938E-02 0.00000E+00
 -1       777 4.06250E-02 2.14844E-02 0.00000E+00
 -1       778 4.16667E-02 2.18750E-02 0.00000E+00
 -1       779 4.27083E-02 2.22656E-02 0.00000E+00
 -1       780 4.37500E-02 2.26563E-02 0.00000E+00
 -1       781 4.47917E-02 2.30469E-02 0.00000E+00
 -1       782 4.58333E-02 2.34375E-02 0.00000E+00
 -1       783 4.68750E-02 2.38281E-02 0.00000E+00
 -1       784 4.79167E-02 2.42187E-02 0.00000E+00
 -1       785 4.89583E-02 2.46094E-02 0.00000E+00
 -1       786 5.10417E-02 1.87500E-02 0.00000E+00
 -1       787 5.20833E-02 1.87500E-02 0.00000E+00
 -1       788 5.31250E-02 1.87500E-02 0.00000E+00
 -1       789 5.41667E-02 1.87500E-02 0.00000E+00
 -1       790 5.52083E-02 1.87500E-02 0.00000E+00
 -1       791 5.62500E-02 1.87500E-02 0.00000E+00
 -1       792 5.72917E-02 1.87500E-02 0.00000E+00
 -1       793 5.83333E-02 1.87500E-02 0.00000E+00
 -1       794 5.93750E-02 1.87500E-02 0.00000E+00
 -1       795 6.04167E-02 1.87500E-02 0.00000E+00
 -1       796 6.14583E-02 1.87500E-02 0.00000E+00
 -1       797 6.25000E-02 1.87500E-02 0.00000E+00
 -1       798 6.35417E-02 1.87500E-02 0.00000E+00
 -1       799 6.45833E-02 1.87500E-02 0.00000E+00
 -1       800 6.56250E-02 1.87500E-02 0.00000E+00
 -1       801 5.00000E-02 1.97917E-02 0.00000E+00
 -1       802 5.00000E-02 2.08333E-02 0.00000E+00
 -1       803 5.00000E-02 2.18750E-02 0.00000E+00
 -1       804 5.00000E-02 2.29167E-02 0.00000E+00
 -1       805 5.00000E-02 2.39583E-02 0.00000E+00
 -1       806 5.10417E-02 1.91406E-02 0.00000E+00
 -1       807 5.20833E-02 1.95312E-02 0.00000E+00
 -1       808 5.31250E-02 1.99219E-02 0.00000E+00
 -1       809 5.41667E-02 2.03125E-02 0.00000E+00
 -1       810 5.52083E-02 2.07031E-02 0.00000E+00
 -1       811 5.62500E-02 2.10938E-02 0.00000E+00
 -1       812 5.72917E-02 2.14844E-02 0.00000E+00
 -1       813 5.83333E-02 2.18750E-02 0.00000E+00
 -1       814 5.93750E-02 2.22656E-02 0.00000E+00
 -1       815 6.04167E-02 2.26563E-02 0.00000E+00
 -1       816 6.14583E-02 2.30469E-02 0.00000E+00
 -1       817 6.25000E-02 2.34375E-02 0.00000E+00
 -1       818 6.35417E-02 2.38281E-02 0.00000E+00
 -1       819 6.45833E-02 2.42187E-02 0.00000E+00
 -1       820 6.56250E-02 2.46094E-02 0.00000E+00
 -1       821 6.77083E-02 1.87500E-02 0.00000E+00
 -1       822 6.87500E-02 1.87500E-02 0.00000E+00
 -1       823 6.97917E-02 1.87500E-02 0.00000E+00
 -1       824 7.08333E-02 1.87500E-02 0.00000E+00
 -1       825 7.18750E-02 1.87500E-02 0.00000E+00
 -1       826 7.29167E-02 1.87500E-02 0.00000E+00
 -1       827 7.39583E-02 1.87500E-02 0.00000E+00
 -1       828 7.50000E-02 1.87500E-02 0.00000E+00
 -1       829 7.60417E-02 1.87500E-02 0.00000E+00
 -1       830 7.70833E-02 1.87500E-02 0.00000E+00
 -1       831 7.81250E-02 1.87500E-02 0.00000E+00
 -1       832 7.91667E-02 1.87500E-02 0.00000E+00
 -1       833 8.02083E-02 1.87500E-02 0.00000E+00
 -1       834 8.12500E-02 1.87500E-02 0.00000E+00
 -1       835 8.22917E-02 1.87500E-02 0.00000E+00
 -1       836 6.66667E-02 1.97917E-02 0.00000E+00
 -1       837 6.66667E-02 2.08333E-02 0.00000E+00
 -1       838 6.66667E-02 2.18750E-02 0.00000E+00
 -1       839 6.66667E-02 2.29167E-02 0.00000E+00
 -1       840 6.66667E-02 2.39583E-02 0.00000E+00
 -1       856 8.43750E-02 1.87500E-02 0.00000E+00
 -1       857 8.54167E-02 1.87500E-02 0.00000E+00
 -1       858 8.64583E-02 1.87500E-02 0.00000E+00
 -1       859 8.75000E-02 1.87500E-02 0.00000E+00
 -1       860 8.85417E-02 1.87500E-02 0.00000E+00
 -1       861 8.95833E-02 1.87500E-02 0.00000E+00
 -1       862 9.06250E-02 1.87500E-02 0.00000E+00
 -1       863 9.16667E-02 1.87500E-02 0.00000E+00
 -1       864 9.27083E-02 1.87500E-02 0.00000E+00
 -1       865 9.37500E-02 1.87500E-02 0.00000E+00
 -1       866 9.47917E-02 1.87500E-02 0.00000E+00
 -1       867 9.58333E-02 1.87500E-02 0.00000E+00
 -1       868 9.68750E-02 1.87500E-02 0.00000E+00
 -1       869 9.79167E-02 1.87500E-02 0.00000E+00
 -1       870 9.89583E-02 1.87500E-02 0.00000E+00
 -1       871 8.33333E-02 1.97917E-02 0.00000E+00
 -1       872 8.33333E-02 2.08333E-02 0.00000E+00
 -1       873 8.33333E-02 2.18750E-02 0.00000E+00
 -1       874 8.33333E-02 2.29167E-02 0.00000E+00
 -1       875 8.33333E-02 2.39583E-02 0.00000E+00
 -1       876 8.43750E-02 1.91406E-02 0.00000E+00
 -1       877 8.54167E-02 1.95312E-02 0.00000E+00
 -1       878 8.64583E-02 1.99219E-02 0.00000E+00
 -1       879 8.75000E-02 2.03125E-02 0.00000E+00
 -1       880 8.85417E-02 2.07031E-02 0.00000E+00
 -1       881 8.95833E-02 2.10938E-02 0.00000E+00
 -1       882 9.06250E-02 2.14844E-02 0.00000E+00
 -1       883 9.16667E-02 2.18750E-02 0.00000E+00
 -1       884 9.27083E-02 2.22656E-02 0.00000E+00
 -1       885 9.37500E-02 2.26563E-02 0.00000E+00
 -1       886 9.47917E-02 2.30469E-02 0.00000E+00
 -1       887 9.58333E-02 2.34375E-02 0.00000E+00
 -1       888 9.68750E-02 2.38281E-02 0.00000E+00
 -1       889 9.79167E-02 2.42187E-02 0.00000E+00
 -1       890 9.89583E-02 2.46094E-02 0.00000E+00
 -1       891 1.00000E-01 1.97917E-02 0.00000E+00
 -1       892 1.00000E-01 2.08333E-02 0.00000E+00
 -1       893 1.00000E-01 2.18750E-02 0.00000E+00
 -1       894 1.00000E-01 2.29167E-02 0.00000E+00
 -1       895 1.00000E-01 2.39583E-02 0.00000E+00
 -1       956 6.77083E-02 2.50000E-02 0.00000E+00
 -1       957 6.87500E-02 2.50000E-02 0.00000E+00
 -1       958 6.97917E-02 2.50000E-02 0.00000E+00
 -1       959 7.08333E-02 2.50000E-02 0.00000E+00
 -1       960 7.18750E-02 2.50000E-02 0.00000E+00
 -1       961 7.29167E-02 2.50000E-02 0.00000E+00
 -1       962 7.39583E-02 2.50000E-02 0.00000E+00
 -1       963 7.50000E-02 2.50000E-02 0.00000E+00
 -1       964 7.60417E-02 2.50000E-02 0.00000E+00
 -1       965 7.70833E-02 2.50000E-02 0.00000E+00
 -1       966 7.81250E-02 2.50000E-02 0.00000E+00
 -1       967 7.91667E-02 2.50000E-02 0.00000E+00
 -1       968 8.02083E-02 2.50000E-02 0.00000E+00
 -1       969 8.12500E-02 2.50000E-02 0.00000E+00
 -1       970 8.22917E-02 2.50000E-02 0.00000E+00
 -1       971 8.43750E-02 2.50000E-02 0.00000E+00
 -1       972 8.54167E-02 2.50000E-02 0.00000E+00
 -1       973 8.64583E-02 2.50000E-02 0.00000E+00
 -1       974 8.75000E-02 2.50000E-02 0.00000E+00
 -1       975 8.85417E-02 2.50000E-02 0.00000E+00
 -1       976 8.95833E-02 2.50000E-02 0.00000E+00
 -1       977 9.06250E-02 2.50000E-02 0.00000E+00
 -1       978 9.16667E-02 2.50000E-02 0.00000E+00
 -1       979 9.27083E-02 2.50000E-02 0.00000E+00
 -1       980 9.37500E-02 2.50000E-02 0.00000E+00
 -1       981 9.47917E-02 2.50000E-02 0.00000E+00
 -1       982 9.58333E-02 2.50000E-02 0.00000E+00
 -1       983 9.68750E-02 2.50000E-02 0.00000E+00
 -1       984 9.79167E-02 2.50000E-02 0.00000E+00
 -1       985 9.89583E-02 2.50000E-02 0.00000E+00
 -3
    3C                           211                                     1
 -1         1   12    0    1
 -2         1        52        51
 -1         2   12    0    1
 -2        52        54        53
 -1         3   12    0    1
 -2        54         8        55
 -1         4   12    0    1
 -2         1        57        56
 -1         5   12    0    1
 -2        57        59        58
 -1         6   12    0    1
 -2        59        61        60
 -1         7   12    0    1
 -2        61        63        62
 -1         8   12    0    1
 -2        63        65        64
 -1         9   12    0    1
 -2        65        67        66
 -1        10   12    0    1
 -2        67        69        68
 -1        11   12    0    1
 -2        69         9        70
 -1        12   12    0    1
 -2         2        87        86
 -1        13   12    0    1
 -2        87        89        88
 -1        14   12    0    1
 -2        89         9        90
 -1        15   12    0    1
 -2         3       122       121
 -1        16   12    0    1
 -2       122       124       123
 -1        17   12    0    1
 -2       124        10       125
 -1        18   12    0    1
 -2         5       192       191
 -1        19   12    0    1
 -2       192       194       193
 -1        20   12    0    1
 -2       194        12       195
 -1        21   12    0    1
 -2         8       252       251
 -1        22   12    0    1
 -2       252       254       253
 -1        23   12    0    1
 -2       254       256       255
 -1        24   12    0    1
 -2       256       258       257
 -1        25   12    0    1
 -2       258       260       259
 -1        26   12    0    1
 -2       260       262       261
 -1        27   12    0    1
 -2       262       264       263
 -1        28   12    0    1
 -2       264         9       265
 -1        29   12    0    1
 -2         8       267       266
 -1        30   12    0    1
 -2       267       269       268
 -1        31   12    0    1
 -2       269        15       270
 -1        32   12    0    1
 -2         8       272       271
 -1        33   12    0    1
 -2       272       274       273
 -1        34   12    0    1
 -2       274       276       275
 -1        35   12    0    1
 -2       276       278       277
 -1        36   12    0    1
 -2       278       280       279
 -1        37   12    0    1
 -2       280       282       281
 -1        38   12    0    1
 -2       282       284       283
 -1        39   12    0    1
 -2       284        16       285
 -1        40   12    0    1
 -2         9       302       301
 -1        41   12    0    1
 -2       302       304       303
 -1        42   12    0    1
 -2       304        16       305
 -1        43   12    0    1
 -2         9       307       306
 -1        44   12    0    1
 -2       307       309       308
 -1        45   12    0    1
 -2       309       311       310
 -1        46   12    0    1
 -2       311       313       312
 -1        47   12    0    1
 -2       313       315       314
 -1        48   12    0    1
 -2       315       317       316
 -1        49   12    0    1
 -2       317       319       318
 -1        50   12    0    1
 -2       319        17       320
 -1        51   12    0    1
 -2        10       337       336
 -1        52   12    0    1
 -2       337       339       338
 -1        53   12    0    1
 -2       339        17       340
 -1        54   12    0    1
 -2        12       407       406
 -1        55   12    0    1
 -2       407       409       408
 -1        56   12    0    1
 -2       409        19       410
 -1        57   12    0    1
 -2        16       522       521
 -1        58   12    0    1
 -2       522       524       523
 -1        59   12    0    1
 -2       524       526       525
 -1        60   12    0    1
 -2       526       528       527
 -1        61   12    0    1
 -2       528       530       529
 -1        62   12    0    1
 -2       530       532       531
 -1        63   12    0    1
 -2       532       534       533
 -1        64   12    0    1
 -2       534        24       535
 -1        65   12    0    1
 -2        17       537       536
 -1        66   12    0    1
 -2       537       539       538
 -1        67   12    0    1
 -2       539       541       540
 -1        68   12    0    1
 -2       541       543       542
 -1        69   12    0    1
 -2       543       545       544
 -1        70   12    0    1
 -2       545       547       546
 -1        71   12    0    1
 -2       547       549       548
 -1        72   12    0    1
 -2       549        18       550
 -1        73   12    0    1
 -2        17       552       551
 -1        74   12    0    1
 -2       552       554       553
 -1        75   12    0    1
 -2       554        24       555
 -1        76   12    0    1
 -2        17       557       556
 -1        77   12    0    1
 -2       557       559       558
 -1        78   12    0    1
 -2       559       561       560
 -1        79   12    0    1
 -2       561       563       562
 -1        80   12    0    1
 -2       563       565       564
 -1        81   12    0    1
 -2       565       567       566
 -1        82   12    0    1
 -2       567       569       568
 -1        83   12    0    1
 -2       569        25       570
 -1        84   12    0    1
 -2        18       572       571
 -1        85   12    0    1
 -2       572       574       573
 -1        86   12    0    1
 -2       574       576       575
 -1        87   12    0    1
 -2       576       578       577
 -1        88   12    0    1
 -2       578       580       579
 -1        89   12    0    1
 -2       580       582       581
 -1        90   12    0    1
 -2       582       584       583
 -1        91   12    0    1
 -2       584        19       585
 -1        92   12    0    1
 -2        18       587       586
 -1        93   12    0    1
 -2       587       589       588
 -1        94   12    0    1
 -2       589        25       590
 -1        95   12    0    1
 -2        18       592       591
 -1        96   12    0    1
 -2       592       594       593
 -1        97   12    0    1
 -2       594       596       595
 -1        98   12    0    1
 -2       596       598       597
 -1        99   12    0    1
 -2       598       600       599
 -1       100   12    0    1
 -2       600       602       601
 -1       101   12    0    1
 -2       602       604       603
 -1       102   12    0    1
 -2       604        26       605
 -1       103   12    0    1
 -2        19       607       606
 -1       104   12    0    1
 -2       607       609       608
 -1       105   12    0    1
 -2       609       611       610
 -1       106   12    0    1
 -2       611       613       612
 -1       107   12    0    1
 -2       613       615       614
 -1       108   12    0    1
 -2       615       617       616
 -1       109   12    0    1
 -2       617       619       618
 -1       110   12    0    1
 -2       619        20       620
 -1       111   12    0    1
 -2        19       622       621
 -1       112   12    0    1
 -2       622       624       623
 -1       113   12    0    1
 -2       624        26       625
 -1       114   12    0    1
 -2        19       627       626
 -1       115   12    0    1
 -2       627       629       628
 -1       116   12    0    1
 -2       629       631       630
 -1       117   12    0    1
 -2       631       633       632
 -1       118   12    0    1
 -2       633       635       634
 -1       119   12    0    1
 -2       635       637       636
 -1       120   12    0    1
 -2       637       639       638
 -1       121   12    0    1
 -2       639        27       640
 -1       122   12    0    1
 -2        20       657       656
 -1       123   12    0    1
 -2       657       659       658
 -1       124   12    0    1
 -2       659        27       660
 -1       125   12    0    1
 -2        20       662       661
 -1       126   12    0    1
 -2       662       664       663
 -1       127   12    0    1
 -2       664       666       665
 -1       128   12    0    1
 -2       666       668       667
 -1       129   12    0    1
 -2       668       670       669
 -1       130   12    0    1
 -2       670       672       671
 -1       131   12    0    1
 -2       672       674       673
 -1       132   12    0    1
 -2       674        28       675
 -1       133   12    0    1
 -2        21       677       676
 -1       134   12    0    1
 -2       677       679       678
 -1       135   12    0    1
 -2       679        28       680
 -1       136   12    0    1
 -2        24       772       771
 -1       137   12    0    1
 -2       772       774       773
 -1       138   12    0    1
 -2       774       776       775
 -1       139   12    0    1
 -2       776       778       777
 -1       140   12    0    1
 -2       778       780       779
 -1       141   12    0    1
 -2       780       782       781
 -1       142   12    0    1
 -2       782       784       783
 -1       143   12    0    1
 -2       784        32       785
 -1       144   12    0    1
 -2        25       787       786
 -1       145   12    0    1
 -2       787       789       788
 -1       146   12    0    1
 -2       789       791       790
 -1       147   12    0    1
 -2       791       793       792
 -1       148   12    0    1
 -2       793       795       794
 -1       149   12    0    1
 -2       795       797       796
 -1       150   12    0    1
 -2       797       799       798
 -1       151   12    0    1
 -2       799        26       800
 -1       152   12    0    1
 -2        25       802       801
 -1       153   12    0    1
 -2       802       804       803
 -1       154   12    0    1
 -2       804        32       805
 -1       155   12    0    1
 -2        25       807       806
 -1       156   12    0    1
 -2       807       809       808
 -1       157   12    0    1
 -2       809       811       810
 -1       158   12    0    1
 -2       811       813       812
 -1       159   12    0    1
 -2       813       815       814
 -1       160   12    0    1
 -2       815       817       816
 -1       161   12    0    1
 -2       817       819       818
 -1       162   12    0    1
 -2       819        33       820
 -1       163   12    0    1
 -2        26       822       821
 -1       164   12    0    1
 -2       822       824       823
 -1       165   12    0    1
 -2       824       826       825
 -1       166   12    0    1
 -2       826       828       827
 -1       167   12    0    1
 -2       828       830       829
 -1       168   12    0    1
 -2       830       832       831
 -1       169   12    0    1
 -2       832       834       833
 -1       170   12    0    1
 -2       834        27       835
 -1       171   12    0    1
 -2        26       837       836
 -1       172   12    0    1
 -2       837       839       838
 -1       173   12    0    1
 -2       839        33       840
 -1       174   12    0    1
 -2        27       857       856
 -1       175   12    0    1
 -2       857       859       858
 -1       176   12    0    1
 -2       859       861       860
 -1       177   12    0    1
 -2       861       863       862
 -1       178   12    0    1
 -2       863       865       864
 -1       179   12    0    1
 -2       865       867       866
 -1       180   12    0    1
 -2       867       869       868
 -1       181   12    0    1
 -2       869        28       870
 -1       182   12    0    1
 -2        27       872       871
 -1       183   12    0    1
 -2       872       874       873
 -1       184   12    0    1
 -2       874        34       875
 -1       185   12    0    1
 -2        27       877       876
 -1       186   12    0    1
 -2       877       879       878
 -1       187   12    0    1
 -2       879       881       880
 -1       188   12    0    1
 -2       881       883       882
 -1       189   12    0    1
 -2       883       885       884
 -1       190   12    0    1
 -2       885       887       886
 -1       191   12    0    1
 -2       887       889       888
 -1       192   12    0    1
 -2       889        35       890
 -1       193   12    0    1
 -2        28       892       891
 -1       194   12    0    1
 -2       892       894       893
 -1       195   12    0    1
 -2       894        35       895
 -1       196   12    0    1
 -2        33       957       956
 -1       197   12    0    1
 -2       957       959       958
 -1       198   12    0    1
 -2       959       961       960
 -1       199   12    0    1
 -2       961       963       962
 -1       200   12    0    1
 -2       963       965       964
 -1       201   12    0    1
 -2       965       967       966
 -1       202   12    0    1
 -2       967       969       968
 -1       203   12    0    1
 -2       969        34       970
 -1       204   12    0    1
 -2        34       972       971
 -1       205   12    0    1
 -2       972       974       973
 -1       206   12    0    1
 -2       974       976       975
 -1       207   12    0    1
 -2       976       978       977
 -1       208   12    0    1
 -2       978       980       979
 -1       209   12    0    1
 -2       980       982       981
 -1       210   12    0    1
 -2       982       984       983
 -1       211   12    0    1
 -2       984        35       985
 -3
    1PSTEP                         1           1           1          
  100CL  101 1.000000000         409                     0    1           1
 -4  DISP        4    1
 -5  D1          1    2    1    0
 -5  D2          1    2    2    0
 -5  D3          1    2    3    0
 -5  ALL         1    2    0    0    1ALL
 -1         1 2.85338E-04 0.00000E+00 0.00000E+00
 -1         2 2.61821E-04 9.05833E-30 0.00000E+00
 -1         3 2.61620E-04 3.70705E-26 1.32349E-23
 -1         5 1.76310E-04-6.08940E-26 0.00000E+00
 -1         8 2.34838E-04-2.01569E-06 0.00000E+00
 -1         9 2.37933E-04 2.62402E-06 0.00000E+00
 -1        10 2.40262E-04-3.63709E-06 1.32349E-23
 -1        12 1.75456E-04 1.10306E-06 3.30872E-24
 -1        15 1.75063E-04-2.35121E-06-8.27181E-25
 -1        16 1.79427E-04 2.42455E-06 0.00000E+00
 -1        17 1.74175E-04-7.85823E-06 0.00000E+00
 -1        18 1.70755E-04 3.88705E-06 0.00000E+00
 -1        19 1.72892E-04 2.19996E-06 0.00000E+00
 -1        20 1.73193E-04 2.87348E-05 0.00000E+00
 -1        21 1.71677E-04 5.48902E-05-3.30872E-24
 -1        24 4.04291E-05-1.14072E-05 0.00000E+00
 -1        25 1.68369E-04 4.14859E-06 0.00000E+00
 -1        26 1.70329E-04 3.05534E-06 0.00000E+00
 -1        27 1.67232E-04 2.46745E-05 0.00000E+00
 -1        28 1.66135E-04 5.39895E-05 0.00000E+00
 -1        32 0.00000E+00 0.00000E+00 0.00000E+00
 -1        33 1.65308E-04 4.12799E-06 0.00000E+00
 -1        34 1.62340E-04 2.46218E-05 0.00000E+00
 -1        35 1.59516E-04 5.34922E-05 0.00000E+00
 -1        51 2.82029E-04-3.21206E-07 0.00000E+00
 -1        52 2.75929E-04-6.37556E-07 0.00000E+00
 -1        53 2.67589E-04-9.62021E-07 0.00000E+00
 -1        54 2.57578E-04-1.29802E-06 0.00000E+00
 -1        55 2.46470E-04-1.64583E-06 4.29100E-24
 -1        56 2.83214E-04-1.78880E-06 5.29396E-23
 -1        57 2.81602E-04-5.20598E-06 0.00000E+00
 -1        58 2.80442E-04-9.82462E-06 0.00000E+00
 -1        59 2.79543E-04-1.51904E-05 2.64698E-23
 -1        60 2.78720E-04-2.07641E-05 0.00000E+00
 -1        61 2.77770E-04-2.60009E-05 0.00000E+00
 -1        62 2.76504E-04-3.03882E-05-1.05879E-22
 -1        63 2.74749E-04-3.34608E-05 0.00000E+00
 -1        64 2.72377E-04-3.48830E-05 0.00000E+00
 -1        65 2.69293E-04-3.44096E-05 0.00000E+00
 -1        66 2.65472E-04-3.19818E-05 1.05879E-22
 -1        67 2.60929E-04-2.76467E-05 2.64698E-23
 -1        68 2.55748E-04-2.16397E-05-5.29396E-23
 -1        69 2.50064E-04-1.42816E-05 0.00000E+00
 -1        70 2.44034E-04-6.03563E-06 0.00000E+00
 -1        86 2.61291E-04 4.61018E-07-1.32349E-23
 -1        87 2.59692E-04 9.19545E-07 0.00000E+00
 -1        88 2.56848E-04 1.37514E-06 0.00000E+00
 -1        89 2.52561E-04 1.81700E-06 3.30872E-24
 -1        90 2.46408E-04 2.25227E-06 0.00000E+00
 -1       121 2.61021E-04-5.98112E-07 0.00000E+00
 -1       122 2.59224E-04-1.19761E-06 0.00000E+00
 -1       123 2.56236E-04-1.79987E-06 0.00000E+00
 -1       124 2.52069E-04-2.40629E-06 0.00000E+00
 -1       125 2.46737E-04-3.01799E-06 0.00000E+00
 -1       191 1.76286E-04 1.83862E-07 0.00000E+00
 -1       192 1.76215E-04 3.67719E-07 3.30872E-24
 -1       193 1.76097E-04 5.51573E-07 0.00000E+00
 -1       194 1.75931E-04 7.35418E-07-3.30872E-24
 -1       195 1.75717E-04 9.19247E-07-6.61744E-24
 -1       251 2.34972E-04 6.19262E-06 6.61744E-24
 -1       252 2.35163E-04 1.09942E-05 2.06795E-25
 -1       253 2.35362E-04 1.30442E-05 3.30872E-24
 -1       254 2.35569E-04 1.29743E-05-1.65436E-24
 -1       255 2.35775E-04 1.12721E-05 6.61744E-24
 -1       256 2.35980E-04 8.41164E-06-3.30872E-24
 -1       257 2.36183E-04 4.78767E-06-6.61744E-24
 -1       258 2.36385E-04 7.88604E-07-3.30872E-24
 -1       259 2.36587E-04-3.22303E-06-6.61744E-24
 -1       260 2.36789E-04-6.88471E-06-3.30872E-24
 -1       261 2.36994E-04-9.80981E-06 0.00000E+00
 -1       262 2.37200E-04-1.16058E-05 0.00000E+00
 -1       263 2.37407E-04-1.18026E-05 0.00000E+00
 -1       264 2.37606E-04-9.91697E-06 0.00000E+00
 -1       265 2.37798E-04-5.32404E-06-6.61744E-24
 -1       266 2.24876E-04-2.09643E-06 0.00000E+00
 -1       267 2.14914E-04-2.14933E-06-3.30872E-24
 -1       268 2.04951E-04-2.20397E-06-3.30872E-24
 -1       269 1.94988E-04-2.25341E-06 8.27181E-25
 -1       270 1.85026E-04-2.30272E-06 0.00000E+00
 -1       271 2.28744E-04 5.48648E-06 5.29396E-23
 -1       272 2.23556E-04 1.03349E-05 0.00000E+00
 -1       273 2.19300E-04 1.27450E-05-1.05879E-22
 -1       274 2.15850E-04 1.29745E-05 0.00000E+00
 -1       275 2.13089E-04 1.13682E-05 0.00000E+00
 -1       276 2.10860E-04 8.32919E-06 0.00000E+00
 -1       277 2.08995E-04 4.31229E-06-1.05879E-22
 -1       278 2.07312E-04-1.94525E-07 0.00000E+00
 -1       279 2.05623E-04-4.68595E-06 1.05879E-22
 -1       280 2.03741E-04-8.65706E-06 5.29396E-23
 -1       281 2.01484E-04-1.16216E-05 0.00000E+00
 -1       282 1.98684E-04-1.31279E-05-5.29396E-23
 -1       283 1.95186E-04-1.27761E-05 1.05879E-22
 -1       284 1.90870E-04-1.02272E-05 0.00000E+00
 -1       285 1.85619E-04-5.22647E-06 0.00000E+00
 -1       301 2.28310E-04 2.57916E-06 1.32349E-23
 -1       302 2.18684E-04 2.56546E-06 0.00000E+00
 -1       303 2.09019E-04 2.55241E-06 0.00000E+00
 -1       304 1.99278E-04 2.53527E-06 6.61744E-24
 -1       305 1.89426E-04 2.51180E-06 0.00000E+00
 -1       306 2.29939E-04 1.30391E-05-5.29396E-23
 -1       307 2.20583E-04 2.65922E-05 0.00000E+00
 -1       308 2.11451E-04 3.95926E-05 0.00000E+00
 -1       309 2.03946E-04 4.83413E-05 0.00000E+00
 -1       310 1.98949E-04 5.05237E-05 0.00000E+00
 -1       311 1.97017E-04 4.45069E-05-5.29396E-23
 -1       312 1.97714E-04 3.13146E-05-1.05879E-22
 -1       313 2.00342E-04 1.27455E-05-5.29396E-23
 -1       314 2.03618E-04-7.64234E-06 0.00000E+00
 -1       315 2.06205E-04-2.60907E-05 0.00000E+00
 -1       316 2.06971E-04-3.94791E-05 0.00000E+00
 -1       317 2.04950E-04-4.52388E-05 0.00000E+00
 -1       318 2.00042E-04-4.32853E-05-1.05879E-22
 -1       319 1.92490E-04-3.43482E-05-5.29396E-23
 -1       320 1.83382E-04-2.14242E-05 5.29396E-23
 -1       336 2.32525E-04-4.31021E-06 0.00000E+00
 -1       337 2.23415E-04-4.99525E-06 0.00000E+00
 -1       338 2.12973E-04-5.69255E-06 1.32349E-23
 -1       339 2.01249E-04-6.40242E-06 6.61744E-24
 -1       340 1.88295E-04-7.12689E-06 0.00000E+00
 -1       406 1.75147E-04 1.28683E-06 0.00000E+00
 -1       407 1.74791E-04 1.47053E-06 3.30872E-24
 -1       408 1.74387E-04 1.65410E-06 6.61744E-24
 -1       409 1.73936E-04 1.83732E-06 0.00000E+00
 -1       410 1.73437E-04 2.01983E-06-6.61744E-24
 -1       521 1.62085E-04 2.93913E-05-1.05879E-22
 -1       522 1.30973E-04 8.82472E-05 0.00000E+00
 -1       523 9.62394E-05 1.55310E-04-2.11758E-22
 -1       524 6.89048E-05 2.05597E-04 1.05879E-22
 -1       525 5.59928E-05 2.20698E-04 0.00000E+00
 -1       526 6.08350E-05 1.87479E-04 1.05879E-22
 -1       527 7.92138E-05 1.12240E-04 2.11758E-22
 -1       528 1.05672E-04 8.54873E-06 0.00000E+00
 -1       529 1.32885E-04-9.78944E-05 2.11758E-22
 -1       530 1.53562E-04-1.80890E-04 1.05879E-22
 -1       531 1.61824E-04-2.24283E-04-2.11758E-22
 -1       532 1.52659E-04-2.18831E-04 0.00000E+00
 -1       533 1.28112E-04-1.75062E-04 0.00000E+00
 -1       534 9.39785E-05-1.09356E-04 1.05879E-22
 -1       535 6.11759E-05-4.66729E-05-1.05879E-22
 -1       536 1.73883E-04 6.68878E-06 1.32349E-23
 -1       537 1.73605E-04 2.09349E-05 0.00000E+00
 -1       538 1.73343E-04 3.39160E-05 0.00000E+00
 -1       539 1.73109E-04 4.46781E-05-3.30872E-24
 -1       540 1.72899E-04 5.26251E-05 0.00000E+00
 -1       541 1.72711E-04 5.71825E-05 0.00000E+00
 -1       542 1.72531E-04 5.83225E-05 6.61744E-24
 -1       543 1.72350E-04 5.60438E-05-3.30872E-24
 -1       544 1.72159E-04 5.08961E-05-6.61744E-24
 -1       545 1.71955E-04 4.34515E-05 0.00000E+00
 -1       546 1.71740E-04 3.46527E-05 0.00000E+00
 -1       547 1.71521E-04 2.54529E-05 0.00000E+00
 -1       548 1.71309E-04 1.68700E-05 0.00000E+00
 -1       549 1.71110E-04 9.91723E-06 0.00000E+00
 -1       550 1.70923E-04 5.34557E-06 0.00000E+00
 -1       551 1.56126E-04-8.36354E-06 1.32349E-23
 -1       552 1.34911E-04-8.91808E-06 0.00000E+00
 -1       553 1.11623E-04-9.51366E-06 6.61744E-24
 -1       554 8.73733E-05-1.01345E-05-1.32349E-23
 -1       555 6.32740E-05-1.07577E-05 0.00000E+00
 -1       556 1.69236E-04 4.81227E-06 0.00000E+00
 -1       557 1.65438E-04 1.45980E-05 0.00000E+00
 -1       558 1.62652E-04 2.17577E-05 0.00000E+00
 -1       559 1.60765E-04 2.65713E-05 0.00000E+00
 -1       560 1.59664E-04 2.93185E-05 0.00000E+00
 -1       561 1.59237E-04 3.02814E-05 1.32349E-23
 -1       562 1.59375E-04 2.97424E-05 0.00000E+00
 -1       563 1.59969E-04 2.79849E-05 0.00000E+00
 -1       564 1.60912E-04 2.52925E-05-1.32349E-23
 -1       565 1.62098E-04 2.19495E-05 0.00000E+00
 -1       566 1.63420E-04 1.82402E-05 0.00000E+00
 -1       567 1.64772E-04 1.44492E-05-4.13590E-25
 -1       568 1.66049E-04 1.08610E-05 0.00000E+00
 -1       569 1.67144E-04 7.75970E-06 0.00000E+00
 -1       570 1.67953E-04 5.42958E-06 0.00000E+00
 -1       571 1.70885E-04 3.86257E-06 2.48154E-24
 -1       572 1.71017E-04 3.74891E-06-8.27181E-25
 -1       573 1.71151E-04 3.56207E-06 0.00000E+00
 -1       574 1.71284E-04 3.31891E-06 0.00000E+00
 -1       575 1.71418E-04 3.03636E-06-3.30872E-24
 -1       576 1.71552E-04 2.73144E-06 1.65436E-24
 -1       577 1.71686E-04 2.42120E-06-3.30872E-24
 -1       578 1.71820E-04 2.12269E-06 0.00000E+00
 -1       579 1.71954E-04 1.85298E-06 0.00000E+00
 -1       580 1.72088E-04 1.62912E-06 6.61744E-24
 -1       581 1.72222E-04 1.46818E-06 0.00000E+00
 -1       582 1.72356E-04 1.38718E-06 6.61744E-24
 -1       583 1.72490E-04 1.40317E-06 0.00000E+00
 -1       584 1.72624E-04 1.53301E-06 0.00000E+00
 -1       585 1.72758E-04 1.79345E-06 0.00000E+00
 -1       586 1.70307E-04 3.93313E-06-3.30872E-24
 -1       587 1.69802E-04 3.97822E-06 0.00000E+00
 -1       588 1.69298E-04 4.02287E-06 0.00000E+00
 -1       589 1.68853E-04 4.06686E-06 0.00000E+00
 -1       590 1.68524E-04 4.10967E-06 0.00000E+00
 -1       591 1.70698E-04 3.93249E-06 0.00000E+00
 -1       592 1.70661E-04 3.90702E-06 0.00000E+00
 -1       593 1.70646E-04 3.82413E-06 0.00000E+00
 -1       594 1.70647E-04 3.69591E-06 8.27181E-25
 -1       595 1.70660E-04 3.53461E-06 3.30872E-24
 -1       596 1.70681E-04 3.35240E-06-8.27181E-25
 -1       597 1.70705E-04 3.16144E-06 0.00000E+00
 -1       598 1.70728E-04 2.97388E-06 8.27181E-25
 -1       599 1.70745E-04 2.80186E-06-8.27181E-25
 -1       600 1.70752E-04 2.65753E-06 8.27181E-25
 -1       601 1.70744E-04 2.55305E-06 8.27181E-25
 -1       602 1.70716E-04 2.50056E-06 2.06795E-25
 -1       603 1.70665E-04 2.51222E-06 6.20385E-25
 -1       604 1.70585E-04 2.60028E-06 0.00000E+00
 -1       605 1.70473E-04 2.77682E-06 0.00000E+00
 -1       606 1.72918E-04 2.90734E-06 0.00000E+00
 -1       607 1.72939E-04 3.79746E-06 3.30872E-24
 -1       608 1.72959E-04 4.85955E-06 0.00000E+00
 -1       609 1.72979E-04 6.08149E-06 0.00000E+00
 -1       610 1.72998E-04 7.45115E-06 0.00000E+00
 -1       611 1.73016E-04 8.95617E-06 0.00000E+00
 -1       612 1.73035E-04 1.05842E-05 0.00000E+00
 -1       613 1.73053E-04 1.23229E-05 0.00000E+00
 -1       614 1.73071E-04 1.41600E-05 0.00000E+00
 -1       615 1.73089E-04 1.60830E-05 0.00000E+00
 -1       616 1.73107E-04 1.80796E-05 0.00000E+00
 -1       617 1.73124E-04 2.01375E-05 0.00000E+00
 -1       618 1.73142E-04 2.22443E-05 0.00000E+00
 -1       619 1.73159E-04 2.43877E-05 0.00000E+00
 -1       620 1.73176E-04 2.65554E-05 0.00000E+00
 -1       621 1.72362E-04 2.34273E-06 3.30872E-24
 -1       622 1.71885E-04 2.48611E-06 0.00000E+00
 -1       623 1.71452E-04 2.62947E-06 3.30872E-24
 -1       624 1.71054E-04 2.77258E-06-1.65436E-24
 -1       625 1.70682E-04 2.91543E-06 0.00000E+00
 -1       626 1.72778E-04 2.96238E-06-6.61744E-24
 -1       627 1.72606E-04 3.88532E-06 0.00000E+00
 -1       628 1.72379E-04 4.95356E-06 0.00000E+00
 -1       629 1.72104E-04 6.15092E-06 0.00000E+00
 -1       630 1.71787E-04 7.46123E-06 0.00000E+00
 -1       631 1.71433E-04 8.86820E-06 0.00000E+00
 -1       632 1.71048E-04 1.03555E-05 0.00000E+00
 -1       633 1.70640E-04 1.19070E-05-3.30872E-24
 -1       634 1.70214E-04 1.35063E-05 0.00000E+00
 -1       635 1.69775E-04 1.51371E-05 3.30872E-24
 -1       636 1.69331E-04 1.67833E-05 3.30872E-24
 -1       637 1.68888E-04 1.84285E-05 0.00000E+00
 -1       638 1.68450E-04 2.00566E-05-3.30872E-24
 -1       639 1.68025E-04 2.16511E-05-1.65436E-24
 -1       640 1.67618E-04 2.31959E-05-3.30872E-24
 -1       656 1.71401E-04 2.80736E-05 0.00000E+00
 -1       657 1.70275E-04 2.73863E-05 0.00000E+00
 -1       658 1.69568E-04 2.67015E-05 1.32349E-23
 -1       659 1.69020E-04 2.60174E-05-6.61744E-24
 -1       660 1.68337E-04 2.53310E-05 0.00000E+00
 -1       661 1.72532E-04 3.08800E-05 0.00000E+00
 -1       662 1.71908E-04 3.29472E-05 0.00000E+00
 -1       663 1.71312E-04 3.49363E-05 0.00000E+00
 -1       664 1.70746E-04 3.68493E-05-1.65436E-24
 -1       665 1.70209E-04 3.86871E-05 0.00000E+00
 -1       666 1.69700E-04 4.04507E-05 1.65436E-24
 -1       667 1.69218E-04 4.21407E-05-3.30872E-24
 -1       668 1.68764E-04 4.37575E-05 0.00000E+00
 -1       669 1.68338E-04 4.53009E-05-3.30872E-24
 -1       670 1.67940E-04 4.67709E-05 0.00000E+00
 -1       671 1.67569E-04 4.81669E-05-3.30872E-24
 -1       672 1.67226E-04 4.94878E-05-1.65436E-24
 -1       673 1.66912E-04 5.07326E-05-3.30872E-24
 -1       674 1.66625E-04 5.18993E-05 0.00000E+00
 -1       675 1.66369E-04 5.29867E-05 0.00000E+00
 -1       676 1.70749E-04 5.47392E-05 0.00000E+00
 -1       677 1.69822E-04 5.45882E-05-1.65436E-24
 -1       678 1.68896E-04 5.44373E-05 0.00000E+00
 -1       679 1.67972E-04 5.42869E-05 0.00000E+00
 -1       680 1.67051E-04 5.41365E-05 3.30872E-24
 -1       771 3.13406E-05 6.45791E-06 0.00000E+00
 -1       772 2.34569E-05 2.12106E-05 0.00000E+00
 -1       773 1.67348E-05 3.29857E-05 0.00000E+00
 -1       774 1.11038E-05 4.19393E-05 0.00000E+00
 -1       775 6.49363E-06 4.82364E-05 0.00000E+00
 -1       776 2.82834E-06 5.20570E-05 5.29396E-23
 -1       777 3.03913E-08 5.35894E-05 0.00000E+00
 -1       778-1.98131E-06 5.30343E-05 0.00000E+00
 -1       779-3.28895E-06 5.05995E-05 5.29396E-23
 -1       780-3.97759E-06 4.65032E-05-2.64698E-23
 -1       781-4.13286E-06 4.09693E-05 0.00000E+00
 -1       782-3.84259E-06 3.42297E-05 0.00000E+00
 -1       783-3.19490E-06 2.65202E-05 0.00000E+00
 -1       784-2.27917E-06 1.80822E-05 0.00000E+00
 -1       785-1.18522E-06 9.15962E-06 5.29396E-23
 -1       786 1.68485E-04 3.91538E-06 1.65436E-24
 -1       787 1.68607E-04 3.69732E-06-1.65436E-24
 -1       788 1.68728E-04 3.49309E-06 0.00000E+00
 -1       789 1.68851E-04 3.30143E-06 0.00000E+00
 -1       790 1.68975E-04 3.12262E-06 0.00000E+00
 -1       791 1.69098E-04 2.95700E-06 1.65436E-24
 -1       792 1.69221E-04 2.80654E-06-3.30872E-24
 -1       793 1.69345E-04 2.67330E-06 0.00000E+00
 -1       794 1.69468E-04 2.56144E-06 0.00000E+00
 -1       795 1.69591E-04 2.47525E-06-1.65436E-24
 -1       796 1.69715E-04 2.42216E-06 0.00000E+00
 -1       797 1.69838E-04 2.40977E-06 0.00000E+00
 -1       798 1.69962E-04 2.45070E-06-3.30872E-24
 -1       799 1.70084E-04 2.55784E-06 0.00000E+00
 -1       800 1.70208E-04 2.75223E-06 0.00000E+00
 -1       801 1.56935E-04 3.89879E-06-3.30872E-24
 -1       802 1.22725E-04 3.14476E-06 3.30872E-24
 -1       803 7.78655E-05 2.00911E-06-1.32349E-23
 -1       804 3.45607E-05 9.25638E-07 0.00000E+00
 -1       805 4.67486E-06 2.89513E-07 2.64698E-23
 -1       806 1.68305E-04 3.82856E-06 3.30872E-24
 -1       807 1.68232E-04 3.51378E-06-1.65436E-24
 -1       808 1.68153E-04 3.21356E-06 6.61744E-24
 -1       809 1.68065E-04 2.93569E-06 0.00000E+00
 -1       810 1.67965E-04 2.68794E-06 3.30872E-24
 -1       811 1.67851E-04 2.47797E-06 0.00000E+00
 -1       812 1.67720E-04 2.31342E-06 0.00000E+00
 -1       813 1.67569E-04 2.20189E-06 1.65436E-24
 -1       814 1.67395E-04 2.15099E-06-6.61744E-24
 -1       815 1.67196E-04 2.16831E-06-1.65436E-24
 -1       816 1.66968E-04 2.26143E-06-3.30872E-24
 -1       817 1.66709E-04 2.43791E-06 1.65436E-24
 -1       818 1.66416E-04 2.70532E-06 3.30872E-24
 -1       819 1.66086E-04 3.07116E-06-3.30872E-24
 -1       820 1.65717E-04 3.54296E-06 3.30872E-24
 -1       821 1.70147E-04 3.40875E-06 1.65436E-24
 -1       822 1.69954E-04 3.75720E-06 0.00000E+00
 -1       823 1.69762E-04 4.18188E-06 0.00000E+00
 -1       824 1.69567E-04 4.76333E-06 3.30872E-24
 -1       825 1.69372E-04 5.55451E-06 0.00000E+00
 -1       826 1.69177E-04 6.60662E-06 3.30872E-24
 -1       827 1.68982E-04 7.92498E-06 0.00000E+00
 -1       828 1.68785E-04 9.51271E-06 0.00000E+00
 -1       829 1.68589E-04 1.13255E-05 0.00000E+00
 -1       830 1.68392E-04 1.33172E-05 0.00000E+00
 -1       831 1.68196E-04 1.54103E-05 0.00000E+00
 -1       832 1.67999E-04 1.75262E-05 0.00000E+00
 -1       833 1.67803E-04 1.95824E-05-6.61744E-24
 -1       834 1.67609E-04 2.14971E-05-1.65436E-24
 -1       835 1.67415E-04 2.32129E-05 1.65436E-24
 -1       836 1.69785E-04 3.23373E-06 0.00000E+00
 -1       837 1.69012E-04 3.41624E-06 0.00000E+00
 -1       838 1.68094E-04 3.59836E-06 3.30872E-24
 -1       839 1.67115E-04 3.77932E-06 0.00000E+00
 -1       840 1.66158E-04 3.96008E-06 0.00000E+00
 -1       856 1.67171E-04 2.61197E-05 0.00000E+00
 -1       857 1.67103E-04 2.77719E-05-4.13590E-25
 -1       858 1.67036E-04 2.95982E-05 0.00000E+00
 -1       859 1.66966E-04 3.15659E-05 8.27181E-25
 -1       860 1.66897E-04 3.36414E-05-1.65436E-24
 -1       861 1.66827E-04 3.57914E-05 0.00000E+00
 -1       862 1.66758E-04 3.79821E-05 0.00000E+00
 -1       863 1.66688E-04 4.01799E-05 0.00000E+00
 -1       864 1.66618E-04 4.23508E-05 0.00000E+00
 -1       865 1.66548E-04 4.44612E-05 0.00000E+00
 -1       866 1.66479E-04 4.64775E-05-1.65436E-24
 -1       867 1.66409E-04 4.83663E-05 0.00000E+00
 -1       868 1.66340E-04 5.00945E-05-1.65436E-24
 -1       869 1.66271E-04 5.16292E-05 8.27181E-25
 -1       870 1.66203E-04 5.29382E-05 0.00000E+00
 -1       871 1.66192E-04 2.46711E-05-8.27181E-25
 -1       872 1.65364E-04 2.46638E-05 0.00000E+00
 -1       873 1.64658E-04 2.46559E-05-8.27181E-25
 -1       874 1.63980E-04 2.46469E-05-4.13590E-25
 -1       875 1.63238E-04 2.46371E-05 8.27181E-25
 -1       876 1.66874E-04 2.61360E-05-3.30872E-24
 -1       877 1.66483E-04 2.76966E-05 0.00000E+00
 -1       878 1.66059E-04 2.93441E-05 0.00000E+00
 -1       879 1.65608E-04 3.10670E-05 3.30872E-24
 -1       880 1.65132E-04 3.28539E-05 0.00000E+00
 -1       881 1.64637E-04 3.46934E-05-3.30872E-24
 -1       882 1.64126E-04 3.65743E-05 6.61744E-24
 -1       883 1.63604E-04 3.84851E-05-3.30872E-24
 -1       884 1.63075E-04 4.04147E-05-6.61744E-24
 -1       885 1.62543E-04 4.23517E-05-3.30872E-24
 -1       886 1.62013E-04 4.42848E-05-6.61744E-24
 -1       887 1.61488E-04 4.62027E-05 3.30872E-24
 -1       888 1.60973E-04 4.80941E-05-3.30872E-24
 -1       889 1.60471E-04 4.99475E-05-1.65436E-24
 -1       890 1.59986E-04 5.17516E-05 0.00000E+00
 -1       891 1.65260E-04 5.39065E-05 0.00000E+00
 -1       892 1.64352E-04 5.38232E-05 0.00000E+00
 -1       893 1.63366E-04 5.37398E-05 0.00000E+00
 -1       894 1.62260E-04 5.36566E-05-4.13590E-25
 -1       895 1.60990E-04 5.35733E-05 4.13590E-25
 -1       956 1.65127E-04 4.95340E-06 3.30872E-24
 -1       957 1.64942E-04 5.90532E-06 3.30872E-24
 -1       958 1.64756E-04 6.97038E-06 0.00000E+00
 -1       959 1.64570E-04 8.13440E-06 0.00000E+00
 -1       960 1.64384E-04 9.38318E-06-6.61744E-24
 -1       961 1.64198E-04 1.07024E-05 3.30872E-24
 -1       962 1.64012E-04 1.20779E-05 6.61744E-24
 -1       963 1.63825E-04 1.34952E-05-3.30872E-24
 -1       964 1.63639E-04 1.49400E-05 6.61744E-24
 -1       965 1.63452E-04 1.63980E-05 0.00000E+00
 -1       966 1.63266E-04 1.78549E-05 0.00000E+00
 -1       967 1.63080E-04 1.92963E-05 0.00000E+00
 -1       968 1.62893E-04 2.07079E-05 6.61744E-24
 -1       969 1.62707E-04 2.20755E-05-3.30872E-24
 -1       970 1.62522E-04 2.33847E-05 6.61744E-24
 -1       971 1.62166E-04 2.58905E-05 3.30872E-24
 -1       972 1.61989E-04 2.73139E-05 0.00000E+00
 -1       973 1.61813E-04 2.88748E-05-3.30872E-24
 -1       974 1.61636E-04 3.05552E-05-3.30872E-24
 -1       975 1.61458E-04 3.23373E-05-3.30872E-24
 -1       976 1.61281E-04 3.42029E-05 0.00000E+00
 -1       977 1.61103E-04 3.61342E-05 0.00000E+00
 -1       978 1.60925E-04 3.81131E-05 3.30872E-24
 -1       979 1.60747E-04 4.01216E-05 0.00000E+00
 -1       980 1.60569E-04 4.21415E-05 0.00000E+00
 -1       981 1.60392E-04 4.41549E-05 0.00000E+00
 -1       982 1.60214E-04 4.61437E-05 0.00000E+00
 -1       983 1.60037E-04 4.80898E-05 0.00000E+00
 -1       984 1.59860E-04 4.99752E-05 0.00000E+00
 -1       985 1.59685E-04 5.17818E-05-3.30872E-24
 -3
    1PSTEP                         2           1           1          
  100CL  101 1.000000000         409                     0    1           1
 -4  STRESS      6    1
 -5  SXX         1    4    1    1
 -5  SYY         1    4    2    2
 -5  SZZ         1    4    3    3
 -5  SXY         1    4    1    2
 -5  SYZ         1    4    2    3
 -5  SZX         1    4    3    1
 -1         1-3.25113E+06-1.48071E+06-6.67869E+05-2.15316E+06-4.36557E-11 5.29690E-09
 -1         2 6.69125E+03 1.32945E+06 2.26924E+04 5.68000E+03-3.32648E-10-4.75491E-08
 -1         3-7.09749E+02-1.70434E+06 3.94063E+02-1.51202E+03 2.51192E-09-1.62436E-08
 -1         5-1.73065E+01 5.26212E+05 1.35859E+01 1.04433E+00 1.59002E-10 1.12695E-08
 -1         8-1.52734E+06-6.72520E+05-4.84272E+04-1.17899E+06-5.16593E-10-2.18279E-09
 -1         9-2.92925E+06-5.23457E+05-2.89956E+05-8.53471E+05 6.76955E-09 2.72412E-09
 -1        10-1.62148E+03-1.77294E+06-2.42086E+03-1.01534E+04-3.14139E-09 4.36114E-09
 -1        12-1.17878E+01 5.26240E+05 4.40658E+02 6.82500E+00 3.62903E-10 1.05902E-08
 -1        15 3.99804E+03 2.21882E+03 1.32423E+04 1.70190E+01 1.81956E-10-1.37492E-09
 -1        16-7.91297E+06-1.51110E+06-1.12943E+06-1.42006E+06 1.54929E-08-1.60265E-08
 -1        17-2.04426E+06-1.14935E+06-3.93802E+05-9.98724E+05 1.94908E-08-1.20548E-08
 -1        18-6.48327E+04-2.43236E+04-5.52222E+04-1.30338E+05 2.59865E-09 2.17915E-09
 -1        19 1.66057E+05 1.95937E+05-1.32344E+03 3.08002E+04 8.97489E-10-2.22790E-09
 -1        20-3.32323E+04-6.36410E+05-1.36959E+05 5.76940E+04-2.24130E-09 9.73887E-09
 -1        21-6.12420E+01-4.31092E+05-1.37646E+03-2.58387E+02-8.75410E-10 2.54206E-09
 -1        24-7.16778E+06-1.47965E+06-9.10404E+05-1.92749E+06-2.33219E-08-2.44472E-08
 -1        25 6.06963E+04-5.74457E+04 2.49919E+04-2.70934E+05-2.31539E-09 5.27034E-09
 -1        26-4.15367E+04 1.36398E+05-2.48306E+04-2.02740E+04 1.91721E-09 1.31030E-08
 -1        27-1.09570E+05-3.55775E+05-1.41496E+05 9.86474E+04 5.79136E-09-2.18400E-09
 -1        28 2.93608E+04-1.21525E+05 2.34715E+04 4.03148E+04 5.94554E-09-8.38156E-11
 -1        32-1.62254E+06-3.23265E+05 6.67280E+05-1.21182E+06-1.35624E-08 1.58043E-08
 -1        33-2.41477E+05 1.31624E+05 4.61066E+04-6.96160E+04-7.55866E-10 1.52189E-10
 -1        34-3.18728E+05-3.25022E+04 7.42014E+02 9.99126E+04 2.19925E-09 1.19086E-08
 -1        35-3.53557E+04-4.93497E+04-2.00752E+03 7.82367E+04 1.56119E-08 3.78350E-09
 -1        51 2.02012E+04-7.46791E+05 6.50152E+04-1.96931E+06 8.73115E-11-4.71482E-09
 -1        52 2.45226E+04-7.60229E+05 4.68466E+04-2.28834E+06 2.06637E-09-1.18744E-08
 -1        53 2.49796E+04-8.02180E+05 4.12193E+04-1.96209E+06 1.38243E-09 3.60887E-09
 -1        54 6.18505E+04-8.12425E+05 6.97402E+04-2.29516E+06-1.10595E-09-3.49246E-09
 -1        55 1.00637E+05-8.42614E+05 1.25071E+05-1.96025E+06-2.32831E-10-1.72149E-08
 -1        56-6.26092E+06-7.04596E+05-4.87848E+05-2.40258E+06 1.52795E-10 3.61761E-08
 -1        57-6.41673E+06-1.17341E+06-3.27022E+05-2.42720E+06 7.64885E-10 1.49448E-08
 -1        58-6.36733E+06-8.46149E+05-1.14657E+05-2.36138E+06-1.26784E-09 1.17434E-08
 -1        59-6.29404E+06-1.00616E+06-6.78908E+04-2.47692E+06-2.16210E-09 2.60843E-09
 -1        60-6.38279E+06-8.65122E+05-2.66902E+04-2.35544E+06 3.37059E-09 9.31323E-10
 -1        61-6.28435E+06-9.74596E+05-1.49523E+04-2.47267E+06-7.64385E-09-4.91667E-09
 -1        62-6.37621E+06-8.77218E+05-7.52117E+03-2.36548E+06-2.56296E-09-4.49973E-10
 -1        63-6.30647E+06-9.45458E+05-5.62177E+03-2.44153E+06 1.45155E-09-1.41065E-08
 -1        64-6.35929E+06-8.95050E+05-7.41167E+03-2.38564E+06 2.68210E-09 9.90440E-10
 -1        65-6.34533E+06-9.09898E+05-1.33589E+04-2.39675E+06 4.34602E-09-4.21369E-09
 -1        66-6.33668E+06-9.13332E+05-2.49698E+04-2.40971E+06 1.74259E-09-3.58523E-09
 -1        67-6.39977E+06-8.93509E+05-6.16396E+04-2.34972E+06-1.60526E-09 1.34942E-08
 -1        68-6.30586E+06-9.11707E+05-1.04865E+05-2.43298E+06-1.81990E-09 6.80302E-09
 -1        69-6.53011E+06-1.03124E+06-2.98565E+05-2.29046E+06 6.23822E-09-7.91624E-09
 -1        70-6.20931E+06-7.80296E+05-4.44973E+05-2.46819E+06-8.58563E-09 3.78350E-10
 -1        86-3.36893E+03 1.32231E+06 2.43512E+04-2.84017E+03 2.62298E-09-1.48384E-08
 -1        87 2.25760E+04 1.33773E+06 5.07411E+04 1.24044E+04 2.82580E-09 3.23172E-09
 -1        88-1.92194E+04 1.31408E+06 7.77024E+04-9.56483E+03 7.58519E-09-4.33170E-09
 -1        89 1.44719E+05 1.39716E+06 2.09636E+05 2.98235E+04 7.52334E-09-4.19277E-10
 -1        90-1.25044E+05 1.26318E+06 2.95846E+05-2.02560E+04 1.57597E-08 4.95993E-09
 -1       121-9.83179E+02-1.70665E+06 1.26526E+01 7.52897E+02-2.00180E-09-7.96354E-09
 -1       122-5.61259E+02-1.70433E+06 8.32727E+02-3.02023E+03 2.74571E-09-2.75031E-09
 -1       123-1.03324E+03-1.70677E+06 9.89167E+02 2.24888E+03-2.78294E-09 2.16387E-08
 -1       124 1.01192E+03-1.70359E+06 3.42492E+03-6.34500E+03 3.24917E-09-2.33667E-08
 -1       125-1.89139E+03-1.70767E+06 4.93550E+03 4.06486E+03-3.83989E-09 5.05315E-09
 -1       191-1.86170E+01 5.26255E+05 1.58595E+01-5.25594E-01 2.71760E-10 2.80743E-08
 -1       192-1.85635E+01 5.26213E+05 2.87793E+01 2.85812E+00 4.14258E-10 2.71343E-08
 -1       193-2.19530E+01 5.26254E+05 5.31481E+01-2.35502E+00 3.78606E-10 2.44781E-08
 -1       194-2.26056E+01 5.26217E+05 1.08882E+02 6.25156E+00 1.17327E-10-2.53840E-09
 -1       195-2.83603E+01 5.26251E+05 2.12593E+02-3.95214E+00 5.65180E-10-6.41558E-09
 -1       251 5.49481E+05-9.66720E+04 2.26393E+05 1.70627E+04-7.04858E-11-3.91447E-09
 -1       252 6.61314E+05 1.11409E+05 1.61747E+05-5.02836E+04-8.41283E-10-5.65524E-09
 -1       253 5.90842E+05-1.48175E+04 5.85517E+04 9.80221E+03 1.90403E-09-1.66365E-08
 -1       254 6.11569E+05 1.70223E+04 3.73442E+04-3.90353E+04-4.96584E-10 2.88128E-09
 -1       255 5.98427E+05-2.26570E+03 1.51314E+04 5.81254E+03 4.52246E-10 1.56388E-08
 -1       256 6.02143E+05 2.75200E+03 9.26490E+03-3.31964E+04 3.33876E-09 8.22092E-09
 -1       257 5.99948E+05-3.90448E+02 4.74951E+03 3.96319E+03-2.40254E-09-6.59077E-09
 -1       258 6.00528E+05 9.37949E+02 4.18714E+03-3.13160E+04 8.64492E-10-7.84493E-09
 -1       259 5.99952E+05-3.95934E+02 4.80451E+03 3.93247E+03-2.95361E-09-9.56561E-10
 -1       260 6.02126E+05 2.80453E+03 9.41079E+03-3.30719E+04-3.04681E-09 2.04473E-08
 -1       261 5.98433E+05-2.30812E+03 1.54152E+04 5.71877E+03 1.31649E-09-1.47611E-09
 -1       262 6.11612E+05 1.73543E+04 3.80123E+04-3.87631E+04-1.14687E-09 1.95591E-08
 -1       263 5.90776E+05-1.50939E+04 5.96741E+04 9.62376E+03-5.01586E-10 8.48740E-09
 -1       264 6.62022E+05 1.13514E+05 1.64705E+05-4.98167E+04-4.34329E-09 1.64746E-08
 -1       265 5.48803E+05-9.84613E+04 2.30715E+05 1.67739E+04-1.82581E-09-5.22414E-09
 -1       266-7.36349E+04-3.46397E+04 1.74609E+05-3.73007E+02 7.27596E-11-1.38850E-08
 -1       267 8.54342E+04 4.03670E+04 1.23085E+05 4.31088E+02-1.09139E-10 2.68494E-08
 -1       268-1.13464E+04-5.67821E+03 4.58669E+04-5.42192E+01-2.14641E-10 7.57069E-10
 -1       269 1.34005E+04 6.79032E+03 2.97143E+04 6.32288E+01-6.04814E-11 8.77995E-09
 -1       270-1.99123E+03-1.10933E+03 1.43886E+04-8.43574E+00-5.95719E-11-2.86672E-09
 -1       271-7.20598E+06-9.28321E+05-5.57666E+05-2.83400E+06 9.45874E-11 6.83940E-09
 -1       272-7.38387E+06-1.33523E+06-3.55572E+05-2.84528E+06-1.79080E-09-2.35013E-09
 -1       273-7.32138E+06-1.04969E+06-1.31930E+05-2.79754E+06 2.91038E-09-8.58563E-09
 -1       274-7.24475E+06-1.18903E+06-7.26697E+04-2.90737E+06-5.54792E-10-7.21957E-09
 -1       275-7.34564E+06-1.05210E+06-3.07001E+04-2.78231E+06-6.14818E-10-5.62432E-09
 -1       276-7.21613E+06-1.18736E+06-1.59498E+04-2.93356E+06-5.78439E-10-1.48611E-09
 -1       277-7.35374E+06-1.04668E+06-7.86905E+03-2.77504E+06-2.36014E-09-6.90898E-09
 -1       278-7.20969E+06-1.19135E+06-5.66986E+03-2.94197E+06 3.35297E-09-6.73663E-09
 -1       279-7.35370E+06-1.04686E+06-6.22200E+03-2.77514E+06-3.01952E-10 5.37511E-10
 -1       280-7.21580E+06-1.18625E+06-1.13109E+04-2.93312E+06 3.48064E-09-1.09794E-08
 -1       281-7.34585E+06-1.05305E+06-2.14095E+04-2.78257E+06-3.76531E-10-1.59707E-09
 -1       282-7.24042E+06-1.18145E+06-4.99249E+04-2.90728E+06-7.71706E-09 1.26893E-08
 -1       283-7.32513E+06-1.05576E+06-9.10439E+04-2.79745E+06 3.60342E-09-7.22503E-09
 -1       284-7.34402E+06-1.27277E+06-2.44181E+05-2.85332E+06 1.14642E-09-3.74348E-09
 -1       285-7.24057E+06-9.78052E+05-3.84008E+05-2.82836E+06-1.30240E-09 1.49303E-08
 -1       301 3.11010E+04 9.63698E+04 2.28339E+05 4.49051E+04-4.80941E-09 6.38448E-09
 -1       302 2.90924E+04 1.54049E+05 1.62741E+05 6.46880E+04 5.76256E-09 5.87443E-09
 -1       303 3.70877E+02 1.16806E+05 1.47869E+05 4.44060E+04-5.75164E-09-2.45836E-09
 -1       304 5.43507E+04 1.77507E+05 2.45975E+05 6.45146E+04 8.07267E-09-2.10875E-08
 -1       305 6.10516E+04 7.32637E+04 4.13682E+05 4.56516E+04-4.35102E-09 7.47696E-09
 -1       306-8.79797E+06-1.15354E+06-7.08875E+05-3.64066E+06 1.04337E-08-5.15138E-09
 -1       307-9.63552E+06-1.27106E+06-4.81563E+05-2.98916E+06 2.20098E-08-5.82077E-09
 -1       308-8.95386E+06-1.38299E+06-1.67637E+05-3.58409E+06 6.30644E-09-4.22733E-09
 -1       309-9.28673E+06-1.14255E+06-9.37204E+04-3.19385E+06-1.01454E-08-1.95723E-09
 -1       310-9.13263E+06-1.28696E+06-4.72558E+04-3.42751E+06-1.48793E-09-1.70985E-08
 -1       311-8.97039E+06-1.38666E+06-1.43793E+04-3.52618E+06 2.38942E-08-2.01953E-08
 -1       312-9.26728E+06-1.14008E+06-1.40563E+04-3.25026E+06-4.94219E-09 1.45974E-09
 -1       313-8.82238E+06-1.56309E+06-7.05794E+03-3.76007E+06-6.98128E-09 1.61525E-08
 -1       314-9.29381E+06-1.10017E+06-1.11572E+04-3.20362E+06-1.49948E-08-1.96223E-08
 -1       315-8.87414E+06-1.50389E+06-1.91750E+04-3.67343E+06-1.64346E-09 1.41481E-08
 -1       316-9.20948E+06-1.20413E+06-4.91993E+04-3.33234E+06 1.42918E-08 2.66664E-09
 -1       317-9.13669E+06-1.28728E+06-1.00632E+05-3.34744E+06-1.05501E-09-1.66619E-09
 -1       318-9.02261E+06-1.32464E+06-1.86266E+05-3.52233E+06-1.56542E-08 2.76195E-08
 -1       319-9.59571E+06-1.34447E+06-5.21770E+05-3.02800E+06-8.38008E-09-3.63798E-09
 -1       320-8.76497E+06-1.14217E+06-7.68697E+05-3.66010E+06 2.07074E-08-1.87720E-08
 -1       336 3.45073E+02-1.84197E+06-1.03929E+04 6.03802E+03 2.77669E-09-6.09725E-09
 -1       337-3.63495E+03-1.84317E+06-1.14022E+04-1.45937E+04 1.39848E-08 5.47516E-10
 -1       338 2.02797E+02-1.84223E+06-1.54770E+04 8.47451E+03 3.89582E-09-3.92174E-09
 -1       339-1.51808E+04-1.85134E+06-3.34943E+04-1.92909E+04 1.89380E-08 1.70348E-08
 -1       340 9.62646E+03-1.83485E+06-5.24838E+04 1.06880E+04 5.65524E-09 1.65783E-08
 -1       406 2.15055E+01 5.26231E+05 8.69525E+02-2.95538E+00 8.16954E-10 9.34051E-10
 -1       407 2.91551E+02 5.26393E+05 1.84874E+03-7.39681E+00-1.16984E-10-3.53298E-08
 -1       408 9.39656E+02 5.26098E+05 3.69161E+03 1.08977E+01 8.89941E-10-2.33395E-08
 -1       409 3.98096E+03 5.27571E+05 8.31091E+03-1.29354E+02-7.27596E-12 8.79709E-09
 -1       410 1.14590E+04 5.25045E+05 1.69656E+04 1.29284E+02 1.04774E-09-6.48379E-09
 -1       521-1.41965E+07-2.72254E+06-1.25985E+06-6.70321E+06 1.74914E-08-4.25498E-08
 -1       522-1.76008E+07 3.51487E+05-6.32985E+05-2.81037E+06 6.61894E-08 1.85682E-08
 -1       523-1.38360E+07-3.23406E+06-2.73948E+05-6.84286E+06 4.25189E-09 3.19415E-08
 -1       524-1.56455E+07-2.17627E+05 5.61153E+04-3.42721E+06-5.72472E-08 5.56975E-08
 -1       525-1.57901E+07-2.43995E+06-3.75743E+05-5.78822E+06-2.36178E-08-4.65661E-10
 -1       526-1.29286E+07-2.56432E+06 2.12934E+05-6.14203E+06 7.07223E-09-3.10847E-08
 -1       527-1.63872E+07-1.02678E+06-9.70540E+04-4.05660E+06 3.95812E-08-2.50893E-08
 -1       528-1.29054E+07-3.62398E+06 1.02849E+05-8.37550E+06 1.44428E-09 8.60964E-08
 -1       529-1.63600E+07-9.22056E+05-5.95066E+04-3.93054E+06-8.62201E-09 6.60548E-08
 -1       530-1.28448E+07-2.77287E+06 1.97951E+05-6.50523E+06 1.80444E-08-4.31901E-08
 -1       531-1.59623E+07-2.28567E+06-3.79324E+05-5.59890E+06 4.25061E-08 1.89175E-10
 -1       532-1.52547E+07-4.65624E+05 7.74415E+04-3.61068E+06 2.20898E-08-6.26678E-08
 -1       533-1.39840E+07-3.19878E+06-2.98663E+05-6.79526E+06 5.51518E-09-6.31408E-08
 -1       534-1.76727E+07 4.08571E+05-6.18234E+05-2.79350E+06 1.09430E-08 7.76490E-08
 -1       535-1.39940E+07-2.80035E+06-1.19181E+06-6.78342E+06-2.12749E-08 7.27596E-08
 -1       536-5.22508E+05-2.96956E+04 6.85902E+04-1.44708E+04 3.27873E-10-8.13816E-09
 -1       537-4.91371E+05 3.46910E+04 4.88623E+04 2.23354E+04-2.79295E-08 2.19970E-08
 -1       538-5.13437E+05-4.81875E+03 1.72620E+04-1.18004E+04 6.37783E-11-1.62509E-08
 -1       539-4.98737E+05 5.71241E+03 1.26226E+04 1.32854E+04 2.05052E-08-1.18225E-08
 -1       540-5.14831E+05-1.02566E+03 3.32145E+03-5.41554E+03 1.14574E-09-1.47616E-08
 -1       541-4.97338E+05 1.10466E+03 4.69160E+03-9.25731E+02-5.56963E-09-3.66981E-10
 -1       542-5.14645E+05-3.71532E+02-2.68105E+02 2.40913E+03-4.10591E-09-3.39917E-08
 -1       543-5.00949E+05 2.41496E+02 1.65211E+03-1.53107E+04 1.56518E-09-1.74641E-08
 -1       544-5.11402E+05-2.58903E+01-1.23159E+03 8.96587E+03-4.21448E-09-7.22150E-09
 -1       545-5.07332E+05-5.20472E+02-1.76165E+03-2.49459E+04-3.96594E-09 7.90669E-09
 -1       546-5.08597E+05 6.48005E+02-3.95517E+03 1.20459E+04 6.39048E-10 6.46128E-09
 -1       547-5.10657E+05-4.52287E+03-9.75198E+03-2.66295E+04-1.57455E-08-9.07687E-09
 -1       548-5.08155E+05 4.02923E+03-1.61416E+04 1.06503E+04-1.26025E-08 1.21645E-08
 -1       549-5.17528E+05-3.00210E+04-4.22217E+04-1.97412E+04-8.17670E-09-5.09817E-09
 -1       550-5.01457E+05 2.58872E+04-6.25458E+04 5.15512E+03 6.15273E-10 9.53878E-09
 -1       551 4.16694E+04-9.61615E+05 3.79718E+04-1.51411E+06-1.65601E-08 1.42609E-09
 -1       552 9.19252E+04-9.94145E+05 5.69718E+04-2.13213E+06-2.38506E-08 3.30838E-08
 -1       553 6.77982E+04-1.00304E+06 8.76864E+04-1.50765E+06-1.77970E-08 2.11148E-08
 -1       554 1.45426E+05-9.88862E+05 1.86467E+05-2.13370E+06-2.52912E-08 9.23956E-09
 -1       555 1.25096E+05-1.03651E+06 3.32967E+05-1.50851E+06-1.69821E-08-1.72950E-08
 -1       556 1.76195E+05-3.07343E+05 9.81258E+04-3.68442E+05-5.74801E-09 7.33417E-09
 -1       557 3.04427E+05-4.05755E+05 5.28647E+04-4.70222E+05 1.33732E-08 1.55260E-08
 -1       558 1.69093E+05-3.15385E+05 1.97652E+04-3.61839E+05-2.12458E-09 9.21864E-09
 -1       559 2.78344E+05-4.16476E+05 1.05776E+04-4.83868E+05 1.65892E-09-7.87622E-10
 -1       560 1.59716E+05-3.09331E+05 3.52126E+03-3.68404E+05 9.37143E-09 9.24774E-09
 -1       561 2.65557E+05-4.12001E+05 2.25567E+03-4.92127E+05 4.22733E-09 1.07866E-09
 -1       562 1.52510E+05-3.04680E+05 4.87959E+02-3.73590E+05-2.34286E-09-4.58476E-09
 -1       563 2.57176E+05-4.08374E+05 6.01882E+02-4.97500E+05 3.81260E-09-7.49242E-09
 -1       564 1.47969E+05-3.01785E+05 1.49597E+02-3.76798E+05 1.97178E-09 4.87307E-09
 -1       565 2.52683E+05-4.06423E+05 2.57146E+02-5.00336E+05-4.31646E-09 2.19370E-08
 -1       566 1.46197E+05-3.00641E+05 6.39048E+01-3.78047E+05 1.88011E-08-4.00178E-09
 -1       567 2.52022E+05-4.06114E+05-7.50658E+01-5.00616E+05 5.59908E-09-3.07664E-08
 -1       568 1.47273E+05-3.01335E+05-6.30832E+02-3.77431E+05 1.56433E-08-1.53523E-09
 -1       569 2.53859E+05-4.06574E+05-1.42501E+03-4.97096E+05 2.23517E-08-6.94126E-09
 -1       570 1.52246E+05-3.05186E+05-3.62680E+03-3.75984E+05 6.27915E-09 1.06375E-08
 -1       571 3.82264E+05 1.42665E+04 2.11384E+04-9.79138E+04-9.76888E-09 2.35923E-08
 -1       572 3.85385E+05 4.97988E+03 1.03591E+04-1.07325E+05-1.51449E-08-9.78071E-09
 -1       573 3.83474E+05 1.20814E+03 4.60200E+03-9.76580E+04-5.23596E-09 2.33767E-08
 -1       574 3.83825E+05 4.27571E+02 2.30722E+03-1.07608E+05-2.26282E-09 3.48573E-08
 -1       575 3.83583E+05 9.70359E+01 1.08748E+03-9.76251E+04 4.33238E-09-1.93359E-09
 -1       576 3.83599E+05 6.87795E+01 5.54175E+02-1.07645E+05 1.53589E-08-3.21488E-08
 -1       577 3.83600E+05 3.90258E+01 2.72596E+02-9.76207E+04 7.93079E-09 1.26265E-08
 -1       578 3.83590E+05 4.43431E+01 1.48163E+02-1.07650E+05-6.43922E-10 9.98989E-09
 -1       579 3.83647E+05 2.11363E+01 8.78642E+01-9.76203E+04 5.27962E-09-3.40606E-09
 -1       580 3.83661E+05 9.71395E+00 7.88765E+01-1.07646E+05 1.20781E-09-5.70071E-09
 -1       581 3.83738E+05-2.44725E+01 9.99903E+01-9.76253E+04-1.81899E-11-5.04770E-10
 -1       582 3.83803E+05-2.87566E+01 1.89427E+02-1.07590E+05-9.67702E-10 1.20217E-08
 -1       583 3.83865E+05-1.61194E+01 3.54720E+02-9.76763E+04-1.68438E-09 3.19096E-09
 -1       584 3.84098E+05 2.39517E+02 7.99405E+02-1.07155E+05-3.21597E-09-9.94760E-09
 -1       585 3.83933E+05 9.18599E+02 1.61262E+03-9.80605E+04 3.76531E-10 4.59113E-09
 -1       586-3.85952E+03 1.28857E+05-5.18135E+03-3.35790E+05 4.09273E-10 5.73982E-09
 -1       587-5.83665E+02 1.28131E+05-1.96003E+02-3.69512E+05 1.09139E-09 1.90151E-08
 -1       588 1.47963E+03 1.28260E+05 4.59281E+03-3.35589E+05 5.65706E-10 4.35830E-09
 -1       589 6.60601E+03 1.30818E+05 1.28564E+04-3.69198E+05 7.38510E-10 3.01734E-08
 -1       590 1.86374E+04 1.27047E+05 2.73069E+04-3.36115E+05 6.28461E-10 1.81572E-08
 -1       591-9.25933E+04-2.56979E+04-2.82840E+04-4.67151E+04 5.91297E-09 6.89943E-09
 -1       592-9.53239E+04-3.19712E+04-1.52454E+04-5.39603E+04 2.01953E-09 3.41315E-08
 -1       593-9.53742E+04-2.32727E+04-6.36007E+03-4.88731E+04 7.50970E-09-5.32555E-09
 -1       594-9.14392E+04-2.79408E+04-3.16724E+03-5.41461E+04 1.07630E-08-9.10927E-09
 -1       595-9.55906E+04-2.32505E+04-1.45667E+03-4.89703E+04 6.30121E-09 8.58054E-09
 -1       596-9.11803E+04-2.77607E+04-7.41643E+02-5.41193E+04 2.57319E-09 7.73503E-09
 -1       597-9.56190E+04-2.32683E+04-4.07343E+02-4.89741E+04-4.04361E-09 1.12061E-09
 -1       598-9.11550E+04-2.77543E+04-3.33642E+02-5.41111E+04-1.68399E-09 2.07865E-09
 -1       599-9.56156E+04-2.32695E+04-4.34292E+02-4.89728E+04 1.34287E-09-1.06922E-08
 -1       600-9.11796E+04-2.77637E+04-8.12665E+02-5.41151E+04 1.25101E-09 8.05471E-09
 -1       601-9.55780E+04-2.32525E+04-1.60762E+03-4.89658E+04 1.08321E-09-3.58523E-09
 -1       602-9.14625E+04-2.79632E+04-3.50111E+03-5.41382E+04 5.79348E-10-1.95087E-09
 -1       603-9.53337E+04-2.32823E+04-7.03300E+03-4.88577E+04 3.40151E-10-2.43708E-08
 -1       604-9.57693E+04-3.24038E+04-1.68569E+04-5.39087E+04-2.43563E-09-1.26697E-08
 -1       605-9.22386E+04-2.59783E+04-3.12739E+04-4.64856E+04-2.12458E-09-6.44650E-09
 -1       606 5.92921E+04-1.79723E+04-3.28261E+04 4.99305E+04-2.87218E-09-6.07542E-09
 -1       607 5.36173E+04-5.79067E+03-1.63670E+04 5.62114E+04-1.57888E-09 1.03314E-08
 -1       608 5.67802E+04-9.63416E+02-7.33896E+03 4.95297E+04 1.52504E-08 7.35145E-09
 -1       609 5.61291E+04-2.32359E+02-3.70672E+03 5.66522E+04 1.54068E-08-1.14637E-08
 -1       610 5.64334E+04 6.48318E+01-1.77620E+03 4.94852E+04-1.14596E-09-7.43967E-09
 -1       611 5.62905E+04 1.14691E+02-8.94523E+02 5.66989E+04-1.67929E-08 1.47647E-08
 -1       612 5.63096E+04 1.18424E+02-4.30670E+02 4.94811E+04-9.80071E-09-1.05638E-08
 -1       613 5.62391E+04 1.55973E+02-1.94804E+02 5.67037E+04-9.21318E-09-8.96898E-09
 -1       614 5.62302E+04 1.42468E+02-5.47387E+01 4.94797E+04 2.61025E-09-1.31963E-08
 -1       615 5.61806E+04 1.86628E+02 6.39657E+01 5.67040E+04 1.07784E-08-9.96761E-09
 -1       616 5.61703E+04 1.69921E+02 2.07286E+02 4.94803E+04-5.57429E-09-7.42966E-09
 -1       617 5.61678E+04 2.50775E+02 4.81035E+02 5.67025E+04 2.78669E-09-8.18909E-09
 -1       618 5.61019E+04 3.19255E+02 9.70784E+02 4.94804E+04 1.41790E-09 1.59343E-09
 -1       619 5.64909E+04 1.00058E+03 2.18109E+03 5.67002E+04 3.27418E-10-1.20413E-08
 -1       620 5.57629E+04 2.59462E+03 4.37737E+03 4.94757E+04 3.20597E-10 1.06411E-10
 -1       621 6.21091E+02 4.10953E+05 5.10445E+03 1.09195E+04 1.69683E-09 4.36830E-09
 -1       622 6.47175E+02 4.12199E+05 4.56249E+03 1.57354E+04 1.48918E-09-5.82804E-09
 -1       623 3.47580E+01 4.11276E+05 5.57546E+03 1.08581E+04 1.37356E-09 1.92736E-08
 -1       624 2.56206E+03 4.13957E+05 1.08502E+04 1.58066E+04 1.12050E-09 6.00630E-09
 -1       625 2.88906E+03 4.09174E+05 1.90799E+04 1.08493E+04 1.09048E-09 1.03273E-08
 -1       626 3.45408E+05 9.60435E+04 6.92227E+03 1.87274E+05-2.91675E-09-8.62201E-09
 -1       627 3.40512E+05 9.97514E+04 3.34498E+03 1.95013E+05-3.34694E-10 3.53793E-09
 -1       628 3.45629E+05 9.28348E+04 1.40978E+03 1.88276E+05 1.65164E-09-5.61613E-10
 -1       629 3.39453E+05 9.89960E+04 6.93702E+02 1.95418E+05-2.23372E-09 1.02099E-08
 -1       630 3.45600E+05 9.27114E+04 3.19328E+02 1.88275E+05 4.34193E-09 6.35407E-09
 -1       631 3.39292E+05 9.89965E+04 1.73916E+02 1.95390E+05-3.78350E-09-3.37360E-09
 -1       632 3.45551E+05 9.27420E+04 1.15366E+02 1.88240E+05-8.54379E-09 1.11504E-09
 -1       633 3.39240E+05 9.90175E+04 1.32238E+02 1.95356E+05-5.58248E-09 2.53249E-09
 -1       634 3.45512E+05 9.27537E+04 2.15213E+02 1.88220E+05 6.87487E-09 7.97536E-09
 -1       635 3.39236E+05 9.90256E+04 4.37593E+02 1.95345E+05 4.73074E-09-6.22913E-09
 -1       636 3.45483E+05 9.27536E+04 8.83281E+02 1.88211E+05 4.26371E-09 1.76346E-08
 -1       637 3.39414E+05 9.91598E+04 1.93964E+03 1.95339E+05-1.75035E-09 2.58296E-10
 -1       638 3.45412E+05 9.31608E+04 3.98251E+03 1.88023E+05 6.55587E-09 1.15706E-08
 -1       639 3.41514E+05 1.02019E+05 9.41666E+03 1.94754E+05 1.39516E-09 1.05028E-08
 -1       640 3.45121E+05 1.01663E+05 1.95062E+04 1.84398E+05-2.72848E-11 1.18034E-08
 -1       656 7.64265E+04-1.94568E+06-1.86419E+05-3.08343E+02 6.89761E-09-7.63634E-09
 -1       657-1.01172E+05-2.02924E+06-1.54070E+05 2.10947E+04-2.12731E-09 1.18067E-08
 -1       658 2.42026E+04-1.96949E+06-9.51900E+04-3.72770E+03 2.57569E-09 1.12068E-08
 -1       659-1.09550E+05-2.03330E+06-1.65145E+05 2.33837E+04 7.93079E-10-4.65226E-10
 -1       660 8.47812E+04-1.94165E+06-2.05456E+05-2.59723E+03 2.16824E-09-6.61811E-09
 -1       661 3.30627E+05 3.65898E+04 3.14573E+04 1.29371E+05-3.35694E-09-2.71029E-09
 -1       662 3.46312E+05 6.12315E+04 2.10915E+04 1.24664E+05 1.14123E-08 1.33639E-08
 -1       663 3.36762E+05 4.64673E+04 7.41934E+03 1.27639E+05 2.00907E-09 1.19144E-08
 -1       664 3.39207E+05 4.96417E+04 4.40461E+03 1.26808E+05-7.40403E-09 4.60432E-12
 -1       665 3.37679E+05 4.77861E+04 1.74941E+03 1.27376E+05-1.86924E-09-6.79108E-10
 -1       666 3.38118E+05 4.81358E+04 1.01371E+03 1.27163E+05-4.78971E-09-7.57478E-09
 -1       667 3.37845E+05 4.79246E+04 5.37360E+02 1.27302E+05 4.13138E-10-3.86953E-09
 -1       668 3.37922E+05 4.80497E+04 5.35878E+02 1.27285E+05-2.13100E-09-2.22346E-08
 -1       669 3.37875E+05 4.78674E+04 7.21091E+02 1.27256E+05 2.76202E-09 5.68684E-09
 -1       670 3.38054E+05 4.84537E+04 1.55421E+03 1.27335E+05 5.51023E-09 1.49232E-08
 -1       671 3.37714E+05 4.75289E+04 2.77491E+03 1.27249E+05 5.85758E-09 8.05221E-09
 -1       672 3.39583E+05 5.10993E+04 7.04953E+03 1.27019E+05-9.67401E-09 4.17231E-11
 -1       673 3.36356E+05 4.52999E+04 1.18963E+04 1.27542E+05-2.67846E-10 5.32054E-10
 -1       674 3.50752E+05 6.99232E+04 3.38324E+04 1.23841E+05-8.18545E-10-5.52973E-09
 -1       675 3.26631E+05 2.93375E+04 5.04695E+04 1.30188E+05 7.40238E-09-8.13088E-10
 -1       676 3.30924E+01-4.30982E+05-1.66263E+03 1.29198E+02-1.04410E-09 2.59343E-08
 -1       677-4.09034E+02-4.31369E+05-3.03235E+03-2.58077E+02-5.55985E-10 2.19200E-08
 -1       678 2.63754E+02-4.30705E+05-5.38451E+03 1.28784E+02 6.15273E-10 5.96237E-09
 -1       679-5.19677E+03-4.34585E+05-1.27279E+04-2.56542E+02-7.31507E-09 6.58542E-09
 -1       680 2.90804E+03-4.27769E+05-2.06497E+04 1.25989E+02-2.20462E-09 1.48018E-08
 -1       771-4.65975E+06-8.68591E+05-1.22194E+05-1.97595E+06 2.08966E-08-5.67525E-09
 -1       772-4.62602E+06-9.21979E+05-6.40857E+04-2.03863E+06-2.70666E-08-7.34872E-09
 -1       773-4.68004E+06-8.50898E+05-3.01950E+04-1.98330E+06-1.44064E-08-9.02219E-09
 -1       774-4.61084E+06-9.10795E+05-1.40782E+04-2.05389E+06 3.10247E-08-1.59307E-08
 -1       775-4.68902E+06-8.44321E+05-8.95394E+03-1.98467E+06 1.94268E-08-1.89175E-10
 -1       776-4.61297E+06-9.11877E+05-3.69540E+03-2.06530E+06 5.82077E-10 4.83124E-09
 -1       777-4.69672E+06-8.38517E+05-3.52631E+03-1.98599E+06 1.97906E-09-1.77170E-09
 -1       778-4.61645E+06-9.12781E+05-1.25597E+03-2.07529E+06-2.15368E-09-2.01908E-09
 -1       779-4.70338E+06-8.33415E+05-1.89252E+03-1.98729E+06-6.83940E-10-2.23736E-09
 -1       780-4.61994E+06-9.13275E+05-9.59849E+02-2.08355E+06-1.92376E-08-5.36966E-09
 -1       781-4.70866E+06-8.29276E+05-1.92028E+03-1.98839E+06-7.05040E-09 5.58430E-09
 -1       782-4.62300E+06-9.13623E+05-2.72176E+03-2.08972E+06 1.61963E-08 9.82982E-09
 -1       783-4.71221E+06-8.26444E+05-5.54404E+03-1.98913E+06 7.37782E-09-4.62182E-09
 -1       784-4.62808E+06-9.17096E+05-1.27700E+04-2.09337E+06-3.78423E-08-1.03282E-08
 -1       785-4.71180E+06-8.26995E+05-2.38137E+04-1.98776E+06 1.31949E-08-2.43017E-09
 -1       786 3.44728E+05-1.83270E+04 4.26415E+04-9.50158E+01 2.46786E-09 6.48470E-09
 -1       787 3.63163E+05 2.12249E+04 3.01288E+04-2.76199E+01 1.78421E-09 7.95853E-09
 -1       788 3.51850E+05-2.85884E+03 1.10392E+04-7.09170E+01 1.35106E-09 1.08398E-08
 -1       789 3.54874E+05 3.30877E+03 6.92336E+03-7.24086E+01 7.41796E-11 1.25629E-08
 -1       790 3.53020E+05-4.44404E+02 2.82292E+03-5.02351E+01 2.44219E-10-4.72494E-09
 -1       791 3.53510E+05 5.16509E+02 1.65517E+03-1.17198E+02-6.23821E-10 5.42630E-09
 -1       792 3.53215E+05-7.13641E+01 7.58318E+02-2.61283E+01-1.30910E-10 8.32620E-09
 -1       793 3.53291E+05 1.00977E+02 4.99283E+02-1.75270E+02 3.72324E-11 2.66915E-08
 -1       794 3.53240E+05-2.94967E+01 3.75125E+02 7.83799E+00 1.75031E-10 4.18468E-09
 -1       795 3.53316E+05 1.54918E+02 5.48676E+02-2.61811E+02 9.15755E-10 3.11624E-09
 -1       796 3.53191E+05-1.25226E+02 8.27218E+02 6.04144E+01-2.05834E-10 4.06109E-09
 -1       797 3.53691E+05 9.23350E+02 1.95066E+03-3.99096E+02 6.42076E-10 5.14964E-09
 -1       798 3.52864E+05-7.96680E+02 3.08508E+03 1.45125E+02-7.10227E-10 8.95193E-09
 -1       799 3.56004E+05 5.91378E+03 8.40031E+03-6.23564E+02-9.27420E-10 9.78775E-09
 -1       800 3.50876E+05-5.10659E+03 1.18790E+04 2.84883E+02-2.08608E-10 1.01090E-09
 -1       801-2.36061E+04-7.20411E+05-6.49433E+04 9.64217E+04 5.40240E-08-1.55405E-08
 -1       802 5.14744E+04-2.40498E+05 9.37944E+04-3.61567E+05 1.30945E-07-9.37348E-09
 -1       803-1.83903E+04-4.76077E+05 1.04496E+05 1.14283E+05 1.17267E-07 4.34079E-08
 -1       804 2.47937E+05-9.01431E+04 3.58322E+05-3.59879E+05 1.18529E-07 5.16350E-08
 -1       805-2.22362E+05-8.66946E+05 3.57428E+05 9.46296E+04 5.04951E-08 3.96467E-08
 -1       806-4.08343E+05-8.73543E+04-3.47722E+04-1.69300E+05 3.72847E-09 2.47965E-08
 -1       807-4.10434E+05-8.19811E+04-1.70451E+04-1.78430E+05-1.17484E-09 8.03641E-09
 -1       808-4.09250E+05-7.45092E+04-7.22804E+03-1.75295E+05 3.34512E-09-3.71875E-09
 -1       809-4.06812E+05-7.71764E+04-3.53164E+03-1.78944E+05-3.18141E-09-3.21609E-08
 -1       810-4.09395E+05-7.40433E+04-1.61630E+03-1.75563E+05 1.01090E-08-1.14323E-09
 -1       811-4.06526E+05-7.69837E+04-8.00980E+02-1.78897E+05 9.68566E-09-4.83897E-09
 -1       812-4.09414E+05-7.40801E+04-3.99441E+02-1.75560E+05 6.84395E-09-3.08319E-09
 -1       813-4.06483E+05-7.69904E+04-2.49769E+02-1.78867E+05 2.69984E-09 1.20324E-08
 -1       814-4.09400E+05-7.40989E+04-2.32195E+02-1.75550E+05 3.70983E-09-4.72937E-11
 -1       815-4.06478E+05-7.69972E+04-3.58425E+02-1.78849E+05-4.80532E-09 1.61485E-08
 -1       816-4.09364E+05-7.41047E+04-6.70432E+02-1.75539E+05 2.64572E-09 4.76757E-09
 -1       817-4.06582E+05-7.70660E+04-1.43321E+03-1.78822E+05 4.71118E-10-2.03390E-08
 -1       818-4.09264E+05-7.43269E+04-2.92338E+03-1.75434E+05 3.41606E-09 1.35333E-09
 -1       819-4.08183E+05-7.88414E+04-6.87633E+03-1.78394E+05-3.02043E-09 2.42526E-08
 -1       820-4.08718E+05-7.96631E+04-1.40285E+04-1.73173E+05-4.74756E-10 1.39132E-08
 -1       821-5.43782E+05 2.95331E+04-6.86562E+04 4.35808E+02-2.21729E-10-3.05590E-09
 -1       822-5.73469E+05-3.42015E+04-4.85287E+04-2.66021E+03-1.41766E-09-1.71995E-08
 -1       823-5.55262E+05 4.60716E+03-1.77859E+04 2.50600E+02 1.70976E-09-8.79481E-10
 -1       824-5.60077E+05-5.33501E+03-1.11648E+04-1.95127E+03 1.06444E-09-1.51203E-09
 -1       825-5.57164E+05 7.16267E+02-4.60257E+03-2.73159E+02-5.74320E-09 3.53270E-09
 -1       826-5.57864E+05-8.45764E+02-2.76403E+03-7.62429E+02-9.37581E-09 1.13926E-08
 -1       827-5.57471E+05 1.24296E+02-1.44129E+03-9.38258E+02-7.84918E-09 2.38344E-09
 -1       828-5.57581E+05-2.54433E+02-1.26446E+03 4.65199E+02-1.01775E-08 1.05125E-11
 -1       829-5.57448E+05 1.26648E+02-1.46224E+03-1.50081E+03-5.96863E-10-5.99465E-09
 -1       830-5.57938E+05-8.64686E+02-2.84747E+03 1.28136E+03 3.94402E-09-1.34634E-08
 -1       831-5.57116E+05 7.35246E+02-4.72647E+03-1.75444E+03-3.58722E-09-4.73506E-09
 -1       832-5.60201E+05-5.48348E+03-1.14982E+04 1.38910E+03-2.22101E-09-1.57115E-10
 -1       833-5.55189E+05 4.73803E+03-1.83071E+04-1.60854E+03-1.74521E-09-7.87350E-09
 -1       834-5.73915E+05-3.51968E+04-4.99479E+04 7.58064E+02 3.78606E-10 9.68703E-09
 -1       835-5.43407E+05 3.03945E+04-7.06802E+04-1.12332E+03 6.68985E-09-7.42148E-10
 -1       836-2.38747E+03 5.23227E+05 3.29438E+04-4.11702E+04-3.15049E-09 3.46790E-09
 -1       837 7.60608E+03 5.33564E+05 2.77969E+04-8.55884E+04-6.67387E-09 4.80554E-09
 -1       838-7.61472E+02 5.26131E+05 2.78546E+04-4.10512E+04-4.93401E-09 1.07755E-08
 -1       839 1.82998E+04 5.41320E+05 5.25528E+04-8.56176E+04-7.16773E-09 3.77378E-09
 -1       840-6.48035E+03 5.15329E+05 8.31218E+04-4.11352E+04-4.60568E-09 2.68938E-09
 -1       856-1.85954E+05 1.43768E+04-3.88957E+04-8.22298E+02-7.94626E-09-3.49246E-10
 -1       857-2.01871E+05-1.69189E+04-2.66444E+04 9.39953E+03-5.65916E-09 5.58930E-09
 -1       858-1.92270E+05 1.97087E+03-1.00991E+04-8.99884E+02-1.02705E-08 7.62702E-09
 -1       859-1.94646E+05-2.28161E+03-6.05938E+03 9.52450E+03-1.58332E-09 6.80711E-09
 -1       860-1.93195E+05 2.67284E+02-2.56615E+03-9.47950E+02 1.10481E-09-9.88564E-09
 -1       861-1.93588E+05-2.74828E+02-1.42493E+03 9.59013E+03-4.74836E-09 1.27460E-08
 -1       862-1.93336E+05 3.39099E+01-6.39307E+02-9.65671E+02 7.00727E-09-3.79123E-09
 -1       863-1.93422E+05-4.25383E-01-3.30963E+02 9.59616E+03 1.88295E-08-5.44350E-09
 -1       864-1.93362E+05 3.56848E-01-1.37614E+02-9.54001E+02 8.17849E-09-1.61707E-08
 -1       865-1.93376E+05 4.32793E+01-2.92663E+01 9.54229E+03 8.56465E-09 1.23514E-10
 -1       866-1.93375E+05-1.41810E+01 5.32892E+01-9.11777E+02-6.19173E-09 2.69266E-09
 -1       867-1.93306E+05 1.16375E+02 2.09129E+02 9.42833E+03 7.25379E-10 1.36356E-08
 -1       868-1.93417E+05-8.10691E+01 3.60613E+02-8.39998E+02 2.91993E-09 4.50532E-09
 -1       869-1.92997E+05 6.54751E+02 9.95407E+02 9.24688E+03 1.19388E-09 1.46063E-08
 -1       870-1.93662E+05-5.49086E+02 1.43476E+03-7.30302E+02 7.76186E-09-4.66929E-09
 -1       871-7.63669E+03-1.96977E+04-2.51102E+04 1.70692E+05-3.71256E-09 5.65524E-09
 -1       872-3.53694E+03-2.54264E+04-1.02068E+04 2.23170E+05-3.40515E-09 3.03226E-09
 -1       873-1.99312E+02-2.28894E+04 1.58919E+03 1.70318E+05-1.58343E-09 1.70780E-08
 -1       874 3.76375E+03-1.90691E+04 1.45676E+04 2.23248E+05-2.79215E-09 1.91881E-08
 -1       875 8.69620E+03-2.62790E+04 3.20731E+04 1.70645E+05-1.67893E-09 2.77832E-08
 -1       876 4.20664E+05 7.20588E+04 2.32889E+04 1.70396E+05-3.22541E-09-1.79352E-09
 -1       877 4.22282E+05 7.73552E+04 1.24955E+04 1.76981E+05-1.14703E-08 1.99816E-09
 -1       878 4.22891E+05 6.97718E+04 5.22488E+03 1.72230E+05-4.28508E-09 4.25007E-09
 -1       879 4.19080E+05 7.41318E+04 2.60599E+03 1.77132E+05-2.89197E-09 2.45195E-08
 -1       880 4.23046E+05 6.97573E+04 1.21105E+03 1.72307E+05 7.24958E-09 2.10155E-08
 -1       881 4.18865E+05 7.39890E+04 6.43523E+02 1.77091E+05-1.72286E-08-1.23541E-09
 -1       882 4.23058E+05 6.97797E+04 4.04916E+02 1.72310E+05-1.05024E-09 1.44760E-09
 -1       883 4.18849E+05 7.39809E+04 4.25120E+02 1.77077E+05 1.11290E-08-7.50583E-09
 -1       884 4.23048E+05 6.97770E+04 6.66501E+02 1.72310E+05 7.31097E-09-1.25233E-08
 -1       885 4.18902E+05 7.39914E+04 1.33420E+03 1.77092E+05-3.17686E-09 1.30075E-08
 -1       886 4.22997E+05 6.97384E+04 2.68511E+03 1.72304E+05 1.77118E-09-2.52135E-09
 -1       887 4.19382E+05 7.43139E+04 5.86785E+03 1.77161E+05 7.10367E-09 7.26959E-09
 -1       888 4.22621E+05 6.97826E+04 1.18086E+04 1.72120E+05-6.43058E-09 2.99588E-09
 -1       889 4.26486E+05 8.17278E+04 2.82574E+04 1.76928E+05 7.00496E-10-3.99814E-09
 -1       890 4.17684E+05 7.48512E+04 5.26815E+04 1.67824E+05-4.03134E-09 8.36917E-09
 -1       891-3.36340E+02-2.37404E+05-3.48060E+03 4.47210E+04 1.63550E-09-1.09937E-08
 -1       892-6.32416E+02-2.38227E+05-3.43915E+03 6.87456E+04 5.38057E-09 1.15399E-08
 -1       893-1.25788E+02-2.37547E+05-4.53844E+03 4.47296E+04 8.84029E-09-6.48106E-09
 -1       894-2.54050E+03-2.39772E+05-9.17576E+03 6.84996E+04 1.52604E-08 2.30648E-09
 -1       895-1.73582E+03-2.35597E+05-1.59927E+04 4.49606E+04-3.71529E-10-7.16500E-09
 -1       956-5.28499E+05-7.50254E+03-1.94396E+04 3.63751E+04-3.99632E-09-1.50662E-08
 -1       957-5.32388E+05-2.54509E+03-1.00021E+04 4.40912E+04-6.70298E-10 6.48561E-09
 -1       958-5.30273E+05-1.70199E+02-4.50879E+03 3.61301E+04-1.11868E-09-8.93988E-09
 -1       959-5.30596E+05 1.00792E+01-2.30258E+03 4.43566E+04-1.07902E-08-1.03973E-08
 -1       960-5.30451E+05 1.03217E+02-1.12349E+03 3.61042E+04-7.74889E-09 3.41470E-09
 -1       961-5.30490E+05 1.18321E+02-5.94323E+02 4.43873E+04-1.23291E-08 3.31647E-09
 -1       962-5.30498E+05 1.06001E+02-3.38635E+02 3.60987E+04-8.77390E-09 1.98634E-09
 -1       963-5.30500E+05 1.29326E+02-2.67997E+02 4.43950E+04-8.14634E-09 5.64523E-09
 -1       964-5.30513E+05 1.15025E+02-3.21567E+02 3.60963E+04-2.66482E-10-2.97950E-09
 -1       965-5.30524E+05 1.37707E+02-5.52401E+02 4.43961E+04 7.56658E-09 3.99768E-09
 -1       966-5.30497E+05 1.29947E+02-1.03584E+03 3.60975E+04 1.75328E-09 1.49005E-08
 -1       967-5.30654E+05 5.58051E+01-2.12317E+03 4.43808E+04 1.25967E-08-8.16726E-09
 -1       968-5.30358E+05-1.05500E+02-4.15415E+03 3.61121E+04 5.08589E-09-3.05209E-09
 -1       969-5.32338E+05-2.28517E+03-9.22226E+03 4.42206E+04 7.86258E-10-1.03818E-08
 -1       970-5.28743E+05-6.85616E+03-1.79207E+04 3.62675E+04 8.03084E-10 8.13634E-09
 -1       971-5.01484E+05-2.41775E+03-1.45845E+04 2.30466E+04-4.93401E-09-8.77336E-10
 -1       972-5.05083E+05-1.87432E+03-7.97405E+03 3.27539E+04-8.13998E-11-4.54793E-09
 -1       973-5.03144E+05 9.87556E+00-3.56862E+03 2.28395E+04 2.53749E-10 4.14661E-09
 -1       974-5.03412E+05 2.82317E+01-1.84892E+03 3.29807E+04 1.45833E-08-8.28345E-09
 -1       975-5.03286E+05 8.43891E+01-9.23002E+02 2.28153E+04 5.12773E-09-3.75530E-09
 -1       976-5.03330E+05 1.17682E+02-5.28124E+02 3.30126E+04-4.01201E-09-3.63707E-09
 -1       977-5.03321E+05 9.16985E+01-3.77249E+02 2.28071E+04 3.45790E-09-1.87356E-09
 -1       978-5.03346E+05 1.32224E+02-4.32318E+02 3.30241E+04 2.07306E-08-6.23641E-09
 -1       979-5.03325E+05 1.06350E+02-6.87646E+02 2.28035E+04 4.94299E-09-1.11067E-08
 -1       980-5.03399E+05 1.36679E+02-1.32361E+03 3.30262E+04 1.49066E-08-1.07448E-08
 -1       981-5.03281E+05 1.37356E+02-2.56175E+03 2.28048E+04 3.42652E-09-6.76079E-09
 -1       982-5.03749E+05-6.31314E+01-5.29645E+03 3.30129E+04 6.68479E-10-9.36362E-09
 -1       983-5.02949E+05-1.57585E+01-1.02836E+04 2.28177E+04-3.40651E-09-4.18822E-10
 -1       984-5.08730E+05-5.49961E+03-2.30597E+04 3.28699E+04-1.97820E-08-1.01027E-08
 -1       985-4.98238E+05-6.97107E+03-4.21650E+04 2.29667E+04 3.24690E-09-5.85715E-09
 -3
 9999
