
 stresses (elem, integ.pnt.,sxx,syy,szz,sxy,sxz,syz) for set ELALL and time  0.1000000E+01

         1   1  2.747607E+06  1.005188E+07  2.601630E+06 -1.958401E+06  1.249945E+05  1.004928E+06
         1   2  2.222349E+06  8.566799E+06  1.747959E+06 -1.810444E+06  4.221950E+05  4.607782E+05
         1   3  1.840657E+06  7.193676E+06  1.281982E+06 -1.887217E+06  4.947206E+05 -8.168544E+04
         1   4  1.095049E+05 -7.103759E+05  1.135817E+05 -1.855104E+06  1.284409E+05  7.382868E+04
         1   5  3.659367E+04 -7.172275E+05  6.091894E+04 -1.742979E+06  4.246696E+05  4.481652E+04
         1   6  1.964454E+04 -7.018176E+05  4.181661E+04 -1.855556E+06  4.947334E+05  1.606794E+04
         1   7 -2.536214E+06 -1.136480E+07 -2.378995E+06 -1.753357E+06  1.316297E+05 -8.414515E+05
         1   8 -2.153897E+06 -9.917775E+06 -1.628934E+06 -1.676346E+06  4.270825E+05 -3.651605E+05
         1   9 -1.804431E+06 -8.535598E+06 -1.199847E+06 -1.824141E+06  4.947559E+05  1.126340E+05
         1  10  2.747323E+06  1.005081E+07  2.599731E+06 -1.958502E+06  2.772814E-09  4.708675E-09
         1  11  2.222101E+06  8.566525E+06  1.747228E+06 -1.810600E+06  6.187509E-09  1.720670E-10
         1  12  1.840392E+06  7.193603E+06  1.281511E+06 -1.887185E+06  5.253215E-09 -3.575058E-09
         1  13  1.094857E+05 -7.103862E+05  1.135404E+05 -1.855111E+06  6.923553E-10 -7.278106E-13
         1  14  3.639948E+04 -7.172781E+05  6.057614E+04 -1.742994E+06  3.811904E-09  6.078340E-11
         1  15  1.938170E+04 -7.018835E+05  4.135622E+04 -1.855563E+06  3.236253E-09  3.911180E-11
         1  16 -2.536426E+06 -1.136558E+07 -2.380380E+06 -1.753268E+06  4.988389E-09 -4.523229E-09
         1  17 -2.154129E+06 -9.917968E+06 -1.629529E+06 -1.676220E+06  2.765474E-09 -1.072601E-10
         1  18 -1.804697E+06 -8.535677E+06 -1.200332E+06 -1.824186E+06 -6.646598E-10  4.294998E-09
         1  19  2.747607E+06  1.005188E+07  2.601630E+06 -1.958401E+06 -1.249945E+05 -1.004928E+06
         1  20  2.222349E+06  8.566799E+06  1.747959E+06 -1.810444E+06 -4.221950E+05 -4.607782E+05
         1  21  1.840657E+06  7.193676E+06  1.281982E+06 -1.887217E+06 -4.947206E+05  8.168544E+04
         1  22  1.095049E+05 -7.103759E+05  1.135817E+05 -1.855104E+06 -1.284409E+05 -7.382868E+04
         1  23  3.659367E+04 -7.172275E+05  6.091894E+04 -1.742979E+06 -4.246696E+05 -4.481652E+04
         1  24  1.964454E+04 -7.018176E+05  4.181661E+04 -1.855556E+06 -4.947334E+05 -1.606794E+04
         1  25 -2.536214E+06 -1.136480E+07 -2.378995E+06 -1.753357E+06 -1.316297E+05  8.414515E+05
         1  26 -2.153897E+06 -9.917775E+06 -1.628934E+06 -1.676346E+06 -4.270825E+05  3.651605E+05
         1  27 -1.804431E+06 -8.535598E+06 -1.199847E+06 -1.824141E+06 -4.947559E+05 -1.126340E+05
         2   1  1.627512E+06  6.287703E+06  1.104255E+06 -1.894095E+06  4.602817E+05 -9.765738E+04
         2   2  1.290406E+06  4.850791E+06  8.389590E+05 -1.761560E+06  3.994879E+05 -1.818199E+05
         2   3  9.806622E+05  3.433381E+06  6.348867E+05 -1.870310E+06  3.102688E+05 -2.661525E+05
         2   4  2.063127E+04 -7.029252E+05  3.763279E+04 -1.859268E+06  4.600778E+05  9.517602E+03
         2   5  2.226612E+04 -7.034345E+05  3.871342E+04 -1.738531E+06  3.986048E+05 -9.943241E+03
         2   6  4.025008E+04 -6.975804E+05  5.637355E+04 -1.859203E+06  3.085744E+05 -2.975505E+04
         2   7 -1.588587E+06 -7.644904E+06 -1.030002E+06 -1.824705E+06  4.598839E+05  1.155413E+05
         2   8 -1.247266E+06 -6.226596E+06 -7.619091E+05 -1.715625E+06  3.977287E+05  1.604699E+05
         2   9 -9.008919E+05 -4.811179E+06 -5.221514E+05 -1.848118E+06  3.068804E+05  2.051453E+05
         2  10  1.627282E+06  6.287636E+06  1.103840E+06 -1.894059E+06  4.569909E-09  2.959229E-08
         2  11  1.290227E+06  4.850713E+06  8.385985E+05 -1.761501E+06  2.207136E-09 -9.324592E-09
         2  12  9.805403E+05  3.433279E+06  6.345746E+05 -1.870243E+06  3.465293E-09 -5.059749E-08
         2  13  2.040401E+04 -7.029821E+05  3.723493E+04 -1.859272E+06 -3.415835E-09  2.072343E-10
         2  14  2.209557E+04 -7.034772E+05  3.841482E+04 -1.738528E+06 -5.167060E-09  3.663005E-10
         2  15  4.014769E+04 -6.976068E+05  5.619315E+04 -1.859196E+06 -1.255239E-08 -5.146377E-11
         2  16 -1.588818E+06 -7.644975E+06 -1.030426E+06 -1.824748E+06 -2.592921E-09 -2.914337E-08
         2  17 -1.247443E+06 -6.226667E+06 -7.622559E+05 -1.715677E+06  6.231267E-09  9.532203E-09
         2  18 -9.010047E+05 -4.811250E+06 -5.224088E+05 -1.848169E+06  1.103888E-08  4.996541E-08
         2  19  1.627512E+06  6.287703E+06  1.104255E+06 -1.894095E+06 -4.602817E+05  9.765738E+04
         2  20  1.290406E+06  4.850791E+06  8.389590E+05 -1.761560E+06 -3.994879E+05  1.818199E+05
         2  21  9.806622E+05  3.433381E+06  6.348867E+05 -1.870310E+06 -3.102688E+05  2.661525E+05
         2  22  2.063127E+04 -7.029252E+05  3.763279E+04 -1.859268E+06 -4.600778E+05 -9.517602E+03
         2  23  2.226612E+04 -7.034345E+05  3.871342E+04 -1.738531E+06 -3.986048E+05  9.943241E+03
         2  24  4.025008E+04 -6.975804E+05  5.637355E+04 -1.859203E+06 -3.085744E+05  2.975505E+04
         2  25 -1.588587E+06 -7.644904E+06 -1.030002E+06 -1.824705E+06 -4.598839E+05 -1.155413E+05
         2  26 -1.247266E+06 -6.226596E+06 -7.619091E+05 -1.715625E+06 -3.977287E+05 -1.604699E+05
         2  27 -9.008919E+05 -4.811179E+06 -5.221514E+05 -1.848118E+06 -3.068804E+05 -2.051453E+05
         3   1  7.853755E+05  2.551023E+06  5.192524E+05 -1.872577E+06  2.484321E+05 -2.772024E+05
         3   2  5.118111E+05  1.110634E+06  3.722018E+05 -1.668039E+06  1.430210E+05 -3.458515E+05
         3   3  3.411817E+05 -2.955604E+05  2.948123E+05 -1.706798E+06  3.548219E+04 -4.144846E+05
         3   4  4.812622E+04 -6.908506E+05  7.111003E+04 -1.859679E+06  2.465803E+05 -3.979800E+04
         3   5  1.005703E+05 -7.055076E+05  1.241578E+05 -1.737409E+06  1.410465E+05 -1.038176E+05
         3   6  2.552651E+05 -6.890093E+05  2.434840E+05 -1.858291E+06  3.340102E+04 -1.679542E+05
         3   7 -6.895557E+05 -3.921956E+06 -3.769437E+05 -1.846817E+06  2.447314E+05  1.964261E+05
         3   8 -3.107616E+05 -2.518157E+06 -1.236975E+05 -1.806557E+06  1.390139E+05  1.375416E+05
         3   9  1.694625E+05 -1.082118E+06  1.923960E+05 -2.009684E+06  3.119852E+04  7.842729E+04
         3  10  7.852891E+05  2.550925E+06  5.189936E+05 -1.872522E+06  3.099136E-09 -2.068042E-08
         3  11  5.117573E+05  1.110500E+06  3.719396E+05 -1.667999E+06  8.143343E-09  6.951615E-09
         3  12  3.411343E+05 -2.957452E+05  2.944871E+05 -1.706786E+06  3.832190E-09  3.646335E-08
         3  13  4.806058E+04 -6.908686E+05  7.099298E+04 -1.859671E+06 -1.775437E-08 -4.675419E-11
         3  14  1.005461E+05 -7.055245E+05  1.241003E+05 -1.737397E+06 -4.870654E-09 -4.883171E-11
         3  15  2.552563E+05 -6.890399E+05  2.434289E+05 -1.858287E+06 -2.605144E-09 -6.707940E-11
         3  16 -6.896306E+05 -3.922014E+06 -3.771298E+05 -1.846856E+06  5.618453E-09  2.016414E-08
         3  17 -3.107876E+05 -2.518183E+06 -1.237697E+05 -1.806573E+06  4.644047E-09 -7.545842E-09
         3  18  1.694598E+05 -1.082125E+06  1.923826E+05 -2.009686E+06  3.998624E-10 -3.607119E-08
         3  19  7.853755E+05  2.551023E+06  5.192524E+05 -1.872577E+06 -2.484321E+05  2.772024E+05
         3  20  5.118111E+05  1.110634E+06  3.722018E+05 -1.668039E+06 -1.430210E+05  3.458515E+05
         3  21  3.411817E+05 -2.955604E+05  2.948123E+05 -1.706798E+06 -3.548219E+04  4.144846E+05
         3  22  4.812622E+04 -6.908506E+05  7.111003E+04 -1.859679E+06 -2.465803E+05  3.979800E+04
         3  23  1.005703E+05 -7.055076E+05  1.241578E+05 -1.737409E+06 -1.410465E+05  1.038176E+05
         3  24  2.552651E+05 -6.890093E+05  2.434840E+05 -1.858291E+06 -3.340102E+04  1.679542E+05
         3  25 -6.895557E+05 -3.921956E+06 -3.769437E+05 -1.846817E+06 -2.447314E+05 -1.964261E+05
         3  26 -3.107616E+05 -2.518157E+06 -1.236975E+05 -1.806557E+06 -1.390139E+05 -1.375416E+05
         3  27  1.694625E+05 -1.082118E+06  1.923960E+05 -2.009684E+06 -3.119852E+04 -7.842729E+04
         4   1 -1.067631E+07 -3.116684E+06 -2.206794E+06 -3.585081E+06 -1.434030E+06 -5.389056E+05
         4   2 -1.018295E+07 -1.051041E+06 -8.471860E+05 -4.052303E+06 -9.206025E+05 -3.501876E+05
         4   3 -1.059032E+07 -1.315505E+06 -5.023097E+05 -3.960198E+06 -4.086512E+05 -1.576139E+05
         4   4 -1.106801E+07 -3.094468E+06 -2.281401E+06 -3.515263E+06 -1.434124E+06 -5.394476E+05
         4   5 -1.050006E+07 -1.128057E+06 -9.264691E+05 -4.093518E+06 -9.204876E+05 -3.502275E+05
         4   6 -1.083328E+07 -1.492573E+06 -5.868979E+05 -4.112371E+06 -4.082543E+05 -1.573934E+05
         4   7 -1.145949E+07 -3.072180E+06 -2.355994E+06 -3.445504E+06 -1.434217E+06 -5.399899E+05
         4   8 -1.081707E+07 -1.205076E+06 -1.005759E+06 -4.134721E+06 -9.203726E+05 -3.502675E+05
         4   9 -1.107617E+07 -1.669572E+06 -6.714902E+05 -4.264474E+06 -4.078576E+05 -1.571731E+05
         4  10 -1.067864E+07 -3.117566E+06 -2.211291E+06 -3.585711E+06  3.516065E-09  6.564717E-10
         4  11 -1.018391E+07 -1.051408E+06 -8.490449E+05 -4.052566E+06 -3.629110E-10  1.699274E-09
         4  12 -1.059051E+07 -1.315578E+06 -5.026774E+05 -3.960250E+06 -8.458280E-10 -2.777348E-09
         4  13 -1.107033E+07 -3.095352E+06 -2.285901E+06 -3.515894E+06 -2.768871E-10  7.533808E-10
         4  14 -1.050102E+07 -1.128424E+06 -9.283286E+05 -4.093781E+06 -4.634886E-09  9.461179E-10
         4  15 -1.083347E+07 -1.492646E+06 -5.872651E+05 -4.112424E+06  4.933677E-09 -5.832470E-10
         4  16 -1.146181E+07 -3.073064E+06 -2.360499E+06 -3.446136E+06  6.394212E-10  3.793703E-10
         4  17 -1.081803E+07 -1.205443E+06 -1.007619E+06 -4.134983E+06 -2.207253E-09  1.869979E-09
         4  18 -1.107636E+07 -1.669645E+06 -6.718568E+05 -4.264526E+06 -2.361916E-09 -2.346447E-09
         4  19 -1.067631E+07 -3.116684E+06 -2.206794E+06 -3.585081E+06  1.434030E+06  5.389056E+05
         4  20 -1.018295E+07 -1.051041E+06 -8.471860E+05 -4.052303E+06  9.206025E+05  3.501876E+05
         4  21 -1.059032E+07 -1.315505E+06 -5.023097E+05 -3.960198E+06  4.086512E+05  1.576139E+05
         4  22 -1.106801E+07 -3.094468E+06 -2.281401E+06 -3.515263E+06  1.434124E+06  5.394476E+05
         4  23 -1.050006E+07 -1.128057E+06 -9.264691E+05 -4.093518E+06  9.204876E+05  3.502275E+05
         4  24 -1.083328E+07 -1.492573E+06 -5.868979E+05 -4.112371E+06  4.082543E+05  1.573934E+05
         4  25 -1.145949E+07 -3.072180E+06 -2.355994E+06 -3.445504E+06  1.434217E+06  5.399899E+05
         4  26 -1.081707E+07 -1.205076E+06 -1.005759E+06 -4.134721E+06  9.203726E+05  3.502675E+05
         4  27 -1.107617E+07 -1.669572E+06 -6.714902E+05 -4.264474E+06  4.078576E+05  1.571731E+05
         5   1 -1.050945E+07 -1.665988E+06 -4.141593E+05 -3.894020E+06 -3.202057E+05 -1.239146E+05
         5   2 -1.043603E+07 -1.393932E+06 -1.546222E+05 -4.003053E+06 -2.053409E+05 -8.070834E+04
         5   3 -1.055708E+07 -1.419204E+06 -7.637776E+04 -3.967975E+06 -9.114293E+04 -3.573602E+04
         5   4 -1.077803E+07 -1.743554E+06 -4.838398E+05 -3.941583E+06 -3.202532E+05 -1.239491E+05
         5   5 -1.066279E+07 -1.474511E+06 -2.164492E+05 -4.058637E+06 -2.051671E+05 -8.064535E+04
         5   6 -1.074211E+07 -1.502922E+06 -1.305929E+05 -4.031567E+06 -9.073921E+04 -3.558096E+04
         5   7 -1.104653E+07 -1.821122E+06 -5.535257E+05 -3.989130E+06 -3.203006E+05 -1.239835E+05
         5   8 -1.088949E+07 -1.555088E+06 -2.782806E+05 -4.114203E+06 -2.049933E+05 -8.058237E+04
         5   9 -1.092711E+07 -1.586634E+06 -1.848115E+05 -4.095140E+06 -9.033563E+04 -3.542597E+04
         5  10 -1.050956E+07 -1.666033E+06 -4.143852E+05 -3.894052E+06 -1.412990E-09  9.067397E-10
         5  11 -1.043608E+07 -1.393951E+06 -1.547155E+05 -4.003067E+06 -4.851587E-09  3.027359E-09
         5  12 -1.055709E+07 -1.419208E+06 -7.639613E+04 -3.967977E+06  3.309564E-09 -5.215875E-09
         5  13 -1.077814E+07 -1.743599E+06 -4.840658E+05 -3.941615E+06  5.138922E-09 -2.119058E-10
         5  14 -1.066283E+07 -1.474530E+06 -2.165423E+05 -4.058651E+06 -4.407167E-09 -4.490872E-10
         5  15 -1.074212E+07 -1.502926E+06 -1.306111E+05 -4.031570E+06 -2.356183E-09 -5.432811E-10
         5  16 -1.104665E+07 -1.821167E+06 -5.537519E+05 -3.989162E+06 -2.968327E-10 -1.632323E-09
         5  17 -1.088954E+07 -1.555107E+06 -2.783737E+05 -4.114216E+06 -5.726456E-09 -2.638080E-09
         5  18 -1.092712E+07 -1.586637E+06 -1.848295E+05 -4.095143E+06 -1.711014E-09  7.591826E-10
         5  19 -1.050945E+07 -1.665988E+06 -4.141593E+05 -3.894020E+06  3.202057E+05  1.239146E+05
         5  20 -1.043603E+07 -1.393932E+06 -1.546222E+05 -4.003053E+06  2.053409E+05  8.070834E+04
         5  21 -1.055708E+07 -1.419204E+06 -7.637776E+04 -3.967975E+06  9.114293E+04  3.573602E+04
         5  22 -1.077803E+07 -1.743554E+06 -4.838398E+05 -3.941583E+06  3.202532E+05  1.239491E+05
         5  23 -1.066279E+07 -1.474511E+06 -2.164492E+05 -4.058637E+06  2.051671E+05  8.064535E+04
         5  24 -1.074211E+07 -1.502922E+06 -1.305929E+05 -4.031567E+06  9.073921E+04  3.558096E+04
         5  25 -1.104653E+07 -1.821122E+06 -5.535257E+05 -3.989130E+06  3.203006E+05  1.239835E+05
         5  26 -1.088949E+07 -1.555088E+06 -2.782806E+05 -4.114203E+06  2.049933E+05  8.058237E+04
         5  27 -1.092711E+07 -1.586634E+06 -1.848115E+05 -4.095140E+06  9.033563E+04  3.542597E+04
         6   1 -1.085436E+07 -1.590705E+06 -1.392396E+05 -4.042879E+06 -7.227917E+04 -2.693050E+04
         6   2 -1.084634E+07 -1.587307E+06 -9.437120E+04 -4.096767E+06 -4.663365E+04 -1.537297E+04
         6   3 -1.092077E+07 -1.576735E+06 -8.355834E+04 -4.070132E+06 -2.058480E+04 -4.884642E+03
         6   4 -1.073255E+07 -1.540564E+06 -1.045073E+05 -4.006091E+06 -7.195661E+04 -2.680904E+04
         6   5 -1.068862E+07 -1.526275E+06 -5.035480E+04 -4.053044E+06 -4.647201E+04 -1.531203E+04
         6   6 -1.072710E+07 -1.504771E+06 -3.012432E+04 -4.019478E+06 -2.058244E+04 -4.883737E+03
         6   7 -1.061073E+07 -1.490422E+06 -6.977643E+04 -3.969296E+06 -7.163397E+04 -2.668755E+04
         6   8 -1.053087E+07 -1.465240E+06 -6.340675E+03 -4.009310E+06 -4.631032E+04 -1.525106E+04
         6   9 -1.053339E+07 -1.432806E+06  2.330629E+04 -3.968809E+06 -2.058008E+04 -4.882831E+03
         6  10 -1.085437E+07 -1.590707E+06 -1.392510E+05 -4.042881E+06 -3.728461E-10 -3.670245E-09
         6  11 -1.084634E+07 -1.587308E+06 -9.437583E+04 -4.096767E+06  5.002995E-09 -9.480872E-10
         6  12 -1.092077E+07 -1.576735E+06 -8.355920E+04 -4.070132E+06  3.748990E-09  1.851717E-09
         6  13 -1.073256E+07 -1.540567E+06 -1.045186E+05 -4.006092E+06 -5.395968E-09 -1.172604E-10
         6  14 -1.068862E+07 -1.526276E+06 -5.035938E+04 -4.053044E+06 -1.166825E-08  2.576898E-09
         6  15 -1.072710E+07 -1.504772E+06 -3.012517E+04 -4.019478E+06 -3.899398E-09 -6.207400E-10
         6  16 -1.061073E+07 -1.490424E+06 -6.978763E+04 -3.969297E+06 -1.728892E-09  4.533953E-10
         6  17 -1.053088E+07 -1.465241E+06 -6.345230E+03 -4.009311E+06  3.468488E-09 -1.071951E-09
         6  18 -1.053340E+07 -1.432806E+06  2.330544E+04 -3.968809E+06 -6.573651E-09 -2.458460E-09
         6  19 -1.085436E+07 -1.590705E+06 -1.392396E+05 -4.042879E+06  7.227917E+04  2.693050E+04
         6  20 -1.084634E+07 -1.587307E+06 -9.437120E+04 -4.096767E+06  4.663365E+04  1.537297E+04
         6  21 -1.092077E+07 -1.576735E+06 -8.355834E+04 -4.070132E+06  2.058480E+04  4.884642E+03
         6  22 -1.073255E+07 -1.540564E+06 -1.045073E+05 -4.006091E+06  7.195661E+04  2.680904E+04
         6  23 -1.068862E+07 -1.526275E+06 -5.035480E+04 -4.053044E+06  4.647201E+04  1.531203E+04
         6  24 -1.072710E+07 -1.504771E+06 -3.012432E+04 -4.019478E+06  2.058244E+04  4.883737E+03
         6  25 -1.061073E+07 -1.490422E+06 -6.977643E+04 -3.969296E+06  7.163397E+04  2.668755E+04
         6  26 -1.053087E+07 -1.465240E+06 -6.340675E+03 -4.009310E+06  4.631032E+04  1.525106E+04
         6  27 -1.053339E+07 -1.432806E+06  2.330629E+04 -3.968809E+06  2.058008E+04  4.882831E+03
         7   1 -1.102999E+07 -1.650430E+06 -1.137160E+05 -4.122930E+06 -1.664199E+04 -2.714178E+03
         7   2 -1.102745E+07 -1.632226E+06 -1.010300E+05 -4.113261E+06 -9.527372E+03  8.599202E+02
         7   3 -1.101244E+07 -1.638183E+06 -9.604043E+04 -4.118836E+06 -1.609115E+03  2.297146E+03
         7   4 -1.070826E+07 -1.527109E+06 -2.405970E+04 -4.034976E+06 -1.636150E+04 -2.608588E+03
         7   5 -1.071418E+07 -1.512755E+06 -1.395024E+04 -4.028215E+06 -9.574171E+03  8.421512E+02
         7   6 -1.070756E+07 -1.522493E+06 -1.127067E+04 -4.036698E+06 -1.983513E+03  2.156490E+03
         7   7 -1.038643E+07 -1.403782E+06  6.558665E+04 -3.946981E+06 -1.608085E+04 -2.502936E+03
         7   8 -1.040081E+07 -1.393278E+06  7.312028E+04 -3.943130E+06 -9.620995E+03  8.243728E+02
         7   9 -1.040258E+07 -1.406797E+06  7.349040E+04 -3.954522E+06 -2.358118E+03  2.015757E+03
         7  10 -1.102999E+07 -1.650430E+06 -1.137165E+05 -4.122930E+06  9.907130E-10 -1.084974E-09
         7  11 -1.102745E+07 -1.632226E+06 -1.010302E+05 -4.113261E+06  6.914441E-10 -2.119246E-09
         7  12 -1.101244E+07 -1.638183E+06 -9.604044E+04 -4.118836E+06 -1.883796E-09  4.967704E-10
         7  13 -1.070826E+07 -1.527109E+06 -2.406022E+04 -4.034976E+06  3.485920E-09 -1.570252E-09
         7  14 -1.071418E+07 -1.512755E+06 -1.395042E+04 -4.028215E+06  1.144769E-09 -1.270250E-09
         7  15 -1.070756E+07 -1.522493E+06 -1.127069E+04 -4.036698E+06  1.288686E-09  4.804322E-10
         7  16 -1.038643E+07 -1.403782E+06  6.558614E+04 -3.946981E+06  1.285183E-09 -3.776516E-09
         7  17 -1.040081E+07 -1.393278E+06  7.312010E+04 -3.943130E+06 -1.057060E-10  2.690196E-09
         7  18 -1.040258E+07 -1.406797E+06  7.349038E+04 -3.954522E+06 -2.564819E-09  3.172984E-09
         7  19 -1.102999E+07 -1.650430E+06 -1.137160E+05 -4.122930E+06  1.664199E+04  2.714178E+03
         7  20 -1.102745E+07 -1.632226E+06 -1.010300E+05 -4.113261E+06  9.527372E+03 -8.599202E+02
         7  21 -1.101244E+07 -1.638183E+06 -9.604043E+04 -4.118836E+06  1.609115E+03 -2.297146E+03
         7  22 -1.070826E+07 -1.527109E+06 -2.405970E+04 -4.034976E+06  1.636150E+04  2.608588E+03
         7  23 -1.071418E+07 -1.512755E+06 -1.395024E+04 -4.028215E+06  9.574171E+03 -8.421512E+02
         7  24 -1.070756E+07 -1.522493E+06 -1.127067E+04 -4.036698E+06  1.983513E+03 -2.156490E+03
         7  25 -1.038643E+07 -1.403782E+06  6.558665E+04 -3.946981E+06  1.608085E+04  2.502936E+03
         7  26 -1.040081E+07 -1.393278E+06  7.312028E+04 -3.943130E+06  9.620995E+03 -8.243728E+02
         7  27 -1.040258E+07 -1.406797E+06  7.349040E+04 -3.954522E+06  2.358118E+03 -2.015757E+03
         8   1 -1.075348E+07 -1.556496E+06 -2.723301E+04 -4.066036E+06  4.589068E+02  1.800324E+03
         8   2 -1.074701E+07 -1.505030E+06 -1.875966E+04 -4.016302E+06  7.871015E+03  3.216672E+03
         8   3 -1.067668E+07 -1.530590E+06 -1.795466E+04 -4.042538E+06  1.533410E+04  4.498135E+03
         8   4 -1.069614E+07 -1.534338E+06 -1.131739E+04 -4.050148E+06  2.840176E+02  1.734711E+03
         8   5 -1.072841E+07 -1.498031E+06 -1.360918E+04 -4.011348E+06  7.675465E+03  3.143317E+03
         8   6 -1.069681E+07 -1.538745E+06 -2.355262E+04 -4.048518E+06  1.511741E+04  4.416852E+03
         8   7 -1.063880E+07 -1.512179E+06  4.597915E+03 -4.034259E+06  1.091105E+02  1.669090E+03
         8   8 -1.070981E+07 -1.491032E+06 -8.458741E+03 -4.006394E+06  7.479907E+03  3.069959E+03
         8   9 -1.071695E+07 -1.546900E+06 -2.915062E+04 -4.054497E+06  1.490072E+04  4.335572E+03
         8  10 -1.075348E+07 -1.556496E+06 -2.723302E+04 -4.066036E+06 -1.076959E-09  1.473311E-09
         8  11 -1.074701E+07 -1.505030E+06 -1.875979E+04 -4.016302E+06  2.946325E-09  6.380066E-09
         8  12 -1.067668E+07 -1.530590E+06 -1.795515E+04 -4.042538E+06  8.954311E-10  1.319564E-10
         8  13 -1.069614E+07 -1.534338E+06 -1.131739E+04 -4.050148E+06 -2.805244E-09  5.282071E-10
         8  14 -1.072841E+07 -1.498031E+06 -1.360931E+04 -4.011348E+06  5.159657E-09  2.665855E-09
         8  15 -1.069681E+07 -1.538745E+06 -2.355309E+04 -4.048518E+06  8.033985E-10  7.208912E-10
         8  16 -1.063880E+07 -1.512179E+06  4.597910E+03 -4.034259E+06  1.243122E-09  1.190690E-09
         8  17 -1.070981E+07 -1.491032E+06 -8.458866E+03 -4.006394E+06 -3.916911E-09 -1.179457E-09
         8  18 -1.071695E+07 -1.546900E+06 -2.915108E+04 -4.054497E+06 -3.890189E-09  4.178017E-10
         8  19 -1.075348E+07 -1.556496E+06 -2.723301E+04 -4.066036E+06 -4.589068E+02 -1.800324E+03
         8  20 -1.074701E+07 -1.505030E+06 -1.875966E+04 -4.016302E+06 -7.871015E+03 -3.216672E+03
         8  21 -1.067668E+07 -1.530590E+06 -1.795466E+04 -4.042538E+06 -1.533410E+04 -4.498135E+03
         8  22 -1.069614E+07 -1.534338E+06 -1.131739E+04 -4.050148E+06 -2.840176E+02 -1.734711E+03
         8  23 -1.072841E+07 -1.498031E+06 -1.360918E+04 -4.011348E+06 -7.675465E+03 -3.143317E+03
         8  24 -1.069681E+07 -1.538745E+06 -2.355262E+04 -4.048518E+06 -1.511741E+04 -4.416852E+03
         8  25 -1.063880E+07 -1.512179E+06  4.597915E+03 -4.034259E+06 -1.091105E+02 -1.669090E+03
         8  26 -1.070981E+07 -1.491032E+06 -8.458741E+03 -4.006394E+06 -7.479907E+03 -3.069959E+03
         8  27 -1.071695E+07 -1.546900E+06 -2.915062E+04 -4.054497E+06 -1.490072E+04 -4.335572E+03
         9   1 -1.041717E+07 -1.414091E+06  5.136794E+04 -3.963401E+06  2.029520E+04  4.983403E+03
         9   2 -1.040955E+07 -1.387734E+06  3.509676E+04 -3.944241E+06  4.595646E+04  1.299560E+04
         9   3 -1.040016E+07 -1.434900E+06 -1.367771E+04 -3.938545E+06  7.085279E+04  2.304373E+04
         9   4 -1.070849E+07 -1.523005E+06 -2.928895E+04 -4.040251E+06  1.991035E+04  4.838964E+03
         9   5 -1.071196E+07 -1.503673E+06 -4.906136E+04 -4.027006E+06  4.587516E+04  1.296481E+04
         9   6 -1.071375E+07 -1.557942E+06 -1.015937E+05 -4.027222E+06  7.107434E+04  2.312658E+04
         9   7 -1.099972E+07 -1.631915E+06 -1.099537E+05 -4.117069E+06  1.952569E+04  4.694598E+03
         9   8 -1.101429E+07 -1.619607E+06 -1.332281E+05 -4.109733E+06  4.579390E+04  1.293403E+04
         9   9 -1.102724E+07 -1.680978E+06 -1.895190E+05 -4.115858E+06  7.129577E+04  2.320939E+04
         9  10 -1.041717E+07 -1.414091E+06  5.136710E+04 -3.963401E+06  1.410735E-09 -2.039090E-09
         9  11 -1.040955E+07 -1.387735E+06  3.509240E+04 -3.944242E+06 -3.912745E-09  4.666775E-09
         9  12 -1.040017E+07 -1.434902E+06 -1.368835E+04 -3.938546E+06 -3.833266E-09  2.842622E-09
         9  13 -1.070849E+07 -1.523005E+06 -2.928975E+04 -4.040251E+06 -3.967903E-09  4.613036E-10
         9  14 -1.071197E+07 -1.503674E+06 -4.906571E+04 -4.027006E+06 -3.432393E-10  3.014358E-10
         9  15 -1.071375E+07 -1.557944E+06 -1.016044E+05 -4.027224E+06 -2.804022E-09 -8.523528E-10
         9  16 -1.099972E+07 -1.631915E+06 -1.099545E+05 -4.117069E+06 -2.982911E-09 -1.406314E-10
         9  17 -1.101429E+07 -1.619608E+06 -1.332324E+05 -4.109734E+06  4.583458E-09  4.472148E-10
         9  18 -1.102724E+07 -1.680980E+06 -1.895298E+05 -4.115860E+06  3.903648E-09  1.464026E-09
         9  19 -1.041717E+07 -1.414091E+06  5.136794E+04 -3.963401E+06 -2.029520E+04 -4.983403E+03
         9  20 -1.040955E+07 -1.387734E+06  3.509676E+04 -3.944241E+06 -4.595646E+04 -1.299560E+04
         9  21 -1.040016E+07 -1.434900E+06 -1.367771E+04 -3.938545E+06 -7.085279E+04 -2.304373E+04
         9  22 -1.070849E+07 -1.523005E+06 -2.928895E+04 -4.040251E+06 -1.991035E+04 -4.838964E+03
         9  23 -1.071196E+07 -1.503673E+06 -4.906136E+04 -4.027006E+06 -4.587516E+04 -1.296481E+04
         9  24 -1.071375E+07 -1.557942E+06 -1.015937E+05 -4.027222E+06 -7.107434E+04 -2.312658E+04
         9  25 -1.099972E+07 -1.631915E+06 -1.099537E+05 -4.117069E+06 -1.952569E+04 -4.694598E+03
         9  26 -1.101429E+07 -1.619607E+06 -1.332281E+05 -4.109733E+06 -4.579390E+04 -1.293403E+04
         9  27 -1.102724E+07 -1.680978E+06 -1.895190E+05 -4.115858E+06 -7.129577E+04 -2.320939E+04
        10   1 -1.051207E+07 -1.426158E+06 -6.536242E+04 -3.979664E+06  8.972014E+04  3.073372E+04
        10   2 -1.047601E+07 -1.400974E+06 -1.575995E+05 -4.003757E+06  2.012824E+05  7.337788E+04
        10   3 -1.063708E+07 -1.657180E+06 -4.262643E+05 -3.878884E+06  3.124288E+05  1.170896E+05
        10   4 -1.074298E+07 -1.501730E+06 -1.270239E+05 -4.029643E+06  8.969075E+04  3.072484E+04
        10   5 -1.066193E+07 -1.477839E+06 -2.104728E+05 -4.060325E+06  2.013864E+05  7.341466E+04
        10   6 -1.077807E+07 -1.735425E+06 -4.704918E+05 -3.942027E+06  3.126750E+05  1.171671E+05
        10   7 -1.097383E+07 -1.577303E+06 -1.886899E+05 -4.079607E+06  8.966138E+04  3.071597E+04
        10   8 -1.084781E+07 -1.554701E+06 -2.633494E+05 -4.116877E+06  2.014902E+05  7.345142E+04
        10   9 -1.091904E+07 -1.813662E+06 -5.147213E+05 -4.005154E+06  3.129212E+05  1.172446E+05
        10  10 -1.051208E+07 -1.426161E+06 -6.537966E+04 -3.979667E+06 -7.349518E-10  1.129432E-09
        10  11 -1.047606E+07 -1.400991E+06 -1.576875E+05 -4.003769E+06  2.460377E-09 -2.419808E-09
        10  12 -1.063719E+07 -1.657222E+06 -4.264776E+05 -3.878914E+06  1.644644E-09 -1.327432E-09
        10  13 -1.074299E+07 -1.501733E+06 -1.270411E+05 -4.029646E+06 -2.893442E-09 -1.668494E-09
        10  14 -1.066197E+07 -1.477856E+06 -2.105608E+05 -4.060337E+06  1.843382E-09 -2.915584E-09
        10  15 -1.077818E+07 -1.735467E+06 -4.707055E+05 -3.942057E+06 -3.089076E-10  8.039466E-10
        10  16 -1.097384E+07 -1.577306E+06 -1.887071E+05 -4.079609E+06 -1.391225E-09 -5.499684E-09
        10  17 -1.084786E+07 -1.554718E+06 -2.634376E+05 -4.116889E+06 -8.022419E-09  1.289573E-09
        10  18 -1.091915E+07 -1.813704E+06 -5.149354E+05 -4.005184E+06 -2.894187E-10  1.433202E-09
        10  19 -1.051207E+07 -1.426158E+06 -6.536242E+04 -3.979664E+06 -8.972014E+04 -3.073372E+04
        10  20 -1.047601E+07 -1.400974E+06 -1.575995E+05 -4.003757E+06 -2.012824E+05 -7.337788E+04
        10  21 -1.063708E+07 -1.657180E+06 -4.262643E+05 -3.878884E+06 -3.124288E+05 -1.170896E+05
        10  22 -1.074298E+07 -1.501730E+06 -1.270239E+05 -4.029643E+06 -8.969075E+04 -3.072484E+04
        10  23 -1.066193E+07 -1.477839E+06 -2.104728E+05 -4.060325E+06 -2.013864E+05 -7.341466E+04
        10  24 -1.077807E+07 -1.735425E+06 -4.704918E+05 -3.942027E+06 -3.126750E+05 -1.171671E+05
        10  25 -1.097383E+07 -1.577303E+06 -1.886899E+05 -4.079607E+06 -8.966138E+04 -3.071597E+04
        10  26 -1.084781E+07 -1.554701E+06 -2.633494E+05 -4.116877E+06 -2.014902E+05 -7.345142E+04
        10  27 -1.091904E+07 -1.813662E+06 -5.147213E+05 -4.005154E+06 -3.129212E+05 -1.172446E+05
        11   1 -1.095398E+07 -1.597205E+06 -6.167426E+05 -4.201386E+06  3.970200E+05  1.510572E+05
        11   2 -1.070811E+07 -1.206370E+06 -9.552127E+05 -4.137085E+06  8.946446E+05  3.411161E+05
        11   3 -1.142651E+07 -2.995704E+06 -2.281808E+06 -3.429791E+06  1.393691E+06  5.274755E+05
        11   4 -1.084872E+07 -1.474563E+06 -5.707339E+05 -4.088946E+06  3.976300E+05  1.513550E+05
        11   5 -1.048186E+07 -1.162644E+06 -9.009162E+05 -4.118954E+06  8.948503E+05  3.411152E+05
        11   6 -1.107898E+07 -3.030376E+06 -2.218600E+06 -3.505978E+06  1.393604E+06  5.269630E+05
        11   7 -1.074343E+07 -1.351872E+06 -5.247233E+05 -3.976478E+06  3.982401E+05  1.516531E+05
        11   8 -1.025556E+07 -1.118919E+06 -8.466223E+05 -4.100822E+06  8.950560E+05  3.411143E+05
        11   9 -1.073127E+07 -3.064972E+06 -2.155378E+06 -3.582220E+06  1.393517E+06  5.264507E+05
        11  10 -1.095416E+07 -1.597273E+06 -6.170887E+05 -4.201435E+06 -1.631026E-09  2.850522E-09
        11  11 -1.070901E+07 -1.206717E+06 -9.569708E+05 -4.137334E+06  3.010772E-10  4.135546E-09
        11  12 -1.142871E+07 -2.996542E+06 -2.286067E+06 -3.430391E+06  1.536846E-09  1.310557E-09
        11  13 -1.084890E+07 -1.474631E+06 -5.710810E+05 -4.088995E+06 -8.764459E-10  1.523991E-09
        11  14 -1.048277E+07 -1.162991E+06 -9.026744E+05 -4.119203E+06 -2.118936E-09  2.017556E-09
        11  15 -1.108118E+07 -3.031213E+06 -2.222855E+06 -3.506578E+06  5.477836E-09  2.820058E-11
        11  16 -1.074361E+07 -1.351940E+06 -5.250715E+05 -3.976527E+06  8.094178E-10 -6.700444E-10
        11  17 -1.025647E+07 -1.119266E+06 -8.483806E+05 -4.101070E+06 -5.470409E-09  3.334545E-09
        11  18 -1.073346E+07 -3.065808E+06 -2.159630E+06 -3.582818E+06 -2.925277E-09 -1.222084E-10
        11  19 -1.095398E+07 -1.597205E+06 -6.167426E+05 -4.201386E+06 -3.970200E+05 -1.510572E+05
        11  20 -1.070811E+07 -1.206370E+06 -9.552127E+05 -4.137085E+06 -8.946446E+05 -3.411161E+05
        11  21 -1.142651E+07 -2.995704E+06 -2.281808E+06 -3.429791E+06 -1.393691E+06 -5.274755E+05
        11  22 -1.084872E+07 -1.474563E+06 -5.707339E+05 -4.088946E+06 -3.976300E+05 -1.513550E+05
        11  23 -1.048186E+07 -1.162644E+06 -9.009162E+05 -4.118954E+06 -8.948503E+05 -3.411152E+05
        11  24 -1.107898E+07 -3.030376E+06 -2.218600E+06 -3.505978E+06 -1.393604E+06 -5.269630E+05
        11  25 -1.074343E+07 -1.351872E+06 -5.247233E+05 -3.976478E+06 -3.982401E+05 -1.516531E+05
        11  26 -1.025556E+07 -1.118919E+06 -8.466223E+05 -4.100822E+06 -8.950560E+05 -3.411143E+05
        11  27 -1.073127E+07 -3.064972E+06 -2.155378E+06 -3.582220E+06 -1.393517E+06 -5.264507E+05
        12   1  1.672183E+04 -1.196307E+05  2.465858E+04 -2.915077E+02  2.990432E+02 -7.799029E+02
        12   2  1.459168E+04 -1.212733E+05  2.598587E+04  1.765539E+02  3.075104E+02 -5.880675E+03
        12   3  2.123351E+04 -1.198339E+05  3.287255E+04  1.083149E+02  2.892869E+02 -1.098155E+04
        12   4  6.502454E+02 -1.839175E+05  8.598287E+03 -1.200745E+02  2.990451E+02 -7.813888E+02
        12   5 -1.454310E+03 -1.854581E+05  9.951387E+03  1.496558E+02  3.075124E+02 -5.879778E+03
        12   6  5.213191E+03 -1.839168E+05  1.686261E+04 -1.169203E+02  2.892913E+02 -1.097827E+04
        12   7 -1.542165E+04 -2.482006E+05 -7.462316E+03  5.134106E+01  2.990469E+02 -7.828745E+02
        12   8 -1.750061E+04 -2.496391E+05 -6.083406E+03  1.227608E+02  3.075145E+02 -5.878881E+03
        12   9 -1.080743E+04 -2.479960E+05  8.523551E+02 -3.421318E+02  2.892956E+02 -1.097499E+04
        12  10  1.672183E+04 -1.196307E+05  2.465858E+04 -2.915075E+02  1.053417E-09  1.112446E-10
        12  11  1.459167E+04 -1.212733E+05  2.598580E+04  1.765553E+02 -3.316936E-09 -2.164291E-10
        12  12  2.123347E+04 -1.198340E+05  3.287232E+04  1.083175E+02 -3.326699E-09  3.534919E-10
        12  13  6.502451E+02 -1.839175E+05  8.598286E+03 -1.200743E+02 -3.189861E-09 -1.680276E-11
        12  14 -1.454320E+03 -1.854581E+05  9.951322E+03  1.496572E+02 -1.982481E-10 -8.486215E-12
        12  15  5.213159E+03 -1.839169E+05  1.686238E+04 -1.169178E+02  5.931665E-10  1.233814E-10
        12  16 -1.542165E+04 -2.482006E+05 -7.462317E+03  5.134125E+01  5.494469E-09 -9.862483E-11
        12  17 -1.750062E+04 -2.496392E+05 -6.083472E+03  1.227623E+02  4.281877E-09  1.656236E-10
        12  18 -1.080747E+04 -2.479961E+05  8.521285E+02 -3.421292E+02  7.109709E-09 -3.615997E-10
        12  19  1.672183E+04 -1.196307E+05  2.465858E+04 -2.915077E+02 -2.990432E+02  7.799029E+02
        12  20  1.459168E+04 -1.212733E+05  2.598587E+04  1.765539E+02 -3.075104E+02  5.880675E+03
        12  21  2.123351E+04 -1.198339E+05  3.287255E+04  1.083149E+02 -2.892869E+02  1.098155E+04
        12  22  6.502454E+02 -1.839175E+05  8.598287E+03 -1.200745E+02 -2.990451E+02  7.813888E+02
        12  23 -1.454310E+03 -1.854581E+05  9.951387E+03  1.496558E+02 -3.075124E+02  5.879778E+03
        12  24  5.213191E+03 -1.839168E+05  1.686261E+04 -1.169203E+02 -2.892913E+02  1.097827E+04
        12  25 -1.542165E+04 -2.482006E+05 -7.462316E+03  5.134106E+01 -2.990469E+02  7.828745E+02
        12  26 -1.750061E+04 -2.496391E+05 -6.083406E+03  1.227608E+02 -3.075145E+02  5.878881E+03
        12  27 -1.080743E+04 -2.479960E+05  8.523551E+02 -3.421318E+02 -2.892956E+02  1.097499E+04
        13   1  1.317165E+04 -1.250000E+05  3.453143E+04 -1.242308E+03  2.873715E+02 -1.436785E+04
        13   2  5.880136E+03 -1.326000E+05  4.575402E+04  7.650164E+02  3.006043E+02 -3.106249E+04
        13   3  4.768693E+04 -1.255822E+05  8.015678E+04  1.272449E+03  2.788886E+02 -4.775728E+04
        13   4 -9.181956E+02 -1.813536E+05  2.045341E+04 -3.467126E+02  2.873534E+02 -1.436825E+04
        13   5 -8.134030E+03 -1.886603E+05  3.174946E+04  4.243937E+02  3.006215E+02 -3.105905E+04
        13   6  3.375014E+04 -1.813488E+05  6.622447E+04 -3.044022E+02  2.790062E+02 -4.775002E+04
        13   7 -1.500828E+04 -2.377043E+05  6.375157E+03  5.488024E+02  2.873353E+02 -1.436865E+04
        13   8 -2.214843E+04 -2.447179E+05  1.774467E+04  8.380244E+01  3.006387E+02 -3.105562E+04
        13   9  1.981313E+04 -2.371126E+05  5.229193E+04 -1.881111E+03  2.791238E+02 -4.774277E+04
        13  10  1.317160E+04 -1.250002E+05  3.453104E+04 -1.242305E+03 -8.835059E-10 -8.274734E-10
        13  11  5.879877E+03 -1.326010E+05  4.575220E+04  7.650240E+02 -9.964117E-10 -6.748606E-10
        13  12  4.768631E+04 -1.255847E+05  8.015250E+04  1.272460E+03  6.066686E-10  6.822377E-10
        13  13 -9.182512E+02 -1.813538E+05  2.045302E+04 -3.467092E+02  3.422220E-09 -2.066154E-10
        13  14 -8.134289E+03 -1.886614E+05  3.174765E+04  4.244012E+02 -1.992236E-09  3.796578E-13
        13  15  3.374953E+04 -1.813513E+05  6.622019E+04 -3.043915E+02  1.397042E-10  2.482635E-10
        13  16 -1.500834E+04 -2.377045E+05  6.374769E+03  5.488057E+02  3.289077E-09  8.145205E-10
        13  17 -2.214869E+04 -2.447189E+05  1.774286E+04  8.380996E+01 -5.250128E-09  5.540367E-10
        13  18  1.981252E+04 -2.371150E+05  5.228765E+04 -1.881100E+03 -3.686590E-09 -7.363443E-10
        13  19  1.317165E+04 -1.250000E+05  3.453143E+04 -1.242308E+03 -2.873715E+02  1.436785E+04
        13  20  5.880136E+03 -1.326000E+05  4.575402E+04  7.650164E+02 -3.006043E+02  3.106249E+04
        13  21  4.768693E+04 -1.255822E+05  8.015678E+04  1.272449E+03 -2.788886E+02  4.775728E+04
        13  22 -9.181956E+02 -1.813536E+05  2.045341E+04 -3.467126E+02 -2.873534E+02  1.436825E+04
        13  23 -8.134030E+03 -1.886603E+05  3.174946E+04  4.243937E+02 -3.006215E+02  3.105905E+04
        13  24  3.375014E+04 -1.813488E+05  6.622447E+04 -3.044022E+02 -2.790062E+02  4.775002E+04
        13  25 -1.500828E+04 -2.377043E+05  6.375157E+03  5.488024E+02 -2.873353E+02  1.436865E+04
        13  26 -2.214843E+04 -2.447179E+05  1.774467E+04  8.380244E+01 -3.006387E+02  3.105562E+04
        13  27  1.981313E+04 -2.371126E+05  5.229193E+04 -1.881111E+03 -2.791238E+02  4.774277E+04
        14   1  3.510146E+03 -1.239952E+05  9.012171E+04 -6.012542E+03  3.044320E+02 -6.102589E+04
        14   2 -4.175476E+04 -1.679607E+05  1.311290E+05  3.293661E+03  4.070723E+02 -1.271923E+05
        14   3  2.266400E+05 -1.248000E+05  2.936696E+05  1.066683E+04  3.929711E+02 -1.933565E+05
        14   4 -6.819077E+03 -1.652400E+05  7.981593E+04 -5.535645E+02  3.039036E+02 -6.102828E+04
        14   5 -5.195131E+04 -2.087870E+05  1.209329E+05  6.012270E+02  4.076197E+02 -1.271827E+05
        14   6  2.165847E+05 -1.652047E+05  2.835804E+05 -1.773628E+02  3.963287E+02 -1.933348E+05
        14   7 -1.714832E+04 -2.064831E+05  6.951003E+04  4.905051E+03  3.033751E+02 -6.103067E+04
        14   8 -6.214795E+04 -2.496117E+05  1.107367E+05 -2.091030E+03  4.081671E+02 -1.271730E+05
        14   9  2.065297E+05 -2.056077E+05  2.734912E+05 -1.102085E+04  3.996857E+02 -1.933131E+05
        14  10  3.509146E+03 -1.239992E+05  9.011471E+04 -6.012527E+03  1.544959E-09 -1.019453E-10
        14  11 -4.175910E+04 -1.679781E+05  1.310986E+05  3.293703E+03  1.034161E-09 -7.334242E-10
        14  12  2.266300E+05 -1.248402E+05  2.935994E+05  1.066689E+04  5.499087E-09  4.098023E-10
        14  13 -6.820077E+03 -1.652440E+05  7.980893E+04 -5.535495E+02  5.557886E-10 -3.584185E-10
        14  14 -5.195565E+04 -2.088044E+05  1.209025E+05  6.012687E+02 -3.454615E-09 -2.558336E-11
        14  15  2.165746E+05 -1.652449E+05  2.835102E+05 -1.773011E+02  2.321785E-09  3.710400E-10
        14  16 -1.714932E+04 -2.064871E+05  6.950302E+04  4.905065E+03 -3.943138E-09  1.563175E-10
        14  17 -6.215230E+04 -2.496291E+05  1.107063E+05 -2.090988E+03 -2.667829E-09  5.414266E-10
        14  18  2.065196E+05 -2.056478E+05  2.734209E+05 -1.102078E+04 -1.233771E-09 -4.393845E-10
        14  19  3.510146E+03 -1.239952E+05  9.012171E+04 -6.012542E+03 -3.044320E+02  6.102589E+04
        14  20 -4.175476E+04 -1.679607E+05  1.311290E+05  3.293661E+03 -4.070723E+02  1.271923E+05
        14  21  2.266400E+05 -1.248000E+05  2.936696E+05  1.066683E+04 -3.929711E+02  1.933565E+05
        14  22 -6.819077E+03 -1.652400E+05  7.981593E+04 -5.535645E+02 -3.039036E+02  6.102828E+04
        14  23 -5.195131E+04 -2.087870E+05  1.209329E+05  6.012270E+02 -4.076197E+02  1.271827E+05
        14  24  2.165847E+05 -1.652047E+05  2.835804E+05 -1.773628E+02 -3.963287E+02  1.933348E+05
        14  25 -1.714832E+04 -2.064831E+05  6.951003E+04  4.905051E+03 -3.033751E+02  6.103067E+04
        14  26 -6.214795E+04 -2.496117E+05  1.107367E+05 -2.091030E+03 -4.081671E+02  1.271730E+05
        14  27  2.065297E+05 -2.056077E+05  2.734912E+05 -1.102085E+04 -3.996857E+02  1.933131E+05
        15   1  1.418336E+05 -8.359065E+05  1.371232E+05 -3.184526E+02  1.799183E+04 -3.645959E+00
        15   2  1.413906E+05 -8.378097E+05  1.366547E+05  1.701653E+02  1.795060E+04  1.003206E+01
        15   3  1.409866E+05 -8.393410E+05  1.362637E+05 -6.336910E+02  1.785161E+04  2.359933E+01
        15   4 -5.466439E+01 -1.407484E+06 -4.218792E+01 -2.872354E+02  1.799293E+04  2.573793E+00
        15   5 -7.007826E+01 -1.407668E+06 -9.390278E+01  3.590493E+02  1.795168E+04  4.530844E+01
        15   6 -5.179148E+01 -1.407484E+06 -8.831620E+01 -2.872087E+02  1.785264E+04  8.793279E+01
        15   7 -1.419667E+05 -1.978762E+06 -1.372308E+05 -2.560396E+02  1.799403E+04  8.787835E+00
        15   8 -1.415544E+05 -1.977227E+06 -1.368656E+05  5.477918E+02  1.795276E+04  8.055252E+01
        15   9 -1.411136E+05 -1.975331E+06 -1.364633E+05  5.901283E+01  1.785368E+04  1.522075E+02
        15  10  1.418332E+05 -8.359066E+05  1.371226E+05 -3.184526E+02 -5.668480E-09 -2.443728E-09
        15  11  1.413903E+05 -8.378098E+05  1.366541E+05  1.701652E+02  1.541175E-09 -5.232980E-09
        15  12  1.409862E+05 -8.393411E+05  1.362631E+05 -6.336914E+02 -6.295485E-10 -8.139569E-09
        15  13 -5.501181E+01 -1.407484E+06 -4.279590E+01 -2.872355E+02 -4.526465E-09  9.528068E-11
        15  14 -7.042408E+01 -1.407668E+06 -9.450797E+01  3.590487E+02  1.545568E-09 -4.692162E-10
        15  15 -5.213350E+01 -1.407484E+06 -8.891475E+01 -2.872100E+02  8.353183E-09  2.171146E-10
        15  16 -1.419671E+05 -1.978762E+06 -1.372314E+05 -2.560397E+02 -3.515853E-09  2.576413E-09
        15  17 -1.415548E+05 -1.977227E+06 -1.368662E+05  5.477906E+02 -6.311461E-10  4.703820E-09
        15  18 -1.411140E+05 -1.975331E+06 -1.364639E+05  5.901064E+01 -4.355211E-09  8.037187E-09
        15  19  1.418336E+05 -8.359065E+05  1.371232E+05 -3.184526E+02 -1.799183E+04  3.645959E+00
        15  20  1.413906E+05 -8.378097E+05  1.366547E+05  1.701653E+02 -1.795060E+04 -1.003206E+01
        15  21  1.409866E+05 -8.393410E+05  1.362637E+05 -6.336910E+02 -1.785161E+04 -2.359933E+01
        15  22 -5.466439E+01 -1.407484E+06 -4.218792E+01 -2.872354E+02 -1.799293E+04 -2.573793E+00
        15  23 -7.007825E+01 -1.407668E+06 -9.390278E+01  3.590493E+02 -1.795168E+04 -4.530844E+01
        15  24 -5.179148E+01 -1.407484E+06 -8.831620E+01 -2.872087E+02 -1.785264E+04 -8.793279E+01
        15  25 -1.419667E+05 -1.978762E+06 -1.372308E+05 -2.560396E+02 -1.799403E+04 -8.787835E+00
        15  26 -1.415544E+05 -1.977227E+06 -1.368656E+05  5.477918E+02 -1.795276E+04 -8.055252E+01
        15  27 -1.411136E+05 -1.975331E+06 -1.364633E+05  5.901283E+01 -1.785368E+04 -1.522075E+02
        16   1  1.398328E+05 -8.439821E+05  1.351023E+05 -1.254268E+03  1.776999E+04  2.725247E+01
        16   2  1.385477E+05 -8.492756E+05  1.337541E+05  5.138757E+02  1.758905E+04  1.144700E+02
        16   3  1.372966E+05 -8.542336E+05  1.324288E+05 -1.547563E+03  1.735133E+04  2.013631E+02
        16   4 -5.134836E+01 -1.407491E+06 -1.168451E+02 -8.510488E+02  1.777099E+04  1.039683E+02
        16   5 -6.551051E+01 -1.407655E+06 -2.412383E+02  1.063861E+03  1.758996E+04  2.196902E+02
        16   6 -5.057957E+01 -1.407490E+06 -3.624855E+02 -8.510270E+02  1.735214E+04  3.350884E+02
        16   7 -1.399587E+05 -1.970708E+06 -1.353586E+05 -4.481258E+02  1.777198E+04  1.806147E+02
        16   8 -1.387014E+05 -1.965749E+06 -1.342587E+05  1.613443E+03  1.759087E+04  3.248161E+02
        16   9 -1.374201E+05 -1.960465E+06 -1.331755E+05 -1.549993E+02  1.735294E+04  4.686948E+02
        16  10  1.398325E+05 -8.439822E+05  1.351018E+05 -1.254269E+03 -2.921473E-10 -4.020964E-09
        16  11  1.385473E+05 -8.492757E+05  1.337535E+05  5.138741E+02  3.591505E-09  2.073481E-09
        16  12  1.372963E+05 -8.542337E+05  1.324282E+05 -1.547566E+03  4.975053E-09  8.456141E-09
        16  13 -5.168726E+01 -1.407491E+06 -1.174382E+02 -8.510503E+02  6.131711E-09  6.002894E-10
        16  14 -6.584256E+01 -1.407655E+06 -2.418194E+02  1.063858E+03  1.475790E-09 -1.353908E-09
        16  15 -5.090271E+01 -1.407490E+06 -3.630511E+02 -8.510317E+02 -3.894701E-09  3.396949E-10
        16  16 -1.399590E+05 -1.970708E+06 -1.353592E+05 -4.481283E+02 -1.641257E-09  4.055144E-09
        16  17 -1.387017E+05 -1.965749E+06 -1.342593E+05  1.613438E+03 -4.895029E-09 -3.641186E-09
        16  18 -1.374204E+05 -1.960465E+06 -1.331761E+05 -1.550059E+02 -9.385458E-10 -8.756657E-09
        16  19  1.398328E+05 -8.439821E+05  1.351023E+05 -1.254268E+03 -1.776999E+04 -2.725247E+01
        16  20  1.385477E+05 -8.492756E+05  1.337541E+05  5.138757E+02 -1.758905E+04 -1.144700E+02
        16  21  1.372966E+05 -8.542336E+05  1.324288E+05 -1.547563E+03 -1.735133E+04 -2.013631E+02
        16  22 -5.134836E+01 -1.407491E+06 -1.168451E+02 -8.510488E+02 -1.777099E+04 -1.039683E+02
        16  23 -6.551051E+01 -1.407655E+06 -2.412383E+02  1.063861E+03 -1.758996E+04 -2.196902E+02
        16  24 -5.057957E+01 -1.407490E+06 -3.624855E+02 -8.510270E+02 -1.735214E+04 -3.350884E+02
        16  25 -1.399587E+05 -1.970708E+06 -1.353586E+05 -4.481258E+02 -1.777198E+04 -1.806147E+02
        16  26 -1.387014E+05 -1.965749E+06 -1.342587E+05  1.613443E+03 -1.759087E+04 -3.248161E+02
        16  27 -1.374201E+05 -1.960465E+06 -1.331755E+05 -1.549993E+02 -1.735294E+04 -4.686948E+02
        17   1  1.350264E+05 -8.634237E+05  1.300697E+05 -2.123125E+03  1.719005E+04  2.637184E+02
        17   2  1.329311E+05 -8.719638E+05  1.276721E+05  8.836049E+02  1.687234E+04  6.643832E+02
        17   3  1.307642E+05 -8.802853E+05  1.250563E+05 -2.399779E+03  1.649680E+04  1.064518E+03
        17   4 -3.778962E+01 -1.407513E+06 -4.807058E+02 -1.397771E+03  1.719078E+04  4.085339E+02
        17   5 -4.407782E+01 -1.407619E+06 -8.719803E+02  1.747359E+03  1.687292E+04  8.379907E+02
        17   6 -1.273294E+02 -1.407512E+06 -1.501673E+03 -1.397969E+03  1.649722E+04  1.266922E+03
        17   7 -1.351235E+05 -1.951330E+06 -1.310521E+05 -6.729317E+02  1.719151E+04  5.532228E+02
        17   8 -1.330402E+05 -1.943011E+06 -1.294364E+05  2.610505E+03  1.687351E+04  1.011449E+03
        17   9 -1.310391E+05 -1.934483E+06 -1.280794E+05 -3.968559E+02  1.649765E+04  1.469155E+03
        17  10  1.350261E+05 -8.634237E+05  1.300692E+05 -2.123129E+03 -2.378205E-10  4.234890E-09
        17  11  1.329308E+05 -8.719639E+05  1.276716E+05  8.835958E+02  8.497482E-10  1.794024E-10
        17  12  1.307639E+05 -8.802853E+05  1.250558E+05 -2.399793E+03  1.066168E-09  3.421114E-10
        17  13 -3.810680E+01 -1.407513E+06 -4.812611E+02 -1.397777E+03 -2.846060E-10  1.108890E-09
        17  14 -4.438352E+01 -1.407619E+06 -8.725163E+02  1.747347E+03 -2.830794E-09 -2.196444E-09
        17  15 -1.276219E+02 -1.407512E+06 -1.502187E+03 -1.397986E+03 -1.661358E-09  9.212925E-10
        17  16 -1.351238E+05 -1.951331E+06 -1.310527E+05 -6.729393E+02 -3.614383E-09 -4.181052E-09
        17  17 -1.330405E+05 -1.943011E+06 -1.294370E+05  2.610491E+03  2.038966E-09 -2.784244E-09
        17  18 -1.310394E+05 -1.934483E+06 -1.280799E+05 -3.968754E+02  3.273875E-09 -7.590011E-10
        17  19  1.350264E+05 -8.634237E+05  1.300697E+05 -2.123125E+03 -1.719005E+04 -2.637184E+02
        17  20  1.329311E+05 -8.719638E+05  1.276721E+05  8.836049E+02 -1.687234E+04 -6.643832E+02
        17  21  1.307642E+05 -8.802853E+05  1.250563E+05 -2.399779E+03 -1.649680E+04 -1.064518E+03
        17  22 -3.778962E+01 -1.407513E+06 -4.807058E+02 -1.397771E+03 -1.719078E+04 -4.085339E+02
        17  23 -4.407782E+01 -1.407619E+06 -8.719803E+02  1.747359E+03 -1.687292E+04 -8.379907E+02
        17  24 -1.273294E+02 -1.407512E+06 -1.501673E+03 -1.397969E+03 -1.649722E+04 -1.266922E+03
        17  25 -1.351235E+05 -1.951330E+06 -1.310521E+05 -6.729317E+02 -1.719151E+04 -5.532228E+02
        17  26 -1.330402E+05 -1.943011E+06 -1.294364E+05  2.610505E+03 -1.687351E+04 -1.011449E+03
        17  27 -1.310391E+05 -1.934483E+06 -1.280794E+05 -3.968559E+02 -1.649765E+04 -1.469155E+03
        18   1  9.228536E+04  9.855954E+05  5.184254E+04 -4.331364E+00  3.239494E+04  2.286398E-01
        18   2  9.229072E+04  9.856197E+05  5.185111E+04 -2.505879E+01  3.239622E+04 -5.950121E+00
        18   3  9.229736E+04  9.856542E+05  5.186690E+04 -4.254581E+01  3.239878E+04 -1.212851E+01
        18   4 -3.397945E+01  5.754488E+05  1.654930E+01  7.204105E-01  3.239720E+04 -1.286637E+00
        18   5 -3.564325E+01  5.754434E+05  1.969688E+01 -8.994577E-01  3.239848E+04 -1.055332E+01
        18   6 -3.548091E+01  5.754488E+05  3.221472E+01  7.218502E-01  3.240104E+04 -1.981968E+01
        18   7 -9.236016E+04  1.654747E+05 -5.180997E+04  5.769316E+00  3.239946E+04 -2.800964E+00
        18   8 -9.236885E+04  1.654397E+05 -5.181225E+04  2.324593E+01  3.240074E+04 -1.515363E+01
        18   9 -9.237517E+04  1.654159E+05 -5.180301E+04  4.396451E+01  3.240330E+04 -2.750603E+01
        18  10  9.228424E+04  9.855951E+05  5.184057E+04 -4.331370E+00  1.732309E-08  3.821177E-08
        18  11  9.228959E+04  9.856195E+05  5.184914E+04 -2.505863E+01  6.582115E-09  5.714990E-09
        18  12  9.229623E+04  9.856540E+05  5.186493E+04 -4.254550E+01  2.101753E-09 -2.464783E-08
        18  13 -3.510682E+01  5.754485E+05  1.457640E+01  7.204440E-01 -3.219061E-09  2.296057E-11
        18  14 -3.677070E+01  5.754431E+05  1.772382E+01 -8.991823E-01 -3.375998E-09 -1.402598E-10
        18  15 -3.660855E+01  5.754485E+05  3.024136E+01  7.223674E-01  2.164105E-09  1.394515E-10
        18  16 -9.236129E+04  1.654744E+05 -5.181195E+04  5.769389E+00  1.622048E-08 -3.815751E-08
        18  17 -9.236997E+04  1.654394E+05 -5.181422E+04  2.324633E+01  8.324737E-09 -5.774532E-09
        18  18 -9.237630E+04  1.654156E+05 -5.180498E+04  4.396522E+01  8.111782E-10  2.473507E-08
        18  19  9.228536E+04  9.855954E+05  5.184254E+04 -4.331364E+00 -3.239494E+04 -2.286397E-01
        18  20  9.229072E+04  9.856197E+05  5.185111E+04 -2.505879E+01 -3.239622E+04  5.950121E+00
        18  21  9.229736E+04  9.856542E+05  5.186690E+04 -4.254581E+01 -3.239878E+04  1.212851E+01
        18  22 -3.397945E+01  5.754488E+05  1.654930E+01  7.204104E-01 -3.239720E+04  1.286637E+00
        18  23 -3.564325E+01  5.754434E+05  1.969688E+01 -8.994577E-01 -3.239848E+04  1.055332E+01
        18  24 -3.548091E+01  5.754488E+05  3.221472E+01  7.218504E-01 -3.240104E+04  1.981968E+01
        18  25 -9.236016E+04  1.654747E+05 -5.180997E+04  5.769316E+00 -3.239946E+04  2.800964E+00
        18  26 -9.236885E+04  1.654397E+05 -5.181225E+04  2.324593E+01 -3.240074E+04  1.515363E+01
        18  27 -9.237517E+04  1.654159E+05 -5.180301E+04  4.396451E+01 -3.240330E+04  2.750603E+01
        19   1  9.230493E+04  9.856912E+05  5.188165E+04 -5.098024E+01  3.240109E+04 -1.555250E+01
        19   2  9.232171E+04  9.857718E+05  5.192585E+04 -8.034944E+01  3.240498E+04 -5.207228E+01
        19   3  9.234141E+04  9.858670E+05  5.199743E+04 -9.577586E+01  3.240787E+04 -8.859120E+01
        19   4 -3.623062E+01  5.754495E+05  4.152461E+01  3.100303E+00  3.240335E+04 -2.609341E+01
        19   5 -4.015268E+01  5.754424E+05  6.990677E+01 -3.871031E+00  3.240725E+04 -6.017527E+01
        19   6 -4.157106E+01  5.754495E+05  1.239765E+02  3.100932E+00  3.241014E+04 -9.425626E+01
        19   7 -9.238424E+04  1.653805E+05 -5.179913E+04  5.714961E+01  3.240561E+04 -3.662770E+01
        19   8 -9.240886E+04  1.652858E+05 -5.178657E+04  7.256278E+01  3.240951E+04 -6.827316E+01
        19   9 -9.243140E+04  1.652048E+05 -5.175001E+04  1.019198E+02  3.241240E+04 -9.991774E+01
        19  10  9.230381E+04  9.856909E+05  5.187967E+04 -5.097984E+01  4.067666E-09  4.650258E-09
        19  11  9.232058E+04  9.857715E+05  5.192388E+04 -8.034808E+01  2.115091E-09  3.447633E-09
        19  12  9.234028E+04  9.858667E+05  5.199545E+04 -9.577354E+01  1.845768E-09  3.596311E-09
        19  13 -3.735842E+01  5.754492E+05  3.955096E+01  3.100983E+00  2.217644E-10  1.434934E-10
        19  14 -4.128074E+01  5.754422E+05  6.793264E+01 -3.869461E+00  4.001881E-09 -4.768940E-10
        19  15 -4.269933E+01  5.754492E+05  1.220020E+02  3.103392E+00 -3.947910E-10  3.510635E-10
        19  16 -9.238537E+04  1.653802E+05 -5.180110E+04  5.715057E+01 -3.514796E-09 -4.861627E-09
        19  17 -9.240999E+04  1.652855E+05 -5.178855E+04  7.256456E+01 -1.806560E-09 -3.647342E-09
        19  18 -9.243253E+04  1.652045E+05 -5.175199E+04  1.019224E+02 -1.279414E-09 -3.481064E-09
        19  19  9.230493E+04  9.856912E+05  5.188165E+04 -5.098024E+01 -3.240109E+04  1.555250E+01
        19  20  9.232171E+04  9.857718E+05  5.192585E+04 -8.034944E+01 -3.240498E+04  5.207228E+01
        19  21  9.234141E+04  9.858670E+05  5.199743E+04 -9.577586E+01 -3.240787E+04  8.859120E+01
        19  22 -3.623062E+01  5.754495E+05  4.152461E+01  3.100302E+00 -3.240335E+04  2.609341E+01
        19  23 -4.015268E+01  5.754424E+05  6.990677E+01 -3.871031E+00 -3.240725E+04  6.017527E+01
        19  24 -4.157106E+01  5.754495E+05  1.239765E+02  3.100932E+00 -3.241014E+04  9.425626E+01
        19  25 -9.238424E+04  1.653805E+05 -5.179913E+04  5.714961E+01 -3.240561E+04  3.662770E+01
        19  26 -9.240886E+04  1.652858E+05 -5.178657E+04  7.256278E+01 -3.240951E+04  6.827316E+01
        19  27 -9.243140E+04  1.652048E+05 -5.175001E+04  1.019198E+02 -3.241240E+04  9.991774E+01
        20   1  9.235712E+04  9.859446E+05  5.205198E+04 -1.083727E+02  3.241017E+04 -1.126873E+02
        20   2  9.238949E+04  9.860716E+05  5.221817E+04 -1.472799E+02  3.240408E+04 -2.971176E+02
        20   3  9.244511E+04  9.862375E+05  5.251301E+04 -1.628315E+02  3.237969E+04 -4.815520E+02
        20   4 -4.359124E+01  5.754533E+05  1.636703E+02  5.191425E+00  3.241244E+04 -1.198146E+02
        20   5 -4.880817E+01  5.754376E+05  2.846023E+02 -6.485077E+00  3.240633E+04 -2.602180E+02
        20   6 -3.839508E+01  5.754532E+05  5.036781E+02  5.194040E+00  3.238192E+04 -4.006260E+02
        20   7 -9.245115E+04  1.651348E+05 -5.172517E+04  1.186887E+02  3.241470E+04 -1.269374E+02
        20   8 -9.249397E+04  1.649765E+05 -5.164952E+04  1.342261E+02  3.240858E+04 -2.233414E+02
        20   9 -9.252878E+04  1.648419E+05 -5.150622E+04  1.731192E+02  3.238415E+04 -3.197507E+02
        20  10  9.235599E+04  9.859443E+05  5.205000E+04 -1.083698E+02 -2.761602E-10  1.764216E-08
        20  11  9.238836E+04  9.860713E+05  5.221620E+04 -1.472721E+02  4.296230E-09  1.776653E-08
        20  12  9.244399E+04  9.862372E+05  5.251104E+04 -1.628189E+02  3.906840E-09  1.801517E-08
        20  13 -4.471967E+01  5.754530E+05  1.616955E+02  5.194552E+00 -3.002563E-09  3.341587E-10
        20  14 -4.993619E+01  5.754373E+05  2.826282E+02 -6.478287E+00 -8.615982E-09 -8.146359E-10
        20  15 -3.952143E+01  5.754529E+05  5.017067E+02  5.204486E+00 -9.285448E-09  4.651262E-10
        20  16 -9.245228E+04  1.651345E+05 -5.172715E+04  1.186920E+02  2.881357E-10 -1.806141E-08
        20  17 -9.249510E+04  1.649763E+05 -5.165149E+04  1.342319E+02  3.073642E-09 -1.801828E-08
        20  18 -9.252991E+04  1.648416E+05 -5.150819E+04  1.731276E+02  6.453345E-09 -1.781242E-08
        20  19  9.235712E+04  9.859446E+05  5.205198E+04 -1.083727E+02 -3.241017E+04  1.126873E+02
        20  20  9.238949E+04  9.860716E+05  5.221817E+04 -1.472799E+02 -3.240408E+04  2.971176E+02
        20  21  9.244511E+04  9.862375E+05  5.251301E+04 -1.628315E+02 -3.237969E+04  4.815520E+02
        20  22 -4.359124E+01  5.754533E+05  1.636703E+02  5.191425E+00 -3.241244E+04  1.198146E+02
        20  23 -4.880817E+01  5.754376E+05  2.846023E+02 -6.485077E+00 -3.240633E+04  2.602180E+02
        20  24 -3.839508E+01  5.754532E+05  5.036781E+02  5.194040E+00 -3.238192E+04  4.006260E+02
        20  25 -9.245115E+04  1.651348E+05 -5.172517E+04  1.186887E+02 -3.241470E+04  1.269374E+02
        20  26 -9.249397E+04  1.649765E+05 -5.164952E+04  1.342261E+02 -3.240858E+04  2.233414E+02
        20  27 -9.252878E+04  1.648419E+05 -5.150622E+04  1.731192E+02 -3.238415E+04  3.197507E+02
        21   1 -8.499160E+06 -2.664483E+06 -1.678192E+06 -3.025342E+06 -9.127995E+05 -3.357030E+05
        21   2 -8.326970E+06 -1.355689E+06 -8.470662E+05 -3.226819E+06 -5.897445E+05 -1.869669E+05
        21   3 -8.702707E+06 -1.327811E+06 -6.206306E+05 -3.074816E+06 -2.584667E+05 -5.982787E+04
        21   4 -7.777144E+06 -2.081950E+06 -1.418527E+06 -2.518190E+06 -8.980145E+05 -3.306281E+05
        21   5 -7.427202E+06 -9.255896E+05 -5.898697E+05 -2.891097E+06 -5.848144E+05 -1.851965E+05
        21   6 -7.622605E+06 -1.047227E+06 -3.574694E+05 -2.910771E+06 -2.632952E+05 -6.160125E+04
        21   7 -7.054380E+06 -1.498591E+06 -1.158884E+06 -2.010317E+06 -8.832102E+05 -3.255269E+05
        21   8 -6.526615E+06 -4.952888E+05 -3.327505E+05 -2.554879E+06 -5.798758E+05 -1.834209E+05
        21   9 -6.541331E+06 -7.666767E+05 -9.438216E+04 -2.746532E+06 -2.681327E+05 -6.337559E+04
        21  10 -8.500096E+06 -2.664834E+06 -1.679997E+06 -3.025592E+06  2.894690E-09  4.820915E-10
        21  11 -8.327357E+06 -1.355822E+06 -8.477968E+05 -3.226908E+06 -7.631597E-10  1.320580E-09
        21  12 -8.702780E+06 -1.327833E+06 -6.207649E+05 -3.074829E+06 -1.233089E-09  2.607150E-10
        21  13 -7.778049E+06 -2.082289E+06 -1.420272E+06 -2.518431E+06 -5.202954E-10  2.340032E-10
        21  14 -7.427583E+06 -9.257203E+05 -5.905868E+05 -2.891185E+06  4.121637E-09  4.044671E-10
        21  15 -7.622681E+06 -1.047250E+06 -3.576087E+05 -2.910784E+06 -5.662778E-09 -2.207596E-10
        21  16 -7.055255E+06 -1.498919E+06 -1.160570E+06 -2.010550E+06  1.594198E-09  1.827438E-10
        21  17 -6.526988E+06 -4.954170E+05 -3.334543E+05 -2.554966E+06 -2.067463E-09 -6.913530E-10
        21  18 -6.541410E+06 -7.667007E+05 -9.452655E+04 -2.746546E+06 -4.231769E-09 -4.335422E-10
        21  19 -8.499160E+06 -2.664483E+06 -1.678192E+06 -3.025342E+06  9.127995E+05  3.357030E+05
        21  20 -8.326970E+06 -1.355689E+06 -8.470662E+05 -3.226819E+06  5.897445E+05  1.869669E+05
        21  21 -8.702707E+06 -1.327811E+06 -6.206306E+05 -3.074816E+06  2.584667E+05  5.982787E+04
        21  22 -7.777144E+06 -2.081950E+06 -1.418527E+06 -2.518190E+06  8.980145E+05  3.306281E+05
        21  23 -7.427202E+06 -9.255896E+05 -5.898697E+05 -2.891097E+06  5.848144E+05  1.851965E+05
        21  24 -7.622605E+06 -1.047227E+06 -3.574694E+05 -2.910771E+06  2.632952E+05  6.160125E+04
        21  25 -7.054380E+06 -1.498591E+06 -1.158884E+06 -2.010317E+06  8.832102E+05  3.255269E+05
        21  26 -6.526615E+06 -4.952888E+05 -3.327505E+05 -2.554879E+06  5.798758E+05  1.834209E+05
        21  27 -6.541331E+06 -7.666767E+05 -9.438216E+04 -2.746532E+06  2.681327E+05  6.337559E+04
        22   1 -8.536286E+06 -1.598586E+06 -5.552698E+05 -3.127006E+06 -2.128250E+05 -4.569545E+04
        22   2 -8.499754E+06 -1.439668E+06 -3.973913E+05 -3.135718E+06 -1.402213E+05 -1.665025E+04
        22   3 -8.514735E+06 -1.435840E+06 -3.335579E+05 -3.121137E+06 -6.665788E+04  9.879152E+03
        22   4 -7.572185E+06 -1.200605E+06 -2.908771E+05 -2.831157E+06 -2.118606E+05 -4.534637E+04
        22   5 -7.538050E+06 -1.066183E+06 -1.388568E+05 -2.864277E+06 -1.403233E+05 -1.669518E+04
        22   6 -7.555118E+06 -1.086494E+06 -7.991522E+04 -2.874125E+06 -6.782709E+04  9.435080E+03
        22   7 -6.607170E+06 -8.025203E+05 -2.657085E+04 -2.534868E+06 -2.108944E+05 -4.499641E+04
        22   8 -6.575437E+06 -6.926278E+05  1.195950E+05 -2.592445E+06 -1.404253E+05 -1.674012E+04
        22   9 -6.594597E+06 -7.371088E+05  1.736489E+05 -2.626769E+06 -6.899825E+04  8.990343E+03
        22  10 -8.536336E+06 -1.598600E+06 -5.553602E+05 -3.127014E+06  1.720075E-09  2.560687E-10
        22  11 -8.499776E+06 -1.439674E+06 -3.974293E+05 -3.135720E+06  1.135136E-08  1.102900E-09
        22  12 -8.514740E+06 -1.435842E+06 -3.335666E+05 -3.121137E+06  7.325713E-10  1.198610E-10
        22  13 -7.572234E+06 -1.200620E+06 -2.909665E+05 -2.831164E+06 -8.394486E-09 -4.607969E-10
        22  14 -7.538071E+06 -1.066188E+06 -1.388949E+05 -2.864279E+06  3.251596E-09 -3.907928E-10
        22  15 -7.555123E+06 -1.086496E+06 -7.992412E+04 -2.874124E+06 -2.096140E-09 -5.061610E-10
        22  16 -6.607218E+06 -8.025347E+05 -2.665928E+04 -2.534876E+06 -1.445367E-09  4.765040E-10
        22  17 -6.575458E+06 -6.926335E+05  1.195570E+05 -2.592447E+06 -3.593084E-09 -1.149221E-09
        22  18 -6.594603E+06 -7.371102E+05  1.736397E+05 -2.626769E+06 -1.184618E-09 -5.006811E-10
        22  19 -8.536286E+06 -1.598586E+06 -5.552698E+05 -3.127006E+06  2.128250E+05  4.569545E+04
        22  20 -8.499754E+06 -1.439668E+06 -3.973913E+05 -3.135718E+06  1.402213E+05  1.665025E+04
        22  21 -8.514735E+06 -1.435840E+06 -3.335579E+05 -3.121137E+06  6.665788E+04 -9.879152E+03
        22  22 -7.572185E+06 -1.200605E+06 -2.908771E+05 -2.831157E+06  2.118606E+05  4.534637E+04
        22  23 -7.538050E+06 -1.066183E+06 -1.388568E+05 -2.864277E+06  1.403233E+05  1.669518E+04
        22  24 -7.555118E+06 -1.086494E+06 -7.991522E+04 -2.874125E+06  6.782709E+04 -9.435080E+03
        22  25 -6.607170E+06 -8.025203E+05 -2.657085E+04 -2.534868E+06  2.108944E+05  4.499641E+04
        22  26 -6.575437E+06 -6.926278E+05  1.195950E+05 -2.592445E+06  1.404253E+05  1.674012E+04
        22  27 -6.594597E+06 -7.371088E+05  1.736489E+05 -2.626769E+06  6.899825E+04 -8.990343E+03
        23   1 -8.434434E+06 -1.447797E+06 -3.006360E+05 -3.115931E+06 -5.518217E+04  1.282006E+04
        23   2 -8.391666E+06 -1.393630E+06 -2.553508E+05 -3.083656E+06 -3.774097E+04  1.712155E+04
        23   3 -8.322930E+06 -1.388451E+06 -2.266947E+05 -3.085292E+06 -1.999840E+04  2.061342E+04
        23   4 -7.544385E+06 -1.107397E+06 -6.242143E+04 -2.870046E+06 -5.597155E+04  1.251830E+04
        23   5 -7.556449E+06 -1.076662E+06 -3.225181E+04 -2.855432E+06 -3.888445E+04  1.668762E+04
        23   6 -7.542466E+06 -1.094825E+06 -1.840831E+04 -2.874728E+06 -2.149783E+04  2.004706E+04
        23   7 -6.653560E+06 -7.669430E+05  1.757230E+05 -2.623835E+06 -5.676215E+04  1.221608E+04
        23   8 -6.720549E+06 -7.596509E+05  1.907853E+05 -2.626926E+06 -4.002962E+04  1.625305E+04
        23   9 -6.761407E+06 -8.011651E+05  1.898239E+05 -2.663922E+06 -2.299935E+04  1.947993E+04
        23  10 -8.434437E+06 -1.447798E+06 -3.006421E+05 -3.115931E+06  2.838575E-09 -9.529657E-10
        23  11 -8.391668E+06 -1.393631E+06 -2.553540E+05 -3.083655E+06  7.446682E-10 -6.596037E-10
        23  12 -8.322931E+06 -1.388452E+06 -2.266962E+05 -3.085292E+06  1.454713E-09 -1.067334E-09
        23  13 -7.544389E+06 -1.107398E+06 -6.242766E+04 -2.870045E+06  2.212353E-09 -9.329578E-10
        23  14 -7.556450E+06 -1.076663E+06 -3.225520E+04 -2.855431E+06 -4.247088E-09  3.090027E-10
        23  15 -7.542466E+06 -1.094826E+06 -1.840994E+04 -2.874728E+06 -5.024020E-09 -1.102724E-09
        23  16 -6.653564E+06 -7.669440E+05  1.757166E+05 -2.623834E+06 -5.019688E-10 -2.177723E-10
        23  17 -6.720551E+06 -7.596516E+05  1.907818E+05 -2.626925E+06 -7.678469E-09  3.905815E-10
        23  18 -6.761408E+06 -8.011656E+05  1.898222E+05 -2.663922E+06 -2.011954E-09 -1.146957E-09
        23  19 -8.434434E+06 -1.447797E+06 -3.006360E+05 -3.115931E+06  5.518217E+04 -1.282006E+04
        23  20 -8.391666E+06 -1.393630E+06 -2.553508E+05 -3.083656E+06  3.774097E+04 -1.712155E+04
        23  21 -8.322930E+06 -1.388451E+06 -2.266947E+05 -3.085292E+06  1.999840E+04 -2.061342E+04
        23  22 -7.544385E+06 -1.107397E+06 -6.242143E+04 -2.870046E+06  5.597155E+04 -1.251830E+04
        23  23 -7.556449E+06 -1.076662E+06 -3.225181E+04 -2.855432E+06  3.888445E+04 -1.668762E+04
        23  24 -7.542466E+06 -1.094825E+06 -1.840831E+04 -2.874728E+06  2.149783E+04 -2.004706E+04
        23  25 -6.653560E+06 -7.669430E+05  1.757230E+05 -2.623835E+06  5.676215E+04 -1.221608E+04
        23  26 -6.720549E+06 -7.596509E+05  1.907853E+05 -2.626926E+06  4.002962E+04 -1.625305E+04
        23  27 -6.761407E+06 -8.011651E+05  1.898239E+05 -2.663922E+06  2.299935E+04 -1.947993E+04
        24   1 -8.209726E+06 -1.354603E+06 -1.934642E+05 -3.060961E+06 -1.657945E+04  1.973115E+04
        24   2 -8.148269E+06 -1.294949E+06 -1.648840E+05 -3.008858E+06 -1.072016E+04  1.790958E+04
        24   3 -8.037341E+06 -1.287460E+06 -1.401079E+05 -3.013860E+06 -4.687910E+03  1.561282E+04
        24   4 -7.537902E+06 -1.100370E+06 -1.439834E+04 -2.878047E+06 -1.812051E+04  1.915019E+04
        24   5 -7.562536E+06 -1.073613E+06 -8.631110E+03 -2.849750E+06 -1.247803E+04  1.724852E+04
        24   6 -7.537667E+06 -1.098972E+06 -6.491387E+03 -2.878555E+06 -6.663397E+03  1.487166E+04
        24   7 -6.865632E+06 -8.461089E+05  1.646287E+05 -2.694950E+06 -1.966343E+04  1.856853E+04
        24   8 -6.976467E+06 -8.522561E+05  1.475913E+05 -2.690503E+06 -1.423773E+04  1.658678E+04
        24   9 -7.037751E+06 -9.104709E+05  1.271021E+05 -2.743151E+06 -8.640637E+03  1.412985E+04
        24  10 -8.209727E+06 -1.354603E+06 -1.934654E+05 -3.060961E+06 -2.667304E-09 -2.653114E-10
        24  11 -8.148269E+06 -1.294949E+06 -1.648848E+05 -3.008858E+06  3.190878E-10 -2.254414E-10
        24  12 -8.037341E+06 -1.287461E+06 -1.401084E+05 -3.013860E+06 -2.159008E-09  6.682726E-10
        24  13 -7.537902E+06 -1.100371E+06 -1.439964E+04 -2.878047E+06  1.475876E-10 -7.706968E-10
        24  14 -7.562536E+06 -1.073613E+06 -8.631959E+03 -2.849750E+06  1.874984E-10 -6.417975E-10
        24  15 -7.537667E+06 -1.098973E+06 -6.491884E+03 -2.878555E+06 -1.288534E-09  6.543403E-10
        24  16 -6.865633E+06 -8.461094E+05  1.646273E+05 -2.694950E+06  5.237198E-09 -5.041633E-10
        24  17 -6.976467E+06 -8.522564E+05  1.475904E+05 -2.690503E+06  3.357580E-10 -6.242820E-10
        24  18 -7.037752E+06 -9.104711E+05  1.271015E+05 -2.743151E+06  2.006619E-10 -1.072965E-09
        24  19 -8.209726E+06 -1.354603E+06 -1.934642E+05 -3.060961E+06  1.657945E+04 -1.973115E+04
        24  20 -8.148269E+06 -1.294949E+06 -1.648840E+05 -3.008858E+06  1.072016E+04 -1.790958E+04
        24  21 -8.037341E+06 -1.287460E+06 -1.401079E+05 -3.013860E+06  4.687910E+03 -1.561282E+04
        24  22 -7.537902E+06 -1.100370E+06 -1.439834E+04 -2.878047E+06  1.812051E+04 -1.915019E+04
        24  23 -7.562536E+06 -1.073613E+06 -8.631110E+03 -2.849750E+06  1.247803E+04 -1.724852E+04
        24  24 -7.537667E+06 -1.098972E+06 -6.491387E+03 -2.878555E+06  6.663397E+03 -1.487166E+04
        24  25 -6.865632E+06 -8.461089E+05  1.646287E+05 -2.694950E+06  1.966343E+04 -1.856853E+04
        24  26 -6.976467E+06 -8.522561E+05  1.475913E+05 -2.690503E+06  1.423773E+04 -1.658678E+04
        24  27 -7.037751E+06 -9.104709E+05  1.271021E+05 -2.743151E+06  8.640637E+03 -1.412985E+04
        25   1 -7.892076E+06 -1.235993E+06 -1.011154E+05 -2.978050E+06 -2.649505E+03  1.351774E+04
        25   2 -7.818001E+06 -1.166099E+06 -7.501624E+04 -2.915015E+06  2.910787E+03  1.054617E+04
        25   3 -7.684623E+06 -1.158258E+06 -5.227973E+04 -2.921002E+06  8.538477E+03  7.388153E+03
        25   4 -7.535471E+06 -1.101303E+06 -6.353016E+03 -2.881141E+06 -4.674858E+03  1.275875E+04
        25   5 -7.565187E+06 -1.070711E+06 -7.614501E+03 -2.846471E+06  8.000139E+02  9.755870E+03
        25   6 -7.535593E+06 -1.102154E+06 -1.216856E+04 -2.880825E+06  6.341548E+03  6.566351E+03
        25   7 -7.178740E+06 -9.666048E+05  8.839857E+04 -2.784182E+06 -6.701510E+03  1.199927E+04
        25   8 -7.312309E+06 -9.753186E+05  5.978208E+04 -2.777900E+06 -1.311727E+03  8.965209E+03
        25   9 -7.386541E+06 -1.046048E+06  2.794103E+04 -2.840638E+06  4.144014E+03  5.744323E+03
        25  10 -7.892076E+06 -1.235994E+06 -1.011157E+05 -2.978050E+06 -1.783228E-09  1.629771E-09
        25  11 -7.818001E+06 -1.166099E+06 -7.501646E+04 -2.915015E+06 -6.648259E-09 -7.053189E-10
        25  12 -7.684623E+06 -1.158258E+06 -5.227997E+04 -2.921002E+06  1.661190E-09 -5.647627E-11
        25  13 -7.535471E+06 -1.101303E+06 -6.353362E+03 -2.881141E+06 -2.411175E-09  2.434981E-10
        25  14 -7.565187E+06 -1.070711E+06 -7.614681E+03 -2.846471E+06  3.410514E-09  4.460890E-10
        25  15 -7.535593E+06 -1.102154E+06 -1.216871E+04 -2.880825E+06 -5.488221E-09  9.729618E-10
        25  16 -7.178740E+06 -9.666050E+05  8.839821E+04 -2.784181E+06 -9.423570E-10 -1.307512E-09
        25  17 -7.312309E+06 -9.753186E+05  5.978192E+04 -2.777900E+06  4.612507E-09  2.900802E-10
        25  18 -7.386541E+06 -1.046048E+06  2.794093E+04 -2.840638E+06  6.123307E-10  3.578179E-10
        25  19 -7.892076E+06 -1.235993E+06 -1.011154E+05 -2.978050E+06  2.649505E+03 -1.351774E+04
        25  20 -7.818001E+06 -1.166099E+06 -7.501624E+04 -2.915015E+06 -2.910787E+03 -1.054617E+04
        25  21 -7.684623E+06 -1.158258E+06 -5.227973E+04 -2.921002E+06 -8.538477E+03 -7.388153E+03
        25  22 -7.535471E+06 -1.101303E+06 -6.353016E+03 -2.881141E+06  4.674858E+03 -1.275875E+04
        25  23 -7.565187E+06 -1.070711E+06 -7.614501E+03 -2.846471E+06 -8.000139E+02 -9.755870E+03
        25  24 -7.535593E+06 -1.102154E+06 -1.216856E+04 -2.880825E+06 -6.341548E+03 -6.566351E+03
        25  25 -7.178740E+06 -9.666048E+05  8.839857E+04 -2.784182E+06  6.701510E+03 -1.199927E+04
        25  26 -7.312309E+06 -9.753186E+05  5.978208E+04 -2.777900E+06  1.311727E+03 -8.965209E+03
        25  27 -7.386541E+06 -1.046048E+06  2.794103E+04 -2.840638E+06 -4.144014E+03 -5.744323E+03
        26   1 -7.526077E+06 -1.098841E+06 -1.269396E+04 -2.881002E+06  1.187289E+04  5.461813E+03
        26   2 -7.449039E+06 -1.024808E+06  4.133287E+03 -2.814416E+06  2.706259E+04  5.795792E+03
        26   3 -7.316703E+06 -1.026019E+06  7.298191E+03 -2.816158E+06  4.217571E+04  6.344724E+03
        26   4 -7.535928E+06 -1.101164E+06 -1.544875E+04 -2.882135E+06  9.631013E+03  4.623389E+03
        26   5 -7.564331E+06 -1.068677E+06 -2.666773E+04 -2.846065E+06  2.491780E+04  4.993280E+03
        26   6 -7.537468E+06 -1.111456E+06 -5.162917E+04 -2.878328E+06  4.012554E+04  5.577156E+03
        26   7 -7.545779E+06 -1.103488E+06 -1.820351E+04 -2.883269E+06  7.389190E+03  3.784973E+03
        26   8 -7.679609E+06 -1.112545E+06 -5.746975E+04 -2.877709E+06  2.277347E+04  4.190940E+03
        26   9 -7.758186E+06 -1.196889E+06 -1.105608E+05 -2.940478E+06  3.807617E+04  4.809910E+03
        26  10 -7.526077E+06 -1.098841E+06 -1.269428E+04 -2.881002E+06  1.971606E-09 -2.790322E-10
        26  11 -7.449040E+06 -1.024808E+06  4.131828E+03 -2.814416E+06  7.207218E-10 -5.805608E-10
        26  12 -7.316705E+06 -1.026019E+06  7.294729E+03 -2.816158E+06  1.448226E-09 -3.044872E-10
        26  13 -7.535928E+06 -1.101164E+06 -1.544897E+04 -2.882135E+06  2.049866E-10  5.854725E-10
        26  14 -7.564332E+06 -1.068677E+06 -2.666896E+04 -2.846065E+06 -1.282861E-09 -1.250666E-09
        26  15 -7.537470E+06 -1.111456E+06 -5.163230E+04 -2.878328E+06 -1.744244E-09 -7.428585E-10
        26  16 -7.545779E+06 -1.103488E+06 -1.820364E+04 -2.883269E+06 -4.488244E-10  4.897415E-10
        26  17 -7.679610E+06 -1.112545E+06 -5.747077E+04 -2.877709E+06  1.477096E-09 -1.758924E-09
        26  18 -7.758187E+06 -1.196890E+06 -1.105636E+05 -2.940478E+06  8.428294E-11  5.987554E-10
        26  19 -7.526077E+06 -1.098841E+06 -1.269396E+04 -2.881002E+06 -1.187289E+04 -5.461813E+03
        26  20 -7.449039E+06 -1.024808E+06  4.133287E+03 -2.814416E+06 -2.706259E+04 -5.795792E+03
        26  21 -7.316703E+06 -1.026019E+06  7.298191E+03 -2.816158E+06 -4.217571E+04 -6.344724E+03
        26  22 -7.535928E+06 -1.101164E+06 -1.544875E+04 -2.882135E+06 -9.631013E+03 -4.623389E+03
        26  23 -7.564331E+06 -1.068677E+06 -2.666773E+04 -2.846065E+06 -2.491780E+04 -4.993280E+03
        26  24 -7.537468E+06 -1.111456E+06 -5.162917E+04 -2.878328E+06 -4.012554E+04 -5.577156E+03
        26  25 -7.545779E+06 -1.103488E+06 -1.820351E+04 -2.883269E+06 -7.389190E+03 -3.784973E+03
        26  26 -7.679609E+06 -1.112545E+06 -5.746975E+04 -2.877709E+06 -2.277347E+04 -4.190940E+03
        26  27 -7.758186E+06 -1.196889E+06 -1.105608E+05 -2.940478E+06 -3.807617E+04 -4.809910E+03
        27   1 -7.161483E+06 -9.646028E+05  3.385992E+04 -2.793432E+06  5.310711E+04  7.164818E+03
        27   2 -7.088919E+06 -8.756446E+05  1.008943E+04 -2.717511E+06  1.133930E+05  2.489628E+04
        27   3 -7.013351E+06 -9.603730E+05 -9.001584E+04 -2.675404E+06  1.729517E+05  4.460496E+04
        27   4 -7.543912E+06 -1.096610E+06 -6.605912E+04 -2.884414E+06  5.063821E+04  6.241311E+03
        27   5 -7.552233E+06 -1.056942E+06 -1.146172E+05 -2.849892E+06  1.118001E+05  2.429694E+04
        27   6 -7.557779E+06 -1.191206E+06 -2.402619E+05 -2.849187E+06  1.722262E+05  4.432284E+04
        27   7 -7.926199E+06 -1.228615E+06 -1.659906E+05 -2.975348E+06  4.817099E+04  5.318307E+03
        27   8 -8.015338E+06 -1.238222E+06 -2.393433E+05 -2.982180E+06  1.102086E+05  2.369812E+04
        27   9 -8.101914E+06 -1.421998E+06 -3.905354E+05 -3.022824E+06  1.715013E+05  4.404104E+04
        27  10 -7.161486E+06 -9.646037E+05  3.385446E+04 -2.793433E+06  3.253336E-09 -7.208324E-10
        27  11 -7.088933E+06 -8.756487E+05  1.006377E+04 -2.717513E+06  8.315266E-10  1.166006E-09
        27  12 -7.013384E+06 -9.603833E+05 -9.007656E+04 -2.675410E+06  2.301967E-09  6.268345E-12
        27  13 -7.543915E+06 -1.096611E+06 -6.606407E+04 -2.884415E+06  3.757820E-10  9.391296E-10
        27  14 -7.552247E+06 -1.056946E+06 -1.146422E+05 -2.849894E+06 -3.088413E-09  1.538136E-09
        27  15 -7.557812E+06 -1.191216E+06 -2.403221E+05 -2.849194E+06  5.775260E-10  8.076595E-11
        27  16 -7.926201E+06 -1.228616E+06 -1.659951E+05 -2.975348E+06  3.998003E-11  6.580928E-11
        27  17 -8.015351E+06 -1.238226E+06 -2.393675E+05 -2.982183E+06 -6.291029E-10  5.592667E-10
        27  18 -8.101947E+06 -1.422008E+06 -3.905952E+05 -3.022830E+06 -2.867213E-09  3.628421E-11
        27  19 -7.161483E+06 -9.646028E+05  3.385992E+04 -2.793432E+06 -5.310711E+04 -7.164818E+03
        27  20 -7.088919E+06 -8.756446E+05  1.008943E+04 -2.717511E+06 -1.133930E+05 -2.489628E+04
        27  21 -7.013351E+06 -9.603730E+05 -9.001584E+04 -2.675404E+06 -1.729517E+05 -4.460496E+04
        27  22 -7.543912E+06 -1.096610E+06 -6.605912E+04 -2.884414E+06 -5.063821E+04 -6.241311E+03
        27  23 -7.552233E+06 -1.056942E+06 -1.146172E+05 -2.849892E+06 -1.118001E+05 -2.429694E+04
        27  24 -7.557779E+06 -1.191206E+06 -2.402619E+05 -2.849187E+06 -1.722262E+05 -4.432284E+04
        27  25 -7.926199E+06 -1.228615E+06 -1.659906E+05 -2.975348E+06 -4.817099E+04 -5.318307E+03
        27  26 -8.015338E+06 -1.238222E+06 -2.393433E+05 -2.982180E+06 -1.102086E+05 -2.369812E+04
        27  27 -8.101914E+06 -1.421998E+06 -3.905354E+05 -3.022824E+06 -1.715013E+05 -4.404104E+04
        28   1 -6.835268E+06 -8.835661E+05 -1.124414E+05 -2.817862E+06  2.219505E+05  5.734042E+04
        28   2 -6.760160E+06 -6.029619E+05 -2.865384E+05 -2.606387E+06  4.800419E+05  1.512289E+05
        28   3 -7.080377E+06 -1.427914E+06 -9.453298E+05 -2.163629E+06  7.304873E+05  2.655807E+05
        28   4 -7.598798E+06 -1.065017E+06 -2.952234E+05 -2.915430E+06  2.157261E+05  5.504841E+04
        28   5 -7.462422E+06 -9.395525E+05 -4.872064E+05 -2.870537E+06  4.830220E+05  1.522785E+05
        28   6 -7.723837E+06 -1.922414E+06 -1.171708E+06 -2.594197E+06  7.426927E+05  2.698054E+05
        28   7 -8.361737E+06 -1.246485E+06 -4.780385E+05 -3.012927E+06  2.095100E+05  5.275687E+04
        28   8 -8.164185E+06 -1.276016E+06 -6.879210E+05 -3.134383E+06  4.859982E+05  1.533256E+05
        28   9 -8.366729E+06 -2.416336E+06 -1.398107E+06 -3.024230E+06  7.548839E+05  2.740119E+05
        28  10 -6.835322E+06 -8.835831E+05 -1.125414E+05 -2.817872E+06 -1.664185E-09 -1.107143E-09
        28  11 -6.760416E+06 -6.030496E+05 -2.870205E+05 -2.606446E+06  5.935953E-11  9.929735E-10
        28  12 -7.080974E+06 -1.428136E+06 -9.464795E+05 -2.163786E+06  1.651884E-09  6.472505E-10
        28  13 -7.598850E+06 -1.065033E+06 -2.953179E+05 -2.915440E+06 -1.215116E-09 -3.080939E-10
        28  14 -7.462682E+06 -9.396414E+05 -4.876952E+05 -2.870597E+06  2.590732E-09  5.970019E-10
        28  15 -7.724455E+06 -1.922644E+06 -1.172898E+06 -2.594360E+06 -3.518578E-09  7.229362E-10
        28  16 -8.361786E+06 -1.246500E+06 -4.781276E+05 -3.012936E+06 -1.466368E-09 -3.691557E-10
        28  17 -8.164448E+06 -1.276106E+06 -6.884165E+05 -3.134443E+06  6.327368E-10  9.928504E-10
        28  18 -8.367369E+06 -2.416573E+06 -1.399338E+06 -3.024398E+06  6.410452E-10 -1.187453E-10
        28  19 -6.835268E+06 -8.835661E+05 -1.124414E+05 -2.817862E+06 -2.219505E+05 -5.734042E+04
        28  20 -6.760160E+06 -6.029619E+05 -2.865384E+05 -2.606387E+06 -4.800419E+05 -1.512289E+05
        28  21 -7.080377E+06 -1.427914E+06 -9.453298E+05 -2.163629E+06 -7.304873E+05 -2.655807E+05
        28  22 -7.598798E+06 -1.065017E+06 -2.952234E+05 -2.915430E+06 -2.157261E+05 -5.504841E+04
        28  23 -7.462422E+06 -9.395525E+05 -4.872064E+05 -2.870537E+06 -4.830220E+05 -1.522785E+05
        28  24 -7.723837E+06 -1.922414E+06 -1.171708E+06 -2.594197E+06 -7.426927E+05 -2.698054E+05
        28  25 -8.361737E+06 -1.246485E+06 -4.780385E+05 -3.012927E+06 -2.095100E+05 -5.275687E+04
        28  26 -8.164185E+06 -1.276016E+06 -6.879210E+05 -3.134383E+06 -4.859982E+05 -1.533256E+05
        28  27 -8.366729E+06 -2.416336E+06 -1.398107E+06 -3.024230E+06 -7.548839E+05 -2.740119E+05
        29   1  3.156502E+05  9.537148E+04  3.506319E+05 -2.165669E+05  3.857750E+02  2.164152E+05
        29   2  7.310269E+04  2.959174E+04  1.823429E+05 -1.131753E+05  1.860048E+03  1.246526E+05
        29   3  1.126578E+04  2.091604E+04  1.189872E+05 -1.834347E+04  7.905776E+02  3.288914E+04
        29   4  2.912502E+05  5.062175E+02  3.276388E+05 -3.595919E+04  4.560504E+02  2.123462E+05
        29   5  5.884588E+04 -2.768893E+04  1.701536E+05 -3.194169E+04  1.876381E+03  1.246391E+05
        29   6  6.423031E+03  5.051487E+02  1.147911E+05 -3.647039E+04  7.822277E+02  3.692552E+04
        29   7  2.669720E+05 -9.428084E+04  3.046626E+05  1.446208E+05  5.239674E+02  2.082778E+05
        29   8  4.461364E+04 -8.495237E+04  1.579676E+05  4.928433E+04  1.892711E+03  1.246256E+05
        29   9  1.581504E+03 -1.990460E+04  1.105951E+05 -5.459671E+04  7.736420E+02  4.096177E+04
        29  10  3.156376E+05  9.532121E+04  3.505439E+05 -2.165670E+05  1.981563E-10  1.703365E-09
        29  11  7.309851E+04  2.957506E+04  1.823137E+05 -1.131755E+05 -4.030965E-09 -3.193942E-10
        29  12  1.126549E+04  2.091488E+04  1.189852E+05 -1.834349E+04 -2.827130E-09 -2.000752E-09
        29  13  2.912381E+05  4.578091E+02  3.275541E+05 -3.595927E+04 -2.074450E-09  4.846165E-10
        29  14  5.884171E+04 -2.770562E+04  1.701244E+05 -3.194187E+04 -3.447651E-09 -5.951260E-10
        29  15  6.422664E+03  5.036845E+02  1.147885E+05 -3.647042E+04 -1.157722E-09  1.990125E-10
        29  16  2.669604E+05 -9.432742E+04  3.045811E+05  1.446207E+05 -1.954858E-09 -1.495699E-09
        29  17  4.460947E+04 -8.496905E+04  1.579384E+05  4.928414E+04 -1.179805E-09  1.087882E-09
        29  18  1.581052E+03 -1.990640E+04  1.105920E+05 -5.459673E+04 -3.205509E-09  1.374971E-09
        29  19  3.156502E+05  9.537148E+04  3.506319E+05 -2.165669E+05 -3.857750E+02 -2.164152E+05
        29  20  7.310269E+04  2.959174E+04  1.823429E+05 -1.131753E+05 -1.860048E+03 -1.246526E+05
        29  21  1.126578E+04  2.091604E+04  1.189872E+05 -1.834347E+04 -7.905776E+02 -3.288914E+04
        29  22  2.912502E+05  5.062175E+02  3.276388E+05 -3.595919E+04 -4.560504E+02 -2.123462E+05
        29  23  5.884588E+04 -2.768893E+04  1.701536E+05 -3.194169E+04 -1.876381E+03 -1.246391E+05
        29  24  6.423031E+03  5.051487E+02  1.147911E+05 -3.647039E+04 -7.822277E+02 -3.692552E+04
        29  25  2.669720E+05 -9.428084E+04  3.046626E+05  1.446208E+05 -5.239674E+02 -2.082778E+05
        29  26  4.461364E+04 -8.495237E+04  1.579676E+05  4.928433E+04 -1.892711E+03 -1.246256E+05
        29  27  1.581504E+03 -1.990460E+04  1.105951E+05 -5.459671E+04 -7.736420E+02 -4.096177E+04
        30   1  1.105629E+04 -1.359526E+04  1.041779E+05 -4.562548E+04 -7.023079E+02  1.603941E+04
        30   2 -4.997010E+03 -5.778519E+04  9.854979E+04 -3.087922E+04 -2.854057E+03 -3.658044E+04
        30   3  5.111757E+03 -8.861390E+04  1.337253E+05 -2.500904E+04 -4.841392E+03 -8.919815E+04
        30   4  1.201021E+04 -9.049060E+03  1.046023E+05 -3.647295E+04 -7.089377E+02  1.978813E+04
        30   5  4.905743E+03 -1.575025E+04  1.060014E+05 -3.202430E+04 -2.860309E+03 -3.310137E+04
        30   6  2.400857E+04 -9.046608E+03  1.483895E+05 -3.645093E+04 -4.845532E+03 -8.599173E+04
        30   7  1.296447E+04 -4.502624E+03  1.050267E+05 -2.732034E+04 -7.154570E+02  2.353687E+04
        30   8  1.480841E+04  2.628644E+04  1.134530E+05 -3.316946E+04 -2.866573E+03 -2.962206E+04
        30   9  4.290551E+04  7.052713E+04  1.630536E+05 -4.789433E+04 -4.849789E+03 -8.278491E+04
        30  10  1.105622E+04 -1.359554E+04  1.041774E+05 -4.562547E+04 -4.165700E-09  3.279374E-09
        30  11 -4.997378E+03 -5.778663E+04  9.854726E+04 -3.087931E+04  7.886766E-10 -4.590969E-10
        30  12  5.109595E+03 -8.862245E+04  1.337103E+05 -2.500939E+04 -1.835515E-09 -3.066408E-09
        30  13  1.201011E+04 -9.049481E+03  1.046015E+05 -3.647293E+04 -1.527126E-09  4.388470E-10
        30  14  4.905440E+03 -1.575143E+04  1.059993E+05 -3.202438E+04  4.888414E-10 -4.829724E-10
        30  15  2.400656E+04 -9.054553E+03  1.483756E+05 -3.645127E+04  2.167269E-09  2.792294E-10
        30  16  1.296432E+04 -4.503219E+03  1.050257E+05 -2.732033E+04  5.637180E-10 -3.017308E-09
        30  17  1.480817E+04  2.628550E+04  1.134513E+05 -3.316953E+04 -2.185749E-10  1.133687E-09
        30  18  4.290365E+04  7.051976E+04  1.630407E+05 -4.789465E+04  2.627763E-10  2.478333E-09
        30  19  1.105629E+04 -1.359526E+04  1.041779E+05 -4.562548E+04  7.023079E+02 -1.603941E+04
        30  20 -4.997010E+03 -5.778519E+04  9.854979E+04 -3.087922E+04  2.854057E+03  3.658044E+04
        30  21  5.111757E+03 -8.861390E+04  1.337253E+05 -2.500904E+04  4.841392E+03  8.919815E+04
        30  22  1.201021E+04 -9.049060E+03  1.046023E+05 -3.647295E+04  7.089377E+02 -1.978813E+04
        30  23  4.905743E+03 -1.575025E+04  1.060014E+05 -3.202430E+04  2.860309E+03  3.310137E+04
        30  24  2.400857E+04 -9.046608E+03  1.483895E+05 -3.645093E+04  4.845532E+03  8.599173E+04
        30  25  1.296447E+04 -4.502624E+03  1.050267E+05 -2.732034E+04  7.154570E+02 -2.353687E+04
        30  26  1.480841E+04  2.628644E+04  1.134530E+05 -3.316946E+04  2.866573E+03  2.962206E+04
        30  27  4.290551E+04  7.052713E+04  1.630536E+05 -4.789433E+04  4.849789E+03  8.278491E+04
        31   1 -1.264042E+04 -9.259093E+04  1.637947E+05 -7.429410E+04 -6.237605E+03 -1.147736E+05
        31   2  8.054036E+04 -1.830704E+05  2.844306E+05  1.241982E+05 -6.139689E+03 -2.691361E+05
        31   3  5.223662E+05 -1.662220E+05  5.928264E+05  3.144852E+05 -1.630994E+03 -4.234776E+05
        31   4  1.200742E+04  1.208801E+04  1.831742E+05 -3.645130E+04 -6.251350E+03 -1.109990E+05
        31   5  1.150523E+05 -4.214676E+04  3.129416E+05 -3.184995E+04 -6.065772E+03 -2.726377E+05
        31   6  5.678177E+05  1.209500E+04  6.354756E+05 -3.547122E+04 -1.373430E+03 -4.342662E+05
        31   7  3.666004E+04  1.167807E+05  2.025540E+05  1.398053E+03 -6.264634E+03 -1.072237E+05
        31   8  1.496544E+05  9.884806E+04  3.414646E+05 -1.879343E+05 -5.990108E+03 -2.761400E+05
        31   9  6.137270E+05  1.907041E+05  6.781887E+05 -3.855291E+05 -1.103764E+03 -4.450579E+05
        31  10 -1.264400E+04 -9.260508E+04  1.637699E+05 -7.429468E+04 -1.905414E-09  1.567664E-09
        31  11  8.052087E+04 -1.831482E+05  2.842944E+05  1.241968E+05 -7.826458E-10 -1.152514E-09
        31  12  5.223180E+05 -1.664145E+05  5.924893E+05  3.144847E+05 -9.430558E-10 -2.947737E-09
        31  13  1.200407E+04  1.207477E+04  1.831509E+05 -3.645186E+04  4.618403E-10  6.445200E-10
        31  14  1.150323E+05 -4.222657E+04  3.128018E+05 -3.185128E+04  3.134220E-09 -4.804450E-10
        31  15  5.677670E+05  1.189258E+04  6.351212E+05 -3.547170E+04  1.295084E-09  2.185644E-10
        31  16  3.665691E+04  1.167683E+05  2.025323E+05  1.397513E+03  1.868972E-09 -1.104354E-09
        31  17  1.496339E+05  9.876621E+04  3.413213E+05 -1.879356E+05  6.215485E-10  1.940050E-09
        31  18  6.136739E+05  1.904916E+05  6.778166E+05 -3.855295E+05  3.063973E-09  2.275209E-09
        31  19 -1.264042E+04 -9.259093E+04  1.637947E+05 -7.429410E+04  6.237605E+03  1.147736E+05
        31  20  8.054036E+04 -1.830704E+05  2.844306E+05  1.241982E+05  6.139689E+03  2.691361E+05
        31  21  5.223662E+05 -1.662220E+05  5.928264E+05  3.144852E+05  1.630994E+03  4.234776E+05
        31  22  1.200742E+04  1.208801E+04  1.831742E+05 -3.645130E+04  6.251350E+03  1.109990E+05
        31  23  1.150523E+05 -4.214676E+04  3.129416E+05 -3.184995E+04  6.065772E+03  2.726377E+05
        31  24  5.678177E+05  1.209500E+04  6.354756E+05 -3.547122E+04  1.373430E+03  4.342662E+05
        31  25  3.666004E+04  1.167807E+05  2.025540E+05  1.398053E+03  6.264634E+03  1.072237E+05
        31  26  1.496544E+05  9.884806E+04  3.414646E+05 -1.879343E+05  5.990108E+03  2.761400E+05
        31  27  6.137270E+05  1.907041E+05  6.781887E+05 -3.855291E+05  1.103764E+03  4.450579E+05
        32   1 -4.431034E+06 -1.324393E+06 -7.704481E+05 -1.576845E+06 -3.370022E+05 -1.151323E+05
        32   2 -4.311417E+06 -8.029325E+05 -4.483799E+05 -1.595864E+06 -2.193112E+05 -4.756335E+04
        32   3 -4.336750E+06 -7.855151E+05 -3.459675E+05 -1.545909E+06 -9.276154E+04 -3.478217E+03
        32   4 -3.530344E+06 -8.755116E+05 -5.028526E+05 -1.221323E+06 -3.222634E+05 -1.096545E+05
        32   5 -3.432669E+06 -4.409388E+05 -2.094987E+05 -1.324817E+06 -2.154393E+05 -4.612433E+04
        32   6 -3.477523E+06 -5.078611E+05 -1.269013E+05 -1.359414E+06 -9.976926E+04 -6.102882E+03
        32   7 -2.628842E+06 -4.263928E+05 -2.353384E+05 -8.652745E+05 -3.075008E+05 -1.041613E+05
        32   8 -2.553170E+06 -7.885748E+04  2.931143E+04 -1.053408E+06 -2.115612E+05 -4.468246E+04
        32   9 -2.617578E+06 -2.302064E+05  9.210711E+04 -1.172705E+06 -1.067876E+05 -8.730231E+03
        32  10 -4.431160E+06 -1.324438E+06 -7.706884E+05 -1.576877E+06  2.035371E-09 -4.598729E-10
        32  11 -4.311469E+06 -8.029480E+05 -4.484753E+05 -1.595872E+06 -4.667827E-10 -2.230089E-09
        32  12 -4.336759E+06 -7.855175E+05 -3.459838E+05 -1.545910E+06 -7.474987E-11 -9.382421E-11
        32  13 -3.530459E+06 -8.755527E+05 -5.030717E+05 -1.221351E+06 -1.774471E-09 -1.367841E-09
        32  14 -3.432720E+06 -4.409536E+05 -2.095905E+05 -1.324825E+06 -2.399997E-09 -1.986938E-09
        32  15 -3.477534E+06 -5.078639E+05 -1.269202E+05 -1.359414E+06 -1.349294E-09  1.045350E-09
        32  16 -2.628947E+06 -4.264300E+05 -2.355374E+05 -8.653004E+05 -3.594147E-09 -1.331056E-09
        32  17 -2.553219E+06 -7.887172E+04  2.922316E+04 -1.053416E+06  1.543562E-10 -2.149810E-09
        32  18 -2.617591E+06 -2.302096E+05  9.208544E+04 -1.172706E+06  5.439084E-09  2.014366E-09
        32  19 -4.431034E+06 -1.324393E+06 -7.704481E+05 -1.576845E+06  3.370022E+05  1.151323E+05
        32  20 -4.311417E+06 -8.029325E+05 -4.483799E+05 -1.595864E+06  2.193112E+05  4.756335E+04
        32  21 -4.336750E+06 -7.855151E+05 -3.459675E+05 -1.545909E+06  9.276154E+04  3.478217E+03
        32  22 -3.530344E+06 -8.755116E+05 -5.028526E+05 -1.221323E+06  3.222634E+05  1.096545E+05
        32  23 -3.432669E+06 -4.409388E+05 -2.094987E+05 -1.324817E+06  2.154393E+05  4.612433E+04
        32  24 -3.477523E+06 -5.078611E+05 -1.269013E+05 -1.359414E+06  9.976926E+04  6.102882E+03
        32  25 -2.628842E+06 -4.263928E+05 -2.353384E+05 -8.652745E+05  3.075008E+05  1.041613E+05
        32  26 -2.553170E+06 -7.885748E+04  2.931143E+04 -1.053408E+06  2.115612E+05  4.468246E+04
        32  27 -2.617578E+06 -2.302064E+05  9.210711E+04 -1.172705E+06  1.067876E+05  8.730231E+03
        33   1 -4.153857E+06 -8.348278E+05 -2.900460E+05 -1.531561E+06 -7.926153E+04 -4.619961E+03
        33   2 -4.081352E+06 -7.225215E+05 -2.116518E+05 -1.483758E+06 -5.187690E+04  3.439938E+03
        33   3 -3.978413E+06 -7.138440E+05 -1.669995E+05 -1.483639E+06 -2.370591E+04  9.400418E+03
        33   4 -3.459375E+06 -5.624822E+05 -1.033110E+05 -1.331576E+06 -7.973275E+04 -4.800257E+03
        33   5 -3.471776E+06 -4.904556E+05 -4.941007E+04 -1.315319E+06 -5.330489E+04  2.903413E+03
        33   6 -3.453539E+06 -5.218316E+05 -2.845857E+04 -1.346751E+06 -2.609511E+04  8.506290E+03
        33   7 -2.764422E+06 -2.900959E+05  8.338165E+04 -1.131383E+06 -8.020451E+04 -4.980773E+03
        33   8 -2.861838E+06 -2.583648E+05  1.127994E+05 -1.146729E+06 -5.473442E+04  2.366301E+03
        33   9 -2.928398E+06 -3.298067E+05  1.100588E+05 -1.209760E+06 -2.848654E+04  7.611382E+03
        33  10 -4.153864E+06 -8.348295E+05 -2.900580E+05 -1.531561E+06  1.245901E-09  1.690938E-09
        33  11 -4.081355E+06 -7.225222E+05 -2.116569E+05 -1.483757E+06 -2.324864E-09  2.413819E-10
        33  12 -3.978413E+06 -7.138442E+05 -1.670007E+05 -1.483639E+06 -8.144594E-10 -2.743195E-11
        33  13 -3.459382E+06 -5.624839E+05 -1.033231E+05 -1.331576E+06  4.243424E-09  2.351813E-09
        33  14 -3.471779E+06 -4.904564E+05 -4.941545E+04 -1.315319E+06 -1.150998E-09  2.735987E-10
        33  15 -3.453540E+06 -5.218319E+05 -2.845999E+04 -1.346751E+06  3.238453E-10  1.075913E-10
        33  16 -2.764429E+06 -2.900976E+05  8.336946E+04 -1.131384E+06  2.025332E-09  1.933355E-09
        33  17 -2.861842E+06 -2.583656E+05  1.127937E+05 -1.146729E+06  1.363737E-09 -5.387619E-11
        33  18 -2.928399E+06 -3.298070E+05  1.100571E+05 -1.209760E+06 -2.224554E-09 -2.442276E-11
        33  19 -4.153857E+06 -8.348278E+05 -2.900460E+05 -1.531561E+06  7.926153E+04  4.619961E+03
        33  20 -4.081352E+06 -7.225215E+05 -2.116518E+05 -1.483758E+06  5.187690E+04 -3.439938E+03
        33  21 -3.978413E+06 -7.138440E+05 -1.669995E+05 -1.483639E+06  2.370591E+04 -9.400418E+03
        33  22 -3.459375E+06 -5.624822E+05 -1.033110E+05 -1.331576E+06  7.973275E+04  4.800257E+03
        33  23 -3.471776E+06 -4.904556E+05 -4.941007E+04 -1.315319E+06  5.330489E+04 -2.903413E+03
        33  24 -3.453539E+06 -5.218316E+05 -2.845857E+04 -1.346751E+06  2.609511E+04 -8.506290E+03
        33  25 -2.764422E+06 -2.900959E+05  8.338165E+04 -1.131383E+06  8.020451E+04  4.980773E+03
        33  26 -2.861838E+06 -2.583648E+05  1.127994E+05 -1.146729E+06  5.473442E+04 -2.366301E+03
        33  27 -2.928398E+06 -3.298067E+05  1.100588E+05 -1.209760E+06  2.848654E+04 -7.611382E+03
        34   1 -3.830550E+06 -6.723644E+05 -1.229588E+05 -1.448736E+06 -1.911712E+04  8.024708E+03
        34   2 -3.758802E+06 -6.007202E+05 -8.618529E+04 -1.389516E+06 -1.160245E+04  6.140875E+03
        34   3 -3.632460E+06 -5.921592E+05 -5.539286E+04 -1.395109E+06 -3.995432E+03  4.003935E+03
        34   4 -3.450403E+06 -5.286466E+05 -2.226584E+04 -1.344640E+06 -2.099678E+04  7.321700E+03
        34   5 -3.477379E+06 -4.948709E+05 -1.153389E+04 -1.313066E+06 -1.359731E+04  5.395568E+03
        34   6 -3.449747E+06 -5.241523E+05 -6.687378E+03 -1.346306E+06 -6.106551E+03  3.216016E+03
        34   7 -3.070116E+06 -3.849201E+05  7.841431E+04 -1.240485E+06 -2.287770E+04  6.618214E+03
        34   8 -3.195879E+06 -3.890169E+05  6.311064E+04 -1.236583E+06 -1.559316E+04  4.649887E+03
        34   9 -3.267002E+06 -4.561435E+05  4.201534E+04 -1.297491E+06 -8.218361E+03  2.427845E+03
        34  10 -3.830551E+06 -6.723646E+05 -1.229596E+05 -1.448736E+06 -7.129796E-10 -9.454454E-10
        34  11 -3.758802E+06 -6.007203E+05 -8.618561E+04 -1.389516E+06 -2.749537E-09 -2.727793E-09
        34  12 -3.632460E+06 -5.921592E+05 -5.539292E+04 -1.395109E+06  2.418283E-09 -1.030648E-09
        34  13 -3.450403E+06 -5.286468E+05 -2.226677E+04 -1.344639E+06 -9.697573E-11 -1.456758E-09
        34  14 -3.477379E+06 -4.948710E+05 -1.153430E+04 -1.313066E+06  2.776665E-09 -8.623411E-10
        34  15 -3.449747E+06 -5.241523E+05 -6.687468E+03 -1.346306E+06  3.223821E-09  4.057116E-10
        34  16 -3.070116E+06 -3.849203E+05  7.841324E+04 -1.240485E+06 -4.414832E-09 -6.332512E-10
        34  17 -3.195879E+06 -3.890169E+05  6.311014E+04 -1.236583E+06 -3.573892E-09  1.451201E-10
        34  18 -3.267002E+06 -4.561435E+05  4.201520E+04 -1.297491E+06 -3.758415E-10  7.422839E-10
        34  19 -3.830550E+06 -6.723644E+05 -1.229588E+05 -1.448736E+06  1.911712E+04 -8.024708E+03
        34  20 -3.758802E+06 -6.007202E+05 -8.618529E+04 -1.389516E+06  1.160245E+04 -6.140875E+03
        34  21 -3.632460E+06 -5.921592E+05 -5.539286E+04 -1.395109E+06  3.995432E+03 -4.003935E+03
        34  22 -3.450403E+06 -5.286466E+05 -2.226584E+04 -1.344640E+06  2.099678E+04 -7.321700E+03
        34  23 -3.477379E+06 -4.948709E+05 -1.153389E+04 -1.313066E+06  1.359731E+04 -5.395568E+03
        34  24 -3.449747E+06 -5.241523E+05 -6.687378E+03 -1.346306E+06  6.106551E+03 -3.216016E+03
        34  25 -3.070116E+06 -3.849201E+05  7.841431E+04 -1.240485E+06  2.287770E+04 -6.618214E+03
        34  26 -3.195879E+06 -3.890169E+05  6.311064E+04 -1.236583E+06  1.559316E+04 -4.649887E+03
        34  27 -3.267002E+06 -4.561435E+05  4.201534E+04 -1.297491E+06  8.218361E+03 -2.427845E+03
        35   1 -3.483395E+06 -5.378434E+05 -1.397914E+04 -1.355589E+06 -2.082857E+03  1.751411E+03
        35   2 -3.411053E+06 -4.699780E+05  1.446193E+04 -1.294438E+06  1.233203E+03 -2.034027E+03
        35   3 -3.280684E+06 -4.613834E+05  4.145355E+04 -1.300616E+06  4.545782E+03 -5.807234E+03
        35   4 -3.449218E+06 -5.250080E+05 -5.288986E+03 -1.346229E+06 -4.156283E+03  9.777657E+02
        35   5 -3.478201E+06 -4.951833E+05 -3.337523E+03 -1.312632E+06 -8.346597E+02 -2.805800E+03
        35   6 -3.449166E+06 -5.246313E+05 -2.838911E+03 -1.346369E+06  2.483153E+03 -6.577195E+03
        35   7 -3.415039E+06 -5.121725E+05  3.401109E+03 -1.336868E+06 -6.229838E+03  2.040715E+02
        35   8 -3.545343E+06 -5.203882E+05 -2.113726E+04 -1.330825E+06 -2.902266E+03 -3.577478E+03
        35   9 -3.617619E+06 -5.878769E+05 -4.713328E+04 -1.392111E+06  4.211622E+02 -7.346917E+03
        35  10 -3.483395E+06 -5.378434E+05 -1.397916E+04 -1.355589E+06  2.160876E-09  4.584922E-10
        35  11 -3.411053E+06 -4.699780E+05  1.446192E+04 -1.294438E+06  1.238780E-09 -3.198604E-10
        35  12 -3.280684E+06 -4.613834E+05  4.145344E+04 -1.300616E+06  2.538328E-09 -1.205768E-09
        35  13 -3.449218E+06 -5.250080E+05 -5.289020E+03 -1.346229E+06  1.066873E-09  3.318450E-10
        35  14 -3.478201E+06 -4.951833E+05 -3.337539E+03 -1.312632E+06 -8.454817E-09 -2.754130E-09
        35  15 -3.449166E+06 -5.246314E+05 -2.839004E+03 -1.346369E+06 -2.733441E-09 -1.120806E-09
        35  16 -3.415039E+06 -5.121726E+05  3.401035E+03 -1.336868E+06 -5.311758E-10 -4.318667E-10
        35  17 -3.545343E+06 -5.203883E+05 -2.113730E+04 -1.330825E+06 -1.878374E-09  3.752458E-10
        35  18 -3.617619E+06 -5.878770E+05 -4.713338E+04 -1.392111E+06 -3.214669E-09 -2.228558E-09
        35  19 -3.483395E+06 -5.378434E+05 -1.397914E+04 -1.355589E+06  2.082857E+03 -1.751411E+03
        35  20 -3.411053E+06 -4.699780E+05  1.446193E+04 -1.294438E+06 -1.233203E+03  2.034027E+03
        35  21 -3.280684E+06 -4.613834E+05  4.145355E+04 -1.300616E+06 -4.545782E+03  5.807234E+03
        35  22 -3.449218E+06 -5.250080E+05 -5.288986E+03 -1.346229E+06  4.156283E+03 -9.777657E+02
        35  23 -3.478201E+06 -4.951833E+05 -3.337523E+03 -1.312632E+06  8.346597E+02  2.805800E+03
        35  24 -3.449166E+06 -5.246313E+05 -2.838911E+03 -1.346369E+06 -2.483153E+03  6.577195E+03
        35  25 -3.415039E+06 -5.121725E+05  3.401109E+03 -1.336868E+06  6.229838E+03 -2.040715E+02
        35  26 -3.545343E+06 -5.203882E+05 -2.113726E+04 -1.330825E+06  2.902266E+03  3.577478E+03
        35  27 -3.617619E+06 -5.878769E+05 -4.713328E+04 -1.392111E+06 -4.211622E+02  7.346917E+03
        36   1 -3.134745E+06 -4.058247E+05  8.092752E+04 -1.260491E+06  5.961127E+03 -8.189729E+03
        36   2 -3.065899E+06 -3.413369E+05  1.051785E+05 -1.201826E+06  9.461581E+03 -1.176385E+04
        36   3 -2.941422E+06 -3.336344E+05  1.278368E+05 -1.207306E+06  1.290510E+04 -1.517133E+04
        36   4 -3.449710E+06 -5.240028E+05 -2.920960E+03 -1.345701E+06  3.909306E+03 -8.956128E+03
        36   5 -3.477573E+06 -4.959565E+05 -3.943698E+03 -1.313495E+06  7.486214E+03 -1.250283E+04
        36   6 -3.449827E+06 -5.247153E+05 -6.620104E+03 -1.345442E+06  1.100583E+04 -1.588291E+04
        36   7 -3.764582E+06 -6.421762E+05 -8.677886E+04 -1.430874E+06  1.858614E+03 -9.722105E+03
        36   8 -3.889085E+06 -6.505673E+05 -1.130814E+05 -1.425099E+06  5.512276E+03 -1.324127E+04
        36   9 -3.957984E+06 -7.157819E+05 -1.411002E+05 -1.483477E+06  9.108256E+03 -1.659386E+04
        36  10 -3.134745E+06 -4.058247E+05  8.092733E+04 -1.260491E+06  5.006140E-11 -9.183779E-11
        36  11 -3.065899E+06 -3.413371E+05  1.051780E+05 -1.201825E+06 -1.092026E-09  4.562950E-09
        36  12 -2.941422E+06 -3.336347E+05  1.278361E+05 -1.207306E+06  3.124936E-10 -4.183532E-10
        36  13 -3.449710E+06 -5.240029E+05 -2.921139E+03 -1.345701E+06 -4.501014E-09  2.017346E-10
        36  14 -3.477573E+06 -4.959567E+05 -3.944096E+03 -1.313495E+06 -4.918674E-09  1.697731E-09
        36  15 -3.449827E+06 -5.247156E+05 -6.620805E+03 -1.345442E+06 -7.852057E-11  4.613010E-10
        36  16 -3.764582E+06 -6.421763E+05 -8.677904E+04 -1.430874E+06 -2.665140E-09 -3.284325E-10
        36  17 -3.889085E+06 -6.505675E+05 -1.130818E+05 -1.425099E+06 -3.903894E-09  2.538000E-10
        36  18 -3.957984E+06 -7.157823E+05 -1.411009E+05 -1.483477E+06 -2.451484E-09 -1.220152E-09
        36  19 -3.134745E+06 -4.058247E+05  8.092752E+04 -1.260491E+06 -5.961127E+03  8.189729E+03
        36  20 -3.065899E+06 -3.413369E+05  1.051785E+05 -1.201826E+06 -9.461581E+03  1.176385E+04
        36  21 -2.941422E+06 -3.336344E+05  1.278368E+05 -1.207306E+06 -1.290510E+04  1.517133E+04
        36  22 -3.449710E+06 -5.240028E+05 -2.920960E+03 -1.345701E+06 -3.909306E+03  8.956128E+03
        36  23 -3.477573E+06 -4.959565E+05 -3.943698E+03 -1.313495E+06 -7.486214E+03  1.250283E+04
        36  24 -3.449827E+06 -5.247153E+05 -6.620104E+03 -1.345442E+06 -1.100583E+04  1.588291E+04
        36  25 -3.764582E+06 -6.421762E+05 -8.677886E+04 -1.430874E+06 -1.858614E+03  9.722105E+03
        36  26 -3.889085E+06 -6.505673E+05 -1.130814E+05 -1.425099E+06 -5.512276E+03  1.324127E+04
        36  27 -3.957984E+06 -7.157819E+05 -1.411002E+05 -1.483477E+06 -9.108256E+03  1.659386E+04
        37   1 -2.807712E+06 -2.812660E+05  1.624246E+05 -1.170325E+06  1.504796E+04 -1.707753E+04
        37   2 -2.746524E+06 -2.224558E+05  1.784415E+05 -1.117053E+06  2.383117E+04 -1.818929E+04
        37   3 -2.638436E+06 -2.205948E+05  1.872040E+05 -1.119037E+06  3.245211E+04 -1.884513E+04
        37   4 -3.451505E+06 -5.225115E+05 -8.452248E+03 -1.344329E+06  1.312308E+04 -1.779972E+04
        37   5 -3.475367E+06 -4.969658E+05 -1.486519E+04 -1.315600E+06  2.211106E+04 -1.883655E+04
        37   6 -3.452381E+06 -5.284193E+05 -2.870163E+04 -1.342132E+06  3.093562E+04 -1.941760E+04
        37   7 -4.094889E+06 -7.637307E+05 -1.793633E+05 -1.518169E+06  1.120042E+04 -1.852108E+04
        37   8 -4.203692E+06 -7.714429E+05 -2.082174E+05 -1.513935E+06  2.039317E+04 -1.948297E+04
        37   9 -4.265685E+06 -8.362036E+05 -2.446658E+05 -1.564962E+06  2.942130E+04 -1.998925E+04
        37  10 -2.807712E+06 -2.812663E+05  1.624237E+05 -1.170324E+06 -1.797691E-09 -8.963015E-10
        37  11 -2.746525E+06 -2.224563E+05  1.784398E+05 -1.117053E+06  4.238689E-10  1.594733E-09
        37  12 -2.638438E+06 -2.205954E+05  1.872014E+05 -1.119036E+06 -2.897258E-09  1.877406E-09
        37  13 -3.451505E+06 -5.225119E+05 -8.453166E+03 -1.344329E+06  2.201879E-09 -9.379067E-10
        37  14 -3.475368E+06 -4.969663E+05 -1.486678E+04 -1.315600E+06 -3.097037E-10  1.151189E-09
        37  15 -3.452382E+06 -5.284199E+05 -2.870414E+04 -1.342131E+06  6.692978E-10  1.670889E-10
        37  16 -4.094889E+06 -7.637311E+05 -1.793641E+05 -1.518169E+06  3.995734E-09  4.608861E-10
        37  17 -4.203693E+06 -7.714434E+05 -2.082189E+05 -1.513935E+06  9.029142E-10  1.199117E-09
        37  18 -4.265686E+06 -8.362043E+05 -2.446682E+05 -1.564961E+06 -1.838780E-09 -7.583756E-10
        37  19 -2.807712E+06 -2.812660E+05  1.624246E+05 -1.170325E+06 -1.504796E+04  1.707753E+04
        37  20 -2.746524E+06 -2.224558E+05  1.784415E+05 -1.117053E+06 -2.383117E+04  1.818929E+04
        37  21 -2.638436E+06 -2.205948E+05  1.872040E+05 -1.119037E+06 -3.245211E+04  1.884513E+04
        37  22 -3.451505E+06 -5.225115E+05 -8.452248E+03 -1.344329E+06 -1.312308E+04  1.779972E+04
        37  23 -3.475367E+06 -4.969658E+05 -1.486519E+04 -1.315600E+06 -2.211106E+04  1.883655E+04
        37  24 -3.452381E+06 -5.284193E+05 -2.870163E+04 -1.342132E+06 -3.093562E+04  1.941760E+04
        37  25 -4.094889E+06 -7.637307E+05 -1.793633E+05 -1.518169E+06 -1.120042E+04  1.852108E+04
        37  26 -4.203692E+06 -7.714429E+05 -2.082174E+05 -1.513935E+06 -2.039317E+04  1.948297E+04
        37  27 -4.265685E+06 -8.362036E+05 -2.446658E+05 -1.564962E+06 -2.942130E+04  1.998925E+04
        38   1 -2.522588E+06 -1.735117E+05  2.101304E+05 -1.096285E+06  3.920725E+04 -1.896176E+04
        38   2 -2.471296E+06 -1.126282E+05  2.010804E+05 -1.043587E+06  7.235780E+04 -1.006436E+04
        38   3 -2.406947E+06 -1.572797E+05  1.506804E+05 -1.020304E+06  1.044931E+05  1.553447E+03
        38   4 -3.457104E+06 -5.189108E+05 -3.670378E+04 -1.344077E+06  3.706928E+04 -1.976874E+04
        38   5 -3.467298E+06 -4.921850E+05 -6.386633E+04 -1.319521E+06  7.144582E+04 -1.041281E+04
        38   6 -3.464726E+06 -5.713135E+05 -1.334078E+05 -1.324381E+06  1.048028E+05  1.662916E+03
        38   7 -4.390773E+06 -8.642656E+05 -2.836131E+05 -1.591534E+06  3.493484E+04 -2.057446E+04
        38   8 -4.462335E+06 -8.716754E+05 -3.288993E+05 -1.595052E+06  7.053538E+04 -1.076066E+04
        38   9 -4.521415E+06 -9.852555E+05 -4.175945E+05 -1.627979E+06  1.051117E+05  1.772089E+03
        38  10 -2.522590E+06 -1.735125E+05  2.101268E+05 -1.096285E+06 -3.191535E-09 -1.206739E-10
        38  11 -2.471302E+06 -1.126297E+05  2.010704E+05 -1.043586E+06 -3.406246E-09  1.210262E-09
        38  12 -2.406959E+06 -1.572826E+05  1.506598E+05 -1.020304E+06 -1.416287E-09 -8.887899E-10
        38  13 -3.457106E+06 -5.189116E+05 -3.670710E+04 -1.344076E+06 -5.287952E-10  1.178192E-10
        38  14 -3.467303E+06 -4.921865E+05 -6.387617E+04 -1.319520E+06  1.006708E-10 -8.461308E-10
        38  15 -3.464738E+06 -5.713165E+05 -1.334285E+05 -1.324381E+06 -1.468842E-09 -2.162507E-09
        38  16 -4.390775E+06 -8.642664E+05 -2.836162E+05 -1.591533E+06  1.867234E-10  2.961752E-10
        38  17 -4.462340E+06 -8.716768E+05 -3.289090E+05 -1.595051E+06  5.092797E-10  7.676359E-10
        38  18 -4.521427E+06 -9.852584E+05 -4.176154E+05 -1.627979E+06 -3.671893E-09 -3.431331E-09
        38  19 -2.522588E+06 -1.735117E+05  2.101304E+05 -1.096285E+06 -3.920725E+04  1.896176E+04
        38  20 -2.471296E+06 -1.126282E+05  2.010804E+05 -1.043587E+06 -7.235780E+04  1.006436E+04
        38  21 -2.406947E+06 -1.572797E+05  1.506804E+05 -1.020304E+06 -1.044931E+05 -1.553447E+03
        38  22 -3.457104E+06 -5.189108E+05 -3.670378E+04 -1.344077E+06 -3.706928E+04  1.976874E+04
        38  23 -3.467298E+06 -4.921850E+05 -6.386633E+04 -1.319521E+06 -7.144582E+04  1.041281E+04
        38  24 -3.464726E+06 -5.713135E+05 -1.334078E+05 -1.324381E+06 -1.048028E+05 -1.662916E+03
        38  25 -4.390773E+06 -8.642656E+05 -2.836131E+05 -1.591534E+06 -3.493484E+04  2.057446E+04
        38  26 -4.462335E+06 -8.716754E+05 -3.288993E+05 -1.595052E+06 -7.053538E+04  1.076066E+04
        38  27 -4.521415E+06 -9.852555E+05 -4.175945E+05 -1.627979E+06 -1.051117E+05 -1.772089E+03
        39   1 -2.289404E+06 -1.071009E+05  1.425027E+05 -1.092654E+06  1.379718E+05  7.779919E+03
        39   2 -2.242820E+06  5.579832E+04  4.824735E+04 -9.690435E+05  2.728997E+05  5.696898E+04
        39   3 -2.406439E+06 -3.956270E+05 -3.069016E+05 -7.220495E+05  3.966919E+05  1.355449E+05
        39   4 -3.488331E+06 -5.006638E+05 -1.638940E+05 -1.360219E+06  1.301309E+05  4.824423E+03
        39   5 -3.416249E+06 -4.286288E+05 -2.706143E+05 -1.332244E+06  2.786009E+05  5.910274E+04
        39   6 -3.557527E+06 -9.743579E+05 -6.494014E+05 -1.180766E+06  4.159259E+05  1.427415E+05
        39   7 -4.685867E+06 -8.942196E+05 -4.704053E+05 -1.627355E+06  1.223064E+05  1.873273E+03
        39   8 -4.588331E+06 -9.128952E+05 -5.896001E+05 -1.694794E+06  2.842898E+05  6.123086E+04
        39   9 -4.707269E+06 -1.552679E+06 -9.920280E+05 -1.638608E+06  4.351198E+05  1.499116E+05
        39  10 -2.289424E+06 -1.071061E+05  1.424667E+05 -1.092655E+06 -4.114410E-09 -3.834220E-09
        39  11 -2.242901E+06  5.577472E+04  4.810069E+04 -9.690560E+05 -1.378673E-09 -1.361239E-09
        39  12 -2.406613E+06 -3.956893E+05 -3.072332E+05 -7.220929E+05  2.766301E-11 -1.900357E-09
        39  13 -3.488350E+06 -5.006684E+05 -1.639260E+05 -1.360220E+06 -5.392196E-09 -2.133289E-09
        39  14 -3.416334E+06 -4.286536E+05 -2.707677E+05 -1.332258E+06 -6.297540E-09  2.467317E-09
        39  15 -3.557719E+06 -9.744267E+05 -6.497671E+05 -1.180814E+06  6.461119E-09 -1.094468E-09
        39  16 -4.685883E+06 -8.942237E+05 -4.704337E+05 -1.627355E+06 -3.381301E-09 -4.581704E-09
        39  17 -4.588419E+06 -9.129211E+05 -5.897604E+05 -1.694808E+06 -1.077538E-09  1.289274E-09
        39  18 -4.707480E+06 -1.552755E+06 -9.924294E+05 -1.638661E+06  3.563141E-09 -2.498595E-09
        39  19 -2.289404E+06 -1.071009E+05  1.425027E+05 -1.092654E+06 -1.379718E+05 -7.779919E+03
        39  20 -2.242820E+06  5.579832E+04  4.824735E+04 -9.690435E+05 -2.728997E+05 -5.696898E+04
        39  21 -2.406439E+06 -3.956270E+05 -3.069016E+05 -7.220495E+05 -3.966919E+05 -1.355449E+05
        39  22 -3.488331E+06 -5.006638E+05 -1.638940E+05 -1.360219E+06 -1.301309E+05 -4.824423E+03
        39  23 -3.416249E+06 -4.286288E+05 -2.706143E+05 -1.332244E+06 -2.786009E+05 -5.910274E+04
        39  24 -3.557527E+06 -9.743579E+05 -6.494014E+05 -1.180766E+06 -4.159259E+05 -1.427415E+05
        39  25 -4.685867E+06 -8.942196E+05 -4.704053E+05 -1.627355E+06 -1.223064E+05 -1.873273E+03
        39  26 -4.588331E+06 -9.128952E+05 -5.896001E+05 -1.694794E+06 -2.842898E+05 -6.123086E+04
        39  27 -4.707269E+06 -1.552679E+06 -9.920280E+05 -1.638608E+06 -4.351198E+05 -1.499116E+05
        40   1  1.275452E+05 -8.939182E+05  1.212880E+05 -2.781793E+03  1.626369E+04  1.373962E+03
        40   2  1.247659E+05 -9.053284E+05  1.170983E+05  1.255046E+03  1.581084E+04  3.030557E+03
        40   3  1.207840E+05 -9.170361E+05  1.115743E+05 -3.355459E+03  1.526188E+04  4.686338E+03
        40   4  2.285256E+01 -1.407623E+06 -1.962430E+03 -1.920644E+03  1.626405E+04  1.574673E+03
        40   5  1.057969E+02 -1.407470E+06 -3.405864E+03  2.401598E+03  1.581095E+04  3.278451E+03
        40   6 -1.022741E+03 -1.407623E+06 -6.217057E+03 -1.923938E+03  1.526171E+04  4.981447E+03
        40   7 -1.275187E+05 -1.921086E+06 -1.252316E+05 -1.060051E+03  1.626440E+04  1.775217E+03
        40   8 -1.245727E+05 -1.909380E+06 -1.239279E+05  3.547388E+03  1.581106E+04  3.526145E+03
        40   9 -1.228470E+05 -1.897989E+06 -1.240255E+05 -4.933735E+02  1.526155E+04  5.276323E+03
        40  10  1.275449E+05 -8.939183E+05  1.212875E+05 -2.781811E+03 -5.468983E-10 -8.868718E-09
        40  11  1.247656E+05 -9.053285E+05  1.170978E+05  1.255008E+03  1.319269E-09 -8.077460E-09
        40  12  1.207838E+05 -9.170362E+05  1.115738E+05 -3.355517E+03  1.632447E-09  1.299064E-09
        40  13  2.256803E+01 -1.407623E+06 -1.962931E+03 -1.920665E+03 -2.651408E-09  1.497389E-09
        40  14  1.055258E+02 -1.407470E+06 -3.406354E+03  2.401556E+03  4.578397E-09 -3.187693E-09
        40  15 -1.022997E+03 -1.407623E+06 -6.217541E+03 -1.923999E+03  2.208873E-09  1.255849E-09
        40  16 -1.275190E+05 -1.921086E+06 -1.252321E+05 -1.060074E+03  4.943277E-09  8.858521E-09
        40  17 -1.245730E+05 -1.909380E+06 -1.239284E+05  3.547343E+03  2.251755E-09  4.389739E-09
        40  18 -1.228473E+05 -1.897989E+06 -1.240260E+05 -4.934384E+02 -3.406651E-09 -1.762062E-09
        40  19  1.275452E+05 -8.939182E+05  1.212880E+05 -2.781793E+03 -1.626369E+04 -1.373962E+03
        40  20  1.247659E+05 -9.053284E+05  1.170983E+05  1.255046E+03 -1.581084E+04 -3.030557E+03
        40  21  1.207840E+05 -9.170361E+05  1.115743E+05 -3.355459E+03 -1.526188E+04 -4.686338E+03
        40  22  2.285256E+01 -1.407623E+06 -1.962430E+03 -1.920644E+03 -1.626405E+04 -1.574673E+03
        40  23  1.057969E+02 -1.407470E+06 -3.405864E+03  2.401598E+03 -1.581095E+04 -3.278451E+03
        40  24 -1.022741E+03 -1.407623E+06 -6.217057E+03 -1.923938E+03 -1.526171E+04 -4.981447E+03
        40  25 -1.275187E+05 -1.921086E+06 -1.252316E+05 -1.060051E+03 -1.626440E+04 -1.775217E+03
        40  26 -1.245727E+05 -1.909380E+06 -1.239279E+05  3.547388E+03 -1.581106E+04 -3.526145E+03
        40  27 -1.228470E+05 -1.897989E+06 -1.240255E+05 -4.933735E+02 -1.526155E+04 -5.276323E+03
        41   1  1.178988E+05 -9.353942E+05  1.055063E+05 -2.234450E+03  1.502968E+04  6.098150E+03
        41   2  1.152423E+05 -9.479997E+05  9.662015E+04  1.026779E+03  1.441648E+04  1.264581E+04
        41   3  1.005185E+05 -9.643411E+05  8.047801E+04 -6.565383E+03  1.316049E+04  1.919015E+04
        41   4  4.921968E+02 -1.408392E+06 -7.955270E+03 -2.399671E+03  1.502997E+04  6.230508E+03
        41   5  1.406534E+03 -1.406499E+06 -1.340965E+04  3.007286E+03  1.441552E+04  1.309731E+04
        41   6 -9.806861E+03 -1.408400E+06 -2.634553E+04 -2.439700E+03  1.315811E+04  1.996094E+04
        41   7 -1.169306E+05 -1.881184E+06 -1.214327E+05 -2.564589E+03  1.503026E+04  6.362764E+03
        41   8 -1.124445E+05 -1.864805E+06 -1.234544E+05  4.986501E+03  1.441456E+04  1.354848E+04
        41   9 -1.201466E+05 -1.852278E+06 -1.331831E+05  1.683196E+03  1.315574E+04  2.073117E+04
        41  10  1.178985E+05 -9.353943E+05  1.055058E+05 -2.234524E+03  2.538203E-09 -4.713999E-09
        41  11  1.152420E+05 -9.479999E+05  9.661946E+04  1.026632E+03  3.908578E-09 -5.144098E-09
        41  12  1.005182E+05 -9.643416E+05  8.047700E+04 -6.565586E+03  3.209909E-10  4.016687E-09
        41  13  4.919439E+02 -1.408392E+06 -7.955767E+03 -2.399747E+03  4.163811E-09  2.290888E-09
        41  14  1.406265E+03 -1.406499E+06 -1.341037E+04  3.007134E+03  2.076266E-09 -4.050828E-09
        41  15 -9.807154E+03 -1.408401E+06 -2.634661E+04 -2.439912E+03 -5.471807E-09  1.420962E-09
        41  16 -1.169309E+05 -1.881184E+06 -1.214332E+05 -2.564666E+03 -2.450886E-09  4.713598E-09
        41  17 -1.124448E+05 -1.864805E+06 -1.234551E+05  4.986343E+03 -1.227579E-09  9.940470E-10
        41  18 -1.201469E+05 -1.852279E+06 -1.331843E+05  1.682976E+03 -2.694061E-09 -4.687148E-09
        41  19  1.178988E+05 -9.353942E+05  1.055063E+05 -2.234450E+03 -1.502968E+04 -6.098150E+03
        41  20  1.152423E+05 -9.479997E+05  9.662015E+04  1.026779E+03 -1.441648E+04 -1.264581E+04
        41  21  1.005185E+05 -9.643411E+05  8.047801E+04 -6.565383E+03 -1.316049E+04 -1.919015E+04
        41  22  4.921968E+02 -1.408392E+06 -7.955270E+03 -2.399671E+03 -1.502997E+04 -6.230508E+03
        41  23  1.406534E+03 -1.406499E+06 -1.340965E+04  3.007286E+03 -1.441552E+04 -1.309731E+04
        41  24 -9.806861E+03 -1.408400E+06 -2.634553E+04 -2.439700E+03 -1.315811E+04 -1.996094E+04
        41  25 -1.169306E+05 -1.881184E+06 -1.214327E+05 -2.564589E+03 -1.503026E+04 -6.362764E+03
        41  26 -1.124445E+05 -1.864805E+06 -1.234544E+05  4.986501E+03 -1.441456E+04 -1.354848E+04
        41  27 -1.201466E+05 -1.852278E+06 -1.331831E+05  1.683196E+03 -1.315574E+04 -2.073117E+04
        42   1  1.096502E+05 -9.918160E+05  6.896045E+04  8.213066E+03  1.387280E+04  2.650806E+04
        42   2  1.140746E+05 -9.931662E+05  4.555777E+04 -6.219226E+03  1.280751E+04  5.037809E+04
        42   3  3.991396E+03 -1.026225E+06 -2.201989E+04 -3.400062E+04  3.748685E+03  7.420987E+04
        42   4  4.818710E+03 -1.414741E+06 -3.229975E+04 -2.830879E+03  1.387931E+04  2.497072E+04
        42   5  1.334721E+04 -1.398562E+06 -5.167090E+04  3.621792E+03  1.279788E+04  5.284853E+04
        42   6 -9.336990E+04 -1.414808E+06 -1.180239E+05 -3.276776E+03  3.722210E+03  8.068837E+04
        42   7 -1.000252E+05 -1.837502E+06 -1.335725E+05 -1.386709E+04  1.388587E+04  2.343443E+04
        42   8 -8.739187E+04 -1.803807E+06 -1.489112E+05  1.345651E+04  1.278833E+04  5.531735E+04
        42   9 -1.907391E+05 -1.803252E+06 -2.140384E+05  2.742793E+04  3.696369E+03  8.716281E+04
        42  10  1.096498E+05 -9.918168E+05  6.895876E+04  8.212769E+03 -4.689774E-09  4.961587E-10
        42  11  1.140738E+05 -9.931690E+05  4.555268E+04 -6.219746E+03 -3.102349E-09 -6.178885E-09
        42  12  3.989900E+03 -1.026231E+06 -2.203028E+04 -3.400084E+04 -1.259982E-09  2.406545E-10
        42  13  4.818335E+03 -1.414742E+06 -3.230128E+04 -2.831159E+03 -5.419001E-09  2.229899E-09
        42  14  1.334628E+04 -1.398565E+06 -5.167647E+04  3.621247E+03 -1.901429E-09 -4.796014E-09
        42  15 -9.337167E+04 -1.414815E+06 -1.180362E+05 -3.277018E+03  5.063518E-10  1.544798E-09
        42  16 -1.000256E+05 -1.837503E+06 -1.335739E+05 -1.386735E+04 -9.179170E-10 -5.786829E-10
        42  17 -8.739287E+04 -1.803810E+06 -1.489172E+05  1.345594E+04 -3.257756E-09  4.625338E-10
        42  18 -1.907411E+05 -1.803261E+06 -2.140528E+05  2.742767E+04  1.637207E-09 -1.113494E-09
        42  19  1.096502E+05 -9.918160E+05  6.896045E+04  8.213066E+03 -1.387280E+04 -2.650806E+04
        42  20  1.140746E+05 -9.931662E+05  4.555777E+04 -6.219226E+03 -1.280751E+04 -5.037809E+04
        42  21  3.991396E+03 -1.026225E+06 -2.201989E+04 -3.400062E+04 -3.748685E+03 -7.420987E+04
        42  22  4.818710E+03 -1.414741E+06 -3.229975E+04 -2.830879E+03 -1.387931E+04 -2.497072E+04
        42  23  1.334721E+04 -1.398562E+06 -5.167090E+04  3.621792E+03 -1.279788E+04 -5.284853E+04
        42  24 -9.336990E+04 -1.414808E+06 -1.180239E+05 -3.276776E+03 -3.722210E+03 -8.068837E+04
        42  25 -1.000252E+05 -1.837502E+06 -1.335725E+05 -1.386709E+04 -1.388587E+04 -2.343443E+04
        42  26 -8.739187E+04 -1.803807E+06 -1.489112E+05  1.345651E+04 -1.278833E+04 -5.531735E+04
        42  27 -1.907391E+05 -1.803252E+06 -2.140384E+05  2.742793E+04 -3.696369E+03 -8.716281E+04
        43   1  9.248269E+04  9.863777E+05  5.272893E+04 -1.961215E+02  3.236454E+04 -5.933423E+02
        43   2  9.261474E+04  9.864899E+05  5.344829E+04 -1.630312E+02  3.225467E+04 -1.525273E+03
        43   3  9.297701E+04  9.867899E+05  5.483409E+04 -1.111058E+02  3.199872E+04 -2.457308E+03
        43   4 -3.533022E+01  5.754744E+05  6.661108E+02  4.173772E+00  3.236676E+04 -5.036361E+02
        43   5  1.834805E+01  5.754108E+05  1.169170E+03 -5.186959E+00  3.225671E+04 -1.084152E+03
        43   6  2.413926E+02  5.754741E+05  2.095095E+03  4.287715E+00  3.200052E+04 -1.664766E+03
        43   7 -9.256024E+04  1.647442E+05 -5.139729E+04  2.043476E+02  3.236898E+04 -4.139862E+02
        43   8 -9.258495E+04  1.645048E+05 -5.111059E+04  1.525674E+02  3.225875E+04 -6.433077E+02
        43   9 -9.250119E+04  1.643315E+05 -5.064466E+04  1.196230E+02  3.200233E+04 -8.727218E+02
        43  10  9.248157E+04  9.863775E+05  5.272696E+04 -1.961060E+02  2.336053E-09  1.602255E-08
        43  11  9.261362E+04  9.864897E+05  5.344633E+04 -1.629916E+02  6.425227E-09 -2.540337E-08
        43  12  9.297590E+04  9.867896E+05  5.483215E+04 -1.110425E+02  1.938942E-09 -6.345183E-08
        43  13 -3.645554E+01  5.754741E+05  6.641411E+02  4.186898E+00 -1.231922E-08  4.773376E-10
        43  14  1.723012E+01  5.754105E+05  1.167212E+03 -5.158800E+00 -1.281930E-08 -9.729530E-10
        43  15  2.402919E+02  5.754738E+05  2.093165E+03  4.330611E+00 -1.771575E-08  5.711219E-10
        43  16 -9.256136E+04  1.647439E+05 -5.139926E+04  2.043584E+02  6.087763E-09 -1.675600E-08
        43  17 -9.258607E+04  1.645046E+05 -5.111255E+04  1.525841E+02  6.809290E-09  2.503540E-08
        43  18 -9.250229E+04  1.643313E+05 -5.064659E+04  1.196455E+02  3.578630E-09  6.364797E-08
        43  19  9.248269E+04  9.863777E+05  5.272893E+04 -1.961215E+02 -3.236454E+04  5.933423E+02
        43  20  9.261474E+04  9.864899E+05  5.344829E+04 -1.630312E+02 -3.225467E+04  1.525273E+03
        43  21  9.297701E+04  9.867899E+05  5.483409E+04 -1.111058E+02 -3.199872E+04  2.457308E+03
        43  22 -3.533022E+01  5.754744E+05  6.661108E+02  4.173772E+00 -3.236676E+04  5.036361E+02
        43  23  1.834805E+01  5.754108E+05  1.169170E+03 -5.186959E+00 -3.225671E+04  1.084152E+03
        43  24  2.413926E+02  5.754741E+05  2.095095E+03  4.287715E+00 -3.200052E+04  1.664766E+03
        43  25 -9.256024E+04  1.647442E+05 -5.139729E+04  2.043476E+02 -3.236898E+04  4.139862E+02
        43  26 -9.258495E+04  1.645048E+05 -5.111059E+04  1.525674E+02 -3.225875E+04  6.433077E+02
        43  27 -9.250119E+04  1.643315E+05 -5.064466E+04  1.196230E+02 -3.200233E+04  8.727218E+02
        44   1  9.320143E+04  9.871557E+05  5.583041E+04 -2.485998E+02  3.183705E+04 -2.950686E+03
        44   2  9.439110E+04  9.868145E+05  5.945042E+04  9.467270E+02  3.092987E+04 -8.064408E+03
        44   3  9.778537E+04  9.876980E+05  6.694953E+04  2.090434E+03  2.893169E+04 -1.317900E+04
        44   4  3.593724E+02  5.756171E+05  2.782621E+03 -1.154180E+01  3.183877E+04 -2.073651E+03
        44   5  1.255012E+03  5.752312E+05  4.969114E+03  1.524296E+01  3.092984E+04 -4.563936E+03
        44   6  3.901031E+03  5.756156E+05  9.215788E+03 -9.601245E+00  2.892955E+04 -7.055062E+03
        44   7 -9.248969E+04  1.642518E+05 -5.026601E+04  2.253748E+02  3.184048E+04 -1.197168E+03
        44   8 -9.188824E+04  1.638206E+05 -4.951342E+04 -9.155701E+02  3.092980E+04 -1.065673E+03
        44   9 -8.999083E+04  1.637052E+05 -4.852001E+04 -2.108156E+03  2.892738E+04 -9.350077E+02
        44  10  9.320034E+04  9.871554E+05  5.582848E+04 -2.485241E+02  3.423001E-09  4.514405E-08
        44  11  9.439005E+04  9.868142E+05  5.944850E+04  9.469278E+02  3.259470E-09  4.571774E-09
        44  12  9.778442E+04  9.876976E+05  6.694763E+04  2.090741E+03  2.139877E-09 -3.287235E-08
        44  13  3.582825E+02  5.756168E+05  2.780707E+03 -1.148863E+01 -1.108020E-08  6.059046E-10
        44  14  1.253979E+03  5.752309E+05  4.967276E+03  1.535662E+01 -9.304357E-09 -1.204381E-09
        44  15  3.900119E+03  5.756153E+05  9.214122E+03 -9.436903E+00 -4.450364E-09  7.442248E-10
        44  16 -9.249078E+04  1.642515E+05 -5.026792E+04  2.254055E+02  2.265828E-09 -4.609418E-08
        44  17 -9.188927E+04  1.638203E+05 -4.951522E+04 -9.155436E+02  2.065397E-09 -4.986643E-09
        44  18 -8.999173E+04  1.637050E+05 -4.852158E+04 -2.108134E+03  3.102447E-10  3.311774E-08
        44  19  9.320143E+04  9.871557E+05  5.583041E+04 -2.485998E+02 -3.183705E+04  2.950686E+03
        44  20  9.439110E+04  9.868145E+05  5.945042E+04  9.467270E+02 -3.092987E+04  8.064408E+03
        44  21  9.778537E+04  9.876980E+05  6.694953E+04  2.090434E+03 -2.893169E+04  1.317900E+04
        44  22  3.593724E+02  5.756171E+05  2.782621E+03 -1.154180E+01 -3.183877E+04  2.073651E+03
        44  23  1.255012E+03  5.752312E+05  4.969114E+03  1.524296E+01 -3.092984E+04  4.563936E+03
        44  24  3.901031E+03  5.756156E+05  9.215788E+03 -9.601245E+00 -2.892955E+04  7.055062E+03
        44  25 -9.248969E+04  1.642518E+05 -5.026601E+04  2.253748E+02 -3.184048E+04  1.197168E+03
        44  26 -9.188824E+04  1.638206E+05 -4.951342E+04 -9.155701E+02 -3.092980E+04  1.065673E+03
        44  27 -8.999083E+04  1.637052E+05 -4.852001E+04 -2.108156E+03 -2.892738E+04  9.350077E+02
        45   1  9.984896E+04  9.895856E+05  7.225877E+04  1.293701E+03  2.766891E+04 -1.543178E+04
        45   2  1.116866E+05  9.853691E+05  9.312850E+04  1.537135E+04  2.083631E+04 -4.649043E+04
        45   3  1.441817E+05  9.903614E+05  1.393635E+05  2.881093E+04  5.924079E+03 -7.755699E+04
        45   4  5.378684E+03  5.767434E+05  1.235898E+04 -1.418072E+02  2.766601E+04 -8.664174E+03
        45   5  1.542081E+04  5.738160E+05  2.284045E+04  1.902622E+02  2.081890E+04 -2.030383E+04
        45   6  4.275867E+04  5.767329E+05  4.521813E+04 -1.160329E+02  5.891090E+03 -3.195064E+04
        45   7 -8.909939E+04  1.640729E+05 -4.754342E+04 -1.576293E+03  2.766308E+04 -1.900877E+03
        45   8 -8.085269E+04  1.624311E+05 -4.745052E+04 -1.498043E+04  2.080021E+04  5.865982E+03
        45   9 -5.867187E+04  1.632692E+05 -4.893009E+04 -2.902355E+04  5.853845E+03  1.362564E+04
        45  10  9.984808E+04  9.895852E+05  7.225689E+04  1.294044E+03  1.968125E-09 -6.096263E-09
        45  11  1.116855E+05  9.853667E+05  9.312363E+04  1.537213E+04  3.656959E-10 -2.971754E-09
        45  12  1.441800E+05  9.903550E+05  1.393521E+05  2.881130E+04 -4.303829E-10  2.996489E-09
        45  13  5.377842E+03  5.767431E+05  1.235741E+04 -1.416142E+02 -3.114961E-09  8.339926E-10
        45  14  1.542023E+04  5.738154E+05  2.283886E+04  1.906025E+02  3.171497E-09 -1.478887E-09
        45  15  4.275836E+04  5.767318E+05  4.521615E+04 -1.158813E+02 -4.103995E-12  1.014830E-09
        45  16 -8.910021E+04  1.640727E+05 -4.754487E+04 -1.576251E+03 -5.063074E-09  4.934790E-09
        45  17 -8.085316E+04  1.624310E+05 -4.745140E+04 -1.498053E+04 -1.194337E-09  2.503560E-09
        45  18 -5.867195E+04  1.632690E+05 -4.893051E+04 -2.902362E+04  1.775814E-09 -2.702447E-09
        45  19  9.984896E+04  9.895856E+05  7.225877E+04  1.293701E+03 -2.766891E+04  1.543178E+04
        45  20  1.116866E+05  9.853691E+05  9.312850E+04  1.537135E+04 -2.083631E+04  4.649043E+04
        45  21  1.441817E+05  9.903614E+05  1.393635E+05  2.881093E+04 -5.924079E+03  7.755699E+04
        45  22  5.378684E+03  5.767434E+05  1.235898E+04 -1.418072E+02 -2.766601E+04  8.664174E+03
        45  23  1.542081E+04  5.738160E+05  2.284045E+04  1.902622E+02 -2.081890E+04  2.030383E+04
        45  24  4.275867E+04  5.767329E+05  4.521813E+04 -1.160329E+02 -5.891090E+03  3.195064E+04
        45  25 -8.909939E+04  1.640729E+05 -4.754342E+04 -1.576293E+03 -2.766308E+04  1.900877E+03
        45  26 -8.085269E+04  1.624311E+05 -4.745052E+04 -1.498043E+04 -2.080021E+04 -5.865982E+03
        45  27 -5.867187E+04  1.632692E+05 -4.893009E+04 -2.902355E+04 -5.853845E+03 -1.362564E+04
        46   1 -8.515821E+06 -2.465550E+06 -1.434554E+06 -3.069677E+06 -7.710863E+05 -2.795022E+05
        46   2 -8.314948E+06 -1.307100E+06 -7.116509E+05 -3.187139E+06 -4.967412E+05 -1.553709E+05
        46   3 -8.527259E+06 -1.277677E+06 -4.996023E+05 -3.062607E+06 -2.144428E+05 -5.229494E+04
        46   4 -7.832395E+06 -1.951057E+06 -1.195972E+06 -2.623384E+06 -7.581593E+05 -2.750350E+05
        46   5 -7.563184E+06 -9.502612E+05 -4.972947E+05 -2.908222E+06 -4.934450E+05 -1.542069E+05
        46   6 -7.704731E+06 -1.075882E+06 -3.013184E+05 -2.951238E+06 -2.207513E+05 -5.461913E+04
        46   7 -7.148340E+06 -1.435949E+06 -9.574167E+05 -2.176502E+06 -7.452163E+05 -2.705479E+05
        46   8 -6.810848E+06 -5.932840E+05 -2.829921E+05 -2.628961E+06 -4.901441E+05 -1.530400E+05
        46   9 -6.881524E+06 -8.741078E+05 -1.030756E+05 -2.839777E+06 -2.270689E+05 -5.694398E+04
        46  10 -8.516489E+06 -2.465797E+06 -1.435838E+06 -3.069852E+06 -2.970013E-09 -1.496365E-10
        46  11 -8.315222E+06 -1.307194E+06 -7.121679E+05 -3.187202E+06 -4.066791E-09  8.751241E-10
        46  12 -8.527310E+06 -1.277692E+06 -4.996953E+05 -3.062616E+06  5.629764E-09  3.462226E-09
        46  13 -7.833040E+06 -1.951296E+06 -1.197212E+06 -2.623553E+06  3.117908E-09 -4.425102E-10
        46  14 -7.563455E+06 -9.503536E+05 -4.978041E+05 -2.908284E+06  4.429984E-09 -1.267020E-09
        46  15 -7.704785E+06 -1.075898E+06 -3.014169E+05 -2.951248E+06 -3.292944E-10 -1.456007E-09
        46  16 -7.148962E+06 -1.436179E+06 -9.586129E+05 -2.176665E+06  2.278624E-09  9.893869E-10
        46  17 -6.811115E+06 -5.933750E+05 -2.834940E+05 -2.629022E+06  1.223805E-09  8.848947E-10
        46  18 -6.881581E+06 -8.741254E+05 -1.031799E+05 -2.839787E+06  4.470932E-10  2.830856E-09
        46  19 -8.515821E+06 -2.465550E+06 -1.434554E+06 -3.069677E+06  7.710863E+05  2.795022E+05
        46  20 -8.314948E+06 -1.307100E+06 -7.116509E+05 -3.187139E+06  4.967412E+05  1.553709E+05
        46  21 -8.527259E+06 -1.277677E+06 -4.996023E+05 -3.062607E+06  2.144428E+05  5.229494E+04
        46  22 -7.832395E+06 -1.951057E+06 -1.195972E+06 -2.623384E+06  7.581593E+05  2.750350E+05
        46  23 -7.563184E+06 -9.502612E+05 -4.972947E+05 -2.908222E+06  4.934450E+05  1.542069E+05
        46  24 -7.704731E+06 -1.075882E+06 -3.013184E+05 -2.951238E+06  2.207513E+05  5.461913E+04
        46  25 -7.148340E+06 -1.435949E+06 -9.574167E+05 -2.176502E+06  7.452163E+05  2.705479E+05
        46  26 -6.810848E+06 -5.932840E+05 -2.829921E+05 -2.628961E+06  4.901441E+05  1.530400E+05
        46  27 -6.881524E+06 -8.741078E+05 -1.030756E+05 -2.839777E+06  2.270689E+05  5.694398E+04
        47   1 -8.272208E+06 -1.461067E+06 -4.131397E+05 -3.075911E+06 -1.758223E+05 -4.332835E+04
        47   2 -8.188084E+06 -1.277392E+06 -2.603429E+05 -3.037964E+06 -1.133530E+05 -2.223678E+04
        47   3 -8.104668E+06 -1.268061E+06 -1.870042E+05 -3.030607E+06 -5.008706E+04 -3.242121E+03
        47   4 -7.662549E+06 -1.205021E+06 -2.452196E+05 -2.884009E+06 -1.764031E+05 -4.355671E+04
        47   5 -7.655231E+06 -1.069686E+06 -1.169782E+05 -2.886684E+06 -1.148557E+05 -2.280241E+04
        47   6 -7.648392E+06 -1.108439E+06 -6.739138E+04 -2.919958E+06 -5.252056E+04 -4.152158E+03
        47   7 -7.052521E+06 -9.489270E+05 -7.733335E+04 -2.691924E+06 -1.769843E+05 -4.378534E+04
        47   8 -7.122098E+06 -8.619572E+05  2.636138E+04 -2.735282E+06 -1.163598E+05 -2.336860E+04
        47   9 -7.191912E+06 -9.488121E+05  5.220390E+04 -2.809237E+06 -5.495604E+04 -5.062810E+03
        47  10 -8.272242E+06 -1.461077E+06 -4.132022E+05 -3.075917E+06 -2.119638E-09  1.154357E-09
        47  11 -8.188098E+06 -1.277396E+06 -2.603683E+05 -3.037966E+06  5.795655E-10  1.224298E-09
        47  12 -8.104671E+06 -1.268062E+06 -1.870090E+05 -3.030607E+06  3.306381E-09  3.036498E-09
        47  13 -7.662583E+06 -1.205032E+06 -2.452825E+05 -2.884015E+06  5.705440E-09 -7.924550E-10
        47  14 -7.655246E+06 -1.069690E+06 -1.170043E+05 -2.886686E+06  3.045334E-09 -1.458295E-09
        47  15 -7.648395E+06 -1.108440E+06 -6.739666E+04 -2.919958E+06  3.938510E-09  8.613942E-10
        47  16 -7.052556E+06 -9.489376E+05 -7.739662E+04 -2.691931E+06  2.669776E-09  3.402178E-09
        47  17 -7.122113E+06 -8.619615E+05  2.633457E+04 -2.735284E+06  1.324964E-09  1.729118E-09
        47  18 -7.191915E+06 -9.488130E+05  5.219811E+04 -2.809237E+06 -4.398058E-09 -4.980125E-10
        47  19 -8.272208E+06 -1.461067E+06 -4.131397E+05 -3.075911E+06  1.758223E+05  4.332835E+04
        47  20 -8.188084E+06 -1.277392E+06 -2.603429E+05 -3.037964E+06  1.133530E+05  2.223678E+04
        47  21 -8.104668E+06 -1.268061E+06 -1.870042E+05 -3.030607E+06  5.008706E+04  3.242121E+03
        47  22 -7.662549E+06 -1.205021E+06 -2.452196E+05 -2.884009E+06  1.764031E+05  4.355671E+04
        47  23 -7.655231E+06 -1.069686E+06 -1.169782E+05 -2.886684E+06  1.148557E+05  2.280241E+04
        47  24 -7.648392E+06 -1.108439E+06 -6.739138E+04 -2.919958E+06  5.252056E+04  4.152158E+03
        47  25 -7.052521E+06 -9.489270E+05 -7.733335E+04 -2.691924E+06  1.769843E+05  4.378534E+04
        47  26 -7.122098E+06 -8.619572E+05  2.636138E+04 -2.735282E+06  1.163598E+05  2.336860E+04
        47  27 -7.191912E+06 -9.488121E+05  5.220390E+04 -2.809237E+06  5.495604E+04  5.062810E+03
        48   1 -7.939386E+06 -1.238571E+06 -1.322111E+05 -2.997273E+06 -3.983525E+04 -2.618783E+03
        48   2 -7.861184E+06 -1.154367E+06 -7.872089E+04 -2.934910E+06 -2.427517E+04 -1.832031E+03
        48   3 -7.728212E+06 -1.145330E+06 -3.933306E+04 -2.940441E+06 -8.607172E+03 -1.331994E+03
        48   4 -7.641432E+06 -1.123997E+06 -5.266103E+04 -2.914204E+06 -4.184012E+04 -3.369040E+03
        48   5 -7.668036E+06 -1.081158E+06 -2.716007E+04 -2.882203E+06 -2.640746E+04 -2.629253E+03
        48   6 -7.639853E+06 -1.113455E+06 -1.565175E+04 -2.918100E+06 -1.086945E+04 -2.177159E+03
        48   7 -7.343390E+06 -1.009417E+06  2.688096E+04 -2.831099E+06 -4.384605E+04 -4.119711E+03
        48   8 -7.474852E+06 -1.007946E+06  2.439749E+04 -2.829482E+06 -2.854048E+04 -3.426752E+03
        48   9 -7.551486E+06 -1.081580E+06  8.028955E+03 -2.895756E+06 -1.313210E+04 -3.022446E+03
        48  10 -7.939388E+06 -1.238572E+06 -1.322141E+05 -2.997273E+06  2.665397E-09 -9.346075E-11
        48  11 -7.861184E+06 -1.154367E+06 -7.872202E+04 -2.934910E+06  6.381109E-10 -2.850490E-09
        48  12 -7.728212E+06 -1.145330E+06 -3.933320E+04 -2.940441E+06 -3.717438E-09 -5.575614E-10
        48  13 -7.641433E+06 -1.123998E+06 -5.266438E+04 -2.914204E+06 -3.345069E-09 -4.877433E-10
        48  14 -7.668037E+06 -1.081158E+06 -2.716141E+04 -2.882204E+06  1.046424E-09 -5.842786E-10
        48  15 -7.639853E+06 -1.113455E+06 -1.565199E+04 -2.918100E+06 -2.090062E-09  1.918758E-09
        48  16 -7.343393E+06 -1.009418E+06  2.687727E+04 -2.831099E+06 -2.955328E-09 -7.651515E-10
        48  17 -7.474853E+06 -1.007946E+06  2.439591E+04 -2.829482E+06 -1.500444E-09  1.440557E-09
        48  18 -7.551487E+06 -1.081580E+06  8.028609E+03 -2.895756E+06 -1.610521E-09  2.681763E-09
        48  19 -7.939386E+06 -1.238571E+06 -1.322111E+05 -2.997273E+06  3.983525E+04  2.618783E+03
        48  20 -7.861184E+06 -1.154367E+06 -7.872089E+04 -2.934910E+06  2.427517E+04  1.832031E+03
        48  21 -7.728212E+06 -1.145330E+06 -3.933306E+04 -2.940441E+06  8.607172E+03  1.331994E+03
        48  22 -7.641432E+06 -1.123997E+06 -5.266103E+04 -2.914204E+06  4.184012E+04  3.369040E+03
        48  23 -7.668036E+06 -1.081158E+06 -2.716007E+04 -2.882203E+06  2.640746E+04  2.629253E+03
        48  24 -7.639853E+06 -1.113455E+06 -1.565175E+04 -2.918100E+06  1.086945E+04  2.177159E+03
        48  25 -7.343390E+06 -1.009417E+06  2.688096E+04 -2.831099E+06  4.384605E+04  4.119711E+03
        48  26 -7.474852E+06 -1.007946E+06  2.439749E+04 -2.829482E+06  2.854048E+04  3.426752E+03
        48  27 -7.551486E+06 -1.081580E+06  8.028955E+03 -2.895756E+06  1.313210E+04  3.022446E+03
        49   1 -7.566835E+06 -1.087740E+06  7.376276E+03 -2.897865E+06 -5.320601E+03 -3.310573E+03
        49   2 -7.490748E+06 -1.015365E+06  4.010764E+04 -2.833642E+06  1.329046E+02 -6.628824E+03
        49   3 -7.353979E+06 -1.006418E+06  6.962275E+04 -2.840171E+06  5.539567E+03 -9.813671E+03
        49   4 -7.639117E+06 -1.114886E+06 -1.227461E+04 -2.917232E+06 -7.545107E+03 -4.141637E+03
        49   5 -7.669380E+06 -1.082705E+06 -7.499159E+03 -2.882023E+06 -2.030202E+03 -7.437492E+03
        49   6 -7.638981E+06 -1.113966E+06 -5.987831E+03 -2.917572E+06  3.437132E+03 -1.060014E+04
        49   7 -7.711394E+06 -1.142032E+06 -3.192594E+04 -2.936596E+06 -9.769324E+03 -4.972596E+03
        49   8 -7.847980E+06 -1.150043E+06 -5.510867E+04 -2.930391E+06 -4.192613E+03 -8.245900E+03
        49   9 -7.923903E+06 -1.221509E+06 -8.160526E+04 -2.994941E+06  1.335775E+03 -1.138621E+04
        49  10 -7.566835E+06 -1.087740E+06  7.376201E+03 -2.897865E+06 -4.555577E-10  2.509086E-09
        49  11 -7.490748E+06 -1.015365E+06  4.010756E+04 -2.833642E+06 -2.779078E-10 -2.018034E-09
        49  12 -7.353979E+06 -1.006418E+06  6.962252E+04 -2.840171E+06 -1.709366E-09 -2.589562E-09
        49  13 -7.639117E+06 -1.114886E+06 -1.227475E+04 -2.917232E+06 -1.185281E-09  1.239065E-09
        49  14 -7.669380E+06 -1.082705E+06 -7.499271E+03 -2.882023E+06 -3.241964E-09 -1.791785E-09
        49  15 -7.638981E+06 -1.113966E+06 -5.988063E+03 -2.917572E+06 -1.211242E-09 -7.501522E-10
        49  16 -7.711395E+06 -1.142032E+06 -3.192617E+04 -2.936597E+06 -1.702751E-09  1.039675E-09
        49  17 -7.847980E+06 -1.150043E+06 -5.510883E+04 -2.930391E+06  3.434209E-09  3.004694E-09
        49  18 -7.923903E+06 -1.221509E+06 -8.160550E+04 -2.994941E+06  2.100665E-09  7.683294E-10
        49  19 -7.566835E+06 -1.087740E+06  7.376276E+03 -2.897865E+06  5.320601E+03  3.310573E+03
        49  20 -7.490748E+06 -1.015365E+06  4.010764E+04 -2.833642E+06 -1.329046E+02  6.628824E+03
        49  21 -7.353979E+06 -1.006418E+06  6.962275E+04 -2.840171E+06 -5.539567E+03  9.813671E+03
        49  22 -7.639117E+06 -1.114886E+06 -1.227461E+04 -2.917232E+06  7.545107E+03  4.141637E+03
        49  23 -7.669380E+06 -1.082705E+06 -7.499159E+03 -2.882023E+06  2.030202E+03  7.437492E+03
        49  24 -7.638981E+06 -1.113966E+06 -5.987831E+03 -2.917572E+06 -3.437132E+03  1.060014E+04
        49  25 -7.711394E+06 -1.142032E+06 -3.192594E+04 -2.936596E+06  9.769324E+03  4.972596E+03
        49  26 -7.847980E+06 -1.150043E+06 -5.510867E+04 -2.930391E+06  4.192613E+03  8.245900E+03
        49  27 -7.923903E+06 -1.221509E+06 -8.160526E+04 -2.994941E+06 -1.335775E+03  1.138621E+04
        50   1 -7.206932E+06 -9.485355E+05  1.100294E+05 -2.798015E+06  7.452085E+03 -1.206950E+04
        50   2 -7.141888E+06 -8.870022E+05  1.323812E+05 -2.742317E+06  1.263532E+04 -1.491483E+04
        50   3 -7.024340E+06 -8.802394E+05  1.516805E+05 -2.747264E+06  1.766306E+04 -1.732737E+04
        50   4 -7.640829E+06 -1.112008E+06 -5.974496E+03 -2.915356E+06  5.390373E+03 -1.284147E+04
        50   5 -7.667158E+06 -1.085200E+06 -7.616183E+03 -2.884812E+06  1.077209E+04 -1.561392E+04
        50   6 -7.641031E+06 -1.113209E+06 -1.247094E+04 -2.914921E+06  1.599764E+04 -1.795357E+04
        50   7 -8.074544E+06 -1.275470E+06 -1.219953E+05 -3.032622E+06  3.330257E+03 -1.361285E+04
        50   8 -8.192159E+06 -1.283382E+06 -1.476380E+05 -3.027196E+06  8.910605E+03 -1.631235E+04
        50   9 -8.257349E+06 -1.346155E+06 -1.766557E+05 -3.082425E+06  1.433404E+04 -1.857908E+04
        50  10 -7.206932E+06 -9.485357E+05  1.100290E+05 -2.798015E+06 -2.297190E-09 -1.237266E-09
        50  11 -7.141888E+06 -8.870025E+05  1.323805E+05 -2.742317E+06  1.264928E-09  1.061671E-09
        50  12 -7.024341E+06 -8.802398E+05  1.516793E+05 -2.747263E+06  3.200626E-09 -1.438916E-09
        50  13 -7.640829E+06 -1.112008E+06 -5.974859E+03 -2.915356E+06 -3.314489E-09 -2.595541E-10
        50  14 -7.667159E+06 -1.085200E+06 -7.616857E+03 -2.884812E+06 -2.674284E-09 -1.686031E-09
        50  15 -7.641031E+06 -1.113209E+06 -1.247202E+04 -2.914920E+06  1.221528E-09 -1.982185E-10
        50  16 -8.074544E+06 -1.275470E+06 -1.219957E+05 -3.032622E+06 -1.373117E-09 -4.496441E-10
        50  17 -8.192160E+06 -1.283382E+06 -1.476386E+05 -3.027196E+06 -1.894626E-09  3.526353E-11
        50  18 -8.257350E+06 -1.346155E+06 -1.766567E+05 -3.082425E+06 -2.997803E-09 -1.445228E-09
        50  19 -7.206932E+06 -9.485355E+05  1.100294E+05 -2.798015E+06 -7.452085E+03  1.206950E+04
        50  20 -7.141888E+06 -8.870022E+05  1.323812E+05 -2.742317E+06 -1.263532E+04  1.491483E+04
        50  21 -7.024340E+06 -8.802394E+05  1.516805E+05 -2.747264E+06 -1.766306E+04  1.732737E+04
        50  22 -7.640829E+06 -1.112008E+06 -5.974496E+03 -2.915356E+06 -5.390373E+03  1.284147E+04
        50  23 -7.667158E+06 -1.085200E+06 -7.616183E+03 -2.884812E+06 -1.077209E+04  1.561392E+04
        50  24 -7.641031E+06 -1.113209E+06 -1.247094E+04 -2.914921E+06 -1.599764E+04  1.795357E+04
        50  25 -8.074544E+06 -1.275470E+06 -1.219953E+05 -3.032622E+06 -3.330257E+03  1.361285E+04
        50  26 -8.192159E+06 -1.283382E+06 -1.476380E+05 -3.027196E+06 -8.910605E+03  1.631235E+04
        50  27 -8.257349E+06 -1.346155E+06 -1.766557E+05 -3.082425E+06 -1.433404E+04  1.857908E+04
        51   1 -6.910975E+06 -8.322270E+05  1.799164E+05 -2.713747E+06  2.070136E+04 -1.853392E+04
        51   2 -6.865294E+06 -7.866448E+05  1.847083E+05 -2.672926E+06  3.554658E+04 -1.646983E+04
        51   3 -6.788499E+06 -7.916161E+05  1.757711E+05 -2.671198E+06  5.010369E+04 -1.361909E+04
        51   4 -7.645246E+06 -1.108135E+06 -1.587505E+04 -2.911706E+06  1.907187E+04 -1.914768E+04
        51   5 -7.661587E+06 -1.088228E+06 -2.770818E+04 -2.890146E+06  3.426632E+04 -1.695402E+04
        51   6 -7.646896E+06 -1.118960E+06 -5.356374E+04 -2.907683E+06  4.917099E+04 -1.397388E+04
        51   7 -8.378987E+06 -1.384011E+06 -2.117133E+05 -3.109451E+06  1.744453E+04 -1.976065E+04
        51   8 -8.457258E+06 -1.389772E+06 -2.401804E+05 -3.107111E+06  3.298787E+04 -1.743753E+04
        51   9 -8.504573E+06 -1.446257E+06 -2.829642E+05 -3.143868E+06  4.823968E+04 -1.432815E+04
        51  10 -6.910976E+06 -8.322275E+05  1.799149E+05 -2.713747E+06  1.570404E-09 -3.036800E-10
        51  11 -6.865296E+06 -7.866454E+05  1.847054E+05 -2.672926E+06  6.136181E-10  2.214411E-09
        51  12 -6.788502E+06 -7.916169E+05  1.757660E+05 -2.671198E+06 -3.050353E-11  1.424875E-09
        51  13 -7.645246E+06 -1.108135E+06 -1.587642E+04 -2.911706E+06  1.247796E-09  3.026977E-10
        51  14 -7.661588E+06 -1.088228E+06 -2.771094E+04 -2.890146E+06  3.976244E-09  1.026945E-09
        51  15 -7.646898E+06 -1.118961E+06 -5.356869E+04 -2.907683E+06 -1.751649E-09  3.721043E-10
        51  16 -8.378988E+06 -1.384011E+06 -2.117146E+05 -3.109450E+06 -4.236725E-09  8.409257E-11
        51  17 -8.457260E+06 -1.389772E+06 -2.401830E+05 -3.107110E+06 -1.693520E-09  1.222969E-09
        51  18 -8.504575E+06 -1.446258E+06 -2.829690E+05 -3.143867E+06 -4.706084E-10 -7.230006E-11
        51  19 -6.910975E+06 -8.322270E+05  1.799164E+05 -2.713747E+06 -2.070136E+04  1.853392E+04
        51  20 -6.865294E+06 -7.866448E+05  1.847083E+05 -2.672926E+06 -3.554658E+04  1.646983E+04
        51  21 -6.788499E+06 -7.916161E+05  1.757711E+05 -2.671198E+06 -5.010369E+04  1.361909E+04
        51  22 -7.645246E+06 -1.108135E+06 -1.587505E+04 -2.911706E+06 -1.907187E+04  1.914768E+04
        51  23 -7.661587E+06 -1.088228E+06 -2.770818E+04 -2.890146E+06 -3.426632E+04  1.695402E+04
        51  24 -7.646896E+06 -1.118960E+06 -5.356374E+04 -2.907683E+06 -4.917099E+04  1.397388E+04
        51  25 -8.378987E+06 -1.384011E+06 -2.117133E+05 -3.109451E+06 -1.744453E+04  1.976065E+04
        51  26 -8.457258E+06 -1.389772E+06 -2.401804E+05 -3.107111E+06 -3.298787E+04  1.743753E+04
        51  27 -8.504573E+06 -1.446257E+06 -2.829642E+05 -3.143868E+06 -4.823968E+04  1.432815E+04
        52   1 -6.719653E+06 -7.582029E+05  1.791337E+05 -2.667850E+06  6.080742E+04 -1.120581E+04
        52   2 -6.696071E+06 -7.132482E+05  1.354273E+05 -2.632189E+06  1.220932E+05  1.025811E+04
        52   3 -6.710020E+06 -8.066296E+05  1.287499E+04 -2.583383E+06  1.824171E+05  3.427101E+04
        52   4 -7.656707E+06 -1.100397E+06 -6.855304E+04 -2.910452E+06  5.948344E+04 -1.170749E+04
        52   5 -7.645094E+06 -1.080035E+06 -1.191130E+05 -2.898632E+06  1.218664E+05  1.016678E+04
        52   6 -7.671312E+06 -1.198356E+06 -2.494915E+05 -2.873652E+06  1.832853E+05  3.458640E+04
        52   7 -8.592904E+06 -1.442552E+06 -3.163155E+05 -3.152725E+06  5.816162E+04 -1.220842E+04
        52   8 -8.593233E+06 -1.446757E+06 -3.737331E+05 -3.164697E+06  1.216399E+05  1.007555E+04
        52   9 -8.631693E+06 -1.589984E+06 -5.119419E+05 -3.163493E+06  1.841518E+05  3.490105E+04
        52  10 -6.719657E+06 -7.582040E+05  1.791265E+05 -2.667850E+06 -2.356992E-09 -2.386917E-10
        52  11 -6.696087E+06 -7.132524E+05  1.353988E+05 -2.632190E+06 -2.886606E-09  1.079441E-09
        52  12 -6.710057E+06 -8.066400E+05  1.280947E+04 -2.583388E+06  4.411235E-10  1.496641E-09
        52  13 -7.656711E+06 -1.100398E+06 -6.856001E+04 -2.910451E+06  2.264306E-10  2.344654E-10
        52  14 -7.645110E+06 -1.080040E+06 -1.191415E+05 -2.898633E+06  2.201492E-09  6.984312E-10
        52  15 -7.671349E+06 -1.198366E+06 -2.495578E+05 -2.873657E+06 -9.501623E-10 -1.554734E-10
        52  16 -8.592907E+06 -1.442553E+06 -3.163222E+05 -3.152724E+06 -7.735305E-11  8.365558E-10
        52  17 -8.593249E+06 -1.446761E+06 -3.737615E+05 -3.164698E+06  2.666203E-09  1.362213E-09
        52  18 -8.631730E+06 -1.589995E+06 -5.120089E+05 -3.163498E+06 -3.949759E-09  5.865848E-10
        52  19 -6.719653E+06 -7.582029E+05  1.791337E+05 -2.667850E+06 -6.080742E+04  1.120581E+04
        52  20 -6.696071E+06 -7.132482E+05  1.354273E+05 -2.632189E+06 -1.220932E+05 -1.025811E+04
        52  21 -6.710020E+06 -8.066296E+05  1.287499E+04 -2.583383E+06 -1.824171E+05 -3.427101E+04
        52  22 -7.656707E+06 -1.100397E+06 -6.855304E+04 -2.910452E+06 -5.948344E+04  1.170749E+04
        52  23 -7.645094E+06 -1.080035E+06 -1.191130E+05 -2.898632E+06 -1.218664E+05 -1.016678E+04
        52  24 -7.671312E+06 -1.198356E+06 -2.494915E+05 -2.873652E+06 -1.832853E+05 -3.458640E+04
        52  25 -8.592904E+06 -1.442552E+06 -3.163155E+05 -3.152725E+06 -5.816162E+04  1.220842E+04
        52  26 -8.593233E+06 -1.446757E+06 -3.737331E+05 -3.164697E+06 -1.216399E+05 -1.007555E+04
        52  27 -8.631693E+06 -1.589984E+06 -5.119419E+05 -3.163493E+06 -1.841518E+05 -3.490105E+04
        53   1 -6.643877E+06 -7.706843E+05 -4.253024E+04 -2.760985E+06  2.327402E+05  4.969115E+04
        53   2 -6.628395E+06 -5.355217E+05 -2.460611E+05 -2.594090E+06  4.985878E+05  1.516261E+05
        53   3 -7.075006E+06 -1.395966E+06 -9.523940E+05 -2.127445E+06  7.559096E+05  2.760144E+05
        53   4 -7.715450E+06 -1.065884E+06 -3.066125E+05 -2.940869E+06  2.276755E+05  4.781686E+04
        53   5 -7.549098E+06 -9.604753E+05 -5.060532E+05 -2.922801E+06  5.035609E+05  1.534373E+05
        53   6 -7.847606E+06 -1.953845E+06 -1.216914E+06 -2.604729E+06  7.709791E+05  2.813501E+05
        53   7 -8.785887E+06 -1.361114E+06 -5.707738E+05 -3.120527E+06  2.226202E+05  4.594391E+04
        53   8 -8.468949E+06 -1.385249E+06 -7.661251E+05 -3.251022E+06  5.085253E+05  1.552435E+05
        53   9 -8.619439E+06 -2.511044E+06 -1.481472E+06 -3.081310E+06  7.860274E+05  2.866612E+05
        53  10 -6.643937E+06 -7.707017E+05 -4.263798E+04 -2.760995E+06 -1.054759E-10  3.105833E-10
        53  11 -6.628670E+06 -5.356145E+05 -2.465778E+05 -2.594151E+06 -2.323447E-09  1.236357E-09
        53  12 -7.075646E+06 -1.396204E+06 -9.536263E+05 -2.127614E+06  1.290173E-09 -8.458999E-10
        53  13 -7.715507E+06 -1.065900E+06 -3.067156E+05 -2.940877E+06  1.892724E-09  1.402162E-09
        53  14 -7.549379E+06 -9.605702E+05 -5.065814E+05 -2.922864E+06 -2.971352E-09  4.468313E-09
        53  15 -7.848273E+06 -1.954094E+06 -1.218197E+06 -2.604905E+06  5.872175E-10 -5.859712E-10
        53  16 -8.785941E+06 -1.361130E+06 -5.708725E+05 -3.120536E+06 -1.622357E-09 -1.533572E-09
        53  17 -8.469237E+06 -1.385346E+06 -7.666648E+05 -3.251086E+06 -3.807793E-09  3.273463E-09
        53  18 -8.620133E+06 -2.511302E+06 -1.482808E+06 -3.081494E+06  8.449303E-10 -5.380281E-10
        53  19 -6.643877E+06 -7.706843E+05 -4.253024E+04 -2.760985E+06 -2.327402E+05 -4.969115E+04
        53  20 -6.628395E+06 -5.355217E+05 -2.460611E+05 -2.594090E+06 -4.985878E+05 -1.516261E+05
        53  21 -7.075006E+06 -1.395966E+06 -9.523940E+05 -2.127445E+06 -7.559096E+05 -2.760144E+05
        53  22 -7.715450E+06 -1.065884E+06 -3.066125E+05 -2.940869E+06 -2.276755E+05 -4.781686E+04
        53  23 -7.549098E+06 -9.604753E+05 -5.060532E+05 -2.922801E+06 -5.035609E+05 -1.534373E+05
        53  24 -7.847606E+06 -1.953845E+06 -1.216914E+06 -2.604729E+06 -7.709791E+05 -2.813501E+05
        53  25 -8.785887E+06 -1.361114E+06 -5.707738E+05 -3.120527E+06 -2.226202E+05 -4.594391E+04
        53  26 -8.468949E+06 -1.385249E+06 -7.661251E+05 -3.251022E+06 -5.085253E+05 -1.552435E+05
        53  27 -8.619439E+06 -2.511044E+06 -1.481472E+06 -3.081310E+06 -7.860274E+05 -2.866612E+05
        54   1 -1.340213E+06 -1.995485E+05 -1.587017E+05 -2.769672E+03  1.001539E+05  1.411326E+04
        54   2 -1.284239E+06 -3.389146E+05 -2.296471E+05 -3.264514E+03  7.310758E+04  4.160061E+04
        54   3 -1.179353E+06 -3.064799E+05 -2.395659E+05 -6.324567E+04  4.618301E+04  3.925489E+04
        54   4  2.463225E+04  1.405516E+05  1.781872E+05 -4.262008E+04  1.217345E+05  1.419910E+04
        54   5 -1.066275E+03 -2.068319E+04  7.780348E+04 -1.257637E+04  7.959826E+04  4.161712E+04
        54   6  2.466447E+04 -7.688745E+03  4.883310E+04 -4.200897E+04  3.758846E+04  3.922671E+04
        54   7  1.391179E+06  4.805195E+05  5.149409E+05 -8.256015E+04  1.433623E+05  1.428208E+04
        54   8  1.283618E+06  2.974291E+05  3.851378E+05 -2.190895E+04  8.610218E+04  4.163343E+04
        54   9  1.230012E+06  2.909988E+05  3.371301E+05 -2.073174E+04  2.897723E+04  3.919797E+04
        54  10 -1.340224E+06 -1.995514E+05 -1.587209E+05 -2.770812E+03  1.678431E-09  8.922931E-10
        54  11 -1.284246E+06 -3.389179E+05 -2.296604E+05 -3.266965E+03  2.466531E-09 -3.405202E-09
        54  12 -1.179355E+06 -3.064821E+05 -2.395728E+05 -6.324713E+04 -4.496922E-09 -1.733317E-09
        54  13  2.461629E+04  1.405474E+05  1.781590E+05 -4.262147E+04  1.518444E-10  4.653405E-10
        54  14 -1.073543E+03 -2.068675E+04  7.778832E+04 -1.257904E+04 -4.734027E-10 -4.123516E-09
        54  15  2.466254E+04 -7.690776E+03  4.882756E+04 -4.201016E+04 -6.897428E-10  2.735520E-09
        54  16  1.391157E+06  4.805138E+05  5.149020E+05 -8.256180E+04 -2.185842E-09 -1.074665E-09
        54  17  1.283609E+06  2.974253E+05  3.851206E+05 -2.191184E+04 -3.151606E-09 -2.403347E-09
        54  18  1.230011E+06  2.909969E+05  3.371256E+05 -2.073266E+04  3.686925E-09 -3.152699E-09
        54  19 -1.340213E+06 -1.995485E+05 -1.587017E+05 -2.769672E+03 -1.001539E+05 -1.411326E+04
        54  20 -1.284239E+06 -3.389146E+05 -2.296471E+05 -3.264514E+03 -7.310758E+04 -4.160061E+04
        54  21 -1.179353E+06 -3.064799E+05 -2.395659E+05 -6.324567E+04 -4.618301E+04 -3.925489E+04
        54  22  2.463225E+04  1.405516E+05  1.781872E+05 -4.262008E+04 -1.217345E+05 -1.419910E+04
        54  23 -1.066275E+03 -2.068319E+04  7.780348E+04 -1.257637E+04 -7.959826E+04 -4.161712E+04
        54  24  2.466447E+04 -7.688745E+03  4.883310E+04 -4.200897E+04 -3.758846E+04 -3.922671E+04
        54  25  1.391179E+06  4.805195E+05  5.149409E+05 -8.256015E+04 -1.433623E+05 -1.428208E+04
        54  26  1.283618E+06  2.974291E+05  3.851378E+05 -2.190895E+04 -8.610218E+04 -4.163343E+04
        54  27  1.230012E+06  2.909988E+05  3.371301E+05 -2.073174E+04 -2.897723E+04 -3.919797E+04
        55   1 -1.081553E+06 -2.577450E+05 -2.236531E+05 -4.011725E+04  2.989757E+04  3.308754E+04
        55   2 -1.005284E+06 -2.546514E+05 -2.236351E+05 -1.282081E+04  2.070152E+04  3.210402E+04
        55   3 -9.218205E+05 -2.333979E+05 -2.127779E+05 -4.514173E+04  1.150324E+04  2.890073E+04
        55   4  1.494461E+04  1.436925E+04  3.980735E+04 -4.224279E+04  3.000838E+04  3.308376E+04
        55   5  1.127095E+04 -2.465051E+03  2.013271E+04 -1.242010E+04  1.967878E+04  3.209860E+04
        55   6  1.497477E+04 -9.581169E+02  1.207157E+04 -4.220840E+04  9.348150E+03  2.889523E+04
        55   7  1.112544E+06  2.863960E+05  3.031823E+05 -4.437275E+04  3.011935E+04  3.307999E+04
        55   8  1.028774E+06  2.496462E+05  2.638273E+05 -1.201916E+04  1.865435E+04  3.209319E+04
        55   9  9.525744E+05  2.314178E+05  2.368588E+05 -3.927084E+04  7.189812E+03  2.888972E+04
        55  10 -1.081554E+06 -2.577464E+05 -2.236568E+05 -4.011804E+04  6.552125E-10 -2.534880E-09
        55  11 -1.005285E+06 -2.546526E+05 -2.236378E+05 -1.282135E+04  7.947572E-10  5.337869E-10
        55  12 -9.218208E+05 -2.333988E+05 -2.127797E+05 -4.514200E+04 -8.946897E-10 -1.884161E-09
        55  13  1.494335E+04  1.436783E+04  3.980361E+04 -4.224359E+04 -3.937034E-10  2.506009E-09
        55  14  1.127026E+04 -2.466261E+03  2.013005E+04 -1.242061E+04  1.901726E-09  1.546703E-09
        55  15  1.497445E+04 -9.590370E+02  1.206984E+04 -4.220862E+04  5.419840E-09 -1.189599E-09
        55  16  1.112543E+06  2.863946E+05  3.031786E+05 -4.437355E+04 -2.563091E-09 -7.297968E-10
        55  17  1.028773E+06  2.496450E+05  2.638247E+05 -1.201964E+04 -2.294935E-09 -3.256559E-09
        55  18  9.525741E+05  2.314169E+05  2.368571E+05 -3.927101E+04  4.849298E-09  6.766505E-11
        55  19 -1.081553E+06 -2.577450E+05 -2.236531E+05 -4.011725E+04 -2.989757E+04 -3.308754E+04
        55  20 -1.005284E+06 -2.546514E+05 -2.236351E+05 -1.282081E+04 -2.070152E+04 -3.210402E+04
        55  21 -9.218205E+05 -2.333979E+05 -2.127779E+05 -4.514173E+04 -1.150324E+04 -2.890073E+04
        55  22  1.494461E+04  1.436925E+04  3.980735E+04 -4.224279E+04 -3.000838E+04 -3.308376E+04
        55  23  1.127095E+04 -2.465051E+03  2.013271E+04 -1.242010E+04 -1.967878E+04 -3.209860E+04
        55  24  1.497477E+04 -9.581169E+02  1.207157E+04 -4.220840E+04 -9.348150E+03 -2.889523E+04
        55  25  1.112544E+06  2.863960E+05  3.031823E+05 -4.437275E+04 -3.011935E+04 -3.307999E+04
        55  26  1.028774E+06  2.496462E+05  2.638273E+05 -1.201916E+04 -1.865435E+04 -3.209319E+04
        55  27  9.525744E+05  2.314178E+05  2.368588E+05 -3.927084E+04 -7.189812E+03 -2.888972E+04
        56   1 -8.155780E+05 -2.043944E+05 -1.892627E+05 -4.251678E+04  8.949678E+03  2.668466E+04
        56   2 -7.365439E+05 -1.862899E+05 -1.746627E+05 -1.267784E+04  6.495922E+03  2.359599E+04
        56   3 -6.559951E+05 -1.662855E+05 -1.578376E+05 -4.246393E+04  4.036804E+03  2.034323E+04
        56   4  1.372655E+04  1.281822E+03  9.410115E+03 -4.222132E+04  7.443621E+03  2.668091E+04
        56   5  1.297692E+04 -3.755473E+02  5.057899E+03 -1.241046E+04  4.904085E+03  2.359332E+04
        56   6  1.374898E+04 -1.192585E+02  2.988292E+03 -4.222018E+04  2.359499E+03  2.034174E+04
        56   7  8.436617E+05  2.069081E+05  2.080343E+05 -4.192558E+04  5.935553E+03  2.667715E+04
        56   8  7.630127E+05  1.854980E+05  1.847387E+05 -1.214281E+04  3.310330E+03  2.359064E+04
        56   9  6.839041E+05  1.660144E+05  1.637824E+05 -4.197615E+04  6.803888E+02  2.034026E+04
        56  10 -8.155782E+05 -2.043952E+05 -1.892642E+05 -4.251698E+04 -3.110720E-09 -5.394039E-10
        56  11 -7.365441E+05 -1.862905E+05 -1.746638E+05 -1.267797E+04 -1.037260E-09 -1.179433E-10
        56  12 -6.559953E+05 -1.662860E+05 -1.578384E+05 -4.246400E+04  2.244256E-11 -7.204942E-10
        56  13  1.372630E+04  1.281043E+03  9.408673E+03 -4.222148E+04 -8.050057E-10 -6.075664E-10
        56  14  1.297675E+04 -3.761515E+02  5.056807E+03 -1.241055E+04 -7.196858E-11 -3.812458E-10
        56  15  1.374886E+04 -1.197043E+02  2.987504E+03 -4.222022E+04  1.415971E-09 -3.607367E-10
        56  16  8.436614E+05  2.069073E+05  2.080329E+05 -4.192571E+04  5.145886E-09 -2.684229E-10
        56  17  7.630126E+05  1.854974E+05  1.847376E+05 -1.214287E+04 -8.965125E-10 -5.480720E-10
        56  18  6.839040E+05  1.660139E+05  1.637816E+05 -4.197616E+04  1.154683E-09 -6.570734E-10
        56  19 -8.155780E+05 -2.043944E+05 -1.892627E+05 -4.251678E+04 -8.949678E+03 -2.668466E+04
        56  20 -7.365439E+05 -1.862899E+05 -1.746627E+05 -1.267784E+04 -6.495922E+03 -2.359599E+04
        56  21 -6.559951E+05 -1.662855E+05 -1.578376E+05 -4.246393E+04 -4.036804E+03 -2.034323E+04
        56  22  1.372655E+04  1.281822E+03  9.410115E+03 -4.222132E+04 -7.443621E+03 -2.668091E+04
        56  23  1.297692E+04 -3.755473E+02  5.057899E+03 -1.241046E+04 -4.904085E+03 -2.359332E+04
        56  24  1.374898E+04 -1.192585E+02  2.988292E+03 -4.222018E+04 -2.359499E+03 -2.034174E+04
        56  25  8.436617E+05  2.069081E+05  2.080343E+05 -4.192558E+04 -5.935553E+03 -2.667715E+04
        56  26  7.630127E+05  1.854980E+05  1.847387E+05 -1.214281E+04 -3.310330E+03 -2.359064E+04
        56  27  6.839041E+05  1.660144E+05  1.637824E+05 -4.197615E+04 -6.803888E+02 -2.034026E+04
        57   1 -5.487598E+05 -1.393349E+05 -1.323098E+05 -4.215228E+04  3.513871E+03  1.842433E+04
        57   2 -4.691581E+05 -1.197308E+05 -1.144656E+05 -1.228311E+04  2.914004E+03  1.518182E+04
        57   3 -3.892111E+05 -9.988076E+04 -9.612741E+04 -4.200481E+04  2.310716E+03  1.192808E+04
        57   4  1.352351E+04  7.245376E+01  2.260834E+03 -4.221323E+04  1.884610E+03  1.842354E+04
        57   5  1.336045E+04 -6.406722E+01  1.215383E+03 -1.241923E+04  1.278485E+03  1.518179E+04
        57   6  1.353794E+04  4.676364E+01  6.683436E+02 -4.221323E+04  6.690165E+02  1.192884E+04
        57   7  5.760967E+05  1.394569E+05  1.368091E+05 -4.227422E+04  2.538779E+02  1.842275E+04
        57   8  4.960924E+05  1.195857E+05  1.168799E+05 -1.255543E+04 -3.583003E+02  1.518177E+04
        57   9  4.164355E+05  9.996248E+04  9.745257E+04 -4.242175E+04 -9.737445E+02  1.192960E+04
        57  10 -5.487599E+05 -1.393353E+05 -1.323104E+05 -4.215233E+04  1.002603E-09 -1.996632E-10
        57  11 -4.691582E+05 -1.197310E+05 -1.144660E+05 -1.228315E+04  2.107817E-09  1.161260E-09
        57  12 -3.892111E+05 -9.988091E+04 -9.612768E+04 -4.200483E+04  1.732366E-09  3.578110E-10
        57  13  1.352341E+04  7.208832E+01  2.260189E+03 -4.221326E+04  2.119121E-09 -1.741671E-10
        57  14  1.336038E+04 -6.431516E+01  1.214947E+03 -1.241925E+04 -3.174516E-09 -2.999565E-10
        57  15  1.353791E+04  4.661072E+01  6.680754E+02 -4.221324E+04 -2.055400E-09 -6.918505E-10
        57  16  5.760966E+05  1.394565E+05  1.368085E+05 -4.227423E+04  1.886516E-09 -8.764517E-10
        57  17  4.960923E+05  1.195855E+05  1.168795E+05 -1.255542E+04 -1.493441E-09 -2.505823E-10
        57  18  4.164355E+05  9.996232E+04  9.745230E+04 -4.242174E+04 -1.189883E-09 -6.296057E-10
        57  19 -5.487598E+05 -1.393349E+05 -1.323098E+05 -4.215228E+04 -3.513871E+03 -1.842433E+04
        57  20 -4.691581E+05 -1.197308E+05 -1.144656E+05 -1.228311E+04 -2.914004E+03 -1.518182E+04
        57  21 -3.892111E+05 -9.988076E+04 -9.612741E+04 -4.200481E+04 -2.310716E+03 -1.192808E+04
        57  22  1.352351E+04  7.245376E+01  2.260834E+03 -4.221323E+04 -1.884610E+03 -1.842354E+04
        57  23  1.336045E+04 -6.406722E+01  1.215383E+03 -1.241923E+04 -1.278485E+03 -1.518179E+04
        57  24  1.353794E+04  4.676364E+01  6.683436E+02 -4.221323E+04 -6.690165E+02 -1.192884E+04
        57  25  5.760967E+05  1.394569E+05  1.368091E+05 -4.227422E+04 -2.538779E+02 -1.842275E+04
        57  26  4.960924E+05  1.195857E+05  1.168799E+05 -1.255543E+04  3.583003E+02 -1.518177E+04
        57  27  4.164355E+05  9.996248E+04  9.745257E+04 -4.242175E+04  9.737445E+02 -1.192960E+04
        58   1 -2.818354E+05 -7.313062E+04 -7.009788E+04 -4.203423E+04  2.204968E+03  1.003147E+04
        58   2 -2.020366E+05 -5.342783E+04 -5.154627E+04 -1.227720E+04  2.140879E+03  6.778821E+03
        58   3 -1.222943E+05 -3.364175E+04 -3.295257E+04 -4.209118E+04  2.075294E+03  3.531691E+03
        58   4  1.346950E+04  4.939490E+01  4.481945E+02 -4.220917E+04  5.648785E+02  1.003263E+04
        58   5  1.350359E+04  1.857723E+01  1.199920E+02 -1.242430E+04  5.034477E+02  6.780306E+03
        58   6  1.347595E+04  7.132676E+01 -1.673307E+02 -4.220916E+04  4.405305E+02  3.533530E+03
        58   7  3.088544E+05  7.322310E+04  7.098814E+04 -4.238416E+04 -1.075988E+03  1.003378E+04
        58   8  2.290863E+05  5.346161E+04  5.178298E+04 -1.257144E+04 -1.134549E+03  6.781792E+03
        58   9  1.492631E+05  3.378306E+04  3.261660E+04 -4.232716E+04 -1.194590E+03  3.535369E+03
        58  10 -2.818354E+05 -7.313073E+04 -7.009808E+04 -4.203425E+04 -1.727255E-10 -1.773724E-10
        58  11 -2.020366E+05 -5.342788E+04 -5.154637E+04 -1.227721E+04 -1.072895E-09  4.290393E-10
        58  12 -1.222943E+05 -3.364177E+04 -3.295260E+04 -4.209119E+04 -7.366054E-10 -3.921045E-10
        58  13  1.346947E+04  4.928673E+01  4.480048E+02 -4.220917E+04  8.546957E-10  1.095479E-09
        58  14  1.350358E+04  1.852779E+01  1.199052E+02 -1.242430E+04 -4.184625E-09  1.833978E-09
        58  15  1.347594E+04  7.131330E+01 -1.673546E+02 -4.220916E+04 -5.525860E-09 -2.009528E-09
        58  16  3.088544E+05  7.322299E+04  7.098794E+04 -4.238415E+04  2.081878E-10  5.659476E-10
        58  17  2.290863E+05  5.346157E+04  5.178289E+04 -1.257143E+04  2.339945E-09  1.638103E-09
        58  18  1.492630E+05  3.378305E+04  3.261657E+04 -4.232716E+04  1.205446E-09 -4.941676E-10
        58  19 -2.818354E+05 -7.313062E+04 -7.009788E+04 -4.203423E+04 -2.204968E+03 -1.003147E+04
        58  20 -2.020366E+05 -5.342783E+04 -5.154627E+04 -1.227720E+04 -2.140879E+03 -6.778821E+03
        58  21 -1.222943E+05 -3.364175E+04 -3.295257E+04 -4.209118E+04 -2.075294E+03 -3.531691E+03
        58  22  1.346950E+04  4.939490E+01  4.481945E+02 -4.220917E+04 -5.648785E+02 -1.003263E+04
        58  23  1.350359E+04  1.857723E+01  1.199920E+02 -1.242430E+04 -5.034477E+02 -6.780306E+03
        58  24  1.347595E+04  7.132676E+01 -1.673307E+02 -4.220916E+04 -4.405305E+02 -3.533530E+03
        58  25  3.088544E+05  7.322310E+04  7.098814E+04 -4.238416E+04  1.075988E+03 -1.003378E+04
        58  26  2.290863E+05  5.346161E+04  5.178298E+04 -1.257144E+04  1.134549E+03 -6.781792E+03
        58  27  1.492631E+05  3.378306E+04  3.261660E+04 -4.232716E+04  1.194590E+03 -3.535369E+03
        59   1 -1.487643E+04 -6.868439E+03 -6.868256E+03 -4.223053E+04  2.140564E+03  1.626159E+03
        59   2  6.502499E+04  1.282624E+04  1.161473E+04 -1.246423E+04  2.455718E+03 -1.624231E+03
        59   3  1.446864E+05  3.233236E+04  2.981040E+04 -4.226393E+04  2.771359E+03 -4.790429E+03
        59   4  1.343804E+04  1.032089E+02 -3.240630E+02 -4.220830E+04  4.812918E+02  1.628120E+03
        59   5  1.356450E+04  6.807672E+01 -7.177822E+02 -1.242529E+04  8.387377E+02 -1.622413E+03
        59   6  1.343651E+04 -1.628580E+02 -1.428181E+03 -4.220860E+04  1.196631E+03 -4.788729E+03
        59   7  4.175327E+04  7.074802E+03  6.220087E+03 -4.218607E+04 -1.178055E+03  1.630080E+03
        59   8 -3.789355E+04 -1.269028E+04 -1.305047E+04 -1.238636E+04 -7.781089E+02 -1.620596E+03
        59   9 -1.177976E+05 -3.265932E+04 -3.266796E+04 -4.215328E+04 -3.777654E+02 -4.787029E+03
        59  10 -1.487644E+04 -6.868444E+03 -6.868269E+03 -4.223053E+04 -3.099309E-09  6.070301E-10
        59  11  6.502499E+04  1.282624E+04  1.161471E+04 -1.246422E+04 -6.931311E-10 -4.720336E-10
        59  12  1.446864E+05  3.233234E+04  2.981034E+04 -4.226392E+04  1.197012E-09  2.974583E-10
        59  13  1.343804E+04  1.032060E+02 -3.240684E+02 -4.220830E+04 -2.445494E-09 -1.535841E-09
        59  14  1.356450E+04  6.807370E+01 -7.177885E+02 -1.242529E+04 -3.080343E-09 -1.591890E-09
        59  15  1.343650E+04 -1.628830E+02 -1.428227E+03 -4.220860E+04 -1.272410E-10  4.937717E-10
        59  16  4.175326E+04  7.074799E+03  6.220079E+03 -4.218607E+04  3.088684E-09  3.055333E-10
        59  17 -3.789355E+04 -1.269028E+04 -1.305048E+04 -1.238636E+04  1.712170E-09 -1.357031E-09
        59  18 -1.177976E+05 -3.265934E+04 -3.266800E+04 -4.215328E+04  1.301448E-09 -5.640330E-10
        59  19 -1.487643E+04 -6.868439E+03 -6.868256E+03 -4.223053E+04 -2.140564E+03 -1.626159E+03
        59  20  6.502499E+04  1.282624E+04  1.161473E+04 -1.246423E+04 -2.455718E+03  1.624231E+03
        59  21  1.446864E+05  3.233236E+04  2.981040E+04 -4.226393E+04 -2.771359E+03  4.790429E+03
        59  22  1.343804E+04  1.032089E+02 -3.240630E+02 -4.220830E+04 -4.812918E+02 -1.628120E+03
        59  23  1.356450E+04  6.807672E+01 -7.177822E+02 -1.242529E+04 -8.387377E+02  1.622413E+03
        59  24  1.343651E+04 -1.628580E+02 -1.428181E+03 -4.220860E+04 -1.196631E+03  4.788729E+03
        59  25  4.175327E+04  7.074802E+03  6.220087E+03 -4.218607E+04  1.178055E+03 -1.630080E+03
        59  26 -3.789355E+04 -1.269028E+04 -1.305047E+04 -1.238636E+04  7.781089E+02  1.620596E+03
        59  27 -1.177976E+05 -3.265932E+04 -3.266796E+04 -4.215328E+04  3.777654E+02  4.787029E+03
        60   1  2.520199E+05  5.943333E+04  5.558951E+04 -4.272730E+04  3.387604E+03 -6.843759E+03
        60   2  3.322446E+05  7.929631E+04  7.315404E+04 -1.245965E+04  4.433608E+03 -1.005756E+04
        60   3  4.116594E+05  9.645948E+04  8.935970E+04 -4.173836E+04  5.482586E+03 -1.214085E+04
        60   4  1.327855E+04  2.052545E+02 -1.842173E+03 -4.220381E+04  1.482326E+03 -6.841914E+03
        60   5  1.373146E+04  3.444993E+02 -3.158899E+03 -1.243056E+04  3.097521E+03 -1.005678E+04
        60   6  1.326906E+04 -2.315312E+03 -6.230048E+03 -4.220564E+04  4.715556E+03 -1.214086E+04
        60   7 -2.254106E+05 -5.902697E+04 -5.927791E+04 -4.168050E+04 -4.222218E+02 -6.840073E+03
        60   8 -3.046888E+05 -7.861467E+04 -7.947901E+04 -1.240147E+04  1.762116E+03 -1.005600E+04
        60   9 -3.849760E+05 -1.011016E+05 -1.018310E+05 -4.267260E+04  3.949016E+03 -1.214086E+04
        60  10  2.520198E+05  5.943327E+04  5.558940E+04 -4.272729E+04  8.145415E-10 -1.147181E-09
        60  11  3.322446E+05  7.929620E+04  7.315381E+04 -1.245962E+04  9.862138E-10 -1.264569E-10
        60  12  4.116593E+05  9.645932E+04  8.935936E+04 -4.173831E+04  3.004217E-10 -1.991629E-10
        60  13  1.327854E+04  2.052037E+02 -1.842265E+03 -4.220380E+04 -2.642248E-10  1.100925E-10
        60  14  1.373142E+04  3.443881E+02 -3.159107E+03 -1.243054E+04  1.080914E-10 -5.392690E-11
        60  15  1.326900E+04 -2.315476E+03 -6.230366E+03 -4.220560E+04 -7.847527E-10  3.007219E-10
        60  16 -2.254106E+05 -5.902702E+04 -5.927799E+04 -4.168050E+04  1.347248E-09  2.340301E-10
        60  17 -3.046888E+05 -7.861478E+04 -7.947921E+04 -1.240146E+04 -2.277353E-09  9.410892E-10
        60  18 -3.849760E+05 -1.011018E+05 -1.018314E+05 -4.267256E+04  7.461802E-10  2.526430E-10
        60  19  2.520199E+05  5.943333E+04  5.558951E+04 -4.272730E+04 -3.387604E+03  6.843759E+03
        60  20  3.322446E+05  7.929631E+04  7.315404E+04 -1.245965E+04 -4.433608E+03  1.005756E+04
        60  21  4.116594E+05  9.645948E+04  8.935970E+04 -4.173836E+04 -5.482586E+03  1.214085E+04
        60  22  1.327855E+04  2.052545E+02 -1.842173E+03 -4.220381E+04 -1.482326E+03  6.841914E+03
        60  23  1.373146E+04  3.444993E+02 -3.158899E+03 -1.243056E+04 -3.097521E+03  1.005678E+04
        60  24  1.326906E+04 -2.315312E+03 -6.230048E+03 -4.220564E+04 -4.715556E+03  1.214086E+04
        60  25 -2.254106E+05 -5.902697E+04 -5.927791E+04 -4.168050E+04  4.222218E+02  6.840073E+03
        60  26 -3.046888E+05 -7.861467E+04 -7.947901E+04 -1.240147E+04 -1.762116E+03  1.005600E+04
        60  27 -3.849760E+05 -1.011016E+05 -1.018310E+05 -4.267260E+04 -3.949016E+03  1.214086E+04
        61   1  5.178576E+05  1.265677E+05  1.135394E+05 -4.525042E+04  1.108959E+04 -1.617495E+04
        61   2  6.008372E+05  1.481350E+05  1.278279E+05 -1.056873E+04  1.006684E+04 -1.889274E+04
        61   3  6.778725E+05  1.438777E+05  1.364023E+05 -3.507321E+04  9.043413E+03 -6.460626E+03
        61   4  1.182719E+04  1.157720E+03 -7.623593E+03 -4.212475E+04  5.894466E+03 -1.617309E+04
        61   5  1.545937E+04  3.085356E+03 -1.226424E+04 -1.252878E+04  1.250835E+04 -1.889429E+04
        61   6  1.180999E+04 -2.214979E+04 -2.792604E+04 -4.212292E+04  1.912149E+04 -6.459289E+03
        61   7 -4.939686E+05 -1.242707E+05 -1.288046E+05 -3.900159E+04  7.035571E+02 -1.617127E+04
        61   8 -5.696046E+05 -1.419891E+05 -1.523805E+05 -1.448697E+04  1.494756E+04 -1.889587E+04
        61   9 -6.538491E+05 -1.882101E+05 -1.922868E+05 -4.916508E+04  2.918877E+04 -6.458182E+03
        61  10  5.178574E+05  1.265673E+05  1.135387E+05 -4.525028E+04  9.691607E-10 -8.826065E-11
        61  11  6.008370E+05  1.481346E+05  1.278270E+05 -1.056858E+04  1.785320E-10  2.825035E-10
        61  12  6.778724E+05  1.438776E+05  1.364020E+05 -3.507316E+04  8.747374E-10  2.768718E-10
        61  13  1.182709E+04  1.157430E+03 -7.624150E+03 -4.212467E+04 -2.283699E-09  8.628593E-10
        61  14  1.545911E+04  3.084931E+03 -1.226520E+04 -1.252859E+04  5.397909E-09 -1.424856E-10
        61  15  1.180959E+04 -2.214993E+04 -2.792681E+04 -4.212282E+04  3.894680E-11 -1.145101E-10
        61  16 -4.939687E+05 -1.242710E+05 -1.288051E+05 -3.900158E+04 -1.070529E-09 -6.616849E-12
        61  17 -5.696049E+05 -1.419895E+05 -1.523816E+05 -1.448674E+04 -3.618382E-09 -4.147811E-10
        61  18 -6.538500E+05 -1.882103E+05 -1.922885E+05 -4.916493E+04 -8.225556E-10 -5.831680E-11
        61  19  5.178576E+05  1.265677E+05  1.135394E+05 -4.525042E+04 -1.108959E+04  1.617495E+04
        61  20  6.008372E+05  1.481350E+05  1.278279E+05 -1.056873E+04 -1.006684E+04  1.889274E+04
        61  21  6.778725E+05  1.438777E+05  1.364023E+05 -3.507321E+04 -9.043413E+03  6.460626E+03
        61  22  1.182719E+04  1.157720E+03 -7.623593E+03 -4.212475E+04 -5.894466E+03  1.617309E+04
        61  23  1.545937E+04  3.085356E+03 -1.226424E+04 -1.252878E+04 -1.250835E+04  1.889429E+04
        61  24  1.180999E+04 -2.214979E+04 -2.792604E+04 -4.212292E+04 -1.912149E+04  6.459289E+03
        61  25 -4.939686E+05 -1.242707E+05 -1.288046E+05 -3.900159E+04 -7.035571E+02  1.617127E+04
        61  26 -5.696046E+05 -1.419891E+05 -1.523805E+05 -1.448697E+04 -1.494756E+04  1.889587E+04
        61  27 -6.538491E+05 -1.882101E+05 -1.922868E+05 -4.916508E+04 -2.918877E+04  6.458182E+03
        62   1  1.028995E+06  3.344591E+06  9.909634E+05 -9.942922E+05  4.166994E+04  2.525515E+05
        62   2  7.162359E+05  2.353317E+06  6.297915E+05 -8.581055E+05  1.281218E+05  7.253536E+04
        62   3  4.722231E+05  1.401537E+06  4.023867E+05 -9.457695E+05  1.163388E+05 -1.076632E+05
        62   4  6.979121E+04 -5.324749E+05  6.854363E+04 -9.378381E+05  4.310106E+04  3.553264E+04
        62   5  2.095862E+04 -5.372152E+05  4.257440E+04 -8.260879E+05  1.285725E+05  1.434055E+04
        62   6  1.359879E+04 -5.306797E+05  4.053464E+04 -9.382125E+05  1.156130E+05 -7.323244E+03
        62   7 -8.904616E+05 -4.395683E+06 -8.547518E+05 -8.817056E+05  4.449820E+04 -1.801433E+05
        62   8 -6.748349E+05 -3.419805E+06 -5.450666E+05 -7.942037E+05  1.290186E+05 -4.358923E+04
        62   9 -4.452360E+05 -2.459268E+06 -3.214409E+05 -9.306706E+05  1.148882E+05  9.271273E+04
        62  10  1.028976E+06  3.344522E+06  9.908408E+05 -9.943007E+05 -8.188142E-10 -2.817975E-08
        62  11  7.162168E+05  2.353307E+06  6.297508E+05 -8.581130E+05  1.934970E-09 -5.489105E-09
        62  12  4.722055E+05  1.401521E+06  4.023396E+05 -9.457594E+05  4.027319E-10  2.815140E-08
        62  13  6.978887E+04 -5.324767E+05  6.853775E+04 -9.378393E+05  2.887181E-09  2.671255E-09
        62  14  2.094081E+04 -5.372199E+05  4.254294E+04 -8.260894E+05 -2.111079E-09  2.884631E-09
        62  15  1.358443E+04 -5.306833E+05  4.050944E+04 -9.382118E+05  5.542122E-10  1.623009E-09
        62  16 -8.904725E+05 -4.395719E+06 -8.548169E+05 -8.816992E+05 -5.763905E-10  2.614543E-08
        62  17 -6.748533E+05 -3.419811E+06 -5.451014E+05 -7.941992E+05  5.649881E-09  3.741109E-09
        62  18 -4.452525E+05 -2.459280E+06 -3.214820E+05 -9.306792E+05 -9.477737E-10 -2.790800E-08
        62  19  1.028995E+06  3.344591E+06  9.909634E+05 -9.942922E+05 -4.166994E+04 -2.525515E+05
        62  20  7.162359E+05  2.353317E+06  6.297915E+05 -8.581055E+05 -1.281218E+05 -7.253536E+04
        62  21  4.722231E+05  1.401537E+06  4.023867E+05 -9.457695E+05 -1.163388E+05  1.076632E+05
        62  22  6.979121E+04 -5.324749E+05  6.854363E+04 -9.378381E+05 -4.310106E+04 -3.553264E+04
        62  23  2.095862E+04 -5.372152E+05  4.257440E+04 -8.260879E+05 -1.285725E+05 -1.434055E+04
        62  24  1.359879E+04 -5.306797E+05  4.053464E+04 -9.382125E+05 -1.156130E+05  7.323244E+03
        62  25 -8.904616E+05 -4.395683E+06 -8.547518E+05 -8.817056E+05 -4.449820E+04  1.801433E+05
        62  26 -6.748349E+05 -3.419805E+06 -5.450666E+05 -7.942037E+05 -1.290186E+05  4.358923E+04
        62  27 -4.452360E+05 -2.459268E+06 -3.214409E+05 -9.306706E+05 -1.148882E+05 -9.271273E+04
        63   1  3.206500E+05  7.559766E+05  2.853996E+05 -9.509732E+05  7.815880E+04 -1.027223E+05
        63   2  8.895260E+04 -2.173057E+05  1.195103E+05 -8.246778E+05  2.308618E+04 -1.366060E+05
        63   3 -1.238988E+05 -1.183908E+06 -2.054370E+04 -9.282361E+05 -3.321762E+04 -1.704627E+05
        63   4  1.487450E+04 -5.315852E+05  4.452427E+04 -9.395065E+05  7.749177E+04 -1.468859E+04
        63   5  1.433080E+04 -5.341749E+05  6.330743E+04 -8.245187E+05  2.239554E+04 -4.664449E+04
        63   6  3.233566E+04 -5.313685E+05  1.065639E+05 -9.393760E+05 -3.393326E+04 -7.862318E+04
        63   7 -2.909924E+05 -1.817527E+06 -1.963934E+05 -9.280601E+05  7.682713E+04  7.316730E+04
        63   8 -6.029218E+04 -8.509286E+05  7.131233E+03 -8.243596E+05  2.170471E+04  4.327239E+04
        63   9  1.885495E+05  1.215988E+05  2.336832E+05 -9.505269E+05 -3.465174E+04  1.331093E+04
        63  10  3.206406E+05  7.559636E+05  2.853684E+05 -9.509668E+05 -5.994572E-10 -1.785158E-09
        63  11  8.894702E+04 -2.173259E+05  1.194743E+05 -8.246752E+05 -1.619127E-09 -7.430061E-09
        63  12 -1.239079E+05 -1.183940E+06 -2.060052E+04 -9.282406E+05 -1.436363E-09  8.136890E-11
        63  13  1.486800E+04 -5.315870E+05  4.451259E+04 -9.395056E+05 -9.766601E-10  2.829046E-09
        63  14  1.432968E+04 -5.341774E+05  6.330240E+04 -8.245179E+05 -1.021415E-08  3.285956E-09
        63  15  3.233276E+04 -5.313754E+05  1.065501E+05 -9.393781E+05 -1.607647E-09  1.912766E-09
        63  16 -2.910002E+05 -1.817535E+06 -1.964146E+05 -9.280646E+05 -1.381739E-09  2.193519E-11
        63  17 -6.029319E+04 -8.509308E+05  7.126818E+03 -8.243603E+05 -4.362583E-09  4.498190E-09
        63  18  1.885481E+05  1.215983E+05  2.336806E+05 -9.505265E+05  1.881699E-10  7.112758E-10
        63  19  3.206500E+05  7.559766E+05  2.853996E+05 -9.509732E+05 -7.815880E+04  1.027223E+05
        63  20  8.895260E+04 -2.173057E+05  1.195103E+05 -8.246778E+05 -2.308618E+04  1.366060E+05
        63  21 -1.238988E+05 -1.183908E+06 -2.054370E+04 -9.282361E+05  3.321762E+04  1.704627E+05
        63  22  1.487450E+04 -5.315852E+05  4.452427E+04 -9.395065E+05 -7.749177E+04  1.468859E+04
        63  23  1.433080E+04 -5.341749E+05  6.330743E+04 -8.245187E+05 -2.239554E+04  4.664449E+04
        63  24  3.233566E+04 -5.313685E+05  1.065639E+05 -9.393760E+05  3.393326E+04  7.862318E+04
        63  25 -2.909924E+05 -1.817527E+06 -1.963934E+05 -9.280601E+05 -7.682713E+04 -7.316730E+04
        63  26 -6.029218E+04 -8.509286E+05  7.131233E+03 -8.243596E+05 -2.170471E+04 -4.327239E+04
        63  27  1.885495E+05  1.215988E+05  2.336832E+05 -9.505269E+05  3.465174E+04 -1.331093E+04
        64   1 -2.862441E+05 -1.809379E+06 -1.100458E+05 -9.621873E+05 -7.170647E+04 -1.988944E+05
        64   2 -4.444123E+05 -2.807213E+06 -2.196256E+05 -6.901042E+05 -9.374067E+04 -1.914557E+05
        64   3 -3.435850E+05 -3.742491E+06 -2.698601E+05 -6.424038E+05 -3.239208E+04 -1.835737E+05
        64   4  2.218046E+04 -5.140449E+05  1.373819E+05 -9.385210E+05 -7.249109E+04 -9.713001E+04
        64   5  1.015695E+05 -5.569175E+05  2.448637E+05 -8.249753E+05 -9.344345E+04 -2.236823E+05
        64   6  4.626357E+05 -5.153221E+05  5.045749E+05 -9.355353E+05 -3.115546E+04 -3.497969E+05
        64   7  3.305145E+05  7.829340E+05  3.847731E+05 -9.148000E+05 -7.326692E+04  4.842325E+03
        64   8  6.472941E+05  1.698234E+06  7.090918E+05 -9.603346E+05 -9.313290E+04 -2.560231E+05
        64   9  1.268420E+06  2.721659E+06  1.278416E+06 -1.230183E+06 -2.976522E+04 -5.168810E+05
        64  10 -2.862603E+05 -1.809423E+06 -1.101301E+05 -9.621988E+05  1.186403E-09 -1.881786E-09
        64  11 -4.444317E+05 -2.807255E+06 -2.197114E+05 -6.901186E+05  3.952933E-09 -6.012915E-09
        64  12 -3.435953E+05 -3.742528E+06 -2.699258E+05 -6.424086E+05  1.129664E-09  2.512837E-10
        64  13  2.217227E+04 -5.140565E+05  1.373542E+05 -9.385267E+05  1.148305E-09  3.338091E-09
        64  14  1.015467E+05 -5.569736E+05  2.447530E+05 -8.249921E+05 -6.724429E-09  2.775228E-09
        64  15  4.626018E+05 -5.154538E+05  5.043429E+05 -9.355441E+05  3.570376E-10  1.696394E-09
        64  16  3.305087E+05  7.829325E+05  3.847629E+05 -9.147997E+05 -2.820967E-09  1.769336E-10
        64  17  6.472672E+05  1.698162E+06  7.089524E+05 -9.603538E+05  1.100398E-09  2.829211E-09
        64  18  1.268348E+06  2.721373E+06  1.277914E+06 -1.230195E+06  9.119281E-10  1.513777E-10
        64  19 -2.862441E+05 -1.809379E+06 -1.100458E+05 -9.621873E+05  7.170647E+04  1.988944E+05
        64  20 -4.444123E+05 -2.807213E+06 -2.196256E+05 -6.901042E+05  9.374067E+04  1.914557E+05
        64  21 -3.435850E+05 -3.742491E+06 -2.698601E+05 -6.424038E+05  3.239208E+04  1.835737E+05
        64  22  2.218046E+04 -5.140449E+05  1.373819E+05 -9.385210E+05  7.249109E+04  9.713001E+04
        64  23  1.015695E+05 -5.569175E+05  2.448637E+05 -8.249753E+05  9.344345E+04  2.236823E+05
        64  24  4.626357E+05 -5.153221E+05  5.045749E+05 -9.355353E+05  3.115546E+04  3.497969E+05
        64  25  3.305145E+05  7.829340E+05  3.847731E+05 -9.148000E+05  7.326692E+04 -4.842325E+03
        64  26  6.472941E+05  1.698234E+06  7.090918E+05 -9.603346E+05  9.313290E+04  2.560231E+05
        64  27  1.268420E+06  2.721659E+06  1.278416E+06 -1.230183E+06  2.976522E+04  5.168810E+05
        65   1 -3.618592E+06 -1.396503E+06 -7.934716E+05 -1.243207E+06 -2.100288E+05 -1.963083E+04
        65   2 -3.380180E+06 -1.337240E+06 -6.385711E+05 -1.159922E+06 -1.413804E+05  1.455383E+05
        65   3 -3.104395E+06 -1.293204E+06 -5.615338E+05 -1.134980E+06 -3.777877E+04  2.190493E+05
        65   4 -1.639412E+05 -1.369866E+05  9.482697E+04 -3.381834E+05  4.101458E+04  7.567770E+04
        65   5 -2.013329E+05 -1.799878E+05  4.329264E+04 -2.949011E+05 -2.759260E+04  1.885612E+05
        65   6 -1.741081E+05 -2.110037E+05  2.316144E+04 -3.099538E+05 -6.139470E+04  2.100155E+05
        65   7  3.302389E+06  1.123123E+06  9.823940E+05  5.713391E+05  2.935928E+05  1.715214E+05
        65   8  2.987829E+06  9.780227E+05  7.246247E+05  5.741801E+05  8.682680E+04  2.318145E+05
        65   9  2.765129E+06  8.720115E+05  6.074603E+05  5.187159E+05 -8.513172E+04  2.009356E+05
        65  10 -3.618640E+06 -1.396515E+06 -7.935557E+05 -1.243210E+06 -3.923866E-12  1.681042E-09
        65  11 -3.380208E+06 -1.337268E+06 -6.386485E+05 -1.159905E+06  4.197279E-09 -1.049305E-09
        65  12 -3.104409E+06 -1.293256E+06 -5.616267E+05 -1.134973E+06 -3.569930E-09 -2.459391E-09
        65  13 -1.639446E+05 -1.369932E+05  9.481303E+04 -3.381859E+05 -1.950718E-09 -1.135761E-11
        65  14 -2.013432E+05 -1.800262E+05  4.322439E+04 -2.948969E+05 -5.310722E-09  5.484431E-11
        65  15 -1.741240E+05 -2.110521E+05  2.307148E+04 -3.099435E+05 -1.183817E-08 -4.787876E-09
        65  16  3.302289E+06  1.123068E+06  9.821779E+05  5.712987E+05 -9.947565E-10 -2.245701E-09
        65  17  2.987807E+06  9.779630E+05  7.245097E+05  5.741639E+05 -8.642412E-09 -4.894499E-09
        65  18  2.765110E+06  8.719662E+05  6.073708E+05  5.187296E+05 -1.010175E-08 -5.456664E-09
        65  19 -3.618592E+06 -1.396503E+06 -7.934716E+05 -1.243207E+06  2.100288E+05  1.963083E+04
        65  20 -3.380180E+06 -1.337240E+06 -6.385711E+05 -1.159922E+06  1.413804E+05 -1.455383E+05
        65  21 -3.104395E+06 -1.293204E+06 -5.615338E+05 -1.134980E+06  3.777877E+04 -2.190493E+05
        65  22 -1.639412E+05 -1.369866E+05  9.482697E+04 -3.381834E+05 -4.101458E+04 -7.567770E+04
        65  23 -2.013329E+05 -1.799878E+05  4.329264E+04 -2.949011E+05  2.759260E+04 -1.885612E+05
        65  24 -1.741081E+05 -2.110037E+05  2.316144E+04 -3.099538E+05  6.139470E+04 -2.100155E+05
        65  25  3.302389E+06  1.123123E+06  9.823940E+05  5.713391E+05 -2.935928E+05 -1.715214E+05
        65  26  2.987829E+06  9.780227E+05  7.246247E+05  5.741801E+05 -8.682680E+04 -2.318145E+05
        65  27  2.765129E+06  8.720115E+05  6.074603E+05  5.187159E+05  8.513172E+04 -2.009356E+05
        66   1 -2.946752E+06 -1.224735E+06 -5.320763E+05 -1.085375E+06 -5.267392E+04  2.023244E+05
        66   2 -2.727868E+06 -1.114059E+06 -4.828553E+05 -9.923895E+05 -4.386933E+04  1.958612E+05
        66   3 -2.463783E+06 -1.047239E+06 -4.372902E+05 -9.502166E+05 -3.255287E+04  1.826499E+05
        66   4 -1.758835E+05 -2.097124E+05  1.757235E+04 -3.132173E+05 -6.038488E+04  1.993166E+05
        66   5 -1.993817E+05 -1.897773E+05  9.145741E+03 -2.873437E+05 -6.170248E+04  1.890535E+05
        66   6 -1.757415E+05 -2.116823E+05  5.097321E+03 -3.122900E+05 -6.051613E+04  1.720568E+05
        66   7  2.602953E+06  8.059957E+05  5.668605E+05  4.621433E+05 -6.813334E+04  1.962950E+05
        66   8  2.335751E+06  7.350807E+05  5.008611E+05  4.203718E+05 -7.961402E+04  1.822165E+05
        66   9  2.117737E+06  6.243445E+05  4.472544E+05  3.278205E+05 -8.859015E+04  1.614220E+05
        66  10 -2.946766E+06 -1.224780E+06 -5.321584E+05 -1.085366E+06 -1.956168E-08 -8.528871E-09
        66  11 -2.727881E+06 -1.114101E+06 -4.829310E+05 -9.923826E+05 -6.186841E-09  1.587284E-09
        66  12 -2.463793E+06 -1.047275E+06 -4.373549E+05 -9.502118E+05  1.381676E-08  8.002358E-09
        66  13 -1.758981E+05 -2.097560E+05  1.749085E+04 -3.132076E+05 -1.546465E-08 -5.481489E-09
        66  14 -1.993954E+05 -1.898167E+05  9.071432E+03 -2.873343E+05 -9.237675E-09 -6.201152E-09
        66  15 -1.757534E+05 -2.117151E+05  5.034818E+03 -3.122816E+05 -1.867046E-09 -7.528211E-09
        66  16  2.602937E+06  8.059531E+05  5.667794E+05  4.621541E+05  4.427745E-09  2.065234E-10
        66  17  2.335736E+06  7.350433E+05  5.007868E+05  4.203834E+05 -2.867517E-09 -3.143920E-09
        66  18  2.117721E+06  6.243144E+05  4.471907E+05  3.278321E+05 -1.276771E-08 -4.069378E-09
        66  19 -2.946752E+06 -1.224735E+06 -5.320763E+05 -1.085375E+06  5.267392E+04 -2.023244E+05
        66  20 -2.727868E+06 -1.114059E+06 -4.828553E+05 -9.923895E+05  4.386933E+04 -1.958612E+05
        66  21 -2.463783E+06 -1.047239E+06 -4.372902E+05 -9.502166E+05  3.255287E+04 -1.826499E+05
        66  22 -1.758835E+05 -2.097124E+05  1.757235E+04 -3.132173E+05  6.038488E+04 -1.993166E+05
        66  23 -1.993817E+05 -1.897773E+05  9.145741E+03 -2.873437E+05  6.170248E+04 -1.890535E+05
        66  24 -1.757415E+05 -2.116823E+05  5.097321E+03 -3.122900E+05  6.051613E+04 -1.720568E+05
        66  25  2.602953E+06  8.059957E+05  5.668605E+05  4.621433E+05  6.813334E+04 -1.962950E+05
        66  26  2.335751E+06  7.350807E+05  5.008611E+05  4.203718E+05  7.961402E+04 -1.822165E+05
        66  27  2.117737E+06  6.243445E+05  4.472544E+05  3.278205E+05  8.859015E+04 -1.614220E+05
        67   1 -2.302218E+06 -9.869927E+05 -4.058297E+05 -9.047864E+05 -3.028825E+04  1.710534E+05
        67   2 -2.083046E+06 -8.754513E+05 -3.608116E+05 -8.114092E+05 -2.366275E+04  1.528292E+05
        67   3 -1.818307E+06 -8.086684E+05 -3.154527E+05 -7.691158E+05 -1.687898E+04  1.340887E+05
        67   4 -1.758220E+05 -2.114991E+05  3.795447E+03 -3.125920E+05 -5.711157E+04  1.609071E+05
        67   5 -1.984278E+05 -1.888013E+05  1.997452E+03 -2.871207E+05 -5.126057E+04  1.424175E+05
        67   6 -1.753906E+05 -2.107091E+05  1.142619E+03 -3.127487E+05 -4.525157E+04  1.234126E+05
        67   7  1.955309E+06  5.644138E+05  4.132341E+05  2.814962E+05 -8.403403E+04  1.507237E+05
        67   8  1.689903E+06  4.981743E+05  3.646593E+05  2.386514E+05 -7.894860E+04  1.319720E+05
        67   9  1.470340E+06  3.874938E+05  3.176249E+05  1.447418E+05 -7.370484E+04  1.127063E+05
        67  10 -2.302227E+06 -9.870244E+05 -4.058864E+05 -9.047822E+05 -8.655555E-09 -2.433615E-09
        67  11 -2.083053E+06 -8.754766E+05 -3.608565E+05 -8.114063E+05 -1.131518E-08 -2.574557E-09
        67  12 -1.818312E+06 -8.086878E+05 -3.154870E+05 -7.691140E+05  1.356537E-09  2.200401E-09
        67  13 -1.758324E+05 -2.115277E+05  3.740672E+03 -3.125846E+05 -7.156687E-10 -7.870104E-09
        67  14 -1.984360E+05 -1.888238E+05  1.954407E+03 -2.871148E+05 -6.885193E-09 -7.858326E-09
        67  15 -1.753969E+05 -2.107260E+05  1.110155E+03 -3.127442E+05 -2.796288E-09 -3.691442E-09
        67  16  1.955295E+06  5.643875E+05  4.131782E+05  2.815063E+05  6.468863E-09  4.065240E-09
        67  17  1.689892E+06  4.981539E+05  3.646149E+05  2.386597E+05 -8.049753E-09 -3.396933E-09
        67  18  1.470330E+06  3.874787E+05  3.175909E+05  1.447485E+05 -1.001851E-08 -7.607427E-09
        67  19 -2.302218E+06 -9.869927E+05 -4.058297E+05 -9.047864E+05  3.028825E+04 -1.710534E+05
        67  20 -2.083046E+06 -8.754513E+05 -3.608116E+05 -8.114092E+05  2.366275E+04 -1.528292E+05
        67  21 -1.818307E+06 -8.086684E+05 -3.154527E+05 -7.691158E+05  1.687898E+04 -1.340887E+05
        67  22 -1.758220E+05 -2.114991E+05  3.795447E+03 -3.125920E+05  5.711157E+04 -1.609071E+05
        67  23 -1.984278E+05 -1.888013E+05  1.997452E+03 -2.871207E+05  5.126057E+04 -1.424175E+05
        67  24 -1.753906E+05 -2.107091E+05  1.142619E+03 -3.127487E+05  4.525157E+04 -1.234126E+05
        67  25  1.955309E+06  5.644138E+05  4.132341E+05  2.814962E+05  8.403403E+04 -1.507237E+05
        67  26  1.689903E+06  4.981743E+05  3.646593E+05  2.386514E+05  7.894860E+04 -1.319720E+05
        67  27  1.470340E+06  3.874938E+05  3.176249E+05  1.447418E+05  7.370484E+04 -1.127063E+05
        68   1 -1.656020E+06 -7.490327E+05 -2.831349E+05 -7.240129E+05 -1.297281E+04  1.229949E+05
        68   2 -1.435827E+06 -6.379080E+05 -2.374927E+05 -6.307385E+05 -6.001879E+03  1.040768E+05
        68   3 -1.170399E+06 -5.716083E+05 -1.916835E+05 -5.888239E+05  9.639743E+02  8.510811E+04
        68   4 -1.753616E+05 -2.105915E+05  8.260603E+02 -3.128248E+05 -4.128156E+04  1.123559E+05
        68   5 -1.978115E+05 -1.878964E+05  3.869925E+02 -2.871998E+05 -3.438700E+04  9.342667E+04
        68   6 -1.750791E+05 -2.100136E+05  1.685338E+02 -3.129536E+05 -2.749750E+04  7.444683E+04
        68   7  1.307571E+06  3.280431E+05  2.846936E+05  9.927187E+04 -6.966255E+04  1.016898E+05
        68   8  1.041802E+06  2.622534E+05  2.382045E+05  5.697577E+04 -6.283287E+04  8.275375E+04
        68   9  8.212815E+05  1.516733E+05  1.919836E+05 -3.666978E+04 -5.600816E+04  6.376714E+04
        68  10 -1.656024E+06 -7.490490E+05 -2.831636E+05 -7.240116E+05  2.331473E-10  2.052800E-09
        68  11 -1.435830E+06 -6.379197E+05 -2.375131E+05 -6.307380E+05 -2.815966E-09  3.252970E-09
        68  12 -1.170401E+06 -5.716161E+05 -1.916972E+05 -5.888240E+05  6.841627E-09  4.413277E-09
        68  13 -1.753668E+05 -2.106055E+05  7.991398E+02 -3.128211E+05  3.644338E-10 -9.382401E-10
        68  14 -1.978151E+05 -1.879061E+05  3.683711E+02 -2.871972E+05  3.939746E-09  1.073682E-09
        68  15 -1.750814E+05 -2.100197E+05  1.566999E+02 -3.129519E+05  1.216713E-08  3.062317E-09
        68  16  1.307563E+06  3.280307E+05  2.846650E+05  9.927757E+04  8.351327E-10 -3.670702E-09
        68  17  1.041796E+06  2.622450E+05  2.381842E+05  5.697995E+04  3.353092E-09 -5.413127E-10
        68  18  8.212770E+05  1.516681E+05  1.919701E+05 -3.666690E+04  9.033917E-09  2.594571E-09
        68  19 -1.656020E+06 -7.490327E+05 -2.831349E+05 -7.240129E+05  1.297281E+04 -1.229949E+05
        68  20 -1.435827E+06 -6.379080E+05 -2.374927E+05 -6.307385E+05  6.001879E+03 -1.040768E+05
        68  21 -1.170399E+06 -5.716083E+05 -1.916835E+05 -5.888239E+05 -9.639743E+02 -8.510811E+04
        68  22 -1.753616E+05 -2.105915E+05  8.260603E+02 -3.128248E+05  4.128156E+04 -1.123559E+05
        68  23 -1.978115E+05 -1.878964E+05  3.869925E+02 -2.871998E+05  3.438700E+04 -9.342667E+04
        68  24 -1.750791E+05 -2.100136E+05  1.685338E+02 -3.129536E+05  2.749750E+04 -7.444683E+04
        68  25  1.307571E+06  3.280431E+05  2.846936E+05  9.927187E+04  6.966255E+04 -1.016898E+05
        68  26  1.041802E+06  2.622534E+05  2.382045E+05  5.697577E+04  6.283287E+04 -8.275375E+04
        68  27  8.212815E+05  1.516733E+05  1.919836E+05 -3.666978E+04  5.600816E+04 -6.376714E+04
        69   1 -1.007641E+06 -5.121416E+05 -1.591438E+05 -5.438089E+05  5.081601E+03  7.407716E+04
        69   2 -7.867924E+05 -4.013051E+05 -1.133048E+05 -4.505787E+05  1.224691E+04  5.517096E+04
        69   3 -5.209340E+05 -3.353295E+05 -6.750135E+04 -4.088628E+05  1.939800E+04  3.627155E+04
        69   4 -1.750561E+05 -2.099444E+05  5.193660E+01 -3.129904E+05 -2.339089E+04  6.341943E+04
        69   5 -1.974582E+05 -1.873709E+05 -1.703001E+02 -2.872539E+05 -1.621802E+04  4.452435E+04
        69   6 -1.749181E+05 -2.096634E+05 -4.382901E+02 -3.130526E+05 -9.059451E+03  2.563617E+04
        69   7  6.582527E+05  9.231552E+04  1.592219E+05 -8.188392E+04 -5.190429E+04  5.274638E+04
        69   8  3.922364E+05  2.659384E+04  1.129521E+05 -1.237856E+05 -4.471178E+04  3.386694E+04
        69   9  1.712208E+05 -8.398730E+04  6.662210E+04 -2.171931E+05 -3.753365E+04  1.499452E+04
        69  10 -1.007643E+06 -5.121475E+05 -1.591542E+05 -5.438092E+05  3.660502E-08  1.449309E-08
        69  11 -7.867934E+05 -4.013084E+05 -1.133108E+05 -4.505792E+05  1.071517E-08  4.197802E-09
        69  12 -5.209347E+05 -3.353310E+05 -6.750453E+04 -4.088634E+05 -1.716103E-08 -8.740005E-09
        69  13 -1.750578E+05 -2.099489E+05  4.335177E+01 -3.129892E+05  1.590507E-08  5.238688E-09
        69  14 -1.974590E+05 -1.873731E+05 -1.745190E+02 -2.872534E+05  1.175152E-08  3.235275E-09
        69  15 -1.749183E+05 -2.096642E+05 -4.396791E+02 -3.130524E+05  2.959255E-09  7.438184E-10
        69  16  6.582491E+05  9.231181E+04  1.592116E+05 -8.188171E+04 -1.627136E-08 -4.998489E-09
        69  17  3.922340E+05  2.659207E+04  1.129462E+05 -1.237844E+05  4.271689E-09  6.736129E-09
        69  18  1.712192E+05 -8.398792E+04  6.661904E+04 -2.171927E+05  2.156892E-08  1.318750E-08
        69  19 -1.007641E+06 -5.121416E+05 -1.591438E+05 -5.438089E+05 -5.081601E+03 -7.407716E+04
        69  20 -7.867924E+05 -4.013051E+05 -1.133048E+05 -4.505787E+05 -1.224691E+04 -5.517096E+04
        69  21 -5.209340E+05 -3.353295E+05 -6.750135E+04 -4.088628E+05 -1.939800E+04 -3.627155E+04
        69  22 -1.750561E+05 -2.099444E+05  5.193660E+01 -3.129904E+05  2.339089E+04 -6.341943E+04
        69  23 -1.974582E+05 -1.873709E+05 -1.703001E+02 -2.872539E+05  1.621802E+04 -4.452435E+04
        69  24 -1.749181E+05 -2.096634E+05 -4.382901E+02 -3.130526E+05  9.059451E+03 -2.563617E+04
        69  25  6.582527E+05  9.231552E+04  1.592219E+05 -8.188392E+04  5.190429E+04 -5.274638E+04
        69  26  3.922364E+05  2.659384E+04  1.129521E+05 -1.237856E+05  4.471178E+04 -3.386694E+04
        69  27  1.712208E+05 -8.398730E+04  6.662210E+04 -2.171931E+05  3.753365E+04 -1.499452E+04
        70   1 -3.578975E+05 -2.759497E+05 -3.501807E+04 -3.638604E+05  2.365406E+04  2.529338E+04
        70   2 -1.367635E+05 -1.652799E+05  1.056680E+04 -2.705964E+05  3.095589E+04  6.568184E+03
        70   3  1.292844E+05 -9.947440E+04  5.595840E+04 -2.288833E+05  3.817015E+04 -1.192017E+04
        70   4 -1.749326E+05 -2.096397E+05 -6.336312E+02 -3.130700E+05 -4.850925E+03  1.464246E+04
        70   5 -1.973295E+05 -1.871979E+05 -1.230221E+03 -2.872722E+05  2.801052E+03 -3.952862E+03
        70   6 -1.749499E+05 -2.096989E+05 -2.301475E+03 -3.130520E+05  1.036530E+04 -2.231123E+04
        70   7  8.070784E+03 -1.433253E+05  3.375341E+04 -2.622648E+05 -3.336514E+04  3.988088E+03
        70   8 -2.578901E+05 -2.091150E+05 -1.302409E+04 -3.039461E+05 -2.535097E+04 -1.447287E+04
        70   9 -4.790864E+05 -3.199146E+05 -6.056200E+04 -3.971820E+05 -1.742498E+04 -3.269686E+04
        70  10 -3.578983E+05 -2.759506E+05 -3.502033E+04 -3.638609E+05  3.004294E-09 -1.783105E-09
        70  11 -1.367646E+05 -1.652802E+05  1.056492E+04 -2.705966E+05 -1.195043E-09 -2.250185E-09
        70  12  1.292828E+05 -9.947494E+04  5.595539E+04 -2.288829E+05 -4.557968E-09 -1.209720E-09
        70  13 -1.749327E+05 -2.096399E+05 -6.340782E+02 -3.130700E+05 -8.543043E-10 -6.778698E-10
        70  14 -1.973295E+05 -1.871979E+05 -1.230265E+03 -2.872722E+05  1.705459E-09  1.741727E-09
        70  15 -1.749502E+05 -2.096995E+05 -2.302612E+03 -3.130518E+05 -5.118986E-10  1.378681E-11
        70  16  8.069585E+03 -1.433257E+05  3.375129E+04 -2.622647E+05 -3.535474E-09  2.331476E-09
        70  17 -2.578908E+05 -2.091154E+05 -1.302569E+04 -3.039464E+05 -1.917701E-10 -1.195534E-09
        70  18 -4.790870E+05 -3.199159E+05 -6.056458E+04 -3.971825E+05  7.123533E-09  7.531182E-10
        70  19 -3.578975E+05 -2.759497E+05 -3.501807E+04 -3.638604E+05 -2.365406E+04 -2.529338E+04
        70  20 -1.367635E+05 -1.652799E+05  1.056680E+04 -2.705964E+05 -3.095589E+04 -6.568184E+03
        70  21  1.292844E+05 -9.947440E+04  5.595840E+04 -2.288833E+05 -3.817015E+04  1.192017E+04
        70  22 -1.749326E+05 -2.096397E+05 -6.336312E+02 -3.130700E+05  4.850925E+03 -1.464246E+04
        70  23 -1.973295E+05 -1.871979E+05 -1.230221E+03 -2.872722E+05 -2.801052E+03  3.952862E+03
        70  24 -1.749499E+05 -2.096989E+05 -2.301475E+03 -3.130520E+05 -1.036530E+04  2.231123E+04
        70  25  8.070784E+03 -1.433253E+05  3.375341E+04 -2.622648E+05  3.336514E+04 -3.988088E+03
        70  26 -2.578901E+05 -2.091150E+05 -1.302409E+04 -3.039461E+05  2.535097E+04  1.447287E+04
        70  27 -4.790864E+05 -3.199146E+05 -6.056200E+04 -3.971820E+05  1.742498E+04  3.269686E+04
        71   1  2.925412E+05 -4.014430E+04  8.793767E+04 -1.839870E+05  4.326864E+04 -2.253088E+04
        71   2  5.131751E+05  7.071386E+04  1.331725E+05 -9.022817E+04  4.770603E+04 -4.049627E+04
        71   3  7.787405E+05  1.363858E+05  1.797693E+05 -4.753851E+04  5.094292E+04 -5.522762E+04
        71   4 -1.751245E+05 -2.096411E+05 -3.076026E+03 -3.130801E+05  1.489900E+04 -3.313617E+04
        71   5 -1.972878E+05 -1.876368E+05 -5.673374E+03 -2.871549E+05  2.419898E+04 -4.929295E+04
        71   6 -1.755409E+05 -2.117908E+05 -1.075949E+04 -3.123268E+05  3.229850E+04 -6.221331E+04
        71   7 -6.425576E+05 -3.791167E+05 -9.409490E+04 -4.420817E+05 -1.344752E+04 -4.373284E+04
        71   8 -9.072267E+05 -4.459426E+05 -1.445397E+05 -4.838728E+05  7.207292E+02 -5.807885E+04
        71   9 -1.128891E+06 -5.598910E+05 -2.013328E+05 -5.767409E+05  1.368465E+04 -6.918752E+04
        71  10  2.925390E+05 -4.014535E+04  8.793320E+04 -1.839862E+05  2.012571E-09 -2.056194E-10
        71  11  5.131722E+05  7.071149E+04  1.331651E+05 -9.022662E+04  3.013187E-09 -1.578259E-09
        71  12  7.787369E+05  1.363818E+05  1.797587E+05 -4.753624E+04 -3.271807E-10 -8.510960E-10
        71  13 -1.751250E+05 -2.096423E+05 -3.078506E+03 -3.130797E+05  2.188224E-10  4.920624E-10
        71  14 -1.972890E+05 -1.876395E+05 -5.679039E+03 -2.871540E+05 -1.289544E-09  7.391863E-10
        71  15 -1.755431E+05 -2.117952E+05 -1.076872E+04 -3.123252E+05 -4.690880E-09 -1.348949E-09
        71  16 -6.425583E+05 -3.791188E+05 -9.409884E+04 -4.420821E+05  3.568861E-09  6.630699E-10
        71  17 -9.072276E+05 -4.459462E+05 -1.445460E+05 -4.838727E+05 -1.244120E-10  8.784622E-10
        71  18 -1.128893E+06 -5.598962E+05 -2.013422E+05 -5.767401E+05 -7.975254E-09 -2.129740E-09
        71  19  2.925412E+05 -4.014430E+04  8.793767E+04 -1.839870E+05 -4.326864E+04  2.253088E+04
        71  20  5.131751E+05  7.071386E+04  1.331725E+05 -9.022817E+04 -4.770603E+04  4.049627E+04
        71  21  7.787405E+05  1.363858E+05  1.797693E+05 -4.753851E+04 -5.094292E+04  5.522762E+04
        71  22 -1.751245E+05 -2.096411E+05 -3.076026E+03 -3.130801E+05 -1.489900E+04  3.313617E+04
        71  23 -1.972878E+05 -1.876368E+05 -5.673374E+03 -2.871549E+05 -2.419898E+04  4.929295E+04
        71  24 -1.755409E+05 -2.117908E+05 -1.075949E+04 -3.123268E+05 -3.229850E+04  6.221331E+04
        71  25 -6.425576E+05 -3.791167E+05 -9.409490E+04 -4.420817E+05  1.344752E+04  4.373284E+04
        71  26 -9.072267E+05 -4.459426E+05 -1.445397E+05 -4.838728E+05 -7.207292E+02  5.807885E+04
        71  27 -1.128891E+06 -5.598910E+05 -2.013328E+05 -5.767409E+05 -1.368465E+04  6.918752E+04
        72   1  9.448952E+05  1.950143E+05  2.102551E+05 -6.267131E+03  6.416139E+04 -6.215225E+04
        72   2  1.153544E+06  3.115929E+05  2.683684E+05  1.006885E+05  1.011506E+04 -7.719988E+04
        72   3  1.405025E+06  3.678036E+05  3.602350E+05  1.664220E+05 -6.048009E+04 -4.824658E+04
        72   4 -1.777088E+05 -2.102369E+05 -1.414291E+04 -3.130332E+05  3.781093E+04 -7.202847E+04
        72   5 -1.958292E+05 -1.961350E+05 -2.669551E+04 -2.839665E+05  5.014044E+04 -6.222077E+04
        72   6 -1.843201E+05 -2.555830E+05 -5.804447E+04 -2.961520E+05  4.592548E+04 -8.352459E+03
        72   7 -1.299020E+06 -6.153877E+05 -2.386003E+05 -6.192909E+05  1.151144E+04 -8.188602E+04
        72   8 -1.543333E+06 -7.036862E+05 -3.218564E+05 -6.678394E+05  9.007143E+04 -4.727904E+04
        72   9 -1.771134E+06 -8.787173E+05 -4.764771E+05 -7.576116E+05  1.520295E+05  3.141642E+04
        72  10  9.448897E+05  1.950090E+05  2.102401E+05 -6.263922E+03 -5.915600E-09 -3.146166E-09
        72  11  1.153542E+06  3.115865E+05  2.683570E+05  1.006891E+05 -5.764614E-09 -3.229805E-10
        72  12  1.405020E+06  3.678002E+05  3.602238E+05  1.664196E+05  9.722900E-10  2.146258E-10
        72  13 -1.777117E+05 -2.102428E+05 -1.415534E+04 -3.130310E+05 -7.910544E-09 -1.250259E-09
        72  14 -1.958329E+05 -1.961399E+05 -2.670750E+04 -2.839640E+05  1.262525E-09 -1.095180E-10
        72  15 -1.843224E+05 -2.555836E+05 -5.804857E+04 -2.961517E+05 -4.052366E-10  1.563045E-10
        72  16 -1.299022E+06 -6.153950E+05 -2.386132E+05 -6.192902E+05 -1.121883E-09 -3.027625E-10
        72  17 -1.543343E+06 -7.036907E+05 -3.218759E+05 -6.678359E+05 -1.428872E-09 -2.303268E-10
        72  18 -1.771159E+06 -8.787245E+05 -4.765225E+05 -7.576154E+05  1.019383E-09 -1.714630E-10
        72  19  9.448952E+05  1.950143E+05  2.102551E+05 -6.267131E+03 -6.416139E+04  6.215225E+04
        72  20  1.153544E+06  3.115929E+05  2.683684E+05  1.006885E+05 -1.011506E+04  7.719988E+04
        72  21  1.405025E+06  3.678036E+05  3.602350E+05  1.664220E+05  6.048009E+04  4.824658E+04
        72  22 -1.777088E+05 -2.102369E+05 -1.414291E+04 -3.130332E+05 -3.781093E+04  7.202847E+04
        72  23 -1.958292E+05 -1.961350E+05 -2.669551E+04 -2.839665E+05 -5.014044E+04  6.222077E+04
        72  24 -1.843201E+05 -2.555830E+05 -5.804447E+04 -2.961520E+05 -4.592548E+04  8.352459E+03
        72  25 -1.299020E+06 -6.153877E+05 -2.386003E+05 -6.192909E+05 -1.151144E+04  8.188602E+04
        72  26 -1.543333E+06 -7.036862E+05 -3.218564E+05 -6.678394E+05 -9.007143E+04  4.727904E+04
        72  27 -1.771134E+06 -8.787173E+05 -4.764771E+05 -7.576116E+05 -1.520295E+05 -3.141642E+04
        73   1 -1.913779E+05 -9.397934E+04 -8.304574E+04 -6.916044E+04 -1.725256E+04  6.641736E+03
        73   2 -1.199150E+05 -9.923961E+04 -6.379715E+04 -7.824922E+04 -1.973657E+03  2.208654E+04
        73   3 -4.706179E+04 -9.109177E+04 -5.114416E+04 -9.798890E+04  1.331214E+04  2.606941E+04
        73   4  3.724327E+05  4.486509E+04  4.750567E+04 -9.969342E+04  3.356700E+04  6.651861E+03
        73   5  3.693706E+05  1.615711E+04  2.399564E+04 -9.436621E+04  2.134158E+04  2.208816E+04
        73   6  3.724632E+05  5.624551E+03  1.298582E+04 -9.968828E+04  9.121092E+03  2.606740E+04
        73   7  9.365446E+05  1.836921E+05  1.780460E+05 -1.302543E+05  8.443236E+04  6.656986E+03
        73   8  8.588912E+05  1.315418E+05  1.117814E+05 -1.104962E+05  4.467468E+04  2.208857E+04
        73   9  7.921644E+05  1.023324E+05  7.711207E+04 -1.013888E+05  4.927325E+03  2.606541E+04
        73  10 -1.913783E+05 -9.397947E+04 -8.304638E+04 -6.916034E+04  1.204644E-09 -1.149760E-10
        73  11 -1.199152E+05 -9.924013E+04 -6.379808E+04 -7.824919E+04  6.133012E-10 -5.779434E-10
        73  12 -4.706216E+04 -9.109254E+04 -5.114577E+04 -9.798918E+04  9.755247E-10 -1.182294E-09
        73  13  3.724315E+05  4.486474E+04  4.750347E+04 -9.969360E+04  2.276415E-09  2.796556E-10
        73  14  3.693699E+05  1.615646E+04  2.399387E+04 -9.436659E+04 -9.115670E-10  1.485810E-10
        73  15  3.724630E+05  5.623799E+03  1.298439E+04 -9.968847E+04  2.557971E-09 -3.306211E-10
        73  16  9.365369E+05  1.836901E+05  1.780326E+05 -1.302548E+05 -2.402728E-10  5.141162E-10
        73  17  8.588889E+05  1.315407E+05  1.117767E+05 -1.104970E+05  2.041842E-10  9.857666E-10
        73  18  7.921642E+05  1.023317E+05  7.711075E+04 -1.013889E+05  3.081630E-10  1.015879E-09
        73  19 -1.913779E+05 -9.397934E+04 -8.304574E+04 -6.916044E+04  1.725256E+04 -6.641736E+03
        73  20 -1.199150E+05 -9.923961E+04 -6.379715E+04 -7.824922E+04  1.973657E+03 -2.208654E+04
        73  21 -4.706179E+04 -9.109177E+04 -5.114416E+04 -9.798890E+04 -1.331214E+04 -2.606941E+04
        73  22  3.724327E+05  4.486509E+04  4.750567E+04 -9.969342E+04 -3.356700E+04 -6.651861E+03
        73  23  3.693706E+05  1.615711E+04  2.399564E+04 -9.436621E+04 -2.134158E+04 -2.208816E+04
        73  24  3.724632E+05  5.624551E+03  1.298582E+04 -9.968828E+04 -9.121092E+03 -2.606740E+04
        73  25  9.365446E+05  1.836921E+05  1.780460E+05 -1.302543E+05 -8.443236E+04 -6.656986E+03
        73  26  8.588912E+05  1.315418E+05  1.117814E+05 -1.104962E+05 -4.467468E+04 -2.208857E+04
        73  27  7.921644E+05  1.023324E+05  7.711207E+04 -1.013888E+05 -4.927325E+03 -2.606541E+04
        74   1 -2.992884E+03 -8.180410E+04 -4.555149E+04 -9.747799E+04  1.253529E+04  2.452164E+04
        74   2  6.897493E+04 -6.738292E+04 -3.645627E+04 -9.296099E+04  1.363833E+04  2.161887E+04
        74   3  1.411130E+05 -5.177163E+04 -2.777852E+04 -9.994157E+04  1.474117E+04  1.716699E+04
        74   4  3.712818E+05  4.082671E+03  9.683268E+03 -9.987758E+04  7.430883E+03  2.451996E+04
        74   5  3.708847E+05  1.320182E+03  5.222654E+03 -9.412904E+04  4.814433E+03  2.161777E+04
        74   6  3.712976E+05  3.930798E+02  2.926114E+03 -9.987756E+04  2.197670E+03  1.716687E+04
        74   7  7.456975E+05  8.996294E+04  6.491560E+04 -1.022787E+05  2.323526E+03  2.451832E+04
        74   8  6.728872E+05  7.001933E+04  4.690083E+04 -9.529767E+04 -4.013562E+03  2.161670E+04
        74   9  6.015366E+05  5.255561E+04  3.363090E+04 -9.981352E+04 -1.035026E+04  1.716675E+04
        74  10 -2.993214E+03 -8.180479E+04 -4.555291E+04 -9.747824E+04 -6.800769E-10 -9.710071E-10
        74  11  6.897461E+04 -6.738348E+04 -3.645750E+04 -9.296122E+04  8.204201E-11 -2.163665E-10
        74  12  1.411127E+05 -5.177200E+04 -2.777948E+04 -9.994177E+04 -8.093243E-10  6.979462E-11
        74  13  3.712816E+05  4.082011E+03  9.682034E+03 -9.987772E+04  2.283596E-09  1.667004E-10
        74  14  3.708845E+05  1.319674E+03  5.221732E+03 -9.412912E+04  2.376025E-09  6.703608E-10
        74  15  3.712975E+05  3.927620E+02  2.925551E+03 -9.987759E+04 -1.480197E-09  5.738562E-10
        74  16  7.456973E+05  8.996230E+04  6.491446E+04 -1.022787E+05  1.817942E-09  1.008926E-09
        74  17  6.728870E+05  7.001882E+04  4.689992E+04 -9.529760E+04  1.013469E-09  1.407853E-09
        74  18  6.015364E+05  5.255526E+04  3.363015E+04 -9.981338E+04  1.501292E-09  1.144458E-09
        74  19 -2.992884E+03 -8.180410E+04 -4.555149E+04 -9.747799E+04 -1.253529E+04 -2.452164E+04
        74  20  6.897493E+04 -6.738292E+04 -3.645627E+04 -9.296099E+04 -1.363833E+04 -2.161887E+04
        74  21  1.411130E+05 -5.177163E+04 -2.777852E+04 -9.994157E+04 -1.474117E+04 -1.716699E+04
        74  22  3.712818E+05  4.082671E+03  9.683268E+03 -9.987758E+04 -7.430883E+03 -2.451996E+04
        74  23  3.708847E+05  1.320182E+03  5.222654E+03 -9.412904E+04 -4.814433E+03 -2.161777E+04
        74  24  3.712976E+05  3.930798E+02  2.926114E+03 -9.987756E+04 -2.197670E+03 -1.716687E+04
        74  25  7.456975E+05  8.996294E+04  6.491560E+04 -1.022787E+05 -2.323526E+03 -2.451832E+04
        74  26  6.728872E+05  7.001933E+04  4.690083E+04 -9.529767E+04  4.013562E+03 -2.161670E+04
        74  27  6.015366E+05  5.255561E+04  3.363090E+04 -9.981352E+04  1.035026E+04 -1.716675E+04
        75   1  1.854953E+05 -4.173198E+04 -2.223404E+04 -9.984678E+04  1.443397E+04  1.405393E+04
        75   2  2.575053E+05 -2.562646E+04 -1.359964E+04 -9.410293E+04  1.432324E+04  8.673031E+03
        75   3  3.295607E+05 -9.434103E+03 -4.870134E+03 -9.996876E+04  1.421221E+04  3.083611E+03
        75   4  3.711495E+05  2.748375E+02  2.203826E+03 -9.990260E+04  1.767288E+03  1.405424E+04
        75   5  3.710884E+05  4.848250E+01  1.232401E+03 -9.409785E+04  1.155174E+03  8.673772E+03
        75   6  3.711553E+05 -3.671298E+00  7.038935E+02 -9.990264E+04  5.427807E+02  3.084797E+03
        75   7  5.568392E+05  4.228028E+04  2.664206E+04 -9.995845E+04 -1.090300E+04  1.405455E+04
        75   8  4.846851E+05  2.572298E+04  1.606502E+04 -9.409277E+04 -1.201518E+04  8.674513E+03
        75   9  4.127520E+05  9.426786E+03  6.278608E+03 -9.983651E+04 -1.312752E+04  3.085980E+03
        75  10  1.854950E+05 -4.173224E+04 -2.223480E+04 -9.984694E+04 -1.641372E-11  3.693736E-10
        75  11  2.575051E+05 -2.562660E+04 -1.360017E+04 -9.410303E+04  1.242234E-09  1.017609E-09
        75  12  3.295604E+05 -9.434167E+03 -4.870531E+03 -9.996879E+04  4.023697E-10  1.388782E-09
        75  13  3.711494E+05  2.746245E+02  2.203449E+03 -9.990262E+04 -1.046448E-10  6.335883E-10
        75  14  3.710884E+05  4.840134E+01  1.232257E+03 -9.409786E+04  1.089225E-09  7.201970E-10
        75  15  3.711553E+05 -3.681598E+00  7.038751E+02 -9.990264E+04 -3.832982E-10  2.906695E-10
        75  16  5.568390E+05  4.228004E+04  2.664146E+04 -9.995832E+04 -1.591747E-10  9.242067E-10
        75  17  4.846849E+05  2.572286E+04  1.606461E+04 -9.409269E+04 -2.282380E-09  3.617484E-10
        75  18  4.127518E+05  9.426730E+03  6.278266E+03 -9.983648E+04  7.063236E-10 -8.252150E-10
        75  19  1.854953E+05 -4.173198E+04 -2.223404E+04 -9.984678E+04 -1.443397E+04 -1.405393E+04
        75  20  2.575053E+05 -2.562646E+04 -1.359964E+04 -9.410293E+04 -1.432324E+04 -8.673031E+03
        75  21  3.295607E+05 -9.434103E+03 -4.870134E+03 -9.996876E+04 -1.421221E+04 -3.083611E+03
        75  22  3.711495E+05  2.748375E+02  2.203826E+03 -9.990260E+04 -1.767288E+03 -1.405424E+04
        75  23  3.710884E+05  4.848250E+01  1.232401E+03 -9.409785E+04 -1.155174E+03 -8.673772E+03
        75  24  3.711553E+05 -3.671298E+00  7.038935E+02 -9.990264E+04 -5.427807E+02 -3.084797E+03
        75  25  5.568392E+05  4.228028E+04  2.664206E+04 -9.995845E+04  1.090300E+04 -1.405455E+04
        75  26  4.846851E+05  2.572298E+04  1.606502E+04 -9.409277E+04  1.201518E+04 -8.674513E+03
        75  27  4.127520E+05  9.426786E+03  6.278608E+03 -9.983651E+04  1.312752E+04 -3.085980E+03
        76   1  3.739768E+05  6.296885E+02  8.720186E+02 -9.994984E+04  1.411921E+04 -2.396733E+02
        76   2  4.460037E+05  1.683354E+04  9.721909E+03 -9.412625E+04  1.402287E+04 -5.950607E+03
        76   3  5.180545E+05  3.304081E+04  1.863690E+04 -9.992725E+04  1.392675E+04 -1.168399E+04
        76   4  3.711332E+05 -6.412391E+00  5.336128E+02 -9.990600E+04  4.331451E+02 -2.384450E+02
        76   5  3.711179E+05 -1.978162E+01  3.052059E+02 -9.409367E+04  2.820026E+02 -5.949648E+03
        76   6  3.711295E+05 -2.044276E+01  1.790668E+02 -9.990601E+04  1.310843E+02 -1.168332E+04
        76   7  3.682900E+05 -6.424131E+02  1.959105E+02 -9.986216E+04 -1.325286E+04 -2.372185E+02
        76   8  2.962382E+05 -1.687323E+04 -9.110803E+03 -9.406110E+04 -1.345729E+04 -5.948690E+03
        76   9  2.242270E+05 -3.308247E+04 -1.827811E+04 -9.988478E+04 -1.366148E+04 -1.168264E+04
        76  10  3.739766E+05  6.296350E+02  8.716441E+02 -9.994984E+04  4.761560E-10  1.379495E-09
        76  11  4.460034E+05  1.683345E+04  9.721473E+03 -9.412618E+04 -1.514965E-09  8.534272E-10
        76  12  5.180543E+05  3.304062E+04  1.863628E+04 -9.992711E+04  9.527540E-10 -2.077777E-10
        76  13  3.711332E+05 -6.412502E+00  5.336123E+02 -9.990600E+04  4.197537E-12  8.010763E-11
        76  14  3.711179E+05 -1.981966E+01  3.051392E+02 -9.409367E+04  2.098559E-09 -1.193150E-10
        76  15  3.711294E+05 -2.058937E+01  1.788102E+02 -9.990601E+04 -1.066075E-09 -7.881095E-10
        76  16  3.682898E+05 -6.424603E+02  1.955805E+02 -9.986217E+04  2.280094E-09 -1.202856E-09
        76  17  2.962380E+05 -1.687332E+04 -9.111210E+03 -9.406116E+04 -2.469458E-09 -1.106050E-09
        76  18  2.242268E+05 -3.308267E+04 -1.827872E+04 -9.988491E+04  1.830145E-09 -1.377710E-09
        76  19  3.739768E+05  6.296885E+02  8.720186E+02 -9.994984E+04 -1.411921E+04  2.396733E+02
        76  20  4.460037E+05  1.683354E+04  9.721909E+03 -9.412625E+04 -1.402287E+04  5.950607E+03
        76  21  5.180545E+05  3.304081E+04  1.863690E+04 -9.992725E+04 -1.392675E+04  1.168399E+04
        76  22  3.711332E+05 -6.412391E+00  5.336128E+02 -9.990600E+04 -4.331451E+02  2.384450E+02
        76  23  3.711179E+05 -1.978162E+01  3.052059E+02 -9.409367E+04 -2.820026E+02  5.949648E+03
        76  24  3.711295E+05 -2.044276E+01  1.790668E+02 -9.990601E+04 -1.310843E+02  1.168332E+04
        76  25  3.682900E+05 -6.424131E+02  1.959105E+02 -9.986216E+04  1.325286E+04  2.372185E+02
        76  26  2.962382E+05 -1.687323E+04 -9.110803E+03 -9.406110E+04  1.345729E+04  5.948690E+03
        76  27  2.242270E+05 -3.308247E+04 -1.827811E+04 -9.988478E+04  1.366148E+04  1.168264E+04
        77   1  5.624882E+05  4.309533E+04  2.447152E+04 -9.992117E+04  1.389794E+04 -1.502971E+04
        77   2  6.345341E+05  5.929761E+04  3.347694E+04 -9.409215E+04  1.375969E+04 -2.075339E+04
        77   3  7.066165E+05  7.551541E+04  4.257888E+04 -9.988918E+04  1.362220E+04 -2.643686E+04
        77   4  3.711239E+05 -2.310078E+01  1.388553E+02 -9.990638E+04  1.023168E+02 -1.502940E+04
        77   5  3.711102E+05 -3.416101E+01  8.614268E+01 -9.409322E+04  5.988132E+01 -2.075406E+04
        77   6  3.711108E+05 -4.624885E+01  6.297061E+01 -9.990638E+04  1.821629E+01 -2.643852E+04
        77   7  1.797975E+05 -4.314293E+04 -2.419324E+04 -9.989160E+04 -1.368927E+04 -1.502910E+04
        77   8  1.077578E+05 -5.936867E+04 -3.330418E+04 -9.409428E+04 -1.363441E+04 -2.075474E+04
        77   9  3.572104E+04 -7.561240E+04 -4.245263E+04 -9.992357E+04 -1.357879E+04 -2.644017E+04
        77  10  5.624880E+05  4.309504E+04  2.447074E+04 -9.992100E+04  8.024842E-10 -4.600885E-10
        77  11  6.345338E+05  5.929710E+04  3.347577E+04 -9.409192E+04  3.976360E-09 -3.405144E-10
        77  12  7.066161E+05  7.551461E+04  4.257722E+04 -9.988889E+04  1.119112E-09 -1.151259E-09
        77  13  3.711238E+05 -2.334339E+01  1.384307E+02 -9.990638E+04  4.602136E-09 -1.016932E-09
        77  14  3.711101E+05 -3.462362E+01  8.533310E+01 -9.409322E+04  2.873296E-10 -1.037317E-09
        77  15  3.711106E+05 -4.699958E+01  6.165683E+01 -9.990638E+04  1.398699E-09 -1.510597E-09
        77  16  1.797973E+05 -4.314322E+04 -2.419401E+04 -9.989176E+04  1.775326E-09 -1.643675E-09
        77  17  1.077575E+05 -5.936918E+04 -3.330534E+04 -9.409451E+04  1.632655E-09 -1.981635E-09
        77  18  3.572065E+04 -7.561320E+04 -4.245429E+04 -9.992386E+04 -2.516484E-09 -1.995396E-09
        77  19  5.624882E+05  4.309533E+04  2.447152E+04 -9.992117E+04 -1.389794E+04  1.502971E+04
        77  20  6.345341E+05  5.929761E+04  3.347694E+04 -9.409215E+04 -1.375969E+04  2.075339E+04
        77  21  7.066165E+05  7.551541E+04  4.257888E+04 -9.988918E+04 -1.362220E+04  2.643686E+04
        77  22  3.711239E+05 -2.310078E+01  1.388553E+02 -9.990638E+04 -1.023168E+02  1.502940E+04
        77  23  3.711102E+05 -3.416101E+01  8.614268E+01 -9.409322E+04 -5.988132E+01  2.075406E+04
        77  24  3.711108E+05 -4.624885E+01  6.297061E+01 -9.990638E+04 -1.821629E+01  2.643852E+04
        77  25  1.797975E+05 -4.314293E+04 -2.419324E+04 -9.989160E+04  1.368927E+04  1.502910E+04
        77  26  1.077578E+05 -5.936867E+04 -3.330418E+04 -9.409428E+04  1.363441E+04  2.075474E+04
        77  27  3.572104E+04 -7.561240E+04 -4.245263E+04 -9.992357E+04  1.357879E+04  2.644017E+04
        78   1  7.510946E+05  8.558436E+04  4.852108E+04 -9.987355E+04  1.358785E+04 -2.974194E+04
        78   2  8.231193E+05  1.018445E+05  5.794308E+04 -9.404001E+04  1.276809E+04 -3.522995E+04
        78   3  8.953100E+05  1.182449E+05  6.793891E+04 -9.981455E+04  1.194943E+04 -4.038890E+04
        78   4  3.711072E+05 -5.518010E+01  5.904896E+01 -9.990244E+04  7.741801E+00 -2.974437E+04
        78   5  3.710837E+05 -7.499256E+01  6.199097E+01 -9.409815E+04 -2.200812E+01 -3.523394E+04
        78   6  3.710848E+05 -9.114853E+01  9.055743E+01 -9.990244E+04 -5.058476E+01 -4.039433E+04
        78   7 -8.731865E+03 -8.570054E+04 -4.840287E+04 -9.993130E+04 -1.356447E+04 -2.974680E+04
        78   8 -8.074236E+04 -1.020028E+05 -5.781937E+04 -9.415624E+04 -1.280326E+04 -3.523793E+04
        78   9 -1.528590E+05 -1.184386E+05 -6.775873E+04 -9.999024E+04 -1.204096E+04 -4.039976E+04
        78  10  7.510942E+05  8.558336E+04  4.851907E+04 -9.987323E+04 -4.400875E-10 -1.175966E-09
        78  11  8.231188E+05  1.018431E+05  5.794044E+04 -9.403965E+04  1.015012E-09 -9.976753E-10
        78  12  8.953094E+05  1.182431E+05  6.793557E+04 -9.981416E+04  2.498528E-09  2.028515E-10
        78  13  3.711069E+05 -5.613031E+01  5.738609E+01 -9.990244E+04  1.712813E-11 -1.319191E-09
        78  14  3.710833E+05 -7.632587E+01  5.965767E+01 -9.409815E+04 -9.887940E-11 -4.317363E-10
        78  15  3.710844E+05 -9.290100E+01  8.749060E+01 -9.990244E+04 -1.924550E-09  2.914461E-10
        78  16 -8.732300E+03 -8.570154E+04 -4.840488E+04 -9.993162E+04  1.740114E-09 -1.512955E-09
        78  17 -8.074287E+04 -1.020042E+05 -5.782201E+04 -9.415660E+04 -8.519996E-10 -8.435055E-11
        78  18 -1.528596E+05 -1.184404E+05 -6.776207E+04 -9.999063E+04 -1.663492E-10  7.727040E-10
        78  19  7.510946E+05  8.558436E+04  4.852108E+04 -9.987355E+04 -1.358785E+04  2.974194E+04
        78  20  8.231193E+05  1.018445E+05  5.794308E+04 -9.404001E+04 -1.276809E+04  3.522995E+04
        78  21  8.953100E+05  1.182449E+05  6.793891E+04 -9.981455E+04 -1.194943E+04  4.038890E+04
        78  22  3.711072E+05 -5.518010E+01  5.904896E+01 -9.990244E+04 -7.741801E+00  2.974437E+04
        78  23  3.710837E+05 -7.499256E+01  6.199097E+01 -9.409815E+04  2.200812E+01  3.523394E+04
        78  24  3.710848E+05 -9.114853E+01  9.055743E+01 -9.990244E+04  5.058476E+01  4.039433E+04
        78  25 -8.731865E+03 -8.570054E+04 -4.840287E+04 -9.993130E+04  1.356447E+04  2.974680E+04
        78  26 -8.074236E+04 -1.020028E+05 -5.781937E+04 -9.415624E+04  1.280326E+04  3.523793E+04
        78  27 -1.528590E+05 -1.184386E+05 -6.775873E+04 -9.999024E+04  1.204096E+04  4.039976E+04
        79   1  9.399790E+05  1.284610E+05  7.447280E+04 -9.974557E+04  1.174112E+04 -4.336166E+04
        79   2  1.011615E+06  1.452127E+05  8.668082E+04 -9.401975E+04  5.773850E+03 -4.705431E+04
        79   3  1.084341E+06  1.630503E+05  1.030507E+05 -9.972226E+04 -1.941712E+02 -4.830271E+04
        79   4  3.710847E+05 -1.010263E+02  1.149326E+02 -9.986254E+04 -6.672126E+01 -4.336812E+04
        79   5  3.710366E+05 -9.593133E+01  1.914240E+02 -9.414801E+04 -1.596880E+02 -4.706098E+04
        79   6  3.710534E+05 -2.347765E+01  3.545561E+02 -9.986257E+04 -2.526540E+02 -4.830825E+04
        79   7 -1.974787E+05 -1.286766E+05 -7.424444E+04 -9.997939E+04 -1.186427E+04 -4.337457E+04
        79   8 -2.691245E+05 -1.454222E+05 -8.630168E+04 -9.427614E+04 -6.087393E+03 -4.706765E+04
        79   9 -3.417209E+05 -1.631205E+05 -1.023496E+05 -1.000027E+05 -3.110725E+02 -4.831379E+04
        79  10  9.399783E+05  1.284590E+05  7.446900E+04 -9.974516E+04  1.291504E-09  9.921981E-10
        79  11  1.011615E+06  1.452103E+05  8.667660E+04 -9.401953E+04  4.542341E-09  1.170048E-09
        79  12  1.084340E+06  1.630478E+05  1.030463E+05 -9.972227E+04  5.642328E-09 -1.067671E-09
        79  13  3.710842E+05 -1.030463E+02  1.113976E+02 -9.986255E+04 -1.077401E-09  7.844370E-10
        79  14  3.710360E+05 -9.830999E+01  1.872613E+02 -9.414802E+04  2.209540E-09  7.056000E-10
        79  15  3.710528E+05 -2.598408E+01  3.501698E+02 -9.986258E+04 -1.004587E-09 -7.843555E-10
        79  16 -1.974794E+05 -1.286786E+05 -7.424825E+04 -9.997981E+04 -9.130966E-10  7.437189E-10
        79  17 -2.691251E+05 -1.454246E+05 -8.630592E+04 -9.427637E+04 -1.278070E-09  1.110124E-09
        79  18 -3.417215E+05 -1.631230E+05 -1.023540E+05 -1.000027E+05 -4.061403E-09 -3.634871E-10
        79  19  9.399790E+05  1.284610E+05  7.447280E+04 -9.974557E+04 -1.174112E+04  4.336166E+04
        79  20  1.011615E+06  1.452127E+05  8.668082E+04 -9.401975E+04 -5.773850E+03  4.705431E+04
        79  21  1.084341E+06  1.630503E+05  1.030507E+05 -9.972226E+04  1.941712E+02  4.830271E+04
        79  22  3.710847E+05 -1.010263E+02  1.149326E+02 -9.986254E+04  6.672126E+01  4.336812E+04
        79  23  3.710366E+05 -9.593133E+01  1.914240E+02 -9.414801E+04  1.596880E+02  4.706098E+04
        79  24  3.710534E+05 -2.347765E+01  3.545561E+02 -9.986257E+04  2.526540E+02  4.830825E+04
        79  25 -1.974787E+05 -1.286766E+05 -7.424444E+04 -9.997939E+04  1.186427E+04  4.337457E+04
        79  26 -2.691245E+05 -1.454222E+05 -8.630168E+04 -9.427614E+04  6.087393E+03  4.706765E+04
        79  27 -3.417209E+05 -1.631205E+05 -1.023496E+05 -1.000027E+05  3.110725E+02  4.831379E+04
        80   1  1.130214E+06  1.743791E+05  1.138316E+05 -9.935214E+04 -1.696780E+03 -4.880547E+04
        80   2  1.198658E+06  1.948873E+05  1.463912E+05 -9.478247E+04 -4.561100E+04 -3.920634E+04
        80   3  1.274928E+06  2.236335E+05  2.095769E+05 -1.002973E+05 -8.954905E+04 -1.152111E+04
        80   4  3.710904E+05  1.804466E+01  4.758792E+02 -9.956348E+04 -3.148824E+02 -4.881071E+04
        80   5  3.709287E+05  3.909522E+02  8.684565E+02 -9.452205E+04 -7.480544E+02 -3.918728E+04
        80   6  3.710518E+05  1.465547E+03  1.725858E+03 -9.956419E+04 -1.198409E+03 -1.146672E+04
        80   7 -3.874550E+05 -1.743701E+05 -1.128909E+05 -9.977458E+04  1.065396E+03 -4.881596E+04
        80   8 -4.561273E+05 -1.941417E+05 -1.446716E+05 -9.426203E+04  4.405694E+04 -3.916817E+04
        80   9 -5.320528E+05 -2.207552E+05 -2.061500E+05 -9.883223E+04  8.702483E+04 -1.141209E+04
        80  10  1.130213E+06  1.743765E+05  1.138271E+05 -9.935221E+04  2.970331E-09 -2.488097E-09
        80  11  1.198656E+06  1.948851E+05  1.463844E+05 -9.478391E+04  6.850049E-10 -3.129369E-09
        80  12  1.274919E+06  2.236312E+05  2.095616E+05 -1.002981E+05 -1.255892E-09 -9.548693E-10
        80  13  3.710897E+05  1.548581E+01  4.714011E+02 -9.956350E+04 -1.468744E-09 -3.492775E-09
        80  14  3.709283E+05  3.893027E+02  8.655692E+02 -9.452208E+04 -3.814072E-09  3.829528E-10
        80  15  3.710518E+05  1.465405E+03  1.725608E+03 -9.956420E+04 -1.799412E-09 -2.550059E-10
        80  16 -3.874556E+05 -1.743727E+05 -1.128954E+05 -9.977453E+04 -1.176129E-09 -1.036096E-09
        80  17 -4.561298E+05 -1.941438E+05 -1.446781E+05 -9.426064E+04 -1.787151E-10  5.115397E-10
        80  18 -5.320609E+05 -2.207574E+05 -2.061644E+05 -9.883143E+04  1.712512E-09 -7.060936E-10
        80  19  1.130214E+06  1.743791E+05  1.138316E+05 -9.935214E+04  1.696780E+03  4.880547E+04
        80  20  1.198658E+06  1.948873E+05  1.463912E+05 -9.478247E+04  4.561100E+04  3.920634E+04
        80  21  1.274928E+06  2.236335E+05  2.095769E+05 -1.002973E+05  8.954905E+04  1.152111E+04
        80  22  3.710904E+05  1.804466E+01  4.758792E+02 -9.956348E+04  3.148824E+02  4.881071E+04
        80  23  3.709287E+05  3.909522E+02  8.684565E+02 -9.452205E+04  7.480544E+02  3.918728E+04
        80  24  3.710518E+05  1.465547E+03  1.725858E+03 -9.956419E+04  1.198409E+03  1.146672E+04
        80  25 -3.874550E+05 -1.743701E+05 -1.128909E+05 -9.977458E+04 -1.065396E+03  4.881596E+04
        80  26 -4.561273E+05 -1.941417E+05 -1.446716E+05 -9.426203E+04 -4.405694E+04  3.916817E+04
        80  27 -5.320528E+05 -2.207552E+05 -2.061500E+05 -9.883223E+04 -8.702483E+04  1.141209E+04
        81   1  1.953784E+05  9.423993E+05  1.867089E+05 -2.540400E+05  7.552126E+03  5.599051E+04
        81   2  1.390285E+05  7.475107E+05  1.138469E+05 -2.366058E+05  2.297482E+04  1.656617E+04
        81   3  9.157902E+04  5.599952E+05  6.884863E+04 -2.504786E+05  2.180012E+04 -2.285083E+04
        81   4  5.254141E+03  1.724949E+05  5.512746E+03 -2.500978E+05  7.596205E+03  2.489047E+03
        81   5  2.005667E+03  1.721099E+05  3.839564E+03 -2.344452E+05  2.299059E+04  5.590291E+02
        81   6  1.160833E+03  1.725678E+05  4.019411E+03 -2.501010E+05  2.178068E+04 -1.375728E+03
        81   7 -1.849109E+05 -5.968586E+05 -1.757134E+05 -2.461603E+05  7.639645E+03 -5.094654E+04
        81   8 -1.350365E+05 -4.029716E+05 -1.061819E+05 -2.322866E+05  2.300626E+04 -1.543364E+04
        81   9 -8.926494E+04 -2.147107E+05 -6.081273E+04 -2.497235E+05  2.176127E+04  2.008643E+04
        81  10  1.953775E+05  9.423959E+05  1.867029E+05 -2.540404E+05  1.942856E-09  2.434734E-09
        81  11  1.390279E+05  7.475103E+05  1.138454E+05 -2.366061E+05  6.601186E-09  1.395444E-09
        81  12  9.157837E+04  5.599945E+05  6.884676E+04 -2.504782E+05  1.152288E-09  1.259195E-09
        81  13  5.254077E+03  1.724948E+05  5.512626E+03 -2.500978E+05  1.595938E-09 -4.644184E-10
        81  14  2.005099E+03  1.721098E+05  3.838570E+03 -2.344452E+05 -2.601890E-09 -1.938126E-10
        81  15  1.160323E+03  1.725677E+05  4.018516E+03 -2.501009E+05 -1.154661E-10 -1.571292E-09
        81  16 -1.849116E+05 -5.968614E+05 -1.757184E+05 -2.461600E+05 -7.435484E-10 -2.870523E-09
        81  17 -1.350371E+05 -4.029720E+05 -1.061833E+05 -2.322863E+05  7.135461E-10 -1.163962E-09
        81  18 -8.926556E+04 -2.147112E+05 -6.081438E+04 -2.497238E+05 -1.173072E-10 -5.180217E-10
        81  19  1.953784E+05  9.423993E+05  1.867089E+05 -2.540400E+05 -7.552126E+03 -5.599051E+04
        81  20  1.390285E+05  7.475107E+05  1.138469E+05 -2.366058E+05 -2.297482E+04 -1.656617E+04
        81  21  9.157902E+04  5.599952E+05  6.884863E+04 -2.504786E+05 -2.180012E+04  2.285083E+04
        81  22  5.254141E+03  1.724949E+05  5.512746E+03 -2.500978E+05 -7.596205E+03 -2.489047E+03
        81  23  2.005667E+03  1.721099E+05  3.839564E+03 -2.344452E+05 -2.299059E+04 -5.590291E+02
        81  24  1.160833E+03  1.725678E+05  4.019411E+03 -2.501010E+05 -2.178068E+04  1.375728E+03
        81  25 -1.849109E+05 -5.968586E+05 -1.757134E+05 -2.461603E+05 -7.639645E+03  5.094654E+04
        81  26 -1.350365E+05 -4.029716E+05 -1.061819E+05 -2.322866E+05 -2.300626E+04  1.543364E+04
        81  27 -8.926494E+04 -2.147107E+05 -6.081273E+04 -2.497235E+05 -2.176127E+04 -2.008643E+04
        82   1  6.344367E+04  4.401043E+05  4.873436E+04 -2.509555E+05  1.549873E+04 -2.418407E+04
        82   2  1.930723E+04  2.484582E+05  1.809308E+04 -2.331347E+05  5.516059E+03 -2.861745E+04
        82   3 -2.225310E+04  5.803125E+04 -9.031456E+03 -2.477259E+05 -4.859744E+03 -3.305024E+04
        82   4  1.142076E+03  1.726234E+05  4.615823E+03 -2.503463E+05  1.547747E+04 -2.086470E+03
        82   5  1.840224E+03  1.721139E+05  7.071099E+03 -2.341388E+05  5.493502E+03 -5.635640E+03
        82   6  4.962276E+03  1.726328E+05  1.242770E+04 -2.503430E+05 -4.883640E+03 -9.185478E+03
        82   7 -6.116294E+04 -9.478571E+04 -3.950299E+04 -2.497373E+05  1.545625E+04  2.000193E+04
        82   8 -1.562676E+04  9.577652E+04 -3.948993E+03 -2.351427E+05  5.470869E+03  1.734347E+04
        82   9  3.217722E+04  2.872482E+05  3.388843E+04 -2.529607E+05 -4.907734E+03  1.468358E+04
        82  10  6.344326E+04  4.401036E+05  4.873281E+04 -2.509552E+05 -2.981034E-09  1.291206E-07
        82  11  1.930698E+04  2.484573E+05  1.809149E+04 -2.331346E+05 -3.661694E-09 -1.868722E-09
        82  12 -2.225342E+04  5.803007E+04 -9.033553E+03 -2.477260E+05  2.968390E-10 -1.316996E-07
        82  13  1.141818E+03  1.726233E+05  4.615365E+03 -2.503462E+05 -5.430772E-09 -6.395874E-10
        82  14  1.840183E+03  1.721138E+05  7.070982E+03 -2.341387E+05 -2.245519E-10 -3.467042E-10
        82  15  4.962228E+03  1.726327E+05  1.242749E+04 -2.503431E+05 -3.698136E-09 -1.731402E-09
        82  16 -6.116331E+04 -9.478621E+04 -3.950419E+04 -2.497375E+05 -2.188224E-09 -1.296810E-07
        82  17 -1.562687E+04  9.577619E+04 -3.949615E+03 -2.351428E+05 -4.603023E-09  1.874280E-09
        82  18  3.217714E+04  2.872480E+05  3.388798E+04 -2.529606E+05 -1.538958E-09  1.325588E-07
        82  19  6.344367E+04  4.401043E+05  4.873436E+04 -2.509555E+05 -1.549873E+04  2.418407E+04
        82  20  1.930723E+04  2.484582E+05  1.809308E+04 -2.331347E+05 -5.516059E+03  2.861745E+04
        82  21 -2.225310E+04  5.803125E+04 -9.031456E+03 -2.477259E+05  4.859744E+03  3.305024E+04
        82  22  1.142076E+03  1.726234E+05  4.615823E+03 -2.503463E+05 -1.547747E+04  2.086470E+03
        82  23  1.840224E+03  1.721139E+05  7.071099E+03 -2.341388E+05 -5.493502E+03  5.635640E+03
        82  24  4.962276E+03  1.726328E+05  1.242770E+04 -2.503430E+05  4.883640E+03  9.185478E+03
        82  25 -6.116294E+04 -9.478571E+04 -3.950299E+04 -2.497373E+05 -1.545625E+04 -2.000193E+04
        82  26 -1.562676E+04  9.577652E+04 -3.948993E+03 -2.351427E+05 -5.470869E+03 -1.734347E+04
        82  27  3.217722E+04  2.872482E+05  3.388843E+04 -2.529607E+05  4.907734E+03 -1.468358E+04
        83   1 -4.873108E+04 -6.011408E+04 -2.511712E+04 -2.488822E+05 -1.153915E+04 -3.472216E+04
        83   2 -8.201875E+04 -2.525711E+05 -5.326033E+04 -2.146572E+05 -1.519203E+04 -1.971031E+04
        83   3 -9.618536E+04 -4.421828E+05 -8.640473E+04 -2.119969E+05 -5.382936E+03 -4.698015E+03
        83   4  6.444623E+03  1.741904E+05  1.645500E+04 -2.501551E+05 -1.156199E+04 -1.134208E+04
        83   5  1.923471E+04  1.701258E+05  3.008595E+04 -2.343564E+05 -1.518411E+04 -2.669717E+04
        83   6  5.640891E+04  1.741325E+05  5.979810E+04 -2.501152E+05 -5.349381E+03 -4.204716E+04
        83   7  6.161760E+04  4.085497E+05  5.802712E+04 -2.514283E+05 -1.158493E+04  1.204657E+04
        83   8  1.204788E+05  5.929946E+05  1.134239E+05 -2.540691E+05 -1.517575E+04 -3.368869E+04
        83   9  2.089820E+05  7.908029E+05  2.059805E+05 -2.882714E+05 -5.311261E+03 -7.943319E+04
        83  10 -4.873154E+04 -6.011541E+04 -2.511963E+04 -2.488826E+05 -6.396577E-10  3.555977E-10
        83  11 -8.201911E+04 -2.525716E+05 -5.326150E+04 -2.146574E+05  3.148145E-09 -1.328521E-09
        83  12 -9.618540E+04 -4.421828E+05 -8.640482E+04 -2.119969E+05  1.067725E-09 -2.235792E-09
        83  13  6.444444E+03  1.741903E+05  1.645450E+04 -2.501552E+05 -1.801561E-09 -7.265407E-10
        83  14  1.923427E+04  1.701249E+05  3.008418E+04 -2.343567E+05  4.790724E-09 -4.077374E-10
        83  15  5.640840E+04  1.741306E+05  5.979472E+04 -2.501154E+05  2.035709E-09 -1.382703E-09
        83  16  6.161741E+04  4.085495E+05  5.802660E+04 -2.514282E+05  9.247095E-10 -1.047062E-09
        83  17  1.204783E+05  5.929934E+05  1.134213E+05 -2.540696E+05  2.565796E-09  1.412136E-09
        83  18  2.089803E+05  7.907961E+05  2.059686E+05 -2.882718E+05 -2.148952E-10  2.886503E-09
        83  19 -4.873108E+04 -6.011408E+04 -2.511712E+04 -2.488822E+05  1.153915E+04  3.472216E+04
        83  20 -8.201875E+04 -2.525711E+05 -5.326033E+04 -2.146572E+05  1.519203E+04  1.971031E+04
        83  21 -9.618536E+04 -4.421828E+05 -8.640473E+04 -2.119969E+05  5.382936E+03  4.698015E+03
        83  22  6.444623E+03  1.741904E+05  1.645500E+04 -2.501551E+05  1.156199E+04  1.134208E+04
        83  23  1.923471E+04  1.701258E+05  3.008595E+04 -2.343564E+05  1.518411E+04  2.669717E+04
        83  24  5.640891E+04  1.741325E+05  5.979810E+04 -2.501152E+05  5.349381E+03  4.204716E+04
        83  25  6.161760E+04  4.085497E+05  5.802712E+04 -2.514283E+05  1.158493E+04 -1.204657E+04
        83  26  1.204788E+05  5.929946E+05  1.134239E+05 -2.540691E+05  1.517575E+04  3.368869E+04
        83  27  2.089820E+05  7.908029E+05  2.059805E+05 -2.882714E+05  5.311261E+03  7.943319E+04
        84   1 -3.915998E+05 -2.209879E+05 -1.373471E+05 -1.676078E+05 -6.793729E+04 -2.183299E+04
        84   2 -3.680548E+05 -1.383589E+05 -7.858883E+04 -1.564918E+05 -4.237081E+04 -4.093400E+03
        84   3 -3.600957E+05 -1.049846E+05 -5.294592E+04 -1.401761E+05 -1.453691E+04  7.612931E+03
        84   4 -1.972905E+05 -1.095731E+05 -7.962901E+04 -7.481063E+04 -5.266184E+04 -1.610448E+04
        84   5 -1.860318E+05 -5.487384E+04 -3.658000E+04 -8.903232E+04 -3.617225E+04 -1.768640E+03
        84   6 -1.885552E+05 -4.762497E+04 -1.944747E+04 -9.805690E+04 -1.741646E+04  6.532124E+03
        84   7 -2.942685E+03  1.860716E+03 -2.191403E+04  1.801654E+04 -3.738142E+04 -1.037172E+04
        84   8 -3.974826E+03  2.861931E+04  5.426667E+03 -2.155303E+04 -2.997177E+04  5.572616E+02
        84   9 -1.698333E+04  9.736394E+03  1.404996E+04 -5.592725E+04 -2.029689E+04  5.451051E+03
        84  10 -3.916049E+05 -2.209897E+05 -1.373567E+05 -1.676089E+05 -1.294159E-09 -2.655246E-10
        84  11 -3.680568E+05 -1.383594E+05 -7.859223E+04 -1.564920E+05 -5.837904E-09 -1.625987E-09
        84  12 -3.600960E+05 -1.049847E+05 -5.294643E+04 -1.401760E+05 -4.204008E-09 -4.307223E-10
        84  13 -1.972935E+05 -1.095742E+05 -7.963471E+04 -7.481131E+04 -3.057445E-09  9.052092E-12
        84  14 -1.860332E+05 -5.487419E+04 -3.658247E+04 -8.903237E+04 -6.403409E-09 -6.994626E-10
        84  15 -1.885555E+05 -4.762509E+04 -1.944812E+04 -9.805681E+04 -5.393970E-09  1.062284E-09
        84  16 -2.944215E+03  1.860225E+03 -2.191686E+04  1.801623E+04 -1.081600E-09 -7.969228E-10
        84  17 -3.975791E+03  2.861906E+04  5.424978E+03 -2.155302E+04  3.139567E-10  6.207527E-10
        84  18 -1.698378E+04  9.736251E+03  1.404913E+04 -5.592716E+04  9.010737E-09  2.962009E-09
        84  19 -3.915998E+05 -2.209879E+05 -1.373471E+05 -1.676078E+05  6.793729E+04  2.183299E+04
        84  20 -3.680548E+05 -1.383589E+05 -7.858883E+04 -1.564918E+05  4.237081E+04  4.093400E+03
        84  21 -3.600957E+05 -1.049846E+05 -5.294592E+04 -1.401761E+05  1.453691E+04 -7.612931E+03
        84  22 -1.972905E+05 -1.095731E+05 -7.962901E+04 -7.481063E+04  5.266184E+04  1.610448E+04
        84  23 -1.860318E+05 -5.487384E+04 -3.658000E+04 -8.903232E+04  3.617225E+04  1.768640E+03
        84  24 -1.885552E+05 -4.762497E+04 -1.944747E+04 -9.805690E+04  1.741646E+04 -6.532124E+03
        84  25 -2.942685E+03  1.860716E+03 -2.191403E+04  1.801654E+04  3.738142E+04  1.037172E+04
        84  26 -3.974826E+03  2.861931E+04  5.426667E+03 -2.155303E+04  2.997177E+04 -5.572616E+02
        84  27 -1.698333E+04  9.736394E+03  1.404996E+04 -5.592725E+04  2.029689E+04 -5.451051E+03
        85   1 -3.347680E+05 -1.044492E+05 -4.447950E+04 -1.385696E+05 -1.293308E+04  6.907886E+03
        85   2 -3.097640E+05 -8.916512E+04 -3.159310E+04 -1.282676E+05 -7.800309E+03  7.199069E+03
        85   3 -2.811404E+05 -8.101259E+04 -2.268658E+04 -1.233433E+05 -2.501422E+03  7.047609E+03
        85   4 -1.861644E+05 -4.932902E+04 -1.478851E+04 -9.639281E+04 -1.475829E+04  6.222718E+03
        85   5 -1.878598E+05 -4.455756E+04 -7.809036E+03 -9.418046E+04 -1.029080E+04  6.264427E+03
        85   6 -1.858040E+05 -4.678557E+04 -4.281479E+03 -9.734605E+04 -5.657394E+03  5.863458E+03
        85   7 -3.753924E+04  5.792814E+03  1.490107E+04 -5.420695E+04 -1.658394E+04  5.537374E+03
        85   8 -6.594011E+04  5.136032E+01  1.597438E+04 -6.008708E+04 -1.278182E+04  5.329587E+03
        85   9 -9.045727E+04 -1.255750E+04  1.412350E+04 -7.134493E+04 -8.813912E+03  4.679107E+03
        85  10 -3.347682E+05 -1.044493E+05 -4.447990E+04 -1.385695E+05  1.551378E-09  2.257951E-09
        85  11 -3.097641E+05 -8.916519E+04 -3.159331E+04 -1.282676E+05 -5.772768E-09 -3.272297E-11
        85  12 -2.811405E+05 -8.101264E+04 -2.268668E+04 -1.233433E+05 -9.122314E-09 -8.252314E-10
        85  13 -1.861647E+05 -4.932912E+04 -1.478900E+04 -9.639273E+04  5.678227E-10  1.376516E-09
        85  14 -1.878599E+05 -4.455763E+04 -7.809309E+03 -9.418041E+04 -4.296237E-09 -2.757694E-11
        85  15 -1.858040E+05 -4.678562E+04 -4.281604E+03 -9.734602E+04  3.334973E-09  1.660417E-09
        85  16 -3.753955E+04  5.792707E+03  1.490050E+04 -5.420687E+04  2.416900E-09  2.909999E-10
        85  17 -6.594029E+04  5.128596E+01  1.597402E+04 -6.008702E+04 -3.090989E-10  7.371918E-10
        85  18 -9.045736E+04 -1.255754E+04  1.412331E+04 -7.134490E+04  5.737815E-09  4.267217E-09
        85  19 -3.347680E+05 -1.044492E+05 -4.447950E+04 -1.385696E+05  1.293308E+04 -6.907886E+03
        85  20 -3.097640E+05 -8.916512E+04 -3.159310E+04 -1.282676E+05  7.800309E+03 -7.199069E+03
        85  21 -2.811404E+05 -8.101259E+04 -2.268658E+04 -1.233433E+05  2.501422E+03 -7.047609E+03
        85  22 -1.861644E+05 -4.932902E+04 -1.478851E+04 -9.639281E+04  1.475829E+04 -6.222718E+03
        85  23 -1.878598E+05 -4.455756E+04 -7.809036E+03 -9.418046E+04  1.029080E+04 -6.264427E+03
        85  24 -1.858040E+05 -4.678557E+04 -4.281479E+03 -9.734605E+04  5.657394E+03 -5.863458E+03
        85  25 -3.753924E+04  5.792814E+03  1.490107E+04 -5.420695E+04  1.658394E+04 -5.537374E+03
        85  26 -6.594011E+04  5.136032E+01  1.597438E+04 -6.008708E+04  1.278182E+04 -5.329587E+03
        85  27 -9.045727E+04 -1.255750E+04  1.412350E+04 -7.134493E+04  8.813912E+03 -4.679107E+03
        86   1 -2.625493E+05 -7.468497E+04 -1.797246E+04 -1.184631E+05 -1.520211E+03  6.020795E+03
        86   2 -2.378070E+05 -6.226625E+04 -1.133244E+04 -1.080824E+05  1.853803E+02  4.308421E+03
        86   3 -2.082082E+05 -5.497249E+04 -5.410889E+03 -1.034600E+05  1.903102E+03  2.563448E+03
        86   4 -1.856256E+05 -4.686576E+04 -3.220451E+03 -9.724297E+04 -4.599333E+03  4.865551E+03
        86   5 -1.880544E+05 -4.428294E+04 -1.770596E+03 -9.437301E+04 -2.942723E+03  3.134880E+03
        86   6 -1.856175E+05 -4.681532E+04 -1.000304E+03 -9.726143E+04 -1.274031E+03  1.371600E+03
        86   7 -1.086958E+05 -1.904603E+04  1.153134E+04 -7.602042E+04 -7.678862E+03  3.710156E+03
        86   8 -1.382993E+05 -2.629950E+04  7.791120E+03 -8.066262E+04 -6.071080E+03  1.961246E+03
        86   9 -1.630265E+05 -3.865818E+04  3.410246E+03 -9.106272E+04 -4.451260E+03  1.797179E+02
        86  10 -2.625494E+05 -7.468501E+04 -1.797253E+04 -1.184631E+05 -7.788762E-10  5.694890E-10
        86  11 -2.378071E+05 -6.226627E+04 -1.133247E+04 -1.080824E+05 -3.014944E-08 -1.161695E-08
        86  12 -2.082082E+05 -5.497250E+04 -5.410908E+03 -1.034600E+05 -5.264178E-08 -2.038279E-08
        86  13 -1.856257E+05 -4.686579E+04 -3.220535E+03 -9.724295E+04  2.783983E-09  5.093762E-10
        86  14 -1.880544E+05 -4.428295E+04 -1.770630E+03 -9.437300E+04  4.014288E-09 -8.622410E-09
        86  15 -1.856175E+05 -4.681533E+04 -1.000310E+03 -9.726143E+04 -3.036391E-09 -1.948237E-08
        86  16 -1.086958E+05 -1.904607E+04  1.153120E+04 -7.602039E+04  4.893972E-09  4.589773E-09
        86  17 -1.382994E+05 -2.629951E+04  7.791043E+03 -8.066261E+04  2.692425E-08  1.427513E-08
        86  18 -1.630266E+05 -3.865819E+04  3.410209E+03 -9.106272E+04  3.651890E-08  1.642933E-08
        86  19 -2.625493E+05 -7.468497E+04 -1.797246E+04 -1.184631E+05  1.520211E+03 -6.020795E+03
        86  20 -2.378070E+05 -6.226625E+04 -1.133244E+04 -1.080824E+05 -1.853803E+02 -4.308421E+03
        86  21 -2.082082E+05 -5.497249E+04 -5.410889E+03 -1.034600E+05 -1.903102E+03 -2.563448E+03
        86  22 -1.856256E+05 -4.686576E+04 -3.220451E+03 -9.724297E+04  4.599333E+03 -4.865551E+03
        86  23 -1.880544E+05 -4.428294E+04 -1.770596E+03 -9.437301E+04  2.942723E+03 -3.134880E+03
        86  24 -1.856175E+05 -4.681532E+04 -1.000304E+03 -9.726143E+04  1.274031E+03 -1.371600E+03
        86  25 -1.086958E+05 -1.904603E+04  1.153134E+04 -7.602042E+04  7.678862E+03 -3.710156E+03
        86  26 -1.382993E+05 -2.629950E+04  7.791120E+03 -8.066262E+04  6.071080E+03 -1.961246E+03
        86  27 -1.630265E+05 -3.865818E+04  3.410246E+03 -9.106272E+04  4.451260E+03 -1.797179E+02
        87   1 -1.899978E+05 -4.836074E+04 -1.537814E+03 -9.842997E+04  2.505543E+03  1.387834E+03
        87   2 -1.653331E+05 -3.601646E+04  3.886921E+03 -8.802337E+04  3.540008E+03 -6.288581E+02
        87   3 -1.356863E+05 -2.869449E+04  9.129738E+03 -8.336834E+04  4.575264E+03 -2.647531E+03
        87   4 -1.855952E+05 -4.681930E+04 -7.702512E+02 -9.725076E+04 -6.660554E+02  1.980753E+02
        87   5 -1.880868E+05 -4.431364E+04 -4.831862E+02 -9.437277E+04  3.653183E+02 -1.819821E+03
        87   6 -1.855970E+05 -4.683003E+04 -3.757959E+02 -9.724687E+04  1.397469E+03 -3.839697E+03
        87   7 -1.811925E+05 -4.527784E+04 -2.635284E+00 -9.607151E+04 -3.837706E+03 -9.917023E+02
        87   8 -2.108401E+05 -5.261080E+04 -4.853302E+03 -1.007220E+05 -2.809261E+03 -3.010742E+03
        87   9 -2.355052E+05 -6.496534E+04 -9.881395E+03 -1.111244E+05 -1.780054E+03 -5.031760E+03
        87  10 -1.899978E+05 -4.836074E+04 -1.537829E+03 -9.842997E+04  3.480542E-08  1.566712E-08
        87  11 -1.653332E+05 -3.601646E+04  3.886897E+03 -8.802337E+04  2.862322E-08  1.489144E-08
        87  12 -1.356863E+05 -2.869451E+04  9.129686E+03 -8.336834E+04  4.851937E-09  4.747003E-09
        87  13 -1.855952E+05 -4.681930E+04 -7.702521E+02 -9.725075E+04 -7.023052E-09 -1.928688E-08
        87  14 -1.880868E+05 -4.431364E+04 -4.831927E+02 -9.437277E+04  2.864206E-09 -8.494037E-09
        87  15 -1.855970E+05 -4.683005E+04 -3.758273E+02 -9.724686E+04  5.703357E-10  1.882086E-10
        87  16 -1.811925E+05 -4.527785E+04 -2.664819E+00 -9.607152E+04 -5.278227E-08 -1.931205E-08
        87  17 -2.108401E+05 -5.261081E+04 -4.853334E+03 -1.007220E+05 -2.645136E-08 -1.146007E-08
        87  18 -2.355052E+05 -6.496537E+04 -9.881449E+03 -1.111244E+05 -5.775492E-09 -1.689478E-10
        87  19 -1.899978E+05 -4.836074E+04 -1.537814E+03 -9.842997E+04 -2.505543E+03 -1.387834E+03
        87  20 -1.653331E+05 -3.601646E+04  3.886921E+03 -8.802337E+04 -3.540008E+03  6.288581E+02
        87  21 -1.356863E+05 -2.869449E+04  9.129738E+03 -8.336834E+04 -4.575264E+03  2.647531E+03
        87  22 -1.855952E+05 -4.681930E+04 -7.702512E+02 -9.725076E+04  6.660554E+02 -1.980753E+02
        87  23 -1.880868E+05 -4.431364E+04 -4.831862E+02 -9.437277E+04 -3.653183E+02  1.819821E+03
        87  24 -1.855970E+05 -4.683003E+04 -3.757959E+02 -9.724687E+04 -1.397469E+03  3.839697E+03
        87  25 -1.811925E+05 -4.527784E+04 -2.635284E+00 -9.607151E+04  3.837706E+03  9.917023E+02
        87  26 -2.108401E+05 -5.261080E+04 -4.853302E+03 -1.007220E+05  2.809261E+03  3.010742E+03
        87  27 -2.355052E+05 -6.496534E+04 -9.881395E+03 -1.111244E+05  1.780054E+03  5.031760E+03
        88   1 -1.175150E+05 -2.206803E+04  1.277357E+04 -7.833462E+04  5.098921E+03 -3.852862E+03
        88   2 -9.285876E+04 -9.718328E+03  1.781093E+04 -6.793137E+04  6.118603E+03 -5.876228E+03
        88   3 -6.321894E+04 -2.388110E+03  2.267811E+04 -6.327741E+04  7.137024E+03 -7.895745E+03
        88   4 -1.855978E+05 -4.683036E+04 -3.734234E+02 -9.724636E+04  1.921152E+03 -5.045069E+03
        88   5 -1.880890E+05 -4.431803E+04 -4.700241E+02 -9.437264E+04  2.946470E+03 -7.066466E+03
        88   6 -1.855985E+05 -4.682632E+04 -7.412584E+02 -9.724847E+04  3.970522E+03 -9.084024E+03
        88   7 -2.536751E+05 -7.159204E+04 -1.352041E+04 -1.161560E+05 -1.256216E+03 -6.237127E+03
        88   8 -2.833098E+05 -7.891692E+04 -1.875133E+04 -1.208102E+05 -2.251411E+02 -8.256509E+03
        88   9 -3.079636E+05 -9.126358E+04 -2.416152E+04 -1.312136E+05  8.046614E+02 -1.027206E+04
        88  10 -1.175150E+05 -2.206805E+04  1.277349E+04 -7.833460E+04  9.390118E-10  3.030783E-09
        88  11 -9.285881E+04 -9.718375E+03  1.781080E+04 -6.793134E+04 -5.797557E-10  3.063631E-09
        88  12 -6.321901E+04 -2.388191E+03  2.267790E+04 -6.327736E+04  2.179080E-09  1.293199E-09
        88  13 -1.855978E+05 -4.683039E+04 -3.734782E+02 -9.724635E+04 -1.899770E-09  2.112222E-09
        88  14 -1.880890E+05 -4.431809E+04 -4.701342E+02 -9.437263E+04 -1.664783E-09  1.735699E-09
        88  15 -1.855986E+05 -4.682641E+04 -7.414431E+02 -9.724844E+04 -4.686581E-10  1.166498E-09
        88  16 -2.536751E+05 -7.159208E+04 -1.352048E+04 -1.161560E+05 -6.002062E-09  9.254153E-10
        88  17 -2.833099E+05 -7.891699E+04 -1.875145E+04 -1.208102E+05 -1.922058E-09  9.905404E-10
        88  18 -3.079636E+05 -9.126370E+04 -2.416171E+04 -1.312136E+05 -3.363509E-09  1.162617E-09
        88  19 -1.175150E+05 -2.206803E+04  1.277357E+04 -7.833462E+04 -5.098921E+03  3.852862E+03
        88  20 -9.285876E+04 -9.718328E+03  1.781093E+04 -6.793137E+04 -6.118603E+03  5.876228E+03
        88  21 -6.321894E+04 -2.388110E+03  2.267811E+04 -6.327741E+04 -7.137024E+03  7.895745E+03
        88  22 -1.855978E+05 -4.683036E+04 -3.734234E+02 -9.724636E+04 -1.921152E+03  5.045069E+03
        88  23 -1.880890E+05 -4.431803E+04 -4.700241E+02 -9.437264E+04 -2.946470E+03  7.066466E+03
        88  24 -1.855985E+05 -4.682632E+04 -7.412584E+02 -9.724847E+04 -3.970522E+03  9.084024E+03
        88  25 -2.536751E+05 -7.159204E+04 -1.352041E+04 -1.161560E+05  1.256216E+03  6.237127E+03
        88  26 -2.833098E+05 -7.891692E+04 -1.875133E+04 -1.208102E+05  2.251411E+02  8.256509E+03
        88  27 -3.079636E+05 -9.126358E+04 -2.416152E+04 -1.312136E+05 -8.046614E+02  1.027206E+04
        89   1 -4.506512E+04  4.229571E+03  2.609998E+04 -5.826638E+04  7.746975E+03 -9.067249E+03
        89   2 -2.037048E+04  1.658032E+04  3.051970E+04 -4.787007E+04  9.300431E+03 -1.086140E+04
        89   3  9.208693E+03  2.383909E+04  3.434784E+04 -4.322370E+04  1.083560E+04 -1.260591E+04
        89   4 -1.856216E+05 -4.682303E+04 -9.602655E+02 -9.725761E+04  4.572570E+03 -1.025862E+04
        89   5 -1.880619E+05 -4.429675E+04 -1.695967E+03 -9.437306E+04  6.200397E+03 -1.202512E+04
        89   6 -1.856330E+05 -4.687736E+04 -3.082247E+03 -9.723888E+04  7.809896E+03 -1.374198E+04
        89   7 -3.261575E+05 -9.787385E+04 -2.802131E+04 -1.362406E+05  1.398936E+03 -1.144970E+04
        89   8 -3.557233E+05 -1.051710E+05 -3.391258E+04 -1.408642E+05  3.101275E+03 -1.318850E+04
        89   9 -3.804334E+05 -1.175898E+05 -4.051344E+04 -1.512379E+05  4.785233E+03 -1.487767E+04
        89  10 -4.506521E+04  4.229466E+03  2.609972E+04 -5.826632E+04  4.361818E-09  1.069539E-09
        89  11 -2.037061E+04  1.658017E+04  3.051931E+04 -4.786999E+04 -8.495117E-09 -2.458421E-09
        89  12  9.208525E+03  2.383889E+04  3.434732E+04 -4.322359E+04 -8.804177E-09 -1.078694E-09
        89  13 -1.856216E+05 -4.682315E+04 -9.605025E+02 -9.725757E+04 -3.294509E-09 -2.386167E-10
        89  14 -1.880620E+05 -4.429691E+04 -1.696311E+03 -9.437300E+04 -7.880188E-09 -2.636142E-09
        89  15 -1.856331E+05 -4.687758E+04 -3.082717E+03 -9.723879E+04 -1.127987E-09 -3.579243E-10
        89  16 -3.261575E+05 -9.787399E+04 -2.802156E+04 -1.362406E+05 -1.182451E-08 -1.426701E-09
        89  17 -3.557233E+05 -1.051712E+05 -3.391293E+04 -1.408642E+05 -1.036483E-08 -2.718785E-09
        89  18 -3.804335E+05 -1.175900E+05 -4.051390E+04 -1.512378E+05  5.405905E-10  7.145814E-10
        89  19 -4.506512E+04  4.229571E+03  2.609998E+04 -5.826638E+04 -7.746975E+03  9.067249E+03
        89  20 -2.037048E+04  1.658032E+04  3.051970E+04 -4.787007E+04 -9.300431E+03  1.086140E+04
        89  21  9.208693E+03  2.383909E+04  3.434784E+04 -4.322370E+04 -1.083560E+04  1.260591E+04
        89  22 -1.856216E+05 -4.682303E+04 -9.602655E+02 -9.725761E+04 -4.572570E+03  1.025862E+04
        89  23 -1.880619E+05 -4.429675E+04 -1.695967E+03 -9.437306E+04 -6.200397E+03  1.202512E+04
        89  24 -1.856330E+05 -4.687736E+04 -3.082247E+03 -9.723888E+04 -7.809896E+03  1.374198E+04
        89  25 -3.261575E+05 -9.787385E+04 -2.802131E+04 -1.362406E+05 -1.398936E+03  1.144970E+04
        89  26 -3.557233E+05 -1.051710E+05 -3.391258E+04 -1.408642E+05 -3.101275E+03  1.318850E+04
        89  27 -3.804334E+05 -1.175898E+05 -4.051344E+04 -1.512379E+05 -4.785233E+03  1.487767E+04
        90   1  2.742792E+04  3.033673E+04  3.698818E+04 -3.852572E+04  1.198237E+04 -1.356501E+04
        90   2  5.188118E+04  4.292818E+04  3.910979E+04 -2.733685E+04  1.539476E+04 -1.428273E+04
        90   3  8.032631E+04  4.882820E+04  3.872787E+04 -2.151372E+04  1.855668E+04 -1.433176E+04
        90   4 -1.858061E+05 -4.679808E+04 -4.096511E+03 -9.733249E+04  8.840842E+03 -1.474474E+04
        90   5 -1.878761E+05 -4.457143E+04 -7.471463E+03 -9.419278E+04  1.325843E+04 -1.508547E+04
        90   6 -1.861551E+05 -4.923646E+04 -1.414743E+04 -9.641959E+04  1.742537E+04 -1.475742E+04
        90   7 -3.989947E+05 -1.239297E+05 -4.518366E+04 -1.561211E+05  5.700443E+03 -1.592405E+04
        90   8 -4.275749E+05 -1.320663E+05 -5.405555E+04 -1.610251E+05  1.112298E+04 -1.588789E+04
        90   9 -4.525632E+05 -1.472946E+05 -6.702610E+04 -1.712956E+05  1.629459E+04 -1.518289E+04
        90  10  2.742771E+04  3.033649E+04  3.698756E+04 -3.852559E+04  2.708695E-09  2.355423E-09
        90  11  5.188087E+04  4.292790E+04  3.910896E+04 -2.733668E+04  1.898899E-09  4.884542E-10
        90  12  8.032588E+04  4.882788E+04  3.872684E+04 -2.151350E+04 -1.007078E-09  6.136082E-10
        90  13 -1.858062E+05 -4.679834E+04 -4.097066E+03 -9.733238E+04  4.943731E-09  8.029965E-10
        90  14 -1.878764E+05 -4.457172E+04 -7.472221E+03 -9.419262E+04  1.412304E-09  4.543732E-12
        90  15 -1.861555E+05 -4.923677E+04 -1.414841E+04 -9.641939E+04  2.022021E-09  2.261500E-10
        90  16 -3.989948E+05 -1.239300E+05 -4.518419E+04 -1.561210E+05 -3.676067E-11 -8.287393E-10
        90  17 -4.275751E+05 -1.320666E+05 -5.405626E+04 -1.610249E+05 -1.501458E-09 -5.550436E-10
        90  18 -4.525635E+05 -1.472949E+05 -6.702703E+04 -1.712954E+05  1.265312E-09  4.041036E-10
        90  19  2.742792E+04  3.033673E+04  3.698818E+04 -3.852572E+04 -1.198237E+04  1.356501E+04
        90  20  5.188118E+04  4.292818E+04  3.910979E+04 -2.733685E+04 -1.539476E+04  1.428273E+04
        90  21  8.032631E+04  4.882820E+04  3.872787E+04 -2.151372E+04 -1.855668E+04  1.433176E+04
        90  22 -1.858061E+05 -4.679808E+04 -4.096511E+03 -9.733249E+04 -8.840842E+03  1.474474E+04
        90  23 -1.878761E+05 -4.457143E+04 -7.471463E+03 -9.419278E+04 -1.325843E+04  1.508547E+04
        90  24 -1.861551E+05 -4.923646E+04 -1.414743E+04 -9.641959E+04 -1.742537E+04  1.475742E+04
        90  25 -3.989947E+05 -1.239297E+05 -4.518366E+04 -1.561211E+05 -5.700443E+03  1.592405E+04
        90  26 -4.275749E+05 -1.320663E+05 -5.405555E+04 -1.610251E+05 -1.112298E+04  1.588789E+04
        90  27 -4.525632E+05 -1.472946E+05 -6.702610E+04 -1.712956E+05 -1.629459E+04  1.518289E+04
        91   1  1.008631E+05  5.297911E+04  3.815812E+04 -2.286319E+04  2.269446E+04 -1.403457E+04
        91   2  1.140111E+05  7.167904E+04  3.199163E+04  1.011372E+04  2.628873E+04 -9.546586E+03
        91   3  1.167472E+05  4.768663E+04  1.190597E+04  4.802162E+04  2.646058E+04  4.052047E+03
        91   4 -1.884759E+05 -4.757390E+04 -1.860391E+04 -9.797225E+04  1.997051E+04 -1.505827E+04
        91   5 -1.860927E+05 -5.448570E+04 -3.499438E+04 -8.931597E+04  3.727710E+04 -5.421048E+03
        91   6 -1.968465E+05 -1.068206E+05 -7.617480E+04 -7.572799E+04  5.115986E+04  1.332837E+04
        91   7 -4.777282E+05 -1.481214E+05 -7.536963E+04 -1.730497E+05  1.724793E+04 -1.608151E+04
        91   8 -4.860994E+05 -1.806332E+05 -1.019842E+05 -1.886973E+05  4.825961E+04 -1.298422E+03
        91   9 -5.103314E+05 -2.612941E+05 -1.642595E+05 -1.994105E+05  7.584493E+04  2.259565E+04
        91  10  1.008625E+05  5.297876E+04  3.815678E+04 -2.286293E+04 -3.536294E-09  1.429988E-09
        91  11  1.140104E+05  7.167876E+04  3.199016E+04  1.011392E+04  3.436243E-09  4.314769E-09
        91  12  1.167465E+05  4.768642E+04  1.190462E+04  4.802154E+04  8.799950E-09  4.250053E-09
        91  13 -1.884764E+05 -4.757425E+04 -1.860509E+04 -9.797201E+04  5.219454E-09  2.260788E-09
        91  14 -1.860942E+05 -5.448610E+04 -3.499704E+04 -8.931581E+04  1.061463E-08  3.183936E-09
        91  15 -1.968494E+05 -1.068215E+05 -7.618006E+04 -7.572854E+04  4.979662E-09  2.554844E-09
        91  16 -4.777285E+05 -1.481218E+05 -7.537067E+04 -1.730494E+05  7.819656E-09  3.712699E-09
        91  17 -4.861020E+05 -1.806338E+05 -1.019886E+05 -1.886972E+05  4.008922E-09  5.470190E-09
        91  18 -5.103377E+05 -2.612962E+05 -1.642713E+05 -1.994119E+05 -2.039362E-09 -1.166038E-09
        91  19  1.008631E+05  5.297911E+04  3.815812E+04 -2.286319E+04 -2.269446E+04  1.403457E+04
        91  20  1.140111E+05  7.167904E+04  3.199163E+04  1.011372E+04 -2.628873E+04  9.546586E+03
        91  21  1.167472E+05  4.768663E+04  1.190597E+04  4.802162E+04 -2.646058E+04 -4.052047E+03
        91  22 -1.884759E+05 -4.757390E+04 -1.860391E+04 -9.797225E+04 -1.997051E+04  1.505827E+04
        91  23 -1.860927E+05 -5.448570E+04 -3.499438E+04 -8.931597E+04 -3.727710E+04  5.421048E+03
        91  24 -1.968465E+05 -1.068206E+05 -7.617480E+04 -7.572799E+04 -5.115986E+04 -1.332837E+04
        91  25 -4.777282E+05 -1.481214E+05 -7.536963E+04 -1.730497E+05 -1.724793E+04  1.608151E+04
        91  26 -4.860994E+05 -1.806332E+05 -1.019842E+05 -1.886973E+05 -4.825961E+04  1.298422E+03
        91  27 -5.103314E+05 -2.612941E+05 -1.642595E+05 -1.994105E+05 -7.584493E+04 -2.259565E+04
        92   1  8.650810E+05  1.346796E+05  1.199130E+05  1.689962E+04  3.775254E+04 -9.937717E+03
        92   2  8.290181E+05  1.481875E+05  9.856528E+04  2.946545E+04  1.623615E+04 -3.445999E+04
        92   3  7.922794E+05  1.477037E+05  8.773410E+04  4.697744E+04 -5.289546E+03 -4.386663E+04
        92   4  1.298522E+05 -4.602484E+04 -4.913182E+04  4.738575E+04 -3.463048E+04 -1.000396E+04
        92   5  1.331606E+05 -1.551138E+04 -2.465682E+04  4.489031E+04 -2.201074E+04 -3.450209E+04
        92   6  1.298652E+05 -4.922814E+03 -1.335899E+04  4.734074E+04 -9.401980E+03 -4.387575E+04
        92   7 -6.048636E+05 -2.267606E+05 -2.181922E+05  7.783541E+04 -1.069285E+05 -1.007735E+04
        92   8 -5.622206E+05 -1.792352E+05 -1.478912E+05  6.029727E+04 -6.021604E+04 -3.454612E+04
        92   9 -5.321102E+05 -1.575704E+05 -1.144614E+05  4.770351E+04 -1.351020E+04 -4.388489E+04
        92  10  8.650794E+05  1.346791E+05  1.199102E+05  1.689992E+04  6.197799E-09 -1.470766E-09
        92  11  8.290175E+05  1.481862E+05  9.856256E+04  2.946590E+04  8.989670E-09 -4.916361E-09
        92  12  7.922789E+05  1.477016E+05  8.773043E+04  4.697725E+04  6.337667E-10 -2.998088E-09
        92  13  1.298509E+05 -4.602526E+04 -4.913426E+04  4.738547E+04 -1.860702E-09  7.209876E-12
        92  14  1.331598E+05 -1.551279E+04 -2.465996E+04  4.488970E+04 -1.198434E-09 -2.838277E-09
        92  15  1.298646E+05 -4.924905E+03 -1.336277E+04  4.734041E+04 -3.024989E-09 -6.054450E-10
        92  16 -6.048759E+05 -2.267638E+05 -2.182139E+05  7.783455E+04 -7.312284E-09 -6.323293E-11
        92  17 -5.622248E+05 -1.792374E+05 -1.479003E+05  6.029559E+04 -4.722458E-09 -3.530642E-09
        92  18 -5.321109E+05 -1.575725E+05 -1.144654E+05  4.770303E+04 -1.755530E-09 -2.881838E-09
        92  19  8.650810E+05  1.346796E+05  1.199130E+05  1.689962E+04 -3.775254E+04  9.937717E+03
        92  20  8.290181E+05  1.481875E+05  9.856528E+04  2.946545E+04 -1.623615E+04  3.445999E+04
        92  21  7.922794E+05  1.477037E+05  8.773410E+04  4.697744E+04  5.289546E+03  4.386663E+04
        92  22  1.298522E+05 -4.602484E+04 -4.913182E+04  4.738575E+04  3.463048E+04  1.000396E+04
        92  23  1.331606E+05 -1.551138E+04 -2.465682E+04  4.489031E+04  2.201074E+04  3.450209E+04
        92  24  1.298652E+05 -4.922814E+03 -1.335899E+04  4.734074E+04  9.401980E+03  4.387575E+04
        92  25 -6.048636E+05 -2.267606E+05 -2.181922E+05  7.783541E+04  1.069285E+05  1.007735E+04
        92  26 -5.622206E+05 -1.792352E+05 -1.478912E+05  6.029727E+04  6.021604E+04  3.454612E+04
        92  27 -5.321102E+05 -1.575704E+05 -1.144614E+05  4.770351E+04  1.351020E+04  4.388489E+04
        93   1  7.700349E+05  1.429376E+05  8.459969E+04  4.607187E+04 -4.179294E+03 -4.428773E+04
        93   2  7.338051E+05  1.362342E+05  7.916744E+04  4.416893E+04 -5.803630E+03 -4.487632E+04
        93   3  6.975374E+05  1.285124E+05  7.454054E+04  4.831514E+04 -7.430595E+03 -4.354317E+04
        93   4  1.311621E+05 -3.681237E+03 -9.992291E+03  4.758821E+04 -7.667973E+03 -4.429630E+04
        93   5  1.315650E+05 -1.065373E+03 -5.413790E+03  4.456113E+04 -4.954482E+03 -4.487965E+04
        93   6  1.311763E+05 -2.210906E+02 -3.041214E+03  4.758362E+04 -2.243634E+03 -4.354028E+04
        93   7 -5.073005E+05 -1.503191E+05 -1.045917E+05  4.910279E+04 -1.115321E+04 -4.430490E+04
        93   8 -4.703078E+05 -1.383811E+05 -8.999979E+04  4.495282E+04 -4.106118E+03 -4.488298E+04
        93   9 -4.348589E+05 -1.289686E+05 -8.062631E+04  4.685268E+04  2.938814E+03 -4.353740E+04
        93  10  7.700343E+05  1.429355E+05  8.459597E+04  4.607172E+04 -9.076943E-10 -2.854126E-09
        93  11  7.338045E+05  1.362320E+05  7.916359E+04  4.416872E+04  3.605222E-08 -6.464134E-10
        93  12  6.975368E+05  1.285104E+05  7.453687E+04  4.831488E+04  6.976627E-08 -1.320275E-09
        93  13  1.311615E+05 -3.683360E+03 -9.996089E+03  4.758793E+04  3.114542E-10  8.039867E-10
        93  14  1.315645E+05 -1.067542E+03 -5.417621E+03  4.456095E+04  9.190634E-10  8.632569E-09
        93  15  1.311758E+05 -2.231278E+02 -3.044787E+03  4.758354E+04  1.163659E-09  1.326893E-08
        93  16 -5.073012E+05 -1.503213E+05 -1.045956E+05  4.910239E+04  1.158148E-09  6.030878E-10
        93  17 -4.703084E+05 -1.383833E+05 -9.000361E+04  4.495267E+04 -3.811747E-08  4.745910E-10
        93  18 -4.348594E+05 -1.289706E+05 -8.062989E+04  4.685278E+04 -6.832721E-08 -2.534870E-09
        93  19  7.700349E+05  1.429376E+05  8.459969E+04  4.607187E+04  4.179294E+03  4.428773E+04
        93  20  7.338051E+05  1.362342E+05  7.916744E+04  4.416893E+04  5.803630E+03  4.487632E+04
        93  21  6.975374E+05  1.285124E+05  7.454054E+04  4.831514E+04  7.430595E+03  4.354317E+04
        93  22  1.311621E+05 -3.681237E+03 -9.992291E+03  4.758821E+04  7.667973E+03  4.429630E+04
        93  23  1.315650E+05 -1.065373E+03 -5.413790E+03  4.456113E+04  4.954482E+03  4.487965E+04
        93  24  1.311763E+05 -2.210906E+02 -3.041214E+03  4.758362E+04  2.243634E+03  4.354028E+04
        93  25 -5.073005E+05 -1.503191E+05 -1.045917E+05  4.910279E+04  1.115321E+04  4.430490E+04
        93  26 -4.703078E+05 -1.383811E+05 -8.999979E+04  4.495282E+04  4.106118E+03  4.488298E+04
        93  27 -4.348589E+05 -1.289686E+05 -8.062631E+04  4.685268E+04 -2.938814E+03  4.353740E+04
        94   1  6.750566E+05  1.233611E+05  7.171545E+04  4.818778E+04 -7.058241E+03 -4.212506E+04
        94   2  6.388576E+05  1.152136E+05  6.726581E+04  4.511870E+04 -6.970939E+03 -3.967178E+04
        94   3  6.026340E+05  1.070304E+05  6.274919E+04  4.823358E+04 -6.884724E+03 -3.697460E+04
        94   4  1.313299E+05 -1.344884E+02 -2.294726E+03  4.761385E+04 -1.793134E+03 -4.212156E+04
        94   5  1.313969E+05  5.638123E+01 -1.288679E+03  4.452154E+04 -1.155718E+03 -3.966668E+04
        94   6  1.313424E+05  1.161567E+02 -7.317543E+02  4.761348E+04 -5.193834E+02 -3.696779E+04
        94   7 -4.120962E+05 -1.236429E+05 -7.630779E+04  4.704035E+04  3.467577E+03 -4.211806E+04
        94   8 -3.758017E+05 -1.151119E+05 -6.984546E+04  4.392480E+04  4.654973E+03 -3.966158E+04
        94   9 -3.397230E+05 -1.068076E+05 -6.421457E+04  4.699378E+04  5.841351E+03 -3.696099E+04
        94  10  6.750561E+05  1.233592E+05  7.171202E+04  4.818754E+04 -7.420272E-08 -3.909562E-10
        94  11  6.388572E+05  1.152119E+05  6.726276E+04  4.511848E+04 -3.811296E-08  2.089536E-09
        94  12  6.026336E+05  1.070289E+05  6.274653E+04  4.823338E+04 -7.490252E-10  6.490076E-10
        94  13  1.313294E+05 -1.363945E+02 -2.298067E+03  4.761379E+04 -7.861521E-10  1.320413E-08
        94  14  1.313965E+05  5.469117E+01 -1.291638E+03  4.452151E+04 -1.256972E-09  1.161351E-08
        94  15  1.313420E+05  1.146890E+02 -7.343231E+02  4.761346E+04 -3.365577E-10  5.607026E-09
        94  16 -4.120967E+05 -1.236448E+05 -7.631115E+04  4.704047E+04  7.219730E-08 -1.354691E-09
        94  17 -3.758021E+05 -1.151136E+05 -6.984846E+04  4.392495E+04  4.005155E-08  1.773894E-09
        94  18 -3.397234E+05 -1.068091E+05 -6.421720E+04  4.699395E+04  1.318720E-09  1.547671E-10
        94  19  6.750566E+05  1.233611E+05  7.171545E+04  4.818778E+04  7.058241E+03  4.212506E+04
        94  20  6.388576E+05  1.152136E+05  6.726581E+04  4.511870E+04  6.970939E+03  3.967178E+04
        94  21  6.026340E+05  1.070304E+05  6.274919E+04  4.823358E+04  6.884724E+03  3.697460E+04
        94  22  1.313299E+05 -1.344884E+02 -2.294726E+03  4.761385E+04  1.793134E+03  4.212156E+04
        94  23  1.313969E+05  5.638123E+01 -1.288679E+03  4.452154E+04  1.155718E+03  3.966668E+04
        94  24  1.313424E+05  1.161567E+02 -7.317543E+02  4.761348E+04  5.193834E+02  3.696779E+04
        94  25 -4.120962E+05 -1.236429E+05 -7.630779E+04  4.704035E+04 -3.467577E+03  4.211806E+04
        94  26 -3.758017E+05 -1.151119E+05 -6.984546E+04  4.392480E+04 -4.654973E+03  3.966158E+04
        94  27 -3.397230E+05 -1.068076E+05 -6.421457E+04  4.699378E+04 -5.841351E+03  3.696099E+04
        95   1  5.801511E+05  1.018973E+05  5.973138E+04  4.819738E+04 -6.781475E+03 -3.532355E+04
        95   2  5.439691E+05  9.369061E+04  5.510022E+04  4.505955E+04 -6.701389E+03 -3.248487E+04
        95   3  5.077707E+05  8.550709E+04  5.041878E+04  4.811912E+04 -6.622005E+03 -2.961561E+04
        95   4  1.313665E+05  1.208254E+02 -5.518572E+02  4.761650E+04 -4.070304E+02 -3.531623E+04
        95   5  1.313868E+05  1.247538E+02 -3.081449E+02  4.451767E+04 -2.582134E+02 -3.247669E+04
        95   6  1.313767E+05  1.397360E+02 -1.627550E+02  4.761648E+04 -1.100938E+02 -2.960656E+04
        95   7 -3.172129E+05 -1.016642E+05 -6.083673E+04  4.703597E+04  5.963023E+03 -3.530893E+04
        95   8 -2.810221E+05 -9.344839E+04 -5.571786E+04  4.397610E+04  6.180882E+03 -3.246853E+04
        95   9 -2.448728E+05 -8.523368E+04 -5.074539E+04  4.711409E+04  6.398054E+03 -2.959752E+04
        95  10  5.801507E+05  1.018959E+05  5.972895E+04  4.819718E+04 -1.825961E-08  5.296563E-10
        95  11  5.439688E+05  9.368947E+04  5.509815E+04  4.505937E+04 -1.478531E-08  5.689795E-09
        95  12  5.077704E+05  8.550613E+04  5.041705E+04  4.811896E+04 -1.618607E-08  7.383369E-09
        95  13  1.313662E+05  1.194860E+02 -5.542015E+02  4.761648E+04 -1.758149E-09 -2.098062E-09
        95  14  1.313865E+05  1.236211E+02 -3.101272E+02  4.451766E+04  2.028610E-09 -4.662275E-09
        95  15  1.313765E+05  1.387947E+02 -1.644023E+02  4.761647E+04  3.894669E-10 -1.271988E-08
        95  16 -3.172133E+05 -1.016656E+05 -6.083914E+04  4.703614E+04  1.763636E-08 -7.753707E-11
        95  17 -2.810224E+05 -9.344954E+04 -5.571991E+04  4.397626E+04  1.794044E-08  2.281534E-09
        95  18 -2.448731E+05 -8.523463E+04 -5.074712E+04  4.711424E+04  1.810616E-08  3.957351E-09
        95  19  5.801511E+05  1.018973E+05  5.973138E+04  4.819738E+04  6.781475E+03  3.532355E+04
        95  20  5.439691E+05  9.369061E+04  5.510022E+04  4.505955E+04  6.701389E+03  3.248487E+04
        95  21  5.077707E+05  8.550709E+04  5.041878E+04  4.811912E+04  6.622005E+03  2.961561E+04
        95  22  1.313665E+05  1.208254E+02 -5.518572E+02  4.761650E+04  4.070304E+02  3.531623E+04
        95  23  1.313868E+05  1.247538E+02 -3.081449E+02  4.451767E+04  2.582134E+02  3.247669E+04
        95  24  1.313767E+05  1.397360E+02 -1.627550E+02  4.761648E+04  1.100938E+02  2.960656E+04
        95  25 -3.172129E+05 -1.016642E+05 -6.083673E+04  4.703597E+04 -5.963023E+03  3.530893E+04
        95  26 -2.810221E+05 -9.344839E+04 -5.571786E+04  4.397610E+04 -6.180882E+03  3.246853E+04
        95  27 -2.448728E+05 -8.523368E+04 -5.074539E+04  4.711409E+04 -6.398054E+03  2.959752E+04
        96   1  4.852951E+05  8.038577E+04  4.731977E+04  4.809421E+04 -6.599903E+03 -2.793558E+04
        96   2  4.491279E+05  7.218767E+04  4.259824E+04  4.495363E+04 -6.594171E+03 -2.504921E+04
        96   3  4.129471E+05  6.401421E+04  3.787286E+04  4.801320E+04 -6.588947E+03 -2.215983E+04
        96   4  1.313830E+05  1.420342E+02 -1.123673E+02  4.761708E+04 -8.753855E+01 -2.792613E+04
        96   5  1.313948E+05  1.357015E+02 -3.393156E+01  4.451692E+04 -7.515747E+01 -2.503916E+04
        96   6  1.313909E+05  1.530326E+02  3.609565E+01  4.761707E+04 -6.328437E+01 -2.214918E+04
        96   7 -2.224013E+05 -8.010704E+04 -4.754543E+04  4.714018E+04  6.421287E+03 -2.791669E+04
        96   8 -1.862353E+05 -7.192057E+04 -4.266682E+04  4.408038E+04  6.440676E+03 -2.502912E+04
        96   9 -1.500844E+05 -6.371153E+04 -3.780121E+04  4.722109E+04  6.459558E+03 -2.213854E+04
        96  10  4.852948E+05  8.038492E+04  4.731822E+04  4.809406E+04  2.231092E-08  3.837534E-09
        96  11  4.491277E+05  7.218698E+04  4.259698E+04  4.495350E+04  1.692380E-08 -6.448579E-10
        96  12  4.129469E+05  6.401367E+04  3.787186E+04  4.801308E+04  9.205300E-09 -2.438724E-09
        96  13  1.313828E+05  1.411967E+02 -1.138329E+02  4.761708E+04  5.054880E-10 -9.770155E-09
        96  14  1.313947E+05  1.350282E+02 -3.510983E+01  4.451691E+04  1.970186E-09 -9.729603E-09
        96  15  1.313908E+05  1.525058E+02  3.517368E+01  4.761707E+04 -1.998471E-09 -4.734774E-09
        96  16 -2.224015E+05 -8.010789E+04 -4.754697E+04  4.714032E+04 -2.140726E-08  5.314841E-09
        96  17 -1.862355E+05 -7.192126E+04 -4.266808E+04  4.408051E+04 -1.601812E-08 -9.024377E-10
        96  18 -1.500846E+05 -6.371207E+04 -3.780221E+04  4.722121E+04 -7.840137E-09 -2.701174E-09
        96  19  4.852951E+05  8.038577E+04  4.731977E+04  4.809421E+04  6.599903E+03  2.793558E+04
        96  20  4.491279E+05  7.218767E+04  4.259824E+04  4.495363E+04  6.594171E+03  2.504921E+04
        96  21  4.129471E+05  6.401421E+04  3.787286E+04  4.801320E+04  6.588947E+03  2.215983E+04
        96  22  1.313830E+05  1.420342E+02 -1.123673E+02  4.761708E+04  8.753855E+01  2.792613E+04
        96  23  1.313948E+05  1.357015E+02 -3.393156E+01  4.451692E+04  7.515747E+01  2.503916E+04
        96  24  1.313909E+05  1.530326E+02  3.609565E+01  4.761707E+04  6.328437E+01  2.214918E+04
        96  25 -2.224013E+05 -8.010704E+04 -4.754543E+04  4.714018E+04 -6.421287E+03  2.791669E+04
        96  26 -1.862353E+05 -7.192057E+04 -4.266682E+04  4.408038E+04 -6.440676E+03  2.502912E+04
        96  27 -1.500844E+05 -6.371153E+04 -3.780121E+04  4.722109E+04 -6.459558E+03  2.213854E+04
        97   1  3.904821E+05  5.889636E+04  3.476689E+04  4.798853E+04 -6.600635E+03 -2.047709E+04
        97   2  3.543213E+05  5.070674E+04  3.006859E+04  4.483799E+04 -6.679541E+03 -1.758855E+04
        97   3  3.181582E+05  4.256061E+04  2.542488E+04  4.788475E+04 -6.758790E+03 -1.470435E+04
        97   4  1.313963E+05  1.557385E+02  7.326618E+01  4.761643E+04 -7.561300E+01 -2.046615E+04
        97   5  1.313999E+05  1.547251E+02  1.690944E+02  4.451769E+04 -1.644662E+02 -1.757721E+04
        97   6  1.314018E+05  1.989639E+02  3.263135E+02  4.761636E+04 -2.536650E+02 -1.469262E+04
        97   7 -1.276211E+05 -5.858774E+04 -3.462077E+04  4.724447E+04  6.446814E+03 -2.045521E+04
        97   8 -9.147066E+04 -5.039939E+04 -2.973067E+04  4.419749E+04  6.348379E+03 -1.756588E+04
        97   9 -5.531900E+04 -4.216415E+04 -2.477240E+04  4.734805E+04  6.249594E+03 -1.468089E+04
        97  10  3.904820E+05  5.889590E+04  3.476602E+04  4.798842E+04 -1.141371E-09  8.125367E-10
        97  11  3.543211E+05  5.070639E+04  3.006792E+04  4.483790E+04 -2.737326E-10  1.981562E-09
        97  12  3.181581E+05  4.256036E+04  2.542439E+04  4.788467E+04 -2.706930E-09  2.833200E-09
        97  13  1.313962E+05  1.552887E+02  7.247899E+01  4.761643E+04  2.632352E-09 -1.359750E-09
        97  14  1.313999E+05  1.543934E+02  1.685137E+02  4.451769E+04 -2.393502E-10  7.503018E-10
        97  15  1.314017E+05  1.987321E+02  3.259077E+02  4.761636E+04  1.524355E-09  2.174796E-09
        97  16 -1.276212E+05 -5.858820E+04 -3.462164E+04  4.724457E+04  2.788957E-09  1.845680E-10
        97  17 -9.147078E+04 -5.039974E+04 -2.973133E+04  4.419758E+04  2.841599E-09 -4.415969E-09
        97  18 -5.531910E+04 -4.216440E+04 -2.477288E+04  4.734812E+04  9.359793E-11 -2.577766E-10
        97  19  3.904821E+05  5.889636E+04  3.476689E+04  4.798853E+04  6.600635E+03  2.047709E+04
        97  20  3.543213E+05  5.070674E+04  3.006859E+04  4.483799E+04  6.679541E+03  1.758855E+04
        97  21  3.181582E+05  4.256061E+04  2.542488E+04  4.788475E+04  6.758790E+03  1.470435E+04
        97  22  1.313963E+05  1.557385E+02  7.326618E+01  4.761643E+04  7.561300E+01  2.046615E+04
        97  23  1.313999E+05  1.547251E+02  1.690944E+02  4.451769E+04  1.644662E+02  1.757721E+04
        97  24  1.314018E+05  1.989639E+02  3.263135E+02  4.761636E+04  2.536650E+02  1.469262E+04
        97  25 -1.276211E+05 -5.858774E+04 -3.462077E+04  4.724447E+04 -6.446814E+03  2.045521E+04
        97  26 -9.147066E+04 -5.039939E+04 -2.973067E+04  4.419749E+04 -6.348379E+03  1.756588E+04
        97  27 -5.531900E+04 -4.216415E+04 -2.477240E+04  4.734805E+04 -6.249594E+03  1.468089E+04
        98   1  2.957167E+05  3.745344E+04  2.238879E+04  4.787553E+04 -6.824555E+03 -1.302591E+04
        98   2  2.595219E+05  2.937209E+04  1.791263E+04  4.456295E+04 -7.144027E+03 -1.016308E+04
        98   3  2.234113E+05  2.156366E+04  1.370419E+04  4.744319E+04 -7.463615E+03 -7.336462E+03
        98   4  1.314251E+05  2.128079E+02  4.388640E+02  4.761543E+04 -3.213218E+02 -1.301399E+04
        98   5  1.313785E+05  3.252300E+02  7.911177E+02  4.451852E+04 -7.226785E+02 -1.015108E+04
        98   6  1.314282E+05  7.246926E+02  1.467678E+03  4.761449E+04 -1.124166E+03 -7.324388E+03
        98   7 -3.283889E+04 -3.702895E+04 -2.151112E+04  4.735540E+04  6.180272E+03 -1.300208E+04
        98   8  3.251831E+03 -2.872231E+04 -1.633037E+04  4.447410E+04  5.697407E+03 -1.013908E+04
        98   9  3.945386E+04 -2.011462E+04 -1.076875E+04  4.778575E+04  5.214387E+03 -7.312310E+03
        98  10  2.957166E+05  3.745324E+04  2.238838E+04  4.787546E+04 -4.013068E-09  4.477934E-09
        98  11  2.595219E+05  2.937196E+04  1.791234E+04  4.456289E+04  2.979979E-09  1.412638E-10
        98  12  2.234112E+05  2.156359E+04  1.370398E+04  4.744315E+04  5.542146E-09  3.424874E-09
        98  13  1.314250E+05  2.126259E+02  4.385455E+02  4.761543E+04  2.634943E-09  2.941734E-09
        98  14  1.313784E+05  3.251192E+02  7.909231E+02  4.451852E+04 -2.402706E-09  4.844187E-09
        98  15  1.314282E+05  7.246347E+02  1.467575E+03  4.761448E+04 -1.095909E-10  1.958794E-10
        98  16 -3.283898E+04 -3.702914E+04 -2.151151E+04  4.735546E+04  2.974776E-09  3.349500E-09
        98  17  3.251769E+03 -2.872243E+04 -1.633063E+04  4.447414E+04 -1.803986E-09  3.917819E-09
        98  18  3.945382E+04 -2.011468E+04 -1.076890E+04  4.778578E+04 -8.203643E-09 -3.445783E-09
        98  19  2.957167E+05  3.745344E+04  2.238879E+04  4.787553E+04  6.824555E+03  1.302591E+04
        98  20  2.595219E+05  2.937209E+04  1.791263E+04  4.456295E+04  7.144027E+03  1.016308E+04
        98  21  2.234113E+05  2.156366E+04  1.370419E+04  4.744319E+04  7.463615E+03  7.336462E+03
        98  22  1.314251E+05  2.128079E+02  4.388640E+02  4.761543E+04  3.213218E+02  1.301399E+04
        98  23  1.313785E+05  3.252300E+02  7.911177E+02  4.451852E+04  7.226785E+02  1.015108E+04
        98  24  1.314282E+05  7.246926E+02  1.467678E+03  4.761449E+04  1.124166E+03  7.324388E+03
        98  25 -3.283889E+04 -3.702895E+04 -2.151112E+04  4.735540E+04 -6.180272E+03  1.300208E+04
        98  26  3.251831E+03 -2.872231E+04 -1.633037E+04  4.447410E+04 -5.697407E+03  1.013908E+04
        98  27  3.945386E+04 -2.011462E+04 -1.076875E+04  4.778575E+04 -5.214387E+03  7.312310E+03
        99   1  2.011246E+05  1.661200E+04  1.099706E+04  4.757637E+04 -7.709343E+03 -5.693038E+03
        99   2  1.645616E+05  9.909887E+03  7.547708E+03  4.221860E+04 -8.924481E+03 -3.033446E+03
        99   3  1.288414E+05  6.058383E+03  5.593079E+03  4.302963E+04 -1.013911E+04 -6.581023E+02
        99   4  1.316193E+05  9.074355E+02  1.963916E+03  4.760990E+04 -1.381942E+03 -5.680899E+03
        99   5  1.311429E+05  2.453833E+03  3.626651E+03  4.451982E+04 -3.238574E+03 -3.022515E+03
        99   6  1.316198E+05  6.962385E+03  7.229545E+03  4.759846E+04 -5.094770E+03 -6.483982E+02
        99   7  6.211911E+04 -1.479731E+04 -7.069103E+03  4.764342E+04  4.944786E+03 -5.668758E+03
        99   8  9.772550E+04 -5.002225E+03 -2.942771E+02  4.682092E+04  2.447044E+03 -3.011542E+03
        99   9  1.343983E+05  7.866478E+03  8.866118E+03  5.216731E+04 -5.040005E+01 -6.386199E+02
        99  10  2.011245E+05  1.661195E+04  1.099689E+04  4.757633E+04 -1.450371E-09  4.254756E-09
        99  11  1.645615E+05  9.909856E+03  7.547541E+03  4.221858E+04 -3.712119E-09 -5.096383E-10
        99  12  1.288413E+05  6.058355E+03  5.592885E+03  4.302962E+04  1.859860E-09 -2.381054E-10
        99  13  1.316193E+05  9.074003E+02  1.963852E+03  4.760989E+04  5.882598E-10  5.498873E-09
        99  14  1.311429E+05  2.453821E+03  3.626615E+03  4.451982E+04 -1.418693E-09 -4.380998E-09
        99  15  1.316198E+05  6.962378E+03  7.229496E+03  4.759846E+04 -8.395436E-10  3.805312E-09
        99  16  6.211907E+04 -1.479735E+04 -7.069209E+03  4.764344E+04  2.072595E-09  1.572330E-09
        99  17  9.772550E+04 -5.002237E+03 -2.943054E+02  4.682092E+04 -1.476658E-09  8.671304E-10
        99  18  1.343983E+05  7.866477E+03  8.866117E+03  5.216731E+04 -1.805598E-09 -4.264771E-10
        99  19  2.011246E+05  1.661200E+04  1.099706E+04  4.757637E+04  7.709343E+03  5.693038E+03
        99  20  1.645616E+05  9.909887E+03  7.547708E+03  4.221860E+04  8.924481E+03  3.033446E+03
        99  21  1.288414E+05  6.058383E+03  5.593079E+03  4.302963E+04  1.013911E+04  6.581023E+02
        99  22  1.316193E+05  9.074355E+02  1.963916E+03  4.760990E+04  1.381942E+03  5.680899E+03
        99  23  1.311429E+05  2.453833E+03  3.626651E+03  4.451982E+04  3.238574E+03  3.022515E+03
        99  24  1.316198E+05  6.962385E+03  7.229545E+03  4.759846E+04  5.094770E+03  6.483982E+02
        99  25  6.211911E+04 -1.479731E+04 -7.069103E+03  4.764342E+04 -4.944786E+03  5.668758E+03
        99  26  9.772550E+04 -5.002225E+03 -2.942771E+02  4.682092E+04 -2.447044E+03  3.011542E+03
        99  27  1.343983E+05  7.866478E+03  8.866118E+03  5.216731E+04  5.040005E+01  6.386199E+02
       100   1  1.112781E+04  4.159374E+05  1.241514E+04 -4.098672E+04 -3.789872E+02  1.958631E+03
       100   2 -3.468287E+03  3.779088E+05  1.776468E+03 -3.417974E+04 -2.074742E+03 -1.585662E+03
       100   3 -1.348938E+04  3.414678E+05 -5.416804E+03 -3.618338E+04 -4.394126E+03 -5.130262E+03
       100   4  7.069334E+03  4.000512E+05  8.048644E+03 -3.653435E+04 -3.809471E+02  4.190129E+03
       100   5  1.449252E+03  3.993451E+05  4.958838E+03 -3.213199E+04 -2.077576E+03  1.649028E+03
       100   6  2.302467E+02  4.000518E+05  4.618305E+03 -3.654012E+04 -4.397798E+03 -8.925622E+02
       100   7  3.010916E+03  3.841653E+05  3.682159E+03 -3.208209E+04 -3.828750E+02  6.421571E+03
       100   8  6.366792E+03  4.207819E+05  8.141241E+03 -3.008416E+04 -2.080388E+03  4.883825E+03
       100   9  1.394970E+04  4.586392E+05  1.465337E+04 -3.689690E+04 -4.401475E+03  3.345524E+03
       100  10  1.112781E+04  4.159374E+05  1.241513E+04 -4.098672E+04  6.576493E-10 -2.089002E-09
       100  11 -3.468292E+03  3.779088E+05  1.776455E+03 -3.417974E+04  6.515443E-10 -2.292826E-09
       100  12 -1.348941E+04  3.414677E+05 -5.416889E+03 -3.618340E+04  7.856487E-10  7.488751E-10
       100  13  7.069329E+03  4.000512E+05  8.048611E+03 -3.653435E+04  8.807318E-10  1.741354E-10
       100  14  1.449247E+03  3.993451E+05  4.958825E+03 -3.213198E+04 -2.322755E-09 -8.657207E-10
       100  15  2.302258E+02  4.000518E+05  4.618267E+03 -3.654013E+04  7.555121E-10 -1.150798E-09
       100  16  3.010905E+03  3.841652E+05  3.682081E+03 -3.208209E+04 -1.513112E-09  2.529770E-09
       100  17  6.366781E+03  4.207818E+05  8.141189E+03 -3.008415E+04  1.448675E-09 -2.676644E-10
       100  18  1.394968E+04  4.586392E+05  1.465331E+04 -3.689689E+04 -9.107118E-10 -5.004371E-10
       100  19  1.112781E+04  4.159374E+05  1.241514E+04 -4.098672E+04  3.789872E+02 -1.958631E+03
       100  20 -3.468287E+03  3.779088E+05  1.776468E+03 -3.417974E+04  2.074742E+03  1.585662E+03
       100  21 -1.348938E+04  3.414678E+05 -5.416804E+03 -3.618338E+04  4.394126E+03  5.130262E+03
       100  22  7.069334E+03  4.000512E+05  8.048644E+03 -3.653435E+04  3.809471E+02 -4.190129E+03
       100  23  1.449252E+03  3.993451E+05  4.958838E+03 -3.213199E+04  2.077576E+03 -1.649028E+03
       100  24  2.302467E+02  4.000518E+05  4.618305E+03 -3.654012E+04  4.397798E+03  8.925622E+02
       100  25  3.010916E+03  3.841653E+05  3.682159E+03 -3.208209E+04  3.828750E+02 -6.421571E+03
       100  26  6.366792E+03  4.207819E+05  8.141241E+03 -3.008416E+04  2.080388E+03 -4.883825E+03
       100  27  1.394970E+04  4.586392E+05  1.465337E+04 -3.689690E+04  4.401475E+03 -3.345524E+03
       101   1 -1.921557E+04  3.167784E+05 -9.472709E+03 -3.700687E+04 -5.969989E+03 -5.910181E+03
       101   2 -2.795126E+04  2.791471E+05 -1.417969E+04 -3.188192E+04 -8.353296E+03 -8.709758E+03
       101   3 -3.504197E+04  2.422773E+05 -1.665763E+04 -3.558182E+04 -1.026087E+04 -1.150861E+04
       101   4  3.131872E+02  3.999354E+05  5.052617E+03 -3.654271E+04 -5.973587E+03 -1.690216E+03
       101   5  3.722217E+02  3.994871E+05  7.141192E+03 -3.212954E+04 -8.356058E+03 -5.255745E+03
       101   6  2.208957E+03  3.999315E+05  1.199007E+04 -3.654107E+04 -1.026284E+04 -8.820709E+03
       101   7  1.984158E+04  4.830993E+05  1.957776E+04 -3.607848E+04 -5.977178E+03  2.530296E+03
       101   8  2.869491E+04  5.198413E+05  2.846158E+04 -3.237721E+04 -8.358822E+03 -1.801083E+03
       101   9  3.945850E+04  5.576100E+05  4.063680E+04 -3.750057E+04 -1.026482E+04 -6.132145E+03
       101  10 -1.921562E+04  3.167783E+05 -9.472842E+03 -3.700690E+04  1.257174E-09  2.794524E-10
       101  11 -2.795135E+04  2.791470E+05 -1.417997E+04 -3.188198E+04  7.799786E-10 -1.769337E-09
       101  12 -3.504212E+04  2.422771E+05 -1.665808E+04 -3.558192E+04  6.455690E-10 -3.507649E-10
       101  13  3.131481E+02  3.999354E+05  5.052544E+03 -3.654272E+04 -1.347803E-09  8.397528E-11
       101  14  3.721393E+02  3.994871E+05  7.141008E+03 -3.212958E+04 -6.708282E-10 -8.626916E-10
       101  15  2.208823E+03  3.999314E+05  1.198972E+04 -3.654115E+04 -3.966264E-10 -1.194268E-09
       101  16  1.984154E+04  4.830992E+05  1.957768E+04 -3.607846E+04  9.085468E-10  2.332976E-10
       101  17  2.869483E+04  5.198413E+05  2.846144E+04 -3.237722E+04 -2.361534E-09 -7.129797E-10
       101  18  3.945837E+04  5.576099E+05  4.063653E+04 -3.750062E+04  1.805628E-09  5.142856E-10
       101  19 -1.921557E+04  3.167784E+05 -9.472709E+03 -3.700687E+04  5.969989E+03  5.910181E+03
       101  20 -2.795126E+04  2.791471E+05 -1.417969E+04 -3.188192E+04  8.353296E+03  8.709758E+03
       101  21 -3.504197E+04  2.422773E+05 -1.665763E+04 -3.558182E+04  1.026087E+04  1.150861E+04
       101  22  3.131872E+02  3.999354E+05  5.052617E+03 -3.654271E+04  5.973587E+03  1.690216E+03
       101  23  3.722217E+02  3.994871E+05  7.141192E+03 -3.212954E+04  8.356058E+03  5.255745E+03
       101  24  2.208957E+03  3.999315E+05  1.199007E+04 -3.654107E+04  1.026284E+04  8.820709E+03
       101  25  1.984158E+04  4.830993E+05  1.957776E+04 -3.607848E+04  5.977178E+03 -2.530296E+03
       101  26  2.869491E+04  5.198413E+05  2.846158E+04 -3.237721E+04  8.358822E+03  1.801083E+03
       101  27  3.945850E+04  5.576100E+05  4.063680E+04 -3.750057E+04  1.026482E+04  6.132145E+03
       102   1 -4.205670E+04  2.193867E+05 -1.796391E+04 -3.981096E+04 -1.163246E+04 -1.439261E+04
       102   2 -4.215826E+04  1.781246E+05 -1.598393E+04 -1.819247E+04 -1.064866E+04 -1.843136E+04
       102   3 -1.273143E+04  1.447645E+05 -3.993614E+03 -4.997479E+03 -3.312679E+03 -2.246548E+04
       102   4  1.106427E+03  4.018811E+05  1.545220E+04 -3.645717E+04 -1.163508E+04 -1.086485E+04
       102   5  1.034632E+04  3.970390E+05  2.757008E+04 -3.222716E+04 -1.064287E+04 -2.512400E+04
       102   6  5.088119E+04  4.018662E+05  5.679000E+04 -3.641955E+04 -3.299280E+03 -3.937887E+04
       102   7  4.426772E+04  5.844080E+05  4.886700E+04 -3.310237E+04 -1.163766E+04 -7.336076E+03
       102   8  6.284874E+04  6.159997E+05  7.112197E+04 -4.626689E+04 -1.063678E+04 -3.181896E+04
       102   9  1.144929E+05  6.590314E+05  1.175706E+05 -6.785470E+04 -3.284173E+03 -5.629923E+04
       102  10 -4.205690E+04  2.193864E+05 -1.796456E+04 -3.981109E+04  1.906896E-09  6.061107E-10
       102  11 -4.215847E+04  1.781242E+05 -1.598479E+04 -1.819263E+04  1.655427E-09 -3.000443E-09
       102  12 -1.273158E+04  1.447639E+05 -3.994583E+03 -4.997539E+03  5.372613E-10 -2.719356E-09
       102  13  1.106250E+03  4.018810E+05  1.545172E+04 -3.645727E+04  1.267139E-09 -4.698274E-11
       102  14  1.034603E+04  3.970383E+05  2.756868E+04 -3.222738E+04  2.465791E-09 -1.023420E-09
       102  15  5.088076E+04  4.018646E+05  5.678707E+04 -3.641966E+04  5.946218E-10 -1.094716E-09
       102  16  4.426756E+04  5.844079E+05  4.886665E+04 -3.310244E+04  1.842446E-09 -8.344939E-11
       102  17  6.284834E+04  6.159985E+05  7.111985E+04 -4.626716E+04 -1.901423E-09  8.422562E-10
       102  18  1.144921E+05  6.590280E+05  1.175647E+05 -6.785485E+04 -5.473918E-10  3.004804E-09
       102  19 -4.205670E+04  2.193867E+05 -1.796391E+04 -3.981096E+04  1.163246E+04  1.439261E+04
       102  20 -4.215826E+04  1.781246E+05 -1.598393E+04 -1.819247E+04  1.064866E+04  1.843136E+04
       102  21 -1.273143E+04  1.447645E+05 -3.993614E+03 -4.997479E+03  3.312679E+03  2.246548E+04
       102  22  1.106427E+03  4.018811E+05  1.545220E+04 -3.645717E+04  1.163508E+04  1.086485E+04
       102  23  1.034632E+04  3.970390E+05  2.757008E+04 -3.222716E+04  1.064287E+04  2.512400E+04
       102  24  5.088119E+04  4.018662E+05  5.679000E+04 -3.641955E+04  3.299280E+03  3.937887E+04
       102  25  4.426772E+04  5.844080E+05  4.886700E+04 -3.310237E+04  1.163766E+04  7.336076E+03
       102  26  6.284874E+04  6.159997E+05  7.112197E+04 -4.626689E+04  1.063678E+04  3.181896E+04
       102  27  1.144929E+05  6.590314E+05  1.175706E+05 -6.785470E+04  3.284173E+03  5.629923E+04
       103   1  9.181101E+05  3.276075E+05  1.630642E+05  3.419992E+05  6.382586E+04  1.312699E+04
       103   2  8.673483E+05  3.038323E+05  1.163122E+05  3.272061E+05  4.133945E+04 -2.132857E+04
       103   3  8.162794E+05  2.895627E+05  9.351918E+04  3.194537E+05  1.305375E+04 -4.034139E+04
       103   4  2.458780E+05  7.967530E+04 -6.499112E+03  1.614304E+05 -6.747682E+02 -1.113275E+04
       103   5  2.496215E+05  8.057915E+04 -3.106910E+03  1.570036E+05  9.505108E+03 -3.330841E+04
       103   6  2.465923E+05  8.452555E+04 -1.610982E+03  1.596174E+05  1.387845E+04 -4.003549E+04
       103   7 -4.258738E+05 -1.682159E+05 -1.760722E+05 -1.895260E+04 -6.509615E+04 -3.536363E+04
       103   8 -3.676924E+05 -1.426349E+05 -1.225342E+05 -1.303814E+04 -2.229456E+04 -4.527545E+04
       103   9 -3.227476E+05 -1.204783E+05 -9.674879E+04 -8.136848E+01  1.470234E+04 -3.972989E+04
       103  10  9.181057E+05  3.276063E+05  1.630563E+05  3.419986E+05  3.010850E-10 -6.469065E-10
       103  11  8.673463E+05  3.038314E+05  1.163081E+05  3.272068E+05 -3.597444E-09 -1.807171E-09
       103  12  8.162788E+05  2.895609E+05  9.351580E+04  3.194541E+05 -2.945594E-09  2.249060E-09
       103  13  2.458780E+05  7.967517E+04 -6.499345E+03  1.614304E+05 -1.816655E-09  7.846101E-10
       103  14  2.496211E+05  8.057793E+04 -3.109165E+03  1.570039E+05 -3.206734E-09 -1.050963E-09
       103  15  2.465916E+05  8.452378E+04 -1.614357E+03  1.596178E+05  1.302459E-09 -2.320399E-09
       103  16 -4.258787E+05 -1.682184E+05 -1.760825E+05 -1.895446E+04 -1.890862E-10 -7.302645E-10
       103  17 -3.676935E+05 -1.426372E+05 -1.225389E+05 -1.303895E+04  9.954132E-10 -1.810108E-09
       103  18 -3.227482E+05 -1.204800E+05 -9.675217E+04 -8.089792E+01  6.728608E-09 -4.092224E-09
       103  19  9.181101E+05  3.276075E+05  1.630642E+05  3.419992E+05 -6.382586E+04 -1.312699E+04
       103  20  8.673483E+05  3.038323E+05  1.163122E+05  3.272061E+05 -4.133945E+04  2.132857E+04
       103  21  8.162794E+05  2.895627E+05  9.351918E+04  3.194537E+05 -1.305375E+04  4.034139E+04
       103  22  2.458780E+05  7.967530E+04 -6.499112E+03  1.614304E+05  6.747682E+02  1.113275E+04
       103  23  2.496215E+05  8.057915E+04 -3.106910E+03  1.570036E+05 -9.505108E+03  3.330841E+04
       103  24  2.465923E+05  8.452555E+04 -1.610982E+03  1.596174E+05 -1.387845E+04  4.003549E+04
       103  25 -4.258738E+05 -1.682159E+05 -1.760722E+05 -1.895260E+04  6.509615E+04  3.536363E+04
       103  26 -3.676924E+05 -1.426349E+05 -1.225342E+05 -1.303814E+04  2.229456E+04  4.527545E+04
       103  27 -3.227476E+05 -1.204783E+05 -9.674879E+04 -8.136848E+01 -1.470234E+04  3.972989E+04
       104   1  7.845846E+05  2.779061E+05  8.634222E+04  3.107717E+05  1.335204E+04 -3.937069E+04
       104   2  7.383269E+05  2.566642E+05  7.495333E+04  2.935185E+05  9.618783E+03 -3.956306E+04
       104   3  6.862573E+05  2.423833E+05  6.617056E+04  2.836503E+05  5.235508E+03 -3.803010E+04
       104   4  2.465967E+05  8.483359E+04 -1.195858E+03  1.598489E+05  1.377632E+04 -3.921518E+04
       104   5  2.498993E+05  8.190713E+04 -6.220359E+02  1.560871E+05  1.369214E+04 -3.803335E+04
       104   6  2.466663E+05  8.521988E+04 -3.309721E+02  1.597100E+05  1.295745E+04 -3.512546E+04
       104   7 -2.910886E+05 -1.082120E+05 -8.874214E+04  9.046754E+03  1.420021E+04 -3.905982E+04
       104   8 -2.382744E+05 -9.282592E+04 -7.620197E+04  1.875650E+04  1.776214E+04 -3.650490E+04
       104   9 -1.927157E+05 -7.192280E+04 -6.683481E+04  3.585227E+04  2.067363E+04 -3.222298E+04
       104  10  7.845840E+05  2.779044E+05  8.633897E+04  3.107721E+05 -6.676752E-08 -2.538904E-08
       104  11  7.383264E+05  2.566625E+05  7.495022E+04  2.935188E+05  1.717729E-08  3.302714E-09
       104  12  6.862569E+05  2.423818E+05  6.616779E+04  2.836505E+05  8.024701E-08  2.566652E-08
       104  13  2.465961E+05  8.483189E+04 -1.199105E+03  1.598494E+05  1.120678E-08  4.144481E-10
       104  14  2.498987E+05  8.190552E+04 -6.251070E+02  1.560876E+05  1.745252E-08  4.330371E-09
       104  15  2.466658E+05  8.521850E+04 -3.336066E+02  1.597104E+05  5.942134E-09  1.392516E-09
       104  16 -2.910892E+05 -1.082137E+05 -8.874538E+04  9.047201E+03  8.716566E-08  2.587066E-08
       104  17 -2.382751E+05 -9.282744E+04 -7.620507E+04  1.875703E+04  2.376433E-08  6.654618E-09
       104  18 -1.927165E+05 -7.192403E+04 -6.683756E+04  3.585280E+04 -6.481373E-08 -2.346832E-08
       104  19  7.845846E+05  2.779061E+05  8.634222E+04  3.107717E+05 -1.335204E+04  3.937069E+04
       104  20  7.383269E+05  2.566642E+05  7.495333E+04  2.935185E+05 -9.618783E+03  3.956306E+04
       104  21  6.862573E+05  2.423833E+05  6.617056E+04  2.836503E+05 -5.235508E+03  3.803010E+04
       104  22  2.465967E+05  8.483359E+04 -1.195858E+03  1.598489E+05 -1.377632E+04  3.921518E+04
       104  23  2.498993E+05  8.190713E+04 -6.220359E+02  1.560871E+05 -1.369214E+04  3.803335E+04
       104  24  2.466663E+05  8.521988E+04 -3.309721E+02  1.597100E+05 -1.295745E+04  3.512546E+04
       104  25 -2.910886E+05 -1.082120E+05 -8.874214E+04  9.046754E+03 -1.420021E+04  3.905982E+04
       104  26 -2.382744E+05 -9.282592E+04 -7.620197E+04  1.875650E+04 -1.776214E+04  3.650490E+04
       104  27 -1.927157E+05 -7.192280E+04 -6.683481E+04  3.585227E+04 -2.067363E+04  3.222298E+04
       105   1  6.554495E+05  2.313261E+05  6.117299E+04  2.750107E+05  4.504860E+03 -3.581220E+04
       105   2  6.097118E+05  2.105460E+05  5.360422E+04  2.575059E+05  2.759702E+03 -3.221595E+04
       105   3  5.575289E+05  1.963575E+05  4.630957E+04  2.474398E+05  9.414616E+02 -2.842812E+04
       105   4  2.466679E+05  8.525338E+04 -2.450917E+02  1.597338E+05  1.217971E+04 -3.292454E+04
       105   5  2.499433E+05  8.202179E+04 -1.244521E+02  1.560089E+05  1.083961E+04 -2.917465E+04
       105   6  2.466897E+05  8.530173E+04 -5.109733E+01  1.597221E+05  9.426365E+03 -2.523309E+04
       105   7 -1.619275E+05 -6.079936E+04 -6.166355E+04  4.452982E+04  1.984913E+04 -3.003893E+04
       105   8 -1.096847E+05 -4.648829E+04 -5.385432E+04  5.456730E+04  1.891458E+04 -2.613520E+04
       105   9 -6.404838E+04 -2.574495E+04 -4.641360E+04  7.204478E+04  1.790689E+04 -2.203971E+04
       105  10  6.554491E+05  2.313248E+05  6.117054E+04  2.750108E+05 -1.162594E-09 -3.579500E-09
       105  11  6.097115E+05  2.105448E+05  5.360225E+04  2.575060E+05 -1.609500E-09 -1.815335E-09
       105  12  5.575286E+05  1.963566E+05  4.630804E+04  2.474399E+05  7.522544E-11  8.303292E-10
       105  13  2.466675E+05  8.525218E+04 -2.474080E+02  1.597341E+05 -1.160547E-09 -7.523778E-11
       105  14  2.499430E+05  8.202084E+04 -1.262727E+02  1.560091E+05  1.519955E-12 -2.815448E-09
       105  15  2.466894E+05  8.530102E+04 -5.246102E+01  1.597223E+05  1.925941E-09  1.548042E-09
       105  16 -1.619282E+05 -6.080044E+04 -6.166599E+04  4.453030E+04  1.662694E-09  4.201450E-09
       105  17 -1.096852E+05 -4.648912E+04 -5.385628E+04  5.456770E+04 -2.858236E-09  2.236486E-09
       105  18 -6.404886E+04 -2.574556E+04 -4.641512E+04  7.204509E+04 -2.442510E-09  8.899473E-10
       105  19  6.554495E+05  2.313261E+05  6.117299E+04  2.750107E+05 -4.504860E+03  3.581220E+04
       105  20  6.097118E+05  2.105460E+05  5.360422E+04  2.575059E+05 -2.759702E+03  3.221595E+04
       105  21  5.575289E+05  1.963575E+05  4.630957E+04  2.474398E+05 -9.414616E+02  2.842812E+04
       105  22  2.466679E+05  8.525338E+04 -2.450917E+02  1.597338E+05 -1.217971E+04  3.292454E+04
       105  23  2.499433E+05  8.202179E+04 -1.244521E+02  1.560089E+05 -1.083961E+04  2.917465E+04
       105  24  2.466897E+05  8.530173E+04 -5.109733E+01  1.597221E+05 -9.426365E+03  2.523309E+04
       105  25 -1.619275E+05 -6.079936E+04 -6.166355E+04  4.452982E+04 -1.984913E+04  3.003893E+04
       105  26 -1.096847E+05 -4.648829E+04 -5.385432E+04  5.456730E+04 -1.891458E+04  2.613520E+04
       105  27 -6.404838E+04 -2.574495E+04 -4.641360E+04  7.204478E+04 -1.790689E+04  2.203971E+04
       106   1  5.268520E+05  1.853706E+05  4.153499E+04  2.388036E+05  7.237050E+01 -2.608122E+04
       106   2  4.812053E+05  1.646606E+05  3.437682E+04  2.212808E+05 -1.495106E+03 -2.208121E+04
       106   3  4.290424E+05  1.504902E+05  2.726123E+04  2.111998E+05 -3.070524E+03 -1.806171E+04
       106   4  2.466927E+05  8.530810E+04 -2.536514E+01  1.597230E+05  8.550414E+03 -2.288820E+04
       106   5  2.499612E+05  8.204989E+04  2.454427E+01  1.560015E+05  7.023917E+03 -1.887200E+04
       106   6  2.467025E+05  8.532279E+04  8.408836E+01  1.597208E+05  5.489476E+03 -1.483633E+04
       106   7 -3.338107E+04 -1.474577E+04 -4.158621E+04  8.067603E+04  1.702442E+04 -1.969670E+04
       106   8  1.877689E+04 -5.543441E+02 -3.432757E+04  9.074558E+04  1.553954E+04 -1.566407E+04
       106   9  6.440120E+04  2.015996E+04 -2.709247E+04  1.082568E+05  1.404672E+04 -1.161198E+04
       106  10  5.268518E+05  1.853699E+05  4.153371E+04  2.388036E+05 -3.278555E-09  2.619268E-09
       106  11  4.812052E+05  1.646601E+05  3.437590E+04  2.212808E+05 -3.365930E-08 -5.977690E-09
       106  12  4.290423E+05  1.504898E+05  2.726060E+04  2.111997E+05 -6.426968E-08 -1.181603E-08
       106  13  2.466925E+05  8.530752E+04 -2.648716E+01  1.597231E+05  1.645618E-10 -2.204345E-10
       106  14  2.499611E+05  8.204950E+04  2.378216E+01  1.560016E+05  9.005973E-09 -9.533766E-09
       106  15  2.467024E+05  8.532254E+04  8.361802E+01  1.597209E+05  3.304709E-11 -1.346163E-08
       106  16 -3.338149E+04 -1.474626E+04 -4.158748E+04  8.067630E+04  4.392593E-09  1.337284E-09
       106  17  1.877656E+04 -5.546724E+02 -3.432849E+04  9.074578E+04  2.982134E-08  1.821107E-08
       106  18  6.440095E+04  2.015976E+04 -2.709309E+04  1.082569E+05  4.519208E-08  2.352928E-08
       106  19  5.268520E+05  1.853706E+05  4.153499E+04  2.388036E+05 -7.237050E+01  2.608122E+04
       106  20  4.812053E+05  1.646606E+05  3.437682E+04  2.212808E+05  1.495106E+03  2.208121E+04
       106  21  4.290424E+05  1.504902E+05  2.726123E+04  2.111998E+05  3.070524E+03  1.806171E+04
       106  22  2.466927E+05  8.530810E+04 -2.536514E+01  1.597230E+05 -8.550414E+03  2.288820E+04
       106  23  2.499612E+05  8.204989E+04  2.454427E+01  1.560015E+05 -7.023917E+03  1.887200E+04
       106  24  2.467025E+05  8.532279E+04  8.408836E+01  1.597208E+05 -5.489476E+03  1.483633E+04
       106  25 -3.338107E+04 -1.474577E+04 -4.158621E+04  8.067603E+04 -1.702442E+04  1.969670E+04
       106  26  1.877689E+04 -5.543441E+02 -3.432757E+04  9.074558E+04 -1.553954E+04  1.566407E+04
       106  27  6.440120E+04  2.015996E+04 -2.709247E+04  1.082568E+05 -1.404672E+04  1.161198E+04
       107   1  3.983952E+05  1.395102E+05  2.252924E+04  2.025683E+05 -3.974748E+03 -1.570979E+04
       107   2  3.527688E+05  1.188064E+05  1.548068E+04  1.850540E+05 -5.597464E+03 -1.170223E+04
       107   3  3.006278E+05  1.046392E+05  8.506445E+03  1.749815E+05 -7.217046E+03 -7.703690E+03
       107   4  2.467090E+05  8.532489E+04  1.221762E+02  1.597223E+05  4.583656E+03 -1.248469E+04
       107   5  2.499668E+05  8.205585E+04  2.366970E+02  1.560019E+05  2.941670E+03 -8.484027E+03
       107   6  2.467122E+05  8.532726E+04  4.408691E+02  1.597226E+05  1.302817E+03 -4.492407E+03
       107   7  9.504599E+04  3.114145E+04 -2.228534E+04  1.168856E+05  1.313996E+04 -9.260374E+03
       107   8  1.471757E+05  4.530620E+04 -1.500727E+04  1.269542E+05  1.147937E+04 -5.266365E+03
       107   9  1.927999E+05  6.601572E+04 -7.624436E+03  1.444651E+05  9.821904E+03 -1.281418E+03
       107  10  3.983951E+05  1.395099E+05  2.252875E+04  2.025683E+05  1.106835E-07  5.443335E-08
       107  11  3.527687E+05  1.188063E+05  1.548036E+04  1.850540E+05  3.140992E-08  2.293071E-08
       107  12  3.006278E+05  1.046391E+05  8.506236E+03  1.749814E+05 -5.373891E-08 -1.670379E-08
       107  13  2.467089E+05  8.532471E+04  1.218438E+02  1.597223E+05  1.803682E-09 -1.188661E-08
       107  14  2.499667E+05  8.205577E+04  2.365455E+02  1.560019E+05  1.010991E-08  8.826278E-10
       107  15  2.467122E+05  8.532723E+04  4.408280E+02  1.597226E+05  1.077997E-08  5.309958E-09
       107  16  9.504578E+04  3.114131E+04 -2.228583E+04  1.168857E+05 -1.248089E-07 -4.203091E-08
       107  17  1.471755E+05  4.530614E+04 -1.500757E+04  1.269542E+05 -2.558833E-08 -5.398940E-09
       107  18  1.927998E+05  6.601569E+04 -7.624620E+03  1.444651E+05  6.502118E-08  2.800503E-08
       107  19  3.983952E+05  1.395102E+05  2.252924E+04  2.025683E+05  3.974748E+03  1.570979E+04
       107  20  3.527688E+05  1.188064E+05  1.548068E+04  1.850540E+05  5.597464E+03  1.170223E+04
       107  21  3.006278E+05  1.046392E+05  8.506445E+03  1.749815E+05  7.217046E+03  7.703690E+03
       107  22  2.467090E+05  8.532489E+04  1.221762E+02  1.597223E+05 -4.583656E+03  1.248469E+04
       107  23  2.499668E+05  8.205585E+04  2.366970E+02  1.560019E+05 -2.941670E+03  8.484027E+03
       107  24  2.467122E+05  8.532726E+04  4.408691E+02  1.597226E+05 -1.302817E+03  4.492407E+03
       107  25  9.504599E+04  3.114145E+04 -2.228534E+04  1.168856E+05 -1.313996E+04  9.260374E+03
       107  26  1.471757E+05  4.530620E+04 -1.500727E+04  1.269542E+05 -1.147937E+04  5.266365E+03
       107  27  1.927999E+05  6.601572E+04 -7.624436E+03  1.444651E+05 -9.821904E+03  1.281418E+03
       108   1  2.699928E+05  9.366760E+04  3.876022E+03  1.663723E+05 -8.189199E+03 -5.385886E+03
       108   2  2.243682E+05  7.294841E+04 -2.889566E+03  1.488276E+05 -1.002270E+04 -1.527299E+03
       108   3  1.722956E+05  5.884201E+04 -9.385700E+03  1.387087E+05 -1.181914E+04  2.233325E+03
       108   4  2.467318E+05  8.532571E+04  5.908501E+02  1.597293E+05  3.327232E+02 -2.173762E+03
       108   5  2.499466E+05  8.207210E+04  1.079451E+03  1.559892E+05 -1.708227E+03  1.606543E+03
       108   6  2.467514E+05  8.547184E+04  2.001462E+03  1.596736E+05 -3.712146E+03  5.288894E+03
       108   7  2.234718E+05  7.698405E+04 -2.693933E+03  1.530866E+05  8.854207E+03  1.038196E+03
       108   8  2.755258E+05  9.119591E+04  5.048755E+03  1.631511E+05  6.606612E+03  4.740519E+03
       108   9  3.212143E+05  1.121027E+05  1.338908E+04  1.806413E+05  4.395970E+03  8.344886E+03
       108  10  2.699927E+05  9.366755E+04  3.875842E+03  1.663722E+05 -5.873280E-08 -2.186293E-08
       108  11  2.243681E+05  7.294838E+04 -2.889759E+03  1.488276E+05 -1.650851E-08 -1.008912E-08
       108  12  1.722954E+05  5.884197E+04 -9.385972E+03  1.387087E+05  4.147310E-08  1.685282E-08
       108  13  2.467318E+05  8.532570E+04  5.908410E+02  1.597293E+05  5.008620E-09  2.974255E-09
       108  14  2.499466E+05  8.207209E+04  1.079441E+03  1.559892E+05 -1.900347E-09 -1.124105E-08
       108  15  2.467514E+05  8.547180E+04  2.001384E+03  1.596737E+05  2.960999E-09 -1.801238E-08
       108  16  2.234717E+05  7.698403E+04 -2.694082E+03  1.530866E+05  5.662288E-08  2.800542E-08
       108  17  2.755257E+05  9.119587E+04  5.048630E+03  1.631510E+05 -4.482892E-09  4.628556E-09
       108  18  3.212142E+05  1.121026E+05  1.338892E+04  1.806412E+05 -4.432302E-08 -9.697516E-09
       108  19  2.699928E+05  9.366760E+04  3.876022E+03  1.663723E+05  8.189199E+03  5.385886E+03
       108  20  2.243682E+05  7.294841E+04 -2.889566E+03  1.488276E+05  1.002270E+04  1.527299E+03
       108  21  1.722956E+05  5.884201E+04 -9.385700E+03  1.387087E+05  1.181914E+04 -2.233325E+03
       108  22  2.467318E+05  8.532571E+04  5.908501E+02  1.597293E+05 -3.327232E+02  2.173762E+03
       108  23  2.499466E+05  8.207210E+04  1.079451E+03  1.559892E+05  1.708227E+03 -1.606543E+03
       108  24  2.467514E+05  8.547184E+04  2.001462E+03  1.596736E+05  3.712146E+03 -5.288894E+03
       108  25  2.234718E+05  7.698405E+04 -2.693933E+03  1.530866E+05 -8.854207E+03 -1.038196E+03
       108  26  2.755258E+05  9.119591E+04  5.048755E+03  1.631511E+05 -6.606612E+03 -4.740519E+03
       108  27  3.212143E+05  1.121027E+05  1.338908E+04  1.806413E+05 -4.395970E+03 -8.344886E+03
       109   1  1.416341E+05  4.797574E+04 -1.362987E+04  1.302363E+05 -1.305665E+04  4.358504E+03
       109   2  9.653198E+04  2.707002E+04 -1.946919E+04  1.117270E+05 -1.498903E+04  7.523281E+03
       109   3  4.552498E+04  1.393720E+04 -2.447312E+04  1.002818E+05 -1.659009E+04  9.809814E+03
       109   4  2.469026E+05  8.551267E+04  2.680177E+03  1.597019E+05 -4.926849E+03  7.422517E+03
       109   5  2.498677E+05  8.283510E+04  4.961555E+03  1.556446E+05 -8.715753E+03  9.887139E+03
       109   6  2.472928E+05  8.829737E+04  9.548788E+03  1.586501E+05 -1.217342E+04  1.147362E+04
       109   7  3.521830E+05  1.230508E+05  1.899032E+04  1.891722E+05  3.204404E+03  1.048707E+04
       109   8  4.032278E+05  1.386024E+05  2.939174E+04  1.995721E+05 -2.440877E+03  1.225162E+04
       109   9  4.491016E+05  1.626612E+05  4.356902E+04  2.170357E+05 -7.755274E+03  1.313802E+04
       109  10  1.416340E+05  4.797568E+04 -1.363022E+04  1.302364E+05  2.368966E-08  1.337855E-08
       109  11  9.653172E+04  2.706990E+04 -1.946972E+04  1.117271E+05  4.557803E-08  1.935840E-08
       109  12  4.552466E+04  1.393702E+04 -2.447382E+04  1.002820E+05  7.723408E-08  2.967389E-08
       109  13  2.469025E+05  8.551260E+04  2.680028E+03  1.597019E+05  5.036538E-09 -1.011884E-08
       109  14  2.498676E+05  8.283497E+04  4.961229E+03  1.556447E+05  1.598050E-09  1.014109E-09
       109  15  2.472926E+05  8.829719E+04  9.548262E+03  1.586502E+05  6.622452E-09  9.636561E-09
       109  16  3.521830E+05  1.230507E+05  1.899009E+04  1.891721E+05 -2.066822E-08 -5.090991E-09
       109  17  4.032277E+05  1.386023E+05  2.939145E+04  1.995722E+05 -4.988604E-08 -2.286148E-08
       109  18  4.491015E+05  1.626610E+05  4.356858E+04  2.170358E+05 -5.770466E-08 -2.665844E-08
       109  19  1.416341E+05  4.797574E+04 -1.362987E+04  1.302363E+05  1.305665E+04 -4.358504E+03
       109  20  9.653198E+04  2.707002E+04 -1.946919E+04  1.117270E+05  1.498903E+04 -7.523281E+03
       109  21  4.552498E+04  1.393720E+04 -2.447312E+04  1.002818E+05  1.659009E+04 -9.809814E+03
       109  22  2.469026E+05  8.551267E+04  2.680177E+03  1.597019E+05  4.926849E+03 -7.422517E+03
       109  23  2.498677E+05  8.283510E+04  4.961555E+03  1.556446E+05  8.715753E+03 -9.887139E+03
       109  24  2.472928E+05  8.829737E+04  9.548788E+03  1.586501E+05  1.217342E+04 -1.147362E+04
       109  25  3.521830E+05  1.230508E+05  1.899032E+04  1.891722E+05 -3.204404E+03 -1.048707E+04
       109  26  4.032278E+05  1.386024E+05  2.939174E+04  1.995721E+05  2.440877E+03 -1.225162E+04
       109  27  4.491016E+05  1.626612E+05  4.356902E+04  2.170357E+05  7.755274E+03 -1.313802E+04
       110   1  1.467908E+04  4.545471E+03 -2.735503E+04  9.303630E+04 -1.882060E+04  1.072850E+04
       110   2 -2.140629E+04 -1.860489E+04 -3.133209E+04  5.993542E+04 -1.434374E+04  1.042852E+04
       110   3 -5.736250E+04 -1.810168E+04 -3.327889E+04  2.874247E+04 -6.908420E+03  2.271768E+03
       110   4  2.488049E+05  8.913879E+04  1.286345E+04  1.587589E+05 -1.420225E+04  1.246810E+04
       110   5  2.498436E+05  9.505247E+04  2.474678E+04  1.505000E+05 -2.632369E+04  5.913871E+03
       110   6  2.542946E+05  1.279017E+05  5.181060E+04  1.441494E+05 -3.548782E+04 -8.495136E+03
       110   7  4.829932E+05  1.737392E+05  5.308165E+04  2.245059E+05 -9.581957E+03  1.420842E+04
       110   8  5.211700E+05  2.087229E+05  8.082235E+04  2.411033E+05 -3.830922E+04  1.396419E+03
       110   9  5.660434E+05  2.739255E+05  1.368928E+05  2.596119E+05 -6.408217E+04 -1.927104E+04
       110  10  1.467867E+04  4.545252E+03 -2.735591E+04  9.303646E+04 -1.002235E-07 -4.664394E-08
       110  11 -2.140654E+04 -1.860506E+04 -3.133268E+04  5.993554E+04 -3.471103E-08 -1.883030E-08
       110  12 -5.736255E+04 -1.810169E+04 -3.327899E+04  2.874248E+04  4.945139E-08  1.686611E-08
       110  13  2.488046E+05  8.913857E+04  1.286278E+04  1.587591E+05  8.325768E-09  1.267386E-08
       110  14  2.498428E+05  9.505225E+04  2.474541E+04  1.505001E+05 -5.734095E-09  7.911122E-09
       110  15  2.542932E+05  1.279012E+05  5.180810E+04  1.441491E+05 -8.177606E-09  7.301192E-10
       110  16  4.829930E+05  1.737390E+05  5.308110E+04  2.245060E+05  1.154670E-07  4.231016E-08
       110  17  5.211684E+05  2.087225E+05  8.081959E+04  2.411033E+05  2.217769E-08  1.137961E-08
       110  18  5.660389E+05  2.739240E+05  1.368844E+05  2.596110E+05 -6.009944E-08 -1.948835E-08
       110  19  1.467908E+04  4.545471E+03 -2.735503E+04  9.303630E+04  1.882060E+04 -1.072850E+04
       110  20 -2.140629E+04 -1.860489E+04 -3.133209E+04  5.993542E+04  1.434374E+04 -1.042852E+04
       110  21 -5.736250E+04 -1.810168E+04 -3.327889E+04  2.874247E+04  6.908420E+03 -2.271768E+03
       110  22  2.488049E+05  8.913879E+04  1.286345E+04  1.587589E+05  1.420225E+04 -1.246810E+04
       110  23  2.498436E+05  9.505247E+04  2.474678E+04  1.505000E+05  2.632369E+04 -5.913871E+03
       110  24  2.542946E+05  1.279017E+05  5.181060E+04  1.441494E+05  3.548782E+04  8.495136E+03
       110  25  4.829932E+05  1.737392E+05  5.308165E+04  2.245059E+05  9.581957E+03 -1.420842E+04
       110  26  5.211700E+05  2.087229E+05  8.082235E+04  2.411033E+05  3.830922E+04 -1.396419E+03
       110  27  5.660434E+05  2.739255E+05  1.368928E+05  2.596119E+05  6.408217E+04  1.927104E+04
       111   1 -2.369272E+05 -1.099137E+06 -2.667853E+05  8.411933E+04 -4.370872E+03 -1.041391E+05
       111   2 -8.128583E+04 -9.912034E+05 -1.620375E+05  2.557661E+04 -1.271284E+04 -6.218006E+04
       111   3 -7.187159E+04 -9.248911E+05 -1.211249E+05  3.159763E+04 -9.657417E+03 -2.019673E+04
       111   4 -1.162903E+05 -6.165184E+05 -1.474654E+05  4.673956E+04 -4.376357E+03 -9.715226E+04
       111   5  1.675522E+04 -5.961925E+05 -6.738623E+04  1.455613E+04 -1.271314E+04 -6.090533E+04
       111   6  4.616410E+03 -6.164721E+05 -4.713817E+04  4.693896E+04 -9.652160E+03 -2.464041E+04
       111   7  4.334369E+03 -1.336848E+05 -2.816182E+04  9.330725E+03 -4.382685E+03 -9.015996E+04
       111   8  1.147854E+05 -2.010382E+05  2.725410E+04  3.528654E+03 -1.271348E+04 -5.962979E+04
       111   9  8.109841E+04 -3.079653E+05  2.684202E+04  6.228797E+04 -9.647123E+03 -2.908629E+04
       111  10 -2.369301E+05 -1.099149E+06 -2.668058E+05  8.411897E+04  2.655713E-09  7.847164E-10
       111  11 -8.128705E+04 -9.912076E+05 -1.620451E+05  2.557597E+04  4.150528E-09  4.033870E-09
       111  12 -7.187180E+04 -9.248915E+05 -1.211259E+05  3.159748E+04  8.548280E-10 -2.544383E-09
       111  13 -1.162929E+05 -6.165285E+05 -1.474832E+05  4.673922E+04  1.570203E-09  4.448886E-09
       111  14  1.675405E+04 -5.961966E+05 -6.739351E+04  1.455551E+04  1.906268E-09 -3.638916E-09
       111  15  4.616147E+03 -6.164728E+05 -4.713949E+04  4.693877E+04  3.754907E-09  2.893607E-09
       111  16  4.332166E+03 -1.336935E+05 -2.817714E+04  9.330407E+03  9.666107E-11 -5.642364E-09
       111  17  1.147843E+05 -2.010421E+05  2.724712E+04  3.528044E+03  1.760500E-09 -1.769862E-09
       111  18  8.109808E+04 -3.079663E+05  2.684025E+04  6.228774E+04 -3.752370E-09  8.406135E-10
       111  19 -2.369272E+05 -1.099137E+06 -2.667853E+05  8.411933E+04  4.370872E+03  1.041391E+05
       111  20 -8.128583E+04 -9.912034E+05 -1.620375E+05  2.557661E+04  1.271284E+04  6.218006E+04
       111  21 -7.187159E+04 -9.248911E+05 -1.211249E+05  3.159763E+04  9.657417E+03  2.019673E+04
       111  22 -1.162903E+05 -6.165184E+05 -1.474654E+05  4.673956E+04  4.376357E+03  9.715226E+04
       111  23  1.675522E+04 -5.961925E+05 -6.738623E+04  1.455613E+04  1.271314E+04  6.090533E+04
       111  24  4.616410E+03 -6.164721E+05 -4.713817E+04  4.693896E+04  9.652160E+03  2.464041E+04
       111  25  4.334369E+03 -1.336848E+05 -2.816182E+04  9.330725E+03  4.382685E+03  9.015996E+04
       111  26  1.147854E+05 -2.010382E+05  2.725410E+04  3.528654E+03  1.271348E+04  5.962979E+04
       111  27  8.109841E+04 -3.079653E+05  2.684202E+04  6.228797E+04  9.647123E+03  2.908629E+04
       112   1 -5.897365E+04 -7.998829E+05 -8.765181E+04  5.240910E+04 -5.899755E+03 -1.570839E+04
       112   2 -2.189566E+04 -7.073562E+05 -5.716761E+04  1.443928E+04 -3.241053E+03  1.157671E+03
       112   3 -1.517642E+04 -6.244116E+05 -4.522174E+04  4.195178E+04 -2.564726E+02  1.802578E+04
       112   4 -1.172929E+04 -6.095643E+05 -4.197200E+04  4.707773E+04 -5.898059E+03 -1.697776E+04
       112   5  3.554050E+03 -6.047828E+05 -3.256807E+04  1.433712E+04 -3.239441E+03 -2.723925E+02
       112   6 -1.149005E+04 -6.095608E+05 -4.158744E+04  4.707890E+04 -2.547062E+02  1.643267E+04
       112   7  3.551255E+04 -4.192124E+05  3.705263E+03  4.174473E+04 -5.896342E+03 -1.824751E+04
       112   8  2.900299E+04 -5.021998E+05 -7.969264E+03  1.423495E+04 -3.237828E+03 -1.702691E+03
       112   9 -7.803597E+03 -5.947098E+05 -3.795312E+04  5.220615E+04 -2.529662E+02  1.483952E+04
       112  10 -5.897375E+04 -7.998832E+05 -8.765234E+04  5.240903E+04 -2.811206E-09  6.107296E-09
       112  11 -2.189567E+04 -7.073562E+05 -5.716763E+04  1.443928E+04 -3.061689E-09  6.858022E-09
       112  12 -1.517651E+04 -6.244119E+05 -4.522236E+04  4.195179E+04 -1.624065E-09 -1.823447E-09
       112  13 -1.172940E+04 -6.095646E+05 -4.197260E+04  4.707765E+04  1.818270E-10  2.096827E-09
       112  14  3.554039E+03 -6.047828E+05 -3.256809E+04  1.433712E+04 -1.514426E-09 -2.437264E-09
       112  15 -1.149012E+04 -6.095611E+05 -4.158795E+04  4.707891E+04 -9.823276E-10  6.906045E-10
       112  16  3.551242E+04 -4.192128E+05  3.704572E+03  4.174464E+04 -3.304753E-09 -9.899201E-09
       112  17  2.900298E+04 -5.021998E+05 -7.969290E+03  1.423494E+04  2.700196E-09 -6.191178E-09
       112  18 -7.803656E+03 -5.947101E+05 -3.795354E+04  5.220615E+04 -2.245218E-09 -1.812280E-09
       112  19 -5.897365E+04 -7.998829E+05 -8.765181E+04  5.240910E+04  5.899755E+03  1.570839E+04
       112  20 -2.189566E+04 -7.073562E+05 -5.716761E+04  1.443928E+04  3.241053E+03 -1.157671E+03
       112  21 -1.517642E+04 -6.244116E+05 -4.522174E+04  4.195178E+04  2.564726E+02 -1.802578E+04
       112  22 -1.172929E+04 -6.095643E+05 -4.197200E+04  4.707773E+04  5.898059E+03  1.697776E+04
       112  23  3.554050E+03 -6.047828E+05 -3.256807E+04  1.433712E+04  3.239441E+03  2.723925E+02
       112  24 -1.149005E+04 -6.095608E+05 -4.158744E+04  4.707890E+04  2.547062E+02 -1.643267E+04
       112  25  3.551255E+04 -4.192124E+05  3.705263E+03  4.174473E+04  5.896342E+03  1.824751E+04
       112  26  2.900299E+04 -5.021998E+05 -7.969264E+03  1.423495E+04  3.237828E+03  1.702691E+03
       112  27 -7.803597E+03 -5.947098E+05 -3.795312E+04  5.220615E+04  2.529662E+02 -1.483952E+04
       113   1  3.019765E+04 -5.127540E+05 -2.167080E+04  6.235384E+04  2.945910E+03  2.744280E+04
       113   2  6.390404E+04 -4.053716E+05 -2.064897E+04  3.837275E+03  6.166429E+03  5.960580E+04
       113   3 -4.460490E+04 -3.374836E+05 -7.607381E+04  1.044465E+04  2.312788E+03  9.176505E+04
       113   4  4.517137E+03 -6.163512E+05 -4.660288E+04  4.704977E+04  2.948792E+03  2.401710E+04
       113   5  1.652384E+04 -5.963023E+05 -6.636886E+04  1.441123E+04  6.167407E+03  5.973253E+04
       113   6 -1.143289E+05 -6.163902E+05 -1.450650E+05  4.690024E+04  2.313579E+03  9.543950E+04
       113   7 -2.116327E+04 -7.199380E+05 -7.153555E+04  3.174827E+04  2.951843E+03  2.059197E+04
       113   8 -3.085859E+04 -7.871993E+05 -1.120913E+05  2.498193E+04  6.168390E+03  5.985923E+04
       113   9 -1.840537E+05 -8.952232E+05 -2.140612E+05  8.333945E+04  2.314803E+03  9.911230E+04
       113  10  3.019744E+04 -5.127548E+05 -2.167224E+04  6.235378E+04 -6.408289E-10  3.356074E-09
       113  11  6.390305E+04 -4.053755E+05 -2.065572E+04  3.836979E+03 -3.596928E-10  4.089280E-09
       113  12 -4.460717E+04 -3.374926E+05 -7.608966E+04  1.044448E+04 -1.307322E-09 -1.389572E-09
       113  13  4.516973E+03 -6.163518E+05 -4.660398E+04  4.704972E+04  3.291657E-10  1.925797E-09
       113  14  1.652284E+04 -5.963061E+05 -6.637564E+04  1.441094E+04 -7.436674E-10 -4.756712E-09
       113  15 -1.143313E+05 -6.164000E+05 -1.450821E+05  4.690007E+04  6.806898E-10  2.736932E-09
       113  16 -2.116339E+04 -7.199385E+05 -7.153636E+04  3.174822E+04 -3.275152E-09 -5.833160E-09
       113  17 -3.085959E+04 -7.872031E+05 -1.120981E+05  2.498164E+04  3.816212E-09 -3.042751E-09
       113  18 -1.840563E+05 -8.952338E+05 -2.140797E+05  8.333927E+04  1.498293E-09 -2.625189E-09
       113  19  3.019765E+04 -5.127540E+05 -2.167080E+04  6.235384E+04 -2.945910E+03 -2.744280E+04
       113  20  6.390404E+04 -4.053716E+05 -2.064897E+04  3.837275E+03 -6.166429E+03 -5.960580E+04
       113  21 -4.460490E+04 -3.374836E+05 -7.607381E+04  1.044465E+04 -2.312788E+03 -9.176505E+04
       113  22  4.517137E+03 -6.163512E+05 -4.660288E+04  4.704977E+04 -2.948792E+03 -2.401710E+04
       113  23  1.652384E+04 -5.963023E+05 -6.636886E+04  1.441123E+04 -6.167407E+03 -5.973253E+04
       113  24 -1.143289E+05 -6.163902E+05 -1.450650E+05  4.690024E+04 -2.313579E+03 -9.543950E+04
       113  25 -2.116327E+04 -7.199380E+05 -7.153555E+04  3.174827E+04 -2.951843E+03 -2.059197E+04
       113  26 -3.085859E+04 -7.871993E+05 -1.120913E+05  2.498193E+04 -6.168390E+03 -5.985923E+04
       113  27 -1.840537E+05 -8.952232E+05 -2.140612E+05  8.333945E+04 -2.314803E+03 -9.911230E+04
       114   1  4.865601E+05  1.676155E+05  1.009733E+05  1.800234E+05  4.764491E+04  1.633950E+04
       114   2  4.695554E+05  9.434176E+04  5.576949E+04  1.792763E+05  3.065883E+04  6.672438E+03
       114   3  4.712737E+05  8.534107E+04  4.004364E+04  1.699751E+05  1.247198E+04  1.905884E+02
       114   4  3.839523E+05  1.093016E+05  6.946840E+04  1.319136E+05  4.474063E+04  1.524222E+04
       114   5  3.710964E+05  5.133141E+04  2.947980E+04  1.460147E+05  2.983369E+04  6.360765E+03
       114   6  3.765553E+05  5.722743E+04  1.732573E+04  1.515608E+05  1.372555E+04  6.636553E+02
       114   7  2.813570E+05  5.099370E+04  3.796293E+04  8.381285E+04  4.183691E+04  1.414539E+04
       114   8  2.726473E+05  8.322842E+03  3.189369E+03  1.127584E+05  2.900870E+04  6.049168E+03
       114   9  2.818453E+05  2.911353E+04 -5.392924E+03  1.331486E+05  1.497893E+04  1.136683E+03
       114  10  4.865576E+05  1.676146E+05  1.009686E+05  1.800228E+05  1.284299E-09  2.071680E-09
       114  11  4.695543E+05  9.434147E+04  5.576764E+04  1.792761E+05 -8.056990E-10  4.480564E-10
       114  12  4.712735E+05  8.534103E+04  4.004335E+04  1.699751E+05  7.559134E-11  1.991995E-09
       114  13  3.839501E+05  1.093008E+05  6.946421E+04  1.319131E+05  4.734184E-09 -4.125465E-09
       114  14  3.710954E+05  5.133113E+04  2.947806E+04  1.460146E+05  7.557254E-10  5.079371E-09
       114  15  3.765551E+05  5.722738E+04  1.732537E+04  1.515608E+05  1.098967E-09 -4.018173E-10
       114  16  2.813551E+05  5.099301E+04  3.795926E+04  8.381237E+04 -9.240356E-10 -4.493685E-10
       114  17  2.726464E+05  8.322577E+03  3.187720E+03  1.127582E+05  1.430866E-09 -3.403441E-09
       114  18  2.818450E+05  2.911347E+04 -5.393348E+03  1.331486E+05  3.783974E-10 -4.889377E-09
       114  19  4.865601E+05  1.676155E+05  1.009733E+05  1.800234E+05 -4.764491E+04 -1.633950E+04
       114  20  4.695554E+05  9.434176E+04  5.576949E+04  1.792763E+05 -3.065883E+04 -6.672438E+03
       114  21  4.712737E+05  8.534107E+04  4.004364E+04  1.699751E+05 -1.247198E+04 -1.905884E+02
       114  22  3.839523E+05  1.093016E+05  6.946840E+04  1.319136E+05 -4.474063E+04 -1.524222E+04
       114  23  3.710964E+05  5.133141E+04  2.947980E+04  1.460147E+05 -2.983369E+04 -6.360765E+03
       114  24  3.765553E+05  5.722743E+04  1.732573E+04  1.515608E+05 -1.372555E+04 -6.636553E+02
       114  25  2.813570E+05  5.099370E+04  3.796293E+04  8.381285E+04 -4.183691E+04 -1.414539E+04
       114  26  2.726473E+05  8.322842E+03  3.189369E+03  1.127584E+05 -2.900870E+04 -6.049168E+03
       114  27  2.818453E+05  2.911353E+04 -5.392924E+03  1.331486E+05 -1.497893E+04 -1.136683E+03
       115   1  4.483979E+05  9.283863E+04  3.312984E+04  1.695905E+05  1.081005E+04  4.851530E+02
       115   2  4.369549E+05  7.943635E+04  2.260994E+04  1.631451E+05  6.950604E+03 -4.040703E+02
       115   3  4.221359E+05  7.676527E+04  1.617936E+04  1.620373E+05  3.025482E+03 -1.119061E+03
       115   4  3.743180E+05  6.361407E+04  1.394049E+04  1.477820E+05  1.107610E+04  5.854762E+02
       115   5  3.757082E+05  5.608240E+04  6.928856E+03  1.459352E+05  7.330659E+03 -2.606868E+02
       115   6  3.736999E+05  5.925963E+04  3.916616E+03  1.494259E+05  3.519462E+03 -9.326533E+02
       115   7  3.002435E+05  3.439003E+04 -5.249307E+03  1.259759E+05  1.134212E+04  6.857848E+02
       115   8  3.144653E+05  3.272877E+04 -8.752497E+03  1.287269E+05  7.710672E+03 -1.173195E+02
       115   9  3.252664E+05  4.175417E+04 -8.346261E+03  1.368155E+05  4.013398E+03 -7.462605E+02
       115  10  4.483978E+05  9.283859E+04  3.312962E+04  1.695905E+05 -1.383570E-09  1.354191E-09
       115  11  4.369548E+05  7.943634E+04  2.260984E+04  1.631451E+05  3.474386E-09  5.039458E-09
       115  12  4.221359E+05  7.676527E+04  1.617934E+04  1.620373E+05  3.272983E-09  8.824861E-09
       115  13  3.743179E+05  6.361403E+04  1.394026E+04  1.477820E+05  1.547364E-09 -9.542629E-11
       115  14  3.757081E+05  5.608238E+04  6.928755E+03  1.459352E+05  3.009330E-09 -5.223082E-09
       115  15  3.736999E+05  5.925962E+04  3.916591E+03  1.494259E+05  1.440147E-09 -2.834652E-09
       115  16  3.002433E+05  3.438999E+04 -5.249549E+03  1.259759E+05  1.538178E-09 -2.818888E-09
       115  17  3.144652E+05  3.272875E+04 -8.752609E+03  1.287269E+05  5.649007E-09 -4.882551E-09
       115  18  3.252664E+05  4.175416E+04 -8.346293E+03  1.368155E+05  1.295537E-09  5.093042E-09
       115  19  4.483979E+05  9.283863E+04  3.312984E+04  1.695905E+05 -1.081005E+04 -4.851530E+02
       115  20  4.369549E+05  7.943635E+04  2.260994E+04  1.631451E+05 -6.950604E+03  4.040703E+02
       115  21  4.221359E+05  7.676527E+04  1.617936E+04  1.620373E+05 -3.025482E+03  1.119061E+03
       115  22  3.743180E+05  6.361407E+04  1.394049E+04  1.477820E+05 -1.107610E+04 -5.854762E+02
       115  23  3.757082E+05  5.608240E+04  6.928856E+03  1.459352E+05 -7.330659E+03  2.606868E+02
       115  24  3.736999E+05  5.925963E+04  3.916616E+03  1.494259E+05 -3.519462E+03  9.326533E+02
       115  25  3.002435E+05  3.439003E+04 -5.249307E+03  1.259759E+05 -1.134212E+04 -6.857848E+02
       115  26  3.144653E+05  3.272877E+04 -8.752497E+03  1.287269E+05 -7.710672E+03  1.173195E+02
       115  27  3.252664E+05  4.175417E+04 -8.346261E+03  1.368155E+05 -4.013398E+03  7.462605E+02
       116   1  4.072546E+05  7.251414E+04  1.159898E+04  1.584464E+05  2.364520E+03 -8.846390E+02
       116   2  3.964706E+05  6.414900E+04  6.795929E+03  1.515292E+05  1.287557E+03 -5.162647E+02
       116   3  3.802417E+05  6.192536E+04  2.717548E+03  1.510255E+05  2.071121E+02 -1.387178E+02
       116   4  3.734628E+05  5.977348E+04  3.019503E+03  1.490881E+05  2.803685E+03 -7.189085E+02
       116   5  3.761610E+05  5.652719E+04  1.619735E+03  1.459479E+05  1.732749E+03 -3.482497E+02
       116   6  3.734130E+05  5.942133E+04  9.399926E+02  1.492212E+05  6.583139E+02  3.157518E+01
       116   7  3.396721E+05  4.703286E+04 -5.560106E+03  1.397303E+05  3.242826E+03 -5.531874E+02
       116   8  3.558516E+05  4.890540E+04 -3.556504E+03  1.403667E+05  2.177926E+03 -1.802404E+02
       116   9  3.665843E+05  5.691731E+04 -8.375657E+02  1.474169E+05  1.109510E+03  2.018662E+02
       116  10  4.072546E+05  7.251413E+04  1.159897E+04  1.584465E+05  7.781736E-09  5.201394E-09
       116  11  3.964706E+05  6.414900E+04  6.795926E+03  1.515292E+05  3.440241E-09  3.842474E-10
       116  12  3.802417E+05  6.192536E+04  2.717548E+03  1.510255E+05 -3.436170E-09 -5.706148E-09
       116  13  3.734628E+05  5.977348E+04  3.019487E+03  1.490881E+05  2.650162E-09  2.718165E-09
       116  14  3.761610E+05  5.652719E+04  1.619729E+03  1.459479E+05  6.084636E-09  1.629141E-09
       116  15  3.734130E+05  5.942133E+04  9.399918E+02  1.492212E+05  8.755066E-10 -2.687432E-09
       116  16  3.396721E+05  4.703285E+04 -5.560126E+03  1.397303E+05 -8.273027E-09 -3.372167E-09
       116  17  3.558516E+05  4.890540E+04 -3.556513E+03  1.403667E+05  3.146676E-10 -4.005618E-09
       116  18  3.665843E+05  5.691731E+04 -8.375680E+02  1.474169E+05  6.901619E-09  1.780226E-09
       116  19  4.072546E+05  7.251414E+04  1.159898E+04  1.584464E+05 -2.364520E+03  8.846390E+02
       116  20  3.964706E+05  6.414900E+04  6.795929E+03  1.515292E+05 -1.287557E+03  5.162647E+02
       116  21  3.802417E+05  6.192536E+04  2.717548E+03  1.510255E+05 -2.071121E+02  1.387178E+02
       116  22  3.734628E+05  5.977348E+04  3.019503E+03  1.490881E+05 -2.803685E+03  7.189085E+02
       116  23  3.761610E+05  5.652719E+04  1.619735E+03  1.459479E+05 -1.732749E+03  3.482497E+02
       116  24  3.734130E+05  5.942133E+04  9.399926E+02  1.492212E+05 -6.583139E+02 -3.157518E+01
       116  25  3.396721E+05  4.703286E+04 -5.560106E+03  1.397303E+05 -3.242826E+03  5.531874E+02
       116  26  3.558516E+05  4.890540E+04 -3.556504E+03  1.403667E+05 -2.177926E+03  1.802404E+02
       116  27  3.665843E+05  5.691731E+04 -8.375657E+02  1.474169E+05 -1.109510E+03 -2.018662E+02
       117   1  3.660970E+05  5.671161E+04 -1.163535E+03  1.471866E+05 -8.004912E+01  2.119066E+02
       117   2  3.553944E+05  4.875270E+04 -4.804895E+03  1.402245E+05 -5.906789E+02  8.051581E+02
       117   3  3.390299E+05  4.654821E+04 -8.248868E+03  1.397524E+05 -1.101624E+03  1.399372E+03
       117   4  3.733827E+05  5.945994E+04  7.439633E+02  1.491912E+05  3.682148E+02  3.810901E+02
       117   5  3.762120E+05  5.657054E+04  5.016222E+02  1.459509E+05 -1.418012E+02  9.745629E+02
       117   6  3.733791E+05  5.943540E+04  4.562012E+02  1.492004E+05 -6.521403E+02  1.568998E+03
       117   7  3.806684E+05  6.220827E+04  2.651450E+03  1.511958E+05  8.164829E+02  5.502752E+02
       117   8  3.970300E+05  6.438841E+04  5.808105E+03  1.516774E+05  3.070929E+02  1.143974E+03
       117   9  4.077295E+05  7.232272E+04  9.161212E+03  1.586489E+05 -2.026276E+02  1.738634E+03
       117  10  3.660970E+05  5.671161E+04 -1.163535E+03  1.471866E+05 -9.441038E-11 -3.572576E-09
       117  11  3.553944E+05  4.875270E+04 -4.804897E+03  1.402245E+05  1.549240E-09 -2.960100E-09
       117  12  3.390299E+05  4.654821E+04 -8.248874E+03  1.397524E+05  3.716408E-09 -1.071961E-09
       117  13  3.733827E+05  5.945994E+04  7.439627E+02  1.491912E+05  2.405653E-09 -2.654996E-10
       117  14  3.762120E+05  5.657054E+04  5.016203E+02  1.459509E+05  5.729906E-09  3.748367E-09
       117  15  3.733791E+05  5.943540E+04  4.561958E+02  1.492004E+05  8.528420E-09  1.428463E-09
       117  16  3.806684E+05  6.220827E+04  2.651449E+03  1.511958E+05  3.978783E-09  1.936858E-09
       117  17  3.970300E+05  6.438841E+04  5.808103E+03  1.516774E+05  6.026829E-09 -6.674449E-09
       117  18  4.077295E+05  7.232272E+04  9.161206E+03  1.586489E+05  1.286978E-08  1.033539E-09
       117  19  3.660970E+05  5.671161E+04 -1.163535E+03  1.471866E+05  8.004912E+01 -2.119066E+02
       117  20  3.553944E+05  4.875270E+04 -4.804895E+03  1.402245E+05  5.906789E+02 -8.051581E+02
       117  21  3.390299E+05  4.654821E+04 -8.248868E+03  1.397524E+05  1.101624E+03 -1.399372E+03
       117  22  3.733827E+05  5.945994E+04  7.439633E+02  1.491912E+05 -3.682148E+02 -3.810901E+02
       117  23  3.762120E+05  5.657054E+04  5.016222E+02  1.459509E+05  1.418012E+02 -9.745629E+02
       117  24  3.733791E+05  5.943540E+04  4.562012E+02  1.492004E+05  6.521403E+02 -1.568998E+03
       117  25  3.806684E+05  6.220827E+04  2.651450E+03  1.511958E+05 -8.164829E+02 -5.502752E+02
       117  26  3.970300E+05  6.438841E+04  5.808105E+03  1.516774E+05 -3.070929E+02 -1.143974E+03
       117  27  4.077295E+05  7.232272E+04  9.161212E+03  1.586489E+05  2.026276E+02 -1.738634E+03
       118   1  3.249250E+05  4.125403E+04 -1.190556E+04  1.359040E+05 -1.332342E+03  1.770977E+03
       118   2  3.141752E+05  3.328705E+04 -1.510821E+04  1.289049E+05 -1.943224E+03  2.329340E+03
       118   3  2.977686E+05  3.112036E+04 -1.803239E+04  1.284201E+05 -2.554208E+03  2.888291E+03
       118   4  3.733790E+05  5.943904E+04  4.920400E+02  1.492082E+05 -8.823021E+02  1.940801E+03
       118   5  3.762102E+05  5.655925E+04  7.007447E+02  1.459433E+05 -1.492857E+03  2.499259E+03
       118   6  3.733843E+05  5.947960E+04  1.187638E+03  1.491927E+05 -2.103523E+03  3.058302E+03
       118   7  4.218352E+05  7.762421E+04  1.288944E+04  1.625132E+05 -4.322235E+02  2.110639E+03
       118   8  4.382489E+05  7.983165E+04  1.650936E+04  1.629832E+05 -1.042442E+03  2.669195E+03
       118   9  4.490053E+05  8.783911E+04  2.040713E+04  1.699675E+05 -1.652780E+03  3.228334E+03
       118  10  3.249250E+05  4.125403E+04 -1.190557E+04  1.359040E+05  1.739788E-08  6.128594E-09
       118  11  3.141752E+05  3.328704E+04 -1.510823E+04  1.289049E+05  6.679657E-10  6.616907E-09
       118  12  2.977686E+05  3.112035E+04 -1.803242E+04  1.284201E+05 -6.694756E-09 -2.384053E-09
       118  13  3.733790E+05  5.943904E+04  4.920315E+02  1.492082E+05  5.271203E-09  3.572082E-09
       118  14  3.762102E+05  5.655924E+04  7.007288E+02  1.459433E+05  3.256539E-09  3.967754E-10
       118  15  3.733843E+05  5.947959E+04  1.187613E+03  1.491927E+05 -2.887687E-09  3.863819E-09
       118  16  4.218352E+05  7.762420E+04  1.288944E+04  1.625132E+05 -2.096676E-09  4.912075E-09
       118  17  4.382489E+05  7.983164E+04  1.650934E+04  1.629832E+05  4.357626E-10 -9.090786E-10
       118  18  4.490053E+05  8.783910E+04  2.040710E+04  1.699675E+05  1.018352E-08  9.155095E-09
       118  19  3.249250E+05  4.125403E+04 -1.190556E+04  1.359040E+05  1.332342E+03 -1.770977E+03
       118  20  3.141752E+05  3.328705E+04 -1.510821E+04  1.289049E+05  1.943224E+03 -2.329340E+03
       118  21  2.977686E+05  3.112036E+04 -1.803239E+04  1.284201E+05  2.554208E+03 -2.888291E+03
       118  22  3.733790E+05  5.943904E+04  4.920400E+02  1.492082E+05  8.823021E+02 -1.940801E+03
       118  23  3.762102E+05  5.655925E+04  7.007447E+02  1.459433E+05  1.492857E+03 -2.499259E+03
       118  24  3.733843E+05  5.947960E+04  1.187638E+03  1.491927E+05  2.103523E+03 -3.058302E+03
       118  25  4.218352E+05  7.762421E+04  1.288944E+04  1.625132E+05  4.322235E+02 -2.110639E+03
       118  26  4.382489E+05  7.983165E+04  1.650936E+04  1.629832E+05  1.042442E+03 -2.669195E+03
       118  27  4.490053E+05  8.783911E+04  2.040713E+04  1.699675E+05  1.652780E+03 -3.228334E+03
       119   1  2.835588E+05  2.580487E+04 -2.138709E+04  1.246831E+05 -2.937984E+03  3.206957E+03
       119   2  2.726560E+05  1.764488E+04 -2.363128E+04  1.174986E+05 -4.569166E+03  3.383984E+03
       119   3  2.564395E+05  1.599336E+04 -2.465976E+04  1.167504E+05 -6.194912E+03  3.547035E+03
       119   4  3.734299E+05  5.942359E+04  1.546131E+03  1.492557E+05 -2.481282E+03  3.379213E+03
       119   5  3.761279E+05  5.646882E+04  2.739630E+03  1.459239E+05 -4.121824E+03  3.552664E+03
       119   6  3.735143E+05  6.002436E+04  5.156175E+03  1.490286E+05 -5.756960E+03  3.712127E+03
       119   7  4.633092E+05  9.304296E+04  2.447879E+04  1.738315E+05 -2.024506E+03  3.551497E+03
       119   8  4.796106E+05  9.529354E+04  2.910972E+04  1.743537E+05 -3.674399E+03  3.721375E+03
       119   9  4.906024E+05  1.040563E+05  3.497101E+04  1.813123E+05 -5.318917E+03  3.877254E+03
       119  10  2.835588E+05  2.580486E+04 -2.138712E+04  1.246831E+05 -3.037938E-10 -1.797722E-09
       119  11  2.726559E+05  1.764486E+04 -2.363134E+04  1.174986E+05 -3.583704E-09 -5.224801E-09
       119  12  2.564395E+05  1.599334E+04 -2.465986E+04  1.167504E+05 -3.870011E-09 -9.443641E-09
       119  13  3.734299E+05  5.942358E+04  1.546098E+03  1.492557E+05  6.331924E-11  4.595353E-09
       119  14  3.761279E+05  5.646880E+04  2.739574E+03  1.459239E+05 -3.542298E-09 -3.006880E-09
       119  15  3.735142E+05  6.002433E+04  5.156087E+03  1.490286E+05  7.968398E-10  3.471865E-09
       119  16  4.633092E+05  9.304294E+04  2.447876E+04  1.738315E+05  5.045148E-09  6.067755E-09
       119  17  4.796106E+05  9.529352E+04  2.910967E+04  1.743537E+05  2.631156E-09  1.083079E-08
       119  18  4.906023E+05  1.040563E+05  3.497093E+04  1.813123E+05 -3.471557E-11  5.271698E-09
       119  19  2.835588E+05  2.580487E+04 -2.138709E+04  1.246831E+05  2.937984E+03 -3.206957E+03
       119  20  2.726560E+05  1.764488E+04 -2.363128E+04  1.174986E+05  4.569166E+03 -3.383984E+03
       119  21  2.564395E+05  1.599336E+04 -2.465976E+04  1.167504E+05  6.194912E+03 -3.547035E+03
       119  22  3.734299E+05  5.942359E+04  1.546131E+03  1.492557E+05  2.481282E+03 -3.379213E+03
       119  23  3.761279E+05  5.646882E+04  2.739630E+03  1.459239E+05  4.121824E+03 -3.552664E+03
       119  24  3.735143E+05  6.002436E+04  5.156175E+03  1.490286E+05  5.756960E+03 -3.712127E+03
       119  25  4.633092E+05  9.304296E+04  2.447879E+04  1.738315E+05  2.024506E+03 -3.551497E+03
       119  26  4.796106E+05  9.529354E+04  2.910972E+04  1.743537E+05  3.674399E+03 -3.721375E+03
       119  27  4.906024E+05  1.040563E+05  3.497101E+04  1.813123E+05  5.318917E+03 -3.877254E+03
       120   1  2.416019E+05  1.066833E+04 -2.684678E+04  1.144724E+05 -7.406185E+03  3.598476E+03
       120   2  2.305204E+05  7.338412E+02 -2.516694E+04  1.054724E+05 -1.356146E+04  2.042102E+03
       120   3  2.175791E+05  5.137465E+03 -1.678132E+04  1.011040E+05 -1.960606E+04  1.930041E+02
       120   4  3.739164E+05  5.915067E+04  6.699550E+03  1.496156E+05 -6.875017E+03  3.798698E+03
       120   5  3.753563E+05  5.569541E+04  1.186762E+04  1.458921E+05 -1.322257E+04  2.169730E+03
       120   6  3.749735E+05  6.661475E+04  2.389257E+04  1.468000E+05 -1.945962E+04  2.479738E+02
       120   7  5.062475E+05  1.076338E+05  4.024434E+04  1.847654E+05 -6.343727E+03  3.998963E+03
       120   8  5.202127E+05  1.106585E+05  4.890048E+04  1.863204E+05 -1.288359E+04  2.297392E+03
       120   9  5.323926E+05  1.280944E+05  6.456456E+04  1.925069E+05 -1.931313E+04  3.029606E+02
       120  10  2.416018E+05  1.066830E+04 -2.684691E+04  1.144724E+05  9.431263E-09 -2.798855E-09
       120  11  2.305202E+05  7.337874E+02 -2.516730E+04  1.054724E+05  1.537082E-09  9.343235E-10
       120  12  2.175787E+05  5.137362E+03 -1.678205E+04  1.011040E+05 -5.075631E-09 -5.572190E-09
       120  13  3.739164E+05  5.915064E+04  6.699434E+03  1.496156E+05 -3.598792E-09 -7.474436E-09
       120  14  3.753562E+05  5.569535E+04  1.186729E+04  1.458921E+05 -4.097900E-09 -1.663524E-09
       120  15  3.749731E+05  6.661464E+04  2.389186E+04  1.468000E+05 -8.049825E-09  2.947597E-09
       120  16  5.062475E+05  1.076337E+05  4.024423E+04  1.847654E+05 -1.537987E-08  1.793456E-09
       120  17  5.202125E+05  1.106584E+05  4.890015E+04  1.863204E+05 -9.310044E-09  2.052399E-09
       120  18  5.323922E+05  1.280943E+05  6.456386E+04  1.925069E+05 -5.632865E-09 -7.197054E-09
       120  19  2.416019E+05  1.066833E+04 -2.684678E+04  1.144724E+05  7.406185E+03 -3.598476E+03
       120  20  2.305204E+05  7.338412E+02 -2.516694E+04  1.054724E+05  1.356146E+04 -2.042102E+03
       120  21  2.175791E+05  5.137465E+03 -1.678132E+04  1.011040E+05  1.960606E+04 -1.930041E+02
       120  22  3.739164E+05  5.915067E+04  6.699550E+03  1.496156E+05  6.875017E+03 -3.798698E+03
       120  23  3.753563E+05  5.569541E+04  1.186762E+04  1.458921E+05  1.322257E+04 -2.169730E+03
       120  24  3.749735E+05  6.661475E+04  2.389257E+04  1.468000E+05  1.945962E+04 -2.479738E+02
       120  25  5.062475E+05  1.076338E+05  4.024434E+04  1.847654E+05  6.343727E+03 -3.998963E+03
       120  26  5.202127E+05  1.106585E+05  4.890048E+04  1.863204E+05  1.288359E+04 -2.297392E+03
       120  27  5.323926E+05  1.280944E+05  6.456456E+04  1.925069E+05  1.931313E+04 -3.029606E+02
       121   1  1.958587E+05 -2.208244E+02 -1.446084E+04  1.160999E+05 -2.570603E+04 -8.576747E+02
       121   2  1.874763E+05 -3.032530E+04  2.617739E+03  8.598895E+04 -4.963139E+04 -9.756518E+03
       121   3  2.137804E+05  4.443019E+04  6.464399E+04  3.673359E+04 -7.153178E+04 -2.402862E+04
       121   4  3.788107E+05  5.566675E+04  2.969724E+04  1.532763E+05 -2.389224E+04 -1.736734E+02
       121   5  3.674535E+05  4.754566E+04  5.053188E+04  1.460238E+05 -5.132896E+04 -1.039731E+04
       121   6  3.914647E+05  1.449590E+05  1.190857E+05  1.196307E+05 -7.674088E+04 -2.599553E+04
       121   7  5.617959E+05  1.115543E+05  7.385310E+04  1.904614E+05 -2.207785E+04  5.104572E+02
       121   8  5.474616E+05  1.254214E+05  9.844291E+04  2.060751E+05 -5.302705E+04 -1.103836E+04
       121   9  5.691799E+05  2.455022E+05  1.735239E+05  2.025520E+05 -8.195153E+04 -2.796373E+04
       121  10  1.958580E+05 -2.210025E+02 -1.446208E+04  1.160999E+05 -3.279725E-09 -2.309478E-09
       121  11  1.874736E+05 -3.032607E+04  2.612933E+03  8.598856E+04 -3.530722E-09 -3.584797E-09
       121  12  2.137748E+05  4.442819E+04  6.463329E+04  3.673220E+04 -1.178600E-09 -1.854822E-09
       121  13  3.788101E+05  5.566660E+04  2.969617E+04  1.532763E+05 -5.414437E-09 -5.903093E-09
       121  14  3.674507E+05  4.754484E+04  5.052673E+04  1.460234E+05 -3.579910E-09  1.416125E-09
       121  15  3.914582E+05  1.449566E+05  1.190734E+05  1.196291E+05 -1.159382E-09  2.247463E-09
       121  16  5.617954E+05  1.115541E+05  7.385219E+04  1.904614E+05 -5.510613E-09 -5.182155E-09
       121  17  5.474586E+05  1.254205E+05  9.843740E+04  2.060747E+05  4.693133E-10 -2.080872E-09
       121  18  5.691725E+05  2.454996E+05  1.735098E+05  2.025502E+05  6.327473E-10 -1.901723E-09
       121  19  1.958587E+05 -2.208244E+02 -1.446084E+04  1.160999E+05  2.570603E+04  8.576747E+02
       121  20  1.874763E+05 -3.032530E+04  2.617739E+03  8.598895E+04  4.963139E+04  9.756518E+03
       121  21  2.137804E+05  4.443019E+04  6.464399E+04  3.673359E+04  7.153178E+04  2.402862E+04
       121  22  3.788107E+05  5.566675E+04  2.969724E+04  1.532763E+05  2.389224E+04  1.736734E+02
       121  23  3.674535E+05  4.754566E+04  5.053188E+04  1.460238E+05  5.132896E+04  1.039731E+04
       121  24  3.914647E+05  1.449590E+05  1.190857E+05  1.196307E+05  7.674088E+04  2.599553E+04
       121  25  5.617959E+05  1.115543E+05  7.385310E+04  1.904614E+05  2.207785E+04 -5.104572E+02
       121  26  5.474616E+05  1.254214E+05  9.844291E+04  2.060751E+05  5.302705E+04  1.103836E+04
       121  27  5.691799E+05  2.455022E+05  1.735239E+05  2.025520E+05  8.195153E+04  2.796373E+04
       122   1 -2.591388E+02 -5.010520E+05 -2.425964E+03 -1.650402E+02 -5.429565E+01  1.746632E+02
       122   2 -6.180783E+02 -5.026832E+05 -3.347250E+03  3.086365E+02 -1.062333E+02  1.497972E+03
       122   3 -1.615240E+03 -5.046506E+05 -5.291003E+03 -3.469009E+02 -1.842997E+02  2.821257E+03
       122   4 -1.054521E+01 -5.000425E+05 -2.194506E+03 -2.507449E+02 -5.432785E+01  1.968214E+02
       122   5  7.665133E+01 -4.998733E+05 -2.685020E+03  3.135232E+02 -1.062881E+02  1.535802E+03
       122   6 -4.770872E+02 -5.000428E+05 -4.208879E+03 -2.514212E+02 -1.843767E+02  2.874764E+03
       122   7  2.380484E+02 -4.990330E+05 -1.963047E+03 -3.364499E+02 -5.436006E+01  2.189795E+02
       122   8  7.713804E+02 -4.970633E+05 -2.022790E+03  3.184100E+02 -1.063429E+02  1.573633E+03
       122   9  6.610637E+02 -4.954351E+05 -3.126757E+03 -1.559407E+02 -1.844538E+02  2.928271E+03
       122  10 -2.591388E+02 -5.010520E+05 -2.425964E+03 -1.650402E+02 -5.134995E-10 -3.493948E-09
       122  11 -6.180789E+02 -5.026832E+05 -3.347254E+03  3.086366E+02 -3.648280E-09 -2.844887E-09
       122  12 -1.615242E+03 -5.046506E+05 -5.291018E+03 -3.469005E+02 -3.172846E-09 -7.869469E-10
       122  13 -1.054522E+01 -5.000425E+05 -2.194506E+03 -2.507449E+02  2.014209E-09  2.182886E-09
       122  14  7.665069E+01 -4.998733E+05 -2.685024E+03  3.135234E+02 -5.028335E-10 -3.747227E-09
       122  15 -4.770895E+02 -5.000429E+05 -4.208895E+03 -2.514207E+02 -1.680243E-09  7.005889E-10
       122  16  2.380484E+02 -4.990330E+05 -1.963048E+03 -3.364499E+02  2.680517E-09  3.489225E-09
       122  17  7.713797E+02 -4.970633E+05 -2.022794E+03  3.184101E+02  1.349347E-09  1.954002E-09
       122  18  6.610614E+02 -4.954351E+05 -3.126773E+03 -1.559403E+02 -4.343469E-09 -5.981689E-11
       122  19 -2.591388E+02 -5.010520E+05 -2.425964E+03 -1.650402E+02  5.429565E+01 -1.746632E+02
       122  20 -6.180783E+02 -5.026832E+05 -3.347250E+03  3.086365E+02  1.062333E+02 -1.497972E+03
       122  21 -1.615240E+03 -5.046506E+05 -5.291003E+03 -3.469009E+02  1.842997E+02 -2.821257E+03
       122  22 -1.054521E+01 -5.000425E+05 -2.194506E+03 -2.507449E+02  5.432785E+01 -1.968214E+02
       122  23  7.665133E+01 -4.998733E+05 -2.685020E+03  3.135232E+02  1.062881E+02 -1.535802E+03
       122  24 -4.770872E+02 -5.000428E+05 -4.208879E+03 -2.514212E+02  1.843767E+02 -2.874764E+03
       122  25  2.380484E+02 -4.990330E+05 -1.963047E+03 -3.364499E+02  5.436006E+01 -2.189795E+02
       122  26  7.713804E+02 -4.970633E+05 -2.022790E+03  3.184100E+02  1.063429E+02 -1.573633E+03
       122  27  6.610637E+02 -4.954351E+05 -3.126757E+03 -1.559407E+02  1.844538E+02 -2.928271E+03
       123   1 -1.344617E+03 -5.070755E+05 -6.819112E+03  6.011697E+02 -2.387436E+02  3.657260E+03
       123   2 -1.430501E+03 -5.077743E+05 -1.064642E+04 -1.130478E+02 -3.211137E+02  8.080341E+03
       123   3 -7.959173E+03 -5.106646E+05 -1.896657E+04 -1.956615E+03 -3.818413E+02  1.250342E+04
       123   4  2.965538E+02 -5.004538E+05 -5.253340E+03 -2.484759E+02 -2.388238E+02  3.709332E+03
       123   5  6.484440E+02 -4.993603E+05 -8.662922E+03  3.120671E+02 -3.211642E+02  8.119478E+03
       123   6 -5.440160E+03 -5.004560E+05 -1.655632E+04 -2.567411E+02 -3.818442E+02  1.252964E+04
       123   7  1.937724E+03 -4.938321E+05 -3.687571E+03 -1.098131E+03 -2.389042E+02  3.761404E+03
       123   8  2.727384E+03 -4.909463E+05 -6.679433E+03  7.371879E+02 -3.212147E+02  8.158617E+03
       123   9 -2.921145E+03 -4.902474E+05 -1.414608E+04  1.443161E+03 -3.818469E+02  1.255586E+04
       123  10 -1.344620E+03 -5.070755E+05 -6.819138E+03  6.011704E+02 -2.696450E-09  5.071847E-10
       123  11 -1.430518E+03 -5.077744E+05 -1.064654E+04 -1.130457E+02 -3.477133E-10 -4.581197E-09
       123  12 -7.959215E+03 -5.106647E+05 -1.896687E+04 -1.956612E+03 -2.009702E-09 -6.985813E-09
       123  13  2.965500E+02 -5.004538E+05 -5.253366E+03 -2.484751E+02 -1.319262E-09 -2.713876E-11
       123  14  6.484262E+02 -4.993604E+05 -8.663046E+03  3.120692E+02 -8.934589E-10 -9.841418E-11
       123  15 -5.440203E+03 -5.004562E+05 -1.655662E+04 -2.567372E+02  1.781502E-09 -1.104564E-09
       123  16  1.937720E+03 -4.938321E+05 -3.687598E+03 -1.098130E+03 -2.102752E-09  5.874486E-10
       123  17  2.727366E+03 -4.909464E+05 -6.679558E+03  7.371900E+02  9.359180E-10  2.508851E-09
       123  18 -2.921187E+03 -4.902476E+05 -1.414637E+04  1.443165E+03 -8.482159E-10  7.424078E-09
       123  19 -1.344617E+03 -5.070755E+05 -6.819112E+03  6.011697E+02  2.387436E+02 -3.657260E+03
       123  20 -1.430501E+03 -5.077743E+05 -1.064642E+04 -1.130478E+02  3.211137E+02 -8.080341E+03
       123  21 -7.959173E+03 -5.106646E+05 -1.896657E+04 -1.956615E+03  3.818413E+02 -1.250342E+04
       123  22  2.965538E+02 -5.004538E+05 -5.253340E+03 -2.484759E+02  2.388238E+02 -3.709332E+03
       123  23  6.484440E+02 -4.993603E+05 -8.662922E+03  3.120671E+02  3.211642E+02 -8.119478E+03
       123  24 -5.440160E+03 -5.004560E+05 -1.655632E+04 -2.567411E+02  3.818442E+02 -1.252964E+04
       123  25  1.937724E+03 -4.938321E+05 -3.687571E+03 -1.098131E+03  2.389042E+02 -3.761404E+03
       123  26  2.727384E+03 -4.909463E+05 -6.679433E+03  7.371879E+02  3.212147E+02 -8.158617E+03
       123  27 -2.921145E+03 -4.902474E+05 -1.414608E+04  1.443161E+03  3.818469E+02 -1.255586E+04
       124   1  2.049882E+02 -5.165485E+05 -2.324557E+04  8.276632E+03 -4.827007E+02  1.548321E+04
       124   2  3.204959E+03 -5.084588E+05 -3.633018E+04 -6.201844E+03 -5.545317E+02  3.346375E+04
       124   3 -6.371604E+04 -5.201997E+05 -7.860821E+04 -2.185158E+04 -2.447003E+02  5.144460E+04
       124   4  3.247220E+03 -5.043641E+05 -2.037157E+04 -2.336160E+02 -4.831164E+02  1.562538E+04
       124   5  6.639620E+03 -4.944763E+05 -3.303502E+04  3.073347E+02 -5.540549E+02  3.337691E+04
       124   6 -5.984916E+04 -5.043793E+05 -7.473240E+04 -3.235082E+02 -2.424641E+02  5.112879E+04
       124   7  6.289714E+03 -4.921795E+05 -1.749754E+04 -8.744032E+03 -4.835360E+02  1.576756E+04
       124   8  1.007443E+04 -4.804936E+05 -2.973984E+04  6.816661E+03 -5.535799E+02  3.329006E+04
       124   9 -5.598056E+04 -4.885576E+05 -7.085636E+04  2.120512E+04 -2.402499E+02  5.081297E+04
       124  10  2.049235E+02 -5.165487E+05 -2.324602E+04  8.276638E+03 -2.578358E-09  8.837531E-09
       124  11  3.204657E+03 -5.084600E+05 -3.633229E+04 -6.201829E+03 -2.518359E-11  3.740694E-09
       124  12 -6.371676E+04 -5.202026E+05 -7.861319E+04 -2.185157E+04  4.380598E-11  7.891836E-10
       124  13  3.247154E+03 -5.043644E+05 -2.037203E+04 -2.336100E+02  6.928049E-09  1.807246E-11
       124  14  6.639320E+03 -4.944775E+05 -3.303711E+04  3.073496E+02  2.769609E-09 -2.793122E-09
       124  15 -5.984987E+04 -5.043821E+05 -7.473732E+04 -3.234982E+02  3.227168E-09  2.029115E-09
       124  16  6.289647E+03 -4.921798E+05 -1.749801E+04 -8.744026E+03  9.212059E-11 -8.844979E-09
       124  17  1.007413E+04 -4.804948E+05 -2.974192E+04  6.816676E+03  5.759895E-09 -5.868613E-09
       124  18 -5.598125E+04 -4.885604E+05 -7.086121E+04  2.120513E+04  2.657434E-09  2.981030E-09
       124  19  2.049882E+02 -5.165485E+05 -2.324557E+04  8.276632E+03  4.827007E+02 -1.548321E+04
       124  20  3.204959E+03 -5.084588E+05 -3.633018E+04 -6.201844E+03  5.545317E+02 -3.346375E+04
       124  21 -6.371604E+04 -5.201997E+05 -7.860821E+04 -2.185158E+04  2.447003E+02 -5.144460E+04
       124  22  3.247220E+03 -5.043641E+05 -2.037157E+04 -2.336160E+02  4.831164E+02 -1.562538E+04
       124  23  6.639620E+03 -4.944763E+05 -3.303502E+04  3.073347E+02  5.540549E+02 -3.337691E+04
       124  24 -5.984916E+04 -5.043793E+05 -7.473240E+04 -3.235082E+02  2.424641E+02 -5.112879E+04
       124  25  6.289714E+03 -4.921795E+05 -1.749754E+04 -8.744032E+03  4.835360E+02 -1.576756E+04
       124  26  1.007443E+04 -4.804936E+05 -2.973984E+04  6.816661E+03  5.535799E+02 -3.329006E+04
       124  27 -5.598056E+04 -4.885576E+05 -7.085636E+04  2.120512E+04  2.402499E+02 -5.081297E+04
       125   1 -6.189763E+06 -1.964744E+06 -9.773802E+05 -2.252615E+06 -3.617316E+05 -8.284884E+04
       125   2 -6.012634E+06 -1.698444E+06 -7.010479E+05 -2.187307E+06 -2.380017E+05  9.157963E+04
       125   3 -5.870648E+06 -1.582724E+06 -5.813002E+05 -2.131634E+06 -8.284063E+04  1.837954E+05
       125   4 -3.194073E+06 -7.406321E+05 -1.806550E+05 -1.337255E+06 -1.345622E+05  3.473450E+03
       125   5 -3.178523E+06 -6.078578E+05 -8.311898E+04 -1.358790E+06 -1.332906E+05  1.312393E+05
       125   6 -3.173390E+06 -6.008821E+05 -4.404672E+04 -1.390028E+06 -1.007286E+05  1.769279E+05
       125   7 -1.894971E+05  4.845003E+05  6.154877E+05 -4.176926E+05  9.381651E+04  9.033678E+04
       125   8 -3.361380E+05  4.835740E+05  5.343751E+05 -5.266872E+05 -2.805834E+04  1.711132E+05
       125   9 -4.685104E+05  3.815875E+05  4.928722E+05 -6.454134E+05 -1.187011E+05  1.700294E+05
       125  10 -6.189906E+06 -1.964787E+06 -9.776418E+05 -2.252639E+06  3.965398E-09  2.719036E-09
       125  11 -6.012698E+06 -1.698468E+06 -7.011707E+05 -2.187289E+06  4.569396E-10 -5.165716E-10
       125  12 -5.870665E+06 -1.582762E+06 -5.813764E+05 -2.131622E+06 -3.359276E-09  2.226377E-10
       125  13 -3.194093E+06 -7.406370E+05 -1.806892E+05 -1.337255E+06 -3.118120E-10 -9.240003E-10
       125  14 -3.178547E+06 -6.078811E+05 -8.318469E+04 -1.358776E+06  3.888081E-09 -3.439187E-10
       125  15 -3.173409E+06 -6.009184E+05 -4.412448E+04 -1.390014E+06  5.545706E-10 -2.034153E-09
       125  16 -1.895087E+05  4.844891E+05  6.154558E+05 -4.176994E+05 -2.363375E-09 -4.749588E-09
       125  17 -3.361467E+05  4.835424E+05  5.343187E+05 -5.266833E+05  1.315728E-09 -6.824937E-09
       125  18 -4.685333E+05  3.815528E+05  4.927916E+05 -6.453972E+05  3.653453E-09 -2.292768E-09
       125  19 -6.189763E+06 -1.964744E+06 -9.773802E+05 -2.252615E+06  3.617316E+05  8.284884E+04
       125  20 -6.012634E+06 -1.698444E+06 -7.010479E+05 -2.187307E+06  2.380017E+05 -9.157963E+04
       125  21 -5.870648E+06 -1.582724E+06 -5.813002E+05 -2.131634E+06  8.284063E+04 -1.837954E+05
       125  22 -3.194073E+06 -7.406321E+05 -1.806550E+05 -1.337255E+06  1.345622E+05 -3.473450E+03
       125  23 -3.178523E+06 -6.078578E+05 -8.311898E+04 -1.358790E+06  1.332906E+05 -1.312393E+05
       125  24 -3.173390E+06 -6.008821E+05 -4.404672E+04 -1.390028E+06  1.007286E+05 -1.769279E+05
       125  25 -1.894971E+05  4.845003E+05  6.154877E+05 -4.176926E+05 -9.381651E+04 -9.033678E+04
       125  26 -3.361380E+05  4.835740E+05  5.343751E+05 -5.266872E+05  2.805834E+04 -1.711132E+05
       125  27 -4.685104E+05  3.815875E+05  4.928722E+05 -6.454134E+05  1.187011E+05 -1.700294E+05
       126   1 -5.726091E+06 -1.549383E+06 -5.432893E+05 -2.104210E+06 -8.914002E+04  1.729284E+05
       126   2 -5.553742E+06 -1.453203E+06 -4.809137E+05 -2.031546E+06 -6.890339E+04  1.742221E+05
       126   3 -5.350065E+06 -1.398130E+06 -4.334708E+05 -1.997581E+06 -4.635672E+04  1.693553E+05
       126   4 -3.167028E+06 -6.054901E+05 -3.352011E+04 -1.387364E+06 -9.290340E+04  1.714207E+05
       126   5 -3.182960E+06 -5.826040E+05 -1.780028E+04 -1.369169E+06 -8.181945E+04  1.692660E+05
       126   6 -3.165760E+06 -5.989742E+05 -9.677107E+03 -1.389674E+06 -6.843639E+04  1.609613E+05
       126   7 -6.011286E+05  3.390057E+05  4.759388E+05 -6.677478E+05 -9.668362E+04  1.699069E+05
       126   8 -8.063000E+05  2.885089E+05  4.450591E+05 -7.044213E+05 -9.478890E+04  1.642898E+05
       126   9 -9.764727E+05  2.006091E+05  4.139038E+05 -7.797680E+05 -9.059995E+04  1.525359E+05
       126  10 -5.726108E+06 -1.549417E+06 -5.433603E+05 -2.104197E+06 -1.313480E-09  1.047364E-09
       126  11 -5.553756E+06 -1.453237E+06 -4.809795E+05 -2.031536E+06 -4.643568E-09  2.048048E-09
       126  12 -5.350075E+06 -1.398161E+06 -4.335286E+05 -1.997575E+06  9.585617E-10  3.722667E-11
       126  13 -3.167046E+06 -6.055239E+05 -3.359143E+04 -1.387352E+06  6.303612E-10 -3.858938E-10
       126  14 -3.182974E+06 -5.826365E+05 -1.786658E+04 -1.369157E+06 -3.879424E-09 -2.237174E-10
       126  15 -3.165772E+06 -5.990033E+05 -9.734493E+03 -1.389665E+06  2.361070E-09 -2.016899E-09
       126  16 -6.011463E+05  3.389723E+05  4.758671E+05 -6.677345E+05  2.165533E-09 -1.778977E-09
       126  17 -8.063169E+05  2.884776E+05  4.449916E+05 -7.044088E+05  3.081721E-09 -1.920466E-09
       126  18 -9.764878E+05  2.005819E+05  4.138447E+05 -7.797569E+05 -3.780983E-10 -1.941084E-09
       126  19 -5.726091E+06 -1.549383E+06 -5.432893E+05 -2.104210E+06  8.914002E+04 -1.729284E+05
       126  20 -5.553742E+06 -1.453203E+06 -4.809137E+05 -2.031546E+06  6.890339E+04 -1.742221E+05
       126  21 -5.350065E+06 -1.398130E+06 -4.334708E+05 -1.997581E+06  4.635672E+04 -1.693553E+05
       126  22 -3.167028E+06 -6.054901E+05 -3.352011E+04 -1.387364E+06  9.290340E+04 -1.714207E+05
       126  23 -3.182960E+06 -5.826040E+05 -1.780028E+04 -1.369169E+06  8.181945E+04 -1.692660E+05
       126  24 -3.165760E+06 -5.989742E+05 -9.677107E+03 -1.389674E+06  6.843639E+04 -1.609613E+05
       126  25 -6.011286E+05  3.390057E+05  4.759388E+05 -6.677478E+05  9.668362E+04 -1.699069E+05
       126  26 -8.063000E+05  2.885089E+05  4.450591E+05 -7.044213E+05  9.478890E+04 -1.642898E+05
       126  27 -9.764727E+05  2.006091E+05  4.139038E+05 -7.797680E+05  9.059995E+04 -1.525359E+05
       127   1 -5.220332E+06 -1.351241E+06 -4.049520E+05 -1.962132E+06 -4.259545E+04  1.608706E+05
       127   2 -5.044527E+06 -1.261251E+06 -3.639071E+05 -1.887246E+06 -3.425329E+04  1.474837E+05
       127   3 -4.832478E+06 -1.207634E+06 -3.249221E+05 -1.853399E+06 -2.572537E+04  1.335315E+05
       127   4 -3.165078E+06 -5.992710E+05 -7.303122E+03 -1.389781E+06 -6.380273E+04  1.528196E+05
       127   5 -3.183072E+06 -5.807776E+05 -4.079075E+03 -1.369347E+06 -5.629544E+04  1.391386E+05
       127   6 -3.164706E+06 -5.984878E+05 -2.252193E+03 -1.389961E+06 -4.860374E+04  1.248929E+05
       127   7 -1.105374E+06  1.530935E+05  3.901690E+05 -8.156481E+05 -8.508615E+04  1.447400E+05
       127   8 -1.317974E+06  1.000160E+05  3.556030E+05 -8.499910E+05 -7.840914E+04  1.307666E+05
       127   9 -1.494018E+06  1.091148E+04  3.202990E+05 -9.253563E+05 -7.154851E+04  1.162294E+05
       127  10 -5.220341E+06 -1.351269E+06 -4.050040E+05 -1.962127E+06  1.145065E-10 -1.027751E-09
       127  11 -5.044534E+06 -1.261275E+06 -3.639501E+05 -1.887242E+06  1.715791E-10 -1.200144E-09
       127  12 -4.832484E+06 -1.207653E+06 -3.249568E+05 -1.853396E+06  8.791948E-10 -5.592851E-10
       127  13 -3.165088E+06 -5.992971E+05 -7.354566E+03 -1.389773E+06  9.907502E-10 -1.504792E-09
       127  14 -3.183080E+06 -5.807992E+05 -4.121335E+03 -1.369341E+06  3.815345E-10 -7.576251E-10
       127  15 -3.164713E+06 -5.985051E+05 -2.285885E+03 -1.389956E+06  1.295114E-10 -1.058370E-09
       127  16 -1.105388E+06  1.530691E+05  3.901162E+05 -8.156382E+05 -7.915832E-10 -1.325829E-09
       127  17 -1.317985E+06  9.999605E+04  3.555594E+05 -8.499828E+05 -5.122487E-10 -5.758374E-10
       127  18 -1.494027E+06  1.089563E+04  3.202640E+05 -9.253496E+05  8.191587E-10 -2.223989E-09
       127  19 -5.220332E+06 -1.351241E+06 -4.049520E+05 -1.962132E+06  4.259545E+04 -1.608706E+05
       127  20 -5.044527E+06 -1.261251E+06 -3.639071E+05 -1.887246E+06  3.425329E+04 -1.474837E+05
       127  21 -4.832478E+06 -1.207634E+06 -3.249221E+05 -1.853399E+06  2.572537E+04 -1.335315E+05
       127  22 -3.165078E+06 -5.992710E+05 -7.303122E+03 -1.389781E+06  6.380273E+04 -1.528196E+05
       127  23 -3.183072E+06 -5.807776E+05 -4.079075E+03 -1.369347E+06  5.629544E+04 -1.391386E+05
       127  24 -3.164706E+06 -5.984878E+05 -2.252193E+03 -1.389961E+06  4.860374E+04 -1.248929E+05
       127  25 -1.105374E+06  1.530935E+05  3.901690E+05 -8.156481E+05  8.508615E+04 -1.447400E+05
       127  26 -1.317974E+06  1.000160E+05  3.556030E+05 -8.499910E+05  7.840914E+04 -1.307666E+05
       127  27 -1.494018E+06  1.091148E+04  3.202990E+05 -9.253563E+05  7.154851E+04 -1.162294E+05
       128   1 -4.700809E+06 -1.159296E+06 -2.978596E+05 -1.816971E+06 -2.196769E+04  1.247415E+05
       128   2 -4.521349E+06 -1.068288E+06 -2.594455E+05 -1.740809E+06 -1.542616E+04  1.096230E+05
       128   3 -4.304889E+06 -1.014012E+06 -2.215019E+05 -1.706606E+06 -8.859480E+03  9.438167E+04
       128   4 -3.164466E+06 -5.985409E+05 -1.749032E+03 -1.390147E+06 -4.490556E+04  1.160916E+05
       128   5 -3.182839E+06 -5.799550E+05 -1.130762E+03 -1.369212E+06 -3.854504E+04  1.009206E+05
       128   6 -3.164221E+06 -5.980660E+05 -8.431849E+02 -1.390247E+06 -3.215967E+04  8.562684E+04
       128   7 -1.625662E+06 -3.757617E+04  2.942585E+05 -9.623371E+05 -6.790451E+04  1.074188E+05
       128   8 -1.842451E+06 -9.145976E+04  2.571088E+05 -9.968648E+05 -6.171771E+04  9.219804E+04
       128   9 -2.022179E+06 -1.819988E+05  2.197640E+05 -1.073341E+06 -5.550623E+04  7.685464E+04
       128  10 -4.700813E+06 -1.159313E+06 -2.978897E+05 -1.816968E+06  2.114657E-09  1.025153E-10
       128  11 -4.521353E+06 -1.068301E+06 -2.594685E+05 -1.740808E+06  3.092258E-10  3.581213E-10
       128  12 -4.304892E+06 -1.014021E+06 -2.215188E+05 -1.706605E+06  4.785834E-10  2.928237E-10
       128  13 -3.164472E+06 -5.985559E+05 -1.778096E+03 -1.390143E+06  1.270399E-09 -5.097409E-10
       128  14 -3.182844E+06 -5.799663E+05 -1.152654E+03 -1.369209E+06  5.979215E-10  3.133828E-10
       128  15 -3.164224E+06 -5.980742E+05 -8.588788E+02 -1.390245E+06  4.003225E-10  5.841647E-10
       128  16 -1.625670E+06 -3.758977E+04  2.942282E+05 -9.623312E+05  3.055981E-10 -6.641786E-10
       128  17 -1.842457E+06 -9.146989E+04  2.570857E+05 -9.968602E+05 -1.343725E-09  2.419904E-10
       128  18 -2.022184E+06 -1.820060E+05  2.197471E+05 -1.073338E+06 -1.091370E-09  5.104812E-10
       128  19 -4.700809E+06 -1.159296E+06 -2.978596E+05 -1.816971E+06  2.196769E+04 -1.247415E+05
       128  20 -4.521349E+06 -1.068288E+06 -2.594455E+05 -1.740809E+06  1.542616E+04 -1.096230E+05
       128  21 -4.304889E+06 -1.014012E+06 -2.215019E+05 -1.706606E+06  8.859480E+03 -9.438167E+04
       128  22 -3.164466E+06 -5.985409E+05 -1.749032E+03 -1.390147E+06  4.490556E+04 -1.160916E+05
       128  23 -3.182839E+06 -5.799550E+05 -1.130762E+03 -1.369212E+06  3.854504E+04 -1.009206E+05
       128  24 -3.164221E+06 -5.980660E+05 -8.431849E+02 -1.390247E+06  3.215967E+04 -8.562684E+04
       128  25 -1.625662E+06 -3.757617E+04  2.942585E+05 -9.623371E+05  6.790451E+04 -1.074188E+05
       128  26 -1.842451E+06 -9.145976E+04  2.571088E+05 -9.968648E+05  6.171771E+04 -9.219804E+04
       128  27 -2.022179E+06 -1.819988E+05  2.197640E+05 -1.073341E+06  5.550623E+04 -7.685464E+04
       129   1 -4.171080E+06 -9.650168E+05 -1.945476E+05 -1.669677E+06 -5.221971E+03  8.538345E+04
       129   2 -3.988997E+06 -8.731798E+05 -1.565939E+05 -1.592712E+06  1.263469E+03  6.996399E+04
       129   3 -3.769662E+06 -8.185129E+05 -1.190652E+05 -1.558322E+06  7.753610E+03  5.449752E+04
       129   4 -3.164096E+06 -5.980920E+05 -8.519871E+02 -1.390385E+06 -2.861052E+04  7.660299E+04
       129   5 -3.182627E+06 -5.793519E+05 -1.091384E+03 -1.369127E+06 -2.219539E+04  6.116665E+04
       129   6 -3.163938E+06 -5.977687E+05 -1.703249E+03 -1.390457E+06 -1.577581E+04  4.568334E+04
       129   7 -2.156048E+06 -2.310752E+05  1.928025E+05 -1.110669E+06 -5.203996E+04  6.780720E+04
       129   8 -2.375578E+06 -2.854663E+05  1.543844E+05 -1.145272E+06 -4.568698E+04  5.235704E+04
       129   9 -2.557834E+06 -3.769934E+05  1.156435E+05 -1.222441E+06 -3.932976E+04  3.685997E+04
       129  10 -4.171082E+06 -9.650246E+05 -1.945614E+05 -1.669677E+06 -4.982932E-10  2.217623E-10
       129  11 -3.988999E+06 -8.731851E+05 -1.566031E+05 -1.592712E+06  9.395760E-10  9.192115E-10
       129  12 -3.769663E+06 -8.185161E+05 -1.190709E+05 -1.558323E+06  6.969983E-10  2.795360E-10
       129  13 -3.164098E+06 -5.980985E+05 -8.645303E+02 -1.390383E+06  7.850507E-10  7.527772E-10
       129  14 -3.182628E+06 -5.793560E+05 -1.099327E+03 -1.369126E+06 -9.409708E-10 -8.013700E-10
       129  15 -3.163939E+06 -5.977710E+05 -1.707631E+03 -1.390457E+06 -1.477839E-09 -1.698378E-09
       129  16 -2.156052E+06 -2.310809E+05  1.927888E+05 -1.110666E+06  5.378251E-10  1.007696E-09
       129  17 -2.375581E+06 -2.854698E+05  1.543753E+05 -1.145270E+06 -2.809228E-10 -1.798206E-10
       129  18 -2.557836E+06 -3.769952E+05  1.156380E+05 -1.222439E+06 -9.719880E-10 -7.157676E-10
       129  19 -4.171080E+06 -9.650168E+05 -1.945476E+05 -1.669677E+06  5.221971E+03 -8.538345E+04
       129  20 -3.988997E+06 -8.731798E+05 -1.565939E+05 -1.592712E+06 -1.263469E+03 -6.996399E+04
       129  21 -3.769662E+06 -8.185129E+05 -1.190652E+05 -1.558322E+06 -7.753610E+03 -5.449752E+04
       129  22 -3.164096E+06 -5.980920E+05 -8.519871E+02 -1.390385E+06  2.861052E+04 -7.660299E+04
       129  23 -3.182627E+06 -5.793519E+05 -1.091384E+03 -1.369127E+06  2.219539E+04 -6.116665E+04
       129  24 -3.163938E+06 -5.977687E+05 -1.703249E+03 -1.390457E+06  1.577581E+04 -4.568334E+04
       129  25 -2.156048E+06 -2.310752E+05  1.928025E+05 -1.110669E+06  5.203996E+04 -6.780720E+04
       129  26 -2.375578E+06 -2.854663E+05  1.543844E+05 -1.145272E+06  4.568698E+04 -5.235704E+04
       129  27 -2.557834E+06 -3.769934E+05  1.156435E+05 -1.222441E+06  3.932976E+04 -3.685997E+04
       130   1 -3.634494E+06 -7.691414E+05 -9.236180E+04 -1.521105E+06  1.158307E+04  4.547949E+04
       130   2 -3.450923E+06 -6.769237E+05 -5.560345E+04 -1.443713E+06  1.922800E+04  3.045083E+04
       130   3 -3.230198E+06 -6.222654E+05 -2.020094E+04 -1.409221E+06  2.681966E+04  1.555437E+04
       130   4 -3.163931E+06 -5.977740E+05 -2.221891E+03 -1.390554E+06 -1.201975E+04  3.664165E+04
       130   5 -3.182447E+06 -5.789752E+05 -3.941433E+03 -1.369086E+06 -4.179393E+03  2.168921E+04
       130   6 -3.163897E+06 -5.977803E+05 -7.176222E+03 -1.390536E+06  3.607062E+03  6.868811E+03
       130   7 -2.693131E+06 -4.263845E+05  8.791223E+04 -1.259908E+06 -3.564202E+04  2.779649E+04
       130   8 -2.913893E+06 -4.810192E+05  4.772021E+04 -1.294429E+06 -2.759778E+04  1.292344E+04
       130   9 -3.097590E+06 -5.732944E+05  5.850624E+03 -1.371850E+06 -1.960821E+04 -1.817784E+03
       130  10 -3.634495E+06 -7.691436E+05 -9.236594E+04 -1.521106E+06  4.722144E-10 -5.028897E-10
       130  11 -3.450924E+06 -6.769248E+05 -5.560590E+04 -1.443714E+06  2.202519E-11 -5.443409E-10
       130  12 -3.230199E+06 -6.222659E+05 -2.020276E+04 -1.409221E+06 -1.745042E-09 -7.360692E-10
       130  13 -3.163932E+06 -5.977755E+05 -2.224681E+03 -1.390553E+06 -1.054506E-09 -1.690442E-09
       130  14 -3.182447E+06 -5.789757E+05 -3.942348E+03 -1.369086E+06  2.612606E-09  2.149544E-09
       130  15 -3.163897E+06 -5.977804E+05 -7.176336E+03 -1.390536E+06  7.191427E-11  8.141882E-10
       130  16 -2.693132E+06 -4.263857E+05  8.790839E+04 -1.259907E+06 -3.315514E-10 -7.322116E-10
       130  17 -2.913893E+06 -4.810196E+05  4.771846E+04 -1.294428E+06 -1.437141E-09 -1.344297E-09
       130  18 -3.097590E+06 -5.732945E+05  5.849891E+03 -1.371850E+06  1.355298E-09  1.737217E-09
       130  19 -3.634494E+06 -7.691414E+05 -9.236180E+04 -1.521105E+06 -1.158307E+04 -4.547949E+04
       130  20 -3.450923E+06 -6.769237E+05 -5.560345E+04 -1.443713E+06 -1.922800E+04 -3.045083E+04
       130  21 -3.230198E+06 -6.222654E+05 -2.020094E+04 -1.409221E+06 -2.681966E+04 -1.555437E+04
       130  22 -3.163931E+06 -5.977740E+05 -2.221891E+03 -1.390554E+06  1.201975E+04 -3.664165E+04
       130  23 -3.182447E+06 -5.789752E+05 -3.941433E+03 -1.369086E+06  4.179393E+03 -2.168921E+04
       130  24 -3.163897E+06 -5.977803E+05 -7.176222E+03 -1.390536E+06 -3.607062E+03 -6.868811E+03
       130  25 -2.693131E+06 -4.263845E+05  8.791223E+04 -1.259908E+06  3.564202E+04 -2.779649E+04
       130  26 -2.913893E+06 -4.810192E+05  4.772021E+04 -1.294429E+06  2.759778E+04 -1.292344E+04
       130  27 -3.097590E+06 -5.732944E+05  5.850624E+03 -1.371850E+06  1.960821E+04  1.817784E+03
       131   1 -3.094380E+06 -5.730187E+05  4.775516E+03 -1.372553E+06  3.194644E+04  7.021934E+03
       131   2 -2.911266E+06 -4.802993E+05  3.640220E+04 -1.293279E+06  4.310107E+04 -5.545217E+03
       131   3 -2.692976E+06 -4.287352E+05  6.277539E+04 -1.256007E+06  5.347989E+04 -1.602713E+04
       131   4 -3.164308E+06 -5.975887E+05 -9.548641E+03 -1.390757E+06  8.367949E+03 -1.800462E+03
       131   5 -3.182000E+06 -5.795894E+05 -1.744877E+04 -1.368678E+06  2.263980E+04 -1.320415E+04
       131   6 -3.165181E+06 -6.033731E+05 -3.308640E+04 -1.388619E+06  3.613376E+04 -2.252282E+04
       131   7 -3.234230E+06 -6.221577E+05 -2.387049E+04 -1.408959E+06 -1.520746E+04 -1.062181E+04
       131   8 -3.452657E+06 -6.788726E+05 -7.130140E+04 -1.444046E+06  2.188137E+03 -2.085945E+04
       131   9 -3.637158E+06 -7.779918E+05 -1.289592E+05 -1.521138E+06  1.880171E+04 -2.901309E+04
       131  10 -3.094381E+06 -5.730190E+05  4.773494E+03 -1.372553E+06  2.425540E-10  1.500003E-11
       131  11 -2.911268E+06 -4.802998E+05  3.639864E+04 -1.293279E+06 -9.225684E-10 -1.762295E-09
       131  12 -2.692979E+06 -4.287362E+05  6.276952E+04 -1.256006E+06  1.174868E-09 -8.058374E-10
       131  13 -3.164308E+06 -5.975887E+05 -9.548779E+03 -1.390757E+06 -4.121356E-10  2.878558E-10
       131  14 -3.182000E+06 -5.795898E+05 -1.745006E+04 -1.368678E+06  4.767840E-10  1.113520E-10
       131  15 -3.165182E+06 -6.033740E+05 -3.308981E+04 -1.388619E+06  6.557136E-10 -1.552855E-10
       131  16 -3.234230E+06 -6.221579E+05 -2.387114E+04 -1.408959E+06 -1.348422E-09  2.757780E-10
       131  17 -3.452657E+06 -6.788731E+05 -7.130222E+04 -1.444046E+06  1.811812E-09  1.960411E-09
       131  18 -3.637158E+06 -7.779928E+05 -1.289614E+05 -1.521138E+06 -6.580523E-10 -2.121791E-10
       131  19 -3.094380E+06 -5.730187E+05  4.775516E+03 -1.372553E+06 -3.194644E+04 -7.021934E+03
       131  20 -2.911266E+06 -4.802993E+05  3.640220E+04 -1.293279E+06 -4.310107E+04  5.545217E+03
       131  21 -2.692976E+06 -4.287352E+05  6.277539E+04 -1.256007E+06 -5.347989E+04  1.602713E+04
       131  22 -3.164308E+06 -5.975887E+05 -9.548641E+03 -1.390757E+06 -8.367949E+03  1.800462E+03
       131  23 -3.182000E+06 -5.795894E+05 -1.744877E+04 -1.368678E+06 -2.263980E+04  1.320415E+04
       131  24 -3.165181E+06 -6.033731E+05 -3.308640E+04 -1.388619E+06 -3.613376E+04  2.252282E+04
       131  25 -3.234230E+06 -6.221577E+05 -2.387049E+04 -1.408959E+06  1.520746E+04  1.062181E+04
       131  26 -3.452657E+06 -6.788726E+05 -7.130140E+04 -1.444046E+06 -2.188137E+03  2.085945E+04
       131  27 -3.637158E+06 -7.779918E+05 -1.289592E+05 -1.521138E+06 -1.880171E+04  2.901309E+04
       132   1 -2.551880E+06 -3.848237E+05  8.032980E+04 -1.233343E+06  6.666090E+04 -2.111804E+04
       132   2 -2.396813E+06 -2.782691E+05  9.582983E+04 -1.104103E+06  6.733839E+04 -2.160190E+04
       132   3 -2.238855E+06 -2.948102E+05  8.697667E+04 -9.920963E+05  5.738415E+04  6.258084E+03
       132   4 -3.170741E+06 -5.993574E+05 -4.351374E+04 -1.392110E+06  4.438692E+04 -2.946046E+04
       132   5 -3.177868E+06 -6.031125E+05 -8.194432E+04 -1.357491E+06  8.755913E+04 -1.403602E+04
       132   6 -3.190653E+06 -7.385181E+05 -1.785615E+05 -1.340132E+06  1.200895E+05  2.974922E+04
       132   7 -3.789209E+06 -8.138692E+05 -1.673746E+05 -1.550735E+06  2.213680E+04 -3.779502E+04
       132   8 -3.958283E+06 -9.278537E+05 -2.597524E+05 -1.610564E+06  1.077520E+05 -6.483671E+03
       132   9 -4.141500E+06 -1.181998E+06 -4.441557E+05 -1.687619E+06  1.826871E+05  5.317786E+04
       132  10 -2.551885E+06 -3.848254E+05  8.032059E+04 -1.233342E+06 -2.938271E-10 -1.062442E-09
       132  11 -2.396818E+06 -2.782708E+05  9.582041E+04 -1.104102E+06 -1.369155E-09 -5.709182E-10
       132  12 -2.238859E+06 -2.948111E+05  8.697039E+04 -9.920966E+05  1.035720E-09  5.325557E-10
       132  13 -3.170744E+06 -5.993589E+05 -4.351908E+04 -1.392109E+06  1.228767E-09  7.401979E-10
       132  14 -3.177876E+06 -6.031148E+05 -8.195916E+04 -1.357490E+06  2.083295E-09  1.865558E-09
       132  15 -3.190669E+06 -7.385229E+05 -1.785904E+05 -1.340135E+06  7.056500E-11  2.586833E-10
       132  16 -3.789210E+06 -8.138708E+05 -1.673782E+05 -1.550735E+06  1.070920E-09  1.673208E-09
       132  17 -3.958295E+06 -9.278569E+05 -2.597744E+05 -1.610563E+06 -4.322340E-10  9.042712E-10
       132  18 -4.141537E+06 -1.182010E+06 -4.442242E+05 -1.687627E+06 -1.557428E-09  1.042031E-10
       132  19 -2.551880E+06 -3.848237E+05  8.032980E+04 -1.233343E+06 -6.666090E+04  2.111804E+04
       132  20 -2.396813E+06 -2.782691E+05  9.582983E+04 -1.104103E+06 -6.733839E+04  2.160190E+04
       132  21 -2.238855E+06 -2.948102E+05  8.697667E+04 -9.920963E+05 -5.738415E+04 -6.258084E+03
       132  22 -3.170741E+06 -5.993574E+05 -4.351374E+04 -1.392110E+06 -4.438692E+04  2.946046E+04
       132  23 -3.177868E+06 -6.031125E+05 -8.194432E+04 -1.357491E+06 -8.755913E+04  1.403602E+04
       132  24 -3.190653E+06 -7.385181E+05 -1.785615E+05 -1.340132E+06 -1.200895E+05 -2.974922E+04
       132  25 -3.789209E+06 -8.138692E+05 -1.673746E+05 -1.550735E+06 -2.213680E+04  3.779502E+04
       132  26 -3.958283E+06 -9.278537E+05 -2.597524E+05 -1.610564E+06 -1.077520E+05  6.483671E+03
       132  27 -4.141500E+06 -1.181998E+06 -4.441557E+05 -1.687619E+06 -1.826871E+05 -5.317786E+04
       133   1  1.724515E+05  3.389195E+04  5.220434E+04  1.507057E+04  5.681138E+04  1.381828E+03
       133   2  1.729631E+05 -4.080091E+04  7.740449E+03  4.370966E+03  3.799903E+04  4.049302E+03
       133   3  1.969342E+05 -3.155778E+04 -3.487059E+03 -1.537889E+04  1.918707E+04  3.652872E+03
       133   4  3.100633E+05  6.817272E+04  8.614797E+04 -6.350387E+03  5.894199E+04  1.380737E+03
       133   5  2.982074E+05 -9.768037E+03  3.771773E+04 -1.811318E+03  3.858063E+04  4.049070E+03
       133   6  3.100737E+05 -3.514075E+03  2.359392E+04 -6.322171E+03  1.822007E+04  3.652848E+03
       133   7  4.476933E+05  1.024538E+05  1.200905E+05 -2.777610E+04  6.107306E+04  1.379500E+03
       133   8  4.234660E+05  2.126385E+04  6.769392E+04 -7.994855E+03  3.916235E+04  4.048826E+03
       133   9  4.232252E+05  2.452901E+04  5.067405E+04  2.736205E+03  1.725290E+04  3.652796E+03
       133  10  1.724480E+05  3.389108E+04  5.219827E+04  1.507050E+04  1.155398E-09 -1.425086E-10
       133  11  1.729616E+05 -4.080132E+04  7.737706E+03  4.370843E+03  6.658146E-10  5.643458E-10
       133  12  1.969338E+05 -3.155789E+04 -3.487776E+03 -1.537895E+04  1.466524E-09 -7.626826E-10
       133  13  3.100595E+05  6.817178E+04  8.614144E+04 -6.350452E+03  3.296267E-10  4.600538E-10
       133  14  2.982058E+05 -9.768454E+03  3.771490E+04 -1.811443E+03  1.085862E-09  3.274426E-10
       133  15  3.100734E+05 -3.514179E+03  2.359328E+04 -6.322224E+03  1.919700E-09 -5.442701E-10
       133  16  4.476893E+05  1.024528E+05  1.200835E+05 -2.777616E+04 -2.170991E-09  3.662507E-10
       133  17  4.234644E+05  2.126342E+04  6.769100E+04 -7.994982E+03  5.837091E-10  2.954525E-10
       133  18  4.232249E+05  2.452891E+04  5.067347E+04  2.736154E+03 -5.076263E-10  6.533580E-10
       133  19  1.724515E+05  3.389195E+04  5.220434E+04  1.507057E+04 -5.681138E+04 -1.381828E+03
       133  20  1.729631E+05 -4.080091E+04  7.740449E+03  4.370966E+03 -3.799903E+04 -4.049302E+03
       133  21  1.969342E+05 -3.155778E+04 -3.487059E+03 -1.537889E+04 -1.918707E+04 -3.652872E+03
       133  22  3.100633E+05  6.817272E+04  8.614797E+04 -6.350387E+03 -5.894199E+04 -1.380737E+03
       133  23  2.982074E+05 -9.768037E+03  3.771773E+04 -1.811318E+03 -3.858063E+04 -4.049070E+03
       133  24  3.100737E+05 -3.514075E+03  2.359392E+04 -6.322171E+03 -1.822007E+04 -3.652848E+03
       133  25  4.476933E+05  1.024538E+05  1.200905E+05 -2.777610E+04 -6.107306E+04 -1.379500E+03
       133  26  4.234660E+05  2.126385E+04  6.769392E+04 -7.994855E+03 -3.916235E+04 -4.048826E+03
       133  27  4.232252E+05  2.452901E+04  5.067405E+04  2.736205E+03 -1.725290E+04 -3.652796E+03
       134   1  2.086328E+05 -1.684259E+04 -3.985158E+03 -4.306377E+03  1.462553E+04  2.930880E+03
       134   2  2.192561E+05 -2.206660E+04 -1.051330E+04 -1.323538E+03  9.722071E+03  2.673935E+03
       134   3  2.327548E+05 -1.839203E+04 -1.162243E+04 -7.337997E+03  4.818507E+03  2.190142E+03
       134   4  3.054439E+05  7.160008E+03  1.924980E+04 -6.319884E+03  1.455526E+04  2.930786E+03
       134   5  3.039975E+05 -1.062890E+03  9.789051E+03 -1.820481E+03  9.536718E+03  2.673869E+03
       134   6  3.054459E+05 -3.679577E+02  5.826569E+03 -6.318268E+03  4.518163E+03  2.190094E+03
       134   7  4.022635E+05  3.116194E+04  4.248409E+04 -8.333707E+03  1.448498E+04  2.930692E+03
       134   8  3.887455E+05  1.994029E+04  3.009089E+04 -2.317492E+03  9.351339E+03  2.673803E+03
       134   9  3.781419E+05  1.765573E+04  2.327520E+04 -5.298420E+03  4.217784E+03  2.190045E+03
       134  10  2.086326E+05 -1.684266E+04 -3.985576E+03 -4.306411E+03  6.118187E-10 -9.214870E-10
       134  11  2.192560E+05 -2.206663E+04 -1.051349E+04 -1.323559E+03  7.047926E-11  1.914268E-10
       134  12  2.327547E+05 -1.839204E+04 -1.162249E+04 -7.338005E+03 -1.262233E-09  5.416918E-10
       134  13  3.054437E+05  7.159942E+03  1.924938E+04 -6.319918E+03  2.239977E-10 -6.295812E-11
       134  14  3.039974E+05 -1.062922E+03  9.788867E+03 -1.820501E+03 -9.653503E-10  2.051459E-10
       134  15  3.054459E+05 -3.679684E+02  5.826522E+03 -6.318276E+03 -3.732134E-10  6.393073E-10
       134  16  4.022633E+05  3.116188E+04  4.248368E+04 -8.333741E+03 -1.184030E-10  1.337478E-10
       134  17  3.887454E+05  1.994026E+04  3.009071E+04 -2.317513E+03  3.002702E-09 -5.561361E-11
       134  18  3.781419E+05  1.765572E+04  2.327515E+04 -5.298428E+03  1.310780E-09  1.015453E-09
       134  19  2.086328E+05 -1.684259E+04 -3.985158E+03 -4.306377E+03 -1.462553E+04 -2.930880E+03
       134  20  2.192561E+05 -2.206660E+04 -1.051330E+04 -1.323538E+03 -9.722071E+03 -2.673935E+03
       134  21  2.327548E+05 -1.839203E+04 -1.162243E+04 -7.337997E+03 -4.818507E+03 -2.190142E+03
       134  22  3.054439E+05  7.160008E+03  1.924980E+04 -6.319884E+03 -1.455526E+04 -2.930786E+03
       134  23  3.039975E+05 -1.062890E+03  9.789051E+03 -1.820481E+03 -9.536718E+03 -2.673869E+03
       134  24  3.054459E+05 -3.679577E+02  5.826569E+03 -6.318268E+03 -4.518163E+03 -2.190094E+03
       134  25  4.022635E+05  3.116194E+04  4.248409E+04 -8.333707E+03 -1.448498E+04 -2.930692E+03
       134  26  3.887455E+05  1.994029E+04  3.009089E+04 -2.317492E+03 -9.351339E+03 -2.673803E+03
       134  27  3.781419E+05  1.765573E+04  2.327520E+04 -5.298420E+03 -4.217784E+03 -2.190045E+03
       135   1  2.483713E+05 -1.326535E+04 -8.950740E+03 -6.157077E+03  3.832554E+03  1.872780E+03
       135   2  2.601452E+05 -1.116027E+04 -8.182543E+03 -1.822952E+03  2.591225E+03  1.401615E+03
       135   3  2.723192E+05 -8.118454E+03 -6.371391E+03 -6.426807E+03  1.349849E+03  9.143665E+02
       135   4  3.048922E+05  7.376612E+02  4.560777E+03 -6.305631E+03  3.599339E+03  1.872743E+03
       135   5  3.046918E+05 -1.190729E+02  2.490770E+03 -1.836624E+03  2.349796E+03  1.401588E+03
       135   6  3.048927E+05 -3.764976E+01  1.469393E+03 -6.305556E+03  1.100230E+03  9.143502E+02
       135   7  3.614161E+05  1.474044E+04  1.807207E+04 -6.454199E+03  3.366103E+03  1.872706E+03
       135   8  3.492401E+05  1.092198E+04  1.316394E+04 -1.850296E+03  2.108350E+03  1.401561E+03
       135   9  3.374672E+05  8.043078E+03  9.310100E+03 -6.184299E+03  8.505978E+02  9.143338E+02
       135  10  2.483712E+05 -1.326536E+04 -8.950775E+03 -6.157083E+03  7.364291E-10  4.253543E-10
       135  11  2.601452E+05 -1.116027E+04 -8.182559E+03 -1.822955E+03 -1.130519E-09 -1.697282E-10
       135  12  2.723192E+05 -8.118456E+03 -6.371396E+03 -6.426808E+03 -2.754528E-09 -6.318854E-10
       135  13  3.048922E+05  7.376539E+02  4.560746E+03 -6.305637E+03 -4.547026E-11  5.550577E-10
       135  14  3.046918E+05 -1.190765E+02  2.490756E+03 -1.836626E+03 -1.106338E-09 -4.733955E-10
       135  15  3.048927E+05 -3.765098E+01  1.469389E+03 -6.305557E+03 -7.228087E-11 -1.023751E-09
       135  16  3.614160E+05  1.474043E+04  1.807204E+04 -6.454204E+03  1.627052E-10  6.934523E-10
       135  17  3.492401E+05  1.092197E+04  1.316393E+04 -1.850299E+03  2.371780E-09 -1.060881E-09
       135  18  3.374672E+05  8.043077E+03  9.310097E+03 -6.184299E+03  3.217323E-09 -1.247848E-09
       135  19  2.483713E+05 -1.326535E+04 -8.950740E+03 -6.157077E+03 -3.832554E+03 -1.872780E+03
       135  20  2.601452E+05 -1.116027E+04 -8.182543E+03 -1.822952E+03 -2.591225E+03 -1.401615E+03
       135  21  2.723192E+05 -8.118454E+03 -6.371391E+03 -6.426807E+03 -1.349849E+03 -9.143665E+02
       135  22  3.048922E+05  7.376612E+02  4.560777E+03 -6.305631E+03 -3.599339E+03 -1.872743E+03
       135  23  3.046918E+05 -1.190729E+02  2.490770E+03 -1.836624E+03 -2.349796E+03 -1.401588E+03
       135  24  3.048927E+05 -3.764976E+01  1.469393E+03 -6.305556E+03 -1.100230E+03 -9.143502E+02
       135  25  3.614161E+05  1.474044E+04  1.807207E+04 -6.454199E+03 -3.366103E+03 -1.872706E+03
       135  26  3.492401E+05  1.092198E+04  1.316394E+04 -1.850296E+03 -2.108350E+03 -1.401561E+03
       135  27  3.374672E+05  8.043078E+03  9.310100E+03 -6.184299E+03 -8.505978E+02 -9.143338E+02
       136   1  2.883381E+05 -4.005534E+03 -2.769449E+03 -6.299475E+03  1.110226E+03  6.284575E+02
       136   2  3.002445E+05 -1.139973E+03 -4.034448E+02 -1.849484E+03  7.707620E+02  1.428273E+02
       136   3  3.122217E+05  1.825810E+03  2.208818E+03 -6.314568E+03  4.312817E+02 -3.438696E+02
       136   4  3.048194E+05  7.220296E+01  1.143329E+03 -6.300500E+03  8.656711E+02  6.284453E+02
       136   5  3.047842E+05 -1.480420E+01  6.842393E+02 -1.842963E+03  5.256564E+02  1.428160E+02
       136   6  3.048195E+05 -1.532805E+00  4.717438E+02 -6.300497E+03  1.856321E+02 -3.438796E+02
       136   7  3.213010E+05  4.149921E+03  5.056088E+03 -6.301524E+03  6.211093E+02  6.284331E+02
       136   8  3.093239E+05  1.110363E+03  1.771922E+03 -1.836442E+03  2.805490E+02  1.428046E+02
       136   9  2.974173E+05 -1.828880E+03 -1.265334E+03 -6.286426E+03 -6.001446E+01 -3.438896E+02
       136  10  2.883381E+05 -4.005535E+03 -2.769452E+03 -6.299476E+03 -1.282600E-09 -4.899385E-10
       136  11  3.002445E+05 -1.139973E+03 -4.034459E+02 -1.849484E+03  5.331840E-10  1.392149E-10
       136  12  3.122217E+05  1.825810E+03  2.208817E+03 -6.314568E+03  9.656915E-11 -8.251385E-11
       136  13  3.048194E+05  7.220234E+01  1.143327E+03 -6.300500E+03  1.091399E-09 -3.792318E-10
       136  14  3.047842E+05 -1.480430E+01  6.842387E+02 -1.842963E+03 -4.378314E-09  4.917358E-10
       136  15  3.048195E+05 -1.532941E+00  4.717435E+02 -6.300497E+03  1.086656E-09  3.884516E-10
       136  16  3.213010E+05  4.149920E+03  5.056086E+03 -6.301524E+03  2.535750E-10 -3.434618E-10
       136  17  3.093239E+05  1.110363E+03  1.771922E+03 -1.836442E+03  1.769795E-09  8.532967E-10
       136  18  2.974173E+05 -1.828880E+03 -1.265334E+03 -6.286426E+03  2.927868E-10  7.430675E-10
       136  19  2.883381E+05 -4.005534E+03 -2.769449E+03 -6.299475E+03 -1.110226E+03 -6.284575E+02
       136  20  3.002445E+05 -1.139973E+03 -4.034448E+02 -1.849484E+03 -7.707620E+02 -1.428273E+02
       136  21  3.122217E+05  1.825810E+03  2.208818E+03 -6.314568E+03 -4.312817E+02  3.438696E+02
       136  22  3.048194E+05  7.220296E+01  1.143329E+03 -6.300500E+03 -8.656711E+02 -6.284453E+02
       136  23  3.047842E+05 -1.480420E+01  6.842393E+02 -1.842963E+03 -5.256564E+02 -1.428160E+02
       136  24  3.048195E+05 -1.532805E+00  4.717438E+02 -6.300497E+03 -1.856321E+02  3.438796E+02
       136  25  3.213010E+05  4.149921E+03  5.056088E+03 -6.301524E+03 -6.211093E+02 -6.284331E+02
       136  26  3.093239E+05  1.110363E+03  1.771922E+03 -1.836442E+03 -2.805490E+02 -1.428046E+02
       136  27  2.974173E+05 -1.828880E+03 -1.265334E+03 -6.286426E+03  6.001446E+01  3.438896E+02
       137   1  3.282999E+05  5.832811E+03  6.086092E+03 -6.300227E+03  3.506805E+02 -6.275833E+02
       137   2  3.402410E+05  8.777807E+03  8.907756E+03 -1.836698E+03  1.445987E+02 -1.114760E+03
       137   3  3.522245E+05  1.177188E+04  1.187643E+04 -6.303230E+03 -6.145037E+01 -1.601262E+03
       137   4  3.048130E+05  4.352251E+00  4.223790E+02 -6.303836E+03  1.048767E+02 -6.275960E+02
       137   5  3.047919E+05 -8.132209E+00  4.144458E+02 -1.838790E+03 -1.008584E+02 -1.114781E+03
       137   6  3.048129E+05  2.841342E+01  5.532945E+02 -6.303838E+03 -3.065568E+02 -1.601292E+03
       137   7  2.813267E+05 -5.824147E+03 -5.241373E+03 -6.307444E+03 -1.409177E+02 -6.276086E+02
       137   8  2.693439E+05 -8.794162E+03 -8.078953E+03 -1.840883E+03 -3.463015E+02 -1.114803E+03
       137   9  2.574033E+05 -1.171522E+04 -1.077000E+04 -6.304445E+03 -5.516446E+02 -1.601322E+03
       137  10  3.282999E+05  5.832811E+03  6.086091E+03 -6.300227E+03 -2.441683E-09  6.399080E-11
       137  11  3.402410E+05  8.777805E+03  8.907754E+03 -1.836698E+03 -3.097240E-09  7.530644E-10
       137  12  3.522245E+05  1.177188E+04  1.187642E+04 -6.303230E+03  2.860590E-10 -6.750422E-11
       137  13  3.048130E+05  4.351825E+00  4.223782E+02 -6.303836E+03  2.388664E-09  3.046901E-10
       137  14  3.047919E+05 -8.133547E+00  4.144435E+02 -1.838790E+03  4.507362E-09  4.461499E-10
       137  15  3.048129E+05  2.841064E+01  5.532895E+02 -6.303838E+03 -9.028167E-10 -2.595452E-10
       137  16  2.813267E+05 -5.824147E+03 -5.241374E+03 -6.307445E+03  1.387105E-09  3.184161E-10
       137  17  2.693439E+05 -8.794164E+03 -8.078956E+03 -1.840883E+03  2.061211E-09 -1.569213E-10
       137  18  2.574033E+05 -1.171522E+04 -1.077000E+04 -6.304446E+03 -1.567192E-09 -4.790360E-10
       137  19  3.282999E+05  5.832811E+03  6.086092E+03 -6.300227E+03 -3.506805E+02  6.275833E+02
       137  20  3.402410E+05  8.777807E+03  8.907756E+03 -1.836698E+03 -1.445987E+02  1.114760E+03
       137  21  3.522245E+05  1.177188E+04  1.187643E+04 -6.303230E+03  6.145037E+01  1.601262E+03
       137  22  3.048130E+05  4.352251E+00  4.223790E+02 -6.303836E+03 -1.048767E+02  6.275960E+02
       137  23  3.047919E+05 -8.132209E+00  4.144458E+02 -1.838790E+03  1.008584E+02  1.114781E+03
       137  24  3.048129E+05  2.841342E+01  5.532945E+02 -6.303838E+03  3.065568E+02  1.601292E+03
       137  25  2.813267E+05 -5.824147E+03 -5.241373E+03 -6.307444E+03  1.409177E+02  6.276086E+02
       137  26  2.693439E+05 -8.794162E+03 -8.078953E+03 -1.840883E+03  3.463015E+02  1.114803E+03
       137  27  2.574033E+05 -1.171522E+04 -1.077000E+04 -6.304445E+03  5.516446E+02  1.601322E+03
       138   1  3.684022E+05  1.574313E+04  1.593711E+04 -6.261677E+03 -1.653211E+02 -1.888636E+03
       138   2  3.803468E+05  1.868340E+04  1.918838E+04 -1.822250E+03 -7.153639E+02 -2.377809E+03
       138   3  3.924715E+05  2.201803E+04  2.289822E+04 -6.367249E+03 -1.265335E+03 -2.847827E+03
       138   4  3.048427E+05 -1.683239E+01  6.729283E+02 -6.315908E+03 -4.167451E+02 -1.888675E+03
       138   5  3.047532E+05 -5.170737E+01  1.077429E+03 -1.823690E+03 -9.570704E+02 -2.377866E+03
       138   6  3.048422E+05  3.061808E+02  1.933854E+03 -6.315966E+03 -1.497313E+03 -2.847899E+03
       138   7  2.412869E+05 -1.577709E+04 -1.459154E+04 -6.370133E+03 -6.681435E+02 -1.888715E+03
       138   8  2.291648E+05 -1.878723E+04 -1.703393E+04 -1.825130E+03 -1.198748E+03 -2.377923E+03
       138   9  2.172199E+05 -2.140622E+04 -1.903105E+04 -6.264691E+03 -1.729259E+03 -2.847972E+03
       138  10  3.684022E+05  1.574313E+04  1.593711E+04 -6.261677E+03 -2.206271E-09  1.552929E-10
       138  11  3.803468E+05  1.868339E+04  1.918837E+04 -1.822251E+03 -1.439765E-09  2.492572E-10
       138  12  3.924715E+05  2.201802E+04  2.289820E+04 -6.367252E+03 -2.297061E-10 -1.194313E-09
       138  13  3.048427E+05 -1.683627E+01  6.729213E+02 -6.315908E+03  6.866702E-11 -2.702456E-11
       138  14  3.047532E+05 -5.171368E+01  1.077416E+03 -1.823692E+03 -1.545668E-10  2.852508E-10
       138  15  3.048422E+05  3.061714E+02  1.933835E+03 -6.315969E+03  2.387071E-09 -1.147894E-09
       138  16  2.412869E+05 -1.577709E+04 -1.459155E+04 -6.370134E+03  2.159326E-09 -2.222622E-10
       138  17  2.291648E+05 -1.878723E+04 -1.703394E+04 -1.825132E+03  3.178808E-09  1.833435E-10
       138  18  2.172199E+05 -2.140623E+04 -1.903107E+04 -6.264694E+03 -7.065113E-10 -7.773615E-10
       138  19  3.684022E+05  1.574313E+04  1.593711E+04 -6.261677E+03  1.653211E+02  1.888636E+03
       138  20  3.803468E+05  1.868340E+04  1.918838E+04 -1.822250E+03  7.153639E+02  2.377809E+03
       138  21  3.924715E+05  2.201803E+04  2.289822E+04 -6.367249E+03  1.265335E+03  2.847827E+03
       138  22  3.048427E+05 -1.683239E+01  6.729283E+02 -6.315908E+03  4.167451E+02  1.888675E+03
       138  23  3.047532E+05 -5.170737E+01  1.077429E+03 -1.823690E+03  9.570704E+02  2.377866E+03
       138  24  3.048422E+05  3.061808E+02  1.933854E+03 -6.315966E+03  1.497313E+03  2.847899E+03
       138  25  2.412869E+05 -1.577709E+04 -1.459154E+04 -6.370133E+03  6.681435E+02  1.888715E+03
       138  26  2.291648E+05 -1.878723E+04 -1.703393E+04 -1.825130E+03  1.198748E+03  2.377923E+03
       138  27  2.172199E+05 -2.140622E+04 -1.903105E+04 -6.264691E+03  1.729259E+03  2.847972E+03
       139   1  4.089871E+05  2.560170E+04  2.738767E+04 -5.891509E+03 -1.572212E+03 -3.174096E+03
       139   2  4.205222E+05  2.831419E+04  3.192211E+04 -1.987385E+03 -3.823414E+03 -3.659535E+03
       139   3  4.333143E+05  3.479352E+04  3.886779E+04 -7.152361E+03 -6.074683E+03 -3.868394E+03
       139   4  3.050757E+05 -1.577151E+02  2.461591E+03 -6.334421E+03 -1.886229E+03 -3.174203E+03
       139   5  3.044587E+05 -4.496060E+02  4.118572E+03 -1.800376E+03 -3.997612E+03 -3.659634E+03
       139   6  3.050744E+05  3.001437E+03  8.090019E+03 -6.335514E+03 -6.109017E+03 -3.868467E+03
       139   7  2.011741E+05 -2.591791E+04 -2.246525E+04 -6.777258E+03 -2.200194E+03 -3.174309E+03
       139   8  1.884076E+05 -2.921438E+04 -2.368592E+04 -1.613402E+03 -4.171779E+03 -3.659734E+03
       139   9  1.768496E+05 -2.879184E+04 -2.268892E+04 -5.518837E+03 -6.143344E+03 -3.868541E+03
       139  10  4.089871E+05  2.560169E+04  2.738764E+04 -5.891514E+03 -1.680754E-09 -1.739210E-09
       139  11  4.205222E+05  2.831418E+04  3.192206E+04 -1.987397E+03  9.758566E-10 -1.064737E-09
       139  12  4.333142E+05  3.479350E+04  3.886769E+04 -7.152380E+03  4.171478E-09 -1.055612E-09
       139  13  3.050756E+05 -1.577269E+02  2.461565E+03 -6.334426E+03  1.358893E-10 -9.373747E-10
       139  14  3.044587E+05 -4.496247E+02  4.118517E+03 -1.800387E+03 -8.368606E-11  1.425992E-09
       139  15  3.050744E+05  3.001411E+03  8.089921E+03 -6.335533E+03 -3.533975E-09  3.040971E-09
       139  16  2.011741E+05 -2.591793E+04 -2.246528E+04 -6.777264E+03  6.617839E-10 -1.076074E-09
       139  17  1.884075E+05 -2.921440E+04 -2.368598E+04 -1.613414E+03 -2.416514E-09  6.185994E-11
       139  18  1.768496E+05 -2.879187E+04 -2.268901E+04 -5.518857E+03 -4.019718E-09 -1.404082E-09
       139  19  4.089871E+05  2.560170E+04  2.738767E+04 -5.891509E+03  1.572212E+03  3.174096E+03
       139  20  4.205222E+05  2.831419E+04  3.192211E+04 -1.987385E+03  3.823414E+03  3.659535E+03
       139  21  4.333143E+05  3.479352E+04  3.886779E+04 -7.152361E+03  6.074683E+03  3.868394E+03
       139  22  3.050757E+05 -1.577151E+02  2.461591E+03 -6.334421E+03  1.886229E+03  3.174203E+03
       139  23  3.044587E+05 -4.496060E+02  4.118572E+03 -1.800376E+03  3.997612E+03  3.659634E+03
       139  24  3.050744E+05  3.001437E+03  8.090019E+03 -6.335514E+03  6.109017E+03  3.868467E+03
       139  25  2.011741E+05 -2.591791E+04 -2.246525E+04 -6.777258E+03  2.200194E+03  3.174309E+03
       139  26  1.884076E+05 -2.921438E+04 -2.368592E+04 -1.613402E+03  4.171779E+03  3.659734E+03
       139  27  1.768496E+05 -2.879184E+04 -2.268892E+04 -5.518837E+03  6.143344E+03  3.868541E+03
       140   1  4.517636E+05  3.438481E+04  4.454765E+04 -2.501343E+03 -6.520504E+03 -4.687460E+03
       140   2  4.589874E+05  3.478074E+04  5.340680E+04 -4.338305E+03 -1.695989E+04 -5.062936E+03
       140   3  4.765290E+05  7.086433E+04  7.798882E+04 -1.530083E+04 -2.740168E+04 -1.699739E+03
       140   4  3.070209E+05 -1.481988E+03  9.914013E+03 -6.342152E+03 -7.648990E+03 -4.687964E+03
       140   5  3.020219E+05 -4.108789E+03  1.584166E+04 -1.788032E+03 -1.620116E+04 -5.062700E+03
       140   6  3.070158E+05  2.862928E+04  3.618483E+04 -6.359435E+03 -2.475550E+04 -1.698560E+03
       140   7  1.622974E+05 -3.735025E+04 -2.472110E+04 -1.018206E+04 -8.777215E+03 -4.688455E+03
       140   8  1.450790E+05 -4.300008E+04 -2.172522E+04  7.615914E+02 -1.544263E+04 -5.062458E+03
       140   9  1.375288E+05 -1.360761E+04 -5.621213E+03  2.579514E+03 -2.211004E+04 -1.697305E+03
       140  10  4.517636E+05  3.438477E+04  4.454753E+04 -2.501367E+03 -6.403715E-09 -1.853164E-09
       140  11  4.589870E+05  3.478064E+04  5.340621E+04 -4.338374E+03 -4.969493E-09 -2.899766E-09
       140  12  4.765282E+05  7.086413E+04  7.798741E+04 -1.530087E+04 -2.274079E-09 -8.611139E-10
       140  13  3.070208E+05 -1.482028E+03  9.913861E+03 -6.342181E+03 -2.246173E-09  8.702363E-10
       140  14  3.020216E+05 -4.108887E+03  1.584112E+04 -1.788098E+03 -8.880494E-10  2.182589E-09
       140  15  3.070151E+05  2.862911E+04  3.618368E+04 -6.359469E+03 -8.642236E-10  9.453606E-11
       140  16  1.622973E+05 -3.735029E+04 -2.472128E+04 -1.018210E+04  5.830777E-09 -2.305587E-09
       140  17  1.450788E+05 -4.300017E+04 -2.172571E+04  7.615285E+02  6.141500E-09 -7.171039E-10
       140  18  1.375283E+05 -1.360775E+04 -5.622136E+03  2.579483E+03  1.665200E-09 -9.675991E-10
       140  19  4.517636E+05  3.438481E+04  4.454765E+04 -2.501343E+03  6.520504E+03  4.687460E+03
       140  20  4.589874E+05  3.478074E+04  5.340680E+04 -4.338305E+03  1.695989E+04  5.062936E+03
       140  21  4.765290E+05  7.086433E+04  7.798882E+04 -1.530083E+04  2.740168E+04  1.699739E+03
       140  22  3.070209E+05 -1.481988E+03  9.914013E+03 -6.342152E+03  7.648990E+03  4.687964E+03
       140  23  3.020219E+05 -4.108789E+03  1.584166E+04 -1.788032E+03  1.620116E+04  5.062700E+03
       140  24  3.070158E+05  2.862928E+04  3.618483E+04 -6.359435E+03  2.475550E+04  1.698560E+03
       140  25  1.622974E+05 -3.735025E+04 -2.472110E+04 -1.018206E+04  8.777215E+03  4.688455E+03
       140  26  1.450790E+05 -4.300008E+04 -2.172522E+04  7.615914E+02  1.544263E+04  5.062458E+03
       140  27  1.375288E+05 -1.360761E+04 -5.621213E+03  2.579514E+03  2.211004E+04  1.697305E+03
       141   1  2.668106E+06  1.083695E+07  2.667794E+06 -1.334091E+06  9.397532E+04  2.015678E+05
       141   2  1.954121E+06  8.360091E+06  1.960045E+06 -4.337905E+05  2.583268E+05  4.523153E+04
       141   3  1.418053E+06  5.993167E+06  1.405038E+06 -1.320976E+06  1.728455E+05 -1.123966E+05
       141   4  7.914442E+04  3.878318E+05  1.040838E+05 -1.273461E+06  9.472960E+04  5.381021E+04
       141   5 -2.165361E+04  3.500240E+05  5.274141E+04 -3.790275E+05  2.587112E+05  2.569596E+04
       141   6  3.448928E+04  3.950290E+05  6.694934E+04 -1.273508E+06  1.714406E+05 -4.330343E+03
       141   7 -2.517865E+06 -9.962992E+06 -2.467559E+06 -1.213638E+06  9.546407E+04 -9.150304E+04
       141   8 -2.002037E+06 -7.601710E+06 -1.859058E+06 -3.248283E+05  2.590955E+05  6.407230E+03
       141   9 -1.351329E+06 -5.174548E+06 -1.273305E+06 -1.226341E+06  1.700451E+05  1.027729E+05
       141  10  2.668085E+06  1.083691E+07  2.667702E+06 -1.334106E+06  1.013393E-10  7.649629E-10
       141  11  1.954048E+06  8.360071E+06  1.959916E+06 -4.337999E+05  1.687545E-09  5.970149E-10
       141  12  1.418018E+06  5.993146E+06  1.404959E+06 -1.320960E+06  6.726435E-09  5.409910E-10
       141  13  7.913399E+04  3.878263E+05  1.040614E+05 -1.273465E+06  7.225305E-10 -9.423153E-11
       141  14 -2.172568E+04  3.500053E+05  5.261435E+04 -3.790329E+05 -7.127973E-09  8.510604E-09
       141  15  3.445771E+04  3.950211E+05  6.689408E+04 -1.273508E+06  1.362687E-09 -1.643706E-09
       141  16 -2.517877E+06 -9.963003E+06 -2.467592E+06 -1.213631E+06  6.577607E-10 -3.206000E-09
       141  17 -2.002109E+06 -7.601728E+06 -1.859184E+06 -3.248297E+05  4.396550E-09  9.177187E-09
       141  18 -1.351363E+06 -5.174567E+06 -1.273380E+06 -1.226355E+06 -4.773975E-09 -1.024743E-10
       141  19  2.668106E+06  1.083695E+07  2.667794E+06 -1.334091E+06 -9.397532E+04 -2.015678E+05
       141  20  1.954121E+06  8.360091E+06  1.960045E+06 -4.337905E+05 -2.583268E+05 -4.523153E+04
       141  21  1.418053E+06  5.993167E+06  1.405038E+06 -1.320976E+06 -1.728455E+05  1.123966E+05
       141  22  7.914442E+04  3.878318E+05  1.040838E+05 -1.273461E+06 -9.472960E+04 -5.381021E+04
       141  23 -2.165361E+04  3.500240E+05  5.274141E+04 -3.790275E+05 -2.587112E+05 -2.569596E+04
       141  24  3.448928E+04  3.950290E+05  6.694934E+04 -1.273508E+06 -1.714406E+05  4.330343E+03
       141  25 -2.517865E+06 -9.962992E+06 -2.467559E+06 -1.213638E+06 -9.546407E+04  9.150304E+04
       141  26 -2.002037E+06 -7.601710E+06 -1.859058E+06 -3.248283E+05 -2.590955E+05 -6.407230E+03
       141  27 -1.351329E+06 -5.174548E+06 -1.273305E+06 -1.226341E+06 -1.700451E+05 -1.027729E+05
       142   1  6.186622E+05  2.731711E+06  6.304519E+05 -1.307123E+06  7.691724E+04 -5.770864E+04
       142   2 -8.905669E+03  3.429952E+05  7.961992E+04 -3.751086E+05  2.966064E+01 -1.048751E+05
       142   3 -5.207003E+05 -2.064465E+06 -4.251292E+05 -1.231404E+06 -7.656680E+04 -1.518544E+05
       142   4  3.567015E+04  3.784134E+05  6.804223E+04 -1.273482E+06  7.633325E+04 -1.845305E+04
       142   5  2.988177E+03  3.904546E+05  9.100188E+04 -3.790249E+05 -5.397534E+02 -6.583114E+04
       142   6  8.647076E+04  3.783711E+05  1.604576E+05 -1.272748E+06 -7.713428E+04 -1.131985E+05
       142   7 -5.477195E+05 -1.969820E+06 -4.947519E+05 -1.239943E+06  7.575229E+04  2.065498E+04
       142   8  1.488273E+04  4.379194E+05  1.023894E+05 -3.829415E+05 -1.109637E+03 -2.678425E+04
       142   9  6.932125E+05  2.826689E+06  7.456277E+05 -1.314229E+06 -7.770569E+04 -7.439006E+04
       142  10  6.186549E+05  2.731706E+06  6.304346E+05 -1.307120E+06 -2.578412E-10  5.365352E-10
       142  11 -8.908620E+03  3.429834E+05  7.959926E+04 -3.751086E+05  1.864977E-09  4.314462E-09
       142  12 -5.207128E+05 -2.064492E+06 -4.251838E+05 -1.231413E+06 -2.688896E-09  2.957839E-09
       142  13  3.566381E+04  3.784115E+05  6.803065E+04 -1.273480E+06 -5.396934E-10 -8.336789E-12
       142  14  2.987014E+03  3.904500E+05  9.099374E+04 -3.790249E+05  7.930522E-09  1.504493E-08
       142  15  8.646090E+04  3.783558E+05  1.604223E+05 -1.272755E+06  1.407899E-08 -1.667080E-09
       142  16 -5.477258E+05 -1.969822E+06 -4.947636E+05 -1.239945E+06 -5.293978E-09 -1.473000E-08
       142  17  1.488254E+04  4.379187E+05  1.023881E+05 -3.829415E+05 -1.007596E-08  1.069880E-08
       142  18  6.932045E+05  2.826681E+06  7.456059E+05 -1.314234E+06  6.666402E-10 -1.124218E-09
       142  19  6.186622E+05  2.731711E+06  6.304519E+05 -1.307123E+06 -7.691724E+04  5.770864E+04
       142  20 -8.905669E+03  3.429952E+05  7.961992E+04 -3.751086E+05 -2.966064E+01  1.048751E+05
       142  21 -5.207003E+05 -2.064465E+06 -4.251292E+05 -1.231404E+06  7.656680E+04  1.518544E+05
       142  22  3.567015E+04  3.784134E+05  6.804223E+04 -1.273482E+06 -7.633325E+04  1.845305E+04
       142  23  2.988177E+03  3.904546E+05  9.100188E+04 -3.790249E+05  5.397534E+02  6.583114E+04
       142  24  8.647076E+04  3.783711E+05  1.604576E+05 -1.272748E+06  7.713428E+04  1.131985E+05
       142  25 -5.477195E+05 -1.969820E+06 -4.947519E+05 -1.239943E+06 -7.575229E+04 -2.065498E+04
       142  26  1.488273E+04  4.379194E+05  1.023894E+05 -3.829415E+05  1.109637E+03  2.678425E+04
       142  27  6.932125E+05  2.826689E+06  7.456277E+05 -1.314229E+06  7.770569E+04  7.439006E+04
       143   1 -1.401943E+06 -5.233447E+06 -1.164151E+06 -1.286757E+06 -1.709170E+05 -2.530787E+05
       143   2 -2.092609E+06 -7.740604E+06 -1.638582E+06 -2.830093E+05 -2.596318E+05 -2.863950E+05
       143   3 -2.078526E+06 -1.001847E+07 -1.906897E+06 -1.069602E+06 -9.477969E+04 -3.176758E+05
       143   4  5.380644E+03  4.306086E+05  1.983486E+05 -1.274367E+06 -1.723227E+05 -1.462977E+05
       143   5 -8.771639E+04  3.050380E+05  2.960402E+05 -3.788331E+05 -2.592051E+05 -3.080221E+05
       143   6  5.421362E+05  4.233038E+05  6.870819E+05 -1.271849E+06 -9.396336E+04 -4.678748E+05
       143   7  1.410378E+06  6.124214E+06  1.558611E+06 -1.261731E+06 -1.737170E+05 -3.853523E+04
       143   8  1.912471E+06  8.410418E+06  2.226062E+06 -4.757755E+05 -2.587754E+05 -3.299104E+05
       143   9  3.154733E+06  1.096522E+07  3.273008E+06 -1.477344E+06 -9.305832E+04 -6.205749E+05
       143  10 -1.401992E+06 -5.233524E+06 -1.164327E+06 -1.286792E+06  4.089862E-09 -4.062616E-09
       143  11 -2.092704E+06 -7.740711E+06 -1.638865E+06 -2.830695E+05  2.096542E-09  2.892299E-09
       143  12 -2.078563E+06 -1.001858E+07 -1.907107E+06 -1.069627E+06 -6.227403E-10  2.349117E-09
       143  13  5.342934E+03  4.305776E+05  1.982523E+05 -1.274387E+06 -4.067743E-09  8.936851E-11
       143  14 -8.781405E+04  3.049181E+05  2.957355E+05 -3.788974E+05  2.003872E-09  8.294172E-09
       143  15  5.420679E+05  4.230664E+05  6.866538E+05 -1.271885E+06 -1.779019E-09 -2.869415E-10
       143  16  1.410345E+06  6.124204E+06  1.558551E+06 -1.261737E+06  7.871785E-09 -8.380895E-09
       143  17  1.912371E+06  8.410285E+06  2.225734E+06 -4.758439E+05 -1.099825E-09  4.759198E-09
       143  18  3.154622E+06  1.096481E+07  3.272280E+06 -1.477390E+06 -3.057953E-09 -2.209900E-09
       143  19 -1.401943E+06 -5.233447E+06 -1.164151E+06 -1.286757E+06  1.709170E+05  2.530787E+05
       143  20 -2.092609E+06 -7.740604E+06 -1.638582E+06 -2.830093E+05  2.596318E+05  2.863950E+05
       143  21 -2.078526E+06 -1.001847E+07 -1.906897E+06 -1.069602E+06  9.477969E+04  3.176758E+05
       143  22  5.380644E+03  4.306086E+05  1.983486E+05 -1.274367E+06  1.723227E+05  1.462977E+05
       143  23 -8.771639E+04  3.050380E+05  2.960402E+05 -3.788331E+05  2.592051E+05  3.080221E+05
       143  24  5.421362E+05  4.233038E+05  6.870819E+05 -1.271849E+06  9.396336E+04  4.678748E+05
       143  25  1.410378E+06  6.124214E+06  1.558611E+06 -1.261731E+06  1.737170E+05  3.853523E+04
       143  26  1.912471E+06  8.410418E+06  2.226062E+06 -4.757755E+05  2.587754E+05  3.299104E+05
       143  27  3.154733E+06  1.096522E+07  3.273008E+06 -1.477344E+06  9.305832E+04  6.205749E+05
       144   1 -5.470904E+05 -2.431348E+05 -1.233091E+05 -2.369155E+05 -6.025517E+04 -1.832661E+04
       144   2 -5.162460E+05 -1.851646E+05 -7.306594E+04 -2.234801E+05 -3.686575E+04  3.274735E+02
       144   3 -4.933811E+05 -1.548296E+05 -4.895129E+04 -2.098610E+05 -1.098913E+04  1.236584E+04
       144   4 -2.858295E+05 -1.165989E+05 -5.137952E+04 -1.358258E+05 -3.501053E+04 -8.852826E+03
       144   5 -2.805083E+05 -8.492101E+04 -2.453765E+04 -1.431389E+05 -2.558351E+04  4.561054E+03
       144   6 -2.803954E+05 -7.810676E+04 -1.275192E+04 -1.502704E+05 -1.367133E+04  1.135853E+04
       144   7 -2.450379E+04  9.953972E+03  2.054509E+04 -3.469463E+04 -9.754869E+03  6.280474E+02
       144   8 -4.471335E+04  1.533291E+04  2.398801E+04 -6.276787E+04 -1.429676E+04  8.796987E+03
       144   9 -6.735975E+04 -1.378739E+03  2.344674E+04 -9.066027E+04 -1.635454E+04  1.035085E+04
       144  10 -5.470944E+05 -2.431361E+05 -1.233165E+05 -2.369164E+05 -3.312665E-10 -3.040543E-10
       144  11 -5.162475E+05 -1.851650E+05 -7.306849E+04 -2.234801E+05 -4.749461E-10  6.860744E-10
       144  12 -4.933813E+05 -1.548298E+05 -4.895180E+04 -2.098608E+05 -1.062250E-09  1.146042E-09
       144  13 -2.858309E+05 -1.165993E+05 -5.138197E+04 -1.358260E+05  1.236617E-10  5.515738E-10
       144  14 -2.805090E+05 -8.492121E+04 -2.453892E+04 -1.431388E+05 -1.300648E-09  3.933998E-10
       144  15 -2.803957E+05 -7.810695E+04 -1.275251E+04 -1.502703E+05 -5.916954E-09  3.601243E-10
       144  16 -2.450389E+04  9.953946E+03  2.054491E+04 -3.469462E+04 -1.320138E-09  6.613122E-10
       144  17 -4.471359E+04  1.533277E+04  2.398748E+04 -6.276776E+04 -5.322137E-09 -2.062780E-10
       144  18 -6.736007E+04 -1.378926E+03  2.344604E+04 -9.066013E+04 -2.772447E-09  4.953503E-10
       144  19 -5.470904E+05 -2.431348E+05 -1.233091E+05 -2.369155E+05  6.025517E+04  1.832661E+04
       144  20 -5.162460E+05 -1.851646E+05 -7.306594E+04 -2.234801E+05  3.686575E+04 -3.274735E+02
       144  21 -4.933811E+05 -1.548296E+05 -4.895129E+04 -2.098610E+05  1.098913E+04 -1.236584E+04
       144  22 -2.858295E+05 -1.165989E+05 -5.137952E+04 -1.358258E+05  3.501053E+04  8.852826E+03
       144  23 -2.805083E+05 -8.492101E+04 -2.453765E+04 -1.431389E+05  2.558351E+04 -4.561054E+03
       144  24 -2.803954E+05 -7.810676E+04 -1.275192E+04 -1.502704E+05  1.367133E+04 -1.135853E+04
       144  25 -2.450379E+04  9.953972E+03  2.054509E+04 -3.469463E+04  9.754869E+03 -6.280474E+02
       144  26 -4.471335E+04  1.533291E+04  2.398801E+04 -6.276787E+04  1.429676E+04 -8.796987E+03
       144  27 -6.735975E+04 -1.378739E+03  2.344674E+04 -9.066027E+04  1.635454E+04 -1.035085E+04
       145   1 -4.688124E+05 -1.471015E+05 -4.112388E+04 -2.049911E+05 -9.364150E+03  1.187565E+04
       145   2 -4.366400E+05 -1.293644E+05 -2.951279E+04 -1.927861E+05 -4.733281E+03  1.183512E+04
       145   3 -4.011816E+05 -1.180988E+05 -2.142516E+04 -1.854377E+05  1.753845E+02  1.105446E+04
       145   4 -2.789024E+05 -7.725393E+04 -9.465772E+03 -1.501487E+05 -1.187497E+04  1.093280E+04
       145   5 -2.805021E+05 -7.278122E+04 -4.919183E+03 -1.482417E+05 -8.805825E+03  1.030640E+04
       145   6 -2.785068E+05 -7.447027E+04 -2.657538E+03 -1.511918E+05 -5.459113E+03  8.939892E+03
       145   7 -8.895617E+04 -7.403141E+03  2.219084E+04 -9.529112E+04 -1.438657E+04  9.989645E+03
       145   8 -1.243379E+05 -1.619532E+04  1.967407E+04 -1.036867E+05 -1.287945E+04  8.777271E+03
       145   9 -1.558142E+05 -3.083960E+04  1.611042E+04 -1.169391E+05 -1.109486E+04  6.824860E+03
       145  10 -4.688125E+05 -1.471017E+05 -4.112431E+04 -2.049910E+05 -4.805566E-09  3.464391E-10
       145  11 -4.366400E+05 -1.293645E+05 -2.951309E+04 -1.927860E+05  2.626055E-09  3.241097E-09
       145  12 -4.011816E+05 -1.180989E+05 -2.142539E+04 -1.854377E+05  6.369831E-09  2.429269E-09
       145  13 -2.789026E+05 -7.725409E+04 -9.466262E+03 -1.501486E+05  1.197839E-09  2.611957E-09
       145  14 -2.805022E+05 -7.278135E+04 -4.919529E+03 -1.482416E+05  7.844407E-09  4.005908E-09
       145  15 -2.785069E+05 -7.447037E+04 -2.657745E+03 -1.511918E+05  4.641111E-09  1.127590E-09
       145  16 -8.895642E+04 -7.403304E+03  2.219027E+04 -9.529100E+04  1.102048E-08  4.055423E-09
       145  17 -1.243381E+05 -1.619544E+04  1.967361E+04 -1.036866E+05  8.064906E-09  4.677092E-09
       145  18 -1.558143E+05 -3.083969E+04  1.611010E+04 -1.169391E+05 -2.003391E-09 -4.123960E-11
       145  19 -4.688124E+05 -1.471015E+05 -4.112388E+04 -2.049911E+05  9.364150E+03 -1.187565E+04
       145  20 -4.366400E+05 -1.293644E+05 -2.951279E+04 -1.927861E+05  4.733281E+03 -1.183512E+04
       145  21 -4.011816E+05 -1.180988E+05 -2.142516E+04 -1.854377E+05 -1.753845E+02 -1.105446E+04
       145  22 -2.789024E+05 -7.725393E+04 -9.465772E+03 -1.501487E+05  1.187497E+04 -1.093280E+04
       145  23 -2.805021E+05 -7.278122E+04 -4.919183E+03 -1.482417E+05  8.805825E+03 -1.030640E+04
       145  24 -2.785068E+05 -7.447027E+04 -2.657538E+03 -1.511918E+05  5.459113E+03 -8.939892E+03
       145  25 -8.895617E+04 -7.403141E+03  2.219084E+04 -9.529112E+04  1.438657E+04 -9.989645E+03
       145  26 -1.243379E+05 -1.619532E+04  1.967407E+04 -1.036867E+05  1.287945E+04 -8.777271E+03
       145  27 -1.558142E+05 -3.083960E+04  1.611042E+04 -1.169391E+05  1.109486E+04 -6.824860E+03
       146   1 -3.793900E+05 -1.104554E+05 -1.728022E+04 -1.795153E+05  1.105662E+03  9.602716E+03
       146   2 -3.473372E+05 -9.578473E+04 -1.113066E+04 -1.672995E+05  2.831924E+03  7.168683E+03
       146   3 -3.108717E+05 -8.583305E+04 -5.550677E+03 -1.602956E+05  4.589109E+03  4.651871E+03
       146   4 -2.783561E+05 -7.442560E+04 -1.985935E+03 -1.511636E+05 -4.510320E+03  7.495232E+03
       146   5 -2.805676E+05 -7.200756E+04 -1.075459E+03 -1.485855E+05 -2.958827E+03  4.995774E+03
       146   6 -2.783330E+05 -7.427392E+04 -5.960953E+02 -1.512197E+05 -1.376458E+03  2.413531E+03
       146   7 -1.773111E+05 -3.839468E+04  1.330834E+04 -1.228076E+05 -1.012727E+04  5.387388E+03
       146   8 -2.137936E+05 -4.823006E+04  8.979702E+03 -1.298698E+05 -8.750198E+03  2.822633E+03
       146   9 -2.457935E+05 -6.271481E+04  4.358509E+03 -1.421435E+05 -7.342280E+03  1.750969E+02
       146  10 -3.793900E+05 -1.104555E+05 -1.728039E+04 -1.795153E+05 -3.992302E-09 -2.779773E-09
       146  11 -3.473373E+05 -9.578479E+04 -1.113077E+04 -1.672995E+05 -3.150747E-08 -1.193465E-08
       146  12 -3.108717E+05 -8.583308E+04 -5.550757E+03 -1.602956E+05 -6.676294E-08 -1.989736E-08
       146  13 -2.783561E+05 -7.442566E+04 -1.986079E+03 -1.511636E+05  2.497586E-09 -1.943985E-09
       146  14 -2.805677E+05 -7.200759E+04 -1.075523E+03 -1.485855E+05 -1.317230E-09 -7.143000E-09
       146  15 -2.783330E+05 -7.427393E+04 -5.961098E+02 -1.512197E+05 -6.596224E-09 -1.573250E-08
       146  16 -1.773112E+05 -3.839474E+04  1.330809E+04 -1.228075E+05  7.149541E-09  3.631809E-09
       146  17 -2.137937E+05 -4.823009E+04  8.979543E+03 -1.298698E+05  3.157424E-08  1.658156E-08
       146  18 -2.457936E+05 -6.271483E+04  4.358407E+03 -1.421435E+05  4.804558E-08  2.329652E-08
       146  19 -3.793900E+05 -1.104554E+05 -1.728022E+04 -1.795153E+05 -1.105662E+03 -9.602716E+03
       146  20 -3.473372E+05 -9.578473E+04 -1.113066E+04 -1.672995E+05 -2.831924E+03 -7.168683E+03
       146  21 -3.108717E+05 -8.583305E+04 -5.550677E+03 -1.602956E+05 -4.589109E+03 -4.651871E+03
       146  22 -2.783561E+05 -7.442560E+04 -1.985935E+03 -1.511636E+05  4.510320E+03 -7.495232E+03
       146  23 -2.805676E+05 -7.200756E+04 -1.075459E+03 -1.485855E+05  2.958827E+03 -4.995774E+03
       146  24 -2.783330E+05 -7.427392E+04 -5.960953E+02 -1.512197E+05  1.376458E+03 -2.413531E+03
       146  25 -1.773111E+05 -3.839468E+04  1.330834E+04 -1.228076E+05  1.012727E+04 -5.387388E+03
       146  26 -2.137936E+05 -4.823006E+04  8.979702E+03 -1.298698E+05  8.750198E+03 -2.822633E+03
       146  27 -2.457935E+05 -6.271481E+04  4.358509E+03 -1.421435E+05  7.342280E+03 -1.750969E+02
       147   1 -2.893519E+05 -7.816601E+04 -2.050819E+03 -1.542794E+05  5.290886E+03  3.035996E+03
       147   2 -2.573530E+05 -6.369115E+04  3.174374E+03 -1.420408E+05  6.499360E+03  2.630532E+02
       147   3 -2.208110E+05 -5.379100E+04  8.288111E+03 -1.350293E+05  7.710725E+03 -2.517496E+03
       147   4 -2.783149E+05 -7.427568E+04 -4.516488E+02 -1.512132E+05 -6.727211E+02  7.984205E+02
       147   5 -2.805876E+05 -7.199234E+04 -2.627886E+02 -1.485983E+05  5.194577E+02 -1.980703E+03
       147   6 -2.783161E+05 -7.428101E+04 -1.728611E+02 -1.512113E+05  1.714516E+03 -4.767431E+03
       147   7 -2.672776E+05 -7.038526E+04  1.147712E+03 -1.481468E+05 -6.636515E+03 -1.439224E+03
       147   8 -3.038217E+05 -8.029350E+04 -3.699846E+03 -1.551556E+05 -5.460247E+03 -4.224385E+03
       147   9 -3.358176E+05 -9.477064E+04 -8.633719E+03 -1.673920E+05 -4.281110E+03 -7.017147E+03
       147  10 -2.893519E+05 -7.816602E+04 -2.050889E+03 -1.542794E+05  1.056707E-07  4.651873E-08
       147  11 -2.573530E+05 -6.369117E+04  3.174294E+03 -1.420408E+05  4.060482E-08  1.929962E-08
       147  12 -2.208110E+05 -5.379102E+04  8.287988E+03 -1.350292E+05 -5.205980E-08 -1.769122E-08
       147  13 -2.783149E+05 -7.427568E+04 -4.516508E+02 -1.512132E+05 -3.634893E-09 -1.392287E-08
       147  14 -2.805876E+05 -7.199235E+04 -2.627965E+02 -1.485983E+05  7.597775E-09 -2.755066E-09
       147  15 -2.783161E+05 -7.428103E+04 -1.729093E+02 -1.512113E+05 -6.751274E-09  2.071590E-09
       147  16 -2.672777E+05 -7.038527E+04  1.147626E+03 -1.481468E+05 -1.188451E-07 -3.957774E-08
       147  17 -3.038218E+05 -8.029353E+04 -3.699936E+03 -1.551556E+05 -2.692626E-08 -4.920134E-09
       147  18 -3.358176E+05 -9.477070E+04 -8.633846E+03 -1.673920E+05  5.250977E-08  2.586508E-08
       147  19 -2.893519E+05 -7.816601E+04 -2.050819E+03 -1.542794E+05 -5.290886E+03 -3.035996E+03
       147  20 -2.573530E+05 -6.369115E+04  3.174374E+03 -1.420408E+05 -6.499360E+03 -2.630532E+02
       147  21 -2.208110E+05 -5.379100E+04  8.288111E+03 -1.350293E+05 -7.710725E+03  2.517496E+03
       147  22 -2.783149E+05 -7.427568E+04 -4.516488E+02 -1.512132E+05  6.727211E+02 -7.984205E+02
       147  23 -2.805876E+05 -7.199234E+04 -2.627886E+02 -1.485983E+05 -5.194577E+02  1.980703E+03
       147  24 -2.783161E+05 -7.428101E+04 -1.728611E+02 -1.512113E+05 -1.714516E+03  4.767431E+03
       147  25 -2.672776E+05 -7.038526E+04  1.147712E+03 -1.481468E+05  6.636515E+03  1.439224E+03
       147  26 -3.038217E+05 -8.029350E+04 -3.699846E+03 -1.551556E+05  5.460247E+03  4.224385E+03
       147  27 -3.358176E+05 -9.477064E+04 -8.633719E+03 -1.673920E+05  4.281110E+03  7.017147E+03
       148   1 -1.993264E+05 -4.611584E+04  1.165148E+04 -1.290047E+05  8.358229E+03 -4.160760E+03
       148   2 -1.673457E+05 -3.164571E+04  1.667807E+04 -1.167626E+05  9.469994E+03 -6.975383E+03
       148   3 -1.308064E+05 -2.173636E+04  2.166939E+04 -1.097448E+05  1.057708E+04 -9.777013E+03
       148   4 -2.783157E+05 -7.428267E+04 -1.530931E+02 -1.512099E+05  2.362163E+03 -6.410728E+03
       148   5 -2.805935E+05 -7.200406E+04 -1.520639E+02 -1.485964E+05  3.501104E+03 -9.215401E+03
       148   6 -2.783190E+05 -7.429161E+04 -2.078231E+02 -1.512074E+05  4.635370E+03 -1.200710E+04
       148   7 -3.572972E+05 -1.024484E+05 -1.195731E+04 -1.734122E+05 -3.633026E+03 -8.660366E+03
       148   8 -3.938272E+05 -1.123610E+05 -1.698218E+04 -1.804247E+05 -2.466637E+03 -1.145499E+04
       148   9 -4.258098E+05 -1.268452E+05 -2.208562E+04 -1.926613E+05 -1.304921E+03 -1.423666E+04
       148  10 -1.993265E+05 -4.611587E+04  1.165131E+04 -1.290047E+05 -5.274874E-09 -3.777851E-10
       148  11 -1.673459E+05 -3.164579E+04  1.667781E+04 -1.167626E+05 -3.684179E-08 -9.658256E-09
       148  12 -1.308065E+05 -2.173649E+04  2.166900E+04 -1.097447E+05 -6.868139E-08 -1.984726E-08
       148  13 -2.783157E+05 -7.428272E+04 -1.531808E+02 -1.512099E+05 -8.054894E-09  8.290649E-10
       148  14 -2.805935E+05 -7.200415E+04 -1.522465E+02 -1.485964E+05 -3.853496E-09 -5.967632E-09
       148  15 -2.783191E+05 -7.429177E+04 -2.081344E+02 -1.512074E+05 -1.315026E-08 -1.879072E-08
       148  16 -3.572972E+05 -1.024485E+05 -1.195748E+04 -1.734122E+05 -2.500831E-09  6.335522E-09
       148  17 -3.938273E+05 -1.123611E+05 -1.698244E+04 -1.804247E+05  2.968479E-08  1.600858E-08
       148  18 -4.258098E+05 -1.268454E+05 -2.208601E+04 -1.926613E+05  3.670616E-08  1.792829E-08
       148  19 -1.993264E+05 -4.611584E+04  1.165148E+04 -1.290047E+05 -8.358229E+03  4.160760E+03
       148  20 -1.673457E+05 -3.164571E+04  1.667807E+04 -1.167626E+05 -9.469994E+03  6.975383E+03
       148  21 -1.308064E+05 -2.173636E+04  2.166939E+04 -1.097448E+05 -1.057708E+04  9.777013E+03
       148  22 -2.783157E+05 -7.428267E+04 -1.530931E+02 -1.512099E+05 -2.362163E+03  6.410728E+03
       148  23 -2.805935E+05 -7.200406E+04 -1.520639E+02 -1.485964E+05 -3.501104E+03  9.215401E+03
       148  24 -2.783190E+05 -7.429161E+04 -2.078231E+02 -1.512074E+05 -4.635370E+03  1.200710E+04
       148  25 -3.572972E+05 -1.024484E+05 -1.195731E+04 -1.734122E+05  3.633026E+03  8.660366E+03
       148  26 -3.938272E+05 -1.123610E+05 -1.698218E+04 -1.804247E+05  2.466637E+03  1.145499E+04
       148  27 -4.258098E+05 -1.268452E+05 -2.208562E+04 -1.926613E+05  1.304921E+03  1.423666E+04
       149   1 -1.093291E+05 -1.405860E+04  2.497793E+04 -1.037242E+05  1.123422E+04 -1.140397E+04
       149   2 -7.737827E+04  4.212778E+02  2.993212E+04 -9.147954E+04  1.223334E+04 -1.417027E+04
       149   3 -4.086559E+04  1.034708E+04  3.491238E+04 -8.444326E+04  1.318705E+04 -1.681467E+04
       149   4 -2.783290E+05 -7.429210E+04 -2.598696E+02 -1.512078E+05  5.290205E+03 -1.363515E+04
       149   5 -2.805920E+05 -7.202598E+04 -4.453111E+02 -1.485909E+05  6.546498E+03 -1.630538E+04
       149   6 -2.783452E+05 -7.436514E+04 -8.084861E+02 -1.511830E+05  7.757366E+03 -1.885367E+04
       149   7 -4.472978E+05 -1.345225E+05 -2.549782E+04 -1.986792E+05 -6.521041E+02 -1.586568E+04
       149   8 -4.837596E+05 -1.444683E+05 -3.082271E+04 -2.056842E+05  8.616543E+02 -1.843973E+04
       149   9 -5.157606E+05 -1.590701E+05 -3.652908E+04 -2.178979E+05  2.329946E+03 -2.089183E+04
       149  10 -1.093292E+05 -1.405878E+04  2.497745E+04 -1.037241E+05  3.547812E-08  1.987306E-08
       149  11 -7.737849E+04  4.210221E+02  2.993147E+04 -9.147940E+04  2.889868E-08  1.496778E-08
       149  12 -4.086585E+04  1.034673E+04  3.491153E+04 -8.444308E+04  5.666267E-09  3.123301E-09
       149  13 -2.783291E+05 -7.429231E+04 -2.602715E+02 -1.512078E+05 -9.274558E-09 -1.919889E-08
       149  14 -2.805922E+05 -7.202628E+04 -4.458911E+02 -1.485908E+05 -4.902640E-10 -8.572012E-09
       149  15 -2.783454E+05 -7.436554E+04 -8.092670E+02 -1.511829E+05 -1.725053E-09 -1.310493E-09
       149  16 -4.472978E+05 -1.345228E+05 -2.549830E+04 -1.986792E+05 -6.945396E-08 -2.347707E-08
       149  17 -4.837597E+05 -1.444686E+05 -3.082335E+04 -2.056842E+05 -3.422012E-08 -1.268361E-08
       149  18 -5.157607E+05 -1.590706E+05 -3.652991E+04 -2.178978E+05 -3.662940E-09 -7.596447E-10
       149  19 -1.093291E+05 -1.405860E+04  2.497793E+04 -1.037242E+05 -1.123422E+04  1.140397E+04
       149  20 -7.737827E+04  4.212778E+02  2.993212E+04 -9.147954E+04 -1.223334E+04  1.417027E+04
       149  21 -4.086559E+04  1.034708E+04  3.491238E+04 -8.444326E+04 -1.318705E+04  1.681467E+04
       149  22 -2.783290E+05 -7.429210E+04 -2.598696E+02 -1.512078E+05 -5.290205E+03  1.363515E+04
       149  23 -2.805920E+05 -7.202598E+04 -4.453111E+02 -1.485909E+05 -6.546498E+03  1.630538E+04
       149  24 -2.783452E+05 -7.436514E+04 -8.084861E+02 -1.511830E+05 -7.757366E+03  1.885367E+04
       149  25 -4.472978E+05 -1.345225E+05 -2.549782E+04 -1.986792E+05  6.521041E+02  1.586568E+04
       149  26 -4.837596E+05 -1.444683E+05 -3.082271E+04 -2.056842E+05 -8.616543E+02  1.843973E+04
       149  27 -5.157606E+05 -1.590701E+05 -3.652908E+04 -2.178979E+05 -2.329946E+03  2.089183E+04
       150   1 -1.935731E+04  1.802255E+04  3.817613E+04 -7.846129E+04  1.393737E+04 -1.829065E+04
       150   2  1.226836E+04  3.263304E+04  4.346547E+04 -6.593664E+04  1.341609E+04 -2.081426E+04
       150   3  4.847538E+04  4.254480E+04  4.964957E+04 -5.842231E+04  1.248742E+04 -2.225230E+04
       150   4 -2.784154E+05 -7.437542E+04 -1.077562E+03 -1.511812E+05  8.480912E+03 -2.034001E+04
       150   5 -2.805622E+05 -7.236674E+04 -1.989955E+03 -1.484640E+05  1.025233E+04 -2.200343E+04
       150   6 -2.785837E+05 -7.551185E+04 -3.824606E+03 -1.507581E+05  1.161637E+04 -2.258092E+04
       150   7 -5.374040E+05 -1.667675E+05 -4.033292E+04 -2.238734E+05  3.026791E+03 -2.238850E+04
       150   8 -5.733021E+05 -1.773581E+05 -4.744724E+04 -2.309551E+05  7.090137E+03 -2.319201E+04
       150   9 -6.055283E+05 -1.935573E+05 -5.730119E+04 -2.430482E+05  1.074581E+04 -2.290936E+04
       150  10 -1.935761E+04  1.802214E+04  3.817513E+04 -7.846109E+04  3.082682E-09  1.692171E-09
       150  11  1.226805E+04  3.263252E+04  4.346432E+04 -6.593641E+04 -5.857663E-09 -7.641887E-10
       150  12  4.847508E+04  4.254423E+04  4.964835E+04 -5.842209E+04 -5.623316E-09 -2.630094E-10
       150  13 -2.784156E+05 -7.437588E+04 -1.078474E+03 -1.511811E+05 -4.812429E-09 -1.953350E-10
       150  14 -2.805624E+05 -7.236729E+04 -1.991062E+03 -1.484638E+05 -1.179584E-08 -1.125604E-09
       150  15 -2.785839E+05 -7.551243E+04 -3.825817E+03 -1.507579E+05 -6.249944E-09 -5.994251E-10
       150  16 -5.374042E+05 -1.667680E+05 -4.033388E+04 -2.238734E+05 -1.139160E-08 -2.035560E-09
       150  17 -5.733023E+05 -1.773587E+05 -4.744835E+04 -2.309550E+05 -1.553837E-08 -6.106642E-10
       150  18 -6.055286E+05 -1.935579E+05 -5.730240E+04 -2.430480E+05 -3.978313E-09 -2.070416E-09
       150  19 -1.935731E+04  1.802255E+04  3.817613E+04 -7.846129E+04 -1.393737E+04  1.829065E+04
       150  20  1.226836E+04  3.263304E+04  4.346547E+04 -6.593664E+04 -1.341609E+04  2.081426E+04
       150  21  4.847538E+04  4.254480E+04  4.964957E+04 -5.842231E+04 -1.248742E+04  2.225230E+04
       150  22 -2.784154E+05 -7.437542E+04 -1.077562E+03 -1.511812E+05 -8.480912E+03  2.034001E+04
       150  23 -2.805622E+05 -7.236674E+04 -1.989955E+03 -1.484640E+05 -1.025233E+04  2.200343E+04
       150  24 -2.785837E+05 -7.551185E+04 -3.824606E+03 -1.507581E+05 -1.161637E+04  2.258092E+04
       150  25 -5.374040E+05 -1.667675E+05 -4.033292E+04 -2.238734E+05 -3.026791E+03  2.238850E+04
       150  26 -5.733021E+05 -1.773581E+05 -4.744724E+04 -2.309551E+05 -7.090137E+03  2.319201E+04
       150  27 -6.055283E+05 -1.935573E+05 -5.730119E+04 -2.430482E+05 -1.074581E+04  2.290936E+04
       151   1  7.037092E+04  5.000861E+04  5.342244E+04 -5.281175E+04  1.355757E+04 -2.257971E+04
       151   2  9.762956E+04  6.610225E+04  6.440180E+04 -3.538440E+04 -3.437983E+03 -2.403215E+04
       151   3  1.291506E+05  7.393512E+04  8.554303E+04 -2.050336E+04 -2.408081E+04 -1.578390E+04
       151   4 -2.792713E+05 -7.577575E+04 -5.150954E+03 -1.507113E+05  1.243584E+04 -2.300263E+04
       151   5 -2.804746E+05 -7.738431E+04 -9.912402E+03 -1.465228E+05  1.593625E+04 -1.675639E+04
       151   6 -2.814785E+05 -9.131677E+04 -2.075337E+04 -1.448814E+05  1.578957E+04 -8.058172E+02
       151   7 -6.287824E+05 -2.015475E+05 -6.372720E+04 -2.485590E+05  1.131479E+04 -2.342529E+04
       151   8 -6.584224E+05 -2.208517E+05 -8.422956E+04 -2.575950E+05  3.529751E+04 -9.485965E+03
       151   9 -6.919250E+05 -2.565435E+05 -1.270532E+05 -2.691773E+05  5.562980E+04  1.415906E+04
       151  10  7.037058E+04  5.000801E+04  5.342113E+04 -5.281150E+04 -1.227886E-09  1.343402E-09
       151  11  9.762940E+04  6.610163E+04  6.440069E+04 -3.538447E+04  1.368862E-09 -1.552226E-10
       151  12  1.291499E+05  7.393470E+04  8.554147E+04 -2.050366E+04 -1.380864E-09 -5.913496E-10
       151  13 -2.792716E+05 -7.577636E+04 -5.152239E+03 -1.507111E+05  2.453850E-10 -8.932531E-10
       151  14 -2.804750E+05 -7.738468E+04 -9.913407E+03 -1.465226E+05 -1.041079E-09  1.231359E-10
       151  15 -2.814787E+05 -9.131683E+04 -2.075384E+04 -1.448814E+05 -1.265165E-09  7.564682E-10
       151  16 -6.287827E+05 -2.015482E+05 -6.372847E+04 -2.485588E+05  2.363248E-10 -2.587985E-09
       151  17 -6.584238E+05 -2.208522E+05 -8.423208E+04 -2.575947E+05  1.333024E-09 -1.761337E-09
       151  18 -6.919283E+05 -2.565445E+05 -1.270594E+05 -2.691779E+05  6.412157E-10  4.905745E-10
       151  19  7.037092E+04  5.000861E+04  5.342244E+04 -5.281175E+04 -1.355757E+04  2.257971E+04
       151  20  9.762956E+04  6.610225E+04  6.440180E+04 -3.538440E+04  3.437983E+03  2.403215E+04
       151  21  1.291506E+05  7.393512E+04  8.554303E+04 -2.050336E+04  2.408081E+04  1.578390E+04
       151  22 -2.792713E+05 -7.577575E+04 -5.150954E+03 -1.507113E+05 -1.243584E+04  2.300263E+04
       151  23 -2.804746E+05 -7.738431E+04 -9.912402E+03 -1.465228E+05 -1.593625E+04  1.675639E+04
       151  24 -2.814785E+05 -9.131677E+04 -2.075337E+04 -1.448814E+05 -1.578957E+04  8.058172E+02
       151  25 -6.287824E+05 -2.015475E+05 -6.372720E+04 -2.485590E+05 -1.131479E+04  2.342529E+04
       151  26 -6.584224E+05 -2.208517E+05 -8.422956E+04 -2.575950E+05 -3.529751E+04  9.485965E+03
       151  27 -6.919250E+05 -2.565435E+05 -1.270532E+05 -2.691773E+05 -5.562980E+04 -1.415906E+04
       152   1 -1.513228E+05 -2.452719E+04 -4.789398E+04 -1.980595E+04 -7.074278E+04 -2.532239E+03
       152   2 -1.509275E+05  7.025060E+04  8.150201E+03 -5.793037E+03 -4.768035E+04 -7.561671E+03
       152   3 -1.800300E+05  5.888223E+04  2.265589E+04  1.877781E+04 -2.462310E+04 -7.151583E+03
       152   4 -3.994511E+05 -8.637016E+04 -1.091211E+05  7.243525E+03 -7.463415E+04 -2.538135E+03
       152   5 -3.844500E+05  1.236344E+04 -4.777671E+04  1.930083E+03 -4.884046E+04 -7.563437E+03
       152   6 -3.994336E+05  4.453557E+03 -2.988004E+04  7.175053E+03 -2.305131E+04 -7.149749E+03
       152   7 -6.475217E+05 -1.482150E+05 -1.703523E+05  3.428217E+04 -7.852396E+04 -2.544373E+03
       152   8 -6.179223E+05 -4.552744E+04 -1.037074E+05  9.650274E+03 -5.000014E+04 -7.565232E+03
       152   9 -6.187928E+05 -4.997811E+04 -8.241930E+04 -4.423594E+03 -2.148007E+04 -7.147974E+03
       152  10 -1.513282E+05 -2.452854E+04 -4.790339E+04 -1.980610E+04  4.127455E-10  3.443615E-10
       152  11 -1.509300E+05  7.024993E+04  8.145820E+03 -5.793327E+03  1.847360E-09 -5.882405E-10
       152  12 -1.800306E+05  5.888201E+04  2.265466E+04  1.877767E+04  2.597680E-09 -1.453246E-09
       152  13 -3.994571E+05 -8.637166E+04 -1.091316E+05  7.243372E+03 -8.474713E-10  8.816323E-10
       152  14 -3.844526E+05  1.236274E+04 -4.778130E+04  1.929785E+03 -1.297682E-09 -2.630227E-10
       152  15 -3.994342E+05  4.453360E+03 -2.988114E+04  7.174920E+03 -1.503375E-09 -1.075385E-10
       152  16 -6.475284E+05 -1.482166E+05 -1.703639E+05  3.428201E+04 -2.236447E-09  5.765605E-10
       152  17 -6.179250E+05 -4.552818E+04 -1.037123E+05  9.649970E+03  2.707812E-09 -1.734456E-09
       152  18 -6.187933E+05 -4.997829E+04 -8.242026E+04 -4.423718E+03  1.396928E-09 -2.805298E-09
       152  19 -1.513228E+05 -2.452719E+04 -4.789398E+04 -1.980595E+04  7.074278E+04  2.532239E+03
       152  20 -1.509275E+05  7.025060E+04  8.150201E+03 -5.793037E+03  4.768035E+04  7.561671E+03
       152  21 -1.800300E+05  5.888223E+04  2.265589E+04  1.877781E+04  2.462310E+04  7.151583E+03
       152  22 -3.994511E+05 -8.637016E+04 -1.091211E+05  7.243525E+03  7.463415E+04  2.538135E+03
       152  23 -3.844500E+05  1.236344E+04 -4.777671E+04  1.930083E+03  4.884046E+04  7.563437E+03
       152  24 -3.994336E+05  4.453557E+03 -2.988004E+04  7.175053E+03  2.305131E+04  7.149749E+03
       152  25 -6.475217E+05 -1.482150E+05 -1.703523E+05  3.428217E+04  7.852396E+04  2.544373E+03
       152  26 -6.179223E+05 -4.552744E+04 -1.037074E+05  9.650274E+03  5.000014E+04  7.565232E+03
       152  27 -6.187928E+05 -4.997811E+04 -8.241930E+04 -4.423594E+03  2.148007E+04  7.147974E+03
       153   1 -1.936791E+05  4.051829E+04  2.363471E+04  4.869765E+03 -1.840209E+04 -6.036986E+03
       153   2 -2.065062E+05  4.728489E+04  3.200686E+04  1.336267E+03 -1.225017E+04 -5.857079E+03
       153   3 -2.229371E+05  4.281335E+04  3.356527E+04  8.721745E+03 -6.098931E+03 -5.265842E+03
       153   4 -3.935811E+05 -9.071736E+03 -2.438129E+04  7.284703E+03 -1.841433E+04 -6.037203E+03
       153   5 -3.917589E+05  1.341822E+03 -1.240407E+04  1.819858E+03 -1.205700E+04 -5.856983E+03
       153   6 -3.935774E+05  4.796933E+02 -7.384805E+03  7.274210E+03 -5.700203E+03 -5.265414E+03
       153   7 -5.934465E+05 -5.866465E+04 -7.240013E+04  9.698851E+03 -1.842655E+04 -6.037420E+03
       153   8 -5.769802E+05 -4.460373E+04 -5.681742E+04  2.303294E+03 -1.186388E+04 -5.856886E+03
       153   9 -5.641911E+05 -4.185607E+04 -4.833695E+04  5.827066E+03 -5.301584E+03 -5.264988E+03
       153  10 -1.936795E+05  4.051816E+04  2.363401E+04  4.869676E+03 -4.552565E-10 -2.405498E-09
       153  11 -2.065064E+05  4.728481E+04  3.200651E+04  1.336210E+03 -2.422846E-09  8.147836E-10
       153  12 -2.229371E+05  4.281331E+04  3.356515E+04  8.721719E+03 -2.457237E-09  7.571325E-10
       153  13 -3.935815E+05 -9.071866E+03 -2.438200E+04  7.284614E+03  1.627085E-09 -1.982161E-09
       153  14 -3.917591E+05  1.341746E+03 -1.240440E+04  1.819801E+03 -3.541020E-09  2.100510E-10
       153  15 -3.935775E+05  4.796548E+02 -7.384918E+03  7.274186E+03 -3.741634E-09 -1.603210E-09
       153  16 -5.934468E+05 -5.866478E+04 -7.240084E+04  9.698761E+03 -4.231662E-10 -5.930182E-10
       153  17 -5.769804E+05 -4.460381E+04 -5.681775E+04  2.303238E+03  1.432291E-10  1.052614E-09
       153  18 -5.641911E+05 -4.185611E+04 -4.833705E+04  5.827044E+03  1.554333E-09  1.016226E-09
       153  19 -1.936791E+05  4.051829E+04  2.363471E+04  4.869765E+03  1.840209E+04  6.036986E+03
       153  20 -2.065062E+05  4.728489E+04  3.200686E+04  1.336267E+03  1.225017E+04  5.857079E+03
       153  21 -2.229371E+05  4.281335E+04  3.356527E+04  8.721745E+03  6.098931E+03  5.265842E+03
       153  22 -3.935811E+05 -9.071736E+03 -2.438129E+04  7.284703E+03  1.841433E+04  6.037203E+03
       153  23 -3.917589E+05  1.341822E+03 -1.240407E+04  1.819858E+03  1.205700E+04  5.856983E+03
       153  24 -3.935774E+05  4.796933E+02 -7.384805E+03  7.274210E+03  5.700203E+03  5.265414E+03
       153  25 -5.934465E+05 -5.866465E+04 -7.240013E+04  9.698851E+03  1.842655E+04  6.037420E+03
       153  26 -5.769802E+05 -4.460373E+04 -5.681742E+04  2.303294E+03  1.186388E+04  5.856886E+03
       153  27 -5.641911E+05 -4.185607E+04 -4.833695E+04  5.827066E+03  5.301584E+03  5.264988E+03
       154   1 -2.421452E+05  3.645489E+04  3.031834E+04  7.279014E+03 -4.817794E+03 -4.856573E+03
       154   2 -2.567810E+05  3.384423E+04  2.939150E+04  1.883888E+03 -3.241726E+03 -4.280536E+03
       154   3 -2.719295E+05  3.007697E+04  2.714519E+04  7.610209E+03 -1.665913E+03 -3.670274E+03
       154   4 -3.928816E+05 -9.235668E+02 -5.787365E+03  7.323465E+03 -4.536511E+03 -4.856277E+03
       154   5 -3.926230E+05  1.521249E+02 -3.178079E+03  1.761986E+03 -2.943549E+03 -4.280177E+03
       154   6 -3.928803E+05  6.812759E+01 -1.900232E+03  7.322108E+03 -1.350806E+03 -3.669848E+03
       154   7 -5.435972E+05 -3.830368E+04 -4.189468E+04  7.367899E+03 -4.255295E+03 -4.855980E+03
       154   8 -5.284481E+05 -3.354132E+04 -3.574897E+04  1.640104E+03 -2.645437E+03 -4.279817E+03
       154   9 -5.138178E+05 -2.994178E+04 -3.094669E+04  7.034059E+03 -1.035760E+03 -3.669423E+03
       154  10 -2.421452E+05  3.645486E+04  3.031825E+04  7.278995E+03 -3.794917E-09  1.649615E-09
       154  11 -2.567810E+05  3.384421E+04  2.939145E+04  1.883877E+03 -3.138561E-09  2.566376E-09
       154  12 -2.719295E+05  3.007695E+04  2.714516E+04  7.610204E+03 -6.309346E-11 -4.898180E-10
       154  13 -3.928816E+05 -9.235976E+02 -5.787448E+03  7.323448E+03 -1.175550E-09 -1.425320E-09
       154  14 -3.926230E+05  1.521029E+02 -3.178129E+03  1.761976E+03 -5.768965E-09  2.138092E-09
       154  15 -3.928803E+05  6.811264E+01 -1.900261E+03  7.322104E+03 -1.798111E-10  3.154836E-09
       154  16 -5.435972E+05 -3.830371E+04 -4.189476E+04  7.367882E+03  1.946535E-09  1.615743E-09
       154  17 -5.284481E+05 -3.354134E+04 -3.574901E+04  1.640095E+03 -1.348713E-10  2.087187E-09
       154  18 -5.138178E+05 -2.994179E+04 -3.094672E+04  7.034056E+03 -2.865622E-09  1.414845E-09
       154  19 -2.421452E+05  3.645489E+04  3.031834E+04  7.279014E+03  4.817794E+03  4.856573E+03
       154  20 -2.567810E+05  3.384423E+04  2.939150E+04  1.883888E+03  3.241726E+03  4.280536E+03
       154  21 -2.719295E+05  3.007697E+04  2.714519E+04  7.610209E+03  1.665913E+03  3.670274E+03
       154  22 -3.928816E+05 -9.235668E+02 -5.787365E+03  7.323465E+03  4.536511E+03  4.856277E+03
       154  23 -3.926230E+05  1.521249E+02 -3.178079E+03  1.761986E+03  2.943549E+03  4.280177E+03
       154  24 -3.928803E+05  6.812759E+01 -1.900232E+03  7.322108E+03  1.350806E+03  3.669848E+03
       154  25 -5.435972E+05 -3.830368E+04 -4.189468E+04  7.367899E+03  4.255295E+03  4.855980E+03
       154  26 -5.284481E+05 -3.354132E+04 -3.574897E+04  1.640104E+03  2.645437E+03  4.279817E+03
       154  27 -5.138178E+05 -2.994178E+04 -3.094669E+04  7.034059E+03  1.035760E+03  3.669423E+03
       155   1 -2.920502E+05  2.490590E+04  2.260764E+04  7.465291E+03 -1.353127E+03 -3.309451E+03
       155   2 -3.070664E+05  2.127215E+04  1.957716E+04  1.831230E+03 -8.783448E+02 -2.697383E+03
       155   3 -3.222051E+05  1.753914E+04  1.620493E+04  7.456385E+03 -4.037006E+02 -2.080696E+03
       155   4 -3.927919E+05 -7.214301E+01 -1.502078E+03  7.353244E+03 -1.046172E+03 -3.309014E+03
       155   5 -3.927299E+05  2.473421E+01 -9.623877E+02  1.723515E+03 -5.691370E+02 -2.696917E+03
       155   6 -3.927913E+05  2.190478E+01 -7.661027E+02  7.353098E+03 -9.222794E+01 -2.080200E+03
       155   7 -4.935242E+05 -2.505093E+04 -2.561251E+04  7.241212E+03 -7.392676E+02 -3.308578E+03
       155   8 -4.783867E+05 -2.122321E+04 -2.150246E+04  1.615812E+03 -2.599717E+02 -2.696452E+03
       155   9 -4.633729E+05 -1.749569E+04 -1.773749E+04  7.249821E+03  2.192095E+02 -2.079704E+03
       155  10 -2.920502E+05  2.490589E+04  2.260761E+04  7.465287E+03  3.346651E-09 -1.100273E-09
       155  11 -3.070664E+05  2.127214E+04  1.957715E+04  1.831228E+03 -1.445496E-09  3.356888E-09
       155  12 -3.222051E+05  1.753913E+04  1.620493E+04  7.456384E+03 -1.346909E-09  3.965352E-09
       155  13 -3.927919E+05 -7.215506E+01 -1.502100E+03  7.353241E+03  1.892204E-09  4.844230E-10
       155  14 -3.927299E+05  2.472632E+01 -9.624019E+02  1.723513E+03 -2.862912E-09  2.933623E-09
       155  15 -3.927913E+05  2.190013E+01 -7.661108E+02  7.353098E+03 -7.914280E-10  1.912217E-09
       155  16 -4.935242E+05 -2.505094E+04 -2.561253E+04  7.241210E+03 -2.390144E-09  9.439234E-10
       155  17 -4.783867E+05 -2.122322E+04 -2.150247E+04  1.615811E+03 -1.337112E-09 -4.159573E-10
       155  18 -4.633729E+05 -1.749570E+04 -1.773750E+04  7.249821E+03  2.093716E-09 -2.423400E-10
       155  19 -2.920502E+05  2.490590E+04  2.260764E+04  7.465291E+03  1.353127E+03  3.309451E+03
       155  20 -3.070664E+05  2.127215E+04  1.957716E+04  1.831230E+03  8.783448E+02  2.697383E+03
       155  21 -3.222051E+05  1.753914E+04  1.620493E+04  7.456385E+03  4.037006E+02  2.080696E+03
       155  22 -3.927919E+05 -7.214301E+01 -1.502078E+03  7.353244E+03  1.046172E+03  3.309014E+03
       155  23 -3.927299E+05  2.473421E+01 -9.623877E+02  1.723515E+03  5.691370E+02  2.696917E+03
       155  24 -3.927913E+05  2.190478E+01 -7.661027E+02  7.353098E+03  9.222794E+01  2.080200E+03
       155  25 -4.935242E+05 -2.505093E+04 -2.561251E+04  7.241212E+03  7.392676E+02  3.308578E+03
       155  26 -4.783867E+05 -2.122321E+04 -2.150246E+04  1.615812E+03  2.599717E+02  2.696452E+03
       155  27 -4.633729E+05 -1.749569E+04 -1.773749E+04  7.249821E+03 -2.192095E+02  2.079704E+03
       156   1 -3.426081E+05  1.245832E+04  1.122922E+04  7.418943E+03 -2.668939E+02 -1.720432E+03
       156   2 -3.577223E+05  8.707900E+03  7.482302E+03  1.741190E+03  1.847095E+02 -1.101345E+03
       156   3 -3.729636E+05  4.869014E+03  3.409200E+03  7.399994E+03  6.362625E+02 -4.823182E+02
       156   4 -3.927914E+05  2.019590E+01 -7.573530E+02  7.370277E+03  4.463018E+01 -1.719923E+03
       156   5 -3.927278E+05  2.510742E+01 -9.112519E+02  1.702046E+03  4.961777E+02 -1.100826E+03
       156   6 -3.927913E+05 -5.836975E+01 -1.391235E+03  7.370411E+03  9.476858E+02 -4.817882E+02
       156   7 -4.429724E+05 -1.241811E+04 -1.274410E+04  7.321614E+03  3.561291E+02 -1.719415E+03
       156   8 -4.277322E+05 -8.657774E+03 -9.304893E+03  1.662903E+03  8.076284E+02 -1.100307E+03
       156   9 -4.126187E+05 -4.985783E+03 -6.191699E+03  7.340829E+03  1.259099E+03 -4.812582E+02
       156  10 -3.426081E+05  1.245831E+04  1.122921E+04  7.418942E+03  1.303385E-09  2.914154E-09
       156  11 -3.577223E+05  8.707898E+03  7.482300E+03  1.741191E+03 -4.392228E-10  1.189443E-09
       156  12 -3.729636E+05  4.869014E+03  3.409199E+03  7.399994E+03  8.346662E-11 -3.204920E-09
       156  13 -3.927914E+05  2.019273E+01 -7.573585E+02  7.370277E+03 -4.806291E-10  5.389705E-09
       156  14 -3.927278E+05  2.510606E+01 -9.112546E+02  1.702046E+03 -5.920238E-10  4.875948E-10
       156  15 -3.927913E+05 -5.837024E+01 -1.391237E+03  7.370411E+03 -1.730218E-09 -3.354443E-09
       156  16 -4.429724E+05 -1.241811E+04 -1.274411E+04  7.321614E+03 -4.816004E-09  3.044821E-09
       156  17 -4.277322E+05 -8.657775E+03 -9.304896E+03  1.662904E+03 -7.796144E-10 -7.036787E-10
       156  18 -4.126187E+05 -4.985783E+03 -6.191702E+03  7.340829E+03  1.624014E-09 -3.619694E-09
       156  19 -3.426081E+05  1.245832E+04  1.122922E+04  7.418943E+03  2.668939E+02  1.720432E+03
       156  20 -3.577223E+05  8.707900E+03  7.482302E+03  1.741190E+03 -1.847095E+02  1.101345E+03
       156  21 -3.729636E+05  4.869014E+03  3.409200E+03  7.399994E+03 -6.362625E+02  4.823182E+02
       156  22 -3.927914E+05  2.019590E+01 -7.573530E+02  7.370277E+03 -4.463018E+01  1.719923E+03
       156  23 -3.927278E+05  2.510742E+01 -9.112519E+02  1.702046E+03 -4.961777E+02  1.100826E+03
       156  24 -3.927913E+05 -5.836975E+01 -1.391235E+03  7.370411E+03 -9.476858E+02  4.817882E+02
       156  25 -4.429724E+05 -1.241811E+04 -1.274410E+04  7.321614E+03 -3.561291E+02  1.719415E+03
       156  26 -4.277322E+05 -8.657774E+03 -9.304893E+03  1.662903E+03 -8.076284E+02  1.100307E+03
       156  27 -4.126187E+05 -4.985783E+03 -6.191699E+03  7.340829E+03 -1.259099E+03  4.812582E+02
       157   1 -3.935274E+05 -1.032513E+02 -1.954530E+03  7.233672E+03  9.127852E+02 -1.185174E+02
       157   2 -4.084706E+05 -3.786268E+03 -6.710874E+03  1.698887E+03  2.380352E+03  5.033003E+02
       157   3 -4.239161E+05 -8.523123E+03 -1.269684E+04  7.512948E+03  3.847930E+03  1.108028E+03
       157   4 -3.928743E+05  6.857035E+01 -1.751660E+03  7.372554E+03  1.229088E+03 -1.179768E+02
       157   5 -3.926241E+05  1.443274E+02 -2.911294E+03  1.698900E+03  2.688078E+03  5.038208E+02
       157   6 -3.928748E+05 -8.322217E+02 -5.294537E+03  7.374078E+03  4.147115E+03  1.108529E+03
       157   7 -3.922211E+05  2.403921E+02 -1.548790E+03  7.511436E+03  1.545391E+03 -1.174361E+02
       157   8 -3.767773E+05  4.074904E+03  8.882681E+02  1.698912E+03  2.995812E+03  5.043412E+02
       157   9 -3.618327E+05  6.858610E+03  2.107701E+03  7.235199E+03  4.446315E+03  1.109029E+03
       157  10 -3.935274E+05 -1.032516E+02 -1.954532E+03  7.233672E+03 -3.722715E-09 -9.026679E-10
       157  11 -4.084706E+05 -3.786270E+03 -6.710885E+03  1.698886E+03  7.374730E-10  1.217623E-09
       157  12 -4.239161E+05 -8.523128E+03 -1.269687E+04  7.512945E+03 -2.007871E-09  1.542876E-09
       157  13 -3.928743E+05  6.856993E+01 -1.751663E+03  7.372554E+03 -1.832996E-10 -1.968017E-09
       157  14 -3.926241E+05  1.443252E+02 -2.911308E+03  1.698899E+03  6.209910E-10  8.328889E-10
       157  15 -3.928748E+05 -8.322277E+02 -5.294572E+03  7.374074E+03 -2.575263E-09  2.503594E-09
       157  16 -3.922211E+05  2.403915E+02 -1.548795E+03  7.511436E+03  2.210279E-09 -9.084720E-10
       157  17 -3.767773E+05  4.074902E+03  8.882507E+02  1.698911E+03  3.915525E-09 -3.412733E-09
       157  18 -3.618327E+05  6.858603E+03  2.107662E+03  7.235195E+03  2.699082E-09  1.817757E-09
       157  19 -3.935274E+05 -1.032513E+02 -1.954530E+03  7.233672E+03 -9.127852E+02  1.185174E+02
       157  20 -4.084706E+05 -3.786268E+03 -6.710874E+03  1.698887E+03 -2.380352E+03 -5.033003E+02
       157  21 -4.239161E+05 -8.523123E+03 -1.269684E+04  7.512948E+03 -3.847930E+03 -1.108028E+03
       157  22 -3.928743E+05  6.857035E+01 -1.751660E+03  7.372554E+03 -1.229088E+03  1.179768E+02
       157  23 -3.926241E+05  1.443274E+02 -2.911294E+03  1.698900E+03 -2.688078E+03 -5.038208E+02
       157  24 -3.928748E+05 -8.322217E+02 -5.294537E+03  7.374078E+03 -4.147115E+03 -1.108529E+03
       157  25 -3.922211E+05  2.403921E+02 -1.548790E+03  7.511436E+03 -1.545391E+03  1.174361E+02
       157  26 -3.767773E+05  4.074904E+03  8.882681E+02  1.698912E+03 -2.995812E+03 -5.043412E+02
       157  27 -3.618327E+05  6.858610E+03  2.107701E+03  7.235199E+03 -4.446315E+03 -1.109029E+03
       158   1 -4.449961E+05 -1.233440E+04 -1.914220E+04  6.121444E+03  4.847365E+03  1.501497E+03
       158   2 -4.584327E+05 -1.528409E+04 -2.730547E+04  2.222260E+03  1.077036E+04  2.120987E+03
       158   3 -4.752614E+05 -2.855032E+04 -4.191485E+04  9.625342E+03  1.669353E+04  2.514935E+03
       158   4 -3.935131E+05  4.494206E+02 -6.754378E+03  7.358297E+03  5.211594E+03  1.502108E+03
       158   5 -3.918283E+05  1.234666E+03 -1.133698E+04  1.714174E+03  1.102152E+04  2.121371E+03
       158   6 -3.935159E+05 -8.276394E+03 -2.228661E+04  7.372307E+03  1.683178E+04  2.515071E+03
       158   7 -3.420276E+05  1.323306E+04  5.633257E+03  8.595252E+03  5.575853E+03  1.502720E+03
       158   8 -3.252198E+05  1.775310E+04  4.631205E+03  1.206031E+03  1.127271E+04  2.121755E+03
       158   9 -3.117643E+05  1.199707E+04 -2.658831E+03  5.118973E+03  1.697004E+04  2.515205E+03
       158  10 -4.449961E+05 -1.233441E+04 -1.914225E+04  6.121438E+03 -2.615507E-09  3.325547E-09
       158  11 -4.584328E+05 -1.528412E+04 -2.730570E+04  2.222241E+03  2.972660E-10  2.462246E-09
       158  12 -4.752617E+05 -2.855040E+04 -4.191539E+04  9.625308E+03  2.165023E-10  3.080864E-09
       158  13 -3.935131E+05  4.494109E+02 -6.754433E+03  7.358291E+03 -1.920855E-10  2.034091E-09
       158  14 -3.918284E+05  1.234628E+03 -1.133721E+04  1.714155E+03 -1.516451E-09  1.829116E-09
       158  15 -3.935162E+05 -8.276477E+03 -2.228715E+04  7.372273E+03  2.069333E-09  2.126416E-10
       158  16 -3.420276E+05  1.323304E+04  5.633194E+03  8.595245E+03  3.950684E-09  2.432391E-09
       158  17 -3.252199E+05  1.775306E+04  4.630958E+03  1.206012E+03  1.000939E-09 -1.121720E-09
       158  18 -3.117646E+05  1.199698E+04 -2.659384E+03  5.118938E+03  3.374907E-10 -3.655759E-09
       158  19 -4.449961E+05 -1.233440E+04 -1.914220E+04  6.121444E+03 -4.847365E+03 -1.501497E+03
       158  20 -4.584327E+05 -1.528409E+04 -2.730547E+04  2.222260E+03 -1.077036E+04 -2.120987E+03
       158  21 -4.752614E+05 -2.855032E+04 -4.191485E+04  9.625342E+03 -1.669353E+04 -2.514935E+03
       158  22 -3.935131E+05  4.494206E+02 -6.754378E+03  7.358297E+03 -5.211594E+03 -1.502108E+03
       158  23 -3.918283E+05  1.234666E+03 -1.133698E+04  1.714174E+03 -1.102152E+04 -2.121371E+03
       158  24 -3.935159E+05 -8.276394E+03 -2.228661E+04  7.372307E+03 -1.683178E+04 -2.515071E+03
       158  25 -3.420276E+05  1.323306E+04  5.633257E+03  8.595252E+03 -5.575853E+03 -1.502720E+03
       158  26 -3.252198E+05  1.775310E+04  4.631205E+03  1.206031E+03 -1.127271E+04 -2.121755E+03
       158  27 -3.117643E+05  1.199707E+04 -2.658831E+03  5.118973E+03 -1.697004E+04 -2.515205E+03
       159   1 -5.008893E+05 -2.125856E+04 -5.176731E+04 -3.272038E+03  2.005853E+04  3.299488E+03
       159   2 -5.020832E+05 -1.766329E+04 -7.167167E+04  8.824307E+03  4.513522E+04  3.843635E+03
       159   3 -5.310110E+05 -1.118081E+05 -1.323512E+05  3.211701E+04  7.021612E+04  1.389614E+03
       159   4 -3.988676E+05  4.086051E+03 -2.731293E+04  7.301638E+03  2.107055E+04  3.301372E+03
       159   5 -3.851419E+05  1.131211E+04 -4.366553E+04  1.763152E+03  4.464037E+04  3.842328E+03
       159   6 -3.988834E+05 -7.893121E+04 -9.974092E+04  7.421454E+03  6.821504E+04  1.383940E+03
       159   7 -2.968361E+05  2.943032E+04 -2.859238E+03  1.787706E+04  2.208275E+04  3.303290E+03
       159   8 -2.681880E+05  4.028671E+04 -1.566033E+04 -5.299343E+03  4.414543E+04  3.841033E+03
       159   9 -2.667385E+05 -4.605334E+04 -6.713157E+04 -1.727937E+04  6.621354E+04  1.378426E+03
       159  10 -5.008897E+05 -2.125868E+04 -5.176808E+04 -3.272091E+03 -2.272614E-09  1.486109E-09
       159  11 -5.020854E+05 -1.766385E+04 -7.167553E+04  8.824167E+03 -1.949694E-09 -7.837585E-10
       159  12 -5.310163E+05 -1.118094E+05 -1.323605E+05  3.211693E+04 -1.157738E-10 -5.511362E-10
       159  13 -3.988681E+05  4.085920E+03 -2.731379E+04  7.301582E+03  1.634108E-09  3.867933E-09
       159  14 -3.851441E+05  1.131156E+04 -4.366931E+04  1.763014E+03 -1.197369E-09 -3.448514E-09
       159  15 -3.988884E+05 -7.893247E+04 -9.974967E+04  7.421378E+03 -2.235361E-09  8.058356E-10
       159  16 -2.968366E+05  2.943018E+04 -2.860175E+03  1.787700E+04  1.860423E-10  6.783687E-10
       159  17 -2.681901E+05  4.028617E+04 -1.566402E+04 -5.299480E+03  4.114347E-09  1.768000E-09
       159  18 -2.667432E+05 -4.605452E+04 -6.713982E+04 -1.727944E+04  8.533096E-11 -4.462921E-10
       159  19 -5.008893E+05 -2.125856E+04 -5.176731E+04 -3.272038E+03 -2.005853E+04 -3.299488E+03
       159  20 -5.020832E+05 -1.766329E+04 -7.167167E+04  8.824307E+03 -4.513522E+04 -3.843635E+03
       159  21 -5.310110E+05 -1.118081E+05 -1.323512E+05  3.211701E+04 -7.021612E+04 -1.389614E+03
       159  22 -3.988676E+05  4.086051E+03 -2.731293E+04  7.301638E+03 -2.107055E+04 -3.301372E+03
       159  23 -3.851419E+05  1.131211E+04 -4.366553E+04  1.763152E+03 -4.464037E+04 -3.842328E+03
       159  24 -3.988834E+05 -7.893121E+04 -9.974092E+04  7.421454E+03 -6.821504E+04 -1.383940E+03
       159  25 -2.968361E+05  2.943032E+04 -2.859238E+03  1.787706E+04 -2.208275E+04 -3.303290E+03
       159  26 -2.681880E+05  4.028671E+04 -1.566033E+04 -5.299343E+03 -4.414543E+04 -3.841033E+03
       159  27 -2.667385E+05 -4.605334E+04 -6.713157E+04 -1.727937E+04 -6.621354E+04 -1.378426E+03
       160   1  1.784460E+05  9.961779E+05  1.945218E+05 -9.500898E+04  4.317482E+03  7.261638E+04
       160   2  7.011956E+04  8.837142E+05  1.155512E+05 -4.831679E+04  1.229570E+04  3.895989E+04
       160   3  4.557402E+04  7.965159E+05  7.940370E+04 -4.869642E+04  9.287394E+03  5.299690E+03
       160   4  7.886818E+04  5.959629E+05  9.680562E+04 -6.008088E+04  4.330145E+03  6.193481E+04
       160   5 -3.475284E+03  5.841020E+05  4.706524E+04 -3.658006E+04  1.229857E+04  3.700324E+04
       160   6 -3.528382E+03  5.960014E+05  3.411236E+04 -6.014848E+04  9.280618E+03  1.206241E+04
       160   7 -2.071681E+04  1.958965E+05 -9.211362E+02 -2.517527E+04  4.341614E+03  5.126009E+04
       160   8 -7.707584E+04  2.845732E+05 -2.142651E+04 -2.484902E+04  1.230137E+04  3.504752E+04
       160   9 -5.263302E+04  3.955246E+05 -1.118130E+04 -7.159679E+04  9.273591E+03  1.882297E+04
       160  10  1.784445E+05  9.961722E+05  1.945119E+05 -9.500923E+04 -6.123771E-10  2.476325E-09
       160  11  7.011899E+04  8.837125E+05  1.155481E+05 -4.831717E+04  3.768308E-09 -2.917342E-09
       160  12  4.557392E+04  7.965159E+05  7.940348E+04 -4.869646E+04  1.217511E-09 -6.079345E-09
       160  13  7.886713E+04  5.959588E+05  9.679838E+04 -6.008109E+04  3.985933E-10 -9.688239E-10
       160  14 -3.475813E+03  5.841005E+05  4.706239E+04 -3.658043E+04  1.212582E-09  9.209426E-10
       160  15 -3.528513E+03  5.960012E+05  3.411193E+04 -6.014857E+04 -4.529048E-10 -5.679745E-10
       160  16 -2.071753E+04  1.958937E+05 -9.261079E+02 -2.517545E+04 -6.384065E-11 -2.032168E-09
       160  17 -7.707634E+04  2.845718E+05 -2.142911E+04 -2.484937E+04 -1.121954E-09  2.391119E-09
       160  18 -5.263321E+04  3.955242E+05 -1.118213E+04 -7.159694E+04  2.164638E-09  6.415101E-09
       160  19  1.784460E+05  9.961779E+05  1.945218E+05 -9.500898E+04 -4.317482E+03 -7.261638E+04
       160  20  7.011956E+04  8.837142E+05  1.155512E+05 -4.831679E+04 -1.229570E+04 -3.895989E+04
       160  21  4.557402E+04  7.965159E+05  7.940370E+04 -4.869642E+04 -9.287394E+03 -5.299690E+03
       160  22  7.886818E+04  5.959629E+05  9.680562E+04 -6.008088E+04 -4.330145E+03 -6.193481E+04
       160  23 -3.475284E+03  5.841020E+05  4.706524E+04 -3.658006E+04 -1.229857E+04 -3.700324E+04
       160  24 -3.528382E+03  5.960014E+05  3.411236E+04 -6.014848E+04 -9.280618E+03 -1.206241E+04
       160  25 -2.071681E+04  1.958965E+05 -9.211362E+02 -2.517527E+04 -4.341614E+03 -5.126009E+04
       160  26 -7.707584E+04  2.845732E+05 -2.142651E+04 -2.484902E+04 -1.230137E+04 -3.504752E+04
       160  27 -5.263302E+04  3.955246E+05 -1.118130E+04 -7.159679E+04 -9.273591E+03 -1.882297E+04
       161   1  3.210631E+04  7.033951E+05  5.706586E+04 -6.383233E+04  5.037667E+03  3.040360E+03
       161   2  2.036953E+03  6.008655E+05  3.353769E+04 -3.614059E+04  5.577363E+02 -1.256295E+04
       161   3 -1.209354E+04  5.042468E+05  2.411958E+04 -5.586347E+04 -3.948471E+03 -2.816402E+04
       161   4  4.796972E+03  5.920343E+05  3.184387E+04 -6.020599E+04  5.034005E+03  6.593127E+03
       161   5 -8.491960E+02  5.890847E+05  3.087540E+04 -3.649657E+04  5.540305E+02 -8.988760E+03
       161   6  9.440432E+03  5.920325E+05  4.400276E+04 -6.020118E+04 -3.952057E+03 -2.457084E+04
       161   7 -2.251317E+04  4.806850E+05  6.621141E+03 -5.658031E+04  5.030384E+03  1.014526E+04
       161   8 -3.735347E+03  5.773040E+05  2.821315E+04 -3.685255E+04  5.503206E+02 -5.414635E+03
       161   9  3.097395E+04  6.798255E+05  6.388549E+04 -6.453950E+04 -3.955692E+03 -2.097715E+04
       161  10  3.210628E+04  7.033951E+05  5.706580E+04 -6.383234E+04  1.931095E-09  5.682369E-09
       161  11  2.036910E+03  6.008653E+05  3.353739E+04 -3.614058E+04  1.408623E-09  2.369531E-09
       161  12 -1.209377E+04  5.042459E+05  2.411806E+04 -5.586356E+04 -1.853038E-09 -1.049672E-09
       161  13  4.796933E+03  5.920342E+05  3.184374E+04 -6.020602E+04  5.194105E-10 -9.332251E-10
       161  14 -8.492180E+02  5.890846E+05  3.087525E+04 -3.649657E+04  1.895416E-09  7.010091E-10
       161  15  9.440253E+03  5.920319E+05  4.400159E+04 -6.020126E+04  5.153020E-09 -7.680445E-10
       161  16 -2.251322E+04  4.806849E+05  6.620901E+03 -5.658035E+04  2.620178E-09 -5.235366E-09
       161  17 -3.735355E+03  5.773040E+05  2.821309E+04 -3.685255E+04  1.140141E-09 -3.102887E-09
       161  18  3.097382E+04  6.798251E+05  6.388464E+04 -6.453957E+04  6.544448E-10  1.514919E-09
       161  19  3.210631E+04  7.033951E+05  5.706586E+04 -6.383233E+04 -5.037667E+03 -3.040360E+03
       161  20  2.036953E+03  6.008655E+05  3.353769E+04 -3.614059E+04 -5.577363E+02  1.256295E+04
       161  21 -1.209354E+04  5.042468E+05  2.411958E+04 -5.586347E+04  3.948471E+03  2.816402E+04
       161  22  4.796972E+03  5.920343E+05  3.184387E+04 -6.020599E+04 -5.034005E+03 -6.593127E+03
       161  23 -8.491960E+02  5.890847E+05  3.087540E+04 -3.649657E+04 -5.540305E+02  8.988760E+03
       161  24  9.440432E+03  5.920325E+05  4.400276E+04 -6.020118E+04  3.952057E+03  2.457084E+04
       161  25 -2.251317E+04  4.806850E+05  6.621141E+03 -5.658031E+04 -5.030384E+03 -1.014526E+04
       161  26 -3.735347E+03  5.773040E+05  2.821315E+04 -3.685255E+04 -5.503206E+02  5.414635E+03
       161  27  3.097395E+04  6.798255E+05  6.388549E+04 -6.453950E+04  3.955692E+03  2.097715E+04
       162   1 -5.064718E+04  4.234065E+05  1.194027E+04 -8.140572E+04 -8.127948E+03 -3.900841E+04
       162   2 -7.416453E+04  3.027709E+05  1.846934E+04 -1.536685E+04 -1.125396E+04 -7.414352E+04
       162   3  5.126694E+04  2.239046E+05  8.509718E+04  3.622430E+03 -3.986910E+03 -1.092630E+05
       162   4 -7.341866E+03  6.003159E+05  5.191836E+04 -6.015895E+04 -8.135957E+03 -3.239599E+04
       162   5 -6.333763E+03  5.787078E+05  8.159094E+04 -3.657300E+04 -1.124961E+04 -7.578632E+04
       162   6  1.450109E+05  6.002602E+05  1.770686E+05 -6.002989E+04 -3.967458E+03 -1.191670E+05
       162   7  3.596303E+04  7.772554E+05  9.189486E+04 -3.890606E+04 -8.143513E+03 -2.578170E+04
       162   8  6.149339E+04  8.547161E+05  1.447078E+05 -5.778864E+04 -1.124514E+04 -7.742984E+04
       162   9  2.387597E+05  9.767537E+05  2.690322E+05 -1.237208E+05 -3.945984E+03 -1.290770E+05
       162  10 -5.064766E+04  4.234049E+05  1.193728E+04 -8.140598E+04 -1.113676E-09  1.027309E-09
       162  11 -7.416614E+04  3.027649E+05  1.845877E+04 -1.536752E+04  2.508409E-10  3.732514E-10
       162  12  5.126372E+04  2.238918E+05  8.507472E+04  3.622079E+03  8.737508E-10  1.165459E-09
       162  13 -7.342219E+03  6.003147E+05  5.191627E+04 -6.015916E+04  2.525746E-09 -8.998642E-10
       162  14 -6.335439E+03  5.787016E+05  8.157992E+04 -3.657369E+04 -1.302766E-09  5.104814E-10
       162  15  1.450071E+05  6.002450E+05  1.770419E+05 -6.003027E+04 -9.979005E-10 -3.115307E-10
       162  16  3.596278E+04  7.772546E+05  9.189349E+04 -3.890623E+04  4.955762E-10 -6.736482E-10
       162  17  6.149164E+04  8.547096E+05  1.446963E+05 -5.778934E+04 -2.755679E-09 -1.210806E-09
       162  18  2.387552E+05  9.767358E+05  2.690009E+05 -1.237213E+05 -4.447590E-10 -7.414377E-10
       162  19 -5.064718E+04  4.234065E+05  1.194027E+04 -8.140572E+04  8.127948E+03  3.900841E+04
       162  20 -7.416453E+04  3.027709E+05  1.846934E+04 -1.536685E+04  1.125396E+04  7.414352E+04
       162  21  5.126694E+04  2.239046E+05  8.509718E+04  3.622430E+03  3.986910E+03  1.092630E+05
       162  22 -7.341866E+03  6.003159E+05  5.191836E+04 -6.015895E+04  8.135957E+03  3.239599E+04
       162  23 -6.333763E+03  5.787078E+05  8.159094E+04 -3.657300E+04  1.124961E+04  7.578632E+04
       162  24  1.450109E+05  6.002602E+05  1.770686E+05 -6.002989E+04  3.967458E+03  1.191670E+05
       162  25  3.596303E+04  7.772554E+05  9.189486E+04 -3.890606E+04  8.143513E+03  2.578170E+04
       162  26  6.149339E+04  8.547161E+05  1.447078E+05 -5.778864E+04  1.124514E+04  7.742984E+04
       162  27  2.387597E+05  9.767537E+05  2.690322E+05 -1.237208E+05  3.945984E+03  1.290770E+05
       163   1  9.026881E+04  3.494668E+04  1.693395E+04 -7.490598E+03 -4.805269E+04 -5.022796E+03
       163   2  6.433720E+04  9.978947E+04  5.063452E+04  1.893259E+03 -3.486450E+04 -1.525212E+04
       163   3  1.792343E+04  8.950026E+04  5.698312E+04  3.048535E+04 -2.169299E+04 -1.496493E+04
       163   4 -3.297388E+05 -6.952090E+04 -8.581671E+04  1.991096E+04 -5.881868E+04 -5.041018E+03
       163   5 -3.188462E+05  5.393922E+03 -3.828205E+04  1.024892E+04 -3.832245E+04 -1.525891E+04
       163   6 -3.297206E+05  3.881097E+03 -2.318902E+04  1.979646E+04 -1.784185E+04 -1.495820E+04
       163   7 -7.495837E+05 -1.739986E+05 -1.885794E+05  4.729388E+04 -6.957739E+04 -5.060198E+03
       163   8 -7.018938E+05 -8.901169E+04 -1.272084E+05  1.859933E+04 -4.177828E+04 -1.526578E+04
       163   9 -6.772526E+05 -8.174611E+04 -1.033691E+05  9.113555E+03 -1.399284E+04 -1.495159E+04
       163  10  9.026632E+04  3.494603E+04  1.692956E+04 -7.490793E+03 -2.075305E-09  7.409579E-10
       163  11  6.433583E+04  9.978890E+04  5.063180E+04  1.892831E+03 -2.559120E-09  3.438343E-09
       163  12  1.792286E+04  8.949989E+04  5.698182E+04  3.048509E+04  4.948167E-09  1.597745E-09
       163  13 -3.297425E+05 -6.952186E+04 -8.582326E+04  1.991072E+04 -8.576844E-10 -2.089080E-09
       163  14 -3.188479E+05  5.393278E+03 -3.828524E+04  1.024845E+04 -7.953979E-11 -3.835640E-09
       163  15 -3.297210E+05  3.880771E+03 -2.319004E+04  1.979625E+04  6.928287E-10  5.084312E-10
       163  16 -7.495890E+05 -1.739999E+05 -1.885886E+05  4.729360E+04  2.976147E-09  3.350436E-10
       163  17 -7.018958E+05 -8.901241E+04 -1.272121E+05  1.859881E+04 -5.829695E-10  4.648628E-09
       163  18 -6.772528E+05 -8.174641E+04 -1.033699E+05  9.113386E+03 -1.919913E-09 -6.238523E-10
       163  19  9.026881E+04  3.494668E+04  1.693395E+04 -7.490598E+03  4.805269E+04  5.022796E+03
       163  20  6.433720E+04  9.978947E+04  5.063452E+04  1.893259E+03  3.486450E+04  1.525212E+04
       163  21  1.792343E+04  8.950026E+04  5.698312E+04  3.048535E+04  2.169299E+04  1.496493E+04
       163  22 -3.297388E+05 -6.952090E+04 -8.581671E+04  1.991096E+04  5.881868E+04  5.041018E+03
       163  23 -3.188462E+05  5.393922E+03 -3.828205E+04  1.024892E+04  3.832245E+04  1.525891E+04
       163  24 -3.297206E+05  3.881097E+03 -2.318902E+04  1.979646E+04  1.784185E+04  1.495820E+04
       163  25 -7.495837E+05 -1.739986E+05 -1.885794E+05  4.729388E+04  6.957739E+04  5.060198E+03
       163  26 -7.018938E+05 -8.901169E+04 -1.272084E+05  1.859933E+04  4.177828E+04  1.526578E+04
       163  27 -6.772526E+05 -8.174611E+04 -1.033691E+05  9.113555E+03  1.399284E+04  1.495159E+04
       164   1 -1.342980E+04  7.148583E+04  5.356826E+04  1.855846E+04 -1.501300E+04 -1.266979E+04
       164   2 -4.864625E+04  6.838788E+04  5.386250E+04  1.006525E+04 -1.040294E+04 -1.152080E+04
       164   3 -8.599612E+04  5.935718E+04  4.966164E+04  2.121424E+04 -5.794947E+03 -9.830206E+03
       164   4 -3.253693E+05 -5.359648E+03 -1.870124E+04  1.993375E+04 -1.440302E+04 -1.266912E+04
       164   5 -3.242652E+05  5.131522E+02 -9.844870E+03  1.010671E+04 -9.418312E+03 -1.151919E+04
       164   6 -3.253626E+05  3.864152E+02 -5.745669E+03  1.992251E+04 -4.435415E+03 -9.827561E+03
       164   7 -6.372189E+05 -8.221196E+04 -9.097727E+04  2.130830E+04 -1.379335E+04 -1.266844E+04
       164   8 -5.998139E+05 -6.736691E+04 -7.355730E+04  1.014811E+04 -8.434121E+03 -1.151758E+04
       164   9 -5.646761E+05 -5.858837E+04 -6.115680E+04  1.863124E+04 -3.076404E+03 -9.824922E+03
       164  10 -1.343009E+04  7.148559E+04  5.356754E+04  1.855830E+04  7.392744E-10 -1.321092E-09
       164  11 -4.864640E+04  6.838771E+04  5.386204E+04  1.006515E+04 -7.271943E-11  2.621376E-09
       164  12 -8.599618E+04  5.935706E+04  4.966139E+04  2.121420E+04  5.129549E-09  6.848892E-09
       164  13 -3.253696E+05 -5.359876E+03 -1.870194E+04  1.993360E+04  1.913886E-09  5.126248E-09
       164  14 -3.242653E+05  5.129859E+02 -9.845286E+03  1.010662E+04  2.317613E-09 -1.054654E-08
       164  15 -3.253626E+05  3.863062E+02 -5.745887E+03  1.992247E+04 -1.497892E-09  6.618186E-09
       164  16 -6.372192E+05 -8.221218E+04 -9.097793E+04  2.130816E+04  1.933485E-09 -5.623063E-09
       164  17 -5.998140E+05 -6.736707E+04 -7.355769E+04  1.014803E+04 -3.823992E-10 -1.820596E-09
       164  18 -5.646761E+05 -5.858847E+04 -6.115700E+04  1.863122E+04 -2.569825E-09  6.470211E-10
       164  19 -1.342980E+04  7.148583E+04  5.356826E+04  1.855846E+04  1.501300E+04  1.266979E+04
       164  20 -4.864625E+04  6.838788E+04  5.386250E+04  1.006525E+04  1.040294E+04  1.152080E+04
       164  21 -8.599612E+04  5.935718E+04  4.966164E+04  2.121424E+04  5.794947E+03  9.830206E+03
       164  22 -3.253693E+05 -5.359648E+03 -1.870124E+04  1.993375E+04  1.440302E+04  1.266912E+04
       164  23 -3.242652E+05  5.131522E+02 -9.844870E+03  1.010671E+04  9.418312E+03  1.151919E+04
       164  24 -3.253626E+05  3.864152E+02 -5.745669E+03  1.992251E+04  4.435415E+03  9.827561E+03
       164  25 -6.372189E+05 -8.221196E+04 -9.097727E+04  2.130830E+04  1.379335E+04  1.266844E+04
       164  26 -5.998139E+05 -6.736691E+04 -7.355730E+04  1.014811E+04  8.434121E+03  1.151758E+04
       164  27 -5.646761E+05 -5.858837E+04 -6.115680E+04  1.863124E+04  3.076404E+03  9.824922E+03
       165   1 -1.213939E+05  4.978662E+04  4.250035E+04  2.023954E+04 -4.736861E+03 -8.738809E+03
       165   2 -1.576696E+05  4.124740E+04  3.612872E+04  1.037903E+04 -3.522767E+03 -7.004546E+03
       165   3 -1.942942E+05  3.231684E+04  2.884773E+04  2.027553E+04 -2.309266E+03 -5.240452E+03
       165   4 -3.249481E+05 -3.237545E+02 -4.445567E+03  1.995188E+04 -3.541489E+03 -8.736393E+03
       165   5 -3.247697E+05  9.460541E+01 -2.487134E+03  1.007272E+04 -2.307030E+03 -7.001938E+03
       165   6 -3.249446E+05  1.181896E+02 -1.452267E+03  1.995090E+04 -1.073093E+03 -5.237644E+03
       165   7 -5.284639E+05 -5.043704E+04 -5.139423E+04  1.966430E+04 -2.346506E+03 -8.733978E+03
       165   8 -4.918440E+05 -4.106015E+04 -4.110485E+04  9.766484E+03 -1.091617E+03 -6.999331E+03
       165   9 -4.555792E+05 -3.208166E+04 -3.175340E+04  1.962632E+04  1.628214E+02 -5.234836E+03
       165  10 -1.213939E+05  4.978654E+04  4.250016E+04  2.023950E+04  5.701854E-09 -1.988424E-09
       165  11 -1.576696E+05  4.124735E+04  3.612860E+04  1.037901E+04 -1.072676E-09 -3.257376E-09
       165  12 -1.942942E+05  3.231681E+04  2.884767E+04  2.027552E+04 -1.870091E-09 -3.143371E-09
       165  13 -3.249481E+05 -3.238398E+02 -4.445734E+03  1.995186E+04 -1.067015E-09 -1.134996E-10
       165  14 -3.247697E+05  9.455134E+01 -2.487236E+03  1.007271E+04 -8.891480E-10 -2.556428E-09
       165  15 -3.249446E+05  1.181599E+02 -1.452321E+03  1.995089E+04 -9.911593E-10 -2.950353E-09
       165  16 -5.284639E+05 -5.043712E+04 -5.139439E+04  1.966429E+04 -3.239263E-09 -4.700637E-09
       165  17 -4.918440E+05 -4.106020E+04 -4.110494E+04  9.766478E+03  1.259847E-09  4.018850E-09
       165  18 -4.555792E+05 -3.208169E+04 -3.175345E+04  1.962632E+04  1.081854E-09  4.281634E-09
       165  19 -1.213939E+05  4.978662E+04  4.250035E+04  2.023954E+04  4.736861E+03  8.738809E+03
       165  20 -1.576696E+05  4.124740E+04  3.612872E+04  1.037903E+04  3.522767E+03  7.004546E+03
       165  21 -1.942942E+05  3.231684E+04  2.884773E+04  2.027553E+04  2.309266E+03  5.240452E+03
       165  22 -3.249481E+05 -3.237545E+02 -4.445567E+03  1.995188E+04  3.541489E+03  8.736393E+03
       165  23 -3.247697E+05  9.460541E+01 -2.487134E+03  1.007272E+04  2.307030E+03  7.001938E+03
       165  24 -3.249446E+05  1.181896E+02 -1.452267E+03  1.995090E+04  1.073093E+03  5.237644E+03
       165  25 -5.284639E+05 -5.043704E+04 -5.139423E+04  1.966430E+04  2.346506E+03  8.733978E+03
       165  26 -4.918440E+05 -4.106015E+04 -4.110485E+04  9.766484E+03  1.091617E+03  6.999331E+03
       165  27 -4.555792E+05 -3.208166E+04 -3.175340E+04  1.962632E+04 -1.628214E+02  5.234836E+03
       166   1 -2.301851E+05  2.337232E+04  2.065682E+04  2.014928E+04 -2.072725E+03 -4.208076E+03
       166   2 -2.666529E+05  1.438441E+04  1.276050E+04  1.017751E+04 -1.740148E+03 -2.440584E+03
       166   3 -3.032646E+05  5.448766E+03  4.634971E+03  2.001180E+04 -1.407762E+03 -6.709671E+02
       166   4 -3.248964E+05  6.756744E+01 -1.123815E+03  1.996209E+04 -8.441283E+02 -4.205218E+03
       166   5 -3.248231E+05  5.750640E+01 -6.828893E+02  1.005897E+04 -5.101526E+02 -2.437673E+03
       166   6 -3.248952E+05  9.954168E+01 -4.721180E+02  1.996201E+04 -1.763491E+02 -6.679976E+02
       166   7 -4.195994E+05 -2.323781E+04 -2.290504E+04  1.977492E+04  3.842821E+02 -4.202362E+03
       166   8 -3.829902E+05 -1.426963E+04 -1.412650E+04  9.940432E+03  7.197281E+02 -2.434762E+03
       166   9 -3.465254E+05 -5.249715E+03 -5.579234E+03  1.991223E+04  1.055021E+03 -6.650283E+02
       166  10 -2.301851E+05  2.337230E+04  2.065678E+04  2.014928E+04  3.898217E-09 -5.500891E-09
       166  11 -2.666529E+05  1.438440E+04  1.276048E+04  1.017751E+04 -3.957506E-09  2.558592E-09
       166  12 -3.032646E+05  5.448765E+03  4.634967E+03  2.001180E+04 -2.874355E-09  6.724186E-10
       166  13 -3.248964E+05  6.754826E+01 -1.123850E+03  1.996209E+04  1.424457E-11  3.088349E-11
       166  14 -3.248231E+05  5.749995E+01 -6.829009E+02  1.005897E+04  1.414144E-09 -6.671300E-09
       166  15 -3.248952E+05  9.954119E+01 -4.721189E+02  1.996201E+04 -2.206846E-10 -2.030826E-09
       166  16 -4.195994E+05 -2.323783E+04 -2.290507E+04  1.977492E+04 -3.606918E-09  1.903788E-10
       166  17 -3.829902E+05 -1.426964E+04 -1.412651E+04  9.940433E+03  1.410258E-09  6.029015E-09
       166  18 -3.465254E+05 -5.249716E+03 -5.579237E+03  1.991223E+04  4.810934E-09  3.698237E-09
       166  19 -2.301851E+05  2.337232E+04  2.065682E+04  2.014928E+04  2.072725E+03  4.208076E+03
       166  20 -2.666529E+05  1.438441E+04  1.276050E+04  1.017751E+04  1.740148E+03  2.440584E+03
       166  21 -3.032646E+05  5.448766E+03  4.634971E+03  2.001180E+04  1.407762E+03  6.709671E+02
       166  22 -3.248964E+05  6.756744E+01 -1.123815E+03  1.996209E+04  8.441283E+02  4.205218E+03
       166  23 -3.248231E+05  5.750640E+01 -6.828893E+02  1.005897E+04  5.101526E+02  2.437673E+03
       166  24 -3.248952E+05  9.954168E+01 -4.721180E+02  1.996201E+04  1.763491E+02  6.679976E+02
       166  25 -4.195994E+05 -2.323781E+04 -2.290504E+04  1.977492E+04 -3.842821E+02  4.202362E+03
       166  26 -3.829902E+05 -1.426963E+04 -1.412650E+04  9.940432E+03 -7.197281E+02  2.434762E+03
       166  27 -3.465254E+05 -5.249715E+03 -5.579234E+03  1.991223E+04 -1.055021E+03  6.650283E+02
       167   1 -3.392418E+05 -3.458156E+03 -3.849617E+03  1.993767E+04 -1.329209E+03  3.594920E+02
       167   2 -3.757201E+05 -1.248070E+04 -1.218845E+04  9.965125E+03 -1.121001E+03  2.129011E+03
       167   3 -4.123215E+05 -2.143169E+04 -2.067084E+04  1.980084E+04 -9.126576E+02  3.896513E+03
       167   4 -3.248905E+05  9.819583E+01 -4.248028E+02  1.996247E+04 -9.780247E+01  3.624636E+02
       167   5 -3.248287E+05  5.424760E+01 -4.264521E+02  1.005841E+04  1.089718E+02  2.131930E+03
       167   6 -3.248915E+05  8.205727E+01 -5.707502E+02  1.996251E+04  3.158941E+02  3.899385E+03
       167   7 -3.105391E+05  3.654533E+03  3.000003E+03  1.998727E+04  1.133632E+03  3.654352E+02
       167   8 -2.739349E+05  1.258902E+04  1.133537E+04  1.015170E+04  1.339045E+03  2.134850E+03
       167   9 -2.374545E+05  2.159528E+04  1.952884E+04  2.012419E+04  1.544618E+03  3.902258E+03
       167  10 -3.392418E+05 -3.458157E+03 -3.849621E+03  1.993767E+04 -7.238903E-10 -8.604394E-10
       167  11 -3.757201E+05 -1.248071E+04 -1.218846E+04  9.965127E+03 -1.337719E-09 -3.826812E-09
       167  12 -4.123215E+05 -2.143171E+04 -2.067087E+04  1.980084E+04 -4.152623E-09 -2.838251E-09
       167  13 -3.248905E+05  9.819569E+01 -4.248031E+02  1.996247E+04  8.297901E-10  6.409008E-09
       167  14 -3.248287E+05  5.424272E+01 -4.264607E+02  1.005841E+04  4.414024E-09 -4.824621E-09
       167  15 -3.248915E+05  8.204092E+01 -5.707789E+02  1.996251E+04  2.004024E-09 -1.701848E-09
       167  16 -3.105391E+05  3.654533E+03  3.000000E+03  1.998727E+04 -8.669036E-10  2.748470E-09
       167  17 -2.739349E+05  1.258901E+04  1.133536E+04  1.015170E+04  5.451494E-09 -9.722632E-09
       167  18 -2.374545E+05  2.159526E+04  1.952881E+04  2.012419E+04  6.177263E-09 -7.947359E-09
       167  19 -3.392418E+05 -3.458156E+03 -3.849617E+03  1.993767E+04  1.329209E+03 -3.594920E+02
       167  20 -3.757201E+05 -1.248070E+04 -1.218845E+04  9.965125E+03  1.121001E+03 -2.129011E+03
       167  21 -4.123215E+05 -2.143169E+04 -2.067084E+04  1.980084E+04  9.126576E+02 -3.896513E+03
       167  22 -3.248905E+05  9.819583E+01 -4.248028E+02  1.996247E+04  9.780247E+01 -3.624636E+02
       167  23 -3.248287E+05  5.424760E+01 -4.264521E+02  1.005841E+04 -1.089718E+02 -2.131930E+03
       167  24 -3.248915E+05  8.205727E+01 -5.707502E+02  1.996251E+04 -3.158941E+02 -3.899385E+03
       167  25 -3.105391E+05  3.654533E+03  3.000003E+03  1.998727E+04 -1.133632E+03 -3.654352E+02
       167  26 -2.739349E+05  1.258902E+04  1.133537E+04  1.015170E+04 -1.339045E+03 -2.134850E+03
       167  27 -2.374545E+05  2.159528E+04  1.952884E+04  2.012419E+04 -1.544618E+03 -3.902258E+03
       168   1 -4.482783E+05 -3.030448E+04 -2.932089E+04  1.969294E+04 -8.083630E+02  4.928841E+03
       168   2 -4.846285E+05 -3.930088E+04 -3.807892E+04  9.791627E+03 -2.255338E+02  6.692330E+03
       168   3 -5.211825E+05 -4.842776E+04 -4.727104E+04  1.964915E+04  3.577916E+02  8.426565E+03
       168   4 -3.249103E+05  1.050032E+02 -6.994796E+02  1.995132E+04  4.276064E+02  4.931669E+03
       168   5 -3.248115E+05  6.599061E+01 -1.138825E+03  1.007229E+04  9.901942E+02  6.694964E+03
       168   6 -3.249135E+05 -9.971502E+01 -1.997905E+03  1.995178E+04  1.553312E+03  8.429013E+03
       168   7 -2.015283E+05  3.051342E+04  2.792091E+04  2.020974E+04  1.663820E+03  4.934497E+03
       168   8 -1.649709E+05  3.943107E+04  3.579957E+04  1.035301E+04  2.206233E+03  6.697599E+03
       168   9 -1.286088E+05  4.822563E+04  4.327268E+04  2.025448E+04  2.749207E+03  8.431463E+03
       168  10 -4.482783E+05 -3.030451E+04 -2.932093E+04  1.969294E+04 -8.516511E-10 -1.821843E-09
       168  11 -4.846285E+05 -3.930093E+04 -3.807900E+04  9.791628E+03 -1.206100E-09 -7.243504E-09
       168  12 -5.211825E+05 -4.842784E+04 -4.727118E+04  1.964915E+04  6.705792E-10 -3.692626E-09
       168  13 -3.249103E+05  1.049770E+02 -6.995256E+02  1.995132E+04  3.230967E-09 -2.374007E-09
       168  14 -3.248115E+05  6.594222E+01 -1.138911E+03  1.007228E+04  1.138222E-09 -3.685063E-10
       168  15 -3.249135E+05 -9.979195E+01 -1.998043E+03  1.995177E+04 -8.340430E-10  9.118353E-10
       168  16 -2.015283E+05  3.051339E+04  2.792086E+04  2.020974E+04  3.491316E-09  4.090622E-09
       168  17 -1.649709E+05  3.943102E+04  3.579948E+04  1.035300E+04  9.839910E-10 -2.539201E-09
       168  18 -1.286089E+05  4.822555E+04  4.327253E+04  2.025446E+04 -1.209179E-10  3.787372E-09
       168  19 -4.482783E+05 -3.030448E+04 -2.932089E+04  1.969294E+04  8.083630E+02 -4.928841E+03
       168  20 -4.846285E+05 -3.930088E+04 -3.807892E+04  9.791627E+03  2.255338E+02 -6.692330E+03
       168  21 -5.211825E+05 -4.842776E+04 -4.727104E+04  1.964915E+04 -3.577916E+02 -8.426565E+03
       168  22 -3.249103E+05  1.050032E+02 -6.994796E+02  1.995132E+04 -4.276064E+02 -4.931669E+03
       168  23 -3.248115E+05  6.599061E+01 -1.138825E+03  1.007229E+04 -9.901942E+02 -6.694964E+03
       168  24 -3.249135E+05 -9.971502E+01 -1.997905E+03  1.995178E+04 -1.553312E+03 -8.429013E+03
       168  25 -2.015283E+05  3.051342E+04  2.792091E+04  2.020974E+04 -1.663820E+03 -4.934497E+03
       168  26 -1.649709E+05  3.943107E+04  3.579957E+04  1.035301E+04 -2.206233E+03 -6.697599E+03
       168  27 -1.286088E+05  4.822563E+04  4.327268E+04  2.025448E+04 -2.749207E+03 -8.431463E+03
       169   1 -5.571746E+05 -5.697282E+04 -5.631026E+04  1.914664E+04  5.961030E+02  9.515815E+03
       169   2 -5.929239E+05 -6.585778E+04 -6.643819E+04  9.899912E+03  3.188016E+03  1.120506E+04
       169   3 -6.297385E+05 -7.743354E+04 -7.894038E+04  2.030401E+04  5.781516E+03  1.236194E+04
       169   4 -3.250952E+05  2.171171E+02 -2.571802E+03  1.992596E+04  1.952801E+03  9.518484E+03
       169   5 -3.245972E+05  2.441768E+02 -4.395557E+03  1.010333E+04  4.175314E+03  1.120673E+04
       169   6 -3.251010E+05 -2.354581E+03 -8.336118E+03  1.993104E+04  6.399563E+03  1.236270E+04
       169   7 -9.296605E+04  5.740327E+04  5.116306E+04  2.070554E+04  3.310003E+03  9.521157E+03
       169   8 -5.620394E+04  6.634108E+04  5.764227E+04  1.030681E+04  5.163035E+03  1.120839E+04
       169   9 -2.037772E+04  7.271785E+04  6.226193E+04  1.955784E+04  7.017911E+03  1.236346E+04
       169  10 -5.571746E+05 -5.697292E+04 -5.631043E+04  1.914664E+04  2.311127E-09 -9.998715E-10
       169  11 -5.929239E+05 -6.585792E+04 -6.643844E+04  9.899883E+03 -3.682602E-09  2.605741E-09
       169  12 -6.297386E+05 -7.743371E+04 -7.894073E+04  2.030395E+04 -4.149215E-10  3.473189E-10
       169  13 -3.250953E+05  2.170188E+02 -2.571980E+03  1.992594E+04  2.349924E-10 -8.023381E-09
       169  14 -3.245973E+05  2.440373E+02 -4.395826E+03  1.010329E+04 -2.513252E-09  4.480210E-09
       169  15 -3.251011E+05 -2.354756E+03 -8.336482E+03  1.993098E+04 -1.985122E-09 -3.637085E-10
       169  16 -9.296609E+04  5.740317E+04  5.116287E+04  2.070552E+04 -4.390396E-09 -3.695778E-09
       169  17 -5.620400E+04  6.634094E+04  5.764198E+04  1.030676E+04  1.599206E-10 -7.977248E-09
       169  18 -2.037781E+04  7.271767E+04  6.226155E+04  1.955778E+04  1.704310E-12 -2.240018E-09
       169  19 -5.571746E+05 -5.697282E+04 -5.631026E+04  1.914664E+04 -5.961030E+02 -9.515815E+03
       169  20 -5.929239E+05 -6.585778E+04 -6.643819E+04  9.899912E+03 -3.188016E+03 -1.120506E+04
       169  21 -6.297385E+05 -7.743354E+04 -7.894038E+04  2.030401E+04 -5.781516E+03 -1.236194E+04
       169  22 -3.250952E+05  2.171171E+02 -2.571802E+03  1.992596E+04 -1.952801E+03 -9.518484E+03
       169  23 -3.245972E+05  2.441768E+02 -4.395557E+03  1.010333E+04 -4.175314E+03 -1.120673E+04
       169  24 -3.251010E+05 -2.354581E+03 -8.336118E+03  1.993104E+04 -6.399563E+03 -1.236270E+04
       169  25 -9.296605E+04  5.740327E+04  5.116306E+04  2.070554E+04 -3.310003E+03 -9.521157E+03
       169  26 -5.620394E+04  6.634108E+04  5.764227E+04  1.030681E+04 -5.163035E+03 -1.120839E+04
       169  27 -2.037772E+04  7.271785E+04  6.226193E+04  1.955784E+04 -7.017911E+03 -1.236346E+04
       170   1 -6.673921E+05 -8.207422E+04 -8.885365E+04  1.479300E+04  4.126205E+03  1.462202E+04
       170   2 -6.980691E+05 -9.025023E+04 -1.043272E+05  1.370185E+04  2.044233E+04  1.494379E+04
       170   3 -7.396830E+05 -1.336803E+05 -1.392438E+05  3.179962E+04  3.677274E+04  4.921001E+03
       170   4 -3.270349E+05  1.760952E+03 -1.033315E+04  1.980993E+04  7.929522E+03  1.462846E+04
       170   5 -3.221993E+05  2.405728E+03 -1.706311E+04  1.024145E+04  1.705714E+04  1.493742E+04
       170   6 -3.270470E+05 -3.094354E+04 -3.823447E+04  1.986192E+04  2.620025E+04  4.904157E+03
       170   7  1.342970E+04  8.558810E+04  6.817970E+04  2.482960E+04  1.173491E+04  1.463496E+04
       170   8  5.380114E+04  9.505178E+04  7.019157E+04  6.778876E+03  1.366992E+04  1.493109E+04
       170   9  8.574488E+04  7.178122E+04  6.276287E+04  7.916189E+03  1.562075E+04  4.887726E+03
       170  10 -6.673922E+05 -8.207446E+04 -8.885408E+04  1.479295E+04 -5.999984E-09 -2.452298E-09
       170  11 -6.980696E+05 -9.025058E+04 -1.043284E+05  1.370160E+04 -4.702137E-11 -2.842928E-09
       170  12 -7.396845E+05 -1.336807E+05 -1.392464E+05  3.179948E+04  8.109048E-09  4.341061E-09
       170  13 -3.270350E+05  1.760706E+03 -1.033367E+04  1.980984E+04 -1.093427E-09  2.487200E-10
       170  14 -3.221997E+05  2.405410E+03 -1.706408E+04  1.024124E+04  4.226943E-10  1.122333E-10
       170  15 -3.270477E+05 -3.094375E+04 -3.823581E+04  1.986181E+04 -2.597075E-09  2.972845E-09
       170  16  1.342950E+04  8.558783E+04  6.817904E+04  2.482946E+04  4.312250E-09  1.173535E-09
       170  17  5.380088E+04  9.505149E+04  7.019080E+04  6.778712E+03 -3.711034E-09  4.781371E-09
       170  18  8.574461E+04  7.178113E+04  6.276237E+04  7.916128E+03 -1.078874E-08 -1.189102E-09
       170  19 -6.673921E+05 -8.207422E+04 -8.885365E+04  1.479300E+04 -4.126205E+03 -1.462202E+04
       170  20 -6.980691E+05 -9.025023E+04 -1.043272E+05  1.370185E+04 -2.044233E+04 -1.494379E+04
       170  21 -7.396830E+05 -1.336803E+05 -1.392438E+05  3.179962E+04 -3.677274E+04 -4.921001E+03
       170  22 -3.270349E+05  1.760952E+03 -1.033315E+04  1.980993E+04 -7.929522E+03 -1.462846E+04
       170  23 -3.221993E+05  2.405728E+03 -1.706311E+04  1.024145E+04 -1.705714E+04 -1.493742E+04
       170  24 -3.270470E+05 -3.094354E+04 -3.823447E+04  1.986192E+04 -2.620025E+04 -4.904157E+03
       170  25  1.342970E+04  8.558810E+04  6.817970E+04  2.482960E+04 -1.173491E+04 -1.463496E+04
       170  26  5.380114E+04  9.505178E+04  7.019157E+04  6.778876E+03 -1.366992E+04 -1.493109E+04
       170  27  8.574488E+04  7.178122E+04  6.276287E+04  7.916189E+03 -1.562075E+04 -4.887726E+03
       171   1 -2.338175E+05 -8.881822E+05 -2.279866E+05  2.045039E+05 -9.585485E+03 -6.945494E+04
       171   2 -1.600207E+05 -6.890059E+05 -1.426396E+05  1.732622E+05 -2.911556E+04 -2.881456E+04
       171   3 -1.078579E+05 -5.003160E+05 -8.916877E+04  1.866786E+05 -2.742034E+04  1.186906E+04
       171   4 -2.605882E+04 -4.971391E+04 -2.835388E+04  1.882478E+05 -9.632894E+03 -2.111576E+04
       171   5 -5.626639E+03 -4.737766E+04 -1.266567E+04  1.659311E+05 -2.912613E+04 -1.455545E+04
       171   6 -8.928810E+02 -4.963297E+04 -5.157514E+03  1.882728E+05 -2.740293E+04 -7.965948E+03
       171   7  1.816513E+05  7.894057E+05  1.712385E+05  1.719697E+05 -9.682812E+03  2.728849E+04
       171   8  1.487421E+05  5.946434E+05  1.172877E+05  1.585922E+05 -2.913703E+04 -2.818623E+02
       171   9  1.060607E+05  4.012476E+05  7.884656E+04  1.898682E+05 -2.738563E+04 -2.781500E+04
       171  10 -2.338189E+05 -8.881874E+05 -2.279958E+05  2.045033E+05 -8.535047E-10 -5.137407E-08
       171  11 -1.600218E+05 -6.890070E+05 -1.426428E+05  1.732615E+05 -1.084505E-09  2.395989E-09
       171  12 -1.078588E+05 -5.003163E+05 -8.917045E+04  1.866788E+05 -2.377121E-09  5.332449E-08
       171  13 -2.605904E+04 -4.971442E+04 -2.835489E+04  1.882476E+05  1.806737E-09  2.361970E-09
       171  14 -5.627606E+03 -4.737811E+04 -1.266766E+04  1.659307E+05  2.035193E-10 -2.432604E-09
       171  15 -8.937043E+02 -4.963324E+04 -5.159044E+03  1.882726E+05  9.455530E-10  9.250594E-10
       171  16  1.816510E+05  7.894048E+05  1.712369E+05  1.719699E+05  1.730573E-09  5.049829E-08
       171  17  1.487412E+05  5.946432E+05  1.172862E+05  1.585922E+05  1.172437E-09 -2.172565E-09
       171  18  1.060597E+05  4.012466E+05  7.884370E+04  1.898676E+05  6.166487E-10 -5.532571E-08
       171  19 -2.338175E+05 -8.881822E+05 -2.279866E+05  2.045039E+05  9.585485E+03  6.945494E+04
       171  20 -1.600207E+05 -6.890059E+05 -1.426396E+05  1.732622E+05  2.911556E+04  2.881456E+04
       171  21 -1.078579E+05 -5.003160E+05 -8.916877E+04  1.866786E+05  2.742034E+04 -1.186906E+04
       171  22 -2.605882E+04 -4.971391E+04 -2.835388E+04  1.882478E+05  9.632894E+03  2.111576E+04
       171  23 -5.626639E+03 -4.737766E+04 -1.266567E+04  1.659311E+05  2.912613E+04  1.455545E+04
       171  24 -8.928810E+02 -4.963297E+04 -5.157514E+03  1.882728E+05  2.740293E+04  7.965948E+03
       171  25  1.816513E+05  7.894057E+05  1.712385E+05  1.719697E+05  9.682812E+03 -2.728849E+04
       171  26  1.487421E+05  5.946434E+05  1.172877E+05  1.585922E+05  2.913703E+04  2.818623E+02
       171  27  1.060607E+05  4.012476E+05  7.884656E+04  1.898682E+05  2.738563E+04  2.781500E+04
       172   1 -7.786270E+04 -3.705038E+05 -6.222122E+04  1.887864E+05 -1.984332E+04  9.688452E+03
       172   2 -3.033608E+04 -1.768257E+05 -1.984519E+04  1.659613E+05 -8.912270E+03  9.086102E+03
       172   3  1.766125E+04  1.721472E+04  2.306983E+04  1.890801E+05  2.525182E+03  8.482957E+03
       172   4 -1.491812E+03 -4.848936E+04 -2.463308E+03  1.885535E+05 -1.982962E+04 -7.475949E+03
       172   5 -1.681617E+02 -4.871545E+04  2.863761E+03  1.655831E+05 -8.898783E+03 -8.894418E+03
       172   6  1.770104E+03 -4.847284E+04  9.297836E+03  1.885560E+05  2.538321E+03 -1.031351E+04
       172   7  7.487328E+04  2.736262E+05  5.729134E+04  1.883205E+05 -1.981590E+04 -2.464903E+04
       172   8  2.999903E+04  7.941155E+04  2.557332E+04  1.652049E+05 -8.885275E+03 -2.687854E+04
       172   9 -1.412113E+04 -1.141556E+05 -4.473069E+03  1.880319E+05  2.551492E+03 -2.910801E+04
       172  10 -7.786315E+04 -3.705040E+05 -6.222214E+04  1.887865E+05 -1.414694E-09  4.041524E-09
       172  11 -3.033619E+04 -1.768258E+05 -1.984549E+04  1.659614E+05 -4.338102E-09  1.096962E-09
       172  12  1.766123E+04  1.721465E+04  2.306968E+04  1.890801E+05 -3.479069E-09 -2.962049E-09
       172  13 -1.492249E+03 -4.848953E+04 -2.464151E+03  1.885534E+05  3.264773E-10  2.832348E-09
       172  14 -1.682679E+02 -4.871555E+04  2.863464E+03  1.655831E+05 -2.559269E-09 -1.642841E-09
       172  15  1.770068E+03 -4.847296E+04  9.297624E+03  1.885560E+05 -3.941309E-09 -1.859492E-10
       172  16  7.487270E+04  2.736254E+05  5.728947E+04  1.883201E+05 -1.834870E-09 -6.270916E-09
       172  17  2.999875E+04  7.941075E+04  2.557181E+04  1.652047E+05 -5.713741E-10 -1.771986E-09
       172  18 -1.412137E+04 -1.141565E+05 -4.474674E+03  1.880319E+05 -1.747488E-09  3.444325E-10
       172  19 -7.786270E+04 -3.705038E+05 -6.222122E+04  1.887864E+05  1.984332E+04 -9.688452E+03
       172  20 -3.033608E+04 -1.768257E+05 -1.984519E+04  1.659613E+05  8.912270E+03 -9.086102E+03
       172  21  1.766125E+04  1.721472E+04  2.306983E+04  1.890801E+05 -2.525182E+03 -8.482957E+03
       172  22 -1.491812E+03 -4.848936E+04 -2.463308E+03  1.885535E+05  1.982962E+04  7.475949E+03
       172  23 -1.681617E+02 -4.871545E+04  2.863761E+03  1.655831E+05  8.898783E+03  8.894418E+03
       172  24  1.770104E+03 -4.847284E+04  9.297836E+03  1.885560E+05 -2.538321E+03  1.031351E+04
       172  25  7.487328E+04  2.736262E+05  5.729134E+04  1.883205E+05  1.981590E+04  2.464903E+04
       172  26  2.999903E+04  7.941155E+04  2.557332E+04  1.652049E+05  8.885275E+03  2.687854E+04
       172  27 -1.412113E+04 -1.141556E+05 -4.473069E+03  1.880319E+05 -2.551492E+03  2.910801E+04
       173   1  4.704047E+04  1.476383E+05  5.093548E+04  1.848212E+05  1.031417E+04  8.657500E+03
       173   2  1.027766E+05  3.348940E+05  1.058689E+05  1.788068E+05  1.559293E+04 -2.893472E+04
       173   3  1.925855E+05  5.357367E+05  1.938153E+05  2.179116E+05  5.762507E+03 -6.655656E+04
       173   4  6.614908E+02 -4.650651E+04  1.320527E+04  1.883644E+05  1.032917E+04 -1.193538E+04
       173   5  9.557421E+03 -5.120320E+04  2.566950E+04  1.658279E+05  1.559131E+04 -2.521810E+04
       173   6  4.832134E+04 -4.655367E+04  5.427799E+04  1.884074E+05  5.741953E+03 -3.851859E+04
       173   7 -4.571947E+04 -2.406142E+05 -2.452512E+04  1.919064E+05  1.034393E+04 -3.252196E+04
       173   8 -8.367062E+04 -4.371589E+05 -5.453793E+04  1.528572E+05  1.558952E+04 -2.150374E+04
       173   9 -9.596368E+04 -6.285300E+05 -8.527989E+04  1.589311E+05  5.718730E+03 -1.050678E+04
       173  10  4.704033E+04  1.476382E+05  5.093514E+04  1.848212E+05 -2.711695E-09  5.350369E-09
       173  11  1.027761E+05  3.348931E+05  1.058669E+05  1.788072E+05  1.005405E-09  3.284903E-09
       173  12  1.925843E+05  5.357319E+05  1.938069E+05  2.179119E+05 -2.957575E-10 -3.150477E-09
       173  13  6.613379E+02 -4.650669E+04  1.320480E+04  1.883645E+05 -2.203352E-10  3.284829E-09
       173  14  9.556989E+03 -5.120395E+04  2.566785E+04  1.658282E+05 -1.055618E-09 -3.659444E-10
       173  15  4.832091E+04 -4.655527E+04  5.427514E+04  1.884076E+05  8.433180E-10  2.105186E-09
       173  16 -4.571987E+04 -2.406153E+05 -2.452731E+04  1.919067E+05  5.277900E-10 -6.434833E-09
       173  17 -8.367100E+04 -4.371595E+05 -5.453926E+04  1.528575E+05  1.797309E-09 -2.834758E-09
       173  18 -9.596375E+04 -6.285301E+05 -8.528016E+04  1.589311E+05  7.449212E-10  1.346006E-09
       173  19  4.704047E+04  1.476383E+05  5.093548E+04  1.848212E+05 -1.031417E+04 -8.657500E+03
       173  20  1.027766E+05  3.348940E+05  1.058689E+05  1.788068E+05 -1.559293E+04  2.893472E+04
       173  21  1.925855E+05  5.357367E+05  1.938153E+05  2.179116E+05 -5.762507E+03  6.655656E+04
       173  22  6.614908E+02 -4.650651E+04  1.320527E+04  1.883644E+05 -1.032917E+04  1.193538E+04
       173  23  9.557421E+03 -5.120320E+04  2.566950E+04  1.658279E+05 -1.559131E+04  2.521810E+04
       173  24  4.832134E+04 -4.655367E+04  5.427799E+04  1.884074E+05 -5.741953E+03  3.851859E+04
       173  25 -4.571947E+04 -2.406142E+05 -2.452512E+04  1.919064E+05 -1.034393E+04  3.252196E+04
       173  26 -8.367062E+04 -4.371589E+05 -5.453793E+04  1.528572E+05 -1.558952E+04  2.150374E+04
       173  27 -9.596368E+04 -6.285300E+05 -8.527989E+04  1.589311E+05 -5.718730E+03  1.050678E+04
       174   1  7.697745E+05  2.855907E+05  1.781411E+05  2.777467E+05  7.277367E+04  2.283809E+04
       174   2  7.423648E+05  1.802167E+05  1.110161E+05  2.730972E+05  4.725123E+04  3.657181E+03
       174   3  7.395472E+05  1.627480E+05  8.682854E+04  2.585519E+05  1.858511E+04 -7.172335E+03
       174   4  4.898538E+05  1.498236E+05  9.717972E+04  1.702031E+05  6.343620E+04  1.931652E+04
       174   5  4.729488E+05  6.963350E+04  4.161926E+04  1.890382E+05  4.412219E+04  2.476856E+03
       174   6  4.794197E+05  7.613904E+04  2.409326E+04  1.979740E+05  2.166275E+04 -6.012395E+03
       174   7  2.100153E+05  1.407954E+04  1.621237E+04  6.270982E+04  5.410345E+04  1.579786E+04
       174   8  2.036053E+05 -4.094025E+04 -2.778328E+04  1.050141E+05  4.099463E+04  1.297215E+03
       174   9  2.193570E+05 -1.046913E+04 -3.864730E+04  1.374173E+05  2.473901E+04 -4.852846E+03
       174  10  7.697687E+05  2.855887E+05  1.781302E+05  2.777454E+05 -3.902674E-09 -2.125325E-09
       174  11  7.423624E+05  1.802160E+05  1.110119E+05  2.730970E+05 -2.705322E-10  4.973863E-09
       174  12  7.395468E+05  1.627478E+05  8.682780E+04  2.585520E+05  3.420874E-09  1.058501E-10
       174  13  4.898494E+05  1.498221E+05  9.717146E+04  1.702021E+05  3.597786E-10  5.453213E-10
       174  14  4.729467E+05  6.963297E+04  4.161559E+04  1.890381E+05  5.790337E-10 -4.610989E-09
       174  15  4.794192E+05  7.613887E+04  2.409231E+04  1.979742E+05  2.171779E-09  3.083402E-09
       174  16  2.100121E+05  1.407849E+04  1.620640E+04  6.270913E+04  8.433015E-10  6.996152E-10
       174  17  2.036035E+05 -4.094070E+04 -2.778644E+04  1.050141E+05 -1.938553E-09  2.054259E-09
       174  18  2.193563E+05 -1.046932E+04 -3.864849E+04  1.374174E+05 -7.265760E-10  2.159913E-09
       174  19  7.697745E+05  2.855907E+05  1.781411E+05  2.777467E+05 -7.277367E+04 -2.283809E+04
       174  20  7.423648E+05  1.802167E+05  1.110161E+05  2.730972E+05 -4.725123E+04 -3.657181E+03
       174  21  7.395472E+05  1.627480E+05  8.682854E+04  2.585519E+05 -1.858511E+04  7.172335E+03
       174  22  4.898538E+05  1.498236E+05  9.717972E+04  1.702031E+05 -6.343620E+04 -1.931652E+04
       174  23  4.729488E+05  6.963350E+04  4.161926E+04  1.890382E+05 -4.412219E+04 -2.476856E+03
       174  24  4.794197E+05  7.613904E+04  2.409326E+04  1.979740E+05 -2.166275E+04  6.012395E+03
       174  25  2.100153E+05  1.407954E+04  1.621237E+04  6.270982E+04 -5.410345E+04 -1.579786E+04
       174  26  2.036053E+05 -4.094025E+04 -2.778328E+04  1.050141E+05 -4.099463E+04 -1.297215E+03
       174  27  2.193570E+05 -1.046913E+04 -3.864730E+04  1.374173E+05 -2.473901E+04  4.852846E+03
       175   1  7.043546E+05  1.715591E+05  7.661853E+04  2.575974E+05  1.734211E+04 -5.656815E+03
       175   2  6.837244E+05  1.514124E+05  6.085270E+04  2.463677E+05  1.175343E+04 -6.782923E+03
       175   3  6.569922E+05  1.461293E+05  5.059189E+04  2.440536E+05  6.013875E+03 -7.509224E+03
       175   4  4.762955E+05  8.439889E+04  1.926278E+04  1.930222E+05  1.782766E+04 -5.474153E+03
       175   5  4.790008E+05  7.434021E+04  9.722479E+03  1.895672E+05  1.253755E+04 -6.487517E+03
       175   6  4.755454E+05  7.908723E+04  5.452309E+03  1.950273E+05  7.096331E+03 -7.101114E+03
       175   7  2.482874E+05 -2.757225E+03 -3.809709E+04  1.284686E+05  1.831302E+04 -5.291568E+03
       175   8  2.743188E+05 -2.728864E+03 -4.141089E+04  1.327837E+05  1.332139E+04 -6.192220E+03
       175   9  2.941316E+05  1.204750E+04 -3.968961E+04  1.460142E+05  8.178436E+03 -6.693132E+03
       175  10  7.043543E+05  1.715590E+05  7.661790E+04  2.575975E+05  1.472933E-11  4.249992E-09
       175  11  6.837242E+05  1.514123E+05  6.085235E+04  2.463678E+05  6.083227E-09  6.534357E-09
       175  12  6.569921E+05  1.461292E+05  5.059172E+04  2.440536E+05  4.724774E-09  4.932385E-09
       175  13  4.762952E+05  8.439877E+04  1.926213E+04  1.930222E+05  5.727080E-09  3.571973E-09
       175  14  4.790006E+05  7.434012E+04  9.722105E+03  1.895672E+05  2.145089E-09 -8.378135E-09
       175  15  4.755453E+05  7.908716E+04  5.452119E+03  1.950274E+05  1.111862E-09 -1.483770E-09
       175  16  2.482871E+05 -2.757345E+03 -3.809777E+04  1.284687E+05  2.803746E-09 -2.255033E-09
       175  17  2.743186E+05 -2.728953E+03 -4.141130E+04  1.327838E+05  1.448825E-09 -2.812450E-09
       175  18  2.941315E+05  1.204744E+04 -3.968982E+04  1.460142E+05 -2.824902E-09  3.395630E-09
       175  19  7.043546E+05  1.715591E+05  7.661853E+04  2.575974E+05 -1.734211E+04  5.656815E+03
       175  20  6.837244E+05  1.514124E+05  6.085270E+04  2.463677E+05 -1.175343E+04  6.782923E+03
       175  21  6.569922E+05  1.461293E+05  5.059189E+04  2.440536E+05 -6.013875E+03  7.509224E+03
       175  22  4.762955E+05  8.439889E+04  1.926278E+04  1.930222E+05 -1.782766E+04  5.474153E+03
       175  23  4.790008E+05  7.434021E+04  9.722479E+03  1.895672E+05 -1.253755E+04  6.487517E+03
       175  24  4.755454E+05  7.908723E+04  5.452309E+03  1.950273E+05 -7.096331E+03  7.101114E+03
       175  25  2.482874E+05 -2.757225E+03 -3.809709E+04  1.284686E+05 -1.831302E+04  5.291568E+03
       175  26  2.743188E+05 -2.728864E+03 -4.141089E+04  1.327837E+05 -1.332139E+04  6.192220E+03
       175  27  2.941316E+05  1.204750E+04 -3.968961E+04  1.460142E+05 -8.178436E+03  6.693132E+03
       176   1  6.334080E+05  1.388678E+05  4.352930E+04  2.381972E+05  5.063498E+03 -6.936423E+03
       176   2  6.136793E+05  1.249730E+05  3.568990E+04  2.265483E+05  3.431087E+03 -6.073356E+03
       176   3  5.853396E+05  1.204543E+05  2.881904E+04  2.249910E+05  1.792241E+03 -5.194027E+03
       176   4  4.752536E+05  7.964614E+04  4.176726E+03  1.946237E+05  6.017850E+03 -6.576548E+03
       176   5  4.795359E+05  7.478055E+04  2.256074E+03  1.896458E+05  4.397822E+03 -5.708693E+03
       176   6  4.752047E+05  7.928893E+04  1.294521E+03  1.947594E+05  2.771313E+03 -4.824590E+03
       176   7  3.171229E+05  2.042598E+04 -3.517799E+04  1.510600E+05  6.971939E+03 -6.216771E+03
       176   8  3.454098E+05  2.458921E+04 -3.117924E+04  1.527503E+05  5.364330E+03 -5.344115E+03
       176   9  3.650817E+05  3.812435E+04 -2.623095E+04  1.645326E+05  3.750196E+03 -4.455225E+03
       176  10  6.334080E+05  1.388677E+05  4.352916E+04  2.381973E+05  9.714942E-10  3.024854E-09
       176  11  6.136793E+05  1.249729E+05  3.568981E+04  2.265484E+05  2.315902E-10  3.255446E-10
       176  12  5.853396E+05  1.204543E+05  2.881899E+04  2.249910E+05  2.801022E-09 -2.957404E-09
       176  13  4.752535E+05  7.964609E+04  4.176577E+03  1.946237E+05 -1.220128E-10  1.491756E-09
       176  14  4.795359E+05  7.478051E+04  2.255976E+03  1.896458E+05  8.725367E-10  1.336369E-09
       176  15  4.752047E+05  7.928890E+04  1.294463E+03  1.947594E+05  4.929280E-11 -4.498540E-09
       176  16  3.171229E+05  2.042592E+04 -3.517815E+04  1.510601E+05 -3.391500E-09  9.629167E-10
       176  17  3.454098E+05  2.458918E+04 -3.117934E+04  1.527503E+05 -2.797490E-09  5.120296E-09
       176  18  3.650817E+05  3.812433E+04 -2.623102E+04  1.645326E+05 -2.696515E-09  1.503569E-09
       176  19  6.334080E+05  1.388678E+05  4.352930E+04  2.381972E+05 -5.063498E+03  6.936423E+03
       176  20  6.136793E+05  1.249730E+05  3.568990E+04  2.265483E+05 -3.431087E+03  6.073356E+03
       176  21  5.853396E+05  1.204543E+05  2.881904E+04  2.249910E+05 -1.792241E+03  5.194027E+03
       176  22  4.752536E+05  7.964614E+04  4.176726E+03  1.946237E+05 -6.017850E+03  6.576548E+03
       176  23  4.795359E+05  7.478055E+04  2.256074E+03  1.896458E+05 -4.397822E+03  5.708693E+03
       176  24  4.752047E+05  7.928893E+04  1.294521E+03  1.947594E+05 -2.771313E+03  4.824590E+03
       176  25  3.171229E+05  2.042598E+04 -3.517799E+04  1.510600E+05 -6.971939E+03  6.216771E+03
       176  26  3.454098E+05  2.458921E+04 -3.117924E+04  1.527503E+05 -5.364330E+03  5.344115E+03
       176  27  3.650817E+05  3.812435E+04 -2.623095E+04  1.645326E+05 -3.750196E+03  4.455225E+03
       177   1  5.628110E+05  1.120943E+05  2.276847E+04  2.188342E+05  1.320899E+03 -4.497329E+03
       177   2  5.432940E+05  9.868596E+04  1.653931E+04  2.071995E+05  4.983296E+02 -3.312601E+03
       177   3  5.149483E+05  9.420307E+04  1.056363E+04  2.056667E+05 -3.241240E+02 -2.128514E+03
       177   4  4.751755E+05  7.931339E+04  1.011954E+03  1.947153E+05  2.292366E+03 -4.130709E+03
       177   5  4.795895E+05  7.484223E+04  6.601676E+02  1.896678E+05  1.469363E+03 -2.946093E+03
       177   6  4.751742E+05  7.929672E+04  5.622490E+02  1.947220E+05  6.464578E+02 -1.762120E+03
       177   7  3.875479E+05  4.653313E+04 -2.074506E+04  1.705996E+05  3.263679E+03 -3.764148E+03
       177   8  4.158889E+05  5.099878E+04 -1.521929E+04  1.721377E+05  2.440287E+03 -2.579627E+03
       177   9  4.354015E+05  6.439041E+04 -9.439295E+03  1.837779E+05  1.616976E+03 -1.395749E+03
       177  10  5.628110E+05  1.120943E+05  2.276843E+04  2.188342E+05  2.342661E-09 -2.144938E-09
       177  11  5.432940E+05  9.868594E+04  1.653929E+04  2.071995E+05  3.059180E-09  5.005239E-09
       177  12  5.149483E+05  9.420307E+04  1.056362E+04  2.056667E+05 -1.866258E-09  3.746052E-09
       177  13  4.751755E+05  7.931337E+04  1.011912E+03  1.947153E+05  8.119022E-10  3.312565E-09
       177  14  4.795895E+05  7.484222E+04  6.601472E+02  1.896678E+05  3.036071E-09 -1.167428E-09
       177  15  4.751742E+05  7.929671E+04  5.622424E+02  1.947220E+05  2.564065E-10 -2.251679E-09
       177  16  3.875479E+05  4.653311E+04 -2.074510E+04  1.705996E+05 -5.498356E-10  5.373099E-09
       177  17  4.158889E+05  5.099878E+04 -1.521932E+04  1.721377E+05  4.930350E-09 -3.687011E-09
       177  18  4.354015E+05  6.439040E+04 -9.439304E+03  1.837779E+05  3.849848E-09 -4.419455E-09
       177  19  5.628110E+05  1.120943E+05  2.276847E+04  2.188342E+05 -1.320899E+03  4.497329E+03
       177  20  5.432940E+05  9.868596E+04  1.653931E+04  2.071995E+05 -4.983296E+02  3.312601E+03
       177  21  5.149483E+05  9.420307E+04  1.056363E+04  2.056667E+05  3.241240E+02  2.128514E+03
       177  22  4.751755E+05  7.931339E+04  1.011954E+03  1.947153E+05 -2.292366E+03  4.130709E+03
       177  23  4.795895E+05  7.484223E+04  6.601676E+02  1.896678E+05 -1.469363E+03  2.946093E+03
       177  24  4.751742E+05  7.929672E+04  5.622490E+02  1.947220E+05 -6.464578E+02  1.762120E+03
       177  25  3.875479E+05  4.653313E+04 -2.074506E+04  1.705996E+05 -3.263679E+03  3.764148E+03
       177  26  4.158889E+05  5.099878E+04 -1.521929E+04  1.721377E+05 -2.440287E+03  2.579627E+03
       177  27  4.354015E+05  6.439041E+04 -9.439295E+03  1.837779E+05 -1.616976E+03  1.395749E+03
       178   1  4.925737E+05  8.580090E+04  4.838620E+03  1.995245E+05 -7.062928E+02 -1.403403E+03
       178   2  4.730868E+05  7.242872E+04 -8.163133E+02  1.878993E+05 -1.598285E+03 -2.470192E+02
       178   3  4.447966E+05  6.798001E+04 -6.163219E+03  1.863598E+05 -2.490019E+03  9.088523E+02
       178   4  4.751796E+05  7.929340E+04  5.871635E+02  1.947196E+05  2.637085E+02 -1.037211E+03
       178   5  4.795835E+05  7.484533E+04  8.004369E+02  1.896717E+05 -6.287035E+02  1.190068E+02
       178   6  4.751834E+05  7.932069E+04  1.322049E+03  1.947092E+05 -1.520873E+03  1.274707E+03
       178   7  4.577859E+05  7.278593E+04 -3.664311E+03  1.899147E+05  1.233680E+03 -6.710300E+02
       178   8  4.860802E+05  7.726194E+04  2.417184E+03  1.914441E+05  3.408871E+02  4.850361E+02
       178   9  5.055710E+05  9.066137E+04  8.807214E+03  2.030590E+05 -5.516800E+02  1.640580E+03
       178  10  4.925737E+05  8.580089E+04  4.838615E+03  1.995245E+05  3.248960E-09 -8.353327E-10
       178  11  4.730868E+05  7.242872E+04 -8.163182E+02  1.878993E+05  3.875447E-09  9.845530E-10
       178  12  4.447966E+05  6.798001E+04 -6.163232E+03  1.863598E+05  2.240189E-09 -1.551633E-09
       178  13  4.751796E+05  7.929340E+04  5.871614E+02  1.947196E+05 -1.650528E-09 -1.980209E-09
       178  14  4.795835E+05  7.484533E+04  8.004362E+02  1.896717E+05 -1.259188E-09  1.487063E-09
       178  15  4.751834E+05  7.932068E+04  1.322042E+03  1.947092E+05  1.256623E-09 -4.214725E-09
       178  16  4.577859E+05  7.278593E+04 -3.664315E+03  1.899147E+05 -5.644755E-09  5.875142E-10
       178  17  4.860802E+05  7.726194E+04  2.417183E+03  1.914441E+05  1.337057E-10  4.777548E-09
       178  18  5.055710E+05  9.066137E+04  8.807208E+03  2.030590E+05 -2.001632E-09 -3.764832E-09
       178  19  4.925737E+05  8.580090E+04  4.838620E+03  1.995245E+05  7.062928E+02  1.403403E+03
       178  20  4.730868E+05  7.242872E+04 -8.163133E+02  1.878993E+05  1.598285E+03  2.470192E+02
       178  21  4.447966E+05  6.798001E+04 -6.163219E+03  1.863598E+05  2.490019E+03 -9.088523E+02
       178  22  4.751796E+05  7.929340E+04  5.871635E+02  1.947196E+05 -2.637085E+02  1.037211E+03
       178  23  4.795835E+05  7.484533E+04  8.004369E+02  1.896717E+05  6.287035E+02 -1.190068E+02
       178  24  4.751834E+05  7.932069E+04  1.322049E+03  1.947092E+05  1.520873E+03 -1.274707E+03
       178  25  4.577859E+05  7.278593E+04 -3.664311E+03  1.899147E+05 -1.233680E+03  6.710300E+02
       178  26  4.860802E+05  7.726194E+04  2.417184E+03  1.914441E+05 -3.408871E+02 -4.850361E+02
       178  27  5.055710E+05  9.066137E+04  8.807214E+03  2.030590E+05  5.516800E+02 -1.640580E+03
       179   1  4.223974E+05  5.959214E+04 -1.151864E+04  1.803321E+05 -3.034011E+03  1.575150E+03
       179   2  4.027904E+05  4.608485E+04 -1.607523E+04  1.685661E+05 -5.043947E+03  2.309274E+03
       179   3  3.747112E+05  4.206666E+04 -1.934703E+04  1.668193E+05 -7.048319E+03  3.029291E+03
       179   4  4.752330E+05  7.927785E+04  1.718934E+03  1.947580E+05 -2.059307E+03  1.943080E+03
       179   5  4.795023E+05  7.477802E+04  3.044996E+03  1.896554E+05 -4.079945E+03  2.673100E+03
       179   6  4.753014E+05  7.976945E+04  5.664341E+03  1.945718E+05 -6.095080E+03  3.388991E+03
       179   7  5.280715E+05  9.896383E+04  1.495636E+04  2.091851E+05 -1.084508E+03  2.311046E+03
       179   8  5.562201E+05  1.034716E+05  2.216481E+04  2.107471E+05 -3.115811E+03  3.036975E+03
       179   9  5.759016E+05  1.174729E+05  3.067493E+04  2.223284E+05 -5.141673E+03  3.748755E+03
       179  10  4.223974E+05  5.959213E+04 -1.151866E+04  1.803321E+05  1.660491E-09 -4.656560E-10
       179  11  4.027904E+05  4.608483E+04 -1.607528E+04  1.685661E+05  4.704691E-10  5.091468E-10
       179  12  3.747111E+05  4.206664E+04 -1.934714E+04  1.668193E+05 -1.158198E-09 -1.044949E-09
       179  13  4.752330E+05  7.927784E+04  1.718919E+03  1.947580E+05  1.972797E-09 -1.347708E-09
       179  14  4.795022E+05  7.477800E+04  3.044952E+03  1.896554E+05 -1.096498E-09  2.972631E-09
       179  15  4.753014E+05  7.976942E+04  5.664250E+03  1.945718E+05 -3.419345E-09 -7.659440E-10
       179  16  5.280714E+05  9.896382E+04  1.495635E+04  2.091851E+05  6.890760E-10 -1.775081E-09
       179  17  5.562201E+05  1.034716E+05  2.216478E+04  2.107471E+05  2.416013E-10  8.655958E-09
       179  18  5.759015E+05  1.174729E+05  3.067486E+04  2.223284E+05 -4.925705E-09  7.564760E-10
       179  19  4.223974E+05  5.959214E+04 -1.151864E+04  1.803321E+05  3.034011E+03 -1.575150E+03
       179  20  4.027904E+05  4.608485E+04 -1.607523E+04  1.685661E+05  5.043947E+03 -2.309274E+03
       179  21  3.747112E+05  4.206666E+04 -1.934703E+04  1.668193E+05  7.048319E+03 -3.029291E+03
       179  22  4.752330E+05  7.927785E+04  1.718934E+03  1.947580E+05  2.059307E+03 -1.943080E+03
       179  23  4.795023E+05  7.477802E+04  3.044996E+03  1.896554E+05  4.079945E+03 -2.673100E+03
       179  24  4.753014E+05  7.976945E+04  5.664341E+03  1.945718E+05  6.095080E+03 -3.388991E+03
       179  25  5.280715E+05  9.896383E+04  1.495636E+04  2.091851E+05  1.084508E+03 -2.311046E+03
       179  26  5.562201E+05  1.034716E+05  2.216481E+04  2.107471E+05  3.115811E+03 -3.036975E+03
       179  27  5.759016E+05  1.174729E+05  3.067493E+04  2.223284E+05  5.141673E+03 -3.748755E+03
       180   1  3.517376E+05  3.376568E+04 -2.336660E+04  1.622135E+05 -8.500366E+03  3.397523E+03
       180   2  3.320607E+05  1.864141E+04 -2.349890E+04  1.485364E+05 -1.548136E+04  2.205978E+03
       180   3  3.072410E+05  2.029994E+04 -1.666433E+04  1.432246E+05 -2.233919E+04  6.895908E+02
       180   4  4.757088E+05  7.900015E+04  7.400677E+03  1.951093E+05 -7.443581E+03  3.796253E+03
       180   5  4.787682E+05  7.419798E+04  1.320985E+04  1.895628E+05 -1.466729E+04  2.512963E+03
       180   6  4.767315E+05  8.622498E+04  2.617680E+04  1.923811E+05 -2.176814E+04  9.047170E+02
       180   7  5.996945E+05  1.242353E+05  3.816663E+04  2.280108E+05 -6.386569E+03  4.195063E+03
       180   8  6.254968E+05  1.297561E+05  4.991690E+04  2.305980E+05 -1.385301E+04  2.820029E+03
       180   9  6.462510E+05  1.521529E+05  6.901583E+04  2.415502E+05 -2.119692E+04  1.119914E+03
       180  10  3.517375E+05  3.376565E+04 -2.336676E+04  1.622136E+05 -1.557335E-09  4.454784E-09
       180  11  3.320604E+05  1.864134E+04 -2.349936E+04  1.485364E+05 -4.449890E-09  1.542081E-08
       180  12  3.072405E+05  2.029981E+04 -1.666527E+04  1.432246E+05 -6.228661E-09  6.362884E-09
       180  13  4.757087E+05  7.900012E+04  7.400546E+03  1.951093E+05 -5.223401E-09 -3.096052E-09
       180  14  4.787679E+05  7.419792E+04  1.320943E+04  1.895628E+05 -2.185511E-09  1.306971E-08
       180  15  4.767310E+05  8.622485E+04  2.617591E+04  1.923811E+05 -4.543244E-09  4.407238E-09
       180  16  5.996944E+05  1.242352E+05  3.816652E+04  2.280109E+05 -3.297770E-09  3.303321E-09
       180  17  6.254966E+05  1.297561E+05  4.991653E+04  2.305981E+05  3.750812E-10 -2.755748E-09
       180  18  6.462505E+05  1.521527E+05  6.901498E+04  2.415502E+05  1.711477E-10  1.337629E-09
       180  19  3.517376E+05  3.376568E+04 -2.336660E+04  1.622135E+05  8.500366E+03 -3.397523E+03
       180  20  3.320607E+05  1.864141E+04 -2.349890E+04  1.485364E+05  1.548136E+04 -2.205978E+03
       180  21  3.072410E+05  2.029994E+04 -1.666433E+04  1.432246E+05  2.233919E+04 -6.895908E+02
       180  22  4.757088E+05  7.900015E+04  7.400677E+03  1.951093E+05  7.443581E+03 -3.796253E+03
       180  23  4.787682E+05  7.419798E+04  1.320985E+04  1.895628E+05  1.466729E+04 -2.512963E+03
       180  24  4.767315E+05  8.622498E+04  2.617680E+04  1.923811E+05  2.176814E+04 -9.047170E+02
       180  25  5.996945E+05  1.242353E+05  3.816663E+04  2.280108E+05  6.386569E+03 -4.195063E+03
       180  26  6.254968E+05  1.297561E+05  4.991690E+04  2.305980E+05  1.385301E+04 -2.820029E+03
       180  27  6.462510E+05  1.521529E+05  6.901583E+04  2.415502E+05  2.119692E+04 -1.119914E+03
       181   1  2.763845E+05  1.296619E+04 -1.551951E+04  1.577307E+05 -2.934781E+04 -1.848327E+02
       181   2  2.622277E+05 -2.348769E+04  1.822335E+03  1.179288E+05 -5.492761E+04 -9.575302E+03
       181   3  2.820775E+05  5.365044E+04  6.686986E+04  6.096295E+04 -7.795208E+04 -2.574020E+04
       181   4  4.809605E+05  7.501638E+04  3.274192E+04  1.991259E+05 -2.667420E+04  8.240949E+02
       181   5  4.705688E+05  6.779453E+04  5.656636E+04  1.888272E+05 -5.729113E+04 -1.046817E+04
       181   6  4.951636E+05  1.751353E+05  1.320741E+05  1.613686E+05 -8.535339E+04 -2.853658E+04
       181   7  6.855782E+05  1.370665E+05  8.100073E+04  2.405321E+05 -2.399961E+04  1.833232E+03
       181   8  6.789516E+05  1.590838E+05  1.113063E+05  2.597483E+05 -5.965549E+04 -1.136149E+04
       181   9  7.082949E+05  2.966418E+05  1.972733E+05  2.618095E+05 -9.275736E+04 -3.133518E+04
       181  10  2.763836E+05  1.296596E+04 -1.552113E+04  1.577307E+05  1.498776E-09  1.368633E-09
       181  11  2.622244E+05 -2.348860E+04  1.816496E+03  1.179283E+05  8.194133E-10 -3.266753E-09
       181  12  2.820708E+05  5.364810E+04  6.685720E+04  6.096134E+04  1.699596E-09  3.435087E-09
       181  13  4.809597E+05  7.501619E+04  3.274058E+04  1.991260E+05 -4.650617E-10  9.867753E-10
       181  14  4.705652E+05  6.779353E+04  5.655999E+04  1.888267E+05  3.792911E-10 -9.562357E-10
       181  15  4.951556E+05  1.751324E+05  1.320589E+05  1.613666E+05  1.322109E-09  5.616600E-09
       181  16  6.855776E+05  1.370664E+05  8.099964E+04  2.405321E+05 -1.055324E-08 -2.338021E-09
       181  17  6.789478E+05  1.590827E+05  1.112994E+05  2.597478E+05 -7.045166E-09  9.163492E-10
       181  18  7.082854E+05  2.966384E+05  1.972553E+05  2.618072E+05 -3.932781E-09 -1.105144E-09
       181  19  2.763845E+05  1.296619E+04 -1.551951E+04  1.577307E+05  2.934781E+04  1.848327E+02
       181  20  2.622277E+05 -2.348769E+04  1.822335E+03  1.179288E+05  5.492761E+04  9.575302E+03
       181  21  2.820775E+05  5.365044E+04  6.686986E+04  6.096295E+04  7.795208E+04  2.574020E+04
       181  22  4.809605E+05  7.501638E+04  3.274192E+04  1.991259E+05  2.667420E+04 -8.240949E+02
       181  23  4.705688E+05  6.779453E+04  5.656636E+04  1.888272E+05  5.729113E+04  1.046817E+04
       181  24  4.951636E+05  1.751353E+05  1.320741E+05  1.613686E+05  8.535339E+04  2.853658E+04
       181  25  6.855782E+05  1.370665E+05  8.100073E+04  2.405321E+05  2.399961E+04 -1.833232E+03
       181  26  6.789516E+05  1.590838E+05  1.113063E+05  2.597483E+05  5.965549E+04  1.136149E+04
       181  27  7.082949E+05  2.966418E+05  1.972733E+05  2.618095E+05  9.275736E+04  3.133518E+04
       182   1 -1.288476E+05 -6.850230E+05 -1.299024E+05  8.964432E+04 -4.775162E+03 -2.293829E+04
       182   2 -7.805974E+04 -5.438329E+05 -8.174563E+04  5.260743E+04 -1.299153E+04 -8.232641E+03
       182   3 -4.418019E+04 -4.085178E+05 -4.735699E+04  8.093340E+04 -8.333307E+03  6.492480E+03
       182   4 -1.461985E+04 -2.264578E+05 -1.767251E+04  8.289357E+04 -4.788962E+03 -1.136072E+04
       182   5  5.035944E+02 -2.243843E+05 -8.549935E+03  5.022183E+04 -1.299261E+04 -6.839725E+03
       182   6  4.939273E+02 -2.264318E+05 -6.113570E+03  8.291192E+04 -8.324433E+03 -2.302753E+03
       182   7  9.959257E+04  2.322996E+05  9.454255E+04  7.613787E+04 -4.803010E+03  2.253953E+02
       182   8  7.905984E+04  9.515899E+04  6.463906E+04  4.783501E+04 -1.299371E+04 -5.446097E+03
       182   9  4.516582E+04 -4.431478E+04  3.512800E+04  8.489103E+04 -8.315616E+03 -1.110054E+04
       182  10 -1.288478E+05 -6.850236E+05 -1.299035E+05  8.964423E+04  1.938757E-09  4.118847E-09
       182  11 -7.805994E+04 -5.438331E+05 -8.174608E+04  5.260735E+04  5.205278E-09  2.454360E-09
       182  12 -4.418028E+04 -4.085178E+05 -4.735720E+04  8.093345E+04  4.674808E-09  1.405771E-09
       182  13 -1.461991E+04 -2.264579E+05 -1.767280E+04  8.289353E+04  1.491240E-09  1.126572E-09
       182  14  5.034006E+02 -2.243844E+05 -8.550340E+03  5.022176E+04  4.621906E-09  2.865603E-10
       182  15  4.938515E+02 -2.264318E+05 -6.113710E+03  8.291191E+04  4.147223E-09 -7.867793E-09
       182  16  9.959255E+04  2.322996E+05  9.454251E+04  7.613787E+04  2.470142E-09 -6.670222E-09
       182  17  7.905965E+04  9.515891E+04  6.463869E+04  4.783495E+04  3.485467E-09  9.071103E-10
       182  18  4.516571E+04 -4.431493E+04  3.512764E+04  8.489096E+04  1.277026E-09 -3.114624E-09
       182  19 -1.288476E+05 -6.850230E+05 -1.299024E+05  8.964432E+04  4.775162E+03  2.293829E+04
       182  20 -7.805974E+04 -5.438329E+05 -8.174563E+04  5.260743E+04  1.299153E+04  8.232641E+03
       182  21 -4.418019E+04 -4.085178E+05 -4.735699E+04  8.093340E+04  8.333307E+03 -6.492480E+03
       182  22 -1.461985E+04 -2.264578E+05 -1.767251E+04  8.289357E+04  4.788962E+03  1.136072E+04
       182  23  5.035944E+02 -2.243843E+05 -8.549935E+03  5.022183E+04  1.299261E+04  6.839725E+03
       182  24  4.939273E+02 -2.264318E+05 -6.113570E+03  8.291192E+04  8.324433E+03  2.302753E+03
       182  25  9.959257E+04  2.322996E+05  9.454255E+04  7.613787E+04  4.803010E+03 -2.253953E+02
       182  26  7.905984E+04  9.515899E+04  6.463906E+04  4.783501E+04  1.299371E+04  5.446097E+03
       182  27  4.516582E+04 -4.431478E+04  3.512800E+04  8.489103E+04  8.315616E+03  1.110054E+04
       183   1 -1.536813E+04 -2.841125E+05 -1.889716E+04  8.369308E+04 -2.668143E+03  3.781312E+03
       183   2  1.963079E+04 -1.454550E+05  1.267378E+04  4.996405E+04  3.687027E+03  6.356635E+03
       183   3  5.172911E+04 -7.647681E+03  4.188236E+04  8.209922E+04  9.859130E+03  8.933070E+03
       183   4 -1.035910E+03 -2.257078E+05 -5.665298E+03  8.301856E+04 -2.663228E+03 -1.325133E+03
       183   5  5.507229E+01 -2.252642E+05 -5.378296E+03  5.008572E+04  3.692108E+03  1.394524E+03
       183   6 -1.778609E+03 -2.257141E+05 -7.553258E+03  8.301778E+04  9.864305E+03  4.114738E+03
       183   7  1.329609E+04 -1.672998E+05  7.566448E+03  8.234397E+04 -2.658303E+03 -6.432055E+03
       183   8 -1.952107E+04 -3.050675E+05 -2.343069E+04  5.020738E+04  3.697186E+03 -3.566954E+03
       183   9 -5.528959E+04 -4.437363E+05 -5.699186E+04  8.393603E+04  9.869468E+03 -7.019184E+02
       183  10 -1.536814E+04 -2.841126E+05 -1.889721E+04  8.369309E+04  1.368988E-09  5.330396E-09
       183  11  1.963076E+04 -1.454550E+05  1.267368E+04  4.996404E+04 -2.442539E-09  6.129128E-09
       183  12  5.172898E+04 -7.647793E+03  4.188203E+04  8.209915E+04  1.071827E-09  6.519611E-09
       183  13 -1.035919E+03 -2.257078E+05 -5.665314E+03  8.301856E+04 -1.010569E-10 -1.078841E-09
       183  14  5.505713E+01 -2.252642E+05 -5.378325E+03  5.008572E+04 -3.765377E-09 -2.474958E-09
       183  15 -1.778718E+03 -2.257141E+05 -7.553473E+03  8.301775E+04 -9.335826E-10 -4.562860E-09
       183  16  1.329607E+04 -1.672999E+05  7.566357E+03  8.234396E+04  4.125207E-10 -9.768479E-09
       183  17 -1.952109E+04 -3.050675E+05 -2.343074E+04  5.020739E+04  4.902447E-10 -2.510871E-09
       183  18 -5.528969E+04 -4.437363E+05 -5.699204E+04  8.393603E+04  1.413762E-09 -5.425063E-09
       183  19 -1.536813E+04 -2.841125E+05 -1.889716E+04  8.369308E+04  2.668143E+03 -3.781312E+03
       183  20  1.963079E+04 -1.454550E+05  1.267378E+04  4.996405E+04 -3.687027E+03 -6.356635E+03
       183  21  5.172911E+04 -7.647681E+03  4.188236E+04  8.209922E+04 -9.859130E+03 -8.933070E+03
       183  22 -1.035910E+03 -2.257078E+05 -5.665298E+03  8.301856E+04  2.663228E+03  1.325133E+03
       183  23  5.507229E+01 -2.252642E+05 -5.378296E+03  5.008572E+04 -3.692108E+03 -1.394524E+03
       183  24 -1.778609E+03 -2.257141E+05 -7.553258E+03  8.301778E+04 -9.864305E+03 -4.114738E+03
       183  25  1.329609E+04 -1.672998E+05  7.566448E+03  8.234397E+04  2.658303E+03  6.432055E+03
       183  26 -1.952107E+04 -3.050675E+05 -2.343069E+04  5.020738E+04 -3.697186E+03  3.566954E+03
       183  27 -5.528959E+04 -4.437363E+05 -5.699186E+04  8.393603E+04 -9.869468E+03  7.019184E+02
       184   1  8.487113E+04  1.147398E+05  6.837343E+04  8.621661E+04  1.591567E+04  1.522707E+04
       184   2  1.186087E+05  2.553749E+05  9.559527E+04  4.621931E+04  1.983356E+04  9.297427E+03
       184   3  1.289913E+05  3.912992E+05  1.209077E+05  7.137227E+04  6.917786E+03  3.342405E+03
       184   4  1.060480E+03 -2.270975E+05 -8.873531E+03  8.287066E+04  1.592679E+04  5.457902E+03
       184   5  9.055331E+02 -2.235934E+05 -1.391245E+04  5.027527E+04  1.983007E+04  1.286067E+04
       184   6 -2.492786E+04 -2.271368E+05 -3.012303E+04  8.283463E+04  6.893765E+03  2.023906E+04
       184   7 -8.275811E+04 -5.688259E+05 -8.612763E+04  7.952659E+04  1.593802E+04 -4.305941E+03
       184   8 -1.168136E+05 -7.023491E+05 -1.234352E+05  5.432814E+04  1.982663E+04  1.642118E+04
       184   9 -1.788746E+05 -8.452234E+05 -1.811805E+05  9.428565E+04  6.870358E+03  3.711893E+04
       184  10  8.487080E+04  1.147394E+05  6.837252E+04  8.621641E+04  4.412228E-09 -2.918018E-09
       184  11  1.186083E+05  2.553747E+05  9.559437E+04  4.621916E+04  3.033935E-10  2.197087E-09
       184  12  1.289912E+05  3.912991E+05  1.209076E+05  7.137225E+04  5.558331E-10  5.901572E-09
       184  13  1.060199E+03 -2.270976E+05 -8.874064E+03  8.287059E+04 -3.677358E-09 -4.666754E-11
       184  14  9.050664E+02 -2.235937E+05 -1.391350E+04  5.027506E+04 -1.332859E-09 -1.129784E-09
       184  15 -2.492802E+04 -2.271373E+05 -3.012389E+04  8.283452E+04 -1.229633E-09 -6.969169E-09
       184  16 -8.275838E+04 -5.688260E+05 -8.612814E+04  7.952664E+04  7.091912E-11  1.625579E-09
       184  17 -1.168141E+05 -7.023495E+05 -1.234364E+05  5.432787E+04  3.557500E-10  3.399324E-10
       184  18 -1.788750E+05 -8.452248E+05 -1.811832E+05  9.428545E+04  8.831414E-10 -4.807541E-09
       184  19  8.487113E+04  1.147398E+05  6.837343E+04  8.621661E+04 -1.591567E+04 -1.522707E+04
       184  20  1.186087E+05  2.553749E+05  9.559527E+04  4.621931E+04 -1.983356E+04 -9.297427E+03
       184  21  1.289913E+05  3.912992E+05  1.209077E+05  7.137227E+04 -6.917786E+03 -3.342405E+03
       184  22  1.060480E+03 -2.270975E+05 -8.873531E+03  8.287066E+04 -1.592679E+04 -5.457902E+03
       184  23  9.055331E+02 -2.235934E+05 -1.391245E+04  5.027527E+04 -1.983007E+04 -1.286067E+04
       184  24 -2.492786E+04 -2.271368E+05 -3.012303E+04  8.283463E+04 -6.893765E+03 -2.023906E+04
       184  25 -8.275811E+04 -5.688259E+05 -8.612763E+04  7.952659E+04 -1.593802E+04  4.305941E+03
       184  26 -1.168136E+05 -7.023491E+05 -1.234352E+05  5.432814E+04 -1.982663E+04 -1.642118E+04
       184  27 -1.788746E+05 -8.452234E+05 -1.811805E+05  9.428565E+04 -6.870358E+03 -3.711893E+04
       185   1  2.805668E+05  1.427837E+05  1.300059E+05  3.539370E+04  2.745209E+04 -1.005277E+04
       185   2  2.245767E+05  1.500960E+05  1.091623E+05  4.168108E+04  8.145986E+03 -3.364204E+04
       185   3  1.672744E+05  1.419921E+05  9.704870E+04  5.945531E+04 -1.116879E+04 -4.012595E+04
       185   4 -4.407086E+05 -3.526968E+04 -3.914185E+04  5.706277E+04 -2.729139E+04 -1.009706E+04
       185   5 -4.375016E+05 -7.951202E+03 -1.904000E+04  5.130248E+04 -1.744109E+04 -3.366858E+04
       185   6 -4.406776E+05 -1.121289E+03 -1.046009E+04  5.702986E+04 -7.601540E+03 -4.012563E+04
       185   7 -1.161497E+06 -2.133566E+05 -2.083136E+05  7.870641E+04 -8.197168E+04 -1.014520E+04
       185   8 -1.099157E+06 -1.660238E+05 -1.472603E+05  6.091329E+04 -4.300149E+04 -3.369593E+04
       185   9 -1.048268E+06 -1.442550E+05 -1.179825E+05  5.460675E+04 -4.037680E+03 -4.012534E+04
       185  10  2.805660E+05  1.427834E+05  1.300043E+05  3.539392E+04  2.775526E-09 -7.997655E-10
       185  11  2.245763E+05  1.500947E+05  1.091600E+05  4.168130E+04  2.313650E-10 -3.466263E-09
       185  12  1.672739E+05  1.419904E+05  9.704544E+04  5.945495E+04  7.203806E-10 -2.828977E-09
       185  13 -4.407094E+05 -3.526999E+04 -3.914344E+04  5.706255E+04  9.206743E-10  1.776052E-10
       185  14 -4.375022E+05 -7.952501E+03 -1.904270E+04  5.130201E+04 -4.483130E-10 -2.402279E-09
       185  15 -4.406781E+05 -1.123033E+03 -1.046322E+04  5.702962E+04 -3.197525E-09 -1.818542E-09
       185  16 -1.161505E+06 -2.133586E+05 -2.083265E+05  7.870574E+04 -1.986837E-09 -4.607987E-11
       185  17 -1.099159E+06 -1.660255E+05 -1.472659E+05  6.091213E+04 -2.709864E-09 -4.240362E-09
       185  18 -1.048269E+06 -1.442567E+05 -1.179855E+05  5.460662E+04  1.712437E-10 -4.560904E-09
       185  19  2.805668E+05  1.427837E+05  1.300059E+05  3.539370E+04 -2.745209E+04  1.005277E+04
       185  20  2.245767E+05  1.500960E+05  1.091623E+05  4.168108E+04 -8.145986E+03  3.364204E+04
       185  21  1.672744E+05  1.419921E+05  9.704870E+04  5.945531E+04  1.116879E+04  4.012595E+04
       185  22 -4.407086E+05 -3.526968E+04 -3.914185E+04  5.706277E+04  2.729139E+04  1.009706E+04
       185  23 -4.375016E+05 -7.951202E+03 -1.904000E+04  5.130248E+04  1.744109E+04  3.366858E+04
       185  24 -4.406776E+05 -1.121289E+03 -1.046009E+04  5.702986E+04  7.601540E+03  4.012563E+04
       185  25 -1.161497E+06 -2.133566E+05 -2.083136E+05  7.870641E+04  8.197168E+04  1.014520E+04
       185  26 -1.099157E+06 -1.660238E+05 -1.472603E+05  6.091329E+04  4.300149E+04  3.369593E+04
       185  27 -1.048268E+06 -1.442550E+05 -1.179825E+05  5.460675E+04  4.037680E+03  4.012534E+04
       186   1  1.309372E+05  1.324764E+05  9.187254E+04  5.709537E+04 -7.970646E+03 -3.856140E+04
       186   2  7.437215E+04  1.200444E+05  8.322427E+04  5.123008E+04 -8.431246E+03 -3.677354E+04
       186   3  1.770994E+04  1.070032E+05  7.472279E+04  5.799283E+04 -8.894694E+03 -3.343185E+04
       186   4 -4.393757E+05 -1.568765E+03 -7.959109E+03  5.728748E+04 -6.242585E+03 -3.856263E+04
       186   5 -4.390860E+05 -1.874909E+02 -4.380741E+03  5.097207E+04 -4.056613E+03 -3.677104E+04
       186   6 -4.393557E+05  1.248815E+02 -2.494302E+03  5.728537E+04 -1.873487E+03 -3.342496E+04
       186   7 -1.009370E+06 -1.356316E+05 -1.078024E+05  5.747931E+04 -4.516061E+03 -3.856386E+04
       186   8 -9.522847E+05 -1.204334E+05 -9.199439E+04  5.071419E+04  3.145166E+02 -3.676853E+04
       186   9 -8.962153E+05 -1.067644E+05 -7.971789E+04  5.657837E+04  5.142720E+03 -3.341809E+04
       186  10  1.309368E+05  1.324748E+05  9.186962E+04  5.709512E+04 -5.294953E-09 -2.618562E-09
       186  11  7.437171E+04  1.200429E+05  8.322159E+04  5.122983E+04 -3.832677E-09  2.023315E-09
       186  12  1.770956E+04  1.070020E+05  7.472054E+04  5.799259E+04  1.535150E-09  1.733772E-09
       186  13 -4.393761E+05 -1.570372E+03 -7.961977E+03  5.728729E+04  2.134321E-09 -2.264882E-09
       186  14 -4.390863E+05 -1.889470E+02 -4.383313E+03  5.097195E+04  1.021695E-09  3.984758E-10
       186  15 -4.393560E+05  1.236811E+02 -2.496408E+03  5.728532E+04  7.889421E-11 -1.499014E-09
       186  16 -1.009370E+06 -1.356332E+05 -1.078052E+05  5.747917E+04  4.671779E-09 -1.408147E-09
       186  17 -9.522850E+05 -1.204349E+05 -9.199693E+04  5.071420E+04 -2.787546E-10 -2.375196E-10
       186  18 -8.962157E+05 -1.067656E+05 -7.972004E+04  5.657851E+04 -1.665633E-09 -5.200347E-10
       186  19  1.309372E+05  1.324764E+05  9.187254E+04  5.709537E+04  7.970646E+03  3.856140E+04
       186  20  7.437215E+04  1.200444E+05  8.322427E+04  5.123008E+04  8.431246E+03  3.677354E+04
       186  21  1.770994E+04  1.070032E+05  7.472279E+04  5.799283E+04  8.894694E+03  3.343185E+04
       186  22 -4.393757E+05 -1.568765E+03 -7.959109E+03  5.728748E+04  6.242585E+03  3.856263E+04
       186  23 -4.390860E+05 -1.874909E+02 -4.380741E+03  5.097207E+04  4.056613E+03  3.677104E+04
       186  24 -4.393557E+05  1.248815E+02 -2.494302E+03  5.728537E+04  1.873487E+03  3.342496E+04
       186  25 -1.009370E+06 -1.356316E+05 -1.078024E+05  5.747931E+04  4.516061E+03  3.856386E+04
       186  26 -9.522847E+05 -1.204334E+05 -9.199439E+04  5.071419E+04 -3.145166E+02  3.676853E+04
       186  27 -8.962153E+05 -1.067644E+05 -7.971789E+04  5.657837E+04 -5.142720E+03  3.341809E+04
       187   1 -1.910220E+04  9.828399E+04  6.878684E+04  5.782930E+04 -8.350231E+03 -3.100183E+04
       187   2 -7.576180E+04  8.506012E+04  5.996086E+04  5.139257E+04 -8.059931E+03 -2.690640E+04
       187   3 -1.324789E+05  7.185698E+04  5.094340E+04  5.770317E+04 -7.770938E+03 -2.266832E+04
       187   4 -4.392480E+05  9.678343E+01 -1.895830E+03  5.731213E+04 -1.493049E+03 -3.099452E+04
       187   5 -4.391896E+05  1.441609E+02 -1.085314E+03  5.093819E+04 -9.603020E+02 -2.689785E+04
       187   6 -4.392341E+05  1.702297E+02 -6.349970E+02  5.731202E+04 -4.288368E+02 -2.265849E+04
       187   7 -8.592196E+05 -9.809967E+04 -7.258389E+04  5.679525E+04  5.359644E+03 -3.098721E+04
       187   8 -8.024870E+05 -8.477870E+04 -6.213545E+04  5.048404E+04  6.135307E+03 -2.688931E+04
       187   9 -7.458964E+05 -7.152143E+04 -5.221615E+04  5.692104E+04  6.909755E+03 -2.264867E+04
       187  10 -1.910253E+04  9.828294E+04  6.878490E+04  5.782909E+04 -1.642360E-09  2.333402E-09
       187  11 -7.576206E+04  8.505933E+04  5.995938E+04  5.139239E+04 -8.189376E-10  1.520609E-09
       187  12 -1.324791E+05  7.185641E+04  5.094232E+04  5.770303E+04  5.232175E-09 -1.586781E-10
       187  13 -4.392482E+05  9.575147E+01 -1.897639E+03  5.731209E+04 -7.670606E-10 -2.141951E-09
       187  14 -4.391898E+05  1.433839E+02 -1.086675E+03  5.093817E+04 -2.329548E-09  1.530630E-09
       187  15 -4.392343E+05  1.696785E+02 -6.359619E+02  5.731201E+04 -1.681555E-10  2.479114E-09
       187  16 -8.592199E+05 -9.810071E+04 -7.258575E+04  5.679539E+04  8.540398E-11  3.445851E-10
       187  17 -8.024872E+05 -8.477949E+04 -6.213688E+04  5.048417E+04 -1.899956E-09  2.494510E-09
       187  18 -7.458966E+05 -7.152199E+04 -5.221721E+04  5.692117E+04 -6.848459E-09 -2.463286E-10
       187  19 -1.910220E+04  9.828399E+04  6.878684E+04  5.782930E+04  8.350231E+03  3.100183E+04
       187  20 -7.576180E+04  8.506012E+04  5.996086E+04  5.139257E+04  8.059931E+03  2.690640E+04
       187  21 -1.324789E+05  7.185698E+04  5.094340E+04  5.770317E+04  7.770938E+03  2.266832E+04
       187  22 -4.392480E+05  9.678343E+01 -1.895830E+03  5.731213E+04  1.493049E+03  3.099452E+04
       187  23 -4.391896E+05  1.441609E+02 -1.085314E+03  5.093819E+04  9.603020E+02  2.689785E+04
       187  24 -4.392341E+05  1.702297E+02 -6.349970E+02  5.731202E+04  4.288368E+02  2.265849E+04
       187  25 -8.592196E+05 -9.809967E+04 -7.258389E+04  5.679525E+04 -5.359644E+03  3.098721E+04
       187  26 -8.024870E+05 -8.477870E+04 -6.213545E+04  5.048404E+04 -6.135307E+03  2.688931E+04
       187  27 -7.458964E+05 -7.152143E+04 -5.221615E+04  5.692104E+04 -6.909755E+03  2.264867E+04
       188   1 -1.693564E+05  6.319032E+04  4.464649E+04  5.765634E+04 -7.659430E+03 -2.015698E+04
       188   2 -2.260767E+05  4.994381E+04  3.541502E+04  5.119757E+04 -7.532300E+03 -1.584830E+04
       188   3 -2.828413E+05  3.673662E+04  2.609903E+04  5.750799E+04 -7.405861E+03 -1.152635E+04
       188   4 -4.392188E+05  1.710604E+02 -4.933511E+02  5.731686E+04 -3.303360E+02 -2.014673E+04
       188   5 -4.391886E+05  1.592777E+02 -3.141835E+02  5.093214E+04 -1.810352E+02 -1.583747E+04
       188   6 -4.392107E+05  1.828477E+02 -2.353533E+02  5.731685E+04 -3.241424E+01 -1.151493E+04
       188   7 -7.090091E+05 -6.285197E+04 -4.563524E+04  5.697750E+04  6.995676E+03 -2.013648E+04
       188   8 -6.522555E+05 -4.962760E+04 -3.604460E+04  5.066678E+04  7.167788E+03 -1.582664E+04
       188   9 -5.955558E+05 -3.637219E+04 -2.657031E+04  5.712575E+04  7.339235E+03 -1.150351E+04
       188  10 -1.693566E+05  6.318987E+04  4.464561E+04  5.765622E+04 -6.376153E-10  7.025253E-10
       188  11 -2.260768E+05  4.994352E+04  3.541444E+04  5.119748E+04  1.710112E-09  6.129817E-09
       188  12 -2.828414E+05  3.673647E+04  2.609868E+04  5.750792E+04 -1.137948E-09  5.688558E-09
       188  13 -4.392189E+05  1.706246E+02 -4.941139E+02  5.731685E+04 -2.158350E-09  4.225890E-10
       188  14 -4.391886E+05  1.590084E+02 -3.146548E+02  5.093213E+04 -1.102453E-09  5.327692E-09
       188  15 -4.392107E+05  1.827053E+02 -2.356024E+02  5.731685E+04  6.737377E-10  2.405902E-09
       188  16 -7.090093E+05 -6.285242E+04 -4.563610E+04  5.697761E+04 -2.071936E-09 -3.684503E-10
       188  17 -6.522556E+05 -4.962788E+04 -3.604516E+04  5.066687E+04 -3.476375E-10  1.641108E-09
       188  18 -5.955559E+05 -3.637234E+04 -2.657066E+04  5.712582E+04  1.740265E-09  1.080718E-09
       188  19 -1.693564E+05  6.319032E+04  4.464649E+04  5.765634E+04  7.659430E+03  2.015698E+04
       188  20 -2.260767E+05  4.994381E+04  3.541502E+04  5.119757E+04  7.532300E+03  1.584830E+04
       188  21 -2.828413E+05  3.673662E+04  2.609903E+04  5.750799E+04  7.405861E+03  1.152635E+04
       188  22 -4.392188E+05  1.710604E+02 -4.933511E+02  5.731686E+04  3.303360E+02  2.014673E+04
       188  23 -4.391886E+05  1.592777E+02 -3.141835E+02  5.093214E+04  1.810352E+02  1.583747E+04
       188  24 -4.392107E+05  1.828477E+02 -2.353533E+02  5.731685E+04  3.241424E+01  1.151493E+04
       188  25 -7.090091E+05 -6.285197E+04 -4.563524E+04  5.697750E+04 -6.995676E+03  2.013648E+04
       188  26 -6.522555E+05 -4.962760E+04 -3.604460E+04  5.066678E+04 -7.167788E+03  1.582664E+04
       188  27 -5.955558E+05 -3.637219E+04 -2.657031E+04  5.712575E+04 -7.339235E+03  1.150351E+04
       189   1 -3.197518E+05  2.806706E+04  1.967409E+04  5.746221E+04 -7.368272E+03 -9.006174E+03
       189   2 -3.764905E+05  1.481561E+04  1.024404E+04  5.099317E+04 -7.236687E+03 -4.680102E+03
       189   3 -4.332835E+05  1.598663E+03  7.229609E+02  5.730170E+04 -7.105296E+03 -3.605453E+02
       189   4 -4.392092E+05  1.852458E+02 -2.250987E+02  5.731867E+04  5.535599E+00 -8.994537E+03
       189   5 -4.391808E+05  1.715116E+02 -2.568000E+02  5.092985E+04  1.257427E+02 -4.668322E+03
       189   6 -4.392069E+05  1.946008E+02 -3.714970E+02  5.731867E+04  2.457671E+02 -3.486196E+02
       189   7 -5.586524E+05 -2.769728E+04 -2.012452E+04  5.717516E+04  7.377971E+03 -8.982903E+03
       189   8 -5.018670E+05 -1.447276E+04 -1.075755E+04  5.086653E+04  7.487453E+03 -4.656543E+03
       189   9 -4.451301E+05 -1.209435E+03 -1.465753E+03  5.733563E+04  7.596762E+03 -3.366934E+02
       189  10 -3.197519E+05  2.806696E+04  1.967383E+04  5.746216E+04  6.707316E-09  1.310455E-09
       189  11 -3.764906E+05  1.481557E+04  1.024390E+04  5.099314E+04 -1.548146E-09 -1.683571E-09
       189  12 -4.332835E+05  1.598650E+03  7.228658E+02  5.730170E+04 -7.228483E-09 -9.165495E-10
       189  13 -4.392092E+05  1.851589E+02 -2.252507E+02  5.731867E+04 -3.046925E-10  5.376569E-09
       189  14 -4.391808E+05  1.714882E+02 -2.568409E+02  5.092985E+04 -2.053979E-09 -1.125863E-09
       189  15 -4.392069E+05  1.946007E+02 -3.714974E+02  5.731867E+04  7.058544E-10 -1.674778E-10
       189  16 -5.586525E+05 -2.769738E+04 -2.012477E+04  5.717521E+04 -7.481137E-09  2.346689E-09
       189  17 -5.018671E+05 -1.447280E+04 -1.075770E+04  5.086656E+04  1.069764E-09 -1.076019E-09
       189  18 -4.451302E+05 -1.209450E+03 -1.465862E+03  5.733563E+04  5.717085E-09  3.812073E-10
       189  19 -3.197518E+05  2.806706E+04  1.967409E+04  5.746221E+04  7.368272E+03  9.006174E+03
       189  20 -3.764905E+05  1.481561E+04  1.024404E+04  5.099317E+04  7.236687E+03  4.680102E+03
       189  21 -4.332835E+05  1.598663E+03  7.229609E+02  5.730170E+04  7.105296E+03  3.605453E+02
       189  22 -4.392092E+05  1.852458E+02 -2.250987E+02  5.731867E+04 -5.535599E+00  8.994537E+03
       189  23 -4.391808E+05  1.715116E+02 -2.568000E+02  5.092985E+04 -1.257427E+02  4.668322E+03
       189  24 -4.392069E+05  1.946008E+02 -3.714970E+02  5.731867E+04 -2.457671E+02  3.486196E+02
       189  25 -5.586524E+05 -2.769728E+04 -2.012452E+04  5.717516E+04 -7.377971E+03  8.982903E+03
       189  26 -5.018670E+05 -1.447276E+04 -1.075755E+04  5.086653E+04 -7.487453E+03  4.656543E+03
       189  27 -4.451301E+05 -1.209435E+03 -1.465753E+03  5.733563E+04 -7.596762E+03  3.366934E+02
       190   1 -4.702107E+05 -7.074031E+03 -5.816201E+03  5.724290E+04 -7.042500E+03  2.156662E+03
       190   2 -5.269088E+05 -2.033701E+04 -1.558105E+04  5.077415E+04 -6.509632E+03  6.435124E+03
       190   3 -5.837279E+05 -3.362923E+04 -2.571405E+04  5.707668E+04 -5.976413E+03  1.062486E+04
       190   4 -4.392167E+05  1.976628E+02 -4.689299E+02  5.731721E+04  3.176304E+02  2.168583E+03
       190   5 -4.391694E+05  1.802953E+02 -7.845408E+02  5.093165E+04  6.991447E+02  6.446574E+03
       190   6 -4.392201E+05  1.601060E+02 -1.363212E+03  5.731728E+04  1.081056E+03  1.063585E+04
       190   7 -4.082217E+05  7.469334E+03  4.878512E+03  5.739152E+04  7.678117E+03  2.180506E+03
       190   8 -3.514224E+05  2.069722E+04  1.401191E+04  5.108918E+04  7.908907E+03  6.458028E+03
       190   9 -2.946916E+05  3.394837E+04  2.298715E+04  5.755792E+04  8.140115E+03  1.064684E+04
       190  10 -4.702107E+05 -7.074050E+03 -5.816303E+03  5.724292E+04 -2.341630E-09  3.794769E-09
       190  11 -5.269088E+05 -2.033707E+04 -1.558120E+04  5.077418E+04 -3.656196E-09  2.289040E-09
       190  12 -5.837280E+05 -3.362936E+04 -2.571433E+04  5.707673E+04  9.488800E-11  3.819652E-10
       190  13 -4.392167E+05  1.976578E+02 -4.689390E+02  5.731721E+04  1.851110E-11  2.809819E-09
       190  14 -4.391694E+05  1.802505E+02 -7.846198E+02  5.093165E+04  2.619331E-10  3.012192E-09
       190  15 -4.392201E+05  1.599842E+02 -1.363427E+03  5.731727E+04 -3.174728E-10 -4.537589E-10
       190  16 -4.082217E+05  7.469314E+03  4.878392E+03  5.739151E+04  3.015224E-09  4.514754E-09
       190  17 -3.514224E+05  2.069716E+04  1.401172E+04  5.108914E+04  9.974228E-10 -3.040915E-09
       190  18 -2.946917E+05  3.394823E+04  2.298681E+04  5.755785E+04 -1.906422E-10 -2.830597E-09
       190  19 -4.702107E+05 -7.074031E+03 -5.816201E+03  5.724290E+04  7.042500E+03 -2.156662E+03
       190  20 -5.269088E+05 -2.033701E+04 -1.558105E+04  5.077415E+04  6.509632E+03 -6.435124E+03
       190  21 -5.837279E+05 -3.362923E+04 -2.571405E+04  5.707668E+04  5.976413E+03 -1.062486E+04
       190  22 -4.392167E+05  1.976628E+02 -4.689299E+02  5.731721E+04 -3.176304E+02 -2.168583E+03
       190  23 -4.391694E+05  1.802953E+02 -7.845408E+02  5.093165E+04 -6.991447E+02 -6.446574E+03
       190  24 -4.392201E+05  1.601060E+02 -1.363212E+03  5.731728E+04 -1.081056E+03 -1.063585E+04
       190  25 -4.082217E+05  7.469334E+03  4.878512E+03  5.739152E+04 -7.678117E+03 -2.180506E+03
       190  26 -3.514224E+05  2.069722E+04  1.401191E+04  5.108918E+04 -7.908907E+03 -6.458028E+03
       190  27 -2.946916E+05  3.394837E+04  2.298715E+04  5.755792E+04 -8.140115E+03 -1.064684E+04
       191   1 -6.207489E+05 -4.230183E+04 -3.264799E+04  5.689811E+04 -5.808432E+03  1.309252E+04
       191   2 -6.771180E+05 -5.585670E+04 -4.402908E+04  5.082392E+04 -2.585381E+03  1.681532E+04
       191   3 -7.342039E+05 -7.045449E+04 -5.778203E+04  5.745153E+04  6.393123E+02  1.956237E+04
       191   4 -4.392966E+05  1.831778E+02 -1.791628E+03  5.730152E+04  1.352483E+03  1.310343E+04
       191   5 -4.390855E+05 -4.199284E+01 -3.141332E+03  5.095168E+04  2.914573E+03  1.682312E+04
       191   6 -4.393062E+05 -1.021327E+03 -5.708481E+03  5.730337E+04  4.478614E+03  1.956725E+04
       191   7 -2.578118E+05  4.266647E+04  2.906385E+04  5.770504E+04  8.515426E+03  1.311435E+04
       191   8 -2.009972E+05  5.576970E+04  3.774462E+04  5.107947E+04  8.416572E+03  1.683092E+04
       191   9 -1.443233E+05  6.840707E+04  4.636193E+04  5.715510E+04  8.319688E+03  1.957213E+04
       191  10 -6.207490E+05 -4.230202E+04 -3.264837E+04  5.689817E+04 -6.032872E-08  1.052300E-10
       191  11 -6.771181E+05 -5.585701E+04 -4.402963E+04  5.082395E+04 -4.114901E-10 -4.097809E-09
       191  12 -7.342040E+05 -7.045490E+04 -5.778275E+04  5.745152E+04  5.908668E-08 -9.060346E-10
       191  13 -4.392967E+05  1.829930E+02 -1.791954E+03  5.730151E+04 -3.265476E-09 -1.826179E-09
       191  14 -4.390856E+05 -4.229896E+01 -3.141880E+03  5.095164E+04 -4.585500E-09 -4.370215E-09
       191  15 -4.393063E+05 -1.021744E+03 -5.709238E+03  5.730330E+04 -1.903909E-10 -3.303593E-09
       191  16 -2.578119E+05  4.266626E+04  2.906339E+04  5.770495E+04  5.798405E-08 -2.260608E-09
       191  17 -2.009973E+05  5.576938E+04  3.774395E+04  5.107935E+04  1.815000E-09 -3.832541E-09
       191  18 -1.443235E+05  6.840664E+04  4.636108E+04  5.715497E+04 -5.952650E-08 -4.924520E-09
       191  19 -6.207489E+05 -4.230183E+04 -3.264799E+04  5.689811E+04  5.808432E+03 -1.309252E+04
       191  20 -6.771180E+05 -5.585670E+04 -4.402908E+04  5.082392E+04  2.585381E+03 -1.681532E+04
       191  21 -7.342039E+05 -7.045449E+04 -5.778203E+04  5.745153E+04 -6.393123E+02 -1.956237E+04
       191  22 -4.392966E+05  1.831778E+02 -1.791628E+03  5.730152E+04 -1.352483E+03 -1.310343E+04
       191  23 -4.390855E+05 -4.199284E+01 -3.141332E+03  5.095168E+04 -2.914573E+03 -1.682312E+04
       191  24 -4.393062E+05 -1.021327E+03 -5.708481E+03  5.730337E+04 -4.478614E+03 -1.956725E+04
       191  25 -2.578118E+05  4.266647E+04  2.906385E+04  5.770504E+04 -8.515426E+03 -1.311435E+04
       191  26 -2.009972E+05  5.576970E+04  3.774462E+04  5.107947E+04 -8.416572E+03 -1.683092E+04
       191  27 -1.443233E+05  6.840707E+04  4.636193E+04  5.715510E+04 -8.319688E+03 -1.957213E+04
       192   1 -7.725348E+05 -7.906901E+04 -6.680155E+04  5.538131E+04  4.581327E+02  2.148505E+04
       192   2 -8.254050E+05 -9.829216E+04 -8.945888E+04  5.799037E+04  2.580328E+04  1.907908E+04
       192   3 -8.860716E+05 -1.353953E+05 -1.331034E+05  7.259323E+04  5.115867E+04  5.924287E+03
       192   4 -4.402399E+05 -6.981405E+02 -7.502295E+03  5.714173E+04  5.451491E+03  2.149130E+04
       192   5 -4.379419E+05 -5.604749E+03 -1.365327E+04  5.116150E+04  1.250333E+04  1.905948E+04
       192   6 -4.402594E+05 -2.520674E+04 -2.807384E+04  5.717556E+04  1.956790E+04  5.881216E+03
       192   7 -1.078371E+05  7.766663E+04  5.179287E+04  5.890309E+04  1.044745E+04  2.149757E+04
       192   8 -5.033416E+04  8.707389E+04  6.214582E+04  4.432823E+04 -8.047632E+02  1.904018E+04
       192   9  5.738600E+03  8.496907E+04  7.694589E+04  4.174668E+04 -1.204545E+04  5.839732E+03
       192  10 -7.725349E+05 -7.906951E+04 -6.680242E+04  5.538130E+04 -5.572608E-10  2.155345E-09
       192  11 -8.254058E+05 -9.829273E+04 -8.946081E+04  5.798997E+04  2.338768E-09  4.263681E-10
       192  12 -8.860744E+05 -1.353960E+05 -1.331084E+05  7.259299E+04  2.418360E-09  6.641563E-10
       192  13 -4.402401E+05 -6.986444E+02 -7.503219E+03  5.714164E+04  2.932546E-09  2.227622E-09
       192  14 -4.379422E+05 -5.605181E+03 -1.365425E+04  5.116131E+04  2.313651E-09 -2.802792E-09
       192  15 -4.402598E+05 -2.520688E+04 -2.807463E+04  5.717547E+04  2.460954E-09  2.456090E-09
       192  16 -1.078374E+05  7.766611E+04  5.179180E+04  5.890291E+04 -3.018628E-10  5.381000E-10
       192  17 -5.033425E+04  8.707350E+04  6.214514E+04  4.432824E+04 -3.667830E-10  6.319330E-10
       192  18  5.738435E+03  8.496899E+04  7.694556E+04  4.174674E+04 -1.111226E-09 -2.898626E-10
       192  19 -7.725348E+05 -7.906901E+04 -6.680155E+04  5.538131E+04 -4.581327E+02 -2.148505E+04
       192  20 -8.254050E+05 -9.829216E+04 -8.945888E+04  5.799037E+04 -2.580328E+04 -1.907908E+04
       192  21 -8.860716E+05 -1.353953E+05 -1.331034E+05  7.259323E+04 -5.115867E+04 -5.924287E+03
       192  22 -4.402399E+05 -6.981405E+02 -7.502295E+03  5.714173E+04 -5.451491E+03 -2.149130E+04
       192  23 -4.379419E+05 -5.604749E+03 -1.365327E+04  5.116150E+04 -1.250333E+04 -1.905948E+04
       192  24 -4.402594E+05 -2.520674E+04 -2.807384E+04  5.717556E+04 -1.956790E+04 -5.881216E+03
       192  25 -1.078371E+05  7.766663E+04  5.179287E+04  5.890309E+04 -1.044745E+04 -2.149757E+04
       192  26 -5.033416E+04  8.707389E+04  6.214582E+04  4.432823E+04  8.047632E+02 -1.904018E+04
       192  27  5.738600E+03  8.496907E+04  7.694589E+04  4.174668E+04  1.204545E+04 -5.839732E+03
       193   1 -8.983932E+04  7.595557E+04  6.301989E+04  2.059168E+03 -2.420339E+04 -6.256447E+03
       193   2 -1.225583E+05  1.141709E+05  7.806776E+04  6.898762E+03 -2.039469E+04 -1.943164E+04
       193   3 -1.675330E+05  1.051978E+05  7.885940E+04  2.971471E+04 -1.660266E+04 -1.986954E+04
       193   4 -5.858805E+05 -4.739362E+04 -5.781206E+04  2.227180E+04 -3.966241E+04 -6.277507E+03
       193   5 -5.788594E+05  2.078189E+03 -2.604189E+04  1.324801E+04 -2.577558E+04 -1.944071E+04
       193   6 -5.858567E+05  2.591548E+03 -1.553932E+04  2.220186E+04 -1.190491E+04 -1.986260E+04
       193   7 -1.081696E+06 -1.707593E+05 -1.786608E+05  4.246817E+04 -5.510909E+04 -6.299583E+03
       193   8 -1.034967E+06 -1.100288E+05 -1.301650E+05  1.959247E+04 -3.115253E+04 -1.944989E+04
       193   9 -1.004017E+06 -1.000266E+05 -1.099491E+05  1.469407E+04 -7.210294E+03 -1.985577E+04
       193  10 -8.983996E+04  7.595537E+04  6.301872E+04  2.059046E+03 -3.958048E-09  4.335750E-10
       193  11 -1.225589E+05  1.141704E+05  7.806627E+04  6.898442E+03  8.088424E-10  4.437270E-09
       193  12 -1.675334E+05  1.051974E+05  7.885814E+04  2.971444E+04  6.342304E-09  6.436814E-10
       193  13 -5.858822E+05 -4.739409E+04 -5.781509E+04  2.227160E+04 -2.435929E-10 -5.619598E-10
       193  14 -5.788603E+05  2.077604E+03 -2.604384E+04  1.324760E+04  2.105915E-09 -4.071388E-09
       193  15 -5.858569E+05  2.591087E+03 -1.554032E+04  2.220167E+04 -3.574262E-09 -7.556532E-11
       193  16 -1.081699E+06 -1.707601E+05 -1.786665E+05  4.246789E+04  2.362431E-09  3.774912E-10
       193  17 -1.034968E+06 -1.100295E+05 -1.301675E+05  1.959198E+04 -4.661078E-09  2.027617E-09
       193  18 -1.004018E+06 -1.000270E+05 -1.099500E+05  1.469395E+04 -7.088983E-09 -1.648339E-09
       193  19 -8.983932E+04  7.595557E+04  6.301989E+04  2.059168E+03  2.420339E+04  6.256447E+03
       193  20 -1.225583E+05  1.141709E+05  7.806776E+04  6.898762E+03  2.039469E+04  1.943164E+04
       193  21 -1.675330E+05  1.051978E+05  7.885940E+04  2.971471E+04  1.660266E+04  1.986954E+04
       193  22 -5.858805E+05 -4.739362E+04 -5.781206E+04  2.227180E+04  3.966241E+04  6.277507E+03
       193  23 -5.788594E+05  2.078189E+03 -2.604189E+04  1.324801E+04  2.577558E+04  1.944071E+04
       193  24 -5.858567E+05  2.591548E+03 -1.553932E+04  2.220186E+04  1.190491E+04  1.986260E+04
       193  25 -1.081696E+06 -1.707593E+05 -1.786608E+05  4.246817E+04  5.510909E+04  6.299583E+03
       193  26 -1.034967E+06 -1.100288E+05 -1.301650E+05  1.959247E+04  3.115253E+04  1.944989E+04
       193  27 -1.004017E+06 -1.000266E+05 -1.099491E+05  1.469407E+04  7.210294E+03  1.985577E+04
       194   1 -1.996975E+05  9.098384E+04  7.449669E+04  2.177740E+04 -1.048075E+04 -1.731728E+04
       194   2 -2.382517E+05  8.464579E+04  7.118536E+04  1.325738E+04 -7.596341E+03 -1.597254E+04
       194   3 -2.780110E+05  7.510413E+04  6.518881E+04  2.338536E+04 -4.714129E+03 -1.403312E+04
       194   4 -5.830241E+05 -3.100511E+03 -1.245516E+04  2.237441E+04 -9.651320E+03 -1.731662E+04
       194   5 -5.823747E+05  2.228080E+02 -6.655209E+03  1.304700E+04 -6.297936E+03 -1.597076E+04
       194   6 -5.830148E+05  2.598393E+02 -3.867745E+03  2.236830E+04 -2.946575E+03 -1.403008E+04
       194   7 -9.662141E+05 -9.719500E+04 -9.941651E+04  2.297098E+04 -8.822400E+03 -1.731595E+04
       194   8 -9.263876E+05 -8.420833E+04 -8.450339E+04  1.283668E+04 -5.000244E+03 -1.596898E+04
       194   9 -8.879321E+05 -7.459085E+04 -7.293028E+04  2.135170E+04 -1.179880E+03 -1.402704E+04
       194  10 -1.996977E+05  9.098349E+04  7.449592E+04  2.177726E+04  1.292326E-08 -2.052972E-09
       194  11 -2.382519E+05  8.464550E+04  7.118477E+04  1.325728E+04  5.848615E-09  1.302718E-09
       194  12 -2.780110E+05  7.510391E+04  6.518840E+04  2.338531E+04 -4.667775E-09  3.291503E-09
       194  13 -5.830243E+05 -3.100858E+03 -1.245590E+04  2.237427E+04 -3.462605E-09  4.855919E-09
       194  14 -5.823749E+05  2.225236E+02 -6.655763E+03  1.304691E+04 -3.329051E-10 -8.086867E-09
       194  15 -5.830148E+05  2.596256E+02 -3.868131E+03  2.236827E+04  9.222460E-10  1.279440E-08
       194  16 -9.662143E+05 -9.719534E+04 -9.941722E+04  2.297085E+04 -8.914218E-09 -5.227706E-09
       194  17 -9.263877E+05 -8.420861E+04 -8.450392E+04  1.283661E+04 -4.573520E-09 -1.244077E-09
       194  18 -8.879322E+05 -7.459107E+04 -7.293065E+04  2.135168E+04  6.129166E-09  1.259337E-09
       194  19 -1.996975E+05  9.098384E+04  7.449669E+04  2.177740E+04  1.048075E+04  1.731728E+04
       194  20 -2.382517E+05  8.464579E+04  7.118536E+04  1.325738E+04  7.596341E+03  1.597254E+04
       194  21 -2.780110E+05  7.510413E+04  6.518881E+04  2.338536E+04  4.714129E+03  1.403312E+04
       194  22 -5.830241E+05 -3.100511E+03 -1.245516E+04  2.237441E+04  9.651320E+03  1.731662E+04
       194  23 -5.823747E+05  2.228080E+02 -6.655209E+03  1.304700E+04  6.297936E+03  1.597076E+04
       194  24 -5.830148E+05  2.598393E+02 -3.867745E+03  2.236830E+04  2.946575E+03  1.403008E+04
       194  25 -9.662141E+05 -9.719500E+04 -9.941651E+04  2.297098E+04  8.822400E+03  1.731595E+04
       194  26 -9.263876E+05 -8.420833E+04 -8.450339E+04  1.283668E+04  5.000244E+03  1.596898E+04
       194  27 -8.879321E+05 -7.459085E+04 -7.293028E+04  2.135170E+04  1.179880E+03  1.402704E+04
       195   1 -3.129204E+05  6.606669E+04  5.792676E+04  2.283170E+04 -3.939373E+03 -1.277321E+04
       195   2 -3.522924E+05  5.658957E+04  5.037618E+04  1.339300E+04 -3.119712E+03 -1.074414E+04
       195   3 -3.918820E+05  4.696625E+04  4.223797E+04  2.278787E+04 -2.300844E+03 -8.683133E+03
       195   4 -5.827731E+05 -1.141121E+02 -2.987697E+03  2.241148E+04 -2.346272E+03 -1.277033E+04
       195   5 -5.826590E+05  7.460501E+01 -1.708748E+03  1.299424E+04 -1.501693E+03 -1.074096E+04
       195   6 -5.827677E+05  1.129570E+02 -1.034729E+03  2.241100E+04 -6.578538E+02 -8.679649E+03
       195   7 -8.525581E+05 -6.629992E+04 -6.390681E+04  2.199141E+04 -7.538570E+02 -1.276745E+04
       195   8 -8.129762E+05 -5.644401E+04 -5.379707E+04  1.259560E+04  1.157321E+02 -1.073779E+04
       195   9 -7.736196E+05 -4.674285E+04 -4.430977E+04  2.203422E+04  9.846356E+02 -8.676166E+03
       195  10 -3.129204E+05  6.606651E+04  5.792642E+04  2.283166E+04 -3.596098E-09 -6.097424E-09
       195  11 -3.522924E+05  5.658944E+04  5.037594E+04  1.339297E+04 -8.705028E-09 -4.016902E-09
       195  12 -3.918820E+05  4.696617E+04  4.223782E+04  2.278786E+04 -1.210720E-08 -1.777789E-09
       195  13 -5.827731E+05 -1.142887E+02 -2.988014E+03  2.241145E+04 -3.215400E-13  3.227027E-09
       195  14 -5.826590E+05  7.448055E+01 -1.708969E+03  1.299423E+04  1.298787E-09 -1.247183E-09
       195  15 -5.827677E+05  1.128760E+02 -1.034872E+03  2.241099E+04  1.815525E-09 -4.896654E-09
       195  16 -8.525581E+05 -6.630009E+04 -6.390712E+04  2.199140E+04  4.063616E-09 -4.204164E-09
       195  17 -8.129762E+05 -5.644413E+04 -5.379729E+04  1.259560E+04  7.911426E-09  7.702150E-10
       195  18 -7.736196E+05 -4.674293E+04 -4.430992E+04  2.203423E+04  1.064499E-08  7.734466E-09
       195  19 -3.129204E+05  6.606669E+04  5.792676E+04  2.283170E+04  3.939373E+03  1.277321E+04
       195  20 -3.522924E+05  5.658957E+04  5.037618E+04  1.339300E+04  3.119712E+03  1.074414E+04
       195  21 -3.918820E+05  4.696625E+04  4.223797E+04  2.278787E+04  2.300844E+03  8.683133E+03
       195  22 -5.827731E+05 -1.141121E+02 -2.987697E+03  2.241148E+04  2.346272E+03  1.277033E+04
       195  23 -5.826590E+05  7.460501E+01 -1.708748E+03  1.299424E+04  1.501693E+03  1.074096E+04
       195  24 -5.827677E+05  1.129570E+02 -1.034729E+03  2.241100E+04  6.578538E+02  8.679649E+03
       195  25 -8.525581E+05 -6.629992E+04 -6.390681E+04  2.199141E+04  7.538570E+02  1.276745E+04
       195  26 -8.129762E+05 -5.644401E+04 -5.379707E+04  1.259560E+04 -1.157321E+02  1.073779E+04
       195  27 -7.736196E+05 -4.674285E+04 -4.430977E+04  2.203422E+04 -9.846356E+02  8.676166E+03
       196   1 -4.272368E+05  3.821950E+04  3.421318E+04  2.271403E+04 -2.129856E+03 -7.475810E+03
       196   2 -4.668572E+05  2.848355E+04  2.558870E+04  1.317514E+04 -1.840914E+03 -5.404958E+03
       196   3 -5.065989E+05  1.881527E+04  1.676959E+04  2.256561E+04 -1.552348E+03 -3.330487E+03
       196   4 -5.827427E+05  9.095893E+01 -8.329471E+02  2.243240E+04 -4.924846E+02 -7.472220E+03
       196   5 -5.826797E+05  6.741446E+01 -5.991755E+02  1.296759E+04 -2.007870E+02 -5.401239E+03
       196   6 -5.827401E+05  1.111464E+02 -5.619310E+02  2.243235E+04  9.055366E+01 -3.326633E+03
       196   7 -7.382260E+05 -3.803924E+04 -3.588061E+04  2.215082E+04  1.144481E+03 -7.468630E+03
       196   8 -6.984898E+05 -2.834965E+04 -2.678791E+04  1.276007E+04  1.439037E+03 -5.397520E+03
       196   9 -6.588759E+05 -1.859338E+04 -1.789381E+04  2.229911E+04  1.733255E+03 -3.322779E+03
       196  10 -4.272368E+05  3.821944E+04  3.421307E+04  2.271401E+04  1.053728E-09 -4.105679E-09
       196  11 -4.668572E+05  2.848352E+04  2.558864E+04  1.317513E+04  6.436372E-10  3.437590E-09
       196  12 -5.065989E+05  1.881526E+04  1.676956E+04  2.256561E+04 -1.884066E-09  3.057789E-10
       196  13 -5.827427E+05  9.089893E+01 -8.330524E+02  2.243239E+04  9.547251E-10 -1.081538E-09
       196  14 -5.826797E+05  6.738313E+01 -5.992304E+02  1.296758E+04  4.196872E-10 -5.647938E-09
       196  15 -5.827401E+05  1.111346E+02 -5.619518E+02  2.243235E+04  6.956432E-10 -3.560482E-09
       196  16 -7.382261E+05 -3.803930E+04 -3.588072E+04  2.215083E+04  5.486204E-11  3.660942E-09
       196  17 -6.984898E+05 -2.834968E+04 -2.678796E+04  1.276007E+04 -2.791666E-09  1.004478E-08
       196  18 -6.588759E+05 -1.859339E+04 -1.789384E+04  2.229911E+04  3.096580E-09  3.932059E-09
       196  19 -4.272368E+05  3.821950E+04  3.421318E+04  2.271403E+04  2.129856E+03  7.475810E+03
       196  20 -4.668572E+05  2.848355E+04  2.558870E+04  1.317514E+04  1.840914E+03  5.404958E+03
       196  21 -5.065989E+05  1.881527E+04  1.676959E+04  2.256561E+04  1.552348E+03  3.330487E+03
       196  22 -5.827427E+05  9.095893E+01 -8.329471E+02  2.243240E+04  4.924846E+02  7.472220E+03
       196  23 -5.826797E+05  6.741446E+01 -5.991755E+02  1.296759E+04  2.007870E+02  5.401239E+03
       196  24 -5.827401E+05  1.111464E+02 -5.619310E+02  2.243235E+04 -9.055366E+01  3.326633E+03
       196  25 -7.382260E+05 -3.803924E+04 -3.588061E+04  2.215082E+04 -1.144481E+03  7.468630E+03
       196  26 -6.984898E+05 -2.834965E+04 -2.678791E+04  1.276007E+04 -1.439037E+03  5.397520E+03
       196  27 -6.588759E+05 -1.859338E+04 -1.789381E+04  2.229911E+04 -1.733255E+03  3.322779E+03
       197   1 -5.421005E+05  1.006091E+04  8.466346E+03  2.250160E+04 -1.450075E+03 -2.121743E+03
       197   2 -5.817722E+05  2.951491E+02 -6.477943E+02  1.293767E+04 -1.033517E+03 -4.443926E+01
       197   3 -6.215933E+05 -9.414210E+03 -1.004463E+04  2.233577E+04 -6.169923E+02  2.031989E+03
       197   4 -5.827453E+05  1.116331E+02 -6.090186E+02  2.243956E+04  1.936099E+02 -2.117847E+03
       197   5 -5.826697E+05  7.508710E+01 -8.506392E+02  1.295857E+04  6.094145E+02 -4.054693E+01
       197   6 -5.827454E+05  9.502408E+01 -1.374511E+03  2.243960E+04  1.025212E+03  2.035884E+03
       197   7 -6.233885E+05 -9.837753E+03 -9.684477E+03  2.237752E+04  1.837189E+03 -2.113951E+03
       197   8 -5.835672E+05 -1.449735E+02 -1.053474E+03  1.297947E+04  2.252344E+03 -3.665450E+01
       197   9 -5.438961E+05  9.604157E+03  7.295520E+03  2.254344E+04  2.667518E+03  2.039779E+03
       197  10 -5.421005E+05  1.006090E+04  8.466334E+03  2.250159E+04 -1.702673E-09  7.406268E-10
       197  11 -5.817722E+05  2.951488E+02 -6.477963E+02  1.293767E+04  1.878962E-10 -2.071925E-09
       197  12 -6.215933E+05 -9.414215E+03 -1.004464E+04  2.233577E+04 -3.738766E-09 -2.002038E-09
       197  13 -5.827453E+05  1.116283E+02 -6.090271E+02  2.243956E+04 -1.707463E-09  4.778796E-09
       197  14 -5.826697E+05  7.508700E+01 -8.506399E+02  1.295857E+04 -1.063548E-09 -3.121973E-09
       197  15 -5.827454E+05  9.501935E+01 -1.374521E+03  2.243960E+04 -6.706868E-10 -4.362842E-09
       197  16 -6.233886E+05 -9.837759E+03 -9.684492E+03  2.237753E+04  2.857088E-09  1.930475E-09
       197  17 -5.835672E+05 -1.449749E+02 -1.053484E+03  1.297947E+04  1.090140E-09 -1.096199E-08
       197  18 -5.438962E+05  9.604151E+03  7.295498E+03  2.254344E+04  1.475385E-09 -5.916303E-09
       197  19 -5.421005E+05  1.006091E+04  8.466346E+03  2.250160E+04  1.450075E+03  2.121743E+03
       197  20 -5.817722E+05  2.951491E+02 -6.477943E+02  1.293767E+04  1.033517E+03  4.443926E+01
       197  21 -6.215933E+05 -9.414210E+03 -1.004463E+04  2.233577E+04  6.169923E+02 -2.031989E+03
       197  22 -5.827453E+05  1.116331E+02 -6.090186E+02  2.243956E+04 -1.936099E+02  2.117847E+03
       197  23 -5.826697E+05  7.508710E+01 -8.506392E+02  1.295857E+04 -6.094145E+02  4.054693E+01
       197  24 -5.827454E+05  9.502408E+01 -1.374511E+03  2.243960E+04 -1.025212E+03 -2.035884E+03
       197  25 -6.233885E+05 -9.837753E+03 -9.684477E+03  2.237752E+04 -1.837189E+03  2.113951E+03
       197  26 -5.835672E+05 -1.449735E+02 -1.053474E+03  1.297947E+04 -2.252344E+03  3.665450E+01
       197  27 -5.438961E+05  9.604157E+03  7.295520E+03  2.254344E+04 -2.667518E+03 -2.039779E+03
       198   1 -6.571398E+05 -1.813030E+04 -1.870067E+04  2.219525E+04 -3.420399E+02  3.243271E+03
       198   2 -6.966259E+05 -2.786828E+04 -2.881899E+04  1.271357E+04  1.178187E+03  5.317113E+03
       198   3 -7.364961E+05 -3.794401E+04 -4.003607E+04  2.216096E+04  2.698733E+03  7.367466E+03
       198   4 -5.827976E+05  1.346409E+02 -1.774695E+03  2.243194E+04  1.305676E+03  3.247139E+03
       198   5 -5.826083E+05  1.094974E+02 -3.034053E+03  1.296796E+04  2.807534E+03  5.320812E+03
       198   6 -5.828007E+05 -2.498752E+02 -5.378999E+03  2.243283E+04  4.309807E+03  7.371004E+03
       198   7 -5.084503E+05  1.839920E+04  1.515093E+04  2.266865E+04  2.953587E+03  3.251009E+03
       198   8 -4.685786E+05  2.808638E+04  2.275005E+04  1.322238E+04  4.437177E+03  5.324513E+03
       198   9 -4.290833E+05  3.744264E+04  2.927657E+04  2.270476E+04  5.921275E+03  7.374543E+03
       198  10 -6.571398E+05 -1.813031E+04 -1.870069E+04  2.219525E+04 -7.426229E-09 -3.694962E-10
       198  11 -6.966259E+05 -2.786831E+04 -2.881904E+04  1.271356E+04  4.782606E-10 -5.489137E-09
       198  12 -7.364962E+05 -3.794407E+04 -4.003618E+04  2.216095E+04  3.146522E-09 -3.157331E-09
       198  13 -5.827976E+05  1.346292E+02 -1.774718E+03  2.243194E+04 -3.406843E-09 -1.976786E-09
       198  14 -5.826083E+05  1.094649E+02 -3.034121E+03  1.296794E+04  1.073880E-09  1.786840E-09
       198  15 -5.828007E+05 -2.499385E+02 -5.379136E+03  2.243281E+04  8.626450E-10  2.182562E-09
       198  16 -5.084503E+05  1.839919E+04  1.515089E+04  2.266865E+04  8.942159E-09  5.117212E-09
       198  17 -4.685786E+05  2.808634E+04  2.274996E+04  1.322236E+04 -7.319664E-10 -3.721162E-09
       198  18 -4.290833E+05  3.744257E+04  2.927640E+04  2.270473E+04 -9.652350E-10  1.879290E-09
       198  19 -6.571398E+05 -1.813030E+04 -1.870067E+04  2.219525E+04  3.420399E+02 -3.243271E+03
       198  20 -6.966259E+05 -2.786828E+04 -2.881899E+04  1.271357E+04 -1.178187E+03 -5.317113E+03
       198  21 -7.364961E+05 -3.794401E+04 -4.003607E+04  2.216096E+04 -2.698733E+03 -7.367466E+03
       198  22 -5.827976E+05  1.346409E+02 -1.774695E+03  2.243194E+04 -1.305676E+03 -3.247139E+03
       198  23 -5.826083E+05  1.094974E+02 -3.034053E+03  1.296796E+04 -2.807534E+03 -5.320812E+03
       198  24 -5.828007E+05 -2.498752E+02 -5.378999E+03  2.243283E+04 -4.309807E+03 -7.371004E+03
       198  25 -5.084503E+05  1.839920E+04  1.515093E+04  2.266865E+04 -2.953587E+03 -3.251009E+03
       198  26 -4.685786E+05  2.808638E+04  2.275005E+04  1.322238E+04 -4.437177E+03 -5.324513E+03
       198  27 -4.290833E+05  3.744264E+04  2.927657E+04  2.270476E+04 -5.921275E+03 -7.374543E+03
       199   1 -7.723149E+05 -4.599381E+04 -4.984728E+04  2.107361E+04  3.646347E+03  8.622652E+03
       199   2 -8.105859E+05 -5.567695E+04 -6.374872E+04  1.311550E+04  1.007343E+04  1.061291E+04
       199   3 -8.512887E+05 -7.143475E+04 -8.337480E+04  2.398182E+04  1.650166E+04  1.214082E+04
       199   4 -5.832449E+05  4.280576E+02 -6.983940E+03  2.240539E+04  5.393941E+03  8.626384E+03
       199   5 -5.820647E+05  4.045823E+02 -1.203442E+04  1.299976E+04  1.145718E+04  1.061559E+04
       199   6 -5.832532E+05 -5.628816E+03 -2.255496E+04  2.241822E+04  1.752198E+04  1.214250E+04
       199   7 -3.941418E+05  4.684746E+04  3.587711E+04  2.373757E+04  7.142063E+03  8.630122E+03
       199   8 -3.534949E+05  5.648252E+04  3.967653E+04  1.288396E+04  1.284145E+04  1.061827E+04
       199   9 -3.151509E+05  6.017217E+04  3.826023E+04  2.085391E+04  1.854274E+04  1.214418E+04
       199  10 -7.723149E+05 -4.599389E+04 -4.984745E+04  2.107358E+04  4.085537E-09 -1.428088E-09
       199  11 -8.105861E+05 -5.567710E+04 -6.374912E+04  1.311541E+04  1.766479E-09  4.363000E-09
       199  12 -8.512890E+05 -7.143499E+04 -8.337559E+04  2.398166E+04  2.265012E-10 -1.050612E-09
       199  13 -5.832450E+05  4.279699E+02 -6.984134E+03  2.240536E+04 -7.380186E-10 -6.016538E-09
       199  14 -5.820649E+05  4.044261E+02 -1.203488E+04  1.299967E+04  2.598946E-09  5.771890E-09
       199  15 -5.832536E+05 -5.629057E+03 -2.255582E+04  2.241805E+04  2.700156E-10 -1.562763E-09
       199  16 -3.941418E+05  4.684737E+04  3.587687E+04  2.373752E+04 -1.106005E-09 -4.872669E-09
       199  17 -3.534951E+05  5.648235E+04  3.967601E+04  1.288385E+04 -1.651282E-09 -1.032399E-08
       199  18 -3.151513E+05  6.017192E+04  3.825931E+04  2.085372E+04  1.891351E-09  5.625550E-10
       199  19 -7.723149E+05 -4.599381E+04 -4.984728E+04  2.107361E+04 -3.646347E+03 -8.622652E+03
       199  20 -8.105859E+05 -5.567695E+04 -6.374872E+04  1.311550E+04 -1.007343E+04 -1.061291E+04
       199  21 -8.512887E+05 -7.143475E+04 -8.337480E+04  2.398182E+04 -1.650166E+04 -1.214082E+04
       199  22 -5.832449E+05  4.280576E+02 -6.983940E+03  2.240539E+04 -5.393941E+03 -8.626384E+03
       199  23 -5.820647E+05  4.045823E+02 -1.203442E+04  1.299976E+04 -1.145718E+04 -1.061559E+04
       199  24 -5.832532E+05 -5.628816E+03 -2.255496E+04  2.241822E+04 -1.752198E+04 -1.214250E+04
       199  25 -3.941418E+05  4.684746E+04  3.587711E+04  2.373757E+04 -7.142063E+03 -8.630122E+03
       199  26 -3.534949E+05  5.648252E+04  3.967653E+04  1.288396E+04 -1.284145E+04 -1.061827E+04
       199  27 -3.151509E+05  6.017217E+04  3.826023E+04  2.085391E+04 -1.854274E+04 -1.214418E+04
       200   1 -8.916879E+05 -6.978112E+04 -9.664277E+04  9.138421E+03  1.757640E+04  1.439619E+04
       200   2 -9.175956E+05 -8.020610E+04 -1.252311E+05  2.508060E+04  5.052940E+04  1.458696E+04
       200   3 -9.703804E+05 -1.807973E+05 -1.978425E+05  5.940558E+04  8.349663E+04  4.858526E+03
       200   4 -5.883940E+05  4.688970E+03 -2.814660E+04  2.226696E+04  2.160718E+04  1.440410E+04
       200   5 -5.756587E+05  3.799457E+03 -4.715649E+04  1.315664E+04  4.672358E+04  1.457831E+04
       200   6 -5.884265E+05 -8.586988E+04 -1.047279E+05  2.243111E+04  7.185686E+04  4.833084E+03
       200   7 -2.850141E+05  7.915337E+04  4.034382E+04  3.540195E+04  2.563991E+04  1.441219E+04
       200   8 -2.336130E+05  8.779746E+04  3.091062E+04  1.225993E+03  4.291568E+04  1.456981E+04
       200   9 -2.063361E+05  9.052088E+03 -1.162275E+04 -1.456624E+04  6.020993E+04  4.809040E+03
       200  10 -8.916883E+05 -6.978142E+04 -9.664374E+04  9.138217E+03  5.223602E-09 -1.284894E-09
       200  11 -9.175984E+05 -8.020702E+04 -1.252363E+05  2.508001E+04  2.450659E-09 -1.546662E-09
       200  12 -9.703879E+05 -1.807992E+05 -1.978556E+05  5.940525E+04  2.402954E-10  2.810823E-09
       200  13 -5.883946E+05  4.688622E+03 -2.814787E+04  2.226671E+04 -1.082072E-09 -1.269242E-09
       200  14 -5.756611E+05  3.798642E+03 -4.716099E+04  1.315609E+04 -3.087110E-12 -4.757920E-10
       200  15 -5.884321E+05 -8.587130E+04 -1.047377E+05  2.243083E+04  5.125594E-10  8.491266E-10
       200  16 -2.850148E+05  7.915297E+04  4.034219E+04  3.540165E+04 -2.487594E-09  2.650551E-09
       200  17 -2.336150E+05  8.779674E+04  3.090676E+04  1.225489E+03 -2.408793E-09  3.508302E-09
       200  18 -2.063400E+05  9.051090E+03 -1.162961E+04 -1.456648E+04 -1.825114E-09  1.153313E-09
       200  19 -8.916879E+05 -6.978112E+04 -9.664277E+04  9.138421E+03 -1.757640E+04 -1.439619E+04
       200  20 -9.175956E+05 -8.020610E+04 -1.252311E+05  2.508060E+04 -5.052940E+04 -1.458696E+04
       200  21 -9.703804E+05 -1.807973E+05 -1.978425E+05  5.940558E+04 -8.349663E+04 -4.858526E+03
       200  22 -5.883940E+05  4.688970E+03 -2.814660E+04  2.226696E+04 -2.160718E+04 -1.440410E+04
       200  23 -5.756587E+05  3.799457E+03 -4.715649E+04  1.315664E+04 -4.672358E+04 -1.457831E+04
       200  24 -5.884265E+05 -8.586988E+04 -1.047279E+05  2.243111E+04 -7.185686E+04 -4.833084E+03
       200  25 -2.850141E+05  7.915337E+04  4.034382E+04  3.540195E+04 -2.563991E+04 -1.441219E+04
       200  26 -2.336130E+05  8.779746E+04  3.091062E+04  1.225993E+03 -4.291568E+04 -1.456981E+04
       200  27 -2.063361E+05  9.052088E+03 -1.162275E+04 -1.456624E+04 -6.020993E+04 -4.809040E+03
