    1C
    1UUSER                                                              
    1UDATE              11.october.2022                                 
    1UTIME              18:02:38                                        
    1UHOST                                                              
    1UPGM               CalculiX                                        
    1UVERSION           Version 2.20                             
    1UCOMPILETIME       Sun Jul 31 18:08:37 CEST 2022                    
    1UDIR                                                               
    1UDBN                                                               
    1UMAT    1MESH_MATERIAL                                             
    2C                           388                                     1
 -1         1 0.00000E+00 0.00000E+00 0.00000E+00
 -1         2 1.66667E-02 0.00000E+00 0.00000E+00
 -1         3 3.33333E-02 0.00000E+00 0.00000E+00
 -1         5 6.66667E-02 0.00000E+00 0.00000E+00
 -1         8 0.00000E+00 6.25000E-03 0.00000E+00
 -1         9 1.66667E-02 6.25000E-03 0.00000E+00
 -1        10 3.33333E-02 6.25000E-03 0.00000E+00
 -1        12 6.66667E-02 6.25000E-03 0.00000E+00
 -1        16 1.66667E-02 1.25000E-02 0.00000E+00
 -1        17 3.33333E-02 1.25000E-02 0.00000E+00
 -1        18 5.00000E-02 1.25000E-02 0.00000E+00
 -1        19 6.66667E-02 1.25000E-02 0.00000E+00
 -1        20 8.33333E-02 1.25000E-02 0.00000E+00
 -1        21 1.00000E-01 1.25000E-02 0.00000E+00
 -1        24 3.33333E-02 1.87500E-02 0.00000E+00
 -1        25 5.00000E-02 1.87500E-02 0.00000E+00
 -1        26 6.66667E-02 1.87500E-02 0.00000E+00
 -1        27 8.33333E-02 1.87500E-02 0.00000E+00
 -1        28 1.00000E-01 1.87500E-02 0.00000E+00
 -1        32 5.00000E-02 2.50000E-02 0.00000E+00
 -1        33 6.66667E-02 2.50000E-02 0.00000E+00
 -1        34 8.33333E-02 2.50000E-02 0.00000E+00
 -1        35 1.00000E-01 2.50000E-02 0.00000E+00
 -1        51 0.00000E+00 1.04167E-03 0.00000E+00
 -1        52 0.00000E+00 2.08333E-03 0.00000E+00
 -1        53 0.00000E+00 3.12500E-03 0.00000E+00
 -1        54 0.00000E+00 4.16667E-03 0.00000E+00
 -1        55 0.00000E+00 5.20833E-03 0.00000E+00
 -1        56 1.04167E-03 3.90630E-04 0.00000E+00
 -1        57 2.08333E-03 7.81250E-04 0.00000E+00
 -1        58 3.12500E-03 1.17188E-03 0.00000E+00
 -1        59 4.16667E-03 1.56250E-03 0.00000E+00
 -1        60 5.20833E-03 1.95312E-03 0.00000E+00
 -1        61 6.25000E-03 2.34375E-03 0.00000E+00
 -1        62 7.29167E-03 2.73438E-03 0.00000E+00
 -1        63 8.33333E-03 3.12500E-03 0.00000E+00
 -1        64 9.37500E-03 3.51563E-03 0.00000E+00
 -1        65 1.04167E-02 3.90625E-03 0.00000E+00
 -1        66 1.14583E-02 4.29688E-03 0.00000E+00
 -1        67 1.25000E-02 4.68750E-03 0.00000E+00
 -1        68 1.35417E-02 5.07813E-03 0.00000E+00
 -1        69 1.45833E-02 5.46875E-03 0.00000E+00
 -1        70 1.56250E-02 5.85938E-03 0.00000E+00
 -1        86 1.66667E-02 1.04167E-03 0.00000E+00
 -1        87 1.66667E-02 2.08333E-03 0.00000E+00
 -1        88 1.66667E-02 3.12500E-03 0.00000E+00
 -1        89 1.66667E-02 4.16667E-03 0.00000E+00
 -1        90 1.66667E-02 5.20833E-03 0.00000E+00
 -1       121 3.33333E-02 1.04167E-03 0.00000E+00
 -1       122 3.33333E-02 2.08333E-03 0.00000E+00
 -1       123 3.33333E-02 3.12500E-03 0.00000E+00
 -1       124 3.33333E-02 4.16667E-03 0.00000E+00
 -1       125 3.33333E-02 5.20833E-03 0.00000E+00
 -1       191 6.66667E-02 1.04167E-03 0.00000E+00
 -1       192 6.66667E-02 2.08333E-03 0.00000E+00
 -1       193 6.66667E-02 3.12500E-03 0.00000E+00
 -1       194 6.66667E-02 4.16667E-03 0.00000E+00
 -1       195 6.66667E-02 5.20833E-03 0.00000E+00
 -1       271 1.04167E-03 6.64063E-03 0.00000E+00
 -1       272 2.08333E-03 7.03125E-03 0.00000E+00
 -1       273 3.12500E-03 7.42188E-03 0.00000E+00
 -1       274 4.16667E-03 7.81250E-03 0.00000E+00
 -1       275 5.20833E-03 8.20313E-03 0.00000E+00
 -1       276 6.25000E-03 8.59375E-03 0.00000E+00
 -1       277 7.29167E-03 8.98438E-03 0.00000E+00
 -1       278 8.33333E-03 9.37500E-03 0.00000E+00
 -1       279 9.37500E-03 9.76562E-03 0.00000E+00
 -1       280 1.04167E-02 1.01562E-02 0.00000E+00
 -1       281 1.14583E-02 1.05469E-02 0.00000E+00
 -1       282 1.25000E-02 1.09375E-02 0.00000E+00
 -1       283 1.35417E-02 1.13281E-02 0.00000E+00
 -1       284 1.45833E-02 1.17188E-02 0.00000E+00
 -1       285 1.56250E-02 1.21094E-02 0.00000E+00
 -1       301 1.66667E-02 7.29167E-03 0.00000E+00
 -1       302 1.66667E-02 8.33333E-03 0.00000E+00
 -1       303 1.66667E-02 9.37500E-03 0.00000E+00
 -1       304 1.66667E-02 1.04167E-02 0.00000E+00
 -1       305 1.66667E-02 1.14583E-02 0.00000E+00
 -1       306 1.77083E-02 6.64063E-03 0.00000E+00
 -1       307 1.87500E-02 7.03125E-03 0.00000E+00
 -1       308 1.97917E-02 7.42188E-03 0.00000E+00
 -1       309 2.08333E-02 7.81250E-03 0.00000E+00
 -1       310 2.18750E-02 8.20313E-03 0.00000E+00
 -1       311 2.29167E-02 8.59375E-03 0.00000E+00
 -1       312 2.39583E-02 8.98438E-03 0.00000E+00
 -1       313 2.50000E-02 9.37500E-03 0.00000E+00
 -1       314 2.60417E-02 9.76562E-03 0.00000E+00
 -1       315 2.70833E-02 1.01562E-02 0.00000E+00
 -1       316 2.81250E-02 1.05469E-02 0.00000E+00
 -1       317 2.91667E-02 1.09375E-02 0.00000E+00
 -1       318 3.02083E-02 1.13281E-02 0.00000E+00
 -1       319 3.12500E-02 1.17188E-02 0.00000E+00
 -1       320 3.22917E-02 1.21094E-02 0.00000E+00
 -1       336 3.33333E-02 7.29167E-03 0.00000E+00
 -1       337 3.33333E-02 8.33333E-03 0.00000E+00
 -1       338 3.33333E-02 9.37500E-03 0.00000E+00
 -1       339 3.33333E-02 1.04167E-02 0.00000E+00
 -1       340 3.33333E-02 1.14583E-02 0.00000E+00
 -1       406 6.66667E-02 7.29167E-03 0.00000E+00
 -1       407 6.66667E-02 8.33333E-03 0.00000E+00
 -1       408 6.66667E-02 9.37500E-03 0.00000E+00
 -1       409 6.66667E-02 1.04167E-02 0.00000E+00
 -1       410 6.66667E-02 1.14583E-02 0.00000E+00
 -1       521 1.77083E-02 1.28906E-02 0.00000E+00
 -1       522 1.87500E-02 1.32813E-02 0.00000E+00
 -1       523 1.97917E-02 1.36719E-02 0.00000E+00
 -1       524 2.08333E-02 1.40625E-02 0.00000E+00
 -1       525 2.18750E-02 1.44531E-02 0.00000E+00
 -1       526 2.29167E-02 1.48437E-02 0.00000E+00
 -1       527 2.39583E-02 1.52344E-02 0.00000E+00
 -1       528 2.50000E-02 1.56250E-02 0.00000E+00
 -1       529 2.60417E-02 1.60156E-02 0.00000E+00
 -1       530 2.70833E-02 1.64062E-02 0.00000E+00
 -1       531 2.81250E-02 1.67969E-02 0.00000E+00
 -1       532 2.91667E-02 1.71875E-02 0.00000E+00
 -1       533 3.02083E-02 1.75781E-02 0.00000E+00
 -1       534 3.12500E-02 1.79687E-02 0.00000E+00
 -1       535 3.22917E-02 1.83594E-02 0.00000E+00
 -1       536 3.43750E-02 1.25000E-02 0.00000E+00
 -1       537 3.54167E-02 1.25000E-02 0.00000E+00
 -1       538 3.64583E-02 1.25000E-02 0.00000E+00
 -1       539 3.75000E-02 1.25000E-02 0.00000E+00
 -1       540 3.85417E-02 1.25000E-02 0.00000E+00
 -1       541 3.95833E-02 1.25000E-02 0.00000E+00
 -1       542 4.06250E-02 1.25000E-02 0.00000E+00
 -1       543 4.16667E-02 1.25000E-02 0.00000E+00
 -1       544 4.27083E-02 1.25000E-02 0.00000E+00
 -1       545 4.37500E-02 1.25000E-02 0.00000E+00
 -1       546 4.47917E-02 1.25000E-02 0.00000E+00
 -1       547 4.58333E-02 1.25000E-02 0.00000E+00
 -1       548 4.68750E-02 1.25000E-02 0.00000E+00
 -1       549 4.79167E-02 1.25000E-02 0.00000E+00
 -1       550 4.89583E-02 1.25000E-02 0.00000E+00
 -1       551 3.33333E-02 1.35417E-02 0.00000E+00
 -1       552 3.33333E-02 1.45833E-02 0.00000E+00
 -1       553 3.33333E-02 1.56250E-02 0.00000E+00
 -1       554 3.33333E-02 1.66667E-02 0.00000E+00
 -1       555 3.33333E-02 1.77083E-02 0.00000E+00
 -1       556 3.43750E-02 1.28906E-02 0.00000E+00
 -1       557 3.54167E-02 1.32813E-02 0.00000E+00
 -1       558 3.64583E-02 1.36719E-02 0.00000E+00
 -1       559 3.75000E-02 1.40625E-02 0.00000E+00
 -1       560 3.85417E-02 1.44531E-02 0.00000E+00
 -1       561 3.95833E-02 1.48437E-02 0.00000E+00
 -1       562 4.06250E-02 1.52344E-02 0.00000E+00
 -1       563 4.16667E-02 1.56250E-02 0.00000E+00
 -1       564 4.27083E-02 1.60156E-02 0.00000E+00
 -1       565 4.37500E-02 1.64062E-02 0.00000E+00
 -1       566 4.47917E-02 1.67969E-02 0.00000E+00
 -1       567 4.58333E-02 1.71875E-02 0.00000E+00
 -1       568 4.68750E-02 1.75781E-02 0.00000E+00
 -1       569 4.79167E-02 1.79687E-02 0.00000E+00
 -1       570 4.89583E-02 1.83594E-02 0.00000E+00
 -1       571 5.10417E-02 1.25000E-02 0.00000E+00
 -1       572 5.20833E-02 1.25000E-02 0.00000E+00
 -1       573 5.31250E-02 1.25000E-02 0.00000E+00
 -1       574 5.41667E-02 1.25000E-02 0.00000E+00
 -1       575 5.52083E-02 1.25000E-02 0.00000E+00
 -1       576 5.62500E-02 1.25000E-02 0.00000E+00
 -1       577 5.72917E-02 1.25000E-02 0.00000E+00
 -1       578 5.83333E-02 1.25000E-02 0.00000E+00
 -1       579 5.93750E-02 1.25000E-02 0.00000E+00
 -1       580 6.04167E-02 1.25000E-02 0.00000E+00
 -1       581 6.14583E-02 1.25000E-02 0.00000E+00
 -1       582 6.25000E-02 1.25000E-02 0.00000E+00
 -1       583 6.35417E-02 1.25000E-02 0.00000E+00
 -1       584 6.45833E-02 1.25000E-02 0.00000E+00
 -1       585 6.56250E-02 1.25000E-02 0.00000E+00
 -1       586 5.00000E-02 1.35417E-02 0.00000E+00
 -1       587 5.00000E-02 1.45833E-02 0.00000E+00
 -1       588 5.00000E-02 1.56250E-02 0.00000E+00
 -1       589 5.00000E-02 1.66667E-02 0.00000E+00
 -1       590 5.00000E-02 1.77083E-02 0.00000E+00
 -1       591 5.10417E-02 1.28906E-02 0.00000E+00
 -1       592 5.20833E-02 1.32813E-02 0.00000E+00
 -1       593 5.31250E-02 1.36719E-02 0.00000E+00
 -1       594 5.41667E-02 1.40625E-02 0.00000E+00
 -1       595 5.52083E-02 1.44531E-02 0.00000E+00
 -1       596 5.62500E-02 1.48437E-02 0.00000E+00
 -1       597 5.72917E-02 1.52344E-02 0.00000E+00
 -1       598 5.83333E-02 1.56250E-02 0.00000E+00
 -1       599 5.93750E-02 1.60156E-02 0.00000E+00
 -1       600 6.04167E-02 1.64062E-02 0.00000E+00
 -1       601 6.14583E-02 1.67969E-02 0.00000E+00
 -1       602 6.25000E-02 1.71875E-02 0.00000E+00
 -1       603 6.35417E-02 1.75781E-02 0.00000E+00
 -1       604 6.45833E-02 1.79687E-02 0.00000E+00
 -1       605 6.56250E-02 1.83594E-02 0.00000E+00
 -1       606 6.77083E-02 1.25000E-02 0.00000E+00
 -1       607 6.87500E-02 1.25000E-02 0.00000E+00
 -1       608 6.97917E-02 1.25000E-02 0.00000E+00
 -1       609 7.08333E-02 1.25000E-02 0.00000E+00
 -1       610 7.18750E-02 1.25000E-02 0.00000E+00
 -1       611 7.29167E-02 1.25000E-02 0.00000E+00
 -1       612 7.39583E-02 1.25000E-02 0.00000E+00
 -1       613 7.50000E-02 1.25000E-02 0.00000E+00
 -1       614 7.60417E-02 1.25000E-02 0.00000E+00
 -1       615 7.70833E-02 1.25000E-02 0.00000E+00
 -1       616 7.81250E-02 1.25000E-02 0.00000E+00
 -1       617 7.91667E-02 1.25000E-02 0.00000E+00
 -1       618 8.02083E-02 1.25000E-02 0.00000E+00
 -1       619 8.12500E-02 1.25000E-02 0.00000E+00
 -1       620 8.22917E-02 1.25000E-02 0.00000E+00
 -1       621 6.66667E-02 1.35417E-02 0.00000E+00
 -1       622 6.66667E-02 1.45833E-02 0.00000E+00
 -1       623 6.66667E-02 1.56250E-02 0.00000E+00
 -1       624 6.66667E-02 1.66667E-02 0.00000E+00
 -1       625 6.66667E-02 1.77083E-02 0.00000E+00
 -1       626 6.77083E-02 1.28906E-02 0.00000E+00
 -1       627 6.87500E-02 1.32813E-02 0.00000E+00
 -1       628 6.97917E-02 1.36719E-02 0.00000E+00
 -1       629 7.08333E-02 1.40625E-02 0.00000E+00
 -1       630 7.18750E-02 1.44531E-02 0.00000E+00
 -1       631 7.29167E-02 1.48437E-02 0.00000E+00
 -1       632 7.39583E-02 1.52344E-02 0.00000E+00
 -1       633 7.50000E-02 1.56250E-02 0.00000E+00
 -1       634 7.60417E-02 1.60156E-02 0.00000E+00
 -1       635 7.70833E-02 1.64062E-02 0.00000E+00
 -1       636 7.81250E-02 1.67969E-02 0.00000E+00
 -1       637 7.91667E-02 1.71875E-02 0.00000E+00
 -1       638 8.02083E-02 1.75781E-02 0.00000E+00
 -1       639 8.12500E-02 1.79687E-02 0.00000E+00
 -1       640 8.22917E-02 1.83594E-02 0.00000E+00
 -1       656 8.33333E-02 1.35417E-02 0.00000E+00
 -1       657 8.33333E-02 1.45833E-02 0.00000E+00
 -1       658 8.33333E-02 1.56250E-02 0.00000E+00
 -1       659 8.33333E-02 1.66667E-02 0.00000E+00
 -1       660 8.33333E-02 1.77083E-02 0.00000E+00
 -1       661 8.43750E-02 1.28906E-02 0.00000E+00
 -1       662 8.54167E-02 1.32813E-02 0.00000E+00
 -1       663 8.64583E-02 1.36719E-02 0.00000E+00
 -1       664 8.75000E-02 1.40625E-02 0.00000E+00
 -1       665 8.85417E-02 1.44531E-02 0.00000E+00
 -1       666 8.95833E-02 1.48437E-02 0.00000E+00
 -1       667 9.06250E-02 1.52344E-02 0.00000E+00
 -1       668 9.16667E-02 1.56250E-02 0.00000E+00
 -1       669 9.27083E-02 1.60156E-02 0.00000E+00
 -1       670 9.37500E-02 1.64062E-02 0.00000E+00
 -1       671 9.47917E-02 1.67969E-02 0.00000E+00
 -1       672 9.58333E-02 1.71875E-02 0.00000E+00
 -1       673 9.68750E-02 1.75781E-02 0.00000E+00
 -1       674 9.79167E-02 1.79687E-02 0.00000E+00
 -1       675 9.89583E-02 1.83594E-02 0.00000E+00
 -1       676 1.00000E-01 1.35417E-02 0.00000E+00
 -1       677 1.00000E-01 1.45833E-02 0.00000E+00
 -1       678 1.00000E-01 1.56250E-02 0.00000E+00
 -1       679 1.00000E-01 1.66667E-02 0.00000E+00
 -1       680 1.00000E-01 1.77083E-02 0.00000E+00
 -1       771 3.43750E-02 1.91406E-02 0.00000E+00
 -1       772 3.54167E-02 1.95312E-02 0.00000E+00
 -1       773 3.64583E-02 1.99219E-02 0.00000E+00
 -1       774 3.75000E-02 2.03125E-02 0.00000E+00
 -1       775 3.85417E-02 2.07031E-02 0.00000E+00
 -1       776 3.95833E-02 2.10938E-02 0.00000E+00
 -1       777 4.06250E-02 2.14844E-02 0.00000E+00
 -1       778 4.16667E-02 2.18750E-02 0.00000E+00
 -1       779 4.27083E-02 2.22656E-02 0.00000E+00
 -1       780 4.37500E-02 2.26563E-02 0.00000E+00
 -1       781 4.47917E-02 2.30469E-02 0.00000E+00
 -1       782 4.58333E-02 2.34375E-02 0.00000E+00
 -1       783 4.68750E-02 2.38281E-02 0.00000E+00
 -1       784 4.79167E-02 2.42187E-02 0.00000E+00
 -1       785 4.89583E-02 2.46094E-02 0.00000E+00
 -1       786 5.10417E-02 1.87500E-02 0.00000E+00
 -1       787 5.20833E-02 1.87500E-02 0.00000E+00
 -1       788 5.31250E-02 1.87500E-02 0.00000E+00
 -1       789 5.41667E-02 1.87500E-02 0.00000E+00
 -1       790 5.52083E-02 1.87500E-02 0.00000E+00
 -1       791 5.62500E-02 1.87500E-02 0.00000E+00
 -1       792 5.72917E-02 1.87500E-02 0.00000E+00
 -1       793 5.83333E-02 1.87500E-02 0.00000E+00
 -1       794 5.93750E-02 1.87500E-02 0.00000E+00
 -1       795 6.04167E-02 1.87500E-02 0.00000E+00
 -1       796 6.14583E-02 1.87500E-02 0.00000E+00
 -1       797 6.25000E-02 1.87500E-02 0.00000E+00
 -1       798 6.35417E-02 1.87500E-02 0.00000E+00
 -1       799 6.45833E-02 1.87500E-02 0.00000E+00
 -1       800 6.56250E-02 1.87500E-02 0.00000E+00
 -1       801 5.00000E-02 1.97917E-02 0.00000E+00
 -1       802 5.00000E-02 2.08333E-02 0.00000E+00
 -1       803 5.00000E-02 2.18750E-02 0.00000E+00
 -1       804 5.00000E-02 2.29167E-02 0.00000E+00
 -1       805 5.00000E-02 2.39583E-02 0.00000E+00
 -1       806 5.10417E-02 1.91406E-02 0.00000E+00
 -1       807 5.20833E-02 1.95312E-02 0.00000E+00
 -1       808 5.31250E-02 1.99219E-02 0.00000E+00
 -1       809 5.41667E-02 2.03125E-02 0.00000E+00
 -1       810 5.52083E-02 2.07031E-02 0.00000E+00
 -1       811 5.62500E-02 2.10938E-02 0.00000E+00
 -1       812 5.72917E-02 2.14844E-02 0.00000E+00
 -1       813 5.83333E-02 2.18750E-02 0.00000E+00
 -1       814 5.93750E-02 2.22656E-02 0.00000E+00
 -1       815 6.04167E-02 2.26563E-02 0.00000E+00
 -1       816 6.14583E-02 2.30469E-02 0.00000E+00
 -1       817 6.25000E-02 2.34375E-02 0.00000E+00
 -1       818 6.35417E-02 2.38281E-02 0.00000E+00
 -1       819 6.45833E-02 2.42187E-02 0.00000E+00
 -1       820 6.56250E-02 2.46094E-02 0.00000E+00
 -1       821 6.77083E-02 1.87500E-02 0.00000E+00
 -1       822 6.87500E-02 1.87500E-02 0.00000E+00
 -1       823 6.97917E-02 1.87500E-02 0.00000E+00
 -1       824 7.08333E-02 1.87500E-02 0.00000E+00
 -1       825 7.18750E-02 1.87500E-02 0.00000E+00
 -1       826 7.29167E-02 1.87500E-02 0.00000E+00
 -1       827 7.39583E-02 1.87500E-02 0.00000E+00
 -1       828 7.50000E-02 1.87500E-02 0.00000E+00
 -1       829 7.60417E-02 1.87500E-02 0.00000E+00
 -1       830 7.70833E-02 1.87500E-02 0.00000E+00
 -1       831 7.81250E-02 1.87500E-02 0.00000E+00
 -1       832 7.91667E-02 1.87500E-02 0.00000E+00
 -1       833 8.02083E-02 1.87500E-02 0.00000E+00
 -1       834 8.12500E-02 1.87500E-02 0.00000E+00
 -1       835 8.22917E-02 1.87500E-02 0.00000E+00
 -1       836 6.66667E-02 1.97917E-02 0.00000E+00
 -1       837 6.66667E-02 2.08333E-02 0.00000E+00
 -1       838 6.66667E-02 2.18750E-02 0.00000E+00
 -1       839 6.66667E-02 2.29167E-02 0.00000E+00
 -1       840 6.66667E-02 2.39583E-02 0.00000E+00
 -1       856 8.43750E-02 1.87500E-02 0.00000E+00
 -1       857 8.54167E-02 1.87500E-02 0.00000E+00
 -1       858 8.64583E-02 1.87500E-02 0.00000E+00
 -1       859 8.75000E-02 1.87500E-02 0.00000E+00
 -1       860 8.85417E-02 1.87500E-02 0.00000E+00
 -1       861 8.95833E-02 1.87500E-02 0.00000E+00
 -1       862 9.06250E-02 1.87500E-02 0.00000E+00
 -1       863 9.16667E-02 1.87500E-02 0.00000E+00
 -1       864 9.27083E-02 1.87500E-02 0.00000E+00
 -1       865 9.37500E-02 1.87500E-02 0.00000E+00
 -1       866 9.47917E-02 1.87500E-02 0.00000E+00
 -1       867 9.58333E-02 1.87500E-02 0.00000E+00
 -1       868 9.68750E-02 1.87500E-02 0.00000E+00
 -1       869 9.79167E-02 1.87500E-02 0.00000E+00
 -1       870 9.89583E-02 1.87500E-02 0.00000E+00
 -1       871 8.33333E-02 1.97917E-02 0.00000E+00
 -1       872 8.33333E-02 2.08333E-02 0.00000E+00
 -1       873 8.33333E-02 2.18750E-02 0.00000E+00
 -1       874 8.33333E-02 2.29167E-02 0.00000E+00
 -1       875 8.33333E-02 2.39583E-02 0.00000E+00
 -1       876 8.43750E-02 1.91406E-02 0.00000E+00
 -1       877 8.54167E-02 1.95312E-02 0.00000E+00
 -1       878 8.64583E-02 1.99219E-02 0.00000E+00
 -1       879 8.75000E-02 2.03125E-02 0.00000E+00
 -1       880 8.85417E-02 2.07031E-02 0.00000E+00
 -1       881 8.95833E-02 2.10938E-02 0.00000E+00
 -1       882 9.06250E-02 2.14844E-02 0.00000E+00
 -1       883 9.16667E-02 2.18750E-02 0.00000E+00
 -1       884 9.27083E-02 2.22656E-02 0.00000E+00
 -1       885 9.37500E-02 2.26563E-02 0.00000E+00
 -1       886 9.47917E-02 2.30469E-02 0.00000E+00
 -1       887 9.58333E-02 2.34375E-02 0.00000E+00
 -1       888 9.68750E-02 2.38281E-02 0.00000E+00
 -1       889 9.79167E-02 2.42187E-02 0.00000E+00
 -1       890 9.89583E-02 2.46094E-02 0.00000E+00
 -1       891 1.00000E-01 1.97917E-02 0.00000E+00
 -1       892 1.00000E-01 2.08333E-02 0.00000E+00
 -1       893 1.00000E-01 2.18750E-02 0.00000E+00
 -1       894 1.00000E-01 2.29167E-02 0.00000E+00
 -1       895 1.00000E-01 2.39583E-02 0.00000E+00
 -1       956 6.77083E-02 2.50000E-02 0.00000E+00
 -1       957 6.87500E-02 2.50000E-02 0.00000E+00
 -1       958 6.97917E-02 2.50000E-02 0.00000E+00
 -1       959 7.08333E-02 2.50000E-02 0.00000E+00
 -1       960 7.18750E-02 2.50000E-02 0.00000E+00
 -1       961 7.29167E-02 2.50000E-02 0.00000E+00
 -1       962 7.39583E-02 2.50000E-02 0.00000E+00
 -1       963 7.50000E-02 2.50000E-02 0.00000E+00
 -1       964 7.60417E-02 2.50000E-02 0.00000E+00
 -1       965 7.70833E-02 2.50000E-02 0.00000E+00
 -1       966 7.81250E-02 2.50000E-02 0.00000E+00
 -1       967 7.91667E-02 2.50000E-02 0.00000E+00
 -1       968 8.02083E-02 2.50000E-02 0.00000E+00
 -1       969 8.12500E-02 2.50000E-02 0.00000E+00
 -1       970 8.22917E-02 2.50000E-02 0.00000E+00
 -1       971 8.43750E-02 2.50000E-02 0.00000E+00
 -1       972 8.54167E-02 2.50000E-02 0.00000E+00
 -1       973 8.64583E-02 2.50000E-02 0.00000E+00
 -1       974 8.75000E-02 2.50000E-02 0.00000E+00
 -1       975 8.85417E-02 2.50000E-02 0.00000E+00
 -1       976 8.95833E-02 2.50000E-02 0.00000E+00
 -1       977 9.06250E-02 2.50000E-02 0.00000E+00
 -1       978 9.16667E-02 2.50000E-02 0.00000E+00
 -1       979 9.27083E-02 2.50000E-02 0.00000E+00
 -1       980 9.37500E-02 2.50000E-02 0.00000E+00
 -1       981 9.47917E-02 2.50000E-02 0.00000E+00
 -1       982 9.58333E-02 2.50000E-02 0.00000E+00
 -1       983 9.68750E-02 2.50000E-02 0.00000E+00
 -1       984 9.79167E-02 2.50000E-02 0.00000E+00
 -1       985 9.89583E-02 2.50000E-02 0.00000E+00
 -3
    3C                           200                                     1
 -1         1   12    0    1
 -2         1        52        51
 -1         2   12    0    1
 -2        52        54        53
 -1         3   12    0    1
 -2        54         8        55
 -1         4   12    0    1
 -2         1        57        56
 -1         5   12    0    1
 -2        57        59        58
 -1         6   12    0    1
 -2        59        61        60
 -1         7   12    0    1
 -2        61        63        62
 -1         8   12    0    1
 -2        63        65        64
 -1         9   12    0    1
 -2        65        67        66
 -1        10   12    0    1
 -2        67        69        68
 -1        11   12    0    1
 -2        69         9        70
 -1        12   12    0    1
 -2         2        87        86
 -1        13   12    0    1
 -2        87        89        88
 -1        14   12    0    1
 -2        89         9        90
 -1        15   12    0    1
 -2         3       122       121
 -1        16   12    0    1
 -2       122       124       123
 -1        17   12    0    1
 -2       124        10       125
 -1        18   12    0    1
 -2         5       192       191
 -1        19   12    0    1
 -2       192       194       193
 -1        20   12    0    1
 -2       194        12       195
 -1        21   12    0    1
 -2         8       272       271
 -1        22   12    0    1
 -2       272       274       273
 -1        23   12    0    1
 -2       274       276       275
 -1        24   12    0    1
 -2       276       278       277
 -1        25   12    0    1
 -2       278       280       279
 -1        26   12    0    1
 -2       280       282       281
 -1        27   12    0    1
 -2       282       284       283
 -1        28   12    0    1
 -2       284        16       285
 -1        29   12    0    1
 -2         9       302       301
 -1        30   12    0    1
 -2       302       304       303
 -1        31   12    0    1
 -2       304        16       305
 -1        32   12    0    1
 -2         9       307       306
 -1        33   12    0    1
 -2       307       309       308
 -1        34   12    0    1
 -2       309       311       310
 -1        35   12    0    1
 -2       311       313       312
 -1        36   12    0    1
 -2       313       315       314
 -1        37   12    0    1
 -2       315       317       316
 -1        38   12    0    1
 -2       317       319       318
 -1        39   12    0    1
 -2       319        17       320
 -1        40   12    0    1
 -2        10       337       336
 -1        41   12    0    1
 -2       337       339       338
 -1        42   12    0    1
 -2       339        17       340
 -1        43   12    0    1
 -2        12       407       406
 -1        44   12    0    1
 -2       407       409       408
 -1        45   12    0    1
 -2       409        19       410
 -1        46   12    0    1
 -2        16       522       521
 -1        47   12    0    1
 -2       522       524       523
 -1        48   12    0    1
 -2       524       526       525
 -1        49   12    0    1
 -2       526       528       527
 -1        50   12    0    1
 -2       528       530       529
 -1        51   12    0    1
 -2       530       532       531
 -1        52   12    0    1
 -2       532       534       533
 -1        53   12    0    1
 -2       534        24       535
 -1        54   12    0    1
 -2        17       537       536
 -1        55   12    0    1
 -2       537       539       538
 -1        56   12    0    1
 -2       539       541       540
 -1        57   12    0    1
 -2       541       543       542
 -1        58   12    0    1
 -2       543       545       544
 -1        59   12    0    1
 -2       545       547       546
 -1        60   12    0    1
 -2       547       549       548
 -1        61   12    0    1
 -2       549        18       550
 -1        62   12    0    1
 -2        17       552       551
 -1        63   12    0    1
 -2       552       554       553
 -1        64   12    0    1
 -2       554        24       555
 -1        65   12    0    1
 -2        17       557       556
 -1        66   12    0    1
 -2       557       559       558
 -1        67   12    0    1
 -2       559       561       560
 -1        68   12    0    1
 -2       561       563       562
 -1        69   12    0    1
 -2       563       565       564
 -1        70   12    0    1
 -2       565       567       566
 -1        71   12    0    1
 -2       567       569       568
 -1        72   12    0    1
 -2       569        25       570
 -1        73   12    0    1
 -2        18       572       571
 -1        74   12    0    1
 -2       572       574       573
 -1        75   12    0    1
 -2       574       576       575
 -1        76   12    0    1
 -2       576       578       577
 -1        77   12    0    1
 -2       578       580       579
 -1        78   12    0    1
 -2       580       582       581
 -1        79   12    0    1
 -2       582       584       583
 -1        80   12    0    1
 -2       584        19       585
 -1        81   12    0    1
 -2        18       587       586
 -1        82   12    0    1
 -2       587       589       588
 -1        83   12    0    1
 -2       589        25       590
 -1        84   12    0    1
 -2        18       592       591
 -1        85   12    0    1
 -2       592       594       593
 -1        86   12    0    1
 -2       594       596       595
 -1        87   12    0    1
 -2       596       598       597
 -1        88   12    0    1
 -2       598       600       599
 -1        89   12    0    1
 -2       600       602       601
 -1        90   12    0    1
 -2       602       604       603
 -1        91   12    0    1
 -2       604        26       605
 -1        92   12    0    1
 -2        19       607       606
 -1        93   12    0    1
 -2       607       609       608
 -1        94   12    0    1
 -2       609       611       610
 -1        95   12    0    1
 -2       611       613       612
 -1        96   12    0    1
 -2       613       615       614
 -1        97   12    0    1
 -2       615       617       616
 -1        98   12    0    1
 -2       617       619       618
 -1        99   12    0    1
 -2       619        20       620
 -1       100   12    0    1
 -2        19       622       621
 -1       101   12    0    1
 -2       622       624       623
 -1       102   12    0    1
 -2       624        26       625
 -1       103   12    0    1
 -2        19       627       626
 -1       104   12    0    1
 -2       627       629       628
 -1       105   12    0    1
 -2       629       631       630
 -1       106   12    0    1
 -2       631       633       632
 -1       107   12    0    1
 -2       633       635       634
 -1       108   12    0    1
 -2       635       637       636
 -1       109   12    0    1
 -2       637       639       638
 -1       110   12    0    1
 -2       639        27       640
 -1       111   12    0    1
 -2        20       657       656
 -1       112   12    0    1
 -2       657       659       658
 -1       113   12    0    1
 -2       659        27       660
 -1       114   12    0    1
 -2        20       662       661
 -1       115   12    0    1
 -2       662       664       663
 -1       116   12    0    1
 -2       664       666       665
 -1       117   12    0    1
 -2       666       668       667
 -1       118   12    0    1
 -2       668       670       669
 -1       119   12    0    1
 -2       670       672       671
 -1       120   12    0    1
 -2       672       674       673
 -1       121   12    0    1
 -2       674        28       675
 -1       122   12    0    1
 -2        21       677       676
 -1       123   12    0    1
 -2       677       679       678
 -1       124   12    0    1
 -2       679        28       680
 -1       125   12    0    1
 -2        24       772       771
 -1       126   12    0    1
 -2       772       774       773
 -1       127   12    0    1
 -2       774       776       775
 -1       128   12    0    1
 -2       776       778       777
 -1       129   12    0    1
 -2       778       780       779
 -1       130   12    0    1
 -2       780       782       781
 -1       131   12    0    1
 -2       782       784       783
 -1       132   12    0    1
 -2       784        32       785
 -1       133   12    0    1
 -2        25       787       786
 -1       134   12    0    1
 -2       787       789       788
 -1       135   12    0    1
 -2       789       791       790
 -1       136   12    0    1
 -2       791       793       792
 -1       137   12    0    1
 -2       793       795       794
 -1       138   12    0    1
 -2       795       797       796
 -1       139   12    0    1
 -2       797       799       798
 -1       140   12    0    1
 -2       799        26       800
 -1       141   12    0    1
 -2        25       802       801
 -1       142   12    0    1
 -2       802       804       803
 -1       143   12    0    1
 -2       804        32       805
 -1       144   12    0    1
 -2        25       807       806
 -1       145   12    0    1
 -2       807       809       808
 -1       146   12    0    1
 -2       809       811       810
 -1       147   12    0    1
 -2       811       813       812
 -1       148   12    0    1
 -2       813       815       814
 -1       149   12    0    1
 -2       815       817       816
 -1       150   12    0    1
 -2       817       819       818
 -1       151   12    0    1
 -2       819        33       820
 -1       152   12    0    1
 -2        26       822       821
 -1       153   12    0    1
 -2       822       824       823
 -1       154   12    0    1
 -2       824       826       825
 -1       155   12    0    1
 -2       826       828       827
 -1       156   12    0    1
 -2       828       830       829
 -1       157   12    0    1
 -2       830       832       831
 -1       158   12    0    1
 -2       832       834       833
 -1       159   12    0    1
 -2       834        27       835
 -1       160   12    0    1
 -2        26       837       836
 -1       161   12    0    1
 -2       837       839       838
 -1       162   12    0    1
 -2       839        33       840
 -1       163   12    0    1
 -2        27       857       856
 -1       164   12    0    1
 -2       857       859       858
 -1       165   12    0    1
 -2       859       861       860
 -1       166   12    0    1
 -2       861       863       862
 -1       167   12    0    1
 -2       863       865       864
 -1       168   12    0    1
 -2       865       867       866
 -1       169   12    0    1
 -2       867       869       868
 -1       170   12    0    1
 -2       869        28       870
 -1       171   12    0    1
 -2        27       872       871
 -1       172   12    0    1
 -2       872       874       873
 -1       173   12    0    1
 -2       874        34       875
 -1       174   12    0    1
 -2        27       877       876
 -1       175   12    0    1
 -2       877       879       878
 -1       176   12    0    1
 -2       879       881       880
 -1       177   12    0    1
 -2       881       883       882
 -1       178   12    0    1
 -2       883       885       884
 -1       179   12    0    1
 -2       885       887       886
 -1       180   12    0    1
 -2       887       889       888
 -1       181   12    0    1
 -2       889        35       890
 -1       182   12    0    1
 -2        28       892       891
 -1       183   12    0    1
 -2       892       894       893
 -1       184   12    0    1
 -2       894        35       895
 -1       185   12    0    1
 -2        33       957       956
 -1       186   12    0    1
 -2       957       959       958
 -1       187   12    0    1
 -2       959       961       960
 -1       188   12    0    1
 -2       961       963       962
 -1       189   12    0    1
 -2       963       965       964
 -1       190   12    0    1
 -2       965       967       966
 -1       191   12    0    1
 -2       967       969       968
 -1       192   12    0    1
 -2       969        34       970
 -1       193   12    0    1
 -2        34       972       971
 -1       194   12    0    1
 -2       972       974       973
 -1       195   12    0    1
 -2       974       976       975
 -1       196   12    0    1
 -2       976       978       977
 -1       197   12    0    1
 -2       978       980       979
 -1       198   12    0    1
 -2       980       982       981
 -1       199   12    0    1
 -2       982       984       983
 -1       200   12    0    1
 -2       984        35       985
 -3
    1PSTEP                         1           1           1          
  100CL  101 1.000000000         388                     0    1           1
 -4  DISP        4    1
 -5  D1          1    2    1    0
 -5  D2          1    2    2    0
 -5  D3          1    2    3    0
 -5  ALL         1    2    0    0    1ALL
 -1         1 1.69130E-04 0.00000E+00 0.00000E+00
 -1         2 9.72135E-05 1.29912E-30-3.30872E-24
 -1         3 9.93628E-05-1.67080E-26-1.32349E-23
 -1         5 7.52746E-05 4.26923E-25 1.32349E-23
 -1         8 1.35586E-04-1.60223E-06 0.00000E+00
 -1         9 9.12291E-05-4.25300E-07 0.00000E+00
 -1        10 9.11591E-05-2.96169E-06-6.61744E-24
 -1        12 7.39851E-05 1.20623E-06-3.30872E-24
 -1        16 8.01167E-05-6.02143E-07 0.00000E+00
 -1        17 6.80150E-05-5.94575E-06 0.00000E+00
 -1        18 6.80491E-05-7.03755E-07 0.00000E+00
 -1        19 7.01147E-05 2.40375E-06 0.00000E+00
 -1        20 7.08362E-05 2.83872E-05 0.00000E+00
 -1        21 7.00921E-05 6.26189E-05 0.00000E+00
 -1        24 2.67590E-05-7.26409E-06 0.00000E+00
 -1        25 6.34269E-05-3.54197E-07 0.00000E+00
 -1        26 6.51153E-05 3.23045E-06 0.00000E+00
 -1        27 6.29265E-05 2.71431E-05 0.00000E+00
 -1        28 6.10893E-05 6.15730E-05 0.00000E+00
 -1        32 0.00000E+00 0.00000E+00 0.00000E+00
 -1        33 5.93941E-05 4.43149E-06 0.00000E+00
 -1        34 5.69323E-05 2.70336E-05 0.00000E+00
 -1        35 5.36582E-05 6.11011E-05 0.00000E+00
 -1        51 1.66662E-04-2.63157E-07 0.00000E+00
 -1        52 1.62498E-04-5.19922E-07 0.00000E+00
 -1        53 1.56965E-04-7.78470E-07 0.00000E+00
 -1        54 1.50406E-04-1.04197E-06 6.61744E-24
 -1        55 1.43164E-04-1.31278E-06-8.27181E-25
 -1        56 1.64865E-04-1.16934E-06 5.29396E-23
 -1        57 1.60130E-04-1.57128E-06 5.29396E-23
 -1        58 1.55106E-04-1.17516E-06 0.00000E+00
 -1        59 1.49810E-04-1.45040E-07 5.29396E-23
 -1        60 1.44476E-04 9.85234E-07 1.05879E-22
 -1        61 1.39310E-04 1.65460E-06 5.29396E-23
 -1        62 1.34422E-04 1.58677E-06-1.05879E-22
 -1        63 1.29874E-04 6.10214E-07 5.29396E-23
 -1        64 1.25522E-04-8.85214E-07-1.05879E-22
 -1        65 1.21190E-04-2.43411E-06 5.29396E-23
 -1        66 1.16692E-04-3.53828E-06 1.05879E-22
 -1        67 1.11869E-04-3.76250E-06 0.00000E+00
 -1        68 1.06755E-04-3.21611E-06 0.00000E+00
 -1        69 1.01462E-04-2.10804E-06 0.00000E+00
 -1        70 9.61609E-05-1.01267E-06-1.05879E-22
 -1        86 9.70321E-05-6.51401E-08 0.00000E+00
 -1        87 9.64886E-05-1.30984E-07 0.00000E+00
 -1        88 9.56054E-05-1.97139E-07 0.00000E+00
 -1        89 9.44059E-05-2.67239E-07 3.30872E-24
 -1        90 9.29326E-05-3.36454E-07 0.00000E+00
 -1       121 9.91316E-05-4.92487E-07 0.00000E+00
 -1       122 9.84390E-05-9.85173E-07-6.61744E-24
 -1       123 9.72885E-05-1.47826E-06 0.00000E+00
 -1       124 9.56859E-05-1.97194E-06 0.00000E+00
 -1       125 9.36394E-05-2.46636E-06 1.32349E-23
 -1       191 7.52388E-05 2.01076E-07 0.00000E+00
 -1       192 7.51313E-05 4.02145E-07 0.00000E+00
 -1       193 7.49523E-05 6.03204E-07 0.00000E+00
 -1       194 7.47016E-05 8.04245E-07 0.00000E+00
 -1       195 7.43792E-05 1.00526E-06 6.61744E-24
 -1       271 1.30533E-04 2.95378E-06 0.00000E+00
 -1       272 1.25733E-04 6.54243E-06-1.58819E-22
 -1       273 1.21296E-04 9.18433E-06 0.00000E+00
 -1       274 1.17196E-04 1.08874E-05-5.29396E-23
 -1       275 1.13429E-04 1.17050E-05-1.05879E-22
 -1       276 1.09964E-04 1.17160E-05-5.29396E-23
 -1       277 1.06759E-04 1.10294E-05 0.00000E+00
 -1       278 1.03767E-04 9.77809E-06 0.00000E+00
 -1       279 1.00928E-04 8.11544E-06 0.00000E+00
 -1       280 9.81807E-05 6.20931E-06-5.29396E-23
 -1       281 9.54591E-05 4.23605E-06 0.00000E+00
 -1       282 9.26981E-05 2.37492E-06 0.00000E+00
 -1       283 8.98311E-05 8.00388E-07-1.05879E-22
 -1       284 8.68079E-05-3.18592E-07 5.29396E-23
 -1       285 8.35569E-05-8.39199E-07 0.00000E+00
 -1       301 8.93713E-05-4.63834E-07 6.61744E-24
 -1       302 8.74987E-05-4.79929E-07-3.30872E-24
 -1       303 8.56242E-05-4.93568E-07 0.00000E+00
 -1       304 8.37605E-05-5.09706E-07 0.00000E+00
 -1       305 8.19204E-05-5.33198E-07-1.32349E-23
 -1       306 8.93788E-05 3.98420E-07 0.00000E+00
 -1       307 8.78170E-05 3.46059E-07 0.00000E+00
 -1       308 8.65303E-05-4.36119E-07 5.29396E-23
 -1       309 8.54573E-05-1.80562E-06 0.00000E+00
 -1       310 8.45450E-05-3.60622E-06 0.00000E+00
 -1       311 8.37322E-05-5.67652E-06-2.64698E-23
 -1       312 8.29580E-05-7.85028E-06-5.29396E-23
 -1       313 8.21596E-05-9.95988E-06 2.64698E-23
 -1       314 8.12749E-05-1.18386E-05 0.00000E+00
 -1       315 8.02434E-05-1.33235E-05 0.00000E+00
 -1       316 7.90062E-05-1.42583E-05-5.29396E-23
 -1       317 7.75087E-05-1.44954E-05 0.00000E+00
 -1       318 7.56988E-05-1.38991E-05 0.00000E+00
 -1       319 7.35360E-05-1.23449E-05-1.32349E-23
 -1       320 7.09704E-05-9.72934E-06 0.00000E+00
 -1       336 8.82577E-05-3.45803E-06-1.32349E-23
 -1       337 8.49498E-05-3.95533E-06 0.00000E+00
 -1       338 8.12520E-05-4.45378E-06-1.32349E-23
 -1       339 7.71829E-05-4.95232E-06 0.00000E+00
 -1       340 7.27631E-05-5.45246E-06 0.00000E+00
 -1       406 7.35193E-05 1.40715E-06-6.61744E-24
 -1       407 7.29818E-05 1.60795E-06 0.00000E+00
 -1       408 7.23724E-05 1.80856E-06 0.00000E+00
 -1       409 7.16913E-05 2.00868E-06 0.00000E+00
 -1       410 7.09385E-05 2.20783E-06 0.00000E+00
 -1       521 7.66446E-05-3.98997E-07 0.00000E+00
 -1       522 7.33786E-05-1.00352E-06-5.29396E-23
 -1       523 7.03627E-05-2.26603E-06 0.00000E+00
 -1       524 6.75280E-05-4.05158E-06 0.00000E+00
 -1       525 6.48263E-05-6.19635E-06 0.00000E+00
 -1       526 6.21920E-05-8.52834E-06-5.29396E-23
 -1       527 5.95601E-05-1.08677E-05-1.05879E-22
 -1       528 5.68634E-05-1.30352E-05-5.29396E-23
 -1       529 5.40376E-05-1.48574E-05 1.05879E-22
 -1       530 5.10225E-05-1.61734E-05-5.29396E-23
 -1       531 4.77646E-05-1.68409E-05 1.05879E-22
 -1       532 4.42205E-05-1.67402E-05 0.00000E+00
 -1       533 4.03539E-05-1.57802E-05 0.00000E+00
 -1       534 3.61533E-05-1.38960E-05-5.29396E-23
 -1       535 3.15910E-05-1.10663E-05 0.00000E+00
 -1       536 6.79954E-05-1.61335E-06 6.61744E-24
 -1       537 6.79922E-05 1.68159E-06 0.00000E+00
 -1       538 6.79913E-05 4.04656E-06-1.65436E-24
 -1       539 6.79939E-05 5.58975E-06 0.00000E+00
 -1       540 6.79976E-05 6.41910E-06 0.00000E+00
 -1       541 6.80021E-05 6.64259E-06 0.00000E+00
 -1       542 6.80066E-05 6.36818E-06 0.00000E+00
 -1       543 6.80110E-05 5.70378E-06 5.16988E-26
 -1       544 6.80153E-05 4.75732E-06 0.00000E+00
 -1       545 6.80194E-05 3.63666E-06-5.16988E-26
 -1       546 6.80235E-05 2.44970E-06 0.00000E+00
 -1       547 6.80277E-05 1.30434E-06-2.06795E-25
 -1       548 6.80321E-05 3.08436E-07 4.13590E-25
 -1       549 6.80370E-05-4.30131E-07 0.00000E+00
 -1       550 6.80421E-05-8.03399E-07-1.65436E-24
 -1       551 6.18914E-05-6.15442E-06 5.79026E-24
 -1       552 5.50290E-05-6.36292E-06 1.65436E-24
 -1       553 4.77535E-05-6.57432E-06 0.00000E+00
 -1       554 4.03964E-05-6.78978E-06 0.00000E+00
 -1       555 3.32892E-05-7.01021E-06-2.64698E-23
 -1       556 6.62859E-05-1.80269E-06 0.00000E+00
 -1       557 6.49276E-05 1.38454E-06 0.00000E+00
 -1       558 6.38985E-05 3.70508E-06 0.00000E+00
 -1       559 6.31606E-05 5.25633E-06 0.00000E+00
 -1       560 6.26761E-05 6.13572E-06-1.32349E-23
 -1       561 6.24074E-05 6.44150E-06 0.00000E+00
 -1       562 6.23171E-05 6.27208E-06 0.00000E+00
 -1       563 6.23682E-05 5.72600E-06 0.00000E+00
 -1       564 6.25234E-05 4.90196E-06 0.00000E+00
 -1       565 6.27457E-05 3.89870E-06 0.00000E+00
 -1       566 6.29982E-05 2.81502E-06 0.00000E+00
 -1       567 6.32438E-05 1.74976E-06 0.00000E+00
 -1       568 6.34458E-05 8.01718E-07-1.70606E-24
 -1       569 6.35674E-05 6.95841E-08 8.27181E-25
 -1       570 6.35719E-05-3.48035E-07 0.00000E+00
 -1       571 6.81737E-05-4.44566E-07 8.27181E-25
 -1       572 6.83016E-05-2.69712E-07 8.27181E-25
 -1       573 6.84305E-05-1.63715E-07 1.65436E-24
 -1       574 6.85598E-05-1.10313E-07-1.65436E-24
 -1       575 6.86894E-05-9.31723E-08 0.00000E+00
 -1       576 6.88190E-05-9.58541E-08 0.00000E+00
 -1       577 6.89487E-05-1.01912E-07 0.00000E+00
 -1       578 6.90784E-05-9.48861E-08 0.00000E+00
 -1       579 6.92081E-05-5.83134E-08 6.61744E-24
 -1       580 6.93377E-05 2.42691E-08 0.00000E+00
 -1       581 6.94674E-05 1.69323E-07 0.00000E+00
 -1       582 6.95970E-05 3.93297E-07 0.00000E+00
 -1       583 6.97266E-05 7.12625E-07 0.00000E+00
 -1       584 6.98561E-05 1.14357E-06 6.61744E-24
 -1       585 6.99856E-05 1.70231E-06 0.00000E+00
 -1       586 6.73900E-05-6.44258E-07 0.00000E+00
 -1       587 6.66258E-05-5.84542E-07 0.00000E+00
 -1       588 6.58014E-05-5.24949E-07-1.65436E-24
 -1       589 6.49629E-05-4.65887E-07-2.06795E-25
 -1       590 6.41563E-05-4.07951E-07 0.00000E+00
 -1       591 6.78505E-05-3.97732E-07 0.00000E+00
 -1       592 6.76680E-05-1.52567E-07 0.00000E+00
 -1       593 6.75026E-05 4.41959E-08 3.30872E-24
 -1       594 6.73505E-05 2.03647E-07-1.65436E-24
 -1       595 6.72080E-05 3.36918E-07-3.30872E-24
 -1       596 6.70711E-05 4.55053E-07 1.65436E-24
 -1       597 6.69357E-05 5.69083E-07-3.30872E-24
 -1       598 6.67977E-05 6.90029E-07-8.27181E-25
 -1       599 6.66529E-05 8.28911E-07 3.30872E-24
 -1       600 6.64973E-05 9.96745E-07-8.27181E-25
 -1       601 6.63268E-05 1.20454E-06 1.65436E-24
 -1       602 6.61372E-05 1.46333E-06 0.00000E+00
 -1       603 6.59245E-05 1.78413E-06 8.27181E-25
 -1       604 6.56851E-05 2.17803E-06 8.27181E-25
 -1       605 6.54150E-05 2.65610E-06 4.13590E-25
 -1       606 7.01654E-05 3.36787E-06 6.61744E-24
 -1       607 7.02125E-05 4.45961E-06 0.00000E+00
 -1       608 7.02585E-05 5.67145E-06 0.00000E+00
 -1       609 7.03039E-05 6.99481E-06 0.00000E+00
 -1       610 7.03490E-05 8.42106E-06-6.61744E-24
 -1       611 7.03940E-05 9.94142E-06-6.61744E-24
 -1       612 7.04387E-05 1.15471E-05 0.00000E+00
 -1       613 7.04834E-05 1.32293E-05 0.00000E+00
 -1       614 7.05279E-05 1.49793E-05 0.00000E+00
 -1       615 7.05723E-05 1.67882E-05 1.65436E-24
 -1       616 7.06166E-05 1.86473E-05 3.30872E-24
 -1       617 7.06608E-05 2.05477E-05-1.65436E-24
 -1       618 7.07050E-05 2.24807E-05 0.00000E+00
 -1       619 7.07490E-05 2.44374E-05 8.27181E-25
 -1       620 7.07929E-05 2.64092E-05 0.00000E+00
 -1       621 6.92253E-05 2.54227E-06 0.00000E+00
 -1       622 6.83414E-05 2.68126E-06-1.65436E-24
 -1       623 6.74758E-05 2.82020E-06-3.30872E-24
 -1       624 6.66412E-05 2.95877E-06 1.65436E-24
 -1       625 6.58502E-05 3.09665E-06 0.00000E+00
 -1       626 6.98618E-05 3.43171E-06 0.00000E+00
 -1       627 6.95582E-05 4.59288E-06-6.61744E-24
 -1       628 6.92091E-05 5.87465E-06 6.61744E-24
 -1       629 6.88198E-05 7.26315E-06 0.00000E+00
 -1       630 6.83955E-05 8.74449E-06 0.00000E+00
 -1       631 6.79416E-05 1.03046E-05 0.00000E+00
 -1       632 6.74633E-05 1.19294E-05-6.61744E-24
 -1       633 6.69659E-05 1.36049E-05 0.00000E+00
 -1       634 6.64547E-05 1.53169E-05 3.30872E-24
 -1       635 6.59350E-05 1.70514E-05-1.65436E-24
 -1       636 6.54121E-05 1.87945E-05 3.30872E-24
 -1       637 6.48912E-05 2.05319E-05 0.00000E+00
 -1       638 6.43776E-05 2.22496E-05 0.00000E+00
 -1       639 6.38762E-05 2.39335E-05 0.00000E+00
 -1       640 6.33918E-05 2.55695E-05-1.65436E-24
 -1       656 6.91134E-05 2.81858E-05 0.00000E+00
 -1       657 6.77102E-05 2.79749E-05 0.00000E+00
 -1       658 6.65086E-05 2.77648E-05-6.61744E-24
 -1       659 6.53900E-05 2.75547E-05 1.65436E-24
 -1       660 6.42355E-05 2.73441E-05-3.30872E-24
 -1       661 7.02353E-05 3.04257E-05 0.00000E+00
 -1       662 6.96126E-05 3.25372E-05 0.00000E+00
 -1       663 6.89685E-05 3.47053E-05 3.30872E-24
 -1       664 6.83091E-05 3.69162E-05 0.00000E+00
 -1       665 6.76391E-05 3.91554E-05-3.30872E-24
 -1       666 6.69639E-05 4.14086E-05 0.00000E+00
 -1       667 6.62888E-05 4.36617E-05 0.00000E+00
 -1       668 6.56192E-05 4.59004E-05-1.65436E-24
 -1       669 6.49603E-05 4.81105E-05 3.30872E-24
 -1       670 6.43176E-05 5.02778E-05-1.65436E-24
 -1       671 6.36963E-05 5.23880E-05 0.00000E+00
 -1       672 6.31018E-05 5.44266E-05-1.65436E-24
 -1       673 6.25395E-05 5.63794E-05-3.30872E-24
 -1       674 6.20138E-05 5.82314E-05-1.65436E-24
 -1       675 6.15315E-05 5.99685E-05 1.65436E-24
 -1       676 6.85805E-05 6.24431E-05 0.00000E+00
 -1       677 6.70708E-05 6.22675E-05 3.30872E-24
 -1       678 6.55650E-05 6.20919E-05 0.00000E+00
 -1       679 6.40649E-05 6.19172E-05 0.00000E+00
 -1       680 6.25723E-05 6.17424E-05 3.30872E-24
 -1       771 2.36533E-05-2.97475E-06-5.29396E-23
 -1       772 2.08653E-05 4.38381E-07-2.64698E-23
 -1       773 1.83793E-05 3.04890E-06-5.29396E-23
 -1       774 1.61663E-05 4.93343E-06 2.64698E-23
 -1       775 1.41976E-05 6.16944E-06-5.29396E-23
 -1       776 1.24433E-05 6.83585E-06 2.64698E-23
 -1       777 1.08733E-05 7.01230E-06 5.29396E-23
 -1       778 9.45703E-06 6.77936E-06 2.64698E-23
 -1       779 8.16403E-06 6.21813E-06-5.29396E-23
 -1       780 6.96352E-06 5.41037E-06 0.00000E+00
 -1       781 5.82477E-06 4.43815E-06 0.00000E+00
 -1       782 4.71702E-06 3.38391E-06-2.64698E-23
 -1       783 3.60954E-06 2.33017E-06-2.64698E-23
 -1       784 2.47243E-06 1.35964E-06-2.64698E-23
 -1       785 1.27554E-06 5.54832E-07 0.00000E+00
 -1       786 6.35260E-05 5.95517E-08 0.00000E+00
 -1       787 6.36313E-05 3.72131E-07 0.00000E+00
 -1       788 6.37364E-05 5.99918E-07 0.00000E+00
 -1       789 6.38425E-05 7.59257E-07-1.65436E-24
 -1       790 6.39487E-05 8.66407E-07 0.00000E+00
 -1       791 6.40551E-05 9.37579E-07 1.65436E-24
 -1       792 6.41616E-05 9.88937E-07 0.00000E+00
 -1       793 6.42681E-05 1.03663E-06 1.65436E-24
 -1       794 6.43746E-05 1.09680E-06 0.00000E+00
 -1       795 6.44810E-05 1.18560E-06 0.00000E+00
 -1       796 6.45875E-05 1.31921E-06 0.00000E+00
 -1       797 6.46939E-05 1.51388E-06 0.00000E+00
 -1       798 6.48002E-05 1.78591E-06 3.30872E-24
 -1       799 6.49061E-05 2.15167E-06 0.00000E+00
 -1       800 6.50120E-05 2.62767E-06 0.00000E+00
 -1       801 5.81635E-05-2.45802E-07 0.00000E+00
 -1       802 4.64539E-05-1.78011E-07 0.00000E+00
 -1       803 3.15403E-05-1.47192E-07-8.27181E-25
 -1       804 1.66651E-05-1.22333E-07-3.30872E-24
 -1       805 5.07058E-06-5.99590E-08 0.00000E+00
 -1       806 6.31571E-05 6.22688E-09 0.00000E+00
 -1       807 6.29036E-05 3.11953E-07-1.65436E-24
 -1       808 6.26657E-05 5.73306E-07 6.61744E-24
 -1       809 6.24403E-05 8.00222E-07 1.65436E-24
 -1       810 6.22239E-05 1.00261E-06 3.30872E-24
 -1       811 6.20129E-05 1.19035E-06 1.65436E-24
 -1       812 6.18036E-05 1.37331E-06-3.30872E-24
 -1       813 6.15925E-05 1.56137E-06-1.65436E-24
 -1       814 6.13757E-05 1.76439E-06 0.00000E+00
 -1       815 6.11496E-05 1.99223E-06-1.65436E-24
 -1       816 6.09105E-05 2.25476E-06 0.00000E+00
 -1       817 6.06547E-05 2.56182E-06 8.27181E-25
 -1       818 6.03786E-05 2.92328E-06 3.30872E-24
 -1       819 6.00785E-05 3.34891E-06 8.27181E-25
 -1       820 5.97511E-05 3.84852E-06 3.30872E-24
 -1       821 6.49869E-05 4.00808E-06 1.65436E-24
 -1       822 6.48507E-05 4.97450E-06-1.65436E-24
 -1       823 6.47144E-05 6.11039E-06 0.00000E+00
 -1       824 6.45769E-05 7.39603E-06 0.00000E+00
 -1       825 6.44389E-05 8.81159E-06 0.00000E+00
 -1       826 6.43007E-05 1.03370E-05 1.65436E-24
 -1       827 6.41622E-05 1.19519E-05-3.30872E-24
 -1       828 6.40236E-05 1.36362E-05 1.65436E-24
 -1       829 6.38848E-05 1.53693E-05 3.30872E-24
 -1       830 6.37461E-05 1.71306E-05-1.65436E-24
 -1       831 6.36074E-05 1.88997E-05-3.30872E-24
 -1       832 6.34690E-05 2.06560E-05 0.00000E+00
 -1       833 6.33307E-05 2.23790E-05-3.30872E-24
 -1       834 6.31936E-05 2.40481E-05 1.65436E-24
 -1       835 6.30565E-05 2.56429E-05 0.00000E+00
 -1       836 6.43006E-05 3.42794E-06 0.00000E+00
 -1       837 6.33315E-05 3.63185E-06 3.30872E-24
 -1       838 6.22820E-05 3.83547E-06 3.30872E-24
 -1       839 6.12265E-05 4.03833E-06 0.00000E+00
 -1       840 6.02392E-05 4.24111E-06 0.00000E+00
 -1       856 6.28193E-05 2.87212E-05-1.65436E-24
 -1       857 6.27055E-05 3.05240E-05 0.00000E+00
 -1       858 6.25913E-05 3.25202E-05 0.00000E+00
 -1       859 6.24759E-05 3.46781E-05-1.65436E-24
 -1       860 6.23601E-05 3.69659E-05 0.00000E+00
 -1       861 6.22440E-05 3.93518E-05-1.65436E-24
 -1       862 6.21276E-05 4.18038E-05 0.00000E+00
 -1       863 6.20111E-05 4.42900E-05 0.00000E+00
 -1       864 6.18946E-05 4.67782E-05-3.30872E-24
 -1       865 6.17782E-05 4.92366E-05 1.65436E-24
 -1       866 6.16619E-05 5.16332E-05-3.30872E-24
 -1       867 6.15460E-05 5.39359E-05 0.00000E+00
 -1       868 6.14303E-05 5.61130E-05 3.30872E-24
 -1       869 6.13154E-05 5.81327E-05 0.00000E+00
 -1       870 6.12008E-05 5.99631E-05 3.30872E-24
 -1       871 6.17356E-05 2.71281E-05 0.00000E+00
 -1       872 6.07088E-05 2.71111E-05 0.00000E+00
 -1       873 5.97812E-05 2.70936E-05 0.00000E+00
 -1       874 5.88866E-05 2.70756E-05 0.00000E+00
 -1       875 5.79588E-05 2.70567E-05 8.27181E-25
 -1       876 6.25314E-05 2.87569E-05-3.30872E-24
 -1       877 6.20800E-05 3.05411E-05-3.30872E-24
 -1       878 6.15736E-05 3.24717E-05 6.61744E-24
 -1       879 6.10212E-05 3.45271E-05-3.30872E-24
 -1       880 6.04301E-05 3.66856E-05 6.61744E-24
 -1       881 5.98084E-05 3.89256E-05 0.00000E+00
 -1       882 5.91640E-05 4.12257E-05 0.00000E+00
 -1       883 5.85052E-05 4.35645E-05 3.30872E-24
 -1       884 5.78397E-05 4.59206E-05 0.00000E+00
 -1       885 5.71757E-05 4.82728E-05 3.30872E-24
 -1       886 5.65211E-05 5.05997E-05 0.00000E+00
 -1       887 5.58839E-05 5.28799E-05 0.00000E+00
 -1       888 5.52722E-05 5.50921E-05 6.61744E-24
 -1       889 5.46930E-05 5.72145E-05 0.00000E+00
 -1       890 5.41554E-05 5.92258E-05-3.30872E-24
 -1       891 5.97820E-05 6.14948E-05 0.00000E+00
 -1       892 5.86395E-05 6.14157E-05-8.27181E-25
 -1       893 5.75591E-05 6.13366E-05-1.65436E-24
 -1       894 5.64374E-05 6.12576E-05-8.27181E-25
 -1       895 5.51713E-05 6.11785E-05 0.00000E+00
 -1       956 5.92441E-05 5.27342E-06-1.65436E-24
 -1       957 5.90912E-05 6.27559E-06 0.00000E+00
 -1       958 5.89376E-05 7.42091E-06-3.30872E-24
 -1       959 5.87835E-05 8.69125E-06 8.27181E-25
 -1       960 5.86292E-05 1.00684E-05 0.00000E+00
 -1       961 5.84747E-05 1.15342E-05-1.65436E-24
 -1       962 5.83201E-05 1.30702E-05 0.00000E+00
 -1       963 5.81654E-05 1.46582E-05 0.00000E+00
 -1       964 5.80106E-05 1.62798E-05 0.00000E+00
 -1       965 5.78558E-05 1.79166E-05 0.00000E+00
 -1       966 5.77011E-05 1.95504E-05 6.61744E-24
 -1       967 5.75464E-05 2.11628E-05 0.00000E+00
 -1       968 5.73919E-05 2.27356E-05 0.00000E+00
 -1       969 5.72376E-05 2.42503E-05 0.00000E+00
 -1       970 5.70839E-05 2.56889E-05 0.00000E+00
 -1       971 5.67328E-05 2.84217E-05 6.61744E-24
 -1       972 5.65287E-05 3.00453E-05-3.30872E-24
 -1       973 5.63242E-05 3.18759E-05 0.00000E+00
 -1       974 5.61188E-05 3.38841E-05 0.00000E+00
 -1       975 5.59130E-05 3.60409E-05 6.61744E-24
 -1       976 5.57069E-05 3.83165E-05 0.00000E+00
 -1       977 5.55005E-05 4.06817E-05 0.00000E+00
 -1       978 5.52940E-05 4.31067E-05-3.30872E-24
 -1       979 5.50874E-05 4.55618E-05 6.61744E-24
 -1       980 5.48809E-05 4.80174E-05 0.00000E+00
 -1       981 5.46745E-05 5.04437E-05 6.61744E-24
 -1       982 5.44684E-05 5.28112E-05-3.30872E-24
 -1       983 5.42627E-05 5.50901E-05-6.61744E-24
 -1       984 5.40582E-05 5.72510E-05 0.00000E+00
 -1       985 5.38543E-05 5.92643E-05 3.30872E-24
 -3
    1PSTEP                         2           1           1          
  100CL  101 1.000000000         388                     0    1           1
 -4  STRESS      6    1
 -5  SXX         1    4    1    1
 -5  SYY         1    4    2    2
 -5  SZZ         1    4    3    3
 -5  SXY         1    4    1    2
 -5  SYZ         1    4    2    3
 -5  SZX         1    4    3    1
 -1         1-5.63300E+06-2.35618E+06-1.36604E+06-2.58635E+06-6.83940E-10 1.57161E-09
 -1         2 2.91003E+03-1.82880E+05 9.24776E+03-2.99321E+02-3.56266E-10 9.41324E-09
 -1         3-6.34738E+01-1.40706E+06-3.53361E+01-7.18073E+02 2.20255E-10-5.49335E-10
 -1         5-3.81012E+01 5.75573E+05 1.82638E+01 1.80090E+00 2.85562E-10 4.46980E-08
 -1         8-3.83014E+06-1.66829E+06-7.39776E+05-2.14069E+06 3.63798E-10 8.11997E-09
 -1         9-3.56747E+06-1.29879E+06-6.66444E+05-1.10589E+06 8.50923E-09 8.29459E-10
 -1        10-2.13690E+02-1.40732E+06-1.78012E+03-4.14927E+03 5.23346E-09 8.55289E-09
 -1        12-3.07606E+01 5.75612E+05 5.93324E+02 1.16025E+01 4.69072E-10 1.82372E-08
 -1        16-5.03144E+06-1.60674E+06-7.29870E+05-1.66735E+06 7.76102E-11-9.45874E-10
 -1        17-7.56038E+05-6.18394E+05-1.08231E+05-5.10720E+05 3.58705E-09 4.38304E-09
 -1        18 4.69923E+04 1.52197E+04-1.71494E+04-1.23826E+05 5.01132E-10 2.81943E-11
 -1        19 1.61457E+05 2.00501E+05-2.24331E+02 1.41003E+04-9.30231E-10 8.98581E-10
 -1        20 1.13593E+05-1.60944E+05-2.90098E+04 8.13534E+04 5.11348E-09-2.96617E-09
 -1        21-1.56303E+02-5.00135E+05-2.24575E+03-6.27048E+02-1.97119E-10 1.09119E-09
 -1        24-3.53102E+06-1.24281E+06-3.77043E+05-1.59843E+06-6.98249E-09-4.71482E-09
 -1        25 1.17773E+04 7.43839E+04 3.38665E+04-5.16106E+05 9.13133E-10-7.08678E-10
 -1        26-2.29056E+04 1.57648E+05 7.11411E+02-3.68881E+04 8.59291E-10-4.22964E-09
 -1        27-3.39271E+04-9.62521E+04-4.32923E+04 1.02459E+05 3.92295E-10-3.35907E-10
 -1        28-9.80374E+03-1.48126E+05-3.25668E+03 5.96434E+04 5.33419E-09-4.39506E-09
 -1        32-1.17030E+06-1.03218E+05 3.15609E+05-1.60425E+06-9.33505E-09 8.89486E-10
 -1        33-1.68890E+05 1.56666E+05 4.83311E+04-5.32204E+04-2.14436E-09 4.82396E-09
 -1        34-3.22254E+05-4.92755E+04-1.30926E+04 9.76318E+04 8.31686E-10-2.33164E-09
 -1        35-4.17206E+04-4.32981E+04-6.42587E+02 9.44250E+04 5.78632E-09 2.20219E-09
 -1        51 3.25627E+04-6.47157E+05 5.88235E+04-1.74378E+06 2.91038E-10 1.60653E-08
 -1        52 2.23176E+04-6.52158E+05 4.08316E+04-1.93521E+06 6.11180E-10 4.07454E-09
 -1        53 2.11712E+04-6.76903E+05 3.85569E+04-1.73873E+06 6.40284E-10 2.02272E-08
 -1        54 4.99359E+04-6.77094E+05 6.65475E+04-1.94026E+06-6.69388E-10 1.64218E-08
 -1        55 1.00504E+05-7.01922E+05 1.24383E+05-1.73738E+06 4.07454E-10 5.83532E-09
 -1        56-1.04997E+07-1.12780E+06-9.24905E+05-4.09348E+06 5.82077E-10 2.50293E-09
 -1        57-1.09734E+07-1.95703E+06-6.37409E+05-3.94644E+06 4.03816E-09 8.40373E-09
 -1        58-1.06632E+07-1.47457E+06-2.16384E+05-4.05881E+06 2.62298E-09-1.30967E-10
 -1        59-1.07808E+07-1.55515E+06-1.33175E+05-3.98679E+06-2.40834E-09 1.04501E-08
 -1        60-1.06891E+07-1.52635E+06-5.03555E+04-4.05324E+06 6.14273E-09 9.88803E-09
 -1        61-1.07285E+07-1.51642E+06-2.95077E+04-4.01701E+06-7.04949E-09-1.47575E-08
 -1        62-1.07146E+07-1.51283E+06-1.39586E+04-4.02838E+06-4.76956E-09 4.03816E-10
 -1        63-1.06886E+07-1.54455E+06-1.19902E+04-4.05869E+06-1.19388E-09-3.36608E-09
 -1        64-1.07289E+07-1.49811E+06-1.36099E+04-4.01155E+06-2.54045E-09 6.45605E-09
 -1        65-1.06909E+07-1.55370E+06-2.87881E+04-4.05994E+06 1.05274E-09-4.93765E-09
 -1        66-1.07124E+07-1.50374E+06-4.90675E+04-4.02718E+06-1.08867E-09 2.71029E-10
 -1        67-1.07583E+07-1.57449E+06-1.29477E+05-4.01109E+06-7.18455E-09 1.52231E-08
 -1        68-1.06624E+07-1.47790E+06-2.10411E+05-4.06050E+06-2.65572E-10-3.06318E-09
 -1        69-1.09924E+07-1.91893E+06-6.19852E+05-3.91937E+06-6.46105E-09-5.10772E-09
 -1        70-1.04815E+07-1.16240E+06-8.99436E+05-4.11894E+06-1.55705E-09-5.23869E-10
 -1        86-1.45454E+03-1.85464E+05 9.95176E+03 1.49660E+02 5.91172E-12-1.72035E-09
 -1        87 9.60223E+03-1.79675E+05 2.07175E+04-5.74068E+02-1.08685E-10-6.50493E-09
 -1        88-8.13392E+03-1.88666E+05 3.17526E+04 4.24421E+02-2.21917E-10-1.04141E-08
 -1        89 6.01949E+04-1.56330E+05 8.56387E+04-1.02564E+03-3.91083E-11 1.57860E-09
 -1        90-5.19471E+04-2.08781E+05 1.20966E+05 6.01358E+02-3.92902E-10-3.14188E-09
 -1       121-8.95588E+01-1.40749E+06-1.12726E+02 3.58937E+02 7.38770E-10-3.79896E-09
 -1       122-6.01829E+01-1.40707E+06-9.65688E+01-1.42308E+03 1.71514E-09-6.48288E-09
 -1       123-8.42145E+01-1.40749E+06-2.59320E+02 1.06354E+03 2.39537E-09-4.29372E-09
 -1       124-6.36749E+01-1.40712E+06-4.21852E+02-2.81151E+03 3.67937E-09 4.60022E-09
 -1       125-6.12914E+01-1.40747E+06-8.88656E+02 1.74689E+03 3.67575E-09 6.91307E-09
 -1       191-4.05967E+01 5.75616E+05 2.05690E+01-9.11269E-01 4.23177E-10 1.50212E-08
 -1       192-3.98057E+01 5.75574E+05 3.87232E+01 4.75170E+00 6.19732E-10 1.08685E-09
 -1       193-4.51108E+01 5.75615E+05 7.07804E+01-3.90929E+00 6.67185E-10-4.00178E-10
 -1       194-4.52827E+01 5.75580E+05 1.46586E+02 1.03093E+01 3.17804E-10-4.46471E-09
 -1       195-5.37798E+01 5.75611E+05 2.85475E+02-6.55936E+00 1.06228E-09 6.46287E-09
 -1       271-7.42652E+06-9.25295E+05-5.89332E+05-2.89075E+06 3.41970E-10 4.94765E-10
 -1       272-7.68564E+06-1.29571E+06-3.77332E+05-2.83331E+06-1.25419E-09-8.29459E-10
 -1       273-7.53765E+06-1.06617E+06-1.38901E+05-2.86409E+06 5.21140E-10 6.19184E-09
 -1       274-7.55183E+06-1.12342E+06-7.73171E+04-2.87625E+06 1.96133E-09 6.62112E-09
 -1       275-7.55626E+06-1.07668E+06-3.23026E+04-2.85534E+06 3.88354E-10 5.83896E-09
 -1       276-7.52673E+06-1.11355E+06-1.71394E+04-2.89157E+06-2.33058E-09 1.26115E-08
 -1       277-7.56263E+06-1.07365E+06-8.65651E+03-2.84978E+06-5.78439E-10 3.35467E-09
 -1       278-7.51796E+06-1.11895E+06-6.59040E+03-2.90075E+06-2.77851E-10 3.00031E-09
 -1       279-7.56551E+06-1.07076E+06-7.61938E+03-2.84659E+06-3.12866E-10-5.01359E-10
 -1       280-7.51626E+06-1.12381E+06-1.44380E+04-2.90451E+06-9.04947E-11-7.45558E-10
 -1       281-7.56469E+06-1.06873E+06-2.66693E+04-2.84620E+06-1.01636E-09 9.25684E-09
 -1       282-7.52975E+06-1.13939E+06-6.39462E+04-2.90054E+06-1.21986E-10 1.23282E-08
 -1       283-7.55242E+06-1.05698E+06-1.14618E+05-2.84995E+06 5.33873E-10 4.17640E-09
 -1       284-7.63537E+06-1.28631E+06-3.11640E+05-2.87000E+06-1.18507E-09-1.38243E-09
 -1       285-7.46213E+06-9.39372E+05-4.86840E+05-2.87037E+06 4.36557E-11-5.52973E-10
 -1       301 5.88876E+04-2.76513E+04 1.70197E+05-3.19517E+04 6.18456E-10 7.07701E-10
 -1       302 2.19778E+04 7.35158E+03 1.14862E+05-3.94107E+04 7.48969E-10 9.34038E-10
 -1       303 4.90699E+03-1.57461E+04 1.06012E+05-3.20262E+04 4.42014E-10 4.86500E-09
 -1       304 4.10713E+04 2.18181E+04 1.74990E+05-3.93603E+04 8.89486E-10 8.34837E-09
 -1       305 1.15202E+05-4.19893E+04 3.13102E+05-3.18852E+04 8.00355E-10 7.07132E-11
 -1       306-3.43217E+06-4.40868E+05-2.09491E+05-1.32457E+06-2.13367E-09-8.83301E-09
 -1       307-3.48304E+06-6.12173E+05-1.33860E+05-1.35069E+06 2.78300E-09-1.20599E-09
 -1       308-3.47164E+06-4.90459E+05-4.94355E+04-1.31526E+06 1.26352E-09 7.18865E-09
 -1       309-3.43708E+06-5.50324E+05-2.75358E+04-1.36531E+06 6.78938E-10-8.84029E-10
 -1       310-3.47748E+06-4.94892E+05-1.15402E+04-1.31310E+06-6.68024E-10 8.73479E-09
 -1       311-3.43052E+06-5.44648E+05-6.25634E+03-1.36835E+06 3.61979E-10 6.28182E-09
 -1       312-3.47837E+06-4.95208E+05-3.33813E+03-1.31270E+06 1.17404E-09 1.66062E-09
 -1       313-3.43031E+06-5.43561E+05-2.95416E+03-1.36791E+06-3.79987E-09-6.33599E-09
 -1       314-3.47761E+06-4.95974E+05-3.95683E+03-1.31351E+06 1.87083E-09-6.35282E-10
 -1       315-3.43313E+06-5.42165E+05-7.86741E+03-1.36477E+06 1.94905E-09 3.50155E-09
 -1       316-3.47511E+06-4.96963E+05-1.49031E+04-1.31549E+06 2.83489E-09-1.04410E-09
 -1       317-3.44356E+06-5.47370E+05-3.54944E+04-1.35819E+06-1.87356E-09 2.88310E-10
 -1       318-3.46666E+06-4.92154E+05-6.39340E+04-1.31925E+06-1.21872E-09 6.25005E-09
 -1       319-3.50429E+06-6.25902E+05-1.72865E+05-1.33783E+06-3.08694E-09-4.13274E-09
 -1       320-3.41522E+06-4.28482E+05-2.70600E+05-1.33175E+06 5.49335E-10-4.65661E-10
 -1       336 9.06660E+01-1.40735E+06-3.42065E+03 2.40103E+03 5.10943E-09 7.71070E-09
 -1       337-1.82917E+03-1.40846E+06-7.54576E+03-5.40946E+03 6.46924E-09-3.03771E-09
 -1       338 1.39391E+03-1.40641E+06-1.34223E+04 3.00636E+03 6.91034E-09 3.25235E-09
 -1       339-1.73396E+04-1.41740E+06-3.35108E+04-6.63616E+03 7.74162E-09 6.27392E-09
 -1       340 1.33382E+04-1.39850E+06-5.16790E+04 3.61696E+03 8.28368E-09 6.76391E-09
 -1       406 1.33274E+01 5.75584E+05 1.16999E+03-5.28059E+00 1.34128E-09 2.99297E-08
 -1       407 3.77724E+02 5.75817E+05 2.48919E+03-9.43270E+00 2.29363E-10 1.83827E-08
 -1       408 1.24976E+03 5.75404E+05 4.96949E+03 1.57294E+01 1.54796E-09 1.25874E-08
 -1       409 5.34618E+03 5.77403E+05 1.11892E+04-1.92592E+02 1.54614E-11 2.39197E-10
 -1       410 1.54157E+04 5.73986E+05 2.28408E+04 1.98760E+02 1.58980E-09 2.07547E-09
 -1       521-7.56283E+06-9.50066E+05-4.96916E+05-2.90802E+06 2.14641E-09-4.80213E-09
 -1       522-7.74318E+06-1.30054E+06-3.18074E+05-2.90346E+06 6.68570E-09-2.11367E-09
 -1       523-7.65537E+06-1.06972E+06-1.16983E+05-2.88672E+06 4.59477E-09 4.95493E-09
 -1       524-7.63452E+06-1.15145E+06-6.52316E+04-2.93567E+06 3.84671E-09 3.85535E-09
 -1       525-7.66838E+06-1.08121E+06-2.71634E+04-2.88233E+06-1.12414E-09 3.79441E-09
 -1       526-7.61984E+06-1.13652E+06-1.46033E+04-2.94092E+06-3.00645E-10-6.37829E-09
 -1       527-7.66973E+06-1.08276E+06-7.50201E+03-2.88216E+06-6.69388E-10-6.88715E-10
 -1       528-7.62062E+06-1.13249E+06-6.13958E+03-2.93826E+06-1.71076E-09 1.82990E-09
 -1       529-7.66731E+06-1.08524E+06-7.63671E+03-2.88486E+06 1.94541E-09 8.55835E-10
 -1       530-7.62844E+06-1.12748E+06-1.48082E+04-2.92993E+06 2.84535E-09 4.91127E-09
 -1       531-7.66145E+06-1.08825E+06-2.77542E+04-2.89008E+06 1.97542E-09 7.07587E-10
 -1       532-7.65102E+06-1.13482E+06-6.63342E+04-2.91540E+06-5.80258E-10 5.96629E-10
 -1       533-7.64473E+06-1.08003E+06-1.19162E+05-2.89846E+06 1.77397E-09 1.84809E-09
 -1       534-7.76744E+06-1.28086E+06-3.23630E+05-2.87649E+06-1.01591E-09-9.28048E-09
 -1       535-7.54850E+06-9.60248E+05-5.05681E+05-2.92248E+06-1.54250E-09-3.89991E-09
 -1       536 2.00994E+02-2.07792E+04 7.77218E+04-1.25953E+04-1.84082E-09 4.66025E-09
 -1       537 3.06146E+04 2.56870E+04 5.06867E+04-6.19071E+04-1.08039E-08-7.02130E-10
 -1       538 1.20636E+04-2.52696E+03 2.00744E+04-1.24209E+04-2.65391E-09 3.01861E-09
 -1       539 1.64275E+04 2.47800E+03 1.14608E+04-6.20806E+04 2.28556E-09 1.90903E-09
 -1       540 1.34088E+04-4.09300E+02 5.02560E+03-1.24114E+04 3.13776E-10-3.88218E-09
 -1       541 1.42343E+04 2.14164E+02 2.71481E+03-6.20833E+04-1.78943E-09 2.16619E-09
 -1       542 1.35409E+04-7.81370E+01 1.20187E+03-1.24205E+04-1.99179E-10 5.71163E-10
 -1       543 1.36411E+04 9.26414E+01 5.70159E+02-6.20696E+04-4.94310E-10-2.08843E-09
 -1       544 1.35417E+04 1.56577E+01 1.17190E+02-1.24255E+04 1.03728E-09-7.34872E-10
 -1       545 1.34073E+04 8.92703E+01-2.56341E+02-6.20634E+04-1.70598E-09-4.51723E-09
 -1       546 1.35692E+04 6.77762E+01-7.18099E+02-1.24265E+04 7.28960E-10-2.54715E-09
 -1       547 1.31865E+04-3.15796E+02-1.74319E+03-6.20574E+04-1.91915E-09-3.27736E-09
 -1       548 1.38115E+04 3.38267E+02-3.16507E+03-1.24318E+04-1.76169E-09-3.75348E-09
 -1       549 1.13360E+04-4.07197E+03-7.90933E+03-6.19554E+04-4.58840E-10 5.20686E-10
 -1       550 1.57235E+04 3.06442E+03-1.22850E+04-1.25283E+04-2.09184E-10-5.50244E-11
 -1       551 2.04991E+04-5.30348E+05 4.22198E+04-8.26254E+05 2.31739E-09 2.77214E-09
 -1       552 1.88055E+04-5.26532E+05 4.40237E+04-1.01448E+06-2.11003E-10 1.01427E-08
 -1       553 1.43158E+04-5.33799E+05 6.33292E+04-8.24567E+05 2.29920E-09 2.50202E-09
 -1       554 4.64971E+04-5.07260E+05 1.29234E+05-1.01467E+06 4.36557E-10 3.51065E-09
 -1       555 1.01376E+05-5.52555E+05 2.44736E+05-8.25502E+05 1.80444E-09-2.07365E-09
 -1       556-1.92734E+05-1.79362E+05 4.28881E+04-2.91530E+05-2.95404E-09 5.70435E-09
 -1       557-1.50067E+05-2.19882E+05 2.17796E+04-3.24924E+05-4.36557E-11-4.53565E-09
 -1       558-1.93825E+05-1.89281E+05 8.95299E+03-2.85132E+05 3.39060E-09 2.38288E-10
 -1       559-1.56120E+05-2.25802E+05 4.48772E+03-3.27657E+05 1.25510E-08 1.65119E-09
 -1       560-1.95317E+05-1.88523E+05 1.90335E+03-2.85895E+05 1.11322E-09-8.88485E-09
 -1       561-1.58135E+05-2.25342E+05 9.67228E+02-3.29028E+05-1.77533E-09 8.27004E-09
 -1       562-1.96467E+05-1.87783E+05 3.47287E+02-2.86678E+05 9.45874E-10 3.05135E-09
 -1       563-1.59327E+05-2.24831E+05 1.09081E+02-3.29840E+05 3.99632E-09 6.99174E-09
 -1       564-1.97146E+05-1.87352E+05-1.77614E+02-2.87141E+05 3.81624E-09-3.17959E-09
 -1       565-1.59923E+05-2.24584E+05-5.35533E+02-3.30228E+05-2.26828E-09-4.13638E-09
 -1       566-1.97313E+05-1.87205E+05-1.22767E+03-2.87277E+05 3.64253E-10 3.07409E-10
 -1       567-1.60117E+05-2.24683E+05-2.74445E+03-3.30180E+05-1.77442E-09-6.08452E-10
 -1       568-1.96840E+05-1.87606E+05-5.68813E+03-2.86988E+05-2.23372E-09 6.69388E-10
 -1       569-1.63012E+05-2.27742E+05-1.33958E+04-3.28885E+05-3.87809E-09-2.02817E-09
 -1       570-1.94264E+05-1.95996E+05-2.67730E+04-2.83320E+05-8.36735E-10-2.59206E-10
 -1       571 3.69587E+05 1.61482E+04 2.39926E+04-9.43823E+04 2.73758E-10 9.83619E-10
 -1       572 3.73150E+05 5.59646E+03 1.17565E+04-1.03469E+05-6.73026E-10 2.48474E-09
 -1       573 3.70982E+05 1.31717E+03 5.22280E+03-9.41343E+04 4.06544E-10-3.98541E-09
 -1       574 3.71400E+05 4.19548E+02 2.61752E+03-1.03737E+05 4.82942E-10-2.94767E-09
 -1       575 3.71120E+05 4.81189E+01 1.23310E+03-9.41027E+04 7.13953E-10 1.79352E-09
 -1       576 3.71154E+05 7.01895E+00 6.26840E+02-1.03773E+05 7.27596E-11 2.02181E-09
 -1       577 3.71143E+05-1.99029E+01 3.05921E+02-9.40985E+04-9.34506E-11 3.74712E-09
 -1       578 3.71142E+05-1.98425E+01 1.61378E+02-1.03777E+05-1.12459E-09-2.73212E-09
 -1       579 3.71190E+05-3.61732E+01 8.71477E+01-9.40980E+04-1.32422E-09 2.72848E-11
 -1       580 3.71209E+05-5.29630E+01 6.35895E+01-1.03773E+05-1.22964E-09 1.64346E-09
 -1       581 3.71279E+05-8.11136E+01 6.33288E+01-9.41029E+04-9.67702E-10 3.00770E-09
 -1       582 3.71338E+05-1.01320E+02 1.07881E+02-1.03718E+05 2.05546E-10-9.22228E-10
 -1       583 3.71405E+05-1.09378E+02 1.90663E+02-9.41527E+04 6.80302E-10-1.42427E-09
 -1       584 3.71570E+05 7.50031E+00 4.28875E+02-1.03294E+05-3.45244E-09-3.01884E-09
 -1       585 3.71510E+05 3.60567E+02 8.56645E+02-9.45272E+04 8.18545E-11 3.27418E-11
 -1       586 1.98835E+03 1.72395E+05 3.82822E+03-2.34459E+05 2.01726E-09 3.20597E-09
 -1       587 1.37757E+03 1.72978E+05 4.43320E+03-2.60834E+05 1.24055E-09 2.89538E-09
 -1       588 1.83983E+03 1.72140E+05 7.07298E+03-2.34151E+05 2.32649E-09-1.59525E-09
 -1       589 6.81376E+03 1.74935E+05 1.50211E+04-2.60902E+05 1.56979E-09 2.06819E-09
 -1       590 1.92275E+04 1.70290E+05 3.00817E+04-2.34382E+05 2.35377E-09 1.94814E-09
 -1       591-1.86011E+05-5.48692E+04-3.65817E+04-8.90199E+04-5.26143E-10 1.00044E-10
 -1       592-1.88393E+05-5.32275E+04-1.83989E+04-9.88660E+04 2.32217E-09 9.23865E-09
 -1       593-1.87856E+05-4.45587E+04-7.80983E+03-9.41800E+04 7.53516E-10-4.37103E-09
 -1       594-1.84239E+05-4.86609E+04-3.83649E+03-9.92122E+04 2.44154E-09-3.43786E-09
 -1       595-1.88061E+05-4.42850E+04-1.77077E+03-9.43769E+04 7.74116E-09-4.95913E-09
 -1       596-1.83957E+05-4.85006E+04-8.95594E+02-9.91724E+04 9.89701E-09-1.69439E-08
 -1       597-1.88096E+05-4.43158E+04-4.83205E+02-9.43773E+04 8.62109E-09-1.50158E-09
 -1       598-1.83926E+05-4.85028E+04-3.78143E+02-9.91581E+04 1.77511E-09-1.79307E-09
 -1       599-1.88090E+05-4.43196E+04-4.70286E+02-9.43742E+04 1.58866E-09-1.25965E-10
 -1       600-1.83946E+05-4.85054E+04-8.61241E+02-9.91617E+04 6.28916E-10 9.77707E-11
 -1       601-1.88046E+05-4.42965E+04-1.69661E+03-9.43679E+04-2.84308E-09-1.38034E-08
 -1       602-1.84208E+05-4.86591E+04-3.67206E+03-9.91857E+04 4.62023E-10-1.47702E-09
 -1       603-1.87836E+05-4.45695E+04-7.47375E+03-9.41778E+04-5.35692E-10-4.76939E-09
 -1       604-1.88215E+05-5.29855E+04-1.76020E+04-9.87926E+04 7.83984E-10-3.62525E-09
 -1       605-1.86020E+05-5.44733E+04-3.49973E+04-8.92796E+04 3.70801E-09 5.89716E-09
 -1       606 1.33565E+05-1.55326E+04-2.46656E+04 4.48777E+04-8.10905E-09 6.50107E-09
 -1       607 1.29630E+05-5.19414E+03-1.21466E+04 4.92936E+04-6.48470E-10-5.85715E-09
 -1       608 1.31878E+05-1.07767E+03-5.41580E+03 4.45631E+04-2.39925E-09 2.88924E-09
 -1       609 1.31357E+05-2.71102E+02-2.71840E+03 4.96361E+04-1.94777E-08 7.41011E-09
 -1       610 1.31623E+05 4.82320E+01-1.28871E+03 4.45242E+04-1.37825E-08 7.19228E-09
 -1       611 1.31503E+05 1.08744E+02-6.47404E+02 4.96771E+04-1.47775E-08 3.93402E-09
 -1       612 1.31539E+05 1.19430E+02-3.07951E+02 4.45202E+04 1.78989E-09 3.55703E-09
 -1       613 1.31480E+05 1.43106E+02-1.37638E+02 4.96814E+04 9.47693E-09-2.68483E-09
 -1       614 1.31488E+05 1.32555E+02-3.37343E+01 4.45194E+04 5.66342E-09-1.26693E-09
 -1       615 1.31447E+05 1.61273E+02 5.60690E+01 4.96813E+04 5.85851E-09-1.87538E-09
 -1       616 1.31449E+05 1.53186E+02 1.69279E+02 4.45201E+04-6.08361E-09-6.46651E-10
 -1       617 1.31450E+05 2.26237E+02 3.90562E+02 4.96792E+04-1.82490E-09-2.34331E-09
 -1       618 1.31400E+05 3.24745E+02 7.91322E+02 4.45208E+04 5.89353E-10 4.12092E-09
 -1       619 1.31699E+05 9.54097E+02 1.78502E+03 4.96713E+04 1.55660E-09 1.08730E-09
 -1       620 1.31151E+05 2.45398E+03 3.62700E+03 4.45221E+04 1.21895E-09-2.57523E-09
 -1       621 1.44936E+03 3.99366E+05 4.95915E+03-3.21337E+04 4.88637E-09-7.45217E-10
 -1       622 6.65808E+02 4.00366E+05 4.99915E+03-3.94797E+04 1.49157E-09-4.23768E-09
 -1       623 3.71629E+02 3.99519E+05 7.14128E+03-3.21313E+04 4.83897E-09 4.62796E-09
 -1       624 3.68482E+03 4.02674E+05 1.45272E+04-3.93736E+04 1.71349E-09 2.16733E-09
 -1       625 1.03458E+04 3.97099E+05 2.75710E+04-3.22333E+04 4.56384E-09-3.40196E-09
 -1       626 2.49979E+05 8.06160E+04-3.11212E+03 1.57146E+05-8.77480E-09 2.16460E-10
 -1       627 2.44682E+05 8.65742E+04-1.47850E+03 1.62116E+05-6.44650E-09-1.72804E-10
 -1       628 2.50124E+05 8.19323E+04-6.24131E+02 1.56179E+05 7.85440E-09 2.12412E-08
 -1       629 2.44648E+05 8.74011E+04-2.93196E+02 1.62241E+05 8.67840E-09-7.85479E-09
 -1       630 2.50074E+05 8.20385E+04-1.24187E+02 1.56063E+05-1.06775E-09-3.62456E-09
 -1       631 2.44582E+05 8.74852E+04-3.86644E+01 1.62225E+05-3.92174E-09 1.61776E-10
 -1       632 2.50024E+05 8.20598E+04 2.51898E+01 1.56029E+05 9.80253E-09-3.68095E-09
 -1       633 2.44547E+05 8.75026E+04 1.04771E+02 1.62205E+05 2.62157E-08-1.46852E-08
 -1       634 2.49989E+05 8.20609E+04 2.36827E+02 1.56014E+05 1.74491E-08-5.54792E-10
 -1       635 2.44558E+05 8.75118E+04 5.23883E+02 1.62201E+05 9.76888E-09-7.14408E-10
 -1       636 2.49961E+05 8.20765E+04 1.07984E+03 1.55998E+05-1.26920E-09-1.30576E-08
 -1       637 2.44805E+05 8.77633E+04 2.40056E+03 1.62171E+05 2.16230E-08-4.13820E-09
 -1       638 2.49901E+05 8.28414E+04 4.96152E+03 1.55661E+05 8.49604E-09-5.83168E-09
 -1       639 2.47356E+05 9.19467E+04 1.17857E+04 1.61196E+05-1.53923E-08 2.17933E-08
 -1       640 2.49921E+05 9.50689E+04 2.47465E+04 1.50540E+05-1.73718E-08-6.86396E-09
 -1       656 1.67471E+04-5.96097E+05-6.73931E+04 1.45506E+04-1.27366E-08 3.20779E-09
 -1       657-2.40325E+04-6.21307E+05-5.03285E+04 6.87008E+04-1.43045E-08-5.48425E-10
 -1       658 3.55320E+03-6.04803E+05-3.25703E+04 1.43383E+04-9.57289E-09-5.36375E-10
 -1       659-2.36865E+04-6.21213E+05-4.97947E+04 6.88445E+04-1.22709E-08-7.71188E-09
 -1       660 1.65229E+04-5.96298E+05-6.63689E+04 1.44088E+04-9.50240E-09 1.59162E-10
 -1       661 3.71124E+05 5.13368E+04 2.94825E+04 1.46027E+05 3.62570E-09-4.96948E-09
 -1       662 3.77420E+05 6.93754E+04 1.78730E+04 1.50441E+05-4.36113E-09-2.12549E-09
 -1       663 3.75730E+05 5.60856E+04 6.92909E+03 1.45944E+05 2.32461E-10 3.47609E-09
 -1       664 3.72052E+05 6.20313E+04 3.67637E+03 1.51320E+05-5.62218E-09 3.43834E-09
 -1       665 3.76180E+05 5.65301E+04 1.61978E+03 1.45955E+05 5.48627E-09 6.15773E-09
 -1       666 3.71528E+05 6.13969E+04 8.64406E+02 1.51360E+05 3.13046E-10 4.13493E-09
 -1       667 3.76231E+05 5.65735E+04 5.01622E+02 1.45958E+05 6.47734E-09-1.27193E-09
 -1       668 3.71478E+05 6.13560E+04 4.81655E+02 1.51368E+05-6.43169E-09 9.96056E-09
 -1       669 3.76232E+05 5.65623E+04 7.00499E+02 1.45952E+05-1.20247E-09 7.75913E-09
 -1       670 3.71564E+05 6.14606E+04 1.40455E+03 1.51394E+05-7.23514E-09 9.75541E-09
 -1       671 3.76156E+05 5.64724E+04 2.73914E+03 1.45935E+05-1.67674E-08-3.23689E-09
 -1       672 3.72453E+05 6.25673E+04 6.28491E+03 1.51354E+05 3.68573E-09-1.07699E-08
 -1       673 3.75392E+05 5.56997E+04 1.18671E+04 1.45907E+05 4.49290E-10-2.57114E-09
 -1       674 3.81649E+05 7.51698E+04 3.06351E+04 1.49864E+05-2.82541E-09-7.91624E-09
 -1       675 3.67501E+05 4.75547E+04 5.05368E+04 1.46045E+05-3.64389E-09-1.81353E-09
 -1       676 7.66490E+01-4.99898E+05-2.68516E+03 3.13528E+02-6.95508E-09-2.77020E-09
 -1       677-8.87070E+02-5.00649E+05-4.97464E+03-6.25827E+02-9.34335E-10-6.23146E-10
 -1       678 6.48426E+02-4.99385E+05-8.66330E+03 3.12076E+02-6.31007E-09-9.12613E-09
 -1       679-9.64344E+03-5.06052E+05-2.09168E+04-6.22865E+02 1.34105E-09-4.68087E-09
 -1       680 6.63991E+03-4.94500E+05-3.30351E+04 3.07470E+02-2.10457E-09-3.13088E-09
 -1       771-3.17178E+06-6.07176E+05-8.34468E+04-1.35587E+06-3.48882E-09 4.93310E-09
 -1       772-3.15881E+06-6.20454E+05-4.17972E+04-1.39801E+06 4.17640E-09 2.59024E-09
 -1       773-3.17820E+06-5.82184E+05-1.79724E+04-1.36726E+06 1.29512E-09-4.11092E-10
 -1       774-3.14973E+06-6.10899E+05-8.74464E+03-1.40156E+06 2.31012E-09-1.73259E-09
 -1       775-3.18018E+06-5.80525E+05-4.17302E+03-1.36820E+06-1.46247E-09-5.16593E-10
 -1       776-3.15000E+06-6.10418E+05-2.05845E+03-1.40296E+06-1.39698E-09 2.62025E-09
 -1       777-3.18142E+06-5.79840E+05-1.17914E+03-1.36865E+06 2.61934E-10-1.11868E-10
 -1       778-3.15066E+06-6.10261E+05-8.65091E+02-1.40396E+06 4.78394E-10 8.87439E-10
 -1       779-3.18220E+06-5.79329E+05-1.10844E+03-1.36897E+06 7.09406E-10 5.79348E-10
 -1       780-3.15119E+06-6.10163E+05-1.98435E+03-1.40462E+06 3.67436E-10 6.53017E-10
 -1       781-3.18253E+06-5.78996E+05-3.94134E+03-1.36912E+06 1.11140E-09 6.69388E-10
 -1       782-3.15200E+06-6.10473E+05-8.54946E+03-1.40491E+06-2.04000E-09-2.67391E-09
 -1       783-3.18208E+06-5.79612E+05-1.74507E+04-1.36872E+06-1.44360E-09-5.76620E-10
 -1       784-3.16140E+06-6.20536E+05-4.11823E+04-1.40374E+06 1.03637E-09 1.90630E-09
 -1       785-3.17748E+06-6.03049E+05-8.19658E+04-1.35729E+06-5.74801E-10-1.28784E-09
 -1       786 2.98236E+05-9.76788E+03 3.77215E+04-1.81260E+03 7.47832E-10-6.45559E-09
 -1       787 3.12192E+05 1.26732E+04 2.44797E+04-9.32579E+03-9.81800E-10-1.35478E-08
 -1       788 3.04018E+05-1.06326E+03 9.78932E+03-1.82071E+03-1.36424E-10 2.68710E-09
 -1       789 3.05709E+05 1.33597E+03 5.53265E+03-9.30076E+03 1.02341E-09 2.88765E-09
 -1       790 3.04709E+05-1.19190E+02 2.49080E+03-1.83680E+03-4.27860E-10-4.51337E-10
 -1       791 3.04923E+05 1.39273E+02 1.34609E+03-9.27833E+03-6.73282E-10 1.44277E-09
 -1       792 3.04799E+05-1.48083E+01 6.84272E+02-1.84314E+03 6.19771E-10-2.20587E-09
 -1       793 3.04823E+05 1.91686E+01 4.54207E+02-9.27617E+03-5.40439E-11-4.18714E-09
 -1       794 3.04808E+05-8.21041E+00 4.14393E+02-1.83897E+03 7.68523E-11-3.11964E-09
 -1       795 3.04855E+05 5.74920E+01 6.30480E+02-9.29544E+03-1.13232E-10 3.92064E-09
 -1       796 3.04773E+05-5.20505E+01 1.07716E+03-1.82387E+03-1.70644E-10-7.72724E-09
 -1       797 3.05189E+05 5.56626E+02 2.34040E+03-9.33383E+03-2.03971E-09-1.60560E-09
 -1       798 3.04484E+05-4.50396E+02 4.11804E+03-1.80058E+03-2.60684E-09 1.13619E-09
 -1       799 3.07921E+05 5.31566E+03 1.02870E+04-9.36940E+03-6.14625E-09-1.55944E-09
 -1       800 3.02056E+05-4.11000E+03 1.58416E+04-1.78877E+03-2.75804E-09-3.74712E-10
 -1       801-2.56600E+04 4.00362E+05 4.88467E+04-3.79530E+05-1.64437E-09-9.45874E-10
 -1       802 7.28984E+04 4.07062E+05 7.60444E+04-1.86983E+06 1.87501E-08-3.88354E-09
 -1       803 2.85746E+03 3.92240E+05 9.08921E+04-3.79100E+05 5.44969E-09 8.70659E-09
 -1       804 1.49618E+05 4.52250E+05 2.06454E+05-1.86951E+06 1.03755E-08-7.18137E-09
 -1       805-9.17617E+04 3.56635E+05 2.92224E+05-3.79911E+05 7.14499E-09 5.00586E-09
 -1       806-2.80474E+05-8.49165E+04-2.45401E+04-1.43121E+05 8.44807E-10-6.35919E-09
 -1       807-2.79504E+05-8.02471E+04-1.16841E+04-1.51944E+05 1.14414E-09 2.37469E-09
 -1       808-2.80494E+05-7.27826E+04-4.91958E+03-1.48240E+05 3.62525E-09 9.67361E-09
 -1       809-2.77041E+05-7.60598E+04-2.37973E+03-1.52917E+05-5.87988E-10-3.85398E-10
 -1       810-2.80577E+05-7.20108E+04-1.07547E+03-1.48591E+05 9.33869E-09-4.86807E-09
 -1       811-2.76813E+05-7.58032E+04-5.31259E+02-1.52955E+05 1.49944E-08-9.79071E-09
 -1       812-2.80601E+05-7.19959E+04-2.62674E+02-1.48605E+05 1.45830E-08 7.99992E-09
 -1       813-2.76784E+05-7.58011E+04-1.64377E+02-1.52945E+05 1.69985E-09-3.02271E-09
 -1       814-2.80596E+05-7.20065E+04-1.51962E+02-1.48599E+05 9.19385E-09-2.03636E-09
 -1       815-2.76780E+05-7.58109E+04-2.37151E+02-1.52934E+05 1.11315E-08-2.68228E-08
 -1       816-2.80567E+05-7.20252E+04-4.44894E+02-1.48583E+05 8.22638E-09-2.24281E-09
 -1       817-2.76864E+05-7.59108E+04-9.66295E+02-1.52887E+05 1.97906E-09 6.10180E-09
 -1       818-2.80500E+05-7.23630E+04-1.99096E+03-1.48441E+05-1.32513E-09-9.44783E-09
 -1       819-2.77945E+05-7.74958E+04-4.72066E+03-1.52342E+05-2.67391E-10-4.10000E-09
 -1       820-2.80358E+05-7.73722E+04-9.91461E+03-1.46475E+05-3.14685E-10-1.68711E-10
 -1       821-3.84425E+05 1.23609E+04-4.77788E+04 1.92779E+03-3.90264E-09-5.49335E-10
 -1       822-4.02061E+05-1.60517E+04-3.10045E+04 1.08074E+04-2.44745E-09-4.03361E-09
 -1       823-3.91752E+05 1.33975E+03-1.24065E+04 1.81995E+03 5.27734E-09-4.45971E-09
 -1       824-3.93887E+05-1.67326E+03-7.01508E+03 1.09717E+04-2.26066E-09 5.58430E-10
 -1       825-3.92628E+05 1.51014E+02-3.17931E+03 1.76221E+03-7.78959E-09 1.79057E-09
 -1       826-3.92918E+05-1.47328E+02-1.75166E+03 1.10676E+04-1.51385E-08-8.16982E-10
 -1       827-3.92744E+05 2.42903E+01-9.62867E+02 1.72372E+03-7.84246E-09 5.90489E-10
 -1       828-3.92815E+05 2.04638E+00-7.73816E+02 1.11274E+04-8.76389E-09 8.17892E-09
 -1       829-3.92746E+05 2.50293E+01-9.11376E+02 1.70225E+03 8.29630E-10-4.28894E-09
 -1       830-3.92922E+05-1.25194E+02-1.61801E+03 1.11521E+04 7.85132E-09-7.44842E-09
 -1       831-3.92643E+05 1.44306E+02-2.91146E+03 1.69910E+03-3.52233E-09-3.80999E-09
 -1       832-3.93822E+05-1.51361E+03-6.41711E+03 1.11403E+04-5.36204E-10-9.19499E-10
 -1       833-3.91844E+05 1.23439E+03-1.13377E+04 1.71432E+03-2.21007E-09 2.16914E-09
 -1       834-4.01309E+05-1.46514E+04-2.83415E+04 1.10799E+04-2.25668E-11-1.48375E-08
 -1       835-3.85149E+05 1.13119E+04-4.36656E+04 1.76214E+03 1.48771E-09-3.38514E-09
 -1       836-3.47867E+03 5.84206E+05 4.70655E+04-3.65882E+04-4.38195E-09 4.90900E-09
 -1       837 1.06716E+04 5.98954E+05 3.60098E+04-7.59248E+04-8.08802E-09 2.99269E-09
 -1       838-8.49216E+02 5.89118E+05 3.08773E+04-3.64990E+04-5.50790E-09 1.85128E-09
 -1       839 1.80139E+04 6.04340E+05 5.30529E+04-7.59248E+04-7.57791E-09-1.12395E-08
 -1       840-6.33226E+03 5.78806E+05 8.16014E+04-3.65853E+04-4.96220E-09-1.21054E-09
 -1       856-3.18747E+05 5.38580E+03-3.82900E+04 1.02450E+04-6.97673E-09 2.89583E-09
 -1       857-3.31442E+05-9.56080E+03-2.35359E+04 2.63361E+04-7.27005E-09-3.78532E-09
 -1       858-3.24222E+05 5.08753E+02-9.84936E+03 1.01074E+04-7.66659E-09-1.34332E-09
 -1       859-3.25531E+05-6.51247E+02-5.31995E+03 2.65028E+04-3.39696E-10 3.75690E-09
 -1       860-3.24764E+05 9.29809E+01-2.48877E+03 1.00735E+04-3.50155E-11 2.71029E-10
 -1       861-3.24981E+05 6.49031E+01-1.31054E+03 2.65497E+04-1.18270E-08-2.93835E-09
 -1       862-3.24836E+05 5.72882E+01-6.83126E+02 1.00597E+04 8.36553E-09 3.49814E-10
 -1       863-3.24925E+05 1.23048E+02-4.52502E+02 2.65640E+04 2.18985E-08-4.60034E-09
 -1       864-3.24843E+05 5.40748E+01-4.26633E+02 1.00591E+04 1.59700E-08-4.94560E-09
 -1       865-3.24934E+05 9.74956E+01-6.45522E+02 2.65507E+04 1.88953E-08-3.60274E-09
 -1       866-3.24808E+05 6.45021E+01-1.14027E+03 1.00730E+04 5.95264E-10 5.52859E-10
 -1       867-3.25157E+05-2.30424E+02-2.38500E+03 2.65062E+04-5.08408E-10 7.95382E-11
 -1       868-3.24558E+05 2.40005E+02-4.39966E+03 1.01041E+04 9.00491E-09 1.88129E-09
 -1       869-3.27756E+05-4.21360E+03-1.04888E+04 2.63414E+04 2.54886E-10 8.64020E-10
 -1       870-3.22106E+05 2.39737E+03-1.70715E+04 1.02403E+04 5.59157E-09 2.48201E-09
 -1       871-5.64930E+03-4.70416E+04-1.26832E+04 1.65933E+05-8.04721E-09-2.64299E-09
 -1       872-2.11755E+03-4.96370E+04-4.15910E+03 2.03510E+05-1.98816E-09-4.93492E-09
 -1       873-1.69341E+02-4.86917E+04 2.86427E+03 1.65592E+05-7.06768E-09-7.75344E-10
 -1       874 3.06641E+03-4.58505E+04 1.19954E+04 2.03624E+05-3.51884E-09 6.30587E-09
 -1       875 9.55020E+03-5.10756E+04 2.56648E+04 1.65845E+05-5.86078E-09 5.05679E-10
 -1       876 4.73035E+05 6.96471E+04 4.16201E+04 1.89077E+05-3.93970E-09-5.35874E-09
 -1       877 4.80051E+05 9.22090E+04 2.45777E+04 1.97217E+05-3.93288E-09 2.42653E-09
 -1       878 4.79060E+05 7.43468E+04 9.72065E+03 1.89591E+05 7.62248E-09 2.81261E-09
 -1       879 4.72890E+05 8.30346E+04 5.05566E+03 1.98131E+05 1.63409E-08 2.42017E-09
 -1       880 4.79574E+05 7.47853E+04 2.25501E+03 1.89661E+05-1.91903E-09-3.10456E-09
 -1       881 4.72268E+05 8.23238E+04 1.17785E+03 1.98108E+05 9.00491E-09 3.69391E-09
 -1       882 4.79617E+05 7.48463E+04 6.59954E+02 1.89679E+05-4.41105E-11 5.83634E-09
 -1       883 4.72219E+05 8.22636E+04 5.82140E+02 1.98079E+05-1.39380E-08-7.00510E-09
 -1       884 4.79608E+05 7.48492E+04 8.00462E+02 1.89681E+05-1.09968E-08-4.93742E-10
 -1       885 4.72307E+05 8.23316E+04 1.55370E+03 1.98090E+05 1.22100E-08 9.80151E-10
 -1       886 4.79531E+05 7.47822E+04 3.04484E+03 1.89667E+05-4.46789E-09-6.20184E-09
 -1       887 4.73165E+05 8.32790E+04 6.86085E+03 1.98086E+05-1.86759E-08-7.49424E-09
 -1       888 4.78810E+05 7.42033E+04 1.32095E+04 1.89580E+05-1.28221E-08-1.58434E-09
 -1       889 4.82880E+05 9.57575E+04 3.34016E+04 1.96837E+05 2.37014E-09-4.50200E-09
 -1       890 4.70631E+05 6.78072E+04 5.65719E+04 1.88856E+05 7.17046E-09 1.08048E-09
 -1       891 4.97048E+02-2.24311E+05-8.55638E+03 5.02237E+04-5.97493E-09 4.92855E-09
 -1       892-2.12703E+03-2.26891E+05-6.43542E+03 1.04835E+05-1.28416E-08-3.66720E-09
 -1       893 5.42924E+01-2.25265E+05-5.37918E+03 5.00888E+04-1.24969E-08-3.65617E-09
 -1       894-3.29301E+03-2.27665E+05-9.07964E+03 1.04782E+05-7.04313E-09 8.29732E-09
 -1       895 8.91611E+02-2.23422E+05-1.39259E+04 5.02754E+04-9.96624E-09 1.57888E-09
 -1       956-4.37170E+05-7.97275E+03-1.90543E+04 5.12962E+04-6.59929E-09 1.85537E-09
 -1       957-4.40883E+05-2.59076E+03-9.73057E+03 6.11763E+04-2.51839E-09-1.67256E-09
 -1       958-4.38891E+05-1.98362E+02-4.38666E+03 5.09749E+04 5.26779E-09-7.34781E-09
 -1       959-4.39237E+05 3.94684E+01-2.23461E+03 6.15262E+04-3.61615E-09 8.96307E-10
 -1       960-4.39102E+05 1.38887E+02-1.08777E+03 5.09411E+04-6.95582E-09 4.31510E-09
 -1       961-4.39167E+05 1.74258E+02-5.69330E+02 6.15652E+04-1.53309E-08 4.01269E-09
 -1       962-4.39172E+05 1.57467E+02-3.14895E+02 5.09349E+04-4.78303E-09-4.04771E-09
 -1       963-4.39196E+05 1.95581E+02-2.31516E+02 6.15734E+04-6.64772E-09 2.13822E-09
 -1       964-4.39198E+05 1.71348E+02-2.56716E+02 5.09325E+04-8.13543E-10-1.57343E-10
 -1       965-4.39221E+05 2.05288E+02-4.23264E+02 6.15739E+04 1.06454E-08-6.04496E-09
 -1       966-4.39184E+05 1.79977E+02-7.84573E+02 5.09343E+04-1.17279E-09-3.07864E-10
 -1       967-4.39308E+05 1.29417E+02-1.60450E+03 6.15526E+04-6.42331E-10 2.17869E-09
 -1       968-4.39060E+05-4.43901E+01-3.14270E+03 5.09544E+04-2.62116E-09 1.82854E-09
 -1       969-4.40517E+05-1.74305E+03-6.97682E+03 6.13351E+04 1.93268E-10-3.15924E-09
 -1       970-4.37842E+05-5.61246E+03-1.36589E+04 5.11603E+04 1.98997E-09-3.41606E-09
 -1       971-5.78726E+05 2.06627E+03-2.60534E+04 1.32447E+04-8.45102E-09-4.57476E-10
 -1       972-5.86843E+05-5.57846E+03-1.56005E+04 2.83904E+04-3.42152E-09 7.73070E-09
 -1       973-5.82312E+05 2.16139E+02-6.66158E+03 1.30479E+04-1.14042E-08-6.27551E-11
 -1       974-5.83059E+05-2.76505E+02-3.55192E+03 2.86362E+04-7.93807E-09 1.49998E-09
 -1       975-5.82646E+05 7.16152E+01-1.71155E+03 1.29952E+04-3.91310E-09 1.40813E-09
 -1       976-5.82767E+05 1.01532E+02-9.46479E+02 2.87149E+04-9.47512E-09-1.68313E-09
 -1       977-5.82698E+05 6.66386E+01-5.99908E+02 1.29685E+04 1.39023E-08-1.41767E-10
 -1       978-5.82763E+05 1.34547E+02-5.89959E+02 2.87504E+04 2.83455E-08-3.03294E-09
 -1       979-5.82698E+05 7.50600E+01-8.50703E+02 1.29594E+04 1.30126E-08-3.67828E-09
 -1       980-5.82835E+05 9.51740E+01-1.59608E+03 2.87501E+04 1.52578E-08 2.87355E-09
 -1       981-5.82627E+05 1.08744E+02-3.03488E+03 1.29688E+04 1.97792E-09 3.10163E-09
 -1       982-5.83435E+05-5.57160E+02-6.40461E+03 2.87099E+04-9.05379E-09 2.45166E-10
 -1       983-5.82053E+05 4.01619E+02-1.20376E+04 1.30006E+04 4.06226E-09-8.96762E-10
 -1       984-5.90381E+05-1.01246E+04-2.82537E+04 2.85366E+04-8.01083E-09-2.26282E-09
 -1       985-5.75594E+05 3.79371E+03-4.71618E+04 1.31516E+04 5.55156E-09-6.33008E-10
 -3
 9999
