    1C
    1UUSER                                                              
    1UDATE              11.october.2022                                 
    1UTIME              19:15:41                                        
    1UHOST                                                              
    1UPGM               CalculiX                                        
    1UVERSION           Version 2.20                             
    1UCOMPILETIME       Sun Jul 31 18:08:37 CEST 2022                    
    1UDIR                                                               
    1UDBN                                                               
    1UMAT    1MESH_MATERIAL                                             
    2C                           409                                     1
 -1         1 0.00000E+00 0.00000E+00 0.00000E+00
 -1         2 1.66667E-02 0.00000E+00 0.00000E+00
 -1         3 3.33333E-02 0.00000E+00 0.00000E+00
 -1         5 6.66667E-02 0.00000E+00 0.00000E+00
 -1         8 0.00000E+00 6.25000E-03 0.00000E+00
 -1         9 1.66667E-02 6.25000E-03 0.00000E+00
 -1        10 3.33333E-02 6.25000E-03 0.00000E+00
 -1        12 6.66667E-02 6.25000E-03 0.00000E+00
 -1        15 0.00000E+00 1.25000E-02 0.00000E+00
 -1        16 1.66667E-02 1.25000E-02 0.00000E+00
 -1        17 3.33333E-02 1.25000E-02 0.00000E+00
 -1        18 5.00000E-02 1.25000E-02 0.00000E+00
 -1        19 6.66667E-02 1.25000E-02 0.00000E+00
 -1        20 8.33333E-02 1.25000E-02 0.00000E+00
 -1        21 1.00000E-01 1.25000E-02 0.00000E+00
 -1        24 3.33333E-02 1.87500E-02 0.00000E+00
 -1        25 5.00000E-02 1.87500E-02 0.00000E+00
 -1        26 6.66667E-02 1.87500E-02 0.00000E+00
 -1        27 8.33333E-02 1.87500E-02 0.00000E+00
 -1        28 1.00000E-01 1.87500E-02 0.00000E+00
 -1        32 5.00000E-02 2.50000E-02 0.00000E+00
 -1        33 6.66667E-02 2.50000E-02 0.00000E+00
 -1        34 8.33333E-02 2.50000E-02 0.00000E+00
 -1        35 1.00000E-01 2.50000E-02 0.00000E+00
 -1        51 0.00000E+00 1.04167E-03 0.00000E+00
 -1        52 0.00000E+00 2.08333E-03 0.00000E+00
 -1        53 0.00000E+00 3.12500E-03 0.00000E+00
 -1        54 0.00000E+00 4.16667E-03 0.00000E+00
 -1        55 0.00000E+00 5.20833E-03 0.00000E+00
 -1        56 1.04167E-03 3.90630E-04 0.00000E+00
 -1        57 2.08333E-03 7.81250E-04 0.00000E+00
 -1        58 3.12500E-03 1.17188E-03 0.00000E+00
 -1        59 4.16667E-03 1.56250E-03 0.00000E+00
 -1        60 5.20833E-03 1.95312E-03 0.00000E+00
 -1        61 6.25000E-03 2.34375E-03 0.00000E+00
 -1        62 7.29167E-03 2.73438E-03 0.00000E+00
 -1        63 8.33333E-03 3.12500E-03 0.00000E+00
 -1        64 9.37500E-03 3.51563E-03 0.00000E+00
 -1        65 1.04167E-02 3.90625E-03 0.00000E+00
 -1        66 1.14583E-02 4.29688E-03 0.00000E+00
 -1        67 1.25000E-02 4.68750E-03 0.00000E+00
 -1        68 1.35417E-02 5.07813E-03 0.00000E+00
 -1        69 1.45833E-02 5.46875E-03 0.00000E+00
 -1        70 1.56250E-02 5.85938E-03 0.00000E+00
 -1        86 1.66667E-02 1.04167E-03 0.00000E+00
 -1        87 1.66667E-02 2.08333E-03 0.00000E+00
 -1        88 1.66667E-02 3.12500E-03 0.00000E+00
 -1        89 1.66667E-02 4.16667E-03 0.00000E+00
 -1        90 1.66667E-02 5.20833E-03 0.00000E+00
 -1       121 3.33333E-02 1.04167E-03 0.00000E+00
 -1       122 3.33333E-02 2.08333E-03 0.00000E+00
 -1       123 3.33333E-02 3.12500E-03 0.00000E+00
 -1       124 3.33333E-02 4.16667E-03 0.00000E+00
 -1       125 3.33333E-02 5.20833E-03 0.00000E+00
 -1       191 6.66667E-02 1.04167E-03 0.00000E+00
 -1       192 6.66667E-02 2.08333E-03 0.00000E+00
 -1       193 6.66667E-02 3.12500E-03 0.00000E+00
 -1       194 6.66667E-02 4.16667E-03 0.00000E+00
 -1       195 6.66667E-02 5.20833E-03 0.00000E+00
 -1       251 1.04167E-03 6.25000E-03 0.00000E+00
 -1       252 2.08333E-03 6.25000E-03 0.00000E+00
 -1       253 3.12500E-03 6.25000E-03 0.00000E+00
 -1       254 4.16667E-03 6.25000E-03 0.00000E+00
 -1       255 5.20833E-03 6.25000E-03 0.00000E+00
 -1       256 6.25000E-03 6.25000E-03 0.00000E+00
 -1       257 7.29167E-03 6.25000E-03 0.00000E+00
 -1       258 8.33333E-03 6.25000E-03 0.00000E+00
 -1       259 9.37500E-03 6.25000E-03 0.00000E+00
 -1       260 1.04167E-02 6.25000E-03 0.00000E+00
 -1       261 1.14583E-02 6.25000E-03 0.00000E+00
 -1       262 1.25000E-02 6.25000E-03 0.00000E+00
 -1       263 1.35417E-02 6.25000E-03 0.00000E+00
 -1       264 1.45833E-02 6.25000E-03 0.00000E+00
 -1       265 1.56250E-02 6.25000E-03 0.00000E+00
 -1       266 0.00000E+00 7.29167E-03 0.00000E+00
 -1       267 0.00000E+00 8.33333E-03 0.00000E+00
 -1       268 0.00000E+00 9.37500E-03 0.00000E+00
 -1       269 0.00000E+00 1.04167E-02 0.00000E+00
 -1       270 0.00000E+00 1.14583E-02 0.00000E+00
 -1       271 1.04167E-03 6.64063E-03 0.00000E+00
 -1       272 2.08333E-03 7.03125E-03 0.00000E+00
 -1       273 3.12500E-03 7.42188E-03 0.00000E+00
 -1       274 4.16667E-03 7.81250E-03 0.00000E+00
 -1       275 5.20833E-03 8.20313E-03 0.00000E+00
 -1       276 6.25000E-03 8.59375E-03 0.00000E+00
 -1       277 7.29167E-03 8.98438E-03 0.00000E+00
 -1       278 8.33333E-03 9.37500E-03 0.00000E+00
 -1       279 9.37500E-03 9.76562E-03 0.00000E+00
 -1       280 1.04167E-02 1.01562E-02 0.00000E+00
 -1       281 1.14583E-02 1.05469E-02 0.00000E+00
 -1       282 1.25000E-02 1.09375E-02 0.00000E+00
 -1       283 1.35417E-02 1.13281E-02 0.00000E+00
 -1       284 1.45833E-02 1.17188E-02 0.00000E+00
 -1       285 1.56250E-02 1.21094E-02 0.00000E+00
 -1       301 1.66667E-02 7.29167E-03 0.00000E+00
 -1       302 1.66667E-02 8.33333E-03 0.00000E+00
 -1       303 1.66667E-02 9.37500E-03 0.00000E+00
 -1       304 1.66667E-02 1.04167E-02 0.00000E+00
 -1       305 1.66667E-02 1.14583E-02 0.00000E+00
 -1       306 1.77083E-02 6.64063E-03 0.00000E+00
 -1       307 1.87500E-02 7.03125E-03 0.00000E+00
 -1       308 1.97917E-02 7.42188E-03 0.00000E+00
 -1       309 2.08333E-02 7.81250E-03 0.00000E+00
 -1       310 2.18750E-02 8.20313E-03 0.00000E+00
 -1       311 2.29167E-02 8.59375E-03 0.00000E+00
 -1       312 2.39583E-02 8.98438E-03 0.00000E+00
 -1       313 2.50000E-02 9.37500E-03 0.00000E+00
 -1       314 2.60417E-02 9.76562E-03 0.00000E+00
 -1       315 2.70833E-02 1.01562E-02 0.00000E+00
 -1       316 2.81250E-02 1.05469E-02 0.00000E+00
 -1       317 2.91667E-02 1.09375E-02 0.00000E+00
 -1       318 3.02083E-02 1.13281E-02 0.00000E+00
 -1       319 3.12500E-02 1.17188E-02 0.00000E+00
 -1       320 3.22917E-02 1.21094E-02 0.00000E+00
 -1       336 3.33333E-02 7.29167E-03 0.00000E+00
 -1       337 3.33333E-02 8.33333E-03 0.00000E+00
 -1       338 3.33333E-02 9.37500E-03 0.00000E+00
 -1       339 3.33333E-02 1.04167E-02 0.00000E+00
 -1       340 3.33333E-02 1.14583E-02 0.00000E+00
 -1       406 6.66667E-02 7.29167E-03 0.00000E+00
 -1       407 6.66667E-02 8.33333E-03 0.00000E+00
 -1       408 6.66667E-02 9.37500E-03 0.00000E+00
 -1       409 6.66667E-02 1.04167E-02 0.00000E+00
 -1       410 6.66667E-02 1.14583E-02 0.00000E+00
 -1       521 1.77083E-02 1.28906E-02 0.00000E+00
 -1       522 1.87500E-02 1.32813E-02 0.00000E+00
 -1       523 1.97917E-02 1.36719E-02 0.00000E+00
 -1       524 2.08333E-02 1.40625E-02 0.00000E+00
 -1       525 2.18750E-02 1.44531E-02 0.00000E+00
 -1       526 2.29167E-02 1.48437E-02 0.00000E+00
 -1       527 2.39583E-02 1.52344E-02 0.00000E+00
 -1       528 2.50000E-02 1.56250E-02 0.00000E+00
 -1       529 2.60417E-02 1.60156E-02 0.00000E+00
 -1       530 2.70833E-02 1.64062E-02 0.00000E+00
 -1       531 2.81250E-02 1.67969E-02 0.00000E+00
 -1       532 2.91667E-02 1.71875E-02 0.00000E+00
 -1       533 3.02083E-02 1.75781E-02 0.00000E+00
 -1       534 3.12500E-02 1.79687E-02 0.00000E+00
 -1       535 3.22917E-02 1.83594E-02 0.00000E+00
 -1       536 3.43750E-02 1.25000E-02 0.00000E+00
 -1       537 3.54167E-02 1.25000E-02 0.00000E+00
 -1       538 3.64583E-02 1.25000E-02 0.00000E+00
 -1       539 3.75000E-02 1.25000E-02 0.00000E+00
 -1       540 3.85417E-02 1.25000E-02 0.00000E+00
 -1       541 3.95833E-02 1.25000E-02 0.00000E+00
 -1       542 4.06250E-02 1.25000E-02 0.00000E+00
 -1       543 4.16667E-02 1.25000E-02 0.00000E+00
 -1       544 4.27083E-02 1.25000E-02 0.00000E+00
 -1       545 4.37500E-02 1.25000E-02 0.00000E+00
 -1       546 4.47917E-02 1.25000E-02 0.00000E+00
 -1       547 4.58333E-02 1.25000E-02 0.00000E+00
 -1       548 4.68750E-02 1.25000E-02 0.00000E+00
 -1       549 4.79167E-02 1.25000E-02 0.00000E+00
 -1       550 4.89583E-02 1.25000E-02 0.00000E+00
 -1       551 3.33333E-02 1.35417E-02 0.00000E+00
 -1       552 3.33333E-02 1.45833E-02 0.00000E+00
 -1       553 3.33333E-02 1.56250E-02 0.00000E+00
 -1       554 3.33333E-02 1.66667E-02 0.00000E+00
 -1       555 3.33333E-02 1.77083E-02 0.00000E+00
 -1       556 3.43750E-02 1.28906E-02 0.00000E+00
 -1       557 3.54167E-02 1.32813E-02 0.00000E+00
 -1       558 3.64583E-02 1.36719E-02 0.00000E+00
 -1       559 3.75000E-02 1.40625E-02 0.00000E+00
 -1       560 3.85417E-02 1.44531E-02 0.00000E+00
 -1       561 3.95833E-02 1.48437E-02 0.00000E+00
 -1       562 4.06250E-02 1.52344E-02 0.00000E+00
 -1       563 4.16667E-02 1.56250E-02 0.00000E+00
 -1       564 4.27083E-02 1.60156E-02 0.00000E+00
 -1       565 4.37500E-02 1.64062E-02 0.00000E+00
 -1       566 4.47917E-02 1.67969E-02 0.00000E+00
 -1       567 4.58333E-02 1.71875E-02 0.00000E+00
 -1       568 4.68750E-02 1.75781E-02 0.00000E+00
 -1       569 4.79167E-02 1.79687E-02 0.00000E+00
 -1       570 4.89583E-02 1.83594E-02 0.00000E+00
 -1       571 5.10417E-02 1.25000E-02 0.00000E+00
 -1       572 5.20833E-02 1.25000E-02 0.00000E+00
 -1       573 5.31250E-02 1.25000E-02 0.00000E+00
 -1       574 5.41667E-02 1.25000E-02 0.00000E+00
 -1       575 5.52083E-02 1.25000E-02 0.00000E+00
 -1       576 5.62500E-02 1.25000E-02 0.00000E+00
 -1       577 5.72917E-02 1.25000E-02 0.00000E+00
 -1       578 5.83333E-02 1.25000E-02 0.00000E+00
 -1       579 5.93750E-02 1.25000E-02 0.00000E+00
 -1       580 6.04167E-02 1.25000E-02 0.00000E+00
 -1       581 6.14583E-02 1.25000E-02 0.00000E+00
 -1       582 6.25000E-02 1.25000E-02 0.00000E+00
 -1       583 6.35417E-02 1.25000E-02 0.00000E+00
 -1       584 6.45833E-02 1.25000E-02 0.00000E+00
 -1       585 6.56250E-02 1.25000E-02 0.00000E+00
 -1       586 5.00000E-02 1.35417E-02 0.00000E+00
 -1       587 5.00000E-02 1.45833E-02 0.00000E+00
 -1       588 5.00000E-02 1.56250E-02 0.00000E+00
 -1       589 5.00000E-02 1.66667E-02 0.00000E+00
 -1       590 5.00000E-02 1.77083E-02 0.00000E+00
 -1       591 5.10417E-02 1.28906E-02 0.00000E+00
 -1       592 5.20833E-02 1.32813E-02 0.00000E+00
 -1       593 5.31250E-02 1.36719E-02 0.00000E+00
 -1       594 5.41667E-02 1.40625E-02 0.00000E+00
 -1       595 5.52083E-02 1.44531E-02 0.00000E+00
 -1       596 5.62500E-02 1.48437E-02 0.00000E+00
 -1       597 5.72917E-02 1.52344E-02 0.00000E+00
 -1       598 5.83333E-02 1.56250E-02 0.00000E+00
 -1       599 5.93750E-02 1.60156E-02 0.00000E+00
 -1       600 6.04167E-02 1.64062E-02 0.00000E+00
 -1       601 6.14583E-02 1.67969E-02 0.00000E+00
 -1       602 6.25000E-02 1.71875E-02 0.00000E+00
 -1       603 6.35417E-02 1.75781E-02 0.00000E+00
 -1       604 6.45833E-02 1.79687E-02 0.00000E+00
 -1       605 6.56250E-02 1.83594E-02 0.00000E+00
 -1       606 6.77083E-02 1.25000E-02 0.00000E+00
 -1       607 6.87500E-02 1.25000E-02 0.00000E+00
 -1       608 6.97917E-02 1.25000E-02 0.00000E+00
 -1       609 7.08333E-02 1.25000E-02 0.00000E+00
 -1       610 7.18750E-02 1.25000E-02 0.00000E+00
 -1       611 7.29167E-02 1.25000E-02 0.00000E+00
 -1       612 7.39583E-02 1.25000E-02 0.00000E+00
 -1       613 7.50000E-02 1.25000E-02 0.00000E+00
 -1       614 7.60417E-02 1.25000E-02 0.00000E+00
 -1       615 7.70833E-02 1.25000E-02 0.00000E+00
 -1       616 7.81250E-02 1.25000E-02 0.00000E+00
 -1       617 7.91667E-02 1.25000E-02 0.00000E+00
 -1       618 8.02083E-02 1.25000E-02 0.00000E+00
 -1       619 8.12500E-02 1.25000E-02 0.00000E+00
 -1       620 8.22917E-02 1.25000E-02 0.00000E+00
 -1       621 6.66667E-02 1.35417E-02 0.00000E+00
 -1       622 6.66667E-02 1.45833E-02 0.00000E+00
 -1       623 6.66667E-02 1.56250E-02 0.00000E+00
 -1       624 6.66667E-02 1.66667E-02 0.00000E+00
 -1       625 6.66667E-02 1.77083E-02 0.00000E+00
 -1       626 6.77083E-02 1.28906E-02 0.00000E+00
 -1       627 6.87500E-02 1.32813E-02 0.00000E+00
 -1       628 6.97917E-02 1.36719E-02 0.00000E+00
 -1       629 7.08333E-02 1.40625E-02 0.00000E+00
 -1       630 7.18750E-02 1.44531E-02 0.00000E+00
 -1       631 7.29167E-02 1.48437E-02 0.00000E+00
 -1       632 7.39583E-02 1.52344E-02 0.00000E+00
 -1       633 7.50000E-02 1.56250E-02 0.00000E+00
 -1       634 7.60417E-02 1.60156E-02 0.00000E+00
 -1       635 7.70833E-02 1.64062E-02 0.00000E+00
 -1       636 7.81250E-02 1.67969E-02 0.00000E+00
 -1       637 7.91667E-02 1.71875E-02 0.00000E+00
 -1       638 8.02083E-02 1.75781E-02 0.00000E+00
 -1       639 8.12500E-02 1.79687E-02 0.00000E+00
 -1       640 8.22917E-02 1.83594E-02 0.00000E+00
 -1       656 8.33333E-02 1.35417E-02 0.00000E+00
 -1       657 8.33333E-02 1.45833E-02 0.00000E+00
 -1       658 8.33333E-02 1.56250E-02 0.00000E+00
 -1       659 8.33333E-02 1.66667E-02 0.00000E+00
 -1       660 8.33333E-02 1.77083E-02 0.00000E+00
 -1       661 8.43750E-02 1.28906E-02 0.00000E+00
 -1       662 8.54167E-02 1.32813E-02 0.00000E+00
 -1       663 8.64583E-02 1.36719E-02 0.00000E+00
 -1       664 8.75000E-02 1.40625E-02 0.00000E+00
 -1       665 8.85417E-02 1.44531E-02 0.00000E+00
 -1       666 8.95833E-02 1.48437E-02 0.00000E+00
 -1       667 9.06250E-02 1.52344E-02 0.00000E+00
 -1       668 9.16667E-02 1.56250E-02 0.00000E+00
 -1       669 9.27083E-02 1.60156E-02 0.00000E+00
 -1       670 9.37500E-02 1.64062E-02 0.00000E+00
 -1       671 9.47917E-02 1.67969E-02 0.00000E+00
 -1       672 9.58333E-02 1.71875E-02 0.00000E+00
 -1       673 9.68750E-02 1.75781E-02 0.00000E+00
 -1       674 9.79167E-02 1.79687E-02 0.00000E+00
 -1       675 9.89583E-02 1.83594E-02 0.00000E+00
 -1       676 1.00000E-01 1.35417E-02 0.00000E+00
 -1       677 1.00000E-01 1.45833E-02 0.00000E+00
 -1       678 1.00000E-01 1.56250E-02 0.00000E+00
 -1       679 1.00000E-01 1.66667E-02 0.00000E+00
 -1       680 1.00000E-01 1.77083E-02 0.00000E+00
 -1       771 3.43750E-02 1.91406E-02 0.00000E+00
 -1       772 3.54167E-02 1.95312E-02 0.00000E+00
 -1       773 3.64583E-02 1.99219E-02 0.00000E+00
 -1       774 3.75000E-02 2.03125E-02 0.00000E+00
 -1       775 3.85417E-02 2.07031E-02 0.00000E+00
 -1       776 3.95833E-02 2.10938E-02 0.00000E+00
 -1       777 4.06250E-02 2.14844E-02 0.00000E+00
 -1       778 4.16667E-02 2.18750E-02 0.00000E+00
 -1       779 4.27083E-02 2.22656E-02 0.00000E+00
 -1       780 4.37500E-02 2.26563E-02 0.00000E+00
 -1       781 4.47917E-02 2.30469E-02 0.00000E+00
 -1       782 4.58333E-02 2.34375E-02 0.00000E+00
 -1       783 4.68750E-02 2.38281E-02 0.00000E+00
 -1       784 4.79167E-02 2.42187E-02 0.00000E+00
 -1       785 4.89583E-02 2.46094E-02 0.00000E+00
 -1       786 5.10417E-02 1.87500E-02 0.00000E+00
 -1       787 5.20833E-02 1.87500E-02 0.00000E+00
 -1       788 5.31250E-02 1.87500E-02 0.00000E+00
 -1       789 5.41667E-02 1.87500E-02 0.00000E+00
 -1       790 5.52083E-02 1.87500E-02 0.00000E+00
 -1       791 5.62500E-02 1.87500E-02 0.00000E+00
 -1       792 5.72917E-02 1.87500E-02 0.00000E+00
 -1       793 5.83333E-02 1.87500E-02 0.00000E+00
 -1       794 5.93750E-02 1.87500E-02 0.00000E+00
 -1       795 6.04167E-02 1.87500E-02 0.00000E+00
 -1       796 6.14583E-02 1.87500E-02 0.00000E+00
 -1       797 6.25000E-02 1.87500E-02 0.00000E+00
 -1       798 6.35417E-02 1.87500E-02 0.00000E+00
 -1       799 6.45833E-02 1.87500E-02 0.00000E+00
 -1       800 6.56250E-02 1.87500E-02 0.00000E+00
 -1       801 5.00000E-02 1.97917E-02 0.00000E+00
 -1       802 5.00000E-02 2.08333E-02 0.00000E+00
 -1       803 5.00000E-02 2.18750E-02 0.00000E+00
 -1       804 5.00000E-02 2.29167E-02 0.00000E+00
 -1       805 5.00000E-02 2.39583E-02 0.00000E+00
 -1       806 5.10417E-02 1.91406E-02 0.00000E+00
 -1       807 5.20833E-02 1.95312E-02 0.00000E+00
 -1       808 5.31250E-02 1.99219E-02 0.00000E+00
 -1       809 5.41667E-02 2.03125E-02 0.00000E+00
 -1       810 5.52083E-02 2.07031E-02 0.00000E+00
 -1       811 5.62500E-02 2.10938E-02 0.00000E+00
 -1       812 5.72917E-02 2.14844E-02 0.00000E+00
 -1       813 5.83333E-02 2.18750E-02 0.00000E+00
 -1       814 5.93750E-02 2.22656E-02 0.00000E+00
 -1       815 6.04167E-02 2.26563E-02 0.00000E+00
 -1       816 6.14583E-02 2.30469E-02 0.00000E+00
 -1       817 6.25000E-02 2.34375E-02 0.00000E+00
 -1       818 6.35417E-02 2.38281E-02 0.00000E+00
 -1       819 6.45833E-02 2.42187E-02 0.00000E+00
 -1       820 6.56250E-02 2.46094E-02 0.00000E+00
 -1       821 6.77083E-02 1.87500E-02 0.00000E+00
 -1       822 6.87500E-02 1.87500E-02 0.00000E+00
 -1       823 6.97917E-02 1.87500E-02 0.00000E+00
 -1       824 7.08333E-02 1.87500E-02 0.00000E+00
 -1       825 7.18750E-02 1.87500E-02 0.00000E+00
 -1       826 7.29167E-02 1.87500E-02 0.00000E+00
 -1       827 7.39583E-02 1.87500E-02 0.00000E+00
 -1       828 7.50000E-02 1.87500E-02 0.00000E+00
 -1       829 7.60417E-02 1.87500E-02 0.00000E+00
 -1       830 7.70833E-02 1.87500E-02 0.00000E+00
 -1       831 7.81250E-02 1.87500E-02 0.00000E+00
 -1       832 7.91667E-02 1.87500E-02 0.00000E+00
 -1       833 8.02083E-02 1.87500E-02 0.00000E+00
 -1       834 8.12500E-02 1.87500E-02 0.00000E+00
 -1       835 8.22917E-02 1.87500E-02 0.00000E+00
 -1       836 6.66667E-02 1.97917E-02 0.00000E+00
 -1       837 6.66667E-02 2.08333E-02 0.00000E+00
 -1       838 6.66667E-02 2.18750E-02 0.00000E+00
 -1       839 6.66667E-02 2.29167E-02 0.00000E+00
 -1       840 6.66667E-02 2.39583E-02 0.00000E+00
 -1       856 8.43750E-02 1.87500E-02 0.00000E+00
 -1       857 8.54167E-02 1.87500E-02 0.00000E+00
 -1       858 8.64583E-02 1.87500E-02 0.00000E+00
 -1       859 8.75000E-02 1.87500E-02 0.00000E+00
 -1       860 8.85417E-02 1.87500E-02 0.00000E+00
 -1       861 8.95833E-02 1.87500E-02 0.00000E+00
 -1       862 9.06250E-02 1.87500E-02 0.00000E+00
 -1       863 9.16667E-02 1.87500E-02 0.00000E+00
 -1       864 9.27083E-02 1.87500E-02 0.00000E+00
 -1       865 9.37500E-02 1.87500E-02 0.00000E+00
 -1       866 9.47917E-02 1.87500E-02 0.00000E+00
 -1       867 9.58333E-02 1.87500E-02 0.00000E+00
 -1       868 9.68750E-02 1.87500E-02 0.00000E+00
 -1       869 9.79167E-02 1.87500E-02 0.00000E+00
 -1       870 9.89583E-02 1.87500E-02 0.00000E+00
 -1       871 8.33333E-02 1.97917E-02 0.00000E+00
 -1       872 8.33333E-02 2.08333E-02 0.00000E+00
 -1       873 8.33333E-02 2.18750E-02 0.00000E+00
 -1       874 8.33333E-02 2.29167E-02 0.00000E+00
 -1       875 8.33333E-02 2.39583E-02 0.00000E+00
 -1       876 8.43750E-02 1.91406E-02 0.00000E+00
 -1       877 8.54167E-02 1.95312E-02 0.00000E+00
 -1       878 8.64583E-02 1.99219E-02 0.00000E+00
 -1       879 8.75000E-02 2.03125E-02 0.00000E+00
 -1       880 8.85417E-02 2.07031E-02 0.00000E+00
 -1       881 8.95833E-02 2.10938E-02 0.00000E+00
 -1       882 9.06250E-02 2.14844E-02 0.00000E+00
 -1       883 9.16667E-02 2.18750E-02 0.00000E+00
 -1       884 9.27083E-02 2.22656E-02 0.00000E+00
 -1       885 9.37500E-02 2.26563E-02 0.00000E+00
 -1       886 9.47917E-02 2.30469E-02 0.00000E+00
 -1       887 9.58333E-02 2.34375E-02 0.00000E+00
 -1       888 9.68750E-02 2.38281E-02 0.00000E+00
 -1       889 9.79167E-02 2.42187E-02 0.00000E+00
 -1       890 9.89583E-02 2.46094E-02 0.00000E+00
 -1       891 1.00000E-01 1.97917E-02 0.00000E+00
 -1       892 1.00000E-01 2.08333E-02 0.00000E+00
 -1       893 1.00000E-01 2.18750E-02 0.00000E+00
 -1       894 1.00000E-01 2.29167E-02 0.00000E+00
 -1       895 1.00000E-01 2.39583E-02 0.00000E+00
 -1       956 6.77083E-02 2.50000E-02 0.00000E+00
 -1       957 6.87500E-02 2.50000E-02 0.00000E+00
 -1       958 6.97917E-02 2.50000E-02 0.00000E+00
 -1       959 7.08333E-02 2.50000E-02 0.00000E+00
 -1       960 7.18750E-02 2.50000E-02 0.00000E+00
 -1       961 7.29167E-02 2.50000E-02 0.00000E+00
 -1       962 7.39583E-02 2.50000E-02 0.00000E+00
 -1       963 7.50000E-02 2.50000E-02 0.00000E+00
 -1       964 7.60417E-02 2.50000E-02 0.00000E+00
 -1       965 7.70833E-02 2.50000E-02 0.00000E+00
 -1       966 7.81250E-02 2.50000E-02 0.00000E+00
 -1       967 7.91667E-02 2.50000E-02 0.00000E+00
 -1       968 8.02083E-02 2.50000E-02 0.00000E+00
 -1       969 8.12500E-02 2.50000E-02 0.00000E+00
 -1       970 8.22917E-02 2.50000E-02 0.00000E+00
 -1       971 8.43750E-02 2.50000E-02 0.00000E+00
 -1       972 8.54167E-02 2.50000E-02 0.00000E+00
 -1       973 8.64583E-02 2.50000E-02 0.00000E+00
 -1       974 8.75000E-02 2.50000E-02 0.00000E+00
 -1       975 8.85417E-02 2.50000E-02 0.00000E+00
 -1       976 8.95833E-02 2.50000E-02 0.00000E+00
 -1       977 9.06250E-02 2.50000E-02 0.00000E+00
 -1       978 9.16667E-02 2.50000E-02 0.00000E+00
 -1       979 9.27083E-02 2.50000E-02 0.00000E+00
 -1       980 9.37500E-02 2.50000E-02 0.00000E+00
 -1       981 9.47917E-02 2.50000E-02 0.00000E+00
 -1       982 9.58333E-02 2.50000E-02 0.00000E+00
 -1       983 9.68750E-02 2.50000E-02 0.00000E+00
 -1       984 9.79167E-02 2.50000E-02 0.00000E+00
 -1       985 9.89583E-02 2.50000E-02 0.00000E+00
 -3
    3C                           211                                     1
 -1         1   12    0    1
 -2         1        52        51
 -1         2   12    0    1
 -2        52        54        53
 -1         3   12    0    1
 -2        54         8        55
 -1         4   12    0    1
 -2         1        57        56
 -1         5   12    0    1
 -2        57        59        58
 -1         6   12    0    1
 -2        59        61        60
 -1         7   12    0    1
 -2        61        63        62
 -1         8   12    0    1
 -2        63        65        64
 -1         9   12    0    1
 -2        65        67        66
 -1        10   12    0    1
 -2        67        69        68
 -1        11   12    0    1
 -2        69         9        70
 -1        12   12    0    1
 -2         2        87        86
 -1        13   12    0    1
 -2        87        89        88
 -1        14   12    0    1
 -2        89         9        90
 -1        15   12    0    1
 -2         3       122       121
 -1        16   12    0    1
 -2       122       124       123
 -1        17   12    0    1
 -2       124        10       125
 -1        18   12    0    1
 -2         5       192       191
 -1        19   12    0    1
 -2       192       194       193
 -1        20   12    0    1
 -2       194        12       195
 -1        21   12    0    1
 -2         8       252       251
 -1        22   12    0    1
 -2       252       254       253
 -1        23   12    0    1
 -2       254       256       255
 -1        24   12    0    1
 -2       256       258       257
 -1        25   12    0    1
 -2       258       260       259
 -1        26   12    0    1
 -2       260       262       261
 -1        27   12    0    1
 -2       262       264       263
 -1        28   12    0    1
 -2       264         9       265
 -1        29   12    0    1
 -2         8       267       266
 -1        30   12    0    1
 -2       267       269       268
 -1        31   12    0    1
 -2       269        15       270
 -1        32   12    0    1
 -2         8       272       271
 -1        33   12    0    1
 -2       272       274       273
 -1        34   12    0    1
 -2       274       276       275
 -1        35   12    0    1
 -2       276       278       277
 -1        36   12    0    1
 -2       278       280       279
 -1        37   12    0    1
 -2       280       282       281
 -1        38   12    0    1
 -2       282       284       283
 -1        39   12    0    1
 -2       284        16       285
 -1        40   12    0    1
 -2         9       302       301
 -1        41   12    0    1
 -2       302       304       303
 -1        42   12    0    1
 -2       304        16       305
 -1        43   12    0    1
 -2         9       307       306
 -1        44   12    0    1
 -2       307       309       308
 -1        45   12    0    1
 -2       309       311       310
 -1        46   12    0    1
 -2       311       313       312
 -1        47   12    0    1
 -2       313       315       314
 -1        48   12    0    1
 -2       315       317       316
 -1        49   12    0    1
 -2       317       319       318
 -1        50   12    0    1
 -2       319        17       320
 -1        51   12    0    1
 -2        10       337       336
 -1        52   12    0    1
 -2       337       339       338
 -1        53   12    0    1
 -2       339        17       340
 -1        54   12    0    1
 -2        12       407       406
 -1        55   12    0    1
 -2       407       409       408
 -1        56   12    0    1
 -2       409        19       410
 -1        57   12    0    1
 -2        16       522       521
 -1        58   12    0    1
 -2       522       524       523
 -1        59   12    0    1
 -2       524       526       525
 -1        60   12    0    1
 -2       526       528       527
 -1        61   12    0    1
 -2       528       530       529
 -1        62   12    0    1
 -2       530       532       531
 -1        63   12    0    1
 -2       532       534       533
 -1        64   12    0    1
 -2       534        24       535
 -1        65   12    0    1
 -2        17       537       536
 -1        66   12    0    1
 -2       537       539       538
 -1        67   12    0    1
 -2       539       541       540
 -1        68   12    0    1
 -2       541       543       542
 -1        69   12    0    1
 -2       543       545       544
 -1        70   12    0    1
 -2       545       547       546
 -1        71   12    0    1
 -2       547       549       548
 -1        72   12    0    1
 -2       549        18       550
 -1        73   12    0    1
 -2        17       552       551
 -1        74   12    0    1
 -2       552       554       553
 -1        75   12    0    1
 -2       554        24       555
 -1        76   12    0    1
 -2        17       557       556
 -1        77   12    0    1
 -2       557       559       558
 -1        78   12    0    1
 -2       559       561       560
 -1        79   12    0    1
 -2       561       563       562
 -1        80   12    0    1
 -2       563       565       564
 -1        81   12    0    1
 -2       565       567       566
 -1        82   12    0    1
 -2       567       569       568
 -1        83   12    0    1
 -2       569        25       570
 -1        84   12    0    1
 -2        18       572       571
 -1        85   12    0    1
 -2       572       574       573
 -1        86   12    0    1
 -2       574       576       575
 -1        87   12    0    1
 -2       576       578       577
 -1        88   12    0    1
 -2       578       580       579
 -1        89   12    0    1
 -2       580       582       581
 -1        90   12    0    1
 -2       582       584       583
 -1        91   12    0    1
 -2       584        19       585
 -1        92   12    0    1
 -2        18       587       586
 -1        93   12    0    1
 -2       587       589       588
 -1        94   12    0    1
 -2       589        25       590
 -1        95   12    0    1
 -2        18       592       591
 -1        96   12    0    1
 -2       592       594       593
 -1        97   12    0    1
 -2       594       596       595
 -1        98   12    0    1
 -2       596       598       597
 -1        99   12    0    1
 -2       598       600       599
 -1       100   12    0    1
 -2       600       602       601
 -1       101   12    0    1
 -2       602       604       603
 -1       102   12    0    1
 -2       604        26       605
 -1       103   12    0    1
 -2        19       607       606
 -1       104   12    0    1
 -2       607       609       608
 -1       105   12    0    1
 -2       609       611       610
 -1       106   12    0    1
 -2       611       613       612
 -1       107   12    0    1
 -2       613       615       614
 -1       108   12    0    1
 -2       615       617       616
 -1       109   12    0    1
 -2       617       619       618
 -1       110   12    0    1
 -2       619        20       620
 -1       111   12    0    1
 -2        19       622       621
 -1       112   12    0    1
 -2       622       624       623
 -1       113   12    0    1
 -2       624        26       625
 -1       114   12    0    1
 -2        19       627       626
 -1       115   12    0    1
 -2       627       629       628
 -1       116   12    0    1
 -2       629       631       630
 -1       117   12    0    1
 -2       631       633       632
 -1       118   12    0    1
 -2       633       635       634
 -1       119   12    0    1
 -2       635       637       636
 -1       120   12    0    1
 -2       637       639       638
 -1       121   12    0    1
 -2       639        27       640
 -1       122   12    0    1
 -2        20       657       656
 -1       123   12    0    1
 -2       657       659       658
 -1       124   12    0    1
 -2       659        27       660
 -1       125   12    0    1
 -2        20       662       661
 -1       126   12    0    1
 -2       662       664       663
 -1       127   12    0    1
 -2       664       666       665
 -1       128   12    0    1
 -2       666       668       667
 -1       129   12    0    1
 -2       668       670       669
 -1       130   12    0    1
 -2       670       672       671
 -1       131   12    0    1
 -2       672       674       673
 -1       132   12    0    1
 -2       674        28       675
 -1       133   12    0    1
 -2        21       677       676
 -1       134   12    0    1
 -2       677       679       678
 -1       135   12    0    1
 -2       679        28       680
 -1       136   12    0    1
 -2        24       772       771
 -1       137   12    0    1
 -2       772       774       773
 -1       138   12    0    1
 -2       774       776       775
 -1       139   12    0    1
 -2       776       778       777
 -1       140   12    0    1
 -2       778       780       779
 -1       141   12    0    1
 -2       780       782       781
 -1       142   12    0    1
 -2       782       784       783
 -1       143   12    0    1
 -2       784        32       785
 -1       144   12    0    1
 -2        25       787       786
 -1       145   12    0    1
 -2       787       789       788
 -1       146   12    0    1
 -2       789       791       790
 -1       147   12    0    1
 -2       791       793       792
 -1       148   12    0    1
 -2       793       795       794
 -1       149   12    0    1
 -2       795       797       796
 -1       150   12    0    1
 -2       797       799       798
 -1       151   12    0    1
 -2       799        26       800
 -1       152   12    0    1
 -2        25       802       801
 -1       153   12    0    1
 -2       802       804       803
 -1       154   12    0    1
 -2       804        32       805
 -1       155   12    0    1
 -2        25       807       806
 -1       156   12    0    1
 -2       807       809       808
 -1       157   12    0    1
 -2       809       811       810
 -1       158   12    0    1
 -2       811       813       812
 -1       159   12    0    1
 -2       813       815       814
 -1       160   12    0    1
 -2       815       817       816
 -1       161   12    0    1
 -2       817       819       818
 -1       162   12    0    1
 -2       819        33       820
 -1       163   12    0    1
 -2        26       822       821
 -1       164   12    0    1
 -2       822       824       823
 -1       165   12    0    1
 -2       824       826       825
 -1       166   12    0    1
 -2       826       828       827
 -1       167   12    0    1
 -2       828       830       829
 -1       168   12    0    1
 -2       830       832       831
 -1       169   12    0    1
 -2       832       834       833
 -1       170   12    0    1
 -2       834        27       835
 -1       171   12    0    1
 -2        26       837       836
 -1       172   12    0    1
 -2       837       839       838
 -1       173   12    0    1
 -2       839        33       840
 -1       174   12    0    1
 -2        27       857       856
 -1       175   12    0    1
 -2       857       859       858
 -1       176   12    0    1
 -2       859       861       860
 -1       177   12    0    1
 -2       861       863       862
 -1       178   12    0    1
 -2       863       865       864
 -1       179   12    0    1
 -2       865       867       866
 -1       180   12    0    1
 -2       867       869       868
 -1       181   12    0    1
 -2       869        28       870
 -1       182   12    0    1
 -2        27       872       871
 -1       183   12    0    1
 -2       872       874       873
 -1       184   12    0    1
 -2       874        34       875
 -1       185   12    0    1
 -2        27       877       876
 -1       186   12    0    1
 -2       877       879       878
 -1       187   12    0    1
 -2       879       881       880
 -1       188   12    0    1
 -2       881       883       882
 -1       189   12    0    1
 -2       883       885       884
 -1       190   12    0    1
 -2       885       887       886
 -1       191   12    0    1
 -2       887       889       888
 -1       192   12    0    1
 -2       889        35       890
 -1       193   12    0    1
 -2        28       892       891
 -1       194   12    0    1
 -2       892       894       893
 -1       195   12    0    1
 -2       894        35       895
 -1       196   12    0    1
 -2        33       957       956
 -1       197   12    0    1
 -2       957       959       958
 -1       198   12    0    1
 -2       959       961       960
 -1       199   12    0    1
 -2       961       963       962
 -1       200   12    0    1
 -2       963       965       964
 -1       201   12    0    1
 -2       965       967       966
 -1       202   12    0    1
 -2       967       969       968
 -1       203   12    0    1
 -2       969        34       970
 -1       204   12    0    1
 -2        34       972       971
 -1       205   12    0    1
 -2       972       974       973
 -1       206   12    0    1
 -2       974       976       975
 -1       207   12    0    1
 -2       976       978       977
 -1       208   12    0    1
 -2       978       980       979
 -1       209   12    0    1
 -2       980       982       981
 -1       210   12    0    1
 -2       982       984       983
 -1       211   12    0    1
 -2       984        35       985
 -3
    1PSTEP                         1           1           1          
  100CL  101 2.50000E-01         409                     0    1           1
 -4  DISP        4    1
 -5  D1          1    2    1    0
 -5  D2          1    2    2    0
 -5  D3          1    2    3    0
 -5  ALL         1    2    0    0    1ALL
 -1         1 6.52358E-05 0.00000E+00 0.00000E+00
 -1         2 6.02684E-05 2.18562E-29 0.00000E+00
 -1         3 5.54707E-05-2.37042E-27 0.00000E+00
 -1         5 4.00382E-05 5.25937E-26 1.65436E-24
 -1         8 5.20699E-05-4.68843E-07 0.00000E+00
 -1         9 5.28941E-05 3.09986E-07 0.00000E+00
 -1        10 5.14307E-05-7.59752E-07 0.00000E+00
 -1        12 3.97512E-05 2.72194E-07 0.00000E+00
 -1        15 3.64079E-05-5.01462E-07 0.00000E+00
 -1        16 3.76674E-05 2.49396E-07 0.00000E+00
 -1        17 3.83745E-05-1.59176E-06 0.00000E+00
 -1        18 3.83665E-05 7.55316E-08 0.00000E+00
 -1        19 3.88903E-05 5.42904E-07 0.00000E+00
 -1        20 3.89614E-05 8.12065E-06 0.00000E+00
 -1        21 3.86855E-05 1.53431E-05 8.27181E-25
 -1        24 9.81935E-06-2.11659E-06 0.00000E+00
 -1        25 3.74470E-05 1.37375E-07 0.00000E+00
 -1        26 3.79573E-05 7.56417E-07 0.00000E+00
 -1        27 3.71770E-05 6.91430E-06 0.00000E+00
 -1        28 3.69393E-05 1.51103E-05 0.00000E+00
 -1        32 0.00000E+00 0.00000E+00 0.00000E+00
 -1        33 3.63425E-05 1.01616E-06 0.00000E+00
 -1        34 3.56107E-05 6.90338E-06 0.00000E+00
 -1        35 3.49174E-05 1.49873E-05 0.00000E+00
 -1        51 6.43791E-05-7.81425E-08 0.00000E+00
 -1        52 6.27916E-05-1.53930E-07 0.00000E+00
 -1        53 6.06172E-05-2.29961E-07 0.00000E+00
 -1        54 5.80055E-05-3.06949E-07 1.65436E-24
 -1        55 5.51063E-05-3.85421E-07 2.06795E-24
 -1        56 6.46333E-05-3.64434E-07 0.00000E+00
 -1        57 6.40906E-05-9.55870E-07 0.00000E+00
 -1        58 6.36095E-05-1.70798E-06 1.32349E-23
 -1        59 6.31624E-05-2.56244E-06 1.32349E-23
 -1        60 6.27292E-05-3.45442E-06 0.00000E+00
 -1        61 6.22853E-05-4.32005E-06 0.00000E+00
 -1        62 6.18078E-05-5.09602E-06 0.00000E+00
 -1        63 6.12735E-05-5.72065E-06 1.32349E-23
 -1        64 6.06612E-05-6.13706E-06 0.00000E+00
 -1        65 5.99508E-05-6.29163E-06 1.32349E-23
 -1        66 5.91252E-05-6.13922E-06-2.64698E-23
 -1        67 5.81699E-05-5.63931E-06 1.32349E-23
 -1        68 5.70730E-05-4.76292E-06 0.00000E+00
 -1        69 5.58292E-05-3.48558E-06-6.61744E-24
 -1        70 5.44297E-05-1.79857E-06 0.00000E+00
 -1        86 6.00720E-05 5.52429E-08 0.00000E+00
 -1        87 5.94824E-05 1.10045E-07 0.00000E+00
 -1        88 5.84876E-05 1.64495E-07 0.00000E+00
 -1        89 5.70749E-05 2.16623E-07 0.00000E+00
 -1        90 5.52190E-05 2.68675E-07-1.65436E-24
 -1       121 5.53582E-05-1.26291E-07 0.00000E+00
 -1       122 5.50208E-05-2.52633E-07 0.00000E+00
 -1       123 5.44587E-05-3.79078E-07 0.00000E+00
 -1       124 5.36726E-05-5.05696E-07 0.00000E+00
 -1       125 5.26629E-05-6.32502E-07-3.30872E-24
 -1       191 4.00302E-05 4.53688E-08 0.00000E+00
 -1       192 4.00063E-05 9.07368E-08-8.27181E-25
 -1       193 3.99665E-05 1.36104E-07 0.00000E+00
 -1       194 3.99106E-05 1.81471E-07 0.00000E+00
 -1       195 3.98389E-05 2.26834E-07-1.65436E-24
 -1       251 5.21106E-05 1.69855E-06 1.65436E-24
 -1       252 5.21623E-05 2.99387E-06-5.16988E-26
 -1       253 5.22140E-05 3.56002E-06 0.00000E+00
 -1       254 5.22677E-05 3.53819E-06 0.00000E+00
 -1       255 5.23213E-05 3.05293E-06-1.65436E-24
 -1       256 5.23750E-05 2.22776E-06 0.00000E+00
 -1       257 5.24286E-05 1.17651E-06-1.65436E-24
 -1       258 5.24822E-05 1.25128E-08 8.27181E-25
 -1       259 5.25357E-05-1.15416E-06 1.65436E-24
 -1       260 5.25893E-05-2.21340E-06 0.00000E+00
 -1       261 5.26431E-05-3.05203E-06 0.00000E+00
 -1       262 5.26967E-05-3.55641E-06 0.00000E+00
 -1       263 5.27503E-05-3.60337E-06-8.27181E-25
 -1       264 5.28020E-05-3.06869E-06 0.00000E+00
 -1       265 5.28536E-05-1.81168E-06-1.65436E-24
 -1       266 4.94596E-05-4.80770E-07 0.00000E+00
 -1       267 4.68492E-05-4.85416E-07-8.27181E-25
 -1       268 4.42389E-05-4.90522E-07-8.27181E-25
 -1       269 4.16285E-05-4.94263E-07-2.06795E-25
 -1       270 3.90182E-05-4.97971E-07-2.06795E-25
 -1       271 5.04858E-05 1.47059E-06-1.32349E-23
 -1       272 4.91435E-05 2.69248E-06 0.00000E+00
 -1       273 4.80365E-05 3.29161E-06 0.00000E+00
 -1       274 4.71255E-05 3.35769E-06 0.00000E+00
 -1       275 4.63771E-05 2.98900E-06 2.64698E-23
 -1       276 4.57531E-05 2.28663E-06 0.00000E+00
 -1       277 4.52145E-05 1.35552E-06-2.64698E-23
 -1       278 4.47215E-05 3.02636E-07-1.32349E-23
 -1       279 4.42334E-05-7.63756E-07 0.00000E+00
 -1       280 4.37099E-05-1.73523E-06-1.32349E-23
 -1       281 4.31108E-05-2.50442E-06 0.00000E+00
 -1       282 4.23968E-05-2.96588E-06 0.00000E+00
 -1       283 4.15294E-05-3.01748E-06 0.00000E+00
 -1       284 4.04739E-05-2.56021E-06-1.32349E-23
 -1       285 3.91917E-05-1.50232E-06-1.32349E-23
 -1       301 5.03158E-05 2.96771E-07-3.30872E-24
 -1       302 4.77379E-05 2.91364E-07 0.00000E+00
 -1       303 4.51722E-05 2.86183E-07 0.00000E+00
 -1       304 4.26307E-05 2.80133E-07 0.00000E+00
 -1       305 4.01252E-05 2.72857E-07 6.61744E-24
 -1       306 5.12645E-05 2.18897E-06 0.00000E+00
 -1       307 4.98918E-05 3.30529E-06 1.32349E-23
 -1       308 4.87907E-05 3.70468E-06 0.00000E+00
 -1       309 4.79343E-05 3.43792E-06 0.00000E+00
 -1       310 4.72870E-05 2.61270E-06 0.00000E+00
 -1       311 4.68030E-05 1.34877E-06 1.32349E-23
 -1       312 4.64248E-05-1.98563E-07 0.00000E+00
 -1       313 4.60917E-05-1.86725E-06 1.32349E-23
 -1       314 4.57398E-05-3.48522E-06 2.64698E-23
 -1       315 4.53052E-05-4.88170E-06 1.32349E-23
 -1       316 4.47308E-05-5.90404E-06 2.64698E-23
 -1       317 4.39636E-05-6.40860E-06 1.32349E-23
 -1       318 4.29641E-05-6.29353E-06 2.64698E-23
 -1       319 4.17045E-05-5.47026E-06-1.32349E-23
 -1       320 4.01656E-05-3.91101E-06 0.00000E+00
 -1       336 4.99474E-05-8.97306E-07-3.30872E-24
 -1       337 4.81843E-05-1.03549E-06 1.65436E-24
 -1       338 4.61431E-05-1.17414E-06 0.00000E+00
 -1       339 4.38260E-05-1.31317E-06 0.00000E+00
 -1       340 4.12355E-05-1.45287E-06 3.30872E-24
 -1       406 3.96475E-05 3.17547E-07 0.00000E+00
 -1       407 3.95279E-05 3.62884E-07 0.00000E+00
 -1       408 3.93923E-05 4.08190E-07 0.00000E+00
 -1       409 3.92409E-05 4.53410E-07 0.00000E+00
 -1       410 3.90735E-05 4.98455E-07 0.00000E+00
 -1       521 3.54014E-05 1.64679E-06 0.00000E+00
 -1       522 3.34225E-05 2.13082E-06 0.00000E+00
 -1       523 3.17663E-05 1.76548E-06 0.00000E+00
 -1       524 3.03896E-05 6.27759E-07 0.00000E+00
 -1       525 2.92368E-05-1.10914E-06 0.00000E+00
 -1       526 2.82330E-05-3.24956E-06 2.64698E-23
 -1       527 2.72888E-05-5.55014E-06 5.29396E-23
 -1       528 2.63109E-05-7.76120E-06 0.00000E+00
 -1       529 2.52101E-05-9.64320E-06 0.00000E+00
 -1       530 2.39023E-05-1.09709E-05 0.00000E+00
 -1       531 2.23268E-05-1.15835E-05 0.00000E+00
 -1       532 2.04357E-05-1.13506E-05 0.00000E+00
 -1       533 1.82147E-05-1.02407E-05 5.29396E-23
 -1       534 1.56736E-05-8.25638E-06 0.00000E+00
 -1       535 1.28402E-05-5.50843E-06 2.64698E-23
 -1       536 3.83666E-05 1.07144E-06-1.65436E-24
 -1       537 3.83643E-05 3.07321E-06 0.00000E+00
 -1       538 3.83628E-05 4.48261E-06 0.00000E+00
 -1       539 3.83626E-05 5.36871E-06 0.00000E+00
 -1       540 3.83627E-05 5.80021E-06 1.03398E-25
 -1       541 3.83630E-05 5.84578E-06 0.00000E+00
 -1       542 3.83634E-05 5.57376E-06 0.00000E+00
 -1       543 3.83637E-05 5.05248E-06 0.00000E+00
 -1       544 3.83639E-05 4.35004E-06 0.00000E+00
 -1       545 3.83640E-05 3.53454E-06-6.46235E-27
 -1       546 3.83641E-05 2.67396E-06 2.58494E-26
 -1       547 3.83642E-05 1.83629E-06 0.00000E+00
 -1       548 3.83644E-05 1.08954E-06 5.16988E-26
 -1       549 3.83648E-05 5.01708E-07-5.16988E-26
 -1       550 3.83653E-05 1.40985E-07 2.06795E-25
 -1       551 3.45854E-05-1.67267E-06-3.30872E-24
 -1       552 3.00526E-05-1.75527E-06-1.24077E-24
 -1       553 2.50410E-05-1.84019E-06-1.65436E-24
 -1       554 1.98195E-05-1.92744E-06-3.30872E-24
 -1       555 1.46567E-05-2.01585E-06 0.00000E+00
 -1       556 3.73836E-05 9.81208E-07-6.61744E-24
 -1       557 3.66268E-05 2.94597E-06 0.00000E+00
 -1       558 3.60786E-05 4.35878E-06 0.00000E+00
 -1       559 3.57159E-05 5.28027E-06 0.00000E+00
 -1       560 3.55152E-05 5.77093E-06 0.00000E+00
 -1       561 3.54535E-05 5.89154E-06 0.00000E+00
 -1       562 3.55079E-05 5.70293E-06 0.00000E+00
 -1       563 3.56554E-05 5.26597E-06 0.00000E+00
 -1       564 3.58731E-05 4.64156E-06 0.00000E+00
 -1       565 3.61382E-05 3.89061E-06 1.65436E-24
 -1       566 3.64278E-05 3.07404E-06-4.13590E-25
 -1       567 3.67192E-05 2.25278E-06-1.03398E-25
 -1       568 3.69896E-05 1.48776E-06 0.00000E+00
 -1       569 3.72161E-05 8.39821E-07 0.00000E+00
 -1       570 3.73760E-05 3.69852E-07 0.00000E+00
 -1       571 3.83983E-05 1.25889E-07 0.00000E+00
 -1       572 3.84308E-05 1.54440E-07 0.00000E+00
 -1       573 3.84635E-05 1.65059E-07-4.13590E-25
 -1       574 3.84963E-05 1.61830E-07 2.06795E-25
 -1       575 3.85291E-05 1.48850E-07 8.27181E-25
 -1       576 3.85619E-05 1.30247E-07-4.13590E-25
 -1       577 3.85948E-05 1.10150E-07 8.27181E-25
 -1       578 3.86277E-05 9.26929E-08 0.00000E+00
 -1       579 3.86605E-05 8.20076E-08 1.65436E-24
 -1       580 3.86934E-05 8.22277E-08 0.00000E+00
 -1       581 3.87262E-05 9.74859E-08 0.00000E+00
 -1       582 3.87591E-05 1.31910E-07 0.00000E+00
 -1       583 3.87919E-05 1.89623E-07 0.00000E+00
 -1       584 3.88248E-05 2.74707E-07 0.00000E+00
 -1       585 3.88576E-05 3.91220E-07 0.00000E+00
 -1       586 3.82020E-05 8.64943E-08 0.00000E+00
 -1       587 3.80235E-05 9.71737E-08-2.06795E-25
 -1       588 3.78448E-05 1.07732E-07 0.00000E+00
 -1       589 3.76799E-05 1.18120E-07 0.00000E+00
 -1       590 3.75428E-05 1.28222E-07 0.00000E+00
 -1       591 3.83329E-05 1.42900E-07-5.16988E-26
 -1       592 3.83048E-05 1.92242E-07 0.00000E+00
 -1       593 3.82821E-05 2.26964E-07 2.06795E-25
 -1       594 3.82635E-05 2.50145E-07 0.00000E+00
 -1       595 3.82481E-05 2.64904E-07 0.00000E+00
 -1       596 3.82347E-05 2.74334E-07 0.00000E+00
 -1       597 3.82221E-05 2.81530E-07 0.00000E+00
 -1       598 3.82091E-05 2.89585E-07-1.03398E-25
 -1       599 3.81947E-05 3.01588E-07 0.00000E+00
 -1       600 3.81777E-05 3.20631E-07 0.00000E+00
 -1       601 3.81568E-05 3.49806E-07-2.06795E-25
 -1       602 3.81311E-05 3.92207E-07-5.16988E-26
 -1       603 3.80992E-05 4.50929E-07 1.55096E-25
 -1       604 3.80602E-05 5.29093E-07 0.00000E+00
 -1       605 3.80129E-05 6.29776E-07 0.00000E+00
 -1       606 3.88964E-05 7.69909E-07 0.00000E+00
 -1       607 3.89013E-05 1.04427E-06 0.00000E+00
 -1       608 3.89059E-05 1.36322E-06 0.00000E+00
 -1       609 3.89104E-05 1.72360E-06 0.00000E+00
 -1       610 3.89147E-05 2.12229E-06 0.00000E+00
 -1       611 3.89191E-05 2.55607E-06 0.00000E+00
 -1       612 3.89234E-05 3.02176E-06 0.00000E+00
 -1       613 3.89277E-05 3.51615E-06 0.00000E+00
 -1       614 3.89320E-05 4.03606E-06 0.00000E+00
 -1       615 3.89363E-05 4.57826E-06 4.13590E-25
 -1       616 3.89405E-05 5.13957E-06 0.00000E+00
 -1       617 3.89448E-05 5.71678E-06 0.00000E+00
 -1       618 3.89490E-05 6.30669E-06-4.13590E-25
 -1       619 3.89532E-05 6.90611E-06 0.00000E+00
 -1       620 3.89574E-05 7.51184E-06 0.00000E+00
 -1       621 3.87109E-05 5.78501E-07-8.27181E-25
 -1       622 3.85452E-05 6.14276E-07-4.13590E-25
 -1       623 3.83901E-05 6.50047E-07-8.27181E-25
 -1       624 3.82426E-05 6.85766E-07 0.00000E+00
 -1       625 3.80994E-05 7.21426E-07-8.27181E-25
 -1       626 3.88430E-05 7.81234E-07 0.00000E+00
 -1       627 3.87811E-05 1.05901E-06 0.00000E+00
 -1       628 3.87059E-05 1.37256E-06 0.00000E+00
 -1       629 3.86188E-05 1.71797E-06 0.00000E+00
 -1       630 3.85212E-05 2.09133E-06-1.65436E-24
 -1       631 3.84145E-05 2.48870E-06 0.00000E+00
 -1       632 3.83004E-05 2.90612E-06 0.00000E+00
 -1       633 3.81802E-05 3.33966E-06 8.27181E-25
 -1       634 3.80554E-05 3.78536E-06 0.00000E+00
 -1       635 3.79275E-05 4.23928E-06 0.00000E+00
 -1       636 3.77981E-05 4.69747E-06-8.27181E-25
 -1       637 3.76685E-05 5.15599E-06 4.13590E-25
 -1       638 3.75402E-05 5.61088E-06-8.27181E-25
 -1       639 3.74147E-05 6.05821E-06 0.00000E+00
 -1       640 3.72933E-05 6.49401E-06 0.00000E+00
 -1       656 3.84550E-05 7.92441E-06 3.30872E-24
 -1       657 3.81259E-05 7.72029E-06 0.00000E+00
 -1       658 3.79051E-05 7.51679E-06 3.30872E-24
 -1       659 3.77225E-05 7.31345E-06 1.65436E-24
 -1       660 3.75043E-05 7.10948E-06 3.30872E-24
 -1       661 3.87738E-05 8.71707E-06-4.13590E-25
 -1       662 3.85972E-05 9.28801E-06 0.00000E+00
 -1       663 3.84299E-05 9.83402E-06 8.27181E-25
 -1       664 3.82718E-05 1.03563E-05 0.00000E+00
 -1       665 3.81222E-05 1.08557E-05-8.27181E-25
 -1       666 3.79809E-05 1.13333E-05 0.00000E+00
 -1       667 3.78475E-05 1.17901E-05 0.00000E+00
 -1       668 3.77215E-05 1.22270E-05 0.00000E+00
 -1       669 3.76027E-05 1.26449E-05-8.27181E-25
 -1       670 3.74906E-05 1.30447E-05 0.00000E+00
 -1       671 3.73850E-05 1.34273E-05 0.00000E+00
 -1       672 3.72854E-05 1.37935E-05 0.00000E+00
 -1       673 3.71916E-05 1.41442E-05 0.00000E+00
 -1       674 3.71030E-05 1.44801E-05 0.00000E+00
 -1       675 3.70198E-05 1.48021E-05 0.00000E+00
 -1       676 3.83941E-05 1.53040E-05 0.00000E+00
 -1       677 3.81027E-05 1.52650E-05 0.00000E+00
 -1       678 3.78115E-05 1.52260E-05 0.00000E+00
 -1       679 3.75205E-05 1.51872E-05 0.00000E+00
 -1       680 3.72297E-05 1.51483E-05 0.00000E+00
 -1       771 7.87688E-06 1.55754E-06 0.00000E+00
 -1       772 6.18447E-06 4.55733E-06 0.00000E+00
 -1       773 4.73130E-06 6.92339E-06 0.00000E+00
 -1       774 3.50085E-06 8.69804E-06 0.00000E+00
 -1       775 2.47701E-06 9.92407E-06 0.00000E+00
 -1       776 1.64315E-06 1.06451E-05 6.61744E-24
 -1       777 9.82497E-07 1.09051E-05 0.00000E+00
 -1       778 4.78079E-07 1.07487E-05 6.61744E-24
 -1       779 1.12849E-07 1.02211E-05 0.00000E+00
 -1       780-1.30418E-07 9.36788E-06 0.00000E+00
 -1       781-2.68972E-07 8.23482E-06 0.00000E+00
 -1       782-3.20198E-07 6.86824E-06 6.61744E-24
 -1       783-3.01499E-07 5.31460E-06 0.00000E+00
 -1       784-2.30328E-07 3.62070E-06 6.61744E-24
 -1       785-1.24202E-07 1.83342E-06-1.32349E-23
 -1       786 3.74771E-05 1.38409E-07 0.00000E+00
 -1       787 3.75089E-05 1.40059E-07 0.00000E+00
 -1       788 3.75406E-05 1.42909E-07 0.00000E+00
 -1       789 3.75726E-05 1.47546E-07 0.00000E+00
 -1       790 3.76047E-05 1.54685E-07-8.27181E-25
 -1       791 3.76368E-05 1.65047E-07 0.00000E+00
 -1       792 3.76689E-05 1.79583E-07 8.27181E-25
 -1       793 3.77010E-05 1.99254E-07 0.00000E+00
 -1       794 3.77332E-05 2.25391E-07 0.00000E+00
 -1       795 3.77653E-05 2.59336E-07 0.00000E+00
 -1       796 3.77974E-05 3.02996E-07 0.00000E+00
 -1       797 3.78296E-05 3.58294E-07 4.13590E-25
 -1       798 3.78617E-05 4.27996E-07-8.27181E-25
 -1       799 3.78937E-05 5.14888E-07 0.00000E+00
 -1       800 3.79257E-05 6.23007E-07-8.27181E-25
 -1       801 3.49179E-05 1.39880E-07 4.13590E-25
 -1       802 2.73963E-05 1.18299E-07 0.00000E+00
 -1       803 1.75138E-05 7.78828E-08 1.65436E-24
 -1       804 7.90155E-06 3.64068E-08 1.65436E-24
 -1       805 1.18705E-06 1.75450E-08 0.00000E+00
 -1       806 3.74080E-05 1.17255E-07-8.27181E-25
 -1       807 3.73674E-05 9.71922E-08 4.13590E-25
 -1       808 3.73255E-05 7.96395E-08-1.65436E-24
 -1       809 3.72818E-05 6.66804E-08-4.13590E-25
 -1       810 3.72355E-05 6.03944E-08-8.27181E-25
 -1       811 3.71859E-05 6.28308E-08 0.00000E+00
 -1       812 3.71322E-05 7.60367E-08-8.27181E-25
 -1       813 3.70737E-05 1.02054E-07-8.27181E-25
 -1       814 3.70097E-05 1.42926E-07-8.27181E-25
 -1       815 3.69393E-05 2.00693E-07 8.27181E-25
 -1       816 3.68618E-05 2.77393E-07 8.27181E-25
 -1       817 3.67765E-05 3.75067E-07-8.27181E-25
 -1       818 3.66826E-05 4.95753E-07 1.65436E-24
 -1       819 3.65793E-05 6.41484E-07 4.13590E-25
 -1       820 3.64660E-05 8.14292E-07 8.27181E-25
 -1       821 3.79113E-05 9.55327E-07 0.00000E+00
 -1       822 3.78625E-05 1.26009E-06-4.13590E-25
 -1       823 3.78138E-05 1.67977E-06-1.65436E-24
 -1       824 3.77645E-05 2.22318E-06 0.00000E+00
 -1       825 3.77152E-05 2.85155E-06 0.00000E+00
 -1       826 3.76657E-05 3.52590E-06 0.00000E+00
 -1       827 3.76162E-05 4.18953E-06 0.00000E+00
 -1       828 3.75667E-05 4.78584E-06-8.27181E-25
 -1       829 3.75173E-05 5.28409E-06 1.65436E-24
 -1       830 3.74680E-05 5.65379E-06 0.00000E+00
 -1       831 3.74187E-05 5.91395E-06 1.65436E-24
 -1       832 3.73695E-05 6.08382E-06-8.27181E-25
 -1       833 3.73204E-05 6.21742E-06-1.65436E-24
 -1       834 3.72718E-05 6.36885E-06 4.13590E-25
 -1       835 3.72230E-05 6.58543E-06 0.00000E+00
 -1       836 3.77626E-05 7.99675E-07 0.00000E+00
 -1       837 3.75091E-05 8.43868E-07-4.13590E-25
 -1       838 3.72186E-05 8.87981E-07 8.27181E-25
 -1       839 3.69129E-05 9.31811E-07 0.00000E+00
 -1       840 3.66136E-05 9.75571E-07-2.06795E-25
 -1       856 3.71638E-05 7.32704E-06-1.03398E-25
 -1       857 3.71491E-05 7.79142E-06 0.00000E+00
 -1       858 3.71345E-05 8.29925E-06 4.13590E-25
 -1       859 3.71196E-05 8.84234E-06 0.00000E+00
 -1       860 3.71046E-05 9.41246E-06 0.00000E+00
 -1       861 3.70896E-05 1.00014E-05-2.06795E-25
 -1       862 3.70746E-05 1.06008E-05 0.00000E+00
 -1       863 3.70595E-05 1.12026E-05 0.00000E+00
 -1       864 3.70445E-05 1.17984E-05 0.00000E+00
 -1       865 3.70294E-05 1.23799E-05 2.06795E-25
 -1       866 3.70144E-05 1.29391E-05 0.00000E+00
 -1       867 3.69994E-05 1.34675E-05-2.06795E-25
 -1       868 3.69844E-05 1.39570E-05 0.00000E+00
 -1       869 3.69694E-05 1.43994E-05 2.06795E-25
 -1       870 3.69544E-05 1.47865E-05-4.13590E-25
 -1       871 3.68624E-05 6.91390E-06 0.00000E+00
 -1       872 3.65983E-05 6.91246E-06 0.00000E+00
 -1       873 3.63629E-05 6.91082E-06 0.00000E+00
 -1       874 3.61345E-05 6.90893E-06 5.16988E-26
 -1       875 3.58910E-05 6.90681E-06-2.06795E-25
 -1       876 3.70677E-05 7.33135E-06 0.00000E+00
 -1       877 3.69501E-05 7.77342E-06 8.27181E-25
 -1       878 3.68243E-05 8.23748E-06 0.00000E+00
 -1       879 3.66914E-05 8.72072E-06 0.00000E+00
 -1       880 3.65524E-05 9.22030E-06 1.65436E-24
 -1       881 3.64084E-05 9.73340E-06 0.00000E+00
 -1       882 3.62603E-05 1.02572E-05-1.65436E-24
 -1       883 3.61093E-05 1.07889E-05 0.00000E+00
 -1       884 3.59564E-05 1.13256E-05-1.65436E-24
 -1       885 3.58026E-05 1.18646E-05 8.27181E-25
 -1       886 3.56490E-05 1.24031E-05-1.65436E-24
 -1       887 3.54966E-05 1.29382E-05-4.13590E-25
 -1       888 3.53465E-05 1.34670E-05 0.00000E+00
 -1       889 3.51996E-05 1.39868E-05 0.00000E+00
 -1       890 3.50568E-05 1.44948E-05-4.13590E-25
 -1       891 3.66587E-05 1.50897E-05 4.13590E-25
 -1       892 3.63692E-05 1.50690E-05 0.00000E+00
 -1       893 3.60606E-05 1.50484E-05-4.13590E-25
 -1       894 3.57225E-05 1.50278E-05 1.03398E-25
 -1       895 3.53448E-05 1.50073E-05 2.06795E-25
 -1       956 3.62976E-05 1.27728E-06 8.27181E-25
 -1       957 3.62519E-05 1.56767E-06-8.27181E-25
 -1       958 3.62062E-05 1.88429E-06-8.27181E-25
 -1       959 3.61603E-05 2.22388E-06-8.27181E-25
 -1       960 3.61144E-05 2.58320E-06 8.27181E-25
 -1       961 3.60685E-05 2.95899E-06 8.27181E-25
 -1       962 3.60226E-05 3.34797E-06 1.65436E-24
 -1       963 3.59767E-05 3.74688E-06 8.27181E-25
 -1       964 3.59308E-05 4.15244E-06 0.00000E+00
 -1       965 3.58849E-05 4.56139E-06-8.27181E-25
 -1       966 3.58390E-05 4.97047E-06-1.65436E-24
 -1       967 3.57931E-05 5.37639E-06 0.00000E+00
 -1       968 3.57472E-05 5.77588E-06 1.65436E-24
 -1       969 3.57014E-05 6.16570E-06 0.00000E+00
 -1       970 3.56557E-05 6.54258E-06 0.00000E+00
 -1       971 3.55679E-05 7.27374E-06 0.00000E+00
 -1       972 3.55246E-05 7.68263E-06 0.00000E+00
 -1       973 3.54811E-05 8.12577E-06 1.65436E-24
 -1       974 3.54375E-05 8.59876E-06-8.27181E-25
 -1       975 3.53940E-05 9.09715E-06-8.27181E-25
 -1       976 3.53504E-05 9.61651E-06 8.27181E-25
 -1       977 3.53068E-05 1.01524E-05 1.65436E-24
 -1       978 3.52632E-05 1.07004E-05 0.00000E+00
 -1       979 3.52196E-05 1.12561E-05-1.65436E-24
 -1       980 3.51760E-05 1.18150E-05 0.00000E+00
 -1       981 3.51324E-05 1.23726E-05 0.00000E+00
 -1       982 3.50888E-05 1.29246E-05 0.00000E+00
 -1       983 3.50453E-05 1.34665E-05 0.00000E+00
 -1       984 3.50020E-05 1.39938E-05 0.00000E+00
 -1       985 3.49589E-05 1.45022E-05 0.00000E+00
 -3
    1PSTEP                         2           1           1          
  100CL  101 2.50000E-01         409                     0    1           1
 -4  STRESS      6    1
 -5  SXX         1    4    1    1
 -5  SYY         1    4    2    2
 -5  SZZ         1    4    3    3
 -5  SXY         1    4    1    2
 -5  SYZ         1    4    2    3
 -5  SZX         1    4    3    1
 -1         1-8.63905E+05-3.98585E+05-1.75233E+05-5.58306E+05-1.27329E-10 4.87489E-10
 -1         2 1.44473E+03 1.59916E+05 4.70696E+03 2.67232E+02-8.53504E-11-5.92300E-09
 -1         3-1.82478E+01-3.61013E+05 8.30026E+01-6.58695E+01-1.17628E-10-2.52021E-09
 -1         5-2.15116E+00 1.29804E+05 3.42611E+00-5.16051E-02 7.03972E-11 4.53429E-09
 -1         8-4.07007E+05-1.77336E+05-1.38779E+04-3.08515E+05 2.13731E-10 1.33514E-09
 -1         9-6.98523E+05-1.82663E+05-6.93961E+04-2.42746E+05 1.76806E-09-7.07223E-10
 -1        10-2.67822E+02-3.76103E+05-4.78210E+02-4.36370E+02-1.62527E-09 1.51856E-09
 -1        12-7.44744E-01 1.29811E+05 1.11053E+02-1.07420E-01 1.29221E-10-1.64239E-08
 -1        15 1.07553E+03 5.91058E+02 3.47662E+03 1.21405E+00-1.33087E-08-5.27775E-06
 -1        16-1.96249E+06-6.33010E+05-3.05149E+05-6.44103E+05 5.95901E-09-4.50139E-09
 -1        17-4.32348E+05-2.68010E+05-8.30916E+04-2.53404E+05-2.74958E-09 8.97853E-10
 -1        18 1.69019E+04 1.80504E+03-5.74268E+03-3.05120E+04 3.80851E-10-4.01315E-10
 -1        19 4.04144E+04 4.84889E+04-2.19418E+02 8.11599E+03-3.48064E-10-2.32430E-09
 -1        20-1.70816E+04-1.91761E+05-4.22981E+04 1.42397E+04 2.88120E-09 2.08183E-09
 -1        21-1.82021E+01-1.11628E+05-3.60024E+02-2.23139E+01-5.42713E-09 2.17923E-09
 -1        24-1.72164E+06-6.03026E+05-2.45942E+05-7.35749E+05-7.96717E-09-3.99693E-09
 -1        25 1.52077E+04-3.72352E+03 8.81528E+03-5.52123E+04 1.88311E-10-9.30959E-10
 -1        26-9.83089E+03 3.29668E+04-7.11094E+03-4.62468E+03 1.69148E-09 2.58943E-09
 -1        27-3.15385E+04-1.05477E+05-3.98293E+04 2.38723E+04 4.76299E-09-2.49004E-09
 -1        28 8.61263E+03-3.08979E+04 6.30387E+03 9.79715E+03 1.68598E-09 6.72173E-12
 -1        32-4.13071E+05-6.54907E+04 1.76612E+05-2.77026E+05-7.96717E-09 7.96310E-09
 -1        33-6.06364E+04 3.12267E+04 1.10618E+04-1.83354E+04 5.80987E-10 4.67829E-09
 -1        34-7.87119E+04-7.85805E+03 1.91614E+02 2.43441E+04 2.58136E-09 3.82670E-09
 -1        35-8.76449E+03-1.22969E+04-4.78984E+02 1.94407E+04 2.56974E-09-2.80609E-09
 -1        51 8.24136E+03-2.04643E+05 1.98529E+04-5.03529E+05 8.00355E-11-2.88128E-09
 -1        52 3.99436E+03-2.02592E+05 1.30353E+04-5.87270E+05 1.81899E-10 2.82307E-09
 -1        53 2.40205E+03-2.07359E+05 1.13525E+04-5.01826E+05 2.07365E-10-3.12866E-10
 -1        54 7.88660E+03-2.05269E+05 1.82958E+04-5.89087E+05-1.63709E-10-5.08589E-09
 -1        55 1.81377E+04-2.11868E+05 3.29159E+04-5.01616E+05 1.96451E-10-4.62023E-10
 -1        56-1.65949E+06-1.87755E+05-1.29607E+05-6.40152E+05 1.03682E-10-4.83851E-09
 -1        57-1.71217E+06-3.04313E+05-8.73494E+04-6.34462E+05 6.94399E-10 2.78942E-09
 -1        58-1.68525E+06-2.29056E+05-3.05153E+04-6.32354E+05 4.62478E-10 3.17232E-09
 -1        59-1.68237E+06-2.55894E+05-1.82172E+04-6.43834E+05-8.31619E-11-5.20777E-09
 -1        60-1.68905E+06-2.34793E+05-7.13385E+03-6.31278E+05 4.25644E-10-5.17070E-09
 -1        61-1.67827E+06-2.48901E+05-4.05755E+03-6.44764E+05-3.53054E-10-6.46003E-09
 -1        62-1.68931E+06-2.35876E+05-1.95509E+03-6.31479E+05 1.44439E-09-6.69900E-11
 -1        63-1.67859E+06-2.47157E+05-1.61163E+03-6.43820E+05-2.22258E-10 5.19299E-09
 -1        64-1.68869E+06-2.36532E+05-1.84669E+03-6.32213E+05-3.56977E-11 5.44560E-10
 -1        65-1.68060E+06-2.46311E+05-3.70628E+03-6.41866E+05-1.65437E-09 4.58363E-09
 -1        66-1.68727E+06-2.36759E+05-6.51015E+03-6.33406E+05 7.49196E-10 7.29278E-09
 -1        67-1.68653E+06-2.50401E+05-1.65340E+04-6.38404E+05-8.50662E-11 3.20688E-09
 -1        68-1.68278E+06-2.32619E+05-2.77415E+04-6.35601E+05 1.69098E-09-6.60293E-10
 -1        69-1.71551E+06-2.92460E+05-7.93197E+04-6.27709E+05 5.83213E-10-9.85892E-10
 -1        70-1.65852E+06-1.95954E+05-1.17747E+05-6.43646E+05 2.91038E-10 1.36788E-09
 -1        86-7.23812E+02 1.58516E+05 5.05320E+03-1.33623E+02 6.50175E-10-1.26659E-09
 -1        87 4.80650E+03 1.61552E+05 1.05282E+04 5.46819E+02 1.09912E-09 3.49951E-09
 -1        88-4.07567E+03 1.56881E+05 1.61344E+04-4.13210E+02 1.60890E-09 6.15387E-10
 -1        89 3.03759E+04 1.73448E+05 4.34887E+04 1.16547E+03 2.47246E-09-4.68816E-09
 -1        90-2.62094E+04 1.46625E+05 6.14521E+04-7.52097E+02 2.74667E-09 2.37634E-09
 -1       121-3.46442E+01-3.61130E+05 8.29791E+01 3.29153E+01 1.71699E-10 1.00872E-08
 -1       122 9.03424E+00-3.60994E+05 1.81872E+02-1.31887E+02-6.21817E-10 9.06039E-09
 -1       123-5.46928E+01-3.61149E+05 2.99052E+02 9.88578E+01 5.79121E-10 4.64661E-09
 -1       124 3.44671E+02-3.60787E+05 7.64485E+02-3.26954E+02-1.25004E-09 2.92789E-09
 -1       125-2.73410E+02-3.61339E+05 1.17699E+03 2.28004E+02 8.69022E-10-2.88128E-09
 -1       191-2.37214E+00 1.29815E+05 4.11178E+00 2.56416E-02 7.80869E-11 1.07348E-08
 -1       192-2.46559E+00 1.29804E+05 7.25378E+00 1.57306E-01 1.01909E-10 1.86603E-08
 -1       193-3.20847E+00 1.29815E+05 1.35066E+01-1.84079E-01 1.37628E-10 1.07229E-08
 -1       194-3.47767E+00 1.29805E+05 2.74373E+01 4.95549E-01 5.38734E-11-2.69824E-09
 -1       195-4.81613E+00 1.29814E+05 5.36864E+01-3.14630E-01 2.08548E-10-7.27641E-09
 -1       251 1.43066E+05-2.53687E+04 5.93105E+04 2.15007E+03 2.28283E-10 1.01136E-09
 -1       252 1.69625E+05 2.93652E+04 4.20035E+04-7.51038E+03-2.30784E-10-8.92669E-10
 -1       253 1.53174E+05-3.92928E+03 1.53543E+04 1.62184E+03-2.62958E-10-3.19415E-09
 -1       254 1.57759E+05 4.54282E+03 9.68377E+03-6.67112E+03-2.35332E-11-3.12923E-09
 -1       255 1.54898E+05-6.07493E+02 3.96741E+03 1.31093E+03-6.92921E-11 1.19371E-09
 -1       256 1.55710E+05 7.19769E+02 2.40759E+03-6.21025E+03 2.42437E-10-1.66446E-09
 -1       257 1.55208E+05-1.06556E+02 1.24107E+03 1.16096E+03-2.32916E-11-4.36557E-10
 -1       258 1.55396E+05 2.23300E+02 1.10071E+03-6.05845E+03 2.27497E-10 3.94216E-09
 -1       259 1.55207E+05-1.08818E+02 1.26246E+03 1.15912E+03-4.37694E-10 3.78736E-09
 -1       260 1.55718E+05 7.39602E+02 2.46846E+03-6.20342E+03 4.65619E-10-1.02784E-09
 -1       261 1.54891E+05-6.24846E+02 4.07860E+03 1.30593E+03-3.92504E-11-1.57502E-09
 -1       262 1.57819E+05 4.67374E+03 9.95832E+03-6.65638E+03-5.50415E-10-4.07704E-09
 -1       263 1.53121E+05-4.04208E+03 1.57969E+04 1.61209E+03-6.36476E-10 4.84488E-09
 -1       264 1.70011E+05 3.02099E+04 4.32063E+04-7.48678E+03-1.53889E-09 5.43514E-09
 -1       265 1.42731E+05-2.60967E+04 6.10212E+04 2.13620E+03-5.97765E-10 2.54659E-09
 -1       266-1.94708E+04-9.10519E+03 4.56811E+04-2.59759E+01-2.07219E-08-8.29863E-06
 -1       267 2.25719E+04 1.06113E+04 3.22883E+04 2.99726E+01-4.10350E-08-1.63988E-05
 -1       268-3.02685E+03-1.50291E+03 1.20013E+04-3.81890E+00-3.29765E-08-1.31518E-05
 -1       269 3.57381E+03 1.79860E+03 7.80074E+03 4.44857E+00-2.48846E-08-9.90906E-06
 -1       270-5.36434E+02-2.95527E+02 3.76553E+03-6.03678E-01-1.83926E-08-7.30227E-06
 -1       271-1.91281E+06-2.37683E+05-1.47080E+05-7.43904E+05 2.43745E-10-5.82077E-10
 -1       272-1.95254E+06-3.58186E+05-9.45792E+04-7.57832E+05-6.20616E-10-6.22640E-09
 -1       273-1.94047E+06-2.74336E+05-3.47396E+04-7.37397E+05 4.89536E-10 1.02955E-09
 -1       274-1.92037E+06-3.13122E+05-1.94645E+04-7.67743E+05-1.09821E-10 3.35194E-09
 -1       275-1.94456E+06-2.77862E+05-8.08119E+03-7.35964E+05 4.25189E-10-1.08548E-09
 -1       276-1.91557E+06-3.08936E+05-4.30274E+03-7.70034E+05-5.40467E-10 3.76872E-10
 -1       277-1.94542E+06-2.77907E+05-2.10398E+03-7.35437E+05 2.31012E-09 1.05160E-09
 -1       278-1.91475E+06-3.08807E+05-1.53159E+03-7.70666E+05 5.08987E-09 3.28879E-09
 -1       279-1.94546E+06-2.77899E+05-1.64246E+03-7.35407E+05 2.05500E-09 2.35332E-10
 -1       280-1.91531E+06-3.08812E+05-3.00975E+03-7.70182E+05 2.71939E-10-2.59695E-09
 -1       281-1.94479E+06-2.77970E+05-5.49662E+03-7.35863E+05-3.33330E-10 2.11685E-09
 -1       282-1.91880E+06-3.11320E+05-1.31356E+04-7.68243E+05-1.09139E-10 4.57567E-09
 -1       283-1.94181E+06-2.75842E+05-2.34288E+04-7.37082E+05 1.28330E-09-2.71939E-09
 -1       284-1.94096E+06-3.41102E+05-6.37142E+04-7.60838E+05 3.82715E-09-1.10595E-09
 -1       285-1.92282E+06-2.51544E+05-9.91386E+04-7.41871E+05 2.49747E-09 6.54836E-11
 -1       301 7.33929E+03-4.64641E+03 5.73875E+04-1.42746E+04-3.85626E-10 1.18803E-11
 -1       302 7.87875E+03 9.92613E+03 4.14457E+04-2.09907E+04 8.51173E-10 9.40872E-10
 -1       303 3.29868E+02 5.07487E+02 3.81583E+04-1.42960E+04-4.28372E-10-1.92358E-09
 -1       304 1.48777E+04 1.63791E+04 6.41948E+04-2.09355E+04 3.17414E-10 3.77349E-09
 -1       305 1.47495E+04-1.10694E+04 1.07724E+05-1.42995E+04-5.31145E-10 3.77054E-09
 -1       306-2.06383E+06-2.36045E+05-1.57194E+05-8.03064E+05 1.53159E-09-2.60479E-09
 -1       307-2.13862E+06-3.75285E+05-1.07204E+05-7.83192E+05 1.78170E-09-7.05768E-10
 -1       308-2.09862E+06-2.85767E+05-3.69779E+04-7.89345E+05 2.04182E-10 3.36695E-09
 -1       309-2.09627E+06-3.19518E+05-2.24326E+04-8.01765E+05-3.26878E-10-5.63887E-11
 -1       310-2.10603E+06-2.90856E+05-8.67597E+03-7.84842E+05-3.88596E-10-1.77806E-10
 -1       311-2.08687E+06-3.14521E+05-5.04257E+03-8.08138E+05 2.92789E-09 6.48924E-09
 -1       312-2.10805E+06-2.90587E+05-2.46344E+03-7.83063E+05 4.74529E-10 9.25354E-10
 -1       313-2.08511E+06-3.14530E+05-2.22282E+03-8.09648E+05-6.63874E-10 2.98277E-09
 -1       314-2.10780E+06-2.90816E+05-2.66812E+03-7.83354E+05-5.05366E-10 8.92783E-10
 -1       315-2.08788E+06-3.13790E+05-5.63889E+03-8.07007E+05 3.08603E-10 2.33285E-10
 -1       316-2.10524E+06-2.91374E+05-9.80045E+03-7.85667E+05 2.05687E-09-1.31513E-09
 -1       317-2.09876E+06-3.19256E+05-2.53864E+04-7.99576E+05 3.95005E-10 1.87174E-09
 -1       318-2.09689E+06-2.85546E+05-4.18625E+04-7.90687E+05-1.00135E-09 1.11577E-08
 -1       319-2.14638E+06-3.82826E+05-1.21401E+05-7.79066E+05-1.31604E-09 5.76983E-09
 -1       320-2.05782E+06-2.28869E+05-1.77966E+05-8.05794E+05 4.50746E-09-1.20781E-09
 -1       336 2.93879E+02-3.90947E+05-2.06931E+03 2.08192E+02-3.41493E-09 6.36646E-11
 -1       337-7.41774E+02-3.91548E+05-2.26794E+03-5.87337E+02-6.38835E-09 1.64300E-09
 -1       338 1.94820E+02-3.91009E+05-2.84194E+03 3.78339E+02-4.53554E-09 3.12230E-09
 -1       339-2.93769E+03-3.92888E+05-6.22902E+03-9.25217E+02-8.29027E-09 2.30739E-09
 -1       340 2.01015E+03-3.89617E+05-9.58871E+03 5.44343E+02-5.48516E-09 5.93445E-09
 -1       406 7.75170E+00 1.29809E+05 2.19269E+02 4.17403E-01 3.14117E-10 7.36600E-09
 -1       407 7.56981E+01 1.29850E+05 4.66006E+02-5.66508E+00 3.17613E-11 3.53798E-08
 -1       408 2.39135E+02 1.29776E+05 9.30752E+02 5.29699E+00 3.37081E-10 1.65173E-08
 -1       409 1.00570E+03 1.30147E+05 2.09545E+03-4.75274E+01-2.75122E-11-2.73417E-10
 -1       410 2.89088E+03 1.29511E+05 4.27784E+03 4.31500E+01 3.27873E-10 1.72417E-09
 -1       521-3.88768E+06-4.47698E+05-2.90906E+05-1.51037E+06 3.44880E-09-3.81260E-09
 -1       522-4.02703E+06-6.99866E+05-1.97743E+05-1.47276E+06 2.61934E-10 1.49157E-09
 -1       523-3.95241E+06-5.37710E+05-6.83942E+04-1.48460E+06 1.44337E-09-9.09495E-11
 -1       524-3.94827E+06-5.98668E+05-4.12842E+04-1.50753E+06 1.45201E-09 1.76260E-09
 -1       525-3.96596E+06-5.46695E+05-1.59843E+04-1.47635E+06 6.00039E-10-5.26597E-10
 -1       526-3.93215E+06-5.88666E+05-9.22045E+03-1.51782E+06 3.29294E-10-7.84439E-12
 -1       527-3.96852E+06-5.47334E+05-4.42579E+03-1.47447E+06 4.25302E-10 2.85229E-09
 -1       528-3.93219E+06-5.85201E+05-3.79485E+03-1.51645E+06-2.23031E-09-6.27921E-10
 -1       529-3.96586E+06-5.50149E+05-4.44463E+03-1.47769E+06-8.54698E-10-2.55341E-10
 -1       530-3.94189E+06-5.78426E+05-9.08489E+03-1.50585E+06-2.74099E-10-1.06229E-09
 -1       531-3.95869E+06-5.54249E+05-1.59370E+04-1.48496E+06 4.05691E-10 2.19643E-09
 -1       532-3.96510E+06-5.81217E+05-4.09095E+04-1.48756E+06 8.98581E-10-2.58888E-09
 -1       533-3.94268E+06-5.47713E+05-6.78872E+04-1.49584E+06 1.64164E-09-3.91447E-09
 -1       534-4.04567E+06-6.79780E+05-1.96244E+05-1.45131E+06 1.68075E-09 2.93039E-09
 -1       535-3.87883E+06-4.57725E+05-2.88602E+05-1.52062E+06-5.74801E-09 2.50293E-09
 -1       536-4.10209E+03-1.10725E+04 2.55258E+04 2.66819E+02-1.12237E-09 9.53150E-10
 -1       537 7.56371E+03 1.28127E+04 1.81606E+04-1.01084E+03-3.83524E-09-1.16529E-09
 -1       538 2.56503E+02-1.73517E+03 6.58901E+03 2.43180E+02 2.68315E-10 2.78897E-09
 -1       539 2.43473E+03 2.00389E+03 4.19125E+03-9.82892E+02 2.34363E-09 1.34651E-09
 -1       540 1.02243E+03-2.70085E+02 1.66660E+03 2.38883E+02 5.96941E-10 1.03262E-09
 -1       541 1.50527E+03 3.09542E+02 9.87822E+02-9.76580E+02-2.21753E-10 3.10878E-09
 -1       542 1.18332E+03-4.02415E+01 4.02235E+02 2.36864E+02 1.25393E-10 1.06189E-09
 -1       543 1.29534E+03 3.94966E+01 2.03153E+02-9.73488E+02-6.83922E-10-3.93609E-09
 -1       544 1.23068E+03 9.84699E-01 3.77038E+01 2.35790E+02-1.93623E-10-1.98737E-09
 -1       545 1.21874E+03-4.30718E+01-9.87268E+01-9.72178E+02-7.96367E-10 1.70772E-10
 -1       546 1.25917E+03 4.28226E+01-2.42180E+02 2.35554E+02-2.85959E-10 1.07097E-09
 -1       547 1.08908E+03-3.18747E+02-6.47310E+02-9.72493E+02-1.10851E-09 1.84262E-09
 -1       548 1.36050E+03 2.76350E+02-1.05182E+03 2.36104E+02-1.16444E-09 7.48628E-11
 -1       549 3.37497E+02-2.03788E+03-2.87283E+03-9.73879E+02-6.64825E-10-7.43057E-10
 -1       550 2.01186E+03 1.75983E+03-4.08907E+03 2.36940E+02 1.56604E-11-2.50657E-09
 -1       551 2.97870E+03-2.06460E+05 1.16049E+04-3.54334E+05-1.52595E-08-2.82671E-09
 -1       552 5.83900E+03-2.05795E+05 1.48396E+04-5.04109E+05-1.20854E-08 4.92582E-09
 -1       553 3.57783E+03-2.08513E+05 2.31336E+04-3.53225E+05-1.86810E-08 5.11864E-09
 -1       554 1.69034E+04-1.97804E+05 4.91090E+04-5.04589E+05-1.14851E-08 1.30012E-09
 -1       555 1.78836E+04-2.17987E+05 8.83665E+04-3.53733E+05-1.88775E-08-2.00453E-09
 -1       556 2.80153E+04-6.54635E+04 2.29911E+04-8.83105E+04-2.95404E-09-2.59752E-09
 -1       557 5.46598E+04-8.79870E+04 1.20056E+04-1.10217E+05 4.51109E-10 3.50292E-09
 -1       558 2.84896E+04-6.88495E+04 4.95458E+03-8.53605E+04-2.24827E-09 2.11003E-10
 -1       559 5.17016E+04-9.13398E+04 2.48119E+03-1.11366E+05 2.67755E-09 8.27640E-11
 -1       560 2.81354E+04-6.85955E+04 1.07790E+03-8.55450E+04 7.49424E-10 1.00590E-09
 -1       561 5.09913E+04-9.12522E+04 5.49024E+02-1.11805E+05-4.05635E-10 4.15821E-09
 -1       562 2.78166E+04-6.83663E+04 2.30482E+02-8.57796E+04-8.62201E-10 2.52919E-09
 -1       563 5.05990E+04-9.10868E+04 1.27232E+02-1.12055E+05-1.00590E-09-4.47614E-09
 -1       564 2.76172E+04-6.82331E+04 4.82383E+01-8.59237E+04 2.44290E-09-2.24509E-09
 -1       565 5.03981E+04-9.10030E+04 2.05164E+01-1.12179E+05 1.75123E-09 2.65300E-09
 -1       566 2.75503E+04-6.81857E+04-1.69696E+01-8.59742E+04-1.16006E-09-9.19499E-10
 -1       567 5.03659E+04-9.09865E+04-6.58771E+01-1.12166E+05 5.13796E-09-8.47649E-10
 -1       568 2.76330E+04-6.82420E+04-1.65085E+02-8.59471E+04-9.98625E-10 1.76624E-09
 -1       569 5.01653E+04-9.08721E+04-3.91438E+02-1.11727E+05-2.01908E-09 3.01952E-09
 -1       570 2.81457E+04-6.87583E+04-7.95432E+02-8.60413E+04 8.11269E-10-1.88402E-09
 -1       571 9.36638E+04 3.37922E+03 5.00422E+03-2.36916E+04 1.09594E-09 8.32188E-10
 -1       572 9.44101E+04 1.17560E+03 2.45150E+03-2.59700E+04 8.17863E-10-2.17278E-09
 -1       573 9.39672E+04 2.80304E+02 1.08903E+03-2.36298E+04 3.50838E-10 3.33989E-09
 -1       574 9.40566E+04 9.04238E+01 5.45472E+02-2.60395E+04-1.23919E-09 1.53364E-09
 -1       575 9.40030E+04 1.16077E+01 2.57035E+02-2.36215E+04-1.47952E-09-2.51248E-10
 -1       576 9.40095E+04 2.14823E+00 1.30720E+02-2.60488E+04-1.53746E-09 2.10321E-09
 -1       577 9.40082E+04-2.87157E+00 6.43056E+01-2.36204E+04-1.12379E-10 9.05402E-10
 -1       578 9.40038E+04-1.71888E+00 3.48775E+01-2.60499E+04 6.93490E-10-1.20804E-09
 -1       579 9.40116E+04-2.57415E+00 2.11456E+01-2.36205E+04 4.26098E-10-3.37445E-09
 -1       580 9.40074E+04-2.57255E+00 1.93363E+01-2.60484E+04 3.74712E-10-1.11800E-09
 -1       581 9.40167E+04-3.41889E+00 2.60241E+01-2.36219E+04 4.13820E-11-4.75666E-10
 -1       582 9.40185E+04 1.60182E+00 4.91617E+01-2.60342E+04 1.04137E-10-9.41100E-10
 -1       583 9.40215E+04 1.55071E+01 9.45547E+01-2.36347E+04-6.82121E-12 1.05297E-09
 -1       584 9.40589E+04 9.04386E+01 2.11612E+02-2.59286E+04-5.10227E-10-6.85645E-10
 -1       585 9.40047E+04 2.78391E+02 4.30303E+02-2.37276E+04 2.36469E-11-5.64796E-10
 -1       586-1.19621E+03 3.04308E+04-1.57244E+03-8.07470E+04 2.58979E-10-6.92353E-10
 -1       587-2.75410E+02 3.02226E+04-1.99339E+02-8.88553E+04 4.46107E-10 2.16912E-09
 -1       588 3.04823E+02 3.02631E+04 1.06214E+03-8.06977E+04 2.60570E-10 1.44928E-09
 -1       589 1.58701E+03 3.08427E+04 3.12571E+03-8.87819E+04 4.01087E-10-1.59162E-10
 -1       590 4.59056E+03 2.98602E+04 6.70705E+03-8.08206E+04 2.06001E-10 1.00817E-09
 -1       591-1.89824E+04-5.65065E+03-6.67586E+03-1.00766E+04 8.71125E-11-2.15141E-09
 -1       592-1.95822E+04-7.31580E+03-3.61593E+03-1.18469E+04-5.24835E-10-2.29784E-09
 -1       593-1.96575E+04-5.15850E+03-1.50535E+03-1.05580E+04-7.48571E-10-2.70535E-09
 -1       594-1.86511E+04-6.34601E+03-7.50860E+02-1.18933E+04 5.95918E-10-3.73333E-10
 -1       595-1.97090E+04-5.15640E+03-3.45169E+02-1.05800E+04-3.63002E-10-2.32694E-09
 -1       596-1.85880E+04-6.30163E+03-1.76168E+02-1.18866E+04 4.12740E-10-2.60159E-09
 -1       597-1.97155E+04-5.16070E+03-9.73877E+01-1.05808E+04-3.72999E-11-2.42750E-10
 -1       598-1.85821E+04-6.29993E+03-8.09584E+01-1.18848E+04-8.13941E-10-3.08358E-09
 -1       599-1.97151E+04-5.16059E+03-1.06709E+02-1.05808E+04 1.00829E-09-1.62680E-09
 -1       600-1.85893E+04-6.30219E+03-2.00906E+02-1.18868E+04-2.33604E-09 2.22826E-11
 -1       601-1.97069E+04-5.15558E+03-3.97666E+02-1.05795E+04-3.42311E-09-4.17060E-09
 -1       602-1.86624E+04-6.35334E+03-8.67525E+02-1.18940E+04-3.73689E-10-3.18016E-09
 -1       603-1.96470E+04-5.15862E+03-1.74001E+03-1.05543E+04 3.94607E-10 1.08321E-09
 -1       604-1.97419E+04-7.47108E+03-4.18008E+03-1.18362E+04 2.09639E-10 4.24916E-09
 -1       605-1.88628E+04-5.73022E+03-7.71726E+03-1.00011E+04 5.55133E-10 4.34511E-09
 -1       606 1.33130E+04-4.52027E+03-8.14473E+03 1.32358E+04-2.65391E-09 1.98725E-10
 -1       607 1.19184E+04-1.45791E+03-4.05586E+03 1.48580E+04-7.30779E-10-9.61677E-10
 -1       608 1.27153E+04-2.44837E+02-1.81568E+03 1.31302E+04-4.98494E-09 1.31035E-09
 -1       609 1.25597E+04-6.58398E+01-9.17288E+02 1.49749E+04-1.38652E-08 2.02942E-09
 -1       610 1.26479E+04 9.63469E+00-4.37734E+02 1.31184E+04-6.40830E-09 2.32490E-10
 -1       611 1.26205E+04 1.26316E+01-2.20929E+02 1.49877E+04-9.44510E-10 2.12071E-09
 -1       612 1.26332E+04 1.38431E+01-1.05446E+02 1.31172E+04 8.21683E-09-2.32035E-09
 -1       613 1.26244E+04 1.38220E+01-4.81621E+01 1.49893E+04 1.28102E-08-1.55228E-09
 -1       614 1.26265E+04 1.17717E+01-1.32892E+01 1.31168E+04 2.08724E-08 2.82944E-09
 -1       615 1.26227E+04 1.42219E+01 1.50323E+01 1.49896E+04 3.47427E-08 3.59489E-09
 -1       616 1.26213E+04 1.26541E+01 4.98944E+01 1.31169E+04 1.60173E-08 5.26245E-09
 -1       617 1.26285E+04 2.51764E+01 1.15540E+02 1.49893E+04 3.54157E-09-1.97565E-09
 -1       618 1.26109E+04 4.62075E+01 2.33618E+02 1.31170E+04 4.49495E-09-6.86668E-10
 -1       619 1.27109E+04 2.06098E+02 5.25029E+02 1.49891E+04 1.84343E-09 1.95701E-09
 -1       620 1.25331E+04 6.00809E+02 1.05546E+03 1.31168E+04 2.11594E-09 1.77465E-09
 -1       621 1.68058E+02 1.02467E+05 1.43386E+03 3.79469E+03-1.84436E-10-4.46789E-11
 -1       622 1.90298E+02 1.02822E+05 1.19213E+03 5.53794E+03-1.02148E-10-3.12269E-09
 -1       623 7.94300E+00 1.02573E+05 1.33844E+03 3.77777E+03-1.58813E-10-9.24956E-10
 -1       624 5.97313E+02 1.03196E+05 2.51336E+03 5.55358E+03-1.61862E-10-7.96128E-09
 -1       625 5.98978E+02 1.02092E+05 4.35598E+03 3.77915E+03-7.36691E-11-4.27326E-09
 -1       626 8.38047E+04 2.34757E+04 1.64522E+03 4.56693E+04-3.95744E-09-8.69113E-09
 -1       627 8.26203E+04 2.43614E+04 7.92392E+02 4.75377E+04-7.23048E-10 3.03356E-09
 -1       628 8.38730E+04 2.26933E+04 3.34978E+02 4.59164E+04 1.00363E-09-3.04169E-09
 -1       629 8.23842E+04 2.41759E+04 1.64018E+02 4.76519E+04 2.40925E-09-2.99042E-09
 -1       630 8.38806E+04 2.26543E+04 7.59936E+01 4.59247E+04-2.54659E-10-1.85082E-10
 -1       631 8.23582E+04 2.41708E+04 4.07497E+01 4.76557E+04-3.18119E-09 3.00724E-09
 -1       632 8.38790E+04 2.26559E+04 2.69644E+01 4.59225E+04-1.16570E-08-1.26884E-08
 -1       633 8.23543E+04 2.41724E+04 3.00072E+01 4.76541E+04-6.43161E-09 5.59945E-09
 -1       634 8.38758E+04 2.26555E+04 4.86212E+01 4.59212E+04-6.16933E-09 3.22120E-09
 -1       635 8.23572E+04 2.41728E+04 9.85781E+01 4.76546E+04-1.61433E-08-2.82353E-09
 -1       636 8.38710E+04 2.26549E+04 1.99184E+02 4.59201E+04-7.86650E-09 5.12068E-09
 -1       637 8.23979E+04 2.42044E+04 4.37820E+02 4.76524E+04 9.11434E-10 2.26453E-09
 -1       638 8.38531E+04 2.27529E+04 8.99931E+02 4.58749E+04-1.87356E-10-1.36970E-09
 -1       639 8.28689E+04 2.48618E+04 2.12906E+03 4.75101E+04-4.99415E-09-5.70071E-09
 -1       640 8.37870E+04 2.47151E+04 4.41856E+03 4.50438E+04-1.54898E-09 3.58023E-09
 -1       656 2.28564E+04-5.78732E+05-5.51942E+04-4.94422E+02 2.52840E-10-1.04292E-09
 -1       657-3.02051E+04-6.03670E+05-4.56542E+04 3.78945E+03 5.61613E-10 2.45830E-10
 -1       658 7.25076E+03-5.85848E+05-2.80311E+04-7.75338E+02 1.48418E-10-1.45458E-09
 -1       659-3.24139E+04-6.04707E+05-4.85549E+04 3.97497E+03-1.83718E-10 5.58461E-09
 -1       660 2.50589E+04-5.77696E+05-6.01908E+04-6.79940E+02 2.80124E-10 1.53388E-09
 -1       661 8.16264E+04 8.85182E+03 7.83485E+03 3.18555E+04 1.35105E-09 8.81300E-10
 -1       662 8.56855E+04 1.50183E+04 5.27936E+03 3.05168E+04 1.23603E-09-3.58887E-09
 -1       663 8.31580E+04 1.13721E+04 1.84677E+03 3.14167E+04 2.19416E-10-1.20679E-09
 -1       664 8.39157E+04 1.20655E+04 1.10404E+03 3.10473E+04-3.30402E-10-2.83387E-09
 -1       665 8.33846E+04 1.17219E+04 4.35581E+02 3.13561E+04-9.76570E-10-1.95172E-09
 -1       666 8.36524E+04 1.16607E+04 2.53959E+02 3.11226E+04-3.99717E-09-1.39594E-09
 -1       667 8.34199E+04 1.17664E+04 1.34028E+02 3.13454E+04-6.98648E-10-1.56245E-09
 -1       668 8.36172E+04 1.16221E+04 1.34298E+02 3.11365E+04 3.10314E-09 7.12898E-10
 -1       669 8.34196E+04 1.17594E+04 1.80158E+02 3.13426E+04 1.56397E-09 2.84076E-09
 -1       670 8.36679E+04 1.17122E+04 3.90529E+02 3.11302E+04 3.70045E-09-3.04820E-09
 -1       671 8.33695E+04 1.16783E+04 6.92970E+02 3.13510E+04 1.05537E-09 1.71508E-09
 -1       672 8.40769E+04 1.23812E+04 1.77249E+03 3.10268E+04-2.38610E-09-3.64355E-09
 -1       673 8.30128E+04 1.11074E+04 2.97030E+03 3.14396E+04-1.97741E-09-1.97156E-09
 -1       674 8.69097E+04 1.71485E+04 8.49480E+03 3.01903E+04-2.50293E-09-1.79489E-09
 -1       675 8.05552E+04 7.04437E+03 1.26085E+04 3.21373E+04-2.44881E-10-2.44654E-09
 -1       676 9.33968E+00-1.11598E+05-4.33918E+02 1.11572E+01-1.39919E-09-2.68970E-09
 -1       677-1.15182E+02-1.11703E+05-7.94079E+02-2.23134E+01-1.11261E-09-3.08570E-09
 -1       678 7.68953E+01-1.11523E+05-1.40370E+03 1.11484E+01-1.90482E-10-4.89081E-09
 -1       679-1.40383E+03-1.12550E+05-3.33431E+03-2.22704E+01-2.22559E-09-1.28211E-09
 -1       680 8.37710E+02-1.10751E+05-5.37385E+03 1.09862E+01-8.44238E-10 1.24921E-09
 -1       771-1.20096E+06-2.08275E+05-2.90873E+04-4.96863E+05-4.58749E-09-3.90719E-09
 -1       772-1.19331E+06-2.24803E+05-1.56586E+04-5.15265E+05-3.79987E-09 2.19461E-09
 -1       773-1.20469E+06-2.05395E+05-6.66733E+03-4.98491E+05-1.15688E-09 2.40289E-09
 -1       774-1.18901E+06-2.21227E+05-3.27110E+03-5.16618E+05 3.73075E-09-3.63798E-10
 -1       775-1.20534E+06-2.05025E+05-1.59352E+03-4.98583E+05-6.98492E-10 4.79304E-10
 -1       776-1.18884E+06-2.21170E+05-7.50783E+02-5.17183E+05-6.91216E-10 8.98126E-10
 -1       777-1.20573E+06-2.04764E+05-4.27288E+02-4.98615E+05 7.34872E-10 8.28550E-10
 -1       778-1.18892E+06-2.21240E+05-2.01307E+02-5.17643E+05 1.27329E-09 1.86446E-09
 -1       779-1.20603E+06-2.04540E+05-1.78363E+02-4.98640E+05-1.10958E-09-1.40699E-09
 -1       780-1.18902E+06-2.21306E+05-1.56468E+02-5.18016E+05-1.28148E-09 1.03682E-10
 -1       781-1.20624E+06-2.04357E+05-2.73336E+02-4.98656E+05-3.76713E-09-6.93944E-10
 -1       782-1.18913E+06-2.21383E+05-5.21109E+02-5.18292E+05-5.01586E-09-1.57792E-09
 -1       783-1.20636E+06-2.04241E+05-1.04010E+03-4.98655E+05-8.84938E-10-2.07666E-09
 -1       784-1.18980E+06-2.22080E+05-2.47358E+03-5.18432E+05-2.49929E-09-1.04137E-10
 -1       785-1.20598E+06-2.04510E+05-4.57114E+03-4.98326E+05-5.18548E-09 5.87988E-10
 -1       786 8.97527E+04-4.76987E+03 1.10344E+04 2.02804E+00 4.34950E-08-1.04410E-09
 -1       787 9.45342E+04 5.52198E+03 7.80681E+03-8.23513E+00 8.62933E-08 5.68389E-09
 -1       788 9.15975E+04-7.47727E+02 2.85595E+03 2.54260E+00 1.37521E-07 3.41811E-09
 -1       789 9.23852E+04 8.65161E+02 1.79442E+03-9.82262E+00 1.89206E-07 3.05079E-09
 -1       790 9.19020E+04-1.16806E+02 7.30115E+02 3.61556E+00 2.70632E-07-2.33373E-09
 -1       791 9.20299E+04 1.35710E+02 4.28659E+02-1.26828E+01 3.52569E-07 5.37330E-09
 -1       792 9.19529E+04-1.88222E+01 1.95609E+02 5.40282E+00 5.04087E-07-5.43832E-09
 -1       793 9.19725E+04 2.64225E+01 1.28129E+02-1.72412E+01 6.56591E-07 5.23863E-09
 -1       794 9.19594E+04-7.58953E+00 9.48381E+01 8.17403E+00 9.61444E-07-9.31642E-09
 -1       795 9.19781E+04 3.91319E+01 1.37073E+02-2.41775E+01 1.26441E-06 8.28408E-09
 -1       796 9.19473E+04-3.15228E+01 2.05271E+02 1.23392E+01 6.32236E-07-5.14601E-09
 -1       797 9.20711E+04 2.31063E+02 4.83935E+02-3.45189E+01 1.92986E-09 4.36202E-11
 -1       798 9.18664E+04-1.99379E+02 7.63905E+02 1.85156E+01-6.42419E-11 6.64102E-10
 -1       799 9.26439E+04 1.47210E+03 2.08246E+03-4.98977E+01-3.29067E-10 6.42723E-09
 -1       800 9.13744E+04-1.27156E+03 2.94181E+03 2.77182E+01-3.00346E-11 9.07903E-10
 -1       801-4.59338E+03 8.51452E+03 8.30626E+03 9.21287E+03 5.09931E-09-2.98223E-09
 -1       802 1.28418E+04 3.95326E+04 2.46411E+04-3.79217E+04 1.36972E-08 1.20926E-09
 -1       803-7.99604E+03 1.84503E+04 3.25687E+04 8.88228E+03 1.07739E-08 8.43691E-09
 -1       804 6.28794E+04 6.53907E+04 9.01199E+04-3.82455E+04 1.27757E-08 1.00685E-08
 -1       805-5.46349E+04-1.72527E+04 1.19396E+05 9.53617E+03 4.56203E-09 1.19295E-08
 -1       806-1.03023E+05-2.21129E+04-8.74117E+03-4.29651E+04 4.47926E-11-1.03364E-09
 -1       807-1.03529E+05-2.08703E+04-4.29431E+03-4.52934E+04 3.59421E-10 2.45495E-09
 -1       808-1.03272E+05-1.89547E+04-1.82171E+03-4.44478E+04 2.16005E-12 1.74650E-09
 -1       809-1.02612E+05-1.96781E+04-8.90605E+02-4.54176E+04-1.81103E-10 4.70266E-09
 -1       810-1.03311E+05-1.88431E+04-4.07787E+02-4.45134E+04 2.91436E-09 9.79514E-09
 -1       811-1.02542E+05-1.96309E+04-2.02248E+02-4.54077E+04 3.91424E-10 2.85661E-09
 -1       812-1.03318E+05-1.88510E+04-1.00878E+02-4.45135E+04 1.00908E-09 4.32010E-11
 -1       813-1.02534E+05-1.96319E+04-6.36603E+01-4.54029E+04-1.38402E-09-7.75418E-09
 -1       814-1.03318E+05-1.88536E+04-5.96143E+01-4.45125E+04 6.90534E-10-2.39493E-09
 -1       815-1.02536E+05-1.96328E+04-9.34419E+01-4.54022E+04 4.01542E-10-3.53810E-09
 -1       816-1.03313E+05-1.88522E+04-1.74980E+02-4.45118E+04-2.52385E-10-1.60389E-09
 -1       817-1.02566E+05-1.96493E+04-3.75445E+02-4.54000E+04 4.15866E-10 1.05069E-09
 -1       818-1.03292E+05-1.89042E+04-7.65014E+02-4.44874E+04 6.97128E-10-2.07160E-09
 -1       819-1.02990E+05-2.01080E+04-1.80094E+03-4.52985E+04-6.92125E-10 2.19734E-09
 -1       820-1.03147E+05-2.02659E+04-3.66497E+03-4.39079E+04-2.64663E-10 4.99335E-09
 -1       821-1.37542E+05 7.65759E+03-1.76553E+04-3.46180E+00-3.05655E-10 2.10730E-09
 -1       822-1.45185E+05-8.86276E+03-1.24991E+04-7.99928E+01 1.86550E-09 2.20098E-10
 -1       823-1.40497E+05 1.20379E+03-4.57323E+03-8.08162E+01 4.75891E-06-8.24139E-09
 -1       824-1.41748E+05-1.39314E+03-2.87913E+03 5.43657E+01 9.48867E-06-6.98196E-09
 -1       825-1.40979E+05 1.89420E+02-1.18166E+03-1.37821E+02 3.48732E-06-2.45814E-09
 -1       826-1.41185E+05-2.23299E+02-7.15372E+02 1.04152E+02-2.50563E-06 4.37647E-09
 -1       827-1.41060E+05 3.39481E+01-3.68403E+02-1.30604E+02-1.25807E-06 2.82054E-09
 -1       828-1.41098E+05-6.78841E+01-3.24646E+02 3.10615E+01-4.57655E-09-2.69548E-09
 -1       829-1.41066E+05 3.38895E+01-3.73375E+02-6.47310E+01-1.26305E-10-7.09235E-10
 -1       830-1.41178E+05-2.26266E+02-7.24312E+02-1.08390E+02-4.57130E-09-1.16729E-09
 -1       831-1.40980E+05 1.92464E+02-1.20185E+03 8.84904E+00-6.22743E-06 3.81010E-09
 -1       832-1.41764E+05-1.41755E+03-2.92903E+03-2.06216E+02-1.24438E-05 3.91236E-09
 -1       833-1.40480E+05 1.22510E+03-4.64976E+03 3.30942E+01 1.54313E-06 3.00042E-09
 -1       834-1.45263E+05-9.01487E+03-1.27142E+04-1.84571E+02 1.55252E-05-4.10182E-10
 -1       835-1.37482E+05 7.78830E+03-1.79574E+04-1.27938E+01 7.77459E-06-1.22609E-08
 -1       836-4.34899E+02 1.26585E+05 7.45686E+03-1.14511E+04 9.15861E-10 2.39561E-09
 -1       837 1.63785E+03 1.28897E+05 6.40387E+03-2.30214E+04 1.42677E-09 8.15646E-09
 -1       838-1.65430E+02 1.27223E+05 6.65738E+03-1.14107E+04 1.32354E-09 4.46812E-09
 -1       839 4.28909E+03 1.30879E+05 1.27246E+04-2.30366E+04 1.64891E-09 7.90465E-10
 -1       840-1.29520E+03 1.24593E+05 2.03461E+04-1.14355E+04 1.11686E-09 3.25588E-09
 -1       856-4.07653E+04 3.54470E+03-9.33999E+03-1.95471E+02-1.61131E-09-2.00089E-09
 -1       857-4.46247E+04-4.15834E+03-6.43077E+03 2.15059E+03-1.82067E-09 1.03785E-09
 -1       858-4.22901E+04 4.96900E+02-2.42393E+03-2.01124E+02-1.42501E-09 4.35080E-10
 -1       859-4.28726E+04-5.79096E+02-1.46416E+03 2.15935E+03-8.09393E-10-1.50371E-09
 -1       860-4.25183E+04 6.92703E+01-6.15546E+02-2.04265E+02 1.04934E-09 1.31004E-09
 -1       861-4.26092E+04-7.81600E+01-3.42865E+02 2.16356E+03-2.36889E-09-7.74151E-10
 -1       862-4.25538E+04 9.32350E+00-1.50945E+02-2.05349E+02 2.07043E-09-9.52951E-10
 -1       863-4.25672E+04-7.44713E+00-7.40999E+01 2.16405E+03 5.61965E-09-5.84545E-09
 -1       864-4.25604E+04 7.14960E-02-2.21370E+01-2.04750E+02 2.43585E-09-1.24972E-09
 -1       865-4.25552E+04 9.48608E+00 1.69355E+01 2.16091E+03 2.63324E-09 1.35148E-09
 -1       866-4.25655E+04-7.58737E+00 5.64912E+01-2.02212E+02-7.56629E-10-1.91282E-09
 -1       867-4.25241E+04 6.42790E+01 1.52733E+02 2.15407E+03-9.52696E-11-2.63406E-09
 -1       868-4.25907E+04-5.38611E+01 2.57868E+02-1.97909E+02 1.26323E-09-3.81498E-09
 -1       869-4.23332E+04 4.48789E+02 6.90606E+02 2.14202E+03-4.75822E-10-1.73998E-10
 -1       870-4.27553E+04-3.81822E+02 1.00279E+03-1.90164E+02 2.55724E-09 1.10754E-09
 -1       871-1.94014E+03-4.12557E+03-6.36005E+03 4.17850E+04 2.00680E-09 2.49338E-09
 -1       872-8.37259E+02-5.54491E+03-2.59457E+03 5.41698E+04 2.05546E-09-8.68567E-10
 -1       873-1.01349E+01-4.86956E+03 3.69029E+02 4.16918E+04 1.21008E-09 5.55985E-10
 -1       874 9.88309E+02-3.94997E+03 3.60585E+03 5.41898E+04 1.97042E-09 3.76394E-09
 -1       875 2.32949E+03-5.73377E+03 8.00022E+03 4.17672E+04 6.29370E-10-1.95814E-09
 -1       876 1.03899E+05 1.78547E+04 5.54264E+03 4.20938E+04-8.10820E-09-1.59616E-10
 -1       877 1.04221E+05 1.90656E+04 2.95979E+03 4.37279E+04-1.52568E-08-4.02270E-09
 -1       878 1.04418E+05 1.72404E+04 1.24010E+03 4.25488E+04-3.49655E-09 3.63332E-09
 -1       879 1.03467E+05 1.83149E+04 6.17688E+02 4.37686E+04-1.36765E-10 5.46302E-09
 -1       880 1.04456E+05 1.72329E+04 2.87637E+02 4.25673E+04 9.73159E-10-1.92983E-09
 -1       881 1.03417E+05 1.82832E+04 1.53184E+02 4.37618E+04 1.60480E-09-2.81960E-09
 -1       882 1.04461E+05 1.72369E+04 9.73807E+01 4.25679E+04 2.86389E-09 3.02002E-09
 -1       883 1.03414E+05 1.82819E+04 1.03630E+02 4.37602E+04 1.63843E-09 2.20007E-09
 -1       884 1.04459E+05 1.72355E+04 1.63941E+02 4.25680E+04 9.91008E-10-2.35690E-09
 -1       885 1.03427E+05 1.82842E+04 3.29052E+02 4.37645E+04 1.41451E-09-5.00245E-09
 -1       886 1.04446E+05 1.72259E+04 6.62970E+02 4.25667E+04 3.72477E-09-2.29420E-09
 -1       887 1.03543E+05 1.83606E+04 1.44815E+03 4.37810E+04-2.61467E-09-2.92425E-09
 -1       888 1.04354E+05 1.72424E+04 2.91815E+03 4.25204E+04 1.56491E-09 5.93582E-09
 -1       889 1.05282E+05 2.01661E+04 6.97158E+03 4.37253E+04-8.99654E-10 2.86389E-09
 -1       890 1.03164E+05 1.86554E+04 1.30569E+04 4.14080E+04 3.55533E-09 2.01044E-09
 -1       891-6.09743E+01-5.90133E+04-6.95426E+02 1.11661E+04 1.12891E-10 7.90294E-10
 -1       892-1.06403E+02-5.91832E+04-7.57257E+02 1.69026E+04 1.63254E-10-1.58570E-09
 -1       893-1.27444E+01-5.90376E+04-1.08229E+03 1.11680E+04-8.54129E-10 9.32005E-10
 -1       894-5.82817E+02-5.96053E+04-2.24825E+03 1.68432E+04-2.13004E-09 2.66948E-09
 -1       895-4.52984E+02-5.85753E+04-3.96078E+03 1.12251E+04 2.74042E-10-1.94495E-09
 -1       956-1.30697E+05-1.89015E+03-4.75777E+03 8.68186E+03-1.76965E-09 5.01245E-10
 -1       957-1.31635E+05-6.39098E+02-2.44266E+03 1.04494E+04-1.39084E-09-5.96037E-09
 -1       958-1.31116E+05-5.22149E+01-1.10029E+03 8.62606E+03 1.22873E-09-2.88412E-09
 -1       959-1.31189E+05-1.19331E+01-5.62115E+02 1.05097E+04-1.32161E-09 3.36092E-09
 -1       960-1.31151E+05 1.29077E+01-2.73886E+02 8.62104E+03-1.44450E-09 2.12231E-09
 -1       961-1.31155E+05 1.03966E+01-1.45271E+02 1.05153E+04-3.48371E-09 1.60298E-09
 -1       962-1.31157E+05 9.94048E+00-8.28951E+01 8.62045E+03-1.41915E-09-6.02540E-12
 -1       963-1.31152E+05 1.01840E+01-6.61724E+01 1.05160E+04-2.66004E-09-2.29647E-11
 -1       964-1.31158E+05 1.03575E+01-7.97762E+01 8.62025E+03-4.12854E-10-5.26541E-10
 -1       965-1.31156E+05 1.13804E+01-1.37395E+02 1.05160E+04 2.75696E-09-1.32167E-09
 -1       966-1.31154E+05 1.41089E+01-2.57571E+02 8.62051E+03-1.13613E-09-6.38579E-10
 -1       967-1.31191E+05-8.56480E+00-5.28105E+02 1.05128E+04-3.83125E-10 4.64689E-09
 -1       968-1.31122E+05-4.60834E+01-1.03327E+03 8.62344E+03-5.21140E-10 1.46099E-09
 -1       969-1.31612E+05-5.96688E+02-2.29411E+03 1.04771E+04 3.84830E-10 1.18335E-09
 -1       970-1.30730E+05-1.77162E+03-4.46817E+03 8.65696E+03 1.07593E-09 5.77074E-10
 -1       971-1.23932E+05-6.53344E+02-3.63276E+03 6.10152E+03-2.81352E-09-8.19824E-11
 -1       972-1.24815E+05-4.70783E+02-1.97875E+03 8.50890E+03-2.44518E-09-1.79080E-09
 -1       973-1.24333E+05-5.79852E+00-8.85664E+02 6.05212E+03-2.12913E-09-2.61366E-10
 -1       974-1.24393E+05-8.40570E+00-4.58991E+02 8.56175E+03 4.72937E-10 8.00355E-11
 -1       975-1.24363E+05 9.56272E+00-2.28721E+02 6.04834E+03 5.83668E-10 3.54908E-09
 -1       976-1.24366E+05 9.14340E+00-1.31110E+02 8.56603E+03-7.28789E-10 2.38066E-09
 -1       977-1.24367E+05 8.37836E+00-9.33696E+01 6.04781E+03 1.38641E-09 1.23015E-09
 -1       978-1.24366E+05 1.04008E+01-1.06979E+02 8.56675E+03 6.08657E-09-3.69022E-09
 -1       979-1.24366E+05 1.07573E+01-1.69787E+02 6.04761E+03 2.27570E-09-5.29781E-11
 -1       980-1.24378E+05 1.12178E+01-3.26524E+02 8.56680E+03 4.76318E-09-7.66761E-10
 -1       981-1.24356E+05 1.89615E+01-6.31610E+02 6.04776E+03 1.57684E-10 9.16373E-10
 -1       982-1.24465E+05-3.49865E+01-1.30507E+03 8.56461E+03-1.82536E-09-1.38202E-09
 -1       983-1.24277E+05-2.07557E+01-2.53534E+03 6.04985E+03 6.85645E-10 1.74850E-09
 -1       984-1.25686E+05-1.35783E+03-5.67736E+03 8.53109E+03 4.08136E-11 3.99723E-09
 -1       985-1.23131E+05-1.87518E+03-1.04254E+04 6.08266E+03 2.22258E-09 3.52611E-09
 -3
    1PSTEP                         3           2           1          
  100CL  102 3.12500E-01         409                     0    2           1
 -4  DISP        4    1
 -5  D1          1    2    1    0
 -5  D2          1    2    2    0
 -5  D3          1    2    3    0
 -5  ALL         1    2    0    0    1ALL
 -1         1 8.16622E-05 0.00000E+00 0.00000E+00
 -1         2 7.53880E-05 1.25616E-29-1.65436E-24
 -1         3 6.96208E-05-3.73980E-27-3.30872E-24
 -1         5 5.01414E-05 2.20533E-26 0.00000E+00
 -1         8 6.51889E-05-5.91545E-07 0.00000E+00
 -1         9 6.62404E-05 3.93733E-07 0.00000E+00
 -1        10 6.45261E-05-9.52249E-07-6.61744E-24
 -1        12 4.97859E-05 3.40480E-07 0.00000E+00
 -1        15 4.55887E-05-6.38524E-07 0.00000E+00
 -1        16 4.71604E-05 3.12481E-07 0.00000E+00
 -1        17 4.81101E-05-1.99908E-06 0.00000E+00
 -1        18 4.80647E-05 1.36872E-07 0.00000E+00
 -1        19 4.87197E-05 6.79086E-07 0.00000E+00
 -1        20 4.88080E-05 1.01141E-05 0.00000E+00
 -1        21 4.84648E-05 1.91033E-05 0.00000E+00
 -1        24 1.22977E-05-2.67569E-06 0.00000E+00
 -1        25 4.69286E-05 2.14354E-07 0.00000E+00
 -1        26 4.75683E-05 9.46129E-07 0.00000E+00
 -1        27 4.65918E-05 8.60568E-06 0.00000E+00
 -1        28 4.62943E-05 1.88123E-05 0.00000E+00
 -1        32 0.00000E+00 0.00000E+00 0.00000E+00
 -1        33 4.55636E-05 1.27087E-06 0.00000E+00
 -1        34 4.46485E-05 8.59194E-06 0.00000E+00
 -1        35 4.37812E-05 1.86584E-05 0.00000E+00
 -1        51 8.05905E-05-9.81366E-08 0.00000E+00
 -1        52 7.86044E-05-1.93468E-07 0.00000E+00
 -1        53 7.58839E-05-2.89323E-07 0.00000E+00
 -1        54 7.26160E-05-3.86608E-07 0.00000E+00
 -1        55 6.89884E-05-4.85931E-07-6.20385E-24
 -1        56 8.09134E-05-4.65318E-07-1.32349E-23
 -1        57 8.02465E-05-1.23339E-06 0.00000E+00
 -1        58 7.96621E-05-2.21715E-06 2.64698E-23
 -1        59 7.91238E-05-3.33844E-06-1.32349E-23
 -1        60 7.86039E-05-4.50955E-06-2.64698E-23
 -1        61 7.80692E-05-5.64377E-06 0.00000E+00
 -1        62 7.74886E-05-6.65550E-06-2.64698E-23
 -1        63 7.68310E-05-7.46182E-06 1.32349E-23
 -1        64 7.60684E-05-7.98798E-06 2.64698E-23
 -1        65 7.51749E-05-8.16469E-06 1.32349E-23
 -1        66 7.41296E-05-7.93676E-06 0.00000E+00
 -1        67 7.29152E-05-7.25671E-06-1.32349E-23
 -1        68 7.15200E-05-6.09562E-06-2.64698E-23
 -1        69 6.99404E-05-4.43225E-06-1.32349E-23
 -1        70 6.81704E-05-2.26905E-06-1.32349E-23
 -1        86 7.51471E-05 7.03915E-08 0.00000E+00
 -1        87 7.44240E-05 1.40193E-07-8.27181E-25
 -1        88 7.31999E-05 2.09470E-07 0.00000E+00
 -1        89 7.14545E-05 2.75700E-07 5.16988E-26
 -1        90 6.91484E-05 3.41613E-07 3.30872E-24
 -1       121 6.94788E-05-1.58195E-07 0.00000E+00
 -1       122 6.90531E-05-3.16470E-07-3.30872E-24
 -1       123 6.83440E-05-4.74906E-07-6.61744E-24
 -1       124 6.73524E-05-6.33609E-07-3.30872E-24
 -1       125 6.60792E-05-7.92611E-07-6.61744E-24
 -1       191 5.01316E-05 5.67509E-08 0.00000E+00
 -1       192 5.01019E-05 1.13501E-07 1.65436E-24
 -1       193 5.00526E-05 1.70250E-07 0.00000E+00
 -1       194 4.99834E-05 2.26997E-07 0.00000E+00
 -1       195 4.98946E-05 2.83741E-07 0.00000E+00
 -1       251 6.52405E-05 2.11594E-06-3.30872E-24
 -1       252 6.53063E-05 3.72338E-06 0.00000E+00
 -1       253 6.53724E-05 4.41717E-06 0.00000E+00
 -1       254 6.54410E-05 4.38098E-06 0.00000E+00
 -1       255 6.55096E-05 3.77202E-06 0.00000E+00
 -1       256 6.55782E-05 2.74583E-06-8.27181E-25
 -1       257 6.56466E-05 1.44275E-06 1.65436E-24
 -1       258 6.57148E-05 2.31809E-09 8.27181E-25
 -1       259 6.57831E-05-1.44100E-06 1.65436E-24
 -1       260 6.58515E-05-2.75269E-06 8.27181E-25
 -1       261 6.59201E-05-3.79343E-06-1.65436E-24
 -1       262 6.59886E-05-4.42317E-06 0.00000E+00
 -1       263 6.60572E-05-4.48680E-06 0.00000E+00
 -1       264 6.61232E-05-3.82760E-06 0.00000E+00
 -1       265 6.61891E-05-2.26263E-06 3.30872E-24
 -1       266 6.19222E-05-6.07489E-07 0.00000E+00
 -1       267 5.86555E-05-6.14330E-07-8.27181E-25
 -1       268 5.53888E-05-6.21748E-07-8.27181E-25
 -1       269 5.21221E-05-6.27457E-07-2.06795E-25
 -1       270 4.88554E-05-6.33127E-07 0.00000E+00
 -1       271 6.32039E-05 1.84010E-06 2.64698E-23
 -1       272 6.15201E-05 3.37869E-06 0.00000E+00
 -1       273 6.01313E-05 4.13758E-06 0.00000E+00
 -1       274 5.89891E-05 4.22575E-06 0.00000E+00
 -1       275 5.80525E-05 3.76464E-06-2.64698E-23
 -1       276 5.72734E-05 2.88067E-06-1.32349E-23
 -1       277 5.66029E-05 1.70617E-06-2.64698E-23
 -1       278 5.59902E-05 3.76803E-07 0.00000E+00
 -1       279 5.53838E-05-9.69704E-07-2.64698E-23
 -1       280 5.47323E-05-2.19539E-06 0.00000E+00
 -1       281 5.39848E-05-3.16397E-06 2.64698E-23
 -1       282 5.30916E-05-3.74220E-06 0.00000E+00
 -1       283 5.20044E-05-3.80211E-06-2.64698E-23
 -1       284 5.06800E-05-3.22093E-06 0.00000E+00
 -1       285 4.90713E-05-1.88671E-06-2.64698E-23
 -1       301 6.30082E-05 3.76281E-07 0.00000E+00
 -1       302 5.97773E-05 3.68574E-07-1.65436E-24
 -1       303 5.65623E-05 3.61160E-07-3.30872E-24
 -1       304 5.33781E-05 3.52676E-07 0.00000E+00
 -1       305 5.02393E-05 3.42685E-07 0.00000E+00
 -1       306 6.41938E-05 2.76906E-06 0.00000E+00
 -1       307 6.24608E-05 4.21216E-06 1.32349E-23
 -1       308 6.10712E-05 4.74946E-06 2.64698E-23
 -1       309 6.00006E-05 4.41949E-06-1.32349E-23
 -1       310 5.92064E-05 3.35136E-06-2.64698E-23
 -1       311 5.86311E-05 1.69483E-06-1.32349E-23
 -1       312 5.81974E-05-3.41315E-07 2.64698E-23
 -1       313 5.78229E-05-2.53688E-06 0.00000E+00
 -1       314 5.74198E-05-4.65545E-06-2.64698E-23
 -1       315 5.69008E-05-6.46301E-06-1.32349E-23
 -1       316 5.61900E-05-7.75700E-06 0.00000E+00
 -1       317 5.52182E-05-8.35042E-06 0.00000E+00
 -1       318 5.39399E-05-8.12632E-06 2.64698E-23
 -1       319 5.23262E-05-6.99046E-06 1.32349E-23
 -1       320 5.03664E-05-4.94423E-06 1.32349E-23
 -1       336 6.26573E-05-1.12490E-06 3.30872E-24
 -1       337 6.04374E-05-1.29849E-06 3.30872E-24
 -1       338 5.78689E-05-1.47282E-06-3.30872E-24
 -1       339 5.49555E-05-1.64782E-06 1.65436E-24
 -1       340 5.17011E-05-1.82385E-06-3.30872E-24
 -1       406 4.96575E-05 3.97209E-07 0.00000E+00
 -1       407 4.95094E-05 4.53918E-07 0.00000E+00
 -1       408 4.93415E-05 5.10588E-07 0.00000E+00
 -1       409 4.91538E-05 5.67150E-07 0.00000E+00
 -1       410 4.89465E-05 6.23491E-07 1.65436E-24
 -1       521 4.43442E-05 2.00750E-06 5.29396E-23
 -1       522 4.19360E-05 2.43121E-06 0.00000E+00
 -1       523 3.99840E-05 1.65208E-06 0.00000E+00
 -1       524 3.84309E-05-2.25917E-07 0.00000E+00
 -1       525 3.71870E-05-2.93250E-06-5.29396E-23
 -1       526 3.61336E-05-6.15681E-06 2.64698E-23
 -1       527 3.51289E-05-9.51224E-06-5.29396E-23
 -1       528 3.40264E-05-1.26059E-05 0.00000E+00
 -1       529 3.26937E-05-1.50823E-05 5.29396E-23
 -1       530 3.10105E-05-1.66196E-05-2.64698E-23
 -1       531 2.89055E-05-1.70312E-05 0.00000E+00
 -1       532 2.63321E-05-1.61908E-05-2.64698E-23
 -1       533 2.33072E-05-1.41534E-05 5.29396E-23
 -1       534 1.98849E-05-1.10337E-05 0.00000E+00
 -1       535 1.61532E-05-7.11056E-06-5.29396E-23
 -1       536 4.80972E-05 1.34743E-06 0.00000E+00
 -1       537 4.80917E-05 3.87506E-06 4.13590E-25
 -1       538 4.80874E-05 5.66495E-06 0.00000E+00
 -1       539 4.80849E-05 6.79831E-06-1.03398E-25
 -1       540 4.80830E-05 7.35870E-06-2.06795E-25
 -1       541 4.80814E-05 7.42971E-06-5.16988E-26
 -1       542 4.80797E-05 7.09659E-06 5.16988E-26
 -1       543 4.80780E-05 6.44465E-06 2.58494E-26
 -1       544 4.80761E-05 5.56023E-06 0.00000E+00
 -1       545 4.80741E-05 4.52967E-06 0.00000E+00
 -1       546 4.80720E-05 3.43984E-06 2.58494E-26
 -1       547 4.80701E-05 2.37759E-06 0.00000E+00
 -1       548 4.80682E-05 1.42967E-06-5.16988E-26
 -1       549 4.80666E-05 6.82845E-07 5.16988E-26
 -1       550 4.80652E-05 2.23222E-07 2.06795E-25
 -1       551 4.33598E-05-2.10246E-06-3.30872E-24
 -1       552 3.76779E-05-2.20880E-06 8.27181E-25
 -1       553 3.13952E-05-2.31867E-06 1.65436E-24
 -1       554 2.48475E-05-2.43175E-06 3.30872E-24
 -1       555 1.83706E-05-2.54623E-06 0.00000E+00
 -1       556 4.68657E-05 1.22920E-06-1.32349E-23
 -1       557 4.59150E-05 3.69572E-06 0.00000E+00
 -1       558 4.52260E-05 5.47082E-06 0.00000E+00
 -1       559 4.47695E-05 6.63036E-06 0.00000E+00
 -1       560 4.45162E-05 7.24999E-06 0.00000E+00
 -1       561 4.44373E-05 7.40578E-06 0.00000E+00
 -1       562 4.45038E-05 7.17385E-06 0.00000E+00
 -1       563 4.46872E-05 6.63037E-06 0.00000E+00
 -1       564 4.49587E-05 5.85158E-06 3.30872E-24
 -1       565 4.52897E-05 4.91370E-06 0.00000E+00
 -1       566 4.56517E-05 3.89301E-06 0.00000E+00
 -1       567 4.60161E-05 2.86579E-06 0.00000E+00
 -1       568 4.63545E-05 1.90829E-06 0.00000E+00
 -1       569 4.66383E-05 1.09670E-06 0.00000E+00
 -1       570 4.68389E-05 5.07218E-07 0.00000E+00
 -1       571 4.81045E-05 1.97279E-07-8.27181E-25
 -1       572 4.81451E-05 2.30359E-07 4.13590E-25
 -1       573 4.81860E-05 2.40968E-07 4.13590E-25
 -1       574 4.82270E-05 2.34221E-07-4.13590E-25
 -1       575 4.82680E-05 2.15255E-07 8.27181E-25
 -1       576 4.83091E-05 1.89241E-07 8.27181E-25
 -1       577 4.83502E-05 1.61352E-07 1.65436E-24
 -1       578 4.83913E-05 1.36766E-07 8.27181E-25
 -1       579 4.84323E-05 1.20664E-07-1.65436E-24
 -1       580 4.84734E-05 1.18222E-07-8.27181E-25
 -1       581 4.85145E-05 1.34620E-07 1.65436E-24
 -1       582 4.85556E-05 1.75030E-07 0.00000E+00
 -1       583 4.85966E-05 2.44618E-07 3.30872E-24
 -1       584 4.86377E-05 3.48500E-07 0.00000E+00
 -1       585 4.86787E-05 4.91759E-07 0.00000E+00
 -1       586 4.78614E-05 1.50603E-07 0.00000E+00
 -1       587 4.76405E-05 1.63982E-07 0.00000E+00
 -1       588 4.74194E-05 1.77209E-07 0.00000E+00
 -1       589 4.72154E-05 1.90224E-07 0.00000E+00
 -1       590 4.70462E-05 2.02882E-07 0.00000E+00
 -1       591 4.80236E-05 2.18602E-07 0.00000E+00
 -1       592 4.79894E-05 2.77755E-07 0.00000E+00
 -1       593 4.79619E-05 3.18597E-07 0.00000E+00
 -1       594 4.79397E-05 3.44979E-07 0.00000E+00
 -1       595 4.79213E-05 3.60807E-07-4.13590E-25
 -1       596 4.79055E-05 3.69953E-07-2.06795E-25
 -1       597 4.78907E-05 3.76290E-07 0.00000E+00
 -1       598 4.78755E-05 3.83689E-07 0.00000E+00
 -1       599 4.78584E-05 3.96019E-07-2.06795E-25
 -1       600 4.78381E-05 4.17149E-07 0.00000E+00
 -1       601 4.78130E-05 4.50948E-07 2.06795E-25
 -1       602 4.77817E-05 5.01292E-07 1.03398E-25
 -1       603 4.77428E-05 5.72051E-07-2.58494E-26
 -1       604 4.76951E-05 6.67134E-07 5.16988E-26
 -1       605 4.76368E-05 7.90392E-07 4.13590E-25
 -1       606 4.87273E-05 9.60665E-07 0.00000E+00
 -1       607 4.87334E-05 1.30142E-06 0.00000E+00
 -1       608 4.87391E-05 1.69787E-06 0.00000E+00
 -1       609 4.87447E-05 2.14610E-06 0.00000E+00
 -1       610 4.87501E-05 2.64217E-06 0.00000E+00
 -1       611 4.87555E-05 3.18211E-06 0.00000E+00
 -1       612 4.87609E-05 3.76190E-06-1.65436E-24
 -1       613 4.87662E-05 4.37756E-06 8.27181E-25
 -1       614 4.87716E-05 5.02509E-06 0.00000E+00
 -1       615 4.87768E-05 5.70048E-06 0.00000E+00
 -1       616 4.87821E-05 6.39974E-06 8.27181E-25
 -1       617 4.87874E-05 7.11888E-06 4.13590E-25
 -1       618 4.87926E-05 7.85388E-06 0.00000E+00
 -1       619 4.87979E-05 8.60076E-06 2.06795E-25
 -1       620 4.88030E-05 9.35551E-06 0.00000E+00
 -1       621 4.84976E-05 7.23606E-07 0.00000E+00
 -1       622 4.82929E-05 7.68350E-07 0.00000E+00
 -1       623 4.81016E-05 8.13090E-07 0.00000E+00
 -1       624 4.79197E-05 8.57764E-07 0.00000E+00
 -1       625 4.77432E-05 9.02365E-07-8.27181E-25
 -1       626 4.86613E-05 9.74824E-07 0.00000E+00
 -1       627 4.85848E-05 1.31983E-06 0.00000E+00
 -1       628 4.84916E-05 1.70953E-06-3.30872E-24
 -1       629 4.83835E-05 2.13903E-06-1.65436E-24
 -1       630 4.82624E-05 2.60343E-06 0.00000E+00
 -1       631 4.81299E-05 3.09782E-06-8.27181E-25
 -1       632 4.79881E-05 3.61724E-06 1.65436E-24
 -1       633 4.78387E-05 4.15679E-06-8.27181E-25
 -1       634 4.76836E-05 4.71153E-06 1.65436E-24
 -1       635 4.75247E-05 5.27652E-06 0.00000E+00
 -1       636 4.73637E-05 5.84684E-06-1.65436E-24
 -1       637 4.72026E-05 6.41756E-06 0.00000E+00
 -1       638 4.70431E-05 6.98374E-06 0.00000E+00
 -1       639 4.68871E-05 7.54045E-06-8.27181E-25
 -1       640 4.67363E-05 8.08276E-06 0.00000E+00
 -1       656 4.81770E-05 9.86872E-06-3.30872E-24
 -1       657 4.77672E-05 9.61348E-06 3.30872E-24
 -1       658 4.74931E-05 9.35903E-06 0.00000E+00
 -1       659 4.72679E-05 9.10479E-06 0.00000E+00
 -1       660 4.69983E-05 8.84974E-06 0.00000E+00
 -1       661 4.85743E-05 1.08572E-05 0.00000E+00
 -1       662 4.83545E-05 1.15682E-05 0.00000E+00
 -1       663 4.81463E-05 1.22481E-05 8.27181E-25
 -1       664 4.79496E-05 1.28982E-05-8.27181E-25
 -1       665 4.77637E-05 1.35198E-05-1.65436E-24
 -1       666 4.75880E-05 1.41142E-05 0.00000E+00
 -1       667 4.74221E-05 1.46826E-05 0.00000E+00
 -1       668 4.72656E-05 1.52262E-05 8.27181E-25
 -1       669 4.71179E-05 1.57461E-05 0.00000E+00
 -1       670 4.69786E-05 1.62436E-05 8.27181E-25
 -1       671 4.68474E-05 1.67195E-05 0.00000E+00
 -1       672 4.67238E-05 1.71751E-05 0.00000E+00
 -1       673 4.66074E-05 1.76113E-05 8.27181E-25
 -1       674 4.64974E-05 1.80290E-05 0.00000E+00
 -1       675 4.63941E-05 1.84293E-05 0.00000E+00
 -1       676 4.81025E-05 1.90545E-05 0.00000E+00
 -1       677 4.77402E-05 1.90057E-05 8.27181E-25
 -1       678 4.73782E-05 1.89570E-05 0.00000E+00
 -1       679 4.70165E-05 1.89084E-05 0.00000E+00
 -1       680 4.66552E-05 1.88598E-05 0.00000E+00
 -1       771 9.85633E-06 1.94449E-06 0.00000E+00
 -1       772 7.72893E-06 5.72035E-06 0.00000E+00
 -1       773 5.90217E-06 8.70153E-06 2.64698E-23
 -1       774 4.35556E-06 1.09401E-05 0.00000E+00
 -1       775 3.06905E-06 1.24890E-05 0.00000E+00
 -1       776 2.02187E-06 1.34022E-05 1.32349E-23
 -1       777 1.19305E-06 1.37346E-05-2.64698E-23
 -1       778 5.61312E-07 1.35420E-05 1.32349E-23
 -1       779 1.05246E-07 1.28807E-05 0.00000E+00
 -1       780-1.96820E-07 1.18081E-05 0.00000E+00
 -1       781-3.66609E-07 1.03818E-05 0.00000E+00
 -1       782-4.26050E-07 8.66028E-06 0.00000E+00
 -1       783-3.97102E-07 6.70207E-06 0.00000E+00
 -1       784-3.01819E-07 4.56633E-06 0.00000E+00
 -1       785-1.62334E-07 2.31238E-06 0.00000E+00
 -1       786 4.69663E-05 2.13761E-07 0.00000E+00
 -1       787 4.70061E-05 2.14594E-07 4.13590E-25
 -1       788 4.70459E-05 2.17327E-07 0.00000E+00
 -1       789 4.70860E-05 2.22434E-07 0.00000E+00
 -1       790 4.71262E-05 2.30608E-07 8.27181E-25
 -1       791 4.71665E-05 2.42547E-07 0.00000E+00
 -1       792 4.72067E-05 2.59293E-07 0.00000E+00
 -1       793 4.72470E-05 2.81898E-07 8.27181E-25
 -1       794 4.72873E-05 3.11950E-07 0.00000E+00
 -1       795 4.73276E-05 3.51049E-07 0.00000E+00
 -1       796 4.73679E-05 4.01626E-07-1.65436E-24
 -1       797 4.74081E-05 4.66131E-07 0.00000E+00
 -1       798 4.74484E-05 5.48288E-07 0.00000E+00
 -1       799 4.74885E-05 6.51853E-07 4.13590E-25
 -1       800 4.75287E-05 7.82546E-07-8.27181E-25
 -1       801 4.37589E-05 2.16956E-07 0.00000E+00
 -1       802 3.43282E-05 1.81763E-07 0.00000E+00
 -1       803 2.19383E-05 1.17029E-07 0.00000E+00
 -1       804 9.88970E-06 5.18175E-08-1.65436E-24
 -1       805 1.47731E-06 2.17692E-08 0.00000E+00
 -1       806 4.68807E-05 1.86911E-07-8.27181E-25
 -1       807 4.68308E-05 1.59448E-07 0.00000E+00
 -1       808 4.67794E-05 1.35040E-07-1.65436E-24
 -1       809 4.67256E-05 1.16303E-07-8.27181E-25
 -1       810 4.66687E-05 1.05847E-07 0.00000E+00
 -1       811 4.66077E-05 1.06244E-07 0.00000E+00
 -1       812 4.65416E-05 1.20063E-07 1.65436E-24
 -1       813 4.64696E-05 1.49867E-07-8.27181E-25
 -1       814 4.63905E-05 1.98220E-07 0.00000E+00
 -1       815 4.63036E-05 2.67681E-07-8.27181E-25
 -1       816 4.62078E-05 3.60810E-07-1.65436E-24
 -1       817 4.61021E-05 4.80166E-07-8.27181E-25
 -1       818 4.59857E-05 6.28307E-07-1.65436E-24
 -1       819 4.58577E-05 8.07780E-07 0.00000E+00
 -1       820 4.57170E-05 1.02114E-06 1.65436E-24
 -1       821 4.75108E-05 1.13694E-06 4.13590E-25
 -1       822 4.74497E-05 1.34976E-06 0.00000E+00
 -1       823 4.73889E-05 1.65841E-06 1.65436E-24
 -1       824 4.73273E-05 2.13646E-06 0.00000E+00
 -1       825 4.72656E-05 2.77842E-06-1.65436E-24
 -1       826 4.72037E-05 3.57831E-06 0.00000E+00
 -1       827 4.71417E-05 4.45649E-06 1.65436E-24
 -1       828 4.70797E-05 5.33311E-06 0.00000E+00
 -1       829 4.70177E-05 6.12903E-06 0.00000E+00
 -1       830 4.69559E-05 6.76536E-06 8.27181E-25
 -1       831 4.68942E-05 7.23765E-06-1.65436E-24
 -1       832 4.68326E-05 7.54194E-06 8.27181E-25
 -1       833 4.67711E-05 7.75264E-06-1.65436E-24
 -1       834 4.67103E-05 7.94445E-06 0.00000E+00
 -1       835 4.66493E-05 8.20098E-06 0.00000E+00
 -1       836 4.73273E-05 1.00021E-06 0.00000E+00
 -1       837 4.70127E-05 1.05547E-06-8.27181E-25
 -1       838 4.66518E-05 1.11062E-06 1.65436E-24
 -1       839 4.62718E-05 1.16541E-06 4.13590E-25
 -1       840 4.59000E-05 1.22012E-06 2.06795E-25
 -1       856 4.65753E-05 9.11917E-06 0.00000E+00
 -1       857 4.65569E-05 9.69719E-06-1.03398E-25
 -1       858 4.65386E-05 1.03295E-05 0.00000E+00
 -1       859 4.65200E-05 1.10060E-05 0.00000E+00
 -1       860 4.65012E-05 1.17162E-05-4.13590E-25
 -1       861 4.64824E-05 1.24500E-05 0.00000E+00
 -1       862 4.64636E-05 1.31969E-05-4.13590E-25
 -1       863 4.64448E-05 1.39467E-05-2.06795E-25
 -1       864 4.64259E-05 1.46891E-05-4.13590E-25
 -1       865 4.64071E-05 1.54137E-05-2.06795E-25
 -1       866 4.63883E-05 1.61102E-05 0.00000E+00
 -1       867 4.63695E-05 1.67683E-05 2.06795E-25
 -1       868 4.63507E-05 1.73778E-05 0.00000E+00
 -1       869 4.63320E-05 1.79284E-05 4.13590E-25
 -1       870 4.63132E-05 1.84099E-05-8.27181E-25
 -1       871 4.62011E-05 8.60516E-06 2.06795E-25
 -1       872 4.58733E-05 8.60334E-06 0.00000E+00
 -1       873 4.55815E-05 8.60128E-06 0.00000E+00
 -1       874 4.52984E-05 8.59891E-06 0.00000E+00
 -1       875 4.49964E-05 8.59624E-06 4.13590E-25
 -1       876 4.64561E-05 9.12456E-06 0.00000E+00
 -1       877 4.63099E-05 9.67474E-06 0.00000E+00
 -1       878 4.61536E-05 1.02524E-05 1.65436E-24
 -1       879 4.59883E-05 1.08540E-05 0.00000E+00
 -1       880 4.58155E-05 1.14761E-05 0.00000E+00
 -1       881 4.56363E-05 1.21151E-05 0.00000E+00
 -1       882 4.54521E-05 1.27674E-05-1.65436E-24
 -1       883 4.52641E-05 1.34296E-05 8.27181E-25
 -1       884 4.50738E-05 1.40981E-05 0.00000E+00
 -1       885 4.48825E-05 1.47695E-05-8.27181E-25
 -1       886 4.46914E-05 1.54402E-05 1.65436E-24
 -1       887 4.45018E-05 1.61066E-05 0.00000E+00
 -1       888 4.43150E-05 1.67653E-05 0.00000E+00
 -1       889 4.41321E-05 1.74126E-05-8.27181E-25
 -1       890 4.39546E-05 1.80451E-05 0.00000E+00
 -1       891 4.59460E-05 1.87865E-05 0.00000E+00
 -1       892 4.55864E-05 1.87607E-05 0.00000E+00
 -1       893 4.52030E-05 1.87349E-05 8.27181E-25
 -1       894 4.47827E-05 1.87091E-05 2.06795E-25
 -1       895 4.43130E-05 1.86834E-05 2.06795E-25
 -1       956 4.55074E-05 1.59472E-06 8.27181E-25
 -1       957 4.54504E-05 1.95522E-06 0.00000E+00
 -1       958 4.53931E-05 2.34853E-06 0.00000E+00
 -1       959 4.53358E-05 2.77059E-06 8.27181E-25
 -1       960 4.52784E-05 3.21734E-06-1.65436E-24
 -1       961 4.52210E-05 3.68470E-06 0.00000E+00
 -1       962 4.51636E-05 4.16858E-06 0.00000E+00
 -1       963 4.51062E-05 4.66488E-06 0.00000E+00
 -1       964 4.50488E-05 5.16952E-06-1.65436E-24
 -1       965 4.49913E-05 5.67839E-06-8.27181E-25
 -1       966 4.49339E-05 6.18742E-06 0.00000E+00
 -1       967 4.48765E-05 6.69252E-06 0.00000E+00
 -1       968 4.48191E-05 7.18957E-06-1.65436E-24
 -1       969 4.47619E-05 7.67452E-06 8.27181E-25
 -1       970 4.47048E-05 8.14329E-06 0.00000E+00
 -1       971 4.45950E-05 9.05250E-06 0.00000E+00
 -1       972 4.45407E-05 9.56122E-06-8.27181E-25
 -1       973 4.44863E-05 1.01127E-05 0.00000E+00
 -1       974 4.44319E-05 1.07016E-05 0.00000E+00
 -1       975 4.43774E-05 1.13222E-05 0.00000E+00
 -1       976 4.43229E-05 1.19690E-05-8.27181E-25
 -1       977 4.42683E-05 1.26364E-05 1.65436E-24
 -1       978 4.42137E-05 1.33190E-05 8.27181E-25
 -1       979 4.41592E-05 1.40112E-05 0.00000E+00
 -1       980 4.41046E-05 1.47074E-05 8.27181E-25
 -1       981 4.40501E-05 1.54021E-05-1.65436E-24
 -1       982 4.39956E-05 1.60896E-05 0.00000E+00
 -1       983 4.39412E-05 1.67646E-05 0.00000E+00
 -1       984 4.38870E-05 1.74214E-05 0.00000E+00
 -1       985 4.38331E-05 1.80545E-05 1.65436E-24
 -3
    1PSTEP                         4           2           1          
  100CL  102 3.12500E-01         409                     0    2           1
 -4  STRESS      6    1
 -5  SXX         1    4    1    1
 -5  SYY         1    4    2    2
 -5  SZZ         1    4    3    3
 -5  SXY         1    4    1    2
 -5  SYZ         1    4    2    3
 -5  SZX         1    4    3    1
 -1         1-1.07898E+06-4.96989E+05-2.19387E+05-6.97922E+05-8.36735E-11 6.18456E-10
 -1         2 1.81007E+03 2.03791E+05 5.90842E+03 4.17748E+02-1.04535E-10-8.87178E-09
 -1         3-3.09551E+01-4.52131E+05 1.04484E+02-1.03276E+02-9.94564E-11 1.13414E-09
 -1         5-3.19891E+00 1.62375E+05 4.28754E+00-2.29397E-02 8.41613E-11 4.62433E-09
 -1         8-5.08078E+05-2.21440E+05-1.71921E+04-3.85565E+05-4.54747E-11 1.02227E-09
 -1         9-8.72188E+05-2.25759E+05-8.63366E+04-3.01503E+05 2.20025E-09 6.59493E-09
 -1        10-3.43464E+02-4.71028E+05-6.01953E+02-6.89857E+02-2.13959E-09 6.99202E-10
 -1        12-1.43944E+00 1.62384E+05 1.39003E+02 1.11321E-01 1.28139E-10-1.29030E-08
 -1        15 1.34461E+03 7.38935E+02 4.34643E+03 1.89944E+00-2.08259E-09-6.64359E-07
 -1        16-2.45639E+06-7.89962E+05-3.81898E+05-8.02961E+05 6.97522E-09-2.18279E-09
 -1        17-5.41570E+05-3.34177E+05-1.04197E+05-3.15209E+05-3.72165E-09 1.40863E-09
 -1        18 1.96146E+04 1.89397E+03-7.55575E+03-3.81948E+04 5.16707E-10 3.32875E-10
 -1        19 5.05361E+04 6.06474E+04-2.75502E+02 1.01415E+04-4.50200E-10 2.30357E-09
 -1        20-2.13726E+04-2.39748E+05-5.28883E+04 1.77565E+04 2.22152E-09-2.22432E-09
 -1        21-2.27410E+01-1.39534E+05-4.50049E+02-3.46794E+01-6.51919E-09-7.96728E-09
 -1        24-2.15777E+06-7.49251E+05-3.07976E+05-9.13417E+05-9.98504E-09-5.01071E-09
 -1        25 1.96763E+04-2.54882E+03 1.15325E+04-6.91554E+04 2.53613E-10 2.71157E-09
 -1        26-1.22548E+04 4.12401E+04-8.87807E+03-5.82947E+03 2.12240E-09 4.26877E-10
 -1        27-3.94413E+04-1.31869E+05-4.97979E+04 2.98315E+04 5.96629E-09-3.35209E-09
 -1        28 1.07746E+04-3.86167E+04 7.88171E+03 1.22468E+04 2.29457E-09-4.34692E-09
 -1        32-5.14688E+05-7.57659E+04 2.22306E+05-3.46889E+05-1.02518E-08 9.95477E-09
 -1        33-7.57856E+04 3.90438E+04 1.38293E+04-2.29529E+04 6.84300E-10 1.18644E-09
 -1        34-9.84012E+04-9.82197E+03 2.38376E+02 3.04269E+04 1.52943E-09-8.45072E-10
 -1        35-1.09618E+04-1.53644E+04-5.99520E+02 2.43024E+04 1.91438E-09-3.13836E-09
 -1        51 9.89745E+03-2.54346E+05 2.43958E+04-6.29740E+05-5.82077E-11 3.73984E-09
 -1        52 5.22749E+03-2.52398E+05 1.61619E+04-7.34477E+05 2.94676E-10 9.24047E-10
 -1        53 3.43633E+03-2.59022E+05 1.41182E+04-6.27594E+05 3.63798E-10-1.08412E-09
 -1        54 1.07531E+04-2.56921E+05 2.28850E+04-7.36752E+05 1.67347E-10-7.62884E-09
 -1        55 2.35488E+04-2.65324E+05 4.11777E+04-6.27307E+05 6.33008E-10-5.95173E-09
 -1        56-2.07236E+06-2.34243E+05-1.61933E+05-7.99199E+05-5.05679E-10 3.87081E-09
 -1        57-2.13741E+06-3.80670E+05-1.09141E+05-7.92950E+05-4.32465E-10 8.68567E-09
 -1        58-2.10475E+06-2.85649E+05-3.81192E+04-7.89203E+05 4.35193E-10-2.62662E-09
 -1        59-2.09992E+06-3.20412E+05-2.27562E+04-8.04965E+05-2.16801E-10-1.36674E-09
 -1        60-2.10953E+06-2.92771E+05-8.90872E+03-7.87802E+05 4.61569E-10-7.80801E-10
 -1        61-2.09487E+06-3.11593E+05-5.06604E+03-8.06034E+05 1.57661E-09-5.08800E-09
 -1        62-2.10974E+06-2.94252E+05-2.44239E+03-7.88199E+05-6.75755E-10-8.33593E-09
 -1        63-2.09565E+06-3.09014E+05-2.00818E+03-8.04384E+05 1.84042E-09 2.09027E-09
 -1        64-2.10870E+06-2.95349E+05-2.31025E+03-7.89432E+05-2.79897E-10-5.76051E-10
 -1        65-2.09879E+06-3.07310E+05-4.62114E+03-8.01187E+05 1.53341E-09-1.07513E-08
 -1        66-2.10656E+06-2.96010E+05-8.13695E+03-7.91353E+05 9.20295E-10-1.72940E-09
 -1        67-2.10697E+06-3.11646E+05-2.06445E+04-7.95971E+05-1.32724E-09-5.60249E-10
 -1        68-2.10054E+06-2.91240E+05-3.46585E+04-7.94555E+05-1.33241E-10-5.45151E-09
 -1        69-2.14396E+06-3.63447E+05-9.90977E+04-7.81753E+05-1.34605E-10-1.94268E-09
 -1        70-2.06987E+06-2.45772E+05-1.47108E+05-8.05014E+05 1.00044E-10-8.65839E-10
 -1        86-9.07657E+02 2.01981E+05 6.33209E+03-2.08886E+02 7.98991E-10 2.69551E-10
 -1        87 6.02452E+03 2.05850E+05 1.32082E+04 8.58198E+02 1.34924E-09-1.54191E-09
 -1        88-5.11011E+03 1.99924E+05 2.02241E+04-6.49340E+02 2.03090E-09-1.70525E-09
 -1        89 3.80831E+04 2.20791E+05 5.45379E+04 1.84432E+03 3.05226E-09-1.65892E-09
 -1        90-3.28623E+04 1.87049E+05 7.70411E+04-1.19473E+03 3.49246E-09 5.09834E-09
 -1       121-5.42414E+01-4.52303E+05 9.90269E+01 5.15989E+01 2.20414E-10-3.58796E-09
 -1       122 3.40131E+00-4.52108E+05 2.28217E+02-2.06675E+02-8.20352E-10 6.80757E-10
 -1       123-7.91720E+01-4.52327E+05 3.69499E+02 1.54847E+02 6.93689E-10 2.25737E-09
 -1       124 4.24299E+02-4.51850E+05 9.57411E+02-4.92406E+02-1.58161E-09 1.05501E-09
 -1       125-3.52769E+02-4.52565E+05 1.46832E+03 3.37318E+02 1.11754E-09-4.66935E-09
 -1       191-3.50046E+00 1.62388E+05 5.11995E+00 1.11834E-02 1.04598E-10 9.57607E-09
 -1       192-3.59267E+00 1.62375E+05 9.07874E+00 2.76602E-01 1.47070E-10 1.37152E-08
 -1       193-4.54763E+00 1.62388E+05 1.68796E+01-2.89759E-01 1.87008E-10 8.86530E-09
 -1       194-4.86000E+00 1.62376E+05 3.43426E+01 7.77170E-01 1.05330E-10-3.13594E-09
 -1       195-6.56044E+00 1.62387E+05 6.71724E+01-4.92749E-01 2.77659E-10-6.92444E-09
 -1       251 1.83003E+05-3.18916E+04 7.45101E+04 2.93196E+03-4.49404E-10 1.08412E-09
 -1       252 2.16683E+05 3.69057E+04 5.28198E+04-9.77089E+03 6.03904E-10 3.57613E-09
 -1       253 1.95783E+05-4.93853E+03 1.92863E+04 2.08702E+03 3.10365E-10-3.52247E-09
 -1       254 2.01651E+05 5.70739E+03 1.21805E+04-8.43470E+03 3.67180E-10-4.19459E-09
 -1       255 1.97983E+05-7.63105E+02 4.98331E+03 1.59592E+03-5.80627E-10-3.91310E-10
 -1       256 1.99026E+05 9.05196E+02 3.02765E+03-7.70871E+03 8.32188E-11 5.87534E-10
 -1       257 1.98384E+05-1.33588E+02 1.55913E+03 1.36102E+03 8.26361E-11-3.19704E-09
 -1       258 1.98618E+05 2.81990E+02 1.38210E+03-7.47129E+03-6.98761E-10 1.48115E-09
 -1       259 1.98383E+05-1.36259E+02 1.58439E+03 1.35850E+03-1.42379E-10-3.89156E-09
 -1       260 1.99035E+05 9.28636E+02 3.09942E+03-7.69921E+03-2.64322E-10-4.68287E-09
 -1       261 1.97974E+05-7.83590E+02 5.11459E+03 1.58893E+03 6.83229E-10 3.69005E-09
 -1       262 2.01720E+05 5.86197E+03 1.25043E+04-8.41413E+03-1.82737E-10-3.05931E-09
 -1       263 1.95722E+05-5.07165E+03 1.98089E+04 2.07343E+03-9.35074E-11-1.41154E-09
 -1       264 2.17136E+05 3.79025E+04 5.42386E+04-9.73776E+03-2.03849E-09 5.93718E-09
 -1       265 1.82611E+05-3.27505E+04 7.65296E+04 2.91240E+03-8.36280E-10 4.78030E-09
 -1       266-2.43419E+04-1.13823E+04 5.71128E+04-4.06423E+01-3.30328E-09-1.05196E-06
 -1       267 2.82190E+04 1.32662E+04 4.03666E+04 4.68930E+01-6.49788E-09-2.07196E-06
 -1       268-3.78412E+03-1.87887E+03 1.50041E+04-5.97499E+00-5.18958E-09-1.67043E-06
 -1       269 4.46793E+03 2.24860E+03 9.75240E+03 6.95997E+00-3.91992E-09-1.25288E-06
 -1       270-6.70642E+02-3.69464E+02 4.70762E+03-9.44514E-01-2.84763E-09-9.16288E-07
 -1       271-2.39227E+06-2.97897E+05-1.84092E+05-9.31219E+05-2.65572E-10 3.43425E-09
 -1       272-2.44326E+06-4.47278E+05-1.18358E+05-9.46923E+05 8.86530E-10 1.11868E-09
 -1       273-2.42725E+06-3.43387E+05-4.34837E+04-9.22645E+05-5.60249E-10 6.80302E-10
 -1       274-2.40243E+06-3.91495E+05-2.43459E+04-9.60121E+05 1.12800E-09 5.52200E-09
 -1       275-2.43264E+06-3.47511E+05-1.01148E+04-9.20548E+05-1.56888E-10-2.36923E-10
 -1       276-2.39607E+06-3.86655E+05-5.37824E+03-9.63506E+05-1.18416E-09-3.49883E-09
 -1       277-2.43386E+06-3.47409E+05-2.63045E+03-9.19725E+05 9.31095E-10 4.04475E-09
 -1       278-2.39491E+06-3.86640E+05-1.91344E+03-9.64492E+05 4.25047E-10 3.81795E-09
 -1       279-2.43393E+06-3.47389E+05-2.05295E+03-9.19678E+05-9.95897E-10 1.19121E-09
 -1       280-2.39571E+06-3.86531E+05-3.76158E+03-9.63735E+05-5.06589E-10 3.23212E-09
 -1       281-2.43296E+06-3.47619E+05-6.88122E+03-9.20393E+05 1.17643E-09 3.37650E-09
 -1       282-2.40041E+06-3.89301E+05-1.64289E+04-9.60826E+05 2.91038E-10 1.77079E-09
 -1       283-2.42897E+06-3.45231E+05-2.93327E+04-9.22206E+05 1.04274E-09 7.82165E-10
 -1       284-2.42869E+06-4.25981E+05-7.97340E+04-9.50796E+05 3.31386E-09 3.55794E-09
 -1       285-2.40484E+06-3.15196E+05-1.24110E+05-9.28613E+05 7.89441E-10 6.25732E-10
 -1       301 9.18173E+03-5.60930E+03 7.16396E+04-1.76314E+04-7.49424E-10-8.47990E-10
 -1       302 9.86569E+03 1.25707E+04 5.17639E+04-2.59450E+04 8.86985E-10 1.98565E-09
 -1       303 4.32854E+02 8.20384E+02 4.77002E+04-1.76687E+04-4.77485E-10-7.55563E-10
 -1       304 1.86412E+04 2.06656E+04 8.02923E+04-2.58737E+04 1.04137E-09-1.93654E-09
 -1       305 1.84751E+04-1.36570E+04 1.34772E+05-1.76552E+04-4.87489E-10 1.20099E-09
 -1       306-2.57451E+06-2.96254E+05-1.96290E+05-1.00431E+06 1.64800E-09-2.26282E-09
 -1       307-2.67212E+06-4.65729E+05-1.33841E+05-9.74391E+05 2.57796E-09-8.41283E-09
 -1       308-2.61914E+06-3.57202E+05-4.61847E+04-9.85856E+05-7.50788E-10-3.41606E-09
 -1       309-2.61698E+06-3.98323E+05-2.79772E+04-1.00016E+06-5.32737E-10 2.05864E-09
 -1       310-2.62943E+06-3.62460E+05-1.08391E+04-9.78973E+05 3.85967E-10-2.25100E-09
 -1       311-2.60368E+06-3.93745E+05-6.28333E+03-1.01009E+06 4.13954E-09 9.99762E-10
 -1       312-2.63250E+06-3.61534E+05-3.07208E+03-9.76071E+05 4.60886E-10-5.14126E-09
 -1       313-2.60110E+06-3.94176E+05-2.76985E+03-1.01247E+06-1.33521E-09-7.09116E-09
 -1       314-2.63204E+06-3.61981E+05-3.33076E+03-9.76620E+05-1.17882E-09-3.64196E-09
 -1       315-2.60548E+06-3.92254E+05-7.01916E+03-1.00799E+06-6.76664E-10 4.61978E-09
 -1       316-2.62805E+06-3.63534E+05-1.22462E+04-9.80491E+05 2.34114E-09 1.71258E-09
 -1       317-2.62102E+06-3.97039E+05-3.16530E+04-9.96326E+05 1.47256E-09-3.93993E-09
 -1       318-2.61645E+06-3.57464E+05-5.22716E+04-9.88141E+05-1.76124E-09 4.20914E-09
 -1       319-2.68282E+06-4.74141E+05-1.51541E+05-9.68134E+05-2.08456E-09 1.14960E-09
 -1       320-2.56654E+06-2.87753E+05-2.22166E+05-1.00823E+06 6.11908E-09-1.93540E-09
 -1       336 3.54594E+02-4.89647E+05-2.60543E+03 3.52097E+02-4.45425E-09-1.61435E-09
 -1       337-9.38976E+02-4.90369E+05-2.85431E+03-9.49610E+02-8.06347E-09-6.89761E-09
 -1       338 2.33457E+02-4.89723E+05-3.59281E+03 5.95994E+02-5.66035E-09 1.15051E-09
 -1       339-3.71482E+03-4.92070E+05-7.86732E+03-1.43303E+03-1.03855E-08 4.75438E-09
 -1       340 2.52819E+03-4.87966E+05-1.21212E+04 8.32741E+02-6.98765E-09 8.29641E-09
 -1       406 9.17118E+00 1.62381E+05 2.74427E+02 3.73561E-01 3.47256E-10-7.44012E-09
 -1       407 9.42459E+01 1.62432E+05 5.83282E+02-6.69282E+00 4.22062E-11 1.34264E-09
 -1       408 2.98796E+02 1.62339E+05 1.16495E+03 6.39481E+00 4.08022E-10 1.98543E-09
 -1       409 1.25831E+03 1.62804E+05 2.62273E+03-5.84501E+01 7.95808E-12 5.45697E-10
 -1       410 3.61792E+03 1.62008E+05 5.35424E+03 5.34799E+01 4.03816E-10-4.07681E-10
 -1       521-4.86022E+06-5.61451E+05-3.63964E+05-1.89075E+06 4.10364E-09-6.34464E-09
 -1       522-5.03626E+06-8.74638E+05-2.47315E+05-1.84078E+06-8.03993E-10-1.76078E-09
 -1       523-4.94489E+06-6.70371E+05-8.55744E+04-1.85418E+06 6.74845E-10-3.40879E-09
 -1       524-4.93181E+06-7.54073E+05-5.15777E+04-1.89147E+06 1.40153E-09 1.09139E-09
 -1       525-4.96406E+06-6.79179E+05-1.99759E+04-1.84105E+06 1.00601E-09-6.41194E-10
 -1       526-4.90980E+06-7.43612E+05-1.15131E+04-1.90686E+06 1.22267E-09-7.81256E-10
 -1       527-4.96696E+06-6.80289E+05-5.52742E+03-1.83906E+06 1.90823E-09 2.28931E-09
 -1       528-4.91293E+06-7.35959E+05-4.69421E+03-1.90120E+06-6.74163E-11 2.83325E-09
 -1       529-4.96077E+06-6.86885E+05-5.61365E+03-1.84661E+06-1.19326E-09 2.33831E-09
 -1       530-4.93202E+06-7.20172E+05-1.12554E+04-1.87935E+06-1.02114E-09 8.02629E-11
 -1       531-4.94756E+06-6.96351E+05-2.00066E+04-1.86065E+06-1.50771E-09 2.60388E-09
 -1       532-4.96893E+06-7.15970E+05-5.10885E+04-1.84778E+06-1.02131E-09-4.45289E-09
 -1       533-4.92398E+06-6.91494E+05-8.49237E+04-1.87805E+06-4.84761E-10-2.87764E-09
 -1       534-5.07423E+06-8.35518E+05-2.45582E+05-1.79835E+06 1.80444E-09 6.00994E-09
 -1       535-4.84346E+06-5.79213E+05-3.61039E+05-1.90955E+06-7.72707E-09 3.37604E-09
 -1       536-1.09244E+04-1.36074E+04 3.13434E+04 3.00475E+02-9.21119E-10 1.75169E-09
 -1       537 3.58424E+03 1.57446E+04 2.23316E+04-1.20787E+03-4.61283E-09 5.79166E-09
 -1       538-5.55032E+03-2.13258E+03 8.08492E+03 2.84328E+02 2.53010E-10 5.06634E-09
 -1       539-2.75586E+03 2.46175E+03 5.16238E+03-1.20060E+03 1.97468E-09 3.51844E-09
 -1       540-4.59103E+03-3.31872E+02 2.04137E+03 2.93209E+02 5.77906E-10 3.79521E-09
 -1       541-3.93190E+03 3.79636E+02 1.21950E+03-1.21732E+03 1.80108E-10 5.11481E-09
 -1       542-4.37842E+03-4.91272E+01 4.89281E+02 3.01039E+02 7.07615E-10 5.00020E-09
 -1       543-4.21524E+03 4.70182E+01 2.46621E+02-1.22976E+03-5.12692E-10 2.00902E-09
 -1       544-4.31038E+03 2.45528E+00 3.58078E+01 3.05652E+02-1.47722E-11-2.96670E-09
 -1       545-4.32496E+03-6.05285E+01-1.44163E+02-1.23560E+03-6.42544E-11-4.66056E-10
 -1       546-4.26995E+03 5.92476E+01-3.37324E+02 3.06873E+02 2.39586E-10 4.14640E-09
 -1       547-4.50181E+03-4.38982E+02-8.92831E+02-1.23458E+03-1.24623E-09-6.71548E-10
 -1       548-4.13329E+03 3.80465E+02-1.44961E+03 3.04631E+02-1.60283E-09-4.76803E-10
 -1       549-5.52659E+03-2.80473E+03-3.95318E+03-1.22575E+03-5.83752E-10 3.35081E-09
 -1       550-3.24341E+03 2.42191E+03-5.63192E+03 2.98046E+02 9.82467E-11-2.05318E-10
 -1       551 4.25115E+03-2.57746E+05 1.43341E+04-4.42307E+05-1.90739E-08-4.83124E-09
 -1       552 8.66936E+03-2.57648E+05 1.85563E+04-6.29372E+05-1.45228E-08 8.78208E-09
 -1       553 5.52900E+03-2.61034E+05 2.89326E+04-4.40899E+05-2.41962E-08 4.15093E-09
 -1       554 2.27649E+04-2.48154E+05 6.14503E+04-6.29973E+05-1.51194E-08 3.11411E-09
 -1       555 2.33769E+04-2.72814E+05 1.10493E+05-4.41505E+05-2.32685E-08-2.44108E-09
 -1       556 3.57720E+04-8.22165E+04 2.85965E+04-1.10118E+05-6.59929E-09-1.18234E-08
 -1       557 6.91723E+04-1.10308E+05 1.49582E+04-1.37530E+05 9.89530E-10 3.91356E-09
 -1       558 3.61780E+04-8.63248E+04 6.13732E+03-1.06550E+05-2.32831E-09-2.63208E-09
 -1       559 6.52431E+04-1.14407E+05 3.08553E+03-1.39121E+05 3.07045E-09-3.08955E-09
 -1       560 3.55869E+04-8.59147E+04 1.32195E+03-1.06886E+05 1.47702E-09 2.40834E-09
 -1       561 6.41785E+04-1.14221E+05 6.81561E+02-1.39784E+05-1.08412E-09 2.72007E-09
 -1       562 3.50809E+04-8.55614E+04 2.78567E+02-1.07255E+05 4.29281E-10-3.52884E-10
 -1       563 6.35686E+04-1.13962E+05 1.59624E+02-1.40174E+05 2.83762E-09 3.34580E-10
 -1       564 3.47659E+04-8.53538E+04 5.94706E+01-1.07481E+05-2.35013E-09-1.63341E-08
 -1       565 6.32558E+04-1.13830E+05 2.85474E+01-1.40369E+05-1.01500E-09-7.10861E-09
 -1       566 3.46585E+04-8.52798E+04-1.91424E+01-1.07561E+05 3.49155E-09-3.96903E-09
 -1       567 6.32121E+04-1.13808E+05-7.95977E+01-1.40355E+05 7.97968E-09-1.69675E-08
 -1       568 3.47804E+04-8.53616E+04-2.07518E+02-1.07514E+05 6.03268E-09 4.31282E-09
 -1       569 6.30179E+04-1.13687E+05-4.89772E+02-1.39771E+05-1.11504E-09 5.13501E-09
 -1       570 3.54785E+04-8.60422E+04-1.00929E+03-1.07592E+05 2.39015E-09 3.92902E-09
 -1       571 1.17114E+05 4.22433E+03 6.25744E+03-2.96867E+04 2.32376E-10 4.55611E-09
 -1       572 1.18046E+05 1.46932E+03 3.06553E+03-3.25416E+04-5.81167E-10 1.40426E-09
 -1       573 1.17492E+05 3.50161E+02 1.36180E+03-2.96091E+04-3.18323E-11 5.39421E-09
 -1       574 1.17603E+05 1.13182E+02 6.82153E+02-3.26286E+04-8.63110E-10 2.83467E-09
 -1       575 1.17535E+05 1.47900E+01 3.21449E+02-2.95988E+04-2.14163E-09 5.34192E-09
 -1       576 1.17543E+05 3.16966E+00 1.63509E+02-3.26403E+04-7.83302E-11 5.56065E-09
 -1       577 1.17542E+05-3.21776E+00 8.04397E+01-2.95975E+04 3.85228E-10 3.22211E-09
 -1       578 1.17536E+05-1.84886E+00 4.36448E+01-3.26416E+04 3.19460E-11-2.53544E-09
 -1       579 1.17547E+05-3.30474E+00 2.64291E+01-2.95975E+04 4.37240E-10-1.98338E-09
 -1       580 1.17542E+05-3.66909E+00 2.41575E+01-3.26398E+04-4.21551E-10-2.48747E-09
 -1       581 1.17555E+05-5.38445E+00 3.23909E+01-2.95993E+04 9.14952E-10 3.19210E-09
 -1       582 1.17558E+05 2.05498E-01 6.12228E+01-3.26221E+04 1.17325E-09 1.56274E-09
 -1       583 1.17563E+05 1.66166E+01 1.17531E+02-2.96152E+04-1.46429E-10-2.98542E-10
 -1       584 1.17612E+05 1.09052E+02 2.63172E+02-3.24899E+04-1.61072E-09-7.99764E-09
 -1       585 1.17546E+05 3.42125E+02 5.34835E+02-2.97317E+04-2.76486E-10 5.52063E-10
 -1       586-1.48129E+03 3.81321E+04-1.95617E+03-1.01032E+05 3.34012E-10-3.65389E-09
 -1       587-3.32595E+02 3.78713E+04-2.44372E+02-1.11177E+05 5.51154E-10-4.03952E-09
 -1       588 3.88711E+02 3.79231E+04 1.32925E+03-1.00970E+05 2.97405E-10 4.79304E-10
 -1       589 1.98982E+03 3.86512E+04 3.90683E+03-1.11085E+05 4.62023E-10-2.92039E-09
 -1       590 5.73832E+03 3.74294E+04 8.38018E+03-1.01124E+05 2.45564E-10-2.80124E-10
 -1       591-2.38159E+04-7.08098E+03-8.35528E+03-1.26338E+04-8.89031E-11 4.06544E-10
 -1       592-2.45664E+04-9.16512E+03-4.52557E+03-1.48496E+04-4.71118E-10 1.11493E-09
 -1       593-2.46610E+04-6.46494E+03-1.88406E+03-1.32364E+04-8.53902E-10 1.20622E-10
 -1       594-2.34012E+04-7.95132E+03-9.39743E+02-1.49079E+04 9.40929E-10 9.29859E-10
 -1       595-2.47255E+04-6.46224E+03-4.31998E+02-1.32640E+04-2.81375E-10 1.30201E-09
 -1       596-2.33223E+04-7.89575E+03-2.20477E+02-1.48996E+04 1.53375E-09 3.33812E-09
 -1       597-2.47337E+04-6.46760E+03-1.21878E+02-1.32651E+04-8.21178E-10 9.92003E-10
 -1       598-2.33149E+04-7.89362E+03-1.01310E+02-1.48973E+04-2.21695E-09 1.31024E-09
 -1       599-2.47331E+04-6.46750E+03-1.33540E+02-1.32650E+04-9.40531E-10-2.52072E-09
 -1       600-2.33238E+04-7.89649E+03-2.51410E+02-1.48997E+04-7.37998E-10-4.35782E-09
 -1       601-2.47228E+04-6.46132E+03-4.97654E+02-1.32634E+04 3.37138E-09 5.76733E-09
 -1       602-2.34152E+04-7.96056E+03-1.08561E+03-1.49086E+04 6.55405E-11 2.29193E-09
 -1       603-2.46476E+04-6.46527E+03-2.17747E+03-1.32317E+04-1.94746E-09 2.06683E-09
 -1       604-2.47657E+04-9.35938E+03-5.23091E+03-1.48360E+04-1.52204E-09-3.83795E-09
 -1       605-2.36660E+04-7.18066E+03-9.65733E+03-1.25392E+04 9.28878E-10-1.93313E-09
 -1       606 1.66503E+04-5.65470E+03-1.01871E+04 1.65391E+04-3.89628E-09 4.66889E-09
 -1       607 1.49059E+04-1.82378E+03-5.07279E+03 1.85661E+04-1.73486E-09-2.16562E-09
 -1       608 1.59005E+04-3.06534E+02-2.27117E+03 1.64071E+04-1.79116E-08-2.21826E-09
 -1       609 1.57051E+04-8.13634E+01-1.14731E+03 1.87120E+04-4.12520E-08-1.96451E-10
 -1       610 1.58140E+04 1.31204E+01-5.47673E+02 1.63924E+04-2.38542E-08 1.82536E-09
 -1       611 1.57787E+04 1.81127E+01-2.76359E+02 1.87280E+04-8.23638E-09-1.86083E-09
 -1       612 1.57937E+04 1.95786E+01-1.32013E+02 1.63909E+04-1.61090E-08-2.88219E-09
 -1       613 1.57816E+04 2.07042E+01-6.02604E+01 1.87299E+04-2.44554E-08-1.94416E-09
 -1       614 1.57837E+04 1.79455E+01-1.66973E+01 1.63904E+04-2.67109E-08 2.32717E-10
 -1       615 1.57779E+04 2.20619E+01 1.87925E+01 1.87303E+04-3.20442E-08 2.12628E-09
 -1       616 1.57761E+04 1.97665E+01 6.23642E+01 1.63906E+04-2.10766E-08-4.44038E-09
 -1       617 1.57841E+04 3.63728E+01 1.44499E+02 1.87300E+04-8.65498E-10-3.58750E-09
 -1       618 1.57623E+04 6.22047E+01 2.92151E+02 1.63906E+04-3.04658E-09-5.82304E-10
 -1       619 1.58864E+04 2.62993E+02 6.56597E+02 1.87296E+04-2.54886E-09 4.00405E-09
 -1       620 1.56647E+04 7.56010E+02 1.31993E+03 1.63902E+04 1.52227E-10 5.00222E-11
 -1       621 2.10020E+02 1.28169E+05 1.79585E+03 4.77850E+03-1.54486E-10-5.78098E-10
 -1       622 2.37775E+02 1.28614E+05 1.49281E+03 6.97585E+03-1.30285E-10 2.86673E-09
 -1       623 9.57552E+00 1.28301E+05 1.67559E+03 4.75726E+03-2.03542E-10 3.60058E-09
 -1       624 7.47166E+02 1.29081E+05 3.14609E+03 6.99541E+03-1.28210E-10 1.08552E-08
 -1       625 7.49457E+02 1.27699E+05 5.45239E+03 4.75909E+03-1.36197E-10 2.19165E-09
 -1       626 1.04771E+05 2.93479E+04 2.05232E+03 5.70969E+04-3.15481E-09-7.65522E-09
 -1       627 1.03290E+05 3.04567E+04 9.88598E+02 5.94307E+04-3.30374E-09-2.46291E-09
 -1       628 1.04854E+05 2.83724E+04 4.17797E+02 5.74041E+04 5.95810E-09 1.12716E-08
 -1       629 1.02993E+05 3.02259E+04 2.04647E+02 5.95721E+04 3.86444E-09-3.04684E-09
 -1       630 1.04862E+05 2.83246E+04 9.47531E+01 5.74136E+04-5.77529E-11 2.09366E-09
 -1       631 1.02959E+05 3.02201E+04 5.08657E+01 5.95756E+04-2.24463E-09 1.27727E-09
 -1       632 1.04859E+05 2.83272E+04 3.36479E+01 5.74101E+04-6.91534E-09-2.03994E-09
 -1       633 1.02953E+05 3.02226E+04 3.75159E+01 5.95730E+04-1.53750E-09 1.57175E-09
 -1       634 1.04855E+05 2.83270E+04 6.07875E+01 5.74082E+04 3.65117E-09-8.44580E-10
 -1       635 1.02957E+05 3.02232E+04 1.23269E+02 5.95732E+04 2.41317E-09 5.55872E-09
 -1       636 1.04848E+05 2.83264E+04 2.49046E+02 5.74066E+04-1.40972E-10 1.24785E-08
 -1       637 1.03008E+05 3.02627E+04 5.47406E+02 5.95705E+04-1.65344E-09 1.58252E-10
 -1       638 1.04826E+05 2.84489E+04 1.12513E+03 5.73502E+04-1.01846E-08-2.29443E-09
 -1       639 1.03597E+05 3.10845E+04 2.66181E+03 5.93929E+04-9.66054E-09 1.97786E-08
 -1       640 1.04744E+05 3.09016E+04 5.52412E+03 5.63113E+04-8.53288E-09 1.37379E-09
 -1       656 2.85788E+04-7.23554E+05-6.90072E+04-5.05279E+02 5.92991E-10 7.51172E-10
 -1       657-3.77679E+04-7.54725E+05-5.70793E+04 4.72725E+03-9.09495E-11-6.99302E-10
 -1       658 9.06636E+03-7.32447E+05-3.50444E+04-9.45295E+02 1.47907E-10 9.21485E-10
 -1       659-4.05296E+04-7.56025E+05-6.07062E+04 5.01889E+03-4.36557E-11 7.71813E-10
 -1       660 3.13329E+04-7.22256E+05-7.52522E+04-7.96905E+02-3.92902E-10 9.57797E-10
 -1       661 1.02015E+05 1.10756E+04 9.79315E+03 3.98301E+04 4.29509E-10 3.54294E-09
 -1       662 1.07100E+05 1.87726E+04 6.59893E+03 3.81448E+04 2.97945E-10-3.41527E-09
 -1       663 1.03931E+05 1.42245E+04 2.30836E+03 3.92802E+04 6.05610E-10-4.91809E-10
 -1       664 1.04885E+05 1.50842E+04 1.38003E+03 3.88107E+04 1.01254E-09 1.68112E-09
 -1       665 1.04215E+05 1.46606E+04 5.44447E+02 3.92032E+04-2.30395E-09-1.68747E-09
 -1       666 1.04554E+05 1.45803E+04 3.17464E+02 3.89073E+04-4.17811E-09-1.61678E-09
 -1       667 1.04261E+05 1.47153E+04 1.67518E+02 3.91886E+04-1.03455E-11-4.21995E-10
 -1       668 1.04508E+05 1.45341E+04 1.67886E+02 3.89268E+04 9.23897E-10-4.24918E-09
 -1       669 1.04261E+05 1.47056E+04 2.25180E+02 3.91842E+04 2.55341E-10-1.54371E-09
 -1       670 1.04570E+05 1.46483E+04 4.88156E+02 3.89207E+04 4.92631E-09 2.05441E-09
 -1       671 1.04199E+05 1.46034E+04 8.66168E+02 3.91937E+04 3.12131E-10 4.15019E-09
 -1       672 1.05079E+05 1.54860E+04 2.21550E+03 3.87933E+04-2.42520E-09 3.61806E-09
 -1       673 1.03754E+05 1.38891E+04 3.71267E+03 3.93036E+04-2.63356E-09 2.53635E-09
 -1       674 1.08619E+05 2.14459E+04 1.06178E+04 3.77491E+04-7.09463E-10-3.87331E-09
 -1       675 1.00683E+05 8.81018E+03 1.57597E+04 4.01751E+04 8.90623E-10-1.30240E-09
 -1       676 1.16775E+01-1.39497E+05-5.42422E+02 1.73401E+01-1.45884E-09 3.31165E-09
 -1       677-1.43979E+02-1.39628E+05-9.92656E+02-3.46746E+01-2.59016E-09 2.14229E-10
 -1       678 9.61325E+01-1.39403E+05-1.75473E+03 1.73226E+01-1.68529E-09 1.20084E-09
 -1       679-1.75494E+03-1.40687E+05-4.16820E+03-3.45963E+01-3.00730E-09 2.81367E-09
 -1       680 1.04727E+03-1.38438E+05-6.71780E+03 1.70629E+01-1.94632E-10-2.04726E-09
 -1       771-1.50056E+06-2.60804E+05-3.64851E+04-6.21052E+05-5.63159E-09-5.55883E-09
 -1       772-1.49117E+06-2.81053E+05-1.96142E+04-6.43602E+05-4.41651E-09 2.50384E-09
 -1       773-1.50535E+06-2.57101E+05-8.39942E+03-6.23096E+05-3.16504E-09 2.29556E-09
 -1       774-1.48583E+06-2.76634E+05-4.10723E+03-6.45495E+05 4.60932E-09-6.60293E-10
 -1       775-1.50629E+06-2.56535E+05-2.03470E+03-6.23218E+05-9.60426E-10 3.96540E-10
 -1       776-1.48566E+06-2.76600E+05-9.49075E+02-6.46382E+05-1.65164E-09 9.78162E-10
 -1       777-1.50689E+06-2.56117E+05-5.62487E+02-6.23266E+05-7.27596E-12 8.03084E-10
 -1       778-1.48580E+06-2.76714E+05-2.57713E+02-6.47112E+05 5.49335E-10 2.36651E-09
 -1       779-1.50735E+06-2.55760E+05-2.40112E+02-6.23306E+05-1.54614E-09-1.76169E-09
 -1       780-1.48595E+06-2.76817E+05-1.98598E+02-6.47703E+05-1.69348E-09-1.60753E-10
 -1       781-1.50770E+06-2.55472E+05-3.50576E+02-6.23334E+05-4.77849E-09-9.24956E-10
 -1       782-1.48612E+06-2.76926E+05-6.53207E+02-6.48138E+05-6.59293E-09-1.93722E-09
 -1       783-1.50789E+06-2.55287E+05-1.30551E+03-6.23338E+05-1.00772E-09-2.59820E-09
 -1       784-1.48698E+06-2.77806E+05-3.09872E+03-6.48368E+05-3.29283E-09-4.27463E-11
 -1       785-1.50744E+06-2.55604E+05-5.72799E+03-6.22929E+05-6.35191E-09 7.07132E-10
 -1       786 1.12522E+05-5.97041E+03 1.38119E+04 1.37524E+00 9.63948E-08 1.71713E-09
 -1       787 1.18507E+05 6.91184E+03 9.77186E+03-6.62894E+00 1.91368E-07 2.35639E-09
 -1       788 1.14831E+05-9.35926E+02 3.57486E+03 2.40493E+00 2.70523E-07-5.45288E-09
 -1       789 1.15817E+05 1.08292E+03 2.24613E+03-9.30748E+00 3.49535E-07 4.56939E-09
 -1       790 1.15212E+05-1.46206E+02 9.13938E+02 4.05382E+00 4.75675E-07-7.03778E-09
 -1       791 1.15372E+05 1.69874E+02 5.36622E+02-1.35369E+01 6.01713E-07 3.68209E-09
 -1       792 1.15276E+05-2.35654E+01 2.44952E+02 6.63441E+00 8.40155E-07-7.04577E-09
 -1       793 1.15301E+05 3.31166E+01 1.60604E+02-2.01182E+01 1.07703E-06-4.06465E-09
 -1       794 1.15284E+05-9.53891E+00 1.19107E+02 1.06352E+01 5.38537E-07-5.27921E-09
 -1       795 1.15308E+05 4.92682E+01 1.72488E+02-3.02874E+01 1.80198E-09 3.94807E-09
 -1       796 1.15269E+05-3.97049E+01 2.58503E+02 1.68038E+01-6.93245E-11-3.43341E-09
 -1       797 1.15425E+05 2.91072E+02 6.09607E+02-4.59471E+01-1.44023E-10-2.60393E-09
 -1       798 1.15167E+05-2.51164E+02 9.62310E+02 2.62953E+01 2.67466E-11 3.72950E-10
 -1       799 1.16147E+05 1.85447E+03 2.62340E+03-7.01797E+01-6.65259E-10 4.46002E-09
 -1       800 1.14547E+05-1.60184E+03 3.70591E+03 4.10365E+01-1.76920E-10 9.96351E-10
 -1       801-6.28498E+03 9.18076E+03 9.76908E+03 1.16008E+04 6.40875E-09-4.55429E-10
 -1       802 1.65120E+04 5.57066E+04 3.17727E+04-4.77578E+04 1.71667E-08-2.26319E-09
 -1       803-9.82984E+03 2.56919E+04 4.08770E+04 1.10270E+04 1.35315E-08 8.95373E-09
 -1       804 7.91513E+04 8.89768E+04 1.13833E+05-4.82743E+04 1.60908E-08 1.44766E-08
 -1       805-6.89438E+04-2.39461E+04 1.48474E+05 1.21162E+04 5.69707E-09 1.56614E-08
 -1       806-1.28758E+05-2.76648E+04-1.09383E+04-5.37262E+04-9.02673E-10 3.68345E-11
 -1       807-1.29388E+05-2.61126E+04-5.37370E+03-5.66428E+04 1.10703E-10 2.51248E-10
 -1       808-1.29069E+05-2.37127E+04-2.27958E+03-5.55814E+04 1.28125E-10 6.21087E-09
 -1       809-1.28241E+05-2.46209E+04-1.11444E+03-5.67983E+04-4.12228E-10 2.23855E-09
 -1       810-1.29118E+05-2.35731E+04-5.10278E+02-5.56634E+04-1.46360E-09-5.50506E-09
 -1       811-1.28153E+05-2.45618E+04-2.53072E+02-5.67857E+04 7.48059E-11 2.65175E-09
 -1       812-1.29127E+05-2.35831E+04-1.26243E+02-5.56634E+04-1.65164E-09-8.09871E-09
 -1       813-1.28142E+05-2.45632E+04-7.96446E+01-5.67794E+04 4.22824E-09 4.06544E-10
 -1       814-1.29126E+05-2.35866E+04-7.45962E+01-5.56620E+04 8.51287E-10-9.11086E-10
 -1       815-1.28144E+05-2.45644E+04-1.16845E+02-5.67781E+04 1.05751E-09 3.82897E-09
 -1       816-1.29119E+05-2.35852E+04-2.18830E+02-5.56609E+04-3.69710E-10 1.80762E-10
 -1       817-1.28182E+05-2.45851E+04-4.69395E+02-5.67749E+04 1.61504E-09-4.12001E-10
 -1       818-1.29092E+05-2.36505E+04-9.56506E+02-5.56302E+04 4.12456E-10 1.93313E-09
 -1       819-1.28712E+05-2.51587E+04-2.25154E+03-5.66474E+04-1.35060E-09 5.60885E-09
 -1       820-1.28910E+05-2.53531E+04-4.58207E+03-5.49054E+04 2.52840E-10-1.61833E-09
 -1       821-1.72017E+05 9.57725E+03-2.20770E+04 4.95449E+01 4.00267E-10-2.20734E-09
 -1       822-1.81584E+05-1.10844E+04-1.56313E+04-2.92986E+02-1.61618E-09-7.03949E-10
 -1       823-1.75725E+05 1.50512E+03-5.71992E+03-3.01986E+01 9.23926E-10-1.21827E-09
 -1       824-1.77268E+05-1.74159E+03-3.59726E+03-7.55181E+01 5.87992E-09-1.43274E-09
 -1       825-1.76333E+05 2.35979E+02-1.47993E+03-1.67928E+02 7.00231E-06-1.04686E-08
 -1       826-1.76572E+05-2.79142E+02-8.93033E+02 1.27946E+02 1.39612E-05-9.41947E-09
 -1       827-1.76420E+05 4.30073E+01-4.60017E+02-2.33667E+02-3.76502E-06 1.30385E-09
 -1       828-1.76472E+05-8.54333E+01-4.06273E+02 1.25899E+02-2.14883E-05 1.27487E-08
 -1       829-1.76433E+05 4.23003E+01-4.67336E+02-1.65881E+02-1.07688E-05 7.95094E-09
 -1       830-1.76560E+05-2.82515E+02-9.03512E+02-7.96687E+01-2.30152E-08-4.96671E-09
 -1       831-1.76333E+05 2.39956E+02-1.50471E+03-2.80951E+01-1.85954E-05 1.08581E-08
 -1       832-1.77295E+05-1.77268E+03-3.66107E+03-2.95934E+02-3.71924E-05 3.50497E-09
 -1       833-1.75698E+05 1.53232E+03-5.81445E+03 5.03880E+01-1.12539E-05 9.31936E-09
 -1       834-1.81676E+05-1.12736E+04-1.58989E+04-3.16607E+02 1.46982E-05 2.11412E-09
 -1       835-1.71953E+05 9.73932E+03-2.24563E+04-7.42091E+00 7.36500E-06-1.32832E-08
 -1       836-5.43535E+02 1.58291E+05 9.32536E+03-1.43582E+04 1.19053E-09 3.65958E-09
 -1       837 2.05176E+03 1.61180E+05 8.00834E+03-2.88566E+04 1.73873E-09 2.04045E-09
 -1       838-2.04899E+02 1.59088E+05 8.32433E+03-1.43083E+04 1.62345E-09 2.81750E-09
 -1       839 5.36655E+03 1.63656E+05 1.59095E+04-2.88749E+04 2.01999E-09 4.87105E-10
 -1       840-1.61740E+03 1.55800E+05 2.54383E+04-1.43391E+04 1.40244E-09-1.79330E-09
 -1       856-5.09018E+04 4.42902E+03-1.16705E+04-2.49534E+02-2.61559E-09-3.09683E-09
 -1       857-5.57238E+04-5.19534E+03-8.03526E+03 2.67904E+03-1.17211E-09-8.80038E-09
 -1       858-5.28068E+04 6.20781E+02-3.02877E+03-2.57868E+02-1.47867E-09-1.55694E-09
 -1       859-5.35351E+04-7.22911E+02-1.82945E+03 2.69211E+03 9.53548E-10 1.65232E-09
 -1       860-5.30919E+04 8.64767E+01-7.69133E+02-2.62659E+02 6.80132E-10-9.46102E-10
 -1       861-5.32063E+04-9.69165E+01-4.28392E+02 2.69859E+03-2.16065E-09-7.78073E-10
 -1       862-5.31363E+04 1.15818E+01-1.88581E+02-2.64359E+02 2.90957E-09-5.13761E-09
 -1       863-5.31538E+04-8.54610E+00-9.25384E+01 2.69934E+03 4.73846E-09-5.62205E-09
 -1       864-5.31445E+04 1.08518E-02-2.75801E+01-2.63414E+02 2.61505E-09-4.98860E-09
 -1       865-5.31385E+04 1.26003E+01 2.13755E+01 2.69448E+03 3.46954E-09-3.64696E-09
 -1       866-5.31510E+04-9.61397E+00 7.08846E+01-2.59500E+02 1.41469E-09-1.55745E-09
 -1       867-5.30991E+04 8.12364E+01 1.91713E+02 2.68391E+03 1.71917E-09 6.94836E-09
 -1       868-5.31827E+04-6.77102E+01 3.23430E+02-2.52837E+02-9.02105E-11 5.06094E-09
 -1       869-5.28589E+04 5.63527E+02 8.66572E+02 2.66573E+03-2.51860E-09-3.24108E-09
 -1       870-5.33894E+04-4.79260E+02 1.25788E+03-2.41328E+02 9.10006E-10-2.30148E-09
 -1       871-2.43503E+03-5.16236E+03-7.95345E+03 5.22387E+04 1.88174E-09 2.10412E-09
 -1       872-1.05495E+03-6.93812E+03-3.24441E+03 6.77223E+04 2.91311E-09 6.56200E-10
 -1       873-1.84018E+01-6.09772E+03 4.60708E+02 5.21225E+04 9.21773E-10 1.12789E-09
 -1       874 1.22812E+03-4.94592E+03 4.50701E+03 6.77472E+04 2.98814E-09 4.46119E-09
 -1       875 2.90424E+03-7.17525E+03 9.99918E+03 5.22173E+04 1.02500E-09 7.09406E-10
 -1       876 1.29869E+05 2.23317E+04 6.92831E+03 5.26334E+04-7.66192E-09-6.27142E-09
 -1       877 1.30271E+05 2.38466E+04 3.69977E+03 5.46769E+04-7.78664E-09 1.16296E-09
 -1       878 1.30518E+05 2.15642E+04 1.55012E+03 5.32022E+04-4.04361E-09-6.02608E-09
 -1       879 1.29328E+05 2.29082E+04 7.72129E+02 5.47272E+04-2.12287E-09 9.13241E-09
 -1       880 1.30566E+05 2.15550E+04 3.59539E+02 5.32254E+04 6.46878E-10-6.37897E-10
 -1       881 1.29266E+05 2.28685E+04 1.91491E+02 5.47184E+04 4.78485E-09 1.84060E-09
 -1       882 1.30571E+05 2.15602E+04 1.21730E+02 5.32261E+04 4.90979E-09 1.99123E-09
 -1       883 1.29262E+05 2.28668E+04 1.29554E+02 5.47162E+04 6.58702E-10 4.97101E-09
 -1       884 1.30569E+05 2.15585E+04 2.04948E+02 5.32262E+04 5.97169E-10 2.15095E-10
 -1       885 1.29278E+05 2.28697E+04 4.11354E+02 5.47215E+04 4.90719E-09 5.37557E-09
 -1       886 1.30553E+05 2.15465E+04 8.28776E+02 5.32246E+04 2.67487E-09-2.21951E-09
 -1       887 1.29424E+05 2.29651E+04 1.81030E+03 5.47422E+04-1.26209E-09-3.67118E-09
 -1       888 1.30438E+05 2.15669E+04 3.64789E+03 5.31667E+04 1.62572E-10-6.11840E-09
 -1       889 1.31598E+05 2.52221E+04 8.71484E+03 5.46727E+04 1.65159E-09-4.00723E-09
 -1       890 1.28951E+05 2.33330E+04 1.63219E+04 5.17758E+04 6.71889E-10 6.67569E-10
 -1       891-7.81761E+01-7.37651E+04-8.69801E+02 1.39673E+04 5.50244E-10 2.83728E-09
 -1       892-1.36165E+02-7.39760E+04-9.46851E+02 2.11402E+04-5.34783E-10-5.34328E-10
 -1       893-1.85347E+01-7.37946E+04-1.35317E+03 1.39698E+04 1.13982E-09 9.45192E-10
 -1       894-7.32743E+02-7.45014E+04-2.81056E+03 2.10656E+04-1.77170E-09 1.60617E-09
 -1       895-5.70254E+02-7.32148E+04-4.95176E+03 1.40411E+04-5.67269E-10 8.69022E-10
 -1       956-1.63383E+05-2.36303E+03-5.94963E+03 1.08488E+04-2.90947E-09 1.53341E-09
 -1       957-1.64557E+05-7.98018E+02-3.05450E+03 1.30595E+04-2.27192E-09 2.05580E-09
 -1       958-1.63908E+05-6.42703E+01-1.37595E+03 1.07787E+04 1.59025E-09 8.44921E-10
 -1       959-1.64001E+05-1.31909E+01-7.02906E+02 1.31352E+04-2.21917E-10 1.74214E-09
 -1       960-1.63953E+05 1.76670E+01-3.42515E+02 1.07723E+04-2.18392E-09 1.92449E-09
 -1       961-1.63958E+05 1.51759E+01-1.81646E+02 1.31424E+04-4.73722E-09-1.64619E-10
 -1       962-1.63961E+05 1.43008E+01-1.03654E+02 1.07715E+04-1.29694E-09 4.45880E-10
 -1       963-1.63955E+05 1.51795E+01-8.27165E+01 1.31435E+04-2.94654E-09-3.96767E-10
 -1       964-1.63963E+05 1.49959E+01-9.97176E+01 1.07712E+04-5.47800E-10-3.62377E-09
 -1       965-1.63961E+05 1.67673E+01-1.71732E+02 1.31434E+04 2.01967E-09 2.15027E-09
 -1       966-1.63958E+05 1.96889E+01-3.21963E+02 1.07715E+04-1.83275E-09 1.32763E-09
 -1       967-1.64004E+05-8.25010E+00-6.60140E+02 1.31394E+04-1.44155E-10 6.80262E-09
 -1       968-1.63918E+05-5.57164E+01-1.29164E+03 1.07753E+04-4.64752E-10 1.29877E-09
 -1       969-1.64529E+05-7.43695E+02-2.86778E+03 1.30947E+04 3.03430E-10 5.57122E-10
 -1       970-1.63427E+05-2.21299E+03-5.58557E+03 1.08174E+04 1.24442E-09 4.50882E-09
 -1       971-1.54923E+05-8.16208E+02-4.54115E+03 7.60723E+03-2.85945E-09-3.68632E-09
 -1       972-1.56028E+05-5.87002E+02-2.47343E+03 1.06145E+04-2.10002E-09-2.41630E-09
 -1       973-1.55426E+05-6.23509E+00-1.10719E+03 7.54511E+03-1.33059E-09 2.33524E-09
 -1       974-1.55501E+05-8.44450E+00-5.73743E+02 1.06810E+04-1.41915E-09 9.39792E-10
 -1       975-1.55463E+05 1.34559E+01-2.85953E+02 7.54015E+03 4.57021E-10 1.49646E-09
 -1       976-1.55468E+05 1.39312E+01-1.63881E+02 1.06868E+04-2.66573E-09 1.78693E-09
 -1       977-1.55469E+05 1.22977E+01-1.16721E+02 7.53934E+03 9.07335E-10 1.00817E-09
 -1       978-1.55468E+05 1.57574E+01-1.33710E+02 1.06879E+04 7.88737E-09-1.58832E-09
 -1       979-1.55468E+05 1.54211E+01-2.12227E+02 7.53902E+03 4.41571E-09 3.86194E-10
 -1       980-1.55483E+05 1.68462E+01-4.08154E+02 1.06880E+04 2.23169E-09-1.64204E-09
 -1       981-1.55455E+05 2.56534E+01-7.89545E+02 7.53922E+03 5.09033E-10 9.47580E-10
 -1       982-1.55592E+05-4.10349E+01-1.63143E+03 1.06852E+04-6.75982E-10 5.33589E-09
 -1       983-1.55357E+05-2.41891E+01-3.16942E+03 7.54195E+03 1.93563E-09-2.83501E-09
 -1       984-1.57118E+05-1.69505E+03-7.09728E+03 1.06431E+04-1.65517E-09-6.23118E-10
 -1       985-1.53923E+05-2.34261E+03-1.30328E+04 7.58347E+03 2.11594E-09 1.77533E-09
 -3
    1PSTEP                         5           3           1          
  100CL  103 3.75000E-01         409                     0    3           1
 -4  DISP        4    1
 -5  D1          1    2    1    0
 -5  D2          1    2    2    0
 -5  D3          1    2    3    0
 -5  ALL         1    2    0    0    1ALL
 -1         1 9.81710E-05 0.00000E+00 0.00000E+00
 -1         2 9.05554E-05 7.33277E-30-1.65436E-24
 -1         3 8.39383E-05-3.71777E-27 0.00000E+00
 -1         5 6.03122E-05 3.02214E-26 0.00000E+00
 -1         8 7.83868E-05-7.16261E-07 0.00000E+00
 -1         9 7.96652E-05 4.79524E-07 0.00000E+00
 -1        10 7.77661E-05-1.14680E-06 3.30872E-24
 -1        12 5.98898E-05 4.08870E-07 3.30872E-24
 -1        15 5.48429E-05-7.80101E-07-2.06795E-25
 -1        16 5.67283E-05 3.75026E-07 0.00000E+00
 -1        17 5.79381E-05-2.41242E-06 0.00000E+00
 -1        18 5.78369E-05 2.19639E-07 0.00000E+00
 -1        19 5.86231E-05 8.15472E-07 0.00000E+00
 -1        20 5.87284E-05 1.20891E-05 0.00000E+00
 -1        21 5.83186E-05 2.28250E-05 0.00000E+00
 -1        24 1.47875E-05-3.24982E-06 0.00000E+00
 -1        25 5.64910E-05 3.12839E-07 0.00000E+00
 -1        26 5.72609E-05 1.13611E-06 0.00000E+00
 -1        27 5.60877E-05 1.02783E-05 0.00000E+00
 -1        28 5.57304E-05 2.24756E-05 0.00000E+00
 -1        32 0.00000E+00 0.00000E+00 0.00000E+00
 -1        33 5.48735E-05 1.52588E-06 0.00000E+00
 -1        34 5.37749E-05 1.02617E-05 0.00000E+00
 -1        35 5.27333E-05 2.22909E-05 0.00000E+00
 -1        51 9.68842E-05-1.18284E-07 0.00000E+00
 -1        52 9.44992E-05-2.33369E-07 0.00000E+00
 -1        53 9.12320E-05-3.49341E-07 0.00000E+00
 -1        54 8.73074E-05-4.67315E-07 0.00000E+00
 -1        55 8.29504E-05-5.87951E-07-3.61892E-24
 -1        56 9.72778E-05-5.71426E-07 2.64698E-23
 -1        57 9.64923E-05-1.53129E-06 0.00000E+00
 -1        58 9.58130E-05-2.76959E-06 0.00000E+00
 -1        59 9.51937E-05-4.18553E-06 0.00000E+00
 -1        60 9.45980E-05-5.66494E-06-2.64698E-23
 -1        61 9.39824E-05-7.09457E-06 0.00000E+00
 -1        62 9.33065E-05-8.36308E-06 0.00000E+00
 -1        63 9.25299E-05-9.36328E-06-1.32349E-23
 -1        64 9.16175E-05-1.00008E-05 0.00000E+00
 -1        65 9.05371E-05-1.01897E-05 0.00000E+00
 -1        66 8.92642E-05-9.86576E-06 0.00000E+00
 -1        67 8.77798E-05-8.97654E-06 0.00000E+00
 -1        68 8.60733E-05-7.49724E-06 2.64698E-23
 -1        69 8.41451E-05-5.41481E-06 0.00000E+00
 -1        70 8.19946E-05-2.74941E-06 2.64698E-23
 -1        86 9.02721E-05 8.59916E-08-1.65436E-24
 -1        87 8.94212E-05 1.71232E-07 8.27181E-25
 -1        88 8.79757E-05 2.55750E-07 0.00000E+00
 -1        89 8.59066E-05 3.36442E-07-5.16988E-26
 -1        90 8.31564E-05 4.16487E-07 0.00000E+00
 -1       121 8.37662E-05-1.90398E-07 6.61744E-24
 -1       122 8.32501E-05-3.80913E-07 3.30872E-24
 -1       123 8.23907E-05-5.71663E-07-6.61744E-24
 -1       124 8.11892E-05-7.62795E-07 0.00000E+00
 -1       125 7.96469E-05-9.54367E-07 6.61744E-24
 -1       191 6.03004E-05 6.81506E-08 0.00000E+00
 -1       192 6.02652E-05 1.36300E-07 0.00000E+00
 -1       193 6.02066E-05 2.04448E-07 0.00000E+00
 -1       194 6.01245E-05 2.72594E-07 1.65436E-24
 -1       195 6.00189E-05 3.40735E-07 0.00000E+00
 -1       251 7.84491E-05 2.53026E-06 0.00000E+00
 -1       252 7.85291E-05 4.44513E-06 5.16988E-26
 -1       253 7.86096E-05 5.26123E-06 0.00000E+00
 -1       254 7.86932E-05 5.20740E-06 8.27181E-25
 -1       255 7.87766E-05 4.47399E-06-1.65436E-24
 -1       256 7.88601E-05 3.24898E-06 1.65436E-24
 -1       257 7.89432E-05 1.69841E-06 0.00000E+00
 -1       258 7.90262E-05-1.28106E-08-1.65436E-24
 -1       259 7.91092E-05-1.72697E-06 0.00000E+00
 -1       260 7.91923E-05-3.28634E-06 1.65436E-24
 -1       261 7.92758E-05-4.52627E-06 1.65436E-24
 -1       262 7.93592E-05-5.28104E-06 8.27181E-25
 -1       263 7.94427E-05-5.36325E-06 0.00000E+00
 -1       264 7.95232E-05-4.58317E-06-1.03398E-25
 -1       265 7.96031E-05-2.71287E-06 3.30872E-24
 -1       266 7.44629E-05-7.36638E-07-3.30872E-24
 -1       267 7.05389E-05-7.46091E-07 0.00000E+00
 -1       268 6.66149E-05-7.56236E-07 0.00000E+00
 -1       269 6.26909E-05-7.64332E-07 0.00000E+00
 -1       270 5.87669E-05-7.72380E-07-4.13590E-25
 -1       271 7.59993E-05 2.21073E-06 0.00000E+00
 -1       272 7.39716E-05 4.07171E-06 1.32349E-23
 -1       273 7.22985E-05 4.99634E-06 2.64698E-23
 -1       274 7.09232E-05 5.11126E-06 0.00000E+00
 -1       275 6.97973E-05 4.56029E-06 0.00000E+00
 -1       276 6.88630E-05 3.49490E-06 0.00000E+00
 -1       277 6.80610E-05 2.07512E-06 2.64698E-23
 -1       278 6.73297E-05 4.65931E-07 0.00000E+00
 -1       279 6.66064E-05-1.16468E-06 0.00000E+00
 -1       280 6.58282E-05-2.64838E-06-1.32349E-23
 -1       281 6.49332E-05-3.81925E-06-2.64698E-23
 -1       282 6.38613E-05-4.51586E-06-1.32349E-23
 -1       283 6.25542E-05-4.58441E-06 0.00000E+00
 -1       284 6.09607E-05-3.87897E-06-1.32349E-23
 -1       285 5.90251E-05-2.26870E-06 0.00000E+00
 -1       301 7.57753E-05 4.57384E-07-3.30872E-24
 -1       302 7.18886E-05 4.46928E-07 0.00000E+00
 -1       303 6.80227E-05 4.36838E-07-3.30872E-24
 -1       304 6.41954E-05 4.25490E-07 0.00000E+00
 -1       305 6.04248E-05 4.12370E-07-6.61744E-24
 -1       306 7.71983E-05 3.36089E-06-2.64698E-23
 -1       307 7.50995E-05 5.14730E-06 0.00000E+00
 -1       308 7.34189E-05 5.83174E-06 2.64698E-23
 -1       309 7.21386E-05 5.42893E-06 1.32349E-23
 -1       310 7.12098E-05 4.08754E-06 0.00000E+00
 -1       311 7.05626E-05 1.98837E-06 2.64698E-23
 -1       312 7.00968E-05-5.97319E-07 0.00000E+00
 -1       313 6.97044E-05-3.38062E-06 0.00000E+00
 -1       314 6.92690E-05-6.04876E-06 0.00000E+00
 -1       315 6.86760E-05-8.29327E-06-1.32349E-23
 -1       316 6.78287E-05-9.85653E-06-2.64698E-23
 -1       317 6.66410E-05-1.05058E-05 0.00000E+00
 -1       318 6.50638E-05-1.01171E-05-2.64698E-23
 -1       319 6.30716E-05-8.60182E-06-1.32349E-23
 -1       320 6.06696E-05-6.01067E-06 2.64698E-23
 -1       336 7.55043E-05-1.35504E-06 0.00000E+00
 -1       337 7.28191E-05-1.56457E-06-3.30872E-24
 -1       338 6.97144E-05-1.77521E-06 0.00000E+00
 -1       339 6.61955E-05-1.98686E-06-3.30872E-24
 -1       340 6.22678E-05-2.20001E-06-6.61744E-24
 -1       406 5.97373E-05 4.76993E-07 0.00000E+00
 -1       407 5.95613E-05 5.45091E-07 0.00000E+00
 -1       408 5.93618E-05 6.13142E-07 0.00000E+00
 -1       409 5.91389E-05 6.81062E-07-3.30872E-24
 -1       410 5.88926E-05 7.48715E-07 0.00000E+00
 -1       521 5.34244E-05 2.19802E-06 0.00000E+00
 -1       522 5.07714E-05 2.06695E-06 0.00000E+00
 -1       523 4.88069E-05 1.13057E-07 0.00000E+00
 -1       524 4.74273E-05-3.44910E-06 0.00000E+00
 -1       525 4.64592E-05-8.11933E-06 0.00000E+00
 -1       526 4.56887E-05-1.33303E-05 2.64698E-23
 -1       527 4.48732E-05-1.84203E-05-5.29396E-23
 -1       528 4.37702E-05-2.27366E-05 0.00000E+00
 -1       529 4.21859E-05-2.57592E-05-5.29396E-23
 -1       530 3.99559E-05-2.70523E-05-2.64698E-23
 -1       531 3.70246E-05-2.64778E-05-5.29396E-23
 -1       532 3.33839E-05-2.40174E-05 2.64698E-23
 -1       533 2.91440E-05-1.99773E-05 0.00000E+00
 -1       534 2.44705E-05-1.47600E-05 2.64698E-23
 -1       535 1.95767E-05-8.97965E-06 5.29396E-23
 -1       536 5.79187E-05 1.63062E-06 1.65436E-24
 -1       537 5.79085E-05 4.70696E-06 8.27181E-25
 -1       538 5.79002E-05 6.90404E-06 0.00000E+00
 -1       539 5.78944E-05 8.30951E-06-2.06795E-25
 -1       540 5.78893E-05 9.01912E-06 0.00000E+00
 -1       541 5.78846E-05 9.12875E-06 1.03398E-25
 -1       542 5.78800E-05 8.74029E-06-2.06795E-25
 -1       543 5.78751E-05 7.95569E-06 0.00000E+00
 -1       544 5.78701E-05 6.88090E-06 0.00000E+00
 -1       545 5.78648E-05 5.62186E-06-5.16988E-26
 -1       546 5.78595E-05 4.28638E-06 0.00000E+00
 -1       547 5.78542E-05 2.98228E-06-5.16988E-26
 -1       548 5.78491E-05 1.81705E-06 0.00000E+00
 -1       549 5.78445E-05 8.98165E-07 0.00000E+00
 -1       550 5.78401E-05 3.30704E-07-4.13590E-25
 -1       551 5.22179E-05-2.53926E-06-3.30872E-24
 -1       552 4.53764E-05-2.67067E-06 0.00000E+00
 -1       553 3.78104E-05-2.80710E-06 6.61744E-24
 -1       554 2.99224E-05-2.94778E-06 3.30872E-24
 -1       555 2.21149E-05-3.09006E-06 0.00000E+00
 -1       556 5.64369E-05 1.47862E-06 1.32349E-23
 -1       557 5.52896E-05 4.45329E-06 6.61744E-24
 -1       558 5.44575E-05 6.59604E-06 1.32349E-23
 -1       559 5.39055E-05 7.99802E-06 0.00000E+00
 -1       560 5.35983E-05 8.75012E-06 0.00000E+00
 -1       561 5.35011E-05 8.94374E-06 0.00000E+00
 -1       562 5.35792E-05 8.67037E-06 0.00000E+00
 -1       563 5.37980E-05 8.02157E-06 0.00000E+00
 -1       564 5.41230E-05 7.08898E-06-3.30872E-24
 -1       565 5.45199E-05 5.96425E-06 8.27181E-25
 -1       566 5.49544E-05 4.73907E-06 0.00000E+00
 -1       567 5.53921E-05 3.50515E-06 4.13590E-25
 -1       568 5.57989E-05 2.35418E-06 0.00000E+00
 -1       569 5.61403E-05 1.37773E-06 0.00000E+00
 -1       570 5.63822E-05 6.67425E-07 0.00000E+00
 -1       571 5.78847E-05 2.88790E-07-6.20385E-25
 -1       572 5.79334E-05 3.25064E-07 8.27181E-25
 -1       573 5.79825E-05 3.34303E-07 0.00000E+00
 -1       574 5.80317E-05 3.22662E-07 4.13590E-25
 -1       575 5.80810E-05 2.96319E-07 0.00000E+00
 -1       576 5.81303E-05 2.61496E-07 0.00000E+00
 -1       577 5.81796E-05 2.24416E-07-1.65436E-24
 -1       578 5.82289E-05 1.91309E-07 8.27181E-25
 -1       579 5.82782E-05 1.68406E-07 0.00000E+00
 -1       580 5.83275E-05 1.61937E-07 0.00000E+00
 -1       581 5.83768E-05 1.78132E-07 3.30872E-24
 -1       582 5.84261E-05 2.23212E-07 3.30872E-24
 -1       583 5.84754E-05 3.03395E-07 0.00000E+00
 -1       584 5.85247E-05 4.24833E-07 0.00000E+00
 -1       585 5.85739E-05 5.93644E-07 0.00000E+00
 -1       586 5.75960E-05 2.36152E-07 8.27181E-25
 -1       587 5.73339E-05 2.52242E-07-2.06795E-25
 -1       588 5.70714E-05 2.68152E-07 0.00000E+00
 -1       589 5.68295E-05 2.83807E-07 0.00000E+00
 -1       590 5.66293E-05 2.99034E-07 0.00000E+00
 -1       591 5.77888E-05 3.14459E-07 2.58494E-26
 -1       592 5.77489E-05 3.82138E-07 0.00000E+00
 -1       593 5.77171E-05 4.27800E-07 0.00000E+00
 -1       594 5.76917E-05 4.56074E-07 0.00000E+00
 -1       595 5.76709E-05 4.71651E-07 0.00000E+00
 -1       596 5.76531E-05 4.79186E-07 2.06795E-25
 -1       597 5.76366E-05 4.83331E-07-4.13590E-25
 -1       598 5.76196E-05 4.88736E-07 0.00000E+00
 -1       599 5.76004E-05 5.00052E-07 0.00000E+00
 -1       600 5.75773E-05 5.21926E-07-1.03398E-25
 -1       601 5.75484E-05 5.59008E-07 0.00000E+00
 -1       602 5.75121E-05 6.15953E-07-2.06795E-25
 -1       603 5.74667E-05 6.97415E-07 1.03398E-25
 -1       604 5.74106E-05 8.08085E-07 0.00000E+00
 -1       605 5.73420E-05 9.52592E-07 0.00000E+00
 -1       606 5.86322E-05 1.15053E-06 0.00000E+00
 -1       607 5.86395E-05 1.55656E-06 0.00000E+00
 -1       608 5.86464E-05 2.02939E-06 0.00000E+00
 -1       609 5.86530E-05 2.56433E-06 0.00000E+00
 -1       610 5.86595E-05 3.15665E-06 0.00000E+00
 -1       611 5.86660E-05 3.80158E-06 0.00000E+00
 -1       612 5.86724E-05 4.49430E-06 0.00000E+00
 -1       613 5.86787E-05 5.23005E-06 0.00000E+00
 -1       614 5.86851E-05 6.00402E-06 0.00000E+00
 -1       615 5.86914E-05 6.81140E-06 0.00000E+00
 -1       616 5.86977E-05 7.64742E-06 0.00000E+00
 -1       617 5.87039E-05 8.50727E-06 0.00000E+00
 -1       618 5.87102E-05 9.38615E-06 0.00000E+00
 -1       619 5.87164E-05 1.02793E-05 0.00000E+00
 -1       620 5.87225E-05 1.11818E-05 0.00000E+00
 -1       621 5.83596E-05 8.68925E-07 0.00000E+00
 -1       622 5.81171E-05 9.22648E-07 8.27181E-25
 -1       623 5.78908E-05 9.76367E-07 1.65436E-24
 -1       624 5.76758E-05 1.03001E-06-8.27181E-25
 -1       625 5.74675E-05 1.08356E-06 0.00000E+00
 -1       626 5.85541E-05 1.16753E-06 0.00000E+00
 -1       627 5.84634E-05 1.57866E-06 3.30872E-24
 -1       628 5.83526E-05 2.04338E-06-3.30872E-24
 -1       629 5.82240E-05 2.55583E-06 0.00000E+00
 -1       630 5.80797E-05 3.11012E-06 0.00000E+00
 -1       631 5.79219E-05 3.70036E-06 0.00000E+00
 -1       632 5.77528E-05 4.32062E-06-3.30872E-24
 -1       633 5.75747E-05 4.96499E-06 8.27181E-25
 -1       634 5.73897E-05 5.62756E-06 0.00000E+00
 -1       635 5.72001E-05 6.30241E-06 0.00000E+00
 -1       636 5.70081E-05 6.98365E-06-1.65436E-24
 -1       637 5.68159E-05 7.66534E-06 0.00000E+00
 -1       638 5.66257E-05 8.34157E-06 1.65436E-24
 -1       639 5.64397E-05 9.00643E-06 8.27181E-25
 -1       640 5.62599E-05 9.65400E-06 8.27181E-25
 -1       656 5.79739E-05 1.17944E-05-3.30872E-24
 -1       657 5.74843E-05 1.14880E-05 0.00000E+00
 -1       658 5.71580E-05 1.11826E-05 6.61744E-24
 -1       659 5.68915E-05 1.08774E-05 0.00000E+00
 -1       660 5.65721E-05 1.05713E-05 0.00000E+00
 -1       661 5.84491E-05 1.29775E-05-8.27181E-25
 -1       662 5.81865E-05 1.38273E-05-4.13590E-25
 -1       663 5.79380E-05 1.46397E-05-1.65436E-24
 -1       664 5.77032E-05 1.54163E-05 0.00000E+00
 -1       665 5.74813E-05 1.61588E-05 1.65436E-24
 -1       666 5.72717E-05 1.68686E-05 8.27181E-25
 -1       667 5.70739E-05 1.75473E-05 0.00000E+00
 -1       668 5.68872E-05 1.81963E-05 0.00000E+00
 -1       669 5.67111E-05 1.88171E-05-1.65436E-24
 -1       670 5.65451E-05 1.94109E-05 8.27181E-25
 -1       671 5.63888E-05 1.99790E-05 0.00000E+00
 -1       672 5.62415E-05 2.05227E-05-8.27181E-25
 -1       673 5.61029E-05 2.10433E-05-1.65436E-24
 -1       674 5.59720E-05 2.15416E-05-4.13590E-25
 -1       675 5.58491E-05 2.20191E-05 0.00000E+00
 -1       676 5.78864E-05 2.27664E-05 0.00000E+00
 -1       677 5.74543E-05 2.27078E-05-8.27181E-25
 -1       678 5.70225E-05 2.26493E-05-1.65436E-24
 -1       679 5.65912E-05 2.25910E-05 0.00000E+00
 -1       680 5.61605E-05 2.25327E-05 0.00000E+00
 -1       771 1.18386E-05 2.33579E-06 2.64698E-23
 -1       772 9.26870E-06 6.90505E-06 0.00000E+00
 -1       773 7.06210E-06 1.05163E-05 2.64698E-23
 -1       774 5.19428E-06 1.32311E-05 3.97047E-23
 -1       775 3.64129E-06 1.51123E-05-2.64698E-23
 -1       776 2.37818E-06 1.62242E-05 1.32349E-23
 -1       777 1.37974E-06 1.66326E-05 5.29396E-23
 -1       778 6.20314E-07 1.64043E-05-1.32349E-23
 -1       779 7.40627E-08 1.56074E-05 0.00000E+00
 -1       780-2.85234E-07 1.43110E-05-1.32349E-23
 -1       781-4.83876E-07 1.25847E-05 2.64698E-23
 -1       782-5.48458E-07 1.04995E-05 0.00000E+00
 -1       783-5.05625E-07 8.12634E-06 0.00000E+00
 -1       784-3.82164E-07 5.53719E-06 1.32349E-23
 -1       785-2.04966E-07 2.80416E-06 0.00000E+00
 -1       786 5.65364E-05 3.09509E-07-4.13590E-25
 -1       787 5.65844E-05 3.08620E-07 4.13590E-25
 -1       788 5.66322E-05 3.10447E-07 0.00000E+00
 -1       789 5.66805E-05 3.15273E-07-8.27181E-25
 -1       790 5.67289E-05 3.23712E-07 1.65436E-24
 -1       791 5.67773E-05 3.36385E-07-8.27181E-25
 -1       792 5.68258E-05 3.54386E-07 1.65436E-24
 -1       793 5.68743E-05 3.78816E-07 8.27181E-25
 -1       794 5.69228E-05 4.11493E-07 1.65436E-24
 -1       795 5.69713E-05 4.54250E-07-8.27181E-25
 -1       796 5.70197E-05 5.10038E-07 1.65436E-24
 -1       797 5.70682E-05 5.81838E-07-8.27181E-25
 -1       798 5.71166E-05 6.74405E-07 1.65436E-24
 -1       799 5.71650E-05 7.92536E-07 0.00000E+00
 -1       800 5.72133E-05 9.43869E-07 0.00000E+00
 -1       801 5.26750E-05 3.14744E-07 0.00000E+00
 -1       802 4.13162E-05 2.61861E-07-4.13590E-25
 -1       803 2.63942E-05 1.66198E-07-3.30872E-24
 -1       804 1.18870E-05 7.10222E-08 3.30872E-24
 -1       805 1.76377E-06 2.64878E-08 1.32349E-23
 -1       806 5.64347E-05 2.76836E-07 0.00000E+00
 -1       807 5.63760E-05 2.40706E-07-8.27181E-25
 -1       808 5.63155E-05 2.08151E-07 1.65436E-24
 -1       809 5.62523E-05 1.82323E-07 0.00000E+00
 -1       810 5.61853E-05 1.66365E-07 0.00000E+00
 -1       811 5.61133E-05 1.63377E-07 0.00000E+00
 -1       812 5.60354E-05 1.76454E-07 1.65436E-24
 -1       813 5.59502E-05 2.08683E-07 8.27181E-25
 -1       814 5.58567E-05 2.63152E-07 1.65436E-24
 -1       815 5.57537E-05 3.42946E-07 8.27181E-25
 -1       816 5.56401E-05 4.51144E-07-8.27181E-25
 -1       817 5.55146E-05 5.90831E-07 4.13590E-25
 -1       818 5.53762E-05 7.65086E-07 1.65436E-24
 -1       819 5.52238E-05 9.76977E-07 8.27181E-25
 -1       820 5.50564E-05 1.22957E-06-1.65436E-24
 -1       821 5.71922E-05 1.14130E-06 0.00000E+00
 -1       822 5.71192E-05 7.33277E-07 0.00000E+00
 -1       823 5.70465E-05 3.11413E-07 0.00000E+00
 -1       824 5.69730E-05 2.75148E-07 0.00000E+00
 -1       825 5.68994E-05 8.14699E-07 0.00000E+00
 -1       826 5.68249E-05 2.11833E-06-8.27181E-25
 -1       827 5.67496E-05 3.96079E-06 0.00000E+00
 -1       828 5.66737E-05 6.11503E-06 0.00000E+00
 -1       829 5.65980E-05 8.18506E-06-1.65436E-24
 -1       830 5.65231E-05 9.77515E-06 0.00000E+00
 -1       831 5.64490E-05 1.07496E-05 0.00000E+00
 -1       832 5.63755E-05 1.09746E-05-8.27181E-25
 -1       833 5.63020E-05 1.07221E-05 0.00000E+00
 -1       834 5.62293E-05 1.02657E-05 8.27181E-25
 -1       835 5.61563E-05 9.98975E-06-8.27181E-25
 -1       836 5.69749E-05 1.20103E-06-1.65436E-24
 -1       837 5.66005E-05 1.26735E-06-8.27181E-25
 -1       838 5.61703E-05 1.33354E-06 1.65436E-24
 -1       839 5.57172E-05 1.39930E-06-4.13590E-25
 -1       840 5.52740E-05 1.46496E-06-4.13590E-25
 -1       856 5.60679E-05 1.08913E-05-2.06795E-25
 -1       857 5.60458E-05 1.15817E-05 0.00000E+00
 -1       858 5.60238E-05 1.23373E-05 4.13590E-25
 -1       859 5.60014E-05 1.31458E-05 0.00000E+00
 -1       860 5.59789E-05 1.39949E-05 8.27181E-25
 -1       861 5.59563E-05 1.48723E-05 0.00000E+00
 -1       862 5.59337E-05 1.57655E-05 8.27181E-25
 -1       863 5.59111E-05 1.66622E-05 0.00000E+00
 -1       864 5.58884E-05 1.75499E-05 0.00000E+00
 -1       865 5.58658E-05 1.84162E-05 0.00000E+00
 -1       866 5.58432E-05 1.92489E-05 8.27181E-25
 -1       867 5.58206E-05 2.00354E-05 4.13590E-25
 -1       868 5.57981E-05 2.07636E-05 8.27181E-25
 -1       869 5.57756E-05 2.14212E-05 4.13590E-25
 -1       870 5.57531E-05 2.19959E-05 0.00000E+00
 -1       871 5.56220E-05 1.02777E-05-4.13590E-25
 -1       872 5.52319E-05 1.02754E-05 0.00000E+00
 -1       873 5.48850E-05 1.02730E-05 0.00000E+00
 -1       874 5.45484E-05 1.02701E-05 1.55096E-25
 -1       875 5.41892E-05 1.02669E-05 6.20385E-25
 -1       876 5.59260E-05 1.08978E-05-1.65436E-24
 -1       877 5.57517E-05 1.15548E-05 8.27181E-25
 -1       878 5.55653E-05 1.22448E-05 1.65436E-24
 -1       879 5.53681E-05 1.29636E-05 8.27181E-25
 -1       880 5.51618E-05 1.37069E-05 0.00000E+00
 -1       881 5.49480E-05 1.44705E-05 0.00000E+00
 -1       882 5.47280E-05 1.52501E-05-1.65436E-24
 -1       883 5.45037E-05 1.60416E-05 0.00000E+00
 -1       884 5.42765E-05 1.68407E-05 1.65436E-24
 -1       885 5.40480E-05 1.76431E-05-8.27181E-25
 -1       886 5.38198E-05 1.84448E-05-1.65436E-24
 -1       887 5.35934E-05 1.92413E-05 0.00000E+00
 -1       888 5.33704E-05 2.00286E-05 1.65436E-24
 -1       889 5.31521E-05 2.08023E-05-8.27181E-25
 -1       890 5.29402E-05 2.15581E-05 0.00000E+00
 -1       891 5.53154E-05 2.24447E-05 0.00000E+00
 -1       892 5.48871E-05 2.24137E-05 0.00000E+00
 -1       893 5.44300E-05 2.23827E-05 0.00000E+00
 -1       894 5.39289E-05 2.23518E-05 4.13590E-25
 -1       895 5.33683E-05 2.23209E-05 6.20385E-25
 -1       956 5.48061E-05 1.91122E-06 1.65436E-24
 -1       957 5.47376E-05 2.34057E-06 0.00000E+00
 -1       958 5.46689E-05 2.80936E-06 0.00000E+00
 -1       959 5.46001E-05 3.31268E-06 0.00000E+00
 -1       960 5.45312E-05 3.84567E-06 1.65436E-24
 -1       961 5.44623E-05 4.40342E-06 0.00000E+00
 -1       962 5.43933E-05 4.98101E-06 1.65436E-24
 -1       963 5.43244E-05 5.57354E-06 0.00000E+00
 -1       964 5.42554E-05 6.17608E-06 0.00000E+00
 -1       965 5.41865E-05 6.78371E-06 8.27181E-25
 -1       966 5.41175E-05 7.39153E-06 0.00000E+00
 -1       967 5.40486E-05 7.99462E-06-8.27181E-25
 -1       968 5.39797E-05 8.58806E-06 0.00000E+00
 -1       969 5.39110E-05 9.16696E-06 0.00000E+00
 -1       970 5.38424E-05 9.72641E-06 0.00000E+00
 -1       971 5.37106E-05 1.08112E-05 0.00000E+00
 -1       972 5.36454E-05 1.14185E-05 0.00000E+00
 -1       973 5.35802E-05 1.20772E-05 0.00000E+00
 -1       974 5.35148E-05 1.27806E-05 0.00000E+00
 -1       975 5.34493E-05 1.35222E-05-1.65436E-24
 -1       976 5.33838E-05 1.42952E-05 0.00000E+00
 -1       977 5.33183E-05 1.50930E-05-1.65436E-24
 -1       978 5.32528E-05 1.59089E-05 0.00000E+00
 -1       979 5.31873E-05 1.67364E-05-1.65436E-24
 -1       980 5.31217E-05 1.75686E-05 0.00000E+00
 -1       981 5.30562E-05 1.83991E-05 0.00000E+00
 -1       982 5.29908E-05 1.92210E-05-8.27181E-25
 -1       983 5.29254E-05 2.00278E-05 0.00000E+00
 -1       984 5.28604E-05 2.08128E-05 0.00000E+00
 -1       985 5.27956E-05 2.15693E-05 0.00000E+00
 -3
    1PSTEP                         6           3           1          
  100CL  103 3.75000E-01         409                     0    3           1
 -4  STRESS      6    1
 -5  SXX         1    4    1    1
 -5  SYY         1    4    2    2
 -5  SZZ         1    4    3    3
 -5  SXY         1    4    1    2
 -5  SYZ         1    4    2    3
 -5  SZX         1    4    3    1
 -1         1-1.29409E+06-5.95021E+05-2.63782E+05-8.37617E+05 3.63798E-12-2.98314E-10
 -1         2 2.17683E+03 2.48980E+05 7.11878E+03 6.00594E+02-1.19002E-10-3.30749E-09
 -1         3-4.73461E+01-5.44071E+05 1.26362E+02-1.49857E+02-9.07274E-11-4.21096E-10
 -1         5-4.42070E+00 1.94998E+05 5.15136E+00 2.14997E-02 7.95997E-11-3.60387E-09
 -1         8-6.09131E+05-2.65454E+05-2.05287E+04-4.62463E+05-4.18368E-11 1.96451E-09
 -1         9-1.04584E+06-2.67888E+05-1.03156E+05-3.59558E+05 2.72412E-09-1.10595E-10
 -1        10-4.22875E+02-5.66808E+05-7.28973E+02-1.00613E+03-2.67300E-09-8.47396E-09
 -1        12-2.30785E+00 1.95008E+05 1.67039E+02 4.22913E-01 1.92944E-10 1.81328E-08
 -1        15 1.61342E+03 8.86664E+02 5.21537E+03 2.73778E+00-4.61341E-10-7.43115E-08
 -1        16-2.94998E+06-9.47541E+05-4.58768E+05-9.62443E+05 8.79421E-09-6.16031E-09
 -1        17-6.51299E+05-4.00013E+05-1.25436E+05-3.76213E+05-4.40923E-09-2.11876E-09
 -1        18 2.15418E+04 1.79438E+03-9.56449E+03-4.59059E+04 5.93673E-10 1.00113E-09
 -1        19 6.06646E+04 7.28212E+04-3.32160E+02 1.21667E+04-5.21140E-10-8.19273E-10
 -1        20-2.56784E+04-2.87757E+05-6.34857E+04 2.12531E+04 3.84459E-09 1.92267E-09
 -1        21-2.72713E+01-1.67440E+05-5.40073E+02-4.96385E+01-8.74434E-09-3.62716E-09
 -1        24-2.59866E+06-8.91585E+05-3.70290E+05-1.08617E+06-1.22527E-08-6.38344E-09
 -1        25 2.43491E+04-8.43329E+02 1.43823E+04-8.31839E+04 3.03135E-10 5.15138E-09
 -1        26-1.44176E+04 4.95880E+04-1.05815E+04-7.16405E+03 2.29229E-09-7.40440E-09
 -1        27-4.71281E+04-1.58216E+05-5.97165E+04 3.56897E+04 6.73792E-09-3.11472E-09
 -1        28 1.29398E+04-4.63342E+04 9.46034E+03 1.46950E+04 3.56783E-09 1.68268E-09
 -1        32-6.15780E+05-8.43680E+04 2.68455E+05-4.17100E+05-1.24855E-08 9.41836E-09
 -1        33-9.09354E+04 4.68672E+04 1.65983E+04-2.75848E+04 8.12937E-10 2.75137E-09
 -1        34-1.18099E+05-1.17867E+04 2.84751E+02 3.65118E+04 3.79580E-09-1.22797E-09
 -1        35-1.31613E+04-1.84296E+04-7.20390E+02 2.91648E+04 4.61752E-09 2.39561E-09
 -1        51 1.13957E+04-3.03369E+05 2.87804E+04-7.55956E+05 1.16415E-10-2.82307E-09
 -1        52 6.55570E+03-3.01768E+05 1.92400E+04-8.81694E+05 2.69210E-10 2.25555E-09
 -1        53 4.64427E+03-3.10519E+05 1.68556E+04-7.53361E+05 2.54659E-10-3.47791E-09
 -1        54 1.39775E+04-3.08612E+05 2.74776E+04-8.84427E+05 2.54659E-10-1.27329E-08
 -1        55 2.93083E+04-3.18880E+05 4.94455E+04-7.52986E+05 8.51287E-10 4.83124E-09
 -1        56-2.48523E+06-2.80615E+05-1.94306E+05-9.58128E+05 2.14641E-10-7.45786E-09
 -1        57-2.56228E+06-4.57351E+05-1.30965E+05-9.51758E+05 1.54614E-10-6.75391E-09
 -1        58-2.52438E+06-3.42024E+05-4.57311E+04-9.45790E+05 2.54659E-10-6.70661E-09
 -1        59-2.51695E+06-3.85372E+05-2.72995E+04-9.66592E+05-2.41300E-09-1.57115E-09
 -1        60-2.53017E+06-3.50509E+05-1.06843E+04-9.44036E+05-8.48786E-10-1.01713E-08
 -1        61-2.51099E+06-3.74672E+05-6.07414E+03-9.67739E+05 1.77124E-10-1.37857E-09
 -1        62-2.53026E+06-3.52467E+05-2.93087E+03-9.44716E+05 9.27912E-10 2.57728E-10
 -1        63-2.51245E+06-3.71027E+05-2.40182E+03-9.65106E+05-6.63363E-10 1.21520E-08
 -1        64-2.52864E+06-3.54166E+05-2.77710E+03-9.46631E+05-2.79215E-10 1.78511E-09
 -1        65-2.51706E+06-3.68111E+05-5.53155E+03-9.60254E+05-6.27551E-10-3.97040E-09
 -1        66-2.52558E+06-3.55458E+05-9.76822E+03-9.49505E+05 7.02585E-11 1.90994E-11
 -1        67-2.52787E+06-3.72315E+05-2.47532E+04-9.52856E+05-1.81382E-09-4.61569E-10
 -1        68-2.51785E+06-3.50235E+05-4.15821E+04-9.53918E+05 5.85260E-10 9.42237E-10
 -1        69-2.57321E+06-4.33580E+05-1.18896E+05-9.34795E+05 1.05138E-09-1.32150E-08
 -1        70-2.48064E+06-2.96056E+05-1.76494E+05-9.66919E+05-1.01863E-10-5.07862E-09
 -1        86-1.09244E+03 2.46742E+05 7.61749E+03-3.00315E+02 9.33824E-10-1.45405E-10
 -1        87 7.24855E+03 2.51468E+05 1.59066E+04 1.23901E+03 1.57729E-09 1.47352E-09
 -1        88-6.15036E+03 2.44256E+05 2.43358E+04-9.38741E+02 2.35832E-09 1.40403E-10
 -1        89 4.58339E+04 2.69491E+05 6.56572E+04 2.68558E+03 3.62525E-09-6.92228E-09
 -1        90-3.95545E+04 2.28734E+05 9.27172E+04-1.74651E+03 4.13274E-09-7.58104E-09
 -1       121-7.87987E+01-5.44309E+05 1.13026E+02 7.48596E+01 3.02379E-10-3.79714E-09
 -1       122-5.71689E+00-5.44044E+05 2.75115E+02-2.99775E+02-9.88766E-10 7.47968E-09
 -1       123-1.08528E+02-5.44339E+05 4.38277E+02 2.24507E+02 8.93067E-10 2.41926E-09
 -1       124 5.01600E+02-5.43735E+05 1.15185E+03-6.94484E+02-2.02397E-09 7.56336E-09
 -1       125-4.37257E+02-5.44626E+05 1.75941E+03 4.69481E+02 1.14005E-09 1.25783E-09
 -1       191-4.81149E+00 1.95014E+05 6.12223E+00-1.12087E-02 1.19055E-10-9.65065E-09
 -1       192-4.89416E+00 1.94998E+05 1.09091E+01 4.25855E-01 1.41078E-10-1.75685E-08
 -1       193-6.07040E+00 1.95014E+05 2.02542E+01-4.17759E-01 2.11319E-10-8.23275E-09
 -1       194-6.41785E+00 1.94999E+05 4.12691E+01 1.11762E+00 1.02013E-10-2.00794E-09
 -1       195-8.48996E+00 1.95012E+05 8.06913E+01-7.08073E-01 3.28484E-10 7.21411E-09
 -1       251 2.22980E+05-3.84182E+04 8.96959E+04 3.80992E+03-1.26079E-10-9.31323E-10
 -1       252 2.63912E+05 4.44459E+04 6.36488E+04-1.21785E+04 1.49242E-10-4.14366E-09
 -1       253 2.38468E+05-5.94757E+03 2.32144E+04 2.57315E+03-2.04807E-10-7.43603E-09
 -1       254 2.45656E+05 6.87087E+03 1.46807E+04-1.02318E+04-3.41004E-10-4.90490E-09
 -1       255 2.41157E+05-9.18418E+02 5.99833E+03 1.86343E+03-5.30832E-10 2.84831E-09
 -1       256 2.42438E+05 1.09072E+03 3.64823E+03-9.18555E+03 1.95797E-10 1.10818E-08
 -1       257 2.41652E+05-1.60447E+02 1.87712E+03 1.52686E+03-1.42393E-10 6.86498E-09
 -1       258 2.41933E+05 3.41153E+02 1.66331E+03-8.84584E+03-3.40434E-10-1.89715E-11
 -1       259 2.41651E+05-1.63510E+02 1.90607E+03 1.52373E+03 1.42620E-10-2.46308E-09
 -1       260 2.42448E+05 1.11761E+03 3.73043E+03-9.17364E+03-1.71951E-10-3.32250E-10
 -1       261 2.41147E+05-9.41901E+02 6.14879E+03 1.85466E+03 1.31934E-09 2.53294E-10
 -1       262 2.45735E+05 7.04805E+03 1.50516E+04-1.02059E+04 4.21210E-10-4.98244E-09
 -1       263 2.38399E+05-6.10010E+03 2.38133E+04 2.55601E+03-8.25708E-10 2.60206E-09
 -1       264 2.64428E+05 4.55881E+04 6.52741E+04-1.21365E+04-1.95610E-09 4.53110E-09
 -1       265 2.22532E+05-3.94022E+04 9.20106E+04 3.78505E+03-1.14278E-09 2.22644E-09
 -1       266-2.92079E+04-1.36567E+04 6.85341E+04-5.85832E+01-5.52973E-10-1.33520E-07
 -1       267 3.38604E+04 1.59185E+04 4.84368E+04 6.75894E+01-9.60426E-10-2.66716E-07
 -1       268-4.54060E+03-2.25443E+03 1.80039E+04-8.61229E+00-8.26731E-10-2.12372E-07
 -1       269 5.36114E+03 2.69816E+03 1.17021E+04 1.00318E+01-7.15886E-10-1.55858E-07
 -1       270-8.04714E+02-4.43325E+02 5.64877E+03-1.36139E+00-4.96129E-10-1.10350E-07
 -1       271-2.87144E+06-3.58330E+05-2.21135E+05-1.11876E+06-1.42973E-09 2.56114E-09
 -1       272-2.93428E+06-5.35970E+05-1.42148E+05-1.13548E+06-5.46720E-10-7.74344E-09
 -1       273-2.91390E+06-4.12513E+05-5.22369E+04-1.10795E+06-1.27329E-10-2.10275E-09
 -1       274-2.88454E+06-4.69716E+05-2.92246E+04-1.15229E+06-5.14319E-10-2.92675E-09
 -1       275-2.92071E+06-4.17114E+05-1.21508E+04-1.10506E+06 1.06229E-09-2.02726E-09
 -1       276-2.87647E+06-4.64391E+05-6.45156E+03-1.15699E+06-1.27602E-09-1.07491E-09
 -1       277-2.92235E+06-4.16795E+05-3.15617E+03-1.10387E+06 4.67480E-10 5.14160E-09
 -1       278-2.87493E+06-4.64557E+05-2.29390E+03-1.15842E+06 1.53159E-09 5.17718E-09
 -1       279-2.92244E+06-4.16759E+05-2.46222E+03-1.10380E+06-5.28189E-10-1.79875E-09
 -1       280-2.87600E+06-4.64287E+05-4.51081E+03-1.15732E+06-1.20235E-09 3.33171E-09
 -1       281-2.92112E+06-4.17205E+05-8.26609E+03-1.10483E+06 3.32875E-10 2.43563E-09
 -1       282-2.88203E+06-4.67165E+05-1.97158E+04-1.15325E+06-2.76259E-09 4.45061E-09
 -1       283-2.91602E+06-4.14671E+05-3.52375E+04-1.10736E+06 7.07587E-10-4.43833E-10
 -1       284-2.91665E+06-5.10496E+05-9.57413E+04-1.14029E+06 2.09729E-09-1.18798E-08
 -1       285-2.88661E+06-3.79051E+05-1.49079E+05-1.11555E+06 1.67984E-09-7.39965E-09
 -1       301 1.10307E+04-6.67141E+03 8.58569E+04-2.13698E+04-7.27596E-10-8.82233E-09
 -1       302 1.18643E+04 1.51015E+04 6.20646E+04-3.14675E+04 1.03250E-09-1.85991E-08
 -1       303 5.46691E+02 1.03001E+03 5.72392E+04-2.14274E+04-8.05812E-10-6.70343E-09
 -1       304 2.24234E+04 2.48477E+04 9.63989E+04-3.13764E+04 9.42237E-10-2.56387E-09
 -1       305 2.22153E+04-1.63472E+04 1.61847E+05-2.13926E+04-9.45874E-10-1.99634E-09
 -1       306-3.08210E+06-3.56910E+05-2.35194E+05-1.20546E+06 1.74623E-09-6.14091E-09
 -1       307-3.20432E+06-5.54482E+05-1.60334E+05-1.16324E+06 1.16052E-09-1.96633E-09
 -1       308-3.13706E+06-4.28528E+05-5.53564E+04-1.18170E+06-5.52063E-10-8.76753E-10
 -1       309-3.13532E+06-4.76588E+05-3.34743E+04-1.19743E+06-2.21578E-09-3.63070E-09
 -1       310-3.15079E+06-4.33365E+05-1.29978E+04-1.17177E+06-7.00680E-10-2.63663E-09
 -1       311-3.11732E+06-4.73317E+05-7.51004E+03-1.21193E+06 2.77089E-09 7.73628E-09
 -1       312-3.15518E+06-4.31468E+05-3.67570E+03-1.16739E+06-9.66025E-10 4.24939E-09
 -1       313-3.11379E+06-4.74325E+05-3.31043E+03-1.21539E+06-2.16107E-09 1.20554E-09
 -1       314-3.15438E+06-4.32286E+05-3.99244E+03-1.16837E+06-3.10649E-09-4.41014E-09
 -1       315-3.12038E+06-4.70539E+05-8.37756E+03-1.20824E+06-5.37455E-10 1.47986E-09
 -1       316-3.14846E+06-4.35378E+05-1.46925E+04-1.17442E+06 2.53181E-09-7.53971E-10
 -1       317-3.14169E+06-4.73466E+05-3.78662E+04-1.19100E+06 7.16170E-10-3.98677E-09
 -1       318-3.13297E+06-4.29708E+05-6.26390E+04-1.18542E+06-3.73075E-09 1.03319E-08
 -1       319-3.21872E+06-5.63034E+05-1.81533E+05-1.15405E+06-2.93312E-09 5.06225E-09
 -1       320-3.07186E+06-3.47369E+05-2.66145E+05-1.21087E+06 6.80666E-09-3.08501E-09
 -1       336 4.10339E+02-5.89248E+05-3.15387E+03 5.35752E+02-5.22869E-09-5.23232E-09
 -1       337-1.14201E+03-5.90082E+05-3.45562E+03-1.40492E+03-9.70158E-09-6.66523E-09
 -1       338 2.68922E+02-5.89338E+05-4.37124E+03 8.66599E+02-6.78904E-09-1.76897E-09
 -1       339-4.52045E+03-5.92162E+05-9.56502E+03-2.05942E+03-1.24646E-08 9.37234E-10
 -1       340 3.06178E+03-5.87202E+05-1.47498E+04 1.18613E+03-8.52560E-09 4.40195E-09
 -1       406 1.04152E+01 1.95005E+05 3.29745E+02 2.73036E-01 4.57050E-10 1.53364E-08
 -1       407 1.12680E+02 1.95066E+05 7.00916E+02-7.56589E+00 8.22666E-11 2.02272E-09
 -1       408 3.58463E+02 1.94954E+05 1.39984E+03 7.39950E+00 5.00336E-10 2.10639E-09
 -1       409 1.51153E+03 1.95513E+05 3.15159E+03-6.89436E+01-7.45786E-11 3.14390E-09
 -1       410 4.34701E+03 1.94556E+05 6.43386E+03 6.35764E+01 5.12955E-10-1.75078E-09
 -1       521-5.83619E+06-6.74147E+05-4.37398E+05-2.27029E+06 4.30009E-09-4.42378E-09
 -1       522-6.03935E+06-1.05638E+06-2.96843E+05-2.21684E+06-7.81256E-10-5.88625E-09
 -1       523-5.94544E+06-7.97121E+05-1.02878E+05-2.21723E+06 1.59253E-09-1.39698E-09
 -1       524-5.90367E+06-9.22700E+05-6.18340E+04-2.29129E+06 9.16657E-10-7.41238E-10
 -1       525-5.97146E+06-8.04103E+05-2.39420E+04-2.19729E+06 2.54636E-09-3.77349E-09
 -1       526-5.87733E+06-9.10378E+05-1.37787E+04-2.31032E+06-1.12328E-09-3.25542E-09
 -1       527-5.97196E+06-8.08680E+05-6.67737E+03-2.19862E+06 3.23325E-09 2.08189E-09
 -1       528-5.89154E+06-8.89595E+05-5.42693E+03-2.28952E+06 3.60797E-09-9.96920E-10
 -1       529-5.95658E+06-8.25271E+05-6.98354E+03-2.21763E+06-2.52567E-09 3.49974E-09
 -1       530-5.93161E+06-8.52816E+05-1.32032E+04-2.24248E+06 1.51203E-10 1.29512E-09
 -1       531-5.93125E+06-8.45985E+05-2.42261E+04-2.24515E+06 9.52241E-10 2.32831E-10
 -1       532-5.99142E+06-8.33454E+05-6.12099E+04-2.18896E+06 1.37013E-09-9.45238E-09
 -1       533-5.89741E+06-8.44814E+05-1.01951E+05-2.27134E+06 2.45745E-09-9.03674E-09
 -1       534-6.12105E+06-9.75247E+05-2.95094E+05-2.12814E+06 3.39332E-09 5.61704E-09
 -1       535-5.80364E+06-7.06768E+05-4.33652E+05-2.30572E+06-7.63248E-09 6.43195E-09
 -1       536-2.07567E+04-1.60232E+04 3.68797E+04 2.93255E+02-1.29262E-09 5.47516E-09
 -1       537-3.47730E+03 1.85386E+04 2.63125E+04-1.33781E+03-6.50541E-09 3.44153E-09
 -1       538-1.44174E+04-2.51180E+03 9.50500E+03 3.02590E+02-4.01982E-10-8.08996E-10
 -1       539-1.09750E+04 2.89830E+03 6.09461E+03-1.38524E+03 2.51953E-09-6.61203E-10
 -1       540-1.32683E+04-3.90999E+02 2.39467E+03 3.40682E+02 7.26004E-10-1.14869E-09
 -1       541-1.23999E+04 4.46333E+02 1.44416E+03-1.45291E+03 6.92552E-10 1.53045E-09
 -1       542-1.29984E+04-5.75243E+01 5.69114E+02 3.70241E+02 8.21963E-10-3.54703E-09
 -1       543-1.27682E+04 5.34186E+01 2.86793E+02-1.49983E+03-3.05480E-10-1.40457E-09
 -1       544-1.29040E+04 4.54968E+00 2.79331E+01 3.87599E+02-4.25466E-10-1.78616E-09
 -1       545-1.29200E+04-8.14766E+01-2.00309E+02-1.52182E+03-9.89394E-10-2.84555E-09
 -1       546-1.28485E+04 7.86736E+01-4.50489E+02 3.92232E+02 6.13354E-10 2.22187E-09
 -1       547-1.31521E+04-5.80363E+02-1.18198E+03-1.51820E+03-1.75989E-09 1.65278E-09
 -1       548-1.26716E+04 5.02834E+02-1.91776E+03 3.83978E+02-1.84790E-09-1.18348E-09
 -1       549-1.44940E+04-3.70578E+03-5.22229E+03-1.48750E+03-1.09272E-09 2.54755E-09
 -1       550-1.15040E+04 3.19979E+03-7.44640E+03 3.61531E+02 8.79652E-12-1.73668E-09
 -1       551 5.73228E+03-3.08985E+05 1.69881E+04-5.29880E+05-2.27083E-08-1.45519E-11
 -1       552 1.20526E+04-3.09752E+05 2.22734E+04-7.54101E+05-1.78188E-08 7.40329E-09
 -1       553 7.90854E+03-3.13807E+05 3.47374E+04-5.28161E+05-2.84417E-08 7.50879E-09
 -1       554 2.92970E+04-2.98971E+05 7.38197E+04-7.54825E+05-1.72877E-08 3.41413E-09
 -1       555 2.92979E+04-3.27887E+05 1.32642E+05-5.28851E+05-2.79542E-08-4.75848E-09
 -1       556 4.38792E+04-9.91694E+04 3.41486E+04-1.31859E+05-5.83532E-09-3.16504E-09
 -1       557 8.40900E+04-1.32818E+05 1.78936E+04-1.64803E+05-1.83354E-09 4.48199E-09
 -1       558 4.41399E+04-1.03949E+05 7.29796E+03-1.27722E+05-3.93629E-09-4.82032E-10
 -1       559 7.90939E+04-1.37626E+05 3.68382E+03-1.66900E+05 4.83124E-09 7.44876E-10
 -1       560 4.32505E+04-1.03345E+05 1.55558E+03-1.28253E+05 6.72298E-09 1.00808E-08
 -1       561 7.76015E+04-1.37309E+05 8.12219E+02-1.67837E+05 1.28057E-09 3.97654E-09
 -1       562 4.25124E+04-1.02840E+05 3.22634E+02-1.28788E+05 4.69663E-09 8.93328E-09
 -1       563 7.67238E+04-1.36935E+05 1.92254E+02-1.68397E+05 6.52835E-09-5.20401E-09
 -1       564 4.20540E+04-1.02541E+05 7.03115E+01-1.29116E+05 4.74938E-09 1.32741E-09
 -1       565 7.62729E+04-1.36743E+05 3.77937E+01-1.68680E+05 1.21508E-09 2.53476E-09
 -1       566 4.18960E+04-1.02434E+05-2.04098E+01-1.29231E+05-4.71891E-09 2.15641E-09
 -1       567 7.62154E+04-1.36714E+05-9.20578E+01-1.68666E+05 3.71165E-09 1.58361E-08
 -1       568 4.20640E+04-1.02545E+05-2.50131E+02-1.29160E+05 3.92902E-10 1.90794E-08
 -1       569 7.60501E+04-1.36595E+05-5.87725E+02-1.67925E+05-2.85218E-09-1.80989E-10
 -1       570 4.29708E+04-1.03404E+05-1.22812E+03-1.29206E+05 2.58660E-09 2.86400E-09
 -1       571 1.40579E+05 5.06977E+03 7.51169E+03-3.57163E+04 3.31511E-10 6.18752E-09
 -1       572 1.41697E+05 1.76310E+03 3.68010E+03-3.91508E+04-9.39281E-10 3.83216E-09
 -1       573 1.41030E+05 4.20030E+02 1.63482E+03-3.56228E+04-9.77707E-11-3.47518E-09
 -1       574 1.41163E+05 1.36108E+02 8.18979E+02-3.92554E+04-2.33740E-10-2.95722E-09
 -1       575 1.41081E+05 1.81815E+01 3.85934E+02-3.56104E+04-7.48059E-11 1.38698E-10
 -1       576 1.41090E+05 4.49349E+00 1.96347E+02-3.92694E+04 8.81357E-11-3.53202E-09
 -1       577 1.41089E+05-3.31797E+00 9.65997E+01-3.56088E+04 8.57085E-10 2.43654E-09
 -1       578 1.41083E+05-1.75326E+00 5.24332E+01-3.92711E+04-1.39755E-09 8.89759E-09
 -1       579 1.41096E+05-3.97938E+00 3.17127E+01-3.56088E+04-8.13543E-10-5.44787E-10
 -1       580 1.41091E+05-4.85175E+00 2.89755E+01-3.92689E+04-9.13815E-10-7.88987E-10
 -1       581 1.41107E+05-7.71749E+00 3.87043E+01-3.56109E+04 1.73713E-10-9.36780E-10
 -1       582 1.41114E+05-1.83151E+00 7.31975E+01-3.92476E+04 8.76753E-10-1.76669E-09
 -1       583 1.41121E+05 1.66773E+01 1.40249E+02-3.56300E+04 3.72893E-11-4.12092E-09
 -1       584 1.41182E+05 1.26130E+02 3.14213E+02-3.90887E+04-1.19508E-09-1.49896E-09
 -1       585 1.41104E+05 4.03577E+02 6.38185E+02-3.57700E+04 3.16504E-10 1.73259E-09
 -1       586-1.76075E+03 4.58745E+04-2.33566E+03-1.21376E+05 3.80624E-10 1.31990E-10
 -1       587-3.85245E+02 4.55610E+04-2.87117E+02-1.33563E+05 5.74801E-10 1.12095E-09
 -1       588 4.75544E+02 4.56244E+04 1.59741E+03-1.21301E+05 3.41061E-10 6.59338E-09
 -1       589 2.39515E+03 4.65027E+04 4.68860E+03-1.33453E+05 5.27507E-10 4.29054E-09
 -1       590 6.88689E+03 4.50439E+04 1.00534E+04-1.21486E+05 2.81034E-10 4.29827E-09
 -1       591-2.86760E+04-8.51663E+03-1.00379E+04-1.52026E+04-2.55966E-10-2.55204E-09
 -1       592-2.95774E+04-1.10206E+04-5.43693E+03-1.78647E+04 1.09708E-09-8.10064E-09
 -1       593-2.96914E+04-7.77645E+03-2.26348E+03-1.59266E+04-2.73724E-09-1.19561E-08
 -1       594-2.81778E+04-9.56227E+03-1.12898E+03-1.79349E+04 1.59162E-11-1.98654E-09
 -1       595-2.97691E+04-7.77311E+03-5.18991E+02-1.59598E+04-8.36792E-10 1.73975E-09
 -1       596-2.80831E+04-9.49548E+03-2.64866E+02-1.79250E+04-9.94817E-10 2.19910E-09
 -1       597-2.97789E+04-7.77952E+03-1.46414E+02-1.59612E+04 7.71085E-10-2.74252E-09
 -1       598-2.80742E+04-9.49293E+03-1.21702E+02-1.79223E+04 3.66654E-10-9.54998E-09
 -1       599-2.97782E+04-7.77944E+03-1.60431E+02-1.59610E+04-7.32769E-10-6.91080E-09
 -1       600-2.80848E+04-9.49641E+03-3.02027E+02-1.79250E+04-1.96673E-09 6.84452E-09
 -1       601-2.97656E+04-7.77212E+03-5.97881E+02-1.59590E+04-4.58044E-09-4.45516E-09
 -1       602-2.81943E+04-9.57345E+03-1.30420E+03-1.79355E+04-3.42709E-10-8.84711E-10
 -1       603-2.96751E+04-7.77705E+03-2.61597E+03-1.59208E+04 2.56250E-10 6.58588E-09
 -1       604-2.98164E+04-1.12540E+04-6.28418E+03-1.78479E+04-1.04745E-09 2.37105E-09
 -1       605-2.84956E+04-8.63659E+03-1.16019E+04-1.50886E+04-8.77321E-10 7.74889E-10
 -1       606 1.99887E+04-6.79110E+03-1.22322E+04 1.98391E+04-1.59525E-09-3.50201E-09
 -1       607 1.78939E+04-2.19032E+03-6.09108E+03 2.22704E+04-1.01863E-09-1.98634E-09
 -1       608 1.90857E+04-3.68473E+02-2.72736E+03 1.96807E+04 1.15724E-08-9.18590E-11
 -1       609 1.88500E+04-9.65621E+01-1.37765E+03 2.24452E+04 2.11089E-08 9.87779E-09
 -1       610 1.89791E+04 1.69957E+01-6.57832E+02 1.96630E+04 1.09030E-08 5.65910E-09
 -1       611 1.89355E+04 2.44727E+01-3.31878E+02 2.24644E+04-3.75030E-09 4.71346E-10
 -1       612 1.89525E+04 2.61793E+01-1.58666E+02 1.96613E+04 4.89035E-09-1.12777E-09
 -1       613 1.89366E+04 2.89032E+01-7.23829E+01 2.24667E+04 9.79799E-09-7.68978E-10
 -1       614 1.89386E+04 2.53637E+01-2.01384E+01 1.96607E+04-3.37968E-09-3.07023E-09
 -1       615 1.89304E+04 3.15591E+01 2.25574E+01 2.24671E+04-1.59853E-08-2.92175E-09
 -1       616 1.89280E+04 2.84083E+01 7.48409E+01 1.96609E+04-1.19267E-08 1.60799E-09
 -1       617 1.89365E+04 4.94731E+01 1.73505E+02 2.24667E+04 1.34787E-09-7.03039E-10
 -1       618 1.89107E+04 7.99334E+01 3.50772E+02 1.96610E+04-8.07177E-11-4.14843E-09
 -1       619 1.90586E+04 3.22007E+02 7.88371E+02 2.24662E+04-6.45855E-10-2.87537E-09
 -1       620 1.87929E+04 9.13249E+02 1.58480E+03 1.96603E+04 1.50783E-09 1.69621E-09
 -1       621 2.51950E+02 1.53904E+05 2.15914E+03 5.78460E+03-1.85203E-10-1.62208E-09
 -1       622 2.85200E+02 1.54440E+05 1.79438E+03 8.44705E+03-1.50749E-10 2.52061E-09
 -1       623 1.10679E+01 1.54064E+05 2.01346E+03 5.75898E+03-1.29049E-10-4.37319E-09
 -1       624 8.97067E+02 1.55001E+05 3.77989E+03 8.47055E+03-2.03102E-10-1.03853E-08
 -1       625 9.00065E+02 1.53340E+05 6.55054E+03 5.76130E+03-5.79803E-11-8.04064E-09
 -1       626 1.25741E+05 3.52216E+04 2.45755E+03 6.85286E+04-3.31920E-09-7.42602E-09
 -1       627 1.23963E+05 3.65541E+04 1.18395E+03 7.13272E+04 2.09911E-09 6.43274E-09
 -1       628 1.25840E+05 3.40540E+04 5.00205E+02 6.88953E+04 6.49652E-09 6.46696E-09
 -1       629 1.23606E+05 3.62786E+04 2.45105E+02 7.14950E+04 3.80169E-09 9.60279E-09
 -1       630 1.25847E+05 3.39977E+04 1.13408E+02 6.89055E+04 1.77624E-09 1.51715E-09
 -1       631 1.23564E+05 3.62723E+04 6.09481E+01 7.14981E+04-1.78079E-09-1.67523E-09
 -1       632 1.25842E+05 3.40015E+04 4.03051E+01 6.89006E+04-9.50740E-09-1.72699E-08
 -1       633 1.23555E+05 3.62757E+04 4.50234E+01 7.14940E+04-2.93312E-09-3.02481E-09
 -1       634 1.25836E+05 3.40018E+04 7.29516E+01 6.88978E+04 5.23301E-09 2.17278E-09
 -1       635 1.23559E+05 3.62767E+04 1.47965E+02 7.14939E+04 5.93104E-09 1.74432E-08
 -1       636 1.25828E+05 3.40011E+04 2.98907E+02 6.88956E+04 4.54293E-10 5.07066E-09
 -1       637 1.23620E+05 3.63242E+04 6.56984E+02 7.14906E+04 5.37284E-10-9.95669E-10
 -1       638 1.25802E+05 3.41480E+04 1.35029E+03 6.88281E+04 5.62090E-09-7.59178E-09
 -1       639 1.24328E+05 3.73102E+04 3.19446E+03 7.12779E+04 1.94099E-08-3.56704E-09
 -1       640 1.25704E+05 3.70910E+04 6.62943E+03 6.75814E+04 9.27071E-09-4.46937E-09
 -1       656 3.43045E+04-8.68435E+05-8.28259E+04-4.71459E+02 4.40195E-10 4.58556E-10
 -1       657-4.53353E+04-9.05838E+05-6.85090E+04 5.65942E+03 5.37057E-10 3.64784E-09
 -1       658 1.08832E+04-8.79103E+05-4.20600E+04-1.10667E+03 1.20394E-10 7.06541E-09
 -1       659-4.86504E+04-9.07402E+05-7.28630E+04 6.08198E+03 8.73115E-11-2.57500E-09
 -1       660 3.76108E+04-8.66874E+05-9.03198E+04-8.94009E+02-2.18279E-10 8.27498E-11
 -1       661 1.22380E+05 1.33017E+04 1.17500E+04 4.78025E+04 2.34263E-09-1.56115E-09
 -1       662 1.28494E+05 2.25236E+04 7.91753E+03 4.57659E+04 1.07298E-09-2.25566E-09
 -1       663 1.24681E+05 1.70781E+04 2.76962E+03 4.71409E+04-1.22452E-09 2.07729E-09
 -1       664 1.25834E+05 1.81012E+04 1.65583E+03 4.65682E+04-3.92831E-10-3.06193E-09
 -1       665 1.25023E+05 1.76000E+04 6.53230E+02 4.70470E+04-2.40672E-09 3.45383E-09
 -1       666 1.25434E+05 1.74992E+04 3.80933E+02 4.66869E+04-5.86290E-09 2.68981E-09
 -1       667 1.25079E+05 1.76645E+04 2.00981E+02 4.70281E+04-2.57913E-09-1.50115E-09
 -1       668 1.25377E+05 1.74459E+04 2.01461E+02 4.67128E+04 2.24273E-09-3.57594E-09
 -1       669 1.25080E+05 1.76518E+04 2.70172E+02 4.70216E+04-7.92241E-10 5.31739E-09
 -1       670 1.25449E+05 1.75850E+04 5.85734E+02 4.67079E+04 5.23368E-09-4.98090E-10
 -1       671 1.25007E+05 1.75282E+04 1.03927E+03 4.70319E+04 8.19714E-10-7.98929E-09
 -1       672 1.26058E+05 1.85919E+04 2.65826E+03 4.65570E+04-2.10206E-09-9.41120E-09
 -1       673 1.24474E+05 1.66703E+04 4.45462E+03 4.71628E+04-1.34111E-09-4.49495E-09
 -1       674 1.30304E+05 2.57442E+04 1.27395E+04 4.53059E+04-4.55566E-09 3.07227E-09
 -1       675 1.20790E+05 1.05760E+04 1.89091E+04 4.82076E+04 1.17643E-09 4.35648E-10
 -1       676 1.40167E+01-1.67395E+05-6.50924E+02 2.48198E+01 2.50495E-10-6.68394E-09
 -1       677-1.72770E+02-1.67553E+05-1.19124E+03-4.96261E+01-3.88052E-09 1.43506E-09
 -1       678 1.15374E+02-1.67283E+05-2.10577E+03 2.47892E+01-2.33013E-09 5.77560E-09
 -1       679-2.10608E+03-1.68824E+05-5.00213E+03-4.94974E+01-4.39798E-10-1.24609E-09
 -1       680 1.25686E+03-1.66125E+05-8.06180E+03 2.44068E+01-3.26509E-10 3.26376E-09
 -1       771-1.79986E+06-3.13600E+05-4.39272E+04-7.45319E+05-6.64659E-09-6.03177E-09
 -1       772-1.78878E+06-3.37425E+05-2.35826E+04-7.71858E+05-4.56203E-09 3.14321E-09
 -1       773-1.80575E+06-3.09031E+05-1.01583E+04-7.47779E+05-2.20462E-09 3.56522E-09
 -1       774-1.78241E+06-3.32190E+05-4.95064E+03-7.74376E+05 5.55156E-09-1.72895E-09
 -1       775-1.80704E+06-3.08225E+05-2.49489E+03-7.47933E+05-7.27596E-10 4.85670E-10
 -1       776-1.78225E+06-3.32195E+05-1.15212E+03-7.75665E+05-7.27596E-10 1.67347E-09
 -1       777-1.80790E+06-3.07611E+05-7.10762E+02-7.48001E+05 1.43700E-09 1.04410E-09
 -1       778-1.78246E+06-3.32365E+05-3.16968E+02-7.76732E+05 1.17143E-09 2.87264E-09
 -1       779-1.80857E+06-3.07088E+05-3.09878E+02-7.48061E+05-1.39335E-09-1.98816E-09
 -1       780-1.78269E+06-3.32511E+05-2.42059E+02-7.77596E+05-2.13913E-09 1.16415E-10
 -1       781-1.80908E+06-3.06669E+05-4.31773E+02-7.48104E+05-5.60249E-09-9.21318E-10
 -1       782-1.78292E+06-3.32658E+05-7.85547E+02-7.78231E+05-6.74117E-09-2.42414E-09
 -1       783-1.80938E+06-3.06395E+05-1.57218E+03-7.48117E+05-7.51243E-10-3.20136E-09
 -1       784-1.78398E+06-3.33724E+05-3.72387E+03-7.78577E+05-4.02724E-09 4.78622E-11
 -1       785-1.80887E+06-3.06751E+05-6.88560E+03-7.47630E+05-7.53153E-09 9.45874E-10
 -1       786 1.35435E+05-7.17502E+03 1.65990E+04 1.60670E-01 1.87822E-07 2.54113E-09
 -1       787 1.42627E+05 8.30641E+03 1.17436E+04-3.94179E+00 3.73223E-07 4.17663E-09
 -1       788 1.38210E+05-1.12476E+03 4.29626E+03 1.94487E+00 4.79163E-07-2.21030E-09
 -1       789 1.39395E+05 1.30142E+03 2.69939E+03-8.06486E+00 5.84123E-07 8.83642E-09
 -1       790 1.38668E+05-1.75707E+02 1.09841E+03 4.28378E+00 7.58721E-07-5.10994E-09
 -1       791 1.38860E+05 2.04157E+02 6.44978E+02-1.38458E+01 9.33921E-07 1.11103E-08
 -1       792 1.38745E+05-2.83269E+01 2.94505E+02 7.72590E+00 1.27701E-06-8.49647E-09
 -1       793 1.38774E+05 3.98500E+01 1.93271E+02-2.26203E+01 1.61786E-06 1.34289E-09
 -1       794 1.38754E+05-1.15084E+01 1.43607E+02 1.30584E+01 8.09441E-07-9.03558E-09
 -1       795 1.38783E+05 5.95452E+01 2.08361E+02-3.63826E+01 2.92255E-09-5.49155E-10
 -1       796 1.38736E+05-4.80075E+01 3.12497E+02 2.14885E+01 1.24077E-10-7.66676E-09
 -1       797 1.38925E+05 3.51970E+02 7.37137E+02-5.82536E+01-8.25517E-11-2.46473E-09
 -1       798 1.38612E+05-3.03717E+02 1.16366E+03 3.49299E+01 5.87641E-11 2.81494E-09
 -1       799 1.39798E+05 2.24252E+03 3.17241E+03-9.34071E+01-6.39876E-10 2.11753E-09
 -1       800 1.37863E+05-1.93704E+03 4.48137E+03 5.66422E+01 3.78684E-11 1.92995E-09
 -1       801-8.14128E+03 7.53769E+03 1.08132E+04 1.40480E+04 7.73571E-09-7.07701E-09
 -1       802 2.02915E+04 7.27965E+04 3.91889E+04-5.77929E+04 2.07165E-08-4.28599E-11
 -1       803-1.15723E+04 3.23419E+04 4.91811E+04 1.31656E+04 1.63018E-08 1.48094E-08
 -1       804 9.55764E+04 1.13898E+05 1.37928E+05-5.85463E+04 1.92522E-08 1.75512E-08
 -1       805-8.34679E+04-3.33550E+04 1.77069E+05 1.47995E+04 6.70116E-09 1.86617E-08
 -1       806-1.54492E+05-3.32262E+04-1.31398E+04-6.44970E+04-4.21323E-10-2.85081E-09
 -1       807-1.55245E+05-3.13647E+04-6.45528E+03-6.80041E+04 2.57842E-10-1.46244E-09
 -1       808-1.54866E+05-2.84786E+04-2.73836E+03-6.67254E+04 1.13687E-13-8.10424E-10
 -1       809-1.53867E+05-2.95729E+04-1.33872E+03-6.81910E+04 3.11957E-10 9.91577E-10
 -1       810-1.54924E+05-2.83109E+04-6.12975E+02-6.68237E+04 5.84396E-09 1.38598E-08
 -1       811-1.53762E+05-2.95021E+04-3.03994E+02-6.81756E+04 6.48129E-10-1.07002E-09
 -1       812-1.54934E+05-2.83232E+04-1.51663E+02-6.68236E+04-9.84755E-10-1.17220E-08
 -1       813-1.53748E+05-2.95038E+04-9.56559E+01-6.81676E+04 4.23893E-09 9.07858E-09
 -1       814-1.54933E+05-2.83276E+04-8.96105E+01-6.68217E+04 8.68567E-10-2.58956E-09
 -1       815-1.53750E+05-2.95053E+04-1.40268E+02-6.81657E+04-2.54204E-10-3.80101E-09
 -1       816-1.54924E+05-2.83263E+04-2.62729E+02-6.68200E+04-1.87583E-09 7.77845E-10
 -1       817-1.53796E+05-2.95304E+04-5.63398E+02-6.81612E+04 6.44150E-10 3.99757E-09
 -1       818-1.54891E+05-2.84051E+04-1.14813E+03-6.67829E+04 6.20275E-10 4.71800E-10
 -1       819-1.54430E+05-3.02188E+04-2.70237E+03-6.80074E+04-2.76555E-09-5.34646E-09
 -1       820-1.54673E+05-3.04488E+04-5.49969E+03-6.59127E+04 4.09273E-12 4.20539E-09
 -1       821-2.05631E+05 1.14544E+04-2.64325E+04 3.52130E+02 1.55071E-06-2.77432E-08
 -1       822-2.16859E+05-1.32594E+04-1.86763E+04-1.24283E+03 3.18768E-06 2.90902E-09
 -1       823-2.10034E+05 1.80966E+03-6.85232E+03 3.72156E+02 1.55157E-06 1.23327E-09
 -1       824-2.11509E+05-2.07375E+03-4.23941E+03-6.83730E+02 1.87450E-09 6.02972E-09
 -1       825-2.10982E+05 2.65832E+02-1.82513E+03-2.06944E+02-6.04274E-09 7.57836E-10
 -1       826-2.10686E+05-3.24032E+02-1.00581E+03 4.36499E+02-2.42332E-08 6.25789E-10
 -1       827-2.10853E+05 6.37232E+01-5.55631E+02-7.47998E+02-1.23775E-05 2.66507E-08
 -1       828-2.10739E+05-1.04053E+02-4.59895E+02 8.93275E+02-2.46581E-05 4.89559E-08
 -1       829-2.10919E+05 5.73088E+01-5.75038E+02-6.63539E+02-1.23876E-05 2.95043E-08
 -1       830-2.10632E+05-3.24154E+02-1.00992E+03 1.90258E+02-5.63223E-09-1.63719E-09
 -1       831-2.10968E+05 2.72113E+02-1.85208E+03-4.51697E+01-8.31189E-10-7.58746E-10
 -1       832-2.11591E+05-2.11626E+03-4.32672E+03-9.08206E+02 1.41381E-08 7.62248E-09
 -1       833-2.09965E+05 1.84603E+03-6.95796E+03 4.34853E+02 1.82164E-05 9.75433E-09
 -1       834-2.16944E+05-1.34832E+04-1.89911E+04-1.19756E+03 3.64418E-05 2.48313E-08
 -1       835-2.05614E+05 1.16411E+04-2.68993E+04 2.44152E+02 1.81949E-05-1.90066E-08
 -1       836-6.52144E+02 1.90028E+05 1.11951E+04-1.72846E+04 1.37379E-09-3.61752E-09
 -1       837 2.46730E+03 1.93495E+05 9.61405E+03-3.47272E+04 1.84150E-09-7.87054E-10
 -1       838-2.43641E+02 1.90983E+05 9.99249E+03-1.72254E+04 1.81763E-09-4.74665E-09
 -1       839 6.44628E+03 1.96465E+05 1.90967E+04-3.47484E+04 2.50657E-09-6.71294E-09
 -1       840-1.93908E+03 1.87037E+05 3.05340E+04-1.72623E+04 1.65164E-09 5.72300E-10
 -1       856-6.10005E+04 5.31221E+03-1.39982E+04-3.05566E+02-2.05881E-09-3.62979E-09
 -1       857-6.67840E+04-6.23088E+03-9.63777E+03 3.20384E+03-1.70246E-09-1.78534E-09
 -1       858-6.32854E+04 7.44470E+02-3.63289E+03-3.17084E+02-4.41131E-09 7.05541E-10
 -1       859-6.41593E+04-8.66290E+02-2.19427E+03 3.22206E+03-1.88948E-09 1.22537E-09
 -1       860-6.36271E+04 1.03630E+02-9.22533E+02-3.23869E+02-5.50756E-10-1.23089E-09
 -1       861-6.37653E+04-1.15360E+02-5.13803E+02 3.23128E+03-4.58192E-09 3.16999E-09
 -1       862-6.36804E+04 1.38079E+01-2.26153E+02-3.26323E+02 4.09867E-09 4.84320E-10
 -1       863-6.37023E+04-9.34604E+00-1.10919E+02 3.23236E+03 7.77577E-09-5.11801E-09
 -1       864-6.36902E+04-8.46897E-02-3.29568E+01-3.24952E+02 7.85545E-09-4.01462E-09
 -1       865-6.36837E+04 1.60154E+01 2.59577E+01 3.22541E+03 6.35729E-09 3.73080E-09
 -1       866-6.36981E+04-1.17054E+01 8.54897E+01-3.19368E+02 1.59082E-09 9.41142E-10
 -1       867-6.36357E+04 9.86348E+01 2.31256E+02 3.21029E+03 1.97349E-09-7.86002E-10
 -1       868-6.37365E+04-8.17961E+01 3.89833E+02-3.09837E+02 1.82109E-09-3.86680E-09
 -1       869-6.33452E+04 6.79961E+02 1.04493E+03 3.18476E+03-3.71301E-10-1.02454E-08
 -1       870-6.39860E+04-5.78080E+02 1.51627E+03-2.93844E+02 2.36707E-09 9.25070E-10
 -1       871-2.93390E+03-6.20350E+03-9.54888E+03 6.27017E+04 2.63026E-09 2.39197E-10
 -1       872-1.27588E+03-8.33651E+03-3.89505E+03 8.12872E+04 2.88901E-09-8.41783E-09
 -1       873-2.88179E+01-7.33245E+03 5.52083E+02 6.25628E+04 1.31877E-09 6.23345E-10
 -1       874 1.46526E+03-5.94751E+03 5.40816E+03 8.13169E+04 2.92948E-09 9.20431E-09
 -1       875 3.47619E+03-8.62225E+03 1.19980E+04 6.26770E+04 8.34916E-10-2.64663E-10
 -1       876 1.55843E+05 2.68145E+04 8.31409E+03 6.31811E+04-6.73566E-09-7.69660E-09
 -1       877 1.56324E+05 2.86338E+04 4.43983E+03 6.56341E+04-4.92992E-09-8.30272E-09
 -1       878 1.56621E+05 2.58938E+04 1.86015E+03 6.38638E+04 2.29329E-09-3.33455E-09
 -1       879 1.55193E+05 2.75076E+04 9.26589E+02 6.56939E+04 1.39789E-09 8.01265E-10
 -1       880 1.56678E+05 2.58830E+04 4.31442E+02 6.38917E+04 1.19644E-09 4.66815E-09
 -1       881 1.55118E+05 2.74599E+04 2.29806E+02 6.56830E+04 1.78096E-09-5.26444E-09
 -1       882 1.56684E+05 2.58895E+04 1.46083E+02 6.38925E+04 5.50972E-09-1.23418E-09
 -1       883 1.55113E+05 2.74578E+04 1.55488E+02 6.56801E+04 2.20712E-09 2.07703E-09
 -1       884 1.56681E+05 2.58876E+04 2.45970E+02 6.38926E+04-1.48242E-09-1.35776E-09
 -1       885 1.55132E+05 2.74613E+04 4.93685E+02 6.56864E+04 7.01895E-09-1.61504E-09
 -1       886 1.56662E+05 2.58732E+04 9.94635E+02 6.38906E+04-4.00632E-10 7.41693E-10
 -1       887 1.55307E+05 2.75759E+04 2.17256E+03 6.57114E+04-1.48136E-08-2.23446E-09
 -1       888 1.56525E+05 2.58976E+04 4.37783E+03 6.38211E+04-6.09219E-09 5.19094E-10
 -1       889 1.57916E+05 3.02844E+04 1.04586E+04 6.56282E+04-5.23809E-10-4.87375E-09
 -1       890 1.54741E+05 2.80167E+04 1.95878E+04 6.21515E+04-1.03182E-09 1.46520E-09
 -1       891-9.61275E+01-8.85180E+04-1.04442E+03 1.67715E+04 1.42768E-09 2.27919E-09
 -1       892-1.67139E+02-8.87696E+04-1.13659E+03 2.53814E+04 6.02540E-10-1.37879E-09
 -1       893-2.53284E+01-8.85524E+04-1.62420E+03 1.67746E+04 9.49967E-10 1.46065E-09
 -1       894-8.84322E+02-8.93973E+04-3.37307E+03 2.52917E+04-4.25371E-09-3.29101E-09
 -1       895-6.89112E+02-8.78545E+04-5.94322E+03 1.68602E+04 3.10024E-10 2.70848E-09
 -1       956-1.96084E+05-2.83624E+03-7.14283E+03 1.30160E+04-1.13773E-08-6.83144E-10
 -1       957-1.97494E+05-9.56685E+02-3.66700E+03 1.56710E+04-1.65455E-08 1.68529E-09
 -1       958-1.96716E+05-7.59622E+01-1.65194E+03 1.29316E+04-6.45196E-09 1.26261E-09
 -1       959-1.96828E+05-1.37949E+01-8.43846E+02 1.57622E+04-3.06932E-09 1.33207E-09
 -1       960-1.96771E+05 2.30112E+01-4.11230E+02 1.29237E+04-5.86351E-09-1.66892E-10
 -1       961-1.96777E+05 2.07952E+01-2.18054E+02 1.57709E+04-6.38556E-09 4.83897E-09
 -1       962-1.96781E+05 1.93851E+01-1.24434E+02 1.29227E+04-2.88014E-09-1.45394E-09
 -1       963-1.96774E+05 2.11245E+01-9.92665E+01 1.57724E+04-5.11488E-09-2.56853E-09
 -1       964-1.96783E+05 2.04286E+01-1.19665E+02 1.29223E+04-1.01454E-09-4.79031E-09
 -1       965-1.96781E+05 2.31410E+01-2.06077E+02 1.57724E+04 1.99840E-09 8.24684E-10
 -1       966-1.96777E+05 2.60649E+01-3.86376E+02 1.29227E+04-2.10332E-09 5.52632E-10
 -1       967-1.96833E+05-6.98543E+00-7.92224E+02 1.57675E+04-2.00549E-09 5.34510E-09
 -1       968-1.96729E+05-6.46258E+01-1.55013E+03 1.29272E+04-9.86347E-10-3.38065E-09
 -1       969-1.97463E+05-8.89922E+02-3.44171E+03 1.57137E+04 7.58519E-10-4.46934E-09
 -1       970-1.96139E+05-2.65393E+03-6.70350E+03 1.29782E+04 1.87833E-09 1.97269E-09
 -1       971-1.85923E+05-9.78893E+02-5.44953E+03 9.10509E+03-3.53475E-09-2.83484E-09
 -1       972-1.87248E+05-7.02657E+02-2.96808E+03 1.27114E+04-3.83693E-09 4.32692E-09
 -1       973-1.86527E+05-6.29347E+00-1.32874E+03 9.03011E+03-1.90948E-09 5.83736E-09
 -1       974-1.86618E+05-7.69519E+00-6.88485E+02 1.27918E+04 1.12232E-09 1.11947E-09
 -1       975-1.86572E+05 1.79222E+01-3.43201E+02 9.02388E+03 4.40195E-10-1.83491E-10
 -1       976-1.86579E+05 1.96823E+01-1.96647E+02 1.27992E+04-7.68864E-10-1.44587E-09
 -1       977-1.86580E+05 1.69188E+01-1.40077E+02 9.02273E+03 2.14322E-09 2.62924E-09
 -1       978-1.86580E+05 2.21792E+01-1.60438E+02 1.28008E+04 8.01469E-09 3.69573E-09
 -1       979-1.86579E+05 2.08465E+01-2.54672E+02 9.02226E+03 3.08779E-09 4.71232E-11
 -1       980-1.86598E+05 2.35670E+01-4.89797E+02 1.28010E+04 7.32614E-09 1.14369E-10
 -1       981-1.86564E+05 3.30981E+01-9.47521E+02 9.02252E+03-5.57066E-11-2.21036E-10
 -1       982-1.86729E+05-4.60433E+01-1.95788E+03 1.27974E+04-1.66187E-09 4.60935E-09
 -1       983-1.86445E+05-2.69496E+01-3.80370E+03 9.02592E+03 2.09229E-09 2.65027E-09
 -1       984-1.88559E+05-2.03148E+03-8.51767E+03 1.27467E+04 3.46063E-10 1.09685E-09
 -1       985-1.84724E+05-2.80961E+03-1.56411E+04 9.07637E+03 4.00746E-09 9.45874E-10
 -3
    1PSTEP                         7           4           1          
  100CL  104 4.68750E-01         409                     0    4           1
 -4  DISP        4    1
 -5  D1          1    2    1    0
 -5  D2          1    2    2    0
 -5  D3          1    2    3    0
 -5  ALL         1    2    0    0    1ALL
 -1         1 1.27098E-04 0.00000E+00 0.00000E+00
 -1         2 1.16521E-04 4.10111E-30 0.00000E+00
 -1         3 1.10140E-04-1.91860E-27 6.61744E-24
 -1         5 7.79928E-05 5.20984E-28-3.30872E-24
 -1         8 1.02691E-04-8.86053E-07 0.00000E+00
 -1         9 1.03385E-04 4.52909E-07 0.00000E+00
 -1        10 1.01915E-04-1.50243E-06 0.00000E+00
 -1        12 7.75040E-05 5.12245E-07 1.65436E-24
 -1        15 7.36262E-05-9.77558E-07 4.13590E-25
 -1        16 7.62682E-05 2.98158E-07 0.00000E+00
 -1        17 7.56372E-05-3.17286E-06 0.00000E+00
 -1        18 7.50525E-05 7.87279E-07 0.00000E+00
 -1        19 7.60377E-05 1.02164E-06 0.00000E+00
 -1        20 7.61675E-05 1.46482E-05 0.00000E+00
 -1        21 7.56556E-05 2.75501E-05-1.65436E-24
 -1        24 1.86444E-05-4.32012E-06 0.00000E+00
 -1        25 7.35644E-05 9.04793E-07 0.00000E+00
 -1        26 7.45247E-05 1.42270E-06 0.00000E+00
 -1        27 7.30459E-05 1.23807E-05 0.00000E+00
 -1        28 7.26052E-05 2.71134E-05 0.00000E+00
 -1        32 0.00000E+00 0.00000E+00 0.00000E+00
 -1        33 7.17298E-05 1.91046E-06 0.00000E+00
 -1        34 7.03524E-05 1.23595E-05 0.00000E+00
 -1        35 6.90474E-05 2.68821E-05 0.00000E+00
 -1        51 1.25511E-04-1.45655E-07 0.00000E+00
 -1        52 1.22570E-04-2.87395E-07 0.00000E+00
 -1        53 1.18540E-04-4.30624E-07 0.00000E+00
 -1        54 1.13698E-04-5.76778E-07-3.30872E-24
 -1        55 1.08323E-04-7.26583E-07-1.34417E-24
 -1        56 1.25955E-04-7.43481E-07-2.64698E-23
 -1        57 1.24957E-04-2.00579E-06 0.00000E+00
 -1        58 1.24101E-04-3.64114E-06 0.00000E+00
 -1        59 1.23326E-04-5.51279E-06 2.64698E-23
 -1        60 1.22579E-04-7.46330E-06 5.29396E-23
 -1        61 1.21802E-04-9.33592E-06 0.00000E+00
 -1        62 1.20938E-04-1.09781E-05 0.00000E+00
 -1        63 1.19934E-04-1.22447E-05-2.64698E-23
 -1        64 1.18744E-04-1.30136E-05 0.00000E+00
 -1        65 1.17327E-04-1.31777E-05 0.00000E+00
 -1        66 1.15656E-04-1.26672E-05 0.00000E+00
 -1        67 1.13715E-04-1.14323E-05-2.64698E-23
 -1        68 1.11498E-04-9.46831E-06 0.00000E+00
 -1        69 1.09019E-04-6.79000E-06-1.32349E-23
 -1        70 1.06291E-04-3.46125E-06 0.00000E+00
 -1        86 1.16178E-04 8.33940E-08 0.00000E+00
 -1        87 1.15150E-04 1.65797E-07 0.00000E+00
 -1        88 1.13404E-04 2.47161E-07-8.27181E-25
 -1        89 1.10907E-04 3.23605E-07 0.00000E+00
 -1        90 1.07590E-04 3.98897E-07 3.30872E-24
 -1       121 1.09911E-04-2.49135E-07 0.00000E+00
 -1       122 1.09222E-04-4.98479E-07-3.30872E-24
 -1       123 1.08076E-04-7.48235E-07 0.00000E+00
 -1       124 1.06475E-04-9.98647E-07 0.00000E+00
 -1       125 1.04420E-04-1.24985E-06 6.61744E-24
 -1       191 7.79792E-05 8.53814E-08 3.30872E-24
 -1       192 7.79385E-05 1.70761E-07-1.65436E-24
 -1       193 7.78706E-05 2.56140E-07 0.00000E+00
 -1       194 7.77756E-05 3.41515E-07 0.00000E+00
 -1       195 7.76534E-05 4.26884E-07 0.00000E+00
 -1       251 1.02714E-04 3.14224E-06 0.00000E+00
 -1       252 1.02757E-04 5.56395E-06 8.27181E-25
 -1       253 1.02801E-04 6.63845E-06 0.00000E+00
 -1       254 1.02849E-04 6.62209E-06-4.13590E-25
 -1       255 1.02897E-04 5.74363E-06-8.27181E-25
 -1       256 1.02945E-04 4.23003E-06 0.00000E+00
 -1       257 1.02992E-04 2.29198E-06-1.65436E-24
 -1       258 1.03039E-04 1.39287E-07 8.27181E-25
 -1       259 1.03085E-04-2.02380E-06 1.65436E-24
 -1       260 1.03132E-04-3.99300E-06 0.00000E+00
 -1       261 1.03180E-04-5.55905E-06-8.27181E-25
 -1       262 1.03227E-04-6.51191E-06 0.00000E+00
 -1       263 1.03275E-04-6.62576E-06 5.16988E-26
 -1       264 1.03320E-04-5.67309E-06 8.27181E-25
 -1       265 1.03363E-04-3.39933E-06-6.61744E-24
 -1       266 9.78468E-05-9.13253E-07 6.61744E-24
 -1       267 9.30027E-05-9.27048E-07-1.65436E-24
 -1       268 8.81586E-05-9.41691E-07-1.65436E-24
 -1       269 8.33144E-05-9.53819E-07 0.00000E+00
 -1       270 7.84703E-05-9.65888E-07 0.00000E+00
 -1       271 9.97425E-05 2.76630E-06 0.00000E+00
 -1       272 9.72201E-05 5.15483E-06 0.00000E+00
 -1       273 9.51242E-05 6.41909E-06 0.00000E+00
 -1       274 9.33909E-05 6.69835E-06 0.00000E+00
 -1       275 9.19655E-05 6.15617E-06 0.00000E+00
 -1       276 9.07806E-05 4.96825E-06-2.64698E-23
 -1       277 8.97664E-05 3.32327E-06-5.29396E-23
 -1       278 8.88493E-05 1.41782E-06 2.64698E-23
 -1       279 8.79542E-05-5.46491E-07 0.00000E+00
 -1       280 8.70054E-05-2.36695E-06 0.00000E+00
 -1       281 8.59284E-05-3.84374E-06 5.29396E-23
 -1       282 8.46511E-05-4.78307E-06 0.00000E+00
 -1       283 8.31039E-05-5.00170E-06 0.00000E+00
 -1       284 8.12268E-05-4.32768E-06 2.64698E-23
 -1       285 7.89547E-05-2.60973E-06 2.64698E-23
 -1       301 9.86864E-05 4.20119E-07-6.61744E-24
 -1       302 9.40098E-05 4.02506E-07 0.00000E+00
 -1       303 8.93922E-05 3.85581E-07 0.00000E+00
 -1       304 8.48712E-05 3.67442E-07 0.00000E+00
 -1       305 8.04843E-05 3.47470E-07 0.00000E+00
 -1       306 1.00341E-04 3.85343E-06 0.00000E+00
 -1       307 9.77751E-05 5.83756E-06 2.64698E-23
 -1       308 9.57682E-05 6.34866E-06 0.00000E+00
 -1       309 9.43083E-05 5.37551E-06 2.64698E-23
 -1       310 9.33220E-05 3.13525E-06-5.29396E-23
 -1       311 9.27041E-05-9.83932E-08-2.64698E-23
 -1       312 9.22980E-05-3.90210E-06-5.29396E-23
 -1       313 9.19363E-05-7.82606E-06 0.00000E+00
 -1       314 9.14452E-05-1.14019E-05 0.00000E+00
 -1       315 9.06567E-05-1.41778E-05 2.64698E-23
 -1       316 8.94462E-05-1.58225E-05 5.29396E-23
 -1       317 8.77098E-05-1.60581E-05-2.64698E-23
 -1       318 8.54184E-05-1.48176E-05-5.29396E-23
 -1       319 8.25805E-05-1.21001E-05 0.00000E+00
 -1       320 7.92645E-05-8.13252E-06 2.64698E-23
 -1       336 9.89066E-05-1.77603E-06 6.61744E-24
 -1       337 9.53384E-05-2.05177E-06 0.00000E+00
 -1       338 9.12180E-05-2.32947E-06 0.00000E+00
 -1       339 8.65542E-05-2.60905E-06-3.30872E-24
 -1       340 8.13568E-05-2.89119E-06-6.61744E-24
 -1       406 7.73274E-05 5.97591E-07-3.30872E-24
 -1       407 7.71237E-05 6.82905E-07 0.00000E+00
 -1       408 7.68928E-05 7.68160E-07-3.30872E-24
 -1       409 7.66348E-05 8.53250E-07 0.00000E+00
 -1       410 7.63497E-05 9.38006E-07 0.00000E+00
 -1       521 7.44546E-05-3.55902E-06 0.00000E+00
 -1       522 7.74222E-05-2.08132E-05 0.00000E+00
 -1       523 8.40964E-05-4.85580E-05 1.05879E-22
 -1       524 9.30634E-05-8.30462E-05 0.00000E+00
 -1       525 1.02554E-04-1.19078E-04 0.00000E+00
 -1       526 1.10757E-04-1.51327E-04-5.29396E-23
 -1       527 1.16082E-04-1.75282E-04-1.05879E-22
 -1       528 1.17086E-04-1.87127E-04 0.00000E+00
 -1       529 1.13140E-04-1.85624E-04 0.00000E+00
 -1       530 1.03991E-04-1.70616E-04 5.29396E-23
 -1       531 9.05257E-05-1.44762E-04 0.00000E+00
 -1       532 7.40597E-05-1.11565E-04 0.00000E+00
 -1       533 5.66289E-05-7.60321E-05-1.05879E-22
 -1       534 4.03939E-05-4.33404E-05-2.64698E-23
 -1       535 2.71896E-05-1.81057E-05-5.29396E-23
 -1       536 7.55818E-05 2.31305E-06 3.30872E-24
 -1       537 7.55376E-05 6.81923E-06 0.00000E+00
 -1       538 7.54968E-05 1.03147E-05-1.65436E-24
 -1       539 7.54602E-05 1.27701E-05 8.27181E-25
 -1       540 7.54256E-05 1.42306E-05 8.27181E-25
 -1       541 7.53921E-05 1.47430E-05 0.00000E+00
 -1       542 7.53587E-05 1.44219E-05-8.27181E-25
 -1       543 7.53249E-05 1.33832E-05 0.00000E+00
 -1       544 7.52904E-05 1.17940E-05 0.00000E+00
 -1       545 7.52553E-05 9.82252E-06 0.00000E+00
 -1       546 7.52199E-05 7.66407E-06 8.27181E-25
 -1       547 7.51846E-05 5.51441E-06-4.13590E-25
 -1       548 7.51497E-05 3.56856E-06-8.27181E-25
 -1       549 7.51160E-05 2.02133E-06 0.00000E+00
 -1       550 7.50827E-05 1.03908E-06-2.58494E-26
 -1       551 6.81199E-05-3.34383E-06 0.00000E+00
 -1       552 5.91304E-05-3.52334E-06 1.65436E-24
 -1       553 4.91747E-05-3.71138E-06-4.96308E-24
 -1       554 3.87667E-05-3.90602E-06-3.30872E-24
 -1       555 2.84199E-05-4.10277E-06 0.00000E+00
 -1       556 7.36504E-05 1.97184E-06 0.00000E+00
 -1       557 7.21271E-05 5.92009E-06 0.00000E+00
 -1       558 7.10168E-05 8.78118E-06 0.00000E+00
 -1       559 7.02737E-05 1.06731E-05 0.00000E+00
 -1       560 6.98518E-05 1.17136E-05 0.00000E+00
 -1       561 6.97056E-05 1.20212E-05 0.00000E+00
 -1       562 6.97901E-05 1.17143E-05 0.00000E+00
 -1       563 7.00603E-05 1.09117E-05 0.00000E+00
 -1       564 7.04717E-05 9.73225E-06 0.00000E+00
 -1       565 7.09795E-05 8.29467E-06 3.30872E-24
 -1       566 7.15393E-05 6.71792E-06 0.00000E+00
 -1       567 7.21067E-05 5.12093E-06 2.06795E-25
 -1       568 7.26372E-05 3.62260E-06 0.00000E+00
 -1       569 7.30865E-05 2.34170E-06 0.00000E+00
 -1       570 7.34100E-05 1.39704E-06 0.00000E+00
 -1       571 7.51123E-05 8.40218E-07 4.13590E-25
 -1       572 7.51734E-05 8.51835E-07-4.13590E-25
 -1       573 7.52349E-05 8.29526E-07-8.27181E-25
 -1       574 7.52966E-05 7.81076E-07-4.13590E-25
 -1       575 7.53584E-05 7.14305E-07 0.00000E+00
 -1       576 7.54201E-05 6.37081E-07 8.27181E-25
 -1       577 7.54819E-05 5.57282E-07 0.00000E+00
 -1       578 7.55437E-05 4.82788E-07 0.00000E+00
 -1       579 7.56055E-05 4.21481E-07 3.30872E-24
 -1       580 7.56673E-05 3.81245E-07 0.00000E+00
 -1       581 7.57291E-05 3.69961E-07 0.00000E+00
 -1       582 7.57909E-05 3.95501E-07-3.30872E-24
 -1       583 7.58526E-05 4.65731E-07 0.00000E+00
 -1       584 7.59144E-05 5.88438E-07-3.30872E-24
 -1       585 7.59761E-05 7.71359E-07 0.00000E+00
 -1       586 7.47824E-05 8.08089E-07 8.27181E-25
 -1       587 7.44859E-05 8.28378E-07 2.06795E-25
 -1       588 7.41893E-05 8.48443E-07 0.00000E+00
 -1       589 7.39193E-05 8.68189E-07 0.00000E+00
 -1       590 7.37023E-05 8.87392E-07 0.00000E+00
 -1       591 7.50046E-05 8.73149E-07 1.55096E-25
 -1       592 7.49670E-05 9.25399E-07 0.00000E+00
 -1       593 7.49393E-05 9.50391E-07 4.13590E-25
 -1       594 7.49195E-05 9.53867E-07 2.06795E-25
 -1       595 7.49055E-05 9.41647E-07-4.13590E-25
 -1       596 7.48951E-05 9.19505E-07 0.00000E+00
 -1       597 7.48864E-05 8.93214E-07 4.13590E-25
 -1       598 7.48769E-05 8.68544E-07 2.06795E-25
 -1       599 7.48648E-05 8.51261E-07-4.13590E-25
 -1       600 7.48477E-05 8.47135E-07 2.06795E-25
 -1       601 7.48235E-05 8.61933E-07-4.13590E-25
 -1       602 7.47901E-05 9.01430E-07 0.00000E+00
 -1       603 7.47454E-05 9.71397E-07 3.61892E-25
 -1       604 7.46873E-05 1.07766E-06 0.00000E+00
 -1       605 7.46137E-05 1.22595E-06 0.00000E+00
 -1       606 7.60490E-05 1.41410E-06 0.00000E+00
 -1       607 7.60581E-05 1.89476E-06 0.00000E+00
 -1       608 7.60666E-05 2.45843E-06 0.00000E+00
 -1       609 7.60748E-05 3.09927E-06 0.00000E+00
 -1       610 7.60829E-05 3.81142E-06 0.00000E+00
 -1       611 7.60908E-05 4.58893E-06 0.00000E+00
 -1       612 7.60987E-05 5.42584E-06 0.00000E+00
 -1       613 7.61066E-05 6.31621E-06 0.00000E+00
 -1       614 7.61144E-05 7.25407E-06-1.65436E-24
 -1       615 7.61221E-05 8.23345E-06 0.00000E+00
 -1       616 7.61299E-05 9.24841E-06 1.65436E-24
 -1       617 7.61375E-05 1.02930E-05 0.00000E+00
 -1       618 7.61452E-05 1.13612E-05 0.00000E+00
 -1       619 7.61528E-05 1.24471E-05 0.00000E+00
 -1       620 7.61603E-05 1.35447E-05-4.13590E-25
 -1       621 7.57362E-05 1.08850E-06-1.65436E-24
 -1       622 7.54631E-05 1.15569E-06 0.00000E+00
 -1       623 7.52119E-05 1.22289E-06 0.00000E+00
 -1       624 7.49762E-05 1.28998E-06 0.00000E+00
 -1       625 7.47493E-05 1.35697E-06 0.00000E+00
 -1       626 7.59614E-05 1.43549E-06 0.00000E+00
 -1       627 7.58581E-05 1.92270E-06 0.00000E+00
 -1       628 7.57300E-05 2.47642E-06 0.00000E+00
 -1       629 7.55797E-05 3.08932E-06 0.00000E+00
 -1       630 7.54099E-05 3.75410E-06 0.00000E+00
 -1       631 7.52235E-05 4.46336E-06 0.00000E+00
 -1       632 7.50230E-05 5.20973E-06 0.00000E+00
 -1       633 7.48115E-05 5.98586E-06 0.00000E+00
 -1       634 7.45915E-05 6.78435E-06 3.30872E-24
 -1       635 7.43658E-05 7.59783E-06-1.65436E-24
 -1       636 7.41373E-05 8.41895E-06 0.00000E+00
 -1       637 7.39087E-05 9.24032E-06-8.27181E-25
 -1       638 7.36827E-05 1.00546E-05 0.00000E+00
 -1       639 7.34620E-05 1.08543E-05 0.00000E+00
 -1       640 7.32491E-05 1.16322E-05-8.27181E-25
 -1       656 7.52537E-05 1.42792E-05-6.61744E-24
 -1       657 7.46691E-05 1.38955E-05 3.30872E-24
 -1       658 7.42894E-05 1.35130E-05 0.00000E+00
 -1       659 7.39869E-05 1.31309E-05-3.30872E-24
 -1       660 7.36195E-05 1.27476E-05-6.61744E-24
 -1       661 7.58294E-05 1.57276E-05-8.27181E-25
 -1       662 7.55125E-05 1.67582E-05 8.27181E-25
 -1       663 7.52134E-05 1.77412E-05-1.65436E-24
 -1       664 7.49316E-05 1.86793E-05 0.00000E+00
 -1       665 7.46660E-05 1.95744E-05 0.00000E+00
 -1       666 7.44159E-05 2.04286E-05 0.00000E+00
 -1       667 7.41804E-05 2.12439E-05 1.65436E-24
 -1       668 7.39589E-05 2.20221E-05-8.27181E-25
 -1       669 7.37505E-05 2.27650E-05 1.65436E-24
 -1       670 7.35548E-05 2.34745E-05 8.27181E-25
 -1       671 7.33710E-05 2.41521E-05-1.65436E-24
 -1       672 7.31985E-05 2.47994E-05 8.27181E-25
 -1       673 7.30367E-05 2.54179E-05-1.65436E-24
 -1       674 7.28845E-05 2.60089E-05 0.00000E+00
 -1       675 7.27423E-05 2.65742E-05 4.13590E-25
 -1       676 7.51460E-05 2.74769E-05 0.00000E+00
 -1       677 7.46365E-05 2.74037E-05 0.00000E+00
 -1       678 7.41275E-05 2.73305E-05 0.00000E+00
 -1       679 7.36191E-05 2.72576E-05 0.00000E+00
 -1       680 7.31116E-05 2.71847E-05 0.00000E+00
 -1       771 1.47363E-05 3.22069E-06 2.64698E-23
 -1       772 1.13404E-05 9.39760E-06-1.32349E-23
 -1       773 8.43535E-06 1.42857E-05 0.00000E+00
 -1       774 5.98872E-06 1.79654E-05 0.00000E+00
 -1       775 3.96852E-06 2.05190E-05-2.64698E-23
 -1       776 2.34130E-06 2.20318E-05 0.00000E+00
 -1       777 1.07322E-06 2.25909E-05-2.64698E-23
 -1       778 1.29689E-07 2.22860E-05-1.32349E-23
 -1       779-5.24165E-07 2.12082E-05 0.00000E+00
 -1       780-9.23836E-07 1.94506E-05-1.32349E-23
 -1       781-1.10496E-06 1.71077E-05-2.64698E-23
 -1       782-1.10364E-06 1.42754E-05 0.00000E+00
 -1       783-9.56076E-07 1.10503E-05 0.00000E+00
 -1       784-6.98731E-07 7.53031E-06 0.00000E+00
 -1       785-3.68185E-07 3.81381E-06-2.64698E-23
 -1       786 7.36209E-05 8.64758E-07-8.27181E-25
 -1       787 7.36808E-05 8.30875E-07 0.00000E+00
 -1       788 7.37404E-05 8.02601E-07 0.00000E+00
 -1       789 7.38007E-05 7.79405E-07 0.00000E+00
 -1       790 7.38610E-05 7.61466E-07-1.65436E-24
 -1       791 7.39215E-05 7.48977E-07 0.00000E+00
 -1       792 7.39819E-05 7.42891E-07 0.00000E+00
 -1       793 7.40424E-05 7.44177E-07 0.00000E+00
 -1       794 7.41029E-05 7.54835E-07 0.00000E+00
 -1       795 7.41633E-05 7.76889E-07 0.00000E+00
 -1       796 7.42238E-05 8.13954E-07-1.65436E-24
 -1       797 7.42842E-05 8.69686E-07 0.00000E+00
 -1       798 7.43447E-05 9.50344E-07 0.00000E+00
 -1       799 7.44049E-05 1.06226E-06 0.00000E+00
 -1       800 7.44652E-05 1.21611E-06 0.00000E+00
 -1       801 6.85941E-05 8.44306E-07-1.65436E-24
 -1       802 5.37146E-05 6.87363E-07 1.65436E-24
 -1       803 3.41849E-05 4.57658E-07 3.30872E-24
 -1       804 1.52737E-05 2.32647E-07 0.00000E+00
 -1       805 2.15595E-06 9.36254E-08 0.00000E+00
 -1       806 7.35075E-05 8.22900E-07 0.00000E+00
 -1       807 7.34474E-05 7.41781E-07 0.00000E+00
 -1       808 7.33847E-05 6.66013E-07-1.65436E-24
 -1       809 7.33182E-05 5.99476E-07 8.27181E-25
 -1       810 7.32468E-05 5.46044E-07-3.30872E-24
 -1       811 7.31689E-05 5.09529E-07-8.27181E-25
 -1       812 7.30832E-05 4.93743E-07-3.30872E-24
 -1       813 7.29884E-05 5.02485E-07 8.27181E-25
 -1       814 7.28829E-05 5.39555E-07 0.00000E+00
 -1       815 7.27653E-05 6.08746E-07-8.27181E-25
 -1       816 7.26343E-05 7.13851E-07 0.00000E+00
 -1       817 7.24884E-05 8.58660E-07 1.65436E-24
 -1       818 7.23263E-05 1.04696E-06-1.65436E-24
 -1       819 7.21465E-05 1.28253E-06 0.00000E+00
 -1       820 7.19478E-05 1.56913E-06-1.65436E-24
 -1       821 7.44482E-05 3.42335E-06 8.27181E-25
 -1       822 7.43542E-05 8.95012E-06 8.27181E-25
 -1       823 7.42545E-05 1.56081E-05 0.00000E+00
 -1       824 7.41611E-05 2.09979E-05 8.27181E-25
 -1       825 7.40779E-05 2.34605E-05 0.00000E+00
 -1       826 7.39953E-05 2.13475E-05 0.00000E+00
 -1       827 7.38999E-05 1.56372E-05 0.00000E+00
 -1       828 7.37868E-05 7.32129E-06-1.65436E-24
 -1       829 7.36730E-05-1.09808E-06 0.00000E+00
 -1       830 7.35758E-05-7.11840E-06 0.00000E+00
 -1       831 7.34923E-05-9.62918E-06 0.00000E+00
 -1       832 7.34099E-05-7.53266E-06 0.00000E+00
 -1       833 7.33177E-05-2.37560E-06 1.65436E-24
 -1       834 7.32179E-05 4.28415E-06 8.27181E-25
 -1       835 7.31230E-05 1.00129E-05 8.27181E-25
 -1       836 7.42000E-05 1.50396E-06 1.65436E-24
 -1       837 7.37645E-05 1.58695E-06 0.00000E+00
 -1       838 7.32590E-05 1.66978E-06 0.00000E+00
 -1       839 7.27241E-05 1.75207E-06-8.27181E-25
 -1       840 7.22008E-05 1.83424E-06-2.06795E-25
 -1       856 7.30215E-05 1.31149E-05 0.00000E+00
 -1       857 7.29943E-05 1.39457E-05-2.06795E-25
 -1       858 7.29672E-05 1.48580E-05 4.13590E-25
 -1       859 7.29395E-05 1.58363E-05 0.00000E+00
 -1       860 7.29118E-05 1.68654E-05 0.00000E+00
 -1       861 7.28839E-05 1.79297E-05 4.13590E-25
 -1       862 7.28560E-05 1.90139E-05-8.27181E-25
 -1       863 7.28280E-05 2.01024E-05 0.00000E+00
 -1       864 7.28001E-05 2.11797E-05-8.27181E-25
 -1       865 7.27721E-05 2.22304E-05 0.00000E+00
 -1       866 7.27442E-05 2.32390E-05 0.00000E+00
 -1       867 7.27164E-05 2.41901E-05 4.13590E-25
 -1       868 7.26886E-05 2.50683E-05 0.00000E+00
 -1       869 7.26608E-05 2.58583E-05 0.00000E+00
 -1       870 7.26331E-05 2.65451E-05 0.00000E+00
 -1       871 7.24964E-05 1.23798E-05-4.13590E-25
 -1       872 7.20418E-05 1.23770E-05 0.00000E+00
 -1       873 7.16414E-05 1.23738E-05 0.00000E+00
 -1       874 7.12539E-05 1.23702E-05 0.00000E+00
 -1       875 7.08378E-05 1.23661E-05-4.13590E-25
 -1       876 7.28558E-05 1.31231E-05-1.65436E-24
 -1       877 7.26502E-05 1.39124E-05 1.65436E-24
 -1       878 7.24292E-05 1.47428E-05-3.30872E-24
 -1       879 7.21950E-05 1.56092E-05-1.65436E-24
 -1       880 7.19493E-05 1.65061E-05 0.00000E+00
 -1       881 7.16941E-05 1.74284E-05 0.00000E+00
 -1       882 7.14314E-05 1.83707E-05 3.30872E-24
 -1       883 7.11632E-05 1.93277E-05 0.00000E+00
 -1       884 7.08914E-05 2.02943E-05 0.00000E+00
 -1       885 7.06180E-05 2.12651E-05 0.00000E+00
 -1       886 7.03449E-05 2.22349E-05-1.65436E-24
 -1       887 7.00741E-05 2.31984E-05 0.00000E+00
 -1       888 6.98075E-05 2.41503E-05 0.00000E+00
 -1       889 6.95468E-05 2.50853E-05 8.27181E-25
 -1       890 6.92941E-05 2.59981E-05 0.00000E+00
 -1       891 7.21176E-05 2.70747E-05 8.27181E-25
 -1       892 7.16135E-05 2.70359E-05 4.13590E-25
 -1       893 7.10734E-05 2.69971E-05 0.00000E+00
 -1       894 7.04785E-05 2.69584E-05 2.06795E-25
 -1       895 6.98094E-05 2.69197E-05-4.13590E-25
 -1       956 7.16453E-05 2.36319E-06 0.00000E+00
 -1       957 7.15595E-05 2.87109E-06 0.00000E+00
 -1       958 7.14734E-05 3.42835E-06-1.65436E-24
 -1       959 7.13871E-05 4.02884E-06 8.27181E-25
 -1       960 7.13007E-05 4.66642E-06 0.00000E+00
 -1       961 7.12143E-05 5.33492E-06-8.27181E-25
 -1       962 7.11279E-05 6.02815E-06 3.30872E-24
 -1       963 7.10414E-05 6.73992E-06 0.00000E+00
 -1       964 7.09549E-05 7.46405E-06 0.00000E+00
 -1       965 7.08685E-05 8.19434E-06-1.65436E-24
 -1       966 7.07820E-05 8.92462E-06 0.00000E+00
 -1       967 7.06956E-05 9.64869E-06-1.65436E-24
 -1       968 7.06092E-05 1.03604E-05 0.00000E+00
 -1       969 7.05230E-05 1.10535E-05 0.00000E+00
 -1       970 7.04371E-05 1.17218E-05 3.30872E-24
 -1       971 7.02719E-05 1.30146E-05 0.00000E+00
 -1       972 7.01903E-05 1.37419E-05 8.27181E-25
 -1       973 7.01085E-05 1.45332E-05-1.65436E-24
 -1       974 7.00266E-05 1.53804E-05 8.27181E-25
 -1       975 6.99446E-05 1.62752E-05 0.00000E+00
 -1       976 6.98626E-05 1.72092E-05 8.27181E-25
 -1       977 6.97805E-05 1.81743E-05 0.00000E+00
 -1       978 6.96984E-05 1.91620E-05 8.27181E-25
 -1       979 6.96162E-05 2.01640E-05 0.00000E+00
 -1       980 6.95341E-05 2.11721E-05-1.65436E-24
 -1       981 6.94520E-05 2.21779E-05 3.30872E-24
 -1       982 6.93700E-05 2.31731E-05 0.00000E+00
 -1       983 6.92882E-05 2.41494E-05 0.00000E+00
 -1       984 6.92066E-05 2.50986E-05 0.00000E+00
 -1       985 6.91255E-05 2.60121E-05 1.65436E-24
 -3
    1PSTEP                         8           4           1          
  100CL  104 4.68750E-01         409                     0    4           1
 -4  STRESS      6    1
 -5  SXX         1    4    1    1
 -5  SYY         1    4    2    2
 -5  SZZ         1    4    3    3
 -5  SXY         1    4    1    2
 -5  SYZ         1    4    2    3
 -5  SZX         1    4    3    1
 -1         1-1.66231E+06-7.54122E+05-3.41810E+05-1.05172E+06 3.85626E-10 3.21597E-09
 -1         2 2.65833E+03 2.42311E+05 8.71178E+03 7.05391E+02-1.31053E-10-1.15330E-08
 -1         3-8.82122E+01-7.11666E+05 1.66349E+02-2.59932E+02-6.64322E-11-6.49015E-09
 -1         5-5.87602E+00 2.44309E+05 6.46147E+00 1.10169E-01 1.37176E-10 4.27372E-08
 -1         8-7.84262E+05-3.32714E+05-3.40261E+04-5.65306E+05 2.45564E-10 4.36557E-11
 -1         9-1.37671E+06-3.63502E+05-1.40798E+05-4.61590E+05 3.41970E-09-3.83588E-09
 -1        10-5.77837E+02-7.41406E+05-9.84244E+02-1.75392E+03-3.34558E-09-8.52936E-10
 -1        12-3.22828E+00 2.44322E+05 2.09526E+02 9.98241E-01 2.85979E-10 1.50314E-08
 -1        15 1.97985E+03 1.08805E+03 6.39987E+03 4.14736E+00-5.61897E-11 8.04712E-09
 -1        16-3.52221E+06-1.21074E+06-5.55567E+05-1.24176E+06 1.12147E-08 2.05667E-09
 -1        17-8.48818E+05-5.15011E+05-1.64409E+05-4.75609E+05-5.67816E-09 7.59610E-10
 -1        18 6.73197E+03-2.65947E+03-1.69733E+04-5.81034E+04 7.90237E-10-3.23462E-09
 -1        19 7.59623E+04 9.11485E+04-4.28982E+02 1.52582E+04-5.40967E-10 3.09738E-09
 -1        20-3.26973E+04-3.60421E+05-7.95628E+04 2.62789E+04 4.04498E-09-1.06635E-08
 -1        21-3.40312E+01-2.09299E+05-6.74542E+02-7.31650E+01-6.07861E-09-9.97702E-09
 -1        24-3.25432E+06-1.02221E+06-4.49768E+05-1.25933E+06-2.00040E-08-1.09236E-08
 -1        25 2.38789E+04-3.30662E+04 1.04003E+04-1.05209E+05 3.53975E-10 1.29214E-08
 -1        26-8.32028E+03 6.44567E+04-1.08766E+04-7.34351E+03 4.26553E-09 4.62568E-09
 -1        27-5.07749E+04-1.96079E+05-7.27567E+04 4.58870E+04 1.06910E-08 9.08282E-10
 -1        28 1.61845E+04-5.79712E+04 1.18334E+04 1.82640E+04 2.89026E-09-6.20474E-10
 -1        32-7.84949E+05-1.82901E+05 3.18727E+05-5.24249E+05-1.65528E-08 1.12302E-08
 -1        33-1.14056E+05 5.86856E+04 2.07873E+04-3.44006E+04 1.00272E-09 1.95541E-10
 -1        34-1.47953E+05-1.47914E+04 3.58064E+02 4.58457E+04 3.21060E-09 8.51893E-11
 -1        35-1.64580E+04-2.30493E+04-9.03566E+02 3.64593E+04 4.65399E-09 2.43502E-09
 -1        51 1.40496E+04-3.66904E+05 3.63642E+04-9.31468E+05 0.00000E+00 1.45519E-09
 -1        52 8.82659E+03-3.65872E+05 2.43236E+04-1.08640E+06 1.96451E-10-6.06815E-09
 -1        53 6.64593E+03-3.78219E+05 2.10125E+04-9.28230E+05 2.61934E-10 2.08092E-09
 -1        54 1.90751E+04-3.76899E+05 3.40756E+04-1.08977E+06-2.03727E-10-7.89805E-09
 -1        55 3.79170E+04-3.89892E+05 6.10584E+04-9.27711E+05 4.07454E-10 5.64251E-09
 -1        56-3.19008E+06-3.59186E+05-2.51168E+05-1.22966E+06-1.13869E-09 5.09317E-10
 -1        57-3.28910E+06-5.88301E+05-1.69305E+05-1.22204E+06 1.05501E-09 2.69029E-09
 -1        58-3.24121E+06-4.38059E+05-5.90948E+04-1.21306E+06-9.04038E-10 9.60426E-10
 -1        59-3.22988E+06-4.95834E+05-3.52754E+04-1.24197E+06-1.42563E-09 2.26282E-09
 -1        60-3.24877E+06-4.48945E+05-1.37978E+04-1.21068E+06-4.42492E-09-2.56250E-09
 -1        61-3.22245E+06-4.81682E+05-7.83758E+03-1.24308E+06-3.28589E-09-2.48184E-09
 -1        62-3.24849E+06-4.51883E+05-3.78237E+03-1.21203E+06 6.73026E-11 1.94262E-10
 -1        63-3.22545E+06-4.75794E+05-3.07189E+03-1.23829E+06 3.22098E-09-9.35660E-09
 -1        64-3.24564E+06-4.54869E+05-3.56777E+03-1.21540E+06-9.75206E-10 9.57243E-10
 -1        65-3.23306E+06-4.70299E+05-7.04986E+03-1.23005E+06-4.20641E-10-7.82097E-09
 -1        66-3.24077E+06-4.57490E+05-1.24925E+04-1.22018E+06-9.09722E-10-5.53973E-09
 -1        67-3.24873E+06-4.73866E+05-3.16129E+04-1.21856E+06 1.03955E-09 4.50200E-09
 -1        68-3.23003E+06-4.51640E+05-5.31307E+04-1.22676E+06 3.04817E-09-2.43745E-10
 -1        69-3.30811E+06-5.50926E+05-1.51970E+05-1.19409E+06-1.01863E-10-8.52742E-09
 -1        70-3.18202E+06-3.82774E+05-2.25546E+05-1.24388E+06-9.45874E-11 4.64206E-09
 -1        86-1.33569E+03 2.39462E+05 9.30002E+03-3.52722E+02 1.14778E-09-6.23913E-10
 -1        87 8.85517E+03 2.45359E+05 1.94506E+04 1.45634E+03 1.89789E-09 6.17058E-09
 -1        88-7.51606E+03 2.36418E+05 2.97265E+04-1.10369E+03 2.86309E-09-5.41775E-10
 -1        89 5.60038E+04 2.67406E+05 8.02447E+04 3.17737E+03 4.40923E-09-2.73900E-10
 -1        90-4.83341E+04 2.17439E+05 1.13284E+05-2.07323E+03 5.10045E-09 7.40795E-09
 -1       121-1.38287E+02-7.12060E+05 1.31157E+02 1.29803E+02 4.14857E-10-1.23127E-08
 -1       122-3.28523E+01-7.11633E+05 3.59914E+02-5.19693E+02-1.38726E-09-1.99971E-08
 -1       123-1.76289E+02-7.12099E+05 5.54527E+02 3.88920E+02 1.11720E-09-3.66163E-09
 -1       124 6.33280E+02-7.11235E+05 1.50140E+03-1.16355E+03-2.55363E-09-1.71485E-09
 -1       125-6.04530E+02-7.12475E+05 2.27313E+03 7.73271E+02 1.76669E-09 6.16637E-09
 -1       191-6.38259E+00 2.44329E+05 7.66244E+00-5.57833E-02 1.48886E-10 4.51541E-08
 -1       192-6.47032E+00 2.44309E+05 1.36840E+01 6.63111E-01 2.10909E-10 5.70590E-08
 -1       193-7.96245E+00 2.44329E+05 2.53894E+01-6.12045E-01 2.48433E-10 1.90362E-08
 -1       194-8.38268E+00 2.44311E+05 5.17669E+01 1.63373E+00 1.57746E-10-2.89947E-09
 -1       195-1.09986E+01 2.44327E+05 1.01199E+02-1.03400E+00 3.84226E-10 2.21280E-09
 -1       251 1.19783E+05-4.12644E+04 9.61827E+04 3.90428E+03 9.19727E-11-2.14641E-09
 -1       252 1.64581E+05 4.77125E+04 6.84070E+04-1.37117E+04-8.34007E-10-2.64754E-09
 -1       253 1.36552E+05-6.39028E+03 2.48742E+04 2.96525E+03-3.53680E-10-1.16870E-09
 -1       254 1.44702E+05 7.37329E+03 1.58032E+04-1.22463E+04 1.54756E-10 1.05965E-08
 -1       255 1.39547E+05-9.87224E+02 6.42846E+03 2.43897E+03 6.87010E-10-1.72076E-09
 -1       256 1.41061E+05 1.17660E+03 3.93947E+03-1.14655E+04 8.52808E-10-6.88266E-09
 -1       257 1.40137E+05-1.73382E+02 2.03593E+03 2.18447E+03 6.67825E-10 2.57074E-09
 -1       258 1.40456E+05 3.83675E+02 1.83518E+03-1.12046E+04-7.80875E-10 4.14217E-09
 -1       259 1.40135E+05-1.83897E+02 2.13573E+03 2.17810E+03-4.00775E-10-1.11518E-08
 -1       260 1.41093E+05 1.26925E+03 4.22146E+03-1.14409E+04-4.78323E-10-1.01169E-08
 -1       261 1.39516E+05-1.06789E+03 6.94667E+03 2.42070E+03 1.34804E-09 1.63709E-09
 -1       262 1.44965E+05 7.98308E+03 1.70777E+04-1.21948E+04-3.22615E-10 3.57909E-09
 -1       263 1.36316E+05-6.91484E+03 2.69350E+04 2.93201E+03-6.48242E-10-2.63390E-09
 -1       264 1.66352E+05 5.16411E+04 7.39977E+04-1.36360E+04-3.49075E-09-5.69707E-09
 -1       265 1.18243E+05-4.46497E+04 1.04146E+05 3.86176E+03-8.55380E-10 3.52884E-09
 -1       266-3.58409E+04-1.67566E+04 8.41052E+04-8.87519E+01 2.54659E-11-4.67986E-09
 -1       267 4.15506E+04 1.95342E+04 5.94381E+04 1.02388E+02-8.00355E-11-2.62848E-08
 -1       268-5.57181E+03-2.76636E+03 2.20932E+04-1.30468E+01-1.01863E-10-1.05380E-08
 -1       269 6.57873E+03 3.31099E+03 1.43599E+04 1.51967E+01-1.04592E-11-8.26472E-09
 -1       270-9.87475E+02-5.44011E+02 6.93174E+03-2.06234E+00-6.23004E-11-2.43395E-09
 -1       271-3.50726E+06-4.38837E+05-2.69921E+05-1.36789E+06 7.31234E-10-1.74623E-10
 -1       272-3.58893E+06-6.50480E+05-1.73485E+05-1.38218E+06 1.60526E-10 4.14002E-09
 -1       273-3.55976E+06-5.04323E+05-6.37681E+04-1.35392E+06-3.26054E-10 3.78350E-10
 -1       274-3.52706E+06-5.70778E+05-3.56425E+04-1.40414E+06 4.11092E-10-1.89175E-09
 -1       275-3.56860E+06-5.09369E+05-1.48366E+04-1.34978E+06-2.83762E-10-6.73936E-10
 -1       276-3.51643E+06-5.65148E+05-7.85886E+03-1.41098E+06-5.98448E-10 2.97064E-09
 -1       277-3.57096E+06-5.08598E+05-3.84726E+03-1.34792E+06 6.52108E-10 1.45582E-08
 -1       278-3.51414E+06-5.65818E+05-2.78625E+03-1.41333E+06-2.88253E-10-8.76526E-10
 -1       279-3.57121E+06-5.08413E+05-2.98329E+03-1.34769E+06-3.24576E-10-7.52038E-09
 -1       280-3.51544E+06-5.65505E+05-5.46476E+03-1.41202E+06-1.97906E-09-2.39834E-09
 -1       281-3.56949E+06-5.09077E+05-1.00177E+04-1.34908E+06 1.72258E-09-1.33969E-09
 -1       282-3.52314E+06-5.68561E+05-2.38910E+04-1.40652E+06-7.34872E-10 5.88443E-09
 -1       283-3.56297E+06-5.06359E+05-4.27233E+04-1.35252E+06 1.28239E-09-2.35741E-09
 -1       284-3.56589E+06-6.20299E+05-1.16078E+05-1.38980E+06-7.04631E-10-7.62520E-09
 -1       285-3.52682E+06-4.63672E+05-1.80774E+05-1.36303E+06 1.66983E-09 6.98492E-10
 -1       301 1.44196E+04-1.74681E+04 1.10189E+05-4.48351E+04-9.02219E-10-2.25850E-09
 -1       302 1.55217E+04 1.03992E+04 7.88163E+04-6.60232E+04 1.25192E-09-1.27782E-08
 -1       303 8.64050E+02-7.44103E+03 7.14032E+04-4.49379E+04-9.65883E-10-9.28867E-09
 -1       304 2.78024E+04 2.18418E+04 1.18867E+05-6.57966E+04 1.21690E-09 4.05998E-09
 -1       305 2.74057E+04-2.86566E+04 1.98837E+05-4.49868E+04-1.39698E-09 1.49885E-09
 -1       306-3.92450E+06-4.58123E+05-2.98092E+05-1.53890E+06 2.51748E-09 1.13505E-09
 -1       307-4.08571E+06-7.01489E+05-2.03102E+05-1.47717E+06 3.24417E-09 3.50337E-09
 -1       308-3.99774E+06-5.45444E+05-7.02080E+04-1.50479E+06 6.47560E-10 7.33780E-09
 -1       309-3.99177E+06-6.09286E+05-4.23203E+04-1.52809E+06-2.33570E-10 9.39690E-09
 -1       310-4.01802E+06-5.48470E+05-1.64842E+04-1.48863E+06 2.44142E-10-3.68800E-09
 -1       311-3.96555E+06-6.08953E+05-9.49404E+03-1.55109E+06 3.94948E-09 1.20328E-08
 -1       312-4.02423E+06-5.45255E+05-4.64215E+03-1.48213E+06-1.26533E-09 2.23054E-10
 -1       313-3.96237E+06-6.08862E+05-4.16933E+03-1.55386E+06-4.42253E-09-1.96781E-09
 -1       314-4.02125E+06-5.48489E+05-5.11796E+03-1.48591E+06-4.25553E-09-2.60047E-09
 -1       315-3.97649E+06-5.97774E+05-1.05364E+04-1.53729E+06-1.25510E-09-3.09228E-10
 -1       316-4.00976E+06-5.56627E+05-1.88004E+04-1.49843E+06 7.78073E-10 3.91356E-09
 -1       317-4.01176E+06-5.93300E+05-4.80559E+04-1.50590E+06 1.27898E-09-8.55562E-09
 -1       318-3.98585E+06-5.53435E+05-7.97765E+04-1.51703E+06-3.21597E-09 7.11225E-09
 -1       319-4.11634E+06-7.01631E+05-2.31108E+05-1.45267E+06-4.45561E-09 1.52068E-09
 -1       320-3.90603E+06-4.50127E+05-3.38734E+05-1.55122E+06 8.11997E-09-1.28057E-09
 -1       336 4.96589E+02-7.70845E+05-4.20997E+03 9.78250E+02-7.09429E-09 6.16637E-09
 -1       337-1.53821E+03-7.71862E+05-4.65574E+03-2.48733E+03-1.30810E-08 7.23685E-09
 -1       338 3.34656E+02-7.70950E+05-5.98802E+03 1.50341E+03-8.96171E-09 7.58519E-10
 -1       339-6.21047E+03-7.74769E+05-1.31271E+04-3.52274E+03-1.63338E-08 5.73482E-09
 -1       340 4.18102E+03-7.68015E+05-2.02850E+04 2.00613E+03-1.10849E-08 8.69113E-09
 -1       406 1.27154E+01 2.44318E+05 4.13594E+02 1.75568E-02 5.53882E-10 7.97945E-09
 -1       407 1.41007E+02 2.44395E+05 8.79172E+02-8.08292E+00 8.22808E-11 4.71937E-09
 -1       408 4.49288E+02 2.44255E+05 1.75581E+03 8.21937E+00 4.55202E-10 3.70892E-09
 -1       409 1.89559E+03 2.44956E+05 3.95298E+03-7.89318E+01 7.88987E-11-4.36012E-09
 -1       410 5.45213E+03 2.43755E+05 8.06982E+03 7.36623E+01 6.21185E-10 7.32007E-09
 -1       521-7.36712E+06-7.74909E+05-5.67110E+05-2.72070E+06 3.06318E-09-6.40284E-10
 -1       522-7.08118E+06-1.58113E+06-3.49631E+05-3.07569E+06-2.43772E-08-1.32713E-08
 -1       523-7.58038E+06-7.77255E+05-1.31555E+05-2.48360E+06 2.89765E-09-1.69093E-08
 -1       524-6.87930E+06-1.54676E+06-7.24008E+04-3.37709E+06 3.34084E-08-3.54075E-08
 -1       525-7.60692E+06-7.76670E+05-2.94032E+04-2.44809E+06 2.60989E-08-2.16246E-08
 -1       526-6.89907E+06-1.42040E+06-4.18465E+03-3.23206E+06 7.40874E-09-8.54288E-09
 -1       527-7.53580E+06-9.20940E+05-2.66990E+04-2.61171E+06 1.67638E-08 1.15688E-09
 -1       528-7.12281E+06-1.09219E+06 2.03319E+04-2.79438E+06 3.81551E-08 9.98989E-09
 -1       529-7.34316E+06-1.13349E+06-3.22019E+04-2.85544E+06 2.27956E-08-2.20643E-09
 -1       530-7.56399E+06-7.08941E+05 2.83048E+03-2.38825E+06-9.34233E-09 1.89211E-08
 -1       531-7.11683E+06-1.28790E+06-3.49606E+04-3.03266E+06-2.65863E-08 1.08230E-09
 -1       532-7.90295E+06-5.19547E+05-7.10804E+04-2.20336E+06 2.13195E-08-3.23444E-08
 -1       533-7.04499E+06-1.29470E+06-1.24877E+05-3.07260E+06 1.36752E-08-5.39912E-08
 -1       534-7.89315E+06-8.10967E+05-3.52132E+05-2.23234E+06-9.73159E-09 3.52848E-08
 -1       535-7.11045E+06-1.01311E+06-5.54484E+05-2.98802E+06-7.93079E-09 2.59606E-08
 -1       536-1.03652E+05-1.75613E+04 4.04351E+04-6.25087E+02-1.11743E-09 7.74162E-09
 -1       537-8.45969E+04 2.03286E+04 2.88716E+04-1.37859E+01-9.41869E-09 9.99080E-10
 -1       538-9.69316E+04-2.76391E+03 1.03782E+04-2.36625E+02-1.04137E-10 7.08496E-10
 -1       539-9.25285E+04 3.19079E+03 6.76302E+03-8.36974E+02 3.92064E-09 6.82348E-09
 -1       540-9.57254E+04-4.37413E+02 2.56767E+03 1.98116E+02 1.72288E-09 4.96220E-09
 -1       541-9.41177E+04 4.94940E+02 1.64556E+03-1.64039E+03-1.67705E-09 6.64497E-09
 -1       542-9.53500E+04-6.48634E+01 5.57432E+02 5.66746E+02-1.03596E-09 1.78187E-09
 -1       543-9.47262E+04 4.48434E+01 2.81146E+02-2.25251E+03-7.22196E-10 1.65322E-10
 -1       544-9.51265E+04 1.93524E+01-1.13855E+02 8.10237E+02-4.86928E-10-5.07993E-09
 -1       545-9.51081E+04-1.90272E+02-5.22701E+02-2.57880E+03-9.73429E-10-7.55873E-09
 -1       546-9.49747E+04 1.74870E+02-1.02762E+03 8.93057E+02 1.67483E-10-3.83568E-09
 -1       547-9.56317E+04-1.27245E+03-2.60832E+03-2.57174E+03-3.61744E-09 4.73278E-09
 -1       548-9.46029E+04 1.10062E+03-4.21149E+03 8.03169E+02-3.11828E-09-2.72371E-09
 -1       549-9.85267E+04-8.11014E+03-1.14289E+04-2.22724E+03-1.94680E-09 1.65392E-09
 -1       550-9.20731E+04 7.00229E+03-1.63137E+04 5.48543E+02 7.99645E-11 3.82897E-10
 -1       551 8.69575E+03-3.98635E+05 2.08174E+04-6.75270E+05-3.08464E-08-5.26779E-09
 -1       552 1.91815E+04-4.01754E+05 2.77896E+04-9.61215E+05-2.32831E-08 1.00044E-08
 -1       553 1.30809E+04-4.06954E+05 4.31625E+04-6.72953E+05-3.73984E-08 1.19653E-08
 -1       554 4.15361E+04-3.90362E+05 9.17270E+04-9.62216E+05-2.40107E-08 1.09833E-08
 -1       555 3.97587E+04-4.24594E+05 1.64568E+05-6.73700E+05-3.79005E-08-2.35377E-09
 -1       556 6.10295E+04-1.29124E+05 4.36968E+04-1.68963E+05-1.76078E-09 1.92813E-09
 -1       557 1.13306E+05-1.72454E+05 2.29718E+04-2.11639E+05 4.65661E-10-1.16243E-08
 -1       558 6.08264E+04-1.34938E+05 9.26130E+03-1.63957E+05-3.82715E-09-8.69477E-10
 -1       559 1.06194E+05-1.78410E+05 4.71073E+03-2.14806E+05 2.50293E-09-1.16770E-08
 -1       560 5.92489E+04-1.33891E+05 1.93176E+03-1.64950E+05 3.95812E-09 1.10595E-08
 -1       561 1.03752E+05-1.77779E+05 1.03395E+03-2.16352E+05-7.60338E-10 8.80391E-10
 -1       562 5.79792E+04-1.33042E+05 3.85977E+02-1.65864E+05-2.46655E-09-1.33482E-08
 -1       563 1.02261E+05-1.77138E+05 2.49472E+02-2.17306E+05 1.20781E-09-1.04738E-08
 -1       564 5.71866E+04-1.32531E+05 8.77352E+01-1.66427E+05 4.04179E-09-4.26280E-09
 -1       565 1.01482E+05-1.76805E+05 5.99012E+01-2.17795E+05 2.08092E-09-6.74845E-10
 -1       566 5.68991E+04-1.32340E+05-1.36689E+01-1.66635E+05-5.73345E-09 3.66708E-09
 -1       567 1.01376E+05-1.76752E+05-9.54452E+01-2.17800E+05-1.63891E-09 1.19926E-08
 -1       568 5.71487E+04-1.32505E+05-2.92863E+02-1.66520E+05-1.92631E-09 1.48993E-08
 -1       569 1.01319E+05-1.76638E+05-6.85006E+02-2.16769E+05-1.60981E-09 1.30531E-08
 -1       570 5.84473E+04-1.33670E+05-1.47967E+03-1.66488E+05 3.93993E-09 8.54743E-09
 -1       571 1.76187E+05 6.37168E+03 9.44055E+03-4.51956E+04 1.43200E-09 5.01586E-10
 -1       572 1.77591E+05 2.21727E+03 4.62530E+03-4.95426E+04 1.23441E-09 8.59018E-09
 -1       573 1.76750E+05 5.29873E+02 2.05473E+03-4.50779E+04-4.03816E-10 1.07157E-08
 -1       574 1.76915E+05 1.74369E+02 1.02947E+03-4.96742E+04-3.60546E-09 2.28283E-09
 -1       575 1.76812E+05 2.62305E+01 4.85158E+02-4.50624E+04-1.46542E-09-2.11958E-09
 -1       576 1.76823E+05 9.74926E+00 2.46923E+02-4.96918E+04 2.54687E-10-3.05363E-09
 -1       577 1.76821E+05-6.69101E-01 1.21534E+02-4.50603E+04 1.79512E-09 2.44245E-09
 -1       578 1.76814E+05 1.33041E+00 6.60956E+01-4.96939E+04 5.55019E-10 1.37879E-09
 -1       579 1.76832E+05-2.74412E+00 4.00551E+01-4.50603E+04 5.94810E-10-9.86802E-11
 -1       580 1.76828E+05-4.50935E+00 3.68459E+01-4.96913E+04-1.13141E-09-5.62750E-09
 -1       581 1.76851E+05-1.00047E+01 4.92197E+01-4.50630E+04-6.18456E-10-6.20412E-09
 -1       582 1.76863E+05-3.78784E+00 9.34039E+01-4.96644E+04 1.07320E-10 1.55069E-10
 -1       583 1.76874E+05 1.74784E+01 1.78568E+02-4.50871E+04 2.64663E-10-3.26827E-09
 -1       584 1.76958E+05 1.55487E+02 4.00475E+02-4.94629E+04-1.37743E-09-9.04402E-09
 -1       585 1.76860E+05 5.07335E+02 8.12694E+02-4.52648E+04 5.18412E-11-6.59020E-09
 -1       586-2.15169E+03 5.78630E+04-2.85558E+03-1.53739E+05 3.37877E-10-7.92397E-10
 -1       587-4.51824E+02 5.74783E+04-3.13573E+02-1.69178E+05 6.25732E-10 1.58263E-09
 -1       588 6.14839E+02 5.75538E+04 2.04268E+03-1.53646E+05 3.34694E-10 5.23960E-09
 -1       589 3.03659E+03 5.86776E+04 5.94233E+03-1.69036E+05 5.47516E-10-2.19507E-09
 -1       590 8.70761E+03 5.68449E+04 1.27202E+04-1.53882E+05 2.25555E-10 1.02591E-09
 -1       591-3.57659E+04-1.05987E+04-1.25337E+04-1.89274E+04-2.07081E-10-7.71797E-09
 -1       592-3.69049E+04-1.37116E+04-6.78877E+03-2.22363E+04 1.83996E-09-6.08679E-09
 -1       593-3.70339E+04-9.67450E+03-2.82630E+03-1.98320E+04 6.99174E-10 1.54932E-09
 -1       594-3.51579E+04-1.18904E+04-1.40969E+03-2.23240E+04 1.05001E-09 1.73327E-09
 -1       595-3.71311E+04-9.67018E+03-6.48049E+02-1.98736E+04 1.58821E-10 3.52249E-09
 -1       596-3.50398E+04-1.18069E+04-3.30760E+02-2.23118E+04-5.64000E-10 3.29457E-09
 -1       597-3.71434E+04-9.67816E+03-1.82916E+02-1.98752E+04-1.19086E-09-4.93986E-09
 -1       598-3.50286E+04-1.18037E+04-1.52184E+02-2.23084E+04-1.53739E-09-2.02976E-09
 -1       599-3.71424E+04-9.67812E+03-2.00809E+02-1.98749E+04-9.73671E-10-6.22140E-09
 -1       600-3.50417E+04-1.18082E+04-3.78159E+02-2.23116E+04 5.41377E-10-4.12956E-09
 -1       601-3.71264E+04-9.66915E+03-7.48716E+02-1.98723E+04 4.73869E-09 1.50271E-09
 -1       602-3.51785E+04-1.19048E+04-1.63318E+03-2.23242E+04 2.71268E-09-1.46429E-10
 -1       603-3.70126E+04-9.67561E+03-3.27593E+03-1.98243E+04 1.34014E-09 2.20575E-09
 -1       604-3.72088E+04-1.40098E+04-7.86939E+03-2.22145E+04 4.09727E-10 3.96108E-09
 -1       605-3.55355E+04-1.07519E+04-1.45286E+04-1.87815E+04 1.30285E-09 2.43517E-09
 -1       606 2.48346E+04-8.52063E+03-1.53420E+04 2.46566E+04-4.16185E-09-3.71438E-09
 -1       607 2.22070E+04-2.74896E+03-7.63941E+03 2.76785E+04-1.06957E-09 2.72041E-09
 -1       608 2.36973E+04-4.63824E+02-3.42114E+03 2.44600E+04-5.58248E-09 3.54248E-10
 -1       609 2.34002E+04-1.20228E+02-1.72790E+03 2.78955E+04-1.98770E-08-1.05815E-08
 -1       610 2.35589E+04 2.25222E+01-8.25429E+02 2.44381E+04-1.51986E-08-1.76829E-09
 -1       611 2.35022E+04 3.43612E+01-4.16299E+02 2.79192E+04-9.06357E-09 9.18817E-10
 -1       612 2.35215E+04 3.65450E+01-1.99234E+02 2.44359E+04-3.58523E-09 2.12162E-09
 -1       613 2.34995E+04 4.22284E+01-9.07611E+01 2.79220E+04-4.13138E-09-5.51290E-09
 -1       614 2.35008E+04 3.75254E+01-2.52827E+01 2.44351E+04 7.15590E-09 1.74168E-10
 -1       615 2.34886E+04 4.73556E+01 2.85482E+01 2.79225E+04 2.12422E-08 1.66051E-09
 -1       616 2.34852E+04 4.28492E+01 9.43225E+01 2.44354E+04 6.44195E-09-3.68573E-10
 -1       617 2.34940E+04 7.11941E+01 2.18722E+02 2.79220E+04 1.36970E-09-1.63141E-09
 -1       618 2.34617E+04 1.08771E+02 4.42094E+02 2.44355E+04 3.76076E-10 2.33263E-09
 -1       619 2.36465E+04 4.15426E+02 9.93636E+02 2.79213E+04-1.49191E-09 3.24439E-09
 -1       620 2.33125E+04 1.15951E+03 1.99738E+03 2.44345E+04 6.83144E-10-9.73614E-10
 -1       621 3.11263E+02 1.92512E+05 2.68032E+03 7.86505E+03-2.59291E-10-5.37511E-10
 -1       622 3.52738E+02 1.93177E+05 2.23025E+03 1.14861E+04-2.58751E-10-5.61658E-09
 -1       623 1.29994E+01 1.92709E+05 2.50598E+03 7.83051E+03-1.94333E-10-3.25383E-09
 -1       624 1.11655E+03 1.93876E+05 4.70760E+03 1.15175E+04-2.87059E-10-5.05975E-09
 -1       625 1.12077E+03 1.91807E+05 8.15970E+03 7.83386E+03-8.68567E-11-5.27658E-09
 -1       626 1.57479E+05 4.40370E+04 3.07072E+03 8.57326E+04-1.50121E-08-7.21411E-09
 -1       627 1.55260E+05 4.57002E+04 1.47964E+03 8.92250E+04-1.39253E-08 7.11520E-09
 -1       628 1.57598E+05 4.25800E+04 6.24871E+02 8.61897E+04-2.53203E-09 4.54111E-09
 -1       629 1.54810E+05 4.53565E+04 3.06349E+02 8.94309E+04 3.39378E-09-7.25771E-09
 -1       630 1.57604E+05 4.25116E+04 1.41603E+02 8.62006E+04-2.10912E-09-6.96440E-09
 -1       631 1.54754E+05 4.53498E+04 7.62029E+01 8.94324E+04-2.34650E-09-2.53016E-09
 -1       632 1.57595E+05 4.25176E+04 5.03256E+01 8.61931E+04-2.58751E-10-3.56522E-10
 -1       633 1.54742E+05 4.53548E+04 5.63019E+01 8.94258E+04-1.67529E-09-1.08548E-09
 -1       634 1.57586E+05 4.25187E+04 9.11638E+01 8.61887E+04 3.74530E-09-1.78034E-10
 -1       635 1.54745E+05 4.53564E+04 1.84907E+02 8.94250E+04 2.55795E-09 6.67706E-09
 -1       636 1.57576E+05 4.25181E+04 3.73455E+02 8.61858E+04-7.34190E-10 5.75028E-10
 -1       637 1.54822E+05 4.54156E+04 8.20800E+02 8.94208E+04 1.85603E-09 1.88788E-09
 -1       638 1.57543E+05 4.27013E+04 1.68684E+03 8.61018E+04 1.31749E-08 6.90079E-09
 -1       639 1.55707E+05 4.66465E+04 3.99061E+03 8.91554E+04 2.02224E-08 9.99853E-09
 -1       640 1.57423E+05 4.63771E+04 8.28145E+03 8.45452E+04 3.45472E-09-1.25347E-08
 -1       656 4.29431E+04-1.08728E+06-1.03672E+05-3.56229E+02 6.83940E-10-6.43311E-09
 -1       657-5.67557E+04-1.13408E+06-8.57565E+04 6.99679E+03-4.40195E-10 1.52508E-09
 -1       658 1.36273E+04-1.10062E+06-5.26529E+04-1.35237E+03 1.24260E-10-1.50964E-09
 -1       659-6.09255E+04-1.13605E+06-9.12332E+04 7.66652E+03-7.12134E-10-1.04384E-09
 -1       660 4.71026E+04-1.08531E+06-1.13093E+05-1.02594E+03-1.13505E-09-2.89290E-10
 -1       661 1.51810E+05 1.65180E+04 1.46026E+04 5.93373E+04 1.88493E-09 4.74756E-09
 -1       662 1.59445E+05 2.79417E+04 9.83975E+03 5.67648E+04 1.61441E-09-4.28452E-09
 -1       663 1.54671E+05 2.12080E+04 3.44200E+03 5.85116E+04-1.45781E-09 4.74074E-11
 -1       664 1.56134E+05 2.24514E+04 2.05792E+03 5.77683E+04 1.93950E-10 1.54523E-09
 -1       665 1.55100E+05 2.18541E+04 8.11820E+02 5.83920E+04-2.55264E-09-4.62757E-09
 -1       666 1.55632E+05 2.17080E+04 4.73527E+02 5.79211E+04-7.84956E-09-6.02563E-09
 -1       667 1.55171E+05 2.19320E+04 2.49843E+02 5.83661E+04-5.14092E-10-2.21744E-09
 -1       668 1.55556E+05 2.16461E+04 2.50631E+02 5.79580E+04 2.63827E-09 1.15403E-09
 -1       669 1.55175E+05 2.19143E+04 3.36149E+02 5.83557E+04 3.00449E-09 2.16291E-09
 -1       670 1.55642E+05 2.18229E+04 7.28943E+02 5.79561E+04 4.67080E-09-2.89550E-09
 -1       671 1.55085E+05 2.17587E+04 1.29332E+03 5.83666E+04-2.57066E-09-2.72757E-09
 -1       672 1.56397E+05 2.30792E+04 3.30813E+03 5.77721E+04-3.14020E-09 2.40880E-09
 -1       673 1.54423E+05 2.06896E+04 5.54361E+03 5.85277E+04-3.60228E-09-6.14364E-10
 -1       674 1.61677E+05 3.19824E+04 1.58536E+04 5.62183E+04-4.46352E-09 5.00700E-09
 -1       675 1.49840E+05 1.31045E+04 2.35317E+04 5.98264E+04 7.29415E-10-2.68028E-09
 -1       676 1.75124E+01-2.09243E+05-8.12996E+02 3.65834E+01-1.29674E-09 1.99539E-09
 -1       677-2.15775E+02-2.09440E+05-1.48786E+03-7.31345E+01-2.81727E-09 2.71107E-09
 -1       678 1.44121E+02-2.09103E+05-2.63014E+03 3.65259E+01 2.64436E-10 3.79132E-09
 -1       679-2.63064E+03-2.11027E+05-6.24787E+03-7.29076E+01-3.86399E-09 2.68136E-09
 -1       680 1.56999E+03-2.07656E+05-1.00695E+04 3.59385E+01-2.06001E-09-4.46673E-09
 -1       771-2.24591E+06-3.98065E+05-5.57070E+04-9.36908E+05-9.44419E-09-8.11997E-09
 -1       772-2.23052E+06-4.28584E+05-2.98034E+04-9.71006E+05-7.07223E-09 3.45699E-09
 -1       773-2.25381E+06-3.91907E+05-1.30287E+04-9.40008E+05-4.74392E-09 3.79077E-09
 -1       774-2.22265E+06-4.22194E+05-6.29715E+03-9.74925E+05 7.62520E-09-8.29459E-10
 -1       775-2.25588E+06-3.90530E+05-3.30765E+03-9.40269E+05-1.61526E-09 1.10231E-09
 -1       776-2.22265E+06-4.22279E+05-1.49093E+03-9.77174E+05-4.65661E-09 2.34741E-09
 -1       777-2.25738E+06-3.89435E+05-1.00668E+03-9.40428E+05 8.65839E-10 1.50249E-09
 -1       778-2.22311E+06-4.22539E+05-4.19819E+02-9.79056E+05 2.25918E-09 3.27145E-09
 -1       779-2.25859E+06-3.88503E+05-4.52363E+02-9.40571E+05-1.98634E-09-3.19505E-09
 -1       780-2.22359E+06-4.22749E+05-3.01343E+02-9.80579E+05-6.47560E-10 3.20142E-10
 -1       781-2.25950E+06-3.87760E+05-5.47677E+02-9.40681E+05-9.68794E-09-5.68025E-09
 -1       782-2.22403E+06-4.22943E+05-9.25626E+02-9.81700E+05-9.50968E-09-2.68881E-09
 -1       783-2.26007E+06-3.87269E+05-1.85873E+03-9.40739E+05 1.27329E-10-4.63558E-09
 -1       784-2.22537E+06-4.24207E+05-4.37163E+03-9.82332E+05-6.05360E-09-1.24601E-10
 -1       785-2.25958E+06-3.87600E+05-8.09052E+03-9.40191E+05-1.04201E-08 1.23964E-09
 -1       786 1.68906E+05-8.98935E+03 2.07971E+04-9.62704E+00 9.62800E-07 1.26402E-08
 -1       787 1.77918E+05 1.04069E+04 1.47135E+04 2.92367E+00 1.91718E-06 7.59587E-09
 -1       788 1.72383E+05-1.40919E+03 5.38283E+03-4.88885E+00 2.00792E-06 1.87470E-09
 -1       789 1.73868E+05 1.63051E+03 3.38206E+03-6.07917E+00 2.09448E-06 1.33552E-08
 -1       790 1.72957E+05-2.20136E+02 1.37615E+03-6.24393E-01 2.31473E-06-1.03186E-08
 -1       791 1.73198E+05 2.55760E+02 8.07934E+02-1.55075E+01 2.53700E-06 9.97557E-09
 -1       792 1.73053E+05-3.54694E+01 3.68658E+02 4.53957E+00 3.10872E-06-1.26158E-08
 -1       793 1.73090E+05 4.97708E+01 2.41404E+02-2.82312E+01 3.67550E-06 9.20425E-09
 -1       794 1.73065E+05-1.42829E+01 1.78561E+02 1.20995E+01 1.83889E-06-1.06612E-08
 -1       795 1.73100E+05 7.35902E+01 2.57904E+02-4.79026E+01 5.63931E-09 2.37100E-09
 -1       796 1.73042E+05-5.92712E+01 3.86091E+02 2.42113E+01 1.75624E-10-2.39189E-09
 -1       797 1.73275E+05 4.34489E+02 9.10156E+02-8.01373E+01-4.28332E-10-2.54356E-09
 -1       798 1.72890E+05-3.74916E+02 1.43657E+03 4.43348E+01-1.18716E-10 3.88280E-09
 -1       799 1.74353E+05 2.76826E+03 3.91631E+03-1.34436E+02-5.88135E-10 7.81819E-09
 -1       800 1.71964E+05-2.39117E+03 5.53196E+03 7.85106E+01 1.85851E-11 6.12431E-09
 -1       801-4.88246E+03-1.76311E+05-5.46335E+03 1.88696E+04 1.01190E-08-1.73486E-09
 -1       802 1.76322E+04-7.61861E+04 3.84954E+04-7.27361E+04 2.70447E-08-3.52179E-09
 -1       803-1.18888E+04-1.33755E+05 5.39480E+04 2.11892E+04 2.14059E-08 1.71157E-08
 -1       804 1.12277E+05-2.17341E+04 1.62930E+05-7.30334E+04 2.51821E-08 2.32323E-08
 -1       805-9.96481E+04-2.30400E+05 2.02445E+05 1.91629E+04 8.99308E-09 2.17897E-08
 -1       806-1.93786E+05-4.14838E+04-1.63966E+04-8.07022E+04 3.16686E-09 9.14861E-09
 -1       807-1.94743E+05-3.91438E+04-8.05529E+03-8.50588E+04 5.74335E-09 8.31085E-09
 -1       808-1.94251E+05-3.55608E+04-3.41704E+03-8.34838E+04 1.03228E-09-1.53199E-09
 -1       809-1.93025E+05-3.69066E+04-1.67050E+03-8.52901E+04-1.40199E-09 4.40991E-09
 -1       810-1.94323E+05-3.53520E+04-7.64919E+02-8.36065E+04-5.84714E-09-1.41765E-08
 -1       811-1.92893E+05-3.68182E+04-3.79368E+02-8.52701E+04-1.97883E-09-3.58659E-09
 -1       812-1.94336E+05-3.53677E+04-1.89380E+02-8.36061E+04 1.03637E-09 1.76396E-09
 -1       813-1.92875E+05-3.68205E+04-1.19519E+02-8.52595E+04 1.53432E-09-2.38288E-10
 -1       814-1.94333E+05-3.53737E+04-1.12210E+02-8.36033E+04-8.23093E-10 9.10700E-09
 -1       815-1.92877E+05-3.68226E+04-1.75668E+02-8.52561E+04-2.90515E-09-1.13528E-08
 -1       816-1.94321E+05-3.53727E+04-3.29224E+02-8.36008E+04-6.11271E-09-4.70891E-09
 -1       817-1.92933E+05-3.68542E+04-7.05738E+02-8.52495E+04-1.00326E-08 3.42106E-09
 -1       818-1.94279E+05-3.54721E+04-1.43836E+03-8.35538E+04-1.03378E-08-5.15274E-09
 -1       819-1.93727E+05-3.77168E+04-3.38506E+03-8.50558E+04-8.28732E-09 4.90650E-09
 -1       820-1.94004E+05-3.80323E+04-6.88930E+03-8.24631E+04-3.95266E-09 7.47411E-09
 -1       821-2.27997E+05 1.24132E+04-3.11555E+04-2.35027E+03-1.48227E-08 2.32649E-09
 -1       822-2.28086E+05-1.46487E+04-1.97827E+04 6.60587E+03-1.76154E-08-4.89740E-09
 -1       823-2.27370E+05 2.54083E+03-7.76304E+03-3.60680E+03 1.64955E-08-1.20963E-08
 -1       824-2.18276E+05-2.12191E+03-2.74003E+03 4.67172E+03-3.97902E-09-7.19189E-09
 -1       825-2.37911E+05-2.87983E+02-4.05341E+03-4.17077E+02 1.12465E-09 8.59916E-09
 -1       826-2.14702E+05 1.14015E+02 1.48939E+03-2.45478E+03 1.51578E-08 6.34081E-09
 -1       827-2.30769E+05 4.38194E+02-1.12478E+03 3.51634E+03-1.96120E-05-1.12699E-07
 -1       828-2.21970E+05-1.54805E+02 5.83988E+02-6.50204E+03-4.01388E-05-3.74650E-07
 -1       829-2.30251E+05 4.96470E+02-1.02412E+03 3.62598E+03-1.96749E-05-1.25257E-07
 -1       830-2.15080E+05 6.99497E+01 1.38795E+03-2.77505E+03-3.41865E-08-2.90865E-09
 -1       831-2.38053E+05-2.98249E+02-4.11983E+03-2.06360E+02-2.67747E-09-2.52692E-09
 -1       832-2.17828E+05-2.12111E+03-2.72910E+03 4.40024E+03-3.33424E-09 2.40135E-09
 -1       833-2.27683E+05 2.53665E+03-7.97775E+03-3.54607E+03-2.63010E-09-2.66118E-09
 -1       834-2.28473E+05-1.49681E+04-2.02370E+04 6.70301E+03-2.66532E-09-1.02218E-08
 -1       835-2.27317E+05 1.27202E+04-3.15969E+04-2.50829E+03 1.19177E-08-4.12729E-09
 -1       836-8.15091E+02 2.37843E+05 1.39859E+04-2.15333E+04 1.62663E-09 5.15456E-09
 -1       837 3.08783E+03 2.42171E+05 1.20212E+04-4.32481E+04 2.50020E-09 1.54625E-09
 -1       838-3.01967E+02 2.39030E+05 1.25072E+04-2.14608E+04 2.30784E-09 4.93174E-09
 -1       839 8.07982E+03 2.45891E+05 2.39144E+04-4.32737E+04 2.91766E-09-1.47423E-09
 -1       840-2.42549E+03 2.34087E+05 3.82427E+04-2.15062E+04 1.93904E-09 3.07432E-09
 -1       856-7.50306E+04 6.61010E+03-1.74192E+04-3.89946E+02-2.53510E-09 4.58931E-09
 -1       857-8.22266E+04-7.75254E+03-1.19928E+04 3.98182E+03-1.31772E-09-2.11685E-10
 -1       858-7.78735E+04 9.26184E+02-4.52075E+03-4.07020E+02-3.54751E-09-1.52863E-09
 -1       859-7.89617E+04-1.07669E+03-2.73034E+03 4.00905E+03 9.86702E-10-3.35694E-09
 -1       860-7.82986E+04 1.28791E+02-1.14786E+03-4.17301E+02 1.51532E-09-7.57552E-10
 -1       861-7.84720E+04-1.42079E+02-6.39066E+02 4.02309E+03-3.68749E-09-6.17344E-09
 -1       862-7.83648E+04 1.70259E+01-2.80881E+02-4.21086E+02 5.78171E-09-3.03686E-10
 -1       863-7.83936E+04-1.00081E+01-1.36890E+02 4.02475E+03 7.86822E-09-3.87828E-09
 -1       864-7.83772E+04-3.87346E-01-3.89205E+01-4.18968E+02 6.49266E-09-5.16667E-09
 -1       865-7.83694E+04 2.23801E+01 3.70312E+01 4.01412E+03 8.35871E-09-6.08539E-09
 -1       866-7.83876E+04-1.57074E+01 1.14641E+02-4.10456E+02 4.32578E-11-2.43438E-09
 -1       867-7.83051E+04 1.31735E+02 3.07760E+02 3.99105E+03 1.24606E-09 2.21896E-09
 -1       868-7.84388E+04-1.08812E+02 5.17683E+02-3.95891E+02 1.30012E-09-1.34150E-09
 -1       869-7.79184E+04 9.03315E+02 1.38767E+03 3.95272E+03-6.97730E-09-5.08760E-09
 -1       870-7.87703E+04-7.67847E+02 2.01276E+03-3.72139E+02 1.50152E-09-2.41494E-09
 -1       871-3.69883E+03-7.89011E+03-1.19896E+04 7.88130E+04 2.24190E-09 2.85218E-09
 -1       872-1.61387E+03-1.05717E+04-4.89320E+03 1.02175E+05 5.69798E-09-2.46018E-09
 -1       873-4.47039E+01-9.31873E+03 6.83986E+02 7.86393E+04 1.07093E-09 3.52247E-09
 -1       874 1.82397E+03-7.58104E+03 6.76803E+03 1.02212E+05 4.48244E-09 7.50265E-09
 -1       875 4.33961E+03-1.09274E+04 1.50192E+04 7.87837E+04 1.49066E-09 3.91947E-09
 -1       876 1.95160E+05 3.35845E+04 1.03982E+04 7.91290E+04-7.62566E-09-7.52425E-09
 -1       877 1.95764E+05 3.58574E+04 5.55284E+03 8.21928E+04-4.49609E-09 8.18386E-09
 -1       878 1.96132E+05 3.24337E+04 2.32641E+03 7.99833E+04-1.74646E-09-1.47440E-08
 -1       879 1.94350E+05 3.44485E+04 1.15890E+03 8.22665E+04 8.34689E-10 9.19158E-11
 -1       880 1.96203E+05 3.24208E+04 5.39588E+02 8.00181E+04 3.15026E-09-1.95382E-09
 -1       881 1.94256E+05 3.43887E+04 2.87468E+02 8.22520E+04 3.32045E-09-4.96684E-10
 -1       882 1.96210E+05 3.24292E+04 1.82775E+02 8.00191E+04 4.75097E-09 8.45247E-10
 -1       883 1.94249E+05 3.43859E+04 1.94642E+02 8.22479E+04 1.47702E-09 9.32086E-09
 -1       884 1.96206E+05 3.24270E+04 3.07968E+02 8.00192E+04-6.96900E-10 2.63293E-09
 -1       885 1.94274E+05 3.43903E+04 6.18154E+02 8.22557E+04 3.10430E-09 3.43334E-10
 -1       886 1.96182E+05 3.24089E+04 1.24539E+03 8.00168E+04-1.00876E-08 5.63023E-09
 -1       887 1.94493E+05 3.45338E+04 2.72025E+03 8.22872E+04-2.64379E-08 1.25160E-08
 -1       888 1.96010E+05 3.24392E+04 5.48138E+03 7.99297E+04-1.27640E-08 1.78898E-09
 -1       889 1.97759E+05 3.79250E+04 1.30947E+04 8.21836E+04-1.57184E-09-5.91558E-09
 -1       890 1.93777E+05 3.50918E+04 2.45252E+04 7.78384E+04 4.94038E-09 4.49836E-09
 -1       891-1.23633E+02-1.10766E+05-1.30974E+03 2.09398E+04 2.61707E-09 1.41540E-10
 -1       892-2.14620E+02-1.11079E+05-1.42405E+03 3.16852E+04 1.62004E-10-2.82546E-09
 -1       893-3.62901E+01-1.10808E+05-2.03410E+03 2.09438E+04 1.18462E-09 7.72616E-10
 -1       894-1.11454E+03-1.11860E+05-4.22303E+03 3.15726E+04-2.05864E-09 7.46240E-10
 -1       895-8.70309E+02-1.09930E+05-7.44141E+03 2.10508E+04-1.91977E-09-3.86854E-09
 -1       956-2.45773E+05-3.55247E+03-8.94811E+03 1.63571E+04-3.14731E-09-4.37922E-10
 -1       957-2.47540E+05-1.19674E+03-4.59365E+03 1.96983E+04-1.90539E-10-5.72982E-10
 -1       958-2.46566E+05-9.35993E+01-2.06952E+03 1.62508E+04 2.59934E-09-4.37853E-09
 -1       959-2.46708E+05-1.42745E+01-1.05707E+03 1.98130E+04-1.68552E-09 6.96264E-09
 -1       960-2.46637E+05 3.15413E+01-5.15212E+02 1.62408E+04-4.74256E-09 2.08229E-09
 -1       961-2.46646E+05 3.00709E+01-2.73144E+02 1.98244E+04-5.13319E-09-3.87104E-10
 -1       962-2.46651E+05 2.77796E+01-1.55908E+02 1.62393E+04-2.84058E-09 1.14255E-10
 -1       963-2.46644E+05 3.10855E+01-1.24371E+02 1.98265E+04-4.79781E-09 3.22416E-09
 -1       964-2.46654E+05 2.94657E+01-1.49991E+02 1.62387E+04-6.66660E-10 2.62219E-09
 -1       965-2.46653E+05 3.37932E+01-2.58352E+02 1.98265E+04 2.41061E-09-6.67706E-09
 -1       966-2.46646E+05 3.65037E+01-4.84468E+02 1.62392E+04-3.00565E-09-3.42254E-09
 -1       967-2.46717E+05-4.22660E+00-9.93395E+02 1.98203E+04-1.87174E-09-9.39826E-09
 -1       968-2.46585E+05-7.76444E+01-1.94387E+03 1.62450E+04 1.48316E-09-3.89676E-09
 -1       969-2.47506E+05-1.11208E+03-4.31594E+03 1.97519E+04 2.42972E-09 1.59520E-09
 -1       970-2.45844E+05-3.32528E+03-8.40643E+03 1.63101E+04 9.90667E-10 8.09359E-09
 -1       971-2.32758E+05-1.22233E+03-6.80743E+03 1.13291E+04-5.22596E-09-6.90193E-10
 -1       972-2.34414E+05-8.75302E+02-3.70742E+03 1.58270E+04-2.76373E-09-1.65278E-09
 -1       973-2.33514E+05-6.25272E+00-1.65998E+03 1.12348E+04-2.75486E-09-4.90581E-09
 -1       974-2.33630E+05-5.92845E+00-8.60013E+02 1.59286E+04 6.02313E-10-4.54088E-09
 -1       975-2.33572E+05 2.50854E+01-4.28848E+02 1.12264E+04 1.11595E-09-1.77465E-09
 -1       976-2.33583E+05 2.92488E+01-2.45703E+02 1.59386E+04-4.56373E-09 2.61934E-10
 -1       977-2.33583E+05 2.45538E+01-1.75162E+02 1.12247E+04 1.63050E-09 3.67311E-09
 -1       978-2.33585E+05 3.29395E+01-2.00721E+02 1.59411E+04 1.06093E-08 2.87400E-10
 -1       979-2.33583E+05 2.98069E+01-3.18787E+02 1.12239E+04 7.41630E-09 7.16341E-09
 -1       980-2.33608E+05 3.48285E+01-6.13212E+02 1.59414E+04 4.44560E-09 2.48912E-09
 -1       981-2.33563E+05 4.50977E+01-1.18639E+03 1.12243E+04 7.73070E-12 5.48869E-09
 -1       982-2.33771E+05-5.26029E+01-2.45153E+03 1.59368E+04-3.92947E-09-2.76120E-09
 -1       983-2.33414E+05-3.05152E+01-4.76290E+03 1.12288E+04 9.95442E-10 1.98838E-09
 -1       984-2.36062E+05-2.53947E+03-1.06657E+04 1.58730E+04-3.09899E-09 4.73176E-09
 -1       985-2.31259E+05-3.51539E+03-1.95857E+04 1.12928E+04 3.69027E-09 6.86396E-09
 -3
    1PSTEP                         9           5           1          
  100CL  105 5.03906E-01         409                     0    5           1
 -4  DISP        4    1
 -5  D1          1    2    1    0
 -5  D2          1    2    2    0
 -5  D3          1    2    3    0
 -5  ALL         1    2    0    0    1ALL
 -1         1 1.52999E-04 0.00000E+00 0.00000E+00
 -1         2 1.37938E-04-9.42909E-31 0.00000E+00
 -1         3 1.35477E-04-3.79531E-28 0.00000E+00
 -1         5 9.22416E-05 6.31971E-27 3.30872E-24
 -1         8 1.28013E-04-8.82722E-07 0.00000E+00
 -1         9 1.25462E-04-6.63380E-08 0.00000E+00
 -1        10 1.25014E-04-1.83248E-06-6.61744E-24
 -1        12 9.18453E-05 5.52857E-07 1.65436E-24
 -1        15 9.82293E-05-9.77851E-07-4.13590E-25
 -1        16 1.02026E-04-2.43756E-07 0.00000E+00
 -1        17 9.17516E-05-3.88862E-06 0.00000E+00
 -1        18 8.95857E-05 2.53845E-06 0.00000E+00
 -1        19 9.06566E-05 1.10271E-06 0.00000E+00
 -1        20 9.07938E-05 1.41753E-05 0.00000E+00
 -1        21 9.02354E-05 2.62821E-05 0.00000E+00
 -1        24 2.04414E-05-5.36868E-06 0.00000E+00
 -1        25 8.86695E-05 2.66721E-06 0.00000E+00
 -1        26 8.96518E-05 1.53338E-06 0.00000E+00
 -1        27 8.80511E-05 1.17209E-05 0.00000E+00
 -1        28 8.75989E-05 2.58128E-05 0.00000E+00
 -1        32 0.00000E+00 0.00000E+00 0.00000E+00
 -1        33 8.73164E-05 2.05799E-06 0.00000E+00
 -1        34 8.58250E-05 1.16976E-05 0.00000E+00
 -1        35 8.44171E-05 2.55636E-05 0.00000E+00
 -1        51 1.51376E-04-1.45897E-07 0.00000E+00
 -1        52 1.48366E-04-2.86902E-07 0.00000E+00
 -1        53 1.44241E-04-4.29289E-07 0.00000E+00
 -1        54 1.39285E-04-5.74626E-07 0.00000E+00
 -1        55 1.33781E-04-7.23719E-07 1.03398E-24
 -1        56 1.51635E-04-8.02422E-07-2.64698E-23
 -1        57 1.50395E-04-2.08815E-06-1.32349E-23
 -1        58 1.49284E-04-3.71240E-06 5.29396E-23
 -1        59 1.48241E-04-5.54271E-06-2.64698E-23
 -1        60 1.47216E-04-7.42447E-06 0.00000E+00
 -1        61 1.46151E-04-9.20493E-06 0.00000E+00
 -1        62 1.44994E-04-1.07379E-05 5.29396E-23
 -1        63 1.43693E-04-1.18865E-05-2.64698E-23
 -1        64 1.42207E-04-1.25414E-05 5.29396E-23
 -1        65 1.40501E-04-1.26106E-05-2.64698E-23
 -1        66 1.38557E-04-1.20442E-05 0.00000E+00
 -1        67 1.36364E-04-1.08147E-05 2.64698E-23
 -1        68 1.33929E-04-8.94250E-06 0.00000E+00
 -1        69 1.31275E-04-6.46785E-06 0.00000E+00
 -1        70 1.28424E-04-3.48034E-06 0.00000E+00
 -1        86 1.37591E-04-3.57367E-09 8.27181E-25
 -1        87 1.36549E-04-8.14645E-09 0.00000E+00
 -1        88 1.34813E-04-1.37224E-08-1.65436E-24
 -1        89 1.32385E-04-2.40496E-08 0.00000E+00
 -1        90 1.29267E-04-3.50754E-08-6.61744E-24
 -1       121 1.35185E-04-3.03402E-07 0.00000E+00
 -1       122 1.34308E-04-6.07139E-07 0.00000E+00
 -1       123 1.32849E-04-9.11541E-07-6.61744E-24
 -1       124 1.30811E-04-1.21698E-06 3.30872E-24
 -1       125 1.28197E-04-1.52370E-06 6.61744E-24
 -1       191 9.22306E-05 9.21488E-08 0.00000E+00
 -1       192 9.21975E-05 1.84296E-07 0.00000E+00
 -1       193 9.21425E-05 2.76443E-07 3.30872E-24
 -1       194 9.20655E-05 3.68587E-07 0.00000E+00
 -1       195 9.19664E-05 4.60725E-07 0.00000E+00
 -1       251 1.27840E-04 3.39892E-06-6.61744E-24
 -1       252 1.27680E-04 6.31814E-06 0.00000E+00
 -1       253 1.27522E-04 7.94419E-06-6.61744E-24
 -1       254 1.27366E-04 8.35443E-06 0.00000E+00
 -1       255 1.27211E-04 7.72215E-06 6.61744E-24
 -1       256 1.27054E-04 6.22722E-06-3.30872E-24
 -1       257 1.26897E-04 4.11750E-06 6.61744E-24
 -1       258 1.26739E-04 1.64477E-06 3.30872E-24
 -1       259 1.26581E-04-9.10684E-07 0.00000E+00
 -1       260 1.26423E-04-3.26797E-06 3.30872E-24
 -1       261 1.26267E-04-5.16182E-06 0.00000E+00
 -1       262 1.26110E-04-6.32995E-06 3.30872E-24
 -1       263 1.25955E-04-6.56723E-06 6.61744E-24
 -1       264 1.25796E-04-5.67442E-06-3.30872E-24
 -1       265 1.25637E-04-3.54153E-06-6.61744E-24
 -1       266 1.23049E-04-9.10647E-07-6.61744E-24
 -1       267 1.18085E-04-9.25031E-07 0.00000E+00
 -1       268 1.13121E-04-9.40272E-07-1.65436E-24
 -1       269 1.08157E-04-9.52973E-07 0.00000E+00
 -1       270 1.03193E-04-9.65614E-07 0.00000E+00
 -1       271 1.25015E-04 2.93474E-06 0.00000E+00
 -1       272 1.22419E-04 5.55549E-06 0.00000E+00
 -1       273 1.20232E-04 7.09909E-06 5.29396E-23
 -1       274 1.18398E-04 7.68396E-06 0.00000E+00
 -1       275 1.16871E-04 7.45210E-06 0.00000E+00
 -1       276 1.15590E-04 6.55744E-06-2.64698E-23
 -1       277 1.14495E-04 5.16711E-06 0.00000E+00
 -1       278 1.13520E-04 3.45670E-06 2.64698E-23
 -1       279 1.12596E-04 1.60796E-06 0.00000E+00
 -1       280 1.11655E-04-1.94863E-07 0.00000E+00
 -1       281 1.10629E-04-1.76854E-06 0.00000E+00
 -1       282 1.09450E-04-2.93377E-06-2.64698E-23
 -1       283 1.08055E-04-3.51924E-06 5.29396E-23
 -1       284 1.06387E-04-3.36231E-06-1.32349E-23
 -1       285 1.04383E-04-2.31798E-06 0.00000E+00
 -1       301 1.21244E-04-1.06686E-07 0.00000E+00
 -1       302 1.17068E-04-1.28318E-07 0.00000E+00
 -1       303 1.12997E-04-1.48776E-07-6.61744E-24
 -1       304 1.09092E-04-1.69845E-07-3.30872E-24
 -1       305 1.05415E-04-1.92367E-07 1.32349E-23
 -1       306 1.22472E-04 2.24132E-06 2.64698E-23
 -1       307 1.20295E-04 2.20844E-06 0.00000E+00
 -1       308 1.18945E-04-1.92554E-08 0.00000E+00
 -1       309 1.18309E-04-4.19911E-06 0.00000E+00
 -1       310 1.18175E-04-9.73237E-06 5.29396E-23
 -1       311 1.18289E-04-1.59467E-05 2.64698E-23
 -1       312 1.18362E-04-2.20468E-05 0.00000E+00
 -1       313 1.18100E-04-2.72448E-05-2.64698E-23
 -1       314 1.17272E-04-3.09136E-05 5.29396E-23
 -1       315 1.15672E-04-3.25140E-05-2.64698E-23
 -1       316 1.13233E-04-3.18769E-05 0.00000E+00
 -1       317 1.09935E-04-2.89602E-05 0.00000E+00
 -1       318 1.05910E-04-2.41282E-05-5.29396E-23
 -1       319 1.01346E-04-1.78484E-05 0.00000E+00
 -1       320 9.65037E-05-1.08553E-05-2.64698E-23
 -1       336 1.21192E-04-2.16740E-06 6.61744E-24
 -1       337 1.16664E-04-2.50558E-06-6.61744E-24
 -1       338 1.11442E-04-2.84692E-06-6.61744E-24
 -1       339 1.05539E-04-3.19137E-06-3.30872E-24
 -1       340 9.89695E-05-3.53985E-06 0.00000E+00
 -1       406 9.17022E-05 6.44974E-07 3.30872E-24
 -1       407 9.15370E-05 7.37058E-07 0.00000E+00
 -1       408 9.13498E-05 8.29082E-07-6.61744E-24
 -1       409 9.11407E-05 9.20930E-07 0.00000E+00
 -1       410 9.09095E-05 1.01242E-06 0.00000E+00
 -1       521 1.03559E-04-1.34769E-05 0.00000E+00
 -1       522 1.15253E-04-5.63719E-05 0.00000E+00
 -1       523 1.34182E-04-1.21813E-04 1.05879E-22
 -1       524 1.57128E-04-2.00705E-04 0.00000E+00
 -1       525 1.80477E-04-2.80960E-04 1.05879E-22
 -1       526 2.00596E-04-3.50369E-04-5.29396E-23
 -1       527 2.14203E-04-3.99146E-04-1.05879E-22
 -1       528 2.18114E-04-4.19342E-04 5.29396E-23
 -1       529 2.10769E-04-4.09202E-04 0.00000E+00
 -1       530 1.91483E-04-3.69499E-04 0.00000E+00
 -1       531 1.62411E-04-3.07129E-04-1.05879E-22
 -1       532 1.26929E-04-2.30675E-04 0.00000E+00
 -1       533 9.02068E-05-1.51536E-04-1.05879E-22
 -1       534 5.76072E-05-8.12863E-05-5.29396E-23
 -1       535 3.32934E-05-2.97606E-05 0.00000E+00
 -1       536 9.16024E-05 4.52791E-06 0.00000E+00
 -1       537 9.14427E-05 1.46877E-05 0.00000E+00
 -1       538 9.12769E-05 2.54343E-05 0.00000E+00
 -1       539 9.11178E-05 3.56089E-05 0.00000E+00
 -1       540 9.09728E-05 4.41795E-05 0.00000E+00
 -1       541 9.08464E-05 5.01222E-05 0.00000E+00
 -1       542 9.07327E-05 5.29987E-05 0.00000E+00
 -1       543 9.06229E-05 5.23860E-05 0.00000E+00
 -1       544 9.05067E-05 4.86377E-05 0.00000E+00
 -1       545 9.03770E-05 4.21227E-05 0.00000E+00
 -1       546 9.02349E-05 3.38267E-05 0.00000E+00
 -1       547 9.00865E-05 2.47442E-05 0.00000E+00
 -1       548 8.99413E-05 1.60451E-05 0.00000E+00
 -1       549 8.98090E-05 8.89785E-06 0.00000E+00
 -1       550 8.96896E-05 4.12534E-06 0.00000E+00
 -1       551 8.23422E-05-4.10677E-06 6.61744E-24
 -1       552 7.11231E-05-4.33867E-06-3.30872E-24
 -1       553 5.87045E-05-4.58343E-06-4.96308E-24
 -1       554 4.57059E-05-4.83728E-06-3.30872E-24
 -1       555 3.27464E-05-5.09340E-06 0.00000E+00
 -1       556 8.92348E-05 2.62865E-06 0.00000E+00
 -1       557 8.72895E-05 7.67589E-06 0.00000E+00
 -1       558 8.58543E-05 1.13845E-05 0.00000E+00
 -1       559 8.48735E-05 1.38964E-05 0.00000E+00
 -1       560 8.42911E-05 1.53536E-05 0.00000E+00
 -1       561 8.40524E-05 1.58986E-05 0.00000E+00
 -1       562 8.41026E-05 1.56744E-05 0.00000E+00
 -1       563 8.43875E-05 1.48239E-05 0.00000E+00
 -1       564 8.48533E-05 1.34904E-05 0.00000E+00
 -1       565 8.54459E-05 1.18172E-05 0.00000E+00
 -1       566 8.61120E-05 9.94748E-06 1.65436E-24
 -1       567 8.67978E-05 8.02482E-06 1.03398E-25
 -1       568 8.74499E-05 6.19252E-06 0.00000E+00
 -1       569 8.80148E-05 4.59382E-06 0.00000E+00
 -1       570 8.84388E-05 3.37199E-06 0.00000E+00
 -1       571 8.96507E-05 2.48138E-06 1.24077E-24
 -1       572 8.97171E-05 2.37993E-06-4.13590E-25
 -1       573 8.97839E-05 2.24229E-06 0.00000E+00
 -1       574 8.98510E-05 2.07705E-06-4.13590E-25
 -1       575 8.99181E-05 1.89287E-06-1.65436E-24
 -1       576 8.99852E-05 1.69843E-06 0.00000E+00
 -1       577 9.00524E-05 1.50242E-06 0.00000E+00
 -1       578 9.01195E-05 1.31357E-06 0.00000E+00
 -1       579 9.01867E-05 1.14058E-06 0.00000E+00
 -1       580 9.02539E-05 9.92144E-07 0.00000E+00
 -1       581 9.03211E-05 8.76985E-07 0.00000E+00
 -1       582 9.03882E-05 8.03792E-07 0.00000E+00
 -1       583 9.04554E-05 7.81257E-07 3.30872E-24
 -1       584 9.05225E-05 8.17979E-07 0.00000E+00
 -1       585 9.05896E-05 9.22504E-07 0.00000E+00
 -1       586 8.94029E-05 2.56125E-06 8.27181E-25
 -1       587 8.91929E-05 2.58350E-06 0.00000E+00
 -1       588 8.89850E-05 2.60552E-06 0.00000E+00
 -1       589 8.88088E-05 2.62717E-06 0.00000E+00
 -1       590 8.86940E-05 2.64821E-06 0.00000E+00
 -1       591 8.95760E-05 2.51936E-06 0.00000E+00
 -1       592 8.95766E-05 2.46613E-06 0.00000E+00
 -1       593 8.95873E-05 2.38534E-06 0.00000E+00
 -1       594 8.96058E-05 2.28291E-06 2.06795E-25
 -1       595 8.96301E-05 2.16482E-06 0.00000E+00
 -1       596 8.96580E-05 2.03703E-06 2.06795E-25
 -1       597 8.96873E-05 1.90547E-06 0.00000E+00
 -1       598 8.97158E-05 1.77610E-06 0.00000E+00
 -1       599 8.97413E-05 1.65484E-06 4.13590E-25
 -1       600 8.97614E-05 1.54764E-06 0.00000E+00
 -1       601 8.97741E-05 1.46044E-06 0.00000E+00
 -1       602 8.97772E-05 1.39919E-06-1.03398E-25
 -1       603 8.97683E-05 1.36982E-06-4.13590E-25
 -1       604 8.97456E-05 1.37833E-06 0.00000E+00
 -1       605 8.97067E-05 1.43064E-06 0.00000E+00
 -1       606 9.06686E-05 1.43705E-06-3.30872E-24
 -1       607 9.06782E-05 1.86410E-06 0.00000E+00
 -1       608 9.06872E-05 2.37841E-06 3.30872E-24
 -1       609 9.06959E-05 2.97384E-06 1.65436E-24
 -1       610 9.07044E-05 3.64424E-06 0.00000E+00
 -1       611 9.07128E-05 4.38334E-06 0.00000E+00
 -1       612 9.07211E-05 5.18489E-06 0.00000E+00
 -1       613 9.07294E-05 6.04263E-06 0.00000E+00
 -1       614 9.07376E-05 6.95028E-06 0.00000E+00
 -1       615 9.07458E-05 7.90158E-06 0.00000E+00
 -1       616 9.07540E-05 8.89028E-06 0.00000E+00
 -1       617 9.07621E-05 9.91010E-06 0.00000E+00
 -1       618 9.07702E-05 1.09548E-05-8.27181E-25
 -1       619 9.07782E-05 1.20180E-05 0.00000E+00
 -1       620 9.07862E-05 1.30936E-05 0.00000E+00
 -1       621 9.04238E-05 1.17453E-06 1.65436E-24
 -1       622 9.02283E-05 1.24668E-06-8.27181E-25
 -1       623 9.00618E-05 1.31883E-06-1.65436E-24
 -1       624 8.99158E-05 1.39088E-06 8.27181E-25
 -1       625 8.97819E-05 1.46280E-06 1.65436E-24
 -1       626 9.06080E-05 1.46051E-06-3.30872E-24
 -1       627 9.05312E-05 1.89509E-06 0.00000E+00
 -1       628 9.04285E-05 2.39915E-06-3.30872E-24
 -1       629 9.03027E-05 2.96492E-06 0.00000E+00
 -1       630 9.01566E-05 3.58462E-06 0.00000E+00
 -1       631 8.99933E-05 4.25042E-06-1.65436E-24
 -1       632 8.98155E-05 4.95447E-06-3.30872E-24
 -1       633 8.96264E-05 5.68897E-06-1.65436E-24
 -1       634 8.94287E-05 6.44608E-06 0.00000E+00
 -1       635 8.92255E-05 7.21796E-06 0.00000E+00
 -1       636 8.90196E-05 7.99679E-06 1.65436E-24
 -1       637 8.88141E-05 8.77473E-06 0.00000E+00
 -1       638 8.86118E-05 9.54396E-06 0.00000E+00
 -1       639 8.84155E-05 1.02966E-05 0.00000E+00
 -1       640 8.82280E-05 1.10249E-05 0.00000E+00
 -1       656 8.99138E-05 1.37759E-05-6.61744E-24
 -1       657 8.93848E-05 1.33606E-05 0.00000E+00
 -1       658 8.90758E-05 1.29466E-05 0.00000E+00
 -1       659 8.88518E-05 1.25330E-05 0.00000E+00
 -1       660 8.85606E-05 1.21180E-05 0.00000E+00
 -1       661 9.04683E-05 1.52302E-05 0.00000E+00
 -1       662 9.01662E-05 1.62310E-05-8.27181E-25
 -1       663 8.98836E-05 1.71793E-05 0.00000E+00
 -1       664 8.96202E-05 1.80781E-05 8.27181E-25
 -1       665 8.93745E-05 1.89297E-05-1.65436E-24
 -1       666 8.91457E-05 1.97367E-05 0.00000E+00
 -1       667 8.89329E-05 2.05012E-05 1.65436E-24
 -1       668 8.87351E-05 2.12256E-05 0.00000E+00
 -1       669 8.85516E-05 2.19120E-05-1.65436E-24
 -1       670 8.83817E-05 2.25624E-05 0.00000E+00
 -1       671 8.82244E-05 2.31789E-05 0.00000E+00
 -1       672 8.80791E-05 2.37632E-05 8.27181E-25
 -1       673 8.79451E-05 2.43172E-05 0.00000E+00
 -1       674 8.78211E-05 2.48425E-05-8.27181E-25
 -1       675 8.77074E-05 2.53410E-05 0.00000E+00
 -1       676 8.97948E-05 2.62034E-05 0.00000E+00
 -1       677 8.93545E-05 2.61247E-05 8.27181E-25
 -1       678 8.89145E-05 2.60461E-05 1.65436E-24
 -1       679 8.84751E-05 2.59678E-05 0.00000E+00
 -1       680 8.80365E-05 2.58894E-05 0.00000E+00
 -1       771 1.56522E-05 4.24713E-06 0.00000E+00
 -1       772 1.15199E-05 1.21275E-05-2.64698E-23
 -1       773 8.01604E-06 1.83659E-05 0.00000E+00
 -1       774 5.09905E-06 2.30634E-05 0.00000E+00
 -1       775 2.72784E-06 2.63236E-05 0.00000E+00
 -1       776 8.59532E-07 2.82543E-05 0.00000E+00
 -1       777-5.49203E-07 2.89660E-05-5.29396E-23
 -1       778-1.54269E-06 2.85724E-05 0.00000E+00
 -1       779-2.16554E-06 2.71897E-05 0.00000E+00
 -1       780-2.46321E-06 2.49364E-05 1.32349E-23
 -1       781-2.48128E-06 2.19332E-05 0.00000E+00
 -1       782-2.26596E-06 1.83025E-05 0.00000E+00
 -1       783-1.86353E-06 1.41682E-05 2.64698E-23
 -1       784-1.32068E-06 9.65551E-06 1.32349E-23
 -1       785-6.84153E-07 4.89045E-06 0.00000E+00
 -1       786 8.87272E-05 2.49630E-06 4.13590E-25
 -1       787 8.87884E-05 2.34026E-06 8.27181E-25
 -1       788 8.88494E-05 2.19671E-06 0.00000E+00
 -1       789 8.89110E-05 2.06330E-06 0.00000E+00
 -1       790 8.89727E-05 1.93914E-06 1.65436E-24
 -1       791 8.90345E-05 1.82335E-06 8.27181E-25
 -1       792 8.90964E-05 1.71626E-06 0.00000E+00
 -1       793 8.91582E-05 1.61822E-06 0.00000E+00
 -1       794 8.92201E-05 1.53086E-06 0.00000E+00
 -1       795 8.92820E-05 1.45586E-06 0.00000E+00
 -1       796 8.93438E-05 1.39665E-06-1.65436E-24
 -1       797 8.94057E-05 1.35671E-06 8.27181E-25
 -1       798 8.94675E-05 1.34228E-06-1.65436E-24
 -1       799 8.95292E-05 1.35966E-06-8.27181E-25
 -1       800 8.95909E-05 1.41971E-06 0.00000E+00
 -1       801 8.26645E-05 2.35711E-06 0.00000E+00
 -1       802 6.43756E-05 1.89213E-06 0.00000E+00
 -1       803 4.04820E-05 1.32063E-06-1.32349E-23
 -1       804 1.77405E-05 7.67621E-07 0.00000E+00
 -1       805 2.24553E-06 3.41673E-07-2.64698E-23
 -1       806 8.86557E-05 2.45028E-06 1.65436E-24
 -1       807 8.86366E-05 2.23900E-06 0.00000E+00
 -1       808 8.86131E-05 2.03795E-06-1.65436E-24
 -1       809 8.85840E-05 1.85092E-06 0.00000E+00
 -1       810 8.85482E-05 1.68170E-06 1.65436E-24
 -1       811 8.85042E-05 1.53403E-06 8.27181E-25
 -1       812 8.84507E-05 1.41163E-06 1.65436E-24
 -1       813 8.83864E-05 1.31820E-06 1.65436E-24
 -1       814 8.83098E-05 1.25745E-06 1.65436E-24
 -1       815 8.82195E-05 1.23309E-06-8.27181E-25
 -1       816 8.81142E-05 1.24883E-06 0.00000E+00
 -1       817 8.79926E-05 1.30835E-06-1.65436E-24
 -1       818 8.78531E-05 1.41535E-06 1.65436E-24
 -1       819 8.76946E-05 1.57352E-06 8.27181E-25
 -1       820 8.75158E-05 1.78653E-06-1.65436E-24
 -1       821 8.95743E-05 3.86232E-06-8.27181E-25
 -1       822 8.94731E-05 1.05565E-05-8.27181E-25
 -1       823 8.93631E-05 1.86307E-05 0.00000E+00
 -1       824 8.92635E-05 2.50940E-05 0.00000E+00
 -1       825 8.91788E-05 2.78991E-05 1.65436E-24
 -1       826 8.90937E-05 2.50116E-05 0.00000E+00
 -1       827 8.89876E-05 1.76578E-05 0.00000E+00
 -1       828 8.88537E-05 7.08001E-06 1.65436E-24
 -1       829 8.87186E-05-3.60955E-06 0.00000E+00
 -1       830 8.86102E-05-1.12981E-05 1.65436E-24
 -1       831 8.85238E-05-1.46150E-05-1.65436E-24
 -1       832 8.84401E-05-1.22052E-05 0.00000E+00
 -1       833 8.83419E-05-5.99300E-06 1.65436E-24
 -1       834 8.82319E-05 2.08366E-06 8.27181E-25
 -1       835 8.81294E-05 8.99628E-06 4.13590E-25
 -1       836 8.94160E-05 1.62077E-06-1.65436E-24
 -1       837 8.90636E-05 1.71004E-06-8.27181E-25
 -1       838 8.86358E-05 1.79914E-06 0.00000E+00
 -1       839 8.81743E-05 1.88766E-06 0.00000E+00
 -1       840 8.77207E-05 1.97603E-06 0.00000E+00
 -1       856 8.80262E-05 1.24011E-05 0.00000E+00
 -1       857 8.79984E-05 1.31848E-05 2.06795E-25
 -1       858 8.79706E-05 1.40558E-05 4.13590E-25
 -1       859 8.79422E-05 1.49978E-05 0.00000E+00
 -1       860 8.79137E-05 1.59942E-05 8.27181E-25
 -1       861 8.78851E-05 1.70284E-05-4.13590E-25
 -1       862 8.78564E-05 1.80841E-05 0.00000E+00
 -1       863 8.78277E-05 1.91444E-05 0.00000E+00
 -1       864 8.77990E-05 2.01929E-05 8.27181E-25
 -1       865 8.77704E-05 2.12129E-05-4.13590E-25
 -1       866 8.77417E-05 2.21879E-05 0.00000E+00
 -1       867 8.77132E-05 2.31014E-05 4.13590E-25
 -1       868 8.76846E-05 2.39370E-05 0.00000E+00
 -1       869 8.76561E-05 2.46782E-05 0.00000E+00
 -1       870 8.76277E-05 2.53089E-05 8.27181E-25
 -1       871 8.75714E-05 1.17199E-05-4.13590E-25
 -1       872 8.71948E-05 1.17168E-05 0.00000E+00
 -1       873 8.68770E-05 1.17133E-05-4.13590E-25
 -1       874 8.65727E-05 1.17093E-05 1.55096E-25
 -1       875 8.62369E-05 1.17048E-05 4.13590E-25
 -1       876 8.78882E-05 1.24101E-05 0.00000E+00
 -1       877 8.77086E-05 1.31496E-05-1.65436E-24
 -1       878 8.75126E-05 1.39331E-05-3.30872E-24
 -1       879 8.73024E-05 1.47552E-05-1.65436E-24
 -1       880 8.70799E-05 1.56101E-05 3.30872E-24
 -1       881 8.68472E-05 1.64921E-05 0.00000E+00
 -1       882 8.66065E-05 1.73956E-05 3.30872E-24
 -1       883 8.63597E-05 1.83150E-05 0.00000E+00
 -1       884 8.61092E-05 1.92447E-05-3.30872E-24
 -1       885 8.58568E-05 2.01789E-05 1.65436E-24
 -1       886 8.56049E-05 2.11122E-05 0.00000E+00
 -1       887 8.53553E-05 2.20388E-05 0.00000E+00
 -1       888 8.51102E-05 2.29530E-05 0.00000E+00
 -1       889 8.48714E-05 2.38492E-05 0.00000E+00
 -1       890 8.46410E-05 2.47218E-05 8.27181E-25
 -1       891 8.71814E-05 2.57711E-05-8.27181E-25
 -1       892 8.67460E-05 2.57293E-05 0.00000E+00
 -1       893 8.62723E-05 2.56875E-05 0.00000E+00
 -1       894 8.57399E-05 2.56457E-05 4.13590E-25
 -1       895 8.51282E-05 2.56041E-05-2.06795E-25
 -1       956 8.72249E-05 2.44853E-06 0.00000E+00
 -1       957 8.71319E-05 2.89840E-06 8.27181E-25
 -1       958 8.70387E-05 3.40129E-06-1.65436E-24
 -1       959 8.69452E-05 3.95048E-06-8.27181E-25
 -1       960 8.68517E-05 4.53927E-06 0.00000E+00
 -1       961 8.67582E-05 5.16091E-06 1.65436E-24
 -1       962 8.66646E-05 5.80863E-06 0.00000E+00
 -1       963 8.65710E-05 6.47570E-06 0.00000E+00
 -1       964 8.64774E-05 7.15535E-06 0.00000E+00
 -1       965 8.63838E-05 7.84080E-06 0.00000E+00
 -1       966 8.62902E-05 8.52532E-06 0.00000E+00
 -1       967 8.61966E-05 9.20212E-06 0.00000E+00
 -1       968 8.61031E-05 9.86446E-06 0.00000E+00
 -1       969 8.60098E-05 1.05056E-05-1.65436E-24
 -1       970 8.59167E-05 1.11188E-05 0.00000E+00
 -1       971 8.57382E-05 1.22938E-05 0.00000E+00
 -1       972 8.56501E-05 1.29672E-05 0.00000E+00
 -1       973 8.55619E-05 1.37092E-05 3.30872E-24
 -1       974 8.54735E-05 1.45111E-05 8.27181E-25
 -1       975 8.53851E-05 1.53638E-05 0.00000E+00
 -1       976 8.52965E-05 1.62586E-05 8.27181E-25
 -1       977 8.52080E-05 1.71866E-05 0.00000E+00
 -1       978 8.51194E-05 1.81389E-05 0.00000E+00
 -1       979 8.50308E-05 1.91065E-05-3.30872E-24
 -1       980 8.49422E-05 2.00806E-05 1.65436E-24
 -1       981 8.48537E-05 2.10523E-05 0.00000E+00
 -1       982 8.47652E-05 2.20127E-05 1.65436E-24
 -1       983 8.46769E-05 2.29529E-05 0.00000E+00
 -1       984 8.45889E-05 2.38640E-05-1.65436E-24
 -1       985 8.45014E-05 2.47371E-05 1.65436E-24
 -3
    1PSTEP                        10           5           1          
  100CL  105 5.03906E-01         409                     0    5           1
 -4  STRESS      6    1
 -5  SXX         1    4    1    1
 -5  SYY         1    4    2    2
 -5  SZZ         1    4    3    3
 -5  SXY         1    4    1    2
 -5  SYZ         1    4    2    3
 -5  SZX         1    4    3    1
 -1         1-1.94899E+06-8.55090E+05-4.06925E+05-1.14604E+06-3.16504E-10 5.32600E-09
 -1         2 2.64708E+03-6.51233E+03 8.65551E+03-2.39376E+01-1.21020E-10-7.85042E-09
 -1         3-1.47475E+02-8.66330E+05 2.04852E+02-4.01626E+02-1.92088E-10-4.96584E-09
 -1         5-4.14347E+00 2.63668E+05 6.94943E+00 1.16465E-01 6.80973E-11 5.14256E-08
 -1         8-9.26667E+05-3.63490E+05-6.67376E+04-5.64437E+05 2.71029E-10-8.29459E-10
 -1         9-1.77023E+06-5.22844E+05-2.03603E+05-5.56405E+05 4.10655E-09 8.85921E-09
 -1        10-7.37228E+02-9.02534E+05-1.21974E+03-2.71567E+03-4.42833E-09-1.11332E-08
 -1        12-1.29448E+00 2.63682E+05 2.25190E+02 9.72386E-01 1.47935E-10 1.56372E-08
 -1        15 1.99991E+03 1.09907E+03 6.46470E+03 4.29294E+00 2.29250E-10 2.05525E-08
 -1        16-3.21322E+06-1.25162E+06-5.15980E+05-1.30615E+06 1.17046E-08 4.63721E-09
 -1        17-1.06752E+06-6.25648E+05-2.08862E+05-5.61894E+05-6.00558E-09 2.57860E-09
 -1        18-4.41632E+04-1.53590E+04-3.10745E+04-6.54132E+04 1.95530E-09 3.91719E-09
 -1        19 8.23176E+04 9.81343E+04-5.13683E+02 1.65238E+04-5.16775E-10-3.61542E-09
 -1        20-3.72689E+04-3.90678E+05-8.63720E+04 2.75176E+04 3.02346E-09 1.07430E-08
 -1        21-3.65202E+01-2.24996E+05-7.23194E+02-6.79917E+01-8.97940E-09-1.25702E-08
 -1        24-3.22549E+06-9.05668E+05-4.08905E+05-1.18628E+06-3.08622E-08-1.30482E-08
 -1        25-6.91250E+03-1.78762E+05-2.30546E+04-1.14450E+05 3.87627E-10 1.48351E-08
 -1        26-6.27283E+03 6.99899E+04-1.10055E+04-6.64239E+03 4.56384E-09 8.50953E-09
 -1        27-5.01287E+04-2.11240E+05-7.76488E+04 4.98624E+04 1.17417E-08 4.57112E-09
 -1        28 1.73732E+04-6.25339E+04 1.27349E+04 1.92881E+04 1.41910E-09 4.05497E-09
 -1        32-9.20088E+05-5.50902E+05 2.62781E+05-5.58551E+05-2.03072E-08 8.15737E-09
 -1        33-1.24096E+05 6.32530E+04 2.24444E+04-3.59526E+04 7.17857E-10-9.42540E-10
 -1        34-1.60015E+05-1.60916E+04 3.97822E+02 4.99326E+04 2.37118E-09-5.24521E-09
 -1        35-1.76749E+04-2.48593E+04-9.76341E+02 3.91947E+04 4.55448E-09 1.04956E-09
 -1        51 1.72829E+04-3.62515E+05 4.33947E+04-9.52232E+05-7.27596E-11 3.07045E-09
 -1        52 1.00473E+04-3.60455E+05 2.80265E+04-1.11058E+06 9.02219E-10-3.25963E-09
 -1        53 7.02396E+03-3.73924E+05 2.28997E+04-9.48901E+05 4.65661E-10 5.50062E-09
 -1        54 1.97842E+04-3.72591E+05 3.55823E+04-1.11404E+06 1.67347E-10 1.05756E-08
 -1        55 3.90456E+04-3.86012E+05 6.28092E+04-9.48360E+05 1.06229E-09 5.27143E-09
 -1        56-3.73277E+06-4.18892E+05-2.99231E+05-1.44036E+06-1.55705E-09-1.08848E-08
 -1        57-3.85642E+06-6.86474E+05-2.01752E+05-1.42490E+06 1.79352E-09 1.36133E-08
 -1        58-3.79342E+06-5.13212E+05-7.03865E+04-1.42089E+06-1.66528E-09 1.18343E-08
 -1        59-3.78625E+06-5.75765E+05-4.20180E+04-1.44806E+06 2.15550E-09 3.25508E-09
 -1        60-3.80224E+06-5.26391E+05-1.64246E+04-1.41829E+06 2.59206E-11 1.16870E-09
 -1        61-3.77767E+06-5.58607E+05-9.31901E+03-1.44905E+06 3.78213E-09-8.47103E-09
 -1        62-3.80181E+06-5.29979E+05-4.47225E+03-1.41999E+06-1.98725E-10-2.12248E-09
 -1        63-3.78129E+06-5.51577E+05-3.59987E+03-1.44338E+06 6.51653E-10 1.21178E-08
 -1        64-3.79849E+06-5.33445E+05-4.11113E+03-1.42389E+06 2.49656E-10 1.91860E-08
 -1        65-3.78997E+06-5.45394E+05-8.11710E+03-1.43414E+06 5.82190E-10-6.99401E-10
 -1        66-3.79306E+06-5.36260E+05-1.43097E+04-1.42916E+06 9.82709E-10-3.90082E-09
 -1        67-3.80736E+06-5.50172E+05-3.62946E+04-1.42178E+06-2.85132E-09 6.67296E-09
 -1        68-3.78123E+06-5.29028E+05-6.09131E+04-1.43615E+06-8.27640E-11-9.09495E-10
 -1        69-3.87414E+06-6.40031E+05-1.74412E+05-1.39530E+06 5.02041E-10-6.95763E-09
 -1        70-3.72705E+06-4.49085E+05-2.58747E+05-1.45479E+06-1.13141E-09 3.24508E-09
 -1        86-1.33043E+03-9.38886E+03 9.23281E+03 1.19475E+01 1.15824E-09-1.27164E-09
 -1        87 8.80632E+03-3.53714E+03 1.93125E+04-3.66493E+01 1.93427E-09-1.31608E-08
 -1        88-7.47001E+03-1.23631E+04 2.95311E+04 2.46537E+01 2.81761E-09 6.08321E-09
 -1        89 5.56428E+04 1.81838E+04 7.96667E+04 3.53581E+01 4.25280E-09-3.42550E-09
 -1        90-4.80066E+04-3.10909E+04 1.12561E+05-5.95581E+01 4.56203E-09-4.72278E-09
 -1       121-2.22073E+02-8.66934E+05 1.35113E+02 2.00477E+02 4.75382E-10 5.54792E-10
 -1       122-7.85080E+01-8.66292E+05 4.39794E+02-8.02721E+02-1.75800E-09-1.24601E-10
 -1       123-2.66831E+02-8.66983E+05 6.49493E+02 6.00242E+02 1.34196E-09 1.03682E-09
 -1       124 7.36912E+02-8.65818E+05 1.82573E+03-1.76021E+03-3.45631E-09 1.24719E-08
 -1       125-7.85257E+02-8.67443E+05 2.73610E+03 1.15691E+03 2.03863E-09 3.28146E-09
 -1       191-4.58097E+00 2.63690E+05 8.35118E+00-5.86684E-02 1.13714E-10 2.49997E-08
 -1       192-4.78163E+00 2.63668E+05 1.47118E+01 5.92138E-01 1.71017E-10-3.19778E-09
 -1       193-6.27784E+00 2.63690E+05 2.74031E+01-5.36536E-01 2.04476E-10-3.13867E-09
 -1       194-6.83533E+00 2.63670E+05 5.56409E+01 1.43349E+00 9.12372E-11 9.24956E-09
 -1       195-9.53891E+00 2.63688E+05 1.08879E+02-9.05594E-01 2.90015E-10 1.65483E-09
 -1       251-4.53034E+05-1.95864E+04 4.54596E+04-1.27524E+03 2.68642E-10 5.51699E-09
 -1       252-4.30732E+05 2.26323E+04 3.25376E+04-4.90329E+03-1.53051E-10 1.30731E-08
 -1       253-4.45239E+05-3.05856E+03 1.16839E+04 1.11215E+03 3.57545E-10-6.08497E-09
 -1       254-4.40185E+05 3.50709E+03 7.63120E+03-9.25778E+03 1.37391E-10-9.84812E-09
 -1       255-4.43648E+05-4.83850E+02 3.01208E+03 3.07908E+03-2.34422E-10 8.14873E-09
 -1       256-4.42336E+05 5.82109E+02 1.97656E+03-1.23878E+04 1.14312E-09 1.44566E-08
 -1       257-4.43157E+05-9.26015E+01 1.05686E+03 4.24219E+03-4.27349E-10 9.11984E-09
 -1       258-4.42885E+05 2.52161E+02 1.09866E+03-1.37069E+04-3.32534E-12-1.37830E-08
 -1       259-4.43135E+05-1.28677E+02 1.41922E+03 4.39827E+03-3.79572E-10-7.95029E-09
 -1       260-4.42322E+05 9.14565E+02 2.96390E+03-1.29875E+04-3.43633E-10 3.57761E-09
 -1       261-4.43699E+05-7.67881E+02 4.87300E+03 3.52267E+03 5.31315E-10 2.42835E-10
 -1       262-4.39319E+05 5.68178E+03 1.21637E+04-1.03565E+04 1.03577E-09-4.52701E-10
 -1       263-4.46072E+05-4.92718E+03 1.90367E+04 1.76726E+03-8.48331E-10-2.96950E-09
 -1       264-4.24270E+05 3.66509E+04 5.25125E+04-6.34043E+03-2.61556E-09-8.94943E-09
 -1       265-4.58663E+05-3.16796E+04 7.38344E+04-4.93423E+02-1.55592E-09 7.77800E-09
 -1       266-3.62039E+04-1.69262E+04 8.49575E+04-9.18677E+01 8.73115E-11 8.38017E-09
 -1       267 4.19715E+04 1.97321E+04 6.00402E+04 1.05982E+02 9.27685E-11 1.49110E-08
 -1       268-5.62825E+03-2.79438E+03 2.23170E+04-1.35048E+01-2.72848E-12 2.47929E-09
 -1       269 6.64537E+03 3.34453E+03 1.45054E+04 1.57302E+01-5.13865E-11 1.35948E-09
 -1       270-9.97478E+02-5.49523E+02 7.00195E+03-2.13473E+00 4.38831E-11 1.67054E-08
 -1       271-3.47701E+06-4.35056E+05-2.65960E+05-1.35543E+06-1.88084E-09 2.91038E-09
 -1       272-3.56276E+06-6.38514E+05-1.70969E+05-1.36366E+06-1.26420E-10 3.27418E-09
 -1       273-3.52860E+06-4.99769E+05-6.28338E+04-1.34181E+06 4.57476E-10-9.71340E-10
 -1       274-3.50179E+06-5.59862E+05-3.51256E+04-1.38506E+06 8.21274E-10 5.15865E-09
 -1       275-3.53732E+06-5.04763E+05-1.46283E+04-1.33772E+06 4.34738E-09 1.53887E-09
 -1       276-3.49110E+06-5.54475E+05-7.74174E+03-1.39193E+06-2.75259E-09-6.28097E-09
 -1       277-3.53979E+06-5.03862E+05-3.79819E+03-1.33573E+06-1.14460E-09-4.51973E-09
 -1       278-3.48847E+06-5.55544E+05-2.74047E+03-1.39474E+06 1.76669E-10-2.82986E-09
 -1       279-3.54031E+06-5.03386E+05-2.92528E+03-1.33519E+06-8.00696E-10-4.82419E-09
 -1       280-3.48920E+06-5.55864E+05-5.36412E+03-1.39429E+06 1.32331E-09-2.56432E-09
 -1       281-3.53901E+06-5.03622E+05-9.79390E+03-1.33613E+06-8.64020E-12 6.40648E-09
 -1       282-3.49608E+06-5.59662E+05-2.34248E+04-1.38996E+06 4.67026E-10-1.28284E-09
 -1       283-3.53309E+06-5.00455E+05-4.18104E+04-1.33900E+06-1.18507E-09-2.57205E-09
 -1       284-3.53715E+06-6.11317E+05-1.13752E+05-1.37479E+06-1.17004E-09-7.31234E-09
 -1       285-3.49820E+06-4.58065E+05-1.77034E+05-1.34872E+06 9.73159E-10-5.60976E-09
 -1       301 1.76962E+04-3.51550E+04 1.32234E+05-7.37229E+04-6.40284E-10 5.48789E-09
 -1       302 1.88200E+04-1.70953E+03 9.08649E+04-1.08507E+05 1.42950E-09 1.88397E-08
 -1       303 1.03393E+03-2.25384E+04 7.65281E+04-7.38451E+04-8.78572E-10 9.73159E-10
 -1       304 2.79751E+04 7.10387E+03 1.21030E+05-1.08120E+05 8.64020E-10 1.93904E-09
 -1       305 2.73008E+04-4.33398E+04 1.98976E+05-7.41002E+04-6.62112E-10 1.11104E-08
 -1       306-4.73070E+06-5.45003E+05-3.56693E+05-1.84314E+06 2.60479E-09-5.15138E-09
 -1       307-4.89326E+06-8.62335E+05-2.42408E+05-1.79930E+06-2.97587E-09-1.35697E-09
 -1       308-4.82552E+06-6.41133E+05-8.40212E+04-1.79278E+06 7.52152E-10 3.70346E-09
 -1       309-4.77418E+06-7.61019E+05-5.05388E+04-1.87165E+06 5.98561E-11 2.77669E-09
 -1       310-4.84992E+06-6.43601E+05-1.95661E+04-1.77204E+06-1.93018E-09 5.79348E-10
 -1       311-4.74969E+06-7.54002E+05-1.13529E+04-1.89175E+06 8.13168E-09 1.19271E-08
 -1       312-4.85039E+06-6.47460E+05-5.62373E+03-1.77314E+06 2.46564E-09 9.68889E-09
 -1       313-4.76400E+06-7.33366E+05-4.62294E+03-1.87020E+06-2.27601E-09 7.69683E-09
 -1       314-4.83486E+06-6.64704E+05-6.58702E+03-1.79306E+06-1.12777E-10-1.10376E-08
 -1       315-4.80516E+06-6.94706E+05-1.21081E+04-1.82066E+06 2.22826E-10-4.97130E-09
 -1       316-4.80844E+06-6.86734E+05-2.29526E+04-1.82207E+06 3.15595E-10 2.62662E-09
 -1       317-4.86726E+06-6.71961E+05-5.76121E+04-1.76441E+06 3.78509E-09-2.14832E-08
 -1       318-4.77338E+06-6.87499E+05-9.58669E+04-1.84956E+06-1.07329E-08 6.80666E-09
 -1       319-4.99447E+06-8.03302E+05-2.78282E+05-1.70271E+06-3.16049E-09 1.08885E-08
 -1       320-4.68308E+06-5.57080E+05-4.07406E+05-1.88383E+06 8.64384E-09-1.22236E-09
 -1       336 5.42649E+02-9.38504E+05-5.20345E+03 1.55344E+03-8.71341E-09-8.19273E-09
 -1       337-1.91444E+03-9.39619E+05-5.76426E+03-3.88253E+03-1.61679E-08-5.36602E-11
 -1       338 3.66570E+02-9.38624E+05-7.50131E+03 2.31808E+03-1.17352E-08 4.78576E-09
 -1       339-7.77494E+03-9.43316E+05-1.64286E+04-5.38515E+03-2.10057E-08 2.20607E-08
 -1       340 5.19433E+03-9.34953E+05-2.54333E+04 3.04408E+03-1.37879E-08 1.79298E-08
 -1       406 1.59480E+01 2.63678E+05 4.44624E+02-7.95181E-02 4.42242E-10 7.09770E-09
 -1       407 1.53708E+02 2.63760E+05 9.44885E+02-6.33653E+00 1.07320E-10 8.99490E-10
 -1       408 4.85119E+02 2.63610E+05 1.88718E+03 6.55439E+00 4.80554E-10 1.19917E-09
 -1       409 2.03925E+03 2.64363E+05 4.24848E+03-6.37123E+01-5.91172E-11-1.94746E-09
 -1       410 5.86144E+03 2.63073E+05 8.67313E+03 5.97331E+01 4.20187E-10 6.94399E-09
 -1       521-7.80676E+06-7.58580E+05-6.72472E+05-2.62920E+06-4.69663E-09 7.36327E-09
 -1       522-6.37748E+06-1.92451E+06-2.84351E+05-3.59810E+06-6.83758E-08-2.01107E-08
 -1       523-7.96710E+06-5.12382E+05-1.44114E+05-2.10670E+06 1.08048E-09-2.33267E-08
 -1       524-6.39521E+06-2.03069E+06-5.63102E+04-4.27688E+06 7.86143E-08-7.05741E-08
 -1       525-7.97658E+06-5.10931E+05-3.49590E+04-2.07163E+06 4.56967E-08-4.16567E-08
 -1       526-6.25409E+06-1.76296E+06 5.71654E+04-3.75869E+06-1.61526E-08-1.58088E-08
 -1       527-7.94926E+06-8.95369E+05-1.11367E+05-2.52525E+06 2.39525E-08-6.29007E-09
 -1       528-6.54735E+06-1.01152E+06 1.33842E+05-2.59422E+06 8.87667E-09 1.99507E-08
 -1       529-7.50229E+06-1.39000E+06-1.24531E+05-3.09169E+06-7.21775E-09 1.13541E-08
 -1       530-7.79090E+06-1.15234E+05 7.39197E+04-1.80545E+06 1.39844E-08 3.65053E-08
 -1       531-6.85522E+06-1.68252E+06-4.80426E+04-3.40888E+06-6.37301E-08-1.16961E-08
 -1       532-8.72663E+06 3.07793E+05-5.31014E+04-1.61062E+06 3.46104E-08-5.91517E-08
 -1       533-6.74658E+06-1.68910E+06-1.27348E+05-3.44359E+06 1.36570E-08-1.02031E-07
 -1       534-8.23326E+06-1.66811E+05-2.88836E+05-1.68194E+06-2.83180E-08 7.91679E-08
 -1       535-7.22910E+06-1.29478E+06-6.40589E+05-3.22808E+06-1.26311E-08 5.37257E-08
 -1       536-3.19776E+05-1.37678E+04 3.09994E+04-6.37454E+03-1.57610E-09 9.74069E-09
 -1       537-3.03451E+05 1.59183E+04 2.24443E+04 1.28702E+04-1.85958E-08 1.53473E-08
 -1       538-3.13117E+05-2.06429E+03 8.09765E+03-7.23922E+03-2.35573E-10 2.00525E-08
 -1       539-3.07685E+05 2.54789E+03 5.69112E+03 1.14364E+04 1.47291E-08 1.09989E-08
 -1       540-3.15493E+05-4.45996E+02 1.37224E+03-4.94000E+03 1.38050E-09 1.08746E-08
 -1       541-3.02697E+05 6.70829E+02 2.94852E+03 4.67359E+03-3.43289E-09 4.50710E-09
 -1       542-3.17952E+05-3.15156E+02-8.15101E+02-4.75428E+02-1.11851E-09 2.13910E-09
 -1       543-3.02512E+05 2.85374E+02 1.86282E+03-4.36708E+03-1.59457E-09-3.68004E-09
 -1       544-3.15672E+05-7.14178E+01-1.19650E+03 4.09926E+03-7.48474E-09-6.27460E-09
 -1       545-3.08586E+05-3.86719E+02-5.89118E+02-1.15153E+04-2.28474E-09-1.38384E-08
 -1       546-3.12028E+05 4.79896E+02-2.35941E+03 6.67309E+03 1.77869E-09-1.13679E-08
 -1       547-3.12389E+05-2.84231E+03-5.64284E+03-1.35397E+04-1.29486E-08-3.33148E-09
 -1       548-3.11935E+05 2.44039E+03-9.52666E+03 6.12447E+03-1.31684E-08-8.12861E-09
 -1       549-3.14450E+05-1.75237E+04-2.42258E+04-9.50889E+03-6.95881E-09-5.49335E-10
 -1       550-3.09848E+05 1.50476E+04-3.71031E+04 2.64101E+03 7.37259E-10 5.78439E-09
 -1       551 1.22569E+04-4.85790E+05 2.25452E+04-8.12998E+05-3.72020E-08 9.31323E-10
 -1       552 2.77082E+04-4.92502E+05 2.97462E+04-1.15756E+06-2.91548E-08 2.81107E-08
 -1       553 1.94223E+04-4.98212E+05 4.49523E+04-8.10063E+05-4.74538E-08 1.26311E-08
 -1       554 5.21449E+04-4.84279E+05 9.49212E+04-1.15882E+06-2.91038E-08 8.52651E-10
 -1       555 4.70459E+04-5.16559E+05 1.69559E+05-8.10879E+05-4.71846E-08-4.59113E-09
 -1       556 8.22690E+04-1.55734E+05 5.28811E+04-1.99961E+05-7.82893E-09-1.07757E-08
 -1       557 1.45677E+05-2.07637E+05 2.78874E+04-2.51193E+05 4.86762E-09 1.33450E-08
 -1       558 8.14330E+04-1.62444E+05 1.11081E+04-1.94230E+05-4.80213E-09-1.45883E-09
 -1       559 1.36250E+05-2.14623E+05 5.69251E+03-2.55568E+05 3.91447E-09-6.04450E-09
 -1       560 7.90225E+04-1.60865E+05 2.25725E+03-1.95794E+05 0.00000E+00-1.27493E-08
 -1       561 1.32670E+05-2.13595E+05 1.23984E+03-2.57846E+05 1.96451E-09 2.48383E-09
 -1       562 7.70980E+04-1.59596E+05 4.25245E+02-1.97179E+05-8.46921E-09-4.86034E-09
 -1       563 1.30411E+05-2.12619E+05 3.02848E+02-2.59291E+05-1.74623E-10 7.53300E-09
 -1       564 7.58706E+04-1.58811E+05 9.89714E+01-1.98049E+05 2.01544E-09 3.54748E-09
 -1       565 1.29182E+05-2.12090E+05 9.00369E+01-2.60066E+05 3.03771E-10-3.53248E-09
 -1       566 7.53769E+04-1.58489E+05 1.04454E+01-1.98401E+05-5.34692E-09-1.60526E-08
 -1       567 1.28942E+05-2.11975E+05-5.81829E+01-2.60147E+05 9.72443E-09 1.11140E-08
 -1       568 7.56520E+04-1.58671E+05-2.52119E+02-1.98277E+05 1.66619E-09 1.15651E-08
 -1       569 1.29015E+05-2.11831E+05-5.95433E+02-2.58900E+05-6.78483E-09-4.16912E-09
 -1       570 7.72601E+04-1.60031E+05-1.36924E+03-1.98190E+05 3.20142E-09 4.52928E-09
 -1       571 1.91535E+05 7.00159E+03 1.03587E+04-4.99443E+04 3.30601E-10 1.90266E-09
 -1       572 1.93074E+05 2.44473E+03 5.07523E+03-5.47544E+04-2.91038E-10-7.63430E-09
 -1       573 1.92151E+05 5.92430E+02 2.25464E+03-4.98179E+04-1.26329E-09-4.62114E-09
 -1       574 1.92331E+05 2.03796E+02 1.12972E+03-5.48965E+04-1.70053E-09 7.86258E-09
 -1       575 1.92218E+05 4.00937E+01 5.32484E+02-4.98012E+04 4.51564E-10-4.30009E-09
 -1       576 1.92229E+05 2.30873E+01 2.71168E+02-5.49155E+04-1.20167E-10-3.75621E-09
 -1       577 1.92229E+05 1.01023E+01 1.33707E+02-4.97990E+04-7.73070E-10-2.55886E-09
 -1       578 1.92221E+05 1.29671E+01 7.32209E+01-5.49178E+04-2.02886E-09-1.05556E-08
 -1       579 1.92243E+05 6.55100E+00 4.51939E+01-4.97989E+04-6.84850E-10 3.17141E-09
 -1       580 1.92240E+05 4.96743E+00 4.30532E+01-5.49148E+04-1.23509E-09 8.80482E-09
 -1       581 1.92267E+05-3.13914E+00 5.89971E+01-4.98019E+04 2.17369E-09-3.33830E-09
 -1       582 1.92283E+05 5.10392E+00 1.13273E+02-5.48849E+04 1.44701E-09 1.84809E-09
 -1       583 1.92297E+05 2.96538E+01 2.17115E+02-4.98289E+04 5.63887E-10-5.51313E-09
 -1       584 1.92400E+05 1.98417E+02 4.87429E+02-5.46589E+04-1.60799E-09-3.57477E-09
 -1       585 1.92280E+05 6.25744E+02 9.89231E+02-5.00282E+04-5.38421E-10-5.54428E-09
 -1       586-2.26167E+03 6.34553E+04-2.93326E+03-1.71395E+05-1.74623E-10-6.81666E-10
 -1       587-4.74647E+02 6.30691E+04-2.14157E+02-1.88619E+05 2.52840E-10-1.70227E-08
 -1       588 6.75858E+02 6.31299E+04 2.36202E+03-1.71297E+05 2.93767E-10-9.48239E-09
 -1       589 3.38652E+03 6.44141E+04 6.72316E+03-1.88450E+05 2.05546E-10-3.88172E-09
 -1       590 9.76732E+03 6.23521E+04 1.43383E+04-1.71567E+05 1.65073E-10-8.32279E-09
 -1       591-3.85507E+04-1.11999E+04-1.34834E+04-2.01086E+04-9.33937E-11 3.56704E-09
 -1       592-3.98715E+04-1.44534E+04-7.30321E+03-2.35599E+04-4.07169E-10 3.90628E-09
 -1       593-3.99134E+04-1.02071E+04-3.04044E+03-2.10831E+04 1.58821E-09 1.93450E-09
 -1       594-3.79936E+04-1.24926E+04-1.51651E+03-2.36523E+04 2.49617E-09 5.50040E-09
 -1       595-4.00178E+04-1.02025E+04-6.97130E+02-2.11279E+04 1.21929E-10-1.61295E-09
 -1       596-3.78665E+04-1.24028E+04-3.55793E+02-2.36391E+04 1.62663E-09 3.82045E-09
 -1       597-4.00311E+04-1.02111E+04-1.96710E+02-2.11297E+04 1.79057E-10-1.91517E-09
 -1       598-3.78545E+04-1.23993E+04-1.63571E+02-2.36354E+04 3.75019E-09 7.03909E-09
 -1       599-4.00299E+04-1.02111E+04-2.15730E+02-2.11293E+04-5.59339E-11-8.23661E-09
 -1       600-3.78684E+04-1.24041E+04-4.06167E+02-2.36388E+04-1.25351E-09-1.03805E-08
 -1       601-4.00128E+04-1.02015E+04-8.04136E+02-2.11265E+04 2.58638E-09-8.80846E-09
 -1       602-3.80153E+04-1.25079E+04-1.75402E+03-2.36524E+04 1.10795E-08 3.16959E-10
 -1       603-3.98906E+04-1.02084E+04-3.51832E+03-2.10749E+04 3.35285E-09 2.36605E-09
 -1       604-4.01945E+04-1.47700E+04-8.45164E+03-2.35360E+04 2.19779E-09 1.34175E-08
 -1       605-3.83052E+04-1.13633E+04-1.56035E+04-1.99538E+04-1.50521E-10 9.02946E-09
 -1       606 2.61418E+04-9.25968E+03-1.66654E+04 2.59208E+04-2.02817E-09-8.25821E-09
 -1       607 2.32880E+04-2.99053E+03-8.29835E+03 2.90987E+04 2.65482E-09-2.72939E-09
 -1       608 2.49059E+04-5.07768E+02-3.71627E+03 2.57149E+04 4.23461E-09 3.67186E-09
 -1       609 2.45835E+04-1.34807E+02-1.87693E+03 2.93268E+04-3.12139E-09 2.61457E-09
 -1       610 2.47550E+04 2.08210E+01-8.96634E+02 2.56918E+04-7.43967E-09-4.06999E-10
 -1       611 2.46939E+04 3.33908E+01-4.52151E+02 2.93517E+04-9.35870E-09-2.09411E-09
 -1       612 2.47140E+04 3.62989E+01-2.16319E+02 2.56896E+04-3.53884E-09 1.62004E-09
 -1       613 2.46905E+04 4.21590E+01-9.83366E+01 2.93547E+04-2.30284E-09-1.66074E-09
 -1       614 2.46912E+04 3.75445E+01-2.69728E+01 2.56888E+04 1.16415E-10-3.01566E-09
 -1       615 2.46783E+04 4.78989E+01 3.20474E+01 2.93551E+04 2.96859E-09-1.20963E-09
 -1       616 2.46739E+04 4.34806E+01 1.04494E+02 2.56890E+04-4.73347E-09-5.35374E-09
 -1       617 2.46843E+04 7.42678E+01 2.41868E+02 2.93546E+04 1.95769E-10 2.08956E-09
 -1       618 2.46480E+04 1.16354E+02 4.88687E+02 2.56891E+04-2.30557E-10 5.29735E-09
 -1       619 2.48529E+04 4.54737E+02 1.09825E+03 2.93539E+04 5.50244E-10-1.48452E-08
 -1       620 2.44831E+04 1.27769E+03 2.20762E+03 2.56881E+04 2.62935E-09-2.49656E-09
 -1       621 3.15489E+02 2.06669E+05 2.74645E+03 1.01281E+04-2.37094E-10-5.52268E-09
 -1       622 3.61301E+02 2.07348E+05 2.32132E+03 1.47770E+04-1.43928E-10 9.93668E-09
 -1       623 1.42962E+01 2.06864E+05 2.65610E+03 1.00831E+04-8.05471E-11 9.06061E-09
 -1       624 1.19792E+03 2.08112E+05 5.03230E+03 1.48189E+04-9.32232E-11 5.70435E-09
 -1       625 1.20285E+03 2.05895E+05 8.74281E+03 1.00864E+04-7.45786E-11 8.41942E-09
 -1       626 1.71275E+05 4.73842E+04 3.39274E+03 9.25250E+04 4.91218E-09-8.19819E-09
 -1       627 1.68931E+05 4.91154E+04 1.63490E+03 9.62624E+04 8.98217E-09-1.41692E-08
 -1       628 1.71400E+05 4.57812E+04 6.90449E+02 9.30375E+04 1.34150E-08 2.10366E-09
 -1       629 1.68440E+05 4.87283E+04 3.38451E+02 9.64816E+04 2.92493E-09 1.34611E-09
 -1       630 1.71406E+05 4.57062E+04 1.56399E+02 9.30502E+04 1.58525E-09-7.53596E-09
 -1       631 1.68380E+05 4.87202E+04 8.40600E+01 9.64824E+04 1.02045E-09-4.19854E-09
 -1       632 1.71396E+05 4.57129E+04 5.52337E+01 9.30421E+04-1.29830E-09 3.58989E-09
 -1       633 1.68366E+05 4.87256E+04 6.14134E+01 9.64752E+04-4.53247E-09-5.49107E-10
 -1       634 1.71386E+05 4.57140E+04 9.90739E+01 9.30374E+04 5.50290E-09 1.75655E-08
 -1       635 1.68370E+05 4.87272E+04 2.00688E+02 9.64744E+04 3.05658E-09 4.73437E-09
 -1       636 1.71375E+05 4.57133E+04 4.05199E+02 9.30345E+04-3.51417E-09 4.05657E-09
 -1       637 1.68453E+05 4.87913E+04 8.90520E+02 9.64701E+04-2.69169E-09 2.62935E-09
 -1       638 1.71341E+05 4.59118E+04 1.83002E+03 9.29436E+04-1.66802E-08 9.74569E-09
 -1       639 1.69415E+05 5.01260E+04 4.32935E+03 9.61821E+04-2.93549E-08 2.57132E-08
 -1       640 1.71210E+05 4.99000E+04 8.98429E+03 9.12561E+04-2.18065E-08 1.64482E-08
 -1       656 4.64421E+04-1.17694E+06-1.12117E+05-3.72057E+02-7.20320E-10-8.98126E-11
 -1       657-6.13882E+04-1.22755E+06-9.27586E+04 7.31037E+03-5.01132E-10 6.11518E-09
 -1       658 1.47465E+04-1.19136E+06-5.69731E+04-1.52741E+03 1.27193E-09-5.68145E-09
 -1       659-6.59568E+04-1.22972E+06-9.87591E+04 8.10182E+03-8.82210E-11-8.96191E-09
 -1       660 5.09997E+04-1.17478E+06-1.22438E+05-1.16349E+03 6.11180E-10-5.16543E-09
 -1       661 1.59471E+05 1.73217E+04 1.54294E+04 6.23465E+04 1.53113E-09 9.43783E-09
 -1       662 1.67594E+05 2.93381E+04 1.03970E+04 5.95667E+04 1.43467E-09 5.73891E-10
 -1       663 1.62496E+05 2.22760E+04 3.63688E+03 6.14726E+04 3.71188E-10-1.40813E-09
 -1       664 1.64092E+05 2.35395E+04 2.17453E+03 6.06297E+04 2.92857E-09 8.88576E-10
 -1       665 1.62950E+05 2.29575E+04 8.57824E+02 6.13449E+04-3.70221E-10-3.62331E-09
 -1       666 1.63560E+05 2.27561E+04 5.00512E+02 6.07935E+04-2.18880E-09-1.61441E-10
 -1       667 1.63026E+05 2.30388E+04 2.64237E+02 6.13164E+04-1.07295E-09 9.83064E-09
 -1       668 1.63478E+05 2.26925E+04 2.65461E+02 6.08345E+04 3.91793E-09 8.01857E-09
 -1       669 1.63031E+05 2.30192E+04 3.56338E+02 6.13046E+04 5.83867E-10 1.01814E-08
 -1       670 1.63568E+05 2.28813E+04 7.73037E+02 6.08339E+04 2.71933E-09 1.30412E-09
 -1       671 1.62937E+05 2.28537E+04 1.37163E+03 6.13155E+04-3.82116E-09-6.93825E-09
 -1       672 1.64368E+05 2.42147E+04 3.50853E+03 6.06398E+04-2.61924E-09-5.30713E-09
 -1       673 1.62235E+05 2.17194E+04 5.87945E+03 6.14859E+04-4.95038E-09 6.78074E-09
 -1       674 1.69967E+05 3.36580E+04 1.68140E+04 5.89929E+04-2.14254E-09 1.22300E-08
 -1       675 1.57374E+05 1.36745E+04 2.49573E+04 6.28629E+04-1.28466E-09 1.52977E-09
 -1       676 1.87722E+01-2.24936E+05-8.71635E+02 3.39967E+01-4.39883E-10-2.79169E-09
 -1       677-2.31379E+02-2.25147E+05-1.59519E+03-6.79589E+01-4.24893E-09 8.78539E-10
 -1       678 1.54519E+02-2.24786E+05-2.81988E+03 3.39389E+01-8.00355E-11-1.98584E-10
 -1       679-2.82050E+03-2.26849E+05-6.69862E+03-6.77343E+01 8.93692E-10-6.90378E-10
 -1       680 1.68330E+03-2.23234E+05-1.07959E+04 3.33849E+01-3.81988E-11 2.35394E-09
 -1       771-2.40609E+06-4.43678E+05-6.31965E+04-1.02261E+06-1.30967E-08-1.05792E-08
 -1       772-2.38413E+06-4.81078E+05-3.36388E+04-1.06466E+06-9.25502E-09 3.57068E-09
 -1       773-2.41571E+06-4.36127E+05-1.50210E+04-1.02617E+06-5.36966E-09 5.40604E-09
 -1       774-2.37571E+06-4.74085E+05-7.17482E+03-1.07014E+06 5.77711E-09-6.65750E-10
 -1       775-2.41870E+06-4.34074E+05-3.98490E+03-1.02669E+06-6.66478E-09 2.59752E-09
 -1       776-2.37623E+06-4.74133E+05-1.73773E+03-1.07350E+06-1.02300E-08 4.66389E-09
 -1       777-2.42097E+06-4.32398E+05-1.30766E+03-1.02708E+06-9.67702E-10 3.30874E-09
 -1       778-2.37724E+06-4.74351E+05-4.95615E+02-1.07633E+06-5.09317E-10 4.53474E-09
 -1       779-2.42283E+06-4.30974E+05-5.89978E+02-1.02743E+06-5.10045E-09-2.89037E-09
 -1       780-2.37818E+06-4.74514E+05-2.92545E+02-1.07861E+06-2.36105E-09 1.36424E-12
 -1       781-2.42426E+06-4.29841E+05-5.39260E+02-1.02770E+06-5.28962E-09-8.82210E-11
 -1       782-2.37897E+06-4.74655E+05-7.55950E+02-1.08029E+06-1.42027E-08-3.58045E-09
 -1       783-2.42519E+06-4.29084E+05-1.52819E+03-1.02787E+06-2.22644E-09-5.35863E-09
 -1       784-2.38032E+06-4.75654E+05-3.51973E+03-1.08127E+06-5.73709E-09 1.27329E-10
 -1       785-2.42504E+06-4.29168E+05-6.52952E+03-1.02750E+06-1.24237E-08 5.72709E-09
 -1       786 1.72664E+05-9.50963E+03 2.20009E+04-4.02216E+01 5.77826E-06 3.35476E-08
 -1       787 1.82198E+05 1.10092E+04 1.55650E+04 1.00198E+01 1.15110E-05 1.56069E-08
 -1       788 1.76342E+05-1.49074E+03 5.69422E+03-2.90548E+01 1.05698E-05-6.52722E-09
 -1       789 1.77913E+05 1.72485E+03 3.57746E+03-8.88381E+00 9.60404E-06 1.25008E-08
 -1       790 1.76949E+05-2.32848E+02 1.45508E+03-2.13192E+01 8.99738E-06-1.64010E-08
 -1       791 1.77205E+05 2.70364E+02 8.53165E+02-2.38057E+01 8.38347E-06 1.70963E-08
 -1       792 1.77051E+05-3.73490E+01 3.87107E+02-1.41329E+01 4.19536E-06-1.53905E-08
 -1       793 1.77090E+05 5.13464E+01 2.49026E+02-3.98123E+01 1.23671E-08-1.47558E-09
 -1       794 1.77065E+05-1.39729E+01 1.77376E+02-5.31235E+00 1.18899E-09 1.68706E-09
 -1       795 1.77097E+05 6.93884E+01 2.46314E+02-6.16672E+01-1.25480E-09-3.66857E-09
 -1       796 1.77044E+05-5.53742E+01 3.62760E+02 7.72253E+00 1.18957E-09-2.32893E-09
 -1       797 1.77260E+05 4.05312E+02 8.50202E+02-9.57533E+01-6.75744E-10 7.27663E-09
 -1       798 1.76902E+05-3.49651E+02 1.34034E+03 2.87744E+01 2.17443E-10 1.37715E-09
 -1       799 1.78265E+05 2.58162E+03 3.65256E+03-1.52246E+02-2.34777E-10-3.08114E-09
 -1       800 1.76038E+05-2.22993E+03 5.15898E+03 6.42157E+01 1.26379E-11 7.15613E-09
 -1       801 1.99280E+04-9.14607E+05-7.63818E+04 2.47957E+04 1.23364E-08-6.21640E-10
 -1       802-1.52182E+04-7.92746E+05-7.61611E+03-7.16246E+04 3.33484E-08 1.46156E-09
 -1       803-4.22421E+03-8.54641E+05 2.67353E+04 4.65191E+04 2.64590E-08 2.09172E-08
 -1       804 8.73811E+04-7.32999E+05 1.27582E+05-6.62544E+04 3.02844E-08 3.03354E-08
 -1       805-8.29859E+04-9.73833E+05 1.49190E+05 1.94197E+04 1.09503E-08 2.26330E-08
 -1       806-2.11079E+05-4.40644E+04-1.73684E+04-8.67404E+04 6.46196E-10 1.13046E-08
 -1       807-2.12198E+05-4.14799E+04-8.53276E+03-9.12341E+04 3.36513E-09 7.48605E-09
 -1       808-2.11565E+05-3.77964E+04-3.61961E+03-8.96930E+04 1.83036E-10-2.10207E-09
 -1       809-2.10384E+05-3.91032E+04-1.76961E+03-9.14704E+04-3.54703E-11-2.05455E-09
 -1       810-2.11640E+05-3.75760E+04-8.10397E+02-8.98233E+04 4.95675E-11 3.11707E-09
 -1       811-2.10244E+05-3.90089E+04-4.02091E+02-9.14481E+04 4.16549E-10 1.48157E-09
 -1       812-2.11653E+05-3.75931E+04-2.01104E+02-8.98229E+04-5.77347E-09-9.03287E-09
 -1       813-2.10226E+05-3.90112E+04-1.27460E+02-9.14363E+04-8.02629E-10 9.18999E-09
 -1       814-2.11650E+05-3.75996E+04-1.20649E+02-8.98199E+04-1.68893E-09 3.91310E-10
 -1       815-2.10228E+05-3.90133E+04-1.89730E+02-9.14324E+04 9.82254E-10 1.17097E-09
 -1       816-2.11637E+05-3.75985E+04-3.56189E+02-8.98173E+04 9.51877E-09-5.96083E-09
 -1       817-2.10288E+05-3.90474E+04-7.63682E+02-9.14253E+04 2.11112E-08-1.84718E-09
 -1       818-2.11591E+05-3.77061E+04-1.55663E+03-8.97664E+04 5.76347E-09-1.99198E-08
 -1       819-2.11147E+05-3.99823E+04-3.66328E+03-9.12174E+04 6.88078E-09-1.25056E-09
 -1       820-2.11295E+05-4.04752E+04-7.45560E+03-8.85848E+04 7.00493E-09 4.51337E-11
 -1       821-2.31612E+05 1.23899E+04-3.26140E+04-2.91493E+03-1.78321E-08 8.76753E-10
 -1       822-2.25250E+05-1.50772E+04-1.96617E+04 8.30316E+03-2.03886E-08-8.02015E-09
 -1       823-2.28252E+05 2.71759E+03-8.04171E+03-4.44285E+03 1.93102E-08-1.55542E-08
 -1       824-2.12844E+05-2.12353E+03-1.70580E+03 5.83369E+03-5.03491E-09-5.57145E-09
 -1       825-2.43963E+05-6.17638E+02-5.23555E+03-4.45281E+02 4.89393E-09 1.05380E-08
 -1       826-2.07995E+05 2.23149E+02 2.87365E+03-3.06248E+03 4.59318E-08 8.05426E-09
 -1       827-2.33069E+05 3.39298E+02-1.53081E+03 4.45274E+03 4.57564E-08 6.32559E-09
 -1       828-2.19679E+05-7.14701E+02 9.77645E+02-8.07705E+03 6.60580E-08 9.79753E-10
 -1       829-2.32373E+05 4.17180E+02-1.39521E+03 4.57001E+03 1.06076E-08-3.46634E-09
 -1       830-2.08504E+05 1.64027E+02 2.73855E+03-3.40978E+03-2.03951E-08 2.63691E-09
 -1       831-2.44153E+05-6.32339E+02-5.32215E+03-2.15249E+02-2.25936E-09 1.04808E-09
 -1       832-2.12232E+05-2.11402E+03-1.68177E+03 5.53923E+03-5.28799E-09 3.69675E-09
 -1       833-2.28668E+05 2.71754E+03-8.31679E+03-4.37842E+03-2.12844E-09 5.56065E-09
 -1       834-2.25739E+05-1.54720E+04-2.02357E+04 8.40930E+03-4.18713E-09-1.79170E-09
 -1       835-2.30709E+05 1.27873E+04-3.31652E+04-3.08552E+03 1.21846E-08-2.60479E-09
 -1       836-8.81910E+02 2.55727E+05 1.50533E+04-2.19065E+04 1.19962E-09 4.94401E-09
 -1       837 3.31449E+03 2.60390E+05 1.29510E+04-4.40058E+04 1.95428E-09 1.34416E-08
 -1       838-3.30410E+02 2.57003E+05 1.34917E+04-2.18315E+04 1.75714E-09 1.70123E-08
 -1       839 8.71384E+03 2.64412E+05 2.58133E+04-4.40349E+04 2.50839E-09 1.19806E-08
 -1       840-2.62193E+03 2.51664E+05 4.12872E+04-2.18759E+04 1.58980E-09 1.00047E-08
 -1       856-7.70028E+04 7.01990E+03-1.84994E+04-4.10862E+02-3.17823E-09 4.66116E-09
 -1       857-8.46440E+04-8.23357E+03-1.27363E+04 4.27001E+03-1.61367E-09 3.01043E-09
 -1       858-8.00219E+04 9.83597E+02-4.80101E+03-4.29835E+02-3.30721E-09-8.08086E-10
 -1       859-8.11771E+04-1.14368E+03-2.89939E+03 4.30021E+03-2.69733E-09-2.12611E-09
 -1       860-8.04732E+04 1.36785E+02-1.21865E+03-4.41185E+02 5.17559E-11 7.04119E-10
 -1       861-8.06572E+04-1.51004E+02-6.77851E+02 4.31572E+03-4.61096E-09 1.07160E-09
 -1       862-8.05435E+04 1.80538E+01-2.96699E+02-4.45377E+02 3.14609E-09 1.46721E-09
 -1       863-8.05737E+04-1.03402E+01-1.41961E+02 4.31759E+03 9.15436E-09-7.13821E-09
 -1       864-8.05569E+04-7.87257E-01-3.49605E+01-4.43062E+02 4.93253E-09 1.44162E-09
 -1       865-8.05462E+04 2.68765E+01 5.35365E+01 4.30594E+03 6.59401E-09-8.59327E-10
 -1       866-8.05696E+04-1.95405E+01 1.47061E+02-4.33718E+02 2.86036E-10-2.15388E-09
 -1       867-8.04667E+04 1.63503E+02 3.87130E+02 4.28058E+03 1.00931E-09-5.76068E-09
 -1       868-8.06334E+04-1.36046E+02 6.49342E+02-4.17708E+02-3.52338E-09-3.19312E-09
 -1       869-7.99832E+04 1.12996E+03 1.73825E+03 4.23855E+03-7.27641E-09-3.00747E-09
 -1       870-8.10484E+04-9.61348E+02 2.52134E+03-3.91691E+02-8.20592E-10-8.12406E-10
 -1       871-4.01279E+03-8.88429E+03-1.30447E+04 8.60146E+04 2.00271E-09 5.57520E-09
 -1       872-1.73881E+03-1.18087E+04-5.33411E+03 1.11513E+05 3.23871E-09 8.91305E-11
 -1       873-3.59698E+01-1.04426E+04 7.17537E+02 8.58253E+04 2.15368E-09 2.46848E-09
 -1       874 1.98685E+03-8.56964E+03 7.30103E+03 1.11552E+05 2.85718E-09 3.40651E-09
 -1       875 4.69831E+03-1.21772E+04 1.62199E+04 8.59831E+04 1.81080E-09 4.42515E-09
 -1       876 2.10975E+05 3.62402E+04 1.11919E+04 8.54657E+04-4.66400E-09-2.10457E-09
 -1       877 2.11637E+05 3.86753E+04 5.97672E+03 8.87508E+04-1.68689E-09-1.21202E-09
 -1       878 2.12021E+05 3.50020E+04 2.50399E+03 8.63852E+04 1.92745E-09 3.99655E-09
 -1       879 2.10115E+05 3.71587E+04 1.24741E+03 8.88294E+04-2.28533E-09 8.74229E-09
 -1       880 2.12097E+05 3.49882E+04 5.80823E+02 8.64227E+04 8.75843E-10 2.01692E-09
 -1       881 2.10014E+05 3.70942E+04 3.09537E+02 8.88136E+04 3.92436E-09-2.89627E-09
 -1       882 2.12104E+05 3.49974E+04 1.96971E+02 8.64238E+04 6.51778E-09-2.87206E-09
 -1       883 2.10006E+05 3.70911E+04 2.10030E+02 8.88090E+04 9.05573E-10-3.03640E-09
 -1       884 2.12100E+05 3.49951E+04 3.32558E+02 8.64240E+04 8.35485E-10-2.05205E-11
 -1       885 2.10033E+05 3.70959E+04 6.67663E+02 8.88173E+04 5.91136E-09 3.07932E-09
 -1       886 2.12074E+05 3.49755E+04 1.34520E+03 8.64213E+04 1.14348E-09 2.72735E-09
 -1       887 2.10269E+05 3.72509E+04 2.93828E+03 8.88514E+04-6.45525E-09 8.37417E-09
 -1       888 2.11889E+05 3.50082E+04 5.92071E+03 8.63272E+04-2.93801E-09-2.08456E-09
 -1       889 2.13797E+05 4.09142E+04 1.41441E+04 8.87400E+04 3.21150E-09 1.77351E-11
 -1       890 2.09477E+05 3.78734E+04 2.64908E+04 8.40681E+04 7.52516E-09 8.73115E-10
 -1       891-1.30796E+02-1.19476E+05-1.41840E+03 2.23653E+04-9.39963E-10 7.01004E-09
 -1       892-2.27698E+02-1.19816E+05-1.53992E+03 3.38461E+04-2.90584E-10 9.38689E-09
 -1       893-3.65198E+01-1.19520E+05-2.19739E+03 2.23698E+04 2.85149E-09 6.18229E-09
 -1       894-1.19959E+03-1.20657E+05-4.56029E+03 3.37255E+04-1.62299E-09-1.05254E-08
 -1       895-9.37978E+02-1.18571E+05-8.03529E+03 2.24843E+04-6.75755E-10 1.29967E-09
 -1       956-2.66221E+05-3.83012E+03-9.64112E+03 1.78802E+04-3.12593E-09-7.71308E-09
 -1       957-2.68125E+05-1.29200E+03-4.94935E+03 2.15336E+04-4.42469E-09-2.13163E-10
 -1       958-2.67077E+05-1.02870E+02-2.22982E+03 1.77659E+04 2.78396E-09-4.74984E-09
 -1       959-2.67229E+05-1.73906E+01-1.13893E+03 2.16575E+04-1.21008E-09 3.56943E-09
 -1       960-2.67153E+05 3.24685E+01-5.55161E+02 1.77550E+04-3.20370E-09 5.35306E-09
 -1       961-2.67164E+05 3.08058E+01-2.94379E+02 2.16699E+04-2.68074E-09 1.38834E-09
 -1       962-2.67169E+05 2.87147E+01-1.68175E+02 1.77534E+04-3.02066E-09 1.05638E-09
 -1       963-2.67161E+05 3.20952E+01-1.34409E+02 2.16721E+04-6.69172E-09 7.84053E-09
 -1       964-2.67172E+05 3.06264E+01-1.62437E+02 1.77528E+04-1.10970E-09-4.26621E-09
 -1       965-2.67171E+05 3.49884E+01-2.80081E+02 2.16722E+04 2.92016E-09 5.50131E-10
 -1       966-2.67164E+05 3.81102E+01-5.25413E+02 1.77533E+04-2.14072E-09 2.74861E-09
 -1       967-2.67240E+05-6.51851E+00-1.07744E+03 2.16652E+04-7.77618E-11-5.26825E-10
 -1       968-2.67097E+05-8.60612E+01-2.10845E+03 1.77599E+04 9.11996E-10-3.28754E-09
 -1       969-2.68095E+05-1.20861E+03-4.68133E+03 2.15885E+04 7.81938E-10-4.07789E-09
 -1       970-2.66293E+05-3.60910E+03-9.11826E+03 1.78323E+04 1.17416E-09-2.19916E-09
 -1       971-2.51308E+05-1.31373E+03-7.30495E+03 1.21290E+04-3.05863E-09 1.23632E-09
 -1       972-2.53084E+05-9.41532E+02-3.97830E+03 1.69401E+04-1.27261E-09-7.05222E-09
 -1       973-2.52120E+05-8.35946E+00-1.78138E+03 1.20278E+04-1.65983E-09-4.91377E-09
 -1       974-2.52243E+05-8.18801E+00-9.22914E+02 1.70492E+04-2.22826E-10 2.09297E-09
 -1       975-2.52183E+05 2.56687E+01-4.60352E+02 1.20187E+04 2.85263E-09-4.81964E-09
 -1       976-2.52193E+05 2.99174E+01-2.63915E+02 1.70603E+04-7.31234E-10-4.10307E-09
 -1       977-2.52195E+05 2.53714E+01-1.88492E+02 1.20167E+04-2.38742E-10 2.84945E-09
 -1       978-2.52196E+05 3.40960E+01-2.16448E+02 1.70632E+04 6.34117E-09-1.45246E-09
 -1       979-2.52194E+05 3.11715E+01-3.44185E+02 1.20158E+04 3.39446E-09-1.42109E-11
 -1       980-2.52221E+05 3.61923E+01-6.62335E+02 1.70637E+04 5.24830E-09-1.56228E-09
 -1       981-2.52173E+05 4.76795E+01-1.28159E+03 1.20162E+04 3.19233E-10 3.75837E-09
 -1       982-2.52397E+05-5.83437E+01-2.64834E+03 1.70586E+04-2.62344E-09-8.07558E-09
 -1       983-2.52012E+05-3.41409E+01-5.14535E+03 1.20211E+04 3.41129E-09 2.87844E-09
 -1       984-2.54872E+05-2.74515E+03-1.15222E+04 1.69901E+04-2.09002E-09 8.91373E-09
 -1       985-2.49683E+05-3.79900E+03-2.11585E+04 1.20894E+04 1.85582E-09 5.62795E-09
 -3
    1PSTEP                        11           6           1          
  100CL  106 5.39062E-01         409                     0    6           1
 -4  DISP        4    1
 -5  D1          1    2    1    0
 -5  D2          1    2    2    0
 -5  D3          1    2    3    0
 -5  ALL         1    2    0    0    1ALL
 -1         1 1.83158E-04 0.00000E+00 0.00000E+00
 -1         2 1.62689E-04 1.74058E-30 0.00000E+00
 -1         3 1.63619E-04-2.52532E-27 0.00000E+00
 -1         5 1.07196E-04-5.19817E-26-3.30872E-24
 -1         8 1.57746E-04-8.71085E-07 0.00000E+00
 -1         9 1.51554E-04-6.44688E-07 0.00000E+00
 -1        10 1.50557E-04-2.19928E-06-6.61744E-24
 -1        12 1.06931E-04 5.92321E-07 1.65436E-24
 -1        15 1.27428E-04-9.68854E-07-4.13590E-25
 -1        16 1.32472E-04-8.44154E-07 0.00000E+00
 -1        17 1.09268E-04-4.69367E-06 0.00000E+00
 -1        18 1.04977E-04 4.80100E-06 0.00000E+00
 -1        19 1.06138E-04 1.18152E-06 0.00000E+00
 -1        20 1.06282E-04 1.31848E-05 0.00000E+00
 -1        21 1.05672E-04 2.38908E-05 3.30872E-24
 -1        24 2.23272E-05-6.57142E-06 0.00000E+00
 -1        25 1.04894E-04 4.93977E-06 0.00000E+00
 -1        26 1.05837E-04 1.64067E-06 0.00000E+00
 -1        27 1.04122E-04 1.05355E-05 0.00000E+00
 -1        28 1.03669E-04 2.33890E-05 0.00000E+00
 -1        32 0.00000E+00 0.00000E+00 0.00000E+00
 -1        33 1.04205E-04 2.20253E-06 0.00000E+00
 -1        34 1.02595E-04 1.05096E-05 0.00000E+00
 -1        35 1.01081E-04 2.31217E-05 0.00000E+00
 -1        51 1.81509E-04-1.44911E-07 0.00000E+00
 -1        52 1.78449E-04-2.83859E-07 0.00000E+00
 -1        53 1.74255E-04-4.24034E-07 0.00000E+00
 -1        54 1.69215E-04-5.67141E-07 0.00000E+00
 -1        55 1.63615E-04-7.14069E-07-5.37667E-24
 -1        56 1.81554E-04-8.48029E-07 0.00000E+00
 -1        57 1.80036E-04-2.10836E-06 2.64698E-23
 -1        58 1.78624E-04-3.64282E-06 0.00000E+00
 -1        59 1.77258E-04-5.33061E-06-2.64698E-23
 -1        60 1.75895E-04-7.02963E-06-5.29396E-23
 -1        61 1.74483E-04-8.60166E-06 0.00000E+00
 -1        62 1.72975E-04-9.91816E-06-5.29396E-23
 -1        63 1.71327E-04-1.08617E-05 0.00000E+00
 -1        64 1.69507E-04-1.13455E-05 0.00000E+00
 -1        65 1.67489E-04-1.13016E-05-2.64698E-23
 -1        66 1.65263E-04-1.07058E-05 5.29396E-23
 -1        67 1.62831E-04-9.55591E-06 0.00000E+00
 -1        68 1.60206E-04-7.89652E-06-5.29396E-23
 -1        69 1.57422E-04-5.78933E-06 2.64698E-23
 -1        70 1.54506E-04-3.34022E-06 2.64698E-23
 -1        86 1.62355E-04-1.00657E-07 0.00000E+00
 -1        87 1.61355E-04-2.02269E-07 0.00000E+00
 -1        88 1.59724E-04-3.04751E-07 3.30872E-24
 -1        89 1.57501E-04-4.11650E-07-3.30872E-24
 -1        90 1.54754E-04-5.18670E-07-1.32349E-23
 -1       121 1.63254E-04-3.63460E-07 1.32349E-23
 -1       122 1.62158E-04-7.27439E-07-6.61744E-24
 -1       123 1.60336E-04-1.09245E-06 0.00000E+00
 -1       124 1.57790E-04-1.45906E-06 6.61744E-24
 -1       125 1.54528E-04-1.82765E-06-1.32349E-23
 -1       191 1.07188E-04 9.87250E-08-6.61744E-24
 -1       192 1.07166E-04 1.97449E-07 1.65436E-24
 -1       193 1.07130E-04 2.96172E-07-3.30872E-24
 -1       194 1.07078E-04 3.94894E-07 0.00000E+00
 -1       195 1.07012E-04 4.93611E-07 3.30872E-24
 -1       251 1.57355E-04 3.86195E-06-1.32349E-23
 -1       252 1.56964E-04 7.92272E-06 0.00000E+00
 -1       253 1.56577E-04 1.10107E-05 0.00000E+00
 -1       254 1.56192E-04 1.28406E-05-6.61744E-24
 -1       255 1.55809E-04 1.33633E-05 0.00000E+00
 -1       256 1.55425E-04 1.25501E-05 0.00000E+00
 -1       257 1.55040E-04 1.06234E-05 0.00000E+00
 -1       258 1.54653E-04 7.82272E-06 0.00000E+00
 -1       259 1.54265E-04 4.55187E-06 1.32349E-23
 -1       260 1.53876E-04 1.22200E-06-6.61744E-24
 -1       261 1.53489E-04-1.74463E-06-1.32349E-23
 -1       262 1.53103E-04-3.93156E-06-6.61744E-24
 -1       263 1.52719E-04-5.06868E-06-1.32349E-23
 -1       264 1.52334E-04-4.90234E-06 6.61744E-24
 -1       265 1.51949E-04-3.42376E-06 0.00000E+00
 -1       266 1.52693E-04-8.99483E-07 6.61744E-24
 -1       267 1.47640E-04-9.14303E-07-1.65436E-24
 -1       268 1.42587E-04-9.29982E-07 1.65436E-24
 -1       269 1.37534E-04-9.43114E-07 0.00000E+00
 -1       270 1.32481E-04-9.56186E-07 0.00000E+00
 -1       271 1.54725E-04 3.08638E-06 0.00000E+00
 -1       272 1.52080E-04 5.91587E-06 0.00000E+00
 -1       273 1.49826E-04 7.71763E-06 5.29396E-23
 -1       274 1.47914E-04 8.58999E-06-2.64698E-23
 -1       275 1.46306E-04 8.65381E-06 0.00000E+00
 -1       276 1.44950E-04 8.04157E-06 0.00000E+00
 -1       277 1.43793E-04 6.89884E-06-5.29396E-23
 -1       278 1.42776E-04 5.38020E-06 0.00000E+00
 -1       279 1.41839E-04 3.64721E-06 0.00000E+00
 -1       280 1.40920E-04 1.86527E-06 2.64698E-23
 -1       281 1.39958E-04 2.00524E-07 0.00000E+00
 -1       282 1.38892E-04-1.18276E-06 0.00000E+00
 -1       283 1.37661E-04-2.12580E-06 0.00000E+00
 -1       284 1.36213E-04-2.47588E-06-1.32349E-23
 -1       285 1.34490E-04-2.09480E-06-2.64698E-23
 -1       301 1.48021E-04-6.92397E-07 0.00000E+00
 -1       302 1.44516E-04-7.17681E-07 6.61744E-24
 -1       303 1.41124E-04-7.41448E-07 6.61744E-24
 -1       304 1.37930E-04-7.65373E-07 0.00000E+00
 -1       305 1.35019E-04-7.90585E-07-1.32349E-23
 -1       306 1.49634E-04-2.24878E-06-5.29396E-23
 -1       307 1.50685E-04-1.21085E-05 0.00000E+00
 -1       308 1.54126E-04-2.85584E-05 5.29396E-23
 -1       309 1.59153E-04-4.95059E-05-2.64698E-23
 -1       310 1.64690E-04-7.18981E-05 0.00000E+00
 -1       311 1.69623E-04-9.25847E-05 0.00000E+00
 -1       312 1.72953E-04-1.08778E-04 5.29396E-23
 -1       313 1.73760E-04-1.18004E-04-2.64698E-23
 -1       314 1.71616E-04-1.19263E-04 0.00000E+00
 -1       315 1.66277E-04-1.12096E-04-2.64698E-23
 -1       316 1.58181E-04-9.78099E-05-5.29396E-23
 -1       317 1.47978E-04-7.81788E-05 2.64698E-23
 -1       318 1.36795E-04-5.60854E-05-5.29396E-23
 -1       319 1.25858E-04-3.45640E-05 0.00000E+00
 -1       320 1.16306E-04-1.65473E-05 0.00000E+00
 -1       336 1.45795E-04-2.60296E-06 0.00000E+00
 -1       337 1.40159E-04-3.01153E-06 0.00000E+00
 -1       338 1.33667E-04-3.42496E-06 0.00000E+00
 -1       339 1.26339E-04-3.84329E-06 0.00000E+00
 -1       340 1.18198E-04-4.26771E-06 1.32349E-23
 -1       406 1.06836E-04 6.91019E-07-3.30872E-24
 -1       407 1.06726E-04 7.89683E-07 1.65436E-24
 -1       408 1.06601E-04 8.88286E-07-6.61744E-24
 -1       409 1.06461E-04 9.86706E-07 1.65436E-24
 -1       410 1.06307E-04 1.08475E-06-3.30872E-24
 -1       521 1.36467E-04-2.11479E-05-5.29396E-23
 -1       522 1.54168E-04-8.29858E-05 0.00000E+00
 -1       523 1.81204E-04-1.76189E-04 0.00000E+00
 -1       524 2.13163E-04-2.87716E-04 0.00000E+00
 -1       525 2.45421E-04-4.00378E-04-1.05879E-22
 -1       526 2.73353E-04-4.96877E-04-5.29396E-23
 -1       527 2.92545E-04-5.63598E-04 1.05879E-22
 -1       528 2.98451E-04-5.89661E-04-5.29396E-23
 -1       529 2.88501E-04-5.73037E-04 0.00000E+00
 -1       530 2.61382E-04-5.15329E-04 0.00000E+00
 -1       531 2.20048E-04-4.26518E-04 0.00000E+00
 -1       532 1.69453E-04-3.18813E-04-5.29396E-23
 -1       533 1.17352E-04-2.08094E-04-1.05879E-22
 -1       534 7.17620E-05-1.10419E-04 0.00000E+00
 -1       535 3.86751E-05-3.93573E-05 0.00000E+00
 -1       536 1.09055E-04 7.97824E-06-6.61744E-24
 -1       537 1.08746E-04 2.73254E-05 0.00000E+00
 -1       538 1.08360E-04 5.05303E-05 0.00000E+00
 -1       539 1.07952E-04 7.47557E-05-1.65436E-24
 -1       540 1.07589E-04 9.68970E-05-3.30872E-24
 -1       541 1.07323E-04 1.13861E-04 0.00000E+00
 -1       542 1.07145E-04 1.23884E-04 0.00000E+00
 -1       543 1.07015E-04 1.25239E-04 1.65436E-24
 -1       544 1.06864E-04 1.18395E-04 0.00000E+00
 -1       545 1.06634E-04 1.03868E-04-1.65436E-24
 -1       546 1.06321E-04 8.41252E-05-3.30872E-24
 -1       547 1.05952E-04 6.16657E-05 1.65436E-24
 -1       548 1.05594E-04 3.96882E-05 0.00000E+00
 -1       549 1.05308E-04 2.13894E-05 0.00000E+00
 -1       550 1.05107E-04 9.02120E-06 0.00000E+00
 -1       551 9.77261E-05-4.96770E-06-6.61744E-24
 -1       552 8.40305E-05-5.26235E-06 0.00000E+00
 -1       553 6.89066E-05-5.57539E-06 4.96308E-24
 -1       554 5.30912E-05-5.90047E-06 6.61744E-24
 -1       555 3.73208E-05-6.22769E-06 2.64698E-23
 -1       556 1.06140E-04 3.39322E-06 2.64698E-23
 -1       557 1.03705E-04 9.70553E-06 0.00000E+00
 -1       558 1.01889E-04 1.43986E-05 0.00000E+00
 -1       559 1.00625E-04 1.76405E-05 0.00000E+00
 -1       560 9.98469E-05 1.95993E-05 0.00000E+00
 -1       561 9.94892E-05 2.04438E-05 0.00000E+00
 -1       562 9.94866E-05 2.03436E-05 0.00000E+00
 -1       563 9.97748E-05 1.94680E-05 0.00000E+00
 -1       564 1.00289E-04 1.79870E-05 0.00000E+00
 -1       565 1.00967E-04 1.60703E-05 0.00000E+00
 -1       566 1.01744E-04 1.38880E-05 0.00000E+00
 -1       567 1.02556E-04 1.16101E-05-3.61892E-25
 -1       568 1.03340E-04 9.40683E-06 0.00000E+00
 -1       569 1.04034E-04 7.44796E-06 0.00000E+00
 -1       570 1.04572E-04 5.90347E-06 0.00000E+00
 -1       571 1.05047E-04 4.59479E-06 0.00000E+00
 -1       572 1.05119E-04 4.34225E-06 4.13590E-25
 -1       573 1.05192E-04 4.05230E-06 1.65436E-24
 -1       574 1.05264E-04 3.73435E-06 8.27181E-25
 -1       575 1.05337E-04 3.39781E-06 0.00000E+00
 -1       576 1.05410E-04 3.05216E-06 8.27181E-25
 -1       577 1.05483E-04 2.70691E-06 3.30872E-24
 -1       578 1.05556E-04 2.37154E-06-1.65436E-24
 -1       579 1.05629E-04 2.05555E-06 0.00000E+00
 -1       580 1.05701E-04 1.76843E-06 0.00000E+00
 -1       581 1.05774E-04 1.51970E-06 0.00000E+00
 -1       582 1.05847E-04 1.31883E-06 0.00000E+00
 -1       583 1.05920E-04 1.17529E-06 0.00000E+00
 -1       584 1.05993E-04 1.09848E-06 0.00000E+00
 -1       585 1.06066E-04 1.09769E-06 0.00000E+00
 -1       586 1.04923E-04 4.82563E-06 1.65436E-24
 -1       587 1.04843E-04 4.84967E-06 4.13590E-25
 -1       588 1.04768E-04 4.87344E-06 0.00000E+00
 -1       589 1.04729E-04 4.89680E-06 0.00000E+00
 -1       590 1.04761E-04 4.91945E-06 0.00000E+00
 -1       591 1.05020E-04 4.63855E-06-3.87741E-26
 -1       592 1.05073E-04 4.44341E-06 0.00000E+00
 -1       593 1.05136E-04 4.22212E-06-4.13590E-25
 -1       594 1.05205E-04 3.98054E-06 0.00000E+00
 -1       595 1.05280E-04 3.72459E-06-4.13590E-25
 -1       596 1.05359E-04 3.46014E-06-2.06795E-25
 -1       597 1.05438E-04 3.19307E-06 0.00000E+00
 -1       598 1.05516E-04 2.92924E-06 0.00000E+00
 -1       599 1.05590E-04 2.67453E-06 0.00000E+00
 -1       600 1.05659E-04 2.43479E-06-2.06795E-25
 -1       601 1.05720E-04 2.21590E-06-4.13590E-25
 -1       602 1.05772E-04 2.02373E-06-1.03398E-25
 -1       603 1.05811E-04 1.86415E-06-2.58494E-25
 -1       604 1.05836E-04 1.74310E-06 0.00000E+00
 -1       605 1.05844E-04 1.66639E-06 8.27181E-25
 -1       606 1.06151E-04 1.43078E-06 0.00000E+00
 -1       607 1.06161E-04 1.77625E-06-1.65436E-24
 -1       608 1.06170E-04 2.21229E-06 0.00000E+00
 -1       609 1.06179E-04 2.73253E-06 0.00000E+00
 -1       610 1.06188E-04 3.33057E-06 0.00000E+00
 -1       611 1.06197E-04 3.99992E-06-1.65436E-24
 -1       612 1.06206E-04 4.73407E-06 0.00000E+00
 -1       613 1.06214E-04 5.52653E-06 0.00000E+00
 -1       614 1.06223E-04 6.37080E-06 0.00000E+00
 -1       615 1.06232E-04 7.26036E-06-8.27181E-25
 -1       616 1.06240E-04 8.18872E-06 0.00000E+00
 -1       617 1.06249E-04 9.14938E-06 0.00000E+00
 -1       618 1.06257E-04 1.01358E-05 0.00000E+00
 -1       619 1.06265E-04 1.11415E-05 0.00000E+00
 -1       620 1.06274E-04 1.21601E-05-4.13590E-25
 -1       621 1.06002E-04 1.25812E-06 0.00000E+00
 -1       622 1.05915E-04 1.33504E-06-8.27181E-25
 -1       623 1.05865E-04 1.41196E-06 1.65436E-24
 -1       624 1.05843E-04 1.48876E-06 0.00000E+00
 -1       625 1.05837E-04 1.56542E-06 0.00000E+00
 -1       626 1.06128E-04 1.45655E-06 0.00000E+00
 -1       627 1.06088E-04 1.81076E-06 0.00000E+00
 -1       628 1.06022E-04 2.23647E-06 0.00000E+00
 -1       629 1.05932E-04 2.72548E-06-1.65436E-24
 -1       630 1.05822E-04 3.26961E-06 3.30872E-24
 -1       631 1.05694E-04 3.86062E-06 1.65436E-24
 -1       632 1.05551E-04 4.49024E-06 0.00000E+00
 -1       633 1.05397E-04 5.15027E-06 0.00000E+00
 -1       634 1.05235E-04 5.83244E-06 0.00000E+00
 -1       635 1.05067E-04 6.52852E-06 1.65436E-24
 -1       636 1.04898E-04 7.23028E-06 0.00000E+00
 -1       637 1.04729E-04 7.92946E-06 0.00000E+00
 -1       638 1.04564E-04 8.61783E-06 0.00000E+00
 -1       639 1.04406E-04 9.28714E-06 0.00000E+00
 -1       640 1.04258E-04 9.92914E-06 0.00000E+00
 -1       656 1.05470E-04 1.27538E-05 6.61744E-24
 -1       657 1.05029E-04 1.23055E-05-6.61744E-24
 -1       658 1.04824E-04 1.18586E-05 0.00000E+00
 -1       659 1.04711E-04 1.14120E-05 0.00000E+00
 -1       660 1.04531E-04 1.09641E-05 0.00000E+00
 -1       661 1.05981E-04 1.41798E-05 8.27181E-25
 -1       662 1.05707E-04 1.51145E-05 8.27181E-25
 -1       663 1.05454E-04 1.59911E-05 1.65436E-24
 -1       664 1.05222E-04 1.68131E-05-8.27181E-25
 -1       665 1.05010E-04 1.75833E-05-1.65436E-24
 -1       666 1.04816E-04 1.83046E-05 8.27181E-25
 -1       667 1.04639E-04 1.89798E-05 1.65436E-24
 -1       668 1.04479E-04 1.96116E-05 0.00000E+00
 -1       669 1.04334E-04 2.02025E-05-1.65436E-24
 -1       670 1.04204E-04 2.07550E-05 0.00000E+00
 -1       671 1.04087E-04 2.12715E-05 0.00000E+00
 -1       672 1.03982E-04 2.17543E-05 8.27181E-25
 -1       673 1.03890E-04 2.22055E-05 0.00000E+00
 -1       674 1.03807E-04 2.26271E-05 0.00000E+00
 -1       675 1.03736E-04 2.30216E-05 0.00000E+00
 -1       676 1.05337E-04 2.38067E-05 0.00000E+00
 -1       677 1.05003E-04 2.37226E-05 0.00000E+00
 -1       678 1.04668E-04 2.36385E-05 3.30872E-24
 -1       679 1.04334E-04 2.35548E-05 8.27181E-25
 -1       680 1.04001E-04 2.34710E-05 0.00000E+00
 -1       771 1.66086E-05 5.22954E-06 0.00000E+00
 -1       772 1.16999E-05 1.49071E-05 0.00000E+00
 -1       773 7.56490E-06 2.25732E-05 0.00000E+00
 -1       774 4.15232E-06 2.83499E-05 0.00000E+00
 -1       775 1.41151E-06 3.23625E-05 0.00000E+00
 -1       776-7.10390E-07 3.47423E-05 0.00000E+00
 -1       777-2.26675E-06 3.56236E-05-5.29396E-23
 -1       778-3.31217E-06 3.51455E-05 0.00000E+00
 -1       779-3.90160E-06 3.34499E-05-5.29396E-23
 -1       780-4.09097E-06 3.06822E-05 0.00000E+00
 -1       781-3.93636E-06 2.69905E-05 0.00000E+00
 -1       782-3.49465E-06 2.25253E-05 0.00000E+00
 -1       783-2.82274E-06 1.74389E-05-2.64698E-23
 -1       784-1.97808E-06 1.18855E-05 0.00000E+00
 -1       785-1.01810E-06 6.02048E-06-2.64698E-23
 -1       786 1.04949E-04 4.59736E-06 0.00000E+00
 -1       787 1.05007E-04 4.28111E-06 0.00000E+00
 -1       788 1.05066E-04 3.98636E-06 0.00000E+00
 -1       789 1.05125E-04 3.70856E-06 8.27181E-25
 -1       790 1.05184E-04 3.44545E-06 0.00000E+00
 -1       791 1.05244E-04 3.19482E-06 0.00000E+00
 -1       792 1.05303E-04 2.95617E-06-1.65436E-24
 -1       793 1.05363E-04 2.72902E-06 0.00000E+00
 -1       794 1.05422E-04 2.51447E-06 0.00000E+00
 -1       795 1.05481E-04 2.31367E-06 0.00000E+00
 -1       796 1.05541E-04 2.12963E-06 0.00000E+00
 -1       797 1.05600E-04 1.96543E-06 0.00000E+00
 -1       798 1.05660E-04 1.82684E-06 0.00000E+00
 -1       799 1.05719E-04 1.71972E-06 8.27181E-25
 -1       800 1.05778E-04 1.65424E-06-1.65436E-24
 -1       801 9.76329E-05 4.30687E-06 1.32349E-23
 -1       802 7.51516E-05 3.43270E-06-6.61744E-24
 -1       803 4.61868E-05 2.40955E-06 1.32349E-23
 -1       804 1.96621E-05 1.44344E-06 0.00000E+00
 -1       805 2.15606E-06 6.58973E-07 2.64698E-23
 -1       806 1.04937E-04 4.54719E-06 0.00000E+00
 -1       807 1.04973E-04 4.16712E-06-8.27181E-25
 -1       808 1.05002E-04 3.80396E-06-1.65436E-24
 -1       809 1.05023E-04 3.46124E-06 1.65436E-24
 -1       810 1.05035E-04 3.14250E-06 3.30872E-24
 -1       811 1.05036E-04 2.85119E-06 0.00000E+00
 -1       812 1.05026E-04 2.59076E-06 1.65436E-24
 -1       813 1.05003E-04 2.36465E-06 0.00000E+00
 -1       814 1.04966E-04 2.17630E-06-1.65436E-24
 -1       815 1.04914E-04 2.02913E-06 0.00000E+00
 -1       816 1.04844E-04 1.92658E-06 3.30872E-24
 -1       817 1.04757E-04 1.87206E-06 0.00000E+00
 -1       818 1.04651E-04 1.86900E-06 1.65436E-24
 -1       819 1.04524E-04 1.92081E-06 8.27181E-25
 -1       820 1.04375E-04 2.03087E-06-3.30872E-24
 -1       821 1.05759E-04 4.17808E-06 0.00000E+00
 -1       822 1.05651E-04 1.17520E-05 8.27181E-25
 -1       823 1.05532E-04 2.09075E-05-1.65436E-24
 -1       824 1.05427E-04 2.81832E-05-8.27181E-25
 -1       825 1.05341E-04 3.12227E-05 1.65436E-24
 -1       826 1.05254E-04 2.76851E-05 0.00000E+00
 -1       827 1.05137E-04 1.89892E-05 0.00000E+00
 -1       828 1.04982E-04 6.57317E-06 0.00000E+00
 -1       829 1.04827E-04-5.96239E-06 0.00000E+00
 -1       830 1.04707E-04-1.50162E-05 1.65436E-24
 -1       831 1.04618E-04-1.90133E-05 0.00000E+00
 -1       832 1.04533E-04-1.63969E-05 8.27181E-25
 -1       833 1.04430E-04-9.39021E-06 0.00000E+00
 -1       834 1.04310E-04-2.32157E-07 0.00000E+00
 -1       835 1.04201E-04 7.57529E-06-4.13590E-25
 -1       836 1.05729E-04 1.73426E-06 0.00000E+00
 -1       837 1.05502E-04 1.82987E-06 1.65436E-24
 -1       838 1.05196E-04 1.92531E-06-1.65436E-24
 -1       839 1.04851E-04 2.02013E-06 0.00000E+00
 -1       840 1.04508E-04 2.11479E-06 0.00000E+00
 -1       856 1.04097E-04 1.11242E-05 0.00000E+00
 -1       857 1.04069E-04 1.18234E-05 0.00000E+00
 -1       858 1.04042E-04 1.26157E-05 0.00000E+00
 -1       859 1.04013E-04 1.34836E-05-4.13590E-25
 -1       860 1.03985E-04 1.44096E-05 0.00000E+00
 -1       861 1.03956E-04 1.53761E-05 0.00000E+00
 -1       862 1.03927E-04 1.63654E-05 8.27181E-25
 -1       863 1.03898E-04 1.73599E-05 0.00000E+00
 -1       864 1.03870E-04 1.83420E-05-8.27181E-25
 -1       865 1.03841E-04 1.92938E-05 4.13590E-25
 -1       866 1.03812E-04 2.01979E-05 0.00000E+00
 -1       867 1.03783E-04 2.10366E-05-4.13590E-25
 -1       868 1.03755E-04 2.17924E-05 0.00000E+00
 -1       869 1.03726E-04 2.24480E-05 0.00000E+00
 -1       870 1.03698E-04 2.29859E-05 0.00000E+00
 -1       871 1.03750E-04 1.05343E-05 4.13590E-25
 -1       872 1.03491E-04 1.05308E-05 0.00000E+00
 -1       873 1.03294E-04 1.05269E-05 0.00000E+00
 -1       874 1.03112E-04 1.05225E-05 1.55096E-25
 -1       875 1.02895E-04 1.05175E-05 8.27181E-25
 -1       876 1.04001E-04 1.11343E-05 0.00000E+00
 -1       877 1.03861E-04 1.17865E-05 0.00000E+00
 -1       878 1.03705E-04 1.24858E-05 0.00000E+00
 -1       879 1.03533E-04 1.32262E-05 1.65436E-24
 -1       880 1.03348E-04 1.40015E-05 0.00000E+00
 -1       881 1.03152E-04 1.48058E-05 0.00000E+00
 -1       882 1.02947E-04 1.56331E-05 0.00000E+00
 -1       883 1.02737E-04 1.64774E-05-1.65436E-24
 -1       884 1.02522E-04 1.73326E-05 0.00000E+00
 -1       885 1.02305E-04 1.81929E-05 1.65436E-24
 -1       886 1.02088E-04 1.90522E-05-3.30872E-24
 -1       887 1.01874E-04 1.99045E-05-1.65436E-24
 -1       888 1.01665E-04 2.07438E-05 0.00000E+00
 -1       889 1.01462E-04 2.15640E-05 8.27181E-25
 -1       890 1.01268E-04 2.23591E-05 0.00000E+00
 -1       891 1.03357E-04 2.33443E-05-8.27181E-25
 -1       892 1.03027E-04 2.32994E-05 4.13590E-25
 -1       893 1.02656E-04 2.32545E-05-8.27181E-25
 -1       894 1.02222E-04 2.32098E-05 0.00000E+00
 -1       895 1.01705E-04 2.31651E-05-2.06795E-25
 -1       956 1.04106E-04 2.50039E-06 1.65436E-24
 -1       957 1.04006E-04 2.86167E-06 0.00000E+00
 -1       958 1.03905E-04 3.27946E-06-1.65436E-24
 -1       959 1.03804E-04 3.74644E-06-8.27181E-25
 -1       960 1.03703E-04 4.25530E-06 1.65436E-24
 -1       961 1.03602E-04 4.79867E-06 0.00000E+00
 -1       962 1.03501E-04 5.36919E-06 3.30872E-24
 -1       963 1.03400E-04 5.95949E-06 1.65436E-24
 -1       964 1.03299E-04 6.56220E-06 3.30872E-24
 -1       965 1.03198E-04 7.16993E-06 0.00000E+00
 -1       966 1.03097E-04 7.77532E-06 0.00000E+00
 -1       967 1.02996E-04 8.37100E-06 1.65436E-24
 -1       968 1.02895E-04 8.94958E-06 0.00000E+00
 -1       969 1.02794E-04 9.50373E-06 1.65436E-24
 -1       970 1.02694E-04 1.00261E-05-3.30872E-24
 -1       971 1.02501E-04 1.10101E-05 3.30872E-24
 -1       972 1.02407E-04 1.15927E-05-1.65436E-24
 -1       973 1.02312E-04 1.22482E-05 0.00000E+00
 -1       974 1.02217E-04 1.29674E-05-8.27181E-25
 -1       975 1.02122E-04 1.37408E-05 0.00000E+00
 -1       976 1.02026E-04 1.45589E-05 0.00000E+00
 -1       977 1.01931E-04 1.54124E-05 3.30872E-24
 -1       978 1.01836E-04 1.62916E-05 0.00000E+00
 -1       979 1.01741E-04 1.71873E-05 0.00000E+00
 -1       980 1.01646E-04 1.80899E-05-1.65436E-24
 -1       981 1.01550E-04 1.89900E-05 0.00000E+00
 -1       982 1.01455E-04 1.98781E-05 0.00000E+00
 -1       983 1.01360E-04 2.07447E-05 0.00000E+00
 -1       984 1.01266E-04 2.15804E-05 0.00000E+00
 -1       985 1.01172E-04 2.23758E-05 0.00000E+00
 -3
    1PSTEP                        12           6           1          
  100CL  106 5.39062E-01         409                     0    6           1
 -4  STRESS      6    1
 -5  SXX         1    4    1    1
 -5  SYY         1    4    2    2
 -5  SZZ         1    4    3    3
 -5  SXY         1    4    1    2
 -5  SYZ         1    4    2    3
 -5  SZX         1    4    3    1
 -1         1-2.25488E+06-9.61381E+05-4.76660E+05-1.24200E+06-4.51109E-10-1.45519E-11
 -1         2 2.61631E+03-2.84281E+05 8.52812E+03-8.14902E+02-8.98126E-11-1.20025E-08
 -1         3-2.35127E+02-1.03731E+06 2.48923E+02-5.99568E+02-3.16021E-10-2.59752E-09
 -1         5-2.29071E+00 2.82479E+05 7.37356E+00 9.53106E-02 2.03076E-11-1.24583E-08
 -1         8-1.07864E+06-3.95311E+05-1.02985E+05-5.57651E+05 6.34827E-10-4.22006E-10
 -1         9-2.17560E+06-7.10357E+05-2.71151E+05-6.72820E+05 4.92146E-09-9.44128E-09
 -1        10-9.26800E+02-1.08068E+06-1.48300E+03-4.05729E+03-5.76802E-09-3.26744E-09
 -1        12 7.34366E-01 2.82494E+05 2.38780E+02 7.54636E-01 8.77094E-11 6.51539E-09
 -1        15 2.00530E+03 1.10203E+03 6.48212E+03 4.38186E+00-1.48987E-10-2.47351E-08
 -1        16-2.84381E+06-1.24724E+06-4.62594E+05-1.32291E+06 1.17579E-08 1.33296E-08
 -1        17-1.27166E+06-7.17069E+05-2.45232E+05-6.36638E+05-6.08125E-09 6.08852E-09
 -1        18-3.96710E+04-1.44763E+04-3.16805E+04-7.34394E+04 4.61148E-09-2.20643E-09
 -1        19 8.89415E+04 1.04945E+05-6.19216E+02 1.79353E+04-3.86717E-10 1.09503E-09
 -1        20-4.28540E+04-4.22490E+05-9.35854E+04 2.84172E+04 4.15321E-09-3.49852E-10
 -1        21-3.89749E+01-2.40693E+05-7.70913E+02-5.52825E+01-3.76140E-09-3.02124E-09
 -1        24-3.10119E+06-7.88140E+05-3.53305E+05-1.12242E+06-4.01875E-08-1.47071E-08
 -1        25-4.99949E+04-3.63023E+05-6.60033E+04-1.20270E+05 1.26784E-10 3.17868E-09
 -1        26-6.38880E+03 7.49890E+04-1.16994E+04-5.28446E+03 4.49327E-09 6.22620E-09
 -1        27-4.91608E+04-2.27074E+05-8.27250E+04 5.39640E+04 1.16022E-08 7.61550E-10
 -1        28 1.85469E+04-6.72011E+04 1.36423E+04 2.01468E+04 2.91965E-09-4.84377E-10
 -1        32-1.07983E+06-1.02347E+06 1.82461E+05-5.74601E+05-2.41853E-08 4.52644E-09
 -1        33-1.34916E+05 6.79442E+04 2.41652E+04-3.66909E+04 9.91880E-10 7.33113E-09
 -1        34-1.72529E+05-1.74742E+04 4.43912E+02 5.43164E+04 2.87727E-09-1.26298E-09
 -1        35-1.88813E+04-2.67109E+04-1.05126E+03 4.19302E+04 4.31498E-09 1.33696E-09
 -1        51 2.08109E+04-3.54721E+05 5.09686E+04-9.67207E+05 1.45519E-11-7.79983E-09
 -1        52 1.13127E+04-3.51462E+05 3.19617E+04-1.12801E+06 5.09317E-10-6.11180E-09
 -1        53 7.34838E+03-3.66013E+05 2.48302E+04-9.63802E+05-2.18279E-11-9.41509E-09
 -1        54 2.03252E+04-3.64629E+05 3.69646E+04-1.13153E+06-2.18279E-11-2.30830E-08
 -1        55 3.98908E+04-3.78398E+05 6.42254E+04-9.63244E+05 7.13044E-10 2.63390E-09
 -1        56-4.31098E+06-4.82607E+05-3.50710E+05-1.66519E+06-1.24419E-09-1.18016E-08
 -1        57-4.46208E+06-7.90420E+05-2.36521E+05-1.64015E+06 2.18279E-09-1.51958E-08
 -1        58-4.38154E+06-5.93794E+05-8.24761E+04-1.64300E+06 1.18598E-09 1.53232E-08
 -1        59-4.38059E+06-6.59707E+05-4.92379E+04-1.66626E+06 4.00860E-10 9.72159E-09
 -1        60-4.39156E+06-6.09580E+05-1.92355E+04-1.64032E+06 3.25372E-09-7.96717E-10
 -1        61-4.37089E+06-6.39222E+05-1.09044E+04-1.66701E+06-2.43301E-09-3.00008E-09
 -1        62-4.39101E+06-6.13817E+05-5.20645E+03-1.64234E+06 1.73691E-09-8.54277E-09
 -1        63-4.37491E+06-6.31259E+05-4.16543E+03-1.66075E+06 1.09867E-09 3.13929E-09
 -1        64-4.38743E+06-6.17544E+05-4.68014E+03-1.64653E+06-1.11800E-09-3.62388E-09
 -1        65-4.38406E+06-6.25009E+05-9.25040E+03-1.65121E+06 1.09242E-09-2.87034E-08
 -1        66-4.38182E+06-6.20146E+05-1.62210E+04-1.65184E+06 2.25089E-09 2.61934E-10
 -1        67-4.40231E+06-6.32008E+05-4.12418E+04-1.63899E+06-1.91841E-09 1.25474E-08
 -1        68-4.36938E+06-6.10935E+05-6.91291E+04-1.65866E+06-5.12955E-10-3.42698E-09
 -1        69-4.47583E+06-7.36441E+05-1.98121E+05-1.61154E+06 1.43973E-09-1.75642E-08
 -1        70-4.30921E+06-5.18775E+05-2.93832E+05-1.67835E+06 2.24827E-09-1.12050E-09
 -1        86-1.31437E+03-2.87098E+05 9.10395E+03 4.07438E+02 1.11686E-09-9.99614E-09
 -1        87 8.69255E+03-2.81396E+05 1.90274E+04-1.57479E+03 1.86265E-09-9.46176E-09
 -1        88-7.36796E+03-2.89985E+05 2.91280E+04 1.16734E+03 2.61753E-09 2.85667E-09
 -1        89 5.48807E+04-2.60100E+05 7.85197E+04-2.88974E+03 3.91447E-09-1.53850E-08
 -1        90-4.73362E+04-3.08375E+05 1.11025E+05 1.72282E+03 3.83443E-09-1.86927E-08
 -1       121-3.44395E+02-1.03822E+06 1.26206E+02 2.99129E+02 6.13426E-10-8.51105E-09
 -1       122-1.49774E+02-1.03728E+06 5.29525E+02-1.19801E+03-2.23770E-09 1.63745E-08
 -1       123-3.95359E+02-1.03828E+06 7.41577E+02 8.94977E+02 1.77988E-09-7.97081E-09
 -1       124 8.34609E+02-1.03672E+06 2.18530E+03-2.58417E+03-4.14161E-09-1.57052E-08
 -1       125-1.01111E+03-1.03884E+06 3.23551E+03 1.68291E+03 2.72757E-09-1.90994E-10
 -1       191-2.65104E+00 2.82504E+05 8.96736E+00-4.78518E-02 6.57208E-11-1.15524E-08
 -1       192-2.96673E+00 2.82479E+05 1.56042E+01 4.30478E-01 1.19034E-10-2.83171E-08
 -1       193-4.44906E+00 2.82503E+05 2.91688E+01-3.84121E-01 1.22164E-10-2.54568E-08
 -1       194-5.14249E+00 2.82482E+05 5.90025E+01 1.02719E+00 7.42846E-11-3.11775E-08
 -1       195-7.90458E+00 2.82501E+05 1.15561E+02-6.47831E-01 2.45734E-10-2.21812E-08
 -1       251-1.09320E+06 5.00896E+03-1.19314E+04-9.27037E+03-4.46221E-11-1.19917E-09
 -1       252-1.09718E+06-5.76638E+03-8.18984E+03 1.14344E+04-3.61382E-10 1.10205E-08
 -1       253-1.09575E+06 7.18038E+02-3.22677E+03-4.71879E+03-1.20463E-09 1.61060E-09
 -1       254-1.09413E+06-8.54304E+02-1.58115E+03 7.80166E+02-1.16836E-09-9.16873E-09
 -1       255-1.09618E+06 5.93743E+01-9.23864E+02 1.38397E+03 3.94266E-10 4.87336E-09
 -1       256-1.09418E+06-8.00876E+01-1.28184E+02-1.05214E+04 5.34044E-10 4.18560E-09
 -1       257-1.09574E+06-2.12316E+01-1.06998E+02 6.58259E+03-2.18290E-09-7.78576E-09
 -1       258-1.09505E+06 1.21095E+02 3.07970E+02-1.79123E+04-1.58785E-09-3.61913E-09
 -1       259-1.09540E+06-6.93202E+01 6.10079E+02 8.77520E+03-1.69550E-09 4.73335E-09
 -1       260-1.09491E+06 5.34633E+02 1.51059E+03-1.84110E+04 7.99375E-10-1.90416E-08
 -1       261-1.09588E+06-4.26811E+02 2.51556E+03 7.08138E+03 1.51562E-09 1.02625E-08
 -1       262-1.09273E+06 3.06264E+03 6.55723E+03-1.18203E+04 2.79272E-10 2.27765E-08
 -1       263-1.09749E+06-2.65818E+03 9.97851E+03 2.18420E+03 2.54886E-10 4.72801E-09
 -1       264-1.08451E+06 1.95043E+04 2.80212E+04-8.37958E+02-1.47088E-09 1.06770E-08
 -1       265-1.10402E+06-1.68579E+04 3.90787E+04-3.90090E+03-1.69746E-09 8.86212E-09
 -1       266-3.63014E+04-1.69718E+04 8.51864E+04-9.37706E+01-7.27596E-11-2.73043E-08
 -1       267 4.20845E+04 1.97852E+04 6.02019E+04 1.08177E+02-1.96451E-10-6.85411E-08
 -1       268-5.64340E+03-2.80191E+03 2.23772E+04-1.37845E+01-1.58252E-10-3.79090E-08
 -1       269 6.66327E+03 3.35355E+03 1.45444E+04 1.60560E+01-2.06228E-10-3.83366E-08
 -1       270-1.00016E+03-5.51001E+02 7.02081E+03-2.17895E+00-1.33241E-10-2.57825E-08
 -1       271-3.41254E+06-4.27055E+05-2.59171E+05-1.32960E+06 8.54925E-10-3.79805E-09
 -1       272-3.50087E+06-6.20708E+05-1.66629E+05-1.33233E+06 2.24895E-09-1.59798E-08
 -1       273-3.46267E+06-4.90297E+05-6.12322E+04-1.31648E+06 7.22594E-10 1.89175E-10
 -1       274-3.44147E+06-5.43933E+05-3.42346E+04-1.35293E+06 2.41380E-09 6.31644E-09
 -1       275-3.47116E+06-4.95193E+05-1.42646E+04-1.31249E+06-3.35604E-10 3.64980E-09
 -1       276-3.43088E+06-5.38820E+05-7.54226E+03-1.35973E+06-1.64073E-09 7.87895E-09
 -1       277-3.47370E+06-4.94189E+05-3.71040E+03-1.31040E+06-9.19499E-10 1.60162E-09
 -1       278-3.42794E+06-5.40248E+05-2.66600E+03-1.36294E+06 2.31012E-09-9.27633E-09
 -1       279-3.47446E+06-4.93450E+05-2.84344E+03-1.30959E+06-1.59037E-09 9.03708E-09
 -1       280-3.42813E+06-5.41166E+05-5.21191E+03-1.36328E+06-8.38952E-10 4.02861E-09
 -1       281-3.47358E+06-4.93281E+05-9.48914E+03-1.31009E+06-8.71069E-10-6.66751E-09
 -1       282-3.43413E+06-5.45640E+05-2.27434E+04-1.36011E+06 4.30873E-10-2.19643E-10
 -1       283-3.46829E+06-4.89718E+05-4.05321E+04-1.31237E+06-6.78710E-10-5.42423E-09
 -1       284-3.47316E+06-5.96713E+05-1.10396E+05-1.34658E+06-1.82240E-10-9.15315E-09
 -1       285-3.43495E+06-4.48029E+05-1.71714E+05-1.32123E+06 9.87711E-10 2.78669E-09
 -1       301 2.11558E+04-5.27025E+04 1.56161E+05-1.01348E+05-4.29281E-10-2.55886E-09
 -1       302 2.22476E+04-1.31747E+04 1.03754E+05-1.49010E+05 1.48657E-09 6.63931E-10
 -1       303 1.12107E+03-3.72748E+04 8.16334E+04-1.01438E+05-6.59384E-10 4.33647E-09
 -1       304 2.77426E+04-7.48847E+03 1.22289E+05-1.48550E+05 1.03137E-09 1.24382E-08
 -1       305 2.68098E+04-5.73955E+04 1.97134E+05-1.01849E+05-6.69388E-10 7.04676E-09
 -1       306-5.67782E+06-6.12457E+05-4.29734E+05-2.14089E+06 1.50976E-09-3.84171E-09
 -1       307-5.63039E+06-1.15372E+06-2.79598E+05-2.28989E+06-1.80116E-08 1.46247E-09
 -1       308-5.82741E+06-6.63131E+05-1.00779E+05-2.00881E+06-1.11470E-09-8.65839E-10
 -1       309-5.46819E+06-1.09104E+06-5.84299E+04-2.45915E+06 1.48346E-08-5.39785E-09
 -1       310-5.85147E+06-6.63720E+05-2.27552E+04-1.98124E+06 1.34787E-09 9.34961E-09
 -1       311-5.47594E+06-1.02833E+06-9.34860E+03-2.40964E+06 1.81753E-08-1.46883E-09
 -1       312-5.81394E+06-7.29438E+05-1.23324E+04-2.05446E+06 9.33142E-10 1.70621E-09
 -1       313-5.59534E+06-8.64965E+05 4.33572E+03-2.20346E+06-1.14369E-08 1.26602E-08
 -1       314-5.71901E+06-8.36366E+05-1.60883E+04-2.17771E+06-4.27826E-09 1.35879E-09
 -1       315-5.80873E+06-6.68369E+05-6.72957E+03-1.98091E+06-1.14487E-08-1.55496E-08
 -1       316-5.60447E+06-9.23239E+05-2.96374E+04-2.27950E+06-2.24009E-08-2.04527E-08
 -1       317-5.99627E+06-5.66298E+05-6.68240E+04-1.85207E+06 2.32012E-08-1.18980E-08
 -1       318-5.54505E+06-9.29379E+05-1.12878E+05-2.31680E+06-2.28265E-08 7.98900E-09
 -1       319-6.08800E+06-7.70410E+05-3.27015E+05-1.82998E+06-1.25801E-08 1.85537E-10
 -1       320-5.51207E+06-7.23216E+05-4.88671E+05-2.29940E+06 1.73022E-08-7.24685E-09
 -1       336 5.61877E+02-1.12393E+06-6.32559E+03 2.36361E+03-1.09926E-08-1.11850E-08
 -1       337-2.33652E+03-1.12510E+06-7.00349E+03-5.83189E+03-2.02735E-08 3.73439E-09
 -1       338 3.78309E+02-1.12407E+06-9.21655E+03 3.44803E+03-1.46138E-08-8.89486E-10
 -1       339-9.52525E+03-1.12972E+06-2.01486E+04-7.95472E+03-2.62935E-08 2.25255E-08
 -1       340 6.31935E+03-1.11957E+06-3.12492E+04 4.46833E+03-1.71240E-08 6.56837E-09
 -1       406 1.91212E+01 2.82491E+05 4.71563E+02-1.13784E-01 2.89361E-10 2.00271E-09
 -1       407 1.65076E+02 2.82577E+05 1.00189E+03-4.08757E+00-2.21547E-11-1.00129E-08
 -1       408 5.16568E+02 2.82418E+05 2.00117E+03 4.30191E+00 3.43107E-10-5.59453E-09
 -1       409 2.16420E+03 2.83216E+05 4.50483E+03-4.23315E+01 1.00044E-11-8.42601E-09
 -1       410 6.21681E+03 2.81850E+05 9.19654E+03 3.98547E+01 2.66482E-10-4.79440E-09
 -1       521-8.17524E+06-7.90968E+05-7.90807E+05-2.55326E+06-9.94623E-09 9.37143E-09
 -1       522-5.66682E+06-2.10004E+06-2.02612E+05-3.95281E+06-1.10256E-07-4.93674E-09
 -1       523-8.17381E+06-3.38012E+05-1.55708E+05-1.79651E+06 4.10364E-09-3.95448E-08
 -1       524-6.03669E+06-2.27805E+06-3.55517E+04-4.96026E+06 1.25268E-07-1.03822E-07
 -1       525-8.17372E+06-3.37549E+05-4.32110E+04-1.76554E+06 9.21282E-08-5.37384E-08
 -1       526-5.58127E+06-1.94439E+06 1.34049E+05-4.10029E+06 2.94094E-08-1.27875E-08
 -1       527-8.29502E+06-9.17231E+05-2.15760E+05-2.46079E+06 6.25732E-10 6.91944E-09
 -1       528-5.75608E+06-8.97556E+05 2.71608E+05-2.31235E+06-5.26270E-08 2.92130E-09
 -1       529-7.65720E+06-1.62417E+06-2.34815E+05-3.26903E+06-3.94066E-08-1.81826E-08
 -1       530-7.76728E+06 4.03146E+05 1.58554E+05-1.32085E+06-9.11386E-08 8.15489E-08
 -1       531-6.59810E+06-1.98665E+06-6.21062E+04-3.64357E+06-9.72723E-08-5.82077E-10
 -1       532-9.30347E+06 9.99628E+05-3.02380E+04-1.23149E+06 1.20832E-07-8.99026E-08
 -1       533-6.45599E+06-1.99228E+06-1.30214E+05-3.67159E+06 4.65661E-08-1.46509E-07
 -1       534-8.31139E+06 4.05018E+05-2.06119E+05-1.23350E+06-3.12357E-08 1.16120E-07
 -1       535-7.34902E+06-1.55977E+06-7.40024E+05-3.40714E+06-1.27184E-08 7.65722E-08
 -1       536-3.90216E+05-1.90764E+04 3.32754E+04-1.33577E+04-6.72458E-10 1.85082E-08
 -1       537-3.31365E+05 2.13974E+04 3.13133E+04 3.20127E+04-3.74857E-08 1.91558E-08
 -1       538-3.61616E+05-2.06950E+03 9.96026E+03-1.95191E+04 4.74724E-09 2.76314E-08
 -1       539-3.48586E+05 3.05046E+03 8.20419E+03 3.48969E+04 3.49333E-08 4.23150E-08
 -1       540-3.73226E+05-5.38423E+02 4.48378E+01-1.62487E+04-1.11000E-08 3.04473E-08
 -1       541-3.12239E+05 1.98489E+03 1.10184E+04 1.99501E+04 4.19641E-09 2.74285E-08
 -1       542-3.96985E+05-1.81706E+03-6.86428E+03-4.55264E+03 1.87122E-08 1.29612E-08
 -1       543-2.96069E+05 2.21429E+03 1.29611E+04-5.98094E+03 2.63128E-09-5.37850E-09
 -1       544-3.88981E+05-1.13113E+03-6.21237E+03 9.66325E+03-1.78461E-08-1.08995E-08
 -1       545-3.30728E+05 1.12354E+02 4.48831E+03-2.87716E+04-5.26029E-09-1.41877E-08
 -1       546-3.63219E+05 1.02755E+03-3.10023E+03 1.82342E+04 1.45485E-09-2.54495E-08
 -1       547-3.55054E+05-3.39161E+03-5.29832E+03-3.65731E+04-3.09598E-08-2.71418E-08
 -1       548-3.65248E+05 2.87928E+03-1.17388E+04 1.74796E+04-3.03851E-08-2.67455E-08
 -1       549-3.32194E+05-1.72242E+04-2.09563E+04-2.58797E+04-1.76753E-08-1.19448E-08
 -1       550-3.85308E+05 1.41992E+04-4.79983E+04 7.52301E+03 2.61571E-09-1.05429E-08
 -1       551 1.72611E+04-5.80204E+05 2.43847E+04-9.65347E+05-4.70027E-08-9.15315E-09
 -1       552 3.91998E+04-5.91817E+05 3.18109E+04-1.37496E+06-3.65108E-08 4.88944E-09
 -1       553 2.79387E+04-5.97772E+05 4.65823E+04-9.61711E+05-5.79748E-08 8.14180E-09
 -1       554 6.58422E+04-5.87579E+05 9.75954E+04-1.37640E+06-3.49828E-08 1.01172E-08
 -1       555 5.61193E+04-6.16423E+05 1.73348E+05-9.62656E+05-5.77929E-08-3.00133E-09
 -1       556 1.00529E+05-1.86152E+05 6.21348E+04-2.35265E+05-6.70843E-09 7.27596E-11
 -1       557 1.76086E+05-2.47218E+05 3.28912E+04-2.95822E+05-1.98634E-09-1.39844E-08
 -1       558 9.87071E+04-1.93568E+05 1.29077E+04-2.28973E+05-6.50471E-09-1.24419E-09
 -1       559 1.63877E+05-2.55140E+05 6.67534E+03-3.01752E+05 9.24047E-09-7.33417E-09
 -1       560 9.51684E+04-1.91274E+05 2.53415E+03-2.31325E+05 4.78758E-09 1.39553E-08
 -1       561 1.58793E+05-2.53563E+05 1.43819E+03-3.05009E+05-9.24047E-10 7.27596E-10
 -1       562 9.23562E+04-1.89441E+05 4.35208E+02-2.33345E+05-2.67755E-09-6.02085E-09
 -1       563 1.55490E+05-2.52133E+05 3.52336E+02-3.07126E+05-3.53975E-09 7.62543E-09
 -1       564 9.05282E+04-1.88278E+05 9.63944E+01-2.34639E+05 5.55883E-09-5.32054E-10
 -1       565 1.53630E+05-2.51329E+05 1.14848E+02-3.08302E+05 6.67205E-09 1.26493E-08
 -1       566 8.97321E+04-1.87764E+05 1.88443E+01-2.35203E+05 3.41970E-10 1.34842E-08
 -1       567 1.53168E+05-2.51115E+05-5.33220E+01-3.08514E+05 7.73275E-09-1.34314E-08
 -1       568 9.00079E+04-1.87948E+05-2.84203E+02-2.35088E+05 2.50657E-09 2.91038E-11
 -1       569 1.53338E+05-2.50988E+05-6.83974E+02-3.07042E+05-1.22964E-09 2.75031E-09
 -1       570 9.19922E+04-1.89594E+05-1.61633E+03-2.34880E+05 6.90488E-09 7.78709E-09
 -1       571 2.07800E+05 7.60760E+03 1.12320E+04-5.44984E+04 6.12999E-10-4.74074E-10
 -1       572 2.09466E+05 2.66853E+03 5.50318E+03-5.97577E+04 1.51340E-09 1.26602E-09
 -1       573 2.08467E+05 6.58651E+02 2.44483E+03-5.43664E+04 1.79216E-09 3.26690E-09
 -1       574 2.08660E+05 2.38960E+02 1.22511E+03-5.99074E+04 1.13459E-10 1.02455E-08
 -1       575 2.08540E+05 5.95866E+01 5.77580E+02-5.43490E+04-6.52562E-10 8.56289E-09
 -1       576 2.08551E+05 4.24500E+01 2.94376E+02-5.99274E+04-2.89428E-09 1.11154E-08
 -1       577 2.08553E+05 2.60783E+01 1.45553E+02-5.43467E+04-2.15095E-09 9.78571E-09
 -1       578 2.08545E+05 3.00522E+01 8.05606E+01-5.99299E+04-1.83604E-09 5.86579E-09
 -1       579 2.08571E+05 2.03920E+01 5.11442E+01-5.43466E+04-8.82210E-10-1.05756E-08
 -1       580 2.08570E+05 1.92732E+01 5.12071E+01-5.99267E+04-2.76123E-09 1.96860E-09
 -1       581 2.08602E+05 7.81013E+00 7.26710E+01-5.43498E+04-1.51340E-09 1.23773E-08
 -1       582 2.08623E+05 1.94849E+01 1.41572E+02-5.98934E+04-4.87034E-10-6.81257E-09
 -1       583 2.08638E+05 4.93844E+01 2.72423E+02-5.43799E+04-7.42875E-09-5.86238E-09
 -1       584 2.08769E+05 2.62987E+02 6.12262E+02-5.96415E+04-1.81244E-08-1.19649E-08
 -1       585 2.08615E+05 7.99279E+02 1.24298E+03-5.46021E+04-9.50240E-09-6.83212E-09
 -1       586-2.52847E+03 6.85428E+04-3.19983E+03-1.87138E+05-4.35648E-10 1.29944E-09
 -1       587-5.63349E+02 6.81321E+04-1.79813E+02-2.05960E+05-1.63709E-10 1.17403E-08
 -1       588 7.21020E+02 6.81890E+04 2.70799E+03-1.87038E+05 1.27329E-10 5.92718E-09
 -1       589 3.78376E+03 6.96626E+04 7.64250E+03-2.05762E+05-7.02130E-10 3.15595E-09
 -1       590 1.10229E+04 6.73227E+04 1.62744E+04-1.87343E+05-2.52840E-10-3.42880E-09
 -1       591-4.04916E+04-1.14918E+04-1.44502E+04-2.07175E+04-2.58865E-10-6.93944E-09
 -1       592-4.20853E+04-1.48009E+04-7.82698E+03-2.42137E+04 2.71962E-09-1.01322E-08
 -1       593-4.19491E+04-1.04307E+04-3.25843E+03-2.17648E+04-8.28777E-11-7.45740E-09
 -1       594-4.00756E+04-1.26965E+04-1.62524E+03-2.43090E+04-2.59945E-10 6.68501E-09
 -1       595-4.20608E+04-1.04260E+04-7.47025E+02-2.18128E+04-1.29205E-09 2.77603E-09
 -1       596-3.99393E+04-1.26001E+04-3.81145E+02-2.42944E+04 1.17490E-09 1.27745E-08
 -1       597-4.20749E+04-1.04354E+04-2.10462E+02-2.18147E+04-5.17218E-10 9.95016E-09
 -1       598-3.99263E+04-1.25964E+04-1.74531E+02-2.42903E+04-9.47466E-10-1.81869E-08
 -1       599-4.20736E+04-1.04354E+04-2.29610E+02-2.18143E+04 1.38550E-09-1.76013E-08
 -1       600-3.99411E+04-1.26015E+04-4.31844E+02-2.42939E+04 4.53781E-10 3.53111E-10
 -1       601-4.20555E+04-1.04252E+04-8.54741E+02-2.18113E+04 2.69392E-09-3.92288E-09
 -1       602-4.00972E+04-1.27119E+04-1.86427E+03-2.43086E+04 5.19958E-09-8.54425E-09
 -1       603-4.19258E+04-1.04323E+04-3.73939E+03-2.17565E+04 3.14435E-09 7.40897E-09
 -1       604-4.24114E+04-1.51182E+04-8.98270E+03-2.41875E+04 3.06602E-09 3.37400E-09
 -1       605-4.02428E+04-1.16579E+04-1.65839E+04-2.05630E+04 1.66710E-09-7.93716E-09
 -1       606 2.71773E+04-1.00274E+04-1.80381E+04 2.69035E+04-2.78760E-09-4.07090E-09
 -1       607 2.40891E+04-3.24251E+03-8.98196E+03 3.02034E+04 3.56522E-10-7.84985E-09
 -1       608 2.58396E+04-5.54559E+02-4.02239E+03 2.66909E+04 2.71211E-09 2.90515E-09
 -1       609 2.54916E+04-1.51655E+02-2.03152E+03 3.04402E+04-2.59843E-09-8.54925E-10
 -1       610 2.56765E+04 1.74911E+01-9.70440E+02 2.66670E+04-7.49606E-09-7.06859E-09
 -1       611 2.56112E+04 3.03063E+01-4.89300E+02 3.04660E+04-8.85484E-09 3.84648E-09
 -1       612 2.56322E+04 3.41588E+01-2.33940E+02 2.66646E+04-1.53614E-09-1.99520E-09
 -1       613 2.56077E+04 3.97117E+01-1.06047E+02 3.04691E+04-3.73984E-09-8.04221E-09
 -1       614 2.56076E+04 3.54140E+01-2.84254E+01 2.66638E+04-9.72250E-10 5.90489E-10
 -1       615 2.55947E+04 4.58546E+01 3.62552E+01 3.04695E+04 5.66342E-09 1.19060E-08
 -1       616 2.55889E+04 4.17965E+01 1.16188E+02 2.66641E+04-1.81399E-09 1.40199E-09
 -1       617 2.56017E+04 7.48785E+01 2.68253E+02 3.04690E+04-1.61549E-09-2.41107E-09
 -1       618 2.55604E+04 1.22402E+02 5.41724E+02 2.66642E+04-3.52884E-10 4.66343E-10
 -1       619 2.57888E+04 4.96435E+02 1.21728E+03 3.04682E+04 1.21179E-09 5.12091E-09
 -1       620 2.53779E+04 1.40947E+03 2.44682E+03 2.66631E+04 3.03203E-09-4.13729E-09
 -1       621 3.10118E+02 2.20290E+05 2.73668E+03 1.28738E+04-6.67342E-11-5.54928E-09
 -1       622 3.61187E+02 2.20965E+05 2.36457E+03 1.87658E+04-5.17275E-11 2.72075E-09
 -1       623 1.65936E+01 2.20475E+05 2.77266E+03 1.28157E+04-8.44125E-12 2.19734E-09
 -1       624 1.27208E+03 2.21792E+05 5.31210E+03 1.88212E+04 1.29063E-10-1.03739E-09
 -1       625 1.27740E+03 2.19445E+05 9.25669E+03 1.28183E+04 1.68257E-11 5.78495E-10
 -1       626 1.86091E+05 5.07765E+04 3.79763E+03 9.95035E+04-7.63112E-09 1.27457E-08
 -1       627 1.83646E+05 5.25365E+04 1.83007E+03 1.03485E+05-1.54523E-08 3.13833E-09
 -1       628 1.86221E+05 4.89926E+04 7.72951E+02 1.00089E+05-6.44286E-09 3.05181E-09
 -1       629 1.83109E+05 5.20913E+04 3.78768E+02 1.03718E+05 4.08954E-09 7.70899E-09
 -1       630 1.86227E+05 4.89092E+04 1.74968E+02 1.00105E+05-1.50976E-10 5.99840E-09
 -1       631 1.83043E+05 5.20809E+04 9.37968E+01 1.03718E+05-3.01770E-09-1.72417E-09
 -1       632 1.86217E+05 4.89163E+04 6.11037E+01 1.00097E+05 1.16088E-08-1.62635E-09
 -1       633 1.83029E+05 5.20864E+04 6.71692E+01 1.03710E+05 2.32631E-08-9.94987E-10
 -1       634 1.86207E+05 4.89175E+04 1.07652E+02 1.00092E+05 1.99043E-08 5.20663E-09
 -1       635 1.83034E+05 5.20879E+04 2.17565E+02 1.03710E+05 2.16096E-09 1.38202E-08
 -1       636 1.86196E+05 4.89164E+04 4.39042E+02 1.00089E+05-4.26326E-12 6.54109E-09
 -1       637 1.83125E+05 5.21571E+04 9.64807E+02 1.03705E+05 5.91172E-12 5.75801E-09
 -1       638 1.86159E+05 4.91312E+04 1.98254E+03 9.99911E+04 3.94675E-09-1.51931E-09
 -1       639 1.84168E+05 5.36021E+04 4.69019E+03 1.03393E+05 4.82260E-10-3.86353E-09
 -1       640 1.86017E+05 5.34524E+04 9.73300E+03 9.81644E+04 5.74482E-09-7.35326E-10
 -1       656 5.00749E+04-1.27052E+06-1.20886E+05-4.20020E+02 5.60249E-10-5.54382E-09
 -1       657-6.62011E+04-1.32509E+06-1.00036E+05 7.52248E+03-5.72982E-11-2.20959E-08
 -1       658 1.59122E+04-1.28606E+06-6.14728E+04-1.74837E+03-3.17755E-10-1.61567E-09
 -1       659-7.12098E+04-1.32747E+06-1.06615E+05 8.45412E+03-8.41283E-10 4.30377E-09
 -1       660 5.50720E+04-1.26815E+06-1.32200E+05-1.35165E+03-5.23869E-10 1.23763E-08
 -1       661 1.65359E+05 1.79143E+04 1.61283E+04 6.46642E+04 1.23327E-09 9.97625E-09
 -1       662 1.73925E+05 3.04009E+04 1.08681E+04 6.16737E+04 2.99042E-09 1.80671E-09
 -1       663 1.68522E+05 2.30916E+04 3.80161E+03 6.37491E+04-4.99085E-11-2.62139E-09
 -1       664 1.70262E+05 2.43423E+04 2.27316E+03 6.27879E+04 1.19508E-09-1.15529E-09
 -1       665 1.68998E+05 2.38027E+04 8.96737E+02 6.36142E+04-1.49066E-09 2.36551E-09
 -1       666 1.69702E+05 2.35258E+04 5.23427E+02 6.29618E+04-2.68983E-09 6.45331E-09
 -1       667 1.69078E+05 2.38866E+04 2.76562E+02 6.35832E+04-4.09074E-10 7.66151E-09
 -1       668 1.69615E+05 2.34612E+04 2.78393E+02 6.30067E+04 3.18977E-09-7.63802E-09
 -1       669 1.69084E+05 2.38653E+04 3.74134E+02 6.35699E+04 3.92617E-10 1.57974E-08
 -1       670 1.69708E+05 2.36610E+04 8.12080E+02 6.30074E+04 5.26715E-09 3.69039E-09
 -1       671 1.68986E+05 2.36909E+04 1.44103E+03 6.35808E+04-1.78674E-09-2.76299E-09
 -1       672 1.70548E+05 2.50627E+04 3.68617E+03 6.28043E+04-7.23333E-10 2.62298E-09
 -1       673 1.68249E+05 2.24989E+04 6.17716E+03 6.37595E+04-1.09185E-09-8.76958E-09
 -1       674 1.76429E+05 3.49848E+04 1.76653E+04 6.10748E+04 7.23617E-11-1.01570E-08
 -1       675 1.63143E+05 1.40463E+04 2.62211E+04 6.52058E+04-8.42647E-10-4.48381E-09
 -1       676 2.00071E+01-2.40629E+05-9.29150E+02 2.76419E+01-1.99350E-09-8.87883E-09
 -1       677-2.46699E+02-2.40853E+05-1.70046E+03-5.52523E+01-2.25259E-09-1.65432E-08
 -1       678 1.64718E+02-2.40468E+05-3.00597E+03 2.75915E+01-7.00311E-10-1.77754E-09
 -1       679-3.00674E+03-2.42668E+05-7.14075E+03-5.50582E+01-3.79373E-10-1.22784E-08
 -1       680 1.79445E+03-2.38815E+05-1.15085E+04 2.71343E+01-7.22139E-10-8.08608E-09
 -1       771-2.56521E+06-4.90846E+05-7.15229E+04-1.10885E+06-1.27329E-08-5.98084E-09
 -1       772-2.53630E+06-5.35129E+05-3.78629E+04-1.15891E+06-1.08266E-08 3.75803E-09
 -1       773-2.57682E+06-4.81702E+05-1.72977E+04-1.11302E+06-3.56522E-09 5.76256E-09
 -1       774-2.52748E+06-5.27437E+05-8.16030E+03-1.16625E+06 1.23400E-08-2.56478E-10
 -1       775-2.58095E+06-4.78813E+05-4.79886E+03-1.11391E+06-1.80444E-09 1.04774E-09
 -1       776-2.52875E+06-5.27394E+05-2.02538E+03-1.17100E+06-3.46336E-09 2.55932E-09
 -1       777-2.58421E+06-4.76407E+05-1.68687E+03-1.11465E+06 6.40284E-10 2.53931E-09
 -1       778-2.53051E+06-5.27509E+05-5.87188E+02-1.17501E+06 2.18279E-09 5.33146E-09
 -1       779-2.58691E+06-4.74358E+05-7.66503E+02-1.11529E+06-6.23550E-09-3.12502E-09
 -1       780-2.53211E+06-5.27571E+05-2.76199E+02-1.17825E+06-4.37285E-09 7.33053E-10
 -1       781-2.58899E+06-4.72730E+05-5.20936E+02-1.11579E+06-1.40499E-08 4.83033E-09
 -1       782-2.53339E+06-5.27608E+05-5.16477E+02-1.18064E+06-1.99725E-08 3.72688E-09
 -1       783-2.59040E+06-4.71632E+05-1.06113E+03-1.11613E+06-6.27188E-09-4.97471E-09
 -1       784-2.53475E+06-5.28221E+05-2.32087E+03-1.18206E+06-8.86030E-09 1.21554E-09
 -1       785-2.59069E+06-4.71385E+05-4.33138E+03-1.11600E+06-1.79698E-08 5.19140E-09
 -1       786 1.65614E+05-9.74876E+03 2.25540E+04-7.71636E+01 1.50316E-09 3.73529E-09
 -1       787 1.75389E+05 1.12860E+04 1.59563E+04 1.92136E+01 2.05813E-09 8.55744E-09
 -1       788 1.69385E+05-1.52820E+03 5.83699E+03-5.83729E+01 8.18058E-10 1.00954E-10
 -1       789 1.70997E+05 1.76815E+03 3.66662E+03-1.14449E+01-2.24895E-11 2.09639E-09
 -1       790 1.70008E+05-2.38636E+02 1.49011E+03-4.65076E+01-1.06142E-10 8.71029E-09
 -1       791 1.70270E+05 2.76737E+02 8.71329E+02-3.28263E+01-7.25929E-10 5.85412E-09
 -1       792 1.70112E+05-3.79071E+01 3.90663E+02-3.69915E+01 4.89504E-11-4.82235E-09
 -1       793 1.70151E+05 4.98466E+01 2.41714E+02-5.23411E+01 3.03334E-11-4.11809E-09
 -1       794 1.70127E+05-1.18928E+01 1.57218E+02-2.69924E+01 5.02631E-10-5.10917E-09
 -1       795 1.70150E+05 5.30496E+01 1.95851E+02-7.56337E+01-4.61875E-10 1.11798E-08
 -1       796 1.70113E+05-4.11043E+01 2.74288E+02-1.36986E+01 5.11922E-10-6.31950E-09
 -1       797 1.70269E+05 2.99434E+02 6.30940E+02-1.09223E+02 2.77230E-10-8.07932E-09
 -1       798 1.70008E+05-2.58098E+02 9.90820E+02 6.59778E+00 5.05085E-11 4.28508E-09
 -1       799 1.71011E+05 1.90545E+03 2.69663E+03-1.62608E+02 4.05556E-10 1.04934E-08
 -1       800 1.69371E+05-1.64584E+03 3.80778E+03 3.96876E+01-1.01610E-10 3.06727E-10
 -1       801 5.11272E+04-1.87011E+06-1.69115E+05 3.42062E+04 1.51995E-08-6.97310E-09
 -1       802-5.69750E+04-1.70595E+06-6.58486E+04-6.16698E+04 4.08636E-08-6.43786E-09
 -1       803 5.18219E+03-1.78244E+06-9.87217E+03 8.72655E+04 3.17814E-08 2.56105E-08
 -1       804 5.20832E+04-1.65219E+06 7.77668E+04-4.17488E+04 3.43298E-08 3.36190E-08
 -1       805-5.86518E+04-1.92325E+06 7.68556E+04 1.42773E+04 1.29148E-08 2.37076E-08
 -1       806-2.29980E+05-4.63920E+04-1.81299E+04-9.28833E+04 3.41925E-09-5.17184E-09
 -1       807-2.31294E+05-4.35478E+04-8.90695E+03-9.74064E+04 1.46429E-08 1.11100E-10
 -1       808-2.30479E+05-3.98574E+04-3.77842E+03-9.59738E+04 4.57521E-09-2.68153E-09
 -1       809-2.29409E+05-4.10574E+04-1.84737E+03-9.76413E+04-3.30283E-09-6.88215E-09
 -1       810-2.30556E+05-3.96285E+04-8.46191E+02-9.61105E+04 4.73392E-10 7.22594E-10
 -1       811-2.29264E+05-4.09579E+04-4.20139E+02-9.76163E+04 1.36424E-11 3.71438E-09
 -1       812-2.30569E+05-3.96467E+04-2.10786E+02-9.61102E+04-4.12638E-09 3.11502E-11
 -1       813-2.29245E+05-4.09600E+04-1.34575E+02-9.76035E+04-4.72937E-10 2.11548E-09
 -1       814-2.30566E+05-3.96536E+04-1.29099E+02-9.61072E+04 3.83807E-10-3.13548E-09
 -1       815-2.29248E+05-4.09620E+04-2.04575E+02-9.75993E+04-2.73076E-10 2.47746E-09
 -1       816-2.30552E+05-3.96523E+04-3.85132E+02-9.61046E+04 8.12179E-10 1.02414E-08
 -1       817-2.29314E+05-4.09987E+04-8.26104E+02-9.75919E+04-6.30280E-09-8.05812E-10
 -1       818-2.30503E+05-3.97682E+04-1.68414E+03-9.60498E+04 1.14596E-09 5.61658E-09
 -1       819-2.30240E+05-4.20128E+04-3.96332E+03-9.73708E+04-5.91172E-10 1.40176E-09
 -1       820-2.30186E+05-4.27613E+04-8.06631E+03-9.47691E+04-2.29011E-09 1.15793E-08
 -1       821-2.34846E+05 1.24192E+04-3.40189E+04-3.35652E+03-2.01271E-08 5.06589E-09
 -1       822-2.22259E+05-1.53553E+04-1.95120E+04 9.67263E+03-2.47201E-08-1.48086E-08
 -1       823-2.28841E+05 2.97716E+03-8.27934E+03-5.10304E+03 2.23273E-08-6.12999E-09
 -1       824-2.07516E+05-2.08364E+03-7.17683E+02 6.77633E+03-2.51796E-09-4.08454E-09
 -1       825-2.49515E+05-9.25651E+02-6.35278E+03-4.59977E+02 7.53562E-09 9.78059E-09
 -1       826-2.01406E+05 4.16306E+02 4.21738E+03-3.54445E+03 5.41988E-08-1.63173E-09
 -1       827-2.34909E+05 4.35370E+02-1.84191E+03 5.21676E+03 5.15871E-08 3.28289E-09
 -1       828-2.17000E+05-9.11507E+02 1.48664E+03-9.34398E+03 7.63995E-08 1.14746E-09
 -1       829-2.34048E+05 5.31674E+02-1.67440E+03 5.34068E+03 1.24275E-08 9.47136E-09
 -1       830-2.02039E+05 3.42833E+02 4.04896E+03-3.91691E+03-2.33686E-08 4.05282E-09
 -1       831-2.49748E+05-9.43452E+02-6.46079E+03-2.11443E+02-1.07184E-09-5.20072E-09
 -1       832-2.06760E+05-2.07349E+03-6.91400E+02 6.45955E+03-6.16419E-09 1.45952E-08
 -1       833-2.29358E+05 2.97833E+03-8.62548E+03-5.03480E+03-1.65854E-09-9.18772E-09
 -1       834-2.22864E+05-1.58538E+04-2.02359E+04 9.78650E+03-4.41914E-09-1.99868E-08
 -1       835-2.33728E+05 1.29198E+04-3.47223E+04-3.53866E+03 1.38742E-08-4.25280E-09
 -1       836-9.50630E+02 2.73807E+05 1.61326E+04-2.11493E+04 7.90351E-10 4.72482E-10
 -1       837 3.53878E+03 2.78812E+05 1.38985E+04-4.24978E+04 1.35992E-09 1.36606E-09
 -1       838-3.62378E+02 2.75171E+05 1.45054E+04-2.10744E+04 1.25146E-09 6.79483E-09
 -1       839 9.36556E+03 2.83151E+05 2.77783E+04-4.25311E+04 2.10821E-09 4.66574E-09
 -1       840-2.82738E+03 2.69421E+05 4.44426E+04-2.11146E+04 1.19144E-09-3.17186E-09
 -1       856-7.72468E+04 7.38967E+03-1.94740E+04-4.26839E+02-3.22467E-09-2.66482E-10
 -1       857-8.52892E+04-8.66799E+03-1.34071E+04 4.55565E+03-2.38393E-09-6.24823E-10
 -1       858-8.04248E+04 1.03543E+03-5.05387E+03-4.47488E+02-2.27413E-09 2.79738E-09
 -1       859-8.16402E+04-1.20448E+03-3.05181E+03 4.58840E+03 1.34185E-09 1.97088E-09
 -1       860-8.08998E+04 1.44029E+02-1.28230E+03-4.59699E+02-1.26332E-09-7.30984E-09
 -1       861-8.10931E+04-1.59371E+02-7.12372E+02 4.60510E+03-2.84547E-09-1.63250E-08
 -1       862-8.09738E+04 1.89889E+01-3.10061E+02-4.64218E+02 3.01120E-09-2.74220E-09
 -1       863-8.10049E+04-1.07248E+01-1.44588E+02 4.60717E+03 9.28168E-09 9.04363E-09
 -1       864-8.09883E+04-1.33731E+00-2.77486E+01-4.61767E+02 4.23736E-09-1.78519E-09
 -1       865-8.09733E+04 3.24751E+01 7.65298E+01 4.59474E+03 3.75550E-09 7.17225E-10
 -1       866-8.10038E+04-2.45988E+01 1.90771E+02-4.51795E+02-1.15259E-09-1.63661E-08
 -1       867-8.08737E+04 2.05436E+02 4.93127E+02 4.56766E+03-5.20174E-10-3.85280E-09
 -1       868-8.10845E+04-1.72265E+02 8.24989E+02-4.34686E+02 9.59574E-10 2.00112E-09
 -1       869-8.02616E+04 1.43169E+03 2.20549E+03 4.52277E+03-6.07702E-09-2.28775E-09
 -1       870-8.16106E+04-1.21913E+03 3.19933E+03-4.06911E+02-2.01135E-09 5.89330E-09
 -1       871-4.33957E+03-1.00374E+04-1.41714E+04 9.38187E+04 1.47611E-09-1.73895E-09
 -1       872-1.86120E+03-1.32241E+04-5.80872E+03 1.21632E+05 8.28777E-10 1.92420E-08
 -1       873-1.84364E+01-1.17347E+04 7.43642E+02 9.36125E+04-3.84262E-11 1.26965E-09
 -1       874 2.16623E+03-9.72482E+03 7.84736E+03 1.21673E+05 2.60206E-09 5.17139E-09
 -1       875 5.07673E+03-1.35984E+04 1.74580E+04 9.37849E+04 1.17780E-09-8.94761E-09
 -1       876 2.27353E+05 3.89559E+04 1.19907E+04 9.19875E+04-3.12934E-09 2.84490E-09
 -1       877 2.28078E+05 4.15485E+04 6.40335E+03 9.54893E+04-3.34694E-09-8.23320E-09
 -1       878 2.28473E+05 3.76294E+04 2.68272E+03 9.29728E+04 3.93470E-09-4.66684E-09
 -1       879 2.26447E+05 3.99232E+04 1.33650E+03 9.55728E+04 7.33849E-10-3.45608E-11
 -1       880 2.28554E+05 3.76150E+04 6.22353E+02 9.30130E+04-3.32193E-10-2.71854E-09
 -1       881 2.26339E+05 3.98540E+04 3.31810E+02 9.55555E+04 4.67662E-09 1.23205E-09
 -1       882 2.28562E+05 3.76249E+04 2.11381E+02 9.30141E+04 4.55884E-09-2.61704E-09
 -1       883 2.26331E+05 3.98507E+04 2.25782E+02 9.55504E+04 5.96174E-10 9.78537E-09
 -1       884 2.28557E+05 3.76224E+04 3.57849E+02 9.30143E+04-1.36532E-09 1.36754E-08
 -1       885 2.26360E+05 3.98558E+04 7.18657E+02 9.55593E+04 5.27950E-09-7.72775E-09
 -1       886 2.28529E+05 3.76014E+04 1.44804E+03 9.30115E+04 4.22460E-10-4.02258E-09
 -1       887 2.26614E+05 4.00226E+04 3.16294E+03 9.55960E+04-8.66820E-09 1.30967E-08
 -1       888 2.28330E+05 3.76366E+04 6.37341E+03 9.29102E+04-1.00430E-08-7.71843E-09
 -1       889 2.30411E+05 4.39664E+04 1.52254E+04 9.54768E+04-3.45581E-09 1.51249E-09
 -1       890 2.25733E+05 4.07208E+04 2.85162E+04 9.04783E+04 9.23797E-09 2.65209E-09
 -1       891-1.36328E+02-1.28378E+05-1.53186E+03 2.37183E+04 1.85491E-09 5.34101E-10
 -1       892-2.38327E+02-1.28748E+05-1.66003E+03 3.59001E+04 2.92493E-09 2.25714E-09
 -1       893-3.47252E+01-1.28426E+05-2.36572E+03 2.37232E+04 2.30284E-09 6.99765E-09
 -1       894-1.28397E+03-1.29650E+05-4.90727E+03 3.57717E+04-1.87720E-09-9.05857E-10
 -1       895-1.00549E+03-1.27404E+05-8.64599E+03 2.38452E+04 2.42096E-10-2.43745E-10
 -1       956-2.87616E+05-4.10826E+03-1.03317E+04 1.95220E+04-3.05408E-09-4.90581E-09
 -1       957-2.89656E+05-1.38862E+03-5.30377E+03 2.35118E+04-1.55887E-09-1.04910E-08
 -1       958-2.88535E+05-1.13468E+02-2.38955E+03 1.94000E+04 4.59568E-09-6.58906E-09
 -1       959-2.88697E+05-2.21010E+01-1.22050E+03 2.36447E+04-1.76601E-09 9.38280E-09
 -1       960-2.88618E+05 3.21088E+01-5.94990E+02 1.93882E+04-6.12636E-09-4.42469E-10
 -1       961-2.88628E+05 2.99801E+01-3.15599E+02 2.36582E+04-5.86078E-09 4.65866E-09
 -1       962-2.88635E+05 2.83808E+01-1.80530E+02 1.93864E+04-2.54568E-09 2.21326E-09
 -1       963-2.88625E+05 3.15297E+01-1.44699E+02 2.36606E+04-7.59428E-10 3.21734E-10
 -1       964-2.88638E+05 3.04842E+01-1.75418E+02 1.93858E+04 4.43322E-10 3.51065E-10
 -1       965-2.88636E+05 3.45355E+01-3.02927E+02 2.36605E+04 5.70648E-09-3.42038E-09
 -1       966-2.88629E+05 3.83353E+01-5.68576E+02 1.93865E+04-1.56103E-09-1.69734E-09
 -1       967-2.88710E+05-1.07817E+01-1.16610E+03 2.36525E+04-3.77668E-10-3.63343E-09
 -1       968-2.88556E+05-9.65585E+01-2.28208E+03 1.93939E+04 9.76615E-09-8.38079E-09
 -1       969-2.89634E+05-1.31246E+03-5.06682E+03 2.35664E+04 2.05580E-08-3.88806E-09
 -1       970-2.87684E+05-3.91028E+03-9.86925E+03 1.94747E+04 9.43828E-09 3.70528E-09
 -1       971-2.70375E+05-1.40541E+03-7.79755E+03 1.29134E+04-2.55886E-09 1.15770E-09
 -1       972-2.72269E+05-1.00870E+03-4.24650E+03 1.80274E+04-5.44787E-10 2.57228E-09
 -1       973-2.71242E+05-1.15836E+01-1.90160E+03 1.28058E+04-1.31013E-09-6.43695E-10
 -1       974-2.71373E+05-1.19917E+01-9.85220E+02 1.81440E+04 4.77485E-11-9.57596E-09
 -1       975-2.71310E+05 2.51453E+01-4.91606E+02 1.27959E+04 1.94632E-09-1.26872E-08
 -1       976-2.71320E+05 2.90455E+01-2.82067E+02 1.81562E+04 6.70525E-10 1.66210E-09
 -1       977-2.71323E+05 2.51091E+01-2.01932E+02 1.27935E+04 7.12589E-09-5.01757E-09
 -1       978-2.71323E+05 3.37313E+01-2.32508E+02 1.81595E+04 1.39447E-08-1.28284E-09
 -1       979-2.71322E+05 3.14815E+01-3.70298E+02 1.27925E+04 7.67852E-09-1.76908E-09
 -1       980-2.71351E+05 3.60453E+01-7.12949E+02 1.81601E+04 8.25150E-09 2.39538E-09
 -1       981-2.71300E+05 4.92481E+01-1.37974E+03 1.27929E+04 1.87777E-09 6.94808E-09
 -1       982-2.71540E+05-6.58144E+01-2.85128E+03 1.81546E+04-2.33786E-09 1.65164E-09
 -1       983-2.71126E+05-3.89711E+01-5.53972E+03 1.27982E+04 1.11186E-09 2.33217E-09
 -1       984-2.74204E+05-2.95880E+03-1.24054E+04 1.80816E+04-3.51974E-09 4.80213E-09
 -1       985-2.68618E+05-4.09254E+03-2.27804E+04 1.28705E+04 3.30783E-09 4.15639E-09
 -3
    1PSTEP                        13           7           1          
  100CL  107 5.74219E-01         409                     0    7           1
 -4  DISP        4    1
 -5  D1          1    2    1    0
 -5  D2          1    2    2    0
 -5  D3          1    2    3    0
 -5  ALL         1    2    0    0    1ALL
 -1         1 5.32964E-04 0.00000E+00 0.00000E+00
 -1         2 4.92094E-04 2.02628E-29 0.00000E+00
 -1         3 2.15176E-04 1.41292E-27 0.00000E+00
 -1         5 1.29515E-04-1.89526E-28 3.30872E-24
 -1         8 5.10129E-04-7.45290E-07 0.00000E+00
 -1         9 4.92263E-04-1.89145E-06 0.00000E+00
 -1        10 1.96693E-04-2.81378E-06 0.00000E+00
 -1        12 1.29685E-04 6.38257E-07 0.00000E+00
 -1        15 4.82836E-04-8.26201E-07-2.06795E-25
 -1        16 4.89071E-04-2.33002E-06 0.00000E+00
 -1        17 1.38812E-04-6.08433E-06 0.00000E+00
 -1        18 1.28916E-04 1.10280E-05 0.00000E+00
 -1        19 1.30195E-04 1.27324E-06 0.00000E+00
 -1        20 1.30340E-04 8.49852E-06 0.00000E+00
 -1        21 1.29655E-04 1.36688E-05 0.00000E+00
 -1        24 2.47557E-05-8.58386E-06 0.00000E+00
 -1        25 1.31279E-04 1.11815E-05 0.00000E+00
 -1        26 1.32047E-04 1.76365E-06 0.00000E+00
 -1        27 1.30207E-04 5.61131E-06 0.00000E+00
 -1        28 1.29799E-04 1.31346E-05 0.00000E+00
 -1        32 0.00000E+00 0.00000E+00 0.00000E+00
 -1        33 1.32698E-04 2.36869E-06 0.00000E+00
 -1        34 1.30945E-04 5.58046E-06 0.00000E+00
 -1        35 1.29315E-04 1.28474E-05 0.00000E+00
 -1        51 5.31484E-04-1.27994E-07 0.00000E+00
 -1        52 5.28737E-04-2.47128E-07 0.00000E+00
 -1        53 5.24970E-04-3.66401E-07 0.00000E+00
 -1        54 5.20440E-04-4.87662E-07 0.00000E+00
 -1        55 5.15407E-04-6.12033E-07-4.13590E-24
 -1        56 5.30738E-04-7.27194E-07 5.29396E-23
 -1        57 5.28356E-04-1.28337E-06 2.64698E-23
 -1        58 5.25899E-04-1.62492E-06 0.00000E+00
 -1        59 5.23348E-04-1.75840E-06 2.64698E-23
 -1        60 5.20724E-04-1.70103E-06 0.00000E+00
 -1        61 5.18039E-04-1.48592E-06-2.64698E-23
 -1        62 5.15312E-04-1.16200E-06 0.00000E+00
 -1        63 5.12565E-04-7.84834E-07 0.00000E+00
 -1        64 5.09820E-04-4.15342E-07-5.29396E-23
 -1        65 5.07102E-04-1.14043E-07 2.64698E-23
 -1        66 5.04430E-04 6.57201E-08 5.29396E-23
 -1        67 5.01823E-04 7.77196E-08-2.64698E-23
 -1        68 4.99290E-04-1.07465E-07 5.29396E-23
 -1        69 4.96850E-04-5.03943E-07-2.64698E-23
 -1        70 4.94486E-04-1.11290E-06 0.00000E+00
 -1        86 4.92100E-04-3.11628E-07-1.32349E-23
 -1        87 4.92118E-04-6.23656E-07-6.61744E-24
 -1        88 4.92146E-04-9.35747E-07 0.00000E+00
 -1        89 4.92181E-04-1.25038E-06 0.00000E+00
 -1        90 4.92221E-04-1.56415E-06 0.00000E+00
 -1       121 2.14658E-04-4.62906E-07 1.32349E-23
 -1       122 2.13105E-04-9.26848E-07-6.61744E-24
 -1       123 2.10522E-04-1.39285E-06 0.00000E+00
 -1       124 2.06918E-04-1.86198E-06 0.00000E+00
 -1       125 2.02303E-04-2.33507E-06 1.32349E-23
 -1       191 1.29520E-04 1.06380E-07 0.00000E+00
 -1       192 1.29534E-04 2.12759E-07-1.65436E-24
 -1       193 1.29558E-04 3.19139E-07 0.00000E+00
 -1       194 1.29591E-04 4.25516E-07 0.00000E+00
 -1       195 1.29633E-04 5.31890E-07 0.00000E+00
 -1       251 5.09523E-04-5.40232E-06 1.32349E-23
 -1       252 5.08665E-04-2.83083E-05 0.00000E+00
 -1       253 5.07431E-04-6.48476E-05 0.00000E+00
 -1       254 5.05853E-04-1.10069E-04 6.61744E-24
 -1       255 5.04221E-04-1.56561E-04 0.00000E+00
 -1       256 5.02846E-04-1.96885E-04 0.00000E+00
 -1       257 5.01851E-04-2.25354E-04-1.32349E-23
 -1       258 5.01184E-04-2.36567E-04-6.61744E-24
 -1       259 5.00556E-04-2.29951E-04 0.00000E+00
 -1       260 4.99658E-04-2.05374E-04 6.61744E-24
 -1       261 4.98382E-04-1.67721E-04-1.32349E-23
 -1       262 4.96790E-04-1.22191E-04 0.00000E+00
 -1       263 4.95180E-04-7.62232E-05-1.32349E-23
 -1       264 4.93856E-04-3.72647E-05 6.61744E-24
 -1       265 4.92911E-04-1.07696E-05 0.00000E+00
 -1       266 5.05580E-04-7.69423E-07 3.30872E-24
 -1       267 5.01031E-04-7.81611E-07 8.27181E-25
 -1       268 4.96482E-04-7.94555E-07 0.00000E+00
 -1       269 4.91933E-04-8.05257E-07 0.00000E+00
 -1       270 4.87385E-04-8.15908E-07 0.00000E+00
 -1       271 5.07398E-04 3.02218E-06-2.64698E-23
 -1       272 5.04891E-04 6.08794E-06 1.32349E-23
 -1       273 5.02642E-04 8.47417E-06-2.64698E-23
 -1       274 5.00637E-04 1.01960E-05 1.32349E-23
 -1       275 4.98871E-04 1.12838E-05-2.64698E-23
 -1       276 4.97329E-04 1.17750E-05 1.32349E-23
 -1       277 4.95992E-04 1.17171E-05-2.64698E-23
 -1       278 4.94841E-04 1.11655E-05 0.00000E+00
 -1       279 4.93851E-04 1.01833E-05-2.64698E-23
 -1       280 4.92995E-04 8.84036E-06 1.32349E-23
 -1       281 4.92247E-04 7.21191E-06 0.00000E+00
 -1       282 4.91577E-04 5.37763E-06 0.00000E+00
 -1       283 4.90953E-04 3.42030E-06 0.00000E+00
 -1       284 4.90346E-04 1.42585E-06 0.00000E+00
 -1       285 4.89721E-04-5.22084E-07-2.64698E-23
 -1       301 4.91695E-04-1.98181E-06-1.32349E-23
 -1       302 4.90760E-04-2.04704E-06 3.30872E-24
 -1       303 4.89743E-04-2.11072E-06 0.00000E+00
 -1       304 4.88930E-04-2.17430E-06 6.61744E-24
 -1       305 4.88612E-04-2.23943E-06 0.00000E+00
 -1       306 5.06592E-04-5.28589E-05 5.29396E-23
 -1       307 5.47375E-04-2.00951E-04 0.00000E+00
 -1       308 6.02401E-04-4.21673E-04-5.29396E-23
 -1       309 6.63014E-04-6.83297E-04 0.00000E+00
 -1       310 7.23426E-04-9.43370E-04 0.00000E+00
 -1       311 7.77713E-04-1.15958E-03-2.64698E-23
 -1       312 8.16949E-04-1.30107E-03 0.00000E+00
 -1       313 8.28741E-04-1.34446E-03 5.29396E-23
 -1       314 8.02500E-04-1.28870E-03 0.00000E+00
 -1       315 7.31156E-04-1.14183E-03 2.64698E-23
 -1       316 6.21256E-04-9.29668E-04 0.00000E+00
 -1       317 4.86900E-04-6.81217E-04 2.64698E-23
 -1       318 3.51971E-04-4.31935E-04 0.00000E+00
 -1       319 2.40490E-04-2.17283E-04-2.64698E-23
 -1       320 1.67060E-04-6.65821E-05-5.29396E-23
 -1       336 1.89974E-04-3.33564E-06-1.32349E-23
 -1       337 1.82038E-04-3.86667E-06-6.61744E-24
 -1       338 1.72915E-04-4.40718E-06 0.00000E+00
 -1       339 1.62643E-04-4.95726E-06 6.61744E-24
 -1       340 1.51260E-04-5.51895E-06 0.00000E+00
 -1       406 1.29746E-04 7.44611E-07-3.30872E-24
 -1       407 1.29817E-04 8.50931E-07 1.65436E-24
 -1       408 1.29898E-04 9.57187E-07 0.00000E+00
 -1       409 1.29987E-04 1.06325E-06-1.65436E-24
 -1       410 1.30086E-04 1.16892E-06 0.00000E+00
 -1       521 5.05405E-04-6.23682E-05 0.00000E+00
 -1       522 5.50285E-04-2.33575E-04 0.00000E+00
 -1       523 6.09417E-04-4.88280E-04 0.00000E+00
 -1       524 6.73345E-04-7.89393E-04 5.29396E-23
 -1       525 7.37052E-04-1.08820E-03 0.00000E+00
 -1       526 7.95287E-04-1.33620E-03 5.29396E-23
 -1       527 8.38069E-04-1.49760E-03 1.05879E-22
 -1       528 8.50724E-04-1.54640E-03 0.00000E+00
 -1       529 8.19308E-04-1.48114E-03 1.05879E-22
 -1       530 7.34634E-04-1.31252E-03-5.29396E-23
 -1       531 6.03494E-04-1.06984E-03-1.05879E-22
 -1       532 4.42729E-04-7.86442E-04 5.29396E-23
 -1       533 2.81042E-04-5.01809E-04 1.05879E-22
 -1       534 1.47364E-04-2.55429E-04-5.29396E-23
 -1       535 5.93580E-05-8.10363E-05-1.05879E-22
 -1       536 1.38476E-04 1.37055E-05 0.00000E+00
 -1       537 1.37801E-04 4.70762E-05 0.00000E+00
 -1       538 1.36828E-04 8.88791E-05-3.30872E-24
 -1       539 1.35722E-04 1.33921E-04 0.00000E+00
 -1       540 1.34732E-04 1.76103E-04 0.00000E+00
 -1       541 1.34067E-04 2.09344E-04 1.65436E-24
 -1       542 1.33720E-04 2.29990E-04 3.30872E-24
 -1       543 1.33568E-04 2.34459E-04 0.00000E+00
 -1       544 1.33368E-04 2.23348E-04 0.00000E+00
 -1       545 1.32902E-04 1.97349E-04 1.65436E-24
 -1       546 1.32137E-04 1.61043E-04-3.30872E-24
 -1       547 1.31159E-04 1.19070E-04-1.65436E-24
 -1       548 1.30201E-04 7.76292E-05 3.30872E-24
 -1       549 1.29491E-04 4.29152E-05 1.65436E-24
 -1       550 1.29083E-04 1.92851E-05 0.00000E+00
 -1       551 1.23330E-04-6.44099E-06-6.61744E-24
 -1       552 1.05355E-04-6.83171E-06-3.30872E-24
 -1       553 8.56937E-05-7.25093E-06-3.30872E-24
 -1       554 6.51624E-05-7.68840E-06 0.00000E+00
 -1       555 4.45789E-05-8.12955E-06 2.64698E-23
 -1       556 1.34416E-04 5.24887E-06 0.00000E+00
 -1       557 1.30948E-04 1.42167E-05 0.00000E+00
 -1       558 1.28313E-04 2.10185E-05 0.00000E+00
 -1       559 1.26425E-04 2.58703E-05 0.00000E+00
 -1       560 1.25196E-04 2.89877E-05 0.00000E+00
 -1       561 1.24541E-04 3.05879E-05 0.00000E+00
 -1       562 1.24376E-04 3.08885E-05 0.00000E+00
 -1       563 1.24616E-04 3.01077E-05 0.00000E+00
 -1       564 1.25179E-04 2.84640E-05 0.00000E+00
 -1       565 1.25983E-04 2.61762E-05 0.00000E+00
 -1       566 1.26946E-04 2.34630E-05 3.30872E-24
 -1       567 1.27985E-04 2.05438E-05 0.00000E+00
 -1       568 1.29020E-04 1.76375E-05-1.65436E-24
 -1       569 1.29968E-04 1.49631E-05 0.00000E+00
 -1       570 1.30748E-04 1.27395E-05 0.00000E+00
 -1       571 1.28994E-04 1.04040E-05 1.65436E-24
 -1       572 1.29073E-04 9.73224E-06 0.00000E+00
 -1       573 1.29153E-04 9.02292E-06 1.65436E-24
 -1       574 1.29233E-04 8.28672E-06-8.27181E-25
 -1       575 1.29313E-04 7.53437E-06 1.65436E-24
 -1       576 1.29393E-04 6.77663E-06 0.00000E+00
 -1       577 1.29473E-04 6.02427E-06-6.61744E-24
 -1       578 1.29554E-04 5.28811E-06 1.65436E-24
 -1       579 1.29634E-04 4.57892E-06-3.30872E-24
 -1       580 1.29714E-04 3.90749E-06 0.00000E+00
 -1       581 1.29794E-04 3.28462E-06-6.61744E-24
 -1       582 1.29874E-04 2.72107E-06 0.00000E+00
 -1       583 1.29955E-04 2.22763E-06 0.00000E+00
 -1       584 1.30035E-04 1.81494E-06 0.00000E+00
 -1       585 1.30115E-04 1.49358E-06-6.61744E-24
 -1       586 1.29256E-04 1.10554E-05-1.65436E-24
 -1       587 1.29569E-04 1.10821E-05-3.61892E-25
 -1       588 1.29893E-04 1.11084E-05 0.00000E+00
 -1       589 1.30262E-04 1.11343E-05 0.00000E+00
 -1       590 1.30713E-04 1.11593E-05 0.00000E+00
 -1       591 1.29111E-04 1.04593E-05 0.00000E+00
 -1       592 1.29313E-04 9.86455E-06 0.00000E+00
 -1       593 1.29522E-04 9.24959E-06 0.00000E+00
 -1       594 1.29736E-04 8.61958E-06-2.06795E-25
 -1       595 1.29954E-04 7.97972E-06-4.13590E-25
 -1       596 1.30173E-04 7.33516E-06 0.00000E+00
 -1       597 1.30393E-04 6.69104E-06 4.13590E-25
 -1       598 1.30610E-04 6.05252E-06-2.06795E-25
 -1       599 1.30823E-04 5.42472E-06 0.00000E+00
 -1       600 1.31030E-04 4.81279E-06 0.00000E+00
 -1       601 1.31230E-04 4.22188E-06 0.00000E+00
 -1       602 1.31420E-04 3.65712E-06 2.06795E-25
 -1       603 1.31598E-04 3.12366E-06-4.13590E-25
 -1       604 1.31762E-04 2.62672E-06 0.00000E+00
 -1       605 1.31912E-04 2.17139E-06 0.00000E+00
 -1       606 1.30208E-04 1.23215E-06 0.00000E+00
 -1       607 1.30218E-04 1.28569E-06 0.00000E+00
 -1       608 1.30227E-04 1.42833E-06 0.00000E+00
 -1       609 1.30236E-04 1.65378E-06 0.00000E+00
 -1       610 1.30245E-04 1.95574E-06 0.00000E+00
 -1       611 1.30254E-04 2.32784E-06 0.00000E+00
 -1       612 1.30263E-04 2.76367E-06 0.00000E+00
 -1       613 1.30272E-04 3.25684E-06 0.00000E+00
 -1       614 1.30280E-04 3.80095E-06 0.00000E+00
 -1       615 1.30289E-04 4.38960E-06 0.00000E+00
 -1       616 1.30298E-04 5.01640E-06 0.00000E+00
 -1       617 1.30306E-04 5.67494E-06 0.00000E+00
 -1       618 1.30315E-04 6.35881E-06 8.27181E-25
 -1       619 1.30323E-04 7.06164E-06 0.00000E+00
 -1       620 1.30332E-04 7.77701E-06-4.13590E-25
 -1       621 1.30369E-04 1.35514E-06-3.30872E-24
 -1       622 1.30618E-04 1.43732E-06-8.27181E-25
 -1       623 1.30927E-04 1.51946E-06 1.65436E-24
 -1       624 1.31278E-04 1.60146E-06 8.27181E-25
 -1       625 1.31657E-04 1.68332E-06 0.00000E+00
 -1       626 1.30301E-04 1.26119E-06 3.30872E-24
 -1       627 1.30380E-04 1.32557E-06 0.00000E+00
 -1       628 1.30432E-04 1.45848E-06 0.00000E+00
 -1       629 1.30463E-04 1.65158E-06 1.65436E-24
 -1       630 1.30474E-04 1.89652E-06-3.30872E-24
 -1       631 1.30468E-04 2.18490E-06 0.00000E+00
 -1       632 1.30450E-04 2.50832E-06 3.30872E-24
 -1       633 1.30421E-04 2.85841E-06-1.65436E-24
 -1       634 1.30386E-04 3.22675E-06 0.00000E+00
 -1       635 1.30347E-04 3.60496E-06 0.00000E+00
 -1       636 1.30307E-04 3.98465E-06 0.00000E+00
 -1       637 1.30270E-04 4.35743E-06 1.65436E-24
 -1       638 1.30239E-04 4.71489E-06 1.65436E-24
 -1       639 1.30216E-04 5.04863E-06-8.27181E-25
 -1       640 1.30205E-04 5.35027E-06-1.65436E-24
 -1       656 1.29837E-04 8.02883E-06 0.00000E+00
 -1       657 1.29722E-04 7.54033E-06 6.61744E-24
 -1       658 1.29854E-04 7.05324E-06-1.32349E-23
 -1       659 1.30090E-04 6.56655E-06-6.61744E-24
 -1       660 1.30264E-04 6.07834E-06-6.61744E-24
 -1       661 1.30154E-04 9.18529E-06 0.00000E+00
 -1       662 1.29998E-04 9.80236E-06-8.27181E-25
 -1       663 1.29866E-04 1.03528E-05 0.00000E+00
 -1       664 1.29759E-04 1.08411E-05-8.27181E-25
 -1       665 1.29673E-04 1.12707E-05 0.00000E+00
 -1       666 1.29608E-04 1.16457E-05-8.27181E-25
 -1       667 1.29563E-04 1.19697E-05 0.00000E+00
 -1       668 1.29535E-04 1.22461E-05 8.27181E-25
 -1       669 1.29523E-04 1.24784E-05 0.00000E+00
 -1       670 1.29527E-04 1.26699E-05-8.27181E-25
 -1       671 1.29545E-04 1.28238E-05-1.65436E-24
 -1       672 1.29576E-04 1.29433E-05 0.00000E+00
 -1       673 1.29619E-04 1.30314E-05 0.00000E+00
 -1       674 1.29671E-04 1.30908E-05 0.00000E+00
 -1       675 1.29733E-04 1.31249E-05-4.13590E-25
 -1       676 1.29679E-04 1.35792E-05 0.00000E+00
 -1       677 1.29704E-04 1.34897E-05 1.65436E-24
 -1       678 1.29728E-04 1.34002E-05-3.30872E-24
 -1       679 1.29752E-04 1.33110E-05 1.65436E-24
 -1       680 1.29776E-04 1.32218E-05 1.65436E-24
 -1       771 1.72958E-05 7.44532E-06 0.00000E+00
 -1       772 1.09474E-05 2.05986E-05 0.00000E+00
 -1       773 5.65847E-06 3.10234E-05 5.29396E-23
 -1       774 1.35797E-06 3.88820E-05 0.00000E+00
 -1       775-2.02408E-06 4.43420E-05 5.29396E-23
 -1       776-4.56054E-06 4.75793E-05 0.00000E+00
 -1       777-6.32478E-06 4.87747E-05 0.00000E+00
 -1       778-7.39176E-06 4.81158E-05 0.00000E+00
 -1       779-7.83665E-06 4.57945E-05 0.00000E+00
 -1       780-7.73597E-06 4.20083E-05 0.00000E+00
 -1       781-7.16619E-06 3.69577E-05-5.29396E-23
 -1       782-6.20486E-06 3.08480E-05 0.00000E+00
 -1       783-4.92938E-06 2.38863E-05 0.00000E+00
 -1       784-3.41798E-06 1.62830E-05-2.64698E-23
 -1       785-1.74861E-06 8.24994E-06 0.00000E+00
 -1       786 1.31324E-04 1.03892E-05 0.00000E+00
 -1       787 1.31371E-04 9.64304E-06-4.13590E-25
 -1       788 1.31419E-04 8.93495E-06-8.27181E-25
 -1       789 1.31467E-04 8.25709E-06-8.27181E-25
 -1       790 1.31515E-04 7.60493E-06 0.00000E+00
 -1       791 1.31563E-04 6.97398E-06 0.00000E+00
 -1       792 1.31611E-04 6.36213E-06 0.00000E+00
 -1       793 1.31660E-04 5.76730E-06 0.00000E+00
 -1       794 1.31708E-04 5.18929E-06-1.65436E-24
 -1       795 1.31756E-04 4.62795E-06 8.27181E-25
 -1       796 1.31805E-04 4.08497E-06 1.65436E-24
 -1       797 1.31853E-04 3.56207E-06-8.27181E-25
 -1       798 1.31902E-04 3.06322E-06 0.00000E+00
 -1       799 1.31950E-04 2.59244E-06 0.00000E+00
 -1       800 1.31999E-04 2.15685E-06 0.00000E+00
 -1       801 1.13710E-04 9.70600E-06 2.64698E-23
 -1       802 5.96991E-05 6.93581E-06 0.00000E+00
 -1       803 5.99456E-06 4.18092E-06 2.64698E-23
 -1       804-1.06438E-05 2.66579E-06 1.32349E-23
 -1       805-6.72030E-06 1.34079E-06 0.00000E+00
 -1       806 1.31483E-04 1.03344E-05-1.65436E-24
 -1       807 1.31673E-04 9.51332E-06-1.65436E-24
 -1       808 1.31852E-04 8.72190E-06 0.00000E+00
 -1       809 1.32018E-04 7.96296E-06 0.00000E+00
 -1       810 1.32171E-04 7.23928E-06-1.65436E-24
 -1       811 1.32310E-04 6.55354E-06 8.27181E-25
 -1       812 1.32433E-04 5.90842E-06-3.30872E-24
 -1       813 1.32540E-04 5.30659E-06-8.27181E-25
 -1       814 1.32630E-04 4.75071E-06 0.00000E+00
 -1       815 1.32702E-04 4.24344E-06 8.27181E-25
 -1       816 1.32755E-04 3.78743E-06-3.30872E-24
 -1       817 1.32787E-04 3.38533E-06-1.65436E-24
 -1       818 1.32799E-04 3.03978E-06-1.65436E-24
 -1       819 1.32788E-04 2.75342E-06-8.27181E-25
 -1       820 1.32754E-04 2.52887E-06-3.30872E-24
 -1       821 1.31968E-04 4.24525E-06 0.00000E+00
 -1       822 1.31856E-04 1.24188E-05 0.00000E+00
 -1       823 1.31729E-04 2.23755E-05 0.00000E+00
 -1       824 1.31620E-04 3.01997E-05 8.27181E-25
 -1       825 1.31534E-04 3.32348E-05 0.00000E+00
 -1       826 1.31442E-04 2.88423E-05 1.65436E-24
 -1       827 1.31311E-04 1.86241E-05 0.00000E+00
 -1       828 1.31131E-04 4.20406E-06 0.00000E+00
 -1       829 1.30948E-04-1.03433E-05 0.00000E+00
 -1       830 1.30814E-04-2.09430E-05 0.00000E+00
 -1       831 1.30720E-04-2.58251E-05 0.00000E+00
 -1       832 1.30635E-04-2.32410E-05 0.00000E+00
 -1       833 1.30527E-04-1.57034E-05 0.00000E+00
 -1       834 1.30401E-04-5.74331E-06-8.27181E-25
 -1       835 1.30286E-04 2.67950E-06 4.13590E-25
 -1       836 1.32332E-04 1.86437E-06 3.30872E-24
 -1       837 1.32501E-04 1.96733E-06 0.00000E+00
 -1       838 1.32589E-04 2.07013E-06 0.00000E+00
 -1       839 1.32629E-04 2.17227E-06 8.27181E-25
 -1       840 1.32654E-04 2.27424E-06-4.13590E-25
 -1       856 1.30185E-04 5.85223E-06 0.00000E+00
 -1       857 1.30160E-04 6.21005E-06 0.00000E+00
 -1       858 1.30135E-04 6.66641E-06 0.00000E+00
 -1       859 1.30110E-04 7.20293E-06 0.00000E+00
 -1       860 1.30084E-04 7.80108E-06-8.27181E-25
 -1       861 1.30058E-04 8.44230E-06 0.00000E+00
 -1       862 1.30032E-04 9.10801E-06 0.00000E+00
 -1       863 1.30007E-04 9.77958E-06 4.13590E-25
 -1       864 1.29981E-04 1.04384E-05 0.00000E+00
 -1       865 1.29955E-04 1.10658E-05 0.00000E+00
 -1       866 1.29929E-04 1.16432E-05 0.00000E+00
 -1       867 1.29903E-04 1.21521E-05-4.13590E-25
 -1       868 1.29878E-04 1.25741E-05 0.00000E+00
 -1       869 1.29852E-04 1.28906E-05 4.13590E-25
 -1       870 1.29826E-04 1.30835E-05-8.27181E-25
 -1       871 1.30204E-04 5.60965E-06 0.00000E+00
 -1       872 1.30323E-04 5.60540E-06 0.00000E+00
 -1       873 1.30512E-04 5.60065E-06 0.00000E+00
 -1       874 1.30715E-04 5.59531E-06-5.16988E-26
 -1       875 1.30877E-04 5.58942E-06 2.06795E-25
 -1       876 1.30224E-04 5.86364E-06 0.00000E+00
 -1       877 1.30223E-04 6.17264E-06 0.00000E+00
 -1       878 1.30202E-04 6.53144E-06-3.30872E-24
 -1       879 1.30166E-04 6.93373E-06 1.65436E-24
 -1       880 1.30116E-04 7.37313E-06 3.30872E-24
 -1       881 1.30055E-04 7.84332E-06 0.00000E+00
 -1       882 1.29984E-04 8.33797E-06 0.00000E+00
 -1       883 1.29906E-04 8.85078E-06-1.65436E-24
 -1       884 1.29824E-04 9.37543E-06-3.30872E-24
 -1       885 1.29740E-04 9.90563E-06-1.65436E-24
 -1       886 1.29656E-04 1.04351E-05-3.30872E-24
 -1       887 1.29575E-04 1.09574E-05 1.65436E-24
 -1       888 1.29499E-04 1.14664E-05 0.00000E+00
 -1       889 1.29429E-04 1.19555E-05 8.27181E-25
 -1       890 1.29369E-04 1.24185E-05 0.00000E+00
 -1       891 1.29845E-04 1.30865E-05 0.00000E+00
 -1       892 1.29870E-04 1.30382E-05-8.27181E-25
 -1       893 1.29852E-04 1.29900E-05-1.65436E-24
 -1       894 1.29769E-04 1.29419E-05 0.00000E+00
 -1       895 1.29597E-04 1.28940E-05 4.13590E-25
 -1       956 1.32590E-04 2.34225E-06 1.65436E-24
 -1       957 1.32481E-04 2.38428E-06 8.27181E-25
 -1       958 1.32371E-04 2.48697E-06 1.65436E-24
 -1       959 1.32262E-04 2.64210E-06 0.00000E+00
 -1       960 1.32152E-04 2.84143E-06 0.00000E+00
 -1       961 1.32042E-04 3.07667E-06 0.00000E+00
 -1       962 1.31932E-04 3.33955E-06 0.00000E+00
 -1       963 1.31822E-04 3.62175E-06 0.00000E+00
 -1       964 1.31712E-04 3.91500E-06-3.30872E-24
 -1       965 1.31602E-04 4.21098E-06-1.65436E-24
 -1       966 1.31492E-04 4.50140E-06-3.30872E-24
 -1       967 1.31382E-04 4.77797E-06 0.00000E+00
 -1       968 1.31272E-04 5.03238E-06-3.30872E-24
 -1       969 1.31162E-04 5.25639E-06 0.00000E+00
 -1       970 1.31053E-04 5.44173E-06-3.30872E-24
 -1       971 1.30844E-04 5.73252E-06 0.00000E+00
 -1       972 1.30742E-04 5.97066E-06-8.27181E-25
 -1       973 1.30640E-04 6.28541E-06 0.00000E+00
 -1       974 1.30538E-04 6.66689E-06-1.65436E-24
 -1       975 1.30435E-04 7.10524E-06 0.00000E+00
 -1       976 1.30333E-04 7.59056E-06 1.65436E-24
 -1       977 1.30230E-04 8.11296E-06 0.00000E+00
 -1       978 1.30128E-04 8.66253E-06 0.00000E+00
 -1       979 1.30025E-04 9.22934E-06-3.30872E-24
 -1       980 1.29923E-04 9.80349E-06 0.00000E+00
 -1       981 1.29820E-04 1.03751E-05 0.00000E+00
 -1       982 1.29718E-04 1.09341E-05 0.00000E+00
 -1       983 1.29616E-04 1.14708E-05 0.00000E+00
 -1       984 1.29514E-04 1.19751E-05 0.00000E+00
 -1       985 1.29413E-04 1.24372E-05 0.00000E+00
 -3
    1PSTEP                        14           7           1          
  100CL  107 5.74219E-01         409                     0    7           1
 -4  STRESS      6    1
 -5  SXX         1    4    1    1
 -5  SYY         1    4    2    2
 -5  SZZ         1    4    3    3
 -5  SXY         1    4    1    2
 -5  SYZ         1    4    2    3
 -5  SZX         1    4    3    1
 -1         1-2.94130E+06-1.18348E+06-6.35034E+05-1.37274E+06 4.07454E-10-2.07801E-08
 -1         2 1.99789E+03-8.88692E+05 6.44980E+03 4.49248E+01-1.32445E-11-9.60584E-09
 -1         3-4.84062E+02-1.31967E+06 3.16816E+02-1.07915E+03-1.91758E-10-1.19653E-08
 -1         5-1.44342E+00 3.04383E+05 7.80962E+00-7.44600E-02-5.74703E-11-7.70729E-09
 -1         8-1.03730E+06-3.59082E+05-1.11394E+05-5.12758E+05 1.10958E-10 5.68616E-09
 -1         9-5.27381E+05-8.22117E+05-6.61026E+01-7.79361E+05 1.74099E-08-1.43074E-08
 -1        10-1.33733E+03-1.37492E+06-2.33409E+03-7.29940E+03-8.12179E-09-3.58898E-09
 -1        12 1.76190E+00 3.04399E+05 2.52824E+02-5.64198E-01-4.75886E-11 1.12013E-08
 -1        15 1.76437E+03 9.69623E+02 5.70330E+03 3.47064E+00 2.17142E-11 8.36100E-08
 -1        16 1.17025E+06-9.40756E+05 1.44897E+05-1.20796E+06 1.25923E-08 4.17155E-08
 -1        17-7.82171E+03 8.65183E+04 8.21302E+04 2.05037E+05-1.07684E-09 1.18511E-08
 -1        18 2.84063E+03-3.85673E+03-2.35039E+04-8.51102E+04 1.00350E-08 3.89491E-09
 -1        19 9.72758E+04 1.12620E+05-7.97020E+02 1.96143E+04 8.49468E-11-1.43991E-09
 -1        20-5.33756E+04-4.62376E+05-1.02872E+05 2.76843E+04 1.98740E-09 2.39379E-09
 -1        21-4.12302E+01-2.56389E+05-8.14224E+02 4.23639E+00-2.43595E-10 1.01052E-08
 -1        24-5.37597E+05 8.12665E+05 2.61479E+05 4.77412E+05-7.16876E-08-3.18978E-08
 -1        25-1.01035E+05-5.77293E+05-1.15290E+05-1.83747E+05-5.88398E-10 4.56203E-09
 -1        26-1.15337E+04 7.96463E+04-1.36221E+04-1.55472E+03 4.80759E-09 1.22758E-08
 -1        27-4.66148E+04-2.46492E+05-8.87017E+04 5.88411E+04 1.18684E-08-1.70076E-10
 -1        28 1.96350E+04-7.23633E+04 1.45753E+04 2.02322E+04 7.13811E-10 1.21614E-09
 -1        32-1.39729E+06-2.21045E+06-6.28694E+04-3.83242E+05-2.94203E-08-5.82429E-09
 -1        33-1.48692E+05 7.36461E+04 2.62419E+04-3.53215E+04-1.61170E-10 5.40604E-09
 -1        34-1.87175E+05-1.93699E+04 5.19623E+02 6.02301E+04 6.99927E-10 2.21735E-09
 -1        35-2.00350E+04-2.87550E+04-1.13590E+03 4.46602E+04 2.36922E-09 1.43943E-09
 -1        51 3.00830E+04-3.03828E+05 6.90656E+04-8.67111E+05-5.67525E-10 5.68980E-09
 -1        52 1.34046E+04-2.96027E+05 4.03442E+04-1.01118E+06 3.05590E-10-7.86531E-09
 -1        53 6.56304E+03-3.10766E+05 2.74947E+04-8.64030E+05 1.10595E-09 7.66886E-09
 -1        54 1.74143E+04-3.08562E+05 3.56937E+04-1.01437E+06 4.36557E-10 1.42609E-08
 -1        55 3.48970E+04-3.21027E+05 5.86819E+04-8.63554E+05 7.42148E-10 3.53721E-08
 -1        56-5.59814E+06-6.26501E+05-4.68334E+05-2.17042E+06-4.03088E-09 1.87138E-08
 -1        57-5.82665E+06-1.01170E+06-3.16000E+05-2.10657E+06 1.20344E-08 5.34055E-08
 -1        58-5.68730E+06-7.80366E+05-1.10092E+05-2.14662E+06-2.75577E-09-3.68891E-09
 -1        59-5.72479E+06-8.29682E+05-6.57268E+04-2.13311E+06 3.95403E-09-3.09892E-08
 -1        60-5.69857E+06-8.03561E+05-2.56597E+04-2.14542E+06 4.00269E-09-3.43125E-08
 -1        61-5.71244E+06-8.01779E+05-1.45594E+04-2.13362E+06-2.67937E-09 2.39647E-08
 -1        62-5.69936E+06-8.07605E+05-6.92150E+03-2.14627E+06 6.43013E-10-1.59152E-08
 -1        63-5.71146E+06-7.97681E+05-5.60940E+03-2.13289E+06-3.44394E-09-2.33389E-08
 -1        64-5.69950E+06-8.07582E+05-6.21994E+03-2.14616E+06 4.11796E-09-2.29256E-08
 -1        65-5.71171E+06-8.01461E+05-1.24739E+04-2.13405E+06-9.20272E-09 9.82254E-11
 -1        66-5.69914E+06-8.03889E+05-2.17332E+04-2.14510E+06 2.85308E-09-2.87673E-08
 -1        67-5.72144E+06-8.25647E+05-5.54858E+04-2.13438E+06-4.87125E-09 9.36780E-09
 -1        68-5.69001E+06-7.83958E+05-9.28979E+04-2.14570E+06 5.23505E-09 2.92312E-08
 -1        69-5.80665E+06-9.79901E+05-2.66576E+05-2.11280E+06-2.12458E-09 1.56106E-08
 -1        70-5.61519E+06-6.53838E+05-3.95207E+05-2.16539E+06-2.09548E-09-1.92667E-08
 -1        86-9.96473E+02-8.90418E+05 6.98542E+03-2.24630E+01-2.16005E-11 1.43145E-09
 -1        87 6.63879E+03-8.86447E+05 1.44782E+04 8.22741E+01-6.63931E-11 2.11572E-08
 -1        88-5.62268E+03-8.92656E+05 2.22769E+04-5.98146E+01 2.72848E-11-2.11265E-08
 -1        89 4.19308E+04-8.70070E+05 5.99581E+04 1.36520E+02 1.16415E-10 1.26033E-08
 -1        90-3.61689E+04-9.06755E+05 8.48493E+04-7.67138E+01 1.09139E-11-1.08155E-08
 -1       121-6.85997E+02-1.32140E+06 3.42557E+01 5.37715E+02 9.38130E-10 4.03816E-10
 -1       122-3.65752E+02-1.31964E+06 6.58692E+02-2.15590E+03-3.10735E-09 3.24908E-08
 -1       123-7.41092E+02-1.32148E+06 7.84418E+02 1.60711E+03 2.52703E-09 4.62751E-09
 -1       124 9.12701E+02-1.31900E+06 2.68506E+03-4.56406E+03-5.76711E-09-5.61704E-09
 -1       125-1.50397E+03-1.32219E+06 3.80931E+03 2.93812E+03 3.98813E-09 1.77315E-08
 -1       191-1.77658E+00 3.04410E+05 9.54737E+00 3.73301E-02-5.92051E-11-7.10634E-09
 -1       192-2.15888E+00 3.04384E+05 1.65244E+01-3.03197E-01-4.88498E-11-1.01951E-08
 -1       193-3.67974E+00 3.04410E+05 3.09371E+01 2.66682E-01-1.53463E-10-2.16737E-08
 -1       194-4.46167E+00 3.04386E+05 6.24750E+01-7.13250E-01-1.01577E-10-1.76213E-08
 -1       195-7.33723E+00 3.04408E+05 1.22410E+02 4.49407E-01-1.75341E-10-4.71982E-09
 -1       251-1.83482E+06 9.55361E+03-1.11703E+05 5.11854E+04-4.54747E-10 4.57185E-08
 -1       252-1.52056E+06-1.22517E+04-1.23999E+04-2.00139E+05-3.87627E-09-7.53062E-09
 -1       253-1.71462E+06-1.83371E+03-2.58859E+04 1.49014E+05 4.17003E-09 2.29493E-08
 -1       254-1.67412E+06 1.42293E+04-4.43784E+03-3.05838E+05 1.33638E-08 1.27280E-08
 -1       255-1.69740E+06-3.63204E+03-7.00152E+03 1.57577E+05-1.47320E-08 1.30540E-08
 -1       256-1.54835E+06 1.47798E+04 2.73205E+04-2.31382E+05-1.79721E-08-8.73536E-09
 -1       257-1.82818E+06-1.23502E+04-3.16171E+04 7.39704E+04-3.36149E-09 3.34291E-08
 -1       258-1.38936E+06 1.15960E+04 5.87777E+04-1.48403E+04-6.69388E-10-9.27696E-09
 -1       259-1.84076E+06-1.32061E+04-3.32276E+04-5.86833E+04 1.16142E-08-3.62913E-08
 -1       260-1.52049E+06 1.50699E+04 3.55127E+04 2.11389E+05 9.69885E-09-2.17831E-08
 -1       261-1.70999E+06-5.25185E+03-3.88552E+03-1.51766E+05-3.24258E-08-7.90408E-10
 -1       262-1.67187E+06 2.09183E+04 9.61352E+03 3.06739E+05 8.82278E-09 1.97444E-08
 -1       263-1.70438E+06-6.78076E+03-1.07121E+02-1.54698E+05-5.26143E-09 1.32311E-08
 -1       264-1.52712E+06 3.22011E+04 4.50993E+04 2.22182E+05-6.61503E-08-3.35049E-08
 -1       265-1.84110E+06-2.76254E+04-2.06007E+04-6.65786E+04-2.08420E-08-1.46592E-08
 -1       266-3.19402E+04-1.49337E+04 7.49480E+04-7.42672E+01 7.63976E-11 2.64670E-08
 -1       267 3.70282E+04 1.74079E+04 5.29685E+04 8.56818E+01 2.31921E-10 9.16471E-08
 -1       268-4.96538E+03-2.46532E+03 1.96884E+04-1.09178E+01 2.20098E-10-1.90085E-08
 -1       269 5.86270E+03 2.95060E+03 1.27969E+04 1.27171E+01 3.41743E-10 2.58562E-08
 -1       270-8.79996E+02-4.84800E+02 6.17726E+03-1.72582E+00 1.14596E-10 5.58137E-08
 -1       271-2.92714E+06-3.63419E+05-2.19965E+05-1.13592E+06 3.13230E-09-1.86992E-08
 -1       272-3.02093E+06-5.09818E+05-1.41541E+05-1.11777E+06-2.90834E-09-8.93488E-09
 -1       273-2.96870E+06-4.18236E+05-5.19508E+04-1.12590E+06 1.51749E-09-2.93949E-08
 -1       274-2.97154E+06-4.43222E+05-2.90952E+04-1.13330E+06-5.96992E-09-2.50052E-08
 -1       275-2.97542E+06-4.22968E+05-1.21109E+04-1.12303E+06 3.66344E-09 1.07557E-08
 -1       276-2.96261E+06-4.38550E+05-6.39275E+03-1.13841E+06 7.07041E-09-3.91856E-09
 -1       277-2.97765E+06-4.22098E+05-3.15386E+03-1.12115E+06-1.37607E-09-3.22370E-09
 -1       278-2.95927E+06-4.40497E+05-2.19051E+03-1.14186E+06-6.11180E-09-1.61277E-08
 -1       279-2.97893E+06-4.20841E+05-2.31195E+03-1.11974E+06-4.46926E-09-3.24259E-08
 -1       280-2.95771E+06-4.42998E+05-4.11690E+03-1.14429E+06-2.19575E-09-1.30861E-08
 -1       281-2.97939E+06-4.19522E+05-7.46914E+03-1.11884E+06 2.11821E-09-3.12298E-08
 -1       282-2.96008E+06-4.49108E+05-1.78883E+04-1.14505E+06-5.61295E-09 1.64941E-08
 -1       283-2.97677E+06-4.15096E+05-3.17896E+04-1.11891E+06-4.97630E-09 9.82254E-10
 -1       284-2.98775E+06-4.92561E+05-8.67464E+04-1.13860E+06 7.29415E-09-4.21933E-08
 -1       285-2.95248E+06-3.80360E+05-1.34741E+05-1.12375E+06-2.10275E-09-2.39525E-08
 -1       301 2.31870E+04-1.82030E+05 1.72476E+05-3.46476E+05-8.00355E-11 1.50194E-08
 -1       302 2.46376E+04-1.38746E+05 1.10418E+05-5.07313E+05 2.19188E-10-2.98933E-08
 -1       303 1.04251E+03-1.64911E+05 7.95357E+04-3.45820E+05-1.80080E-10 4.18368E-10
 -1       304 2.37323E+04-1.37373E+05 1.09862E+05-5.06826E+05 3.85626E-10 3.27345E-08
 -1       305 2.15911E+04-1.79970E+05 1.71017E+05-3.47032E+05-1.45519E-11-6.99947E-09
 -1       306-9.95285E+06-1.29558E+06-1.64830E+06-2.03689E+06-4.04834E-08 1.64728E-08
 -1       307 1.78671E+05-1.88272E+06 6.17697E+05-4.78542E+06-3.27011E-07 6.20057E-08
 -1       308-7.60172E+06 2.26206E+05-2.12816E+05-2.61664E+04-2.70811E-08 5.98957E-08
 -1       309-3.74036E+06-2.09372E+06 1.73334E+05-7.44148E+06 1.15466E-07-5.85424E-08
 -1       310-7.68492E+06 1.97696E+05-1.47973E+05-6.85860E+04-1.82918E-08-4.73283E-08
 -1       311 3.84082E+05-1.88887E+06 8.91654E+05-4.58404E+06 2.18090E-07 2.04764E-08
 -1       312-9.97914E+06-1.33359E+06-1.13308E+06-2.14188E+06 1.45519E-09 1.14873E-07
 -1       313 2.16792E+06 5.17326E+05 1.55410E+06 7.64764E+05 9.49367E-08 9.52641E-08
 -1       314-8.22808E+06-3.06808E+06-1.12936E+06-4.07236E+06 1.92085E-08 6.70407E-08
 -1       315-5.24383E+06 3.69572E+06 8.82793E+05 1.61382E+06-2.74842E-07-8.79809E-08
 -1       316-4.21802E+06-3.24653E+06-1.46813E+05-3.90731E+06-3.21772E-07-2.16380E-07
 -1       317-1.04088E+07 4.56484E+06 1.61393E+05-1.39383E+04 2.55037E-07-1.69744E-07
 -1       318-4.15130E+06-3.23719E+06-2.37772E+05-3.89307E+06-3.22369E-07 1.98343E-08
 -1       319-5.46263E+06 3.74204E+06 5.67672E+05 1.56119E+06-4.17567E-08 3.95230E-08
 -1       320-8.12456E+06-3.09072E+06-1.73688E+06-4.08407E+06 8.44011E-08-3.39933E-08
 -1       336 4.70423E+02-1.43047E+06-9.08281E+03 4.32974E+03-1.55424E-08 7.35599E-09
 -1       337-3.42092E+03-1.43173E+06-1.08678E+04-1.05399E+04-2.84289E-08 4.37649E-09
 -1       338 5.48401E+02-1.43044E+06-1.54199E+04 6.15732E+03-2.00666E-08-7.50151E-09
 -1       339-1.62397E+04-1.44014E+06-3.44207E+04-1.41065E+04-3.71201E-08 7.91624E-09
 -1       340 1.08436E+04-1.42270E+06-5.37047E+04 7.85442E+03-2.43854E-08 1.99616E-08
 -1       406 2.12791E+01 3.04396E+05 4.99346E+02 1.18938E-01-2.25171E-10 7.86486E-10
 -1       407 1.75762E+02 3.04487E+05 1.06080E+03 2.52365E+00-8.86189E-11-1.26247E-08
 -1       408 5.47964E+02 3.04320E+05 2.11889E+03-2.71185E+00-2.31353E-10-5.05565E-09
 -1       409 2.29234E+03 3.05164E+05 4.76969E+03 2.70868E+01-1.03000E-10-4.39286E-10
 -1       410 6.58313E+03 3.03718E+05 9.73728E+03-2.56185E+01-4.21096E-10-1.59991E-09
 -1       521-1.21714E+07-1.76271E+06-2.23650E+06-2.28169E+06-3.19560E-08 3.52738E-08
 -1       522 6.54857E+05-2.20497E+06 7.61991E+05-6.29503E+06-2.22266E-07-1.16062E-07
 -1       523-9.18253E+06 2.39590E+05-2.71906E+05 2.05311E+05-1.24419E-08-1.28704E-07
 -1       524-4.88756E+06-2.07258E+06 2.42172E+05-9.71661E+06 3.00141E-07-2.14139E-07
 -1       525-9.31902E+06 1.87738E+05-1.98655E+05 1.39800E+05 2.74682E-07-1.01423E-07
 -1       526 1.04233E+06-2.22744E+06 1.14050E+06-5.95350E+06 1.34343E-07 1.81899E-08
 -1       527-1.22198E+07-1.84137E+06-1.55937E+06-2.44977E+06 6.73463E-08-1.66183E-08
 -1       528 3.62583E+06 7.20125E+05 1.95920E+06 1.35559E+06-2.11410E-07 1.86192E-08
 -1       529-9.94335E+06-4.08889E+06-1.55065E+06-4.92891E+06-6.94417E-08-3.48955E-08
 -1       530-6.44827E+06 5.19296E+06 1.13157E+06 2.19396E+06-2.20811E-07 2.09082E-07
 -1       531-4.87022E+06-4.22779E+06-1.86607E+05-4.73799E+06-2.79542E-07 8.53470E-08
 -1       532-1.32885E+07 6.33145E+06 2.48616E+05-4.36681E+05 2.36148E-07-2.62886E-07
 -1       533-4.76449E+06-4.21489E+06-2.69721E+05-4.71311E+06-1.19908E-08-4.18760E-07
 -1       534-6.79123E+06 5.34642E+06 8.04746E+05 2.07015E+06-9.60499E-08 2.98365E-07
 -1       535-9.80672E+06-4.18766E+06-2.19757E+06-4.94074E+06 3.66708E-09 1.92933E-07
 -1       536-4.73930E+05-2.91192E+04 2.31883E+04-2.47653E+04-3.65526E-09 2.54076E-08
 -1       537-2.75212E+05 3.08911E+04 4.94385E+04 6.09088E+04-6.41786E-08 4.52274E-08
 -1       538-3.78003E+05-1.28223E+03 1.08590E+04-3.75173E+04 1.28754E-08 5.34064E-08
 -1       539-3.39681E+05 3.32479E+03 1.32637E+04 6.97008E+04 8.76909E-08 6.18029E-08
 -1       540-4.10878E+05-4.20123E+02-4.25752E+03-3.36323E+04-3.66094E-09 5.14057E-08
 -1       541-2.13542E+05 5.47910E+03 3.36973E+04 4.40320E+04-1.69860E-08 3.45779E-08
 -1       542-5.00761E+05-6.20503E+03-2.49744E+04-1.17128E+04 3.67336E-08 1.65511E-08
 -1       543-1.41602E+05 8.14293E+03 4.68458E+04-8.36182E+03-7.74673E-09-1.35158E-08
 -1       544-4.80911E+05-4.64093E+03-2.19674E+04 1.86474E+04-1.48041E-08-2.45375E-08
 -1       545-2.58602E+05 2.06549E+03 2.14674E+04-5.56370E+04 1.24903E-08-4.38621E-08
 -1       546-3.86853E+05 2.39470E+03-4.93642E+03 3.55188E+04 1.01808E-08-5.24325E-08
 -1       547-3.49297E+05-4.01825E+03-1.97445E+03-7.16721E+04-6.56906E-08-4.36070E-08
 -1       548-3.92592E+05 3.38555E+03-1.48869E+04 3.47894E+04-6.24955E-08-5.94678E-08
 -1       549-2.50696E+05-9.86912E+03-2.14750E+03-5.23554E+04-4.21879E-08-3.02080E-08
 -1       550-4.82707E+05 5.98984E+03-6.79959E+04 1.60849E+04 5.35510E-09-1.94177E-08
 -1       551 2.46685E+04-6.71210E+05 2.06640E+04-1.06810E+06-6.24495E-08 1.02882E-08
 -1       552 5.48169E+04-6.90344E+05 3.03568E+04-1.52211E+06-4.42378E-08 3.83588E-08
 -1       553 3.99074E+04-6.94755E+05 4.56729E+04-1.06367E+06-7.51170E-08 2.69647E-08
 -1       554 8.44190E+04-6.91477E+05 9.69230E+04-1.52380E+06-4.82905E-08 7.87895E-09
 -1       555 6.89562E+04-7.14722E+05 1.72156E+05-1.06439E+06-7.69942E-08-4.95129E-09
 -1       556 1.36249E+05-2.46741E+05 6.30299E+04-2.96921E+05-1.26747E-08-7.74162E-09
 -1       557 2.31442E+05-3.23363E+05 3.38602E+04-3.76219E+05-1.10595E-09-1.60526E-08
 -1       558 1.30819E+05-2.52125E+05 1.25248E+04-2.91916E+05-1.18453E-08-4.76939E-09
 -1       559 2.15013E+05-3.30684E+05 6.72018E+03-3.85780E+05 1.22236E-08-8.09086E-09
 -1       560 1.24450E+05-2.48055E+05 2.10308E+03-2.96284E+05 1.67347E-09-7.49424E-10
 -1       561 2.06447E+05-3.27670E+05 1.38340E+03-3.91392E+05-3.85626E-10 1.46592E-08
 -1       562 1.19440E+05-2.44859E+05 1.81202E+02-2.99878E+05-4.90400E-09-6.28825E-09
 -1       563 2.00565E+05-3.25110E+05 3.38291E+02-3.95183E+05-7.40692E-09 6.49675E-09
 -1       564 1.16077E+05-2.42739E+05 5.39605E+00-3.02253E+05 2.37196E-09-1.06061E-08
 -1       565 1.97042E+05-3.23580E+05 1.31946E+02-3.97418E+05 4.91127E-09-1.05319E-08
 -1       566 1.14425E+05-2.41684E+05 2.25682E+00-3.03413E+05-3.55067E-09-1.93613E-08
 -1       567 1.95849E+05-3.23048E+05-7.78146E+01-3.98078E+05 1.11113E-08-1.18089E-08
 -1       568 1.14535E+05-2.41767E+05-4.09878E+02-3.03428E+05-3.24508E-09 4.76575E-09
 -1       569 1.96048E+05-3.22970E+05-1.02247E+03-3.96315E+05-4.47471E-09 3.21234E-09
 -1       570 1.17175E+05-2.43960E+05-2.41836E+03-3.02946E+05 2.90311E-09-1.16261E-08
 -1       571 2.29196E+05 8.37580E+03 1.22905E+04-6.19885E+04 1.46110E-09 4.82578E-09
 -1       572 2.31012E+05 2.97694E+03 6.02200E+03-6.79949E+04-2.57160E-09 7.61588E-09
 -1       573 2.29924E+05 7.72651E+02 2.67549E+03-6.18534E+04 8.11269E-10 5.76256E-09
 -1       574 2.30130E+05 3.18426E+02 1.34089E+03-6.81526E+04 2.08502E-09 8.52651E-10
 -1       575 2.30005E+05 1.16101E+02 6.32450E+02-6.18354E+04 2.76486E-10 1.38971E-09
 -1       576 2.30014E+05 1.01453E+02 3.22879E+02-6.81737E+04-2.60872E-09 1.67756E-09
 -1       577 2.30025E+05 7.65548E+01 1.60510E+02-6.18330E+04-1.39653E-09 6.79756E-09
 -1       578 2.30014E+05 8.40272E+01 9.07221E+01-6.81764E+04-3.49610E-09-1.35728E-08
 -1       579 2.30052E+05 6.55705E+01 6.06372E+01-6.18328E+04 1.60981E-10-9.06402E-09
 -1       580 2.30052E+05 6.68581E+01 6.60048E+01-6.81728E+04-3.11184E-09 2.77669E-09
 -1       581 2.30096E+05 4.65049E+01 9.86292E+01-6.18366E+04 1.10049E-09 1.20467E-08
 -1       582 2.30128E+05 6.64884E+01 1.96237E+02-6.81335E+04-2.81580E-09 1.05347E-08
 -1       583 2.30146E+05 1.04564E+02 3.79533E+02-6.18722E+04-1.38098E-08 7.96490E-10
 -1       584 2.30331E+05 4.06950E+02 8.54432E+02-6.78344E+04-2.15459E-08-9.36063E-09
 -1       585 2.30112E+05 1.15307E+03 1.73527E+03-6.21360E+04-9.64428E-09-1.51304E-08
 -1       586-2.96104E+03 7.64271E+04-3.50108E+03-2.06905E+05-1.88084E-09-4.13098E-08
 -1       587-7.73963E+02 7.60078E+04-5.72028E+01-2.27744E+05-3.89628E-09-7.93875E-08
 -1       588 7.14830E+02 7.60377E+04 3.30495E+03-2.06808E+05-1.65892E-09-3.48091E-08
 -1       589 4.34195E+03 7.78320E+04 9.16536E+03-2.27503E+05-1.79898E-09-6.53927E-10
 -1       590 1.29987E+04 7.50228E+04 1.94583E+04-2.07164E+05-1.49157E-09 3.43971E-09
 -1       591-4.31994E+04-1.13995E+04-1.57724E+04-2.09080E+04-1.85150E-09-5.85896E-09
 -1       592-4.53911E+04-1.45606E+04-8.54331E+03-2.42096E+04 1.69348E-09-6.48129E-09
 -1       593-4.47834E+04-1.02482E+04-3.55647E+03-2.20580E+04-9.97829E-10-1.28102E-08
 -1       594-4.32043E+04-1.22561E+04-1.77391E+03-2.43041E+04-7.31234E-10-5.57051E-10
 -1       595-4.49044E+04-1.02438E+04-8.15105E+02-2.21104E+04-8.70557E-10-2.03143E-09
 -1       596-4.30553E+04-1.21507E+04-4.15520E+02-2.42874E+04 4.60411E-09 1.53842E-08
 -1       597-4.49196E+04-1.02543E+04-2.28626E+02-2.21124E+04-6.22066E-10 2.66516E-09
 -1       598-4.30409E+04-1.21466E+04-1.88116E+02-2.42827E+04-2.54107E-09-1.23423E-08
 -1       599-4.49184E+04-1.02544E+04-2.45682E+02-2.21120E+04 3.79077E-09-7.42102E-09
 -1       600-4.30568E+04-1.21519E+04-4.60675E+02-2.42866E+04 6.66432E-10 2.22974E-09
 -1       601-4.48993E+04-1.02434E+04-9.11057E+02-2.21091E+04-3.09001E-10-8.23252E-09
 -1       602-4.32234E+04-1.22696E+04-1.98674E+03-2.43030E+04-1.51067E-09-6.02301E-09
 -1       603-4.47619E+04-1.02504E+04-3.98479E+03-2.20507E+04-2.28192E-09 5.05770E-09
 -1       604-4.56848E+04-1.48392E+04-9.57233E+03-2.41810E+04-8.31278E-10 1.21363E-08
 -1       605-4.29735E+04-1.15516E+04-1.76722E+04-2.07745E+04 1.81996E-09 9.70795E-09
 -1       606 2.69522E+04-1.10482E+04-1.98537E+04 2.64610E+04 3.69255E-10-4.49290E-10
 -1       607 2.35552E+04-3.58323E+03-9.88628E+03 2.97114E+04 8.36735E-10-1.94123E-08
 -1       608 2.54835E+04-6.22942E+02-4.42692E+03 2.62553E+04 3.41242E-09 3.84375E-09
 -1       609 2.51040E+04-1.83600E+02-2.23596E+03 2.99447E+04 5.06861E-09 8.41783E-09
 -1       610 2.53079E+04 4.27392E+00-1.06771E+03 2.62320E+04 3.10865E-09 4.58044E-09
 -1       611 2.52400E+04 1.43079E+01-5.38271E+02 2.99701E+04-7.06677E-09 3.16277E-09
 -1       612 2.52626E+04 2.04824E+01-2.56817E+02 2.62297E+04-1.72986E-09-2.80397E-09
 -1       613 2.52397E+04 2.26724E+01-1.15767E+02 2.99731E+04 8.87030E-09-3.97131E-09
 -1       614 2.52382E+04 2.00927E+01-2.93497E+01 2.62289E+04 8.60200E-09 7.26459E-09
 -1       615 2.52282E+04 2.78794E+01 4.36177E+01 2.99736E+04 7.25413E-09 9.13587E-10
 -1       616 2.52196E+04 2.58548E+01 1.35231E+02 2.62292E+04 1.48930E-09-2.43153E-09
 -1       617 2.52391E+04 5.99764E+01 3.10517E+02 2.99730E+04 2.75099E-09-1.14906E-08
 -1       618 2.51886E+04 1.17889E+02 6.26480E+02 2.62293E+04 7.93079E-10-8.28504E-09
 -1       619 2.54570E+04 5.46419E+02 1.40731E+03 2.99722E+04 1.61413E-09-2.42085E-09
 -1       620 2.49785E+04 1.60523E+03 2.82870E+03 2.62285E+04 8.91305E-11 6.41649E-10
 -1       621 2.89797E+02 2.35416E+05 2.58724E+03 1.93974E+04 2.15550E-10-9.51468E-09
 -1       622 3.54739E+02 2.36045E+05 2.33822E+03 2.82310E+04 3.03999E-10-1.13087E-08
 -1       623 2.81227E+01 2.35568E+05 2.87156E+03 1.93084E+04 2.59149E-10 2.06501E-08
 -1       624 1.37155E+03 2.36955E+05 5.61357E+03 2.83183E+04 1.49171E-10 1.73044E-08
 -1       625 1.37343E+03 2.34465E+05 9.83383E+03 1.93091E+04 2.51930E-10 3.25826E-09
 -1       626 2.05768E+05 5.41662E+04 4.38813E+03 1.07254E+05 3.23780E-09 1.42118E-08
 -1       627 2.03328E+05 5.58163E+04 2.11461E+03 1.11421E+05-3.39696E-10-4.12001E-09
 -1       628 2.05901E+05 5.21271E+04 8.93494E+02 1.07960E+05 3.30601E-09 9.94396E-09
 -1       629 2.02738E+05 5.52745E+04 4.37490E+02 1.11664E+05-5.24824E-09-4.62194E-10
 -1       630 2.05910E+05 5.20308E+04 2.02130E+02 1.07983E+05-2.82853E-09-8.88696E-09
 -1       631 2.02669E+05 5.52585E+04 1.07909E+02 1.11664E+05-1.16597E-09-5.87795E-09
 -1       632 2.05901E+05 5.20375E+04 6.94409E+01 1.07975E+05 1.56160E-09 5.92649E-09
 -1       633 2.02656E+05 5.52633E+04 7.49875E+01 1.11657E+05-1.57343E-10 1.21872E-09
 -1       634 2.05892E+05 5.20379E+04 1.19005E+02 1.07971E+05 2.29511E-09-6.64431E-09
 -1       635 2.02663E+05 5.52641E+04 2.39614E+02 1.11658E+05-8.86303E-10-2.20057E-08
 -1       636 2.05882E+05 5.20357E+04 4.83174E+02 1.07969E+05-2.94548E-09-8.99809E-09
 -1       637 2.02765E+05 5.53395E+04 1.06170E+03 1.11655E+05-8.21501E-10 4.00178E-10
 -1       638 2.05842E+05 5.22714E+04 2.18140E+03 1.07863E+05-2.76032E-10-2.12185E-09
 -1       639 2.03915E+05 5.69282E+04 5.16081E+03 1.11311E+05-2.23463E-09-1.38266E-08
 -1       640 2.05685E+05 5.70283E+04 1.07095E+04 1.05856E+05-4.66207E-09 2.94995E-09
 -1       656 5.44191E+04-1.38472E+06-1.31376E+05-7.43648E+02 2.25555E-10-8.25165E-09
 -1       657-7.19687E+04-1.44405E+06-1.08771E+05 7.18365E+03 1.93722E-10-1.95143E-08
 -1       658 1.73208E+04-1.40160E+06-6.69133E+04-2.26496E+03 4.61796E-10 4.22839E-09
 -1       659-7.76081E+04-1.44672E+06-1.16179E+05 8.30928E+03-7.33962E-10-5.21619E-10
 -1       660 6.00454E+04-1.38205E+06-1.44114E+05-1.86926E+03-5.23869E-10 2.11730E-09
 -1       661 1.62946E+05 1.75074E+04 1.62346E+04 6.37345E+04 1.06274E-09 7.00311E-11
 -1       662 1.71744E+05 2.99037E+04 1.09401E+04 6.05259E+04 2.13049E-09-5.31065E-09
 -1       663 1.66133E+05 2.27175E+04 3.82663E+03 6.28116E+04-1.89868E-09 2.35150E-09
 -1       664 1.68053E+05 2.38081E+04 2.28842E+03 6.16508E+04 3.13048E-09 6.17803E-10
 -1       665 1.66613E+05 2.34318E+04 9.02792E+02 6.26740E+04-4.09710E-09 2.89245E-09
 -1       666 1.67487E+05 2.29890E+04 5.27451E+02 6.18289E+04-6.68946E-09 4.30185E-09
 -1       667 1.66695E+05 2.35151E+04 2.79288E+02 6.26414E+04-9.86773E-10 8.11605E-09
 -1       668 1.67398E+05 2.29264E+04 2.82472E+02 6.18762E+04-7.49083E-10-1.59402E-08
 -1       669 1.66702E+05 2.34926E+04 3.80750E+02 6.26272E+04 1.78771E-09 4.51365E-09
 -1       670 1.67492E+05 2.31309E+04 8.27488E+02 6.18776E+04-2.37713E-09-1.54607E-09
 -1       671 1.66602E+05 2.33147E+04 1.46874E+03 6.26382E+04-4.26695E-09-9.64928E-09
 -1       672 1.68348E+05 2.45596E+04 3.75731E+03 6.16704E+04-2.73204E-09 9.04896E-09
 -1       673 1.65850E+05 2.20999E+04 6.29648E+03 6.28206E+04-9.85551E-10 1.08457E-10
 -1       674 1.74343E+05 3.46734E+04 1.80066E+04 5.99075E+04-3.52776E-09-2.96268E-10
 -1       675 1.60646E+05 1.34838E+04 2.67278E+04 6.42945E+04 3.10592E-10-2.97405E-09
 -1       676 2.11242E+01-2.56321E+05-9.81352E+02-2.11824E+00 3.01810E-10 1.07395E-08
 -1       677-2.60632E+02-2.56558E+05-1.79601E+03 4.23380E+00 3.77554E-10-9.46810E-09
 -1       678 1.73972E+02-2.56152E+05-3.17488E+03-2.11411E+00-6.82121E-12 5.18391E-09
 -1       679-3.17582E+03-2.58475E+05-7.54206E+03 4.21792E+00 1.35105E-09-5.89981E-09
 -1       680 1.89534E+03-2.54406E+05-1.21553E+04-2.07857E+00 7.50333E-11 5.43970E-09
 -1       771-2.71155E+06-5.60857E+05-8.79890E+04-1.21402E+06-2.10857E-08-1.80444E-08
 -1       772-2.66795E+06-6.18121E+05-4.60658E+04-1.27937E+06-1.24564E-08 9.12041E-09
 -1       773-2.72734E+06-5.48381E+05-2.20240E+04-1.21978E+06-1.03319E-08 1.24055E-08
 -1       774-2.65919E+06-6.08880E+05-1.01423E+04-1.29084E+06 1.20126E-08 5.95173E-09
 -1       775-2.73412E+06-5.43576E+05-6.62709E+03-1.22180E+06-6.76664E-09 2.98314E-09
 -1       776-2.66265E+06-6.08358E+05-2.64110E+03-1.29877E+06-7.36327E-09 3.09592E-09
 -1       777-2.73972E+06-5.39469E+05-2.59652E+03-1.22355E+06-9.74978E-10 3.43425E-09
 -1       778-2.66656E+06-6.07990E+05-7.96091E+02-1.30549E+06-1.36788E-09 5.72800E-09
 -1       779-2.74441E+06-5.35952E+05-1.20482E+03-1.22506E+06-5.64614E-09-1.22782E-09
 -1       780-2.67002E+06-6.07602E+05-2.32526E+02-1.31095E+06 1.05865E-09-2.19188E-10
 -1       781-2.74808E+06-5.33152E+05-4.78328E+02-1.22625E+06-1.33441E-08 3.32693E-09
 -1       782-2.67267E+06-6.07237E+05 8.22036E+01-1.31495E+06-2.36942E-08-5.98084E-09
 -1       783-2.75063E+06-5.31241E+05 1.04414E+02-1.22708E+06 4.29281E-10-1.06972E-08
 -1       784-2.67417E+06-6.06794E+05 6.76957E+02-1.31740E+06-6.40284E-10 2.21530E-09
 -1       785-2.75204E+06-5.30175E+05 1.16573E+03-1.22759E+06-2.20607E-08-4.24188E-09
 -1       786 1.34489E+05-9.40179E+03 2.17507E+04-1.42145E+02 6.93548E-10-4.58658E-09
 -1       787 1.43920E+05 1.08844E+04 1.53880E+04 2.27101E+01 4.03992E-09 7.69887E-09
 -1       788 1.38126E+05-1.47373E+03 5.62816E+03-1.13771E+02 1.88995E-09 1.06436E-08
 -1       789 1.39683E+05 1.70505E+03 3.53425E+03-2.27802E+01 4.00023E-10-2.08786E-10
 -1       790 1.38726E+05-2.29956E+02 1.43341E+03-9.66605E+01-8.41531E-10 7.27579E-09
 -1       791 1.38981E+05 2.65895E+02 8.32681E+02-5.23020E+01-1.50276E-09 2.88866E-08
 -1       792 1.38828E+05-3.56504E+01 3.62405E+02-8.42494E+01-1.22366E-09 1.36681E-08
 -1       793 1.38863E+05 4.15999E+01 2.01614E+02-7.56068E+01 2.14071E-10-9.54638E-09
 -1       794 1.38845E+05-5.80342E+00 9.44966E+01-7.33555E+01 1.35216E-09-1.13973E-08
 -1       795 1.38843E+05 9.20994E+00 5.74171E+01-9.83803E+01-1.16894E-09 7.49147E-09
 -1       796 1.38847E+05-3.27622E+00 3.80762E+01-6.14755E+01 1.16085E-09 7.42348E-10
 -1       797 1.38847E+05 1.94591E+01 5.01105E+01-1.25807E+02 1.64333E-09-6.37705E-09
 -1       798 1.38841E+05-1.60463E+01 6.63474E+01-4.59280E+01 6.39515E-10-4.46253E-09
 -1       799 1.38893E+05 1.18038E+02 1.69405E+02-1.64109E+02 1.79795E-09-6.26223E-09
 -1       800 1.38801E+05-1.01786E+02 2.36080E+02-2.31736E+01-1.83320E-11 3.09002E-09
 -1       801 7.57540E+04-4.35010E+06-4.61805E+05 2.22079E+05 3.61033E-08-1.69675E-08
 -1       802-5.30935E+04-2.55864E+06 3.96652E+04-2.09177E+05 1.01587E-07-8.74388E-09
 -1       803-2.49071E+04-4.41807E+06-2.29391E+05 2.21357E+05 4.55184E-08 2.92184E-08
 -1       804-2.48924E+04-3.14707E+06 5.12657E+04 1.71805E+05-7.34417E-09-9.32801E-10
 -1       805 3.83482E+04-3.76691E+06-5.59767E+04-1.58680E+05-3.62161E-09-2.24233E-09
 -1       806-2.54726E+05-4.82887E+04-1.85522E+04-9.97751E+04 5.65524E-09 1.25178E-08
 -1       807-2.56354E+05-4.50916E+04-9.11448E+03-1.04075E+05 1.66592E-08 1.05047E-08
 -1       808-2.55221E+05-4.16175E+04-3.86674E+03-1.02954E+05 1.59071E-09 9.96886E-09
 -1       809-2.54446E+05-4.25239E+04-1.89077E+03-1.04293E+05-4.38922E-09 3.50453E-08
 -1       810-2.55298E+05-4.13850E+04-8.66518E+02-1.03096E+05-5.18412E-10-1.57729E-09
 -1       811-2.54299E+05-4.24199E+04-4.30821E+02-1.04264E+05 2.37787E-09-5.36238E-09
 -1       812-2.55311E+05-4.14043E+04-2.17540E+02-1.03096E+05-4.50746E-09-1.42957E-08
 -1       813-2.54281E+05-4.24210E+04-1.40938E+02-1.04251E+05-3.04271E-09-1.77220E-08
 -1       814-2.55308E+05-4.14110E+04-1.38768E+02-1.03093E+05-1.17689E-09-1.33441E-08
 -1       815-2.54285E+05-4.24223E+04-2.23121E+02-1.04246E+05 1.35333E-09-8.14089E-09
 -1       816-2.55293E+05-4.14090E+04-4.22220E+02-1.03091E+05 1.23600E-09 2.48656E-09
 -1       817-2.54359E+05-4.24621E+04-9.06495E+02-1.04240E+05 6.83940E-09 1.69441E-08
 -1       818-2.55241E+05-4.15351E+04-1.84853E+03-1.03032E+05 6.33463E-09 1.07548E-08
 -1       819-2.55372E+05-4.35802E+04-4.35030E+03-1.04005E+05 1.04910E-08 8.71114E-09
 -1       820-2.54900E+05-4.48150E+04-8.85397E+03-1.01622E+05 6.99401E-10 6.79177E-09
 -1       821-2.38664E+05 1.24545E+04-3.55875E+04-3.72587E+03-2.11728E-08 1.46611E-09
 -1       822-2.19148E+05-1.56701E+04-1.93496E+04 1.10504E+04-2.54699E-08-1.03103E-08
 -1       823-2.29698E+05 3.26781E+03-8.54240E+03-5.69517E+03 2.43112E-08 5.09635E-09
 -1       824-2.01892E+05-2.04738E+03 3.61701E+02 7.74354E+03-1.35111E-09-7.65931E-09
 -1       825-2.55825E+05-1.26264E+03-7.57989E+03-4.18738E+02 1.24605E-08 1.14369E-08
 -1       826-1.94378E+05 6.30111E+02 5.69421E+03-3.97268E+03 6.01804E-08 1.14199E-08
 -1       827-2.37158E+05 5.37008E+02-2.18753E+03 6.01955E+03 6.35591E-08 1.19083E-08
 -1       828-2.14245E+05-1.12027E+03 2.05142E+03-1.05394E+04 8.97456E-08 5.84230E-09
 -1       829-2.36120E+05 6.53217E+02-1.98752E+03 6.14974E+03 1.35405E-08 1.52035E-08
 -1       830-1.95144E+05 5.39824E+02 5.48521E+03-4.37080E+03-3.06692E-08 1.84549E-09
 -1       831-2.56104E+05-1.28249E+03-7.71987E+03-1.50807E+02-2.82995E-10-3.78111E-09
 -1       832-2.00988E+05-2.04734E+03 3.67886E+02 7.40385E+03-4.74393E-09 6.84122E-09
 -1       833-2.30316E+05 3.27980E+03-9.00000E+03-5.62341E+03-3.58845E-09-3.60160E-10
 -1       834-2.19909E+05-1.63488E+04-2.03315E+04 1.11727E+04-5.15817E-09 2.26464E-09
 -1       835-2.37289E+05 1.31251E+04-3.65920E+04-3.91990E+03 1.40687E-08-5.80258E-10
 -1       836-1.04034E+03 2.94820E+05 1.74489E+04-1.75530E+04-9.14042E-10 1.07666E-08
 -1       837 3.79507E+03 3.00253E+05 1.50481E+04-3.53433E+04-5.81849E-10 6.29757E-09
 -1       838-4.10040E+02 2.96298E+05 1.57287E+04-1.74841E+04-5.79803E-10 1.23139E-08
 -1       839 1.01315E+04 3.04973E+05 3.01437E+04-3.53843E+04-1.75987E-10 4.90553E-09
 -1       840-3.08230E+03 2.90052E+05 4.82390E+04-1.75117E+04-2.72848E-10 6.39608E-09
 -1       856-6.94719E+04 7.56899E+03-1.99465E+04-4.17603E+02-1.54023E-09 4.06453E-09
 -1       857-7.77057E+04-8.88116E+03-1.37320E+04 4.83909E+03 4.69527E-10-8.65089E-09
 -1       858-7.27268E+04 1.06075E+03-5.17620E+03-4.38733E+02-1.48066E-09-3.95835E-09
 -1       859-7.39688E+04-1.23653E+03-3.12506E+03 4.87212E+03-1.16150E-09 1.26416E-08
 -1       860-7.32133E+04 1.47759E+02-1.31200E+03-4.50660E+02 2.49543E-11 3.32051E-09
 -1       861-7.34087E+04-1.65803E+02-7.26638E+02 4.88842E+03-3.10257E-09-1.48009E-09
 -1       862-7.32892E+04 1.95357E+01-3.11816E+02-4.55053E+02 3.79049E-09 1.01176E-08
 -1       863-7.33174E+04-1.21067E+01-1.35753E+02 4.89055E+03 6.96560E-09-1.50330E-08
 -1       864-7.33049E+04-2.52905E+00-5.37087E+00-4.52795E+02 1.85331E-09-2.41916E-09
 -1       865-7.32786E+04 4.24522E+01 1.29695E+02 4.87882E+03 4.30884E-09-1.59882E-08
 -1       866-7.33261E+04-3.52855E+01 2.86991E+02-4.43322E+02-1.03319E-09-6.36669E-09
 -1       867-7.31369E+04 2.93914E+02 7.22874E+02 4.85307E+03 1.86515E-09 2.59070E-09
 -1       868-7.34429E+04-2.50169E+02 1.20515E+03-4.27044E+02 8.27526E-10 2.46445E-09
 -1       869-7.22485E+04 2.08172E+03 3.21499E+03 4.81015E+03-8.50264E-10-5.81048E-09
 -1       870-7.42086E+04-1.77557E+03 4.66484E+03-4.00401E+02-2.30784E-11 2.46996E-09
 -1       871-4.71757E+03-1.23695E+04-1.56588E+04 1.04471E+05 1.41881E-10-6.08270E-09
 -1       872-1.95645E+03-1.59182E+04-6.45777E+03 1.35447E+05-3.46517E-10 1.16456E-08
 -1       873 5.38081E+01-1.42480E+04 7.22377E+02 1.04242E+05-2.23281E-10-2.50202E-09
 -1       874 2.43703E+03-1.21017E+04 8.43843E+03 1.35487E+05-1.07320E-10-7.33962E-09
 -1       875 5.55430E+03-1.62545E+04 1.88430E+04 1.04434E+05 2.74667E-10-7.69796E-09
 -1       876 2.46370E+05 4.19553E+04 1.28299E+04 9.93802E+04-3.28509E-09 6.82121E-11
 -1       877 2.47185E+05 4.46910E+04 6.85158E+03 1.03087E+05-9.04947E-10-3.12957E-09
 -1       878 2.47569E+05 4.05361E+04 2.87052E+03 1.00434E+05 8.59472E-11-6.65477E-09
 -1       879 2.45441E+05 4.29511E+04 1.43015E+03 1.03175E+05 5.46834E-09 2.29966E-09
 -1       880 2.47655E+05 4.05208E+04 6.66091E+02 1.00477E+05 3.02407E-11 6.25994E-09
 -1       881 2.45325E+05 4.28769E+04 3.55435E+02 1.03156E+05 1.42677E-09 7.16207E-09
 -1       882 2.47664E+05 4.05316E+04 2.26981E+02 1.00479E+05 4.49359E-09 5.24768E-09
 -1       883 2.45317E+05 4.28732E+04 2.43322E+02 1.03150E+05 1.69257E-09 8.57031E-09
 -1       884 2.47658E+05 4.05290E+04 3.86458E+02 1.00479E+05-1.94643E-09-4.72500E-09
 -1       885 2.45348E+05 4.28787E+04 7.76621E+02 1.03160E+05 1.22643E-09 3.24769E-09
 -1       886 2.47628E+05 4.05063E+04 1.56508E+03 1.00476E+05-4.82487E-09-1.62686E-10
 -1       887 2.45623E+05 4.30591E+04 3.41869E+03 1.03199E+05-1.21501E-08-8.24161E-09
 -1       888 2.47412E+05 4.05442E+04 6.88878E+03 1.00366E+05 1.79568E-10 1.52841E-09
 -1       889 2.49725E+05 4.73228E+04 1.64564E+04 1.03072E+05-3.07296E-10 1.67870E-09
 -1       890 2.44606E+05 4.38787E+04 3.08221E+04 9.77385E+04 2.06296E-09 5.03132E-09
 -1       891-1.31263E+02-1.38185E+05-1.66710E+03 2.47163E+04-4.03134E-10 4.73710E-09
 -1       892-2.32930E+02-1.38596E+05-1.79962E+03 3.74349E+04 1.22145E-09-2.21098E-09
 -1       893-2.02842E+01-1.38238E+05-2.55744E+03 2.47218E+04 1.16165E-09 4.33693E-09
 -1       894-1.36041E+03-1.39568E+05-5.29985E+03 3.72999E+04-2.01453E-10-3.23962E-09
 -1       895-1.06854E+03-1.37134E+05-9.33558E+03 2.48503E+04-1.05524E-09-4.28190E-09
 -1       956-3.13457E+05-4.42718E+03-1.10985E+04 2.20589E+04-2.47474E-09-5.29792E-09
 -1       957-3.15646E+05-1.50765E+03-5.69732E+03 2.65610E+04-4.10000E-09-4.25189E-09
 -1       958-3.14445E+05-1.34782E+02-2.56692E+03 2.19282E+04 1.20872E-09-6.37169E-09
 -1       959-3.14618E+05-3.87218E+01-1.31108E+03 2.67055E+04-5.03860E-10 2.03499E-10
 -1       960-3.14536E+05 2.24805E+01-6.39255E+02 2.19153E+04 3.87854E-09-7.21889E-09
 -1       961-3.14545E+05 1.78656E+01-3.39283E+02 2.67203E+04 8.15453E-09 8.13770E-10
 -1       962-3.14555E+05 1.88601E+01-1.94516E+02 2.19133E+04 2.62776E-09 7.20593E-09
 -1       963-3.14542E+05 1.96599E+01-1.56721E+02 2.67229E+04-2.09729E-09-6.49243E-09
 -1       964-3.14558E+05 2.10386E+01-1.91044E+02 2.19127E+04-1.72736E-09 6.48015E-11
 -1       965-3.14553E+05 2.25113E+01-3.30804E+02 2.67225E+04-1.77806E-10-1.46883E-10
 -1       966-3.14547E+05 2.89581E+01-6.21493E+02 2.19137E+04 1.72076E-09 8.02402E-10
 -1       967-3.14632E+05-2.79787E+01-1.27485E+03 2.67128E+04 4.25871E-10 7.31166E-09
 -1       968-3.14465E+05-1.19674E+02-2.49522E+03 2.19225E+04 1.35515E-10 3.05101E-09
 -1       969-3.15640E+05-1.45246E+03-5.53990E+03 2.66100E+04 9.55879E-10 1.10894E-08
 -1       970-3.13510E+05-4.29079E+03-1.07911E+04 2.20166E+04 1.38971E-09 1.22091E-08
 -1       971-2.91857E+05-1.49703E+03-8.25214E+03 1.36209E+04-1.53341E-09-3.74391E-09
 -1       972-2.93858E+05-1.08058E+03-4.49405E+03 1.89795E+04 1.00408E-09-8.43147E-09
 -1       973-2.92776E+05-2.15823E+01-2.01260E+03 1.35084E+04-1.05592E-09 9.33710E-09
 -1       974-2.92910E+05-2.55057E+01-1.04288E+03 1.91026E+04 2.18370E-09-4.34329E-09
 -1       975-2.92848E+05 1.75985E+01-5.20771E+02 1.34978E+04-9.41782E-10-9.06800E-09
 -1       976-2.92854E+05 1.81924E+01-2.99489E+02 1.91158E+04 2.01612E-09-9.48603E-09
 -1       977-2.92862E+05 1.77985E+01-2.15655E+02 1.34951E+04 2.35559E-10-7.48037E-09
 -1       978-2.92858E+05 2.33462E+01-2.50028E+02 1.91195E+04 4.16196E-09-6.21071E-10
 -1       979-2.92862E+05 2.47869E+01-3.99710E+02 1.34940E+04 1.95155E-09 5.13944E-09
 -1       980-2.92888E+05 2.58878E+01-7.70531E+02 1.91202E+04 5.02428E-09-6.06587E-09
 -1       981-2.92837E+05 4.40136E+01-1.49168E+03 1.34944E+04 1.62674E-09-1.58754E-08
 -1       982-2.93093E+05-8.42661E+01-3.08289E+03 1.91144E+04-1.61845E-09-7.80193E-09
 -1       983-2.92649E+05-5.14117E+01-5.98987E+03 1.35000E+04 2.12594E-10 7.49060E-09
 -1       984-2.95973E+05-3.21244E+03-1.34137E+04 1.90376E+04 2.29647E-11 1.34678E-08
 -1       985-2.89937E+05-4.43440E+03-2.46318E+04 1.35736E+04 1.32286E-09 4.18368E-11
 -3
    1PSTEP                        15           8           1          
  100CL  108 6.09375E-01         409                     0    8           1
 -4  DISP        4    1
 -5  D1          1    2    1    0
 -5  D2          1    2    2    0
 -5  D3          1    2    3    0
 -5  ALL         1    2    0    0    1ALL
 -1         1 1.30195E-03 0.00000E+00 0.00000E+00
 -1         2 1.22690E-03-6.61201E-28 1.32349E-23
 -1         3 2.69067E-04 5.92591E-27-1.32349E-23
 -1         5 1.49515E-04 2.31149E-26 0.00000E+00
 -1         8 1.28242E-03-6.15930E-07 0.00000E+00
 -1         9 1.25091E-03-3.71105E-06 0.00000E+00
 -1        10 2.44811E-04-3.24200E-06 0.00000E+00
 -1        12 1.50382E-04 7.07209E-07 8.27181E-25
 -1        15 1.25900E-03-6.77738E-07-2.06795E-25
 -1        16 1.26582E-03-4.51204E-06 0.00000E+00
 -1        17 1.69328E-04-7.13604E-06 0.00000E+00
 -1        18 1.51577E-04 2.07288E-05 0.00000E+00
 -1        19 1.52982E-04 1.41027E-06 0.00000E+00
 -1        20 1.53125E-04 8.52889E-07 0.00000E+00
 -1        21 1.52353E-04-2.61925E-06 0.00000E+00
 -1        24 2.71929E-05-1.03270E-05 0.00000E+00
 -1        25 1.57437E-04 2.09124E-05 0.00000E+00
 -1        26 1.58190E-04 1.95389E-06 0.00000E+00
 -1        27 1.56161E-04-2.29654E-06 0.00000E+00
 -1        28 1.55807E-04-3.18715E-06 0.00000E+00
 -1        32 0.00000E+00 0.00000E+00 0.00000E+00
 -1        33 1.62233E-04 2.62270E-06 0.00000E+00
 -1        34 1.60329E-04-2.33692E-06 0.00000E+00
 -1        35 1.58578E-04-3.49568E-06 0.00000E+00
 -1        51 1.30069E-03-1.11078E-07 0.00000E+00
 -1        52 1.29834E-03-2.10005E-07 0.00000E+00
 -1        53 1.29513E-03-3.07834E-07 0.00000E+00
 -1        54 1.29125E-03-4.06566E-07 0.00000E+00
 -1        55 1.28695E-03-5.07567E-07 4.96308E-24
 -1        56 1.29893E-03-3.60702E-07 0.00000E+00
 -1        57 1.29531E-03 5.62351E-07 2.64698E-23
 -1        58 1.29126E-03 2.61543E-06 0.00000E+00
 -1        59 1.28687E-03 5.51832E-06 0.00000E+00
 -1        60 1.28231E-03 8.89214E-06 0.00000E+00
 -1        61 1.27772E-03 1.23191E-05 0.00000E+00
 -1        62 1.27327E-03 1.53758E-05 0.00000E+00
 -1        63 1.26911E-03 1.76621E-05 0.00000E+00
 -1        64 1.26536E-03 1.88820E-05 0.00000E+00
 -1        65 1.26209E-03 1.88105E-05-5.29396E-23
 -1        66 1.25933E-03 1.73961E-05 1.05879E-22
 -1        67 1.25705E-03 1.46781E-05 0.00000E+00
 -1        68 1.25519E-03 1.08701E-05 0.00000E+00
 -1        69 1.25364E-03 6.26542E-06 0.00000E+00
 -1        70 1.25223E-03 1.25214E-06 0.00000E+00
 -1        86 1.22796E-03-6.09232E-07 0.00000E+00
 -1        87 1.23113E-03-1.22287E-06 0.00000E+00
 -1        88 1.23577E-03-1.84185E-06 2.64698E-23
 -1        89 1.24121E-03-2.46554E-06 0.00000E+00
 -1        90 1.24656E-03-3.08845E-06 0.00000E+00
 -1       121 2.68386E-04-5.30024E-07 0.00000E+00
 -1       122 2.66346E-04-1.06183E-06 0.00000E+00
 -1       123 2.62954E-04-1.59718E-06-1.32349E-23
 -1       124 2.58222E-04-2.13785E-06 0.00000E+00
 -1       125 2.52167E-04-2.68534E-06 0.00000E+00
 -1       191 1.49539E-04 1.17885E-07-3.30872E-24
 -1       192 1.49612E-04 2.35767E-07-8.27181E-25
 -1       193 1.49732E-04 3.53645E-07 3.30872E-24
 -1       194 1.49900E-04 4.71514E-07-8.27181E-25
 -1       195 1.50117E-04 5.89370E-07 1.65436E-24
 -1       251 1.28174E-03-1.14176E-05 0.00000E+00
 -1       252 1.28035E-03-5.13077E-05-6.61744E-24
 -1       253 1.27795E-03-1.12448E-04 0.00000E+00
 -1       254 1.27471E-03-1.86470E-04 0.00000E+00
 -1       255 1.27142E-03-2.61279E-04 0.00000E+00
 -1       256 1.26888E-03-3.24767E-04 0.00000E+00
 -1       257 1.26735E-03-3.68105E-04 0.00000E+00
 -1       258 1.26661E-03-3.82962E-04-6.61744E-24
 -1       259 1.26588E-03-3.68928E-04 0.00000E+00
 -1       260 1.26437E-03-3.26346E-04 6.61744E-24
 -1       261 1.26188E-03-2.63496E-04 0.00000E+00
 -1       262 1.25862E-03-1.89156E-04 6.61744E-24
 -1       263 1.25540E-03-1.15438E-04-1.32349E-23
 -1       264 1.25301E-03-5.44396E-05 0.00000E+00
 -1       265 1.25161E-03-1.45670E-05-2.64698E-23
 -1       266 1.27852E-03-6.35177E-07 0.00000E+00
 -1       267 1.27461E-03-6.44388E-07 8.27181E-25
 -1       268 1.27071E-03-6.54235E-07 8.27181E-25
 -1       269 1.26681E-03-6.62199E-07 0.00000E+00
 -1       270 1.26290E-03-6.70118E-07 0.00000E+00
 -1       271 1.28002E-03 2.86725E-06 0.00000E+00
 -1       272 1.27766E-03 6.15169E-06 1.32349E-23
 -1       273 1.27540E-03 9.16547E-06-2.64698E-23
 -1       274 1.27327E-03 1.18255E-05 1.32349E-23
 -1       275 1.27130E-03 1.40572E-05-2.64698E-23
 -1       276 1.26952E-03 1.57895E-05 0.00000E+00
 -1       277 1.26795E-03 1.69581E-05 0.00000E+00
 -1       278 1.26661E-03 1.75054E-05-1.32349E-23
 -1       279 1.26553E-03 1.73822E-05-2.64698E-23
 -1       280 1.26471E-03 1.65474E-05 0.00000E+00
 -1       281 1.26417E-03 1.49691E-05 2.64698E-23
 -1       282 1.26392E-03 1.26246E-05 1.32349E-23
 -1       283 1.26396E-03 9.50128E-06-2.64698E-23
 -1       284 1.26429E-03 5.59715E-06-1.32349E-23
 -1       285 1.26491E-03 9.18023E-07 2.64698E-23
 -1       301 1.25358E-03-3.86443E-06-1.32349E-23
 -1       302 1.25549E-03-3.98969E-06 0.00000E+00
 -1       303 1.25715E-03-4.11245E-06 0.00000E+00
 -1       304 1.25908E-03-4.23517E-06 0.00000E+00
 -1       305 1.26180E-03-4.36136E-06 0.00000E+00
 -1       306 1.27732E-03-1.00715E-04 1.05879E-22
 -1       307 1.33744E-03-3.74762E-04 0.00000E+00
 -1       308 1.40519E-03-7.81834E-04-1.05879E-22
 -1       309 1.46962E-03-1.26157E-03-5.29396E-23
 -1       310 1.53455E-03-1.73234E-03 0.00000E+00
 -1       311 1.60220E-03-2.11341E-03 0.00000E+00
 -1       312 1.65739E-03-2.34936E-03 0.00000E+00
 -1       313 1.67104E-03-2.40370E-03 0.00000E+00
 -1       314 1.60961E-03-2.27843E-03-1.05879E-22
 -1       315 1.45067E-03-1.99967E-03 0.00000E+00
 -1       316 1.20406E-03-1.61643E-03 1.05879E-22
 -1       317 9.02154E-04-1.17998E-03 0.00000E+00
 -1       318 6.03799E-04-7.46846E-04 0.00000E+00
 -1       319 3.66871E-04-3.73816E-04 0.00000E+00
 -1       320 2.20108E-04-1.11435E-04 0.00000E+00
 -1       336 2.36010E-04-3.85178E-06-1.32349E-23
 -1       337 2.25629E-04-4.47673E-06 0.00000E+00
 -1       338 2.13714E-04-5.11775E-06 0.00000E+00
 -1       339 2.00317E-04-5.77505E-06 0.00000E+00
 -1       340 1.85499E-04-6.45170E-06 0.00000E+00
 -1       406 1.50695E-04 8.25020E-07 1.65436E-24
 -1       407 1.51056E-04 9.42777E-07 8.27181E-25
 -1       408 1.51466E-04 1.06045E-06 0.00000E+00
 -1       409 1.51923E-04 1.17788E-06-1.65436E-24
 -1       410 1.52429E-04 1.29484E-06 0.00000E+00
 -1       521 1.29347E-03-1.09979E-04 1.05879E-22
 -1       522 1.35453E-03-4.03486E-04 0.00000E+00
 -1       523 1.42090E-03-8.38431E-04-1.05879E-22
 -1       524 1.48184E-03-1.34912E-03 0.00000E+00
 -1       525 1.54362E-03-1.84959E-03 0.00000E+00
 -1       526 1.61052E-03-2.25497E-03-5.29396E-23
 -1       527 1.66658E-03-2.50496E-03 1.05879E-22
 -1       528 1.67983E-03-2.56164E-03 5.29396E-23
 -1       529 1.61189E-03-2.42643E-03 1.05879E-22
 -1       530 1.43783E-03-2.12977E-03-5.29396E-23
 -1       531 1.16736E-03-1.72364E-03 0.00000E+00
 -1       532 8.36438E-04-1.26289E-03 0.00000E+00
 -1       533 5.08897E-04-8.05078E-04-1.05879E-22
 -1       534 2.47608E-04-4.08097E-04-5.29396E-23
 -1       535 8.50929E-05-1.26276E-04 1.05879E-22
 -1       536 1.68827E-04 1.95666E-05 6.61744E-24
 -1       537 1.67644E-04 6.59238E-05 0.00000E+00
 -1       538 1.65847E-04 1.24739E-04-3.30872E-24
 -1       539 1.63743E-04 1.88751E-04-1.65436E-24
 -1       540 1.61849E-04 2.49165E-04 3.30872E-24
 -1       541 1.60601E-04 2.97209E-04 1.65436E-24
 -1       542 1.60001E-04 3.27604E-04-3.30872E-24
 -1       543 1.59819E-04 3.35185E-04 0.00000E+00
 -1       544 1.59565E-04 3.20626E-04 0.00000E+00
 -1       545 1.58793E-04 2.84755E-04 0.00000E+00
 -1       546 1.57419E-04 2.33961E-04-3.30872E-24
 -1       547 1.55597E-04 1.74722E-04 0.00000E+00
 -1       548 1.53800E-04 1.15952E-04-3.30872E-24
 -1       549 1.52494E-04 6.65675E-05 1.65436E-24
 -1       550 1.51794E-04 3.27858E-05 1.65436E-24
 -1       551 1.49749E-04-7.58036E-06 0.00000E+00
 -1       552 1.27370E-04-8.07608E-06 0.00000E+00
 -1       553 1.03051E-04-8.61283E-06 5.58993E-24
 -1       554 7.76671E-05-9.17615E-06 0.00000E+00
 -1       555 5.20912E-05-9.74650E-06 0.00000E+00
 -1       556 1.63565E-04 7.67705E-06 0.00000E+00
 -1       557 1.58955E-04 1.95634E-05 0.00000E+00
 -1       558 1.55389E-04 2.87599E-05 0.00000E+00
 -1       559 1.52760E-04 3.55222E-05 0.00000E+00
 -1       560 1.50962E-04 4.01065E-05 0.00000E+00
 -1       561 1.49894E-04 4.27704E-05 0.00000E+00
 -1       562 1.49454E-04 4.37726E-05 0.00000E+00
 -1       563 1.49541E-04 4.33723E-05 0.00000E+00
 -1       564 1.50056E-04 4.18294E-05 0.00000E+00
 -1       565 1.50901E-04 3.94039E-05 0.00000E+00
 -1       566 1.51977E-04 3.63565E-05 0.00000E+00
 -1       567 1.53188E-04 3.29479E-05 0.00000E+00
 -1       568 1.54436E-04 2.94389E-05-4.13590E-25
 -1       569 1.55625E-04 2.60902E-05 0.00000E+00
 -1       570 1.56657E-04 2.31626E-05 0.00000E+00
 -1       571 1.51663E-04 1.94805E-05 0.00000E+00
 -1       572 1.51750E-04 1.81770E-05 1.24077E-24
 -1       573 1.51837E-04 1.68309E-05 1.65436E-24
 -1       574 1.51925E-04 1.54551E-05-1.65436E-24
 -1       575 1.52013E-04 1.40627E-05-3.30872E-24
 -1       576 1.52101E-04 1.26669E-05 0.00000E+00
 -1       577 1.52189E-04 1.12809E-05-3.30872E-24
 -1       578 1.52277E-04 9.91765E-06-1.65436E-24
 -1       579 1.52365E-04 8.59045E-06 0.00000E+00
 -1       580 1.52453E-04 7.31244E-06 0.00000E+00
 -1       581 1.52541E-04 6.09677E-06 0.00000E+00
 -1       582 1.52629E-04 4.95658E-06 0.00000E+00
 -1       583 1.52717E-04 3.90499E-06-6.61744E-24
 -1       584 1.52805E-04 2.95500E-06 0.00000E+00
 -1       585 1.52894E-04 2.11950E-06 0.00000E+00
 -1       586 1.52505E-04 2.07614E-05 0.00000E+00
 -1       587 1.53401E-04 2.07932E-05 4.13590E-25
 -1       588 1.54303E-04 2.08248E-05 0.00000E+00
 -1       589 1.55251E-04 2.08558E-05 0.00000E+00
 -1       590 1.56283E-04 2.08857E-05 0.00000E+00
 -1       591 1.51995E-04 1.95523E-05 2.06795E-25
 -1       592 1.52419E-04 1.83524E-05 2.06795E-25
 -1       593 1.52848E-04 1.71349E-05 0.00000E+00
 -1       594 1.53282E-04 1.59049E-05-4.13590E-25
 -1       595 1.53719E-04 1.46673E-05 0.00000E+00
 -1       596 1.54156E-04 1.34269E-05 0.00000E+00
 -1       597 1.54593E-04 1.21887E-05 8.27181E-25
 -1       598 1.55027E-04 1.09576E-05 4.13590E-25
 -1       599 1.55456E-04 9.73846E-06-8.27181E-25
 -1       600 1.55880E-04 8.53624E-06 2.06795E-25
 -1       601 1.56295E-04 7.35584E-06 8.27181E-25
 -1       602 1.56700E-04 6.20214E-06 0.00000E+00
 -1       603 1.57094E-04 5.08006E-06 4.13590E-25
 -1       604 1.57474E-04 3.99459E-06 0.00000E+00
 -1       605 1.57839E-04 2.95057E-06-8.27181E-25
 -1       606 1.52995E-04 9.02521E-07 0.00000E+00
 -1       607 1.53005E-04 4.85634E-07 0.00000E+00
 -1       608 1.53014E-04 1.54272E-07 0.00000E+00
 -1       609 1.53023E-04-9.75800E-08 0.00000E+00
 -1       610 1.53032E-04-2.75983E-07 0.00000E+00
 -1       611 1.53040E-04-3.87068E-07 0.00000E+00
 -1       612 1.53049E-04-4.36971E-07 0.00000E+00
 -1       613 1.53057E-04-4.31840E-07 0.00000E+00
 -1       614 1.53066E-04-3.77820E-07 0.00000E+00
 -1       615 1.53075E-04-2.81059E-07 0.00000E+00
 -1       616 1.53083E-04-1.47702E-07 0.00000E+00
 -1       617 1.53092E-04 1.61040E-08 0.00000E+00
 -1       618 1.53100E-04 2.04210E-07 0.00000E+00
 -1       619 1.53109E-04 4.10475E-07 2.06795E-25
 -1       620 1.53117E-04 6.28750E-07 0.00000E+00
 -1       621 1.53650E-04 1.50114E-06 1.65436E-24
 -1       622 1.54430E-04 1.59230E-06-8.27181E-25
 -1       623 1.55299E-04 1.68338E-06-1.65436E-24
 -1       624 1.56231E-04 1.77426E-06 8.27181E-25
 -1       625 1.57202E-04 1.86494E-06 0.00000E+00
 -1       626 1.53271E-04 9.34704E-07 3.30872E-24
 -1       627 1.53535E-04 5.30268E-07-1.65436E-24
 -1       628 1.53775E-04 1.89032E-07 0.00000E+00
 -1       629 1.53994E-04-9.73197E-08 0.00000E+00
 -1       630 1.54196E-04-3.37126E-07 3.30872E-24
 -1       631 1.54384E-04-5.38754E-07 1.65436E-24
 -1       632 1.54561E-04-7.10571E-07 0.00000E+00
 -1       633 1.54730E-04-8.60948E-07 0.00000E+00
 -1       634 1.54893E-04-9.98254E-07 3.30872E-24
 -1       635 1.55055E-04-1.13085E-06 1.65436E-24
 -1       636 1.55219E-04-1.26712E-06 0.00000E+00
 -1       637 1.55386E-04-1.41542E-06 0.00000E+00
 -1       638 1.55562E-04-1.58412E-06-1.65436E-24
 -1       639 1.55748E-04-1.78161E-06 8.27181E-25
 -1       640 1.55947E-04-2.01626E-06-3.30872E-24
 -1       656 1.53125E-04 3.40733E-07-6.61744E-24
 -1       657 1.53522E-04-1.92067E-07 6.61744E-24
 -1       658 1.54180E-04-7.23458E-07-1.32349E-23
 -1       659 1.54954E-04-1.25447E-06 6.61744E-24
 -1       660 1.55672E-04-1.78711E-06 0.00000E+00
 -1       661 1.53126E-04 1.03748E-06 8.27181E-25
 -1       662 1.53160E-04 1.14267E-06 0.00000E+00
 -1       663 1.53222E-04 1.17254E-06 0.00000E+00
 -1       664 1.53311E-04 1.13238E-06 8.27181E-25
 -1       665 1.53424E-04 1.02686E-06-1.65436E-24
 -1       666 1.53560E-04 8.60745E-07-8.27181E-25
 -1       667 1.53717E-04 6.38563E-07-1.65436E-24
 -1       668 1.53894E-04 3.64786E-07 0.00000E+00
 -1       669 1.54088E-04 4.37221E-08 0.00000E+00
 -1       670 1.54298E-04-3.20403E-07 0.00000E+00
 -1       671 1.54523E-04-7.23478E-07 0.00000E+00
 -1       672 1.54761E-04-1.16150E-06 8.27181E-25
 -1       673 1.55010E-04-1.63050E-06-1.65436E-24
 -1       674 1.55269E-04-2.12687E-06 8.27181E-25
 -1       675 1.55537E-04-2.64640E-06-4.13590E-25
 -1       676 1.52930E-04-2.71445E-06 3.30872E-24
 -1       677 1.53508E-04-2.80962E-06 1.65436E-24
 -1       678 1.54084E-04-2.90473E-06 3.30872E-24
 -1       679 1.54660E-04-2.99956E-06 0.00000E+00
 -1       680 1.55234E-04-3.09438E-06-1.65436E-24
 -1       771 1.78606E-05 1.02110E-05 0.00000E+00
 -1       772 9.96662E-06 2.70716E-05-2.64698E-23
 -1       773 3.44249E-06 4.04383E-05 0.00000E+00
 -1       774-1.80465E-06 5.05152E-05 0.00000E+00
 -1       775-5.86611E-06 5.75134E-05 0.00000E+00
 -1       776-8.83687E-06 6.16554E-05-5.29396E-23
 -1       777-1.08122E-05 6.31708E-05 0.00000E+00
 -1       778-1.18893E-05 6.22987E-05 0.00000E+00
 -1       779-1.21653E-05 5.92839E-05-5.29396E-23
 -1       780-1.17393E-05 5.43793E-05-2.64698E-23
 -1       781-1.07095E-05 4.78420E-05 5.29396E-23
 -1       782-9.17586E-06 3.99355E-05 0.00000E+00
 -1       783-7.23776E-06 3.09263E-05 0.00000E+00
 -1       784-4.99562E-06 2.10852E-05 0.00000E+00
 -1       785-2.54932E-06 1.06849E-05 0.00000E+00
 -1       786 1.57480E-04 1.95137E-05-1.03398E-25
 -1       787 1.57527E-04 1.81634E-05 0.00000E+00
 -1       788 1.57573E-04 1.68532E-05 0.00000E+00
 -1       789 1.57620E-04 1.55749E-05 0.00000E+00
 -1       790 1.57667E-04 1.43237E-05 0.00000E+00
 -1       791 1.57715E-04 1.30949E-05 0.00000E+00
 -1       792 1.57762E-04 1.18861E-05 0.00000E+00
 -1       793 1.57810E-04 1.06953E-05 0.00000E+00
 -1       794 1.57857E-04 9.52205E-06 0.00000E+00
 -1       795 1.57904E-04 8.36626E-06 8.27181E-25
 -1       796 1.57952E-04 7.22961E-06 1.65436E-24
 -1       797 1.57999E-04 6.11384E-06 0.00000E+00
 -1       798 1.58047E-04 5.02301E-06 0.00000E+00
 -1       799 1.58095E-04 3.96120E-06 8.27181E-25
 -1       800 1.58142E-04 2.93570E-06-1.65436E-24
 -1       801 1.24866E-04 1.85695E-05 2.64698E-23
 -1       802 2.59148E-05 1.20088E-05 0.00000E+00
 -1       803-6.12080E-05 6.34218E-06 5.29396E-23
 -1       804-5.92861E-05 4.30286E-06 0.00000E+00
 -1       805-2.04162E-05 1.89969E-06 0.00000E+00
 -1       806 1.57860E-04 1.94527E-05 0.00000E+00
 -1       807 1.58269E-04 1.80191E-05-1.65436E-24
 -1       808 1.58665E-04 1.66160E-05 3.30872E-24
 -1       809 1.59049E-04 1.52466E-05 0.00000E+00
 -1       810 1.59419E-04 1.39143E-05 3.30872E-24
 -1       811 1.59774E-04 1.26223E-05-8.27181E-25
 -1       812 1.60112E-04 1.13738E-05 0.00000E+00
 -1       813 1.60433E-04 1.01721E-05 0.00000E+00
 -1       814 1.60736E-04 9.02030E-06 1.65436E-24
 -1       815 1.61018E-04 7.92161E-06 0.00000E+00
 -1       816 1.61279E-04 6.87923E-06-1.65436E-24
 -1       817 1.61519E-04 5.89632E-06 0.00000E+00
 -1       818 1.61734E-04 4.97606E-06-1.65436E-24
 -1       819 1.61926E-04 4.12162E-06 0.00000E+00
 -1       820 1.62092E-04 3.33614E-06 0.00000E+00
 -1       821 1.58112E-04 4.27560E-06 4.13590E-25
 -1       822 1.57993E-04 1.31429E-05 8.27181E-25
 -1       823 1.57856E-04 2.40529E-05 0.00000E+00
 -1       824 1.57742E-04 3.24948E-05 8.27181E-25
 -1       825 1.57655E-04 3.54248E-05-1.65436E-24
 -1       826 1.57556E-04 2.98196E-05 1.65436E-24
 -1       827 1.57403E-04 1.75184E-05 0.00000E+00
 -1       828 1.57180E-04 3.84822E-07 0.00000E+00
 -1       829 1.56956E-04-1.68857E-05 0.00000E+00
 -1       830 1.56798E-04-2.95976E-05 1.65436E-24
 -1       831 1.56696E-04-3.57299E-05 0.00000E+00
 -1       832 1.56610E-04-3.32859E-05 0.00000E+00
 -1       833 1.56498E-04-2.51527E-05 0.00000E+00
 -1       834 1.56362E-04-1.42386E-05 0.00000E+00
 -1       835 1.56241E-04-5.10250E-06 0.00000E+00
 -1       836 1.59059E-04 2.06507E-06 0.00000E+00
 -1       837 1.59804E-04 2.17883E-06 1.65436E-24
 -1       838 1.60461E-04 2.29247E-06 0.00000E+00
 -1       839 1.61062E-04 2.40541E-06 8.27181E-25
 -1       840 1.61641E-04 2.51819E-06-4.13590E-25
 -1       856 1.56143E-04-2.59855E-06 0.00000E+00
 -1       857 1.56121E-04-2.77669E-06 2.58494E-26
 -1       858 1.56100E-04-2.85030E-06-4.13590E-25
 -1       859 1.56077E-04-2.83881E-06 0.00000E+00
 -1       860 1.56055E-04-2.76175E-06 0.00000E+00
 -1       861 1.56033E-04-2.63867E-06 4.13590E-25
 -1       862 1.56010E-04-2.48917E-06 0.00000E+00
 -1       863 1.55988E-04-2.33288E-06-4.13590E-25
 -1       864 1.55966E-04-2.18943E-06 0.00000E+00
 -1       865 1.55943E-04-2.07843E-06 0.00000E+00
 -1       866 1.55921E-04-2.01947E-06 0.00000E+00
 -1       867 1.55898E-04-2.03212E-06-4.13590E-25
 -1       868 1.55876E-04-2.13584E-06 0.00000E+00
 -1       869 1.55853E-04-2.35006E-06 4.13590E-25
 -1       870 1.55831E-04-2.69409E-06 8.27181E-25
 -1       871 1.56722E-04-2.29938E-06 8.27181E-25
 -1       872 1.57417E-04-2.30516E-06 0.00000E+00
 -1       873 1.58186E-04-2.31152E-06 0.00000E+00
 -1       874 1.58968E-04-2.31854E-06 3.61892E-25
 -1       875 1.59702E-04-2.32611E-06 0.00000E+00
 -1       876 1.56390E-04-2.58569E-06 3.30872E-24
 -1       877 1.56599E-04-2.81452E-06 1.65436E-24
 -1       878 1.56789E-04-2.99029E-06 0.00000E+00
 -1       879 1.56961E-04-3.11968E-06 0.00000E+00
 -1       880 1.57119E-04-3.20944E-06 3.30872E-24
 -1       881 1.57264E-04-3.26628E-06 1.65436E-24
 -1       882 1.57399E-04-3.29688E-06 0.00000E+00
 -1       883 1.57527E-04-3.30792E-06 1.65436E-24
 -1       884 1.57650E-04-3.30607E-06 3.30872E-24
 -1       885 1.57771E-04-3.29801E-06 0.00000E+00
 -1       886 1.57892E-04-3.29040E-06 0.00000E+00
 -1       887 1.58016E-04-3.28993E-06 0.00000E+00
 -1       888 1.58144E-04-3.30330E-06 0.00000E+00
 -1       889 1.58280E-04-3.33733E-06 0.00000E+00
 -1       890 1.58425E-04-3.39865E-06-1.65436E-24
 -1       891 1.56401E-04-3.23889E-06 0.00000E+00
 -1       892 1.56973E-04-3.29079E-06 0.00000E+00
 -1       893 1.57500E-04-3.34263E-06-8.27181E-25
 -1       894 1.57959E-04-3.39429E-06-8.27181E-25
 -1       895 1.58326E-04-3.44579E-06-8.27181E-25
 -1       956 1.62115E-04 2.06014E-06-1.65436E-24
 -1       957 1.61997E-04 1.57560E-06 0.00000E+00
 -1       958 1.61877E-04 1.16003E-06 3.30872E-24
 -1       959 1.61758E-04 8.03868E-07 0.00000E+00
 -1       960 1.61639E-04 4.97545E-07 3.30872E-24
 -1       961 1.61519E-04 2.31435E-07 0.00000E+00
 -1       962 1.61400E-04-4.08745E-09-3.30872E-24
 -1       963 1.61281E-04-2.18664E-07-1.65436E-24
 -1       964 1.61161E-04-4.21930E-07-3.30872E-24
 -1       965 1.61042E-04-6.23525E-07-1.65436E-24
 -1       966 1.60922E-04-8.33092E-07 3.30872E-24
 -1       967 1.60803E-04-1.06027E-06 0.00000E+00
 -1       968 1.60684E-04-1.31468E-06 3.30872E-24
 -1       969 1.60565E-04-1.60593E-06-1.65436E-24
 -1       970 1.60446E-04-1.94361E-06 0.00000E+00
 -1       971 1.60220E-04-2.72282E-06 0.00000E+00
 -1       972 1.60111E-04-3.01938E-06-1.65436E-24
 -1       973 1.60001E-04-3.23645E-06 0.00000E+00
 -1       974 1.59891E-04-3.38427E-06 0.00000E+00
 -1       975 1.59781E-04-3.47309E-06 0.00000E+00
 -1       976 1.59671E-04-3.51316E-06 0.00000E+00
 -1       977 1.59561E-04-3.51476E-06 0.00000E+00
 -1       978 1.59450E-04-3.48817E-06-1.65436E-24
 -1       979 1.59340E-04-3.44370E-06 0.00000E+00
 -1       980 1.59230E-04-3.39163E-06 0.00000E+00
 -1       981 1.59120E-04-3.34225E-06-3.30872E-24
 -1       982 1.59010E-04-3.30587E-06 1.65436E-24
 -1       983 1.58901E-04-3.29277E-06 0.00000E+00
 -1       984 1.58791E-04-3.31323E-06-3.30872E-24
 -1       985 1.58682E-04-3.37753E-06 0.00000E+00
 -3
    1PSTEP                        16           8           1          
  100CL  108 6.09375E-01         409                     0    8           1
 -4  STRESS      6    1
 -5  SXX         1    4    1    1
 -5  SYY         1    4    2    2
 -5  SZZ         1    4    3    3
 -5  SXY         1    4    1    2
 -5  SYZ         1    4    2    3
 -5  SZX         1    4    3    1
 -1         1-3.72521E+06-1.43763E+06-8.15162E+05-1.51053E+06-1.16415E-10 2.42144E-08
 -1         2 8.06566E+02-1.73369E+06 2.89042E+03 1.57458E+04 6.16012E-10-1.82378E-07
 -1         3-8.47353E+02-1.50888E+06 3.67480E+02-1.62127E+03-4.96669E-10-5.96992E-09
 -1         5-1.72638E+01 3.37372E+05 8.76080E+00-4.80500E-01-1.98151E-10 4.00159E-08
 -1         8-8.02284E+05-2.74648E+05-7.58867E+04-4.52415E+05 4.67480E-10 2.39743E-09
 -1         9 3.70830E+06-6.98725E+05 6.82265E+05-7.94426E+05 2.91504E-08 2.51224E-08
 -1        10-1.76075E+03-1.57220E+06-3.20893E+03-1.09586E+04-1.00263E-08-3.68148E-08
 -1        12-1.36975E+01 3.37390E+05 2.84678E+02-3.46235E+00-3.95708E-10 2.38210E-08
 -1        15 1.48223E+03 8.14565E+02 4.79128E+03 2.50244E+00-1.19897E-10-1.18862E-07
 -1        16 9.32630E+06-3.93385E+05 1.34352E+06-1.07998E+06 1.16803E-08 4.42378E-09
 -1        17 3.21879E+06 2.11675E+06 8.83532E+05 2.18430E+06 9.25793E-09 2.57278E-08
 -1        18 6.27159E+04 1.21289E+04-1.14601E+04-9.94090E+04 1.02992E-08-5.79803E-10
 -1        19 1.06960E+05 1.24249E+05-8.47471E+02 2.07927E+04 7.23048E-10 9.12660E-09
 -1        20-6.55424E+04-5.06313E+05-1.13140E+05 2.63767E+04 1.55220E-10 6.61566E-09
 -1        21-4.31676E+01-2.72085E+05-8.56442E+02 1.07776E+02 5.99323E-09-1.16862E-08
 -1        24 5.02679E+06 4.51412E+06 1.58549E+06 4.11899E+06-1.17221E-07-4.44124E-08
 -1        25-6.33470E+03-2.22293E+05-2.48639E+04-3.69733E+05-6.61203E-10 3.15777E-10
 -1        26-1.07737E+04 8.92286E+04-1.41121E+04 1.22664E+03 4.88071E-09 4.91569E-09
 -1        27-4.34947E+04-2.67940E+05-9.49816E+04 6.38532E+04 1.12194E-08-3.57492E-09
 -1        28 2.06591E+04-7.76472E+04 1.55062E+04 2.01508E+04-1.24129E-09 1.15732E-08
 -1        32-1.53450E+06-2.69126E+06-1.39353E+05-3.11723E+04-3.35567E-08-4.95714E-09
 -1        33-1.61122E+05 8.17550E+04 2.88089E+04-3.69928E+04-1.37637E-09 1.71734E-08
 -1        34-2.02338E+05-2.17536E+04 5.99036E+02 6.68795E+04-1.75190E-09 8.15453E-09
 -1        35-2.11697E+04-3.08325E+04-1.22288E+03 4.73711E+04-3.63561E-10 9.01855E-09
 -1        51 4.06033E+04-2.52542E+05 8.95618E+04-7.37810E+05 1.16415E-10-2.27301E-08
 -1        52 1.57748E+04-2.39606E+05 4.97395E+04-8.60296E+05 6.65750E-10 6.44577E-08
 -1        53 5.65496E+03-2.54553E+05 3.02717E+04-7.35154E+05 1.63709E-10 2.76341E-08
 -1        54 1.39527E+04-2.51542E+05 3.36941E+04-8.63049E+05-3.71074E-10 3.63798E-08
 -1        55 2.87095E+04-2.62325E+05 5.12819E+04-7.34769E+05 8.14907E-10 3.64780E-08
 -1        56-7.06198E+06-7.95321E+05-6.02297E+05-2.75157E+06-1.94123E-08 1.42609E-09
 -1        57-7.39302E+06-1.25197E+06-4.06194E+05-2.62485E+06 1.62763E-08 2.91038E-10
 -1        58-7.16429E+06-1.00516E+06-1.41528E+05-2.73438E+06 9.85528E-09-1.31477E-08
 -1        59-7.27859E+06-1.00201E+06-8.44029E+04-2.64187E+06 1.94887E-08-8.20773E-08
 -1        60-7.17489E+06-1.03853E+06-3.29198E+04-2.73683E+06-2.63599E-08-5.79712E-08
 -1        61-7.26003E+06-9.68788E+05-1.86644E+04-2.64564E+06 2.03999E-09 1.08780E-07
 -1        62-7.18242E+06-1.03751E+06-8.99077E+03-2.73081E+06 1.06529E-08 7.49933E-08
 -1        63-7.23750E+06-9.83812E+05-7.11807E+03-2.66707E+06 3.80874E-09 1.09654E-07
 -1        64-7.19680E+06-1.02378E+06-8.41140E+03-2.71501E+06 1.30221E-08 8.00597E-08
 -1        65-7.20746E+06-1.01860E+06-1.62232E+04-2.70212E+06-5.02405E-09-7.86504E-08
 -1        66-7.21216E+06-1.00305E+06-2.90014E+04-2.69549E+06 1.21108E-08-1.17755E-07
 -1        67-7.19382E+06-1.07793E+06-7.33511E+04-2.73425E+06 1.67884E-08 1.76597E-08
 -1        68-7.21118E+06-9.64963E+05-1.23176E+05-2.68299E+06-2.03363E-09-4.78758E-08
 -1        69-7.29412E+06-1.29663E+06-3.53572E+05-2.72240E+06-3.65253E-09-7.71288E-08
 -1        70-7.11431E+06-7.89545E+05-5.24018E+05-2.70614E+06 2.45927E-09-2.53494E-08
 -1        86-5.02084E+02-1.74072E+06 1.75849E+03-7.87266E+03-3.59478E-09 1.32709E-08
 -1        87 2.33780E+03-1.73508E+06 5.04995E+03 2.66077E+04-6.07639E-09 3.52710E-08
 -1        88-1.85835E+03-1.73953E+06 7.01530E+03-1.87349E+04-6.44104E-09 9.02519E-08
 -1        89 1.36683E+04-1.73176E+06 1.91436E+04 3.67425E+04-9.34233E-09 9.89468E-09
 -1        90-1.16405E+04-1.74421E+06 2.67909E+04-1.80088E+04-5.56065E-09 1.09729E-07
 -1       121-1.17830E+03-1.51177E+06-1.55336E+02 8.06423E+02 1.11754E-09 1.34532E-08
 -1       122-6.95918E+02-1.50888E+06 7.40128E+02-3.24015E+03-4.19644E-09-2.06983E-08
 -1       123-1.22532E+03-1.51188E+06 6.64790E+02 2.40867E+03 3.33387E-09-3.96321E-08
 -1       124 8.09876E+02-1.50826E+06 2.96013E+03-6.79672E+03-7.76254E-09-1.28366E-08
 -1       125-2.06472E+03-1.51271E+06 3.94876E+03 4.34414E+03 4.74211E-09-4.40014E-08
 -1       191-1.84096E+01 3.37398E+05 9.91851E+00 2.43558E-01-2.40795E-10 2.54322E-08
 -1       192-1.80760E+01 3.37372E+05 1.85756E+01-1.74180E+00-3.14007E-10-2.01035E-08
 -1       193-2.05650E+01 3.37397E+05 3.40070E+01 1.51937E+00-5.04084E-10 8.43374E-09
 -1       194-2.06877E+01 3.37375E+05 7.03243E+01-4.02798E+00-2.72070E-10 6.79211E-09
 -1       195-2.47058E+01 3.37395E+05 1.37016E+02 2.55783E+00-7.14962E-10 6.21731E-09
 -1       251-2.08204E+06-2.07394E+04-1.81039E+05 1.00076E+05-3.88900E-09-2.79142E-08
 -1       252-1.25760E+06 2.29792E+04 3.83689E+04-3.50767E+05 1.11186E-09-2.61384E-08
 -1       253-1.74613E+06-1.13487E+04-3.62625E+04 2.49832E+05-1.01109E-08 4.22915E-10
 -1       254-1.65090E+06 4.66083E+04 5.72255E+03-5.02411E+05-1.02044E-08-4.16128E-09
 -1       255-1.72822E+06-1.18791E+04-1.43350E+04 2.54584E+05 1.12450E-08 9.15848E-08
 -1       256-1.28957E+06 3.96838E+04 8.18706E+04-3.70160E+05-1.20017E-08-1.66465E-08
 -1       257-2.07192E+06-3.35971E+04-8.44880E+04 1.14890E+05 1.03846E-08 1.16908E-07
 -1       258-9.05872E+05 3.05481E+04 1.55069E+05-1.33383E+03 3.32047E-08 8.87485E-08
 -1       259-2.07404E+06-3.37789E+04-8.34434E+04-1.12612E+05 3.70910E-08 9.22182E-09
 -1       260-1.28428E+06 4.06460E+04 8.68794E+04 3.68657E+05-2.13722E-08-1.53253E-07
 -1       261-1.73097E+06-1.30033E+04-7.11388E+03-2.53391E+05-5.59357E-08-1.93589E-08
 -1       262-1.64622E+06 5.52256E+04 2.46791E+04 5.02914E+05 1.38911E-08 1.23450E-07
 -1       263-1.74806E+06-1.87976E+04-5.33154E+03-2.49558E+05-8.06449E-09 3.73047E-08
 -1       264-1.23466E+06 8.11483E+04 1.20652E+05 3.54256E+05-9.84346E-08 7.16173E-08
 -1       265-2.10342E+06-7.09170E+04-6.26595E+04-1.01915E+05-3.03444E-08 7.99973E-08
 -1       266-2.68330E+04-1.25467E+04 6.29597E+04-5.35460E+01-7.27596E-12 2.49026E-08
 -1       267 3.11071E+04 1.46241E+04 4.44981E+04 6.17796E+01 1.33241E-10-9.55153E-08
 -1       268-4.17139E+03-2.07114E+03 1.65398E+04-7.87190E+00 1.25510E-10-8.54616E-09
 -1       269 4.92520E+03 2.47875E+03 1.07505E+04 9.16947E+00 9.91349E-11 7.23202E-08
 -1       270-7.39279E+02-4.07277E+02 5.18944E+03-1.24437E+00 1.27443E-10 8.47371E-08
 -1       271-2.44000E+06-2.98279E+05-1.82327E+05-9.40450E+05 1.80771E-08 4.10728E-08
 -1       272-2.54425E+06-3.93676E+05-1.17394E+05-8.96054E+05-4.97403E-08-2.56623E-08
 -1       273-2.47343E+06-3.44798E+05-4.30373E+04-9.33302E+05 1.63436E-08 1.13119E-07
 -1       274-2.50458E+06-3.36990E+05-2.41440E+04-9.07049E+05 2.24300E-08-4.22647E-08
 -1       275-2.47851E+06-3.49284E+05-1.00327E+04-9.31463E+05-5.89080E-09-7.31334E-08
 -1       276-2.49727E+06-3.32748E+05-5.28550E+03-9.10570E+05-7.81574E-09 6.31755E-08
 -1       277-2.48040E+06-3.48599E+05-2.63242E+03-9.29824E+05 8.23093E-09 3.59660E-09
 -1       278-2.49350E+06-3.35079E+05-1.74081E+03-9.13946E+05 1.64687E-08 1.15333E-07
 -1       279-2.48204E+06-3.47044E+05-1.90097E+03-9.27944E+05-2.75613E-08 1.63132E-08
 -1       280-2.49017E+06-3.38884E+05-3.14570E+03-9.17737E+05-1.27329E-11-9.09267E-09
 -1       281-2.48356E+06-3.44929E+05-5.88540E+03-9.25904E+05-5.77711E-09 6.34029E-08
 -1       282-2.48905E+06-3.46396E+05-1.37403E+04-9.21425E+05 9.72250E-10 8.50413E-08
 -1       283-2.48314E+06-3.39925E+05-2.46462E+04-9.24079E+05-9.84437E-09-1.45964E-07
 -1       284-2.50667E+06-3.83558E+05-6.68204E+04-9.20738E+05 7.78527E-10-2.41212E-07
 -1       285-2.46649E+06-3.11089E+05-1.04025E+05-9.25409E+05-2.98678E-09-5.31873E-09
 -1       301 1.94562E+04-3.44782E+05 1.73021E+05-6.24652E+05 9.60426E-10 4.29936E-08
 -1       302 2.09342E+04-3.01154E+05 1.07672E+05-9.13713E+05-1.73895E-09-6.36646E-09
 -1       303-1.88979E+03-3.28737E+05 7.12175E+04-6.23201E+05 2.58296E-10-1.22867E-07
 -1       304 1.36719E+04-3.02638E+05 8.97011E+04-9.13055E+05-1.52795E-10-2.85290E-08
 -1       305 1.02499E+04-3.35216E+05 1.32701E+05-6.25289E+05 4.03816E-10 5.01313E-09
 -1       306-1.78556E+07-3.25727E+06-4.32292E+06-1.85240E+06-7.84057E-08 8.04430E-08
 -1       307 1.10093E+07-5.64726E+05 2.59293E+06-8.08119E+06-5.43019E-07-8.22547E-08
 -1       308-8.17364E+06 1.07121E+05-4.05669E+05 2.38453E+06-2.03319E-07 6.66860E-08
 -1       309-3.22523E+06 8.15688E+05 8.27086E+05-1.32071E+07 2.64581E-07-2.95531E-08
 -1       310-9.17981E+06-5.52213E+04-6.04186E+05 2.19447E+06 1.65019E-08-1.10249E-07
 -1       311 1.33028E+07-1.25845E+06 3.09355E+06-6.50171E+06 3.88245E-07 1.75205E-08
 -1       312-1.80945E+07-3.23759E+06-3.78778E+06-2.79144E+06 1.48546E-07 2.01981E-08
 -1       313 2.00117E+07 4.42684E+06 5.02787E+06 8.37991E+06-7.28178E-08 5.32018E-08
 -1       314-1.28040E+07-7.79153E+06-3.59155E+06-7.33350E+06 1.43365E-07-4.66243E-08
 -1       315-2.25066E+06 1.24084E+07 2.79924E+06 6.61157E+06-1.96625E-07 1.28930E-08
 -1       316-1.97661E+06-6.26759E+06-3.49805E+05-4.35096E+06-5.94577E-07-1.81521E-07
 -1       317-1.45300E+07 1.20741E+07 8.06986E+05-1.42934E+06 4.38995E-07-4.47344E-07
 -1       318-2.46897E+06-6.54464E+06-6.81630E+05-4.54711E+06-6.13596E-07 3.36440E-08
 -1       319-5.28432E+05 1.27905E+07 2.81412E+06 7.16226E+06-9.27830E-08 1.32713E-07
 -1       320-1.37298E+07-8.09454E+06-4.63618E+06-7.20427E+06 1.33703E-07-2.88564E-08
 -1       336 1.41029E+02-1.63655E+06-1.16919E+04 6.54205E+03-2.01162E-08 4.29645E-09
 -1       337-4.46305E+03-1.63753E+06-1.47932E+04-1.58441E+04-3.75712E-08-1.10886E-08
 -1       338 6.26650E+02-1.63629E+06-2.21540E+04 9.18914E+03-2.63653E-08-1.02882E-08
 -1       339-2.35260E+04-1.65032E+06-5.00105E+04-2.10075E+04-4.85870E-08-6.16274E-09
 -1       340 1.57357E+04-1.62499E+06-7.83613E+04 1.16284E+04-3.22252E-08 4.21642E-09
 -1       406 7.50925E+00 3.37382E+05 5.61451E+02 9.77742E-01-9.58224E-10 3.17414E-09
 -1       407 1.82325E+02 3.37488E+05 1.19447E+03 1.20879E+01-3.45281E-10-3.18323E-09
 -1       408 6.00804E+02 3.37296E+05 2.38485E+03-1.33976E+01-1.19860E-09-1.12996E-08
 -1       409 2.56675E+03 3.38250E+05 5.37004E+03 1.37072E+02-2.49713E-10-1.42190E-08
 -1       410 7.39918E+03 3.36616E+05 1.09622E+04-1.30735E+02-1.42427E-09-1.08712E-08
 -1       521-1.98473E+07-4.07270E+06-5.22998E+06-1.80224E+06-4.42378E-08 3.63216E-08
 -1       522 1.17706E+07-5.10375E+05 2.71877E+06-1.03391E+07-3.88594E-07-1.18656E-07
 -1       523-9.39084E+06-3.89623E+04-4.57113E+05 2.78951E+06 9.71195E-08-8.34261E-08
 -1       524-5.25972E+06 1.98342E+06 9.44048E+05-1.59681E+07 3.56711E-07-3.08060E-07
 -1       525-1.05425E+07-2.84132E+05-6.96616E+05 2.57498E+06 4.84171E-07-2.13840E-07
 -1       526 1.48266E+07-1.42107E+06 3.39045E+06-8.39680E+06 3.67174E-07 1.35085E-07
 -1       527-2.01757E+07-4.16121E+06-4.50694E+06-2.88380E+06 2.02621E-07 1.08645E-07
 -1       528 2.26884E+07 4.90649E+06 5.45625E+06 9.77343E+06-1.83267E-07-7.63685E-08
 -1       529-1.42037E+07-9.30012E+06-4.26666E+06-7.96038E+06 3.36440E-08-7.45058E-08
 -1       530-3.87314E+06 1.51172E+07 3.08119E+06 7.15424E+06-3.59956E-07 4.81930E-07
 -1       531-2.28925E+06-7.44180E+06-3.84750E+05-4.89763E+06-6.19038E-07 1.59402E-07
 -1       532-1.77618E+07 1.44371E+07 9.45122E+05-3.13518E+06 2.68396E-07-4.27077E-07
 -1       533-2.76234E+06-7.71994E+06-7.37073E+05-5.06531E+06-1.13563E-07-6.70698E-07
 -1       534-2.09477E+06 1.55629E+07 3.07251E+06 7.76018E+06-7.73070E-08 5.30534E-07
 -1       535-1.51597E+07-9.68339E+06-5.42196E+06-7.80798E+06 4.19095E-08 3.24741E-07
 -1       536-5.77169E+05-3.83810E+04-3.57349E+03-3.76227E+04-3.90719E-09 4.00032E-08
 -1       537-1.80341E+05 3.86873E+04 6.73120E+04 8.98758E+04-8.63891E-08 7.35854E-08
 -1       538-3.87506E+05 4.69095E+02 8.69629E+03-5.43378E+04 2.34417E-08 8.81046E-08
 -1       539-3.12443E+05 3.11041E+03 1.86032E+04 1.02802E+05 1.32381E-07 6.82591E-08
 -1       540-4.48242E+05-2.05276E+02-1.09402E+04-5.07884E+04 2.74449E-08 9.03919E-08
 -1       541-6.29241E+04 1.02577E+04 6.46071E+04 6.88951E+04-5.62964E-08 5.77328E-08
 -1       542-6.30331E+05-1.22100E+04-5.02773E+04-2.00364E+04 2.98360E-09 3.23201E-08
 -1       543 9.04311E+04 1.64257E+04 9.44339E+04-1.05204E+04-7.37155E-08-1.57679E-08
 -1       544-5.97512E+05-9.73128E+03-4.45533E+04 2.83161E+04-2.17110E-08-4.87461E-08
 -1       545-1.38382E+05 5.12379E+03 4.62430E+04-8.25083E+04-1.91380E-08-6.43516E-08
 -1       546-4.07612E+05 4.10272E+03-7.88522E+03 5.18044E+04 3.28613E-08-5.88467E-08
 -1       547-3.25346E+05-4.52294E+03 3.20731E+03-1.05192E+05-6.81756E-08-9.75311E-08
 -1       548-4.15519E+05 4.02455E+03-1.87591E+04 5.13120E+04-8.45730E-08-8.39154E-08
 -1       549-1.23838E+05 1.14398E+03 2.47784E+04-7.96429E+04-4.43812E-08-5.14756E-08
 -1       550-6.03686E+05-6.05890E+03-9.43491E+04 2.59246E+04 9.76570E-09-2.85163E-08
 -1       551 3.11270E+04-7.30313E+05 7.45852E+03-1.13870E+06-8.14543E-08-9.86620E-09
 -1       552 6.98198E+04-7.59216E+05 2.29772E+04-1.62341E+06-6.08561E-08 2.58442E-08
 -1       553 5.22482E+04-7.60580E+05 4.07013E+04-1.13343E+06-9.33069E-08 3.02971E-08
 -1       554 1.02865E+05-7.66046E+05 9.10646E+04-1.62530E+06-5.68980E-08 1.32277E-08
 -1       555 8.16014E+04-7.81982E+05 1.63197E+05-1.13378E+06-9.49731E-08-8.62929E-09
 -1       556 1.70930E+05-3.02665E+05 5.20456E+04-3.45378E+05-1.88738E-08 1.39698E-08
 -1       557 2.81441E+05-3.91389E+05 2.87633E+04-4.41533E+05-6.06815E-09-3.24508E-09
 -1       558 1.60793E+05-3.03755E+05 9.37642E+03-3.43418E+05-2.35741E-08-2.09548E-09
 -1       559 2.61513E+05-3.96420E+05 5.44504E+03-4.55193E+05 4.83124E-09-2.18643E-09
 -1       560 1.51099E+05-2.97617E+05 9.21569E+02-3.50222E+05-8.23638E-09 8.39282E-09
 -1       561 2.48959E+05-3.91672E+05 9.93508E+02-4.63579E+05-1.65892E-08-1.08121E-08
 -1       562 1.43459E+05-2.92810E+05-3.30500E+02-3.55719E+05-9.51695E-09-3.69801E-09
 -1       563 2.39935E+05-3.87738E+05 2.20491E+02-4.69429E+05-8.00355E-11-1.18389E-08
 -1       564 1.38155E+05-2.89489E+05-2.00018E+02-3.59467E+05 4.11819E-09-1.15028E-08
 -1       565 2.34212E+05-3.85248E+05 9.69749E+01-4.73073E+05 6.42467E-09 9.27412E-09
 -1       566 1.35272E+05-2.87657E+05-9.08387E+01-3.61487E+05-9.00764E-09 1.52813E-08
 -1       567 2.31787E+05-3.84187E+05-1.96601E+02-4.74503E+05 1.35187E-08 1.75132E-08
 -1       568 1.34873E+05-2.87423E+05-7.05388E+02-3.61861E+05-7.33689E-09-3.80896E-09
 -1       569 2.31531E+05-3.84152E+05-1.78136E+03-4.72819E+05-5.06952E-09 1.42172E-08
 -1       570 1.37860E+05-2.90068E+05-3.99329E+03-3.61134E+05 1.14014E-08 9.00673E-09
 -1       571 2.53168E+05 9.15604E+03 1.32899E+04-7.57062E+04 1.76715E-09-5.03405E-10
 -1       572 2.55117E+05 3.33124E+03 6.51228E+03-8.30518E+04 2.83399E-09-9.77161E-09
 -1       573 2.53946E+05 9.38950E+02 2.89344E+03-7.55534E+04 3.68800E-09 4.66116E-09
 -1       574 2.54156E+05 4.60080E+02 1.45050E+03-8.32368E+04 2.88492E-09-8.39464E-10
 -1       575 2.54032E+05 2.30279E+02 6.84336E+02-7.55328E+04-1.36004E-09-2.77305E-09
 -1       576 2.54032E+05 2.24469E+02 3.49785E+02-8.32615E+04-4.70891E-09 2.05528E-08
 -1       577 2.54058E+05 1.84119E+02 1.74204E+02-7.55300E+04-2.21826E-09 2.12549E-08
 -1       578 2.54043E+05 1.99720E+02 9.93745E+01-8.32648E+04-6.14182E-09 4.42014E-10
 -1       579 2.54101E+05 1.63986E+02 6.72408E+01-7.55298E+04 7.78891E-09 9.27321E-09
 -1       580 2.54103E+05 1.70448E+02 7.52930E+01-8.32606E+04 8.90395E-09 1.76242E-08
 -1       581 2.54170E+05 1.30779E+02 1.13131E+02-7.55345E+04 8.60200E-09 6.93308E-09
 -1       582 2.54215E+05 1.56966E+02 2.27260E+02-8.32118E+04-4.00178E-11-1.21627E-08
 -1       583 2.54253E+05 1.83755E+02 4.38121E+02-7.55788E+04-1.70130E-08 3.09251E-09
 -1       584 2.54480E+05 5.36196E+02 9.88541E+02-8.28391E+04-3.12875E-08-6.15728E-10
 -1       585 2.54240E+05 1.38616E+03 2.00509E+03-7.59070E+04-1.76733E-08 1.92449E-09
 -1       586-3.14142E+03 9.25921E+04-3.28283E+03-2.25042E+05-2.64436E-09-4.08818E-10
 -1       587-9.83646E+02 9.22381E+04 2.74756E+02-2.47692E+05-3.32875E-09-1.46752E-08
 -1       588 6.09881E+02 9.21809E+04 3.90348E+03-2.24928E+05-1.52249E-09 1.78470E-08
 -1       589 4.68052E+03 9.42537E+04 1.04824E+04-2.47454E+05-5.21322E-09-7.40692E-09
 -1       590 1.45258E+04 9.10326E+04 2.21294E+04-2.25314E+05-1.61708E-09-1.02045E-08
 -1       591-5.36908E+04-1.28636E+04-1.82521E+04-2.44591E+04-3.36672E-09-1.05601E-08
 -1       592-5.66043E+04-1.61450E+04-9.88663E+03-2.78514E+04 3.54265E-09-1.75573E-08
 -1       593-5.55199E+04-1.15354E+04-4.11554E+03-2.57939E+04 9.62075E-10-4.12683E-10
 -1       594-5.40788E+04-1.34727E+04-2.05272E+03-2.79540E+04-3.48155E-09 1.27239E-08
 -1       595-5.56594E+04-1.15307E+04-9.42959E+02-2.58546E+04-1.97170E-09 8.87072E-09
 -1       596-5.39063E+04-1.33505E+04-4.80253E+02-2.79340E+04 2.59935E-09 8.68175E-09
 -1       597-5.56769E+04-1.15430E+04-2.63313E+02-2.58569E+04 1.34247E-09-3.73950E-09
 -1       598-5.38895E+04-1.33457E+04-2.14972E+02-2.79285E+04-2.85576E-09-1.64493E-09
 -1       599-5.56757E+04-1.15431E+04-2.78701E+02-2.58565E+04 3.71915E-09 1.38094E-08
 -1       600-5.39075E+04-1.33515E+04-5.20985E+02-2.79329E+04 2.12776E-09-4.68219E-10
 -1       601-5.56544E+04-1.15306E+04-1.02950E+03-2.58533E+04 7.82165E-10 6.41489E-09
 -1       602-5.40959E+04-1.34845E+04-2.24460E+03-2.79518E+04-2.23281E-09 1.30028E-08
 -1       603-5.54995E+04-1.15381E+04-4.50176E+03-2.57874E+04-8.62019E-09 2.45273E-08
 -1       604-5.68720E+04-1.63926E+04-1.08143E+04-2.78203E+04-2.13940E-08 1.62145E-08
 -1       605-5.34829E+04-1.30047E+04-1.99649E+04-2.43423E+04-1.24811E-08 1.17525E-08
 -1       606 2.64711E+04-1.23627E+04-2.21876E+04 2.53969E+04 2.16914E-09-1.80257E-08
 -1       607 2.26775E+04-4.02411E+03-1.10489E+04 2.85252E+04 8.87667E-10-1.71015E-08
 -1       608 2.48350E+04-7.13367E+02-4.94687E+03 2.52060E+04 2.34286E-09-1.23359E-08
 -1       609 2.44159E+04-2.28138E+02-2.49879E+03 2.87500E+04 1.05138E-09-5.85578E-09
 -1       610 2.46444E+04-1.58498E+01-1.19272E+03 2.51840E+04-1.74441E-09-1.09601E-08
 -1       611 2.45740E+04-1.03299E+01-6.01310E+02 2.87744E+04-2.87400E-10-1.36083E-09
 -1       612 2.45985E+04-7.61028E-01-2.86359E+02 2.51818E+04 6.39739E-09-1.54182E-09
 -1       613 2.45786E+04-3.78759E+00-1.28641E+02 2.87773E+04 1.43727E-08-1.27632E-08
 -1       614 2.45752E+04-3.66581E+00-3.12658E+01 2.51811E+04 9.83619E-09 4.66548E-09
 -1       615 2.45698E+04-1.56371E-01 5.15242E+01 2.87778E+04 6.11817E-09 4.83487E-09
 -1       616 2.45572E+04 9.71109E-01 1.56657E+02 2.51813E+04 1.20144E-08 4.22983E-09
 -1       617 2.45855E+04 3.50955E+01 3.58415E+02 2.87773E+04 1.96017E-08 2.68005E-09
 -1       618 2.45238E+04 1.05730E+02 7.22719E+02 2.51815E+04 9.20772E-09 8.40760E-09
 -1       619 2.48388E+04 5.95063E+02 1.62317E+03 2.87765E+04 3.02941E-09 6.58019E-10
 -1       620 2.42826E+04 1.82048E+03 3.26254E+03 2.51815E+04 2.45245E-09-3.11911E-09
 -1       621 3.77357E+02 2.61899E+05 3.13644E+03 2.93301E+04 3.21506E-10 1.31949E-08
 -1       622 4.75522E+02 2.62647E+05 2.76911E+03 4.26395E+04 7.10770E-10 5.69935E-09
 -1       623 6.47614E+01 2.62078E+05 3.31546E+03 2.91979E+04 6.78938E-10 1.51294E-09
 -1       624 1.61682E+03 2.63640E+05 6.41419E+03 4.27678E+04 6.63135E-10-1.54841E-09
 -1       625 1.60169E+03 2.60817E+05 1.12041E+04 2.91991E+04 7.48514E-10 1.50384E-08
 -1       626 2.26722E+05 5.70158E+04 4.60840E+03 1.14841E+05-2.24691E-09-1.28348E-08
 -1       627 2.24304E+05 5.86042E+04 2.22075E+03 1.19058E+05-3.36559E-09-7.90260E-09
 -1       628 2.26852E+05 5.48872E+04 9.38727E+02 1.15598E+05 5.83168E-09-5.66433E-09
 -1       629 2.23703E+05 5.80185E+04 4.59572E+02 1.19298E+05 1.73309E-08 1.83487E-08
 -1       630 2.26863E+05 5.47857E+04 2.12758E+02 1.15626E+05 1.08630E-08-2.77308E-09
 -1       631 2.23635E+05 5.79992E+04 1.14029E+02 1.19299E+05 4.69299E-09-9.89843E-09
 -1       632 2.26856E+05 5.47913E+04 7.42105E+01 1.15620E+05 2.99769E-09-2.39448E-08
 -1       633 2.23624E+05 5.80028E+04 8.13820E+01 1.19293E+05-2.20234E-09-3.76076E-09
 -1       634 2.26849E+05 5.47904E+04 1.30340E+02 1.15617E+05 6.87487E-09-3.22802E-09
 -1       635 2.23634E+05 5.80024E+04 2.63067E+02 1.19296E+05 1.74080E-08 5.31827E-09
 -1       636 2.26839E+05 5.47867E+04 5.30859E+02 1.15616E+05 8.67112E-09-6.26096E-09
 -1       637 2.23748E+05 5.80848E+04 1.16684E+03 1.19294E+05 3.08512E-09 7.46832E-09
 -1       638 2.26797E+05 5.50452E+04 2.39737E+03 1.15500E+05 2.51703E-09-6.60748E-10
 -1       639 2.25013E+05 5.98308E+04 5.67204E+03 1.18917E+05 8.13088E-10 3.85876E-09
 -1       640 2.26622E+05 6.02758E+04 1.17703E+04 1.13297E+05 3.92538E-09-1.25146E-09
 -1       656 5.91696E+04-1.51002E+06-1.42843E+05-1.39870E+03-2.18279E-11 1.37560E-08
 -1       657-7.82706E+04-1.57455E+06-1.18315E+05 6.39733E+03-4.36557E-11 9.09802E-09
 -1       658 1.88556E+04-1.52836E+06-7.28460E+04-3.12701E+03 2.82171E-10 1.34148E-08
 -1       659-8.45714E+04-1.57754E+06-1.26593E+05 7.75190E+03-1.10776E-09 6.74616E-09
 -1       660 6.54560E+04-1.50704E+06-1.57077E+05-2.75326E+03-1.33878E-09 3.11277E-09
 -1       661 1.58719E+05 1.68586E+04 1.62285E+04 6.20739E+04-7.35326E-10 2.97314E-09
 -1       662 1.67699E+05 2.90676E+04 1.09364E+04 5.86553E+04 1.65346E-09-1.06570E-08
 -1       663 1.61905E+05 2.20659E+04 3.82512E+03 6.11501E+04-2.84035E-09-1.16916E-09
 -1       664 1.64007E+05 2.29765E+04 2.28785E+03 5.97823E+04 6.92324E-10-5.31742E-10
 -1       665 1.62387E+05 2.27787E+04 9.02593E+02 6.10110E+04 5.45072E-10 3.71074E-10
 -1       666 1.63438E+05 2.21603E+04 5.27861E+02 5.99630E+04 1.21241E-09-5.23861E-09
 -1       667 1.62470E+05 2.28608E+04 2.80128E+02 6.09772E+04 1.62879E-09 4.96171E-09
 -1       668 1.63347E+05 2.20996E+04 2.84732E+02 6.00120E+04-1.06090E-09-1.95220E-08
 -1       669 1.62477E+05 2.28375E+04 3.84979E+02 6.09624E+04-2.87662E-09 1.35708E-08
 -1       670 1.63442E+05 2.23074E+04 8.37769E+02 6.00139E+04-4.84022E-11-4.75239E-10
 -1       671 1.62376E+05 2.26574E+04 1.48736E+03 6.09735E+04-2.19366E-09 8.68795E-10
 -1       672 1.64309E+05 2.37541E+04 3.80526E+03 5.98037E+04 1.32360E-10 8.22786E-09
 -1       673 1.61615E+05 2.14273E+04 6.37694E+03 6.11586E+04-1.33241E-10 1.66324E-09
 -1       674 1.70380E+05 3.39978E+04 1.82367E+04 5.80189E+04-1.97457E-09-1.23368E-08
 -1       675 1.56344E+05 1.27004E+04 2.70695E+04 6.26505E+04-2.43836E-09-5.66979E-09
 -1       676 2.22436E+01-2.72014E+05-1.03224E+03-5.38894E+01 5.77131E-10 6.50334E-09
 -1       677-2.73955E+02-2.72264E+05-1.88915E+03 1.07703E+02 3.81448E-09-1.33829E-08
 -1       678 1.83023E+02-2.71836E+05-3.33954E+03-5.37776E+01 5.12728E-10-7.91525E-09
 -1       679-3.34040E+03-2.74279E+05-7.93326E+03 1.07274E+02 3.50406E-09-1.30852E-08
 -1       680 1.99372E+03-2.69999E+05-1.27857E+04-5.28603E+01 2.28283E-10 1.59999E-09
 -1       771-2.85125E+06-6.36248E+05-1.15584E+05-1.31826E+06-2.59752E-08-2.39525E-08
 -1       772-2.79315E+06-7.07172E+05-6.00200E+04-1.39972E+06-2.17697E-08 3.76167E-09
 -1       773-2.87290E+06-6.19216E+05-2.96789E+04-1.32697E+06-1.90630E-08 2.82307E-09
 -1       774-2.78413E+06-6.94754E+05-1.34363E+04-1.41653E+06 1.61235E-08-1.51704E-09
 -1       775-2.88325E+06-6.11899E+05-9.44110E+03-1.33074E+06-3.49246E-10 6.17001E-09
 -1       776-2.79077E+06-6.93369E+05-3.63115E+03-1.42869E+06-7.42148E-09 4.10364E-09
 -1       777-2.89202E+06-6.05516E+05-3.95573E+03-1.33405E+06 1.86265E-09 3.83443E-09
 -1       778-2.79785E+06-6.92168E+05-1.15360E+03-1.43907E+06 5.35510E-09 7.29415E-09
 -1       779-2.89946E+06-6.00006E+05-1.91093E+03-1.33688E+06-2.63390E-09-8.17454E-09
 -1       780-2.80407E+06-6.91009E+05-3.25755E+02-1.44750E+06 4.16185E-09 1.61162E-09
 -1       781-2.90532E+06-5.95599E+05-7.25904E+02-1.33910E+06-2.12603E-08-5.92991E-09
 -1       782-2.80884E+06-6.90002E+05 2.66783E+02-1.45370E+06-2.19661E-08-8.88394E-09
 -1       783-2.90941E+06-5.92565E+05 4.23949E+02-1.34066E+06 1.80444E-09-9.92486E-09
 -1       784-2.81143E+06-6.88866E+05 1.72585E+03-1.45752E+06-1.50139E-08-1.27648E-09
 -1       785-2.91182E+06-5.90770E+05 3.04841E+03-1.34167E+06-2.98860E-08 5.50608E-09
 -1       786 1.33143E+05-9.69880E+03 2.24383E+04-2.26120E+02 1.86194E-09 1.43791E-09
 -1       787 1.42873E+05 1.12285E+04 1.58743E+04-4.67901E+01 3.65965E-09-7.71138E-09
 -1       788 1.36895E+05-1.52013E+03 5.80575E+03-1.93948E+02 1.96539E-09 1.76099E-08
 -1       789 1.38502E+05 1.75896E+03 3.64531E+03-9.72266E+01-6.46857E-10-8.62428E-10
 -1       790 1.37514E+05-2.37023E+02 1.47743E+03-1.75694E+02-9.30178E-10 1.06660E-08
 -1       791 1.37778E+05 2.74038E+02 8.56241E+02-1.28489E+02-4.58989E-09 2.77825E-08
 -1       792 1.37619E+05-3.63257E+01 3.68676E+02-1.62687E+02-2.14157E-09-4.44899E-09
 -1       793 1.37654E+05 4.06887E+01 1.96584E+02-1.52828E+02 1.49892E-09-1.19565E-08
 -1       794 1.37638E+05-3.82161E+00 7.68059E+01-1.51354E+02 3.26060E-09-3.05382E-09
 -1       795 1.37627E+05-5.55150E+00 1.16373E+01-1.76443E+02-3.13704E-09-2.18376E-09
 -1       796 1.37646E+05 9.89021E+00-4.27043E+01-1.39072E+02 1.86903E-09 7.26954E-09
 -1       797 1.37591E+05-7.72742E+01-1.50454E+02-2.04731E+02 2.48288E-09-7.06268E-09
 -1       798 1.37674E+05 6.78465E+01-2.53498E+02-1.23066E+02 1.27531E-09-1.07757E-08
 -1       799 1.37396E+05-5.00615E+02-7.05434E+02-2.44195E+02 3.07291E-09 6.47497E-09
 -1       800 1.37841E+05 4.32878E+02-1.00055E+03-9.96080E+01 2.55334E-10 1.20502E-09
 -1       801-1.40861E+04-6.80288E+06-8.60530E+05 6.97527E+05 6.78410E-08-4.07163E-08
 -1       802 2.63706E+05 9.83702E+05 9.35778E+05-7.97026E+05 1.85315E-07-2.06037E-08
 -1       803-2.43572E+05-8.59645E+06-9.25922E+05 4.60592E+05 6.07361E-08 2.47874E-08
 -1       804 9.61523E+04-9.30647E+05 6.57281E+05 4.19303E+05-7.32362E-08-6.66996E-08
 -1       805 1.17818E+05-4.90208E+06-1.47002E+05-5.16330E+05-3.04171E-08-4.42192E-08
 -1       806-2.77163E+05-5.30686E+04-2.02796E+04-1.09221E+05-7.18865E-09 5.15911E-09
 -1       807-2.78846E+05-4.96702E+04-9.96314E+03-1.14036E+05-1.77920E-09 1.29842E-08
 -1       808-2.77710E+05-4.57693E+04-4.22674E+03-1.12687E+05-1.19098E-08-1.25746E-08
 -1       809-2.76756E+05-4.68668E+04-2.06679E+03-1.14276E+05-9.72636E-09 7.31643E-09
 -1       810-2.77795E+05-4.55150E+04-9.47265E+02-1.12841E+05 1.32059E-09 2.07706E-09
 -1       811-2.76595E+05-4.67536E+04-4.71046E+02-1.14245E+05-1.44769E-09-2.60964E-08
 -1       812-2.77808E+05-4.55365E+04-2.38099E+02-1.12841E+05-2.12913E-09-1.18894E-08
 -1       813-2.76574E+05-4.67552E+04-1.54609E+02-1.14229E+05 6.07542E-09 8.94624E-09
 -1       814-2.77803E+05-4.55444E+04-1.52888E+02-1.12838E+05 5.01495E-09 1.26824E-08
 -1       815-2.76578E+05-4.67569E+04-2.46262E+02-1.14224E+05-3.85626E-10-2.94176E-09
 -1       816-2.77786E+05-4.55428E+04-4.66465E+02-1.12835E+05 2.87127E-09 1.67684E-08
 -1       817-2.76658E+05-4.68010E+04-1.00138E+03-1.14215E+05-7.27596E-12 1.61581E-08
 -1       818-2.77727E+05-4.56831E+04-2.04225E+03-1.12769E+05 8.09450E-10-7.90806E-10
 -1       819-2.77777E+05-4.80351E+04-4.80577E+03-1.13953E+05 7.09861E-10-2.04902E-08
 -1       820-2.77346E+05-4.93099E+04-9.78121E+03-1.11215E+05-5.01950E-09-4.04725E-10
 -1       821-2.44242E+05 1.24744E+04-3.78396E+04-4.19591E+03-2.17026E-08-2.48656E-09
 -1       822-2.14376E+05-1.61007E+04-1.90492E+04 1.28864E+04-2.85519E-08-1.46483E-08
 -1       823-2.30882E+05 3.69436E+03-8.91655E+03-6.45228E+03 2.68698E-08 7.60338E-10
 -1       824-1.93413E+05-1.99026E+03 1.97981E+03 9.02150E+03-1.36276E-09 1.60526E-09
 -1       825-2.65080E+05-1.76229E+03-9.39507E+03-3.30695E+02 1.49573E-08 7.09827E-09
 -1       826-1.83826E+05 9.49148E+02 7.89260E+03-4.54250E+03 7.58859E-08 9.66912E-09
 -1       827-2.40399E+05 6.84676E+02-2.69979E+03 7.10926E+03 7.41178E-08 2.01934E-08
 -1       828-2.10006E+05-1.42222E+03 2.90429E+03-1.21166E+04 1.06461E-07 1.19443E-08
 -1       829-2.39112E+05 8.28213E+02-2.44829E+03 7.24620E+03 1.68181E-08 7.55321E-09
 -1       830-1.84778E+05 8.40625E+02 7.64250E+03-4.97284E+03-3.48369E-08 2.24628E-09
 -1       831-2.65423E+05-1.78976E+03-9.55000E+03-3.72745E+01 9.51616E-10 6.75766E-09
 -1       832-1.92282E+05-1.96835E+03 2.03176E+03 8.65183E+03-7.53121E-09 2.17824E-09
 -1       833-2.31661E+05 3.69022E+03-9.41326E+03-6.37606E+03-3.43530E-09-4.69117E-09
 -1       834-2.15246E+05-1.68035E+04-2.00700E+04 1.30199E+04-5.39339E-09-1.18121E-08
 -1       835-2.42598E+05 1.31861E+04-3.88110E+04-4.40566E+03 1.41699E-08-1.52977E-09
 -1       836-1.18210E+03 3.26476E+05 1.94736E+04-1.75397E+04-3.54612E-09 1.64569E-08
 -1       837 4.19373E+03 3.32558E+05 1.67073E+04-3.54928E+04-3.81328E-09-7.45536E-09
 -1       838-4.71465E+02 3.28141E+05 1.73433E+04-1.74680E+04-2.73394E-09-1.53227E-08
 -1       839 1.10850E+04 3.37690E+05 3.31234E+04-3.55393E+04-2.83808E-09-6.13403E-09
 -1       840-3.40068E+03 3.21289E+05 5.29582E+04-1.74952E+04-2.67391E-09 5.08959E-09
 -1       856-6.01366E+04 7.69651E+03-2.02823E+04-4.01984E+02 3.91310E-10-9.27139E-09
 -1       857-6.85026E+04-9.03568E+03-1.39627E+04 5.14276E+03 3.19324E-09 1.49248E-09
 -1       858-6.34460E+04 1.07894E+03-5.26303E+03-4.23739E+02 2.46700E-11-5.44082E-09
 -1       859-6.47037E+04-1.26232E+03-3.17677E+03 5.17601E+03-2.83279E-10 5.83742E-09
 -1       860-6.39406E+04 1.50631E+02-1.33252E+03-4.35143E+02 3.22302E-10-1.05315E-08
 -1       861-6.41344E+04-1.73279E+02-7.35509E+02 5.19157E+03-2.34957E-09-1.03431E-09
 -1       862-6.40179E+04 2.00887E+01-3.10648E+02-4.39302E+02 1.72016E-09-9.84585E-10
 -1       863-6.40405E+04-1.53827E+01-1.24305E+02 5.19376E+03-1.08173E-10-1.05924E-08
 -1       864-6.40349E+04-3.73219E+00 2.01890E+01-4.37334E+02 5.19222E-10-5.56099E-09
 -1       865-6.39941E+04 5.15699E+01 1.88968E+02 5.18313E+03 3.52750E-09-6.40505E-09
 -1       866-6.40624E+04-4.69789E+01 3.93734E+02-4.28675E+02-9.95385E-10-9.54117E-11
 -1       867-6.38057E+04 3.89940E+02 9.77365E+02 5.15959E+03 4.91355E-10 1.18545E-08
 -1       868-6.42191E+04-3.36289E+02 1.62616E+03-4.13791E+02 1.00908E-09-4.98267E-09
 -1       869-6.26114E+04 2.79955E+03 4.33281E+03 5.12032E+03-1.22361E-09-9.52650E-09
 -1       870-6.52501E+04-2.39156E+03 6.28762E+03-3.89367E+02-2.14175E-09 1.12213E-08
 -1       871-5.08053E+03-1.62371E+04-1.73039E+04 1.15810E+05-1.72076E-09 1.45501E-08
 -1       872-1.99340E+03-2.02018E+04-7.19387E+03 1.50155E+05-4.66116E-09 6.30826E-09
 -1       873 1.84538E+02-1.83131E+04 6.53895E+02 1.15556E+05-2.49520E-09 1.80262E-09
 -1       874 2.77821E+03-1.60544E+04 8.98721E+03 1.50192E+05-5.00131E-09-1.68511E-08
 -1       875 6.07562E+03-2.04547E+04 2.01736E+04 1.15768E+05-2.11003E-09-9.16316E-09
 -1       876 2.65983E+05 4.50338E+04 1.37266E+04 1.06983E+05 9.18590E-10 6.80484E-09
 -1       877 2.66884E+05 4.79306E+04 7.33048E+03 1.10920E+05 8.96762E-10-9.17134E-09
 -1       878 2.67265E+05 4.35147E+04 3.07116E+03 1.08110E+05-2.76486E-10 3.90082E-09
 -1       879 2.65019E+05 4.60686E+04 1.53019E+03 1.11013E+05 3.65617E-10 1.42842E-09
 -1       880 2.67358E+05 4.34986E+04 7.12759E+02 1.08156E+05-4.38808E-09 5.70014E-09
 -1       881 2.64895E+05 4.59891E+04 3.80557E+02 1.10992E+05-5.63080E-09 6.71224E-09
 -1       882 2.67367E+05 4.35103E+04 2.43400E+02 1.08157E+05-1.99520E-09-1.04756E-09
 -1       883 2.64886E+05 4.59850E+04 2.61534E+02 1.10986E+05 3.49246E-10 1.13340E-09
 -1       884 2.67361E+05 4.35076E+04 4.15939E+02 1.08157E+05-3.18323E-11-8.99882E-09
 -1       885 2.64919E+05 4.59909E+04 8.36213E+02 1.10996E+05-1.48847E-09 3.94300E-09
 -1       886 2.67328E+05 4.34832E+04 1.68534E+03 1.08154E+05 2.85645E-10 2.00725E-09
 -1       887 2.65215E+05 4.61851E+04 3.68142E+03 1.11039E+05 6.79984E-09-1.14032E-08
 -1       888 2.67096E+05 4.35241E+04 7.41822E+03 1.08036E+05-7.32786E-09 4.59522E-09
 -1       889 2.69632E+05 5.07774E+04 1.77210E+04 1.10903E+05-1.66122E-08-7.04495E-09
 -1       890 2.64071E+05 4.71171E+04 3.31908E+04 1.05209E+05-7.38851E-09 5.78439E-10
 -1       891-1.15644E+02-1.48197E+05-1.80509E+03 2.55931E+04-7.33507E-10 1.47381E-08
 -1       892-2.11603E+02-1.48656E+05-1.94249E+03 3.88038E+04 1.14187E-09 3.01661E-08
 -1       893 4.88084E+00-1.48255E+05-2.75417E+03 2.55993E+04-5.49790E-10 2.29911E-08
 -1       894-1.42330E+03-1.49699E+05-5.70305E+03 3.86623E+04 1.04001E-09 1.40926E-09
 -1       895-1.12284E+03-1.47067E+05-1.00439E+04 2.57345E+04-2.92630E-10 4.17640E-09
 -1       956-3.40285E+05-4.85723E+03-1.21038E+04 2.57895E+04 1.12987E-08 7.85781E-09
 -1       957-3.42667E+05-1.67722E+03-6.21310E+03 3.10276E+04 1.78911E-08-6.58792E-09
 -1       958-3.41367E+05-1.73874E+02-2.79950E+03 2.56431E+04 2.52840E-09-6.95763E-09
 -1       959-3.41550E+05-7.31345E+01-1.42971E+03 3.11933E+04-7.14590E-09 3.46472E-09
 -1       960-3.41468E+05-3.61697E-01-6.97120E+02 2.56284E+04 5.77074E-09-4.85079E-09
 -1       961-3.41474E+05-9.81077E+00-3.69822E+02 3.12103E+04 1.73611E-08 1.36197E-09
 -1       962-3.41491E+05-3.18052E+00-2.11876E+02 2.56261E+04 6.21367E-09 8.11247E-09
 -1       963-3.41472E+05-7.15701E+00-1.70414E+02 3.12133E+04 2.27146E-09-2.82057E-09
 -1       964-3.41495E+05-5.97844E-01-2.07483E+02 2.56254E+04-6.56655E-10 2.09525E-09
 -1       965-3.41483E+05-4.29638E+00-3.59065E+02 3.12128E+04-9.22284E-10-3.56408E-09
 -1       966-3.41481E+05 7.31293E+00-6.74604E+02 2.56266E+04 5.83668E-10 5.59453E-09
 -1       967-3.41567E+05-6.02617E+01-1.38370E+03 3.12011E+04-3.14299E-09 1.01886E-08
 -1       968-3.41391E+05-1.55596E+02-2.70848E+03 2.56371E+04 9.64974E-10 1.86327E-08
 -1       969-3.42657E+05-1.60826E+03-6.01309E+03 3.10784E+04 2.51498E-09-9.69175E-09
 -1       970-3.40350E+05-4.68506E+03-1.17132E+04 2.57462E+04-6.36646E-11 9.10131E-09
 -1       971-3.13854E+05-1.58529E+03-8.65574E+03 1.42892E+04 2.03363E-09-1.90118E-09
 -1       972-3.15946E+05-1.15407E+03-4.71385E+03 1.98500E+04 4.12683E-09 7.34781E-09
 -1       973-3.14817E+05-3.73666E+01-2.11120E+03 1.41734E+04 4.13911E-09 2.94176E-09
 -1       974-3.14952E+05-4.72714E+01-1.09419E+03 1.99785E+04 9.83005E-09-3.46927E-09
 -1       975-3.14893E+05 3.97225E+00-5.46895E+02 1.41621E+04 4.13820E-09 7.68489E-09
 -1       976-3.14894E+05-1.24034E+00-3.15443E+02 1.99927E+04 1.75487E-09 4.53383E-09
 -1       977-3.14908E+05 4.38013E+00-2.28797E+02 1.41592E+04 8.88349E-10-9.99307E-11
 -1       978-3.14898E+05 4.32487E+00-2.67546E+02 1.99968E+04 4.38240E-09 2.44472E-09
 -1       979-3.14908E+05 1.19729E+01-4.29688E+02 1.41579E+04-1.71320E-09 4.17594E-09
 -1       980-3.14930E+05 7.07632E+00-8.29563E+02 1.99976E+04-2.35325E-09 1.34162E-08
 -1       981-3.14882E+05 3.26985E+01-1.60660E+03 1.41584E+04-1.31899E-09 7.40130E-09
 -1       982-3.15151E+05-1.11578E+02-3.32078E+03 1.99915E+04 2.36287E-09-3.31017E-09
 -1       983-3.14679E+05-7.00941E+01-6.45225E+03 1.41641E+04 1.00749E-09-1.09026E-09
 -1       984-3.18254E+05-3.48127E+03-1.44494E+04 1.99114E+04 5.55701E-10 5.99744E-09
 -1       985-3.11758E+05-4.79141E+03-2.65336E+04 1.42369E+04 1.50067E-11 1.04010E-08
 -3
    1PSTEP                        17           9           1          
  100CL  109 6.44531E-01         409                     0    9           1
 -4  DISP        4    1
 -5  D1          1    2    1    0
 -5  D2          1    2    2    0
 -5  D3          1    2    3    0
 -5  ALL         1    2    0    0    1ALL
 -1         1 2.12514E-03 0.00000E+00 0.00000E+00
 -1         2 1.84192E-03 1.60735E-26-2.64698E-23
 -1         3 3.16021E-04 4.18126E-28 0.00000E+00
 -1         5 1.67197E-04 1.68374E-26-1.75776E-24
 -1         8 2.10826E-03-5.15370E-07 0.00000E+00
 -1         9 2.06653E-03-1.07425E-05 0.00000E+00
 -1        10 2.86770E-04-3.50922E-06-6.61744E-24
 -1        12 1.68666E-04 7.72728E-07-1.49926E-24
 -1        15 2.08795E-03-5.63570E-07 0.00000E+00
 -1        16 2.09731E-03-1.19354E-05 0.00000E+00
 -1        17 1.96086E-04-7.86639E-06 0.00000E+00
 -1        18 1.71553E-04 2.91882E-05 0.00000E+00
 -1        19 1.73072E-04 1.54001E-06 0.00000E+00
 -1        20 1.73212E-04-5.65800E-06 0.00000E+00
 -1        21 1.72352E-04-1.65180E-05 0.00000E+00
 -1        24 2.95079E-05-1.17353E-05 0.00000E+00
 -1        25 1.80433E-04 2.93980E-05 0.00000E+00
 -1        26 1.81188E-04 2.13313E-06 0.00000E+00
 -1        27 1.78975E-04-9.05853E-06 0.00000E+00
 -1        28 1.78658E-04-1.71209E-05 0.00000E+00
 -1        32 0.00000E+00 0.00000E+00 0.00000E+00
 -1        33 1.88148E-04 2.86138E-06 0.00000E+00
 -1        34 1.86097E-04-9.10896E-06 0.00000E+00
 -1        35 1.84225E-04-1.74515E-05 0.00000E+00
 -1        51 2.12405E-03-9.81697E-08 0.00000E+00
 -1        52 2.12203E-03-1.81345E-07 0.00000E+00
 -1        53 2.11925E-03-2.62439E-07 0.00000E+00
 -1        54 2.11590E-03-3.43602E-07 0.00000E+00
 -1        55 2.11218E-03-4.26402E-07 2.48154E-24
 -1        56 2.12117E-03 5.92757E-07-5.29396E-23
 -1        57 2.11575E-03 4.64691E-06 5.29396E-23
 -1        58 2.10926E-03 1.15228E-05-1.05879E-22
 -1        59 2.10201E-03 2.02955E-05-5.29396E-23
 -1        60 2.09449E-03 2.97607E-05 0.00000E+00
 -1        61 2.08720E-03 3.86507E-05-5.29396E-23
 -1        62 2.08057E-03 4.57904E-05 1.05879E-22
 -1        63 2.07502E-03 5.01397E-05 0.00000E+00
 -1        64 2.07074E-03 5.11006E-05 0.00000E+00
 -1        65 2.06787E-03 4.83416E-05-5.29396E-23
 -1        66 2.06628E-03 4.21225E-05-1.05879E-22
 -1        67 2.06577E-03 3.29793E-05 0.00000E+00
 -1        68 2.06597E-03 2.19138E-05 1.05879E-22
 -1        69 2.06646E-03 1.00895E-05 0.00000E+00
 -1        70 2.06676E-03-1.22255E-06 0.00000E+00
 -1        86 1.85520E-03-1.09380E-06-2.64698E-23
 -1        87 1.89449E-03-2.84499E-06 0.00000E+00
 -1        88 1.94794E-03-5.19453E-06 2.64698E-23
 -1        89 2.00315E-03-7.63533E-06-1.32349E-23
 -1        90 2.04693E-03-9.55922E-06 0.00000E+00
 -1       121 3.15200E-04-5.69968E-07 0.00000E+00
 -1       122 3.12738E-04-1.14253E-06-6.61744E-24
 -1       123 3.08645E-04-1.72023E-06-1.32349E-23
 -1       124 3.02937E-04-2.30564E-06 0.00000E+00
 -1       125 2.95636E-04-2.90093E-06-1.32349E-23
 -1       191 1.67238E-04 1.28830E-07 1.03398E-24
 -1       192 1.67360E-04 2.57652E-07 8.27181E-25
 -1       193 1.67564E-04 3.86462E-07-3.20532E-24
 -1       194 1.67850E-04 5.15250E-07 9.82277E-25
 -1       195 1.68217E-04 6.44009E-07 1.44757E-24
 -1       251 2.10752E-03-1.48888E-05 0.00000E+00
 -1       252 2.10569E-03-6.43576E-05 0.00000E+00
 -1       253 2.10238E-03-1.39312E-04 0.00000E+00
 -1       254 2.09786E-03-2.29502E-04 0.00000E+00
 -1       255 2.09329E-03-3.20186E-04 0.00000E+00
 -1       256 2.08987E-03-3.96617E-04-6.61744E-24
 -1       257 2.08793E-03-4.48251E-04 0.00000E+00
 -1       258 2.08714E-03-4.65166E-04 0.00000E+00
 -1       259 2.08633E-03-4.47081E-04 1.32349E-23
 -1       260 2.08435E-03-3.94658E-04-6.61744E-24
 -1       261 2.08093E-03-3.18114E-04 0.00000E+00
 -1       262 2.07643E-03-2.28263E-04 0.00000E+00
 -1       263 2.07206E-03-1.39854E-04 2.64698E-23
 -1       264 2.06894E-03-6.76078E-05-1.32349E-23
 -1       265 2.06726E-03-2.14700E-05-2.64698E-23
 -1       266 2.10488E-03-5.31001E-07-3.30872E-24
 -1       267 2.10149E-03-5.38108E-07-8.27181E-25
 -1       268 2.09811E-03-5.45755E-07-8.27181E-25
 -1       269 2.09472E-03-5.51803E-07 0.00000E+00
 -1       270 2.09134E-03-5.57814E-07 0.00000E+00
 -1       271 2.10614E-03 2.68644E-06 0.00000E+00
 -1       272 2.10395E-03 5.99721E-06 0.00000E+00
 -1       273 2.10177E-03 9.27751E-06-2.64698E-23
 -1       274 2.09966E-03 1.23759E-05-1.32349E-23
 -1       275 2.09766E-03 1.51462E-05 2.64698E-23
 -1       276 2.09585E-03 1.74440E-05-1.32349E-23
 -1       277 2.09427E-03 1.91305E-05 0.00000E+00
 -1       278 2.09297E-03 2.00729E-05-1.32349E-23
 -1       279 2.09199E-03 2.01464E-05 0.00000E+00
 -1       280 2.09138E-03 1.92352E-05 0.00000E+00
 -1       281 2.09119E-03 1.72343E-05 2.64698E-23
 -1       282 2.09143E-03 1.40498E-05 0.00000E+00
 -1       283 2.09214E-03 9.60056E-06-2.64698E-23
 -1       284 2.09335E-03 3.81945E-06 1.32349E-23
 -1       285 2.09506E-03-3.34813E-06 0.00000E+00
 -1       301 2.07209E-03-1.09650E-05 0.00000E+00
 -1       302 2.07652E-03-1.11545E-05-6.61744E-24
 -1       303 2.08055E-03-1.13397E-05 0.00000E+00
 -1       304 2.08488E-03-1.15250E-05 0.00000E+00
 -1       305 2.09024E-03-1.17170E-05 0.00000E+00
 -1       306 2.10007E-03-1.41999E-04 0.00000E+00
 -1       307 2.16464E-03-5.05698E-04 0.00000E+00
 -1       308 2.22243E-03-1.04406E-03-1.05879E-22
 -1       309 2.26401E-03-1.67505E-03 5.29396E-23
 -1       310 2.30890E-03-2.28837E-03-1.05879E-22
 -1       311 2.37186E-03-2.77536E-03 0.00000E+00
 -1       312 2.43145E-03-3.06314E-03 1.05879E-22
 -1       313 2.44100E-03-3.11052E-03 0.00000E+00
 -1       314 2.34242E-03-2.92312E-03 0.00000E+00
 -1       315 2.09945E-03-2.54815E-03 0.00000E+00
 -1       316 1.72425E-03-2.05204E-03 1.05879E-22
 -1       317 1.26715E-03-1.49962E-03 5.29396E-23
 -1       318 8.20452E-04-9.54086E-04 0.00000E+00
 -1       319 4.73414E-04-4.80324E-04-5.29396E-23
 -1       320 2.65377E-04-1.43767E-04-1.05879E-22
 -1       336 2.76169E-04-4.17880E-06-1.32349E-23
 -1       337 2.63675E-04-4.86997E-06 0.00000E+00
 -1       338 2.49346E-04-5.58432E-06 1.32349E-23
 -1       339 2.33251E-04-6.32228E-06 0.00000E+00
 -1       340 2.15469E-04-7.08780E-06-1.32349E-23
 -1       406 1.69196E-04 9.01394E-07-1.55096E-24
 -1       407 1.69808E-04 1.02997E-06 5.16988E-26
 -1       408 1.70502E-04 1.15842E-06 2.89513E-24
 -1       409 1.71277E-04 1.28657E-06 0.00000E+00
 -1       410 1.72134E-04 1.41417E-06 0.00000E+00
 -1       521 2.13171E-03-1.52015E-04 0.00000E+00
 -1       522 2.19552E-03-5.34732E-04 5.29396E-23
 -1       523 2.24883E-03-1.09942E-03-1.05879E-22
 -1       524 2.28339E-03-1.75807E-03 0.00000E+00
 -1       525 2.32201E-03-2.39740E-03 0.00000E+00
 -1       526 2.38214E-03-2.90600E-03 0.00000E+00
 -1       527 2.44152E-03-3.20531E-03-2.11758E-22
 -1       528 2.44978E-03-3.25297E-03-5.29396E-23
 -1       529 2.34255E-03-3.05408E-03 2.11758E-22
 -1       530 2.08111E-03-2.66187E-03 0.00000E+00
 -1       531 1.67775E-03-2.14608E-03 0.00000E+00
 -1       532 1.18774E-03-1.57465E-03 0.00000E+00
 -1       533 7.08217E-04-1.00969E-03 0.00000E+00
 -1       534 3.33204E-04-5.15036E-04-5.29396E-23
 -1       535 1.07081E-04-1.59973E-04 1.05879E-22
 -1       536 1.95429E-04 2.41209E-05 0.00000E+00
 -1       537 1.93789E-04 7.96490E-05 0.00000E+00
 -1       538 1.91263E-04 1.50160E-04-3.30872E-24
 -1       539 1.88287E-04 2.27018E-04 0.00000E+00
 -1       540 1.85607E-04 2.99645E-04 3.30872E-24
 -1       541 1.83858E-04 3.57487E-04 1.65436E-24
 -1       542 1.83041E-04 3.94276E-04 0.00000E+00
 -1       543 1.82832E-04 4.03879E-04-1.65436E-24
 -1       544 1.82535E-04 3.87035E-04 0.00000E+00
 -1       545 1.81510E-04 3.44679E-04 0.00000E+00
 -1       546 1.79624E-04 2.84352E-04 0.00000E+00
 -1       547 1.77087E-04 2.13708E-04 0.00000E+00
 -1       548 1.74577E-04 1.43476E-04 3.30872E-24
 -1       549 1.72763E-04 8.43852E-05 0.00000E+00
 -1       550 1.71813E-04 4.38548E-05 1.65436E-24
 -1       551 1.72952E-04-8.39524E-06 0.00000E+00
 -1       552 1.46736E-04-8.99316E-06 0.00000E+00
 -1       553 1.18354E-04-9.64495E-06-1.32349E-23
 -1       554 8.87351E-05-1.03320E-05 0.00000E+00
 -1       555 5.88112E-05-1.10298E-05 2.64698E-23
 -1       556 1.89134E-04 9.94377E-06 0.00000E+00
 -1       557 1.83534E-04 2.43429E-05 0.00000E+00
 -1       558 1.79160E-04 3.56000E-05-5.29396E-23
 -1       559 1.75890E-04 4.40053E-05 0.00000E+00
 -1       560 1.73602E-04 4.98495E-05 0.00000E+00
 -1       561 1.72178E-04 5.34253E-05 0.00000E+00
 -1       562 1.71503E-04 5.50267E-05 0.00000E+00
 -1       563 1.71459E-04 5.49484E-05-1.32349E-23
 -1       564 1.71935E-04 5.34861E-05 0.00000E+00
 -1       565 1.72817E-04 5.09356E-05 0.00000E+00
 -1       566 1.73994E-04 4.75936E-05 0.00000E+00
 -1       567 1.75355E-04 4.37569E-05 0.00000E+00
 -1       568 1.76790E-04 3.97225E-05-1.65436E-24
 -1       569 1.78187E-04 3.57873E-05 0.00000E+00
 -1       570 1.79438E-04 3.22483E-05 0.00000E+00
 -1       571 1.71645E-04 2.73974E-05-8.27181E-25
 -1       572 1.71739E-04 2.55444E-05 8.27181E-25
 -1       573 1.71834E-04 2.36437E-05-3.30872E-24
 -1       574 1.71928E-04 2.17105E-05 8.27181E-25
 -1       575 1.72023E-04 1.97601E-05-3.30872E-24
 -1       576 1.72118E-04 1.78077E-05 0.00000E+00
 -1       577 1.72213E-04 1.58687E-05 0.00000E+00
 -1       578 1.72308E-04 1.39583E-05 0.00000E+00
 -1       579 1.72403E-04 1.20918E-05 0.00000E+00
 -1       580 1.72499E-04 1.02846E-05 0.00000E+00
 -1       581 1.72594E-04 8.55207E-06 0.00000E+00
 -1       582 1.72689E-04 6.90940E-06 0.00000E+00
 -1       583 1.72785E-04 5.37191E-06 0.00000E+00
 -1       584 1.72881E-04 3.95474E-06-3.30872E-24
 -1       585 1.72976E-04 2.67287E-06 0.00000E+00
 -1       586 1.72989E-04 2.92252E-05 0.00000E+00
 -1       587 1.74387E-04 2.92617E-05-2.06795E-25
 -1       588 1.75789E-04 2.92978E-05-8.27181E-25
 -1       589 1.77236E-04 2.93332E-05 0.00000E+00
 -1       590 1.78771E-04 2.93674E-05 0.00000E+00
 -1       591 1.72164E-04 2.74837E-05 0.00000E+00
 -1       592 1.72779E-04 2.57577E-05 0.00000E+00
 -1       593 1.73400E-04 2.40159E-05 0.00000E+00
 -1       594 1.74025E-04 2.22633E-05-4.13590E-25
 -1       595 1.74651E-04 2.05046E-05-8.27181E-25
 -1       596 1.75279E-04 1.87447E-05 4.13590E-25
 -1       597 1.75904E-04 1.69883E-05 0.00000E+00
 -1       598 1.76527E-04 1.52403E-05 4.13590E-25
 -1       599 1.77145E-04 1.35055E-05 0.00000E+00
 -1       600 1.77756E-04 1.17885E-05-4.13590E-25
 -1       601 1.78358E-04 1.00943E-05 0.00000E+00
 -1       602 1.78950E-04 8.42758E-06-4.13590E-25
 -1       603 1.79531E-04 6.79317E-06 4.13590E-25
 -1       604 1.80098E-04 5.19596E-06 5.16988E-26
 -1       605 1.80650E-04 3.64064E-06 0.00000E+00
 -1       606 1.73085E-04 6.29618E-07 0.00000E+00
 -1       607 1.73095E-04-1.92287E-07-1.65436E-24
 -1       608 1.73104E-04-9.30895E-07-3.30872E-24
 -1       609 1.73112E-04-1.59206E-06 0.00000E+00
 -1       610 1.73121E-04-2.18170E-06 0.00000E+00
 -1       611 1.73129E-04-2.70579E-06 0.00000E+00
 -1       612 1.73137E-04-3.17029E-06 0.00000E+00
 -1       613 1.73146E-04-3.58121E-06 0.00000E+00
 -1       614 1.73154E-04-3.94453E-06 0.00000E+00
 -1       615 1.73163E-04-4.26623E-06 0.00000E+00
 -1       616 1.73171E-04-4.55232E-06 1.65436E-24
 -1       617 1.73179E-04-4.80877E-06 0.00000E+00
 -1       618 1.73188E-04-5.04157E-06 8.27181E-25
 -1       619 1.73196E-04-5.25672E-06 0.00000E+00
 -1       620 1.73204E-04-5.46021E-06 0.00000E+00
 -1       621 1.74168E-04 1.63927E-06 3.30872E-24
 -1       622 1.75408E-04 1.73882E-06 0.00000E+00
 -1       623 1.76761E-04 1.83821E-06 1.65436E-24
 -1       624 1.78196E-04 1.93732E-06 1.65436E-24
 -1       625 1.79682E-04 2.03620E-06 1.65436E-24
 -1       626 1.73520E-04 6.64641E-07 3.30872E-24
 -1       627 1.73943E-04-1.43448E-07 0.00000E+00
 -1       628 1.74345E-04-8.92269E-07-6.61744E-24
 -1       629 1.74727E-04-1.59019E-06-1.65436E-24
 -1       630 1.75094E-04-2.24562E-06-3.30872E-24
 -1       631 1.75448E-04-2.86696E-06 1.65436E-24
 -1       632 1.75792E-04-3.46263E-06-3.30872E-24
 -1       633 1.76130E-04-4.04106E-06 0.00000E+00
 -1       634 1.76465E-04-4.61068E-06-3.30872E-24
 -1       635 1.76799E-04-5.17988E-06 1.65436E-24
 -1       636 1.77137E-04-5.75711E-06 3.30872E-24
 -1       637 1.77480E-04-6.35078E-06 0.00000E+00
 -1       638 1.77833E-04-6.96931E-06-1.65436E-24
 -1       639 1.78198E-04-7.62114E-06 0.00000E+00
 -1       640 1.78578E-04-8.31471E-06 3.30872E-24
 -1       656 1.73639E-04-6.21082E-06 6.61744E-24
 -1       657 1.74477E-04-6.78603E-06 0.00000E+00
 -1       658 1.75588E-04-7.35984E-06 0.00000E+00
 -1       659 1.76828E-04-7.93329E-06 0.00000E+00
 -1       660 1.78017E-04-8.50848E-06 6.61744E-24
 -1       661 1.73372E-04-5.89979E-06 0.00000E+00
 -1       662 1.73568E-04-6.22981E-06 8.27181E-25
 -1       663 1.73795E-04-6.64313E-06-1.65436E-24
 -1       664 1.74052E-04-7.13362E-06 0.00000E+00
 -1       665 1.74335E-04-7.69579E-06 0.00000E+00
 -1       666 1.74643E-04-8.32403E-06-8.27181E-25
 -1       667 1.74974E-04-9.01303E-06-1.65436E-24
 -1       668 1.75326E-04-9.75751E-06 0.00000E+00
 -1       669 1.75697E-04-1.05524E-05 1.65436E-24
 -1       670 1.76084E-04-1.13926E-05 8.27181E-25
 -1       671 1.76487E-04-1.22733E-05 1.65436E-24
 -1       672 1.76903E-04-1.31897E-05 0.00000E+00
 -1       673 1.77330E-04-1.41371E-05-1.65436E-24
 -1       674 1.77767E-04-1.51110E-05-4.13590E-25
 -1       675 1.78212E-04-1.61065E-05-4.13590E-25
 -1       676 1.73407E-04-1.66191E-05 0.00000E+00
 -1       677 1.74461E-04-1.67201E-05 0.00000E+00
 -1       678 1.75513E-04-1.68211E-05 0.00000E+00
 -1       679 1.76564E-04-1.69217E-05 0.00000E+00
 -1       680 1.77613E-04-1.70224E-05 1.65436E-24
 -1       771 1.85305E-05 1.26932E-05 0.00000E+00
 -1       772 9.27720E-06 3.27571E-05 0.00000E+00
 -1       773 1.66530E-06 4.86692E-05 0.00000E+00
 -1       774-4.41746E-06 6.06677E-05 0.00000E+00
 -1       775-9.08118E-06 6.89996E-05-1.05879E-22
 -1       776-1.24404E-05 7.39267E-05-2.64698E-23
 -1       777-1.46097E-05 7.57199E-05-5.29396E-23
 -1       778-1.57059E-05 7.46619E-05 0.00000E+00
 -1       779-1.58456E-05 7.10433E-05-5.29396E-23
 -1       780-1.51473E-05 6.51643E-05 2.64698E-23
 -1       781-1.37286E-05 5.73314E-05 1.05879E-22
 -1       782-1.17089E-05 4.78587E-05-2.64698E-23
 -1       783-9.20656E-06 3.70643E-05 0.00000E+00
 -1       784-6.34144E-06 2.52718E-05 0.00000E+00
 -1       785-3.23243E-06 1.28076E-05 0.00000E+00
 -1       786 1.80476E-04 2.74737E-05 0.00000E+00
 -1       787 1.80522E-04 2.55993E-05 0.00000E+00
 -1       788 1.80569E-04 2.37661E-05 0.00000E+00
 -1       789 1.80616E-04 2.19656E-05 8.27181E-25
 -1       790 1.80663E-04 2.01930E-05 0.00000E+00
 -1       791 1.80711E-04 1.84432E-05-8.27181E-25
 -1       792 1.80758E-04 1.67140E-05 0.00000E+00
 -1       793 1.80806E-04 1.50032E-05-8.27181E-25
 -1       794 1.80853E-04 1.33105E-05 0.00000E+00
 -1       795 1.80901E-04 1.16358E-05-8.27181E-25
 -1       796 1.80948E-04 9.98089E-06 0.00000E+00
 -1       797 1.80996E-04 8.34773E-06 8.27181E-25
 -1       798 1.81044E-04 6.74062E-06 0.00000E+00
 -1       799 1.81092E-04 5.16396E-06-8.27181E-25
 -1       800 1.81139E-04 3.62550E-06-1.65436E-24
 -1       801 1.39197E-04 2.63386E-05 0.00000E+00
 -1       802 1.43271E-05 1.65901E-05-2.64698E-23
 -1       803-9.31215E-05 8.48021E-06-5.29396E-23
 -1       804-8.39513E-05 5.86018E-06-2.64698E-23
 -1       805-2.79099E-05 2.38374E-06 5.29396E-23
 -1       806 1.81044E-04 2.74067E-05-1.65436E-24
 -1       807 1.81642E-04 2.54410E-05 0.00000E+00
 -1       808 1.82227E-04 2.35058E-05-3.30872E-24
 -1       809 1.82799E-04 2.16050E-05 0.00000E+00
 -1       810 1.83357E-04 1.97425E-05 0.00000E+00
 -1       811 1.83899E-04 1.79221E-05 0.00000E+00
 -1       812 1.84424E-04 1.61476E-05 0.00000E+00
 -1       813 1.84930E-04 1.44228E-05 0.00000E+00
 -1       814 1.85416E-04 1.27513E-05-1.65436E-24
 -1       815 1.85881E-04 1.11371E-05 8.27181E-25
 -1       816 1.86323E-04 9.58376E-06 1.65436E-24
 -1       817 1.86741E-04 8.09508E-06 0.00000E+00
 -1       818 1.87134E-04 6.67480E-06 3.30872E-24
 -1       819 1.87500E-04 5.32665E-06 0.00000E+00
 -1       820 1.87838E-04 4.05429E-06 1.65436E-24
 -1       821 1.81109E-04 4.31062E-06 0.00000E+00
 -1       822 1.80984E-04 1.37618E-05 0.00000E+00
 -1       823 1.80839E-04 2.54776E-05 0.00000E+00
 -1       824 1.80720E-04 3.44404E-05 0.00000E+00
 -1       825 1.80632E-04 3.72788E-05 0.00000E+00
 -1       826 1.80527E-04 3.06445E-05 0.00000E+00
 -1       827 1.80350E-04 1.65743E-05-3.30872E-24
 -1       828 1.80087E-04-2.86756E-06-1.65436E-24
 -1       829 1.79821E-04-2.24560E-05 3.30872E-24
 -1       830 1.79639E-04-3.69655E-05 1.65436E-24
 -1       831 1.79530E-04-4.41639E-05 0.00000E+00
 -1       832 1.79443E-04-4.18460E-05 0.00000E+00
 -1       833 1.79327E-04-3.32138E-05 0.00000E+00
 -1       834 1.79181E-04-2.14930E-05 8.27181E-25
 -1       835 1.79054E-04-1.17538E-05 0.00000E+00
 -1       836 1.82560E-04 2.25406E-06-3.30872E-24
 -1       837 1.83802E-04 2.37788E-06 0.00000E+00
 -1       838 1.84946E-04 2.50161E-06-3.30872E-24
 -1       839 1.86029E-04 2.62464E-06 0.00000E+00
 -1       840 1.87085E-04 2.74749E-06-8.27181E-25
 -1       856 1.78959E-04-9.82549E-06 0.00000E+00
 -1       857 1.78939E-04-1.04615E-05 0.00000E+00
 -1       858 1.78920E-04-1.09870E-05-4.13590E-25
 -1       859 1.78900E-04-1.14224E-05 0.00000E+00
 -1       860 1.78880E-04-1.17883E-05 4.13590E-25
 -1       861 1.78861E-04-1.21052E-05 2.06795E-25
 -1       862 1.78841E-04-1.23939E-05 0.00000E+00
 -1       863 1.78821E-04-1.26749E-05 0.00000E+00
 -1       864 1.78801E-04-1.29689E-05 0.00000E+00
 -1       865 1.78781E-04-1.32966E-05 0.00000E+00
 -1       866 1.78761E-04-1.36786E-05-8.27181E-25
 -1       867 1.78741E-04-1.41354E-05 4.13590E-25
 -1       868 1.78721E-04-1.46876E-05 0.00000E+00
 -1       869 1.78700E-04-1.53557E-05-4.13590E-25
 -1       870 1.78680E-04-1.61601E-05 0.00000E+00
 -1       871 1.80021E-04-9.06266E-06 0.00000E+00
 -1       872 1.81212E-04-9.07006E-06 0.00000E+00
 -1       873 1.82481E-04-9.07811E-06 0.00000E+00
 -1       874 1.83762E-04-9.08688E-06-5.16988E-26
 -1       875 1.84989E-04-9.09622E-06 1.24077E-24
 -1       876 1.79386E-04-9.81139E-06 0.00000E+00
 -1       877 1.79776E-04-1.05003E-05 1.65436E-24
 -1       878 1.80145E-04-1.11328E-05 0.00000E+00
 -1       879 1.80496E-04-1.17161E-05 0.00000E+00
 -1       880 1.80832E-04-1.22573E-05-3.30872E-24
 -1       881 1.81154E-04-1.27634E-05-1.65436E-24
 -1       882 1.81466E-04-1.32416E-05 3.30872E-24
 -1       883 1.81770E-04-1.36988E-05 0.00000E+00
 -1       884 1.82068E-04-1.41421E-05 3.30872E-24
 -1       885 1.82364E-04-1.45786E-05-1.65436E-24
 -1       886 1.82661E-04-1.50153E-05 0.00000E+00
 -1       887 1.82959E-04-1.54593E-05 1.65436E-24
 -1       888 1.83263E-04-1.59175E-05 3.30872E-24
 -1       889 1.83575E-04-1.63974E-05 0.00000E+00
 -1       890 1.83896E-04-1.69057E-05-1.65436E-24
 -1       891 1.79724E-04-1.71764E-05-1.65436E-24
 -1       892 1.80768E-04-1.72321E-05-8.27181E-25
 -1       893 1.81764E-04-1.72877E-05 1.65436E-24
 -1       894 1.82688E-04-1.73430E-05 8.27181E-25
 -1       895 1.83517E-04-1.73982E-05 8.27181E-25
 -1       956 1.88022E-04 1.83577E-06-3.30872E-24
 -1       957 1.87894E-04 8.97178E-07 8.27181E-25
 -1       958 1.87765E-04 3.53960E-08 0.00000E+00
 -1       959 1.87637E-04-7.60352E-07-1.65436E-24
 -1       960 1.87508E-04-1.50088E-06 3.30872E-24
 -1       961 1.87380E-04-2.19704E-06-1.65436E-24
 -1       962 1.87251E-04-2.85969E-06-3.30872E-24
 -1       963 1.87122E-04-3.49971E-06 0.00000E+00
 -1       964 1.86994E-04-4.12798E-06 3.30872E-24
 -1       965 1.86865E-04-4.75535E-06 1.65436E-24
 -1       966 1.86737E-04-5.39272E-06-3.30872E-24
 -1       967 1.86608E-04-6.05095E-06 0.00000E+00
 -1       968 1.86480E-04-6.74090E-06 0.00000E+00
 -1       969 1.86351E-04-7.47342E-06-1.65436E-24
 -1       970 1.86223E-04-8.25932E-06 0.00000E+00
 -1       971 1.85981E-04-9.95615E-06 0.00000E+00
 -1       972 1.85864E-04-1.07105E-05 1.65436E-24
 -1       973 1.85746E-04-1.13822E-05-3.30872E-24
 -1       974 1.85628E-04-1.19819E-05 0.00000E+00
 -1       975 1.85511E-04-1.25203E-05 3.30872E-24
 -1       976 1.85393E-04-1.30081E-05 0.00000E+00
 -1       977 1.85275E-04-1.34558E-05-3.30872E-24
 -1       978 1.85158E-04-1.38743E-05-1.65436E-24
 -1       979 1.85040E-04-1.42742E-05 3.30872E-24
 -1       980 1.84922E-04-1.46662E-05 0.00000E+00
 -1       981 1.84805E-04-1.50610E-05 0.00000E+00
 -1       982 1.84687E-04-1.54693E-05 1.65436E-24
 -1       983 1.84570E-04-1.59019E-05 0.00000E+00
 -1       984 1.84453E-04-1.63694E-05 1.65436E-24
 -1       985 1.84337E-04-1.68825E-05 3.30872E-24
 -3
    1PSTEP                        18           9           1          
  100CL  109 6.44531E-01         409                     0    9           1
 -4  STRESS      6    1
 -5  SXX         1    4    1    1
 -5  SYY         1    4    2    2
 -5  SZZ         1    4    3    3
 -5  SXY         1    4    1    2
 -5  SYZ         1    4    2    3
 -5  SZX         1    4    3    1
 -1         1-4.42962E+06-1.65127E+06-9.74363E+05-1.62388E+06-9.74978E-10-1.28523E-07
 -1         2 3.01990E+04-2.13491E+06 1.25893E+05 3.29449E+05 4.94856E-09-2.33535E-07
 -1         3-1.24271E+03-1.62027E+06 4.06085E+02-2.10256E+03-4.40608E-10 1.97615E-08
 -1         5-4.79557E+01 3.68817E+05 9.63368E+00-9.76928E-01-4.00939E-10-1.03282E-08
 -1         8-6.21586E+05-2.09497E+05-4.91773E+04-4.00596E+05 7.03949E-10-5.04879E-08
 -1         9 8.09547E+06-6.71747E+05 1.35486E+06-1.01666E+06 2.78815E-08-3.32948E-09
 -1        10-2.13274E+03-1.68843E+06-3.86915E+03-1.42078E+04-1.18835E-08-3.72721E-08
 -1        12-4.41049E+01 3.68837E+05 3.15010E+02-6.78415E+00-5.06866E-10-1.49075E-08
 -1        15 1.25876E+03 6.91754E+02 4.06891E+03 1.84231E+00-2.66397E-10 3.10064E-07
 -1        16 1.75964E+07-1.51072E+05 2.47684E+06-1.43395E+06 1.22042E-08 8.61473E-09
 -1        17 6.31875E+06 4.50812E+06 1.70240E+06 4.42718E+06 1.54076E-08 3.69386E-08
 -1        18 1.13752E+05 2.58038E+04-1.41828E+03-1.12128E+05 1.45617E-08 1.86901E-09
 -1        19 1.16129E+05 1.35381E+05-8.93505E+02 2.19391E+04 1.37570E-09-1.46429E-09
 -1        20-7.63854E+04-5.47958E+05-1.22826E+05 2.54695E+04-1.14839E-09 1.14123E-08
 -1        21-4.48502E+01-2.87782E+05-8.99764E+02 2.08153E+02 1.20982E-08 1.35935E-09
 -1        24 1.03404E+07 8.81592E+06 2.92710E+06 8.20059E+06-1.43065E-07-5.42301E-08
 -1        25 7.62977E+04 8.13608E+04 5.29414E+04-5.36924E+05-1.54341E-10 1.14736E-08
 -1        26-9.23648E+03 9.85255E+04-1.44149E+04 3.46993E+03 4.78140E-09 5.13767E-09
 -1        27-4.08037E+04-2.88362E+05-1.01019E+05 6.86167E+04 1.06415E-08 1.92055E-09
 -1        28 2.16916E+04-8.28056E+04 1.64284E+04 2.02684E+04-2.52135E-09-5.35723E-09
 -1        32-1.62984E+06-2.99615E+06-1.74451E+05 2.62803E+05-3.88318E-08-9.36166E-09
 -1        33-1.72925E+05 8.94470E+04 3.12532E+04-3.89358E+04-2.33505E-09 3.74409E-09
 -1        34-2.16924E+05-2.39858E+04 6.70223E+02 7.31106E+04-4.27967E-09-1.18536E-08
 -1        35-2.23112E+04-3.28654E+04-1.30746E+03 5.00806E+04-2.23539E-09 5.27264E-09
 -1        51 4.97306E+04-2.11642E+05 1.07545E+05-6.34965E+05 0.00000E+00-8.61764E-08
 -1        52 1.80157E+04-1.94471E+05 5.80826E+04-7.40302E+05 1.49157E-10-1.54068E-07
 -1        53 5.10289E+03-2.09955E+05 3.28694E+04-6.32651E+05 6.25732E-10 1.04657E-07
 -1        54 1.14770E+04-2.06411E+05 3.23186E+04-7.42701E+05 1.45519E-10-2.02850E-07
 -1        55 2.40535E+04-2.15915E+05 4.55109E+04-6.32333E+05 5.31145E-10 1.59216E-07
 -1        56-8.35201E+06-9.59370E+05-7.22398E+05-3.28204E+06-2.32831E-10-8.75152E-08
 -1        57-8.82284E+06-1.41977E+06-4.85230E+05-3.03449E+06 2.39015E-08 1.76951E-08
 -1        58-8.44553E+06-1.23574E+06-1.69595E+05-3.29028E+06-1.48211E-08-8.17017E-08
 -1        59-8.72214E+06-1.09010E+06-1.00711E+05-3.02494E+06 1.68675E-08-4.22606E-08
 -1        60-8.45394E+06-1.27871E+06-3.92517E+04-3.29670E+06-1.32432E-08-9.49021E-08
 -1        61-8.67886E+06-1.06877E+06-2.17337E+04-3.04841E+06 7.10497E-09-6.53017E-08
 -1        62-8.48678E+06-1.25699E+06-1.17368E+04-3.26595E+06-2.55568E-09-9.85783E-08
 -1        63-8.58680E+06-1.14498E+06-7.09421E+03-3.13494E+06 2.87509E-08 1.09394E-08
 -1        64-8.54138E+06-1.20547E+06-1.18910E+04-3.20682E+06 3.52156E-09 2.29893E-08
 -1        65-8.48343E+06-1.25452E+06-1.82618E+04-3.25489E+06 1.86246E-08-1.28474E-08
 -1        66-8.58997E+06-1.14774E+06-3.60801E+04-3.14586E+06 2.53112E-08-8.84593E-08
 -1        67-8.43126E+06-1.36945E+06-8.86318E+04-3.34904E+06-5.00404E-09-8.20519E-08
 -1        68-8.59857E+06-1.08840E+06-1.49506E+05-3.11579E+06-1.06411E-08-1.83441E-07
 -1        69-8.55763E+06-1.63313E+06-4.29727E+05-3.33379E+06 7.85258E-09-9.66975E-09
 -1        70-8.46796E+06-8.89566E+05-6.37514E+05-3.16061E+06-1.65310E-08-8.09669E-08
 -1        86-3.10287E+04-3.09775E+06-7.37329E+04-1.64007E+05-4.35989E-08-6.63822E-08
 -1        87 3.75659E+04-2.51613E+06 5.14128E+04 4.89024E+05-7.63434E-08-3.12939E-08
 -1        88-1.38271E+03-2.75720E+06-7.80082E+03-3.24534E+05-6.27206E-08-1.78358E-07
 -1        89 3.62866E+04-2.57018E+06 2.03846E+04 5.21263E+05-9.82009E-08-7.52334E-08
 -1        90-2.46454E+04-3.04935E+06-1.13893E+05-1.96514E+05-2.51657E-08-6.85213E-09
 -1       121-1.71147E+03-1.62441E+06-3.80214E+02 1.04388E+03 1.44524E-09 1.61199E-08
 -1       122-1.06115E+03-1.62031E+06 7.91966E+02-4.20471E+03-4.91063E-09-1.55269E-08
 -1       123-1.74349E+03-1.62454E+06 4.73763E+02 3.11685E+03 3.98666E-09 3.44153E-09
 -1       124 6.08277E+02-1.61976E+06 3.09995E+03-8.77914E+03-9.42782E-09 2.41362E-08
 -1       125-2.60779E+03-1.62546E+06 3.86946E+03 5.58410E+03 6.22822E-09-2.89292E-08
 -1       191-5.06460E+01 3.68839E+05 9.44054E+00 5.03215E-01-4.55731E-10 1.21072E-08
 -1       192-4.88683E+01 3.68817E+05 2.04975E+01-3.25853E+00-6.18280E-10 5.53700E-09
 -1       193-5.30574E+01 3.68839E+05 3.61019E+01 2.84638E+00-8.68408E-10 1.33878E-09
 -1       194-5.17981E+01 3.68821E+05 7.77750E+01-7.43903E+00-5.55421E-10-5.72709E-09
 -1       195-5.76875E+01 3.68837E+05 1.50105E+02 4.78793E+00-1.23008E-09-1.22564E-08
 -1       251-2.27309E+06-4.33703E+04-2.34163E+05 1.31199E+05 8.58563E-09-5.75019E-08
 -1       252-1.06784E+06 4.99259E+04 7.56304E+04-4.39997E+05-2.01953E-08-3.30603E-07
 -1       253-1.77391E+06-1.88506E+04-4.40956E+04 3.08649E+05 5.02041E-09 9.04847E-08
 -1       254-1.63755E+06 7.21941E+04 1.37501E+04-6.15114E+05-9.49439E-09-4.65061E-08
 -1       255-1.76011E+06-1.87949E+04-2.06914E+04 3.11393E+05-1.23182E-08 7.59451E-08
 -1       256-1.09291E+06 5.90452E+04 1.24438E+05-4.52216E+05 5.50635E-08 3.09274E-09
 -1       257-2.26480E+06-5.00358E+04-1.25163E+05 1.40839E+05 1.76733E-08-2.81445E-08
 -1       258-5.47065E+05 4.50014E+04 2.27702E+05 9.34029E+03-6.48006E-08-7.26582E-08
 -1       259-2.25194E+06-4.91510E+04-1.20492E+05-1.47042E+05 5.38421E-10-2.38112E-07
 -1       260-1.12029E+06 6.03448E+04 1.24195E+05 4.64616E+05-2.91402E-08-8.80623E-08
 -1       261-1.74849E+06-1.85854E+04-8.46662E+03-3.11636E+05-6.99520E-08 3.32921E-09
 -1       262-1.62896E+06 8.16606E+04 3.72770E+04 6.16474E+05 3.50200E-08 1.10141E-07
 -1       263-1.79394E+06-2.86196E+04-1.00032E+04-3.03521E+05-1.35533E-08 1.59805E-07
 -1       264-1.00487E+06 1.19424E+05 1.82572E+05 4.30926E+05-1.20674E-07 6.43731E-08
 -1       265-2.31308E+06-1.05243E+05-9.22643E+04-1.21037E+05-2.93585E-08 3.70383E-08
 -1       266-2.27877E+04-1.06558E+04 5.34653E+04-3.94190E+01 7.27596E-11-6.72090E-09
 -1       267 2.64172E+04 1.24192E+04 3.77891E+04 4.54825E+01 1.11413E-10-3.31885E-08
 -1       268-3.54250E+03-1.75892E+03 1.40460E+04-5.79522E+00 1.34605E-10 9.89796E-08
 -1       269 4.18265E+03 2.10503E+03 9.12971E+03 6.75061E+00 1.97474E-10 3.68178E-08
 -1       270-6.27821E+02-3.45874E+02 4.40704E+03-9.16103E-01 3.78691E-10 1.00507E-07
 -1       271-2.05174E+06-2.46686E+05-1.52384E+05-7.84896E+05 2.90711E-08 1.46829E-08
 -1       272-2.16179E+06-3.03522E+05-9.81085E+04-7.22011E+05-4.69495E-08-6.91780E-08
 -1       273-2.07917E+06-2.86051E+05-3.59558E+04-7.79533E+05 4.94128E-09-7.75563E-08
 -1       274-2.12935E+06-2.55442E+05-2.01790E+04-7.30357E+05-4.54947E-08-6.31248E-08
 -1       275-2.08321E+06-2.90031E+05-8.38096E+03-7.78215E+05 1.84459E-08-7.57091E-08
 -1       276-2.12309E+06-2.51858E+05-4.39129E+03-7.33048E+05-1.56374E-08 1.11395E-07
 -1       277-2.08489E+06-2.89430E+05-2.22042E+03-7.76694E+05 6.17820E-09 3.01643E-07
 -1       278-2.11899E+06-2.54420E+05-1.36397E+03-7.36216E+05-2.68947E-08 1.55451E-07
 -1       279-2.08665E+06-2.87832E+05-1.59490E+03-7.74602E+05-2.24409E-08-5.61340E-09
 -1       280-2.11450E+06-2.58812E+05-2.32785E+03-7.40368E+05 2.52576E-08-2.90869E-07
 -1       281-2.08865E+06-2.85517E+05-4.67117E+03-7.72022E+05-3.68891E-09-2.08875E-08
 -1       282-2.11105E+06-2.66629E+05-1.03224E+04-7.45150E+05 1.18625E-08-4.12961E-08
 -1       283-2.08945E+06-2.80710E+05-1.89915E+04-7.69251E+05 5.91172E-09-2.07672E-08
 -1       284-2.12126E+06-2.97510E+05-5.05868E+04-7.47431E+05-1.19499E-08 4.79405E-08
 -1       285-2.07829E+06-2.57511E+05-7.93713E+04-7.68476E+05 4.37285E-09 7.38946E-08
 -1       301 1.30141E+04-4.97632E+05 1.73749E+05-8.63598E+05 1.35333E-09 2.05415E-07
 -1       302 1.42532E+04-4.53147E+05 1.05707E+05-1.26237E+06-2.04454E-09 2.42593E-07
 -1       303-6.80879E+03-4.83662E+05 6.42807E+04-8.61441E+05 1.26602E-09 2.60425E-07
 -1       304 1.36517E+03-4.56916E+05 7.25906E+04-1.26160E+06 2.40107E-10 1.25292E-08
 -1       305-2.99032E+03-4.81291E+05 9.96084E+04-8.64142E+05 3.29237E-10 7.74744E-08
 -1       306-2.56807E+07-5.17943E+06-7.03795E+06-1.27219E+06-6.57747E-08 5.47152E-08
 -1       307 2.08626E+07 1.59321E+06 4.52353E+06-1.20485E+07-7.49133E-07-1.36832E-07
 -1       308-7.89510E+06-6.23155E+05-5.56772E+05 4.28134E+06-3.12721E-07 3.38216E-07
 -1       309-3.57574E+06 5.59904E+06 1.65516E+06-1.78926E+07 2.51792E-07 9.76870E-08
 -1       310-1.06951E+07-1.04640E+06-1.28011E+06 4.14139E+06-1.19908E-07-5.25324E-08
 -1       311 2.73277E+07-3.15007E+05 5.48528E+06-8.55325E+06 2.17784E-07 1.86032E-07
 -1       312-2.64887E+07-5.19175E+06-6.59299E+06-3.63005E+06 1.78348E-07 2.86513E-07
 -1       313 3.69210E+07 9.58152E+06 8.50243E+06 1.69526E+07-1.43191E-07 1.58325E-08
 -1       314-1.64433E+07-1.33303E+07-6.07568E+06-1.06300E+07 4.62809E-07-1.25729E-08
 -1       315-7.38018E+05 2.25074E+07 4.67843E+06 1.02778E+07-4.02535E-07 7.78819E-08
 -1       316-2.61890E+04-8.78638E+06-5.15072E+05-3.70934E+06-1.13818E-06-2.49362E-07
 -1       317-1.68264E+07 1.87526E+07 1.62509E+06-5.16000E+06 5.94540E-07-5.37610E-07
 -1       318-1.36887E+06-9.98193E+06-1.33723E+06-4.48162E+06-7.89820E-07 1.06054E-07
 -1       319 4.06070E+06 2.35910E+07 5.24686E+06 1.27294E+07-5.41550E-08 9.68575E-08
 -1       320-1.91327E+07-1.36763E+07-7.71921E+06-1.05256E+07 1.72877E-07-4.83124E-08
 -1       336-3.07861E+02-1.75849E+06-1.36625E+04 8.49588E+03-2.43117E-08-3.97995E-09
 -1       337-5.24212E+03-1.75891E+06-1.77450E+04-2.05480E+04-4.63888E-08-1.15688E-08
 -1       338 5.53293E+02-1.75805E+06-2.74249E+04 1.18609E+04-3.17805E-08 9.16771E-10
 -1       339-2.91227E+04-1.77529E+06-6.21153E+04-2.71138E+04-5.62513E-08 1.14214E-08
 -1       340 1.94408E+04-1.74400E+06-9.76002E+04 1.49495E+04-3.79659E-08 1.83754E-08
 -1       406-2.20641E+01 3.68822E+05 6.19777E+02 2.28812E+00-1.51434E-09-1.05210E-08
 -1       407 1.72974E+02 3.68946E+05 1.32178E+03 1.92693E+01-2.72024E-10-2.31921E-09
 -1       408 6.34891E+02 3.68726E+05 2.63712E+03-2.19750E+01-1.85287E-09 7.37782E-09
 -1       409 2.81364E+03 3.69789E+05 5.94118E+03 2.30702E+02-3.56863E-10 2.20189E-09
 -1       410 8.16293E+03 3.67971E+05 1.21268E+04-2.21728E+02-2.42835E-09-1.50303E-08
 -1       521-2.73152E+07-6.36283E+06-8.24365E+06-9.97143E+05-9.05711E-08 2.89874E-08
 -1       522 2.16495E+07 2.14525E+06 4.60934E+06-1.50111E+07-4.22122E-07-2.14321E-07
 -1       523-8.71332E+06-8.90392E+05-5.80852E+05 4.72777E+06-3.03553E-08-5.55461E-07
 -1       524-6.55976E+06 7.89238E+06 1.80266E+06-2.08045E+07 7.71761E-07-4.32487E-07
 -1       525-1.17115E+07-1.49263E+06-1.41362E+06 4.57552E+06 3.77942E-07-8.31060E-08
 -1       526 2.96855E+07-3.44591E+05 5.79404E+06-1.09537E+07 6.23986E-08 7.07223E-09
 -1       527-2.83109E+07-6.54302E+06-7.60698E+06-3.55111E+06-8.03266E-08 2.69065E-08
 -1       528 4.05042E+07 1.04971E+07 8.90830E+06 1.92364E+07-1.15018E-07-1.97469E-07
 -1       529-1.75267E+07-1.52077E+07-6.98523E+06-1.09002E+07 8.84174E-08-1.82015E-07
 -1       530-2.87702E+06 2.63729E+07 4.96578E+06 1.04107E+07-2.41460E-07 6.08154E-07
 -1       531-1.29980E+05-9.94232E+06-5.24799E+05-3.91844E+06-8.60324E-07 2.48343E-07
 -1       532-1.98716E+07 2.10801E+07 1.79510E+06-8.30424E+06 4.77274E-07-7.45553E-07
 -1       533-1.46898E+06-1.11499E+07-1.41446E+06-4.61582E+06-1.78727E-07-9.09320E-07
 -1       534 2.16407E+06 2.75534E+07 5.49265E+06 1.32610E+07-8.28077E-08 6.59522E-07
 -1       535-2.03194E+07-1.56686E+07-8.83645E+06-1.07789E+07 7.42730E-08 4.32075E-07
 -1       536-6.59805E+05-4.49926E+04-2.87382E+04-4.83432E+04-4.25280E-09 4.89181E-08
 -1       537-1.00069E+05 4.39868E+04 8.00791E+04 1.11638E+05-9.80176E-08 7.97522E-08
 -1       538-3.92355E+05 2.08536E+03 6.21279E+03-6.59909E+04 3.02688E-08 1.01580E-07
 -1       539-2.85503E+05 3.08994E+03 2.30008E+04 1.26107E+05 1.55705E-07 1.25342E-07
 -1       540-4.78960E+05-2.93966E+02-1.71779E+04-6.32298E+04 2.20234E-09 8.81200E-08
 -1       541 6.87085E+04 1.44747E+04 9.09952E+04 8.74685E+04-4.36526E-08 7.47162E-08
 -1       542-7.37037E+05-1.72316E+04-7.16763E+04-2.66712E+04 6.63731E-08 4.61874E-08
 -1       543 2.89138E+05 2.33381E+04 1.34601E+05-1.23154E+04 3.72802E-09-3.24544E-08
 -1       544-6.93492E+05-1.40330E+04-6.36719E+04 3.60286E+04-2.49197E-08-4.72543E-08
 -1       545-3.30875E+04 7.84313E+03 6.74077E+04-1.02479E+05 3.77503E-08-6.24586E-08
 -1       546-4.23440E+05 5.40026E+03-1.05801E+04 6.32262E+04 3.13235E-08-7.76064E-08
 -1       547-3.01638E+05-4.68208E+03 7.81192E+03-1.28818E+05-1.02344E-07-7.26109E-08
 -1       548-4.32135E+05 4.48817E+03-2.19934E+04 6.29075E+04-8.23302E-08-8.46640E-08
 -1       549-1.51864E+04 1.05464E+04 4.73834E+04-1.00058E+05-6.05696E-08-5.22959E-08
 -1       550-7.02218E+05-1.62225E+04-1.16282E+05 3.39034E+04 9.09722E-09-3.29255E-08
 -1       551 3.73339E+04-7.69139E+05-6.28783E+03-1.20996E+06-9.56206E-08-3.23053E-09
 -1       552 8.46348E+04-8.07948E+05 1.53700E+04-1.72546E+06-6.88742E-08 3.70637E-08
 -1       553 6.44885E+04-8.06279E+05 3.57181E+04-1.20383E+06-1.09983E-07 3.91301E-08
 -1       554 1.21235E+05-8.20311E+05 8.54191E+04-1.72742E+06-7.22939E-08 3.49173E-08
 -1       555 9.41256E+04-8.29031E+05 1.54675E+05-1.20387E+06-1.12545E-07-5.94446E-09
 -1       556 2.03342E+05-3.52835E+05 3.88906E+04-3.85274E+05-2.52476E-08-1.69384E-08
 -1       557 3.27008E+05-4.51638E+05 2.25574E+04-4.96340E+05-1.10158E-08 5.97174E-09
 -1       558 1.88441E+05-3.49358E+05 5.71703E+03-3.86815E+05-2.05473E-08 1.31768E-08
 -1       559 3.03681E+05-4.54031E+05 3.92602E+03-5.14118E+05 2.42144E-08 1.33296E-08
 -1       560 1.75362E+05-3.41128E+05-4.04779E+02-3.96154E+05 1.22527E-08 1.61053E-08
 -1       561 2.87064E+05-4.47510E+05 5.39582E+02-5.25361E+05-3.25963E-09-1.19780E-08
 -1       562 1.65026E+05-3.34678E+05-8.96875E+02-4.03620E+05-6.03904E-09-8.41101E-09
 -1       563 2.74808E+05-4.42166E+05 8.19218E+01-5.33345E+05-2.41562E-09 1.17852E-08
 -1       564 1.57713E+05-3.30114E+05-4.30949E+02-4.08797E+05 2.40107E-09-9.38508E-09
 -1       565 2.66790E+05-4.38676E+05 5.77551E+01-5.38461E+05 7.29051E-09 1.15688E-08
 -1       566 1.53531E+05-3.27464E+05-1.88667E+02-4.11724E+05-6.54836E-09-8.45830E-10
 -1       567 2.63046E+05-4.37045E+05-2.95916E+02-5.40719E+05 9.46056E-09 8.43647E-09
 -1       568 1.52558E+05-3.26873E+05-9.59466E+02-4.12500E+05 3.64707E-10 1.33732E-08
 -1       569 2.62284E+05-4.36994E+05-2.42732E+03-5.39173E+05-2.09366E-09 2.28756E-08
 -1       570 1.55815E+05-3.29889E+05-5.34687E+03-4.11586E+05 8.89122E-09 5.82986E-09
 -1       571 2.75682E+05 9.91879E+03 1.42422E+04-8.82489E+04 1.62891E-09-3.03362E-09
 -1       572 2.77754E+05 3.69059E+03 6.97953E+03-9.68156E+04 2.07365E-10-1.90948E-08
 -1       573 2.76506E+05 1.11741E+03 3.10115E+03-8.80797E+04 2.43472E-09 9.76161E-09
 -1       574 2.76717E+05 6.17381E+02 1.55501E+03-9.70265E+04 6.49834E-10 1.04974E-08
 -1       575 2.76595E+05 3.59291E+02 7.33803E+02-8.80567E+04 5.07248E-09 6.08907E-09
 -1       576 2.76586E+05 3.63867E+02 3.75445E+02-9.70545E+04 4.56293E-09 1.25638E-08
 -1       577 2.76629E+05 3.06306E+02 1.87191E+02-8.80536E+04 1.38243E-10 1.15788E-08
 -1       578 2.76608E+05 3.31220E+02 1.07496E+02-9.70584E+04-2.34968E-09 1.47793E-08
 -1       579 2.76690E+05 2.76169E+02 7.31546E+01-8.80533E+04 8.90759E-09 4.26826E-09
 -1       580 2.76694E+05 2.88687E+02 8.34430E+01-9.70538E+04-3.09683E-09 1.41799E-08
 -1       581 2.76787E+05 2.27340E+02 1.25362E+02-8.80587E+04 8.14180E-09 1.30058E-10
 -1       582 2.76844E+05 2.59721E+02 2.53660E+02-9.69967E+04 3.13594E-09-1.44782E-08
 -1       583 2.76905E+05 2.71160E+02 4.87252E+02-8.81109E+04-3.63798E-12-3.65822E-09
 -1       584 2.77173E+05 6.66546E+02 1.10161E+03-9.65578E+04 6.31735E-09-2.38083E-09
 -1       585 2.76919E+05 1.59953E+03 2.23163E+03-8.84972E+04-8.74934E-10-4.36194E-09
 -1       586-3.34382E+03 1.07475E+05-3.10484E+03-2.42078E+05-2.82853E-09 1.51147E-08
 -1       587-1.20597E+03 1.07178E+05 5.64564E+02-2.66429E+05-3.39605E-09-4.09636E-09
 -1       588 4.87717E+02 1.07040E+05 4.43785E+03-2.41948E+05-5.35510E-09 9.73978E-09
 -1       589 4.95506E+03 1.09366E+05 1.16650E+04-2.66194E+05-1.01227E-08 2.42444E-08
 -1       590 1.58709E+04 1.05774E+05 2.45301E+04-2.42363E+05-7.62884E-09 1.84973E-08
 -1       591-6.34043E+04-1.42957E+04-2.05631E+04-2.78459E+04 1.14233E-09-5.16775E-09
 -1       592-6.69524E+04-1.77272E+04-1.11386E+04-3.13656E+04 2.52963E-09-1.74762E-08
 -1       593-6.54626E+04-1.28018E+04-4.63659E+03-2.93519E+04 6.43529E-09-4.31191E-09
 -1       594-6.41107E+04-1.47126E+04-2.31256E+03-3.14764E+04 5.32233E-09-9.34213E-09
 -1       595-6.56196E+04-1.27967E+04-1.06214E+03-2.94204E+04 1.95836E-09 8.12642E-09
 -1       596-6.39164E+04-1.45747E+04-5.40628E+02-3.14536E+04 1.52121E-09 7.57126E-09
 -1       597-6.56393E+04-1.28106E+04-2.95743E+02-2.94229E+04-1.87129E-09 5.91501E-09
 -1       598-6.38974E+04-1.45694E+04-2.40220E+02-3.14473E+04-1.06758E-09-3.27100E-09
 -1       599-6.56379E+04-1.28109E+04-3.09930E+02-2.94226E+04 3.85512E-09-9.64530E-09
 -1       600-6.39175E+04-1.45757E+04-5.78176E+02-3.14522E+04 2.76151E-09 2.24475E-09
 -1       601-6.56144E+04-1.27970E+04-1.14191E+03-2.94192E+04 7.35122E-09-1.34260E-08
 -1       602-6.41265E+04-1.47232E+04-2.48936E+03-3.14734E+04 1.31058E-09-5.17741E-09
 -1       603-6.54430E+04-1.28051E+04-4.99248E+03-2.93461E+04 1.08184E-09 7.52743E-09
 -1       604-6.72018E+04-1.79521E+04-1.19932E+04-3.13321E+04 2.65021E-09 5.59135E-09
 -1       605-6.32088E+04-1.44293E+04-2.21411E+04-2.77415E+04 8.29377E-09 1.72276E-08
 -1       606 2.63095E+04-1.35932E+04-2.43758E+04 2.47281E+04 3.74985E-09 9.16452E-09
 -1       607 2.21436E+04-4.43511E+03-1.21388E+04 2.77827E+04-1.23146E-09-4.15889E-09
 -1       608 2.45157E+04-7.96072E+02-5.43444E+03 2.45491E+04-3.45426E-09-7.56813E-09
 -1       609 2.40588E+04-2.67085E+02-2.74523E+03 2.80026E+04-2.49202E-10 3.16546E-08
 -1       610 2.43103E+04-3.21840E+01-1.31000E+03 2.45281E+04 5.01313E-09-7.43148E-09
 -1       611 2.42368E+04-3.01710E+01-6.60444E+02 2.80264E+04 3.80351E-09-1.89980E-08
 -1       612 2.42633E+04-1.77436E+01-3.14138E+02 2.45260E+04-2.76759E-09-1.00315E-08
 -1       613 2.42454E+04-2.49649E+01-1.40797E+02 2.80292E+04 1.35697E-09-1.37272E-08
 -1       614 2.42404E+04-2.26795E+01-3.32435E+01 2.45252E+04 1.19508E-09 7.08155E-09
 -1       615 2.42386E+04-2.25209E+01 5.86145E+01 2.80297E+04 1.64800E-09 1.69643E-08
 -1       616 2.42226E+04-1.88579E+01 1.76102E+02 2.45255E+04 4.54747E-13-1.08389E-09
 -1       617 2.42584E+04 1.57865E+01 4.02002E+02 2.80292E+04 1.64528E-09-1.60301E-08
 -1       618 2.41867E+04 9.76305E+01 8.10329E+02 2.45258E+04-1.36220E-08-4.47199E-09
 -1       619 2.45437E+04 6.42809E+02 1.81971E+03 2.80285E+04-2.45409E-08 5.16661E-09
 -1       620 2.39171E+04 2.01950E+03 3.65756E+03 2.45267E+04-8.42238E-09 1.55560E-08
 -1       621 4.71898E+02 2.87173E+05 3.66634E+03 3.80992E+04 7.67614E-10 4.55384E-09
 -1       622 6.10512E+02 2.88029E+05 3.18288E+03 5.53505E+04 1.11140E-09-5.46470E-09
 -1       623 1.13098E+02 2.87373E+05 3.73760E+03 3.79296E+04 1.15483E-09-2.62207E-09
 -1       624 1.87063E+03 2.89092E+05 7.17221E+03 5.55140E+04 1.12459E-09-2.85347E-08
 -1       625 1.83270E+03 2.85960E+05 1.24993E+04 3.79312E+04 1.22054E-09 4.13252E-09
 -1       626 2.46398E+05 5.98916E+04 4.80952E+03 1.22234E+05 5.66661E-09 1.32968E-09
 -1       627 2.43975E+05 6.14486E+04 2.31769E+03 1.26525E+05 1.26465E-09-2.89621E-08
 -1       628 2.46527E+05 5.76795E+04 9.79988E+02 1.23037E+05-1.55342E-09 6.18070E-09
 -1       629 2.43362E+05 6.08248E+04 4.79750E+02 1.26764E+05-2.38879E-09-1.81294E-08
 -1       630 2.46539E+05 5.75734E+04 2.22442E+02 1.23068E+05-4.60204E-10-1.77110E-08
 -1       631 2.43295E+05 6.08027E+04 1.19641E+02 1.26766E+05 2.28215E-09-9.16003E-09
 -1       632 2.46534E+05 5.75781E+04 7.86115E+01 1.23063E+05 3.68345E-11-2.12096E-08
 -1       633 2.43285E+05 6.08053E+04 8.73648E+01 1.26761E+05-6.84167E-10 7.60406E-09
 -1       634 2.46529E+05 5.75762E+04 1.40973E+02 1.23062E+05 4.06317E-10 1.62327E-08
 -1       635 2.43298E+05 6.08041E+04 2.85137E+02 1.26766E+05-7.72133E-09-9.78889E-09
 -1       636 2.46520E+05 5.75712E+04 5.75725E+02 1.23061E+05-1.55637E-08-1.59066E-08
 -1       637 2.43423E+05 6.08931E+04 1.26579E+03 1.26764E+05-2.06409E-08 2.15414E-09
 -1       638 2.46475E+05 5.78511E+04 2.60062E+03 1.22935E+05 4.33829E-10 2.52398E-08
 -1       639 2.44795E+05 6.27871E+04 6.15320E+03 1.26356E+05 7.94898E-09 2.63683E-08
 -1       640 2.46283E+05 6.35276E+04 1.27687E+04 1.20550E+05 6.25641E-09 1.18891E-08
 -1       656 6.37144E+04-1.62941E+06-1.53813E+05-2.06424E+03 5.09317E-11 2.08081E-09
 -1       657-8.42984E+04-1.69891E+06-1.27438E+05 5.65198E+03 7.13953E-10-3.40561E-09
 -1       658 2.03204E+04-1.64914E+06-7.85091E+04-4.01015E+03 5.42741E-10-1.54406E-09
 -1       659-9.12115E+04-1.70219E+06-1.36522E+05 7.24441E+03-1.35606E-09-1.29744E-08
 -1       660 7.06119E+04-1.62613E+06-1.69431E+05-3.65666E+03-2.07365E-09 1.68481E-09
 -1       661 1.56642E+05 1.64714E+04 1.63748E+04 6.12574E+04-2.37742E-09 1.98270E-10
 -1       662 1.65858E+05 2.86382E+04 1.10354E+04 5.76312E+04-1.49066E-09-2.91038E-10
 -1       663 1.59858E+05 2.17249E+04 3.85955E+03 6.03243E+04 1.32559E-09-5.75824E-09
 -1       664 1.62130E+05 2.24942E+04 2.30875E+03 5.87707E+04-1.81137E-09-7.71502E-09
 -1       665 1.60345E+05 2.24429E+04 9.10841E+02 6.01824E+04 2.61139E-10-3.36547E-09
 -1       666 1.61553E+05 2.16729E+04 5.33144E+02 5.89555E+04 5.99789E-09 1.12073E-09
 -1       667 1.60430E+05 2.25249E+04 2.83441E+02 6.01472E+04-2.21758E-09-2.98381E-09
 -1       668 1.61460E+05 2.16136E+04 2.89286E+02 5.90066E+04-1.43518E-09-1.72178E-08
 -1       669 1.60438E+05 2.25005E+04 3.92108E+02 6.01316E+04-3.61248E-09-4.46201E-09
 -1       670 1.61556E+05 2.18262E+04 8.54194E+02 5.90091E+04-7.63225E-09 6.91284E-09
 -1       671 1.60334E+05 2.23167E+04 1.51683E+03 6.01428E+04 9.78417E-11 1.92711E-09
 -1       672 1.62440E+05 2.33017E+04 3.88088E+03 5.87946E+04 3.46439E-09 8.09729E-09
 -1       673 1.59558E+05 2.10623E+04 6.50376E+03 6.03317E+04 5.30554E-09-1.08685E-09
 -1       674 1.68631E+05 3.37499E+04 1.85995E+04 5.69751E+04-7.19410E-10-2.58831E-08
 -1       675 1.54183E+05 1.21610E+04 2.76081E+04 6.18525E+04-2.34832E-09 8.78572E-10
 -1       676 2.34285E+01-2.87707E+05-1.08445E+03-1.04079E+02 4.22830E-10 1.31560E-09
 -1       677-2.87322E+02-2.87969E+05-1.98473E+03 2.07999E+02 7.40869E-09 5.53751E-10
 -1       678 1.92347E+02-2.87520E+05-3.50850E+03-1.03850E+02-7.72616E-10 1.19676E-08
 -1       679-3.50898E+03-2.90087E+05-8.33471E+03 2.07123E+02 5.70526E-09 1.65009E-08
 -1       680 2.09472E+03-2.85590E+05-1.34327E+04-1.02054E+02-3.02862E-10 7.30066E-09
 -1       771-2.99237E+06-7.06356E+05-1.44445E+05-1.41457E+06-3.12575E-08-2.45345E-08
 -1       772-2.92209E+06-7.88451E+05-7.46151E+04-1.50929E+06-2.27155E-08 1.09103E-08
 -1       773-3.01986E+06-6.84835E+05-3.77165E+04-1.42660E+06-4.77303E-09 1.58034E-08
 -1       774-2.91288E+06-7.72604E+05-1.68937E+04-1.53149E+06 3.60014E-08-3.97995E-09
 -1       775-3.03387E+06-6.74970E+05-1.24215E+04-1.43228E+06 2.18279E-09 9.60426E-10
 -1       776-2.92290E+06-7.70270E+05-4.67965E+03-1.54805E+06-6.12636E-09 3.66708E-09
 -1       777-3.04593E+06-6.66234E+05-5.41036E+03-1.43730E+06-1.39698E-09-5.23869E-10
 -1       778-2.93341E+06-7.68133E+05-1.54105E+03-1.56225E+06 1.00772E-08 5.88989E-09
 -1       779-3.05625E+06-6.58636E+05-2.67921E+03-1.44159E+06-4.32192E-09-7.33417E-09
 -1       780-2.94265E+06-7.66089E+05-4.46193E+02-1.57380E+06-1.76806E-09-3.72893E-10
 -1       781-3.06443E+06-6.52528E+05-1.03305E+03-1.44494E+06-2.74449E-08-3.94175E-09
 -1       782-2.94976E+06-7.64345E+05 3.78569E+02-1.58232E+06-2.80852E-08-5.33146E-09
 -1       783-3.07018E+06-6.48298E+05 5.93732E+02-1.44730E+06-2.59024E-09-1.45510E-08
 -1       784-2.95367E+06-7.62538E+05 2.43709E+03-1.58758E+06-1.75132E-08 6.03814E-09
 -1       785-3.07357E+06-6.45780E+05 4.30385E+03-1.44880E+06-3.46590E-08 7.05040E-09
 -1       786 1.35364E+05-1.00870E+04 2.33370E+04-3.04353E+02 1.58507E-09 2.75577E-09
 -1       787 1.45484E+05 1.16782E+04 1.65100E+04-1.12224E+02 4.24320E-09-1.13730E-08
 -1       788 1.39266E+05-1.58078E+03 6.03807E+03-2.68387E+02 3.49707E-09 9.16930E-09
 -1       789 1.40938E+05 1.82949E+03 3.79086E+03-1.67596E+02-7.72062E-10 3.56317E-09
 -1       790 1.39911E+05-2.46275E+02 1.53573E+03-2.48996E+02-1.64483E-09 6.25215E-09
 -1       791 1.40185E+05 2.84934E+02 8.88672E+02-2.00600E+02-6.95637E-09 9.68640E-09
 -1       792 1.40020E+05-3.73743E+01 3.79950E+02-2.35385E+02-5.56050E-09 7.62411E-09
 -1       793 1.40055E+05 4.09214E+01 1.96774E+02-2.26079E+02 8.23762E-10-2.03083E-08
 -1       794 1.40040E+05-2.41698E+00 6.59516E+01-2.23518E+02 4.41655E-09-1.72450E-08
 -1       795 1.40023E+05-1.58058E+01-1.99631E+01-2.50903E+02-4.16592E-09 8.83556E-09
 -1       796 1.40052E+05 1.93221E+01-9.96510E+01-2.10560E+02 3.08179E-09 1.20308E-08
 -1       797 1.39958E+05-1.45838E+02-2.92673E+02-2.80928E+02 2.84204E-09-1.10691E-08
 -1       798 1.40105E+05 1.27517E+02-4.80559E+02-1.93492E+02 1.09765E-09-6.91841E-10
 -1       799 1.39592E+05-9.39852E+02-1.32670E+03-3.23429E+02 5.31922E-09-5.04492E-09
 -1       800 1.40419E+05 8.12683E+02-1.87883E+03-1.68059E+02 3.03357E-10 1.35628E-10
 -1       801-1.06311E+05-8.79025E+06-1.19044E+06 1.12892E+06 8.41683E-08-4.06544E-08
 -1       802 5.52484E+05 4.06458E+06 1.70782E+06-1.36310E+06 2.32350E-07-3.67554E-08
 -1       803-4.26997E+05-1.21196E+07-1.52401E+06 7.18680E+05 7.15845E-08 2.34704E-08
 -1       804 2.14801E+05 1.13158E+06 1.20380E+06 5.82817E+05-1.04981E-07-8.52979E-08
 -1       805 1.64547E+05-5.87241E+06-2.32721E+05-8.12385E+05-4.36848E-08-5.63869E-08
 -1       806-2.98351E+05-5.77304E+04-2.19932E+04-1.18288E+05-7.12089E-09 8.31642E-09
 -1       807-3.00079E+05-5.41430E+04-1.08050E+04-1.23626E+05 5.07043E-11 2.41714E-08
 -1       808-2.98952E+05-4.98069E+04-4.58384E+03-1.22038E+05 4.24916E-09-5.64910E-10
 -1       809-2.97807E+05-5.11067E+04-2.24139E+03-1.23891E+05 1.24983E-08-3.88204E-08
 -1       810-2.99043E+05-4.95309E+04-1.02732E+03-1.22204E+05 1.65742E-08 2.71120E-09
 -1       811-2.97632E+05-5.09846E+04-5.10882E+02-1.23857E+05 4.89672E-09-6.48379E-09
 -1       812-2.99057E+05-4.95546E+04-2.58367E+02-1.22204E+05-8.67567E-09-1.24219E-08
 -1       813-2.97608E+05-5.09867E+04-1.67932E+02-1.23839E+05-1.07248E-08 2.31175E-08
 -1       814-2.99051E+05-4.95638E+04-1.66412E+02-1.22200E+05-9.64064E-10-1.16811E-08
 -1       815-2.97611E+05-5.09888E+04-2.68183E+02-1.23832E+05 1.29257E-08 1.18459E-08
 -1       816-2.99031E+05-4.95628E+04-5.08261E+02-1.22196E+05 7.41238E-09 1.26729E-08
 -1       817-2.97698E+05-5.10372E+04-1.09089E+03-1.23821E+05-9.78116E-09-4.98562E-09
 -1       818-2.98965E+05-4.97166E+04-2.22499E+03-1.22124E+05 1.00135E-09-2.02635E-08
 -1       819-2.98917E+05-5.23805E+04-5.23535E+03-1.23532E+05 7.04949E-09-1.04465E-08
 -1       820-2.98546E+05-5.36711E+04-1.06558E+04-1.20434E+05 2.12640E-09 1.49093E-08
 -1       821-2.49609E+05 1.24945E+04-4.00106E+04-4.60012E+03-2.27446E-08-1.09867E-09
 -1       822-2.09772E+05-1.65154E+04-1.87603E+04 1.44638E+04-3.12856E-08-3.42789E-09
 -1       823-2.32021E+05 4.10369E+03-9.27796E+03-7.10211E+03 2.79811E-08-8.89759E-09
 -1       824-1.85309E+05-1.93987E+03 3.52369E+03 1.01107E+04-1.44632E-09-9.08619E-09
 -1       825-2.73917E+05-2.23780E+03-1.11290E+04-2.46781E+02 1.72428E-08 2.34957E-09
 -1       826-1.73718E+05 1.25454E+03 9.99766E+03-5.05132E+03 8.48162E-08-5.45140E-09
 -1       827-2.43525E+05 8.22591E+02-3.19563E+03 8.05643E+03 8.50580E-08 5.94230E-09
 -1       828-2.05904E+05-1.70538E+03 3.73038E+03-1.34936E+04 1.19979E-07 1.60597E-10
 -1       829-2.41993E+05 9.92974E+02-2.89331E+03 8.19957E+03 1.91611E-08 3.09882E-09
 -1       830-1.74855E+05 1.12816E+03 9.70738E+03-5.51352E+03-3.85712E-08 2.23835E-08
 -1       831-2.74322E+05-2.27282E+03-1.12973E+04 7.23013E+01 2.76094E-09 1.64432E-08
 -1       832-1.83957E+05-1.89535E+03 3.62293E+03 9.71104E+03-9.33225E-09 1.59173E-09
 -1       833-2.32957E+05 4.08262E+03-9.80943E+03-7.02156E+03-5.87687E-09-3.39924E-09
 -1       834-2.10743E+05-1.72340E+04-1.98082E+04 1.46088E+04-5.36316E-09-1.80262E-08
 -1       835-2.47706E+05 1.32400E+04-4.09351E+04-4.82566E+03 1.40631E-08 2.51021E-10
 -1       836-1.31605E+03 3.56653E+05 2.13887E+04-1.79204E+04-5.44242E-09-1.89998E-08
 -1       837 4.57189E+03 3.63349E+05 1.82801E+04-3.64436E+04-6.05928E-09 3.29783E-09
 -1       838-5.29133E+02 3.58494E+05 1.88783E+04-1.78452E+04-5.19458E-09 1.60246E-08
 -1       839 1.19947E+04 3.68874E+05 3.59608E+04-3.64946E+04-5.23778E-09 2.49199E-08
 -1       840-3.70327E+03 3.51064E+05 5.74541E+04-1.78738E+04-4.80213E-09 1.52890E-08
 -1       856-5.29359E+04 7.87629E+03-2.07558E+04-3.99310E+02 2.65538E-09-4.20187E-09
 -1       857-6.14912E+04-9.25137E+03-1.42884E+04 5.44076E+03 4.20550E-09-1.32036E-09
 -1       858-5.63225E+04 1.10441E+03-5.38568E+03-4.21843E+02 2.05023E-09-1.63072E-09
 -1       859-5.76044E+04-1.29645E+03-3.25020E+03 5.47454E+03-1.34051E-10 9.53173E-09
 -1       860-5.68285E+04 1.54480E+02-1.36235E+03-4.32894E+02 2.45797E-09-1.61760E-08
 -1       861-5.70222E+04-1.81725E+02-7.49921E+02 5.48958E+03 4.88797E-10 7.98796E-09
 -1       862-5.69076E+04 2.07599E+01-3.12634E+02-4.36871E+02-2.37790E-09 2.85996E-09
 -1       863-5.69253E+04-1.88152E+01-1.15936E+02 5.49179E+03-3.24705E-09 1.07281E-09
 -1       864-5.69258E+04-4.75425E+00 4.17096E+01-4.35111E+02-2.79915E-09 1.01140E-09
 -1       865-5.68719E+04 5.91048E+01 2.40237E+02 5.48197E+03-3.93425E-09-2.56591E-09
 -1       866-5.69589E+04-5.71718E+01 4.86552E+02-4.27048E+02-6.87692E-10-1.31687E-08
 -1       867-5.66427E+04 4.73193E+02 1.19906E+03 5.46008E+03-2.12083E-10 1.45891E-08
 -1       868-5.71504E+04-4.11355E+02 1.99295E+03-4.13225E+02-8.20705E-10 4.36353E-09
 -1       869-5.51815E+04 3.42460E+03 5.30692E+03 5.42379E+03 4.52474E-11-8.79936E-09
 -1       870-5.84128E+04-2.92839E+03 7.70165E+03-3.90677E+02-1.19974E-09-2.61934E-09
 -1       871-5.41101E+03-1.97213E+04-1.88489E+04 1.26396E+05-3.92538E-09 1.72540E-08
 -1       872-2.01268E+03-2.40812E+04-7.88054E+03 1.63886E+05-7.90897E-09 2.91038E-11
 -1       873 3.19556E+02-2.19848E+04 6.00556E+02 1.26118E+05-4.96539E-09 5.36795E-09
 -1       874 3.12018E+03-1.96176E+04 9.52806E+03 1.63920E+05-9.46238E-09 3.91742E-09
 -1       875 6.58992E+03-2.42566E+04 2.14714E+04 1.26349E+05-3.78168E-09 2.55441E-08
 -1       876 2.84921E+05 4.80234E+04 1.46097E+04 1.14343E+05 8.37940E-09 1.97360E-08
 -1       877 2.85904E+05 5.10834E+04 7.80210E+03 1.18511E+05 6.50471E-09 1.31058E-09
 -1       878 2.86287E+05 4.64060E+04 3.26874E+03 1.15541E+05 4.61114E-10 2.45564E-11
 -1       879 2.83918E+05 4.91011E+04 1.62869E+03 1.18610E+05 1.11315E-08 1.03568E-08
 -1       880 2.86385E+05 4.63891E+04 7.58695E+02 1.15590E+05 5.79803E-11-8.98194E-09
 -1       881 2.83787E+05 4.90163E+04 4.05253E+02 1.18587E+05-1.81785E-09-1.10262E-10
 -1       882 2.86394E+05 4.64017E+04 2.59474E+02 1.15592E+05 2.88924E-09 3.83295E-09
 -1       883 2.83777E+05 4.90119E+04 2.79264E+02 1.18580E+05 3.05687E-09-8.03404E-09
 -1       884 2.86387E+05 4.63989E+04 4.44548E+02 1.15592E+05-1.26477E-09-1.29139E-08
 -1       885 2.83813E+05 4.90181E+04 8.93983E+02 1.18591E+05-3.32412E-09-4.28315E-09
 -1       886 2.86353E+05 4.63728E+04 1.80189E+03 1.15588E+05-6.33850E-09 8.10314E-09
 -1       887 2.84129E+05 4.92258E+04 3.93604E+03 1.18637E+05 6.36845E-09-1.20649E-08
 -1       888 2.86104E+05 4.64166E+04 7.93127E+03 1.15462E+05-7.51233E-09-8.82937E-09
 -1       889 2.88851E+05 5.41363E+04 1.89464E+04 1.18492E+05-5.05657E-09-7.34326E-09
 -1       890 2.82869E+05 5.02602E+04 3.54861E+04 1.12442E+05-4.81077E-09-1.24583E-08
 -1       891-1.01252E+02-1.57975E+05-1.93685E+03 2.65488E+04-2.30807E-09 9.18590E-10
 -1       892-1.92132E+02-1.58479E+05-2.08000E+03 4.02916E+04 1.37675E-09 3.58614E-09
 -1       893 2.81520E+01-1.58038E+05-2.94474E+03 2.65557E+04-1.55751E-09-2.22553E-09
 -1       894-1.48615E+03-1.59593E+05-6.09443E+03 4.01433E+04 1.56069E-09 1.59121E-08
 -1       895-1.17703E+03-1.56769E+05-1.07320E+04 2.66981E+04-5.70935E-10 1.17398E-08
 -1       956-3.65936E+05-5.27598E+03-1.30730E+04 2.92365E+04 4.09273E-09 9.99989E-09
 -1       957-3.68505E+05-1.84541E+03-6.71032E+03 3.51514E+04 1.48520E-09-1.78829E-08
 -1       958-3.67109E+05-2.15432E+02-3.02375E+03 2.90755E+04-4.01178E-09 1.08457E-10
 -1       959-3.67303E+05-1.10747E+02-1.54406E+03 3.53370E+04 1.32286E-09-1.57786E-08
 -1       960-3.67222E+05-2.59902E+01-7.52906E+02 2.90591E+04 6.95854E-09-7.83052E-09
 -1       961-3.67223E+05-4.07115E+01-3.99241E+02 3.53562E+04 6.71116E-09 1.94466E-08
 -1       962-3.67248E+05-2.78769E+01-2.28579E+02 2.90564E+04 1.82536E-09 2.58092E-09
 -1       963-3.67223E+05-3.71209E+01-1.83542E+02 3.53597E+04 4.79270E-09-2.82125E-09
 -1       964-3.67253E+05-2.48565E+01-2.23202E+02 2.90557E+04 3.37000E-09 5.21572E-09
 -1       965-3.67235E+05-3.42569E+01-3.86048E+02 3.53590E+04-3.14367E-09 8.38099E-09
 -1       966-3.67237E+05-1.70194E+01-7.25313E+02 2.90571E+04-3.58796E-10-6.37829E-09
 -1       967-3.67323E+05-9.55748E+01-1.48760E+03 3.53454E+04-1.81763E-09 8.27413E-09
 -1       968-3.67137E+05-1.93740E+02-2.91208E+03 2.90692E+04-6.14364E-10 1.20974E-09
 -1       969-3.68491E+05-1.76169E+03-6.46484E+03 3.52046E+04 2.45109E-09 4.40599E-09
 -1       970-3.66015E+05-5.06557E+03-1.25937E+04 2.91915E+04-1.44610E-09 5.49608E-09
 -1       971-3.35213E+05-1.67514E+03-9.07242E+03 1.49995E+04 6.56291E-09-5.23841E-09
 -1       972-3.37401E+05-1.22803E+03-4.94076E+03 2.07800E+04 3.23598E-09 2.01039E-08
 -1       973-3.36224E+05-5.23452E+01-2.21298E+03 1.48800E+04 1.62891E-09 3.04499E-09
 -1       974-3.36359E+05-6.77534E+01-1.14710E+03 2.09143E+04 1.41813E-09-1.35012E-08
 -1       975-3.36304E+05-8.72355E+00-5.73757E+02 1.48680E+04 2.29238E-09-3.63116E-09
 -1       976-3.36299E+05-1.92641E+01-3.31682E+02 2.09295E+04-3.10069E-09 3.93845E-09
 -1       977-3.36320E+05-8.07198E+00-2.41911E+02 1.48648E+04-4.79349E-09-2.31419E-08
 -1       978-3.36304E+05-1.32532E+01-2.84701E+02 2.09342E+04-8.12042E-09 1.91202E-08
 -1       979-3.36320E+05 1.28019E-01-4.58808E+02 1.48634E+04-2.94443E-09 8.89258E-09
 -1       980-3.36338E+05-1.02877E+01-8.86767E+02 2.09351E+04 3.44919E-09 5.51233E-09
 -1       981-3.36291E+05 2.22980E+01-1.71791E+03 1.48639E+04 2.71405E-09 1.53590E-08
 -1       982-3.36574E+05-1.37198E+02-3.55113E+03 2.09286E+04-1.04478E-10-3.34194E-09
 -1       983-3.36075E+05-8.76675E+01-6.89999E+03 1.48698E+04-1.32195E-09-1.24774E-08
 -1       984-3.39893E+05-3.74081E+03-1.54523E+04 2.08449E+04 1.32786E-09 2.64049E-09
 -1       985-3.32951E+05-5.13663E+03-2.83751E+04 1.49421E+04-2.84035E-09-5.02041E-10
 -3
