    1C
    1UUSER                                                              
    1UDATE              11.october.2022                                 
    1UTIME              17:35:32                                        
    1UHOST                                                              
    1UPGM               CalculiX                                        
    1UVERSION           Version 2.20                             
    1UCOMPILETIME       Sun Jul 31 18:08:37 CEST 2022                    
    1UDIR                                                               
    1UDBN                                                               
    1UMAT    1MESH_MATERIAL                                             
    2C                           841                                     1
 -1         1 0.00000E+00 0.00000E+00 0.00000E+00
 -1         2 1.66667E-02 0.00000E+00 0.00000E+00
 -1         3 3.33333E-02 0.00000E+00 0.00000E+00
 -1         4 5.00000E-02 0.00000E+00 0.00000E+00
 -1         5 6.66667E-02 0.00000E+00 0.00000E+00
 -1         8 0.00000E+00 6.25000E-03 0.00000E+00
 -1         9 1.66667E-02 6.25000E-03 0.00000E+00
 -1        10 3.33333E-02 6.25000E-03 0.00000E+00
 -1        11 5.00000E-02 6.25000E-03 0.00000E+00
 -1        12 6.66667E-02 6.25000E-03 0.00000E+00
 -1        15 0.00000E+00 1.25000E-02 0.00000E+00
 -1        16 1.66667E-02 1.25000E-02 0.00000E+00
 -1        17 3.33333E-02 1.25000E-02 0.00000E+00
 -1        18 5.00000E-02 1.25000E-02 0.00000E+00
 -1        19 6.66667E-02 1.25000E-02 0.00000E+00
 -1        20 8.33333E-02 1.25000E-02 0.00000E+00
 -1        21 1.00000E-01 1.25000E-02 0.00000E+00
 -1        22 0.00000E+00 1.87500E-02 0.00000E+00
 -1        23 1.66667E-02 1.87500E-02 0.00000E+00
 -1        24 3.33333E-02 1.87500E-02 0.00000E+00
 -1        25 5.00000E-02 1.87500E-02 0.00000E+00
 -1        26 6.66667E-02 1.87500E-02 0.00000E+00
 -1        27 8.33333E-02 1.87500E-02 0.00000E+00
 -1        28 1.00000E-01 1.87500E-02 0.00000E+00
 -1        29 0.00000E+00 2.50000E-02 0.00000E+00
 -1        30 1.66667E-02 2.50000E-02 0.00000E+00
 -1        31 3.33333E-02 2.50000E-02 0.00000E+00
 -1        32 5.00000E-02 2.50000E-02 0.00000E+00
 -1        33 6.66667E-02 2.50000E-02 0.00000E+00
 -1        34 8.33333E-02 2.50000E-02 0.00000E+00
 -1        35 1.00000E-01 2.50000E-02 0.00000E+00
 -1        36 1.04167E-03 0.00000E+00 0.00000E+00
 -1        37 2.08333E-03 0.00000E+00 0.00000E+00
 -1        38 3.12500E-03 0.00000E+00 0.00000E+00
 -1        39 4.16667E-03 0.00000E+00 0.00000E+00
 -1        40 5.20833E-03 0.00000E+00 0.00000E+00
 -1        41 6.25000E-03 0.00000E+00 0.00000E+00
 -1        42 7.29167E-03 0.00000E+00 0.00000E+00
 -1        43 8.33333E-03 0.00000E+00 0.00000E+00
 -1        44 9.37500E-03 0.00000E+00 0.00000E+00
 -1        45 1.04167E-02 0.00000E+00 0.00000E+00
 -1        46 1.14583E-02 0.00000E+00 0.00000E+00
 -1        47 1.25000E-02 0.00000E+00 0.00000E+00
 -1        48 1.35417E-02 0.00000E+00 0.00000E+00
 -1        49 1.45833E-02 0.00000E+00 0.00000E+00
 -1        50 1.56250E-02 0.00000E+00 0.00000E+00
 -1        51 0.00000E+00 1.04167E-03 0.00000E+00
 -1        52 0.00000E+00 2.08333E-03 0.00000E+00
 -1        53 0.00000E+00 3.12500E-03 0.00000E+00
 -1        54 0.00000E+00 4.16667E-03 0.00000E+00
 -1        55 0.00000E+00 5.20833E-03 0.00000E+00
 -1        56 1.04167E-03 3.90630E-04 0.00000E+00
 -1        57 2.08333E-03 7.81250E-04 0.00000E+00
 -1        58 3.12500E-03 1.17188E-03 0.00000E+00
 -1        59 4.16667E-03 1.56250E-03 0.00000E+00
 -1        60 5.20833E-03 1.95312E-03 0.00000E+00
 -1        61 6.25000E-03 2.34375E-03 0.00000E+00
 -1        62 7.29167E-03 2.73438E-03 0.00000E+00
 -1        63 8.33333E-03 3.12500E-03 0.00000E+00
 -1        64 9.37500E-03 3.51563E-03 0.00000E+00
 -1        65 1.04167E-02 3.90625E-03 0.00000E+00
 -1        66 1.14583E-02 4.29688E-03 0.00000E+00
 -1        67 1.25000E-02 4.68750E-03 0.00000E+00
 -1        68 1.35417E-02 5.07813E-03 0.00000E+00
 -1        69 1.45833E-02 5.46875E-03 0.00000E+00
 -1        70 1.56250E-02 5.85938E-03 0.00000E+00
 -1        71 1.77083E-02 0.00000E+00 0.00000E+00
 -1        72 1.87500E-02 0.00000E+00 0.00000E+00
 -1        73 1.97917E-02 0.00000E+00 0.00000E+00
 -1        74 2.08333E-02 0.00000E+00 0.00000E+00
 -1        75 2.18750E-02 0.00000E+00 0.00000E+00
 -1        76 2.29167E-02 0.00000E+00 0.00000E+00
 -1        77 2.39583E-02 0.00000E+00 0.00000E+00
 -1        78 2.50000E-02 0.00000E+00 0.00000E+00
 -1        79 2.60417E-02 0.00000E+00 0.00000E+00
 -1        80 2.70833E-02 0.00000E+00 0.00000E+00
 -1        81 2.81250E-02 0.00000E+00 0.00000E+00
 -1        82 2.91667E-02 0.00000E+00 0.00000E+00
 -1        83 3.02083E-02 0.00000E+00 0.00000E+00
 -1        84 3.12500E-02 0.00000E+00 0.00000E+00
 -1        85 3.22917E-02 0.00000E+00 0.00000E+00
 -1        86 1.66667E-02 1.04167E-03 0.00000E+00
 -1        87 1.66667E-02 2.08333E-03 0.00000E+00
 -1        88 1.66667E-02 3.12500E-03 0.00000E+00
 -1        89 1.66667E-02 4.16667E-03 0.00000E+00
 -1        90 1.66667E-02 5.20833E-03 0.00000E+00
 -1        91 1.77083E-02 3.90630E-04 0.00000E+00
 -1        92 1.87500E-02 7.81250E-04 0.00000E+00
 -1        93 1.97917E-02 1.17188E-03 0.00000E+00
 -1        94 2.08333E-02 1.56250E-03 0.00000E+00
 -1        95 2.18750E-02 1.95312E-03 0.00000E+00
 -1        96 2.29167E-02 2.34375E-03 0.00000E+00
 -1        97 2.39583E-02 2.73438E-03 0.00000E+00
 -1        98 2.50000E-02 3.12500E-03 0.00000E+00
 -1        99 2.60417E-02 3.51563E-03 0.00000E+00
 -1       100 2.70833E-02 3.90625E-03 0.00000E+00
 -1       101 2.81250E-02 4.29688E-03 0.00000E+00
 -1       102 2.91667E-02 4.68750E-03 0.00000E+00
 -1       103 3.02083E-02 5.07813E-03 0.00000E+00
 -1       104 3.12500E-02 5.46875E-03 0.00000E+00
 -1       105 3.22917E-02 5.85938E-03 0.00000E+00
 -1       106 3.43750E-02 0.00000E+00 0.00000E+00
 -1       107 3.54167E-02 0.00000E+00 0.00000E+00
 -1       108 3.64583E-02 0.00000E+00 0.00000E+00
 -1       109 3.75000E-02 0.00000E+00 0.00000E+00
 -1       110 3.85417E-02 0.00000E+00 0.00000E+00
 -1       111 3.95833E-02 0.00000E+00 0.00000E+00
 -1       112 4.06250E-02 0.00000E+00 0.00000E+00
 -1       113 4.16667E-02 0.00000E+00 0.00000E+00
 -1       114 4.27083E-02 0.00000E+00 0.00000E+00
 -1       115 4.37500E-02 0.00000E+00 0.00000E+00
 -1       116 4.47917E-02 0.00000E+00 0.00000E+00
 -1       117 4.58333E-02 0.00000E+00 0.00000E+00
 -1       118 4.68750E-02 0.00000E+00 0.00000E+00
 -1       119 4.79167E-02 0.00000E+00 0.00000E+00
 -1       120 4.89583E-02 0.00000E+00 0.00000E+00
 -1       121 3.33333E-02 1.04167E-03 0.00000E+00
 -1       122 3.33333E-02 2.08333E-03 0.00000E+00
 -1       123 3.33333E-02 3.12500E-03 0.00000E+00
 -1       124 3.33333E-02 4.16667E-03 0.00000E+00
 -1       125 3.33333E-02 5.20833E-03 0.00000E+00
 -1       126 3.43750E-02 3.90630E-04 0.00000E+00
 -1       127 3.54167E-02 7.81250E-04 0.00000E+00
 -1       128 3.64583E-02 1.17188E-03 0.00000E+00
 -1       129 3.75000E-02 1.56250E-03 0.00000E+00
 -1       130 3.85417E-02 1.95312E-03 0.00000E+00
 -1       131 3.95833E-02 2.34375E-03 0.00000E+00
 -1       132 4.06250E-02 2.73438E-03 0.00000E+00
 -1       133 4.16667E-02 3.12500E-03 0.00000E+00
 -1       134 4.27083E-02 3.51563E-03 0.00000E+00
 -1       135 4.37500E-02 3.90625E-03 0.00000E+00
 -1       136 4.47917E-02 4.29688E-03 0.00000E+00
 -1       137 4.58333E-02 4.68750E-03 0.00000E+00
 -1       138 4.68750E-02 5.07813E-03 0.00000E+00
 -1       139 4.79167E-02 5.46875E-03 0.00000E+00
 -1       140 4.89583E-02 5.85938E-03 0.00000E+00
 -1       141 5.10417E-02 0.00000E+00 0.00000E+00
 -1       142 5.20833E-02 0.00000E+00 0.00000E+00
 -1       143 5.31250E-02 0.00000E+00 0.00000E+00
 -1       144 5.41667E-02 0.00000E+00 0.00000E+00
 -1       145 5.52083E-02 0.00000E+00 0.00000E+00
 -1       146 5.62500E-02 0.00000E+00 0.00000E+00
 -1       147 5.72917E-02 0.00000E+00 0.00000E+00
 -1       148 5.83333E-02 0.00000E+00 0.00000E+00
 -1       149 5.93750E-02 0.00000E+00 0.00000E+00
 -1       150 6.04167E-02 0.00000E+00 0.00000E+00
 -1       151 6.14583E-02 0.00000E+00 0.00000E+00
 -1       152 6.25000E-02 0.00000E+00 0.00000E+00
 -1       153 6.35417E-02 0.00000E+00 0.00000E+00
 -1       154 6.45833E-02 0.00000E+00 0.00000E+00
 -1       155 6.56250E-02 0.00000E+00 0.00000E+00
 -1       156 5.00000E-02 1.04167E-03 0.00000E+00
 -1       157 5.00000E-02 2.08333E-03 0.00000E+00
 -1       158 5.00000E-02 3.12500E-03 0.00000E+00
 -1       159 5.00000E-02 4.16667E-03 0.00000E+00
 -1       160 5.00000E-02 5.20833E-03 0.00000E+00
 -1       161 5.10417E-02 3.90630E-04 0.00000E+00
 -1       162 5.20833E-02 7.81250E-04 0.00000E+00
 -1       163 5.31250E-02 1.17188E-03 0.00000E+00
 -1       164 5.41667E-02 1.56250E-03 0.00000E+00
 -1       165 5.52083E-02 1.95312E-03 0.00000E+00
 -1       166 5.62500E-02 2.34375E-03 0.00000E+00
 -1       167 5.72917E-02 2.73438E-03 0.00000E+00
 -1       168 5.83333E-02 3.12500E-03 0.00000E+00
 -1       169 5.93750E-02 3.51563E-03 0.00000E+00
 -1       170 6.04167E-02 3.90625E-03 0.00000E+00
 -1       171 6.14583E-02 4.29688E-03 0.00000E+00
 -1       172 6.25000E-02 4.68750E-03 0.00000E+00
 -1       173 6.35417E-02 5.07813E-03 0.00000E+00
 -1       174 6.45833E-02 5.46875E-03 0.00000E+00
 -1       175 6.56250E-02 5.85938E-03 0.00000E+00
 -1       191 6.66667E-02 1.04167E-03 0.00000E+00
 -1       192 6.66667E-02 2.08333E-03 0.00000E+00
 -1       193 6.66667E-02 3.12500E-03 0.00000E+00
 -1       194 6.66667E-02 4.16667E-03 0.00000E+00
 -1       195 6.66667E-02 5.20833E-03 0.00000E+00
 -1       251 1.04167E-03 6.25000E-03 0.00000E+00
 -1       252 2.08333E-03 6.25000E-03 0.00000E+00
 -1       253 3.12500E-03 6.25000E-03 0.00000E+00
 -1       254 4.16667E-03 6.25000E-03 0.00000E+00
 -1       255 5.20833E-03 6.25000E-03 0.00000E+00
 -1       256 6.25000E-03 6.25000E-03 0.00000E+00
 -1       257 7.29167E-03 6.25000E-03 0.00000E+00
 -1       258 8.33333E-03 6.25000E-03 0.00000E+00
 -1       259 9.37500E-03 6.25000E-03 0.00000E+00
 -1       260 1.04167E-02 6.25000E-03 0.00000E+00
 -1       261 1.14583E-02 6.25000E-03 0.00000E+00
 -1       262 1.25000E-02 6.25000E-03 0.00000E+00
 -1       263 1.35417E-02 6.25000E-03 0.00000E+00
 -1       264 1.45833E-02 6.25000E-03 0.00000E+00
 -1       265 1.56250E-02 6.25000E-03 0.00000E+00
 -1       266 0.00000E+00 7.29167E-03 0.00000E+00
 -1       267 0.00000E+00 8.33333E-03 0.00000E+00
 -1       268 0.00000E+00 9.37500E-03 0.00000E+00
 -1       269 0.00000E+00 1.04167E-02 0.00000E+00
 -1       270 0.00000E+00 1.14583E-02 0.00000E+00
 -1       271 1.04167E-03 6.64063E-03 0.00000E+00
 -1       272 2.08333E-03 7.03125E-03 0.00000E+00
 -1       273 3.12500E-03 7.42188E-03 0.00000E+00
 -1       274 4.16667E-03 7.81250E-03 0.00000E+00
 -1       275 5.20833E-03 8.20313E-03 0.00000E+00
 -1       276 6.25000E-03 8.59375E-03 0.00000E+00
 -1       277 7.29167E-03 8.98438E-03 0.00000E+00
 -1       278 8.33333E-03 9.37500E-03 0.00000E+00
 -1       279 9.37500E-03 9.76562E-03 0.00000E+00
 -1       280 1.04167E-02 1.01562E-02 0.00000E+00
 -1       281 1.14583E-02 1.05469E-02 0.00000E+00
 -1       282 1.25000E-02 1.09375E-02 0.00000E+00
 -1       283 1.35417E-02 1.13281E-02 0.00000E+00
 -1       284 1.45833E-02 1.17188E-02 0.00000E+00
 -1       285 1.56250E-02 1.21094E-02 0.00000E+00
 -1       286 1.77083E-02 6.25000E-03 0.00000E+00
 -1       287 1.87500E-02 6.25000E-03 0.00000E+00
 -1       288 1.97917E-02 6.25000E-03 0.00000E+00
 -1       289 2.08333E-02 6.25000E-03 0.00000E+00
 -1       290 2.18750E-02 6.25000E-03 0.00000E+00
 -1       291 2.29167E-02 6.25000E-03 0.00000E+00
 -1       292 2.39583E-02 6.25000E-03 0.00000E+00
 -1       293 2.50000E-02 6.25000E-03 0.00000E+00
 -1       294 2.60417E-02 6.25000E-03 0.00000E+00
 -1       295 2.70833E-02 6.25000E-03 0.00000E+00
 -1       296 2.81250E-02 6.25000E-03 0.00000E+00
 -1       297 2.91667E-02 6.25000E-03 0.00000E+00
 -1       298 3.02083E-02 6.25000E-03 0.00000E+00
 -1       299 3.12500E-02 6.25000E-03 0.00000E+00
 -1       300 3.22917E-02 6.25000E-03 0.00000E+00
 -1       301 1.66667E-02 7.29167E-03 0.00000E+00
 -1       302 1.66667E-02 8.33333E-03 0.00000E+00
 -1       303 1.66667E-02 9.37500E-03 0.00000E+00
 -1       304 1.66667E-02 1.04167E-02 0.00000E+00
 -1       305 1.66667E-02 1.14583E-02 0.00000E+00
 -1       306 1.77083E-02 6.64063E-03 0.00000E+00
 -1       307 1.87500E-02 7.03125E-03 0.00000E+00
 -1       308 1.97917E-02 7.42188E-03 0.00000E+00
 -1       309 2.08333E-02 7.81250E-03 0.00000E+00
 -1       310 2.18750E-02 8.20313E-03 0.00000E+00
 -1       311 2.29167E-02 8.59375E-03 0.00000E+00
 -1       312 2.39583E-02 8.98438E-03 0.00000E+00
 -1       313 2.50000E-02 9.37500E-03 0.00000E+00
 -1       314 2.60417E-02 9.76562E-03 0.00000E+00
 -1       315 2.70833E-02 1.01562E-02 0.00000E+00
 -1       316 2.81250E-02 1.05469E-02 0.00000E+00
 -1       317 2.91667E-02 1.09375E-02 0.00000E+00
 -1       318 3.02083E-02 1.13281E-02 0.00000E+00
 -1       319 3.12500E-02 1.17188E-02 0.00000E+00
 -1       320 3.22917E-02 1.21094E-02 0.00000E+00
 -1       321 3.43750E-02 6.25000E-03 0.00000E+00
 -1       322 3.54167E-02 6.25000E-03 0.00000E+00
 -1       323 3.64583E-02 6.25000E-03 0.00000E+00
 -1       324 3.75000E-02 6.25000E-03 0.00000E+00
 -1       325 3.85417E-02 6.25000E-03 0.00000E+00
 -1       326 3.95833E-02 6.25000E-03 0.00000E+00
 -1       327 4.06250E-02 6.25000E-03 0.00000E+00
 -1       328 4.16667E-02 6.25000E-03 0.00000E+00
 -1       329 4.27083E-02 6.25000E-03 0.00000E+00
 -1       330 4.37500E-02 6.25000E-03 0.00000E+00
 -1       331 4.47917E-02 6.25000E-03 0.00000E+00
 -1       332 4.58333E-02 6.25000E-03 0.00000E+00
 -1       333 4.68750E-02 6.25000E-03 0.00000E+00
 -1       334 4.79167E-02 6.25000E-03 0.00000E+00
 -1       335 4.89583E-02 6.25000E-03 0.00000E+00
 -1       336 3.33333E-02 7.29167E-03 0.00000E+00
 -1       337 3.33333E-02 8.33333E-03 0.00000E+00
 -1       338 3.33333E-02 9.37500E-03 0.00000E+00
 -1       339 3.33333E-02 1.04167E-02 0.00000E+00
 -1       340 3.33333E-02 1.14583E-02 0.00000E+00
 -1       341 3.43750E-02 6.64063E-03 0.00000E+00
 -1       342 3.54167E-02 7.03125E-03 0.00000E+00
 -1       343 3.64583E-02 7.42188E-03 0.00000E+00
 -1       344 3.75000E-02 7.81250E-03 0.00000E+00
 -1       345 3.85417E-02 8.20313E-03 0.00000E+00
 -1       346 3.95833E-02 8.59375E-03 0.00000E+00
 -1       347 4.06250E-02 8.98438E-03 0.00000E+00
 -1       348 4.16667E-02 9.37500E-03 0.00000E+00
 -1       349 4.27083E-02 9.76562E-03 0.00000E+00
 -1       350 4.37500E-02 1.01562E-02 0.00000E+00
 -1       351 4.47917E-02 1.05469E-02 0.00000E+00
 -1       352 4.58333E-02 1.09375E-02 0.00000E+00
 -1       353 4.68750E-02 1.13281E-02 0.00000E+00
 -1       354 4.79167E-02 1.17188E-02 0.00000E+00
 -1       355 4.89583E-02 1.21094E-02 0.00000E+00
 -1       356 5.10417E-02 6.25000E-03 0.00000E+00
 -1       357 5.20833E-02 6.25000E-03 0.00000E+00
 -1       358 5.31250E-02 6.25000E-03 0.00000E+00
 -1       359 5.41667E-02 6.25000E-03 0.00000E+00
 -1       360 5.52083E-02 6.25000E-03 0.00000E+00
 -1       361 5.62500E-02 6.25000E-03 0.00000E+00
 -1       362 5.72917E-02 6.25000E-03 0.00000E+00
 -1       363 5.83333E-02 6.25000E-03 0.00000E+00
 -1       364 5.93750E-02 6.25000E-03 0.00000E+00
 -1       365 6.04167E-02 6.25000E-03 0.00000E+00
 -1       366 6.14583E-02 6.25000E-03 0.00000E+00
 -1       367 6.25000E-02 6.25000E-03 0.00000E+00
 -1       368 6.35417E-02 6.25000E-03 0.00000E+00
 -1       369 6.45833E-02 6.25000E-03 0.00000E+00
 -1       370 6.56250E-02 6.25000E-03 0.00000E+00
 -1       371 5.00000E-02 7.29167E-03 0.00000E+00
 -1       372 5.00000E-02 8.33333E-03 0.00000E+00
 -1       373 5.00000E-02 9.37500E-03 0.00000E+00
 -1       374 5.00000E-02 1.04167E-02 0.00000E+00
 -1       375 5.00000E-02 1.14583E-02 0.00000E+00
 -1       376 5.10417E-02 6.64063E-03 0.00000E+00
 -1       377 5.20833E-02 7.03125E-03 0.00000E+00
 -1       378 5.31250E-02 7.42188E-03 0.00000E+00
 -1       379 5.41667E-02 7.81250E-03 0.00000E+00
 -1       380 5.52083E-02 8.20313E-03 0.00000E+00
 -1       381 5.62500E-02 8.59375E-03 0.00000E+00
 -1       382 5.72917E-02 8.98438E-03 0.00000E+00
 -1       383 5.83333E-02 9.37500E-03 0.00000E+00
 -1       384 5.93750E-02 9.76562E-03 0.00000E+00
 -1       385 6.04167E-02 1.01562E-02 0.00000E+00
 -1       386 6.14583E-02 1.05469E-02 0.00000E+00
 -1       387 6.25000E-02 1.09375E-02 0.00000E+00
 -1       388 6.35417E-02 1.13281E-02 0.00000E+00
 -1       389 6.45833E-02 1.17188E-02 0.00000E+00
 -1       390 6.56250E-02 1.21094E-02 0.00000E+00
 -1       406 6.66667E-02 7.29167E-03 0.00000E+00
 -1       407 6.66667E-02 8.33333E-03 0.00000E+00
 -1       408 6.66667E-02 9.37500E-03 0.00000E+00
 -1       409 6.66667E-02 1.04167E-02 0.00000E+00
 -1       410 6.66667E-02 1.14583E-02 0.00000E+00
 -1       466 1.04167E-03 1.25000E-02 0.00000E+00
 -1       467 2.08333E-03 1.25000E-02 0.00000E+00
 -1       468 3.12500E-03 1.25000E-02 0.00000E+00
 -1       469 4.16667E-03 1.25000E-02 0.00000E+00
 -1       470 5.20833E-03 1.25000E-02 0.00000E+00
 -1       471 6.25000E-03 1.25000E-02 0.00000E+00
 -1       472 7.29167E-03 1.25000E-02 0.00000E+00
 -1       473 8.33333E-03 1.25000E-02 0.00000E+00
 -1       474 9.37500E-03 1.25000E-02 0.00000E+00
 -1       475 1.04167E-02 1.25000E-02 0.00000E+00
 -1       476 1.14583E-02 1.25000E-02 0.00000E+00
 -1       477 1.25000E-02 1.25000E-02 0.00000E+00
 -1       478 1.35417E-02 1.25000E-02 0.00000E+00
 -1       479 1.45833E-02 1.25000E-02 0.00000E+00
 -1       480 1.56250E-02 1.25000E-02 0.00000E+00
 -1       481 0.00000E+00 1.35417E-02 0.00000E+00
 -1       482 0.00000E+00 1.45833E-02 0.00000E+00
 -1       483 0.00000E+00 1.56250E-02 0.00000E+00
 -1       484 0.00000E+00 1.66667E-02 0.00000E+00
 -1       485 0.00000E+00 1.77083E-02 0.00000E+00
 -1       486 1.04167E-03 1.28906E-02 0.00000E+00
 -1       487 2.08333E-03 1.32813E-02 0.00000E+00
 -1       488 3.12500E-03 1.36719E-02 0.00000E+00
 -1       489 4.16667E-03 1.40625E-02 0.00000E+00
 -1       490 5.20833E-03 1.44531E-02 0.00000E+00
 -1       491 6.25000E-03 1.48437E-02 0.00000E+00
 -1       492 7.29167E-03 1.52344E-02 0.00000E+00
 -1       493 8.33333E-03 1.56250E-02 0.00000E+00
 -1       494 9.37500E-03 1.60156E-02 0.00000E+00
 -1       495 1.04167E-02 1.64062E-02 0.00000E+00
 -1       496 1.14583E-02 1.67969E-02 0.00000E+00
 -1       497 1.25000E-02 1.71875E-02 0.00000E+00
 -1       498 1.35417E-02 1.75781E-02 0.00000E+00
 -1       499 1.45833E-02 1.79687E-02 0.00000E+00
 -1       500 1.56250E-02 1.83594E-02 0.00000E+00
 -1       501 1.77083E-02 1.25000E-02 0.00000E+00
 -1       502 1.87500E-02 1.25000E-02 0.00000E+00
 -1       503 1.97917E-02 1.25000E-02 0.00000E+00
 -1       504 2.08333E-02 1.25000E-02 0.00000E+00
 -1       505 2.18750E-02 1.25000E-02 0.00000E+00
 -1       506 2.29167E-02 1.25000E-02 0.00000E+00
 -1       507 2.39583E-02 1.25000E-02 0.00000E+00
 -1       508 2.50000E-02 1.25000E-02 0.00000E+00
 -1       509 2.60417E-02 1.25000E-02 0.00000E+00
 -1       510 2.70833E-02 1.25000E-02 0.00000E+00
 -1       511 2.81250E-02 1.25000E-02 0.00000E+00
 -1       512 2.91667E-02 1.25000E-02 0.00000E+00
 -1       513 3.02083E-02 1.25000E-02 0.00000E+00
 -1       514 3.12500E-02 1.25000E-02 0.00000E+00
 -1       515 3.22917E-02 1.25000E-02 0.00000E+00
 -1       516 1.66667E-02 1.35417E-02 0.00000E+00
 -1       517 1.66667E-02 1.45833E-02 0.00000E+00
 -1       518 1.66667E-02 1.56250E-02 0.00000E+00
 -1       519 1.66667E-02 1.66667E-02 0.00000E+00
 -1       520 1.66667E-02 1.77083E-02 0.00000E+00
 -1       521 1.77083E-02 1.28906E-02 0.00000E+00
 -1       522 1.87500E-02 1.32813E-02 0.00000E+00
 -1       523 1.97917E-02 1.36719E-02 0.00000E+00
 -1       524 2.08333E-02 1.40625E-02 0.00000E+00
 -1       525 2.18750E-02 1.44531E-02 0.00000E+00
 -1       526 2.29167E-02 1.48437E-02 0.00000E+00
 -1       527 2.39583E-02 1.52344E-02 0.00000E+00
 -1       528 2.50000E-02 1.56250E-02 0.00000E+00
 -1       529 2.60417E-02 1.60156E-02 0.00000E+00
 -1       530 2.70833E-02 1.64062E-02 0.00000E+00
 -1       531 2.81250E-02 1.67969E-02 0.00000E+00
 -1       532 2.91667E-02 1.71875E-02 0.00000E+00
 -1       533 3.02083E-02 1.75781E-02 0.00000E+00
 -1       534 3.12500E-02 1.79687E-02 0.00000E+00
 -1       535 3.22917E-02 1.83594E-02 0.00000E+00
 -1       536 3.43750E-02 1.25000E-02 0.00000E+00
 -1       537 3.54167E-02 1.25000E-02 0.00000E+00
 -1       538 3.64583E-02 1.25000E-02 0.00000E+00
 -1       539 3.75000E-02 1.25000E-02 0.00000E+00
 -1       540 3.85417E-02 1.25000E-02 0.00000E+00
 -1       541 3.95833E-02 1.25000E-02 0.00000E+00
 -1       542 4.06250E-02 1.25000E-02 0.00000E+00
 -1       543 4.16667E-02 1.25000E-02 0.00000E+00
 -1       544 4.27083E-02 1.25000E-02 0.00000E+00
 -1       545 4.37500E-02 1.25000E-02 0.00000E+00
 -1       546 4.47917E-02 1.25000E-02 0.00000E+00
 -1       547 4.58333E-02 1.25000E-02 0.00000E+00
 -1       548 4.68750E-02 1.25000E-02 0.00000E+00
 -1       549 4.79167E-02 1.25000E-02 0.00000E+00
 -1       550 4.89583E-02 1.25000E-02 0.00000E+00
 -1       551 3.33333E-02 1.35417E-02 0.00000E+00
 -1       552 3.33333E-02 1.45833E-02 0.00000E+00
 -1       553 3.33333E-02 1.56250E-02 0.00000E+00
 -1       554 3.33333E-02 1.66667E-02 0.00000E+00
 -1       555 3.33333E-02 1.77083E-02 0.00000E+00
 -1       556 3.43750E-02 1.28906E-02 0.00000E+00
 -1       557 3.54167E-02 1.32813E-02 0.00000E+00
 -1       558 3.64583E-02 1.36719E-02 0.00000E+00
 -1       559 3.75000E-02 1.40625E-02 0.00000E+00
 -1       560 3.85417E-02 1.44531E-02 0.00000E+00
 -1       561 3.95833E-02 1.48437E-02 0.00000E+00
 -1       562 4.06250E-02 1.52344E-02 0.00000E+00
 -1       563 4.16667E-02 1.56250E-02 0.00000E+00
 -1       564 4.27083E-02 1.60156E-02 0.00000E+00
 -1       565 4.37500E-02 1.64062E-02 0.00000E+00
 -1       566 4.47917E-02 1.67969E-02 0.00000E+00
 -1       567 4.58333E-02 1.71875E-02 0.00000E+00
 -1       568 4.68750E-02 1.75781E-02 0.00000E+00
 -1       569 4.79167E-02 1.79687E-02 0.00000E+00
 -1       570 4.89583E-02 1.83594E-02 0.00000E+00
 -1       571 5.10417E-02 1.25000E-02 0.00000E+00
 -1       572 5.20833E-02 1.25000E-02 0.00000E+00
 -1       573 5.31250E-02 1.25000E-02 0.00000E+00
 -1       574 5.41667E-02 1.25000E-02 0.00000E+00
 -1       575 5.52083E-02 1.25000E-02 0.00000E+00
 -1       576 5.62500E-02 1.25000E-02 0.00000E+00
 -1       577 5.72917E-02 1.25000E-02 0.00000E+00
 -1       578 5.83333E-02 1.25000E-02 0.00000E+00
 -1       579 5.93750E-02 1.25000E-02 0.00000E+00
 -1       580 6.04167E-02 1.25000E-02 0.00000E+00
 -1       581 6.14583E-02 1.25000E-02 0.00000E+00
 -1       582 6.25000E-02 1.25000E-02 0.00000E+00
 -1       583 6.35417E-02 1.25000E-02 0.00000E+00
 -1       584 6.45833E-02 1.25000E-02 0.00000E+00
 -1       585 6.56250E-02 1.25000E-02 0.00000E+00
 -1       586 5.00000E-02 1.35417E-02 0.00000E+00
 -1       587 5.00000E-02 1.45833E-02 0.00000E+00
 -1       588 5.00000E-02 1.56250E-02 0.00000E+00
 -1       589 5.00000E-02 1.66667E-02 0.00000E+00
 -1       590 5.00000E-02 1.77083E-02 0.00000E+00
 -1       591 5.10417E-02 1.28906E-02 0.00000E+00
 -1       592 5.20833E-02 1.32813E-02 0.00000E+00
 -1       593 5.31250E-02 1.36719E-02 0.00000E+00
 -1       594 5.41667E-02 1.40625E-02 0.00000E+00
 -1       595 5.52083E-02 1.44531E-02 0.00000E+00
 -1       596 5.62500E-02 1.48437E-02 0.00000E+00
 -1       597 5.72917E-02 1.52344E-02 0.00000E+00
 -1       598 5.83333E-02 1.56250E-02 0.00000E+00
 -1       599 5.93750E-02 1.60156E-02 0.00000E+00
 -1       600 6.04167E-02 1.64062E-02 0.00000E+00
 -1       601 6.14583E-02 1.67969E-02 0.00000E+00
 -1       602 6.25000E-02 1.71875E-02 0.00000E+00
 -1       603 6.35417E-02 1.75781E-02 0.00000E+00
 -1       604 6.45833E-02 1.79687E-02 0.00000E+00
 -1       605 6.56250E-02 1.83594E-02 0.00000E+00
 -1       606 6.77083E-02 1.25000E-02 0.00000E+00
 -1       607 6.87500E-02 1.25000E-02 0.00000E+00
 -1       608 6.97917E-02 1.25000E-02 0.00000E+00
 -1       609 7.08333E-02 1.25000E-02 0.00000E+00
 -1       610 7.18750E-02 1.25000E-02 0.00000E+00
 -1       611 7.29167E-02 1.25000E-02 0.00000E+00
 -1       612 7.39583E-02 1.25000E-02 0.00000E+00
 -1       613 7.50000E-02 1.25000E-02 0.00000E+00
 -1       614 7.60417E-02 1.25000E-02 0.00000E+00
 -1       615 7.70833E-02 1.25000E-02 0.00000E+00
 -1       616 7.81250E-02 1.25000E-02 0.00000E+00
 -1       617 7.91667E-02 1.25000E-02 0.00000E+00
 -1       618 8.02083E-02 1.25000E-02 0.00000E+00
 -1       619 8.12500E-02 1.25000E-02 0.00000E+00
 -1       620 8.22917E-02 1.25000E-02 0.00000E+00
 -1       621 6.66667E-02 1.35417E-02 0.00000E+00
 -1       622 6.66667E-02 1.45833E-02 0.00000E+00
 -1       623 6.66667E-02 1.56250E-02 0.00000E+00
 -1       624 6.66667E-02 1.66667E-02 0.00000E+00
 -1       625 6.66667E-02 1.77083E-02 0.00000E+00
 -1       626 6.77083E-02 1.28906E-02 0.00000E+00
 -1       627 6.87500E-02 1.32813E-02 0.00000E+00
 -1       628 6.97917E-02 1.36719E-02 0.00000E+00
 -1       629 7.08333E-02 1.40625E-02 0.00000E+00
 -1       630 7.18750E-02 1.44531E-02 0.00000E+00
 -1       631 7.29167E-02 1.48437E-02 0.00000E+00
 -1       632 7.39583E-02 1.52344E-02 0.00000E+00
 -1       633 7.50000E-02 1.56250E-02 0.00000E+00
 -1       634 7.60417E-02 1.60156E-02 0.00000E+00
 -1       635 7.70833E-02 1.64062E-02 0.00000E+00
 -1       636 7.81250E-02 1.67969E-02 0.00000E+00
 -1       637 7.91667E-02 1.71875E-02 0.00000E+00
 -1       638 8.02083E-02 1.75781E-02 0.00000E+00
 -1       639 8.12500E-02 1.79687E-02 0.00000E+00
 -1       640 8.22917E-02 1.83594E-02 0.00000E+00
 -1       641 8.43750E-02 1.25000E-02 0.00000E+00
 -1       642 8.54167E-02 1.25000E-02 0.00000E+00
 -1       643 8.64583E-02 1.25000E-02 0.00000E+00
 -1       644 8.75000E-02 1.25000E-02 0.00000E+00
 -1       645 8.85417E-02 1.25000E-02 0.00000E+00
 -1       646 8.95833E-02 1.25000E-02 0.00000E+00
 -1       647 9.06250E-02 1.25000E-02 0.00000E+00
 -1       648 9.16667E-02 1.25000E-02 0.00000E+00
 -1       649 9.27083E-02 1.25000E-02 0.00000E+00
 -1       650 9.37500E-02 1.25000E-02 0.00000E+00
 -1       651 9.47917E-02 1.25000E-02 0.00000E+00
 -1       652 9.58333E-02 1.25000E-02 0.00000E+00
 -1       653 9.68750E-02 1.25000E-02 0.00000E+00
 -1       654 9.79167E-02 1.25000E-02 0.00000E+00
 -1       655 9.89583E-02 1.25000E-02 0.00000E+00
 -1       656 8.33333E-02 1.35417E-02 0.00000E+00
 -1       657 8.33333E-02 1.45833E-02 0.00000E+00
 -1       658 8.33333E-02 1.56250E-02 0.00000E+00
 -1       659 8.33333E-02 1.66667E-02 0.00000E+00
 -1       660 8.33333E-02 1.77083E-02 0.00000E+00
 -1       661 8.43750E-02 1.28906E-02 0.00000E+00
 -1       662 8.54167E-02 1.32813E-02 0.00000E+00
 -1       663 8.64583E-02 1.36719E-02 0.00000E+00
 -1       664 8.75000E-02 1.40625E-02 0.00000E+00
 -1       665 8.85417E-02 1.44531E-02 0.00000E+00
 -1       666 8.95833E-02 1.48437E-02 0.00000E+00
 -1       667 9.06250E-02 1.52344E-02 0.00000E+00
 -1       668 9.16667E-02 1.56250E-02 0.00000E+00
 -1       669 9.27083E-02 1.60156E-02 0.00000E+00
 -1       670 9.37500E-02 1.64062E-02 0.00000E+00
 -1       671 9.47917E-02 1.67969E-02 0.00000E+00
 -1       672 9.58333E-02 1.71875E-02 0.00000E+00
 -1       673 9.68750E-02 1.75781E-02 0.00000E+00
 -1       674 9.79167E-02 1.79687E-02 0.00000E+00
 -1       675 9.89583E-02 1.83594E-02 0.00000E+00
 -1       676 1.00000E-01 1.35417E-02 0.00000E+00
 -1       677 1.00000E-01 1.45833E-02 0.00000E+00
 -1       678 1.00000E-01 1.56250E-02 0.00000E+00
 -1       679 1.00000E-01 1.66667E-02 0.00000E+00
 -1       680 1.00000E-01 1.77083E-02 0.00000E+00
 -1       681 1.04167E-03 1.87500E-02 0.00000E+00
 -1       682 2.08333E-03 1.87500E-02 0.00000E+00
 -1       683 3.12500E-03 1.87500E-02 0.00000E+00
 -1       684 4.16667E-03 1.87500E-02 0.00000E+00
 -1       685 5.20833E-03 1.87500E-02 0.00000E+00
 -1       686 6.25000E-03 1.87500E-02 0.00000E+00
 -1       687 7.29167E-03 1.87500E-02 0.00000E+00
 -1       688 8.33333E-03 1.87500E-02 0.00000E+00
 -1       689 9.37500E-03 1.87500E-02 0.00000E+00
 -1       690 1.04167E-02 1.87500E-02 0.00000E+00
 -1       691 1.14583E-02 1.87500E-02 0.00000E+00
 -1       692 1.25000E-02 1.87500E-02 0.00000E+00
 -1       693 1.35417E-02 1.87500E-02 0.00000E+00
 -1       694 1.45833E-02 1.87500E-02 0.00000E+00
 -1       695 1.56250E-02 1.87500E-02 0.00000E+00
 -1       696 0.00000E+00 1.97917E-02 0.00000E+00
 -1       697 0.00000E+00 2.08333E-02 0.00000E+00
 -1       698 0.00000E+00 2.18750E-02 0.00000E+00
 -1       699 0.00000E+00 2.29167E-02 0.00000E+00
 -1       700 0.00000E+00 2.39583E-02 0.00000E+00
 -1       701 1.04167E-03 1.91406E-02 0.00000E+00
 -1       702 2.08333E-03 1.95312E-02 0.00000E+00
 -1       703 3.12500E-03 1.99219E-02 0.00000E+00
 -1       704 4.16667E-03 2.03125E-02 0.00000E+00
 -1       705 5.20833E-03 2.07031E-02 0.00000E+00
 -1       706 6.25000E-03 2.10938E-02 0.00000E+00
 -1       707 7.29167E-03 2.14844E-02 0.00000E+00
 -1       708 8.33333E-03 2.18750E-02 0.00000E+00
 -1       709 9.37500E-03 2.22656E-02 0.00000E+00
 -1       710 1.04167E-02 2.26563E-02 0.00000E+00
 -1       711 1.14583E-02 2.30469E-02 0.00000E+00
 -1       712 1.25000E-02 2.34375E-02 0.00000E+00
 -1       713 1.35417E-02 2.38281E-02 0.00000E+00
 -1       714 1.45833E-02 2.42187E-02 0.00000E+00
 -1       715 1.56250E-02 2.46094E-02 0.00000E+00
 -1       716 1.77083E-02 1.87500E-02 0.00000E+00
 -1       717 1.87500E-02 1.87500E-02 0.00000E+00
 -1       718 1.97917E-02 1.87500E-02 0.00000E+00
 -1       719 2.08333E-02 1.87500E-02 0.00000E+00
 -1       720 2.18750E-02 1.87500E-02 0.00000E+00
 -1       721 2.29167E-02 1.87500E-02 0.00000E+00
 -1       722 2.39583E-02 1.87500E-02 0.00000E+00
 -1       723 2.50000E-02 1.87500E-02 0.00000E+00
 -1       724 2.60417E-02 1.87500E-02 0.00000E+00
 -1       725 2.70833E-02 1.87500E-02 0.00000E+00
 -1       726 2.81250E-02 1.87500E-02 0.00000E+00
 -1       727 2.91667E-02 1.87500E-02 0.00000E+00
 -1       728 3.02083E-02 1.87500E-02 0.00000E+00
 -1       729 3.12500E-02 1.87500E-02 0.00000E+00
 -1       730 3.22917E-02 1.87500E-02 0.00000E+00
 -1       731 1.66667E-02 1.97917E-02 0.00000E+00
 -1       732 1.66667E-02 2.08333E-02 0.00000E+00
 -1       733 1.66667E-02 2.18750E-02 0.00000E+00
 -1       734 1.66667E-02 2.29167E-02 0.00000E+00
 -1       735 1.66667E-02 2.39583E-02 0.00000E+00
 -1       736 1.77083E-02 1.91406E-02 0.00000E+00
 -1       737 1.87500E-02 1.95312E-02 0.00000E+00
 -1       738 1.97917E-02 1.99219E-02 0.00000E+00
 -1       739 2.08333E-02 2.03125E-02 0.00000E+00
 -1       740 2.18750E-02 2.07031E-02 0.00000E+00
 -1       741 2.29167E-02 2.10938E-02 0.00000E+00
 -1       742 2.39583E-02 2.14844E-02 0.00000E+00
 -1       743 2.50000E-02 2.18750E-02 0.00000E+00
 -1       744 2.60417E-02 2.22656E-02 0.00000E+00
 -1       745 2.70833E-02 2.26563E-02 0.00000E+00
 -1       746 2.81250E-02 2.30469E-02 0.00000E+00
 -1       747 2.91667E-02 2.34375E-02 0.00000E+00
 -1       748 3.02083E-02 2.38281E-02 0.00000E+00
 -1       749 3.12500E-02 2.42187E-02 0.00000E+00
 -1       750 3.22917E-02 2.46094E-02 0.00000E+00
 -1       751 3.43750E-02 1.87500E-02 0.00000E+00
 -1       752 3.54167E-02 1.87500E-02 0.00000E+00
 -1       753 3.64583E-02 1.87500E-02 0.00000E+00
 -1       754 3.75000E-02 1.87500E-02 0.00000E+00
 -1       755 3.85417E-02 1.87500E-02 0.00000E+00
 -1       756 3.95833E-02 1.87500E-02 0.00000E+00
 -1       757 4.06250E-02 1.87500E-02 0.00000E+00
 -1       758 4.16667E-02 1.87500E-02 0.00000E+00
 -1       759 4.27083E-02 1.87500E-02 0.00000E+00
 -1       760 4.37500E-02 1.87500E-02 0.00000E+00
 -1       761 4.47917E-02 1.87500E-02 0.00000E+00
 -1       762 4.58333E-02 1.87500E-02 0.00000E+00
 -1       763 4.68750E-02 1.87500E-02 0.00000E+00
 -1       764 4.79167E-02 1.87500E-02 0.00000E+00
 -1       765 4.89583E-02 1.87500E-02 0.00000E+00
 -1       766 3.33333E-02 1.97917E-02 0.00000E+00
 -1       767 3.33333E-02 2.08333E-02 0.00000E+00
 -1       768 3.33333E-02 2.18750E-02 0.00000E+00
 -1       769 3.33333E-02 2.29167E-02 0.00000E+00
 -1       770 3.33333E-02 2.39583E-02 0.00000E+00
 -1       771 3.43750E-02 1.91406E-02 0.00000E+00
 -1       772 3.54167E-02 1.95312E-02 0.00000E+00
 -1       773 3.64583E-02 1.99219E-02 0.00000E+00
 -1       774 3.75000E-02 2.03125E-02 0.00000E+00
 -1       775 3.85417E-02 2.07031E-02 0.00000E+00
 -1       776 3.95833E-02 2.10938E-02 0.00000E+00
 -1       777 4.06250E-02 2.14844E-02 0.00000E+00
 -1       778 4.16667E-02 2.18750E-02 0.00000E+00
 -1       779 4.27083E-02 2.22656E-02 0.00000E+00
 -1       780 4.37500E-02 2.26563E-02 0.00000E+00
 -1       781 4.47917E-02 2.30469E-02 0.00000E+00
 -1       782 4.58333E-02 2.34375E-02 0.00000E+00
 -1       783 4.68750E-02 2.38281E-02 0.00000E+00
 -1       784 4.79167E-02 2.42187E-02 0.00000E+00
 -1       785 4.89583E-02 2.46094E-02 0.00000E+00
 -1       786 5.10417E-02 1.87500E-02 0.00000E+00
 -1       787 5.20833E-02 1.87500E-02 0.00000E+00
 -1       788 5.31250E-02 1.87500E-02 0.00000E+00
 -1       789 5.41667E-02 1.87500E-02 0.00000E+00
 -1       790 5.52083E-02 1.87500E-02 0.00000E+00
 -1       791 5.62500E-02 1.87500E-02 0.00000E+00
 -1       792 5.72917E-02 1.87500E-02 0.00000E+00
 -1       793 5.83333E-02 1.87500E-02 0.00000E+00
 -1       794 5.93750E-02 1.87500E-02 0.00000E+00
 -1       795 6.04167E-02 1.87500E-02 0.00000E+00
 -1       796 6.14583E-02 1.87500E-02 0.00000E+00
 -1       797 6.25000E-02 1.87500E-02 0.00000E+00
 -1       798 6.35417E-02 1.87500E-02 0.00000E+00
 -1       799 6.45833E-02 1.87500E-02 0.00000E+00
 -1       800 6.56250E-02 1.87500E-02 0.00000E+00
 -1       801 5.00000E-02 1.97917E-02 0.00000E+00
 -1       802 5.00000E-02 2.08333E-02 0.00000E+00
 -1       803 5.00000E-02 2.18750E-02 0.00000E+00
 -1       804 5.00000E-02 2.29167E-02 0.00000E+00
 -1       805 5.00000E-02 2.39583E-02 0.00000E+00
 -1       806 5.10417E-02 1.91406E-02 0.00000E+00
 -1       807 5.20833E-02 1.95312E-02 0.00000E+00
 -1       808 5.31250E-02 1.99219E-02 0.00000E+00
 -1       809 5.41667E-02 2.03125E-02 0.00000E+00
 -1       810 5.52083E-02 2.07031E-02 0.00000E+00
 -1       811 5.62500E-02 2.10938E-02 0.00000E+00
 -1       812 5.72917E-02 2.14844E-02 0.00000E+00
 -1       813 5.83333E-02 2.18750E-02 0.00000E+00
 -1       814 5.93750E-02 2.22656E-02 0.00000E+00
 -1       815 6.04167E-02 2.26563E-02 0.00000E+00
 -1       816 6.14583E-02 2.30469E-02 0.00000E+00
 -1       817 6.25000E-02 2.34375E-02 0.00000E+00
 -1       818 6.35417E-02 2.38281E-02 0.00000E+00
 -1       819 6.45833E-02 2.42187E-02 0.00000E+00
 -1       820 6.56250E-02 2.46094E-02 0.00000E+00
 -1       821 6.77083E-02 1.87500E-02 0.00000E+00
 -1       822 6.87500E-02 1.87500E-02 0.00000E+00
 -1       823 6.97917E-02 1.87500E-02 0.00000E+00
 -1       824 7.08333E-02 1.87500E-02 0.00000E+00
 -1       825 7.18750E-02 1.87500E-02 0.00000E+00
 -1       826 7.29167E-02 1.87500E-02 0.00000E+00
 -1       827 7.39583E-02 1.87500E-02 0.00000E+00
 -1       828 7.50000E-02 1.87500E-02 0.00000E+00
 -1       829 7.60417E-02 1.87500E-02 0.00000E+00
 -1       830 7.70833E-02 1.87500E-02 0.00000E+00
 -1       831 7.81250E-02 1.87500E-02 0.00000E+00
 -1       832 7.91667E-02 1.87500E-02 0.00000E+00
 -1       833 8.02083E-02 1.87500E-02 0.00000E+00
 -1       834 8.12500E-02 1.87500E-02 0.00000E+00
 -1       835 8.22917E-02 1.87500E-02 0.00000E+00
 -1       836 6.66667E-02 1.97917E-02 0.00000E+00
 -1       837 6.66667E-02 2.08333E-02 0.00000E+00
 -1       838 6.66667E-02 2.18750E-02 0.00000E+00
 -1       839 6.66667E-02 2.29167E-02 0.00000E+00
 -1       840 6.66667E-02 2.39583E-02 0.00000E+00
 -1       841 6.77083E-02 1.91406E-02 0.00000E+00
 -1       842 6.87500E-02 1.95312E-02 0.00000E+00
 -1       843 6.97917E-02 1.99219E-02 0.00000E+00
 -1       844 7.08333E-02 2.03125E-02 0.00000E+00
 -1       845 7.18750E-02 2.07031E-02 0.00000E+00
 -1       846 7.29167E-02 2.10938E-02 0.00000E+00
 -1       847 7.39583E-02 2.14844E-02 0.00000E+00
 -1       848 7.50000E-02 2.18750E-02 0.00000E+00
 -1       849 7.60417E-02 2.22656E-02 0.00000E+00
 -1       850 7.70833E-02 2.26563E-02 0.00000E+00
 -1       851 7.81250E-02 2.30469E-02 0.00000E+00
 -1       852 7.91667E-02 2.34375E-02 0.00000E+00
 -1       853 8.02083E-02 2.38281E-02 0.00000E+00
 -1       854 8.12500E-02 2.42187E-02 0.00000E+00
 -1       855 8.22917E-02 2.46094E-02 0.00000E+00
 -1       856 8.43750E-02 1.87500E-02 0.00000E+00
 -1       857 8.54167E-02 1.87500E-02 0.00000E+00
 -1       858 8.64583E-02 1.87500E-02 0.00000E+00
 -1       859 8.75000E-02 1.87500E-02 0.00000E+00
 -1       860 8.85417E-02 1.87500E-02 0.00000E+00
 -1       861 8.95833E-02 1.87500E-02 0.00000E+00
 -1       862 9.06250E-02 1.87500E-02 0.00000E+00
 -1       863 9.16667E-02 1.87500E-02 0.00000E+00
 -1       864 9.27083E-02 1.87500E-02 0.00000E+00
 -1       865 9.37500E-02 1.87500E-02 0.00000E+00
 -1       866 9.47917E-02 1.87500E-02 0.00000E+00
 -1       867 9.58333E-02 1.87500E-02 0.00000E+00
 -1       868 9.68750E-02 1.87500E-02 0.00000E+00
 -1       869 9.79167E-02 1.87500E-02 0.00000E+00
 -1       870 9.89583E-02 1.87500E-02 0.00000E+00
 -1       871 8.33333E-02 1.97917E-02 0.00000E+00
 -1       872 8.33333E-02 2.08333E-02 0.00000E+00
 -1       873 8.33333E-02 2.18750E-02 0.00000E+00
 -1       874 8.33333E-02 2.29167E-02 0.00000E+00
 -1       875 8.33333E-02 2.39583E-02 0.00000E+00
 -1       876 8.43750E-02 1.91406E-02 0.00000E+00
 -1       877 8.54167E-02 1.95312E-02 0.00000E+00
 -1       878 8.64583E-02 1.99219E-02 0.00000E+00
 -1       879 8.75000E-02 2.03125E-02 0.00000E+00
 -1       880 8.85417E-02 2.07031E-02 0.00000E+00
 -1       881 8.95833E-02 2.10938E-02 0.00000E+00
 -1       882 9.06250E-02 2.14844E-02 0.00000E+00
 -1       883 9.16667E-02 2.18750E-02 0.00000E+00
 -1       884 9.27083E-02 2.22656E-02 0.00000E+00
 -1       885 9.37500E-02 2.26563E-02 0.00000E+00
 -1       886 9.47917E-02 2.30469E-02 0.00000E+00
 -1       887 9.58333E-02 2.34375E-02 0.00000E+00
 -1       888 9.68750E-02 2.38281E-02 0.00000E+00
 -1       889 9.79167E-02 2.42187E-02 0.00000E+00
 -1       890 9.89583E-02 2.46094E-02 0.00000E+00
 -1       891 1.00000E-01 1.97917E-02 0.00000E+00
 -1       892 1.00000E-01 2.08333E-02 0.00000E+00
 -1       893 1.00000E-01 2.18750E-02 0.00000E+00
 -1       894 1.00000E-01 2.29167E-02 0.00000E+00
 -1       895 1.00000E-01 2.39583E-02 0.00000E+00
 -1       896 1.04167E-03 2.50000E-02 0.00000E+00
 -1       897 2.08333E-03 2.50000E-02 0.00000E+00
 -1       898 3.12500E-03 2.50000E-02 0.00000E+00
 -1       899 4.16667E-03 2.50000E-02 0.00000E+00
 -1       900 5.20833E-03 2.50000E-02 0.00000E+00
 -1       901 6.25000E-03 2.50000E-02 0.00000E+00
 -1       902 7.29167E-03 2.50000E-02 0.00000E+00
 -1       903 8.33333E-03 2.50000E-02 0.00000E+00
 -1       904 9.37500E-03 2.50000E-02 0.00000E+00
 -1       905 1.04167E-02 2.50000E-02 0.00000E+00
 -1       906 1.14583E-02 2.50000E-02 0.00000E+00
 -1       907 1.25000E-02 2.50000E-02 0.00000E+00
 -1       908 1.35417E-02 2.50000E-02 0.00000E+00
 -1       909 1.45833E-02 2.50000E-02 0.00000E+00
 -1       910 1.56250E-02 2.50000E-02 0.00000E+00
 -1       911 1.77083E-02 2.50000E-02 0.00000E+00
 -1       912 1.87500E-02 2.50000E-02 0.00000E+00
 -1       913 1.97917E-02 2.50000E-02 0.00000E+00
 -1       914 2.08333E-02 2.50000E-02 0.00000E+00
 -1       915 2.18750E-02 2.50000E-02 0.00000E+00
 -1       916 2.29167E-02 2.50000E-02 0.00000E+00
 -1       917 2.39583E-02 2.50000E-02 0.00000E+00
 -1       918 2.50000E-02 2.50000E-02 0.00000E+00
 -1       919 2.60417E-02 2.50000E-02 0.00000E+00
 -1       920 2.70833E-02 2.50000E-02 0.00000E+00
 -1       921 2.81250E-02 2.50000E-02 0.00000E+00
 -1       922 2.91667E-02 2.50000E-02 0.00000E+00
 -1       923 3.02083E-02 2.50000E-02 0.00000E+00
 -1       924 3.12500E-02 2.50000E-02 0.00000E+00
 -1       925 3.22917E-02 2.50000E-02 0.00000E+00
 -1       926 3.43750E-02 2.50000E-02 0.00000E+00
 -1       927 3.54167E-02 2.50000E-02 0.00000E+00
 -1       928 3.64583E-02 2.50000E-02 0.00000E+00
 -1       929 3.75000E-02 2.50000E-02 0.00000E+00
 -1       930 3.85417E-02 2.50000E-02 0.00000E+00
 -1       931 3.95833E-02 2.50000E-02 0.00000E+00
 -1       932 4.06250E-02 2.50000E-02 0.00000E+00
 -1       933 4.16667E-02 2.50000E-02 0.00000E+00
 -1       934 4.27083E-02 2.50000E-02 0.00000E+00
 -1       935 4.37500E-02 2.50000E-02 0.00000E+00
 -1       936 4.47917E-02 2.50000E-02 0.00000E+00
 -1       937 4.58333E-02 2.50000E-02 0.00000E+00
 -1       938 4.68750E-02 2.50000E-02 0.00000E+00
 -1       939 4.79167E-02 2.50000E-02 0.00000E+00
 -1       940 4.89583E-02 2.50000E-02 0.00000E+00
 -1       941 5.10417E-02 2.50000E-02 0.00000E+00
 -1       942 5.20833E-02 2.50000E-02 0.00000E+00
 -1       943 5.31250E-02 2.50000E-02 0.00000E+00
 -1       944 5.41667E-02 2.50000E-02 0.00000E+00
 -1       945 5.52083E-02 2.50000E-02 0.00000E+00
 -1       946 5.62500E-02 2.50000E-02 0.00000E+00
 -1       947 5.72917E-02 2.50000E-02 0.00000E+00
 -1       948 5.83333E-02 2.50000E-02 0.00000E+00
 -1       949 5.93750E-02 2.50000E-02 0.00000E+00
 -1       950 6.04167E-02 2.50000E-02 0.00000E+00
 -1       951 6.14583E-02 2.50000E-02 0.00000E+00
 -1       952 6.25000E-02 2.50000E-02 0.00000E+00
 -1       953 6.35417E-02 2.50000E-02 0.00000E+00
 -1       954 6.45833E-02 2.50000E-02 0.00000E+00
 -1       955 6.56250E-02 2.50000E-02 0.00000E+00
 -1       956 6.77083E-02 2.50000E-02 0.00000E+00
 -1       957 6.87500E-02 2.50000E-02 0.00000E+00
 -1       958 6.97917E-02 2.50000E-02 0.00000E+00
 -1       959 7.08333E-02 2.50000E-02 0.00000E+00
 -1       960 7.18750E-02 2.50000E-02 0.00000E+00
 -1       961 7.29167E-02 2.50000E-02 0.00000E+00
 -1       962 7.39583E-02 2.50000E-02 0.00000E+00
 -1       963 7.50000E-02 2.50000E-02 0.00000E+00
 -1       964 7.60417E-02 2.50000E-02 0.00000E+00
 -1       965 7.70833E-02 2.50000E-02 0.00000E+00
 -1       966 7.81250E-02 2.50000E-02 0.00000E+00
 -1       967 7.91667E-02 2.50000E-02 0.00000E+00
 -1       968 8.02083E-02 2.50000E-02 0.00000E+00
 -1       969 8.12500E-02 2.50000E-02 0.00000E+00
 -1       970 8.22917E-02 2.50000E-02 0.00000E+00
 -1       971 8.43750E-02 2.50000E-02 0.00000E+00
 -1       972 8.54167E-02 2.50000E-02 0.00000E+00
 -1       973 8.64583E-02 2.50000E-02 0.00000E+00
 -1       974 8.75000E-02 2.50000E-02 0.00000E+00
 -1       975 8.85417E-02 2.50000E-02 0.00000E+00
 -1       976 8.95833E-02 2.50000E-02 0.00000E+00
 -1       977 9.06250E-02 2.50000E-02 0.00000E+00
 -1       978 9.16667E-02 2.50000E-02 0.00000E+00
 -1       979 9.27083E-02 2.50000E-02 0.00000E+00
 -1       980 9.37500E-02 2.50000E-02 0.00000E+00
 -1       981 9.47917E-02 2.50000E-02 0.00000E+00
 -1       982 9.58333E-02 2.50000E-02 0.00000E+00
 -1       983 9.68750E-02 2.50000E-02 0.00000E+00
 -1       984 9.79167E-02 2.50000E-02 0.00000E+00
 -1       985 9.89583E-02 2.50000E-02 0.00000E+00
 -3
    3C                           440                                     1
 -1         1   12    0    1
 -2         1        37        36
 -1         2   12    0    1
 -2        37        39        38
 -1         3   12    0    1
 -2        39        41        40
 -1         4   12    0    1
 -2        41        43        42
 -1         5   12    0    1
 -2        43        45        44
 -1         6   12    0    1
 -2        45        47        46
 -1         7   12    0    1
 -2        47        49        48
 -1         8   12    0    1
 -2        49         2        50
 -1         9   12    0    1
 -2         1        52        51
 -1        10   12    0    1
 -2        52        54        53
 -1        11   12    0    1
 -2        54         8        55
 -1        12   12    0    1
 -2         1        57        56
 -1        13   12    0    1
 -2        57        59        58
 -1        14   12    0    1
 -2        59        61        60
 -1        15   12    0    1
 -2        61        63        62
 -1        16   12    0    1
 -2        63        65        64
 -1        17   12    0    1
 -2        65        67        66
 -1        18   12    0    1
 -2        67        69        68
 -1        19   12    0    1
 -2        69         9        70
 -1        20   12    0    1
 -2         2        72        71
 -1        21   12    0    1
 -2        72        74        73
 -1        22   12    0    1
 -2        74        76        75
 -1        23   12    0    1
 -2        76        78        77
 -1        24   12    0    1
 -2        78        80        79
 -1        25   12    0    1
 -2        80        82        81
 -1        26   12    0    1
 -2        82        84        83
 -1        27   12    0    1
 -2        84         3        85
 -1        28   12    0    1
 -2         2        87        86
 -1        29   12    0    1
 -2        87        89        88
 -1        30   12    0    1
 -2        89         9        90
 -1        31   12    0    1
 -2         2        92        91
 -1        32   12    0    1
 -2        92        94        93
 -1        33   12    0    1
 -2        94        96        95
 -1        34   12    0    1
 -2        96        98        97
 -1        35   12    0    1
 -2        98       100        99
 -1        36   12    0    1
 -2       100       102       101
 -1        37   12    0    1
 -2       102       104       103
 -1        38   12    0    1
 -2       104        10       105
 -1        39   12    0    1
 -2         3       107       106
 -1        40   12    0    1
 -2       107       109       108
 -1        41   12    0    1
 -2       109       111       110
 -1        42   12    0    1
 -2       111       113       112
 -1        43   12    0    1
 -2       113       115       114
 -1        44   12    0    1
 -2       115       117       116
 -1        45   12    0    1
 -2       117       119       118
 -1        46   12    0    1
 -2       119         4       120
 -1        47   12    0    1
 -2         3       122       121
 -1        48   12    0    1
 -2       122       124       123
 -1        49   12    0    1
 -2       124        10       125
 -1        50   12    0    1
 -2         3       127       126
 -1        51   12    0    1
 -2       127       129       128
 -1        52   12    0    1
 -2       129       131       130
 -1        53   12    0    1
 -2       131       133       132
 -1        54   12    0    1
 -2       133       135       134
 -1        55   12    0    1
 -2       135       137       136
 -1        56   12    0    1
 -2       137       139       138
 -1        57   12    0    1
 -2       139        11       140
 -1        58   12    0    1
 -2         4       142       141
 -1        59   12    0    1
 -2       142       144       143
 -1        60   12    0    1
 -2       144       146       145
 -1        61   12    0    1
 -2       146       148       147
 -1        62   12    0    1
 -2       148       150       149
 -1        63   12    0    1
 -2       150       152       151
 -1        64   12    0    1
 -2       152       154       153
 -1        65   12    0    1
 -2       154         5       155
 -1        66   12    0    1
 -2         4       157       156
 -1        67   12    0    1
 -2       157       159       158
 -1        68   12    0    1
 -2       159        11       160
 -1        69   12    0    1
 -2         4       162       161
 -1        70   12    0    1
 -2       162       164       163
 -1        71   12    0    1
 -2       164       166       165
 -1        72   12    0    1
 -2       166       168       167
 -1        73   12    0    1
 -2       168       170       169
 -1        74   12    0    1
 -2       170       172       171
 -1        75   12    0    1
 -2       172       174       173
 -1        76   12    0    1
 -2       174        12       175
 -1        77   12    0    1
 -2         5       192       191
 -1        78   12    0    1
 -2       192       194       193
 -1        79   12    0    1
 -2       194        12       195
 -1        80   12    0    1
 -2         8       252       251
 -1        81   12    0    1
 -2       252       254       253
 -1        82   12    0    1
 -2       254       256       255
 -1        83   12    0    1
 -2       256       258       257
 -1        84   12    0    1
 -2       258       260       259
 -1        85   12    0    1
 -2       260       262       261
 -1        86   12    0    1
 -2       262       264       263
 -1        87   12    0    1
 -2       264         9       265
 -1        88   12    0    1
 -2         8       267       266
 -1        89   12    0    1
 -2       267       269       268
 -1        90   12    0    1
 -2       269        15       270
 -1        91   12    0    1
 -2         8       272       271
 -1        92   12    0    1
 -2       272       274       273
 -1        93   12    0    1
 -2       274       276       275
 -1        94   12    0    1
 -2       276       278       277
 -1        95   12    0    1
 -2       278       280       279
 -1        96   12    0    1
 -2       280       282       281
 -1        97   12    0    1
 -2       282       284       283
 -1        98   12    0    1
 -2       284        16       285
 -1        99   12    0    1
 -2         9       287       286
 -1       100   12    0    1
 -2       287       289       288
 -1       101   12    0    1
 -2       289       291       290
 -1       102   12    0    1
 -2       291       293       292
 -1       103   12    0    1
 -2       293       295       294
 -1       104   12    0    1
 -2       295       297       296
 -1       105   12    0    1
 -2       297       299       298
 -1       106   12    0    1
 -2       299        10       300
 -1       107   12    0    1
 -2         9       302       301
 -1       108   12    0    1
 -2       302       304       303
 -1       109   12    0    1
 -2       304        16       305
 -1       110   12    0    1
 -2         9       307       306
 -1       111   12    0    1
 -2       307       309       308
 -1       112   12    0    1
 -2       309       311       310
 -1       113   12    0    1
 -2       311       313       312
 -1       114   12    0    1
 -2       313       315       314
 -1       115   12    0    1
 -2       315       317       316
 -1       116   12    0    1
 -2       317       319       318
 -1       117   12    0    1
 -2       319        17       320
 -1       118   12    0    1
 -2        10       322       321
 -1       119   12    0    1
 -2       322       324       323
 -1       120   12    0    1
 -2       324       326       325
 -1       121   12    0    1
 -2       326       328       327
 -1       122   12    0    1
 -2       328       330       329
 -1       123   12    0    1
 -2       330       332       331
 -1       124   12    0    1
 -2       332       334       333
 -1       125   12    0    1
 -2       334        11       335
 -1       126   12    0    1
 -2        10       337       336
 -1       127   12    0    1
 -2       337       339       338
 -1       128   12    0    1
 -2       339        17       340
 -1       129   12    0    1
 -2        10       342       341
 -1       130   12    0    1
 -2       342       344       343
 -1       131   12    0    1
 -2       344       346       345
 -1       132   12    0    1
 -2       346       348       347
 -1       133   12    0    1
 -2       348       350       349
 -1       134   12    0    1
 -2       350       352       351
 -1       135   12    0    1
 -2       352       354       353
 -1       136   12    0    1
 -2       354        18       355
 -1       137   12    0    1
 -2        11       357       356
 -1       138   12    0    1
 -2       357       359       358
 -1       139   12    0    1
 -2       359       361       360
 -1       140   12    0    1
 -2       361       363       362
 -1       141   12    0    1
 -2       363       365       364
 -1       142   12    0    1
 -2       365       367       366
 -1       143   12    0    1
 -2       367       369       368
 -1       144   12    0    1
 -2       369        12       370
 -1       145   12    0    1
 -2        11       372       371
 -1       146   12    0    1
 -2       372       374       373
 -1       147   12    0    1
 -2       374        18       375
 -1       148   12    0    1
 -2        11       377       376
 -1       149   12    0    1
 -2       377       379       378
 -1       150   12    0    1
 -2       379       381       380
 -1       151   12    0    1
 -2       381       383       382
 -1       152   12    0    1
 -2       383       385       384
 -1       153   12    0    1
 -2       385       387       386
 -1       154   12    0    1
 -2       387       389       388
 -1       155   12    0    1
 -2       389        19       390
 -1       156   12    0    1
 -2        12       407       406
 -1       157   12    0    1
 -2       407       409       408
 -1       158   12    0    1
 -2       409        19       410
 -1       159   12    0    1
 -2        15       467       466
 -1       160   12    0    1
 -2       467       469       468
 -1       161   12    0    1
 -2       469       471       470
 -1       162   12    0    1
 -2       471       473       472
 -1       163   12    0    1
 -2       473       475       474
 -1       164   12    0    1
 -2       475       477       476
 -1       165   12    0    1
 -2       477       479       478
 -1       166   12    0    1
 -2       479        16       480
 -1       167   12    0    1
 -2        15       482       481
 -1       168   12    0    1
 -2       482       484       483
 -1       169   12    0    1
 -2       484        22       485
 -1       170   12    0    1
 -2        15       487       486
 -1       171   12    0    1
 -2       487       489       488
 -1       172   12    0    1
 -2       489       491       490
 -1       173   12    0    1
 -2       491       493       492
 -1       174   12    0    1
 -2       493       495       494
 -1       175   12    0    1
 -2       495       497       496
 -1       176   12    0    1
 -2       497       499       498
 -1       177   12    0    1
 -2       499        23       500
 -1       178   12    0    1
 -2        16       502       501
 -1       179   12    0    1
 -2       502       504       503
 -1       180   12    0    1
 -2       504       506       505
 -1       181   12    0    1
 -2       506       508       507
 -1       182   12    0    1
 -2       508       510       509
 -1       183   12    0    1
 -2       510       512       511
 -1       184   12    0    1
 -2       512       514       513
 -1       185   12    0    1
 -2       514        17       515
 -1       186   12    0    1
 -2        16       517       516
 -1       187   12    0    1
 -2       517       519       518
 -1       188   12    0    1
 -2       519        23       520
 -1       189   12    0    1
 -2        16       522       521
 -1       190   12    0    1
 -2       522       524       523
 -1       191   12    0    1
 -2       524       526       525
 -1       192   12    0    1
 -2       526       528       527
 -1       193   12    0    1
 -2       528       530       529
 -1       194   12    0    1
 -2       530       532       531
 -1       195   12    0    1
 -2       532       534       533
 -1       196   12    0    1
 -2       534        24       535
 -1       197   12    0    1
 -2        17       537       536
 -1       198   12    0    1
 -2       537       539       538
 -1       199   12    0    1
 -2       539       541       540
 -1       200   12    0    1
 -2       541       543       542
 -1       201   12    0    1
 -2       543       545       544
 -1       202   12    0    1
 -2       545       547       546
 -1       203   12    0    1
 -2       547       549       548
 -1       204   12    0    1
 -2       549        18       550
 -1       205   12    0    1
 -2        17       552       551
 -1       206   12    0    1
 -2       552       554       553
 -1       207   12    0    1
 -2       554        24       555
 -1       208   12    0    1
 -2        17       557       556
 -1       209   12    0    1
 -2       557       559       558
 -1       210   12    0    1
 -2       559       561       560
 -1       211   12    0    1
 -2       561       563       562
 -1       212   12    0    1
 -2       563       565       564
 -1       213   12    0    1
 -2       565       567       566
 -1       214   12    0    1
 -2       567       569       568
 -1       215   12    0    1
 -2       569        25       570
 -1       216   12    0    1
 -2        18       572       571
 -1       217   12    0    1
 -2       572       574       573
 -1       218   12    0    1
 -2       574       576       575
 -1       219   12    0    1
 -2       576       578       577
 -1       220   12    0    1
 -2       578       580       579
 -1       221   12    0    1
 -2       580       582       581
 -1       222   12    0    1
 -2       582       584       583
 -1       223   12    0    1
 -2       584        19       585
 -1       224   12    0    1
 -2        18       587       586
 -1       225   12    0    1
 -2       587       589       588
 -1       226   12    0    1
 -2       589        25       590
 -1       227   12    0    1
 -2        18       592       591
 -1       228   12    0    1
 -2       592       594       593
 -1       229   12    0    1
 -2       594       596       595
 -1       230   12    0    1
 -2       596       598       597
 -1       231   12    0    1
 -2       598       600       599
 -1       232   12    0    1
 -2       600       602       601
 -1       233   12    0    1
 -2       602       604       603
 -1       234   12    0    1
 -2       604        26       605
 -1       235   12    0    1
 -2        19       607       606
 -1       236   12    0    1
 -2       607       609       608
 -1       237   12    0    1
 -2       609       611       610
 -1       238   12    0    1
 -2       611       613       612
 -1       239   12    0    1
 -2       613       615       614
 -1       240   12    0    1
 -2       615       617       616
 -1       241   12    0    1
 -2       617       619       618
 -1       242   12    0    1
 -2       619        20       620
 -1       243   12    0    1
 -2        19       622       621
 -1       244   12    0    1
 -2       622       624       623
 -1       245   12    0    1
 -2       624        26       625
 -1       246   12    0    1
 -2        19       627       626
 -1       247   12    0    1
 -2       627       629       628
 -1       248   12    0    1
 -2       629       631       630
 -1       249   12    0    1
 -2       631       633       632
 -1       250   12    0    1
 -2       633       635       634
 -1       251   12    0    1
 -2       635       637       636
 -1       252   12    0    1
 -2       637       639       638
 -1       253   12    0    1
 -2       639        27       640
 -1       254   12    0    1
 -2        20       642       641
 -1       255   12    0    1
 -2       642       644       643
 -1       256   12    0    1
 -2       644       646       645
 -1       257   12    0    1
 -2       646       648       647
 -1       258   12    0    1
 -2       648       650       649
 -1       259   12    0    1
 -2       650       652       651
 -1       260   12    0    1
 -2       652       654       653
 -1       261   12    0    1
 -2       654        21       655
 -1       262   12    0    1
 -2        20       657       656
 -1       263   12    0    1
 -2       657       659       658
 -1       264   12    0    1
 -2       659        27       660
 -1       265   12    0    1
 -2        20       662       661
 -1       266   12    0    1
 -2       662       664       663
 -1       267   12    0    1
 -2       664       666       665
 -1       268   12    0    1
 -2       666       668       667
 -1       269   12    0    1
 -2       668       670       669
 -1       270   12    0    1
 -2       670       672       671
 -1       271   12    0    1
 -2       672       674       673
 -1       272   12    0    1
 -2       674        28       675
 -1       273   12    0    1
 -2        21       677       676
 -1       274   12    0    1
 -2       677       679       678
 -1       275   12    0    1
 -2       679        28       680
 -1       276   12    0    1
 -2        22       682       681
 -1       277   12    0    1
 -2       682       684       683
 -1       278   12    0    1
 -2       684       686       685
 -1       279   12    0    1
 -2       686       688       687
 -1       280   12    0    1
 -2       688       690       689
 -1       281   12    0    1
 -2       690       692       691
 -1       282   12    0    1
 -2       692       694       693
 -1       283   12    0    1
 -2       694        23       695
 -1       284   12    0    1
 -2        22       697       696
 -1       285   12    0    1
 -2       697       699       698
 -1       286   12    0    1
 -2       699        29       700
 -1       287   12    0    1
 -2        22       702       701
 -1       288   12    0    1
 -2       702       704       703
 -1       289   12    0    1
 -2       704       706       705
 -1       290   12    0    1
 -2       706       708       707
 -1       291   12    0    1
 -2       708       710       709
 -1       292   12    0    1
 -2       710       712       711
 -1       293   12    0    1
 -2       712       714       713
 -1       294   12    0    1
 -2       714        30       715
 -1       295   12    0    1
 -2        23       717       716
 -1       296   12    0    1
 -2       717       719       718
 -1       297   12    0    1
 -2       719       721       720
 -1       298   12    0    1
 -2       721       723       722
 -1       299   12    0    1
 -2       723       725       724
 -1       300   12    0    1
 -2       725       727       726
 -1       301   12    0    1
 -2       727       729       728
 -1       302   12    0    1
 -2       729        24       730
 -1       303   12    0    1
 -2        23       732       731
 -1       304   12    0    1
 -2       732       734       733
 -1       305   12    0    1
 -2       734        30       735
 -1       306   12    0    1
 -2        23       737       736
 -1       307   12    0    1
 -2       737       739       738
 -1       308   12    0    1
 -2       739       741       740
 -1       309   12    0    1
 -2       741       743       742
 -1       310   12    0    1
 -2       743       745       744
 -1       311   12    0    1
 -2       745       747       746
 -1       312   12    0    1
 -2       747       749       748
 -1       313   12    0    1
 -2       749        31       750
 -1       314   12    0    1
 -2        24       752       751
 -1       315   12    0    1
 -2       752       754       753
 -1       316   12    0    1
 -2       754       756       755
 -1       317   12    0    1
 -2       756       758       757
 -1       318   12    0    1
 -2       758       760       759
 -1       319   12    0    1
 -2       760       762       761
 -1       320   12    0    1
 -2       762       764       763
 -1       321   12    0    1
 -2       764        25       765
 -1       322   12    0    1
 -2        24       767       766
 -1       323   12    0    1
 -2       767       769       768
 -1       324   12    0    1
 -2       769        31       770
 -1       325   12    0    1
 -2        24       772       771
 -1       326   12    0    1
 -2       772       774       773
 -1       327   12    0    1
 -2       774       776       775
 -1       328   12    0    1
 -2       776       778       777
 -1       329   12    0    1
 -2       778       780       779
 -1       330   12    0    1
 -2       780       782       781
 -1       331   12    0    1
 -2       782       784       783
 -1       332   12    0    1
 -2       784        32       785
 -1       333   12    0    1
 -2        25       787       786
 -1       334   12    0    1
 -2       787       789       788
 -1       335   12    0    1
 -2       789       791       790
 -1       336   12    0    1
 -2       791       793       792
 -1       337   12    0    1
 -2       793       795       794
 -1       338   12    0    1
 -2       795       797       796
 -1       339   12    0    1
 -2       797       799       798
 -1       340   12    0    1
 -2       799        26       800
 -1       341   12    0    1
 -2        25       802       801
 -1       342   12    0    1
 -2       802       804       803
 -1       343   12    0    1
 -2       804        32       805
 -1       344   12    0    1
 -2        25       807       806
 -1       345   12    0    1
 -2       807       809       808
 -1       346   12    0    1
 -2       809       811       810
 -1       347   12    0    1
 -2       811       813       812
 -1       348   12    0    1
 -2       813       815       814
 -1       349   12    0    1
 -2       815       817       816
 -1       350   12    0    1
 -2       817       819       818
 -1       351   12    0    1
 -2       819        33       820
 -1       352   12    0    1
 -2        26       822       821
 -1       353   12    0    1
 -2       822       824       823
 -1       354   12    0    1
 -2       824       826       825
 -1       355   12    0    1
 -2       826       828       827
 -1       356   12    0    1
 -2       828       830       829
 -1       357   12    0    1
 -2       830       832       831
 -1       358   12    0    1
 -2       832       834       833
 -1       359   12    0    1
 -2       834        27       835
 -1       360   12    0    1
 -2        26       837       836
 -1       361   12    0    1
 -2       837       839       838
 -1       362   12    0    1
 -2       839        33       840
 -1       363   12    0    1
 -2        26       842       841
 -1       364   12    0    1
 -2       842       844       843
 -1       365   12    0    1
 -2       844       846       845
 -1       366   12    0    1
 -2       846       848       847
 -1       367   12    0    1
 -2       848       850       849
 -1       368   12    0    1
 -2       850       852       851
 -1       369   12    0    1
 -2       852       854       853
 -1       370   12    0    1
 -2       854        34       855
 -1       371   12    0    1
 -2        27       857       856
 -1       372   12    0    1
 -2       857       859       858
 -1       373   12    0    1
 -2       859       861       860
 -1       374   12    0    1
 -2       861       863       862
 -1       375   12    0    1
 -2       863       865       864
 -1       376   12    0    1
 -2       865       867       866
 -1       377   12    0    1
 -2       867       869       868
 -1       378   12    0    1
 -2       869        28       870
 -1       379   12    0    1
 -2        27       872       871
 -1       380   12    0    1
 -2       872       874       873
 -1       381   12    0    1
 -2       874        34       875
 -1       382   12    0    1
 -2        27       877       876
 -1       383   12    0    1
 -2       877       879       878
 -1       384   12    0    1
 -2       879       881       880
 -1       385   12    0    1
 -2       881       883       882
 -1       386   12    0    1
 -2       883       885       884
 -1       387   12    0    1
 -2       885       887       886
 -1       388   12    0    1
 -2       887       889       888
 -1       389   12    0    1
 -2       889        35       890
 -1       390   12    0    1
 -2        28       892       891
 -1       391   12    0    1
 -2       892       894       893
 -1       392   12    0    1
 -2       894        35       895
 -1       393   12    0    1
 -2        29       897       896
 -1       394   12    0    1
 -2       897       899       898
 -1       395   12    0    1
 -2       899       901       900
 -1       396   12    0    1
 -2       901       903       902
 -1       397   12    0    1
 -2       903       905       904
 -1       398   12    0    1
 -2       905       907       906
 -1       399   12    0    1
 -2       907       909       908
 -1       400   12    0    1
 -2       909        30       910
 -1       401   12    0    1
 -2        30       912       911
 -1       402   12    0    1
 -2       912       914       913
 -1       403   12    0    1
 -2       914       916       915
 -1       404   12    0    1
 -2       916       918       917
 -1       405   12    0    1
 -2       918       920       919
 -1       406   12    0    1
 -2       920       922       921
 -1       407   12    0    1
 -2       922       924       923
 -1       408   12    0    1
 -2       924        31       925
 -1       409   12    0    1
 -2        31       927       926
 -1       410   12    0    1
 -2       927       929       928
 -1       411   12    0    1
 -2       929       931       930
 -1       412   12    0    1
 -2       931       933       932
 -1       413   12    0    1
 -2       933       935       934
 -1       414   12    0    1
 -2       935       937       936
 -1       415   12    0    1
 -2       937       939       938
 -1       416   12    0    1
 -2       939        32       940
 -1       417   12    0    1
 -2        32       942       941
 -1       418   12    0    1
 -2       942       944       943
 -1       419   12    0    1
 -2       944       946       945
 -1       420   12    0    1
 -2       946       948       947
 -1       421   12    0    1
 -2       948       950       949
 -1       422   12    0    1
 -2       950       952       951
 -1       423   12    0    1
 -2       952       954       953
 -1       424   12    0    1
 -2       954        33       955
 -1       425   12    0    1
 -2        33       957       956
 -1       426   12    0    1
 -2       957       959       958
 -1       427   12    0    1
 -2       959       961       960
 -1       428   12    0    1
 -2       961       963       962
 -1       429   12    0    1
 -2       963       965       964
 -1       430   12    0    1
 -2       965       967       966
 -1       431   12    0    1
 -2       967       969       968
 -1       432   12    0    1
 -2       969        34       970
 -1       433   12    0    1
 -2        34       972       971
 -1       434   12    0    1
 -2       972       974       973
 -1       435   12    0    1
 -2       974       976       975
 -1       436   12    0    1
 -2       976       978       977
 -1       437   12    0    1
 -2       978       980       979
 -1       438   12    0    1
 -2       980       982       981
 -1       439   12    0    1
 -2       982       984       983
 -1       440   12    0    1
 -2       984        35       985
 -3
    1PSTEP                         1           1           1          
  100CL  101 1.000000000         841                     0    1           1
 -4  DISP        4    1
 -5  D1          1    2    1    0
 -5  D2          1    2    2    0
 -5  D3          1    2    3    0
 -5  ALL         1    2    0    0    1ALL
 -1         1 1.17162E-04 0.00000E+00 0.00000E+00
 -1         2 8.93165E-05 0.00000E+00 0.00000E+00
 -1         3 7.69271E-05 0.00000E+00 0.00000E+00
 -1         4 7.19670E-05 0.00000E+00 0.00000E+00
 -1         5 7.08521E-05 0.00000E+00 0.00000E+00
 -1         8 8.98531E-05-1.05267E-06 0.00000E+00
 -1         9 7.89457E-05 1.66468E-06 0.00000E+00
 -1        10 7.26439E-05-6.82538E-06 0.00000E+00
 -1        11 6.83644E-05-1.51588E-06 0.00000E+00
 -1        12 6.63578E-05 2.66603E-06 0.00000E+00
 -1        15 3.24790E-05-2.24821E-06 0.00000E+00
 -1        16 4.37342E-05 1.83693E-06 0.00000E+00
 -1        17 4.32130E-05-1.35030E-05 0.00000E+00
 -1        18 5.00819E-05-2.78129E-06 0.00000E+00
 -1        19 5.45220E-05 5.22582E-06 0.00000E+00
 -1        20 5.54672E-05 5.60204E-05 0.00000E+00
 -1        21 5.53044E-05 1.42063E-04 0.00000E+00
 -1        22 1.21092E-05-1.40653E-06 0.00000E+00
 -1        23 1.58147E-05 2.43193E-06 0.00000E+00
 -1        24 1.79755E-05-1.44569E-05 0.00000E+00
 -1        25 3.55949E-05-2.42783E-06 0.00000E+00
 -1        26 4.38635E-05 6.62836E-06 0.00000E+00
 -1        27 3.83227E-05 5.39142E-05 0.00000E+00
 -1        28 3.17045E-05 1.40041E-04 0.00000E+00
 -1        29 0.00000E+00 0.00000E+00 0.00000E+00
 -1        30 6.11811E-06 2.91798E-06 0.00000E+00
 -1        31 8.44622E-06-1.29956E-05 0.00000E+00
 -1        32 0.00000E+00 0.00000E+00 0.00000E+00
 -1        33 2.37660E-05 1.29756E-05 0.00000E+00
 -1        34 2.24057E-05 5.38342E-05 0.00000E+00
 -1        35 1.48537E-05 1.38988E-04 0.00000E+00
 -1        36 1.15474E-04-4.70500E-21 0.00000E+00
 -1        37 1.13734E-04-2.22247E-20 0.00000E+00
 -1        38 1.11996E-04-7.87807E-21 5.29396E-23
 -1        39 1.10249E-04 4.31854E-20-2.64698E-23
 -1        40 1.08501E-04 7.57069E-20-5.29396E-23
 -1        41 1.06752E-04 1.31952E-19 0.00000E+00
 -1        42 1.05002E-04 1.92187E-19 5.29396E-23
 -1        43 1.03252E-04 2.16609E-19 0.00000E+00
 -1        44 1.01502E-04 2.56631E-19 0.00000E+00
 -1        45 9.97521E-05 2.45795E-19 0.00000E+00
 -1        46 9.80024E-05 2.15672E-19-5.29396E-23
 -1        47 9.62540E-05 1.74356E-19 2.64698E-23
 -1        48 9.45060E-05 1.23369E-19-5.29396E-23
 -1        49 9.27647E-05 6.37690E-20 0.00000E+00
 -1        50 9.10215E-05 1.70796E-20 0.00000E+00
 -1        51 1.15264E-04-1.81300E-07 0.00000E+00
 -1        52 1.11928E-04-3.50531E-07 0.00000E+00
 -1        53 1.07431E-04-5.19272E-07 0.00000E+00
 -1        54 1.02060E-04-6.90413E-07 0.00000E+00
 -1        55 9.61042E-05-8.65839E-07 4.96308E-24
 -1        56 1.15317E-04-1.14331E-06-5.29396E-23
 -1        57 1.13673E-04-3.02511E-06-2.64698E-23
 -1        58 1.12226E-04-5.42468E-06 0.00000E+00
 -1        59 1.10881E-04-8.12944E-06 2.64698E-23
 -1        60 1.09557E-04-1.08931E-05 5.29396E-23
 -1        61 1.08161E-04-1.34714E-05 0.00000E+00
 -1        62 1.06610E-04-1.56340E-05 0.00000E+00
 -1        63 1.04824E-04-1.71698E-05 2.64698E-23
 -1        64 1.02743E-04-1.79180E-05 5.29396E-23
 -1        65 1.00320E-04-1.77525E-05 0.00000E+00
 -1        66 9.75329E-05-1.66208E-05 0.00000E+00
 -1        67 9.43795E-05-1.45125E-05 0.00000E+00
 -1        68 9.08830E-05-1.14966E-05 0.00000E+00
 -1        69 8.70956E-05-7.67733E-06 0.00000E+00
 -1        70 8.30658E-05-3.23312E-06 0.00000E+00
 -1        71 8.85396E-05-2.53117E-21 0.00000E+00
 -1        72 8.77647E-05-1.16980E-20 1.32349E-23
 -1        73 8.69896E-05 6.44705E-21 0.00000E+00
 -1        74 8.62149E-05 2.02626E-20 1.32349E-23
 -1        75 8.54403E-05 3.64423E-20 2.64698E-23
 -1        76 8.46657E-05 5.34077E-20 1.32349E-23
 -1        77 8.38912E-05 5.47660E-20 0.00000E+00
 -1        78 8.31166E-05 6.20617E-20 0.00000E+00
 -1        79 8.23421E-05 2.77006E-20 2.64698E-23
 -1        80 8.15676E-05 1.87985E-20-1.32349E-23
 -1        81 8.07931E-05 2.97967E-20 0.00000E+00
 -1        82 8.00187E-05 4.47439E-20 0.00000E+00
 -1        83 7.92445E-05 4.30779E-20 2.64698E-23
 -1        84 7.84708E-05 1.53657E-20 0.00000E+00
 -1        85 7.76970E-05 6.81266E-21 2.64698E-23
 -1        86 8.93372E-05 2.46168E-07-6.61744E-24
 -1        87 8.91853E-05 5.37452E-07 1.03398E-25
 -1        88 8.84696E-05 8.25879E-07 0.00000E+00
 -1        89 8.67953E-05 1.11673E-06 0.00000E+00
 -1        90 8.37581E-05 1.40622E-06-1.65436E-24
 -1        91 8.83185E-05-5.14817E-07-2.64698E-23
 -1        92 8.73956E-05-1.25939E-06-1.32349E-23
 -1        93 8.65403E-05-2.18312E-06 0.00000E+00
 -1        94 8.57316E-05-3.23590E-06 0.00000E+00
 -1        95 8.49497E-05-4.36092E-06-2.64698E-23
 -1        96 8.41730E-05-5.50035E-06 0.00000E+00
 -1        97 8.33797E-05-6.59577E-06-2.64698E-23
 -1        98 8.25485E-05-7.58991E-06 0.00000E+00
 -1        99 8.16594E-05-8.42950E-06 0.00000E+00
 -1       100 8.06938E-05-9.06479E-06 0.00000E+00
 -1       101 7.96362E-05-9.45449E-06 0.00000E+00
 -1       102 7.84733E-05-9.56280E-06 1.32349E-23
 -1       103 7.71958E-05-9.36564E-06 0.00000E+00
 -1       104 7.57985E-05-8.84529E-06 0.00000E+00
 -1       105 7.42778E-05-7.99849E-06-2.64698E-23
 -1       106 7.66002E-05-7.25231E-21 0.00000E+00
 -1       107 7.62886E-05-3.56928E-21 0.00000E+00
 -1       108 7.59763E-05-2.68437E-20-1.32349E-23
 -1       109 7.56666E-05-8.58456E-20 0.00000E+00
 -1       110 7.53571E-05-1.15594E-19 0.00000E+00
 -1       111 7.50481E-05-1.14526E-19 6.61744E-24
 -1       112 7.47392E-05-9.95173E-20 0.00000E+00
 -1       113 7.44304E-05-6.65450E-20 0.00000E+00
 -1       114 7.41217E-05-5.98225E-20-6.61744E-24
 -1       115 7.38130E-05-3.99710E-20 0.00000E+00
 -1       116 7.35044E-05-4.69673E-21-6.61744E-24
 -1       117 7.31958E-05-4.61898E-21 0.00000E+00
 -1       118 7.28874E-05 1.04382E-20-6.61744E-24
 -1       119 7.25795E-05 1.53905E-20 0.00000E+00
 -1       120 7.22715E-05 8.96912E-21-6.61744E-24
 -1       121 7.68554E-05-1.12334E-06 2.64698E-23
 -1       122 7.66027E-05-2.26539E-06 0.00000E+00
 -1       123 7.61067E-05-3.40646E-06 0.00000E+00
 -1       124 7.53106E-05-4.54895E-06 1.32349E-23
 -1       125 7.41688E-05-5.69261E-06-2.64698E-23
 -1       126 7.64445E-05-2.60755E-07 0.00000E+00
 -1       127 7.60162E-05-6.43843E-07-6.61744E-24
 -1       128 7.56229E-05-1.12135E-06 1.32349E-23
 -1       129 7.52542E-05-1.66079E-06-6.61744E-24
 -1       130 7.48964E-05-2.22945E-06 0.00000E+00
 -1       131 7.45374E-05-2.79377E-06 6.61744E-24
 -1       132 7.41643E-05-3.32056E-06 0.00000E+00
 -1       133 7.37649E-05-3.77691E-06 0.00000E+00
 -1       134 7.33272E-05-4.13127E-06-1.32349E-23
 -1       135 7.28400E-05-4.35319E-06-6.61744E-24
 -1       136 7.22927E-05-4.41481E-06-1.32349E-23
 -1       137 7.16757E-05-4.28991E-06 0.00000E+00
 -1       138 7.09802E-05-3.95609E-06 1.32349E-23
 -1       139 7.01999E-05-3.39270E-06 0.00000E+00
 -1       140 6.93272E-05-2.58458E-06 0.00000E+00
 -1       141 7.18885E-05-1.21444E-20-3.30872E-24
 -1       142 7.18162E-05-1.07380E-20 1.65436E-24
 -1       143 7.17436E-05 1.15276E-20 3.30872E-24
 -1       144 7.16721E-05 1.64398E-20-1.65436E-24
 -1       145 7.16006E-05-3.81909E-21 1.65436E-24
 -1       146 7.15294E-05 1.49786E-20 0.00000E+00
 -1       147 7.14582E-05 4.54887E-21 0.00000E+00
 -1       148 7.13871E-05-8.30324E-21 0.00000E+00
 -1       149 7.13161E-05-9.60543E-21-1.65436E-24
 -1       150 7.12452E-05-9.97745E-21 8.27181E-25
 -1       151 7.11744E-05 1.03362E-20 0.00000E+00
 -1       152 7.11043E-05 2.92836E-20 0.00000E+00
 -1       153 7.10344E-05 3.45611E-20 0.00000E+00
 -1       154 7.09679E-05 2.14404E-20-8.27181E-25
 -1       155 7.09004E-05 1.57462E-20 0.00000E+00
 -1       156 7.18929E-05-2.50406E-07 0.00000E+00
 -1       157 7.16516E-05-5.02177E-07 0.00000E+00
 -1       158 7.12096E-05-7.54008E-07 6.61744E-24
 -1       159 7.05345E-05-1.00674E-06 0.00000E+00
 -1       160 6.95958E-05-1.25954E-06 0.00000E+00
 -1       161 7.17278E-05-1.33705E-07 6.61744E-24
 -1       162 7.15118E-05-3.33625E-07 3.30872E-24
 -1       163 7.13118E-05-5.76218E-07 6.61744E-24
 -1       164 7.11190E-05-8.38336E-07 0.00000E+00
 -1       165 7.09246E-05-1.09642E-06-6.61744E-24
 -1       166 7.07199E-05-1.32702E-06 3.30872E-24
 -1       167 7.04962E-05-1.50700E-06 0.00000E+00
 -1       168 7.02450E-05-1.61349E-06 3.30872E-24
 -1       169 6.99579E-05-1.62435E-06 0.00000E+00
 -1       170 6.96271E-05-1.51791E-06 3.30872E-24
 -1       171 6.92446E-05-1.27377E-06 0.00000E+00
 -1       172 6.88039E-05-8.71996E-07 0.00000E+00
 -1       173 6.82975E-05-2.94705E-07-6.61744E-24
 -1       174 6.77231E-05 4.76814E-07 0.00000E+00
 -1       175 6.70691E-05 1.45561E-06 1.65436E-24
 -1       191 7.07019E-05 4.43334E-07 1.32349E-23
 -1       192 7.03048E-05 8.88791E-07 0.00000E+00
 -1       193 6.96651E-05 1.33458E-06-2.64698E-23
 -1       194 6.87894E-05 1.78009E-06 0.00000E+00
 -1       195 6.76842E-05 2.22470E-06-1.32349E-23
 -1       251 8.91763E-05 3.27700E-06 0.00000E+00
 -1       252 8.84934E-05 5.93974E-06-6.61744E-24
 -1       253 8.78138E-05 7.12392E-06 0.00000E+00
 -1       254 8.71329E-05 7.03838E-06-1.32349E-23
 -1       255 8.64513E-05 5.92055E-06 0.00000E+00
 -1       256 8.57682E-05 4.02197E-06 1.32349E-23
 -1       257 8.50840E-05 1.61181E-06-2.64698E-23
 -1       258 8.43991E-05-1.03374E-06 0.00000E+00
 -1       259 8.37144E-05-3.63328E-06 0.00000E+00
 -1       260 8.30306E-05-5.90593E-06-1.32349E-23
 -1       261 8.23479E-05-7.57822E-06 2.64698E-23
 -1       262 8.16667E-05-8.38492E-06 0.00000E+00
 -1       263 8.09858E-05-8.08029E-06 0.00000E+00
 -1       264 8.03062E-05-6.43383E-06 0.00000E+00
 -1       265 7.96222E-05-3.24514E-06 1.32349E-23
 -1       266 8.28184E-05-1.24122E-06 0.00000E+00
 -1       267 7.28985E-05-1.44267E-06 0.00000E+00
 -1       268 6.14966E-05-1.65903E-06 0.00000E+00
 -1       269 5.00210E-05-1.87355E-06 1.65436E-24
 -1       270 3.98806E-05-2.07489E-06 0.00000E+00
 -1       271 8.57282E-05 2.66943E-06-5.29396E-23
 -1       272 8.19783E-05 5.14191E-06 0.00000E+00
 -1       273 7.87049E-05 6.36806E-06 5.29396E-23
 -1       274 7.58736E-05 6.37632E-06 0.00000E+00
 -1       275 7.34401E-05 5.32357E-06-5.29396E-23
 -1       276 7.13232E-05 3.41719E-06 2.64698E-23
 -1       277 6.94162E-05 9.48159E-07 5.29396E-23
 -1       278 6.75993E-05-1.76335E-06-2.64698E-23
 -1       279 6.57445E-05-4.37365E-06 0.00000E+00
 -1       280 6.37262E-05-6.54428E-06-2.64698E-23
 -1       281 6.14331E-05-7.97974E-06-5.29396E-23
 -1       282 5.87712E-05-8.42285E-06 0.00000E+00
 -1       283 5.56763E-05-7.71303E-06 0.00000E+00
 -1       284 5.21244E-05-5.74460E-06 0.00000E+00
 -1       285 4.81003E-05-2.54519E-06 0.00000E+00
 -1       286 7.85470E-05 6.63832E-06 0.00000E+00
 -1       287 7.81525E-05 1.00093E-05-6.61744E-24
 -1       288 7.77618E-05 1.19314E-05 1.32349E-23
 -1       289 7.73724E-05 1.25704E-05 6.61744E-24
 -1       290 7.69831E-05 1.21083E-05 0.00000E+00
 -1       291 7.65929E-05 1.07358E-05 0.00000E+00
 -1       292 7.62016E-05 8.65538E-06-1.32349E-23
 -1       293 7.58091E-05 6.07498E-06 0.00000E+00
 -1       294 7.54159E-05 3.20906E-06 1.32349E-23
 -1       295 7.50223E-05 2.74320E-07 6.61744E-24
 -1       296 7.46290E-05-2.51174E-06 0.00000E+00
 -1       297 7.42359E-05-4.93268E-06 0.00000E+00
 -1       298 7.38438E-05-6.77683E-06 0.00000E+00
 -1       299 7.34494E-05-7.83704E-06 0.00000E+00
 -1       300 7.30565E-05-7.91631E-06-1.32349E-23
 -1       301 7.30922E-05 1.67940E-06 3.30872E-24
 -1       302 6.72230E-05 1.71065E-06-8.27181E-25
 -1       303 6.13452E-05 1.74561E-06 0.00000E+00
 -1       304 5.54662E-05 1.78124E-06 0.00000E+00
 -1       305 4.95935E-05 1.81468E-06 0.00000E+00
 -1       306 7.47556E-05 6.13802E-06 5.29396E-23
 -1       307 7.09096E-05 9.46358E-06-2.64698E-23
 -1       308 6.75462E-05 1.15285E-05 5.29396E-23
 -1       309 6.46769E-05 1.22432E-05 2.64698E-23
 -1       310 6.22995E-05 1.16478E-05 5.29396E-23
 -1       311 6.03732E-05 9.84099E-06-2.64698E-23
 -1       312 5.88216E-05 7.03012E-06 0.00000E+00
 -1       313 5.75484E-05 3.47075E-06 0.00000E+00
 -1       314 5.64336E-05-5.14733E-07 0.00000E+00
 -1       315 5.53500E-05-4.58299E-06 0.00000E+00
 -1       316 5.41675E-05-8.38409E-06-5.29396E-23
 -1       317 5.27627E-05-1.15802E-05 2.64698E-23
 -1       318 5.10273E-05-1.38884E-05-5.29396E-23
 -1       319 4.88843E-05-1.50637E-05 0.00000E+00
 -1       320 4.62605E-05-1.49721E-05 0.00000E+00
 -1       321 7.23499E-05-5.32148E-06 0.00000E+00
 -1       322 7.20804E-05-4.23374E-06-6.61744E-24
 -1       323 7.18100E-05-3.51151E-06 0.00000E+00
 -1       324 7.15441E-05-3.10214E-06 0.00000E+00
 -1       325 7.12786E-05-2.95025E-06 0.00000E+00
 -1       326 7.10138E-05-2.99909E-06 0.00000E+00
 -1       327 7.07493E-05-3.19011E-06 0.00000E+00
 -1       328 7.04848E-05-3.46405E-06-3.30872E-24
 -1       329 7.02204E-05-3.76089E-06-6.61744E-24
 -1       330 6.99560E-05-4.02052E-06 0.00000E+00
 -1       331 6.96917E-05-4.18312E-06 0.00000E+00
 -1       332 6.94272E-05-4.18942E-06 0.00000E+00
 -1       333 6.91627E-05-3.98149E-06-6.61744E-24
 -1       334 6.88977E-05-3.50256E-06 0.00000E+00
 -1       335 6.86326E-05-2.69824E-06 6.61744E-24
 -1       336 6.97226E-05-7.93049E-06 0.00000E+00
 -1       337 6.48489E-05-9.05216E-06 0.00000E+00
 -1       338 5.88787E-05-1.01782E-05 0.00000E+00
 -1       339 5.26927E-05-1.13014E-05 1.32349E-23
 -1       340 4.71798E-05-1.24227E-05-2.64698E-23
 -1       341 7.09004E-05-5.66071E-06 0.00000E+00
 -1       342 6.92412E-05-4.75876E-06-1.32349E-23
 -1       343 6.76760E-05-4.10428E-06-2.64698E-23
 -1       344 6.61956E-05-3.68193E-06 0.00000E+00
 -1       345 6.47919E-05-3.46407E-06 0.00000E+00
 -1       346 6.34526E-05-3.41883E-06-1.32349E-23
 -1       347 6.21632E-05-3.50637E-06-2.64698E-23
 -1       348 6.09074E-05-3.68363E-06 1.32349E-23
 -1       349 5.96676E-05-3.90338E-06 0.00000E+00
 -1       350 5.84259E-05-4.11728E-06 1.32349E-23
 -1       351 5.71643E-05-4.27754E-06 0.00000E+00
 -1       352 5.58667E-05-4.33718E-06-1.32349E-23
 -1       353 5.45160E-05-4.25461E-06 0.00000E+00
 -1       354 5.31058E-05-3.98831E-06 0.00000E+00
 -1       355 5.16136E-05-3.51205E-06 1.32349E-23
 -1       356 6.82272E-05-3.29159E-07 0.00000E+00
 -1       357 6.80987E-05 4.87618E-07-3.30872E-24
 -1       358 6.79699E-05 9.85279E-07-3.30872E-24
 -1       359 6.78427E-05 1.21549E-06 0.00000E+00
 -1       360 6.77157E-05 1.23105E-06 0.00000E+00
 -1       361 6.75889E-05 1.08531E-06 1.65436E-24
 -1       362 6.74622E-05 8.32300E-07 0.00000E+00
 -1       363 6.73355E-05 5.26315E-07-1.65436E-24
 -1       364 6.72090E-05 2.21876E-07 0.00000E+00
 -1       365 6.70825E-05-2.64958E-08 0.00000E+00
 -1       366 6.69563E-05-1.64515E-07-3.30872E-24
 -1       367 6.68307E-05-1.38183E-07 0.00000E+00
 -1       368 6.67054E-05 1.05816E-07 1.65436E-24
 -1       369 6.65836E-05 6.20227E-07 0.00000E+00
 -1       370 6.64606E-05 1.45672E-06 0.00000E+00
 -1       371 6.62446E-05-1.73153E-06 0.00000E+00
 -1       372 6.29732E-05-1.94471E-06 3.30872E-24
 -1       373 5.91347E-05-2.15981E-06 0.00000E+00
 -1       374 5.53160E-05-2.37226E-06 0.00000E+00
 -1       375 5.21037E-05-2.58315E-06 0.00000E+00
 -1       376 6.72938E-05-5.19125E-07 0.00000E+00
 -1       377 6.63237E-05 1.72990E-07 0.00000E+00
 -1       378 6.54522E-05 6.05104E-07 0.00000E+00
 -1       379 6.46600E-05 8.19547E-07 0.00000E+00
 -1       380 6.39309E-05 8.65708E-07 0.00000E+00
 -1       381 6.32455E-05 7.94389E-07 6.61744E-24
 -1       382 6.25839E-05 6.59512E-07-2.64698E-23
 -1       383 6.19256E-05 5.15735E-07 0.00000E+00
 -1       384 6.12501E-05 4.17986E-07 0.00000E+00
 -1       385 6.05371E-05 4.20623E-07-6.61744E-24
 -1       386 5.97671E-05 5.75360E-07 1.32349E-23
 -1       387 5.89225E-05 9.32210E-07 0.00000E+00
 -1       388 5.79855E-05 1.53569E-06 1.32349E-23
 -1       389 5.69460E-05 2.42936E-06 0.00000E+00
 -1       390 5.57831E-05 3.64484E-06 0.00000E+00
 -1       406 6.46922E-05 3.09401E-06 0.00000E+00
 -1       407 6.28507E-05 3.52397E-06 0.00000E+00
 -1       408 6.08722E-05 3.95392E-06 0.00000E+00
 -1       409 5.87975E-05 4.38277E-06 0.00000E+00
 -1       410 5.66672E-05 4.80916E-06-1.32349E-23
 -1       466 3.31458E-05 2.38230E-06-1.32349E-23
 -1       467 3.38498E-05 5.16148E-06 0.00000E+00
 -1       468 3.45555E-05 6.41219E-06 0.00000E+00
 -1       469 3.52673E-05 6.43537E-06-1.32349E-23
 -1       470 3.59792E-05 5.50293E-06 2.64698E-23
 -1       471 3.66912E-05 3.87300E-06 0.00000E+00
 -1       472 3.74027E-05 1.78718E-06 0.00000E+00
 -1       473 3.81138E-05-5.19482E-07 1.32349E-23
 -1       474 3.88249E-05-2.81727E-06 0.00000E+00
 -1       475 3.95363E-05-4.87627E-06 0.00000E+00
 -1       476 4.02483E-05-6.46089E-06 2.64698E-23
 -1       477 4.09598E-05-7.32875E-06 0.00000E+00
 -1       478 4.16711E-05-7.22041E-06-1.32349E-23
 -1       479 4.23749E-05-5.86242E-06 0.00000E+00
 -1       480 4.30771E-05-2.95173E-06 0.00000E+00
 -1       481 2.72775E-05-2.12084E-06 0.00000E+00
 -1       482 2.29210E-05-1.98225E-06 1.65436E-24
 -1       483 1.93160E-05-1.84115E-06-3.30872E-24
 -1       484 1.63709E-05-1.69707E-06 1.65436E-24
 -1       485 1.39975E-05-1.55129E-06 0.00000E+00
 -1       486 2.97619E-05 2.57718E-06-1.32349E-23
 -1       487 2.74065E-05 6.35227E-06 0.00000E+00
 -1       488 2.54339E-05 9.12265E-06 2.64698E-23
 -1       489 2.38165E-05 1.09361E-05 0.00000E+00
 -1       490 2.25282E-05 1.18758E-05 0.00000E+00
 -1       491 2.15310E-05 1.20381E-05-1.32349E-23
 -1       492 2.07796E-05 1.15450E-05-2.64698E-23
 -1       493 2.02236E-05 1.05297E-05 0.00000E+00
 -1       494 1.98067E-05 9.14246E-06 0.00000E+00
 -1       495 1.94704E-05 7.53998E-06 0.00000E+00
 -1       496 1.91535E-05 5.88598E-06 0.00000E+00
 -1       497 1.87951E-05 4.34528E-06-1.32349E-23
 -1       498 1.83345E-05 3.07862E-06-2.64698E-23
 -1       499 1.77176E-05 2.24373E-06-1.32349E-23
 -1       500 1.68847E-05 1.98062E-06-1.32349E-23
 -1       501 4.36866E-05 6.62336E-06 0.00000E+00
 -1       502 4.36539E-05 9.47429E-06 0.00000E+00
 -1       503 4.36242E-05 1.06377E-05 1.65436E-24
 -1       504 4.35965E-05 1.03626E-05 8.27181E-25
 -1       505 4.35680E-05 8.89967E-06 0.00000E+00
 -1       506 4.35381E-05 6.49990E-06 4.13590E-25
 -1       507 4.35064E-05 3.41530E-06 8.27181E-25
 -1       508 4.34734E-05-1.01817E-07 0.00000E+00
 -1       509 4.34398E-05-3.79871E-06 0.00000E+00
 -1       510 4.34064E-05-7.42251E-06 4.13590E-25
 -1       511 4.33740E-05-1.07205E-05 0.00000E+00
 -1       512 4.33430E-05-1.34402E-05-4.13590E-25
 -1       513 4.33135E-05-1.53293E-05 1.65436E-24
 -1       514 4.32837E-05-1.61364E-05 1.65436E-24
 -1       515 4.32544E-05-1.56109E-05 0.00000E+00
 -1       516 3.77943E-05 1.92158E-06 1.65436E-24
 -1       517 3.18380E-05 2.01935E-06-4.13590E-25
 -1       518 2.62624E-05 2.11836E-06 0.00000E+00
 -1       519 2.14654E-05 2.22159E-06 0.00000E+00
 -1       520 1.78483E-05 2.33018E-06 0.00000E+00
 -1       521 4.01178E-05 6.32846E-06-2.64698E-23
 -1       522 3.69780E-05 9.37318E-06 0.00000E+00
 -1       523 3.43921E-05 1.09640E-05 0.00000E+00
 -1       524 3.23349E-05 1.11185E-05 2.64698E-23
 -1       525 3.07697E-05 9.96063E-06 0.00000E+00
 -1       526 2.96295E-05 7.65966E-06 0.00000E+00
 -1       527 2.88227E-05 4.46398E-06 0.00000E+00
 -1       528 2.82435E-05 6.55160E-07-2.64698E-23
 -1       529 2.77719E-05-3.44303E-06-5.29396E-23
 -1       530 2.72837E-05-7.49583E-06-2.64698E-23
 -1       531 2.66557E-05-1.11719E-05 0.00000E+00
 -1       532 2.57713E-05-1.41534E-05-2.64698E-23
 -1       533 2.45278E-05-1.61711E-05 0.00000E+00
 -1       534 2.28463E-05-1.69883E-05-2.64698E-23
 -1       535 2.06550E-05-1.64580E-05 2.64698E-23
 -1       536 4.36099E-05-1.08643E-05-3.30872E-24
 -1       537 4.40372E-05-8.83431E-06 0.00000E+00
 -1       538 4.44641E-05-7.32672E-06 0.00000E+00
 -1       539 4.48965E-05-6.25958E-06 0.00000E+00
 -1       540 4.53297E-05-5.55736E-06 1.32349E-23
 -1       541 4.57640E-05-5.14769E-06 0.00000E+00
 -1       542 4.61985E-05-4.96245E-06 0.00000E+00
 -1       543 4.66333E-05-4.93548E-06 0.00000E+00
 -1       544 4.70681E-05-5.00290E-06 0.00000E+00
 -1       545 4.75027E-05-5.10167E-06-6.61744E-24
 -1       546 4.79373E-05-5.16919E-06 0.00000E+00
 -1       547 4.83714E-05-5.14260E-06 6.61744E-24
 -1       548 4.88052E-05-4.95767E-06 0.00000E+00
 -1       549 4.92360E-05-4.54879E-06 6.61744E-24
 -1       550 4.96675E-05-3.84712E-06 0.00000E+00
 -1       551 3.94299E-05-1.36634E-05-1.65436E-24
 -1       552 3.52755E-05-1.38196E-05 2.94683E-24
 -1       553 3.08996E-05-1.39755E-05-6.61744E-24
 -1       554 2.64556E-05-1.41321E-05-3.30872E-24
 -1       555 2.20972E-05-1.42904E-05 0.00000E+00
 -1       556 4.20737E-05-1.10677E-05-1.32349E-23
 -1       557 4.11264E-05-9.12959E-06 0.00000E+00
 -1       558 4.03479E-05-7.63657E-06 0.00000E+00
 -1       559 3.97162E-05-6.53150E-06 0.00000E+00
 -1       560 3.92090E-05-5.75695E-06-1.32349E-23
 -1       561 3.88043E-05-5.25493E-06 0.00000E+00
 -1       562 3.84803E-05-4.96736E-06 0.00000E+00
 -1       563 3.82150E-05-4.83605E-06 0.00000E+00
 -1       564 3.79866E-05-4.80280E-06-6.61744E-24
 -1       565 3.77731E-05-4.80937E-06-3.30872E-24
 -1       566 3.75527E-05-4.79753E-06 3.30872E-24
 -1       567 3.73037E-05-4.70903E-06 2.48154E-24
 -1       568 3.70043E-05-4.48567E-06 6.20385E-24
 -1       569 3.66330E-05-4.06941E-06-2.48154E-24
 -1       570 3.61688E-05-3.40231E-06-3.30872E-24
 -1       571 5.03451E-05-1.83113E-06-4.96308E-24
 -1       572 5.06195E-05-1.14869E-06-2.84343E-24
 -1       573 5.08969E-05-6.91378E-07 0.00000E+00
 -1       574 5.11758E-05-4.14478E-07 0.00000E+00
 -1       575 5.14552E-05-2.73145E-07 0.00000E+00
 -1       576 5.17348E-05-2.22297E-07 0.00000E+00
 -1       577 5.20146E-05-2.16853E-07 6.61744E-24
 -1       578 5.22944E-05-2.11711E-07 0.00000E+00
 -1       579 5.25742E-05-1.61765E-07-1.32349E-23
 -1       580 5.28540E-05-2.19013E-08 0.00000E+00
 -1       581 5.31337E-05 2.52998E-07 1.32349E-23
 -1       582 5.34133E-05 7.08052E-07 1.32349E-23
 -1       583 5.36925E-05 1.38837E-06 0.00000E+00
 -1       584 5.39710E-05 2.33878E-06-6.61744E-24
 -1       585 5.42484E-05 3.60396E-06 0.00000E+00
 -1       586 4.79884E-05-2.72159E-06 0.00000E+00
 -1       587 4.55563E-05-2.66085E-06 0.00000E+00
 -1       588 4.29418E-05-2.60023E-06 1.65436E-24
 -1       589 4.03042E-05-2.54019E-06 0.00000E+00
 -1       590 3.78030E-05-2.48133E-06 0.00000E+00
 -1       591 4.95350E-05-1.74653E-06 0.00000E+00
 -1       592 4.90470E-05-8.91831E-07 0.00000E+00
 -1       593 4.86149E-05-1.91008E-07-6.61744E-24
 -1       594 4.82300E-05 3.81682E-07 6.61744E-24
 -1       595 4.78832E-05 8.51976E-07 6.61744E-24
 -1       596 4.75651E-05 1.24561E-06-3.30872E-24
 -1       597 4.72660E-05 1.58832E-06-6.61744E-24
 -1       598 4.69764E-05 1.90581E-06 0.00000E+00
 -1       599 4.66866E-05 2.22384E-06-3.30872E-24
 -1       600 4.63870E-05 2.56812E-06-1.65436E-24
 -1       601 4.60679E-05 2.96438E-06-1.65436E-24
 -1       602 4.57198E-05 3.43838E-06-1.24077E-24
 -1       603 4.53332E-05 4.01585E-06-1.03398E-24
 -1       604 4.48994E-05 4.72259E-06 8.27181E-25
 -1       605 4.44099E-05 5.58447E-06 0.00000E+00
 -1       606 5.45920E-05 7.36312E-06 0.00000E+00
 -1       607 5.46554E-05 9.69883E-06 0.00000E+00
 -1       608 5.47168E-05 1.22214E-05-6.61744E-24
 -1       609 5.47770E-05 1.49179E-05 0.00000E+00
 -1       610 5.48365E-05 1.77752E-05 0.00000E+00
 -1       611 5.48955E-05 2.07800E-05 0.00000E+00
 -1       612 5.49540E-05 2.39190E-05-6.61744E-24
 -1       613 5.50121E-05 2.71791E-05 0.00000E+00
 -1       614 5.50699E-05 3.05468E-05 0.00000E+00
 -1       615 5.51273E-05 3.40089E-05-6.61744E-24
 -1       616 5.51845E-05 3.75521E-05 0.00000E+00
 -1       617 5.52415E-05 4.11632E-05 0.00000E+00
 -1       618 5.52982E-05 4.48288E-05-3.30872E-24
 -1       619 5.53548E-05 4.85357E-05 0.00000E+00
 -1       620 5.54112E-05 5.22707E-05 0.00000E+00
 -1       621 5.24858E-05 5.46016E-06-3.30872E-24
 -1       622 5.05245E-05 5.69580E-06 0.00000E+00
 -1       623 4.86601E-05 5.93166E-06 0.00000E+00
 -1       624 4.69144E-05 6.16701E-06 8.27181E-25
 -1       625 4.53088E-05 6.40093E-06-6.61744E-24
 -1       626 5.38287E-05 7.44100E-06 0.00000E+00
 -1       627 5.30515E-05 9.86645E-06 0.00000E+00
 -1       628 5.22012E-05 1.24831E-05 0.00000E+00
 -1       629 5.12863E-05 1.52693E-05 0.00000E+00
 -1       630 5.03153E-05 1.82032E-05-6.61744E-24
 -1       631 4.92968E-05 2.12628E-05 3.30872E-24
 -1       632 4.82390E-05 2.44260E-05 0.00000E+00
 -1       633 4.71504E-05 2.76707E-05 0.00000E+00
 -1       634 4.60393E-05 3.09749E-05 0.00000E+00
 -1       635 4.49140E-05 3.43165E-05 1.65436E-24
 -1       636 4.37829E-05 3.76734E-05-3.30872E-24
 -1       637 4.26542E-05 4.10235E-05 1.65436E-24
 -1       638 4.15363E-05 4.43448E-05-1.65436E-24
 -1       639 4.04370E-05 4.76151E-05-4.13590E-25
 -1       640 3.93643E-05 5.08124E-05 2.06795E-25
 -1       641 5.54667E-05 5.99674E-05 0.00000E+00
 -1       642 5.54622E-05 6.43722E-05 4.13590E-25
 -1       643 5.54560E-05 6.91773E-05-4.13590E-25
 -1       644 5.54478E-05 7.43256E-05 0.00000E+00
 -1       645 5.54381E-05 7.97599E-05 0.00000E+00
 -1       646 5.54272E-05 8.54229E-05 0.00000E+00
 -1       647 5.54153E-05 9.12576E-05 2.06795E-25
 -1       648 5.54027E-05 9.72067E-05 5.16988E-26
 -1       649 5.53897E-05 1.03213E-04-1.03398E-25
 -1       650 5.53767E-05 1.09220E-04 0.00000E+00
 -1       651 5.53640E-05 1.15169E-04 0.00000E+00
 -1       652 5.53517E-05 1.21005E-04 0.00000E+00
 -1       653 5.53403E-05 1.26669E-04 0.00000E+00
 -1       654 5.53289E-05 1.32105E-04 0.00000E+00
 -1       655 5.53192E-05 1.37256E-04 0.00000E+00
 -1       656 5.20275E-05 5.56786E-05 0.00000E+00
 -1       657 4.90284E-05 5.53218E-05 0.00000E+00
 -1       658 4.63155E-05 5.49669E-05 6.61744E-24
 -1       659 4.37321E-05 5.46120E-05 3.30872E-24
 -1       660 4.11205E-05 5.42560E-05 0.00000E+00
 -1       661 5.43988E-05 6.01318E-05 0.00000E+00
 -1       662 5.31710E-05 6.47109E-05 6.61744E-24
 -1       663 5.17957E-05 6.96756E-05-1.32349E-23
 -1       664 5.03037E-05 7.49553E-05 6.61744E-24
 -1       665 4.87176E-05 8.04823E-05 0.00000E+00
 -1       666 4.70623E-05 8.61924E-05 0.00000E+00
 -1       667 4.53605E-05 9.20247E-05 0.00000E+00
 -1       668 4.36351E-05 9.79191E-05 6.61744E-24
 -1       669 4.19084E-05 1.03817E-04-1.32349E-23
 -1       670 4.02028E-05 1.09659E-04-6.61744E-24
 -1       671 3.85409E-05 1.15386E-04 0.00000E+00
 -1       672 3.69455E-05 1.20937E-04 0.00000E+00
 -1       673 3.54412E-05 1.26248E-04 0.00000E+00
 -1       674 3.40495E-05 1.31251E-04 0.00000E+00
 -1       675 3.28025E-05 1.35877E-04-6.61744E-24
 -1       676 5.08666E-05 1.41728E-04 0.00000E+00
 -1       677 4.67463E-05 1.41388E-04 3.30872E-24
 -1       678 4.28578E-05 1.41048E-04-6.61744E-24
 -1       679 3.91139E-05 1.40710E-04-3.30872E-24
 -1       680 3.54259E-05 1.40371E-04 0.00000E+00
 -1       681 1.23355E-05 3.41547E-08-6.61744E-24
 -1       682 1.25681E-05 1.05242E-06 0.00000E+00
 -1       683 1.28007E-05 1.70878E-06 6.61744E-24
 -1       684 1.30345E-05 2.06210E-06 3.30872E-24
 -1       685 1.32684E-05 2.16886E-06 6.61744E-24
 -1       686 1.35025E-05 2.08442E-06 0.00000E+00
 -1       687 1.37367E-05 1.86264E-06 0.00000E+00
 -1       688 1.39708E-05 1.55671E-06-3.30872E-24
 -1       689 1.42048E-05 1.21920E-06 0.00000E+00
 -1       690 1.44388E-05 9.02500E-07 0.00000E+00
 -1       691 1.46727E-05 6.59184E-07 0.00000E+00
 -1       692 1.49061E-05 5.42158E-07 0.00000E+00
 -1       693 1.51393E-05 6.05319E-07 0.00000E+00
 -1       694 1.53695E-05 9.03401E-07 0.00000E+00
 -1       695 1.56004E-05 1.49297E-06-8.27181E-25
 -1       696 1.02770E-05-1.17794E-06 0.00000E+00
 -1       697 8.19257E-06-9.43766E-07-3.30872E-24
 -1       698 5.98955E-06-7.10067E-07 6.61744E-24
 -1       699 3.80092E-06-4.74770E-07-3.30872E-24
 -1       700 1.75983E-06-2.39233E-07 0.00000E+00
 -1       701 1.13148E-05 2.12515E-08 0.00000E+00
 -1       702 1.06189E-05 1.14533E-06-3.30872E-24
 -1       703 1.00260E-05 1.99775E-06 0.00000E+00
 -1       704 9.52251E-06 2.60533E-06-3.30872E-24
 -1       705 9.09916E-06 2.99922E-06-6.61744E-24
 -1       706 8.74381E-06 3.21074E-06 0.00000E+00
 -1       707 8.44433E-06 3.27320E-06 0.00000E+00
 -1       708 8.18796E-06 3.22055E-06-3.30872E-24
 -1       709 7.96160E-06 3.08786E-06 6.61744E-24
 -1       710 7.75202E-06 2.91061E-06 3.30872E-24
 -1       711 7.54575E-06 2.72471E-06-6.61744E-24
 -1       712 7.32968E-06 2.56620E-06 3.30872E-24
 -1       713 7.09011E-06 2.47067E-06 0.00000E+00
 -1       714 6.81602E-06 2.47430E-06 0.00000E+00
 -1       715 6.49138E-06 2.61036E-06 3.30872E-24
 -1       716 1.59399E-05 3.04293E-06 0.00000E+00
 -1       717 1.60779E-05 2.70568E-06-8.27181E-25
 -1       718 1.62147E-05 1.58037E-06 3.30872E-24
 -1       719 1.63529E-05-1.74911E-07 0.00000E+00
 -1       720 1.64904E-05-2.40506E-06-3.30872E-24
 -1       721 1.66275E-05-4.95625E-06 0.00000E+00
 -1       722 1.67643E-05-7.67614E-06-3.30872E-24
 -1       723 1.69011E-05-1.04129E-05 0.00000E+00
 -1       724 1.70383E-05-1.30149E-05 0.00000E+00
 -1       725 1.71759E-05-1.53297E-05 0.00000E+00
 -1       726 1.73143E-05-1.72041E-05 0.00000E+00
 -1       727 1.74530E-05-1.84833E-05 1.65436E-24
 -1       728 1.75920E-05-1.90098E-05 0.00000E+00
 -1       729 1.77274E-05-1.86239E-05-4.13590E-25
 -1       730 1.78629E-05-1.71619E-05 3.30872E-24
 -1       731 1.43879E-05 2.50393E-06 8.27181E-25
 -1       732 1.25190E-05 2.58555E-06 0.00000E+00
 -1       733 1.04827E-05 2.66638E-06 1.65436E-24
 -1       734 8.55368E-06 2.74928E-06 0.00000E+00
 -1       735 7.00700E-06 2.83292E-06-1.65436E-24
 -1       736 1.47762E-05 3.07714E-06 0.00000E+00
 -1       737 1.38779E-05 3.27909E-06 6.61744E-24
 -1       738 1.31335E-05 3.07446E-06 0.00000E+00
 -1       739 1.25251E-05 2.49527E-06-1.32349E-23
 -1       740 1.20397E-05 1.58740E-06 2.64698E-23
 -1       741 1.16579E-05 4.00279E-07 1.32349E-23
 -1       742 1.13588E-05-1.00829E-06-2.64698E-23
 -1       743 1.11195E-05-2.57735E-06-1.32349E-23
 -1       744 1.09157E-05-4.24126E-06 0.00000E+00
 -1       745 1.07223E-05-5.93291E-06-1.32349E-23
 -1       746 1.05141E-05-7.58451E-06-2.64698E-23
 -1       747 1.02664E-05-9.12861E-06 0.00000E+00
 -1       748 9.95484E-06-1.05012E-05 2.64698E-23
 -1       749 9.55973E-06-1.16396E-05-6.61744E-24
 -1       750 9.05578E-06-1.24906E-05 1.32349E-23
 -1       751 1.90133E-05-1.14880E-05 0.00000E+00
 -1       752 2.01132E-05-9.25238E-06 0.00000E+00
 -1       753 2.12114E-05-7.62165E-06 2.64698E-23
 -1       754 2.23208E-05-6.48093E-06-1.32349E-23
 -1       755 2.34314E-05-5.73349E-06 0.00000E+00
 -1       756 2.45441E-05-5.29142E-06 0.00000E+00
 -1       757 2.56573E-05-5.07816E-06-2.64698E-23
 -1       758 2.67709E-05-5.02229E-06 0.00000E+00
 -1       759 2.78844E-05-5.05825E-06 0.00000E+00
 -1       760 2.89978E-05-5.12252E-06 1.32349E-23
 -1       761 3.01108E-05-5.15266E-06 0.00000E+00
 -1       762 3.12222E-05-5.08545E-06 1.32349E-23
 -1       763 3.23330E-05-4.85406E-06 0.00000E+00
 -1       764 3.34352E-05-4.38797E-06 0.00000E+00
 -1       765 3.45395E-05-3.60798E-06 0.00000E+00
 -1       766 1.49210E-05-1.42334E-05 0.00000E+00
 -1       767 1.24873E-05-1.39838E-05 0.00000E+00
 -1       768 1.06460E-05-1.37345E-05 0.00000E+00
 -1       769 9.37187E-06-1.34833E-05 0.00000E+00
 -1       770 8.64450E-06-1.32303E-05 0.00000E+00
 -1       771 1.61420E-05-1.16195E-05 2.64698E-23
 -1       772 1.44363E-05-9.16428E-06 0.00000E+00
 -1       773 1.28612E-05-7.06456E-06 0.00000E+00
 -1       774 1.14084E-05-5.29399E-06 0.00000E+00
 -1       775 1.00693E-05-3.82623E-06-2.64698E-23
 -1       776 8.83400E-06-2.63477E-06 0.00000E+00
 -1       777 7.69259E-06-1.69297E-06 0.00000E+00
 -1       778 6.63504E-06-9.74089E-07-2.64698E-23
 -1       779 5.65123E-06-4.51291E-07 2.64698E-23
 -1       780 4.73103E-06-9.76000E-08 1.32349E-23
 -1       781 3.86430E-06 1.14013E-07 0.00000E+00
 -1       782 3.04100E-06 2.10711E-07-1.32349E-23
 -1       783 2.25113E-06 2.19724E-07-2.64698E-23
 -1       784 1.48547E-06 1.68621E-07 0.00000E+00
 -1       785 7.35212E-07 8.51276E-08 0.00000E+00
 -1       786 3.60869E-05-1.17026E-06 0.00000E+00
 -1       787 3.66035E-05-1.83687E-07 0.00000E+00
 -1       788 3.71191E-05 5.75952E-07 0.00000E+00
 -1       789 3.76391E-05 1.15033E-06 0.00000E+00
 -1       790 3.81594E-05 1.57793E-06 0.00000E+00
 -1       791 3.86806E-05 1.89569E-06 6.61744E-24
 -1       792 3.92020E-05 2.13866E-06 1.32349E-23
 -1       793 3.97235E-05 2.34107E-06 0.00000E+00
 -1       794 4.02450E-05 2.53648E-06 0.00000E+00
 -1       795 4.07665E-05 2.75835E-06 0.00000E+00
 -1       796 4.12878E-05 3.04063E-06 0.00000E+00
 -1       797 4.18085E-05 3.41787E-06-6.61744E-24
 -1       798 4.23289E-05 3.92628E-06 1.32349E-23
 -1       799 4.28461E-05 4.60346E-06 0.00000E+00
 -1       800 4.33639E-05 5.48993E-06-6.61744E-24
 -1       801 3.20695E-05-2.01966E-06 6.61744E-24
 -1       802 2.52753E-05-1.60755E-06 3.30872E-24
 -1       803 1.69471E-05-1.20723E-06 6.61744E-24
 -1       804 8.80630E-06-8.07861E-07 3.30872E-24
 -1       805 2.57693E-06-3.94439E-07 0.00000E+00
 -1       806 3.47982E-05-1.27237E-06 0.00000E+00
 -1       807 3.40338E-05-2.38144E-07 6.61744E-24
 -1       808 3.33037E-05 6.96986E-07 0.00000E+00
 -1       809 3.26018E-05 1.55326E-06 0.00000E+00
 -1       810 3.19215E-05 2.35085E-06 0.00000E+00
 -1       811 3.12554E-05 3.10979E-06 0.00000E+00
 -1       812 3.05963E-05 3.85010E-06-1.32349E-23
 -1       813 2.99367E-05 4.59176E-06 3.30872E-24
 -1       814 2.92690E-05 5.35478E-06 0.00000E+00
 -1       815 2.85858E-05 6.15914E-06-3.30872E-24
 -1       816 2.78797E-05 7.02482E-06-1.32349E-23
 -1       817 2.71432E-05 7.97180E-06 0.00000E+00
 -1       818 2.63690E-05 9.02008E-06 0.00000E+00
 -1       819 2.55508E-05 1.01897E-05 1.65436E-24
 -1       820 2.46823E-05 1.15010E-05-3.30872E-24
 -1       821 4.35379E-05 8.09349E-06 0.00000E+00
 -1       822 4.31941E-05 9.92308E-06-3.30872E-24
 -1       823 4.28506E-05 1.20889E-05 0.00000E+00
 -1       824 4.25032E-05 1.45600E-05 0.00000E+00
 -1       825 4.21550E-05 1.73025E-05-1.32349E-23
 -1       826 4.18055E-05 2.02802E-05 0.00000E+00
 -1       827 4.14554E-05 2.34542E-05 0.00000E+00
 -1       828 4.11047E-05 2.67844E-05 6.61744E-24
 -1       829 4.07536E-05 3.02291E-05 1.32349E-23
 -1       830 4.04023E-05 3.37452E-05 0.00000E+00
 -1       831 4.00510E-05 3.72895E-05 0.00000E+00
 -1       832 3.97003E-05 4.08181E-05 6.61744E-24
 -1       833 3.93500E-05 4.42874E-05 6.61744E-24
 -1       834 3.90025E-05 4.76543E-05 3.30872E-24
 -1       835 3.86549E-05 5.08769E-05-6.61744E-24
 -1       836 4.17418E-05 7.66573E-06 1.32349E-23
 -1       837 3.82966E-05 8.73902E-06 0.00000E+00
 -1       838 3.41598E-05 9.80731E-06 2.64698E-23
 -1       839 2.99479E-05 1.08743E-05-1.32349E-23
 -1       840 2.62747E-05 1.19460E-05-1.32349E-23
 -1       841 4.31129E-05 8.05110E-06 0.00000E+00
 -1       842 4.21936E-05 9.88581E-06 0.00000E+00
 -1       843 4.11330E-05 1.20968E-05 0.00000E+00
 -1       844 3.99444E-05 1.46409E-05 0.00000E+00
 -1       845 3.86463E-05 1.74742E-05 6.61744E-24
 -1       846 3.72559E-05 2.05504E-05 3.30872E-24
 -1       847 3.57915E-05 2.38219E-05 6.61744E-24
 -1       848 3.42716E-05 2.72399E-05 0.00000E+00
 -1       849 3.27151E-05 3.07544E-05-6.61744E-24
 -1       850 3.11411E-05 3.43151E-05 3.30872E-24
 -1       851 2.95688E-05 3.78714E-05 6.61744E-24
 -1       852 2.80176E-05 4.13726E-05 3.30872E-24
 -1       853 2.65063E-05 4.47684E-05 0.00000E+00
 -1       854 2.50548E-05 4.80094E-05-3.30872E-24
 -1       855 2.36800E-05 5.10465E-05 0.00000E+00
 -1       856 3.79354E-05 5.72168E-05-6.61744E-24
 -1       857 3.75285E-05 6.12187E-05 0.00000E+00
 -1       858 3.71198E-05 6.58428E-05 0.00000E+00
 -1       859 3.67056E-05 7.10071E-05-6.61744E-24
 -1       860 3.62888E-05 7.66221E-05-1.32349E-23
 -1       861 3.58695E-05 8.25948E-05 0.00000E+00
 -1       862 3.54486E-05 8.88275E-05 0.00000E+00
 -1       863 3.50266E-05 9.52203E-05 0.00000E+00
 -1       864 3.46042E-05 1.01671E-04-1.32349E-23
 -1       865 3.41821E-05 1.08078E-04 0.00000E+00
 -1       866 3.37610E-05 1.14338E-04 0.00000E+00
 -1       867 3.33418E-05 1.20351E-04 0.00000E+00
 -1       868 3.29246E-05 1.26020E-04 1.32349E-23
 -1       869 3.25118E-05 1.31250E-04 6.61744E-24
 -1       870 3.21010E-05 1.35952E-04-6.61744E-24
 -1       871 3.55392E-05 5.39028E-05 0.00000E+00
 -1       872 3.28424E-05 5.38904E-05 0.00000E+00
 -1       873 3.02069E-05 5.38777E-05 0.00000E+00
 -1       874 2.76065E-05 5.38646E-05 0.00000E+00
 -1       875 2.50148E-05 5.38508E-05 0.00000E+00
 -1       876 3.75432E-05 5.73672E-05 6.61744E-24
 -1       877 3.65404E-05 6.14672E-05 0.00000E+00
 -1       878 3.53314E-05 6.61073E-05-1.32349E-23
 -1       879 3.39557E-05 7.11959E-05-6.61744E-24
 -1       880 3.24423E-05 7.66466E-05-1.32349E-23
 -1       881 3.08225E-05 8.23785E-05-6.61744E-24
 -1       882 2.91246E-05 8.83153E-05 0.00000E+00
 -1       883 2.73767E-05 9.43835E-05 0.00000E+00
 -1       884 2.56060E-05 1.00512E-04-1.32349E-23
 -1       885 2.38392E-05 1.06629E-04 0.00000E+00
 -1       886 2.21035E-05 1.12665E-04 0.00000E+00
 -1       887 2.04256E-05 1.18547E-04-6.61744E-24
 -1       888 1.88344E-05 1.24201E-04 0.00000E+00
 -1       889 1.73556E-05 1.29549E-04-6.61744E-24
 -1       890 1.60254E-05 1.34510E-04 0.00000E+00
 -1       891 2.83927E-05 1.39865E-04-3.30872E-24
 -1       892 2.57799E-05 1.39689E-04 0.00000E+00
 -1       893 2.34933E-05 1.39513E-04-3.30872E-24
 -1       894 2.11590E-05 1.39338E-04 0.00000E+00
 -1       895 1.84032E-05 1.39162E-04 0.00000E+00
 -1       896 3.79576E-07 1.38615E-06 1.32349E-23
 -1       897 7.62659E-07 2.40934E-06 0.00000E+00
 -1       898 1.14586E-06 3.11949E-06-1.32349E-23
 -1       899 1.52976E-06 3.56416E-06-6.61744E-24
 -1       900 1.91376E-06 3.78751E-06 1.32349E-23
 -1       901 2.29789E-06 3.83198E-06 0.00000E+00
 -1       902 2.68203E-06 3.73774E-06 0.00000E+00
 -1       903 3.06615E-06 3.54389E-06 0.00000E+00
 -1       904 3.45025E-06 3.28824E-06-1.32349E-23
 -1       905 3.83426E-06 3.00813E-06 0.00000E+00
 -1       906 4.21820E-06 2.74060E-06 1.32349E-23
 -1       907 4.60174E-06 2.52275E-06-6.61744E-24
 -1       908 4.98515E-06 2.39237E-06-1.32349E-23
 -1       909 5.36645E-06 2.38787E-06 0.00000E+00
 -1       910 5.74832E-06 2.54931E-06-6.61744E-24
 -1       911 6.26334E-06 3.16724E-06 0.00000E+00
 -1       912 6.41092E-06 2.98103E-06 0.00000E+00
 -1       913 6.55827E-06 2.41995E-06 0.00000E+00
 -1       914 6.70580E-06 1.54352E-06 1.65436E-24
 -1       915 6.85312E-06 4.09708E-07 0.00000E+00
 -1       916 7.00028E-06-9.24272E-07 0.00000E+00
 -1       917 7.14725E-06-2.40218E-06 3.30872E-24
 -1       918 7.29408E-06-3.96824E-06 0.00000E+00
 -1       919 7.44084E-06-5.56709E-06 0.00000E+00
 -1       920 7.58753E-06-7.14343E-06 0.00000E+00
 -1       921 7.73424E-06-8.64191E-06 0.00000E+00
 -1       922 7.88063E-06-1.00069E-05 0.00000E+00
 -1       923 8.02706E-06-1.11822E-05 3.30872E-24
 -1       924 8.17111E-06-1.21109E-05-8.27181E-25
 -1       925 8.31609E-06-1.27350E-05 8.27181E-25
 -1       926 7.93198E-06-1.29301E-05 0.00000E+00
 -1       927 7.40487E-06-1.26208E-05 0.00000E+00
 -1       928 6.87829E-06-1.20923E-05 0.00000E+00
 -1       929 6.34934E-06-1.13715E-05 0.00000E+00
 -1       930 5.82011E-06-1.04889E-05-1.32349E-23
 -1       931 5.29034E-06-9.47654E-06 6.61744E-24
 -1       932 4.76038E-06-8.36871E-06 0.00000E+00
 -1       933 4.23028E-06-7.20081E-06 0.00000E+00
 -1       934 3.70014E-06-6.00927E-06-1.32349E-23
 -1       935 3.17003E-06-4.83074E-06-6.61744E-24
 -1       936 2.63999E-06-3.70167E-06 0.00000E+00
 -1       937 2.11023E-06-2.65800E-06 0.00000E+00
 -1       938 1.58063E-06-1.73411E-06 0.00000E+00
 -1       939 1.05207E-06-9.63166E-07 6.61744E-24
 -1       940 5.23381E-07-3.75641E-07 0.00000E+00
 -1       941 1.40844E-06 2.99062E-07 0.00000E+00
 -1       942 2.89489E-06 6.64874E-07 1.32349E-23
 -1       943 4.37765E-06 1.09047E-06 0.00000E+00
 -1       944 5.87406E-06 1.57074E-06-2.64698E-23
 -1       945 7.37142E-06 2.10330E-06 0.00000E+00
 -1       946 8.87139E-06 2.68736E-06 0.00000E+00
 -1       947 1.03718E-05 3.32469E-06 0.00000E+00
 -1       948 1.18726E-05 4.01871E-06-2.64698E-23
 -1       949 1.33734E-05 4.77567E-06 0.00000E+00
 -1       950 1.48738E-05 5.60373E-06 0.00000E+00
 -1       951 1.63738E-05 6.51462E-06 5.29396E-23
 -1       952 1.78715E-05 7.52258E-06-2.64698E-23
 -1       953 1.93684E-05 8.64674E-06 0.00000E+00
 -1       954 2.08538E-05 9.90972E-06 0.00000E+00
 -1       955 2.23421E-05 1.13411E-05 0.00000E+00
 -1       956 2.36836E-05 1.48466E-05-1.65436E-24
 -1       957 2.36001E-05 1.68668E-05 8.27181E-25
 -1       958 2.35160E-05 1.90246E-05-1.65436E-24
 -1       959 2.34315E-05 2.13076E-05 0.00000E+00
 -1       960 2.33467E-05 2.37031E-05 1.65436E-24
 -1       961 2.32617E-05 2.61985E-05-1.65436E-24
 -1       962 2.31765E-05 2.87810E-05-1.03398E-24
 -1       963 2.30911E-05 3.14378E-05 6.20385E-25
 -1       964 2.30055E-05 3.41561E-05-2.48154E-24
 -1       965 2.29199E-05 3.69231E-05 0.00000E+00
 -1       966 2.28341E-05 3.97262E-05 3.30872E-24
 -1       967 2.27482E-05 4.25524E-05 0.00000E+00
 -1       968 2.26624E-05 4.53890E-05 3.30872E-24
 -1       969 2.25766E-05 4.82233E-05 1.65436E-24
 -1       970 2.24909E-05 5.10425E-05 3.30872E-24
 -1       971 2.19584E-05 5.69201E-05 0.00000E+00
 -1       972 2.14930E-05 6.06954E-05 0.00000E+00
 -1       973 2.10260E-05 6.50922E-05 0.00000E+00
 -1       974 2.05536E-05 7.00367E-05 0.00000E+00
 -1       975 2.00788E-05 7.54469E-05-1.32349E-23
 -1       976 1.96014E-05 8.12363E-05 0.00000E+00
 -1       977 1.91223E-05 8.73128E-05-1.32349E-23
 -1       978 1.86420E-05 9.35813E-05 0.00000E+00
 -1       979 1.81611E-05 9.99441E-05 0.00000E+00
 -1       980 1.76803E-05 1.06303E-04 0.00000E+00
 -1       981 1.72002E-05 1.12558E-04 0.00000E+00
 -1       982 1.67219E-05 1.18613E-04 0.00000E+00
 -1       983 1.62455E-05 1.24372E-04 1.32349E-23
 -1       984 1.57741E-05 1.29744E-04 0.00000E+00
 -1       985 1.53042E-05 1.34643E-04 0.00000E+00
 -3
    1PSTEP                         2           1           1          
  100CL  101 1.000000000         841                     0    1           1
 -4  STRESS      6    1
 -5  SXX         1    4    1    1
 -5  SYY         1    4    2    2
 -5  SZZ         1    4    3    3
 -5  SXY         1    4    1    2
 -5  SYZ         1    4    2    3
 -5  SZX         1    4    3    1
 -1         1-3.44106E+06-1.05022E+06-6.36443E+05-1.01500E+06-4.17155E-10 6.82970E-09
 -1         2-2.28350E+06-5.22703E+04 3.05945E+03-2.05872E+05-6.05723E-10 4.42105E-09
 -1         3-1.15721E+06-7.94303E+05-1.84725E+03-1.23061E+05-1.85719E-09 2.27101E-09
 -1         4-4.35738E+05-1.97779E+05 4.35930E+02-5.67163E+04-1.23350E-10 1.54114E-09
 -1         5-1.05347E+05 4.69173E+05-1.53140E+05-1.59195E+04 2.05182E-09-9.44192E-09
 -1         8-2.04259E+06-8.26181E+05-3.49726E+05-9.51917E+05 1.12777E-10 6.85395E-09
 -1         9-2.32046E+06-5.16279E+05-3.76842E+05-5.42138E+05-2.05788E-09-3.50155E-09
 -1        10-1.30134E+06-1.14240E+06-3.26667E+03-3.82968E+05-2.85824E-09-2.12215E-12
 -1        11-6.38892E+05-3.01935E+05-1.05237E+02-1.97343E+05 9.09343E-10-3.45608E-10
 -1        12-2.66252E+05 4.11470E+05-1.85734E+05-9.04617E+04 5.21936E-09 3.68317E-09
 -1        15-3.76670E+03-6.61081E+04 3.33073E+03-2.86480E+05-2.01908E-10 3.31784E-09
 -1        16-1.45898E+06-4.36906E+05-2.57358E+05-5.84064E+05-3.07409E-09 4.55960E-10
 -1        17-9.34408E+05-8.80259E+05-2.08003E+05-5.38554E+05-3.30086E-09 7.20320E-10
 -1        18-2.46061E+05-2.29731E+05-1.11035E+05-3.73696E+05 1.22539E-09 9.60426E-10
 -1        19-5.28042E+04 1.91839E+05-9.10205E+04-1.13302E+05 2.95374E-09 1.90024E-09
 -1        20 2.59970E+05-1.65680E+05-1.33115E+04 1.22858E+05-4.62023E-09 1.03319E-09
 -1        21-4.94100E+04-4.24441E+05-2.06042E+03 2.45942E+04 4.78340E-08-9.35942E-09
 -1        22 4.29253E+04 2.29606E+05 1.27380E+03-5.01731E+04-3.63798E-12-6.22094E-10
 -1        23-4.20202E+05-3.66015E+04 2.83993E+03-2.54247E+05-6.63022E-10-7.21532E-11
 -1        24-3.20051E+05-4.14412E+04 1.29895E+05-4.77253E+05-6.05602E-09-1.28542E-10
 -1        25 6.99632E+05 3.62240E+05 2.51420E+05-3.43997E+05-8.44011E-10-1.50734E-09
 -1        26 7.76368E+04 5.65379E+05 8.09981E+04-1.04568E+05-7.02433E-10-2.04939E-10
 -1        27-1.67140E+05-1.65231E+05-7.60114E+04 1.25576E+05-9.86499E-10-4.90885E-09
 -1        28-4.99873E+04-2.87987E+05-2.72899E+03 1.23964E+05 3.61742E-08 2.82322E-10
 -1        29 5.27270E+05 3.63965E+05 1.38082E+03-3.06256E+04-9.55822E-11-5.30235E-10
 -1        30 2.23456E+05 4.76362E+04 1.93983E+03-7.23705E+04-5.94280E-11-2.72848E-10
 -1        31-6.57520E+05 5.65619E+04 3.92871E+03-1.47898E+05 7.53637E-11 1.60799E-09
 -1        32 4.74786E+05 5.41722E+05 4.32674E+05-3.10955E+05 9.65102E-10 3.23780E-09
 -1        33 1.06371E+06 1.00559E+06 4.47563E+05-1.20840E+05-2.93738E-11 1.88993E-09
 -1        34-5.21397E+05-1.15812E+05-8.51609E+04 1.33434E+04-4.08093E-10-2.43017E-09
 -1        35-5.88472E+04-9.10456E+04-2.08764E+03 1.68921E+05 4.03595E-08-6.17001E-09
 -1        36-4.93013E+06 1.18231E+05-3.27534E+05 5.97865E-08-3.09631E-10 6.09725E-09
 -1        37-5.06291E+06-1.39899E+05-2.23462E+05 5.59176E-08-1.67052E-10-6.18456E-11
 -1        38-4.98300E+06 1.58883E+04-8.49680E+04-8.69236E-08-1.57594E-09-6.17729E-09
 -1        39-5.00198E+06-1.87046E+04-5.07614E+04-6.20955E-08 2.14421E-09 2.16460E-09
 -1        40-4.99057E+06 2.13532E+03-2.17700E+04-7.54446E-08 2.71301E-10 4.76757E-09
 -1        41-4.99315E+06-2.51375E+03-1.24098E+04-4.59284E-08-1.55035E-09-1.00690E-08
 -1        42-4.99168E+06 3.12561E+02-6.37030E+03-6.48747E-08 1.23229E-09-6.92717E-09
 -1        43-4.99195E+06-5.61408E+02-4.93229E+03-6.06018E-09 6.55822E-10-5.26568E-09
 -1        44-4.99173E+06 2.44116E+02-5.24850E+03 8.65882E-08 1.87965E-09-4.08761E-09
 -1        45-4.99271E+06-1.83775E+03-9.30679E+03-1.60975E-08-3.02737E-09-2.02078E-09
 -1        46-4.99094E+06 1.54654E+03-1.59028E+04-3.88250E-08-5.82425E-10 3.21688E-09
 -1        47-4.99908E+06-1.35288E+04-3.67904E+04-2.49086E-08-1.13321E-09 8.13134E-09
 -1        48-4.98547E+06 1.14894E+04-6.14903E+04-5.81197E-08-3.20563E-10 7.34872E-10
 -1        49-5.04314E+06-1.01170E+05-1.61623E+05 1.22782E-10-1.41158E-09-3.23416E-09
 -1        50-4.94727E+06 8.54892E+04-2.36960E+05 2.33404E-08-1.80193E-09-1.89175E-10
 -1        51 5.01934E+04-4.24229E+05 9.40678E+04-1.24928E+06 0.00000E+00 3.92902E-09
 -1        52 2.26194E+04-4.16887E+05 5.38933E+04-1.41002E+06 6.03904E-10 1.06738E-08
 -1        53 1.28353E+04-4.37901E+05 3.62044E+04-1.24525E+06 3.12866E-10-1.50612E-08
 -1        54 2.83588E+04-4.36851E+05 4.64706E+04-1.41414E+06-2.47383E-10-4.11092E-09
 -1        55 5.57477E+04-4.53049E+05 7.70065E+04-1.24444E+06 3.92902E-10 1.06447E-08
 -1        56-5.09096E+06-5.80878E+05-3.87218E+05-1.95895E+06-6.25732E-10 4.58385E-09
 -1        57-5.23946E+06-9.29820E+05-2.59807E+05-1.95145E+06 8.66748E-10-1.00626E-08
 -1        58-5.17022E+06-6.99036E+05-9.10803E+04-1.93285E+06 6.47560E-10-8.17454E-09
 -1        59-5.14797E+06-7.90357E+05-5.39990E+04-1.98251E+06-1.82968E-09-7.22139E-10
 -1        60-5.18137E+06-7.15367E+05-2.12810E+04-1.92959E+06 4.18822E-10-8.09450E-11
 -1        61-5.13841E+06-7.67567E+05-1.20641E+04-1.98203E+06-3.22984E-09-1.12556E-09
 -1        62-5.17940E+06-7.21279E+05-6.03963E+03-1.93341E+06-2.09047E-09-1.33281E-09
 -1        63-5.14675E+06-7.54932E+05-5.12456E+03-1.97018E+06-8.35598E-10 1.78538E-08
 -1        64-5.17270E+06-7.28133E+05-6.41858E+03-1.94123E+06 1.43336E-09 5.32918E-09
 -1        65-5.16330E+06-7.42335E+05-1.28808E+04-1.95227E+06-1.19690E-09-1.00554E-08
 -1        66-5.16268E+06-7.34087E+05-2.31571E+04-1.95115E+06-2.78987E-10-1.58070E-09
 -1        67-5.19327E+06-7.47355E+05-5.83840E+04-1.93033E+06-1.28961E-09 8.98308E-09
 -1        68-5.14308E+06-7.23736E+05-9.87593E+04-1.96304E+06-8.40373E-10 3.00861E-09
 -1        69-5.30153E+06-8.90111E+05-2.81496E+05-1.88785E+06 4.79668E-09 7.65795E-09
 -1        70-5.05607E+06-5.96380E+05-4.19436E+05-1.99212E+06-1.92085E-09-2.70666E-09
 -1        71-2.21517E+06-4.51939E+03 1.25593E+04-8.02506E-08 1.29732E-10-5.14592E-09
 -1        72-2.20988E+06 5.35069E+03 8.55637E+03 6.57320E-09-9.40236E-10 5.21266E-09
 -1        73-2.21315E+06-6.07305E+02 3.25163E+03-1.05197E-08 3.41714E-10 4.22733E-09
 -1        74-2.21221E+06 7.14683E+02 1.92988E+03-4.71810E-08-5.34054E-10 1.63834E-09
 -1        75-2.21286E+06-8.11155E+01 8.02157E+02 1.41643E-08 1.35491E-10-1.63607E-09
 -1        76-2.21255E+06 9.18644E+01 4.05600E+02-2.69022E-08-7.63125E-10 1.23316E-09
 -1        77-2.21281E+06-8.10182E+00 1.07642E+02 1.36868E-08 7.34686E-10 3.09261E-09
 -1        78-2.21261E+06-1.15733E+01-1.02389E+02-3.29763E-08-1.06464E-10-4.45243E-09
 -1        79-2.21279E+06 1.95793E+01-3.48822E+02 4.22909E-08-3.55430E-10 3.39193E-09
 -1        80-2.21272E+06-1.81595E+02-8.55767E+02 5.26862E-08 1.87169E-09 7.90993E-09
 -1        81-2.21270E+06 1.57035E+02-1.58285E+03-3.62092E-08-3.19056E-10 4.75461E-09
 -1        82-2.21338E+06-1.37953E+03-3.74164E+03 4.50262E-08 6.82218E-10-1.28489E-09
 -1        83-2.21214E+06 1.17190E+03-6.28243E+03-1.22840E-08-1.17548E-09 5.71004E-09
 -1        84-2.21787E+06-1.03243E+04-1.65136E+04-8.80846E-10-1.85713E-10-1.81535E-09
 -1        85-2.20823E+06 8.72068E+03-2.42313E+04-7.57408E-08 4.70500E-10 9.44965E-10
 -1        86-1.04404E+05 8.07683E+05 2.96373E+05-3.60851E+03 2.76486E-10-7.86929E-09
 -1        87 1.31496E+05 9.30790E+05 2.19794E+05 1.28613E+05-4.65661E-10-1.94252E-08
 -1        88-2.18510E+04 8.50137E+05 1.15304E+05-4.63811E+03 1.11140E-09 4.16549E-10
 -1        89 8.47929E+04 9.10033E+05 1.53314E+05 1.32143E+05-1.17052E-09 4.87034E-10
 -1        90-6.08386E+04 8.30016E+05 1.76788E+05-7.13136E+03 3.48518E-09-5.35147E-09
 -1        91-2.63045E+06-3.50130E+05-5.61608E+04-9.93290E+05-4.77485E-10-2.25191E-09
 -1        92-2.64787E+06-4.04483E+05-3.76397E+04-9.96617E+05 7.81711E-10 4.89536E-09
 -1        93-2.64209E+06-3.67068E+05-1.32181E+04-9.89354E+05-9.53946E-10 1.23418E-09
 -1        94-2.63424E+06-3.84715E+05-7.83196E+03-1.00157E+06 1.85068E-10-1.45985E-09
 -1        95-2.64396E+06-3.69177E+05-3.08587E+03-9.88595E+05 9.44652E-10 6.48788E-09
 -1        96-2.63231E+06-3.81987E+05-1.74192E+03-1.00217E+06-5.73237E-10 5.25192E-09
 -1        97-2.64398E+06-3.69706E+05-8.40974E+02-9.88777E+05-1.86975E-09-6.04854E-09
 -1        98-2.63294E+06-3.80763E+05-6.83433E+02-1.00120E+06-1.39642E-09-1.25069E-08
 -1        99-2.64331E+06-3.70402E+05-7.83617E+02-9.89565E+05 1.01329E-09-4.66923E-09
 -1       100-2.63486E+06-3.79290E+05-1.55093E+03-9.99102E+05 1.06041E-09-4.47693E-09
 -1       101-2.64204E+06-3.71203E+05-2.74989E+03-9.90850E+05-6.88942E-11-2.70165E-09
 -1       102-2.63887E+06-3.79372E+05-6.92324E+03-9.95876E+05-2.34149E-09-1.38880E-09
 -1       103-2.63931E+06-3.70413E+05-1.17114E+04-9.92749E+05-1.31324E-09 2.75850E-09
 -1       104-2.65279E+06-3.95026E+05-3.32995E+04-9.89409E+05-2.56688E-09 4.87171E-09
 -1       105-2.62825E+06-3.56181E+05-4.97083E+04-9.97096E+05-4.79122E-09 5.70799E-09
 -1       106-9.00649E+05-3.41825E+04 9.51021E+04 2.11767E-08-1.59337E-09-4.18368E-09
 -1       107-8.61977E+05 4.04768E+04 6.47925E+04 8.18882E-08 9.73061E-11 4.04907E-09
 -1       108-8.85303E+05-4.59339E+03 2.46726E+04-9.41299E-09 2.02923E-11 3.03771E-10
 -1       109-8.79584E+05 5.40814E+03 1.47039E+04-6.76670E-09 4.38093E-10-1.01136E-09
 -1       110-8.83089E+05-6.15900E+02 6.24620E+03-3.56572E-09-6.88496E-10 6.64636E-09
 -1       111-8.82144E+05 7.15207E+02 3.42037E+03 7.46039E-09 6.30677E-10 4.82032E-10
 -1       112-8.82753E+05-7.98654E+01 1.48349E+03 2.06837E-08-3.96822E-10-2.06103E-09
 -1       113-8.82550E+05 7.22345E+01 6.41175E+02 5.72708E-08-1.95156E-10 2.58505E-09
 -1       114-8.82686E+05 8.22581E+00 2.67717E+01-3.76435E-08 1.85201E-10-1.52860E-09
 -1       115-8.82705E+05-1.55088E+02-6.03266E+02-6.91491E-08-4.17074E-10-2.95721E-09
 -1       116-8.82598E+05 1.42009E+02-1.36139E+03-2.24267E-08 4.48045E-10-6.24311E-09
 -1       117-8.83312E+05-1.25754E+03-3.37547E+03-5.62646E-08-8.63137E-10-7.84610E-10
 -1       118-8.82081E+05 1.06916E+03-5.71995E+03-3.47380E-08 2.47720E-10-9.80435E-10
 -1       119-8.87412E+05-9.42198E+03-1.50708E+04 4.70999E-08 2.14068E-10-1.00727E-10
 -1       120-8.78505E+05 7.95832E+03-2.21226E+04-2.07323E-08-2.68469E-10 7.98900E-09
 -1       121 4.34085E+04-3.24976E+06-1.22977E+05-1.05852E+02-7.78527E-10-1.42336E-10
 -1       122-5.51314E+04-3.30045E+06-9.21534E+04 2.05330E+04-1.01863E-09-9.60927E-09
 -1       123 9.40390E+03-3.26724E+06-4.98075E+04 1.56090E+03-2.72576E-09-1.80989E-09
 -1       124-3.89987E+04-3.29224E+06-6.88701E+04 1.64726E+04-2.70302E-09 4.53383E-09
 -1       125 2.79146E+04-3.25786E+06-8.15940E+04 3.95269E+03-5.14774E-09 5.34783E-10
 -1       126-1.26364E+06-1.91787E+05 4.35581E+04-4.66877E+05-5.91172E-10-5.74801E-10
 -1       127-1.23593E+06-1.63456E+05 2.91942E+04-4.80052E+05 1.14915E-09 1.50812E-08
 -1       128-1.25543E+06-1.77829E+05 1.02472E+04-4.68976E+05-5.57066E-10 5.10499E-09
 -1       129-1.24540E+06-1.79912E+05 6.05543E+03-4.77536E+05-1.41898E-09 6.77255E-09
 -1       130-1.25428E+06-1.75877E+05 2.34655E+03-4.69201E+05-1.67341E-09-3.49473E-10
 -1       131-1.24682E+06-1.82119E+05 1.23909E+03-4.77162E+05-1.48361E-10-3.23928E-09
 -1       132-1.25402E+06-1.75691E+05 4.25500E+02-4.69326E+05-4.60489E-10 1.31615E-09
 -1       133-1.24734E+06-1.82169E+05 1.46917E+01-4.76774E+05-4.59295E-10-2.11458E-11
 -1       134-1.25376E+06-1.75840E+05-3.96083E+02-4.69582E+05-8.84484E-10 6.73776E-09
 -1       135-1.24810E+06-1.81945E+05-1.17066E+03-4.76085E+05 9.65770E-11 2.69961E-09
 -1       136-1.25325E+06-1.75930E+05-2.23677E+03-4.70005E+05-9.20863E-12 1.26079E-10
 -1       137-1.25020E+06-1.83284E+05-5.75961E+03-4.74843E+05-2.80534E-09-6.02938E-09
 -1       138-1.25166E+06-1.74574E+05-9.76621E+03-4.70792E+05-6.08225E-12-3.20597E-09
 -1       139-1.26041E+06-1.97733E+05-2.77946E+04-4.71033E+05 4.13189E-09-3.36513E-09
 -1       140-1.24312E+06-1.62008E+05-4.14832E+04-4.73619E+05-1.81444E-10 3.70710E-09
 -1       141-2.10774E+05-1.39247E+04 3.87359E+04-1.13437E-07-9.10474E-11-1.13505E-09
 -1       142-1.95026E+05 1.64875E+04 2.63881E+04-3.06009E-08 9.21389E-10-5.21959E-09
 -1       143-2.04512E+05-1.87079E+03 1.00285E+04-2.35908E-08 6.45194E-11-2.57114E-09
 -1       144-2.02199E+05 2.20114E+03 5.93566E+03-9.85935E-09 1.00794E-10 4.56566E-10
 -1       145-2.03606E+05-2.49179E+02 2.43319E+03 3.37674E-09 4.52540E-10 1.70405E-09
 -1       146-2.03254E+05 2.77323E+02 1.15773E+03 5.85799E-08-5.10188E-10 5.07174E-09
 -1       147-2.03457E+05-1.98171E+01 1.47987E+02-1.01940E-07-2.80656E-10-3.79856E-09
 -1       148-2.03493E+05-7.97698E+01-7.09239E+02-2.17801E-08-6.36779E-10-7.03153E-10
 -1       149-2.03367E+05 9.89358E+01-1.81852E+03 7.87514E-08 2.18908E-10-9.72250E-10
 -1       150-2.04009E+05-8.95912E+02-4.27278E+03 7.72684E-08-4.43742E-10 6.80416E-09
 -1       151-2.02942E+05 7.72581E+02-7.83379E+03-3.84666E-08-8.22447E-11 5.71481E-09
 -1       152-2.07221E+05-6.78532E+03-1.84566E+04-1.35670E-08 4.57267E-10-4.56225E-09
 -1       153-2.00156E+05 5.76376E+03-3.09693E+04 2.15783E-08 2.83910E-10-4.08909E-09
 -1       154-2.29306E+05-5.07873E+04-8.13187E+04 1.48752E-08 6.59487E-10 3.25781E-09
 -1       155-1.80843E+05 4.29016E+04-1.19254E+05 1.50762E-08 1.23160E-09-6.11180E-10
 -1       156 2.60190E+03-7.18770E+05-6.58047E+03-2.11308E+02 7.78527E-10 2.09855E-09
 -1       157-2.12235E+03-7.21027E+05-2.24273E+03 1.10036E+04 7.07587E-10-4.96300E-10
 -1       158-5.98125E+02-7.20471E+05 3.11282E+03 9.77374E+01 2.52976E-09-1.62709E-09
 -1       159 7.97478E+03-7.15903E+05 1.23442E+04 1.02874E+04 2.22349E-09-8.45353E-09
 -1       160-7.08562E+03-7.23856E+05 1.93715E+04 5.05198E+02 4.56293E-09 2.55363E-09
 -1       161-6.38539E+05-8.68249E+04-8.00315E+03-2.40222E+05 1.43928E-10-7.70615E-09
 -1       162-6.37590E+05-9.79680E+04-5.37197E+03-2.44599E+05 9.29958E-11-3.91219E-09
 -1       163-6.40133E+05-8.92999E+04-1.90604E+03-2.39738E+05 3.44471E-10-3.57443E-09
 -1       164-6.35766E+05-9.50424E+04-1.16380E+03-2.45169E+05 2.65096E-10-7.87153E-09
 -1       165-6.40347E+05-8.96492E+04-5.35159E+02-2.39689E+05-2.88708E-10-3.24780E-09
 -1       166-6.35584E+05-9.45960E+04-4.58520E+02-2.45164E+05 2.50850E-10 3.31574E-09
 -1       167-6.40311E+05-8.97349E+04-5.36251E+02-2.39746E+05 3.50155E-11-2.51970E-09
 -1       168-6.35807E+05-9.45293E+04-1.04688E+03-2.44974E+05-2.61480E-11 1.54023E-09
 -1       169-6.40120E+05-8.97199E+04-1.93573E+03-2.39876E+05-2.96041E-10 1.91017E-09
 -1       170-6.36766E+05-9.53336E+04-4.57051E+03-2.44534E+05 5.57066E-10-3.40299E-09
 -1       171-6.39350E+05-8.89620E+04-8.34401E+03-2.40172E+05-7.89669E-10 4.19186E-09
 -1       172-6.41999E+05-1.02766E+05-2.13058E+04-2.42884E+05 2.67721E-09 2.11162E-09
 -1       173-6.34920E+05-8.25310E+04-3.60036E+04-2.41434E+05-3.44698E-10 9.38599E-10
 -1       174-6.76533E+05-1.59129E+05-1.02464E+05-2.32457E+05-2.57933E-09 2.19734E-09
 -1       175-6.05082E+05-3.45076E+04-1.52767E+05-2.49878E+05 1.36788E-09 4.15457E-09
 -1       191 8.75806E+03 1.27887E+06 1.65836E+04-2.97089E+04-3.16504E-10-6.11180E-10
 -1       192 2.88401E+03 1.28172E+06 1.00776E+04-3.23778E+04 1.64164E-10 3.82533E-09
 -1       193 9.73062E+02 1.27976E+06 8.15711E+03-2.91353E+04-1.19508E-09 4.08909E-09
 -1       194 3.97630E+03 1.28206E+06 1.23682E+04-3.34364E+04 4.90218E-10-5.18776E-09
 -1       195 1.22203E+04 1.27822E+06 2.22297E+04-2.86141E+04-1.58980E-09-1.03682E-09
 -1       251-1.93427E+06 2.58479E+04-7.39542E+04-5.12009E+03 1.21872E-10-3.12866E-10
 -1       252-1.96030E+06-3.16418E+04-4.97557E+04-6.81484E+04-1.38425E-09-2.67210E-09
 -1       253-1.94582E+06 3.27681E+03-1.93292E+04 1.02067E+03-8.54925E-11-6.94854E-10
 -1       254-1.94839E+06-4.20857E+03-1.12512E+04-7.85054E+04-6.00721E-10 3.59637E-09
 -1       255-1.94727E+06 3.80541E+02-5.00998E+03 5.22430E+03 1.08275E-09-3.67208E-10
 -1       256-1.94764E+06-2.71423E+02-2.81683E+03-8.47913E+04 5.75710E-10 3.15978E-09
 -1       257-1.94738E+06 6.40353E+01-1.57291E+03 7.30681E+03-7.52152E-10 4.56185E-09
 -1       258-1.94780E+06 2.44106E+02-1.40875E+03-8.66852E+04 1.10491E-09 1.01604E-08
 -1       259-1.94738E+06 6.76404E+01-1.76946E+03 7.11918E+03-1.31649E-09 9.06334E-09
 -1       260-1.94756E+06-4.26235E+02-3.32429E+03-8.40614E+04-9.75433E-11 3.39992E-09
 -1       261-1.94725E+06 4.56596E+02-6.01702E+03 4.68185E+03 1.96087E-09-8.06722E-10
 -1       262-1.94862E+06-5.14098E+03-1.35708E+04-7.70876E+04-2.18279E-10 7.56791E-09
 -1       263-1.94545E+06 3.97789E+03-2.32975E+04 1.45738E+02-1.66438E-10 6.72208E-09
 -1       264-1.96332E+06-3.81785E+04-6.00845E+04-6.61142E+04-7.47968E-09 2.00998E-09
 -1       265-1.93143E+06 3.12735E+04-8.91750E+04-6.27527E+03-3.30874E-09-2.25555E-10
 -1       266-2.40821E+04-4.47850E+05 5.90989E+04 1.60885E+04 2.21917E-10 4.40195E-10
 -1       267 3.38297E+04-4.26309E+05 3.84571E+04-4.55052E+05-3.28328E-10 4.88853E-09
 -1       268-1.43407E+03-4.34706E+05 8.18770E+03 1.76589E+04-4.29281E-10 3.50872E-09
 -1       269-4.28835E+02-4.44246E+05-1.12413E+04-4.55290E+05 2.44427E-10 1.44200E-09
 -1       270 9.01170E+03-4.30363E+05-2.91253E+04 1.63265E+04-4.62023E-10 3.27964E-09
 -1       271-6.06775E+06-7.05904E+05-5.04774E+05-2.37848E+06-7.20320E-10 1.97906E-09
 -1       272-6.31833E+06-1.10265E+06-3.38568E+05-2.30129E+06-6.83940E-10-1.85537E-10
 -1       273-6.17868E+06-8.52715E+05-1.18878E+05-2.33608E+06-1.61890E-10 3.90719E-09
 -1       274-6.18120E+06-9.38527E+05-7.02038E+04-2.36205E+06-2.29562E-10-1.43700E-09
 -1       275-6.20338E+06-8.63534E+05-2.78152E+04-2.31995E+06-1.12277E-09-3.49974E-09
 -1       276-6.14906E+06-9.29519E+05-1.56884E+04-2.38591E+06 1.65528E-10-1.80967E-09
 -1       277-6.21098E+06-8.60555E+05-7.78679E+03-2.31281E+06 1.10708E-09-5.40126E-09
 -1       278-6.14264E+06-9.31252E+05-6.77138E+03-2.39200E+06-3.82670E-10 2.35332E-09
 -1       279-6.20996E+06-8.61581E+05-8.22503E+03-2.31401E+06 9.02901E-10-1.18052E-09
 -1       280-6.15293E+06-9.26029E+05-1.68908E+04-2.38131E+06-8.05699E-10-1.80080E-09
 -1       281-6.20040E+06-8.66106E+05-3.01793E+04-2.32324E+06 5.91172E-10-1.56433E-09
 -1       282-6.18930E+06-9.34477E+05-7.62163E+04-2.35396E+06-1.13226E-09 1.46429E-10
 -1       283-6.17346E+06-8.54361E+05-1.29089E+05-2.34077E+06 2.54477E-09-1.73895E-09
 -1       284-6.33736E+06-1.11390E+06-3.67741E+05-2.28954E+06 3.27236E-09 6.73026E-10
 -1       285-6.05412E+06-6.93594E+05-5.48078E+05-2.38536E+06-3.03407E-09 4.10364E-09
 -1       286-1.11077E+06 4.42616E+03-1.42614E+04-3.24319E+03 4.90036E-09-4.25371E-09
 -1       287-1.11277E+06-6.25536E+03-9.08295E+03-5.49022E+04 3.22916E-09 3.98455E-09
 -1       288-1.11276E+06 3.84778E+02-3.80738E+03 2.25811E+02 7.62157E-10 3.48155E-09
 -1       289-1.11158E+06-9.19402E+02-1.89606E+03-6.09449E+04 5.82077E-10 9.92152E-09
 -1       290-1.11288E+06-4.71002E+01-9.05716E+02 2.79069E+03 1.71076E-09 6.63249E-10
 -1       291-1.11228E+06 5.69486E+01-1.71457E+02-6.51553E+04 1.21872E-09 6.00483E-09
 -1       292-1.11279E+06-4.46163E+01 2.32523E+02 4.43499E+03 3.76667E-09 2.53185E-09
 -1       293-1.11278E+06 4.28365E+02 9.35842E+02-6.74637E+04 4.02906E-10-1.77991E-09
 -1       294-1.11280E+06-1.06597E+02 1.90816E+03 5.10015E+03 2.86315E-09 2.36327E-09
 -1       295-1.11238E+06 1.24198E+03 4.28700E+03-6.77816E+04 4.03821E-09 4.51473E-09
 -1       296-1.11325E+06-7.91343E+02 7.75833E+03 4.75325E+03 2.66891E-09 1.15824E-09
 -1       297-1.10872E+06 6.94371E+03 1.83204E+04-6.60890E+04 3.81351E-09-2.07274E-09
 -1       298-1.11613E+06-5.81295E+03 3.05496E+04 3.40705E+03-1.94177E-10 2.03181E-09
 -1       299-1.08586E+06 5.02993E+04 8.06176E+04-6.24248E+04-1.95314E-10 5.07862E-09
 -1       300-1.13539E+06-4.27394E+04 1.17875E+05 1.08567E+03 7.13953E-10 2.75031E-09
 -1       301 6.80389E+04 1.50423E+05 1.21443E+05-3.23509E+04 8.00355E-10 8.12292E-10
 -1       302 2.31930E+04 1.71072E+05 6.71405E+04-3.69242E+04 9.04947E-11-2.94961E-10
 -1       303 7.01675E+03 1.58162E+05 4.37712E+04-3.26879E+04 7.46013E-10 2.80693E-10
 -1       304 1.67973E+04 1.68217E+05 5.29836E+04-3.69498E+04-3.07409E-10 4.21537E-09
 -1       305 4.72506E+04 1.53267E+05 8.65741E+04-3.24759E+04 3.89264E-10 9.09301E-09
 -1       306-5.57538E+06-6.51148E+05-4.70901E+05-2.19290E+06 2.61934E-10-8.00355E-09
 -1       307-5.83279E+06-9.97352E+05-3.15805E+05-2.09400E+06 1.99361E-09 2.47383E-10
 -1       308-5.67905E+06-7.88130E+05-1.10992E+05-2.15340E+06 1.62072E-09 1.73895E-09
 -1       309-5.70201E+06-8.46672E+05-6.54112E+04-2.15295E+06 6.42331E-10-4.77485E-10
 -1       310-5.70448E+06-7.96007E+05-2.60692E+04-2.13580E+06 4.45652E-10 2.95586E-09
 -1       311-5.66560E+06-8.44659E+05-1.45106E+04-2.18250E+06 2.14004E-09 9.69794E-09
 -1       312-5.71561E+06-7.89076E+05-7.27876E+03-2.12439E+06 1.74487E-09 3.27873E-10
 -1       313-5.65112E+06-8.55294E+05-6.13339E+03-2.19900E+06 6.55405E-10-2.89924E-09
 -1       314-5.71947E+06-7.84928E+05-7.33311E+03-2.11970E+06 1.73623E-09-5.52973E-09
 -1       315-5.65172E+06-8.59743E+05-1.50639E+04-2.20040E+06 2.80288E-09 4.32283E-09
 -1       316-5.71513E+06-7.84661E+05-2.66988E+04-2.12304E+06 9.15747E-10 2.62116E-09
 -1       317-5.67750E+06-8.73647E+05-6.76293E+04-2.18338E+06 5.23869E-10 2.52112E-09
 -1       318-5.69355E+06-7.72122E+05-1.14438E+05-2.13618E+06 1.87356E-10 3.28873E-09
 -1       319-5.80627E+06-1.03432E+06-3.25909E+05-2.12755E+06-1.73168E-09-2.45564E-09
 -1       320-5.58744E+06-6.30412E+05-4.86013E+05-2.17651E+06-8.94943E-10-4.59841E-09
 -1       321-7.84118E+05-5.39888E+04 1.50133E+05-4.75894E+02-7.08042E-10-3.12866E-10
 -1       322-7.22898E+05 6.38564E+04 1.02310E+05-1.75646E+04-1.55160E-09 1.76260E-09
 -1       323-7.59882E+05-7.26675E+03 3.89509E+04 8.53727E+01-3.60615E-10 1.46792E-09
 -1       324-7.50793E+05 8.51997E+03 2.32505E+04-1.85302E+04 6.59384E-11 3.63434E-09
 -1       325-7.56373E+05-9.78780E+02 9.90935E+03 4.93567E+02 5.55929E-10 4.41196E-09
 -1       326-7.54897E+05 1.13585E+03 5.51421E+03-1.91624E+04-1.18661E-09-3.25224E-09
 -1       327-7.55838E+05-1.32325E+02 2.55534E+03 7.17613E+02-2.33968E-10 2.82614E-09
 -1       328-7.55532E+05 1.73518E+02 1.46604E+03-1.94227E+04-2.23395E-11-5.26995E-10
 -1       329-7.55761E+05-3.11207E+01 8.96619E+02 7.53861E+02-3.75650E-10-4.40005E-09
 -1       330-7.55552E+05 1.49129E+02 9.29028E+02-1.93049E+04-7.47775E-10-4.24073E-09
 -1       331-7.55810E+05-1.13003E+02 1.24523E+03 5.99798E+02 7.77618E-11-6.74447E-10
 -1       332-7.55068E+05 9.36375E+02 2.65309E+03-1.88110E+04-8.91305E-11 5.78905E-09
 -1       333-7.56205E+05-8.13578E+02 4.33139E+03 2.59965E+02-1.11550E-09-3.34376E-09
 -1       334-7.51908E+05 7.03353E+03 1.13369E+04-1.79420E+04-2.08104E-09 4.24609E-09
 -1       335-7.58903E+05-5.99249E+03 1.65650E+04-2.69519E+02-2.16551E-09 6.28552E-09
 -1       336 2.46066E+04-3.16701E+06-7.86658E+04 1.94176E+04-1.58107E-08 3.68709E-09
 -1       337-3.80224E+04-3.20126E+06-7.68822E+04-2.65337E+05-1.29257E-08-7.06405E-09
 -1       338 1.35879E+04-3.17166E+06-7.20544E+04 2.67913E+04-2.38542E-08-2.04068E-09
 -1       339-9.24588E+04-3.22993E+06-1.55839E+05-2.68260E+05-1.46156E-08-3.02384E-09
 -1       340 7.72782E+04-3.13921E+06-2.18623E+05 2.23397E+04-1.92813E-08 6.63567E-09
 -1       341-2.88187E+06-3.83693E+05-7.48572E+04-1.09625E+06 6.71207E-10 1.46247E-09
 -1       342-2.91586E+06-4.45431E+05-5.01829E+04-1.08837E+06-1.70076E-10-5.44969E-09
 -1       343-2.89754E+06-4.06125E+05-1.76528E+04-1.09083E+06-1.16518E-09 1.24237E-09
 -1       344-2.89694E+06-4.19808E+05-1.05027E+04-1.09578E+06-2.71072E-10-4.30714E-09
 -1       345-2.90060E+06-4.08363E+05-4.25884E+03-1.08917E+06-5.18128E-10-3.57704E-09
 -1       346-2.89294E+06-4.17681E+05-2.63521E+03-1.09829E+06-1.12686E-09-6.68578E-09
 -1       347-2.90152E+06-4.08122E+05-1.74713E+03-1.08837E+06-3.28384E-10-3.17795E-09
 -1       348-2.89196E+06-4.18284E+05-2.34854E+03-1.09932E+06 1.12163E-09-2.41698E-10
 -1       349-2.90159E+06-4.07744E+05-3.78930E+03-1.08815E+06 1.10828E-09-8.02174E-10
 -1       350-2.89333E+06-4.20155E+05-8.65636E+03-1.09898E+06-7.79323E-10-6.70866E-10
 -1       351-2.90017E+06-4.06304E+05-1.56751E+04-1.08869E+06 2.77623E-10-1.68438E-09
 -1       352-2.90350E+06-4.33832E+05-4.00212E+04-1.09553E+06-5.15911E-10-3.59478E-09
 -1       353-2.89154E+06-3.94528E+05-6.75883E+04-1.09146E+06-3.45608E-11-1.22600E-09
 -1       354-2.96949E+06-5.39009E+05-1.92633E+05-1.07485E+06 6.36737E-09-1.15833E-08
 -1       355-2.83489E+06-3.04723E+05-2.87081E+05-1.10810E+06-3.72529E-09 1.30967E-10
 -1       356-3.72015E+05-1.86676E+04 5.18287E+04 1.01500E+02 4.10182E-10 5.41695E-09
 -1       357-3.50745E+05 2.20444E+04 3.53403E+04-1.69904E+04-1.20167E-10 6.23186E-09
 -1       358-3.63618E+05-2.51605E+03 1.34195E+04 3.51614E+02-5.97765E-10 6.64841E-10
 -1       359-3.60434E+05 2.93729E+03 7.96776E+03-1.74031E+04 1.07786E-09-6.04700E-10
 -1       360-3.62396E+05-3.37647E+02 3.28517E+03 5.15231E+02-6.39147E-10 3.34194E-09
 -1       361-3.61896E+05 3.79042E+02 1.61846E+03-1.76489E+04-6.78938E-10 6.00443E-09
 -1       362-3.62194E+05-2.99357E+01 3.27374E+02 5.97369E+02-5.15399E-10 2.21229E-09
 -1       363-3.62213E+05-6.73590E+01-6.74557E+02-1.77297E+04 4.41265E-11 1.06718E-09
 -1       364-3.62091E+05 1.05581E+02-1.91692E+03 5.96058E+02 8.95511E-10-3.18107E-09
 -1       365-3.62757E+05-9.60611E+02-4.57926E+03-1.76451E+04-9.14667E-10 1.49839E-09
 -1       366-3.61639E+05 8.28640E+02-8.43273E+03 5.12690E+02-3.25144E-10 5.32282E-09
 -1       367-3.66166E+05-7.32210E+03-1.98730E+04-1.73916E+04 4.98176E-10 2.44654E-09
 -1       368-3.58649E+05 6.19923E+03-3.33757E+04 3.42572E+02-1.24601E-10-5.88989E-09
 -1       369-3.89879E+05-5.47556E+04-8.76049E+04-1.69301E+04-2.26100E-09-3.56886E-09
 -1       370-3.37859E+05 4.62035E+04-1.28520E+05 5.42668E+01 2.08547E-09 3.36149E-09
 -1       371-1.11550E+04-5.99203E+05 2.79163E+04 6.77634E+03 1.19326E-08 1.76988E-09
 -1       372 1.11528E+04-5.88815E+05 1.25118E+04-1.89345E+05 1.17839E-08-2.16789E-09
 -1       373 1.41578E+03-5.92358E+05-7.34601E+03 7.55898E+03 1.57161E-08 3.00395E-09
 -1       374-2.25657E+04-6.05684E+05-3.61176E+04-1.89322E+05 1.31408E-08 2.37014E-09
 -1       375 2.10941E+04-5.82304E+05-5.86789E+04 6.75203E+03 1.00990E-08 9.82254E-11
 -1       376-1.54764E+06-1.94690E+05-7.16127E+04-5.92124E+05 1.43336E-09-1.36788E-09
 -1       377-1.57402E+06-2.59954E+05-4.80053E+04-5.91758E+05-1.90539E-09 4.79668E-09
 -1       378-1.56217E+06-2.16595E+05-1.68911E+04-5.87482E+05 1.13687E-13 3.69528E-09
 -1       379-1.55693E+06-2.34478E+05-1.00349E+04-5.97740E+05 3.34431E-10 1.48075E-08
 -1       380-1.56459E+06-2.19249E+05-4.03234E+03-5.86485E+05-3.13364E-10-1.79375E-09
 -1       381-1.55408E+06-2.31467E+05-2.42267E+03-5.99038E+05 2.50662E-09 1.19599E-10
 -1       382-1.56502E+06-2.19483E+05-1.46649E+03-5.86234E+05-4.51688E-10 3.31099E-09
 -1       383-1.55384E+06-2.31209E+05-1.77584E+03-5.99145E+05 7.92014E-10-5.44588E-10
 -1       384-1.56482E+06-2.19498E+05-2.72106E+03-5.86382E+05 1.37618E-09 3.38400E-09
 -1       385-1.55524E+06-2.32024E+05-6.10803E+03-5.98349E+05 5.44318E-10 2.22826E-10
 -1       386-1.56361E+06-2.18712E+05-1.10321E+04-5.87009E+05 5.25802E-10 5.65933E-09
 -1       387-1.56272E+06-2.41221E+05-2.81000E+04-5.95466E+05 2.61548E-09 7.18956E-10
 -1       388-1.55738E+06-2.10633E+05-4.74699E+04-5.89138E+05-7.03949E-10-5.57884E-09
 -1       389-1.60924E+06-3.14631E+05-1.35134E+05-5.80590E+05-2.76123E-09 6.66478E-09
 -1       390-1.51749E+06-1.47834E+05-2.01467E+05-6.00945E+05 1.48793E-09 4.36557E-11
 -1       406 1.05062E+04 1.23858E+06 2.02204E+04-1.79099E+05-2.13186E-09 7.74162E-09
 -1       407 4.58794E+03 1.24193E+06 1.58779E+04-2.02019E+05 9.55879E-10 2.18133E-08
 -1       408 3.49126E+03 1.23898E+06 1.87804E+04-1.78661E+05-3.26872E-09 8.10360E-09
 -1       409 1.36736E+04 1.24562E+06 3.56628E+04-2.02441E+05 1.19690E-09 5.80258E-09
 -1       410 3.98132E+04 1.23410E+06 6.89488E+04-1.78584E+05-3.26690E-09 3.66526E-09
 -1       466 2.00808E+06-6.92586E+04 1.90605E+05 1.04561E+04-3.36513E-10-1.90630E-09
 -1       467 2.08983E+06 8.07309E+04 1.30669E+05-9.88434E+04 3.21961E-10 4.36557E-10
 -1       468 2.03957E+06-9.45216E+03 4.95213E+04 3.85333E+03-7.50333E-10-2.16642E-09
 -1       469 2.05221E+06 1.07983E+04 2.98988E+04-8.81359E+04-6.51198E-10 1.23464E-09
 -1       470 2.04429E+06-1.30148E+03 1.28295E+04-2.41190E+02 3.00588E-10 2.62571E-09
 -1       471 2.04602E+06 1.69307E+03 7.54722E+03-8.20916E+04 2.81943E-10-2.21780E-09
 -1       472 2.04504E+06-1.81588E+02 4.17894E+03-2.19150E+03 1.68939E-10 1.74259E-09
 -1       473 2.04508E+06 7.30798E+02 3.80052E+03-8.01785E+04-4.95127E-10 2.69938E-09
 -1       474 2.04501E+06-2.18214E+02 4.76473E+03-2.15394E+03-5.14774E-10 2.34650E-09
 -1       475 2.04627E+06 2.03439E+03 9.16932E+03-8.22510E+04-1.90994E-11-4.11546E-10
 -1       476 2.04408E+06-1.60930E+03 1.58874E+04-1.19221E+02 1.09003E-09 2.94858E-09
 -1       477 2.05376E+06 1.34511E+04 3.71712E+04-8.84611E+04-2.45109E-10 2.06319E-09
 -1       478 2.03825E+06-1.17281E+04 6.17305E+04 4.05676E+03-1.32513E-09-3.81260E-09
 -1       479 2.10013E+06 1.00695E+05 1.62733E+05-9.93981E+04-2.95358E-09-5.10954E-09
 -1       480 1.99915E+06-8.61503E+04 2.37688E+05 1.08030E+04-2.75031E-09-1.44064E-09
 -1       481-1.68597E+04 4.18233E+05 4.68848E+04-2.83166E+03 8.91305E-11 7.35781E-10
 -1       482 2.02590E+04 4.38632E+05 3.36808E+04 2.87360E+04-5.45697E-11 9.23296E-09
 -1       483-2.99234E+03 4.25470E+05 1.54686E+04-2.16776E+03 1.84173E-10 3.02134E-09
 -1       484 8.55762E+03 4.32327E+05 1.66311E+04 2.75822E+04 7.17080E-11 2.90129E-10
 -1       485-5.48710E+03 4.24291E+05 1.66792E+04-1.67941E+03 1.53250E-10-1.64709E-09
 -1       486-2.00680E+06-2.26159E+05-1.91406E+05-7.90758E+05-3.34694E-10-2.03727E-09
 -1       487-2.09182E+06-3.85007E+05-1.28130E+05-7.71836E+05-6.07088E-11-1.06229E-09
 -1       488-2.04740E+06-2.82936E+05-4.51815E+04-7.76384E+05-1.30854E-09-1.63709E-11
 -1       489-2.04269E+06-3.20532E+05-2.65831E+04-7.91984E+05-2.20098E-10-1.47884E-09
 -1       490-2.05565E+06-2.88140E+05-1.06057E+04-7.71599E+05 1.77351E-09 1.48975E-09
 -1       491-2.03166E+06-3.16082E+05-5.85976E+03-7.99809E+05 1.24146E-09 5.40695E-10
 -1       492-2.05859E+06-2.86937E+05-2.87344E+03-7.68827E+05 5.92536E-10 4.08590E-10
 -1       493-2.02768E+06-3.18418E+05-2.25153E+03-8.04226E+05 1.31274E-09-1.53591E-09
 -1       494-2.05983E+06-2.85642E+05-2.52819E+03-7.67338E+05-1.18894E-09-3.39924E-11
 -1       495-2.02700E+06-3.20783E+05-5.00552E+03-8.05849E+05-5.42968E-10 2.58802E-09
 -1       496-2.05937E+06-2.84536E+05-8.77445E+03-7.67264E+05 4.35307E-10 1.32604E-09
 -1       497-2.03278E+06-3.28086E+05-2.21877E+04-8.03619E+05 9.84215E-10 1.44337E-09
 -1       498-2.05407E+06-2.78621E+05-3.74585E+04-7.69450E+05 7.23048E-10 1.41154E-09
 -1       499-2.07094E+06-3.84268E+05-1.06532E+05-7.89763E+05 6.68024E-10 1.87356E-10
 -1       500-2.02141E+06-2.30458E+05-1.58978E+05-7.80284E+05-1.74623E-10 1.48430E-09
 -1       501-8.72034E+04-1.80778E+04 4.75115E+04 1.90605E+03 4.96402E-09-3.31784E-09
 -1       502-6.27767E+04 2.00465E+04 3.32794E+04-8.14870E+04 1.88538E-09 5.12000E-09
 -1       503-7.89450E+04-2.67334E+03 1.22112E+04 2.25360E+03 4.79304E-10 4.07636E-09
 -1       504-7.39565E+04 2.71253E+03 7.70686E+03-8.20375E+04-2.74667E-10-1.15131E-09
 -1       505-7.75254E+04-4.50912E+02 3.12656E+03 2.45105E+03 1.72258E-09 5.63523E-09
 -1       506-7.66905E+04 7.18342E+02 1.97253E+03-8.23453E+04 4.17094E-09-3.96653E-09
 -1       507-7.71933E+04-7.51864E+01 1.04799E+03 2.56127E+03 3.32830E-09 2.12287E-09
 -1       508-7.75132E+04 6.38889E+02 9.94655E+02-8.24839E+04 1.69172E-09-2.77566E-10
 -1       509-7.71578E+04-5.76391E+01 1.26001E+03 2.59138E+03 3.04038E-09 6.35069E-09
 -1       510-7.71734E+04 9.81537E+02 2.43179E+03-8.24608E+04 4.07647E-09 6.12658E-10
 -1       511-7.74561E+04-4.60532E+02 4.17470E+03 2.53789E+03 2.61571E-09 4.44197E-09
 -1       512-7.45869E+04 3.85628E+03 9.90100E+03-8.22682E+04 4.12501E-09 5.62670E-09
 -1       513-7.91354E+04-3.24358E+03 1.62135E+04 2.39720E+03 2.91948E-10-2.29193E-10
 -1       514-6.12045E+04 2.67779E+04 4.32680E+04-8.18442E+04-1.27329E-09-3.49246E-10
 -1       515-8.96987E+04-2.31830E+04 6.26287E+04 2.11252E+03 3.60160E-10-4.24188E-09
 -1       516-3.10748E+04 3.21201E+05 8.88729E+04 1.60548E+03 4.54747E-09 2.01867E-09
 -1       517 4.17390E+04 3.57148E+05 6.86271E+04-1.32020E+05-3.01497E-10 1.02362E-08
 -1       518-7.70398E+03 3.33130E+05 4.02721E+04 1.95094E+03 3.43948E-09 5.59294E-09
 -1       519 3.66225E+04 3.56729E+05 6.19911E+04-1.33121E+05 5.75710E-10-6.27551E-11
 -1       520-2.70785E+04 3.22923E+05 7.62374E+04 2.69241E+03 1.65892E-09-1.30422E-09
 -1       521-4.29031E+06-4.95937E+05-3.72856E+05-1.68619E+06-2.91038E-09-3.71074E-09
 -1       522-4.47585E+06-7.86169E+05-2.49728E+05-1.62673E+06 3.09592E-09 3.23053E-09
 -1       523-4.37341E+06-6.02921E+05-8.79768E+04-1.65362E+06-3.09683E-10-1.52431E-09
 -1       524-4.37214E+06-6.67978E+05-5.17219E+04-1.67476E+06 4.16321E-10-3.55794E-09
 -1       525-4.39317E+06-6.09310E+05-2.06472E+04-1.63994E+06 2.81034E-10 2.04636E-10
 -1       526-4.34504E+06-6.65099E+05-1.14298E+04-1.69695E+06 1.24942E-09-2.53294E-09
 -1       527-4.40092E+06-6.04797E+05-5.62938E+03-1.63204E+06-2.64572E-09 1.48566E-09
 -1       528-4.33572E+06-6.71379E+05-4.57492E+03-1.70768E+06-5.01348E-09 2.73828E-09
 -1       529-4.40294E+06-6.02648E+05-5.24523E+03-1.62958E+06-7.04290E-11 1.76760E-09
 -1       530-4.33764E+06-6.72766E+05-1.05667E+04-1.70663E+06 4.74074E-09 2.07478E-09
 -1       531-4.39900E+06-6.03493E+05-1.87004E+04-1.63305E+06 2.00782E-09-2.02090E-09
 -1       532-4.35740E+06-6.80302E+05-4.71384E+04-1.69209E+06-4.54548E-09 7.46695E-10
 -1       533-4.38284E+06-5.96002E+05-7.99292E+04-1.64358E+06 1.16825E-09 3.52884E-09
 -1       534-4.44939E+06-7.89506E+05-2.27079E+05-1.64990E+06-6.62112E-10-8.73115E-10
 -1       535-4.30744E+06-4.98920E+05-3.39098E+05-1.67339E+06-4.65661E-10 2.31375E-09
 -1       536 1.21084E+06-6.52338E+04 1.81517E+05 3.66439E+03-2.02454E-09-6.83940E-10
 -1       537 1.28494E+06 7.70769E+04 1.23750E+05-2.56072E+04-3.70073E-09-3.56522E-10
 -1       538 1.24024E+06-8.78480E+03 4.71581E+04 2.25825E+03-5.30235E-10-6.90488E-09
 -1       539 1.25116E+06 1.02555E+04 2.81987E+04-2.32417E+04 2.33649E-09 7.36691E-10
 -1       540 1.24451E+06-1.18768E+03 1.20899E+04 1.30700E+03-6.01858E-10 2.17369E-09
 -1       541 1.24617E+06 1.36058E+03 6.86903E+03-2.17042E+04 9.94987E-10 1.80898E-09
 -1       542 1.24515E+06-1.71646E+02 3.44890E+03 7.20842E+02-1.32218E-10 4.19573E-09
 -1       543 1.24544E+06 2.79871E+02 2.52593E+03-2.08718E+04-1.05624E-09 6.06448E-10
 -1       544 1.24520E+06-1.10339E+02 2.49412E+03 4.74516E+02 8.42419E-11 1.52420E-09
 -1       545 1.24573E+06 8.12511E+02 4.21705E+03-2.07065E+04-2.45834E-10 5.37875E-09
 -1       546 1.24485E+06-6.80048E+02 7.10086E+03 5.55559E+02 3.48450E-11-1.76192E-09
 -1       547 1.24855E+06 5.93769E+03 1.63119E+04-2.11994E+04 5.09317E-10-4.43833E-09
 -1       548 1.24240E+06-5.05542E+03 2.72228E+04 9.67467E+02 8.15589E-10-1.49157E-10
 -1       549 1.26799E+06 4.44635E+04 7.13391E+04-2.23757E+04 7.85349E-10 3.02316E-09
 -1       550 1.22545E+06-3.75958E+04 1.04623E+05 1.72971E+03-1.55137E-09-1.91358E-09
 -1       551 2.65331E+04-4.19984E+05 4.09438E+04-6.63358E+05 1.34241E-09 4.68572E-09
 -1       552 1.38548E+04-4.14689E+05 2.58828E+04-7.51029E+05 8.22183E-10 6.19912E-09
 -1       553 8.92227E+03-4.19753E+05 2.23679E+04-6.62352E+05 1.45519E-10 4.11819E-09
 -1       554 1.85989E+04-4.13505E+05 3.55466E+04-7.51336E+05 1.29512E-09 4.56384E-09
 -1       555 4.13988E+04-4.23179E+05 6.47900E+04-6.62960E+05 1.50249E-09-2.23736E-09
 -1       556-3.27971E+05-2.01340E+05 2.34534E+04-3.46516E+05-7.21411E-09-1.51558E-08
 -1       557-3.04787E+05-2.28552E+05 1.13605E+04-3.65609E+05-5.96629E-09-2.74213E-10
 -1       558-3.29682E+05-2.10589E+05 4.72928E+03-3.41508E+05 3.27418E-09 2.16187E-08
 -1       559-3.07413E+05-2.32765E+05 2.33437E+03-3.66760E+05 1.47338E-09 2.45961E-09
 -1       560-3.30528E+05-2.10584E+05 1.01680E+03-3.41689E+05 2.08820E-09-3.56022E-09
 -1       561-3.08336E+05-2.32709E+05 4.89132E+02-3.67413E+05 1.28421E-09 4.04725E-11
 -1       562-3.31079E+05-2.10270E+05 1.60523E+02-3.42039E+05 1.04192E-08 3.37423E-09
 -1       563-3.08812E+05-2.32506E+05-3.33667E+01-3.67746E+05 1.46883E-08-8.70932E-09
 -1       564-3.31324E+05-2.10107E+05-2.78909E+02-3.42211E+05 8.33643E-09-9.64064E-10
 -1       565-3.08977E+05-2.32445E+05-6.99036E+02-3.67839E+05 8.74024E-10-4.80213E-10
 -1       566-3.31238E+05-2.10125E+05-1.50529E+03-3.42178E+05 1.93950E-09-1.56433E-09
 -1       567-3.09103E+05-2.32758E+05-3.34882E+03-3.67628E+05 3.41151E-09-1.20599E-09
 -1       568-3.30718E+05-2.11136E+05-6.95142E+03-3.41626E+05 7.38510E-09 1.05101E-08
 -1       569-3.12499E+05-2.37805E+05-1.64421E+04-3.65723E+05-1.32968E-09-5.58794E-09
 -1       570-3.29355E+05-2.27110E+05-3.42649E+04-3.35067E+05-1.06593E-09-2.11912E-09
 -1       571 7.96192E+05 4.30752E+04 7.63143E+04-1.94829E+05 1.34969E-09-1.70758E-09
 -1       572 8.08774E+05 1.37192E+04 3.79311E+04-2.19633E+05-1.00408E-09 1.35697E-09
 -1       573 8.01026E+05 2.19657E+03 1.69571E+04-1.94085E+05-1.70985E-09 5.26052E-09
 -1       574 8.02211E+05 5.43351E+02 8.58839E+03-2.20352E+05-1.87720E-09 2.98314E-10
 -1       575 8.01211E+05-1.29375E+02 4.10788E+03-1.94015E+05-1.25510E-10-2.95768E-09
 -1       576 8.01269E+05-6.44601E+01 2.12606E+03-2.20428E+05-2.52840E-10 4.90945E-09
 -1       577 8.01160E+05-7.85827E+01 1.09401E+03-1.94009E+05-1.99520E-10 1.01863E-10
 -1       578 8.01179E+05-5.53206E+01 6.76083E+02-2.20437E+05 1.35515E-09 3.51065E-09
 -1       579 8.01300E+05-1.28091E+02 5.47806E+02-1.94006E+05 9.93168E-10 4.01633E-09
 -1       580 8.01481E+05-2.03080E+02 7.33121E+02-2.20438E+05 1.30240E-09 3.21415E-09
 -1       581 8.01671E+05-3.46415E+02 1.22308E+03-1.94008E+05-1.52795E-09 2.48474E-09
 -1       582 8.02251E+05-3.01390E+02 2.48703E+03-2.20348E+05-1.41881E-09 6.13909E-09
 -1       583 8.02150E+05-2.23320E+00 4.82659E+03-1.94095E+05-6.62112E-10 2.15005E-09
 -1       584 8.04839E+05 3.11211E+03 1.08272E+04-2.19428E+05-6.33372E-09 3.48791E-09
 -1       585 8.01413E+05 1.13516E+04 2.17037E+04-1.94965E+05 1.02591E-09 2.57569E-09
 -1       586 8.96031E+03 1.83369E+05 1.27788E+04-6.91878E+05 2.96859E-09 4.84215E-09
 -1       587 6.27516E+03 1.84149E+05 9.98495E+03-7.83225E+05 2.97587E-09-1.62800E-09
 -1       588 5.14151E+03 1.82135E+05 1.14097E+04-6.90927E+05 2.96859E-09 3.55612E-09
 -1       589 1.15481E+04 1.86173E+05 2.13597E+04-7.83321E+05 2.97950E-09-4.24188E-09
 -1       590 2.58970E+04 1.80633E+05 4.07996E+04-6.91752E+05 3.61160E-09-3.07045E-09
 -1       591-3.10165E+05-1.40102E+05-5.02943E+04-2.02789E+05 1.52600E-08-3.78350E-10
 -1       592-3.07016E+05-1.34144E+05-2.41839E+04-2.22614E+05 1.55405E-08-1.36129E-08
 -1       593-3.10961E+05-1.17398E+05-1.02275E+04-2.12519E+05 7.90169E-09-6.04359E-09
 -1       594-3.01880E+05-1.26460E+05-4.97266E+03-2.24386E+05-8.18545E-12-9.15492E-10
 -1       595-3.11278E+05-1.16164E+05-2.28220E+03-2.13134E+05-1.69166E-10 1.30990E-09
 -1       596-3.01518E+05-1.26042E+05-1.16535E+03-2.24485E+05 1.38380E-09-5.35465E-10
 -1       597-3.11380E+05-1.16133E+05-6.57510E+02-2.13182E+05 8.96762E-10 3.59796E-09
 -1       598-3.01508E+05-1.26026E+05-5.69997E+02-2.24497E+05 1.18325E-09 5.04770E-10
 -1       599-3.11376E+05-1.16127E+05-7.81787E+02-2.13183E+05 5.16525E-09 1.06675E-08
 -1       600-3.01538E+05-1.26040E+05-1.49523E+03-2.24494E+05 1.53113E-09-1.05501E-10
 -1       601-3.11254E+05-1.16149E+05-2.98428E+03-2.13129E+05-2.76850E-09 3.35240E-09
 -1       602-3.02039E+05-1.26588E+05-6.54157E+03-2.24398E+05 8.47649E-10 4.47471E-10
 -1       603-3.10885E+05-1.17749E+05-1.34610E+04-2.12335E+05 2.39015E-09 4.08181E-09
 -1       604-3.08752E+05-1.36784E+05-3.18436E+04-2.22213E+05-4.05544E-09-5.95719E-10
 -1       605-3.09963E+05-1.47518E+05-6.62101E+04-1.99446E+05-1.52068E-09-4.07817E-09
 -1       606 1.84607E+05-2.48423E+04-4.35605E+04 5.82139E+04-6.30826E-09 2.47201E-09
 -1       607 1.77240E+05-7.96320E+03-2.16298E+04 6.49140E+04 1.77624E-08 1.85582E-09
 -1       608 1.81385E+05-1.32056E+03-9.68350E+03 5.77329E+04 2.27628E-08-2.38515E-09
 -1       609 1.80481E+05-2.03925E+02-4.88358E+03 6.53986E+04-5.95537E-09-2.56478E-09
 -1       610 1.80927E+05 2.18391E+02-2.33565E+03 5.76796E+04-1.64691E-08-1.14233E-09
 -1       611 1.80708E+05 3.11688E+02-1.18045E+03 6.54500E+04-2.66518E-08 7.14908E-09
 -1       612 1.80768E+05 3.02675E+02-5.76102E+02 5.76754E+04-1.22873E-08 2.25282E-09
 -1       613 1.80647E+05 3.67710E+02-2.79816E+02 6.54533E+04-1.64328E-08-3.24462E-09
 -1       614 1.80667E+05 3.33744E+02-1.19584E+02 5.76746E+04-3.89264E-09-5.68571E-09
 -1       615 1.80569E+05 4.06509E+02-1.50137E+01 6.54516E+04 1.41899E-08-8.57108E-09
 -1       616 1.80594E+05 3.68739E+02 7.72282E+01 5.76759E+04-8.78208E-09 9.38599E-10
 -1       617 1.80525E+05 4.60915E+02 2.23585E+02 6.54490E+04 7.55927E-09 6.98265E-09
 -1       618 1.80531E+05 4.67205E+02 4.68848E+02 5.76760E+04 1.15588E-08-3.57159E-09
 -1       619 1.80654E+05 8.61803E+02 1.06553E+03 6.54504E+04 2.27865E-08 1.90994E-09
 -1       620 1.80354E+05 1.64197E+03 2.15105E+03 5.76681E+04 1.63707E-08-2.69301E-09
 -1       621 5.72937E+03 6.81188E+05 1.12927E+04-9.44013E+04-3.13412E-09-4.65297E-09
 -1       622 2.55742E+03 6.83244E+05 9.61582E+03-1.07325E+05 7.67614E-10-1.92513E-08
 -1       623 2.12244E+03 6.81631E+05 1.23386E+04-9.45632E+04-2.86764E-09-1.02827E-08
 -1       624 9.08207E+03 6.86383E+05 2.42593E+04-1.06775E+05 2.18552E-09-5.95355E-09
 -1       625 2.70613E+04 6.78534E+05 4.73298E+04-9.49351E+04-1.77715E-09-4.82760E-09
 -1       626 2.39194E+05 8.50474E+04-2.56996E+04 1.79254E+05-5.82440E-09-2.26646E-09
 -1       627 2.28255E+05 1.00574E+05-1.23535E+04 1.83287E+05 8.94215E-09 7.90294E-09
 -1       628 2.39159E+05 9.61822E+04-5.22798E+03 1.73681E+05 1.34460E-08 6.27597E-09
 -1       629 2.30244E+05 1.05069E+05-2.52595E+03 1.82919E+05 2.82926E-08 5.12603E-09
 -1       630 2.38962E+05 9.68084E+04-1.13848E+03 1.73256E+05 9.47512E-09 3.11024E-09
 -1       631 2.30285E+05 1.05369E+05-5.27244E+02 1.82869E+05-5.09499E-09-3.71836E-09
 -1       632 2.38838E+05 9.68502E+04-1.94112E+02 1.73181E+05-5.65524E-09-3.87399E-09
 -1       633 2.30224E+05 1.05406E+05 1.68824E+01 1.82826E+05-2.88492E-09 9.39053E-11
 -1       634 2.38764E+05 9.68559E+04 2.32163E+02 1.73148E+05 1.22827E-08-3.64116E-09
 -1       635 2.30218E+05 1.05416E+05 5.99832E+02 1.82813E+05 1.24755E-08 1.88902E-09
 -1       636 2.38721E+05 9.68548E+04 1.27275E+03 1.73133E+05-5.44128E-09-6.00994E-09
 -1       637 2.30493E+05 1.05628E+05 2.83140E+03 1.82803E+05 2.84126E-09 5.80985E-09
 -1       638 2.38634E+05 9.75061E+04 5.83330E+03 1.72840E+05 3.00133E-09-3.07227E-09
 -1       639 2.33583E+05 1.09953E+05 1.38145E+04 1.81886E+05 2.91716E-08-5.91172E-10
 -1       640 2.38344E+05 1.10400E+05 2.87131E+04 1.67364E+05 2.82052E-08-4.31601E-09
 -1       641 1.50747E+04 4.71480E+03-1.32822E+04-4.56456E+02-1.84436E-08-2.12640E-09
 -1       642 9.77768E+03-5.48046E+03-8.99984E+03 1.87943E+04-1.63209E-08 8.87314E-09
 -1       643 1.29577E+04 6.15179E+02-3.44743E+03-4.62010E+02-1.60010E-08-3.53384E-09
 -1       644 1.21062E+04-5.71502E+02-2.01694E+03 1.87946E+04-7.75344E-10 4.62035E-09
 -1       645 1.26639E+04 7.21150E+01-8.37507E+02-4.58072E+02 1.76669E-10-4.56697E-09
 -1       646 1.23870E+04 1.07287E+02-3.87222E+02 1.87851E+04-2.88032E-08-4.47841E-10
 -1       647 1.26223E+04-9.93323E-02-4.40242E+01-4.53018E+02 2.45604E-08 1.79102E-09
 -1       648 1.24302E+04 2.41834E+02 2.60116E+02 1.87781E+04 5.79389E-08 4.99566E-09
 -1       649 1.25934E+04-4.00120E+01 6.53890E+02-4.51418E+02 3.01758E-08-1.00232E-08
 -1       650 1.26141E+04 5.33251E+02 1.53082E+03 1.87769E+04 2.46515E-08-5.82077E-09
 -1       651 1.24382E+04-2.82983E+02 2.80183E+03-4.51820E+02-1.02224E-08-6.18650E-09
 -1       652 1.38025E+04 2.62906E+03 6.60691E+03 1.87758E+04-1.11469E-08-2.21598E-09
 -1       653 1.14323E+04-2.07455E+03 1.10714E+04-4.50551E+02 1.28666E-08-4.82214E-09
 -1       654 2.17831E+04 1.83485E+04 2.90985E+04 1.87333E+04-2.37105E-09 1.54978E-09
 -1       655 4.51464E+03-1.53674E+04 4.26586E+04-4.11766E+02 1.87656E-08-6.19730E-09
 -1       656 3.85052E+04-9.98678E+05-1.10306E+05 1.84352E+03 5.64614E-09 5.33601E-09
 -1       657-5.06164E+04-1.04434E+06-8.57453E+04 5.34452E+04 2.31103E-09 6.85634E-09
 -1       658 9.70348E+03-1.01345E+06-5.14012E+04 1.15912E+03 3.63491E-09 9.82470E-09
 -1       659-4.68403E+04-1.04257E+06-8.03421E+04 5.40250E+04-5.62886E-09 5.32680E-09
 -1       660 3.49472E+04-1.00053E+06-1.00643E+05 1.26593E+03 7.88350E-09 1.04376E-09
 -1       661 1.08347E+06 1.24117E+05 9.33798E+04 4.23850E+05-7.44149E-09 9.16771E-10
 -1       662 1.11310E+06 2.14384E+05 6.26372E+04 4.29196E+05 2.49904E-08 4.43197E-09
 -1       663 1.10089E+06 1.54279E+05 2.20262E+04 4.19652E+05-5.91217E-09-2.71393E-09
 -1       664 1.09332E+06 1.78582E+05 1.30839E+04 4.33916E+05-2.99628E-08-1.13705E-08
 -1       665 1.10304E+06 1.58791E+05 5.18774E+03 4.19540E+05-5.27990E-09 4.91605E-09
 -1       666 1.09098E+06 1.73173E+05 2.99011E+03 4.33879E+05-1.18308E-08 3.75218E-09
 -1       667 1.10319E+06 1.59565E+05 1.55705E+03 4.19723E+05-1.27332E-09 6.46526E-09
 -1       668 1.09086E+06 1.72418E+05 1.49061E+03 4.33681E+05-1.49552E-09-7.59067E-09
 -1       669 1.10315E+06 1.59539E+05 1.95536E+03 4.19735E+05 1.82446E-08 1.05946E-08
 -1       670 1.09123E+06 1.73469E+05 4.16161E+03 4.33803E+05 1.96866E-08 6.12380E-09
 -1       671 1.10282E+06 1.58529E+05 7.41025E+03 4.19599E+05-4.15974E-09-1.24192E-08
 -1       672 1.09493E+06 1.80948E+05 1.88141E+04 4.33474E+05-1.74678E-08-3.66958E-09
 -1       673 1.09951E+06 1.52248E+05 3.17242E+04 4.20005E+05-2.35623E-08-7.62157E-09
 -1       674 1.12393E+06 2.31981E+05 9.02253E+04 4.26032E+05-5.62477E-09-5.60522E-09
 -1       675 1.07409E+06 1.09143E+05 1.34566E+05 4.26431E+05 2.09566E-08-1.45519E-10
 -1       676 1.61371E+04-9.47027E+05-4.68423E+04 3.20757E+03 1.03046E-08 1.33173E-09
 -1       677-2.21537E+04-9.66466E+05-3.81942E+04 3.18225E+04 1.30824E-08 1.20190E-08
 -1       678 4.84037E+03-9.52787E+05-2.57011E+04 2.70246E+03 2.49629E-08 2.84365E-09
 -1       679-2.67426E+04-9.68852E+05-4.48393E+04 3.24087E+04 1.29048E-08-3.09274E-09
 -1       680 2.05674E+04-9.44695E+05-5.86359E+04 2.62162E+03 2.11585E-08 1.17808E-10
 -1       681 6.63504E+05-1.30442E+04 3.61821E+04 1.34507E+03-1.77351E-11-8.07631E-10
 -1       682 6.78395E+05 1.53667E+04 2.47121E+04-1.90331E+04-8.04903E-11-6.43922E-10
 -1       683 6.69387E+05-1.76265E+03 9.41798E+03 8.50557E+02 1.11186E-10-1.07184E-09
 -1       684 6.71587E+05 2.04397E+03 5.67284E+03-1.81933E+04-2.72507E-10-2.07399E-09
 -1       685 6.70245E+05-2.41175E+02 2.49249E+03 5.06132E+02 5.21823E-11 2.91834E-10
 -1       686 6.70563E+05 2.87430E+02 1.54663E+03-1.76574E+04-1.94575E-10 1.27329E-10
 -1       687 6.70370E+05-4.35837E+01 1.02585E+03 3.14606E+02 3.87672E-11 1.71369E-09
 -1       688 6.70456E+05 1.45816E+02 1.22166E+03-1.74213E+04-3.95900E-10 6.52644E-10
 -1       689 6.70333E+05-9.21725E+01 1.85043E+03 2.70048E+02 1.28338E-10-6.13852E-10
 -1       690 6.70857E+05 7.83627E+02 3.81841E+03-1.74798E+04 7.59428E-11-8.78117E-10
 -1       691 6.69971E+05-6.65073E+02 6.79427E+03 3.73131E+02 1.62345E-10-3.45608E-11
 -1       692 6.73642E+05 5.81303E+03 1.58773E+04-1.78331E+04 1.32388E-10 1.88061E-09
 -1       693 6.67571E+05-4.94829E+03 2.65846E+04 6.23339E+02-1.97133E-10 4.43833E-10
 -1       694 6.92652E+05 4.35142E+04 6.97645E+04-1.84916E+04-7.14408E-10-1.36060E-09
 -1       695 6.51006E+05-3.67863E+04 1.02339E+05 1.02976E+03-2.16914E-10-1.48430E-09
 -1       696-1.31994E+04 6.72127E+05 3.60373E+04-7.53223E+01 8.36735E-11 7.70797E-11
 -1       697 1.48842E+04 6.86314E+05 2.24547E+04-4.50834E+04 1.42336E-10-4.17913E-10
 -1       698-8.94842E+02 6.78572E+05 4.76173E+03-2.18692E+02-2.97405E-10 2.54951E-09
 -1       699-5.56910E+03 6.76051E+05-7.07104E+03-4.51400E+04-3.41061E-10 3.95198E-09
 -1       700 6.37470E+03 6.82412E+05-1.65365E+04-2.01267E+01-2.79215E-10 2.07751E-09
 -1       701-5.88380E+05-5.60169E+04-8.12347E+04-2.33043E+05-3.01952E-10-3.12866E-10
 -1       702-6.22274E+05-1.26199E+05-5.44572E+04-2.28281E+05-3.00815E-10-4.72937E-10
 -1       703-6.04392E+05-8.13631E+04-1.91550E+04-2.28360E+05 3.68345E-11 4.22915E-10
 -1       704-6.03662E+05-9.65289E+04-1.13433E+04-2.34161E+05 3.86990E-10 2.48292E-10
 -1       705-6.06858E+05-8.46594E+04-4.48805E+03-2.27555E+05 6.61657E-11 1.71758E-09
 -1       706-6.00721E+05-9.27778E+04-2.53693E+03-2.35268E+05-4.48210E-10-5.77074E-10
 -1       707-6.07328E+05-8.49772E+04-1.24806E+03-2.27312E+05 6.38067E-10 1.49743E-09
 -1       708-6.00180E+05-9.25236E+04-1.05476E+03-2.35618E+05-2.39737E-10 7.78542E-10
 -1       709-6.07408E+05-8.48933E+04-1.24247E+03-2.27217E+05-2.28169E-10 7.62469E-10
 -1       710-6.00423E+05-9.30977E+04-2.52904E+03-2.35656E+05-1.91008E-10-3.93129E-10
 -1       711-6.07093E+05-8.44131E+04-4.46070E+03-2.27273E+05-5.15570E-11-3.20142E-10
 -1       712-6.03061E+05-9.71412E+04-1.12933E+04-2.34926E+05-1.64846E-10 3.25144E-10
 -1       713-6.04788E+05-8.09776E+04-1.90504E+04-2.27899E+05 5.45697E-12 4.71118E-10
 -1       714-6.21287E+05-1.26972E+05-5.41908E+04-2.29438E+05 1.96223E-10 5.27507E-11
 -1       715-5.89010E+05-5.55994E+04-8.08129E+04-2.32379E+05-3.36513E-10-4.36557E-10
 -1       716 3.87066E+05-2.83232E+04 7.81668E+04 1.49019E+03 1.48248E-10 4.94765E-10
 -1       717 4.19780E+05 3.33616E+04 5.34860E+04-5.24138E+04-3.32875E-10 5.17502E-10
 -1       718 3.99865E+05-3.84791E+03 2.03126E+04 8.73356E+02-8.54925E-10 7.30324E-10
 -1       719 4.04672E+05 4.61523E+03 1.22328E+04-5.14009E+04-1.06957E-09 2.62730E-09
 -1       720 4.01763E+05-5.23446E+02 5.29107E+03 4.79021E+02 2.01771E-09 1.81944E-09
 -1       721 4.02282E+05 8.44392E+02 3.14145E+03-5.08651E+04 2.99013E-09 3.70846E-09
 -1       722 4.02051E+05-7.94190E+01 1.83205E+03 3.37903E+02 2.71200E-09 1.55956E-09
 -1       723 4.02031E+05 4.44027E+02 1.81447E+03-5.08366E+04 2.20740E-09 1.75575E-09
 -1       724 4.02004E+05-1.29313E+02 2.42539E+03 4.50492E+02 2.20871E-09 6.26585E-10
 -1       725 4.02766E+05 1.13661E+03 4.83660E+03-5.13202E+04 1.48520E-09 8.72831E-10
 -1       726 4.01499E+05-8.78382E+02 8.41355E+03 8.21084E+02 4.71118E-10 8.24002E-10
 -1       727 4.06737E+05 7.23815E+03 1.97862E+04-5.23213E+04 7.62384E-10 1.11527E-09
 -1       728 3.98420E+05-6.26665E+03 3.28604E+04 1.45162E+03-6.33008E-10 3.98359E-10
 -1       729 4.31154E+05 5.38448E+04 8.66923E+04-5.38474E+04-1.75532E-09-4.92946E-10
 -1       730 3.77707E+05-4.59113E+04 1.26694E+05 2.34242E+03-3.83807E-10-1.73895E-09
 -1       731-2.30860E+04 2.31798E+05 6.39955E+04 2.08925E+03 1.21508E-09-3.91992E-10
 -1       732 2.75288E+04 2.57578E+05 4.33847E+04-9.04369E+04-4.00178E-11 5.76478E-10
 -1       733-3.01070E+03 2.42266E+05 1.60102E+04 2.04294E+03 1.16052E-09 2.19211E-09
 -1       734 3.21926E+03 2.45566E+05 8.36400E+03-9.05509E+04-2.18392E-10 2.32603E-09
 -1       735 9.88983E+01 2.43934E+05 1.55506E+03 2.20215E+03 5.97993E-10 1.36743E-09
 -1       736-1.78456E+06-2.06418E+05-1.35640E+05-6.90091E+05-8.36735E-11 6.03904E-10
 -1       737-1.84455E+06-3.20159E+05-9.09268E+04-6.78084E+05 5.18185E-10-1.67347E-10
 -1       738-1.81205E+06-2.48002E+05-3.19651E+04-6.81368E+05 2.61480E-11-4.60204E-10
 -1       739-1.81205E+06-2.71984E+05-1.89194E+04-6.89529E+05-9.12792E-10-2.02090E-09
 -1       740-1.81679E+06-2.52868E+05-7.47787E+03-6.79283E+05-5.26484E-10-2.40243E-09
 -1       741-1.80610E+06-2.66764E+05-4.21017E+03-6.92601E+05 3.36968E-10-1.69507E-10
 -1       742-1.81799E+06-2.52982E+05-2.04545E+03-6.78397E+05-8.16840E-10-2.18552E-09
 -1       743-1.80463E+06-2.66893E+05-1.67917E+03-6.93849E+05-2.96063E-09-2.40077E-09
 -1       744-1.81828E+06-2.52699E+05-1.91963E+03-6.78062E+05-1.10686E-09 3.90116E-10
 -1       745-1.80496E+06-2.67788E+05-3.85955E+03-6.93944E+05 1.58578E-09 2.81125E-09
 -1       746-1.81767E+06-2.52103E+05-6.78723E+03-6.78300E+05-9.69123E-10 1.08503E-09
 -1       747-1.80951E+06-2.73393E+05-1.71753E+04-6.92181E+05-3.43081E-09 1.14824E-10
 -1       748-1.81375E+06-2.47300E+05-2.89785E+04-6.79746E+05 1.55615E-09-3.71074E-10
 -1       749-1.83833E+06-3.17737E+05-8.24673E+04-6.82550E+05 3.19687E-10-1.42791E-09
 -1       750-1.78910E+06-2.09327E+05-1.22997E+05-6.87355E+05 1.07684E-09 1.45519E-11
 -1       751 3.12198E+06-1.35145E+05 3.77001E+05 9.40330E+03-3.02953E-09 6.54836E-10
 -1       752 3.27530E+06 1.59856E+05 2.56823E+05-3.44626E+04-4.88103E-09-6.05360E-09
 -1       753 3.18301E+06-1.81777E+04 9.80251E+04 5.21110E+03-9.97716E-10-1.48066E-09
 -1       754 3.20542E+06 2.13021E+04 5.86116E+04-2.76074E+04 2.04273E-09 2.49202E-09
 -1       755 3.19188E+06-2.44942E+03 2.52437E+04 2.56880E+03-1.04410E-09-2.18461E-09
 -1       756 3.19521E+06 2.84873E+03 1.44660E+04-2.34293E+04 3.44698E-10-5.81849E-10
 -1       757 3.19321E+06-3.62353E+02 7.54397E+03 1.03351E+03-2.96950E-10 1.38516E-09
 -1       758 3.19381E+06 6.66658E+02 6.02215E+03-2.12784E+04-1.85992E-10-9.05686E-10
 -1       759 3.19326E+06-3.04363E+02 6.63377E+03 4.17729E+02-6.73055E-10-2.95017E-09
 -1       760 3.19478E+06 2.33245E+03 1.19389E+04-2.08910E+04-1.23273E-09-1.30967E-09
 -1       761 3.19221E+06-1.96765E+03 2.04921E+04 6.46146E+02 3.09569E-10-1.58889E-09
 -1       762 3.20290E+06 1.72199E+04 4.72948E+04-2.22212E+04-5.01927E-11 3.55158E-09
 -1       763 3.18508E+06-1.46351E+04 7.90547E+04 1.74787E+03 1.99475E-09 2.42289E-09
 -1       764 3.25904E+06 1.28932E+05 2.06975E+05-2.54712E+04 8.55835E-10-2.40107E-09
 -1       765 3.13591E+06-1.08896E+05 3.03816E+05 3.88873E+03-2.26009E-09 3.18687E-09
 -1       766-5.71805E+04 7.08788E+05 1.62993E+05-2.28020E+03-1.02373E-08-2.14641E-09
 -1       767 7.35554E+04 7.77240E+05 1.24606E+05 7.35735E+03-3.91174E-09-1.67802E-09
 -1       768-1.34851E+04 7.31304E+05 7.12687E+04-1.32239E+03-6.44923E-09 7.07587E-10
 -1       769 6.05560E+04 7.70609E+05 1.05795E+05 5.56502E+03-6.68479E-10 9.64974E-10
 -1       770-4.47036E+04 7.15359E+05 1.29501E+05-4.95954E+02-2.59752E-09 2.83671E-09
 -1       771-1.65883E+06-3.56404E+05-9.57620E+04-7.05176E+05-6.43468E-09 8.87667E-10
 -1       772-1.66128E+06-3.36335E+05-4.60245E+04-7.32793E+05-1.95723E-09-2.11185E-09
 -1       773-1.66031E+06-3.13269E+05-1.94866E+04-7.23737E+05-2.48838E-09 5.31145E-10
 -1       774-1.65153E+06-3.21792E+05-9.45422E+03-7.36344E+05-1.30240E-09-5.02769E-09
 -1       775-1.66105E+06-3.10818E+05-4.34523E+03-7.24948E+05 1.41881E-10-1.68620E-09
 -1       776-1.65096E+06-3.20982E+05-2.17620E+03-7.36719E+05 2.47201E-09-5.74801E-10
 -1       777-1.66147E+06-3.10646E+05-1.17432E+03-7.25133E+05 7.63976E-10-1.48884E-09
 -1       778-1.65112E+06-3.20894E+05-8.71744E+02-7.36948E+05-6.23913E-10 1.85878E-09
 -1       779-1.66173E+06-3.10506E+05-1.05787E+03-7.25261E+05-1.88084E-09 1.81376E-09
 -1       780-1.65138E+06-3.20841E+05-1.88623E+03-7.37172E+05-1.96451E-10 1.01855E-09
 -1       781-1.66185E+06-3.10384E+05-3.70954E+03-7.25329E+05-1.65528E-10 6.28916E-10
 -1       782-1.65222E+06-3.21466E+05-8.09710E+03-7.37319E+05 8.09450E-10 1.84582E-09
 -1       783-1.66170E+06-3.12182E+05-1.66441E+04-7.24462E+05 8.60382E-10 6.74845E-10
 -1       784-1.66046E+06-3.34352E+05-3.94050E+04-7.35248E+05 6.91216E-11 3.41970E-10
 -1       785-1.66113E+06-3.48635E+05-8.19285E+04-7.08350E+05 2.54659E-10-3.92902E-10
 -1       786 1.46526E+06-5.44438E+04 1.51648E+05 2.04867E+03 1.50567E-09-2.48110E-09
 -1       787 1.52679E+06 6.44386E+04 1.03348E+05-1.28699E+04-3.95175E-10-7.11225E-10
 -1       788 1.48980E+06-7.31808E+03 3.94218E+04 1.32275E+03-1.69848E-10-3.00133E-10
 -1       789 1.49872E+06 8.59900E+03 2.35581E+04-1.16802E+04 4.04953E-10-1.21281E-09
 -1       790 1.49335E+06-9.83830E+02 1.01359E+04 8.62368E+02 7.59997E-10-9.98170E-10
 -1       791 1.49464E+06 1.14980E+03 5.78808E+03-1.09861E+04 1.61782E-09 5.84805E-09
 -1       792 1.49388E+06-1.43815E+02 2.98894E+03 6.28773E+02 5.37028E-10 5.98334E-10
 -1       793 1.49409E+06 2.56165E+02 2.33145E+03-1.07304E+04 5.85505E-10 2.61724E-09
 -1       794 1.49390E+06-1.14383E+02 2.50211E+03 6.06734E+02-3.80879E-10 6.73310E-10
 -1       795 1.49446E+06 8.61209E+02 4.44384E+03-1.08976E+04-7.35554E-11 2.15937E-09
 -1       796 1.49352E+06-7.31329E+02 7.59533E+03 7.95982E+02-5.12614E-10-2.18415E-09
 -1       797 1.49748E+06 6.38324E+03 1.75258E+04-1.14966E+04-3.58341E-10-1.09139E-10
 -1       798 1.49088E+06-5.43356E+03 2.92827E+04 1.20562E+03-9.47807E-10 3.15413E-09
 -1       799 1.51832E+06 4.78366E+04 7.67334E+04-1.25701E+04-2.99724E-09 6.06815E-09
 -1       800 1.47266E+06-4.04229E+04 1.12568E+05 1.86718E+03-5.43196E-10 1.14960E-09
 -1       801-5.04128E+04 1.23388E+06 1.39484E+05 9.49578E+03 2.26428E-08-5.43878E-09
 -1       802 7.55488E+04 1.29470E+06 1.21401E+05-5.76533E+05 2.63931E-08 4.55111E-09
 -1       803-1.62433E+04 1.25284E+06 8.89978E+04 5.64922E+03 3.35949E-08 4.96289E-09
 -1       804 1.06652E+05 1.31260E+06 1.67110E+05-5.77523E+05 2.85509E-08 7.10452E-09
 -1       805-8.11179E+04 1.21737E+06 2.20107E+05 1.04727E+04 1.48866E-08 4.86034E-09
 -1       806-7.86669E+05-2.02992E+05-7.53715E+04-3.55322E+05 8.94624E-09 5.45697E-10
 -1       807-7.88473E+05-1.87534E+05-3.62542E+04-3.77467E+05 2.58751E-09-4.59431E-09
 -1       808-7.87461E+05-1.69269E+05-1.53191E+04-3.70078E+05 1.57788E-08 2.78669E-09
 -1       809-7.80855E+05-1.75819E+05-7.45060E+03-3.79713E+05 2.29120E-08 3.54410E-09
 -1       810-7.87787E+05-1.67508E+05-3.40682E+03-3.70946E+05 8.16181E-09-7.94125E-09
 -1       811-7.80224E+05-1.75212E+05-1.72550E+03-3.79756E+05 4.88171E-10-5.78302E-09
 -1       812-7.87869E+05-1.67507E+05-9.38392E+02-3.70975E+05 7.69433E-10-3.69255E-10
 -1       813-7.80159E+05-1.75209E+05-7.53250E+02-3.79732E+05 5.91172E-11-1.03137E-09
 -1       814-7.87848E+05-1.67517E+05-9.60856E+02-3.70964E+05-8.36280E-10-3.10138E-10
 -1       815-7.80192E+05-1.75227E+05-1.78426E+03-3.79724E+05-4.38376E-10-2.95768E-09
 -1       816-7.87720E+05-1.67538E+05-3.53110E+03-3.70912E+05-5.69798E-09-1.58252E-09
 -1       817-7.80816E+05-1.75864E+05-7.72624E+03-3.79640E+05 4.94765E-10-3.65617E-10
 -1       818-7.87342E+05-1.69393E+05-1.58885E+04-3.69999E+05 2.04818E-09 1.54614E-10
 -1       819-7.88736E+05-1.87959E+05-3.75941E+04-3.77213E+05-2.00089E-09 1.34241E-09
 -1       820-7.86443E+05-2.04406E+05-7.81592E+04-3.54725E+05 1.46247E-09 9.62245E-09
 -1       821-9.67191E+05 3.94311E+04-1.09690E+05-1.80781E+03-7.15431E-09 3.76895E-09
 -1       822-1.01154E+06-4.66873E+04-7.47670E+04 7.75982E+03-6.07952E-09-2.62480E-09
 -1       823-9.84916E+05 5.27990E+03-2.85108E+04-2.50145E+03 8.95466E-09-2.85581E-10
 -1       824-9.91287E+05-6.19970E+03-1.70195E+04 9.00839E+03-1.41517E-09 1.54978E-09
 -1       825-9.87458E+05 6.94276E+02-7.33722E+03-3.05846E+03-1.41774E-08-1.19144E-10
 -1       826-9.88405E+05-7.77658E+02-4.19480E+03 9.96912E+03-2.51785E-08 8.02174E-10
 -1       827-9.87824E+05 9.01967E+01-2.20440E+03-3.46283E+03-1.74273E-08 1.89829E-09
 -1       828-9.88059E+05-1.23417E+02-1.77729E+03 1.06099E+04-2.02893E-08 3.47876E-09
 -1       829-9.87828E+05 7.90846E+01-1.99064E+03-3.69945E+03-2.07291E-09-8.78231E-11
 -1       830-9.88387E+05-6.30353E+02-3.61773E+03 1.09047E+04 1.02470E-08-4.99222E-09
 -1       831-9.87511E+05 5.89335E+02-6.22769E+03-3.75764E+03-8.76680E-09-8.72888E-10
 -1       832-9.90864E+05-5.19575E+03-1.44123E+04 1.08457E+04-2.82193E-09-1.88993E-09
 -1       833-9.85356E+05 4.46769E+03-2.40993E+04-3.63993E+03 1.73475E-09 9.08585E-10
 -1       834-1.00801E+06-3.94156E+04-6.32196E+04 1.04621E+04-3.88508E-09-1.84900E-09
 -1       835-9.70371E+05 3.33400E+04-9.27213E+04-3.36995E+03 5.01382E-09-2.20098E-09
 -1       836-9.46038E+04 3.07214E+06 2.72393E+05-2.56919E+03 7.31961E-09-2.18279E-11
 -1       837 1.27562E+05 3.18668E+06 2.18689E+05-2.17186E+05-1.80626E-09 3.68345E-09
 -1       838-2.64939E+04 3.10734E+06 1.41558E+05-6.98608E+03 7.18637E-09 8.73172E-09
 -1       839 1.41107E+05 3.19315E+06 2.38158E+05-2.16158E+05 8.00355E-11 9.14542E-09
 -1       840-1.07420E+05 3.06545E+06 3.07260E+05-3.59382E+03 3.31784E-09 7.20411E-09
 -1       841-4.92329E+05-4.72688E+04-6.92777E+04-1.96254E+05-4.46926E-09 7.10497E-09
 -1       842-5.34276E+05-9.39313E+04-4.64169E+04-1.77203E+05 9.71340E-10 4.43060E-09
 -1       843-5.05385E+05-6.94573E+04-1.63353E+04-1.92931E+05 7.09224E-09-2.41380E-09
 -1       844-5.19473E+05-6.76102E+04-9.65433E+03-1.81071E+05 1.32974E-08-1.45008E-09
 -1       845-5.07044E+05-7.26982E+04-3.80595E+03-1.92739E+05 7.50106E-10-2.51794E-09
 -1       846-5.17728E+05-6.36694E+04-2.10720E+03-1.81193E+05-2.53335E-08-3.10567E-09
 -1       847-5.07145E+05-7.32700E+04-9.57661E+02-1.92872E+05-8.86314E-09 8.08463E-10
 -1       848-5.17709E+05-6.29606E+04-6.53864E+02-1.80988E+05 1.19854E-10 3.54292E-09
 -1       849-5.07081E+05-7.33822E+04-5.88312E+02-1.92963E+05-1.01193E-09-1.69726E-09
 -1       850-5.17896E+05-6.30314E+04-1.03264E+03-1.80880E+05-5.09493E-09 9.23940E-10
 -1       851-5.06966E+05-7.31995E+04-1.75035E+03-1.92983E+05-1.18871E-09 5.60988E-10
 -1       852-5.18781E+05-6.47081E+04-4.37859E+03-1.80724E+05 1.99867E-08 2.87139E-09
 -1       853-5.06196E+05-7.17591E+04-7.37842E+03-1.93096E+05 2.73712E-09 7.11907E-09
 -1       854-5.25448E+05-7.65939E+04-2.09580E+04-1.78980E+05-4.98630E-10-2.08615E-09
 -1       855-5.00337E+05-6.17186E+04-3.12767E+04-1.94566E+05-1.07593E-09-4.63842E-10
 -1       856-1.13048E+06 3.84908E+04-1.07380E+05-4.71814E+03-7.54562E-09-1.06229E-09
 -1       857-1.17359E+06-4.55307E+04-7.31039E+04 2.12578E+04-1.04737E-08-7.60338E-10
 -1       858-1.14776E+06 5.10507E+03-2.79179E+04-6.20163E+03-2.03904E-08-4.94765E-10
 -1       859-1.15402E+06-5.85342E+03-1.66207E+04 2.38176E+04-5.22050E-10-4.08318E-09
 -1       860-1.15021E+06 6.32351E+02-7.16952E+03-7.28353E+03-9.76797E-10-1.88584E-09
 -1       861-1.15136E+06-4.93660E+02-4.06168E+03 2.55201E+04-2.34868E-08 8.74024E-10
 -1       862-1.15054E+06 4.68409E+01-2.08527E+03-7.90636E+03 3.56044E-08-3.23348E-09
 -1       863-1.15108E+06 1.81863E+02-1.59120E+03 2.62817E+04 6.44641E-08-1.15707E-08
 -1       864-1.15056E+06 2.39885E+01-1.66760E+03-8.04595E+03 2.73303E-08-9.42083E-09
 -1       865-1.15128E+06-2.20864E+02-2.92434E+03 2.60697E+04 2.64193E-08-9.52605E-09
 -1       866-1.15032E+06 4.23172E+02-4.99668E+03-7.69400E+03-4.32169E-09-7.93307E-10
 -1       867-1.15310E+06-3.91214E+03-1.14923E+04 2.48956E+04 2.54840E-09-2.10275E-09
 -1       868-1.14865E+06 3.50447E+03-1.92628E+04-6.87015E+03 1.54764E-08-3.76895E-09
 -1       869-1.16653E+06-3.12850E+04-5.04111E+04 2.28188E+04-9.40963E-09-4.54202E-09
 -1       870-1.13675E+06 2.65168E+04-7.40595E+04-5.61206E+03 2.72298E-08-1.21508E-09
 -1       871-5.09475E+03-2.53763E+04-7.02520E+03 1.14007E+05-1.80080E-10-1.43518E-09
 -1       872-1.93307E+03-2.64461E+04-1.80342E+03 1.28921E+05-2.02117E-08-1.62345E-09
 -1       873-1.90317E+02-2.61766E+04 2.56810E+03 1.13795E+05-6.49379E-10-1.33423E-09
 -1       874 2.91542E+03-2.43630E+04 8.85388E+03 1.29092E+05-2.23581E-08-1.42938E-09
 -1       875 1.06071E+04-2.76366E+04 1.92132E+04 1.13892E+05 1.38880E-09 1.66887E-09
 -1       876 1.17589E+06 1.30240E+05 1.12267E+05 4.60570E+05-4.60750E-09-4.63479E-09
 -1       877 1.21001E+06 2.40505E+05 7.53346E+04 4.68992E+05 2.23031E-08 2.89219E-09
 -1       878 1.19662E+06 1.66761E+05 2.64712E+04 4.55797E+05 6.85077E-10 1.40972E-09
 -1       879 1.18658E+06 1.97036E+05 1.57316E+04 4.74157E+05-3.28944E-08-5.58498E-09
 -1       880 1.19904E+06 1.72376E+05 6.21192E+03 4.55869E+05 3.49996E-09 7.45740E-09
 -1       881 1.18404E+06 1.90206E+05 3.55094E+03 4.73724E+05-9.79389E-09-4.12871E-09
 -1       882 1.19908E+06 1.73458E+05 1.77504E+03 4.56253E+05-1.31141E-08 5.05446E-09
 -1       883 1.18411E+06 1.89009E+05 1.57344E+03 4.73185E+05-2.58274E-09-1.24172E-09
 -1       884 1.19895E+06 1.73573E+05 1.93093E+03 4.56395E+05 9.00744E-09 9.71767E-09
 -1       885 1.18459E+06 1.89833E+05 3.99837E+03 4.73120E+05 5.69913E-09 1.41495E-09
 -1       886 1.19859E+06 1.72654E+05 7.07719E+03 4.56310E+05-2.16267E-08-1.10917E-08
 -1       887 1.18812E+06 1.96950E+05 1.79332E+04 4.72803E+05-2.67796E-08-1.42418E-08
 -1       888 1.19547E+06 1.66632E+05 3.02293E+04 4.56656E+05-3.40633E-08-1.08921E-08
 -1       889 1.21562E+06 2.45715E+05 8.59652E+04 4.65889E+05-3.42468E-08 2.68938E-09
 -1       890 1.17136E+06 1.25449E+05 1.28196E+05 4.62651E+05 2.61898E-08-5.78439E-09
 -1       891 5.65598E+03-4.94494E+05-1.71142E+04-1.93055E+03 8.70477E-09-1.99816E-09
 -1       892-8.96273E+03-5.00834E+05-1.51359E+04 1.23215E+05 1.49580E-08 2.12788E-09
 -1       893 2.32867E+03-4.96094E+05-1.21150E+04-2.31840E+03 1.26115E-08-1.29094E-09
 -1       894-1.51008E+04-5.03798E+05-2.39512E+04 1.23099E+05 4.45289E-09 2.88583E-09
 -1       895 1.14815E+04-4.91458E+05-3.28510E+04-1.81629E+03 5.44242E-09 2.74576E-09
 -1       896 1.09624E+06-6.95634E+03 1.92748E+04 1.73301E+03-1.34378E-10-2.19006E-09
 -1       897 1.10416E+06 8.17660E+03 1.31766E+04-1.50813E+04-4.01315E-11-7.98536E-10
 -1       898 1.09938E+06-9.42301E+02 5.02204E+03 1.02643E+03-3.31056E-10-1.04046E-09
 -1       899 1.10052E+06 1.08266E+03 3.03726E+03-1.38660E+04 2.16914E-10-1.08628E-10
 -1       900 1.09984E+06-1.30695E+02 1.34842E+03 5.18094E+02 8.96989E-11-1.98270E-10
 -1       901 1.09996E+06 1.52455E+02 8.70343E+02-1.30394E+04 1.42677E-11-1.88535E-10
 -1       902 1.09991E+06-2.65533E+01 6.31654E+02 1.99778E+02 1.62174E-10 4.53895E-11
 -1       903 1.09991E+06 9.73065E+01 8.33297E+02-1.25785E+04 2.26009E-10 3.97424E-10
 -1       904 1.09988E+06-6.69547E+01 1.32835E+03 5.71550E+01-1.93310E-10 4.97664E-10
 -1       905 1.10020E+06 5.74351E+02 2.78694E+03-1.24648E+04 4.97568E-10 1.23663E-10
 -1       906 1.09961E+06-4.86425E+02 4.98146E+03 8.60660E+01 2.46558E-10 1.96678E-10
 -1       907 1.10222E+06 4.26979E+03 1.16470E+04-1.26932E+04 1.81672E-10 1.24396E-09
 -1       908 1.09785E+06-3.62613E+03 1.95130E+04 2.85644E+02-3.72893E-11 5.11136E-10
 -1       909 1.11614E+06 3.19346E+04 5.11861E+04-1.32691E+04 1.74623E-10-9.93168E-10
 -1       910 1.08570E+06-2.69790E+04 7.50924E+04 6.61292E+02-7.63976E-11-6.11180E-10
 -1       911 4.20919E+05-5.27070E+03 1.45279E+04 5.51095E+02 2.62844E-10-1.87356E-10
 -1       912 4.27006E+05 6.20142E+03 9.95571E+03-1.98201E+04-2.45109E-10 4.76120E-10
 -1       913 4.23298E+05-7.20163E+02 3.78990E+03 2.43869E+02-3.51065E-10 1.38175E-09
 -1       914 4.24198E+05 8.57721E+02 2.31458E+03-1.92864E+04-5.05452E-10 1.19235E-09
 -1       915 4.23651E+05-1.02062E+02 1.05271E+03 1.75679E+01 1.13016E-09 1.78551E-09
 -1       916 4.23748E+05 1.67847E+02 7.36773E+02-1.89325E+04 2.05915E-09 2.12285E-09
 -1       917 4.23700E+05-2.42468E+01 6.29724E+02-1.10012E+02 1.43137E-09 2.31329E-09
 -1       918 4.23722E+05 1.60982E+02 9.53626E+02-1.87761E+04 6.54794E-10 1.45771E-09
 -1       919 4.23657E+05-8.23843E+01 1.61511E+03-1.38872E+02 1.65683E-09 3.01725E-09
 -1       920 4.24104E+05 7.60236E+02 3.45224E+03-1.88158E+04 2.39004E-09 8.80107E-10
 -1       921 4.23323E+05-6.09064E+02 6.19400E+03-7.02266E+01 1.92995E-09 1.99316E-09
 -1       922 4.26661E+05 5.36218E+03 1.45132E+04-1.90496E+04 2.61525E-09 2.64276E-09
 -1       923 4.21127E+05-4.52973E+03 2.43090E+04 9.51433E+01 9.07676E-10 1.71349E-09
 -1       924 4.44067E+05 3.98520E+04 6.38174E+04-1.94618E+04 2.77714E-09-3.34694E-10
 -1       925 4.05975E+05-3.36608E+04 9.36099E+04 3.41829E+02 1.40585E-09 1.01863E-10
 -1       926-1.49837E+06 2.87649E+04-7.99747E+04-4.66252E+02 3.89491E-10-4.25644E-10
 -1       927-1.53065E+06-3.40632E+04-5.45104E+04 7.79621E+03 1.79352E-09 1.20053E-10
 -1       928-1.51128E+06 3.85958E+03-2.07677E+04-1.17101E+03 3.45528E-09-8.16726E-10
 -1       929-1.51587E+06-4.54085E+03-1.23901E+04 9.01427E+03 3.57136E-09-2.37037E-09
 -1       930-1.51314E+06 5.14840E+02-5.30673E+03-1.68421E+03-2.65572E-10-2.29466E-09
 -1       931-1.51374E+06-5.88471E+02-2.98388E+03 9.82844E+03 8.17437E-10-1.41910E-09
 -1       932-1.51341E+06 7.03738E+01-1.45853E+03-1.98532E+03 1.18467E-09-2.29187E-09
 -1       933-1.51345E+06-8.72199E+01-9.87559E+02 1.02042E+04 1.30186E-09-9.83661E-10
 -1       934-1.51344E+06 3.50763E+01-8.68361E+02-2.06004E+03 2.45549E-10-1.64680E-09
 -1       935-1.51353E+06-2.32438E+02-1.35579E+03 1.01223E+04 1.47759E-09-1.59386E-09
 -1       936-1.51333E+06 2.08807E+02-2.22529E+03-1.90340E+03-4.40536E-11-1.61219E-09
 -1       937-1.51437E+06-1.83365E+03-5.06986E+03 9.58671E+03 1.18735E-09-1.88277E-09
 -1       938-1.51258E+06 1.56618E+03-8.45861E+03-1.52437E+03 1.18882E-09-2.71439E-09
 -1       939-1.52036E+06-1.38349E+04-2.21599E+04 8.61930E+03 6.24823E-10-1.00022E-09
 -1       940-1.50734E+06 1.16848E+04-3.25157E+04-9.35854E+02-1.00499E-10-4.94765E-10
 -1       941 4.21517E+06-1.75011E+05 4.89200E+05 1.32138E+03 3.70915E-09 3.84171E-09
 -1       942 4.41291E+06 2.07388E+05 3.32987E+05 3.59956E+03 4.73355E-09-4.48199E-09
 -1       943 4.29421E+06-2.35158E+04 1.27246E+05 1.84073E+03 8.39520E-10-7.56700E-10
 -1       944 4.32286E+06 2.77043E+04 7.60261E+04 2.61215E+03 6.97753E-11-3.16777E-09
 -1       945 4.30568E+06-3.15917E+03 3.27965E+04 2.31072E+03 1.37933E-09 1.47520E-09
 -1       946 4.30986E+06 3.72577E+03 1.87878E+04 1.66100E+03 1.96377E-09 6.44104E-09
 -1       947 4.30739E+06-4.66423E+02 9.83215E+03 2.79241E+03 6.53699E-10 4.30600E-09
 -1       948 4.30814E+06 8.74848E+02 7.88363E+03 6.09240E+02 2.38654E-09 2.60300E-09
 -1       949 4.30744E+06-4.00112E+02 8.73250E+03 3.36261E+03-1.92114E-09-6.49334E-09
 -1       950 4.30945E+06 3.07067E+03 1.57571E+04-7.12160E+02 3.15200E-09 4.69367E-09
 -1       951 4.30605E+06-2.59174E+03 2.70643E+04 4.11380E+03-2.06234E-09-9.11041E-09
 -1       952 4.32011E+06 2.27125E+04 6.24417E+04-2.52393E+03-3.15481E-09-3.96176E-09
 -1       953 4.29664E+06-1.92856E+04 1.04395E+05 5.17347E+03-3.86933E-09-9.60426E-10
 -1       954 4.39400E+06 1.70073E+05 2.73124E+05-5.20773E+03-5.00535E-09-4.19095E-09
 -1       955 4.23175E+06-1.43555E+05 4.01086E+05 6.78576E+03-5.99357E-09-4.04543E-09
 -1       956-2.34010E+05-3.72745E+03-6.71082E+03 5.47030E+04-5.72072E-09 6.18456E-10
 -1       957-2.35151E+05-1.08973E+03-3.32787E+03 6.13384E+04-2.18279E-09 1.87015E-10
 -1       958-2.34579E+05-7.69892E+01-1.49473E+03 5.43505E+04 1.01281E-08-8.83801E-10
 -1       959-2.34744E+05 1.47567E+02-7.51963E+02 6.17257E+04-4.62023E-09-1.49794E-09
 -1       960-2.34718E+05 2.01839E+02-3.64020E+02 5.43081E+04-1.46447E-08-1.61754E-09
 -1       961-2.34779E+05 2.65934E+02-1.85868E+02 6.17729E+04-2.34795E-08-1.60708E-09
 -1       962-2.34796E+05 2.48283E+02-9.86753E+01 5.43018E+04-9.02401E-09-1.78716E-09
 -1       963-2.34840E+05 3.03637E+02-6.08990E+01 6.17809E+04-1.41158E-08-2.56296E-09
 -1       964-2.34847E+05 2.76954E+02-5.45518E+01 5.42993E+04-1.11777E-09-3.06136E-09
 -1       965-2.34887E+05 3.27533E+02-7.59203E+01 6.17824E+04 1.65137E-08-2.91948E-09
 -1       966-2.34874E+05 2.93073E+02-1.34023E+02 5.42999E+04-5.53791E-09-1.25647E-09
 -1       967-2.34928E+05 3.14707E+02-2.72379E+02 6.17718E+04 3.82988E-09-1.58616E-09
 -1       968-2.34865E+05 2.17368E+02-5.36731E+02 5.43099E+04 2.71079E-09-1.79807E-09
 -1       969-2.35114E+05-1.12360E+02-1.19887E+03 6.16768E+04 4.12865E-09-8.57654E-10
 -1       970-2.34683E+05-1.08993E+03-2.41544E+03 5.43997E+04 2.36491E-09-3.46836E-09
 -1       971-1.30079E+06 3.55986E+04-9.93286E+04-4.93347E+03-1.10331E-08-3.56522E-09
 -1       972-1.34058E+06-4.21375E+04-6.76162E+04 1.79587E+04-1.76879E-08-1.55796E-09
 -1       973-1.31677E+06 4.71418E+03-2.58341E+04-6.63924E+03-2.17192E-08-8.29095E-09
 -1       974-1.32248E+06-5.43294E+03-1.53870E+04 2.09422E+04 6.39920E-09-6.18661E-09
 -1       975-1.31903E+06 5.75926E+02-6.67232E+03-7.92177E+03 9.30208E-09-1.10422E-08
 -1       976-1.32005E+06-4.71205E+02-3.83302E+03 2.30115E+04-2.97849E-08-2.52874E-09
 -1       977-1.31933E+06 3.79447E+01-2.08413E+03-8.71054E+03 2.34099E-08-1.31886E-08
 -1       978-1.31984E+06 1.30900E+02-1.79755E+03 2.40591E+04 5.75759E-08-1.13770E-08
 -1       979-1.31932E+06 4.57712E+01-2.15813E+03-8.97022E+03 3.00325E-08-1.38786E-08
 -1       980-1.32020E+06-4.77883E+02-4.06303E+03 2.40353E+04 4.21808E-08-8.81244E-09
 -1       981-1.31897E+06 6.26010E+02-7.07228E+03-8.68661E+03 9.90894E-10-1.12020E-08
 -1       982-1.32290E+06-5.72463E+03-1.63935E+04 2.29470E+04-1.16419E-08-7.76663E-09
 -1       983-1.31655E+06 5.03734E+03-2.74714E+04-7.88010E+03-1.73736E-09-1.25583E-08
 -1       984-1.34225E+06-4.47806E+04-7.20057E+04 2.08789E+04-2.06096E-08-5.55428E-09
 -1       985-1.29952E+06 3.79242E+04-1.05700E+05-6.61124E+03 1.15674E-08-9.22591E-09
 -3
 9999
