
 stresses (elem, integ.pnt.,sxx,syy,szz,sxy,sxz,syz) for set ELALL and time  0.1000000E+01

         1   1 -5.042906E+06 -5.909138E+05 -7.615279E+05 -1.223892E+05 -5.184409E+05  1.029964E+02
         1   2 -4.929990E+06  1.181950E+05 -3.277022E+05 -3.267536E+04 -3.402316E+05  1.804396E+01
         1   3 -5.041452E+06  2.474467E+04 -2.111138E+05  5.705459E+04 -1.620288E+05 -1.500707E+01
         1   4 -5.042922E+06 -5.909421E+05 -7.615320E+05  1.580680E-08 -5.184409E+05 -3.422477E-10
         1   5 -4.929991E+06  1.181930E+05 -3.277025E+05 -4.608718E-09 -3.402316E+05 -1.618170E-10
         1   6 -5.041455E+06  2.473851E+04 -2.111147E+05  5.069168E-09 -1.620288E+05  1.742320E-09
         1   7 -5.042906E+06 -5.909138E+05 -7.615279E+05  1.223892E+05 -5.184409E+05 -1.029964E+02
         1   8 -4.929990E+06  1.181950E+05 -3.277022E+05  3.267536E+04 -3.402316E+05 -1.804396E+01
         1   9 -5.041452E+06  2.474467E+04 -2.111138E+05 -5.705459E+04 -1.620288E+05  1.500707E+01
         1  10 -5.043196E+06 -5.909866E+05 -7.620371E+05 -1.223892E+05 -7.898717E-10 -6.341087E-11
         1  11 -4.930115E+06  1.181636E+05 -3.279215E+05 -3.267535E+04 -2.755330E-09 -2.062873E-10
         1  12 -5.041480E+06  2.473755E+04 -2.111636E+05  5.705459E+04 -3.306267E-10 -4.438208E-10
         1  13 -5.043212E+06 -5.910150E+05 -7.620412E+05  3.299291E-08 -4.096410E-09 -4.038036E-10
         1  14 -4.930116E+06  1.181616E+05 -3.279218E+05 -1.319836E-08 -2.762506E-11 -6.102254E-10
         1  15 -5.041484E+06  2.473139E+04 -2.111644E+05 -1.207916E-08  1.358068E-09  5.446142E-10
         1  16 -5.043196E+06 -5.909866E+05 -7.620371E+05  1.223892E+05  5.027112E-10 -4.761897E-10
         1  17 -4.930115E+06  1.181636E+05 -3.279215E+05  3.267535E+04 -9.309649E-10 -4.706522E-10
         1  18 -5.041480E+06  2.473755E+04 -2.111636E+05 -5.705459E+04  4.901970E-09  9.776387E-10
         1  19 -5.042906E+06 -5.909138E+05 -7.615279E+05 -1.223892E+05  5.184409E+05 -1.029964E+02
         1  20 -4.929990E+06  1.181950E+05 -3.277022E+05 -3.267536E+04  3.402316E+05 -1.804396E+01
         1  21 -5.041452E+06  2.474467E+04 -2.111138E+05  5.705459E+04  1.620288E+05  1.500707E+01
         1  22 -5.042922E+06 -5.909421E+05 -7.615320E+05  3.294557E-08  5.184409E+05 -4.887713E-10
         1  23 -4.929991E+06  1.181930E+05 -3.277025E+05 -2.178617E-08  3.402316E+05 -1.117429E-09
         1  24 -5.041455E+06  2.473851E+04 -2.111147E+05  4.170581E-08  1.620288E+05 -6.782024E-10
         1  25 -5.042906E+06 -5.909138E+05 -7.615279E+05  1.223892E+05  5.184409E+05  1.029964E+02
         1  26 -4.929990E+06  1.181950E+05 -3.277022E+05  3.267536E+04  3.402316E+05  1.804396E+01
         1  27 -5.041452E+06  2.474467E+04 -2.111138E+05 -5.705459E+04  1.620288E+05 -1.500707E+01
         2   1 -4.999229E+06 -7.885497E+04 -1.738238E+05 -1.532193E+04 -1.280758E+05  3.185392E+00
         2   2 -4.982752E+06  1.588677E+04 -8.497462E+04 -3.727997E+03 -8.397047E+04  5.081347E-01
         2   3 -4.998963E+06  3.231005E+03 -5.185366E+04  7.865925E+03 -3.986397E+04 -5.090011E-01
         2   4 -4.999230E+06 -7.885541E+04 -1.738238E+05  3.091353E-08 -1.280758E+05  8.156276E-10
         2   5 -4.982752E+06  1.588674E+04 -8.497462E+04  4.741904E-08 -8.397047E+04 -2.366942E-09
         2   6 -4.998963E+06  3.230888E+03 -5.185368E+04  4.028722E-08 -3.986397E+04  2.482283E-10
         2   7 -4.999229E+06 -7.885497E+04 -1.738238E+05  1.532193E+04 -1.280758E+05 -3.185392E+00
         2   8 -4.982752E+06  1.588677E+04 -8.497462E+04  3.727997E+03 -8.397047E+04 -5.081347E-01
         2   9 -4.998963E+06  3.231005E+03 -5.185366E+04 -7.865925E+03 -3.986397E+04  5.090011E-01
         2  10 -4.999247E+06 -7.885942E+04 -1.738548E+05 -1.532193E+04  2.970560E-09  6.972888E-10
         2  11 -4.982760E+06  1.588485E+04 -8.498797E+04 -3.727997E+03  2.106724E-10 -4.350587E-10
         2  12 -4.998965E+06  3.230574E+03 -5.185668E+04  7.865925E+03 -1.483194E-09  8.309504E-10
         2  13 -4.999247E+06 -7.885986E+04 -1.738549E+05  5.049100E-09  4.277015E-09  3.832596E-10
         2  14 -4.982760E+06  1.588483E+04 -8.498798E+04  4.422468E-09  2.430349E-09 -7.886096E-10
         2  15 -4.998965E+06  3.230457E+03 -5.185669E+04  2.099693E-08  9.688791E-10  4.906605E-10
         2  16 -4.999247E+06 -7.885942E+04 -1.738548E+05  1.532193E+04 -2.214289E-09  1.745692E-09
         2  17 -4.982760E+06  1.588485E+04 -8.498797E+04  3.727997E+03  2.855353E-09 -3.790508E-10
         2  18 -4.998965E+06  3.230574E+03 -5.185668E+04 -7.865925E+03 -5.264765E-10  6.677793E-10
         2  19 -4.999229E+06 -7.885497E+04 -1.738238E+05 -1.532193E+04  1.280758E+05 -3.185392E+00
         2  20 -4.982752E+06  1.588677E+04 -8.497462E+04 -3.727997E+03  8.397047E+04 -5.081347E-01
         2  21 -4.998963E+06  3.231005E+03 -5.185366E+04  7.865925E+03  3.986397E+04  5.090011E-01
         2  22 -4.999230E+06 -7.885541E+04 -1.738238E+05  3.079416E-08  1.280758E+05 -3.060559E-10
         2  23 -4.982752E+06  1.588674E+04 -8.497462E+04 -3.856342E-08  8.397047E+04  7.540845E-10
         2  24 -4.998963E+06  3.230888E+03 -5.185368E+04  2.965213E-08  3.986397E+04  7.136450E-10
         2  25 -4.999229E+06 -7.885497E+04 -1.738238E+05  1.532193E+04  1.280758E+05  3.185392E+00
         2  26 -4.982752E+06  1.588677E+04 -8.497462E+04  3.727997E+03  8.397047E+04  5.081347E-01
         2  27 -4.998963E+06  3.231005E+03 -5.185366E+04 -7.865925E+03  3.986397E+04 -5.090011E-01
         3   1 -4.992863E+06 -1.043805E+04 -4.116951E+04 -1.778817E+03 -3.157240E+04  9.116393E-02
         3   2 -4.990321E+06  2.135255E+03 -2.176953E+04 -3.383092E+02 -2.054599E+04  1.128299E-02
         3   3 -4.992811E+06  3.961155E+02 -1.316908E+04  1.102169E+03 -9.519608E+03 -1.703149E-02
         3   4 -4.992863E+06 -1.043806E+04 -4.116951E+04  4.811944E-08 -3.157240E+04  8.974645E-10
         3   5 -4.990321E+06  2.135255E+03 -2.176953E+04  6.131336E-08 -2.054599E+04 -9.760869E-10
         3   6 -4.992811E+06  3.961132E+02 -1.316908E+04  5.190432E-08 -9.519608E+03 -5.825842E-10
         3   7 -4.992863E+06 -1.043805E+04 -4.116951E+04  1.778817E+03 -3.157240E+04 -9.116393E-02
         3   8 -4.990321E+06  2.135255E+03 -2.176953E+04  3.383092E+02 -2.054599E+04 -1.128299E-02
         3   9 -4.992811E+06  3.961155E+02 -1.316908E+04 -1.102169E+03 -9.519608E+03  1.703149E-02
         3  10 -4.992864E+06 -1.043832E+04 -4.117140E+04 -1.778817E+03  1.688443E-09  2.867414E-10
         3  11 -4.990321E+06  2.135140E+03 -2.177033E+04 -3.383092E+02  5.532766E-09  5.490395E-10
         3  12 -4.992811E+06  3.960909E+02 -1.316925E+04  1.102169E+03  3.076210E-09 -2.931768E-10
         3  13 -4.992864E+06 -1.043833E+04 -4.117140E+04  3.088477E-08 -4.320405E-09  7.071349E-10
         3  14 -4.990321E+06  2.135140E+03 -2.177033E+04  1.098544E-09  6.448706E-09 -5.998615E-10
         3  15 -4.992811E+06  3.960886E+02 -1.316925E+04  3.152275E-08  2.552360E-09 -7.984628E-10
         3  16 -4.992864E+06 -1.043832E+04 -4.117140E+04  1.778817E+03 -4.216700E-10  1.162083E-09
         3  17 -4.990321E+06  2.135140E+03 -2.177033E+04  3.383092E+02  8.085087E-10 -1.233514E-09
         3  18 -4.992811E+06  3.960909E+02 -1.316925E+04 -1.102169E+03  4.525467E-10 -1.624754E-09
         3  19 -4.992863E+06 -1.043805E+04 -4.116951E+04 -1.778817E+03  3.157240E+04 -9.116393E-02
         3  20 -4.990321E+06  2.135255E+03 -2.176953E+04 -3.383092E+02  2.054599E+04 -1.128298E-02
         3  21 -4.992811E+06  3.961155E+02 -1.316908E+04  1.102169E+03  9.519608E+03  1.703149E-02
         3  22 -4.992863E+06 -1.043806E+04 -4.116951E+04  2.223810E-08  3.157240E+04  3.988272E-10
         3  23 -4.990321E+06  2.135255E+03 -2.176953E+04  9.680313E-09  2.054599E+04  3.991300E-10
         3  24 -4.992811E+06  3.961132E+02 -1.316908E+04  2.515464E-09  9.519608E+03 -1.075887E-09
         3  25 -4.992863E+06 -1.043805E+04 -4.116951E+04  1.778817E+03  3.157240E+04  9.116393E-02
         3  26 -4.990321E+06  2.135255E+03 -2.176953E+04  3.383092E+02  2.054599E+04  1.128299E-02
         3  27 -4.992811E+06  3.961155E+02 -1.316908E+04 -1.102169E+03  9.519608E+03 -1.703149E-02
         4   1 -4.991905E+06 -1.357004E+03 -1.045033E+04 -1.855815E+02 -7.401761E+03  2.229740E-03
         4   2 -4.991434E+06  3.125609E+02 -6.369992E+03 -1.097741E+01 -4.219223E+03  7.518377E-05
         4   3 -4.991896E+06 -7.517213E+01 -4.888511E+03  1.636290E+02 -1.036628E+03 -2.753368E-04
         4   4 -4.991905E+06 -1.357004E+03 -1.045033E+04  8.316110E-08 -7.401761E+03  1.636113E-10
         4   5 -4.991434E+06  3.125609E+02 -6.369992E+03  2.446371E-08 -4.219223E+03  6.294362E-10
         4   6 -4.991896E+06 -7.517218E+01 -4.888511E+03  1.413185E-10 -1.036628E+03  4.116961E-10
         4   7 -4.991905E+06 -1.357004E+03 -1.045033E+04  1.855815E+02 -7.401761E+03 -2.229742E-03
         4   8 -4.991434E+06  3.125609E+02 -6.369992E+03  1.097741E+01 -4.219223E+03 -7.518382E-05
         4   9 -4.991896E+06 -7.517213E+01 -4.888511E+03 -1.636290E+02 -1.036628E+03  2.753394E-04
         4  10 -4.991905E+06 -1.357019E+03 -1.045043E+04 -1.855815E+02  6.786261E-10 -5.361991E-10
         4  11 -4.991434E+06  3.125560E+02 -6.370025E+03 -1.097741E+01 -3.872296E-10  2.464175E-10
         4  12 -4.991896E+06 -7.517242E+01 -4.888513E+03  1.636290E+02  2.130332E-10 -9.969993E-10
         4  13 -4.991905E+06 -1.357019E+03 -1.045043E+04  4.880290E-08 -4.927113E-09 -3.628352E-10
         4  14 -4.991434E+06  3.125560E+02 -6.370025E+03  3.307892E-08 -1.856859E-09  7.444972E-10
         4  15 -4.991896E+06 -7.517247E+01 -4.888513E+03 -8.440365E-09  2.067230E-09 -9.953869E-11
         4  16 -4.991905E+06 -1.357019E+03 -1.045043E+04  1.855815E+02 -1.004881E-09 -4.567309E-10
         4  17 -4.991434E+06  3.125560E+02 -6.370025E+03  1.097741E+01  2.509981E-09  1.673817E-10
         4  18 -4.991896E+06 -7.517242E+01 -4.888513E+03 -1.636290E+02 -5.839682E-10  4.974510E-10
         4  19 -4.991905E+06 -1.357004E+03 -1.045033E+04 -1.855815E+02  7.401761E+03 -2.229741E-03
         4  20 -4.991434E+06  3.125609E+02 -6.369992E+03 -1.097741E+01  4.219223E+03 -7.517842E-05
         4  21 -4.991896E+06 -7.517213E+01 -4.888511E+03  1.636290E+02  1.036628E+03  2.753401E-04
         4  22 -4.991905E+06 -1.357004E+03 -1.045033E+04  4.885318E-08  7.401761E+03 -8.328045E-10
         4  23 -4.991434E+06  3.125609E+02 -6.369992E+03 -9.917533E-09  4.219223E+03  5.396083E-10
         4  24 -4.991896E+06 -7.517218E+01 -4.888511E+03  9.522851E-11  1.036628E+03 -4.580918E-10
         4  25 -4.991905E+06 -1.357004E+03 -1.045033E+04  1.855815E+02  7.401761E+03  2.229740E-03
         4  26 -4.991434E+06  3.125609E+02 -6.369992E+03  1.097741E+01  4.219223E+03  7.518333E-05
         4  27 -4.991896E+06 -7.517213E+01 -4.888511E+03 -1.636290E+02  1.036628E+03 -2.753394E-04
         5   1 -4.991854E+06 -1.364557E+02 -4.685596E+03 -1.207139E+02 -1.756998E+02  3.442960E-05
         5   2 -4.991484E+06  2.441172E+02 -5.248236E+03  1.254751E+01  2.444542E+03  4.979300E-05
         5   3 -4.991860E+06 -9.788789E+02 -7.927982E+03  1.458091E+02  5.064779E+03  1.198753E-03
         5   4 -4.991854E+06 -1.364557E+02 -4.685596E+03  7.260692E-08 -1.756998E+02  1.354289E-09
         5   5 -4.991484E+06  2.441172E+02 -5.248236E+03  8.611324E-08  2.444542E+03  2.293375E-09
         5   6 -4.991860E+06 -9.788789E+02 -7.927982E+03  5.767271E-08  5.064779E+03 -1.740027E-09
         5   7 -4.991854E+06 -1.364557E+02 -4.685596E+03  1.207139E+02 -1.756998E+02 -3.442788E-05
         5   8 -4.991484E+06  2.441172E+02 -5.248236E+03 -1.254751E+01  2.444542E+03 -4.978853E-05
         5   9 -4.991860E+06 -9.788789E+02 -7.927982E+03 -1.458091E+02  5.064779E+03 -1.198755E-03
         5  10 -4.991854E+06 -1.364557E+02 -4.685596E+03 -1.207139E+02 -8.108633E-10 -2.714638E-10
         5  11 -4.991484E+06  2.441155E+02 -5.248247E+03  1.254751E+01  1.947321E-10  1.276553E-09
         5  12 -4.991860E+06 -9.788858E+02 -7.928030E+03  1.458091E+02  1.914266E-09 -2.899699E-10
         5  13 -4.991854E+06 -1.364557E+02 -4.685596E+03  2.966708E-08  2.601018E-09  4.955399E-10
         5  14 -4.991484E+06  2.441155E+02 -5.248247E+03  6.889120E-08 -4.006447E-09  1.492325E-09
         5  15 -4.991860E+06 -9.788859E+02 -7.928030E+03 -3.807510E-08  4.924593E-09 -9.095516E-10
         5  16 -4.991854E+06 -1.364557E+02 -4.685596E+03  1.207139E+02 -3.432711E-10  7.165584E-10
         5  17 -4.991484E+06  2.441155E+02 -5.248247E+03 -1.254751E+01 -1.383047E-10  1.702311E-09
         5  18 -4.991860E+06 -9.788858E+02 -7.928030E+03 -1.458091E+02 -1.006257E-09 -1.522103E-09
         5  19 -4.991854E+06 -1.364557E+02 -4.685596E+03 -1.207139E+02  1.756998E+02 -3.442752E-05
         5  20 -4.991484E+06  2.441172E+02 -5.248236E+03  1.254751E+01 -2.444542E+03 -4.978578E-05
         5  21 -4.991860E+06 -9.788789E+02 -7.927982E+03  1.458091E+02 -5.064779E+03 -1.198753E-03
         5  22 -4.991854E+06 -1.364557E+02 -4.685596E+03  7.272005E-08  1.756998E+02 -1.609596E-10
         5  23 -4.991484E+06  2.441172E+02 -5.248236E+03  7.747708E-08 -2.444542E+03  1.171964E-09
         5  24 -4.991860E+06 -9.788789E+02 -7.927982E+03  5.105838E-08 -5.064779E+03  4.528711E-10
         5  25 -4.991854E+06 -1.364557E+02 -4.685596E+03  1.207139E+02  1.756998E+02  3.442813E-05
         5  26 -4.991484E+06  2.441172E+02 -5.248236E+03 -1.254751E+01 -2.444542E+03  4.978863E-05
         5  27 -4.991860E+06 -9.788789E+02 -7.927982E+03 -1.458091E+02 -5.064779E+03  1.198751E-03
         6   1 -4.992502E+06  2.767072E+02 -9.805771E+03 -7.952911E+02  6.655044E+03 -8.591367E-03
         6   2 -4.990694E+06  1.546517E+03 -1.590229E+04  2.464736E+02  1.470782E+04  5.884404E-03
         6   3 -4.992539E+06 -7.548180E+03 -2.986410E+04  1.288227E+03  2.276040E+04  4.759449E-02
         6   4 -4.992502E+06  2.767060E+02 -9.805771E+03  7.102115E-08  6.655044E+03 -1.989115E-09
         6   5 -4.990694E+06  1.546517E+03 -1.590229E+04 -1.661590E-08  1.470782E+04  8.459013E-10
         6   6 -4.992539E+06 -7.548183E+03 -2.986410E+04  5.373542E-08  2.276040E+04 -1.636649E-09
         6   7 -4.992502E+06  2.767072E+02 -9.805771E+03  7.952911E+02  6.655044E+03  8.591362E-03
         6   8 -4.990694E+06  1.546517E+03 -1.590229E+04 -2.464736E+02  1.470782E+04 -5.884404E-03
         6   9 -4.992539E+06 -7.548180E+03 -2.986410E+04 -1.288227E+03  2.276040E+04 -4.759449E-02
         6  10 -4.992502E+06  2.766952E+02 -9.805854E+03 -7.952911E+02 -1.988870E-09 -1.637758E-09
         6  11 -4.990694E+06  1.546458E+03 -1.590270E+04  2.464736E+02 -7.475542E-10  3.478075E-10
         6  12 -4.992540E+06 -7.548320E+03 -2.986508E+04  1.288227E+03  6.211624E-09  2.953150E-10
         6  13 -4.992502E+06  2.766940E+02 -9.805855E+03  3.668807E-08  2.033608E-09 -1.338591E-09
         6  14 -4.990694E+06  1.546458E+03 -1.590270E+04 -8.004845E-09 -1.593003E-09 -3.820834E-12
         6  15 -4.992540E+06 -7.548324E+03 -2.986508E+04  2.901273E-08 -1.345578E-09 -7.035037E-10
         6  16 -4.992502E+06  2.766952E+02 -9.805854E+03  7.952911E+02 -4.533474E-10 -6.281608E-10
         6  17 -4.990694E+06  1.546458E+03 -1.590270E+04 -2.464736E+02  1.908565E-09  7.295121E-10
         6  18 -4.992540E+06 -7.548320E+03 -2.986508E+04 -1.288227E+03  6.988715E-10 -1.561145E-09
         6  19 -4.992502E+06  2.767072E+02 -9.805771E+03 -7.952911E+02 -6.655044E+03  8.591364E-03
         6  20 -4.990694E+06  1.546517E+03 -1.590229E+04  2.464736E+02 -1.470782E+04 -5.884402E-03
         6  21 -4.992539E+06 -7.548180E+03 -2.986410E+04  1.288227E+03 -2.276040E+04 -4.759449E-02
         6  22 -4.992502E+06  2.767060E+02 -9.805771E+03  1.055072E-07 -6.655044E+03 -6.306720E-10
         6  23 -4.990694E+06  1.546517E+03 -1.590229E+04  4.359453E-08 -1.470782E+04 -9.808817E-10
         6  24 -4.992539E+06 -7.548183E+03 -2.986410E+04  1.069697E-08 -2.276040E+04  2.963862E-10
         6  25 -4.992502E+06  2.767072E+02 -9.805771E+03  7.952911E+02 -6.655044E+03 -8.591368E-03
         6  26 -4.990694E+06  1.546517E+03 -1.590229E+04 -2.464736E+02 -1.470782E+04  5.884401E-03
         6  27 -4.992539E+06 -7.548180E+03 -2.986410E+04 -1.288227E+03 -2.276040E+04  4.759449E-02
         7   1 -4.996949E+06  2.335552E+03 -3.756880E+04 -5.687535E+03  2.877165E+04 -2.656295E-01
         7   2 -4.985225E+06  1.148870E+04 -6.149275E+04  2.696495E+03  6.068631E+04  2.656252E-01
         7   3 -4.997143E+06 -5.702521E+04 -1.257315E+05  1.108065E+04  9.260082E+04  1.665572E+00
         7   4 -4.996949E+06  2.335490E+03 -3.756881E+04  3.685164E-08  2.877165E+04 -1.191368E-09
         7   5 -4.985225E+06  1.148869E+04 -6.149275E+04 -3.555538E-08  6.068631E+04  9.074917E-10
         7   6 -4.997143E+06 -5.702544E+04 -1.257316E+05  1.134013E-08  9.260082E+04 -1.350975E-10
         7   7 -4.996949E+06  2.335552E+03 -3.756880E+04  5.687535E+03  2.877165E+04  2.656294E-01
         7   8 -4.985225E+06  1.148870E+04 -6.149275E+04 -2.696495E+03  6.068631E+04 -2.656252E-01
         7   9 -4.997143E+06 -5.702521E+04 -1.257315E+05 -1.108065E+04  9.260082E+04 -1.665572E+00
         7  10 -4.996950E+06  2.335327E+03 -3.757037E+04 -5.687535E+03  6.270519E-10 -7.248379E-10
         7  11 -4.985229E+06  1.148770E+04 -6.149972E+04  2.696495E+03 -3.620440E-09 -1.250978E-09
         7  12 -4.997152E+06 -5.702754E+04 -1.257478E+05  1.108065E+04 -1.394546E-09 -2.568280E-10
         7  13 -4.996950E+06  2.335266E+03 -3.757038E+04  1.106228E-08 -1.766557E-09 -8.136064E-10
         7  14 -4.985229E+06  1.148769E+04 -6.149973E+04 -1.405438E-08 -1.579677E-10 -9.258729E-11
         7  15 -4.997152E+06 -5.702777E+04 -1.257478E+05 -5.206505E-08 -6.588617E-10  1.374699E-10
         7  16 -4.996950E+06  2.335327E+03 -3.757037E+04  5.687535E+03 -5.264975E-10 -1.440207E-09
         7  17 -4.985229E+06  1.148770E+04 -6.149972E+04 -2.696495E+03 -1.190790E-09  8.513455E-10
         7  18 -4.997152E+06 -5.702754E+04 -1.257478E+05 -1.108065E+04  1.457338E-09  7.926894E-10
         7  19 -4.996949E+06  2.335552E+03 -3.756880E+04 -5.687535E+03 -2.877165E+04  2.656295E-01
         7  20 -4.985225E+06  1.148870E+04 -6.149275E+04  2.696495E+03 -6.068631E+04 -2.656252E-01
         7  21 -4.997143E+06 -5.702521E+04 -1.257315E+05  1.108065E+04 -9.260082E+04 -1.665572E+00
         7  22 -4.996949E+06  2.335490E+03 -3.756881E+04 -1.471034E-08 -2.877165E+04 -1.105164E-10
         7  23 -4.985225E+06  1.148869E+04 -6.149275E+04 -9.748677E-09 -6.068631E+04 -9.665229E-10
         7  24 -4.997143E+06 -5.702544E+04 -1.257316E+05  3.499213E-08 -9.260082E+04  3.602836E-10
         7  25 -4.996949E+06  2.335552E+03 -3.756880E+04  5.687535E+03 -2.877165E+04 -2.656295E-01
         7  26 -4.985225E+06  1.148870E+04 -6.149275E+04 -2.696495E+03 -6.068631E+04  2.656252E-01
         7  27 -4.997143E+06 -5.702521E+04 -1.257315E+05 -1.108065E+04 -9.260082E+04  1.665572E+00
         8   1 -5.027678E+06  1.789128E+04 -1.526992E+05 -4.125848E+04  1.171631E+05 -7.847104E+00
         8   2 -4.947079E+06  8.547077E+04 -2.370437E+05  2.362729E+04  2.460295E+05  9.435204E+00
         8   3 -5.028751E+06 -4.273323E+05 -5.508254E+05  8.850534E+04  3.749007E+05  5.386004E+01
         8   4 -5.027680E+06  1.788805E+04 -1.526996E+05 -2.210765E-08  1.171631E+05  2.177208E-10
         8   5 -4.947079E+06  8.546971E+04 -2.370439E+05  9.443722E-09  2.460295E+05  1.528926E-09
         8   6 -5.028759E+06 -4.273472E+05 -5.508275E+05  2.379451E-08  3.749007E+05  4.350207E-10
         8   7 -5.027678E+06  1.789128E+04 -1.526992E+05  4.125848E+04  1.171631E+05  7.847104E+00
         8   8 -4.947079E+06  8.547077E+04 -2.370437E+05 -2.362729E+04  2.460295E+05 -9.435204E+00
         8   9 -5.028751E+06 -4.273323E+05 -5.508254E+05 -8.850534E+04  3.749007E+05 -5.386004E+01
         8  10 -5.027693E+06  1.788755E+04 -1.527252E+05 -4.125848E+04 -2.354866E-09 -1.173207E-10
         8  11 -4.947144E+06  8.545436E+04 -2.371584E+05  2.362729E+04 -3.427549E-09  2.675738E-10
         8  12 -5.028903E+06 -4.273704E+05 -5.510917E+05  8.850533E+04 -3.382745E-09 -1.370081E-10
         8  13 -5.027695E+06  1.788433E+04 -1.527256E+05 -3.066891E-08 -2.015229E-09  1.438290E-11
         8  14 -4.947145E+06  8.545330E+04 -2.371585E+05  3.094551E-08 -8.522620E-10  6.266857E-11
         8  15 -5.028911E+06 -4.273853E+05 -5.510938E+05 -1.060927E-08 -4.420589E-09 -2.314134E-11
         8  16 -5.027693E+06  1.788755E+04 -1.527252E+05  4.125848E+04  8.858360E-10  1.196839E-10
         8  17 -4.947144E+06  8.545436E+04 -2.371584E+05 -2.362729E+04  7.413694E-11  5.402208E-10
         8  18 -5.028903E+06 -4.273704E+05 -5.510917E+05 -8.850533E+04 -6.984202E-10 -1.489213E-10
         8  19 -5.027678E+06  1.789128E+04 -1.526992E+05 -4.125848E+04 -1.171631E+05  7.847104E+00
         8  20 -4.947079E+06  8.547077E+04 -2.370437E+05  2.362729E+04 -2.460295E+05 -9.435204E+00
         8  21 -5.028751E+06 -4.273323E+05 -5.508254E+05  8.850534E+04 -3.749007E+05 -5.386004E+01
         8  22 -5.027680E+06  1.788805E+04 -1.526996E+05  3.814158E-08 -1.171631E+05  9.979938E-11
         8  23 -4.947079E+06  8.546971E+04 -2.370439E+05  2.234999E-08 -2.460295E+05 -1.484465E-09
         8  24 -5.028759E+06 -4.273472E+05 -5.508275E+05  3.556959E-08 -3.749007E+05 -2.728326E-10
         8  25 -5.027678E+06  1.789128E+04 -1.526992E+05  4.125848E+04 -1.171631E+05 -7.847104E+00
         8  26 -4.947079E+06  8.547077E+04 -2.370437E+05 -2.362729E+04 -2.460295E+05  9.435204E+00
         8  27 -5.028751E+06 -4.273323E+05 -5.508254E+05 -8.850534E+04 -3.749007E+05  5.386004E+01
         9   1  2.244910E+06  7.974092E+06  2.144606E+06 -1.476938E+06  1.016365E+05  8.226534E+05
         9   2  1.774141E+06  6.816086E+06  1.445215E+06 -1.324602E+06  3.401603E+05  3.861704E+05
         9   3  1.458037E+06  5.757081E+06  1.067174E+06 -1.361392E+06  3.949065E+05 -4.927556E+04
         9   4  1.751603E+05 -4.540754E+05  1.874225E+05 -1.342756E+06  1.036378E+05  1.278697E+05
         9   5  5.270578E+04 -4.672490E+05  9.548384E+04 -1.248510E+06  3.416086E+05  8.026286E+04
         9   6  1.881291E+04 -4.488957E+05  5.723068E+04 -1.343330E+06  3.948889E+05  3.279807E+04
         9   7 -1.899269E+06 -8.816130E+06 -1.772743E+06 -1.210287E+06  1.053634E+05 -5.576473E+05
         9   8 -1.671695E+06 -7.699329E+06 -1.256135E+06 -1.173238E+06  3.429949E+05 -2.221813E+05
         9   9 -1.422366E+06 -6.616905E+06 -9.537754E+05 -1.325374E+06  3.948757E+05  1.140844E+05
         9  10  2.244720E+06  7.973370E+06  2.143330E+06 -1.477005E+06  6.057330E-10 -5.758496E-08
         9  11  1.773977E+06  6.815896E+06  1.444718E+06 -1.324708E+06  3.323983E-10  2.697398E-09
         9  12  1.457869E+06  5.757037E+06  1.066877E+06 -1.361377E+06  7.471827E-09  6.354329E-08
         9  13  1.751443E+05 -4.540959E+05  1.873715E+05 -1.342767E+06 -2.773195E-09 -1.716560E-11
         9  14  5.257870E+04 -4.672873E+05  9.525223E+04 -1.248532E+06  9.339750E-09 -2.992658E-11
         9  15  1.864518E+04 -4.489387E+05  5.693556E+04 -1.343340E+06  3.835409E-09 -1.048444E-10
         9  16 -1.899366E+06 -8.816470E+06 -1.773356E+06 -1.210239E+06  3.038076E-10  5.690032E-08
         9  17 -1.671835E+06 -7.699414E+06 -1.256449E+06 -1.173176E+06  7.290522E-10 -2.958406E-09
         9  18 -1.422537E+06 -6.616961E+06 -9.540934E+05 -1.325410E+06  2.020618E-09 -6.292086E-08
         9  19  2.244910E+06  7.974092E+06  2.144606E+06 -1.476938E+06 -1.016365E+05 -8.226534E+05
         9  20  1.774141E+06  6.816086E+06  1.445215E+06 -1.324602E+06 -3.401603E+05 -3.861704E+05
         9  21  1.458037E+06  5.757081E+06  1.067174E+06 -1.361392E+06 -3.949065E+05  4.927556E+04
         9  22  1.751603E+05 -4.540754E+05  1.874225E+05 -1.342756E+06 -1.036378E+05 -1.278697E+05
         9  23  5.270578E+04 -4.672490E+05  9.548384E+04 -1.248510E+06 -3.416086E+05 -8.026286E+04
         9  24  1.881291E+04 -4.488957E+05  5.723068E+04 -1.343330E+06 -3.948889E+05 -3.279807E+04
         9  25 -1.899269E+06 -8.816130E+06 -1.772743E+06 -1.210287E+06 -1.053634E+05  5.576473E+05
         9  26 -1.671695E+06 -7.699329E+06 -1.256135E+06 -1.173238E+06 -3.429949E+05  2.221813E+05
         9  27 -1.422366E+06 -6.616905E+06 -9.537754E+05 -1.325374E+06 -3.948757E+05 -1.140844E+05
        10   1  1.289662E+06  5.044504E+06  9.210325E+05 -1.371564E+06  3.653895E+05 -5.677760E+04
        10   2  1.021623E+06  3.930043E+06  7.013745E+05 -1.261946E+06  3.161218E+05 -1.203939E+05
        10   3  7.748810E+05  2.830134E+06  5.281805E+05 -1.354528E+06  2.452988E+05 -1.841403E+05
        10   4  1.821128E+04 -4.531574E+05  4.676584E+04 -1.346254E+06  3.652712E+05  2.468779E+04
        10   5  1.355114E+04 -4.543066E+05  3.638870E+04 -1.245118E+06  3.156093E+05  6.439068E+03
        10   6  2.245563E+04 -4.499049E+05  4.116950E+04 -1.346264E+06  2.443135E+05 -1.204663E+04
        10   7 -1.254741E+06 -5.920888E+06 -8.282561E+05 -1.321109E+06  3.651587E+05  1.054617E+05
        10   8 -9.954307E+05 -4.819434E+06 -6.289390E+05 -1.228370E+06  3.151011E+05  1.324156E+05
        10   9 -7.304585E+05 -3.719095E+06 -4.459321E+05 -1.338018E+06  2.433292E+05  1.591779E+05
        10  10  1.289518E+06  5.044465E+06  9.207758E+05 -1.371547E+06  4.592683E-09  5.488195E-10
        10  11  1.021512E+06  3.930001E+06  7.011601E+05 -1.261915E+06 -3.673705E-09  6.884299E-10
        10  12  7.748075E+05  2.830082E+06  5.280045E+05 -1.354492E+06 -1.494415E-10  7.947888E-10
        10  13  1.806785E+04 -4.531939E+05  4.651393E+04 -1.346261E+06  4.874426E-09 -1.037647E-11
        10  14  1.344418E+04 -4.543333E+05  3.620146E+04 -1.245120E+06  2.919984E-09  2.601468E-10
        10  15  2.239153E+04 -4.499211E+05  4.105712E+04 -1.346261E+06  2.081464E-10 -1.847903E-10
        10  16 -1.254887E+06 -5.920936E+06 -8.285281E+05 -1.321140E+06 -8.534739E-10 -1.163564E-10
        10  17 -9.955421E+05 -4.819479E+06 -6.291591E+05 -1.228404E+06 -5.461877E-09 -7.432379E-11
        10  18 -7.305290E+05 -3.719138E+06 -4.460916E+05 -1.338049E+06 -5.060910E-09 -9.480847E-10
        10  19  1.289662E+06  5.044504E+06  9.210325E+05 -1.371564E+06 -3.653895E+05  5.677760E+04
        10  20  1.021623E+06  3.930043E+06  7.013745E+05 -1.261946E+06 -3.161218E+05  1.203939E+05
        10  21  7.748810E+05  2.830134E+06  5.281805E+05 -1.354528E+06 -2.452988E+05  1.841403E+05
        10  22  1.821128E+04 -4.531574E+05  4.676584E+04 -1.346254E+06 -3.652712E+05 -2.468779E+04
        10  23  1.355114E+04 -4.543066E+05  3.638870E+04 -1.245118E+06 -3.156093E+05 -6.439068E+03
        10  24  2.245563E+04 -4.499049E+05  4.116950E+04 -1.346264E+06 -2.443135E+05  1.204663E+04
        10  25 -1.254741E+06 -5.920888E+06 -8.282561E+05 -1.321109E+06 -3.651587E+05 -1.054617E+05
        10  26 -9.954307E+05 -4.819434E+06 -6.289390E+05 -1.228370E+06 -3.151011E+05 -1.324156E+05
        10  27 -7.304585E+05 -3.719095E+06 -4.459321E+05 -1.338018E+06 -2.433292E+05 -1.591779E+05
        11   1  6.178894E+05  2.137517E+06  4.274651E+05 -1.358053E+06  1.967835E+05 -1.911049E+05
        11   2  3.937411E+05  1.021481E+06  2.937391E+05 -1.205567E+06  1.135704E+05 -2.364771E+05
        11   3  2.374846E+05 -7.234398E+04  2.059367E+05 -1.256844E+06  2.762340E+04 -2.818639E+05
        11   4  2.579091E+04 -4.459464E+05  4.797929E+04 -1.346634E+06  1.957076E+05 -1.915235E+04
        11   5  5.580935E+04 -4.553366E+05  7.690422E+04 -1.244432E+06  1.123955E+05 -5.890146E+04
        11   6  1.528211E+05 -4.448102E+05  1.477708E+05 -1.345932E+06  2.635381E+04 -9.873420E+04
        11   7 -5.666018E+05 -3.022639E+06 -3.315133E+05 -1.335248E+06  1.946348E+05  1.521160E+05
        11   8 -2.822000E+05 -1.929888E+06 -1.398495E+05 -1.283195E+06  1.111964E+05  1.182697E+05
        11   9  6.819929E+04 -8.170483E+05  8.973201E+04 -1.434965E+06  2.503113E+04  8.428975E+04
        11  10  6.178382E+05  2.137467E+06  4.273243E+05 -1.358023E+06  1.281703E-09  1.669767E-09
        11  11  3.937124E+05  1.021418E+06  2.936102E+05 -1.205545E+06 -1.646796E-09  1.314674E-09
        11  12  2.374625E+05 -7.242947E+04  2.057860E+05 -1.256838E+06 -3.559497E-10  1.107949E-09
        11  13  2.574971E+04 -4.459570E+05  4.790669E+04 -1.346631E+06 -5.369262E-09 -2.246505E-10
        11  14  5.579488E+04 -4.553437E+05  7.687402E+04 -1.244426E+06 -7.754987E-10 -2.301326E-10
        11  15  1.528178E+05 -4.448209E+05  1.477511E+05 -1.345930E+06 -2.327779E-09  4.793583E-11
        11  16 -5.666488E+05 -3.022674E+06 -3.316284E+05 -1.335272E+06 -2.345110E-09 -2.227259E-09
        11  17 -2.822171E+05 -1.929906E+06 -1.398992E+05 -1.283206E+06 -2.579747E-09 -1.107046E-09
        11  18  6.819670E+04 -8.170561E+05  8.971744E+04 -1.434967E+06 -3.694525E-09 -9.480204E-10
        11  19  6.178894E+05  2.137517E+06  4.274651E+05 -1.358053E+06 -1.967835E+05  1.911049E+05
        11  20  3.937411E+05  1.021481E+06  2.937391E+05 -1.205567E+06 -1.135704E+05  2.364771E+05
        11  21  2.374846E+05 -7.234398E+04  2.059367E+05 -1.256844E+06 -2.762340E+04  2.818639E+05
        11  22  2.579091E+04 -4.459464E+05  4.797929E+04 -1.346634E+06 -1.957076E+05  1.915235E+04
        11  23  5.580935E+04 -4.553366E+05  7.690422E+04 -1.244432E+06 -1.123955E+05  5.890146E+04
        11  24  1.528211E+05 -4.448102E+05  1.477708E+05 -1.345932E+06 -2.635381E+04  9.873420E+04
        11  25 -5.666018E+05 -3.022639E+06 -3.315133E+05 -1.335248E+06 -1.946348E+05 -1.521160E+05
        11  26 -2.822000E+05 -1.929888E+06 -1.398495E+05 -1.283195E+06 -1.111964E+05 -1.182697E+05
        11  27  6.819929E+04 -8.170483E+05  8.973201E+04 -1.434965E+06 -2.503113E+04 -8.428975E+04
        12   1 -5.717541E+06 -1.684375E+06 -1.084630E+06 -1.983152E+06 -6.016410E+05 -2.209673E+05
        12   2 -5.527292E+06 -7.798891E+05 -5.129841E+05 -2.112440E+06 -3.880539E+05 -1.329328E+05
        12   3 -5.669412E+06 -8.384786E+05 -3.554427E+05 -2.051311E+06 -1.708149E+05 -5.461419E+04
        12   4 -5.304987E+06 -1.398622E+06 -9.449327E+05 -1.738106E+06 -5.984629E+05 -2.199358E+05
        12   5 -5.091016E+06 -5.809392E+05 -3.874589E+05 -1.958979E+06 -3.875836E+05 -1.327844E+05
        12   6 -5.208616E+06 -7.254289E+05 -2.417051E+05 -1.989517E+06 -1.730440E+05 -5.542636E+04
        12   7 -4.892224E+06 -1.112696E+06 -8.052485E+05 -1.492872E+06 -5.952824E+05 -2.189016E+05
        12   8 -4.654552E+06 -3.819517E+05 -2.619522E+05 -1.805411E+06 -3.871127E+05 -1.326358E+05
        12   9 -4.747607E+06 -6.123860E+05 -1.279806E+05 -1.927696E+06 -1.752750E+05 -5.623865E+04
        12  10 -5.717947E+06 -1.684527E+06 -1.085410E+06 -1.983260E+06  1.499131E-09 -5.025245E-11
        12  11 -5.527460E+06 -7.799491E+05 -5.133036E+05 -2.112482E+06  1.237415E-09 -4.807305E-10
        12  12 -5.669445E+06 -8.384898E+05 -3.555038E+05 -2.051319E+06  3.164805E-09  1.765538E-10
        12  13 -5.305388E+06 -1.398771E+06 -9.457040E+05 -1.738213E+06  3.346780E-10 -3.130171E-10
        12  14 -5.091183E+06 -5.809991E+05 -3.877773E+05 -1.959020E+06  1.231300E-10 -7.106398E-10
        12  15 -5.208649E+06 -7.254404E+05 -2.417677E+05 -1.989525E+06  2.891445E-09 -1.243449E-10
        12  16 -4.892620E+06 -1.112844E+06 -8.060111E+05 -1.492978E+06  1.072151E-09 -5.378743E-10
        12  17 -4.654718E+06 -3.820114E+05 -2.622697E+05 -1.805452E+06  1.299659E-09 -6.732563E-10
        12  18 -4.747641E+06 -6.123978E+05 -1.280449E+05 -1.927704E+06  1.983722E-09 -6.869580E-10
        12  19 -5.717541E+06 -1.684375E+06 -1.084630E+06 -1.983152E+06  6.016410E+05  2.209673E+05
        12  20 -5.527292E+06 -7.798891E+05 -5.129841E+05 -2.112440E+06  3.880539E+05  1.329328E+05
        12  21 -5.669412E+06 -8.384786E+05 -3.554427E+05 -2.051311E+06  1.708149E+05  5.461419E+04
        12  22 -5.304987E+06 -1.398622E+06 -9.449327E+05 -1.738106E+06  5.984629E+05  2.199358E+05
        12  23 -5.091016E+06 -5.809392E+05 -3.874589E+05 -1.958979E+06  3.875836E+05  1.327844E+05
        12  24 -5.208616E+06 -7.254289E+05 -2.417051E+05 -1.989517E+06  1.730440E+05  5.542636E+04
        12  25 -4.892224E+06 -1.112696E+06 -8.052485E+05 -1.492872E+06  5.952824E+05  2.189016E+05
        12  26 -4.654552E+06 -3.819517E+05 -2.619522E+05 -1.805411E+06  3.871127E+05  1.326358E+05
        12  27 -4.747607E+06 -6.123860E+05 -1.279806E+05 -1.927696E+06  1.752750E+05  5.623865E+04
        13   1 -5.419043E+06 -9.458309E+05 -2.685316E+05 -2.016930E+06 -1.361148E+05 -4.463244E+04
        13   2 -5.361585E+06 -7.753132E+05 -1.440811E+05 -1.988755E+06 -8.717060E+04 -2.773062E+04
        13   3 -5.299385E+06 -7.889079E+05 -9.029067E+04 -1.996141E+06 -3.770488E+04 -1.220952E+04
        13   4 -5.174123E+06 -8.368120E+05 -1.984813E+05 -1.933523E+06 -1.362975E+05 -4.470543E+04
        13   5 -5.169995E+06 -6.990047E+05 -9.108608E+04 -1.932765E+06 -8.773570E+04 -2.794227E+04
        13   6 -5.161032E+06 -7.452060E+05 -5.402141E+04 -1.967573E+06 -3.865705E+04 -1.256382E+04
        13   7 -4.929145E+06 -7.277827E+05 -1.284368E+05 -1.850083E+06 -1.364804E+05 -4.477846E+04
        13   8 -4.978371E+06 -6.226931E+05 -3.809460E+04 -1.876759E+06 -8.830099E+04 -2.815399E+04
        13   9 -5.022662E+06 -7.015045E+05 -1.775382E+04 -1.939000E+06 -3.960944E+04 -1.291818E+04
        13  10 -5.419064E+06 -9.458381E+05 -2.685705E+05 -2.016935E+06  1.906633E-09  3.418004E-10
        13  11 -5.361593E+06 -7.753161E+05 -1.440970E+05 -1.988757E+06 -6.086631E-09 -3.667274E-10
        13  12 -5.299386E+06 -7.889085E+05 -9.029365E+04 -1.996142E+06  5.974888E-10 -5.755573E-10
        13  13 -5.174144E+06 -8.368192E+05 -1.985203E+05 -1.933528E+06  2.074874E-09  8.388300E-10
        13  14 -5.170004E+06 -6.990077E+05 -9.110217E+04 -1.932767E+06  2.128565E-10  6.011069E-10
        13  15 -5.161034E+06 -7.452066E+05 -5.402455E+04 -1.967574E+06  3.335098E-09 -1.943615E-09
        13  16 -4.929165E+06 -7.277899E+05 -1.284760E+05 -1.850088E+06 -3.335570E-09  6.186278E-10
        13  17 -4.978379E+06 -6.226961E+05 -3.811089E+04 -1.876761E+06  4.573674E-10  4.056228E-11
        13  18 -5.022663E+06 -7.015051E+05 -1.775711E+04 -1.939000E+06 -1.176089E-09 -1.105261E-09
        13  19 -5.419043E+06 -9.458309E+05 -2.685316E+05 -2.016930E+06  1.361148E+05  4.463244E+04
        13  20 -5.361585E+06 -7.753132E+05 -1.440811E+05 -1.988755E+06  8.717060E+04  2.773062E+04
        13  21 -5.299385E+06 -7.889079E+05 -9.029067E+04 -1.996141E+06  3.770488E+04  1.220952E+04
        13  22 -5.174123E+06 -8.368120E+05 -1.984813E+05 -1.933523E+06  1.362975E+05  4.470543E+04
        13  23 -5.169995E+06 -6.990047E+05 -9.108608E+04 -1.932765E+06  8.773570E+04  2.794227E+04
        13  24 -5.161032E+06 -7.452060E+05 -5.402141E+04 -1.967573E+06  3.865705E+04  1.256382E+04
        13  25 -4.929145E+06 -7.277827E+05 -1.284368E+05 -1.850083E+06  1.364804E+05  4.477846E+04
        13  26 -4.978371E+06 -6.226931E+05 -3.809460E+04 -1.876759E+06  8.830099E+04  2.815399E+04
        13  27 -5.022662E+06 -7.015045E+05 -1.775382E+04 -1.939000E+06  3.960944E+04  1.291818E+04
        14   1 -5.098463E+06 -7.404210E+05 -2.737211E+04 -1.946399E+06 -2.938385E+04 -1.106234E+04
        14   2 -5.060460E+06 -6.703001E+05  1.151285E+04 -1.897362E+06 -1.753696E+04 -9.390330E+03
        14   3 -4.970336E+06 -6.773536E+05  3.753281E+04 -1.913398E+06 -5.707113E+03 -7.665846E+03
        14   4 -5.155953E+06 -7.600492E+05 -4.285645E+04 -1.959761E+06 -3.008693E+04 -1.132451E+04
        14   5 -5.181128E+06 -7.153309E+05 -2.127919E+04 -1.929494E+06 -1.822584E+04 -9.647286E+03
        14   6 -5.154188E+06 -7.477921E+05 -1.257752E+04 -1.964303E+06 -6.383026E+03 -7.918095E+03
        14   7 -5.213440E+06 -7.796774E+05 -5.834114E+04 -1.973121E+06 -3.078993E+04 -1.158667E+04
        14   8 -5.301783E+06 -7.603611E+05 -5.407264E+04 -1.961621E+06 -1.891457E+04 -9.904188E+03
        14   9 -5.338008E+06 -8.182286E+05 -6.269103E+04 -2.015195E+06 -7.058719E+03 -8.170257E+03
        14  10 -5.098464E+06 -7.404213E+05 -2.737398E+04 -1.946400E+06  1.734037E-11 -7.741340E-10
        14  11 -5.060460E+06 -6.703003E+05  1.151210E+04 -1.897362E+06 -6.804893E-10  1.632687E-09
        14  12 -4.970336E+06 -6.773537E+05  3.753264E+04 -1.913398E+06 -2.536368E-09 -3.642603E-10
        14  13 -5.155954E+06 -7.600496E+05 -4.285841E+04 -1.959761E+06  2.052651E-09 -2.310864E-10
        14  14 -5.181129E+06 -7.153311E+05 -2.128000E+04 -1.929495E+06  1.830385E-09  2.762978E-09
        14  15 -5.154188E+06 -7.477922E+05 -1.257772E+04 -1.964303E+06 -5.554616E-09  3.489984E-10
        14  16 -5.213441E+06 -7.796778E+05 -5.834319E+04 -1.973122E+06 -5.967143E-10 -2.630975E-10
        14  17 -5.301784E+06 -7.603613E+05 -5.407350E+04 -1.961621E+06 -5.358466E-09  7.472223E-10
        14  18 -5.338008E+06 -8.182287E+05 -6.269125E+04 -2.015195E+06 -2.116197E-09  6.110576E-10
        14  19 -5.098463E+06 -7.404210E+05 -2.737211E+04 -1.946399E+06  2.938385E+04  1.106234E+04
        14  20 -5.060460E+06 -6.703001E+05  1.151285E+04 -1.897362E+06  1.753696E+04  9.390330E+03
        14  21 -4.970336E+06 -6.773536E+05  3.753281E+04 -1.913398E+06  5.707113E+03  7.665846E+03
        14  22 -5.155953E+06 -7.600492E+05 -4.285645E+04 -1.959761E+06  3.008693E+04  1.132451E+04
        14  23 -5.181128E+06 -7.153309E+05 -2.127919E+04 -1.929494E+06  1.822584E+04  9.647286E+03
        14  24 -5.154188E+06 -7.477921E+05 -1.257752E+04 -1.964303E+06  6.383026E+03  7.918095E+03
        14  25 -5.213440E+06 -7.796774E+05 -5.834114E+04 -1.973121E+06  3.078993E+04  1.158667E+04
        14  26 -5.301783E+06 -7.603611E+05 -5.407264E+04 -1.961621E+06  1.891457E+04  9.904188E+03
        14  27 -5.338008E+06 -8.182286E+05 -6.269103E+04 -2.015195E+06  7.058719E+03  8.170257E+03
        15   1 -4.801138E+06 -6.131123E+05  8.695603E+04 -1.864203E+06 -3.283450E+03 -8.384765E+03
        15   2 -4.773968E+06 -5.683560E+05  1.044147E+05 -1.823709E+06  4.143300E+02 -9.505584E+03
        15   3 -4.700445E+06 -5.732503E+05  1.191514E+05 -1.836656E+06  3.899129E+03 -1.004750E+04
        15   4 -5.156215E+06 -7.467205E+05 -9.970415E+03 -1.959856E+06 -4.001312E+03 -8.653012E+03
        15   5 -5.179279E+06 -7.212506E+05 -6.027026E+03 -1.933365E+06 -1.373913E+02 -9.712284E+03
        15   6 -5.156027E+06 -7.454679E+05 -4.939091E+03 -1.960318E+06  3.513230E+03 -1.019256E+04
        15   7 -5.511169E+06 -8.803215E+05 -1.069080E+05 -2.055459E+06 -4.718715E+03 -8.921088E+03
        15   8 -5.584432E+06 -8.741359E+05 -1.164835E+05 -2.042955E+06 -6.887121E+02 -9.918834E+03
        15   9 -5.611409E+06 -9.176738E+05 -1.290485E+05 -2.083897E+06  3.127645E+03 -1.033750E+04
        15  10 -4.801138E+06 -6.131124E+05  8.695588E+04 -1.864203E+06 -2.435211E-09 -1.684365E-09
        15  11 -4.773968E+06 -5.683561E+05  1.044145E+05 -1.823709E+06 -5.923994E-09  5.594437E-11
        15  12 -4.700445E+06 -5.732504E+05  1.191512E+05 -1.836656E+06  1.964014E-09 -6.460735E-10
        15  13 -5.156215E+06 -7.467206E+05 -9.970586E+03 -1.959856E+06  2.852824E-09 -1.994090E-09
        15  14 -5.179279E+06 -7.212507E+05 -6.027204E+03 -1.933365E+06 -6.338717E-09 -2.460604E-09
        15  15 -5.156027E+06 -7.454680E+05 -4.939308E+03 -1.960318E+06 -3.185985E-09 -5.065752E-10
        15  16 -5.511169E+06 -8.803216E+05 -1.069082E+05 -2.055459E+06  1.873610E-09 -2.125471E-09
        15  17 -5.584432E+06 -8.741360E+05 -1.164837E+05 -2.042956E+06 -8.581366E-10 -2.630537E-09
        15  18 -5.611409E+06 -9.176740E+05 -1.290487E+05 -2.083897E+06 -1.111151E-09 -8.915107E-11
        15  19 -4.801138E+06 -6.131123E+05  8.695603E+04 -1.864203E+06  3.283450E+03  8.384765E+03
        15  20 -4.773968E+06 -5.683560E+05  1.044147E+05 -1.823709E+06 -4.143300E+02  9.505584E+03
        15  21 -4.700445E+06 -5.732503E+05  1.191514E+05 -1.836656E+06 -3.899129E+03  1.004750E+04
        15  22 -5.156215E+06 -7.467205E+05 -9.970415E+03 -1.959856E+06  4.001312E+03  8.653012E+03
        15  23 -5.179279E+06 -7.212506E+05 -6.027026E+03 -1.933365E+06  1.373913E+02  9.712284E+03
        15  24 -5.156027E+06 -7.454679E+05 -4.939091E+03 -1.960318E+06 -3.513230E+03  1.019256E+04
        15  25 -5.511169E+06 -8.803215E+05 -1.069080E+05 -2.055459E+06  4.718715E+03  8.921088E+03
        15  26 -5.584432E+06 -8.741359E+05 -1.164835E+05 -2.042955E+06  6.887121E+02  9.918834E+03
        15  27 -5.611409E+06 -9.176738E+05 -1.290485E+05 -2.083897E+06 -3.127645E+03  1.033750E+04
        16   1 -4.594661E+06 -5.259947E+05  1.496619E+05 -1.800612E+06  5.176697E+03 -1.061517E+04
        16   2 -4.582191E+06 -5.046292E+05  1.546455E+05 -1.780716E+06  8.647868E+03 -1.085016E+04
        16   3 -4.547116E+06 -5.084955E+05  1.569832E+05 -1.785824E+06  1.179546E+04 -1.021736E+04
        16   4 -5.161326E+06 -7.399170E+05 -4.939131E+03 -1.954064E+06  4.659784E+03 -1.080970E+04
        16   5 -5.172725E+06 -7.281128E+05 -6.392050E+03 -1.941247E+06  8.379897E+03 -1.095176E+04
        16   6 -5.161570E+06 -7.415936E+05 -1.069141E+04 -1.953436E+06  1.177616E+04 -1.022567E+04
        16   7 -5.727679E+06 -9.538208E+05 -1.595691E+05 -2.107388E+06  4.143396E+03 -1.100403E+04
        16   8 -5.762921E+06 -9.515763E+05 -1.674612E+05 -2.101639E+06  8.112207E+03 -1.105325E+04
        16   9 -5.775660E+06 -9.746699E+05 -1.784006E+05 -2.120897E+06  1.175688E+04 -1.023397E+04
        16  10 -4.594661E+06 -5.259948E+05  1.496617E+05 -1.800612E+06 -6.170024E-10 -3.867318E-10
        16  11 -4.582192E+06 -5.046293E+05  1.546451E+05 -1.780716E+06 -4.451048E-09  2.648425E-09
        16  12 -4.547116E+06 -5.084956E+05  1.569827E+05 -1.785824E+06  2.901346E-09 -8.233404E-10
        16  13 -5.161326E+06 -7.399171E+05 -4.939391E+03 -1.954064E+06 -2.180301E-09 -3.294425E-10
        16  14 -5.172725E+06 -7.281130E+05 -6.392407E+03 -1.941247E+06 -3.935246E-09  1.864916E-09
        16  15 -5.161570E+06 -7.415938E+05 -1.069187E+04 -1.953436E+06  5.962826E-10  3.560250E-10
        16  16 -5.727679E+06 -9.538210E+05 -1.595694E+05 -2.107388E+06  1.514147E-10  3.498218E-10
        16  17 -5.762921E+06 -9.515765E+05 -1.674616E+05 -2.101639E+06 -3.100841E-09  2.614057E-10
        16  18 -5.775660E+06 -9.746701E+05 -1.784011E+05 -2.120897E+06  9.781834E-10 -5.008747E-10
        16  19 -4.594661E+06 -5.259947E+05  1.496619E+05 -1.800612E+06 -5.176697E+03  1.061517E+04
        16  20 -4.582191E+06 -5.046292E+05  1.546455E+05 -1.780716E+06 -8.647868E+03  1.085016E+04
        16  21 -4.547116E+06 -5.084955E+05  1.569832E+05 -1.785824E+06 -1.179546E+04  1.021736E+04
        16  22 -5.161326E+06 -7.399170E+05 -4.939131E+03 -1.954064E+06 -4.659784E+03  1.080970E+04
        16  23 -5.172725E+06 -7.281128E+05 -6.392050E+03 -1.941247E+06 -8.379897E+03  1.095176E+04
        16  24 -5.161570E+06 -7.415936E+05 -1.069141E+04 -1.953436E+06 -1.177616E+04  1.022567E+04
        16  25 -5.727679E+06 -9.538208E+05 -1.595691E+05 -2.107388E+06 -4.143396E+03  1.100403E+04
        16  26 -5.762921E+06 -9.515763E+05 -1.674612E+05 -2.101639E+06 -8.112207E+03  1.105325E+04
        16  27 -5.775660E+06 -9.746699E+05 -1.784006E+05 -2.120897E+06 -1.175688E+04  1.023397E+04
        17   1 -4.529273E+06 -4.915505E+05  1.608771E+05 -1.773950E+06  1.401215E+04 -9.612934E+03
        17   2 -4.532479E+06 -4.942569E+05  1.489975E+05 -1.778524E+06  2.567103E+04 -5.389146E+03
        17   3 -4.550143E+06 -5.076877E+05  1.237646E+05 -1.769749E+06  3.696391E+04 -1.993555E+02
        17   4 -5.169021E+06 -7.328332E+05 -1.348166E+04 -1.947005E+06  1.382223E+04 -9.685569E+03
        17   5 -5.162743E+06 -7.340709E+05 -2.312688E+04 -1.951186E+06  2.575000E+04 -5.360442E+03
        17   6 -5.170985E+06 -7.460991E+05 -4.635049E+04 -1.942016E+06  3.731178E+04 -6.886814E+01
        17   7 -5.808373E+06 -9.740930E+05 -1.878775E+05 -2.119898E+06  1.363253E+04 -9.758125E+03
        17   8 -5.792621E+06 -9.738607E+05 -1.952873E+05 -2.123688E+06  2.582888E+04 -5.331776E+03
        17   9 -5.791453E+06 -9.844851E+05 -2.165006E+05 -2.114125E+06  3.765924E+04  6.146273E+01
        17  10 -4.529273E+06 -4.915507E+05  1.608766E+05 -1.773950E+06  2.985175E-09  9.044627E-11
        17  11 -4.532480E+06 -4.942571E+05  1.489962E+05 -1.778524E+06 -2.544364E-09  2.372404E-09
        17  12 -4.550144E+06 -5.076881E+05  1.237620E+05 -1.769749E+06 -2.971287E-09  8.838559E-10
        17  13 -5.169021E+06 -7.328333E+05 -1.348219E+04 -1.947005E+06  7.021727E-10  5.102496E-10
        17  14 -5.162743E+06 -7.340711E+05 -2.312818E+04 -1.951186E+06  2.489559E-09  1.633491E-10
        17  15 -5.170987E+06 -7.460995E+05 -4.635313E+04 -1.942016E+06 -3.860438E-09  8.621482E-10
        17  16 -5.808373E+06 -9.740932E+05 -1.878781E+05 -2.119898E+06 -1.946334E-09  9.412443E-10
        17  17 -5.792622E+06 -9.738609E+05 -1.952886E+05 -2.123688E+06  1.333290E-09  5.679887E-10
        17  18 -5.791455E+06 -9.844855E+05 -2.165033E+05 -2.114125E+06  1.684448E-09  1.544458E-09
        17  19 -4.529273E+06 -4.915505E+05  1.608771E+05 -1.773950E+06 -1.401215E+04  9.612934E+03
        17  20 -4.532479E+06 -4.942569E+05  1.489975E+05 -1.778524E+06 -2.567103E+04  5.389146E+03
        17  21 -4.550143E+06 -5.076877E+05  1.237646E+05 -1.769749E+06 -3.696391E+04  1.993555E+02
        17  22 -5.169021E+06 -7.328332E+05 -1.348166E+04 -1.947005E+06 -1.382223E+04  9.685569E+03
        17  23 -5.162743E+06 -7.340709E+05 -2.312688E+04 -1.951186E+06 -2.575000E+04  5.360442E+03
        17  24 -5.170985E+06 -7.460991E+05 -4.635049E+04 -1.942016E+06 -3.731178E+04  6.886814E+01
        17  25 -5.808373E+06 -9.740930E+05 -1.878775E+05 -2.119898E+06 -1.363253E+04  9.758125E+03
        17  26 -5.792621E+06 -9.738607E+05 -1.952873E+05 -2.123688E+06 -2.582888E+04  5.331776E+03
        17  27 -5.791453E+06 -9.844851E+05 -2.165006E+05 -2.114125E+06 -3.765924E+04 -6.146273E+01
        18   1 -4.621316E+06 -5.200333E+05  9.286127E+04 -1.799637E+06  4.552426E+04  3.657367E+03
        18   2 -4.630253E+06 -5.237988E+05  4.224808E+04 -1.817691E+06  9.688957E+04  2.438260E+04
        18   3 -4.732461E+06 -6.271382E+05 -8.409718E+04 -1.760266E+06  1.478421E+05  4.617482E+04
        18   4 -5.182423E+06 -7.242816E+05 -5.849832E+04 -1.943946E+06  4.566258E+04  3.709690E+03
        18   5 -5.143041E+06 -7.237174E+05 -9.874993E+04 -1.963038E+06  9.729600E+04  2.453529E+04
        18   6 -5.197028E+06 -8.228476E+05 -2.149926E+05 -1.906636E+06  1.485209E+05  4.642703E+04
        18   7 -5.743227E+06 -9.285180E+05 -2.098861E+05 -2.088140E+06  4.580076E+04  3.761959E+03
        18   8 -5.655575E+06 -9.236169E+05 -2.397723E+05 -2.108274E+06  9.770202E+04  2.468782E+04
        18   9 -5.661385E+06 -1.018530E+06 -3.459088E+05 -2.052901E+06  1.491990E+05  4.667895E+04
        18  10 -4.621318E+06 -5.200338E+05  9.285732E+04 -1.799637E+06  9.006334E-10  9.738281E-10
        18  11 -4.630263E+06 -5.238020E+05  4.222916E+04 -1.817693E+06 -3.241711E-09 -4.360300E-10
        18  12 -4.732485E+06 -6.271464E+05 -8.414266E+04 -1.760272E+06 -2.775151E-09 -2.363401E-09
        18  13 -5.182425E+06 -7.242821E+05 -5.850230E+04 -1.943946E+06 -2.497057E-09  2.193367E-10
        18  14 -5.143051E+06 -7.237206E+05 -9.876903E+04 -1.963040E+06 -4.886106E-09 -5.923084E-10
        18  15 -5.197052E+06 -8.228559E+05 -2.150386E+05 -1.906641E+06 -8.168306E-10 -2.264659E-09
        18  16 -5.743229E+06 -9.285186E+05 -2.098901E+05 -2.088140E+06 -2.861954E-09  7.370262E-10
        18  17 -5.655585E+06 -9.236201E+05 -2.397916E+05 -2.108276E+06 -3.938165E-09 -4.195786E-10
        18  18 -5.661409E+06 -1.018539E+06 -3.459552E+05 -2.052906E+06 -2.411912E-09  7.997899E-10
        18  19 -4.621316E+06 -5.200333E+05  9.286127E+04 -1.799637E+06 -4.552426E+04 -3.657367E+03
        18  20 -4.630253E+06 -5.237988E+05  4.224808E+04 -1.817691E+06 -9.688957E+04 -2.438260E+04
        18  21 -4.732461E+06 -6.271382E+05 -8.409718E+04 -1.760266E+06 -1.478421E+05 -4.617482E+04
        18  22 -5.182423E+06 -7.242816E+05 -5.849832E+04 -1.943946E+06 -4.566258E+04 -3.709690E+03
        18  23 -5.143041E+06 -7.237174E+05 -9.874993E+04 -1.963038E+06 -9.729600E+04 -2.453529E+04
        18  24 -5.197028E+06 -8.228476E+05 -2.149926E+05 -1.906636E+06 -1.485209E+05 -4.642703E+04
        18  25 -5.743227E+06 -9.285180E+05 -2.098861E+05 -2.088140E+06 -4.580076E+04 -3.761959E+03
        18  26 -5.655575E+06 -9.236169E+05 -2.397723E+05 -2.108274E+06 -9.770202E+04 -2.468782E+04
        18  27 -5.661385E+06 -1.018530E+06 -3.459088E+05 -2.052901E+06 -1.491990E+05 -4.667895E+04
        19   1 -4.851474E+06 -6.235754E+05 -1.706957E+05 -1.930371E+06  1.866907E+05  6.198422E+04
        19   2 -4.808112E+06 -4.639937E+05 -3.445151E+05 -1.885645E+06  4.161700E+05  1.516903E+05
        19   3 -5.228649E+06 -1.242507E+06 -9.639425E+05 -1.516629E+06  6.446131E+05  2.440722E+05
        19   4 -5.234386E+06 -7.026681E+05 -2.619339E+05 -1.967866E+06  1.868246E+05  6.205978E+04
        19   5 -5.056051E+06 -5.964381E+05 -4.197337E+05 -1.992101E+06  4.169777E+05  1.519662E+05
        19   6 -5.341933E+06 -1.428708E+06 -1.023801E+06 -1.691955E+06  6.461507E+05  2.444727E+05
        19   7 -5.617148E+06 -7.817638E+05 -3.531792E+05 -2.005351E+06  1.869583E+05  6.213534E+04
        19   8 -5.303927E+06 -7.288583E+05 -4.949583E+05 -2.098512E+06  4.177850E+05  1.522418E+05
        19   9 -5.455155E+06 -1.614780E+06 -1.083651E+06 -1.867230E+06  6.476881E+05  2.448721E+05
        19  10 -4.851513E+06 -6.235890E+05 -1.707691E+05 -1.930380E+06 -8.786459E-10 -3.230755E-10
        19  11 -4.808306E+06 -4.640656E+05 -3.448872E+05 -1.885696E+06 -2.073810E-09  2.955386E-09
        19  12 -5.229115E+06 -1.242684E+06 -9.648436E+05 -1.516756E+06  3.609595E-09  1.781812E-09
        19  13 -5.234425E+06 -7.026817E+05 -2.620075E+05 -1.967875E+06 -2.371972E-09  4.756816E-10
        19  14 -5.056246E+06 -5.965104E+05 -4.201074E+05 -1.992152E+06  2.500550E-11  8.154519E-09
        19  15 -5.342401E+06 -1.428886E+06 -1.024707E+06 -1.692083E+06  1.964991E-10 -5.843845E-10
        19  16 -5.617187E+06 -7.817775E+05 -3.532529E+05 -2.005360E+06  5.009284E-09  1.060437E-09
        19  17 -5.304122E+06 -7.289309E+05 -4.953336E+05 -2.098563E+06 -2.744679E-09  4.807451E-09
        19  18 -5.455626E+06 -1.614959E+06 -1.084561E+06 -1.867359E+06 -8.060339E-10 -3.943732E-10
        19  19 -4.851474E+06 -6.235754E+05 -1.706957E+05 -1.930371E+06 -1.866907E+05 -6.198422E+04
        19  20 -4.808112E+06 -4.639937E+05 -3.445151E+05 -1.885645E+06 -4.161700E+05 -1.516903E+05
        19  21 -5.228649E+06 -1.242507E+06 -9.639425E+05 -1.516629E+06 -6.446131E+05 -2.440722E+05
        19  22 -5.234386E+06 -7.026681E+05 -2.619339E+05 -1.967866E+06 -1.868246E+05 -6.205978E+04
        19  23 -5.056051E+06 -5.964381E+05 -4.197337E+05 -1.992101E+06 -4.169777E+05 -1.519662E+05
        19  24 -5.341933E+06 -1.428708E+06 -1.023801E+06 -1.691955E+06 -6.461507E+05 -2.444727E+05
        19  25 -5.617148E+06 -7.817638E+05 -3.531792E+05 -2.005351E+06 -1.869583E+05 -6.213534E+04
        19  26 -5.303927E+06 -7.288583E+05 -4.949583E+05 -2.098512E+06 -4.177850E+05 -1.522418E+05
        19  27 -5.455155E+06 -1.614780E+06 -1.083651E+06 -1.867230E+06 -6.476881E+05 -2.448721E+05
        20   1 -2.210763E+06  2.261031E+04  2.916222E+04  4.697883E+03  1.988441E+04  1.509823E-01
        20   2 -2.215063E+06 -4.519524E+03  1.255830E+04  1.253974E+03  1.305613E+04  2.646159E-02
        20   3 -2.210789E+06 -9.470506E+02  8.087439E+03 -2.189862E+03  6.227950E+03 -2.204306E-02
        20   4 -2.210763E+06  2.261027E+04  2.916222E+04  4.218837E-08  1.988441E+04  1.792030E-10
        20   5 -2.215063E+06 -4.519527E+03  1.255830E+04 -2.641780E-09  1.305613E+04  7.803962E-11
        20   6 -2.210789E+06 -9.470596E+02  8.087438E+03  9.567503E-09  6.227950E+03 -1.480065E-09
        20   7 -2.210763E+06  2.261031E+04  2.916222E+04 -4.697883E+03  1.988441E+04 -1.509823E-01
        20   8 -2.215063E+06 -4.519524E+03  1.255830E+04 -1.253974E+03  1.305613E+04 -2.646159E-02
        20   9 -2.210789E+06 -9.470506E+02  8.087439E+03  2.189862E+03  6.227950E+03  2.204306E-02
        20  10 -2.210763E+06  2.261020E+04  2.916148E+04  4.697883E+03 -3.905529E-10  4.453920E-10
        20  11 -2.215064E+06 -4.519570E+03  1.255798E+04  1.253974E+03 -2.293204E-09  1.276540E-11
        20  12 -2.210789E+06 -9.470610E+02  8.087366E+03 -2.189862E+03 -9.593234E-10 -1.235472E-09
        20  13 -2.210763E+06  2.261016E+04  2.916147E+04  1.636806E-08 -1.884482E-09  2.012868E-10
        20  14 -2.215064E+06 -4.519573E+03  1.255798E+04  1.025766E-08 -4.304101E-09  2.343859E-10
        20  15 -2.210789E+06 -9.470701E+02  8.087364E+03  2.566357E-08 -6.396343E-10 -7.295209E-10
        20  16 -2.210763E+06  2.261020E+04  2.916148E+04 -4.697883E+03  8.810362E-10  8.888913E-11
        20  17 -2.215064E+06 -4.519570E+03  1.255798E+04 -1.253974E+03  5.400425E-11 -2.807108E-10
        20  18 -2.210789E+06 -9.470610E+02  8.087366E+03  2.189862E+03  2.773887E-09 -9.646281E-10
        20  19 -2.210763E+06  2.261031E+04  2.916222E+04  4.697883E+03 -1.988441E+04 -1.509823E-01
        20  20 -2.215063E+06 -4.519524E+03  1.255830E+04  1.253974E+03 -1.305613E+04 -2.646158E-02
        20  21 -2.210789E+06 -9.470506E+02  8.087439E+03 -2.189862E+03 -6.227950E+03  2.204306E-02
        20  22 -2.210763E+06  2.261027E+04  2.916222E+04  6.803072E-08 -1.988441E+04  2.519558E-10
        20  23 -2.215063E+06 -4.519527E+03  1.255830E+04  4.467925E-08 -1.305613E+04  4.335473E-10
        20  24 -2.210789E+06 -9.470596E+02  8.087438E+03  6.974638E-08 -6.227950E+03 -7.229892E-11
        20  25 -2.210763E+06  2.261031E+04  2.916222E+04 -4.697883E+03 -1.988441E+04  1.509823E-01
        20  26 -2.215063E+06 -4.519524E+03  1.255830E+04 -1.253974E+03 -1.305613E+04  2.646159E-02
        20  27 -2.210789E+06 -9.470506E+02  8.087439E+03  2.189862E+03 -6.227950E+03 -2.204306E-02
        21   1 -2.212411E+06  3.016291E+03  6.657168E+03  5.878033E+02  4.923718E+03  4.677742E-03
        21   2 -2.213038E+06 -6.073184E+02  3.251425E+03  1.428762E+02  3.234793E+03  7.469965E-04
        21   3 -2.212416E+06 -1.238919E+02  1.974989E+03 -3.020575E+02  1.545846E+03 -7.546857E-04
        21   4 -2.212411E+06  3.016291E+03  6.657168E+03  4.878571E-08  4.923718E+03 -1.032970E-09
        21   5 -2.213038E+06 -6.073184E+02  3.251425E+03  1.785148E-09  3.234793E+03  1.005190E-09
        21   6 -2.212416E+06 -1.238921E+02  1.974989E+03  3.211452E-09  1.545846E+03  1.106168E-10
        21   7 -2.212411E+06  3.016291E+03  6.657168E+03 -5.878033E+02  4.923718E+03 -4.677743E-03
        21   8 -2.213038E+06 -6.073184E+02  3.251425E+03 -1.428762E+02  3.234793E+03 -7.469954E-04
        21   9 -2.212416E+06 -1.238919E+02  1.974989E+03  3.020575E+02  1.545846E+03  7.546858E-04
        21  10 -2.212411E+06  3.016285E+03  6.657122E+03  5.878033E+02 -1.727929E-09 -3.216939E-10
        21  11 -2.213038E+06 -6.073212E+02  3.251406E+03  1.428762E+02 -7.856700E-10  3.751652E-10
        21  12 -2.212416E+06 -1.238926E+02  1.974984E+03 -3.020575E+02 -1.235137E-09  3.086663E-11
        21  13 -2.212411E+06  3.016284E+03  6.657122E+03  5.792424E-09 -1.751836E-09 -5.881602E-10
        21  14 -2.213038E+06 -6.073212E+02  3.251406E+03  1.796693E-09 -8.004038E-10  4.068823E-10
        21  15 -2.212416E+06 -1.238927E+02  1.974984E+03 -6.488409E-09 -1.294994E-09 -1.286460E-11
        21  16 -2.212411E+06  3.016285E+03  6.657122E+03 -5.878033E+02  3.795977E-09 -8.559138E-10
        21  17 -2.213038E+06 -6.073212E+02  3.251406E+03 -1.428762E+02 -5.404725E-10 -2.391083E-10
        21  18 -2.212416E+06 -1.238926E+02  1.974984E+03  3.020575E+02  2.178497E-10  1.577850E-10
        21  19 -2.212411E+06  3.016291E+03  6.657168E+03  5.878033E+02 -4.923718E+03 -4.677743E-03
        21  20 -2.213038E+06 -6.073184E+02  3.251425E+03  1.428762E+02 -3.234793E+03 -7.469944E-04
        21  21 -2.212416E+06 -1.238919E+02  1.974989E+03 -3.020575E+02 -1.545846E+03  7.546855E-04
        21  22 -2.212411E+06  3.016291E+03  6.657168E+03  8.329688E-08 -4.923718E+03 -1.697614E-10
        21  23 -2.213038E+06 -6.073184E+02  3.251425E+03  1.808242E-09 -3.234793E+03 -2.073081E-10
        21  24 -2.212416E+06 -1.238921E+02  1.974989E+03  3.165258E-09 -1.545846E+03  1.310702E-11
        21  25 -2.212411E+06  3.016291E+03  6.657168E+03 -5.878033E+02 -4.923718E+03  4.677742E-03
        21  26 -2.213038E+06 -6.073184E+02  3.251425E+03 -1.428762E+02 -3.234793E+03  7.469948E-04
        21  27 -2.212416E+06 -1.238919E+02  1.974989E+03  3.020575E+02 -1.545846E+03 -7.546859E-04
        22   1 -2.212650E+06  3.991901E+02  1.560353E+03  6.777798E+01  1.230001E+03  1.347421E-04
        22   2 -2.212745E+06 -8.111709E+01  8.021120E+02  1.254490E+01  8.229878E+02  1.668683E-05
        22   3 -2.212651E+06 -1.722777E+01  4.456154E+02 -4.268818E+01  4.159746E+02 -2.869865E-05
        22   4 -2.212650E+06  3.991901E+02  1.560353E+03  2.757691E-08  1.230001E+03 -1.020816E-09
        22   5 -2.212745E+06 -8.111709E+01  8.021120E+02 -1.793455E-09  8.229878E+02 -4.180023E-10
        22   6 -2.212651E+06 -1.722777E+01  4.456154E+02  5.275680E-08  4.159746E+02  1.136012E-09
        22   7 -2.212650E+06  3.991901E+02  1.560353E+03 -6.777798E+01  1.230001E+03 -1.347443E-04
        22   8 -2.212745E+06 -8.111709E+01  8.021120E+02 -1.254490E+01  8.229878E+02 -1.668850E-05
        22   9 -2.212651E+06 -1.722777E+01  4.456154E+02  4.268818E+01  4.159746E+02  2.870047E-05
        22  10 -2.212650E+06  3.991897E+02  1.560350E+03  6.777798E+01 -1.985206E-09 -2.357090E-11
        22  11 -2.212745E+06 -8.111727E+01  8.021107E+02  1.254491E+01  2.763225E-09  5.574899E-10
        22  12 -2.212651E+06 -1.722782E+01  4.456151E+02 -4.268818E+01  1.389756E-09 -5.492458E-10
        22  13 -2.212650E+06  3.991897E+02  1.560350E+03 -1.543842E-08  2.051243E-09 -1.012204E-10
        22  14 -2.212745E+06 -8.111727E+01  8.021107E+02 -1.471611E-08 -5.094918E-10  1.735720E-10
        22  15 -2.212651E+06 -1.722782E+01  4.456151E+02  1.074574E-09 -1.384700E-09 -5.763524E-10
        22  16 -2.212650E+06  3.991897E+02  1.560350E+03 -6.777798E+01 -1.912535E-10 -1.125712E-10
        22  17 -2.212745E+06 -8.111727E+01  8.021107E+02 -1.254491E+01 -2.225217E-09 -3.516241E-10
        22  18 -2.212651E+06 -1.722782E+01  4.456151E+02  4.268818E+01 -1.892263E-09  3.630178E-11
        22  19 -2.212650E+06  3.991901E+02  1.560353E+03  6.777798E+01 -1.230001E+03 -1.347419E-04
        22  20 -2.212745E+06 -8.111709E+01  8.021120E+02  1.254491E+01 -8.229878E+02 -1.668428E-05
        22  21 -2.212651E+06 -1.722777E+01  4.456154E+02 -4.268818E+01 -4.159746E+02  2.869695E-05
        22  22 -2.212650E+06  3.991901E+02  1.560353E+03  1.901080E-08 -1.230001E+03  8.653358E-10
        22  23 -2.212745E+06 -8.111709E+01  8.021120E+02 -2.763561E-08 -8.229878E+02  7.813930E-10
        22  24 -2.212651E+06 -1.722777E+01  4.456154E+02  1.286453E-08 -4.159746E+02 -2.295373E-09
        22  25 -2.212650E+06  3.991901E+02  1.560353E+03 -6.777798E+01 -1.230001E+03  1.347431E-04
        22  26 -2.212745E+06 -8.111709E+01  8.021120E+02 -1.254491E+01 -8.229878E+02  1.668723E-05
        22  27 -2.212651E+06 -1.722777E+01  4.456154E+02  4.268818E+01 -4.159746E+02 -2.870155E-05
        23   1 -2.212689E+06  5.239732E+01  3.222646E+02  4.613968E+00  3.470205E+02  2.589476E-06
        23   2 -2.212699E+06 -8.101970E+00  1.076358E+02 -5.890919E-01  2.927940E+02 -2.785316E-07
        23   3 -2.212689E+06 -1.457289E+01 -5.808947E+01 -5.792075E+00  2.385684E+02 -2.232704E-06
        23   4 -2.212689E+06  5.239732E+01  3.222646E+02  6.849530E-08  3.470205E+02  7.152979E-10
        23   5 -2.212699E+06 -8.101970E+00  1.076358E+02  2.235211E-08  2.927940E+02 -8.163244E-10
        23   6 -2.212689E+06 -1.457289E+01 -5.808947E+01  4.938518E-08  2.385684E+02  3.347499E-10
        23   7 -2.212689E+06  5.239732E+01  3.222646E+02 -4.613968E+00  3.470205E+02 -2.586925E-06
        23   8 -2.212699E+06 -8.101970E+00  1.076358E+02  5.890919E-01  2.927940E+02  2.772515E-07
        23   9 -2.212689E+06 -1.457289E+01 -5.808947E+01  5.792075E+00  2.385684E+02  2.233893E-06
        23  10 -2.212689E+06  5.239729E+01  3.222643E+02  4.613968E+00  8.592955E-10 -8.220745E-10
        23  11 -2.212699E+06 -8.101993E+00  1.076356E+02 -5.890917E-01  1.082464E-11  1.125449E-09
        23  12 -2.212689E+06 -1.457291E+01 -5.808957E+01 -5.792075E+00  1.492295E-09 -1.220557E-10
        23  13 -2.212689E+06  5.239729E+01  3.222643E+02  3.410067E-08 -2.552078E-09 -4.864267E-10
        23  14 -2.212699E+06 -8.101993E+00  1.076356E+02  5.140099E-09  1.476061E-09  4.066322E-10
        23  15 -2.212689E+06 -1.457291E+01 -5.808957E+01  3.428845E-08  7.913751E-10  1.291165E-10
        23  16 -2.212689E+06  5.239729E+01  3.222643E+02 -4.613968E+00 -1.005651E-09 -2.181522E-10
        23  17 -2.212699E+06 -8.101993E+00  1.076356E+02  5.890919E-01  1.465236E-09  2.292301E-10
        23  18 -2.212689E+06 -1.457291E+01 -5.808957E+01  5.792075E+00 -1.212193E-09  2.777641E-10
        23  19 -2.212689E+06  5.239732E+01  3.222646E+02  4.613968E+00 -3.470205E+02 -2.589749E-06
        23  20 -2.212699E+06 -8.101970E+00  1.076358E+02 -5.890919E-01 -2.927940E+02  2.816166E-07
        23  21 -2.212689E+06 -1.457289E+01 -5.808947E+01 -5.792075E+00 -2.385684E+02  2.232035E-06
        23  22 -2.212689E+06  5.239732E+01  3.222646E+02  4.276022E-08 -3.470205E+02 -1.713089E-09
        23  23 -2.212699E+06 -8.101970E+00  1.076358E+02  2.236471E-08 -2.927940E+02  1.635790E-09
        23  24 -2.212689E+06 -1.457289E+01 -5.808947E+01  6.975175E-08 -2.385684E+02 -7.654708E-11
        23  25 -2.212689E+06  5.239732E+01  3.222646E+02 -4.613968E+00 -3.470205E+02  2.586314E-06
        23  26 -2.212699E+06 -8.101970E+00  1.076358E+02  5.890919E-01 -2.927940E+02 -2.775036E-07
        23  27 -2.212689E+06 -1.457289E+01 -5.808947E+01  5.792075E+00 -2.385684E+02 -2.233602E-06
        24   1 -2.212706E+06  1.021307E+01 -1.407036E+02 -1.167464E+01  2.564885E+02 -4.838750E-06
        24   2 -2.212678E+06  1.957953E+01 -3.488031E+02 -1.124354E-01  4.312755E+02 -7.963507E-08
        24   3 -2.212706E+06 -1.005674E+02 -7.033778E+02  1.144994E+01  6.060651E+02  1.121883E-05
        24   4 -2.212706E+06  1.021307E+01 -1.407036E+02  4.550339E-08  2.564885E+02  5.023388E-11
        24   5 -2.212678E+06  1.957953E+01 -3.488031E+02  5.171998E-08  4.312755E+02 -9.553633E-10
        24   6 -2.212706E+06 -1.005674E+02 -7.033778E+02  3.319457E-08  6.060651E+02  1.406803E-09
        24   7 -2.212706E+06  1.021307E+01 -1.407036E+02  1.167464E+01  2.564885E+02  4.840414E-06
        24   8 -2.212678E+06  1.957953E+01 -3.488031E+02  1.124355E-01  4.312755E+02  7.678690E-08
        24   9 -2.212706E+06 -1.005674E+02 -7.033778E+02 -1.144994E+01  6.060651E+02 -1.121520E-05
        24  10 -2.212706E+06  1.021305E+01 -1.407037E+02 -1.167464E+01  1.458804E-09 -8.425716E-10
        24  11 -2.212678E+06  1.957948E+01 -3.488034E+02 -1.124354E-01  3.841322E-09 -5.623848E-11
        24  12 -2.212706E+06 -1.005675E+02 -7.033785E+02  1.144994E+01 -8.896134E-10  7.880197E-10
        24  13 -2.212706E+06  1.021305E+01 -1.407037E+02 -1.475547E-08 -2.320004E-09 -4.287304E-10
        24  14 -2.212678E+06  1.957948E+01 -3.488034E+02  2.591665E-08  1.518389E-09 -4.081357E-10
        24  15 -2.212706E+06 -1.005675E+02 -7.033785E+02  4.077495E-08 -8.259936E-10  8.524068E-10
        24  16 -2.212706E+06  1.021305E+01 -1.407037E+02  1.167464E+01 -2.210382E-09 -2.820721E-10
        24  17 -2.212678E+06  1.957948E+01 -3.488034E+02  1.124355E-01 -1.289268E-09 -7.536333E-10
        24  18 -2.212706E+06 -1.005675E+02 -7.033785E+02 -1.144994E+01 -1.899648E-09  8.502606E-10
        24  19 -2.212706E+06  1.021307E+01 -1.407036E+02 -1.167464E+01 -2.564885E+02  4.838919E-06
        24  20 -2.212678E+06  1.957953E+01 -3.488031E+02 -1.124354E-01 -4.312755E+02  7.943671E-08
        24  21 -2.212706E+06 -1.005674E+02 -7.033778E+02  1.144994E+01 -6.060651E+02 -1.121519E-05
        24  22 -2.212706E+06  1.021307E+01 -1.407036E+02  1.966331E-08 -2.564885E+02 -8.798462E-10
        24  23 -2.212678E+06  1.957953E+01 -3.488031E+02  8.716184E-09 -4.312755E+02  1.217220E-10
        24  24 -2.212706E+06 -1.005674E+02 -7.033778E+02  1.391241E-08 -6.060651E+02  3.853750E-10
        24  25 -2.212706E+06  1.021307E+01 -1.407036E+02  1.167464E+01 -2.564885E+02 -4.840543E-06
        24  26 -2.212678E+06  1.957953E+01 -3.488031E+02  1.124353E-01 -4.312755E+02 -7.948846E-08
        24  27 -2.212706E+06 -1.005674E+02 -7.033778E+02 -1.144994E+01 -6.060651E+02  1.121613E-05
        25   1 -2.212776E+06  3.112001E+01 -9.219644E+02 -8.197491E+01  7.520887E+02 -9.964538E-05
        25   2 -2.212592E+06  1.570367E+02 -1.582764E+03  2.461047E+01  1.554806E+03  6.184515E-05
        25   3 -2.212777E+06 -7.702126E+02 -3.030856E+03  1.311959E+02  2.357522E+03  4.999071E-04
        25   4 -2.212776E+06  3.111999E+01 -9.219644E+02  2.046940E-08  7.520887E+02  9.953653E-10
        25   5 -2.212592E+06  1.570367E+02 -1.582764E+03 -1.038094E-08  1.554806E+03 -1.047320E-09
        25   6 -2.212777E+06 -7.702127E+02 -3.030856E+03  4.161132E-08  2.357522E+03  1.392852E-09
        25   7 -2.212776E+06  3.112001E+01 -9.219644E+02  8.197491E+01  7.520887E+02  9.964822E-05
        25   8 -2.212592E+06  1.570367E+02 -1.582764E+03 -2.461047E+01  1.554806E+03 -6.184693E-05
        25   9 -2.212777E+06 -7.702126E+02 -3.030856E+03 -1.311959E+02  2.357522E+03 -4.999031E-04
        25  10 -2.212776E+06  3.111985E+01 -9.219654E+02 -8.197491E+01  2.611364E-10  6.852095E-10
        25  11 -2.212592E+06  1.570361E+02 -1.582769E+03  2.461047E+01  1.049208E-09 -5.271421E-10
        25  12 -2.212777E+06 -7.702141E+02 -3.030867E+03  1.311959E+02  1.857728E-09 -3.063729E-10
        25  13 -2.212776E+06  3.111984E+01 -9.219654E+02 -3.984827E-08  5.007586E-10  6.785337E-10
        25  14 -2.212592E+06  1.570361E+02 -1.582769E+03 -1.779120E-09 -6.822449E-09 -7.126118E-10
        25  15 -2.212777E+06 -7.702142E+02 -3.030867E+03  4.009621E-09 -2.499378E-09  2.221916E-10
        25  16 -2.212776E+06  3.111985E+01 -9.219654E+02  8.197491E+01  7.140900E-10  9.428028E-10
        25  17 -2.212592E+06  1.570361E+02 -1.582769E+03 -2.461047E+01 -7.872698E-10 -1.030166E-09
        25  18 -2.212777E+06 -7.702141E+02 -3.030867E+03 -1.311959E+02 -2.014092E-09  9.186625E-10
        25  19 -2.212776E+06  3.112001E+01 -9.219644E+02 -8.197491E+01 -7.520887E+02  9.964668E-05
        25  20 -2.212592E+06  1.570367E+02 -1.582764E+03  2.461047E+01 -1.554806E+03 -6.184276E-05
        25  21 -2.212777E+06 -7.702126E+02 -3.030856E+03  1.311959E+02 -2.357522E+03 -4.999066E-04
        25  22 -2.212776E+06  3.111999E+01 -9.219644E+02  2.033922E-08 -7.520887E+02  3.441839E-10
        25  23 -2.212592E+06  1.570367E+02 -1.582764E+03 -1.900060E-08 -1.554806E+03 -1.009710E-10
        25  24 -2.212777E+06 -7.702127E+02 -3.030856E+03  3.311974E-08 -2.357522E+03 -9.986434E-10
        25  25 -2.212776E+06  3.112001E+01 -9.219644E+02  8.197491E+01 -7.520887E+02 -9.964613E-05
        25  26 -2.212592E+06  1.570367E+02 -1.582764E+03 -2.461047E+01 -1.554806E+03  6.184337E-05
        25  27 -2.212777E+06 -7.702126E+02 -3.030856E+03 -1.311959E+02 -2.357522E+03  4.999031E-04
        26   1 -2.213229E+06  2.388419E+02 -3.826005E+03 -5.826591E+02  2.970140E+03 -2.797065E-03
        26   2 -2.212029E+06  1.171908E+03 -6.282133E+03  2.758070E+02  6.233252E+03  2.778627E-03
        26   3 -2.213238E+06 -5.819997E+03 -1.284958E+04  1.134260E+03  9.496308E+03  1.740918E-02
        26   4 -2.213229E+06  2.388413E+02 -3.826005E+03  5.820614E-08  2.970140E+03  1.074630E-09
        26   5 -2.212029E+06  1.171908E+03 -6.282133E+03  2.126169E-08  6.233252E+03 -2.161760E-09
        26   6 -2.213238E+06 -5.820000E+03 -1.284958E+04  4.888105E-08  9.496308E+03 -9.708782E-10
        26   7 -2.213229E+06  2.388419E+02 -3.826005E+03  5.826591E+02  2.970140E+03  2.797067E-03
        26   8 -2.212029E+06  1.171908E+03 -6.282133E+03 -2.758070E+02  6.233252E+03 -2.778632E-03
        26   9 -2.213238E+06 -5.819997E+03 -1.284958E+04 -1.134260E+03  9.496308E+03 -1.740918E-02
        26  10 -2.213229E+06  2.388395E+02 -3.826021E+03 -5.826591E+02  3.339432E-09  8.463609E-11
        26  11 -2.212029E+06  1.171897E+03 -6.282207E+03  2.758070E+02  6.038345E-11 -1.333500E-10
        26  12 -2.213238E+06 -5.820022E+03 -1.284975E+04  1.134260E+03  2.122930E-09 -1.049172E-09
        26  13 -2.213229E+06  2.388389E+02 -3.826021E+03  2.374426E-08 -4.371230E-09  3.616644E-10
        26  14 -2.212029E+06  1.171897E+03 -6.282207E+03 -2.681007E-10 -1.386141E-09 -5.095552E-10
        26  15 -2.213238E+06 -5.820024E+03 -1.284975E+04  1.015611E-08  2.862254E-10 -5.101516E-10
        26  16 -2.213229E+06  2.388395E+02 -3.826021E+03  5.826591E+02 -1.801006E-09  7.713906E-10
        26  17 -2.212029E+06  1.171897E+03 -6.282207E+03 -2.758070E+02 -1.827529E-09 -1.016219E-09
        26  18 -2.213238E+06 -5.820022E+03 -1.284975E+04 -1.134260E+03 -3.610350E-09  2.648017E-10
        26  19 -2.213229E+06  2.388419E+02 -3.826005E+03 -5.826591E+02 -2.970140E+03  2.797066E-03
        26  20 -2.212029E+06  1.171908E+03 -6.282133E+03  2.758070E+02 -6.233252E+03 -2.778626E-03
        26  21 -2.213238E+06 -5.819997E+03 -1.284958E+04  1.134260E+03 -9.496308E+03 -1.740918E-02
        26  22 -2.213229E+06  2.388413E+02 -3.826005E+03  4.952348E-08 -2.970140E+03 -3.259332E-10
        26  23 -2.212029E+06  1.171908E+03 -6.282133E+03 -1.318871E-08 -6.233252E+03  9.258561E-10
        26  24 -2.213238E+06 -5.820000E+03 -1.284958E+04 -1.661142E-09 -9.496308E+03  2.208805E-11
        26  25 -2.213229E+06  2.388419E+02 -3.826005E+03  5.826591E+02 -2.970140E+03 -2.797066E-03
        26  26 -2.212029E+06  1.171908E+03 -6.282133E+03 -2.758070E+02 -6.233252E+03  2.778626E-03
        26  27 -2.213238E+06 -5.819997E+03 -1.284958E+04 -1.134260E+03 -9.496308E+03  1.740918E-02
        27   1 -2.216367E+06  1.827450E+03 -1.560774E+04 -4.225345E+03  1.201338E+04 -8.204277E-02
        27   2 -2.208120E+06  8.720626E+03 -2.423084E+04  2.419702E+03  2.518954E+04  9.851209E-02
        27   3 -2.216418E+06 -4.362675E+04 -5.626453E+04  9.064767E+03  3.836595E+04  5.620994E-01
        27   4 -2.216367E+06  1.827416E+03 -1.560775E+04  7.531319E-08  1.201338E+04  4.356057E-10
        27   5 -2.208120E+06  8.720615E+03 -2.423084E+04 -5.277181E-10  2.518954E+04  1.210937E-09
        27   6 -2.216418E+06 -4.362691E+04 -5.626455E+04 -5.343984E-09  3.836595E+04  4.399612E-10
        27   7 -2.216367E+06  1.827450E+03 -1.560774E+04  4.225345E+03  1.201338E+04  8.204277E-02
        27   8 -2.208120E+06  8.720626E+03 -2.423084E+04 -2.419702E+03  2.518954E+04 -9.851208E-02
        27   9 -2.216418E+06 -4.362675E+04 -5.626453E+04 -9.064767E+03  3.836595E+04 -5.620994E-01
        27  10 -2.216367E+06  1.827411E+03 -1.560801E+04 -4.225345E+03 -1.122863E-09 -3.334437E-10
        27  11 -2.208121E+06  8.720455E+03 -2.423204E+04  2.419702E+03  1.250919E-09  1.174449E-09
        27  12 -2.216419E+06 -4.362715E+04 -5.626730E+04  9.064767E+03  3.172524E-10  6.038845E-10
        27  13 -2.216367E+06  1.827377E+03 -1.560802E+04  2.369886E-08  1.321112E-09  2.269386E-10
        27  14 -2.208121E+06  8.720443E+03 -2.423204E+04  8.084725E-09 -2.271923E-09  7.388044E-10
        27  15 -2.216419E+06 -4.362731E+04 -5.626733E+04 -1.071500E-09 -1.648693E-09  3.836470E-10
        27  16 -2.216367E+06  1.827411E+03 -1.560801E+04  4.225345E+03 -1.139489E-09  5.216695E-10
        27  17 -2.208121E+06  8.720455E+03 -2.423204E+04 -2.419702E+03 -2.745874E-10  2.529843E-10
        27  18 -2.216419E+06 -4.362715E+04 -5.626730E+04 -9.064767E+03  2.321275E-10  1.987167E-10
        27  19 -2.216367E+06  1.827450E+03 -1.560774E+04 -4.225345E+03 -1.201338E+04  8.204277E-02
        27  20 -2.208120E+06  8.720626E+03 -2.423084E+04  2.419702E+03 -2.518954E+04 -9.851208E-02
        27  21 -2.216418E+06 -4.362675E+04 -5.626453E+04  9.064767E+03 -3.836595E+04 -5.620994E-01
        27  22 -2.216367E+06  1.827416E+03 -1.560775E+04  4.094563E-08 -1.201338E+04 -2.210044E-10
        27  23 -2.208120E+06  8.720615E+03 -2.423084E+04 -5.267003E-10 -2.518954E+04  3.713023E-10
        27  24 -2.216418E+06 -4.362691E+04 -5.626455E+04  3.197839E-09 -3.836595E+04  3.015926E-10
        27  25 -2.216367E+06  1.827450E+03 -1.560774E+04  4.225345E+03 -1.201338E+04 -8.204277E-02
        27  26 -2.208120E+06  8.720626E+03 -2.423084E+04 -2.419702E+03 -2.518954E+04  9.851208E-02
        27  27 -2.216418E+06 -4.362675E+04 -5.626453E+04 -9.064767E+03 -3.836595E+04  5.620994E-01
        28   1  5.178826E+05  9.083138E+05  6.707527E+05 -3.345018E+04  1.818720E+02  4.486088E+05
        28   2 -7.140964E+04  9.401234E+05  3.288473E+05 -3.230948E+04  2.351242E+03  2.885372E+05
        28   3  4.874674E+04  1.170233E+06  2.685527E+05  1.262244E+05  6.849673E+03  1.284237E+05
        28   4  5.174840E+05  9.066501E+05  6.703785E+05  7.507747E+04  2.601491E+02  4.482854E+05
        28   5 -1.044340E+05  8.075389E+05  2.962199E+05 -3.610672E+03  2.364660E+03  2.874676E+05
        28   6 -1.673797E+04  9.068128E+05  2.041783E+05  7.509012E+04  6.839530E+03  1.266412E+05
        28   7  5.171297E+05  9.050117E+05  6.700106E+05  1.836048E+05  3.383135E+02  4.479620E+05
        28   8 -1.374566E+05  6.749721E+05  2.635916E+05  2.508201E+04  2.377982E+03  2.863982E+05
        28   9 -8.221799E+04  6.434615E+05  1.398002E+05  2.397757E+04  6.829676E+03  1.248595E+05
        28  10  5.178286E+05  9.080981E+05  6.703751E+05 -3.345025E+04 -1.637732E-10  3.779433E-09
        28  11 -7.143194E+04  9.400342E+05  3.286911E+05 -3.231003E+04 -4.955702E-09 -1.184960E-09
        28  12  4.874227E+04  1.170215E+06  2.685216E+05  1.262237E+05 -3.291197E-09 -7.302785E-09
        28  13  5.174302E+05  9.064347E+05  6.700014E+05  7.507738E+04 -2.370142E-09 -1.806670E-12
        28  14 -1.044561E+05  8.074503E+05  2.960648E+05 -3.611220E+03 -5.506447E-09  2.830687E-12
        28  15 -1.674232E+04  9.067955E+05  2.041481E+05  7.508943E+04  3.177126E-09 -1.486753E-10
        28  16  5.170759E+05  9.047965E+05  6.696341E+05  1.836047E+05 -4.157291E-10 -3.774935E-09
        28  17 -1.374786E+05  6.748841E+05  2.634377E+05  2.508146E+04 -1.653039E-09  1.188303E-09
        28  18 -8.222222E+04  6.434448E+05  1.397709E+05  2.397688E+04 -6.340284E-10  7.316779E-09
        28  19  5.178826E+05  9.083138E+05  6.707527E+05 -3.345018E+04 -1.818720E+02 -4.486088E+05
        28  20 -7.140964E+04  9.401234E+05  3.288473E+05 -3.230948E+04 -2.351242E+03 -2.885372E+05
        28  21  4.874674E+04  1.170233E+06  2.685527E+05  1.262244E+05 -6.849673E+03 -1.284237E+05
        28  22  5.174840E+05  9.066501E+05  6.703785E+05  7.507747E+04 -2.601491E+02 -4.482854E+05
        28  23 -1.044340E+05  8.075389E+05  2.962199E+05 -3.610672E+03 -2.364660E+03 -2.874676E+05
        28  24 -1.673797E+04  9.068128E+05  2.041783E+05  7.509012E+04 -6.839530E+03 -1.266412E+05
        28  25  5.171297E+05  9.050117E+05  6.700106E+05  1.836048E+05 -3.383135E+02 -4.479620E+05
        28  26 -1.374566E+05  6.749721E+05  2.635916E+05  2.508201E+04 -2.377982E+03 -2.863982E+05
        28  27 -8.221799E+04  6.434615E+05  1.398002E+05  2.397757E+04 -6.829676E+03 -1.248595E+05
        29   1  2.175290E+05  1.475688E+06  3.254002E+05  5.839443E+04  1.037946E+04  9.466987E+04
        29   2  1.615182E+05  1.586452E+06  2.962107E+05 -6.740334E+03  1.495812E+04  3.380584E+04
        29   3  2.521237E+05  1.743836E+06  3.436579E+05  8.930690E+04  1.698575E+04 -2.706522E+04
        29   4  6.744465E+04  8.729111E+05  1.770285E+05  7.594356E+04  1.038346E+04  9.278102E+04
        29   5 -2.181868E+04  8.496743E+05  1.153254E+05 -4.638772E+03  1.496053E+04  3.276749E+04
        29   6  3.547777E+04  8.729365E+05  1.297232E+05  7.596954E+04  1.698821E+04 -2.724010E+04
        29   7 -8.266558E+04  2.704649E+05  2.863011E+04  9.347566E+04  1.038735E+04  9.089396E+04
        29   8 -2.051958E+05  1.133894E+05 -6.559976E+04 -2.539560E+03  1.496293E+04  3.173034E+04
        29   9 -1.812236E+05  2.726399E+03 -8.426718E+04  6.265113E+04  1.699068E+04 -2.741472E+04
        29  10  2.175265E+05  1.475678E+06  3.253832E+05  5.839364E+04 -4.661472E-09 -2.661344E-09
        29  11  1.615176E+05  1.586451E+06  2.962082E+05 -6.740741E+03 -1.647248E-09  1.980427E-09
        29  12  2.521231E+05  1.743835E+06  3.436560E+05  8.930727E+04 -1.072875E-09  3.864602E-09
        29  13  6.744222E+04  8.729018E+05  1.770121E+05  7.594278E+04  4.028857E-09 -1.165062E-10
        29  14 -2.181920E+04  8.496731E+05  1.153230E+05 -4.639167E+03 -2.153437E-09 -1.565199E-11
        29  15  3.547726E+04  8.729356E+05  1.297212E+05  7.596991E+04  3.846199E-10 -1.022376E-09
        29  16 -8.266791E+04  2.704560E+05  2.861439E+04  9.347490E+04 -1.440738E-09  2.587709E-09
        29  17 -2.051963E+05  1.133883E+05 -6.560207E+04 -2.539942E+03 -1.185617E-09 -1.637673E-09
        29  18 -1.812242E+05  2.725515E+03 -8.426914E+04  6.265151E+04  3.853084E-09 -4.124530E-09
        29  19  2.175290E+05  1.475688E+06  3.254002E+05  5.839443E+04 -1.037946E+04 -9.466987E+04
        29  20  1.615182E+05  1.586452E+06  2.962107E+05 -6.740334E+03 -1.495812E+04 -3.380584E+04
        29  21  2.521237E+05  1.743836E+06  3.436579E+05  8.930690E+04 -1.698575E+04  2.706522E+04
        29  22  6.744465E+04  8.729111E+05  1.770285E+05  7.594356E+04 -1.038346E+04 -9.278102E+04
        29  23 -2.181868E+04  8.496743E+05  1.153254E+05 -4.638772E+03 -1.496053E+04 -3.276749E+04
        29  24  3.547777E+04  8.729365E+05  1.297232E+05  7.596954E+04 -1.698821E+04  2.724010E+04
        29  25 -8.266558E+04  2.704649E+05  2.863011E+04  9.347566E+04 -1.038735E+04 -9.089396E+04
        29  26 -2.051958E+05  1.133894E+05 -6.559976E+04 -2.539560E+03 -1.496293E+04 -3.173034E+04
        29  27 -1.812236E+05  2.726399E+03 -8.426718E+04  6.265113E+04 -1.699068E+04  2.741472E+04
        30   1  3.010599E+05  2.112705E+06  4.390297E+05  4.566719E+04  2.386151E+04 -4.510880E+04
        30   2  2.785368E+05  2.193384E+06  5.112940E+05  4.994225E+03  3.071862E+04 -1.491747E+05
        30   3  6.659898E+05  2.396996E+06  7.550529E+05  1.355897E+05  1.182990E+04 -2.533709E+05
        30   4 -3.452025E+03  8.894463E+05  1.385456E+05  7.776038E+04  2.387665E+04 -5.112513E+04
        30   5 -6.073284E+04  8.285342E+05  1.768524E+05 -7.158521E+03  3.071832E+04 -1.469544E+05
        30   6  2.910107E+05  8.893703E+05  3.812105E+05  7.920146E+04  1.180412E+04 -2.428894E+05
        30   7 -3.080712E+05 -3.324530E+05 -1.620480E+05  1.097911E+05  2.389119E+04 -5.712958E+04
        30   8 -4.001395E+05 -5.346232E+05 -1.577254E+05 -1.928298E+04  3.071794E+04 -1.447387E+05
        30   9 -8.412534E+04 -6.161903E+05  7.201183E+03  2.295226E+04  1.177644E+04 -2.324326E+05
        30  10  3.010587E+05  2.112703E+06  4.390249E+05  4.566805E+04  1.957652E-10 -1.654719E-09
        30  11  2.785298E+05  2.193359E+06  5.112506E+05  4.997910E+03 -2.315374E-09 -2.887684E-09
        30  12  6.659725E+05  2.396928E+06  7.549324E+05  1.355921E+05  1.447777E-09 -6.305787E-10
        30  13 -3.453338E+03  8.894433E+05  1.385396E+05  7.776136E+04  6.070050E-10 -6.643915E-10
        30  14 -6.073964E+04  8.285108E+05  1.768101E+05 -7.154887E+03  2.672453E-09 -4.841447E-11
        30  15  2.909947E+05  8.893070E+05  3.810995E+05  7.920377E+04 -8.519482E-10 -2.831221E-09
        30  16 -3.080727E+05 -3.324566E+05 -1.620552E+05  1.097922E+05  2.086027E-09  1.217122E-09
        30  17 -4.001462E+05 -5.346459E+05 -1.577666E+05 -1.927940E+04 -1.347983E-10  4.410097E-09
        30  18 -8.414001E+04 -6.162483E+05  7.099303E+03  2.295447E+04  2.495585E-09  3.070573E-11
        30  19  3.010599E+05  2.112705E+06  4.390297E+05  4.566719E+04 -2.386151E+04  4.510880E+04
        30  20  2.785368E+05  2.193384E+06  5.112940E+05  4.994225E+03 -3.071862E+04  1.491747E+05
        30  21  6.659898E+05  2.396996E+06  7.550529E+05  1.355897E+05 -1.182990E+04  2.533709E+05
        30  22 -3.452025E+03  8.894463E+05  1.385456E+05  7.776038E+04 -2.387665E+04  5.112513E+04
        30  23 -6.073284E+04  8.285342E+05  1.768524E+05 -7.158521E+03 -3.071832E+04  1.469544E+05
        30  24  2.910107E+05  8.893703E+05  3.812105E+05  7.920146E+04 -1.180412E+04  2.428894E+05
        30  25 -3.080712E+05 -3.324530E+05 -1.620480E+05  1.097911E+05 -2.389119E+04  5.712958E+04
        30  26 -4.001395E+05 -5.346232E+05 -1.577254E+05 -1.928298E+04 -3.071794E+04  1.447387E+05
        30  27 -8.412534E+04 -6.161903E+05  7.201183E+03  2.295226E+04 -1.177644E+04  2.324326E+05
        31   1 -2.803572E+06 -5.441058E+05 -1.803313E+05 -1.022443E+06 -8.808539E+04 -3.167530E+04
        31   2 -2.773492E+06 -4.090799E+05 -9.599315E+04 -1.037247E+06 -5.713231E+04 -1.755068E+04
        31   3 -2.787033E+06 -4.179501E+05 -7.188764E+04 -1.029669E+06 -2.509562E+04 -6.316567E+03
        31   4 -2.658976E+06 -4.706548E+05 -1.368450E+05 -9.638391E+05 -8.703626E+04 -3.128533E+04
        31   5 -2.630339E+06 -3.501142E+05 -5.616156E+04 -9.932496E+05 -5.691782E+04 -1.747094E+04
        31   6 -2.645145E+06 -3.732851E+05 -3.503622E+04 -1.000281E+06 -2.571591E+04 -6.548503E+03
        31   7 -2.514359E+06 -3.971974E+05 -9.336089E+04 -9.052214E+05 -8.598687E+04 -3.089518E+04
        31   8 -2.487166E+06 -2.911464E+05 -1.633204E+04 -9.492424E+05 -5.670328E+04 -1.739117E+04
        31   9 -2.503238E+06 -3.286204E+05  1.813577E+03 -9.708871E+05 -2.633636E+04 -6.780475E+03
        31  10 -2.803581E+06 -5.441089E+05 -1.803479E+05 -1.022445E+06 -6.212907E-10  1.314151E-10
        31  11 -2.773496E+06 -4.090811E+05 -9.599989E+04 -1.037248E+06 -5.261521E-09 -1.191223E-09
        31  12 -2.787034E+06 -4.179503E+05 -7.188891E+04 -1.029669E+06 -1.540011E-09  3.661617E-10
        31  13 -2.658984E+06 -4.706579E+05 -1.368611E+05 -9.638413E+05  1.672357E-10 -5.850957E-11
        31  14 -2.630343E+06 -3.501154E+05 -5.616826E+04 -9.932504E+05  1.233205E-09 -4.387407E-10
        31  15 -2.645146E+06 -3.732854E+05 -3.503755E+04 -1.000281E+06  1.548127E-09  7.663733E-10
        31  16 -2.514367E+06 -3.972005E+05 -9.337665E+04 -9.052236E+05  1.574665E-11 -1.278102E-11
        31  17 -2.487170E+06 -2.911476E+05 -1.633868E+04 -9.492431E+05 -2.303673E-09 -3.836424E-10
        31  18 -2.503238E+06 -3.286206E+05  1.812181E+03 -9.708872E+05  1.200966E-09  5.493760E-10
        31  19 -2.803572E+06 -5.441058E+05 -1.803313E+05 -1.022443E+06  8.808539E+04  3.167530E+04
        31  20 -2.773492E+06 -4.090799E+05 -9.599315E+04 -1.037247E+06  5.713231E+04  1.755068E+04
        31  21 -2.787033E+06 -4.179501E+05 -7.188764E+04 -1.029669E+06  2.509562E+04  6.316567E+03
        31  22 -2.658976E+06 -4.706548E+05 -1.368450E+05 -9.638391E+05  8.703626E+04  3.128533E+04
        31  23 -2.630339E+06 -3.501142E+05 -5.616156E+04 -9.932496E+05  5.691782E+04  1.747094E+04
        31  24 -2.645145E+06 -3.732851E+05 -3.503622E+04 -1.000281E+06  2.571591E+04  6.548503E+03
        31  25 -2.514359E+06 -3.971974E+05 -9.336089E+04 -9.052214E+05  8.598687E+04  3.089518E+04
        31  26 -2.487166E+06 -2.911464E+05 -1.633204E+04 -9.492424E+05  5.670328E+04  1.739117E+04
        31  27 -2.503238E+06 -3.286204E+05  1.813577E+03 -9.708871E+05  2.633636E+04  6.780475E+03
        32   1 -2.736089E+06 -4.281469E+05 -5.537447E+04 -1.020848E+06 -2.024221E+04 -5.321995E+03
        32   2 -2.724904E+06 -3.989130E+05 -3.587232E+04 -1.012422E+06 -1.306565E+04 -2.869577E+03
        32   3 -2.707977E+06 -4.013620E+05 -2.663645E+04 -1.014894E+06 -5.738082E+03 -8.198373E+02
        32   4 -2.640017E+06 -3.894966E+05 -2.876820E+04 -9.922832E+05 -2.024568E+04 -5.323417E+03
        32   5 -2.641959E+06 -3.670496E+05 -1.321714E+04 -9.893064E+05 -1.318526E+04 -2.914388E+03
        32   6 -2.638137E+06 -3.762608E+05 -7.838777E+03 -9.972284E+05 -5.974032E+03 -9.081336E+02
        32   7 -2.543936E+06 -3.508453E+05 -2.162713E+03 -9.637138E+05 -2.024915E+04 -5.324840E+03
        32   8 -2.559008E+06 -3.351859E+05  9.437394E+03 -9.661883E+05 -1.330488E+04 -2.959205E+03
        32   9 -2.568292E+06 -3.511596E+05  1.095837E+04 -9.795615E+05 -6.210011E+03 -9.964393E+02
        32  10 -2.736090E+06 -4.281470E+05 -5.537530E+04 -1.020848E+06  1.307465E-10  8.132597E-10
        32  11 -2.724904E+06 -3.989130E+05 -3.587265E+04 -1.012422E+06 -1.669975E-11 -2.600863E-10
        32  12 -2.707977E+06 -4.013621E+05 -2.663651E+04 -1.014894E+06 -7.151337E-10 -1.475131E-10
        32  13 -2.640018E+06 -3.894967E+05 -2.876903E+04 -9.922833E+05 -1.555944E-10  4.555693E-10
        32  14 -2.641959E+06 -3.670497E+05 -1.321748E+04 -9.893064E+05 -4.041239E-09 -1.535336E-09
        32  15 -2.638137E+06 -3.762608E+05 -7.838846E+03 -9.972284E+05 -8.310863E-10  1.078013E-10
        32  16 -2.543937E+06 -3.508454E+05 -2.163540E+03 -9.637139E+05  6.486292E-10  7.075654E-10
        32  17 -2.559008E+06 -3.351859E+05  9.437043E+03 -9.661883E+05  2.323068E-09 -8.080761E-11
        32  18 -2.568292E+06 -3.511596E+05  1.095830E+04 -9.795615E+05  1.512024E-10  2.844919E-10
        32  19 -2.736089E+06 -4.281469E+05 -5.537447E+04 -1.020848E+06  2.024221E+04  5.321995E+03
        32  20 -2.724904E+06 -3.989130E+05 -3.587232E+04 -1.012422E+06  1.306565E+04  2.869577E+03
        32  21 -2.707977E+06 -4.013620E+05 -2.663645E+04 -1.014894E+06  5.738082E+03  8.198373E+02
        32  22 -2.640017E+06 -3.894966E+05 -2.876820E+04 -9.922832E+05  2.024568E+04  5.323417E+03
        32  23 -2.641959E+06 -3.670496E+05 -1.321714E+04 -9.893064E+05  1.318526E+04  2.914388E+03
        32  24 -2.638137E+06 -3.762608E+05 -7.838777E+03 -9.972284E+05  5.974032E+03  9.081336E+02
        32  25 -2.543936E+06 -3.508453E+05 -2.162713E+03 -9.637138E+05  2.024915E+04  5.324840E+03
        32  26 -2.559008E+06 -3.351859E+05  9.437394E+03 -9.661883E+05  1.330488E+04  2.959205E+03
        32  27 -2.568292E+06 -3.511596E+05  1.095837E+04 -9.795615E+05  6.210011E+03  9.964393E+02
        33   1 -2.661965E+06 -3.882292E+05 -1.295584E+04 -1.003351E+06 -4.511908E+03 -8.246405E+02
        33   2 -2.653060E+06 -3.727014E+05 -5.607143E+03 -9.911149E+05 -2.698537E+03 -7.845775E+02
        33   3 -2.630662E+06 -3.742937E+05 -1.312769E+02 -9.951015E+05 -8.678421E+02 -7.907320E+02
        33   4 -2.637204E+06 -3.786075E+05 -6.218411E+03 -9.963247E+05 -4.668288E+03 -8.831609E+02
        33   5 -2.643824E+06 -3.691583E+05 -3.085701E+03 -9.885458E+05 -2.868309E+03 -8.481055E+02
        33   6 -2.636950E+06 -3.768264E+05 -1.815038E+03 -9.969892E+05 -1.051048E+03 -8.592839E+02
        33   7 -2.612442E+06 -3.689858E+05  5.189721E+02 -9.892985E+05 -4.824674E+03 -9.416842E+02
        33   8 -2.634589E+06 -3.656151E+05 -5.642563E+02 -9.859766E+05 -3.038084E+03 -9.116348E+02
        33   9 -2.643238E+06 -3.793591E+05 -3.498812E+03 -9.988769E+05 -1.234253E+03 -9.278353E+02
        33  10 -2.661965E+06 -3.882292E+05 -1.295587E+04 -1.003351E+06  7.735881E-10  3.240503E-10
        33  11 -2.653060E+06 -3.727014E+05 -5.607158E+03 -9.911149E+05 -1.198653E-09 -1.131396E-09
        33  12 -2.630662E+06 -3.742937E+05 -1.312795E+02 -9.951015E+05 -1.808797E-10 -1.171895E-09
        33  13 -2.637204E+06 -3.786075E+05 -6.218454E+03 -9.963247E+05 -8.025159E-10  1.556879E-10
        33  14 -2.643824E+06 -3.691583E+05 -3.085718E+03 -9.885458E+05 -3.703868E-09 -7.961316E-11
        33  15 -2.636950E+06 -3.768264E+05 -1.815042E+03 -9.969892E+05 -3.307378E-09 -1.813671E-09
        33  16 -2.612442E+06 -3.689858E+05  5.189265E+02 -9.892985E+05 -1.390104E-09  4.287610E-10
        33  17 -2.634589E+06 -3.656151E+05 -5.642753E+02 -9.859766E+05  5.486091E-10 -8.631561E-10
        33  18 -2.643238E+06 -3.793591E+05 -3.498817E+03 -9.988769E+05 -1.520249E-10 -1.588148E-09
        33  19 -2.661965E+06 -3.882292E+05 -1.295584E+04 -1.003351E+06  4.511908E+03  8.246405E+02
        33  20 -2.653060E+06 -3.727014E+05 -5.607143E+03 -9.911149E+05  2.698537E+03  7.845775E+02
        33  21 -2.630662E+06 -3.742937E+05 -1.312769E+02 -9.951015E+05  8.678421E+02  7.907320E+02
        33  22 -2.637204E+06 -3.786075E+05 -6.218411E+03 -9.963247E+05  4.668288E+03  8.831609E+02
        33  23 -2.643824E+06 -3.691583E+05 -3.085701E+03 -9.885458E+05  2.868309E+03  8.481055E+02
        33  24 -2.636950E+06 -3.768264E+05 -1.815038E+03 -9.969892E+05  1.051048E+03  8.592839E+02
        33  25 -2.612442E+06 -3.689858E+05  5.189721E+02 -9.892985E+05  4.824674E+03  9.416842E+02
        33  26 -2.634589E+06 -3.656151E+05 -5.642563E+02 -9.859766E+05  3.038084E+03  9.116348E+02
        33  27 -2.643238E+06 -3.793591E+05 -3.498812E+03 -9.988769E+05  1.234253E+03  9.278353E+02
        34   1 -2.586134E+06 -3.577941E+05  1.244090E+04 -9.828931E+05 -4.677497E+02 -1.057712E+03
        34   2 -2.578086E+06 -3.449029E+05  1.703361E+04 -9.708958E+05  1.669590E+02 -1.494357E+03
        34   3 -2.556300E+06 -3.463057E+05  2.121919E+04 -9.748024E+05  7.852225E+02 -1.886676E+03
        34   4 -2.637001E+06 -3.769364E+05 -1.436974E+03 -9.966434E+05 -6.462661E+02 -1.124518E+03
        34   5 -2.643854E+06 -3.696871E+05 -8.406402E+02 -9.887290E+05  1.304449E+00 -1.556372E+03
        34   6 -2.636972E+06 -3.767345E+05 -6.616101E+02 -9.967185E+05  6.324188E+02 -1.943900E+03
        34   7 -2.687866E+06 -3.960784E+05 -1.531501E+04 -1.010393E+06 -8.247654E+02 -1.191318E+03
        34   8 -2.709618E+06 -3.944711E+05 -1.871523E+04 -1.006560E+06 -1.643302E+02 -1.618379E+03
        34   9 -2.717639E+06 -4.071629E+05 -2.254298E+04 -1.018632E+06  4.796372E+02 -2.001116E+03
        34  10 -2.586134E+06 -3.577941E+05  1.244090E+04 -9.828931E+05 -1.430111E-09 -9.843434E-10
        34  11 -2.578086E+06 -3.449029E+05  1.703360E+04 -9.708958E+05 -2.913397E-09 -9.115524E-10
        34  12 -2.556300E+06 -3.463057E+05  2.121918E+04 -9.748024E+05  4.276586E-10  3.349355E-10
        34  13 -2.637001E+06 -3.769364E+05 -1.436977E+03 -9.966434E+05 -2.114517E-09 -1.386058E-09
        34  14 -2.643854E+06 -3.696871E+05 -8.406448E+02 -9.887290E+05 -1.783158E-09  1.198474E-09
        34  15 -2.636972E+06 -3.767345E+05 -6.616179E+02 -9.967185E+05  1.212880E-09 -5.410836E-10
        34  16 -2.687866E+06 -3.960784E+05 -1.531502E+04 -1.010393E+06  3.866130E-09 -6.314238E-10
        34  17 -2.709618E+06 -3.944711E+05 -1.871523E+04 -1.006560E+06 -5.730241E-10  3.730190E-10
        34  18 -2.717639E+06 -4.071629E+05 -2.254298E+04 -1.018632E+06  2.854070E-09 -1.816642E-10
        34  19 -2.586134E+06 -3.577941E+05  1.244090E+04 -9.828931E+05  4.677497E+02  1.057712E+03
        34  20 -2.578086E+06 -3.449029E+05  1.703361E+04 -9.708958E+05 -1.669590E+02  1.494357E+03
        34  21 -2.556300E+06 -3.463057E+05  2.121919E+04 -9.748024E+05 -7.852225E+02  1.886676E+03
        34  22 -2.637001E+06 -3.769364E+05 -1.436974E+03 -9.966434E+05  6.462661E+02  1.124518E+03
        34  23 -2.643854E+06 -3.696871E+05 -8.406402E+02 -9.887290E+05 -1.304449E+00  1.556372E+03
        34  24 -2.636972E+06 -3.767345E+05 -6.616101E+02 -9.967185E+05 -6.324188E+02  1.943900E+03
        34  25 -2.687866E+06 -3.960784E+05 -1.531501E+04 -1.010393E+06  8.247654E+02  1.191318E+03
        34  26 -2.709618E+06 -3.944711E+05 -1.871523E+04 -1.006560E+06  1.643302E+02  1.618379E+03
        34  27 -2.717639E+06 -4.071629E+05 -2.254298E+04 -1.018632E+06 -4.796372E+02  2.001116E+03
        35   1 -2.517144E+06 -3.308235E+05  3.211925E+04 -9.634584E+05  1.027866E+03 -2.163391E+03
        35   2 -2.510578E+06 -3.203683E+05  3.526533E+04 -9.535179E+05  1.587671E+03 -2.547670E+03
        35   3 -2.492663E+06 -3.216989E+05  3.806332E+04 -9.566329E+05  2.107972E+03 -2.825807E+03
        35   4 -2.637507E+06 -3.761834E+05 -6.468494E+02 -9.960847E+05  8.608004E+02 -2.225983E+03
        35   5 -2.643192E+06 -3.703837E+05 -7.822340E+02 -9.895207E+05  1.451412E+03 -2.598764E+03
        35   6 -2.637535E+06 -3.763764E+05 -1.290309E+03 -9.960125E+05  2.002509E+03 -2.865395E+03
        35   7 -2.757857E+06 -4.215425E+05 -3.341431E+04 -1.028705E+06  6.937700E+02 -2.288561E+03
        35   8 -2.775789E+06 -4.203981E+05 -3.683142E+04 -1.025517E+06  1.315185E+03 -2.649846E+03
        35   9 -2.782386E+06 -4.310526E+05 -4.064583E+04 -1.035384E+06  1.897072E+03 -2.904972E+03
        35  10 -2.517144E+06 -3.308235E+05  3.211923E+04 -9.634584E+05  6.627611E-10  4.143995E-10
        35  11 -2.510578E+06 -3.203683E+05  3.526531E+04 -9.535179E+05  3.759999E-09  5.880015E-10
        35  12 -2.492663E+06 -3.216990E+05  3.806329E+04 -9.566329E+05 -2.009471E-09  3.969979E-10
        35  13 -2.637507E+06 -3.761834E+05 -6.468601E+02 -9.960847E+05 -6.026603E-10 -5.012580E-10
        35  14 -2.643192E+06 -3.703837E+05 -7.822506E+02 -9.895207E+05 -2.147426E-10  1.417251E-09
        35  15 -2.637535E+06 -3.763764E+05 -1.290332E+03 -9.960125E+05  2.614326E-09  1.389895E-10
        35  16 -2.757857E+06 -4.215425E+05 -3.341432E+04 -1.028705E+06  2.542117E-09 -7.460621E-10
        35  17 -2.775789E+06 -4.203981E+05 -3.683143E+04 -1.025517E+06 -1.020456E-09 -9.982120E-11
        35  18 -2.782386E+06 -4.310526E+05 -4.064585E+04 -1.035384E+06 -2.430135E-09  1.033501E-09
        35  19 -2.517144E+06 -3.308235E+05  3.211925E+04 -9.634584E+05 -1.027866E+03  2.163391E+03
        35  20 -2.510578E+06 -3.203683E+05  3.526533E+04 -9.535179E+05 -1.587671E+03  2.547670E+03
        35  21 -2.492663E+06 -3.216989E+05  3.806332E+04 -9.566329E+05 -2.107972E+03  2.825807E+03
        35  22 -2.637507E+06 -3.761834E+05 -6.468494E+02 -9.960847E+05 -8.608004E+02  2.225983E+03
        35  23 -2.643192E+06 -3.703837E+05 -7.822340E+02 -9.895207E+05 -1.451412E+03  2.598764E+03
        35  24 -2.637535E+06 -3.763764E+05 -1.290309E+03 -9.960125E+05 -2.002509E+03  2.865395E+03
        35  25 -2.757857E+06 -4.215425E+05 -3.341431E+04 -1.028705E+06 -6.937700E+02  2.288561E+03
        35  26 -2.775789E+06 -4.203981E+05 -3.683142E+04 -1.025517E+06 -1.315185E+03  2.649846E+03
        35  27 -2.782386E+06 -4.310526E+05 -4.064583E+04 -1.035384E+06 -1.897072E+03  2.904972E+03
        36   1 -2.463840E+06 -3.095178E+05  4.587544E+04 -9.478821E+05  2.472025E+03 -2.970981E+03
        36   2 -2.459370E+06 -3.022204E+05  4.689716E+04 -9.411311E+05  3.974499E+03 -2.843099E+03
        36   3 -2.448216E+06 -3.046496E+05  4.633888E+04 -9.424823E+05  5.407139E+03 -2.528440E+03
        36   4 -2.638482E+06 -3.752619E+05 -1.614769E+03 -9.951597E+05  2.333492E+03 -3.022996E+03
        36   5 -2.641932E+06 -3.711859E+05 -2.747255E+03 -9.908118E+05  3.889933E+03 -2.874916E+03
        36   6 -2.638709E+06 -3.768476E+05 -5.502993E+03 -9.945660E+05  5.376513E+03 -2.540039E+03
        36   7 -2.813095E+06 -4.410042E+05 -4.910765E+04 -1.042425E+06  2.195002E+03 -3.074996E+03
        36   8 -2.824462E+06 -4.401494E+05 -5.239467E+04 -1.040479E+06  3.805394E+03 -2.906722E+03
        36   9 -2.829167E+06 -4.490436E+05 -5.734823E+04 -1.046635E+06  5.345897E+03 -2.551634E+03
        36  10 -2.463840E+06 -3.095178E+05  4.587542E+04 -9.478821E+05 -4.740489E-10 -6.749958E-10
        36  11 -2.459370E+06 -3.022204E+05  4.689711E+04 -9.411311E+05  5.880308E-10 -1.749767E-09
        36  12 -2.448216E+06 -3.046496E+05  4.633881E+04 -9.424823E+05  2.542630E-09 -1.196420E-09
        36  13 -2.638482E+06 -3.752619E+05 -1.614796E+03 -9.951597E+05 -1.665387E-09 -5.402262E-11
        36  14 -2.641932E+06 -3.711859E+05 -2.747299E+03 -9.908118E+05  6.953251E-10 -4.403969E-10
        36  15 -2.638709E+06 -3.768476E+05 -5.503060E+03 -9.945660E+05  3.168296E-09 -1.651354E-09
        36  16 -2.813095E+06 -4.410042E+05 -4.910768E+04 -1.042425E+06  2.277517E-11 -1.189418E-10
        36  17 -2.824462E+06 -4.401495E+05 -5.239471E+04 -1.040479E+06 -3.840621E-10  1.589043E-10
        36  18 -2.829167E+06 -4.490436E+05 -5.734830E+04 -1.046635E+06  3.207344E-09 -1.386057E-09
        36  19 -2.463840E+06 -3.095178E+05  4.587544E+04 -9.478821E+05 -2.472025E+03  2.970981E+03
        36  20 -2.459370E+06 -3.022204E+05  4.689716E+04 -9.411311E+05 -3.974499E+03  2.843099E+03
        36  21 -2.448216E+06 -3.046496E+05  4.633888E+04 -9.424823E+05 -5.407139E+03  2.528440E+03
        36  22 -2.638482E+06 -3.752619E+05 -1.614769E+03 -9.951597E+05 -2.333492E+03  3.022996E+03
        36  23 -2.641932E+06 -3.711859E+05 -2.747255E+03 -9.908118E+05 -3.889933E+03  2.874916E+03
        36  24 -2.638709E+06 -3.768476E+05 -5.502993E+03 -9.945660E+05 -5.376513E+03  2.540039E+03
        36  25 -2.813095E+06 -4.410042E+05 -4.910765E+04 -1.042425E+06 -2.195002E+03  3.074996E+03
        36  26 -2.824462E+06 -4.401494E+05 -5.239467E+04 -1.040479E+06 -3.805394E+03  2.906722E+03
        36  27 -2.829167E+06 -4.490436E+05 -5.734823E+04 -1.046635E+06 -5.345897E+03  2.551634E+03
        37   1 -2.432994E+06 -2.966677E+05  4.926851E+04 -9.390857E+05  6.609823E+03 -2.291139E+03
        37   2 -2.430177E+06 -2.908757E+05  4.523597E+04 -9.352561E+05  1.271146E+04 -2.425113E+02
        37   3 -2.431356E+06 -3.037749E+05  3.236013E+04 -9.303835E+05  1.860478E+04  2.360328E+03
        37   4 -2.640389E+06 -3.739123E+05 -6.934896E+03 -9.943868E+05  6.465945E+03 -2.345274E+03
        37   5 -2.639212E+06 -3.703967E+05 -1.170770E+04 -9.927143E+05  1.272695E+04 -2.368249E+02
        37   6 -2.642065E+06 -3.856076E+05 -2.545282E+04 -9.899984E+05  1.877956E+04  2.425877E+03
        37   7 -2.847743E+06 -4.511547E+05 -6.314215E+04 -1.049671E+06  6.322119E+03 -2.399390E+03
        37   8 -2.848205E+06 -4.499151E+05 -6.865528E+04 -1.050155E+06  1.274242E+04 -2.311409E+02
        37   9 -2.852730E+06 -4.674369E+05 -8.326974E+04 -1.049595E+06  1.895428E+04  2.491398E+03
        37  10 -2.432994E+06 -2.966677E+05  4.926841E+04 -9.390857E+05 -4.016587E-10 -9.252513E-10
        37  11 -2.430177E+06 -2.908757E+05  4.523566E+04 -9.352561E+05 -4.145512E-09  1.543643E-09
        37  12 -2.431357E+06 -3.037750E+05  3.235947E+04 -9.303836E+05 -2.620835E-09  1.438624E-10
        37  13 -2.640389E+06 -3.739123E+05 -6.934985E+03 -9.943868E+05  3.504585E-09 -1.132353E-09
        37  14 -2.639212E+06 -3.703968E+05 -1.170801E+04 -9.927143E+05 -2.529344E-09  2.936077E-10
        37  15 -2.642065E+06 -3.856077E+05 -2.545350E+04 -9.899985E+05 -4.213576E-09  7.682819E-10
        37  16 -2.847743E+06 -4.511547E+05 -6.314223E+04 -1.049671E+06 -2.266342E-10 -1.392799E-09
        37  17 -2.848205E+06 -4.499151E+05 -6.865559E+04 -1.050155E+06 -1.291108E-09 -1.104325E-09
        37  18 -2.852731E+06 -4.674370E+05 -8.327043E+04 -1.049595E+06 -1.315771E-09  5.222478E-10
        37  19 -2.432994E+06 -2.966677E+05  4.926851E+04 -9.390857E+05 -6.609823E+03  2.291139E+03
        37  20 -2.430177E+06 -2.908757E+05  4.523597E+04 -9.352561E+05 -1.271146E+04  2.425113E+02
        37  21 -2.431356E+06 -3.037749E+05  3.236013E+04 -9.303835E+05 -1.860478E+04 -2.360328E+03
        37  22 -2.640389E+06 -3.739123E+05 -6.934896E+03 -9.943868E+05 -6.465945E+03  2.345274E+03
        37  23 -2.639212E+06 -3.703967E+05 -1.170770E+04 -9.927143E+05 -1.272695E+04  2.368249E+02
        37  24 -2.642065E+06 -3.856076E+05 -2.545282E+04 -9.899984E+05 -1.877956E+04 -2.425877E+03
        37  25 -2.847743E+06 -4.511547E+05 -6.314215E+04 -1.049671E+06 -6.322119E+03  2.399390E+03
        37  26 -2.848205E+06 -4.499151E+05 -6.865528E+04 -1.050155E+06 -1.274242E+04  2.311409E+02
        37  27 -2.852730E+06 -4.674369E+05 -8.326974E+04 -1.049595E+06 -1.895428E+04 -2.491398E+03
        38   1 -2.428973E+06 -2.960331E+05  2.677541E+04 -9.450040E+05  2.411255E+04  3.875908E+03
        38   2 -2.421668E+06 -2.736339E+05  7.257198E+03 -9.362066E+05  5.057779E+04  1.362675E+04
        38   3 -2.464578E+06 -3.661008E+05 -6.415347E+04 -8.937693E+05  7.576553E+04  2.676994E+04
        38   4 -2.647192E+06 -3.706906E+05 -3.100342E+04 -9.964195E+05  2.356010E+04  3.668270E+03
        38   5 -2.628150E+06 -3.561667E+05 -4.970656E+04 -9.970622E+05  5.100413E+04  1.378671E+04
        38   6 -2.659534E+06 -4.567280E+05 -1.210938E+05 -9.640605E+05  7.717094E+04  2.729692E+04
        38   7 -2.865366E+06 -4.453475E+05 -8.878638E+04 -1.047820E+06  2.300785E+04  3.460695E+03
        38   8 -2.834592E+06 -4.386957E+05 -1.066743E+05 -1.057899E+06  5.143030E+04  1.394661E+04
        38   9 -2.854452E+06 -5.473470E+05 -1.780379E+05 -1.034330E+06  7.857585E+04  2.782363E+04
        38  10 -2.428973E+06 -2.960333E+05  2.677428E+04 -9.450041E+05 -1.404608E-09 -9.734480E-10
        38  11 -2.421670E+06 -2.736348E+05  7.252019E+03 -9.362072E+05  1.589491E-11 -1.392590E-09
        38  12 -2.464585E+06 -3.661031E+05 -6.416566E+04 -8.937710E+05 -1.131658E-09 -4.839747E-10
        38  13 -2.647193E+06 -3.706908E+05 -3.100449E+04 -9.964196E+05 -5.352624E-09 -2.206606E-10
        38  14 -2.628153E+06 -3.561676E+05 -4.971183E+04 -9.970627E+05  1.671417E-10 -2.013290E-09
        38  15 -2.659540E+06 -4.567304E+05 -1.211064E+05 -9.640622E+05  2.518242E-09 -6.840009E-10
        38  16 -2.865366E+06 -4.453477E+05 -8.878740E+04 -1.047820E+06 -4.729577E-11 -6.596883E-10
        38  17 -2.834595E+06 -4.386966E+05 -1.066797E+05 -1.057900E+06  2.671191E-09 -8.975692E-10
        38  18 -2.854458E+06 -5.473495E+05 -1.780510E+05 -1.034332E+06  1.111402E-09 -4.055195E-10
        38  19 -2.428973E+06 -2.960331E+05  2.677541E+04 -9.450040E+05 -2.411255E+04 -3.875908E+03
        38  20 -2.421668E+06 -2.736339E+05  7.257198E+03 -9.362066E+05 -5.057779E+04 -1.362675E+04
        38  21 -2.464578E+06 -3.661008E+05 -6.415347E+04 -8.937693E+05 -7.576553E+04 -2.676994E+04
        38  22 -2.647192E+06 -3.706906E+05 -3.100342E+04 -9.964195E+05 -2.356010E+04 -3.668270E+03
        38  23 -2.628150E+06 -3.561667E+05 -4.970656E+04 -9.970622E+05 -5.100413E+04 -1.378671E+04
        38  24 -2.659534E+06 -4.567280E+05 -1.210938E+05 -9.640605E+05 -7.717094E+04 -2.729692E+04
        38  25 -2.865366E+06 -4.453475E+05 -8.878638E+04 -1.047820E+06 -2.300785E+04 -3.460695E+03
        38  26 -2.834592E+06 -4.386957E+05 -1.066743E+05 -1.057899E+06 -5.143030E+04 -1.394661E+04
        38  27 -2.854452E+06 -5.473470E+05 -1.780379E+05 -1.034330E+06 -7.857585E+04 -2.782363E+04
        39   1 -8.681517E+05  1.710705E+05  2.206921E+05  3.559903E+04  1.506065E+05  8.647702E+00
        39   2 -9.006144E+05 -3.418627E+04  9.508062E+04  9.502241E+03  9.890026E+04  1.515844E+00
        39   3 -8.682406E+05 -7.166996E+03  6.124816E+04 -1.659331E+04  4.719320E+04 -1.263053E+00
        39   4 -8.681531E+05  1.710682E+05  2.206917E+05  4.997221E-09  1.506065E+05 -2.059796E-10
        39   5 -9.006145E+05 -3.418644E+04  9.508060E+04 -1.073911E-08  9.890026E+04  5.142506E-10
        39   6 -8.682409E+05 -7.167514E+03  6.124808E+04  3.918984E-08  4.719320E+04 -6.440108E-10
        39   7 -8.681517E+05  1.710705E+05  2.206921E+05 -3.559903E+04  1.506065E+05 -8.647702E+00
        39   8 -9.006144E+05 -3.418627E+04  9.508062E+04 -9.502241E+03  9.890026E+04 -1.515844E+00
        39   9 -8.682406E+05 -7.166996E+03  6.124816E+04  1.659331E+04  4.719320E+04  1.263053E+00
        39  10 -8.681761E+05  1.710644E+05  2.206494E+05  3.559903E+04 -1.719769E-09  1.327689E-10
        39  11 -9.006249E+05 -3.418890E+04  9.506222E+04  9.502241E+03 -3.988219E-10  6.591563E-10
        39  12 -8.682430E+05 -7.167595E+03  6.124397E+04 -1.659331E+04 -6.297767E-10 -1.355247E-10
        39  13 -8.681775E+05  1.710621E+05  2.206490E+05 -1.221444E-08  2.119797E-09  1.021188E-10
        39  14 -9.006250E+05 -3.418907E+04  9.506219E+04 -2.122848E-09  4.949846E-10  2.328474E-10
        39  15 -8.682433E+05 -7.168113E+03  6.124389E+04  2.734030E-08 -5.925835E-10  1.507438E-10
        39  16 -8.681761E+05  1.710644E+05  2.206494E+05 -3.559903E+04  2.931014E-09  1.615389E-10
        39  17 -9.006249E+05 -3.418890E+04  9.506222E+04 -9.502241E+03  5.008954E-10 -2.542724E-11
        39  18 -8.682430E+05 -7.167595E+03  6.124397E+04  1.659331E+04 -2.577398E-10  3.861550E-10
        39  19 -8.681517E+05  1.710705E+05  2.206921E+05  3.559903E+04 -1.506065E+05 -8.647702E+00
        39  20 -9.006144E+05 -3.418627E+04  9.508062E+04  9.502241E+03 -9.890026E+04 -1.515844E+00
        39  21 -8.682406E+05 -7.166996E+03  6.124816E+04 -1.659331E+04 -4.719320E+04  1.263053E+00
        39  22 -8.681531E+05  1.710682E+05  2.206917E+05  2.224988E-08 -1.506065E+05  3.817904E-10
        39  23 -9.006145E+05 -3.418644E+04  9.508060E+04  6.489258E-09 -9.890026E+04 -7.608166E-11
        39  24 -8.682409E+05 -7.167514E+03  6.124808E+04  4.132930E-08 -4.719320E+04  9.332424E-10
        39  25 -8.681517E+05  1.710705E+05  2.206921E+05 -3.559903E+04 -1.506065E+05  8.647702E+00
        39  26 -9.006144E+05 -3.418627E+04  9.508062E+04 -9.502241E+03 -9.890026E+04  1.515844E+00
        39  27 -8.682406E+05 -7.166996E+03  6.124816E+04  1.659331E+04 -4.719320E+04 -1.263053E+00
        40   1 -8.805316E+05  2.281867E+04  5.042749E+04  4.453794E+03  3.730358E+04  2.679776E-01
        40   2 -8.852598E+05 -4.593623E+03  2.467028E+04  1.082906E+03  2.448507E+04  4.276728E-02
        40   3 -8.805462E+05 -9.366179E+02  1.503531E+04 -2.287932E+03  1.166685E+04 -4.305393E-02
        40   4 -8.805317E+05  2.281863E+04  5.042749E+04  7.008825E-08  3.730358E+04 -8.624647E-10
        40   5 -8.852598E+05 -4.593626E+03  2.467028E+04 -3.608994E-08  2.448507E+04 -2.490488E-10
        40   6 -8.805462E+05 -9.366278E+02  1.503531E+04 -3.999012E-08  1.166685E+04  1.691917E-09
        40   7 -8.805316E+05  2.281867E+04  5.042749E+04 -4.453794E+03  3.730358E+04 -2.679776E-01
        40   8 -8.852598E+05 -4.593623E+03  2.467028E+04 -1.082906E+03  2.448507E+04 -4.276728E-02
        40   9 -8.805462E+05 -9.366179E+02  1.503531E+04  2.287932E+03  1.166685E+04  4.305394E-02
        40  10 -8.805331E+05  2.281829E+04  5.042487E+04  4.453794E+03  6.202806E-10 -9.802443E-11
        40  11 -8.852604E+05 -4.593785E+03  2.466915E+04  1.082906E+03 -3.784730E-09  2.464115E-10
        40  12 -8.805464E+05 -9.366545E+02  1.503506E+04 -2.287932E+03 -3.815059E-09 -1.028806E-11
        40  13 -8.805332E+05  2.281826E+04  5.042487E+04  1.840880E-08 -3.363194E-11  3.006685E-11
        40  14 -8.852604E+05 -4.593787E+03  2.466915E+04 -2.316998E-08 -1.076613E-09 -1.372455E-11
        40  15 -8.805464E+05 -9.366644E+02  1.503506E+04 -1.306764E-08  2.354121E-09  3.418466E-10
        40  16 -8.805331E+05  2.281829E+04  5.042487E+04 -4.453794E+03 -2.127829E-10  1.210190E-10
        40  17 -8.852604E+05 -4.593785E+03  2.466915E+04 -1.082906E+03  3.330993E-09 -3.086129E-10
        40  18 -8.805464E+05 -9.366545E+02  1.503506E+04  2.287932E+03  2.123283E-09  5.005731E-10
        40  19 -8.805316E+05  2.281867E+04  5.042749E+04  4.453794E+03 -3.730358E+04 -2.679776E-01
        40  20 -8.852598E+05 -4.593623E+03  2.467028E+04  1.082906E+03 -2.448507E+04 -4.276728E-02
        40  21 -8.805462E+05 -9.366179E+02  1.503531E+04 -2.287932E+03 -1.166685E+04  4.305394E-02
        40  22 -8.805317E+05  2.281863E+04  5.042749E+04  6.147133E-08 -3.730358E+04  8.186396E-10
        40  23 -8.852598E+05 -4.593626E+03  2.467028E+04  1.559304E-08 -2.448507E+04  2.583068E-10
        40  24 -8.805462E+05 -9.366278E+02  1.503531E+04  3.087450E-09 -1.166685E+04 -1.043294E-09
        40  25 -8.805316E+05  2.281867E+04  5.042749E+04 -4.453794E+03 -3.730358E+04  2.679776E-01
        40  26 -8.852598E+05 -4.593623E+03  2.467028E+04 -1.082906E+03 -2.448507E+04  4.276728E-02
        40  27 -8.805462E+05 -9.366179E+02  1.503531E+04  2.287932E+03 -1.166685E+04 -4.305394E-02
        41   1 -8.823207E+05  3.019367E+03  1.191734E+04  5.152286E+02  9.255835E+03  7.691888E-03
        41   2 -8.830452E+05 -6.159195E+02  6.245798E+03  9.680233E+01  6.087286E+03  9.504441E-04
        41   3 -8.823234E+05 -1.203637E+02  3.672127E+03 -3.216309E+02  2.918701E+03 -1.514133E-03
        41   4 -8.823207E+05  3.019366E+03  1.191734E+04  3.203477E-08  9.255835E+03  1.318220E-09
        41   5 -8.830452E+05 -6.159195E+02  6.245798E+03  1.414332E-10  6.087286E+03 -9.038044E-10
        41   6 -8.823234E+05 -1.203639E+02  3.672127E+03  3.176510E-08  2.918701E+03  5.579016E-10
        41   7 -8.823207E+05  3.019367E+03  1.191734E+04 -5.152286E+02  9.255835E+03 -7.691886E-03
        41   8 -8.830452E+05 -6.159195E+02  6.245798E+03 -9.680233E+01  6.087286E+03 -9.504468E-04
        41   9 -8.823234E+05 -1.203637E+02  3.672127E+03  3.216309E+02  2.918701E+03  1.514134E-03
        41  10 -8.823208E+05  3.019344E+03  1.191718E+04  5.152286E+02 -1.433783E-09 -3.307394E-10
        41  11 -8.830452E+05 -6.159294E+02  6.245728E+03  9.680233E+01 -1.896256E-09 -2.887781E-10
        41  12 -8.823234E+05 -1.203660E+02  3.672111E+03 -3.216309E+02  6.423952E-10  1.059498E-10
        41  13 -8.823208E+05  3.019343E+03  1.191718E+04  6.160366E-09  2.153201E-09  1.302525E-10
        41  14 -8.830452E+05 -6.159295E+02  6.245728E+03  1.427514E-10 -1.236401E-09 -3.581771E-10
        41  15 -8.823234E+05 -1.203662E+02  3.672111E+03  1.350380E-08 -3.040538E-09  1.915801E-10
        41  16 -8.823208E+05  3.019344E+03  1.191718E+04 -5.152286E+02  1.841707E-09  2.896155E-10
        41  17 -8.830452E+05 -6.159294E+02  6.245728E+03 -9.680233E+01 -6.059890E-10 -8.276119E-10
        41  18 -8.823234E+05 -1.203660E+02  3.672111E+03  3.216309E+02 -1.498152E-10  3.145282E-10
        41  19 -8.823207E+05  3.019367E+03  1.191734E+04  5.152286E+02 -9.255835E+03 -7.691888E-03
        41  20 -8.830452E+05 -6.159195E+02  6.245798E+03  9.680233E+01 -6.087286E+03 -9.504444E-04
        41  21 -8.823234E+05 -1.203637E+02  3.672127E+03 -3.216309E+02 -2.918701E+03  1.514134E-03
        41  22 -8.823207E+05  3.019366E+03  1.191734E+04  4.918241E-08 -9.255835E+03 -1.002598E-09
        41  23 -8.830452E+05 -6.159195E+02  6.245798E+03  2.598112E-08 -6.087286E+03  1.867179E-11
        41  24 -8.823234E+05 -1.203639E+02  3.672127E+03  3.184708E-08 -2.918701E+03 -1.744330E-10
        41  25 -8.823207E+05  3.019367E+03  1.191734E+04 -5.152286E+02 -9.255835E+03  7.691886E-03
        41  26 -8.830452E+05 -6.159195E+02  6.245798E+03 -9.680233E+01 -6.087286E+03  9.504446E-04
        41  27 -8.823234E+05 -1.203637E+02  3.672127E+03  3.216309E+02 -2.918701E+03 -1.514134E-03
        42   1 -8.825937E+05  3.937590E+02  2.828771E+03  4.688103E+01  2.333939E+03  1.764846E-04
        42   2 -8.827085E+05 -7.986722E+01  1.483409E+03  3.079984E-01  1.590706E+03  7.894710E-07
        42   3 -8.825943E+05 -2.583525E+01  7.543593E+02 -4.626506E+01  8.474733E+02 -6.324173E-05
        42   4 -8.825937E+05  3.937590E+02  2.828771E+03  4.649648E-08  2.333939E+03  8.709343E-10
        42   5 -8.827085E+05 -7.986722E+01  1.483409E+03  2.750958E-09  1.590706E+03 -7.404780E-10
        42   6 -8.825943E+05 -2.583525E+01  7.543593E+02  2.252901E-08  8.474733E+02 -1.383158E-09
        42   7 -8.825937E+05  3.937590E+02  2.828771E+03 -4.688103E+01  2.333939E+03 -1.764821E-04
        42   8 -8.827085E+05 -7.986722E+01  1.483409E+03 -3.079983E-01  1.590706E+03 -7.910324E-07
        42   9 -8.825943E+05 -2.583525E+01  7.543593E+02  4.626506E+01  8.474733E+02  6.323927E-05
        42  10 -8.825937E+05  3.937575E+02  2.828761E+03  4.688103E+01  4.656558E-10 -6.532830E-11
        42  11 -8.827085E+05 -7.986790E+01  1.483405E+03  3.079983E-01 -8.254179E-10 -5.566405E-10
        42  12 -8.825943E+05 -2.583544E+01  7.543580E+02 -4.626506E+01  2.817928E-10 -5.122442E-10
        42  13 -8.825937E+05  3.937575E+02  2.828761E+03  1.201169E-08  2.497591E-09  2.363484E-10
        42  14 -8.827085E+05 -7.986790E+01  1.483405E+03 -5.867282E-09  4.146780E-09 -5.172212E-10
        42  15 -8.825943E+05 -2.583545E+01  7.543580E+02  3.223961E-08 -1.513737E-09 -3.787128E-10
        42  16 -8.825937E+05  3.937575E+02  2.828761E+03 -4.688103E+01 -1.806858E-09  3.033322E-10
        42  17 -8.827085E+05 -7.986790E+01  1.483405E+03 -3.079983E-01 -1.546884E-09 -2.757932E-10
        42  18 -8.825943E+05 -2.583544E+01  7.543580E+02  4.626506E+01  3.586205E-10 -1.303907E-10
        42  19 -8.825937E+05  3.937590E+02  2.828771E+03  4.688103E+01 -2.333939E+03 -1.764837E-04
        42  20 -8.827085E+05 -7.986722E+01  1.483409E+03  3.079984E-01 -1.590706E+03 -7.902516E-07
        42  21 -8.825943E+05 -2.583525E+01  7.543593E+02 -4.626506E+01 -8.474733E+02  6.324105E-05
        42  22 -8.825937E+05  3.937590E+02  2.828771E+03  2.058238E-08 -2.333939E+03 -4.270098E-10
        42  23 -8.827085E+05 -7.986722E+01  1.483409E+03 -1.569328E-09 -1.590706E+03 -3.207043E-10
        42  24 -8.825943E+05 -2.583525E+01  7.543593E+02  2.041524E-08 -8.474733E+02  6.879233E-10
        42  25 -8.825937E+05  3.937590E+02  2.828771E+03 -4.688103E+01 -2.333939E+03  1.764828E-04
        42  26 -8.827085E+05 -7.986722E+01  1.483409E+03 -3.079983E-01 -1.590706E+03  7.898893E-07
        42  27 -8.825943E+05 -2.583525E+01  7.543593E+02  4.626506E+01 -8.474733E+02 -6.324003E-05
        43   1 -8.826479E+05  5.303968E+01  4.906400E+02 -9.487076E+00  7.351223E+02 -1.124932E-05
        43   2 -8.826418E+05  8.225871E+00  2.676981E+01 -2.641746E+00  7.230687E+02 -3.079686E-06
        43   3 -8.826482E+05 -9.306336E+01 -4.433672E+02  4.203483E+00  7.110153E+02  4.820619E-06
        43   4 -8.826479E+05  5.303968E+01  4.906400E+02  3.815012E-08  7.351223E+02 -7.264613E-10
        43   5 -8.826418E+05  8.225871E+00  2.676981E+01 -1.431593E-08  7.230687E+02  8.427181E-10
        43   6 -8.826482E+05 -9.306336E+01 -4.433672E+02  1.611396E-08  7.110153E+02 -4.817385E-11
        43   7 -8.826479E+05  5.303968E+01  4.906400E+02  9.487076E+00  7.351223E+02  1.124787E-05
        43   8 -8.826418E+05  8.225871E+00  2.676981E+01  2.641746E+00  7.230687E+02  3.081038E-06
        43   9 -8.826482E+05 -9.306336E+01 -4.433672E+02 -4.203484E+00  7.110153E+02 -4.820527E-06
        43  10 -8.826479E+05  5.303954E+01  4.906390E+02 -9.487076E+00  1.048155E-09  1.184730E-10
        43  11 -8.826418E+05  8.225730E+00  2.676882E+01 -2.641746E+00 -2.047094E-09  5.774908E-10
        43  12 -8.826482E+05 -9.306349E+01 -4.433682E+02  4.203483E+00 -6.523594E-10 -2.641043E-10
        43  13 -8.826479E+05  5.303954E+01  4.906390E+02 -1.351653E-08  2.938349E-10  2.223161E-11
        43  14 -8.826418E+05  8.225730E+00  2.676882E+01 -1.862519E-08  3.274640E-10  1.950823E-10
        43  15 -8.826482E+05 -9.306349E+01 -4.433682E+02  1.071392E-08 -1.538356E-09 -1.753485E-10
        43  16 -8.826479E+05  5.303954E+01  4.906390E+02  9.487076E+00  9.569977E-11 -7.441311E-11
        43  17 -8.826418E+05  8.225730E+00  2.676882E+01  2.641746E+00  3.141795E-10 -2.551213E-10
        43  18 -8.826482E+05 -9.306349E+01 -4.433682E+02 -4.203483E+00 -1.363772E-09 -1.982916E-11
        43  19 -8.826479E+05  5.303968E+01  4.906400E+02 -9.487076E+00 -7.351223E+02  1.124991E-05
        43  20 -8.826418E+05  8.225871E+00  2.676981E+01 -2.641746E+00 -7.230687E+02  3.081448E-06
        43  21 -8.826482E+05 -9.306336E+01 -4.433672E+02  4.203483E+00 -7.110153E+02 -4.820939E-06
        43  22 -8.826479E+05  5.303968E+01  4.906400E+02  2.955814E-08 -7.351223E+02  7.566453E-10
        43  23 -8.826418E+05  8.225871E+00  2.676981E+01 -3.154875E-08 -7.230687E+02 -3.779804E-10
        43  24 -8.826482E+05 -9.306336E+01 -4.433672E+02  1.607691E-08 -7.110153E+02 -2.780204E-10
        43  25 -8.826479E+05  5.303968E+01  4.906400E+02  9.487076E+00 -7.351223E+02 -1.124844E-05
        43  26 -8.826418E+05  8.225871E+00  2.676981E+01  2.641746E+00 -7.230687E+02 -3.082070E-06
        43  27 -8.826482E+05 -9.306336E+01 -4.433672E+02 -4.203484E+00 -7.110153E+02  4.820264E-06
        44   1 -8.827184E+05  3.358885E+01 -6.908899E+02 -7.591196E+01  8.128812E+02 -9.953066E-05
        44   2 -8.825544E+05  1.420108E+02 -1.361319E+03  2.146371E+01  1.504588E+03  5.208890E-05
        44   3 -8.827190E+05 -7.029437E+02 -2.720894E+03  1.188409E+02  2.196305E+03  4.209937E-04
        44   4 -8.827184E+05  3.358884E+01 -6.908899E+02  6.212258E-08  8.128812E+02 -8.371087E-11
        44   5 -8.825544E+05  1.420108E+02 -1.361319E+03  3.828249E-08  1.504588E+03  5.201845E-10
        44   6 -8.827190E+05 -7.029437E+02 -2.720894E+03  1.228629E-08  2.196305E+03 -4.041606E-10
        44   7 -8.827184E+05  3.358885E+01 -6.908899E+02  7.591196E+01  8.128812E+02  9.953030E-05
        44   8 -8.825544E+05  1.420108E+02 -1.361319E+03 -2.146371E+01  1.504588E+03 -5.208761E-05
        44   9 -8.827190E+05 -7.029437E+02 -2.720894E+03 -1.188409E+02  2.196305E+03 -4.209946E-04
        44  10 -8.827184E+05  3.358867E+01 -6.908912E+02 -7.591196E+01  1.039430E-09 -5.734278E-10
        44  11 -8.825544E+05  1.420102E+02 -1.361323E+03  2.146371E+01  6.785042E-10  4.257578E-10
        44  12 -8.827190E+05 -7.029450E+02 -2.720903E+03  1.188409E+02  7.322919E-11 -3.612229E-10
        44  13 -8.827184E+05  3.358866E+01 -6.908912E+02  5.352666E-08 -3.525627E-10 -8.077261E-11
        44  14 -8.825544E+05  1.420102E+02 -1.361323E+03  3.827881E-08  6.065978E-10  3.056313E-10
        44  15 -8.827190E+05 -7.029450E+02 -2.720903E+03  3.594793E-08  2.306410E-09 -3.014495E-10
        44  16 -8.827184E+05  3.358867E+01 -6.908912E+02  7.591196E+01  4.316209E-10  2.431562E-10
        44  17 -8.825544E+05  1.420102E+02 -1.361323E+03 -2.146371E+01 -2.578171E-09  4.662313E-10
        44  18 -8.827190E+05 -7.029450E+02 -2.720903E+03 -1.188409E+02  6.219335E-10 -6.153734E-10
        44  19 -8.827184E+05  3.358885E+01 -6.908899E+02 -7.591196E+01 -8.128812E+02  9.952965E-05
        44  20 -8.825544E+05  1.420108E+02 -1.361319E+03  2.146371E+01 -1.504588E+03 -5.208747E-05
        44  21 -8.827190E+05 -7.029437E+02 -2.720894E+03  1.188409E+02 -2.196305E+03 -4.209935E-04
        44  22 -8.827184E+05  3.358884E+01 -6.908899E+02  7.076894E-08 -8.128812E+02 -8.172528E-11
        44  23 -8.825544E+05  1.420108E+02 -1.361319E+03  2.966555E-08 -1.504588E+03  5.562072E-11
        44  24 -8.827190E+05 -7.029437E+02 -2.720894E+03  2.193384E-08 -2.196305E+03 -1.625550E-10
        44  25 -8.827184E+05  3.358885E+01 -6.908899E+02  7.591196E+01 -8.128812E+02 -9.952986E-05
        44  26 -8.825544E+05  1.420108E+02 -1.361319E+03 -2.146371E+01 -1.504588E+03  5.208812E-05
        44  27 -8.827190E+05 -7.029437E+02 -2.720894E+03 -1.188409E+02 -2.196305E+03  4.209930E-04
        45   1 -8.831335E+05  2.185899E+02 -3.459526E+03 -5.330360E+02  2.749022E+03 -2.363481E-03
        45   2 -8.820371E+05  1.069168E+03 -5.719681E+03  2.517574E+02  5.721717E+03  2.323408E-03
        45   3 -8.831367E+05 -5.311711E+03 -1.172507E+04  1.036551E+03  8.694405E+03  1.453609E-02
        45   4 -8.831335E+05  2.185894E+02 -3.459526E+03  2.121389E-08  2.749022E+03 -3.817443E-10
        45   5 -8.820371E+05  1.069168E+03 -5.719681E+03 -9.622621E-09  5.721717E+03  9.253166E-10
        45   6 -8.831367E+05 -5.311713E+03 -1.172507E+04  1.659872E-08  8.694405E+03  5.401448E-10
        45   7 -8.831335E+05  2.185899E+02 -3.459526E+03  5.330360E+02  2.749022E+03  2.363480E-03
        45   8 -8.820371E+05  1.069168E+03 -5.719681E+03 -2.517574E+02  5.721717E+03 -2.323406E-03
        45   9 -8.831367E+05 -5.311711E+03 -1.172507E+04 -1.036551E+03  8.694405E+03 -1.453608E-02
        45  10 -8.831335E+05  2.185879E+02 -3.459540E+03 -5.330360E+02 -4.442140E-10 -1.677332E-10
        45  11 -8.820371E+05  1.069159E+03 -5.719743E+03  2.517574E+02 -4.706290E-10  5.990461E-10
        45  12 -8.831368E+05 -5.311731E+03 -1.172521E+04  1.036551E+03  1.019964E-09 -1.581469E-11
        45  13 -8.831335E+05  2.185874E+02 -3.459540E+03  4.011789E-09  2.119544E-09 -3.215775E-10
        45  14 -8.820371E+05  1.069159E+03 -5.719743E+03 -5.310466E-09  1.985516E-09  3.966752E-10
        45  15 -8.831368E+05 -5.311733E+03 -1.172521E+04  2.591734E-09  4.053975E-10  2.948941E-10
        45  16 -8.831335E+05  2.185879E+02 -3.459540E+03  5.330360E+02 -3.411105E-10 -3.072777E-10
        45  17 -8.820371E+05  1.069159E+03 -5.719743E+03 -2.517574E+02  1.278069E-09  2.627680E-10
        45  18 -8.831368E+05 -5.311731E+03 -1.172521E+04 -1.036551E+03 -2.536988E-09  6.887873E-10
        45  19 -8.831335E+05  2.185899E+02 -3.459526E+03 -5.330360E+02 -2.749022E+03  2.363481E-03
        45  20 -8.820371E+05  1.069168E+03 -5.719681E+03  2.517574E+02 -5.721717E+03 -2.323406E-03
        45  21 -8.831367E+05 -5.311711E+03 -1.172507E+04  1.036551E+03 -8.694405E+03 -1.453609E-02
        45  22 -8.831335E+05  2.185894E+02 -3.459526E+03  2.126433E-08 -2.749022E+03 -2.376505E-10
        45  23 -8.820371E+05  1.069168E+03 -5.719681E+03 -9.972538E-10 -5.721717E+03 -1.757722E-10
        45  24 -8.831367E+05 -5.311713E+03 -1.172507E+04  7.962868E-09 -8.694405E+03  1.438762E-11
        45  25 -8.831335E+05  2.185899E+02 -3.459526E+03  5.330360E+02 -2.749022E+03 -2.363482E-03
        45  26 -8.820371E+05  1.069168E+03 -5.719681E+03 -2.517574E+02 -5.721717E+03  2.323406E-03
        45  27 -8.831367E+05 -5.311711E+03 -1.172507E+04 -1.036551E+03 -8.694405E+03  1.453609E-02
        46   1 -8.859979E+05  1.668725E+03 -1.424650E+04 -3.862856E+03  1.099390E+04 -6.849822E-02
        46   2 -8.784613E+05  7.958286E+03 -2.212210E+04  2.212126E+03  2.302899E+04  8.216723E-02
        46   3 -8.860160E+05 -3.982124E+04 -5.135817E+04  8.286951E+03  3.506394E+04  4.686755E-01
        46   4 -8.859979E+05  1.668697E+03 -1.424651E+04  4.487231E-08  1.099390E+04 -2.660923E-10
        46   5 -8.784613E+05  7.958277E+03 -2.212210E+04 -1.347039E-08  2.302899E+04 -8.413333E-10
        46   6 -8.860161E+05 -3.982137E+04 -5.135819E+04  1.754062E-08  3.506394E+04 -3.255953E-10
        46   7 -8.859979E+05  1.668725E+03 -1.424650E+04  3.862856E+03  1.099390E+04  6.849822E-02
        46   8 -8.784613E+05  7.958286E+03 -2.212210E+04 -2.212126E+03  2.302899E+04 -8.216724E-02
        46   9 -8.860160E+05 -3.982124E+04 -5.135817E+04 -8.286951E+03  3.506394E+04 -4.686755E-01
        46  10 -8.859980E+05  1.668692E+03 -1.424673E+04 -3.862856E+03  3.004844E-09 -3.732340E-10
        46  11 -8.784619E+05  7.958143E+03 -2.212309E+04  2.212126E+03  6.296243E-10  1.351331E-10
        46  12 -8.860173E+05 -3.982157E+04 -5.136048E+04  8.286951E+03 -3.166958E-10  1.192137E-10
        46  13 -8.859980E+05  1.668664E+03 -1.424673E+04 -6.814610E-09 -1.520124E-09 -7.917794E-11
        46  14 -8.784619E+05  7.958134E+03 -2.212310E+04 -9.164729E-09 -2.153141E-09 -3.074670E-10
        46  15 -8.860174E+05 -3.982170E+04 -5.136050E+04 -1.581987E-08  4.046460E-10 -1.350359E-10
        46  16 -8.859980E+05  1.668692E+03 -1.424673E+04  3.862856E+03  2.019029E-09  1.495238E-10
        46  17 -8.784619E+05  7.958143E+03 -2.212309E+04 -2.212126E+03 -3.922397E-10 -7.778250E-10
        46  18 -8.860173E+05 -3.982157E+04 -5.136048E+04 -8.286951E+03  4.189920E-10 -4.292333E-10
        46  19 -8.859979E+05  1.668725E+03 -1.424650E+04 -3.862856E+03 -1.099390E+04  6.849822E-02
        46  20 -8.784613E+05  7.958286E+03 -2.212210E+04  2.212126E+03 -2.302899E+04 -8.216723E-02
        46  21 -8.860160E+05 -3.982124E+04 -5.135817E+04  8.286951E+03 -3.506394E+04 -4.686755E-01
        46  22 -8.859979E+05  1.668697E+03 -1.424651E+04  1.901532E-08 -1.099390E+04  9.246545E-11
        46  23 -8.784613E+05  7.958277E+03 -2.212210E+04 -4.858554E-09 -2.302899E+04  1.812601E-11
        46  24 -8.860161E+05 -3.982137E+04 -5.135819E+04 -9.350947E-09 -3.506394E+04  2.859899E-11
        46  25 -8.859979E+05  1.668725E+03 -1.424650E+04  3.862856E+03 -1.099390E+04 -6.849822E-02
        46  26 -8.784613E+05  7.958286E+03 -2.212210E+04 -2.212126E+03 -2.302899E+04  8.216723E-02
        46  27 -8.860160E+05 -3.982124E+04 -5.135817E+04 -8.286951E+03 -3.506394E+04  4.686755E-01
        47   1 -1.855022E+05 -3.175011E+06 -2.489129E+05  5.811111E+04  8.644918E+02 -1.840365E+05
        47   2  7.793580E+04 -3.111493E+06 -8.893356E+04  1.170570E+04  2.954584E+03 -1.177382E+05
        47   3  4.666884E+04 -3.130347E+06 -4.592814E+04 -7.924111E+03  3.547512E+03 -5.143769E+04
        47   4 -2.145805E+05 -3.291033E+06 -2.778468E+05  1.327640E+04  8.778669E+02 -1.848885E+05
        47   5  4.340540E+04 -3.249624E+06 -1.229922E+05 -1.078292E+02  2.956943E+03 -1.181376E+05
        47   6  6.569853E+03 -3.290682E+06 -8.544223E+04  1.328760E+04  3.545794E+03 -5.138690E+04
        47   7 -2.436522E+05 -3.407038E+06 -3.067806E+05 -3.154988E+04  8.913680E+02 -1.857403E+05
        47   8  8.874092E+03 -3.387737E+06 -1.570522E+05 -1.191872E+04  2.959318E+03 -1.185370E+05
        47   9 -3.352936E+04 -3.450992E+06 -1.249580E+05  3.449381E+04  3.544078E+03 -5.133612E+04
        47  10 -1.855114E+05 -3.175047E+06 -2.489769E+05  5.811123E+04  2.068798E-09  1.237689E-09
        47  11  7.793204E+04 -3.111508E+06 -8.895976E+04  1.170598E+04  4.652236E-09 -5.682942E-11
        47  12  4.666811E+04 -3.130350E+06 -4.593316E+04 -7.923964E+03 -6.941779E-10 -7.194944E-10
        47  13 -2.145897E+05 -3.291070E+06 -2.779114E+05  1.327653E+04  1.331575E-09  1.511208E-10
        47  14  4.340161E+04 -3.249639E+06 -1.230186E+05 -1.075475E+02  1.550499E-09 -9.413412E-11
        47  15  6.569126E+03 -3.290684E+06 -8.544724E+04  1.328775E+04 -8.710862E-10  8.709049E-11
        47  16 -2.436615E+05 -3.407075E+06 -3.068458E+05 -3.154975E+04 -2.050031E-09 -1.047557E-09
        47  17  8.870285E+03 -3.387752E+06 -1.570788E+05 -1.191843E+04 -2.312856E-09  4.033994E-12
        47  18 -3.353008E+04 -3.450995E+06 -1.249630E+05  3.449395E+04 -2.693909E-09  8.687479E-10
        47  19 -1.855022E+05 -3.175011E+06 -2.489129E+05  5.811111E+04 -8.644918E+02  1.840365E+05
        47  20  7.793580E+04 -3.111493E+06 -8.893356E+04  1.170570E+04 -2.954584E+03  1.177382E+05
        47  21  4.666884E+04 -3.130347E+06 -4.592814E+04 -7.924111E+03 -3.547512E+03  5.143769E+04
        47  22 -2.145805E+05 -3.291033E+06 -2.778468E+05  1.327640E+04 -8.778669E+02  1.848885E+05
        47  23  4.340540E+04 -3.249624E+06 -1.229922E+05 -1.078292E+02 -2.956943E+03  1.181376E+05
        47  24  6.569853E+03 -3.290682E+06 -8.544223E+04  1.328760E+04 -3.545794E+03  5.138690E+04
        47  25 -2.436522E+05 -3.407038E+06 -3.067806E+05 -3.154988E+04 -8.913680E+02  1.857403E+05
        47  26  8.874092E+03 -3.387737E+06 -1.570522E+05 -1.191872E+04 -2.959318E+03  1.185370E+05
        47  27 -3.352936E+04 -3.450992E+06 -1.249580E+05  3.449381E+04 -3.544078E+03  5.133612E+04
        48   1  2.511972E+04 -3.064687E+06 -2.201915E+04  1.927337E+04  3.853005E+03 -3.685194E+04
        48   2  6.671722E+04 -3.037908E+06  6.746587E+03  1.947212E+03  4.702300E+03 -1.124098E+04
        48   3  4.465356E+04 -3.030226E+06  2.902564E+03  5.372231E+03  4.675091E+03  1.437058E+04
        48   4 -2.790756E+04 -3.276700E+06 -7.442920E+04  1.193736E+04  3.853683E+03 -3.724596E+04
        48   5  9.407136E+03 -3.267113E+06 -4.980248E+04  1.560574E+03  4.702502E+03 -1.137068E+04
        48   6 -1.699820E+04 -3.276676E+06 -5.797764E+04  1.193563E+04  4.675247E+03  1.450447E+04
        48   7 -8.093801E+04 -3.488671E+06 -1.268426E+05  4.603878E+03  3.854372E+03 -3.763983E+04
        48   8 -4.790689E+04 -3.496269E+06 -1.063554E+05  1.174086E+03  4.702703E+03 -1.150034E+04
        48   9 -7.865435E+04 -3.523070E+06 -1.188623E+05  1.849642E+04  4.675407E+03  1.463831E+04
        48  10  2.511934E+04 -3.064689E+06 -2.202174E+04  1.927349E+04 -2.605450E-09 -2.226712E-09
        48  11  6.671716E+04 -3.037908E+06  6.746307E+03  1.947255E+03 -1.793745E-09 -1.348681E-09
        48  12  4.465348E+04 -3.030227E+06  2.902133E+03  5.372177E+03 -2.161640E-09  2.878186E-09
        48  13 -2.790795E+04 -3.276701E+06 -7.443185E+04  1.193748E+04 -2.607684E-09  6.039411E-11
        48  14  9.407077E+03 -3.267113E+06 -4.980276E+04  1.560617E+03 -1.625581E-09 -1.258371E-10
        48  15 -1.699828E+04 -3.276676E+06 -5.797808E+04  1.193558E+04 -1.120088E-09  2.810770E-10
        48  16 -8.093841E+04 -3.488673E+06 -1.268453E+05  4.603995E+03 -5.633960E-10  1.769262E-09
        48  17 -4.790695E+04 -3.496269E+06 -1.063557E+05  1.174130E+03  5.783854E-09  9.916637E-10
        48  18 -7.865443E+04 -3.523070E+06 -1.188628E+05  1.849637E+04  1.478838E-11 -3.114052E-09
        48  19  2.511972E+04 -3.064687E+06 -2.201915E+04  1.927337E+04 -3.853005E+03  3.685194E+04
        48  20  6.671722E+04 -3.037908E+06  6.746587E+03  1.947212E+03 -4.702300E+03  1.124098E+04
        48  21  4.465356E+04 -3.030226E+06  2.902564E+03  5.372231E+03 -4.675091E+03 -1.437058E+04
        48  22 -2.790756E+04 -3.276700E+06 -7.442920E+04  1.193736E+04 -3.853683E+03  3.724596E+04
        48  23  9.407136E+03 -3.267113E+06 -4.980248E+04  1.560574E+03 -4.702502E+03  1.137068E+04
        48  24 -1.699820E+04 -3.276676E+06 -5.797764E+04  1.193563E+04 -4.675247E+03 -1.450447E+04
        48  25 -8.093801E+04 -3.488671E+06 -1.268426E+05  4.603878E+03 -3.854372E+03  3.763983E+04
        48  26 -4.790689E+04 -3.496269E+06 -1.063554E+05  1.174086E+03 -4.702703E+03  1.150034E+04
        48  27 -7.865435E+04 -3.523070E+06 -1.188623E+05  1.849642E+04 -4.675407E+03 -1.463831E+04
        49   1  7.248660E+04 -3.001662E+06  7.246933E+03  2.364263E+04  5.658345E+03  2.619139E+04
        49   2  1.010631E+05 -2.965248E+06 -9.510325E+03 -3.760546E+03  6.349145E+03  6.879795E+04
        49   3 -5.980622E+04 -2.981530E+06 -1.013983E+05 -1.916570E+04  2.000846E+03  1.113979E+05
        49   4  1.881436E+03 -3.284156E+06 -6.246344E+04  1.005857E+04  5.658937E+03  2.517209E+04
        49   5  2.791851E+04 -3.257769E+06 -8.159252E+04  3.955418E+03  6.349492E+03  6.932610E+04
        49   6 -1.358095E+05 -3.284373E+06 -1.769563E+05  9.849775E+03  2.002838E+03  1.134727E+05
        49   7 -6.872900E+04 -3.566577E+06 -1.321796E+05 -3.519252E+03  5.659574E+03  2.415324E+04
        49   8 -4.523231E+04 -3.550211E+06 -1.536810E+05  1.166775E+04  6.349852E+03  6.985400E+04
        49   9 -2.118166E+05 -3.587130E+06 -2.525209E+05  3.885106E+04  2.005026E+03  1.155464E+05
        49  10  7.248638E+04 -3.001663E+06  7.245577E+03  2.364251E+04 -6.608118E-09 -4.699559E-10
        49  11  1.010618E+05 -2.965253E+06 -9.519338E+03 -3.760898E+03 -2.583505E-09 -3.749934E-09
        49  12 -5.980958E+04 -2.981543E+06 -1.014217E+05 -1.916588E+04 -1.263961E-09  2.288800E-10
        49  13  1.881230E+03 -3.284157E+06 -6.246470E+04  1.005846E+04 -7.850023E-09  1.727919E-10
        49  14  2.791717E+04 -3.257774E+06 -8.160167E+04  3.955063E+03 -2.552401E-09 -6.307793E-10
        49  15 -1.358130E+05 -3.284387E+06 -1.769807E+05  9.849592E+03 -9.391142E-10  2.597285E-12
        49  16 -6.872920E+04 -3.566578E+06 -1.321808E+05 -3.519362E+03 -3.035448E-09  1.695400E-11
        49  17 -4.523367E+04 -3.550217E+06 -1.536903E+05  1.166739E+04 -8.605104E-10  2.805323E-09
        49  18 -2.118202E+05 -3.587144E+06 -2.525461E+05  3.885087E+04  1.800767E-09 -7.921487E-10
        49  19  7.248660E+04 -3.001662E+06  7.246933E+03  2.364263E+04 -5.658345E+03 -2.619139E+04
        49  20  1.010631E+05 -2.965248E+06 -9.510325E+03 -3.760546E+03 -6.349145E+03 -6.879795E+04
        49  21 -5.980622E+04 -2.981530E+06 -1.013983E+05 -1.916570E+04 -2.000846E+03 -1.113979E+05
        49  22  1.881436E+03 -3.284156E+06 -6.246344E+04  1.005857E+04 -5.658937E+03 -2.517209E+04
        49  23  2.791851E+04 -3.257769E+06 -8.159252E+04  3.955418E+03 -6.349492E+03 -6.932610E+04
        49  24 -1.358095E+05 -3.284373E+06 -1.769563E+05  9.849775E+03 -2.002838E+03 -1.134727E+05
        49  25 -6.872900E+04 -3.566577E+06 -1.321796E+05 -3.519252E+03 -5.659574E+03 -2.415324E+04
        49  26 -4.523231E+04 -3.550211E+06 -1.536810E+05  1.166775E+04 -6.349852E+03 -6.985400E+04
        49  27 -2.118166E+05 -3.587130E+06 -2.525209E+05  3.885106E+04 -2.005026E+03 -1.155464E+05
        50   1 -1.333613E+06 -1.293200E+05  8.156405E+04 -5.107548E+05  6.635718E+04  2.563989E+04
        50   2 -1.347792E+06 -2.196439E+05  2.150096E+04 -4.857615E+05  4.238033E+04  1.802962E+04
        50   3 -1.312677E+06 -2.142825E+05  7.233154E+03 -4.960176E+05  1.901866E+04  8.776882E+03
        50   4 -1.233566E+06 -1.061665E+05  1.060978E+05 -4.986124E+05  6.695768E+04  2.586307E+04
        50   5 -1.263589E+06 -1.917789E+05  4.355248E+04 -4.668552E+05  4.249778E+04  1.807329E+04
        50   6 -1.244229E+06 -1.816196E+05  2.718014E+04 -4.703460E+05  1.865362E+04  8.640346E+03
        50   7 -1.133508E+06 -8.301333E+04  1.306308E+05 -4.864689E+05  6.755829E+04  2.608625E+04
        50   8 -1.179379E+06 -1.639139E+05  6.560337E+04 -4.479468E+05  4.261525E+04  1.811697E+04
        50   9 -1.175777E+06 -1.489554E+05  4.712673E+04 -4.446716E+05  1.828854E+04  8.503782E+03
        50  10 -1.333618E+06 -1.293219E+05  8.155451E+04 -5.107562E+05  8.540375E-10 -2.777661E-10
        50  11 -1.347794E+06 -2.196447E+05  2.149697E+04 -4.857622E+05  4.935235E-10 -6.554332E-10
        50  12 -1.312678E+06 -2.142827E+05  7.232328E+03 -4.960177E+05 -1.187548E-09  2.077830E-10
        50  13 -1.233571E+06 -1.061684E+05  1.060881E+05 -4.986138E+05 -1.767679E-10 -3.217777E-10
        50  14 -1.263591E+06 -1.917797E+05  4.354846E+04 -4.668558E+05  6.698030E-10 -2.386012E-10
        50  15 -1.244230E+06 -1.816197E+05  2.717935E+04 -4.703462E+05  3.357044E-10  3.623994E-11
        50  16 -1.133513E+06 -8.301529E+04  1.306210E+05 -4.864703E+05 -1.397691E-11 -5.354765E-10
        50  17 -1.179381E+06 -1.639147E+05  6.559934E+04 -4.479474E+05 -2.944293E-09 -8.134138E-11
        50  18 -1.175777E+06 -1.489555E+05  4.712596E+04 -4.446717E+05  2.438507E-09  7.085880E-10
        50  19 -1.333613E+06 -1.293200E+05  8.156405E+04 -5.107548E+05 -6.635718E+04 -2.563989E+04
        50  20 -1.347792E+06 -2.196439E+05  2.150096E+04 -4.857615E+05 -4.238033E+04 -1.802962E+04
        50  21 -1.312677E+06 -2.142825E+05  7.233154E+03 -4.960176E+05 -1.901866E+04 -8.776882E+03
        50  22 -1.233566E+06 -1.061665E+05  1.060978E+05 -4.986124E+05 -6.695768E+04 -2.586307E+04
        50  23 -1.263589E+06 -1.917789E+05  4.355248E+04 -4.668552E+05 -4.249778E+04 -1.807329E+04
        50  24 -1.244229E+06 -1.816196E+05  2.718014E+04 -4.703460E+05 -1.865362E+04 -8.640346E+03
        50  25 -1.133508E+06 -8.301333E+04  1.306308E+05 -4.864689E+05 -6.755829E+04 -2.608625E+04
        50  26 -1.179379E+06 -1.639139E+05  6.560337E+04 -4.479468E+05 -4.261525E+04 -1.811697E+04
        50  27 -1.175777E+06 -1.489554E+05  4.712673E+04 -4.446716E+05 -1.828854E+04 -8.503782E+03
        51   1 -1.298287E+06 -1.869533E+05  8.915261E+03 -4.891493E+05  1.478806E+04  6.692207E+03
        51   2 -1.296300E+06 -1.927778E+05 -7.662551E+02 -4.795941E+05  9.488814E+03  4.540212E+03
        51   3 -1.280178E+06 -1.926701E+05 -2.611457E+03 -4.829214E+05  4.269153E+03  2.175523E+03
        51   4 -1.247569E+06 -1.697255E+05  2.231179E+04 -4.773113E+05  1.477742E+04  6.688155E+03
        51   5 -1.255366E+06 -1.778202E+05  1.024659E+04 -4.689527E+05  9.415680E+03  4.512799E+03
        51   6 -1.249017E+06 -1.799707E+05  6.066740E+03 -4.734765E+05  4.133639E+03  2.124769E+03
        51   7 -1.196848E+06 -1.524976E+05  3.570812E+04 -4.654724E+05  1.476678E+04  6.684102E+03
        51   8 -1.214431E+06 -1.628625E+05  2.125927E+04 -4.583108E+05  9.342541E+03  4.485384E+03
        51   9 -1.217854E+06 -1.672714E+05  1.474479E+04 -4.640312E+05  3.998118E+03  2.074011E+03
        51  10 -1.298288E+06 -1.869534E+05  8.914765E+03 -4.891494E+05 -2.924001E-09  8.814341E-10
        51  11 -1.296300E+06 -1.927779E+05 -7.664635E+02 -4.795941E+05 -1.065340E-09  5.026108E-11
        51  12 -1.280178E+06 -1.926701E+05 -2.611501E+03 -4.829214E+05 -4.568972E-10 -1.233268E-09
        51  13 -1.247569E+06 -1.697256E+05  2.231130E+04 -4.773113E+05  2.776553E-10  1.119077E-09
        51  14 -1.255366E+06 -1.778202E+05  1.024639E+04 -4.689528E+05 -1.829855E-09  8.042702E-10
        51  15 -1.249017E+06 -1.799708E+05  6.066700E+03 -4.734765E+05  1.021981E-09 -2.732785E-11
        51  16 -1.196848E+06 -1.524977E+05  3.570763E+04 -4.654725E+05  4.460427E-10  7.062949E-10
        51  17 -1.214431E+06 -1.628626E+05  2.125906E+04 -4.583108E+05  4.729085E-10  2.027771E-10
        51  18 -1.217855E+06 -1.672714E+05  1.474475E+04 -4.640312E+05  1.806536E-09  1.770767E-11
        51  19 -1.298287E+06 -1.869533E+05  8.915261E+03 -4.891493E+05 -1.478806E+04 -6.692207E+03
        51  20 -1.296300E+06 -1.927778E+05 -7.662551E+02 -4.795941E+05 -9.488814E+03 -4.540212E+03
        51  21 -1.280178E+06 -1.926701E+05 -2.611457E+03 -4.829214E+05 -4.269153E+03 -2.175523E+03
        51  22 -1.247569E+06 -1.697255E+05  2.231179E+04 -4.773113E+05 -1.477742E+04 -6.688155E+03
        51  23 -1.255366E+06 -1.778202E+05  1.024659E+04 -4.689527E+05 -9.415680E+03 -4.512799E+03
        51  24 -1.249017E+06 -1.799707E+05  6.066740E+03 -4.734765E+05 -4.133639E+03 -2.124769E+03
        51  25 -1.196848E+06 -1.524976E+05  3.570812E+04 -4.654724E+05 -1.476678E+04 -6.684102E+03
        51  26 -1.214431E+06 -1.628625E+05  2.125927E+04 -4.583108E+05 -9.342541E+03 -4.485384E+03
        51  27 -1.217854E+06 -1.672714E+05  1.474479E+04 -4.640312E+05 -3.998118E+03 -2.074011E+03
        52   1 -1.255892E+06 -1.805792E+05  3.140141E+03 -4.759690E+05  3.419902E+03  1.589624E+03
        52   2 -1.251494E+06 -1.747935E+05  3.095705E+03 -4.683881E+05  2.337708E+03  8.137232E+02
        52   3 -1.237853E+06 -1.754703E+05  4.467080E+03 -4.708697E+05  1.263744E+03  1.579452E+01
        52   4 -1.249498E+06 -1.784063E+05  4.799395E+03 -4.744681E+05  3.328358E+03  1.555333E+03
        52   5 -1.254218E+06 -1.758680E+05  2.346413E+03 -4.691777E+05  2.239727E+03  7.770206E+02
        52   6 -1.249693E+06 -1.797912E+05  1.314307E+03 -4.739500E+05  1.159347E+03 -2.331212E+01
        52   7 -1.243103E+06 -1.762333E+05  6.458654E+03 -4.729671E+05  3.236812E+03  1.521041E+03
        52   8 -1.256942E+06 -1.769426E+05  1.597117E+03 -4.699673E+05  2.141746E+03  7.403181E+02
        52   9 -1.261534E+06 -1.841121E+05 -1.838491E+03 -4.770303E+05  1.054951E+03 -6.241814E+01
        52  10 -1.255892E+06 -1.805792E+05  3.140114E+03 -4.759690E+05 -1.587383E-09 -8.079185E-10
        52  11 -1.251494E+06 -1.747935E+05  3.095693E+03 -4.683881E+05 -4.235507E-09  8.414717E-10
        52  12 -1.237853E+06 -1.754703E+05  4.467077E+03 -4.708697E+05  2.660714E-09 -8.882899E-10
        52  13 -1.249498E+06 -1.784063E+05  4.799369E+03 -4.744681E+05 -1.448224E-09 -1.042148E-10
        52  14 -1.254218E+06 -1.758680E+05  2.346403E+03 -4.691777E+05 -3.021225E-10 -1.366980E-10
        52  15 -1.249693E+06 -1.797912E+05  1.314304E+03 -4.739500E+05  1.212554E-09 -7.964444E-10
        52  16 -1.243103E+06 -1.762333E+05  6.458630E+03 -4.729671E+05  2.737625E-09 -2.573171E-11
        52  17 -1.256942E+06 -1.769426E+05  1.597108E+03 -4.699673E+05  2.733618E-09 -4.059275E-11
        52  18 -1.261534E+06 -1.841121E+05 -1.838494E+03 -4.770303E+05 -8.501817E-10  3.811013E-12
        52  19 -1.255892E+06 -1.805792E+05  3.140141E+03 -4.759690E+05 -3.419902E+03 -1.589624E+03
        52  20 -1.251494E+06 -1.747935E+05  3.095705E+03 -4.683881E+05 -2.337708E+03 -8.137232E+02
        52  21 -1.237853E+06 -1.754703E+05  4.467080E+03 -4.708697E+05 -1.263744E+03 -1.579452E+01
        52  22 -1.249498E+06 -1.784063E+05  4.799395E+03 -4.744681E+05 -3.328358E+03 -1.555333E+03
        52  23 -1.254218E+06 -1.758680E+05  2.346413E+03 -4.691777E+05 -2.239727E+03 -7.770206E+02
        52  24 -1.249693E+06 -1.797912E+05  1.314307E+03 -4.739500E+05 -1.159347E+03  2.331212E+01
        52  25 -1.243103E+06 -1.762333E+05  6.458654E+03 -4.729671E+05 -3.236812E+03 -1.521041E+03
        52  26 -1.256942E+06 -1.769426E+05  1.597117E+03 -4.699673E+05 -2.141746E+03 -7.403181E+02
        52  27 -1.261534E+06 -1.841121E+05 -1.838491E+03 -4.770303E+05 -1.054951E+03  6.241814E+01
        53   1 -1.212720E+06 -1.655004E+05  1.110367E+04 -4.639076E+05  1.147611E+03 -2.633005E+02
        53   2 -1.208143E+06 -1.584166E+05  1.286088E+04 -4.568533E+05  1.054051E+03 -6.859670E+02
        53   3 -1.195351E+06 -1.592031E+05  1.484473E+04 -4.591349E+05  9.553528E+02 -1.094781E+03
        53   4 -1.249840E+06 -1.795125E+05  9.910008E+02 -4.740103E+05  1.046418E+03 -3.012114E+02
        53   5 -1.253962E+06 -1.756822E+05  4.256174E+02 -4.693030E+05  9.569053E+02 -7.223698E+02
        53   6 -1.249870E+06 -1.797229E+05  8.367623E+01 -4.739316E+05  8.622578E+02 -1.129675E+03
        53   7 -1.286958E+06 -1.935245E+05 -9.121723E+03 -4.841125E+05  9.452314E+02 -3.391196E+02
        53   8 -1.299779E+06 -1.929476E+05 -1.200981E+04 -4.817519E+05  8.597679E+02 -7.587695E+02
        53   9 -1.304385E+06 -2.002426E+05 -1.467768E+04 -4.887271E+05  7.691715E+02 -1.164566E+03
        53  10 -1.212720E+06 -1.655004E+05  1.110366E+04 -4.639076E+05  1.585294E-09 -9.956766E-10
        53  11 -1.208143E+06 -1.584166E+05  1.286087E+04 -4.568533E+05 -4.621805E-10 -1.885381E-11
        53  12 -1.195351E+06 -1.592031E+05  1.484472E+04 -4.591349E+05 -1.530287E-09 -9.236396E-10
        53  13 -1.249840E+06 -1.795125E+05  9.909985E+02 -4.740103E+05  3.536497E-10 -6.384150E-10
        53  14 -1.253962E+06 -1.756822E+05  4.256147E+02 -4.693030E+05 -5.016454E-09 -1.376072E-09
        53  15 -1.249870E+06 -1.797229E+05  8.367244E+01 -4.739316E+05 -3.214731E-09 -8.754143E-11
        53  16 -1.286958E+06 -1.935245E+05 -9.121725E+03 -4.841125E+05 -8.779609E-10 -5.089266E-10
        53  17 -1.299779E+06 -1.929476E+05 -1.200981E+04 -4.817519E+05 -2.514253E-09 -7.381217E-10
        53  18 -1.304385E+06 -2.002426E+05 -1.467768E+04 -4.887271E+05 -7.990118E-10  9.025537E-10
        53  19 -1.212720E+06 -1.655004E+05  1.110367E+04 -4.639076E+05 -1.147611E+03  2.633005E+02
        53  20 -1.208143E+06 -1.584166E+05  1.286088E+04 -4.568533E+05 -1.054051E+03  6.859670E+02
        53  21 -1.195351E+06 -1.592031E+05  1.484473E+04 -4.591349E+05 -9.553528E+02  1.094781E+03
        53  22 -1.249840E+06 -1.795125E+05  9.910008E+02 -4.740103E+05 -1.046418E+03  3.012114E+02
        53  23 -1.253962E+06 -1.756822E+05  4.256174E+02 -4.693030E+05 -9.569053E+02  7.223698E+02
        53  24 -1.249870E+06 -1.797229E+05  8.367623E+01 -4.739316E+05 -8.622578E+02  1.129675E+03
        53  25 -1.286958E+06 -1.935245E+05 -9.121723E+03 -4.841125E+05 -9.452314E+02  3.391196E+02
        53  26 -1.299779E+06 -1.929476E+05 -1.200981E+04 -4.817519E+05 -8.597679E+02  7.587695E+02
        53  27 -1.304385E+06 -2.002426E+05 -1.467768E+04 -4.887271E+05 -7.691715E+02  1.164566E+03
        54   1 -1.171733E+06 -1.499880E+05  2.123242E+04 -4.525026E+05  1.029655E+03 -1.285386E+03
        54   2 -1.167538E+06 -1.433545E+05  2.298979E+04 -4.461390E+05  1.339635E+03 -1.531963E+03
        54   3 -1.156103E+06 -1.442496E+05  2.455321E+04 -4.481121E+05  1.636295E+03 -1.742748E+03
        54   4 -1.250066E+06 -1.794941E+05 -5.666788E+01 -4.737675E+05  9.316350E+02 -1.322137E+03
        54   5 -1.253699E+06 -1.758312E+05 -3.955275E+02 -4.695607E+05  1.252022E+03 -1.564829E+03
        54   6 -1.250095E+06 -1.796992E+05 -9.365874E+02 -4.736907E+05  1.559086E+03 -1.771727E+03
        54   7 -1.328393E+06 -2.089998E+05 -2.134631E+04 -4.950299E+05  8.336281E+02 -1.358882E+03
        54   8 -1.339854E+06 -2.083075E+05 -2.378149E+04 -4.929794E+05  1.164422E+03 -1.597689E+03
        54   9 -1.344079E+06 -2.151481E+05 -2.642713E+04 -4.992658E+05  1.481889E+03 -1.800700E+03
        54  10 -1.171733E+06 -1.499880E+05  2.123242E+04 -4.525026E+05 -1.651570E-09 -4.545705E-10
        54  11 -1.167538E+06 -1.433545E+05  2.298978E+04 -4.461390E+05  3.015532E-09 -3.395830E-10
        54  12 -1.156103E+06 -1.442496E+05  2.455320E+04 -4.481121E+05 -1.828991E-09  2.519639E-10
        54  13 -1.250066E+06 -1.794941E+05 -5.667280E+01 -4.737675E+05  1.239485E-10 -1.065068E-10
        54  14 -1.253699E+06 -1.758313E+05 -3.955350E+02 -4.695606E+05 -2.972223E-09 -7.299561E-10
        54  15 -1.250095E+06 -1.796992E+05 -9.365978E+02 -4.736907E+05  5.616210E-10  1.959581E-10
        54  16 -1.328393E+06 -2.089998E+05 -2.134631E+04 -4.950299E+05 -1.476457E-10  3.411778E-10
        54  17 -1.339854E+06 -2.083075E+05 -2.378149E+04 -4.929794E+05  9.295100E-10 -9.208050E-10
        54  18 -1.344079E+06 -2.151481E+05 -2.642714E+04 -4.992658E+05 -8.863144E-10 -7.693918E-11
        54  19 -1.171733E+06 -1.499880E+05  2.123242E+04 -4.525026E+05 -1.029655E+03  1.285386E+03
        54  20 -1.167538E+06 -1.433545E+05  2.298979E+04 -4.461390E+05 -1.339635E+03  1.531963E+03
        54  21 -1.156103E+06 -1.442496E+05  2.455321E+04 -4.481121E+05 -1.636295E+03  1.742748E+03
        54  22 -1.250066E+06 -1.794941E+05 -5.666788E+01 -4.737675E+05 -9.316350E+02  1.322137E+03
        54  23 -1.253699E+06 -1.758312E+05 -3.955275E+02 -4.695607E+05 -1.252022E+03  1.564829E+03
        54  24 -1.250095E+06 -1.796992E+05 -9.365874E+02 -4.736907E+05 -1.559086E+03  1.771727E+03
        54  25 -1.328393E+06 -2.089998E+05 -2.134631E+04 -4.950299E+05 -8.336281E+02  1.358882E+03
        54  26 -1.339854E+06 -2.083075E+05 -2.378149E+04 -4.929794E+05 -1.164422E+03  1.597689E+03
        54  27 -1.344079E+06 -2.151481E+05 -2.642713E+04 -4.992658E+05 -1.481889E+03  1.800700E+03
        55   1 -1.135583E+06 -1.360398E+05  2.993540E+04 -4.424064E+05  1.896683E+03 -1.841522E+03
        55   2 -1.131933E+06 -1.301438E+05  3.068960E+04 -4.369498E+05  3.127791E+03 -1.695652E+03
        55   3 -1.122952E+06 -1.321620E+05  3.012255E+04 -4.380324E+05  4.326683E+03 -1.463527E+03
        55   4 -1.250441E+06 -1.792187E+05 -1.244304E+03 -4.735045E+05  1.803205E+03 -1.876616E+03
        55   5 -1.253198E+06 -1.759215E+05 -2.235539E+03 -4.699864E+05  3.059245E+03 -1.721414E+03
        55   6 -1.250630E+06 -1.805438E+05 -4.568055E+03 -4.730077E+05  4.283053E+03 -1.479952E+03
        55   7 -1.365288E+06 -2.223969E+05 -3.242524E+04 -5.045974E+05  1.709747E+03 -1.911703E+03
        55   8 -1.374450E+06 -2.216983E+05 -3.516203E+04 -5.030172E+05  2.990714E+03 -1.747169E+03
        55   9 -1.378291E+06 -2.289246E+05 -3.926013E+04 -5.079766E+05  4.239432E+03 -1.496374E+03
        55  10 -1.135583E+06 -1.360399E+05  2.993538E+04 -4.424064E+05  3.163943E-11  1.496127E-09
        55  11 -1.131933E+06 -1.301439E+05  3.068958E+04 -4.369497E+05 -3.511504E-09  5.182811E-10
        55  12 -1.122952E+06 -1.321620E+05  3.012251E+04 -4.380324E+05  1.024143E-10 -6.287866E-10
        55  13 -1.250441E+06 -1.792187E+05 -1.244316E+03 -4.735045E+05  3.007677E-10  9.121116E-10
        55  14 -1.253198E+06 -1.759215E+05 -2.235562E+03 -4.699864E+05  5.198792E-09  4.444804E-10
        55  15 -1.250630E+06 -1.805438E+05 -4.568093E+03 -4.730077E+05  1.226216E-09 -3.869749E-10
        55  16 -1.365288E+06 -2.223969E+05 -3.242525E+04 -5.045974E+05  6.876231E-10  5.106998E-11
        55  17 -1.374450E+06 -2.216983E+05 -3.516206E+04 -5.030172E+05  3.342811E-09  4.383397E-10
        55  18 -1.378292E+06 -2.289246E+05 -3.926017E+04 -5.079766E+05  2.114484E-09 -4.824385E-11
        55  19 -1.135583E+06 -1.360398E+05  2.993540E+04 -4.424064E+05 -1.896683E+03  1.841522E+03
        55  20 -1.131933E+06 -1.301438E+05  3.068960E+04 -4.369498E+05 -3.127791E+03  1.695652E+03
        55  21 -1.122952E+06 -1.321620E+05  3.012255E+04 -4.380324E+05 -4.326683E+03  1.463527E+03
        55  22 -1.250441E+06 -1.792187E+05 -1.244304E+03 -4.735045E+05 -1.803205E+03  1.876616E+03
        55  23 -1.253198E+06 -1.759215E+05 -2.235539E+03 -4.699864E+05 -3.059245E+03  1.721414E+03
        55  24 -1.250630E+06 -1.805438E+05 -4.568055E+03 -4.730077E+05 -4.283053E+03  1.479952E+03
        55  25 -1.365288E+06 -2.223969E+05 -3.242524E+04 -5.045974E+05 -1.709747E+03  1.911703E+03
        55  26 -1.374450E+06 -2.216983E+05 -3.516203E+04 -5.030172E+05 -2.990714E+03  1.747169E+03
        55  27 -1.378291E+06 -2.289246E+05 -3.926013E+04 -5.079766E+05 -4.239432E+03  1.496374E+03
        56   1 -1.106577E+06 -1.248929E+05  3.340476E+04 -4.349928E+05  5.328028E+03 -1.295973E+03
        56   2 -1.102874E+06 -1.179868E+05  3.069830E+04 -4.298106E+05  1.046028E+04  3.625101E+02
        56   3 -1.100254E+06 -1.289846E+05  2.059356E+04 -4.264032E+05  1.544305E+04  2.419146E+03
        56   4 -1.251478E+06 -1.786511E+05 -5.772805E+03 -4.734955E+05  5.200551E+03 -1.343887E+03
        56   5 -1.251618E+06 -1.745660E+05 -9.764151E+03 -4.707763E+05  1.044773E+04  3.577268E+02
        56   6 -1.252865E+06 -1.884094E+05 -2.124637E+04 -4.698315E+05  1.554539E+04  2.457501E+03
        56   7 -1.396358E+06 -2.324083E+05 -4.495217E+04 -5.119902E+05  5.073107E+03 -1.391789E+03
        56   8 -1.400340E+06 -2.311438E+05 -5.022860E+04 -5.117332E+05  1.043519E+04  3.529446E+02
        56   9 -1.405454E+06 -2.478326E+05 -6.308850E+04 -5.132502E+05  1.564770E+04  2.495845E+03
        56  10 -1.106577E+06 -1.248929E+05  3.340470E+04 -4.349927E+05  7.885357E-11 -1.273305E-10
        56  11 -1.102874E+06 -1.179868E+05  3.069809E+04 -4.298106E+05  3.285237E-09  5.223041E-10
        56  12 -1.100254E+06 -1.289846E+05  2.059310E+04 -4.264032E+05  7.014612E-10  2.904870E-10
        56  13 -1.251478E+06 -1.786511E+05 -5.772859E+03 -4.734955E+05 -2.035293E-09 -4.287157E-10
        56  14 -1.251618E+06 -1.745660E+05 -9.764357E+03 -4.707763E+05 -4.214446E-09  9.557357E-10
        56  15 -1.252865E+06 -1.884095E+05 -2.124683E+04 -4.698316E+05 -5.260049E-10 -5.735882E-10
        56  16 -1.396358E+06 -2.324083E+05 -4.495222E+04 -5.119902E+05  1.250077E-09 -8.553632E-10
        56  17 -1.400340E+06 -2.311438E+05 -5.022880E+04 -5.117332E+05 -2.278268E-09 -8.293062E-11
        56  18 -1.405454E+06 -2.478327E+05 -6.308897E+04 -5.132502E+05  2.755050E-10 -1.628881E-09
        56  19 -1.106577E+06 -1.248929E+05  3.340476E+04 -4.349928E+05 -5.328028E+03  1.295973E+03
        56  20 -1.102874E+06 -1.179868E+05  3.069830E+04 -4.298106E+05 -1.046028E+04 -3.625101E+02
        56  21 -1.100254E+06 -1.289846E+05  2.059356E+04 -4.264032E+05 -1.544305E+04 -2.419146E+03
        56  22 -1.251478E+06 -1.786511E+05 -5.772805E+03 -4.734955E+05 -5.200551E+03  1.343887E+03
        56  23 -1.251618E+06 -1.745660E+05 -9.764151E+03 -4.707763E+05 -1.044773E+04 -3.577268E+02
        56  24 -1.252865E+06 -1.884094E+05 -2.124637E+04 -4.698315E+05 -1.554539E+04 -2.457501E+03
        56  25 -1.396358E+06 -2.324083E+05 -4.495217E+04 -5.119902E+05 -5.073107E+03  1.391789E+03
        56  26 -1.400340E+06 -2.311438E+05 -5.022860E+04 -5.117332E+05 -1.043519E+04 -3.529446E+02
        56  27 -1.405454E+06 -2.478326E+05 -6.308850E+04 -5.132502E+05 -1.564770E+04 -2.495845E+03
        57   1 -1.086833E+06 -1.189773E+05  1.891082E+04 -4.362898E+05  2.009848E+04  3.585015E+03
        57   2 -1.077984E+06 -9.595589E+04  4.007094E+03 -4.247887E+05  4.224733E+04  1.154580E+04
        57   3 -1.106225E+06 -1.735727E+05 -5.416780E+04 -3.907226E+05  6.331466E+04  2.238033E+04
        57   4 -1.256597E+06 -1.765164E+05 -2.587953E+04 -4.758221E+05  1.958156E+04  3.390822E+03
        57   5 -1.243076E+06 -1.620020E+05 -4.148182E+04 -4.736057E+05  4.256277E+04  1.166409E+04
        57   6 -1.266819E+06 -2.483073E+05 -1.010249E+05 -4.488216E+05  6.446244E+04  2.281060E+04
        57   7 -1.426334E+06 -2.340551E+05 -7.067229E+04 -5.153453E+05  1.906480E+04  3.196674E+03
        57   8 -1.408142E+06 -2.280455E+05 -8.697321E+04 -5.224107E+05  4.287812E+04  1.178234E+04
        57   9 -1.427388E+06 -3.230362E+05 -1.478844E+05 -5.069056E+05  6.560990E+04  2.324069E+04
        57  10 -1.086833E+06 -1.189774E+05  1.891004E+04 -4.362899E+05 -2.130716E-09 -5.582910E-10
        57  11 -1.077986E+06 -9.595651E+04  4.003482E+03 -4.247891E+05  1.254390E-09  4.101645E-10
        57  12 -1.106229E+06 -1.735743E+05 -5.417629E+04 -3.907237E+05  1.377674E-09 -6.392413E-10
        57  13 -1.256598E+06 -1.765165E+05 -2.588027E+04 -4.758222E+05  2.802788E-09 -1.185891E-09
        57  14 -1.243078E+06 -1.620026E+05 -4.148549E+04 -4.736061E+05  9.491366E-10 -1.871076E-10
        57  15 -1.266824E+06 -2.483090E+05 -1.010337E+05 -4.488228E+05  2.714292E-09  6.066761E-10
        57  16 -1.426335E+06 -2.340552E+05 -7.067299E+04 -5.153453E+05  1.237784E-09 -2.406673E-10
        57  17 -1.408144E+06 -2.280461E+05 -8.697694E+04 -5.224111E+05 -1.305788E-09  1.763369E-09
        57  18 -1.427393E+06 -3.230379E+05 -1.478935E+05 -5.069068E+05 -7.716716E-10  1.427478E-10
        57  19 -1.086833E+06 -1.189773E+05  1.891082E+04 -4.362898E+05 -2.009848E+04 -3.585015E+03
        57  20 -1.077984E+06 -9.595589E+04  4.007094E+03 -4.247887E+05 -4.224733E+04 -1.154580E+04
        57  21 -1.106225E+06 -1.735727E+05 -5.416780E+04 -3.907226E+05 -6.331466E+04 -2.238033E+04
        57  22 -1.256597E+06 -1.765164E+05 -2.587953E+04 -4.758221E+05 -1.958156E+04 -3.390822E+03
        57  23 -1.243076E+06 -1.620020E+05 -4.148182E+04 -4.736057E+05 -4.256277E+04 -1.166409E+04
        57  24 -1.266819E+06 -2.483073E+05 -1.010249E+05 -4.488216E+05 -6.446244E+04 -2.281060E+04
        57  25 -1.426334E+06 -2.340551E+05 -7.067229E+04 -5.153453E+05 -1.906480E+04 -3.196674E+03
        57  26 -1.408142E+06 -2.280455E+05 -8.697321E+04 -5.224107E+05 -4.287812E+04 -1.178234E+04
        57  27 -1.427388E+06 -3.230362E+05 -1.478844E+05 -5.069056E+05 -6.560990E+04 -2.324069E+04
        58   1 -1.975592E+05  6.968975E+04  8.989420E+04  1.451404E+04  6.139644E+04  1.435799E+00
        58   2 -2.107649E+05 -1.392550E+04  3.873093E+04  3.874346E+03  4.032545E+04  2.517356E-01
        58   3 -1.975682E+05 -2.920644E+03  2.494628E+04 -6.765302E+03  1.925401E+04 -2.098778E-01
        58   4 -1.975594E+05  6.968936E+04  8.989414E+04  3.280356E-08  6.139644E+04 -1.096114E-09
        58   5 -2.107649E+05 -1.392553E+04  3.873092E+04  6.517837E-09  4.032545E+04 -1.716678E-09
        58   6 -1.975682E+05 -2.920730E+03  2.494627E+04  5.884670E-08  1.925401E+04 -2.119435E-10
        58   7 -1.975592E+05  6.968975E+04  8.989420E+04 -1.451404E+04  6.139644E+04 -1.435799E+00
        58   8 -2.107649E+05 -1.392550E+04  3.873093E+04 -3.874346E+03  4.032545E+04 -2.517356E-01
        58   9 -1.975682E+05 -2.920644E+03  2.494628E+04  6.765302E+03  1.925401E+04  2.098778E-01
        58  10 -1.975632E+05  6.968874E+04  8.988711E+04  1.451404E+04  2.807455E-10 -2.499637E-10
        58  11 -2.107667E+05 -1.392594E+04  3.872787E+04  3.874346E+03  3.591180E-09 -2.842423E-10
        58  12 -1.975686E+05 -2.920744E+03  2.494559E+04 -6.765302E+03  8.579901E-10  4.671528E-10
        58  13 -1.975634E+05  6.968834E+04  8.988706E+04 -1.891014E-08 -7.797138E-11 -2.645687E-10
        58  14 -2.107667E+05 -1.392596E+04  3.872786E+04 -6.399622E-09 -1.163306E-09 -5.419436E-10
        58  15 -1.975686E+05 -2.920830E+03  2.494557E+04 -2.505476E-09 -4.759765E-10  1.207288E-10
        58  16 -1.975632E+05  6.968874E+04  8.988711E+04 -1.451404E+04 -8.455802E-10 -2.646750E-10
        58  17 -2.107667E+05 -1.392594E+04  3.872787E+04 -3.874346E+03 -3.516875E-09 -7.979998E-10
        58  18 -1.975686E+05 -2.920744E+03  2.494559E+04  6.765302E+03  1.374068E-10 -3.176059E-10
        58  19 -1.975592E+05  6.968975E+04  8.989420E+04  1.451404E+04 -6.139644E+04 -1.435799E+00
        58  20 -2.107649E+05 -1.392550E+04  3.873093E+04  3.874346E+03 -4.032545E+04 -2.517356E-01
        58  21 -1.975682E+05 -2.920644E+03  2.494628E+04 -6.765302E+03 -1.925401E+04  2.098778E-01
        58  22 -1.975594E+05  6.968936E+04  8.989414E+04 -1.697749E-09 -6.139644E+04  5.126637E-10
        58  23 -2.107649E+05 -1.392553E+04  3.873092E+04 -1.931663E-08 -4.032545E+04  6.029047E-10
        58  24 -1.975682E+05 -2.920730E+03  2.494627E+04  1.475580E-08 -1.925401E+04  4.398775E-10
        58  25 -1.975592E+05  6.968975E+04  8.989420E+04 -1.451404E+04 -6.139644E+04  1.435799E+00
        58  26 -2.107649E+05 -1.392550E+04  3.873093E+04 -3.874346E+03 -4.032545E+04  2.517356E-01
        58  27 -1.975682E+05 -2.920644E+03  2.494628E+04  6.765302E+03 -1.925401E+04 -2.098778E-01
        59   1 -2.025797E+05  9.295182E+03  2.053403E+04  1.815366E+03  1.522463E+04  4.453203E-02
        59   2 -2.045018E+05 -1.870847E+03  1.002780E+04  4.410271E+02  1.001227E+04  7.114760E-03
        59   3 -2.025811E+05 -3.822965E+02  6.079663E+03 -9.333119E+02  4.799940E+03 -7.218112E-03
        59   4 -2.025797E+05  9.295175E+03  2.053403E+04  4.084463E-08  1.522463E+04  6.457404E-10
        59   5 -2.045018E+05 -1.870847E+03  1.002780E+04  2.481450E-08  1.001227E+04  4.872030E-10
        59   6 -2.025811E+05 -3.822981E+02  6.079662E+03  4.755046E-08  4.799940E+03 -2.965263E-10
        59   7 -2.025797E+05  9.295182E+03  2.053403E+04 -1.815366E+03  1.522463E+04 -4.453202E-02
        59   8 -2.045018E+05 -1.870847E+03  1.002780E+04 -4.410271E+02  1.001227E+04 -7.114760E-03
        59   9 -2.025811E+05 -3.822965E+02  6.079663E+03  9.333119E+02  4.799940E+03  7.218112E-03
        59  10 -2.025799E+05  9.295119E+03  2.053359E+04  1.815366E+03  7.234211E-10  6.390880E-10
        59  11 -2.045019E+05 -1.870874E+03  1.002761E+04  4.410271E+02  4.281951E-09 -2.198174E-10
        59  12 -2.025811E+05 -3.823027E+02  6.079619E+03 -9.333119E+02  4.618835E-10 -3.123239E-10
        59  13 -2.025799E+05  9.295113E+03  2.053359E+04  1.498505E-08 -2.228302E-09  3.402964E-10
        59  14 -2.045019E+05 -1.870874E+03  1.002761E+04 -9.649331E-09 -2.265542E-09 -8.128904E-12
        59  15 -2.025811E+05 -3.823043E+02  6.079619E+03  2.817431E-08 -1.805853E-09  2.491620E-11
        59  16 -2.025799E+05  9.295119E+03  2.053359E+04 -1.815366E+03 -6.945820E-10  1.551882E-11
        59  17 -2.045019E+05 -1.870874E+03  1.002761E+04 -4.410271E+02 -1.701465E-09  1.364396E-10
        59  18 -2.025811E+05 -3.823027E+02  6.079619E+03  9.333119E+02 -6.977589E-10  3.616757E-10
        59  19 -2.025797E+05  9.295182E+03  2.053403E+04  1.815366E+03 -1.522463E+04 -4.453202E-02
        59  20 -2.045018E+05 -1.870847E+03  1.002780E+04  4.410271E+02 -1.001227E+04 -7.114761E-03
        59  21 -2.025811E+05 -3.822965E+02  6.079663E+03 -9.333119E+02 -4.799940E+03  7.218111E-03
        59  22 -2.025797E+05  9.295175E+03  2.053403E+04  2.358646E-08 -1.522463E+04  2.995571E-11
        59  23 -2.045018E+05 -1.870847E+03  1.002780E+04 -3.119099E-08 -1.001227E+04 -4.843644E-10
        59  24 -2.025811E+05 -3.822981E+02  6.079662E+03  1.418258E-08 -4.799940E+03  3.402673E-10
        59  25 -2.025797E+05  9.295182E+03  2.053403E+04 -1.815366E+03 -1.522463E+04  4.453203E-02
        59  26 -2.045018E+05 -1.870847E+03  1.002780E+04 -4.410271E+02 -1.001227E+04  7.114760E-03
        59  27 -2.025811E+05 -3.822965E+02  6.079663E+03  9.333119E+02 -4.799940E+03 -7.218111E-03
        60   1 -2.033061E+05  1.229984E+03  4.792921E+03  2.086444E+02  3.826983E+03  1.286544E-03
        60   2 -2.035958E+05 -2.491846E+02  2.433050E+03  3.811382E+01  2.591051E+03  1.591189E-04
        60   3 -2.033064E+05 -5.586591E+01  1.296129E+03 -1.324144E+02  1.355139E+03 -2.891215E-04
        60   4 -2.033061E+05  1.229984E+03  4.792921E+03  2.336798E-08  3.826983E+03 -1.438333E-10
        60   5 -2.035958E+05 -2.491846E+02  2.433050E+03  3.359606E-08  2.591051E+03  4.832925E-10
        60   6 -2.033064E+05 -5.586595E+01  1.296129E+03  5.674590E-08  1.355139E+03 -2.735642E-10
        60   7 -2.033061E+05  1.229984E+03  4.792921E+03 -2.086444E+02  3.826983E+03 -1.286544E-03
        60   8 -2.035958E+05 -2.491846E+02  2.433050E+03 -3.811382E+01  2.591051E+03 -1.591179E-04
        60   9 -2.033064E+05 -5.586591E+01  1.296129E+03  1.324144E+02  1.355139E+03  2.891211E-04
        60  10 -2.033061E+05  1.229980E+03  4.792893E+03  2.086444E+02  4.187082E-10  1.975169E-10
        60  11 -2.035958E+05 -2.491864E+02  2.433037E+03  3.811382E+01  2.069373E-10  6.390881E-10
        60  12 -2.033064E+05 -5.586641E+01  1.296126E+03 -1.324144E+02 -3.682573E-09 -2.244151E-10
        60  13 -2.033061E+05  1.229980E+03  4.792893E+03  1.476394E-08  2.219109E-09  2.743063E-10
        60  14 -2.035958E+05 -2.491864E+02  2.433037E+03  2.497454E-08 -3.230664E-09  3.841375E-10
        60  15 -2.033064E+05 -5.586644E+01  1.296126E+03  8.256736E-08  4.209093E-10 -2.300439E-10
        60  16 -2.033061E+05  1.229980E+03  4.792893E+03 -2.086444E+02  2.282463E-10  3.345354E-10
        60  17 -2.035958E+05 -2.491864E+02  2.433037E+03 -3.811382E+01 -1.582610E-09  1.688181E-10
        60  18 -2.033064E+05 -5.586641E+01  1.296126E+03  1.324144E+02 -1.087142E-09 -1.947484E-10
        60  19 -2.033061E+05  1.229984E+03  4.792921E+03  2.086444E+02 -3.826983E+03 -1.286543E-03
        60  20 -2.035958E+05 -2.491846E+02  2.433050E+03  3.811382E+01 -2.591051E+03 -1.591175E-04
        60  21 -2.033064E+05 -5.586591E+01  1.296129E+03 -1.324144E+02 -1.355139E+03  2.891213E-04
        60  22 -2.033061E+05  1.229984E+03  4.792921E+03  2.338927E-08 -3.826983E+03  7.063501E-10
        60  23 -2.035958E+05 -2.491846E+02  2.433050E+03  3.358265E-08 -2.591051E+03  2.981788E-10
        60  24 -2.033064E+05 -5.586595E+01  1.296129E+03  9.869658E-08 -1.355139E+03 -1.665321E-10
        60  25 -2.033061E+05  1.229984E+03  4.792921E+03 -2.086444E+02 -3.826983E+03  1.286545E-03
        60  26 -2.035958E+05 -2.491846E+02  2.433050E+03 -3.811382E+01 -2.591051E+03  1.591181E-04
        60  27 -2.033064E+05 -5.586591E+01  1.296129E+03  1.324144E+02 -1.355139E+03 -2.891216E-04
        61   1 -2.034255E+05  1.620973E+02  8.893117E+02  1.085170E+01  1.158636E+03  2.025718E-05
        61   2 -2.034471E+05 -1.981770E+01  1.479775E+02 -3.229441E+00  1.082812E+03 -5.635317E-06
        61   3 -2.034255E+05 -6.818174E+01 -5.105859E+02 -1.731080E+01  1.006987E+03 -2.808561E-05
        61   4 -2.034255E+05  1.620973E+02  8.893117E+02  3.142789E-08  1.158636E+03 -1.109528E-09
        61   5 -2.034471E+05 -1.981770E+01  1.479775E+02 -1.818078E-08  1.082812E+03 -9.667556E-10
        61   6 -2.034255E+05 -6.818174E+01 -5.105859E+02 -2.579156E-08  1.006987E+03  1.147404E-09
        61   7 -2.034255E+05  1.620973E+02  8.893117E+02 -1.085170E+01  1.158636E+03 -2.025947E-05
        61   8 -2.034471E+05 -1.981770E+01  1.479775E+02  3.229441E+00  1.082812E+03  5.633256E-06
        61   9 -2.034255E+05 -6.818174E+01 -5.105859E+02  1.731080E+01  1.006987E+03  2.808786E-05
        61  10 -2.034255E+05  1.620970E+02  8.893092E+02  1.085170E+01 -2.271648E-09 -5.627655E-10
        61  11 -2.034471E+05 -1.981801E+01  1.479753E+02 -3.229441E+00 -4.249336E-09 -1.737755E-10
        61  12 -2.034255E+05 -6.818201E+01 -5.105878E+02 -1.731080E+01  2.041042E-10 -4.059080E-10
        61  13 -2.034255E+05  1.620970E+02  8.893092E+02  4.005369E-08 -2.153773E-09 -4.104117E-10
        61  14 -2.034471E+05 -1.981801E+01  1.479753E+02 -2.248806E-08 -4.272878E-09 -2.261359E-10
        61  15 -2.034255E+05 -6.818201E+01 -5.105878E+02 -1.033238E-09 -3.849728E-09 -4.346874E-10
        61  16 -2.034255E+05  1.620970E+02  8.893092E+02 -1.085170E+01  2.782786E-09 -2.831911E-10
        61  17 -2.034471E+05 -1.981801E+01  1.479753E+02  3.229441E+00  4.322874E-09 -2.345537E-10
        61  18 -2.034255E+05 -6.818201E+01 -5.105878E+02  1.731080E+01 -1.779685E-10 -4.394535E-10
        61  19 -2.034255E+05  1.620973E+02  8.893117E+02  1.085170E+01 -1.158636E+03 -2.025824E-05
        61  20 -2.034471E+05 -1.981770E+01  1.479775E+02 -3.229441E+00 -1.082812E+03  5.634990E-06
        61  21 -2.034255E+05 -6.818174E+01 -5.105859E+02 -1.731080E+01 -1.006987E+03  2.808482E-05
        61  22 -2.034255E+05  1.620973E+02  8.893117E+02  6.590920E-08 -1.158636E+03  2.837244E-10
        61  23 -2.034471E+05 -1.981770E+01  1.479775E+02  1.197183E-08 -1.082812E+03  4.998381E-10
        61  24 -2.034255E+05 -6.818174E+01 -5.105859E+02  1.726397E-08 -1.006987E+03 -2.022161E-09
        61  25 -2.034255E+05  1.620973E+02  8.893117E+02 -1.085170E+01 -1.158636E+03  2.025890E-05
        61  26 -2.034471E+05 -1.981770E+01  1.479775E+02  3.229441E+00 -1.082812E+03 -5.634006E-06
        61  27 -2.034255E+05 -6.818174E+01 -5.105859E+02  1.731080E+01 -1.006987E+03 -2.808900E-05
        62   1 -2.034979E+05  3.814441E+01 -8.666489E+02 -5.796063E+01  1.131344E+03 -1.056534E-04
        62   2 -2.033568E+05  9.893652E+01 -1.818431E+03  1.421757E-02  2.042809E+03  4.646611E-08
        62   3 -2.034980E+05 -4.941861E+02 -3.527236E+03  5.798912E+01  2.954273E+03  2.760313E-04
        62   4 -2.034979E+05  3.814440E+01 -8.666489E+02 -1.880255E-09  1.131344E+03  1.370071E-09
        62   5 -2.033568E+05  9.893652E+01 -1.818431E+03 -1.392281E-08  2.042809E+03 -1.967954E-10
        62   6 -2.034980E+05 -4.941861E+02 -3.527236E+03  1.172463E-08  2.954273E+03 -2.434461E-10
        62   7 -2.034979E+05  3.814441E+01 -8.666489E+02  5.796063E+01  1.131344E+03  1.056561E-04
        62   8 -2.033568E+05  9.893652E+01 -1.818431E+03 -1.421731E-02  2.042809E+03 -4.699168E-08
        62   9 -2.034980E+05 -4.941861E+02 -3.527236E+03 -5.798912E+01  2.954273E+03 -2.760319E-04
        62  10 -2.034979E+05  3.814407E+01 -8.666513E+02 -5.796063E+01 -2.905590E-09 -2.920175E-10
        62  11 -2.033568E+05  9.893540E+01 -1.818439E+03  1.421719E-02 -2.198075E-09  2.517961E-10
        62  12 -2.034980E+05 -4.941885E+02 -3.527252E+03  5.798912E+01  2.498218E-09  5.448774E-11
        62  13 -2.034979E+05  3.814406E+01 -8.666513E+02 -1.908750E-08 -2.296309E-09 -2.519221E-10
        62  14 -2.033568E+05  9.893540E+01 -1.818439E+03 -3.545884E-08 -5.531166E-09  2.733696E-10
        62  15 -2.034980E+05 -4.941885E+02 -3.527252E+03 -1.306276E-08 -1.651252E-09 -8.960114E-11
        62  16 -2.034979E+05  3.814407E+01 -8.666513E+02  5.796063E+01 -8.812657E-10 -2.453160E-10
        62  17 -2.033568E+05  9.893540E+01 -1.818439E+03 -1.421744E-02 -2.684591E-09  2.755771E-10
        62  18 -2.034980E+05 -4.941885E+02 -3.527252E+03 -5.798912E+01 -1.244022E-09 -2.231562E-10
        62  19 -2.034979E+05  3.814441E+01 -8.666489E+02 -5.796063E+01 -1.131344E+03  1.056529E-04
        62  20 -2.033568E+05  9.893652E+01 -1.818431E+03  1.421737E-02 -2.042809E+03 -4.586315E-08
        62  21 -2.034980E+05 -4.941861E+02 -3.527236E+03  5.798912E+01 -2.954273E+03 -2.760311E-04
        62  22 -2.034979E+05  3.814440E+01 -8.666489E+02  1.539613E-08 -1.131344E+03 -1.896264E-09
        62  23 -2.033568E+05  9.893652E+01 -1.818431E+03 -3.545673E-08 -2.042809E+03  7.345842E-10
        62  24 -2.034980E+05 -4.941861E+02 -3.527236E+03 -2.600315E-08 -2.954273E+03  4.384617E-11
        62  25 -2.034979E+05  3.814441E+01 -8.666489E+02  5.796063E+01 -1.131344E+03 -1.056568E-04
        62  26 -2.033568E+05  9.893652E+01 -1.818431E+03 -1.421726E-02 -2.042809E+03  4.741578E-08
        62  27 -2.034980E+05 -4.941861E+02 -3.527236E+03 -5.798912E+01 -2.954273E+03  2.760311E-04
        63   1 -2.038382E+05  1.517363E+02 -4.592797E+03 -4.040545E+02  3.685075E+03 -2.399096E-03
        63   2 -2.029319E+05  7.725805E+02 -7.833457E+03  1.213313E+02  7.660229E+03  1.497530E-03
        63   3 -2.038389E+05 -3.788431E+03 -1.495813E+04  6.467104E+02  1.163531E+04  1.212408E-02
        63   4 -2.038382E+05  1.517360E+02 -4.592797E+03  7.634160E-08  3.685075E+03  7.253953E-11
        63   5 -2.029319E+05  7.725804E+02 -7.833457E+03  1.477351E-08  7.660229E+03  6.444626E-11
        63   6 -2.038389E+05 -3.788432E+03 -1.495813E+04  1.458735E-08  1.163531E+04 -4.337766E-10
        63   7 -2.038382E+05  1.517363E+02 -4.592797E+03  4.040545E+02  3.685075E+03  2.399097E-03
        63   8 -2.029319E+05  7.725805E+02 -7.833457E+03 -1.213313E+02  7.660229E+03 -1.497530E-03
        63   9 -2.038389E+05 -3.788431E+03 -1.495813E+04 -6.467104E+02  1.163531E+04 -1.212408E-02
        63  10 -2.038382E+05  1.517327E+02 -4.592822E+03 -4.040545E+02  9.611727E-10 -1.135811E-10
        63  11 -2.029320E+05  7.725647E+02 -7.833568E+03  1.213313E+02  3.313446E-09 -3.702281E-11
        63  12 -2.038391E+05 -3.788467E+03 -1.495839E+04  6.467104E+02  5.562455E-10  2.627859E-10
        63  13 -2.038382E+05  1.517324E+02 -4.592822E+03  2.465781E-08 -5.772305E-27 -2.906494E-10
        63  14 -2.029320E+05  7.725647E+02 -7.833568E+03 -2.829369E-08 -1.004047E-09 -1.634878E-11
        63  15 -2.038391E+05 -3.788468E+03 -1.495839E+04  9.213294E-09  3.220949E-11  3.477646E-10
        63  16 -2.038382E+05  1.517327E+02 -4.592822E+03  4.040545E+02 -3.085881E-09 -4.639370E-10
        63  17 -2.029320E+05  7.725647E+02 -7.833568E+03 -1.213313E+02 -1.210411E-09 -9.179353E-12
        63  18 -2.038391E+05 -3.788467E+03 -1.495839E+04 -6.467104E+02  2.865053E-10  4.370483E-10
        63  19 -2.038382E+05  1.517363E+02 -4.592797E+03 -4.040545E+02 -3.685075E+03  2.399096E-03
        63  20 -2.029319E+05  7.725805E+02 -7.833457E+03  1.213313E+02 -7.660229E+03 -1.497530E-03
        63  21 -2.038389E+05 -3.788431E+03 -1.495813E+04  6.467104E+02 -1.163531E+04 -1.212408E-02
        63  22 -2.038382E+05  1.517360E+02 -4.592797E+03  1.604981E-08 -3.685075E+03 -6.593872E-10
        63  23 -2.029319E+05  7.725804E+02 -7.833457E+03 -7.136134E-08 -7.660229E+03 -8.844610E-11
        63  24 -2.038389E+05 -3.788432E+03 -1.495813E+04 -4.693851E-10 -1.163531E+04  1.199421E-09
        63  25 -2.038382E+05  1.517363E+02 -4.592797E+03  4.040545E+02 -3.685075E+03 -2.399098E-03
        63  26 -2.029319E+05  7.725805E+02 -7.833457E+03 -1.213313E+02 -7.660229E+03  1.497529E-03
        63  27 -2.038389E+05 -3.788431E+03 -1.495813E+04 -6.467104E+02 -1.163531E+04  1.212408E-02
        64   1 -2.060670E+05  1.175680E+03 -1.887421E+04 -2.873297E+03  1.466333E+04 -6.788529E-02
        64   2 -2.001472E+05  5.763620E+03 -3.096907E+04  1.359768E+03  3.076011E+04  6.739241E-02
        64   3 -2.060702E+05 -2.863249E+04 -6.329066E+04  5.592896E+03  4.685697E+04  4.222517E-01
        64   4 -2.060670E+05  1.175665E+03 -1.887421E+04  3.818657E-08  1.466333E+04 -3.363803E-10
        64   5 -2.001472E+05  5.763617E+03 -3.096907E+04 -4.675443E-09  3.076011E+04  2.593528E-10
        64   6 -2.060702E+05 -2.863255E+04 -6.329067E+04  3.538344E-08  4.685697E+04 -4.159576E-10
        64   7 -2.060670E+05  1.175680E+03 -1.887421E+04  2.873297E+03  1.466333E+04  6.788529E-02
        64   8 -2.001472E+05  5.763620E+03 -3.096907E+04 -1.359768E+03  3.076011E+04 -6.739241E-02
        64   9 -2.060702E+05 -2.863249E+04 -6.329066E+04 -5.592896E+03  4.685697E+04 -4.222517E-01
        64  10 -2.060673E+05  1.175622E+03 -1.887461E+04 -2.873297E+03  1.951743E-09  6.840081E-12
        64  11 -2.001482E+05  5.763366E+03 -3.097085E+04  1.359768E+03 -6.055348E-10 -4.284017E-10
        64  12 -2.060725E+05 -2.863308E+04 -6.329478E+04  5.592896E+03  1.722175E-09  4.653297E-10
        64  13 -2.060673E+05  1.175607E+03 -1.887462E+04  2.954073E-08  2.103099E-12  7.240852E-11
        64  14 -2.001482E+05  5.763362E+03 -3.097085E+04 -4.674267E-09 -1.076858E-09 -4.988265E-10
        64  15 -2.060726E+05 -2.863314E+04 -6.329479E+04 -3.242759E-08  2.339545E-10  1.699444E-10
        64  16 -2.060673E+05  1.175622E+03 -1.887461E+04  2.873297E+03  7.072734E-10  1.320954E-10
        64  17 -2.001482E+05  5.763366E+03 -3.097085E+04 -1.359768E+03 -9.147162E-10 -5.706628E-10
        64  18 -2.060725E+05 -2.863308E+04 -6.329478E+04 -5.592896E+03 -1.479458E-09 -1.176652E-10
        64  19 -2.060670E+05  1.175680E+03 -1.887421E+04 -2.873297E+03 -1.466333E+04  6.788529E-02
        64  20 -2.001472E+05  5.763620E+03 -3.096907E+04  1.359768E+03 -3.076011E+04 -6.739241E-02
        64  21 -2.060702E+05 -2.863249E+04 -6.329066E+04  5.592896E+03 -4.685697E+04 -4.222517E-01
        64  22 -2.060670E+05  1.175665E+03 -1.887421E+04  5.535674E-08 -1.466333E+04  4.777437E-10
        64  23 -2.001472E+05  5.763617E+03 -3.096907E+04 -4.672921E-09 -3.076011E+04 -1.256958E-09
        64  24 -2.060702E+05 -2.863255E+04 -6.329067E+04 -3.239561E-08 -4.685697E+04  7.647530E-10
        64  25 -2.060670E+05  1.175680E+03 -1.887421E+04  2.873297E+03 -1.466333E+04 -6.788529E-02
        64  26 -2.001472E+05  5.763620E+03 -3.096907E+04 -1.359768E+03 -3.076011E+04  6.739241E-02
        64  27 -2.060702E+05 -2.863249E+04 -6.329066E+04 -5.592896E+03 -4.685697E+04  4.222517E-01
        65   1 -2.215036E+05  8.998524E+03 -7.686340E+04 -2.083899E+04  5.927152E+04 -1.990189E+00
        65   2 -1.808484E+05  4.289729E+04 -1.192721E+05  1.193661E+04  1.241913E+05  2.388450E+00
        65   3 -2.215126E+05 -2.146620E+05 -2.768049E+05  4.471026E+04  1.891124E+05  1.362343E+01
        65   4 -2.215040E+05  8.997707E+03 -7.686351E+04  5.683256E-08  5.927152E+04  3.070759E-10
        65   5 -1.808486E+05  4.289702E+04 -1.192721E+05  4.460673E-09  1.241913E+05  2.308233E-09
        65   6 -2.215147E+05 -2.146658E+05 -2.768054E+05  1.992842E-08  1.891124E+05 -1.358091E-09
        65   7 -2.215036E+05  8.998524E+03 -7.686340E+04  2.083899E+04  5.927152E+04  1.990189E+00
        65   8 -1.808484E+05  4.289729E+04 -1.192721E+05 -1.193661E+04  1.241913E+05 -2.388450E+00
        65   9 -2.215126E+05 -2.146620E+05 -2.768049E+05 -4.471026E+04  1.891124E+05 -1.362343E+01
        65  10 -2.215073E+05  8.997580E+03 -7.687000E+04 -2.083899E+04  2.448303E-09  5.422370E-10
        65  11 -1.808650E+05  4.289315E+04 -1.193011E+05  1.193661E+04 -6.662685E-10 -3.085213E-10
        65  12 -2.215510E+05 -2.146716E+05 -2.768721E+05  4.471026E+04 -1.733406E-09  6.809533E-12
        65  13 -2.215078E+05  8.996764E+03 -7.687012E+04  1.373413E-08 -1.995132E-09  3.104973E-10
        65  14 -1.808651E+05  4.289288E+04 -1.193011E+05  4.455085E-09  1.967730E-09 -2.696712E-10
        65  15 -2.215532E+05 -2.146754E+05 -2.768726E+05  1.670918E-08 -1.366248E-09 -1.493790E-10
        65  16 -2.215073E+05  8.997580E+03 -7.687000E+04  2.083899E+04 -4.078719E-09  1.044280E-10
        65  17 -1.808650E+05  4.289315E+04 -1.193011E+05 -1.193661E+04  6.001216E-10 -1.049498E-10
        65  18 -2.215510E+05 -2.146716E+05 -2.768721E+05 -4.471026E+04  5.492067E-10 -1.318113E-10
        65  19 -2.215036E+05  8.998524E+03 -7.686340E+04 -2.083899E+04 -5.927152E+04  1.990189E+00
        65  20 -1.808484E+05  4.289729E+04 -1.192721E+05  1.193661E+04 -1.241913E+05 -2.388450E+00
        65  21 -2.215126E+05 -2.146620E+05 -2.768049E+05  4.471026E+04 -1.891124E+05 -1.362343E+01
        65  22 -2.215040E+05  8.997707E+03 -7.686351E+04  2.232673E-08 -5.927152E+04  3.196391E-10
        65  23 -1.808486E+05  4.289702E+04 -1.192721E+05  4.449020E-09 -1.241913E+05 -2.776352E-09
        65  24 -2.215147E+05 -2.146658E+05 -2.768054E+05 -1.450847E-08 -1.891124E+05  4.574744E-11
        65  25 -2.215036E+05  8.998524E+03 -7.686340E+04  2.083899E+04 -5.927152E+04 -1.990189E+00
        65  26 -1.808484E+05  4.289729E+04 -1.192721E+05 -1.193661E+04 -1.241913E+05  2.388450E+00
        65  27 -2.215126E+05 -2.146620E+05 -2.768049E+05 -4.471026E+04 -1.891124E+05  1.362343E+01
        66   1  1.547693E+04 -6.043964E+05  1.167544E+04  9.475828E+03  8.581472E+02 -1.221831E+04
        66   2  3.455881E+04 -5.905678E+05  2.493024E+04  5.490089E+02  2.750785E+03 -9.116077E+03
        66   3  3.601186E+04 -5.814981E+05  3.176763E+04  5.451869E+03  3.005215E+03 -6.013691E+03
        66   4 -1.370398E+04 -7.211743E+05 -1.736618E+04  6.702945E+03  8.582303E+02 -1.306199E+04
        66   5  2.602942E+03 -7.187470E+05 -6.579199E+03 -2.115475E+02  2.750883E+03 -9.449569E+03
        66   6  1.190461E+03 -7.211684E+05 -2.565072E+03  6.703892E+03  3.005198E+03 -5.837041E+03
        66   7 -4.288589E+04 -8.379397E+05 -4.640881E+04  3.930585E+03  8.583210E+02 -1.390551E+04
        66   8 -2.935415E+04 -8.469112E+05 -3.808985E+04 -9.719459E+02  2.750983E+03 -9.782992E+03
        66   9 -3.363238E+04 -8.608210E+05 -3.689921E+04  7.955634E+03  3.005183E+03 -5.660430E+03
        66  10  1.547689E+04 -6.043965E+05  1.167516E+04  9.475836E+03  4.645515E-10  3.279764E-10
        66  11  3.455878E+04 -5.905679E+05  2.493007E+04  5.490291E+02  5.863731E-09  7.346740E-10
        66  12  3.601184E+04 -5.814981E+05  3.176755E+04  5.451883E+03  1.970184E-09 -6.820332E-10
        66  13 -1.370403E+04 -7.211744E+05 -1.736650E+04  6.702954E+03 -9.558439E-11 -7.363630E-11
        66  14  2.602909E+03 -7.187471E+05 -6.579381E+03 -2.115266E+02 -1.389398E-09 -5.745068E-11
        66  15  1.190442E+03 -7.211685E+05 -2.565153E+03  6.703906E+03 -1.254578E-09 -1.122995E-10
        66  16 -4.288595E+04 -8.379400E+05 -4.640918E+04  3.930595E+03  5.751133E-10 -3.464062E-10
        66  17 -2.935418E+04 -8.469113E+05 -3.809004E+04 -9.719242E+02 -1.782456E-10 -7.045573E-10
        66  18 -3.363240E+04 -8.608210E+05 -3.689929E+04  7.955648E+03 -3.128761E-09  8.087284E-10
        66  19  1.547693E+04 -6.043964E+05  1.167544E+04  9.475828E+03 -8.581472E+02  1.221831E+04
        66  20  3.455881E+04 -5.905678E+05  2.493024E+04  5.490089E+02 -2.750785E+03  9.116077E+03
        66  21  3.601186E+04 -5.814981E+05  3.176763E+04  5.451869E+03 -3.005215E+03  6.013691E+03
        66  22 -1.370398E+04 -7.211743E+05 -1.736618E+04  6.702945E+03 -8.582303E+02  1.306199E+04
        66  23  2.602942E+03 -7.187470E+05 -6.579199E+03 -2.115475E+02 -2.750883E+03  9.449569E+03
        66  24  1.190461E+03 -7.211684E+05 -2.565072E+03  6.703892E+03 -3.005198E+03  5.837041E+03
        66  25 -4.288589E+04 -8.379397E+05 -4.640881E+04  3.930585E+03 -8.583210E+02  1.390551E+04
        66  26 -2.935415E+04 -8.469112E+05 -3.808985E+04 -9.719459E+02 -2.750983E+03  9.782992E+03
        66  27 -3.363238E+04 -8.608210E+05 -3.689921E+04  7.955634E+03 -3.005183E+03  5.660430E+03
        67   1  3.991529E+04 -5.516651E+05  4.043732E+04  6.289589E+03  3.064542E+03 -5.243051E+03
        67   2  4.395688E+04 -5.417764E+05  4.707513E+04  3.353978E+02  3.650998E+03 -7.067631E+03
        67   3  5.200885E+04 -5.305367E+05  5.592673E+04  7.099785E+03  3.585377E+03 -8.892438E+03
        67   4 -2.024207E+03 -7.198029E+05 -1.004373E+03  6.454916E+03  3.064695E+03 -5.526287E+03
        67   5 -5.961681E+02 -7.204591E+05  3.114531E+03  9.755562E+01  3.651111E+03 -7.147109E+03
        67   6  4.807495E+03 -7.197994E+05  9.306094E+03  6.458995E+03  3.585370E+03 -8.768127E+03
        67   7 -4.396581E+04 -8.879150E+05 -4.244816E+04  6.620202E+03  3.064848E+03 -5.809447E+03
        67   8 -4.515159E+04 -8.991127E+05 -4.084842E+04 -1.402141E+02  3.651225E+03 -7.226564E+03
        67   9 -4.239652E+04 -9.090295E+05 -3.731719E+04  5.818405E+03  3.585362E+03 -8.643854E+03
        67  10  3.991527E+04 -5.516652E+05  4.043725E+04  6.289602E+03 -1.047484E-09 -3.684409E-09
        67  11  4.395685E+04 -5.417765E+05  4.707501E+04  3.354186E+02 -1.282540E-09  3.346935E-10
        67  12  5.200881E+04 -5.305368E+05  5.592655E+04  7.099811E+03 -1.793697E-09  4.574239E-09
        67  13 -2.024225E+03 -7.198030E+05 -1.004449E+03  6.454930E+03 -3.719533E-09 -4.017650E-10
        67  14 -5.961962E+02 -7.204592E+05  3.114409E+03  9.757664E+01 -1.602160E-09 -2.820637E-10
        67  15  4.807461E+03 -7.197995E+05  9.305925E+03  6.459020E+03  1.078631E-09 -3.639042E-10
        67  16 -4.396583E+04 -8.879150E+05 -4.244824E+04  6.620216E+03 -1.411932E-09  3.939583E-09
        67  17 -4.515162E+04 -8.991128E+05 -4.084855E+04 -1.401928E+02  8.028006E-10 -1.997633E-10
        67  18 -4.239656E+04 -9.090295E+05 -3.731735E+04  5.818430E+03 -3.659842E-09 -4.178112E-09
        67  19  3.991529E+04 -5.516651E+05  4.043732E+04  6.289589E+03 -3.064542E+03  5.243051E+03
        67  20  4.395688E+04 -5.417764E+05  4.707513E+04  3.353978E+02 -3.650998E+03  7.067631E+03
        67  21  5.200885E+04 -5.305367E+05  5.592673E+04  7.099785E+03 -3.585377E+03  8.892438E+03
        67  22 -2.024207E+03 -7.198029E+05 -1.004373E+03  6.454916E+03 -3.064695E+03  5.526287E+03
        67  23 -5.961681E+02 -7.204591E+05  3.114531E+03  9.755562E+01 -3.651111E+03  7.147109E+03
        67  24  4.807495E+03 -7.197994E+05  9.306094E+03  6.458995E+03 -3.585370E+03  8.768127E+03
        67  25 -4.396581E+04 -8.879150E+05 -4.244816E+04  6.620202E+03 -3.064848E+03  5.809447E+03
        67  26 -4.515159E+04 -8.991127E+05 -4.084842E+04 -1.402141E+02 -3.651225E+03  7.226564E+03
        67  27 -4.239652E+04 -9.090295E+05 -3.731719E+04  5.818405E+03 -3.585362E+03  8.643854E+03
        68   1  5.187546E+04 -5.020654E+05  6.474829E+04  2.577130E+03  4.339246E+03 -9.857300E+03
        68   2  4.883559E+04 -4.995164E+05  7.449450E+04  2.313975E+03  4.945173E+03 -2.161263E+04
        68   3  9.402545E+04 -4.831998E+05  1.039920E+05  1.333315E+04  1.710638E+03 -3.337249E+04
        68   4 -1.746335E+03 -7.170844E+05  1.183635E+04  6.123150E+03  4.339929E+03 -1.063937E+04
        68   5 -7.082773E+03 -7.238590E+05  1.937273E+04  5.045044E+02  4.944920E+03 -2.119381E+04
        68   6  3.561109E+04 -7.170700E+05  4.583077E+04  6.168389E+03  1.709041E+03 -3.175259E+04
        68   7 -5.537153E+04 -9.320612E+05 -4.107899E+04  9.667948E+03  4.340603E+03 -1.142117E+04
        68   8 -6.300487E+04 -9.481558E+05 -3.575275E+04 -1.304299E+03  4.944664E+03 -2.077514E+04
        68   9 -2.280718E+04 -9.508903E+05 -1.233451E+04 -9.936532E+02  1.707407E+03 -3.013330E+04
        68  10  5.187542E+04 -5.020655E+05  6.474808E+04  2.577165E+03 -1.150813E-10  3.489476E-09
        68  11  4.883544E+04 -4.995169E+05  7.449358E+04  2.314061E+03  1.595187E-09  1.666167E-09
        68  12  9.402515E+04 -4.832010E+05  1.039899E+05  1.333320E+04  6.384436E-10 -3.010987E-10
        68  13 -1.746386E+03 -7.170845E+05  1.183611E+04  6.123188E+03 -2.839415E-10 -8.960923E-10
        68  14 -7.082920E+03 -7.238595E+05  1.937184E+04  5.045888E+02  8.280346E-10 -5.123771E-10
        68  15  3.561082E+04 -7.170710E+05  4.582887E+04  6.168433E+03  8.955789E-10 -5.229345E-10
        68  16 -5.537159E+04 -9.320614E+05 -4.107927E+04  9.667988E+03 -5.664450E-09 -2.983638E-09
        68  17 -6.300501E+04 -9.481562E+05 -3.575361E+04 -1.304216E+03 -3.909196E-09 -1.377911E-09
        68  18 -2.280742E+04 -9.508913E+05 -1.233622E+04 -9.936118E+02  1.192887E-09  1.214541E-09
        68  19  5.187546E+04 -5.020654E+05  6.474829E+04  2.577130E+03 -4.339246E+03  9.857300E+03
        68  20  4.883559E+04 -4.995164E+05  7.449450E+04  2.313975E+03 -4.945173E+03  2.161263E+04
        68  21  9.402545E+04 -4.831998E+05  1.039920E+05  1.333315E+04 -1.710638E+03  3.337249E+04
        68  22 -1.746335E+03 -7.170844E+05  1.183635E+04  6.123150E+03 -4.339929E+03  1.063937E+04
        68  23 -7.082773E+03 -7.238590E+05  1.937273E+04  5.045044E+02 -4.944920E+03  2.119381E+04
        68  24  3.561109E+04 -7.170700E+05  4.583077E+04  6.168389E+03 -1.709041E+03  3.175259E+04
        68  25 -5.537153E+04 -9.320612E+05 -4.107899E+04  9.667948E+03 -4.340603E+03  1.142117E+04
        68  26 -6.300487E+04 -9.481558E+05 -3.575275E+04 -1.304299E+03 -4.944664E+03  2.077514E+04
        68  27 -2.280718E+04 -9.508903E+05 -1.233451E+04 -9.936532E+02 -1.707407E+03  3.013330E+04
        69   1 -6.874654E+05 -1.264663E+05 -3.288972E+04 -2.539395E+05 -1.280081E+04 -4.388378E+03
        69   2 -6.807792E+05 -1.034526E+05 -1.958389E+04 -2.524372E+05 -8.353434E+03 -1.996216E+03
        69   3 -6.761570E+05 -1.051168E+05 -1.496948E+04 -2.525308E+05 -3.554236E+03 -5.420502E+02
        69   4 -6.404891E+05 -1.060591E+05 -1.947901E+04 -2.384124E+05 -1.247919E+04 -4.267850E+03
        69   5 -6.385081E+05 -8.682043E+04 -8.002639E+03 -2.402108E+05 -8.305265E+03 -1.978174E+03
        69   6 -6.385362E+05 -9.220459E+04 -5.000405E+03 -2.436053E+05 -3.779562E+03 -6.265115E+02
        69   7 -5.935109E+05 -8.565171E+04 -6.068545E+03 -2.228843E+05 -1.215755E+04 -4.147309E+03
        69   8 -5.962352E+05 -7.018811E+04  3.578440E+03 -2.279836E+05 -8.257093E+03 -1.960130E+03
        69   9 -6.009140E+05 -7.929236E+04  4.968559E+03 -2.346794E+05 -4.004903E+03 -7.109773E+02
        69  10 -6.874656E+05 -1.264663E+05 -3.289007E+04 -2.539395E+05 -8.659659E-10  6.660928E-12
        69  11 -6.807793E+05 -1.034527E+05 -1.958403E+04 -2.524372E+05  1.630424E-09  2.017128E-10
        69  12 -6.761570E+05 -1.051168E+05 -1.496950E+04 -2.525308E+05  4.086311E-10  2.085313E-10
        69  13 -6.404893E+05 -1.060592E+05 -1.947933E+04 -2.384125E+05 -5.363119E-11  1.587979E-10
        69  14 -6.385081E+05 -8.682046E+04 -8.002776E+03 -2.402108E+05 -1.313939E-10  3.539621E-10
        69  15 -6.385362E+05 -9.220459E+04 -5.000433E+03 -2.436053E+05  1.265940E-09  3.105206E-10
        69  16 -5.935110E+05 -8.565176E+04 -6.068856E+03 -2.228843E+05 -6.090376E-12  5.804865E-11
        69  17 -5.962353E+05 -7.018813E+04  3.578305E+03 -2.279836E+05 -1.608820E-09  6.471633E-10
        69  18 -6.009140E+05 -7.929237E+04  4.968528E+03 -2.346794E+05  2.634191E-09 -3.613155E-10
        69  19 -6.874654E+05 -1.264663E+05 -3.288972E+04 -2.539395E+05  1.280081E+04  4.388378E+03
        69  20 -6.807792E+05 -1.034526E+05 -1.958389E+04 -2.524372E+05  8.353434E+03  1.996216E+03
        69  21 -6.761570E+05 -1.051168E+05 -1.496948E+04 -2.525308E+05  3.554236E+03  5.420502E+02
        69  22 -6.404891E+05 -1.060591E+05 -1.947901E+04 -2.384124E+05  1.247919E+04  4.267850E+03
        69  23 -6.385081E+05 -8.682043E+04 -8.002639E+03 -2.402108E+05  8.305265E+03  1.978174E+03
        69  24 -6.385362E+05 -9.220459E+04 -5.000405E+03 -2.436053E+05  3.779562E+03  6.265115E+02
        69  25 -5.935109E+05 -8.565171E+04 -6.068545E+03 -2.228843E+05  1.215755E+04  4.147309E+03
        69  26 -5.962352E+05 -7.018811E+04  3.578440E+03 -2.279836E+05  8.257093E+03  1.960130E+03
        69  27 -6.009140E+05 -7.929236E+04  4.968559E+03 -2.346794E+05  4.004903E+03  7.109773E+02
        70   1 -6.565505E+05 -1.018462E+05 -9.244956E+03 -2.478445E+05 -2.907057E+03 -6.209551E+02
        70   2 -6.526979E+05 -9.412551E+04 -5.336343E+03 -2.432387E+05 -1.815343E+03 -3.666061E+02
        70   3 -6.440977E+05 -9.485693E+04 -2.911231E+03 -2.446961E+05 -6.801122E+02 -2.283312E+02
        70   4 -6.378563E+05 -9.445833E+04 -4.110677E+03 -2.424055E+05 -2.929805E+03 -6.294850E+02
        70   5 -6.401008E+05 -8.929533E+04 -1.905921E+03 -2.397262E+05 -1.871938E+03 -3.878203E+02
        70   6 -6.375912E+05 -9.257769E+04 -1.157799E+03 -2.431101E+05 -7.705679E+02 -2.622339E+02
        70   7 -6.191617E+05 -8.707043E+04  1.023567E+03 -2.369664E+05 -2.952554E+03 -6.380152E+02
        70   8 -6.275037E+05 -8.446516E+04  1.524480E+03 -2.362137E+05 -1.928534E+03 -4.090350E+02
        70   9 -6.310847E+05 -9.029845E+04  5.956243E+02 -2.415241E+05 -8.610244E+02 -2.961369E+02
        70  10 -6.565505E+05 -1.018462E+05 -9.244973E+03 -2.478445E+05  1.946612E-09 -1.181370E-10
        70  11 -6.526979E+05 -9.412551E+04 -5.336350E+03 -2.432387E+05  1.281241E-09  2.942586E-11
        70  12 -6.440977E+05 -9.485693E+04 -2.911232E+03 -2.446961E+05 -6.439122E-10  4.883369E-10
        70  13 -6.378563E+05 -9.445833E+04 -4.110694E+03 -2.424055E+05  1.975820E-09 -3.762372E-10
        70  14 -6.401008E+05 -8.929533E+04 -1.905928E+03 -2.397262E+05  1.795786E-09  1.061291E-10
        70  15 -6.375912E+05 -9.257769E+04 -1.157800E+03 -2.431101E+05 -2.554628E-10  6.096384E-10
        70  16 -6.191617E+05 -8.707044E+04  1.023550E+03 -2.369664E+05 -8.808630E-10 -2.025530E-10
        70  17 -6.275037E+05 -8.446516E+04  1.524472E+03 -2.362137E+05  3.736920E-10 -1.088900E-10
        70  18 -6.310847E+05 -9.029845E+04  5.956228E+02 -2.415241E+05  2.627172E-09  3.229708E-10
        70  19 -6.565505E+05 -1.018462E+05 -9.244956E+03 -2.478445E+05  2.907057E+03  6.209551E+02
        70  20 -6.526979E+05 -9.412551E+04 -5.336343E+03 -2.432387E+05  1.815343E+03  3.666061E+02
        70  21 -6.440977E+05 -9.485693E+04 -2.911231E+03 -2.446961E+05  6.801122E+02  2.283312E+02
        70  22 -6.378563E+05 -9.445833E+04 -4.110677E+03 -2.424055E+05  2.929805E+03  6.294850E+02
        70  23 -6.401008E+05 -8.929533E+04 -1.905921E+03 -2.397262E+05  1.871938E+03  3.878203E+02
        70  24 -6.375912E+05 -9.257769E+04 -1.157799E+03 -2.431101E+05  7.705679E+02  2.622339E+02
        70  25 -6.191617E+05 -8.707043E+04  1.023567E+03 -2.369664E+05  2.952554E+03  6.380152E+02
        70  26 -6.275037E+05 -8.446516E+04  1.524480E+03 -2.362137E+05  1.928534E+03  4.090350E+02
        70  27 -6.310847E+05 -9.029845E+04  5.956243E+02 -2.415241E+05  8.610244E+02  2.961369E+02
        71   1 -6.258261E+05 -8.851218E+04  2.240254E+03 -2.398094E+05 -4.719435E+02 -3.332922E+02
        71   2 -6.224048E+05 -8.290744E+04  4.320942E+03 -2.348186E+05 -1.078712E+02 -4.603901E+02
        71   3 -6.133183E+05 -8.350980E+04  6.095293E+03 -2.364343E+05  2.599886E+02 -5.975459E+02
        71   4 -6.374996E+05 -9.286887E+04 -9.392852E+02 -2.429353E+05 -5.379166E+02 -3.580194E+02
        71   5 -6.403155E+05 -8.964463E+04 -5.350930E+02 -2.396773E+05 -1.767858E+02 -4.862228E+02
        71   6 -6.374654E+05 -9.262691E+04 -4.348752E+02 -2.430259E+05  1.881291E+02 -6.244852E+02
        71   7 -6.491730E+05 -9.722557E+04 -4.118849E+03 -2.460612E+05 -6.038885E+02 -3.827463E+02
        71   8 -6.582258E+05 -9.638182E+04 -5.391171E+03 -2.445360E+05 -2.456985E+02 -5.120548E+02
        71   9 -6.616120E+05 -1.017440E+05 -6.965109E+03 -2.496173E+05  1.162726E+02 -6.514235E+02
        71  10 -6.258261E+05 -8.851218E+04  2.240253E+03 -2.398094E+05 -2.101359E-09  3.878402E-10
        71  11 -6.224048E+05 -8.290744E+04  4.320942E+03 -2.348186E+05 -1.556979E-09  1.485072E-10
        71  12 -6.133183E+05 -8.350980E+04  6.095292E+03 -2.364343E+05 -2.581288E-09 -2.211256E-10
        71  13 -6.374996E+05 -9.286887E+04 -9.392860E+02 -2.429353E+05 -5.569167E-11  2.481220E-10
        71  14 -6.403155E+05 -8.964463E+04 -5.350935E+02 -2.396773E+05 -5.735082E-10 -1.125144E-09
        71  15 -6.374654E+05 -9.262691E+04 -4.348760E+02 -2.430259E+05 -2.079486E-10 -5.890200E-10
        71  16 -6.491730E+05 -9.722557E+04 -4.118850E+03 -2.460612E+05  2.645216E-09  1.211022E-10
        71  17 -6.582258E+05 -9.638182E+04 -5.391172E+03 -2.445360E+05  3.671101E-09 -7.004543E-10
        71  18 -6.616120E+05 -1.017440E+05 -6.965110E+03 -2.496173E+05  1.061280E-09 -7.796378E-10
        71  19 -6.258261E+05 -8.851218E+04  2.240254E+03 -2.398094E+05  4.719435E+02  3.332922E+02
        71  20 -6.224048E+05 -8.290744E+04  4.320942E+03 -2.348186E+05  1.078712E+02  4.603901E+02
        71  21 -6.133183E+05 -8.350980E+04  6.095293E+03 -2.364343E+05 -2.599886E+02  5.975459E+02
        71  22 -6.374996E+05 -9.286887E+04 -9.392852E+02 -2.429353E+05  5.379166E+02  3.580194E+02
        71  23 -6.403155E+05 -8.964463E+04 -5.350930E+02 -2.396773E+05  1.767858E+02  4.862228E+02
        71  24 -6.374654E+05 -9.262691E+04 -4.348752E+02 -2.430259E+05 -1.881291E+02  6.244852E+02
        71  25 -6.491730E+05 -9.722557E+04 -4.118849E+03 -2.460612E+05  6.038885E+02  3.827463E+02
        71  26 -6.582258E+05 -9.638182E+04 -5.391171E+03 -2.445360E+05  2.456985E+02  5.120548E+02
        71  27 -6.616120E+05 -1.017440E+05 -6.965109E+03 -2.496173E+05 -1.162726E+02  6.514235E+02
        72   1 -5.956794E+05 -7.686520E+04  1.092697E+04 -2.316075E+05  3.838482E+02 -7.135254E+02
        72   2 -5.924178E+05 -7.169933E+04  1.244506E+04 -2.267224E+05  7.407480E+02 -8.497463E+02
        72   3 -5.836048E+05 -7.234428E+04  1.371998E+04 -2.282683E+05  1.094816E+03 -9.782809E+02
        72   4 -6.375014E+05 -9.260964E+04 -4.369640E+02 -2.429607E+05  3.136237E+02 -7.398557E+02
        72   5 -6.402805E+05 -8.973051E+04 -5.360609E+02 -2.397352E+05  6.727437E+02 -8.752506E+02
        72   6 -6.375088E+05 -9.266266E+04 -8.801271E+02 -2.429408E+05  1.029030E+03 -1.002960E+03
        72   7 -6.793215E+05 -1.083539E+05 -1.180102E+04 -2.543131E+05  2.434047E+02 -7.661839E+02
        72   8 -6.881409E+05 -1.077615E+05 -1.351738E+04 -2.527471E+05  6.047452E+02 -9.007527E+02
        72   9 -6.914101E+05 -1.129809E+05 -1.548051E+04 -2.576121E+05  9.632494E+02 -1.027637E+03
        72  10 -5.956794E+05 -7.686520E+04  1.092697E+04 -2.316075E+05 -1.431239E-09 -4.464148E-10
        72  11 -5.924178E+05 -7.169933E+04  1.244506E+04 -2.267224E+05  4.745060E-12 -3.814961E-10
        72  12 -5.836048E+05 -7.234428E+04  1.371998E+04 -2.282683E+05 -6.258970E-11 -5.496741E-11
        72  13 -6.375014E+05 -9.260964E+04 -4.369652E+02 -2.429607E+05 -2.201274E-09 -6.170772E-10
        72  14 -6.402805E+05 -8.973051E+04 -5.360631E+02 -2.397352E+05  1.019989E-09 -1.994400E-10
        72  15 -6.375088E+05 -9.266266E+04 -8.801309E+02 -2.429408E+05  1.367807E-09  3.681630E-10
        72  16 -6.793215E+05 -1.083539E+05 -1.180102E+04 -2.543131E+05  2.433215E-09 -2.796904E-10
        72  17 -6.881409E+05 -1.077615E+05 -1.351738E+04 -2.527471E+05 -1.688767E-09  2.935177E-10
        72  18 -6.914101E+05 -1.129809E+05 -1.548052E+04 -2.576121E+05 -9.101846E-10  4.327161E-10
        72  19 -5.956794E+05 -7.686520E+04  1.092697E+04 -2.316075E+05 -3.838482E+02  7.135254E+02
        72  20 -5.924178E+05 -7.169933E+04  1.244506E+04 -2.267224E+05 -7.407480E+02  8.497463E+02
        72  21 -5.836048E+05 -7.234428E+04  1.371998E+04 -2.282683E+05 -1.094816E+03  9.782809E+02
        72  22 -6.375014E+05 -9.260964E+04 -4.369640E+02 -2.429607E+05 -3.136237E+02  7.398557E+02
        72  23 -6.402805E+05 -8.973051E+04 -5.360609E+02 -2.397352E+05 -6.727437E+02  8.752506E+02
        72  24 -6.375088E+05 -9.266266E+04 -8.801271E+02 -2.429408E+05 -1.029030E+03  1.002960E+03
        72  25 -6.793215E+05 -1.083539E+05 -1.180102E+04 -2.543131E+05 -2.434047E+02  7.661839E+02
        72  26 -6.881409E+05 -1.077615E+05 -1.351738E+04 -2.527471E+05 -6.047452E+02  9.007527E+02
        72  27 -6.914101E+05 -1.129809E+05 -1.548051E+04 -2.576121E+05 -9.632494E+02  1.027637E+03
        73   1 -5.668842E+05 -6.589244E+04  1.807864E+04 -2.237352E+05  1.313649E+03 -1.049487E+03
        73   2 -5.637482E+05 -6.093017E+04  1.877506E+04 -2.190839E+05  2.375966E+03 -9.084553E+02
        73   3 -5.557846E+05 -6.215783E+04  1.850155E+04 -2.202720E+05  3.431376E+03 -7.488076E+02
        73   4 -6.376342E+05 -9.248888E+04 -1.120986E+03 -2.429065E+05  1.245003E+03 -1.075245E+03
        73   5 -6.400929E+05 -8.971566E+04 -1.935191E+03 -2.398659E+05  2.312632E+03 -9.322314E+02
        73   6 -6.377253E+05 -9.313349E+04 -3.723629E+03 -2.426648E+05  3.373344E+03 -7.706038E+02
        73   7 -7.083793E+05 -1.190850E+05 -2.032103E+04 -2.620758E+05  1.176365E+03 -1.101000E+03
        73   8 -7.164321E+05 -1.185008E+05 -2.264596E+04 -2.606456E+05  2.249305E+03 -9.560044E+02
        73   9 -7.196597E+05 -1.241088E+05 -2.594945E+04 -2.650549E+05  3.315321E+03 -7.923969E+02
        73  10 -5.668842E+05 -6.589244E+04  1.807863E+04 -2.237352E+05  1.141459E-09  1.047528E-10
        73  11 -5.637482E+05 -6.093018E+04  1.877504E+04 -2.190839E+05 -1.105151E-09 -1.617421E-10
        73  12 -5.557847E+05 -6.215784E+04  1.850153E+04 -2.202720E+05  7.454195E-10 -6.568845E-10
        73  13 -6.376342E+05 -9.248888E+04 -1.120991E+03 -2.429065E+05 -1.191849E-09  2.078029E-10
        73  14 -6.400929E+05 -8.971566E+04 -1.935203E+03 -2.398659E+05  5.615407E-09 -3.805889E-10
        73  15 -6.377253E+05 -9.313350E+04 -3.723652E+03 -2.426648E+05  3.743432E-09 -7.443833E-10
        73  16 -7.083793E+05 -1.190850E+05 -2.032103E+04 -2.620758E+05  3.335093E-10  1.135064E-10
        73  17 -7.164321E+05 -1.185008E+05 -2.264597E+04 -2.606456E+05  1.285784E-09 -2.906620E-10
        73  18 -7.196597E+05 -1.241088E+05 -2.594947E+04 -2.650549E+05  8.921278E-10 -3.284699E-11
        73  19 -5.668842E+05 -6.589244E+04  1.807864E+04 -2.237352E+05 -1.313649E+03  1.049487E+03
        73  20 -5.637482E+05 -6.093017E+04  1.877506E+04 -2.190839E+05 -2.375966E+03  9.084553E+02
        73  21 -5.557846E+05 -6.215783E+04  1.850155E+04 -2.202720E+05 -3.431376E+03  7.488076E+02
        73  22 -6.376342E+05 -9.248888E+04 -1.120986E+03 -2.429065E+05 -1.245003E+03  1.075245E+03
        73  23 -6.400929E+05 -8.971566E+04 -1.935191E+03 -2.398659E+05 -2.312632E+03  9.322314E+02
        73  24 -6.377253E+05 -9.313349E+04 -3.723629E+03 -2.426648E+05 -3.373344E+03  7.706038E+02
        73  25 -7.083793E+05 -1.190850E+05 -2.032103E+04 -2.620758E+05 -1.176365E+03  1.101000E+03
        73  26 -7.164321E+05 -1.185008E+05 -2.264596E+04 -2.606456E+05 -2.249305E+03  9.560044E+02
        73  27 -7.196597E+05 -1.241088E+05 -2.594945E+04 -2.650549E+05 -3.315321E+03  7.923969E+02
        74   1 -5.403891E+05 -5.588667E+04  2.164197E+04 -2.168649E+05  4.194258E+03 -6.082920E+02
        74   2 -5.369788E+05 -5.019289E+04  1.945471E+04 -2.121221E+05  8.557902E+03  7.928014E+02
        74   3 -5.318645E+05 -5.596171E+04  1.225821E+04 -2.111934E+05  1.290035E+04  2.250509E+03
        74   4 -6.381332E+05 -9.226740E+04 -4.800623E+03 -2.429803E+05  4.125018E+03 -6.343003E+02
        74   5 -6.393267E+05 -8.895802E+04 -8.342901E+03 -2.401636E+05  8.504499E+03  7.727200E+02
        74   6 -6.388198E+05 -9.711518E+04 -1.690760E+04 -2.411609E+05  1.286274E+04  2.236333E+03
        74   7 -7.358681E+05 -1.286476E+05 -3.124406E+04 -2.690921E+05  4.055789E+03 -6.603043E+02
        74   8 -7.416645E+05 -1.277225E+05 -3.614143E+04 -2.682009E+05  8.451106E+03  7.526423E+02
        74   9 -7.457640E+05 -1.382678E+05 -4.607441E+04 -2.711237E+05  1.282515E+04  2.222160E+03
        74  10 -5.403892E+05 -5.588667E+04  2.164193E+04 -2.168649E+05 -6.418743E-11  1.654829E-10
        74  11 -5.369789E+05 -5.019291E+04  1.945457E+04 -2.121221E+05 -1.161213E-09  1.440399E-09
        74  12 -5.318647E+05 -5.596176E+04  1.225789E+04 -2.111934E+05  8.667333E-10  7.513765E-10
        74  13 -6.381332E+05 -9.226740E+04 -4.800655E+03 -2.429803E+05  7.378858E-11 -6.454021E-11
        74  14 -6.393268E+05 -8.895804E+04 -8.343039E+03 -2.401636E+05  6.222782E-10  1.053054E-09
        74  15 -6.388200E+05 -9.711523E+04 -1.690792E+04 -2.411609E+05 -2.842685E-10  1.281035E-09
        74  16 -7.358682E+05 -1.286476E+05 -3.124409E+04 -2.690921E+05 -3.900888E-10 -1.637498E-10
        74  17 -7.416646E+05 -1.277225E+05 -3.614156E+04 -2.682009E+05  1.640213E-09 -6.565973E-11
        74  18 -7.457641E+05 -1.382678E+05 -4.607472E+04 -2.711237E+05 -9.400947E-10  2.454631E-09
        74  19 -5.403891E+05 -5.588667E+04  2.164197E+04 -2.168649E+05 -4.194258E+03  6.082920E+02
        74  20 -5.369788E+05 -5.019289E+04  1.945471E+04 -2.121221E+05 -8.557902E+03 -7.928014E+02
        74  21 -5.318645E+05 -5.596171E+04  1.225821E+04 -2.111934E+05 -1.290035E+04 -2.250509E+03
        74  22 -6.381332E+05 -9.226740E+04 -4.800623E+03 -2.429803E+05 -4.125018E+03  6.343003E+02
        74  23 -6.393267E+05 -8.895802E+04 -8.342901E+03 -2.401636E+05 -8.504499E+03 -7.727200E+02
        74  24 -6.388198E+05 -9.711518E+04 -1.690760E+04 -2.411609E+05 -1.286274E+04 -2.236333E+03
        74  25 -7.358681E+05 -1.286476E+05 -3.124406E+04 -2.690921E+05 -4.055789E+03  6.603043E+02
        74  26 -7.416645E+05 -1.277225E+05 -3.614143E+04 -2.682009E+05 -8.451106E+03 -7.526423E+02
        74  27 -7.457640E+05 -1.382678E+05 -4.607441E+04 -2.711237E+05 -1.282515E+04 -2.222160E+03
        75   1 -5.172905E+05 -4.806486E+04  1.152651E+04 -2.140790E+05  1.617175E+04  3.305533E+03
        75   2 -5.106735E+05 -3.402031E+04 -1.982277E+03 -2.058944E+05  3.518141E+04  1.022424E+04
        75   3 -5.209584E+05 -7.342396E+04 -4.306981E+04 -1.898912E+05  5.406734E+04  1.747313E+04
        75   4 -6.408165E+05 -9.130009E+04 -2.134003E+04 -2.442688E+05  1.606426E+04  3.265216E+03
        75   5 -6.349014E+05 -8.252774E+04 -3.600251E+04 -2.414277E+05  3.516650E+04  1.021848E+04
        75   6 -6.459105E+05 -1.272285E+05 -7.832149E+04 -2.307673E+05  5.414498E+04  1.750156E+04
        75   7 -7.643281E+05 -1.345350E+05 -5.420794E+04 -2.744536E+05  1.595679E+04  3.224906E+03
        75   8 -7.591146E+05 -1.310340E+05 -7.002418E+04 -2.769546E+05  3.515160E+04  1.021273E+04
        75   9 -7.708475E+05 -1.810308E+05 -1.135746E+05 -2.716356E+05  5.422260E+04  1.752999E+04
        75  10 -5.172908E+05 -4.806494E+04  1.152600E+04 -2.140790E+05  1.387627E-09  6.806560E-10
        75  11 -5.106749E+05 -3.402076E+04 -1.984802E+03 -2.058947E+05 -8.720909E-10  1.061148E-09
        75  12 -5.209616E+05 -7.342507E+04 -4.307588E+04 -1.898920E+05  7.837945E-10  9.614574E-10
        75  13 -6.408168E+05 -9.130017E+04 -2.134054E+04 -2.442689E+05  3.275536E-09  1.527996E-10
        75  14 -6.349028E+05 -8.252819E+04 -3.600503E+04 -2.414280E+05  1.361305E-09  1.714409E-09
        75  15 -6.459138E+05 -1.272296E+05 -7.832758E+04 -2.307681E+05  7.452015E-10  2.066109E-09
        75  16 -7.643284E+05 -1.345351E+05 -5.420844E+04 -2.744536E+05 -7.476886E-10  1.986537E-09
        75  17 -7.591159E+05 -1.310345E+05 -7.002670E+04 -2.769549E+05  1.263904E-09  2.558868E-10
        75  18 -7.708508E+05 -1.810319E+05 -1.135808E+05 -2.716363E+05 -2.716880E-10  7.233679E-10
        75  19 -5.172905E+05 -4.806486E+04  1.152651E+04 -2.140790E+05 -1.617175E+04 -3.305533E+03
        75  20 -5.106735E+05 -3.402031E+04 -1.982277E+03 -2.058944E+05 -3.518141E+04 -1.022424E+04
        75  21 -5.209584E+05 -7.342396E+04 -4.306981E+04 -1.898912E+05 -5.406734E+04 -1.747313E+04
        75  22 -6.408165E+05 -9.130009E+04 -2.134003E+04 -2.442688E+05 -1.606426E+04 -3.265216E+03
        75  23 -6.349014E+05 -8.252774E+04 -3.600251E+04 -2.414277E+05 -3.516650E+04 -1.021848E+04
        75  24 -6.459105E+05 -1.272285E+05 -7.832149E+04 -2.307673E+05 -5.414498E+04 -1.750156E+04
        75  25 -7.643281E+05 -1.345350E+05 -5.420794E+04 -2.744536E+05 -1.595679E+04 -3.224906E+03
        75  26 -7.591146E+05 -1.310340E+05 -7.002418E+04 -2.769546E+05 -3.515160E+04 -1.021273E+04
        75  27 -7.708475E+05 -1.810308E+05 -1.135746E+05 -2.716356E+05 -5.422260E+04 -1.752999E+04
        76   1 -4.997116E+05 -4.912049E+04 -5.712849E+04 -2.360102E+05  6.896091E+04  2.254683E+04
        76   2 -4.705470E+05  2.990051E+04 -1.136677E+05 -1.991932E+05  1.526073E+05  5.368257E+04
        76   3 -5.852153E+05 -2.559197E+05 -3.315204E+05 -7.192157E+04  2.353033E+05  8.735178E+04
        76   4 -6.583161E+05 -8.478944E+04 -9.538964E+04 -2.544146E+05  6.849496E+04  2.237486E+04
        76   5 -6.050896E+05 -3.451668E+04 -1.527999E+05 -2.498816E+05  1.528612E+05  5.377385E+04
        76   6 -6.958749E+05 -3.492821E+05 -3.721225E+05 -1.548830E+05  2.362802E+05  8.769505E+04
        76   7 -8.168954E+05 -1.204591E+05 -1.336522E+05 -2.728166E+05  6.802914E+04  2.220289E+04
        76   8 -7.396139E+05 -9.892915E+04 -1.919339E+05 -3.005589E+05  1.531150E+05  5.386509E+04
        76   9 -8.065154E+05 -4.426216E+05 -4.127248E+05 -2.378259E+05  2.372570E+05  8.803804E+04
        76  10 -4.997169E+05 -4.912231E+04 -5.713839E+04 -2.360115E+05  1.631872E-09  8.700394E-10
        76  11 -4.705728E+05  2.989116E+04 -1.137169E+05 -1.991998E+05  3.080860E-09 -4.466935E-10
        76  12 -5.852768E+05 -2.559428E+05 -3.316389E+05 -7.193814E+04  7.762136E-10  6.768746E-10
        76  13 -6.583213E+05 -8.479124E+04 -9.539941E+04 -2.544159E+05  3.663254E-09 -1.793119E-09
        76  14 -6.051155E+05 -3.452607E+04 -1.528493E+05 -2.498882E+05  7.349977E-10  2.128589E-10
        76  15 -6.959370E+05 -3.493054E+05 -3.722421E+05 -1.548997E+05 -2.037718E-10  4.656476E-10
        76  16 -8.169005E+05 -1.204609E+05 -1.336618E+05 -2.728178E+05 -2.309679E-09  7.319583E-10
        76  17 -7.396399E+05 -9.893858E+04 -1.919835E+05 -3.005656E+05 -3.856528E-11  4.779710E-10
        76  18 -8.065780E+05 -4.426451E+05 -4.128453E+05 -2.378427E+05 -4.236054E-10 -5.631200E-10
        76  19 -4.997116E+05 -4.912049E+04 -5.712849E+04 -2.360102E+05 -6.896091E+04 -2.254683E+04
        76  20 -4.705470E+05  2.990051E+04 -1.136677E+05 -1.991932E+05 -1.526073E+05 -5.368257E+04
        76  21 -5.852153E+05 -2.559197E+05 -3.315204E+05 -7.192157E+04 -2.353033E+05 -8.735178E+04
        76  22 -6.583161E+05 -8.478944E+04 -9.538964E+04 -2.544146E+05 -6.849496E+04 -2.237486E+04
        76  23 -6.050896E+05 -3.451668E+04 -1.527999E+05 -2.498816E+05 -1.528612E+05 -5.377385E+04
        76  24 -6.958749E+05 -3.492821E+05 -3.721225E+05 -1.548830E+05 -2.362802E+05 -8.769505E+04
        76  25 -8.168954E+05 -1.204591E+05 -1.336522E+05 -2.728166E+05 -6.802914E+04 -2.220289E+04
        76  26 -7.396139E+05 -9.892915E+04 -1.919339E+05 -3.005589E+05 -1.531150E+05 -5.386509E+04
        76  27 -8.065154E+05 -4.426216E+05 -4.127248E+05 -2.378259E+05 -2.372570E+05 -8.803804E+04
        77   1  3.437846E+05  2.560404E+06  3.262856E+05 -5.083905E+04  1.838520E+04  1.454081E+05
        77   2  3.032309E+05  2.527422E+06  2.414720E+05 -3.984906E+04  6.392833E+04  7.953186E+04
        77   3  2.867010E+05  2.509093E+06  2.054712E+05 -3.140611E+04  8.207741E+04  1.366707E+04
        77   4  2.935735E+04  1.279877E+06  3.184557E+04 -3.095562E+04  1.840531E+04  2.132302E+04
        77   5  8.826559E+03  1.277529E+06  1.661249E+04 -2.969019E+04  6.395982E+04  1.285764E+04
        77   6  2.399563E+03  1.279911E+06  1.043603E+04 -3.096777E+04  8.209705E+04  4.397744E+03
        77   7 -2.851744E+05  8.948499E+02 -2.626450E+05 -1.111330E+04  1.841754E+04 -1.025091E+05
        77   8 -2.856619E+05  2.916227E+04 -2.082910E+05 -1.955213E+04  6.398917E+04 -5.368656E+04
        77   9 -2.819768E+05  5.222649E+04 -1.846374E+05 -3.053013E+04  8.211669E+04 -4.853962E+03
        77  10  3.437785E+05  2.560382E+06  3.262454E+05 -5.084120E+04  9.702013E-10 -8.865797E-11
        77  11  3.032248E+05  2.527414E+06  2.414525E+05 -3.985315E+04  2.696962E-09  9.933170E-10
        77  12  2.866937E+05  2.509091E+06  2.054582E+05 -3.140701E+04  1.833725E-09  1.272745E-09
        77  13  2.935686E+04  1.279876E+06  3.184408E+04 -3.095593E+04  2.085895E-09 -5.235227E-11
        77  14  8.822119E+03  1.277528E+06  1.660449E+04 -2.969085E+04  2.218964E-09 -2.958776E-10
        77  15  2.392316E+03  1.279909E+06  1.042332E+04 -3.096806E+04  2.356847E-09  1.095325E-09
        77  16 -2.851776E+05  8.834731E+02 -2.626654E+05 -1.111178E+04  1.027361E-09  4.540416E-11
        77  17 -2.856671E+05  2.915808E+04 -2.083041E+05 -1.954936E+04 -1.916189E-09 -1.027274E-09
        77  18 -2.819841E+05  5.222465E+04 -1.846501E+05 -3.052981E+04  1.037876E-09 -1.713200E-09
        77  19  3.437846E+05  2.560404E+06  3.262856E+05 -5.083905E+04 -1.838520E+04 -1.454081E+05
        77  20  3.032309E+05  2.527422E+06  2.414720E+05 -3.984906E+04 -6.392833E+04 -7.953186E+04
        77  21  2.867010E+05  2.509093E+06  2.054712E+05 -3.140611E+04 -8.207741E+04 -1.366707E+04
        77  22  2.935735E+04  1.279877E+06  3.184557E+04 -3.095562E+04 -1.840531E+04 -2.132302E+04
        77  23  8.826559E+03  1.277529E+06  1.661249E+04 -2.969019E+04 -6.395982E+04 -1.285764E+04
        77  24  2.399563E+03  1.279911E+06  1.043603E+04 -3.096777E+04 -8.209705E+04 -4.397744E+03
        77  25 -2.851744E+05  8.948499E+02 -2.626450E+05 -1.111330E+04 -1.841754E+04  1.025091E+05
        77  26 -2.856619E+05  2.916227E+04 -2.082910E+05 -1.955213E+04 -6.398917E+04  5.368656E+04
        77  27 -2.819768E+05  5.222649E+04 -1.846374E+05 -3.053013E+04 -8.211669E+04  4.853962E+03
        78   1  2.814593E+05  2.490952E+06  1.974166E+05 -3.322666E+04  8.375539E+04  1.229634E+04
        78   2  2.736152E+05  2.464257E+06  1.879795E+05 -2.963506E+04  8.532222E+04 -4.032651E+03
        78   3  2.704807E+05  2.440947E+06  1.903478E+05 -3.061399E+04  8.104642E+04 -2.036611E+04
        78   4  1.944311E+03  1.279148E+06  8.994791E+03 -3.141855E+04  8.377637E+04  2.912349E+03
        78   5  1.024453E+03  1.278523E+06  8.173431E+03 -2.913317E+04  8.533578E+04 -1.168018E+03
        78   6  2.697192E+03  1.279167E+06  1.067907E+04 -3.141886E+04  8.104693E+04 -5.253463E+03
        78   7 -2.776422E+05  6.880392E+04 -1.794611E+05 -2.961385E+04  8.379732E+04 -6.454078E+03
        78   8 -2.716333E+05  9.419308E+04 -1.716620E+05 -2.863200E+04  8.534937E+04  1.691378E+03
        78   9 -2.651517E+05  1.187308E+05 -1.690197E+05 -3.222184E+04  8.104740E+04  9.832075E+03
        78  10  2.814517E+05  2.490950E+06  1.974031E+05 -3.322749E+04  2.571064E-09  3.028469E-09
        78  11  2.736074E+05  2.464255E+06  1.879658E+05 -2.963478E+04  1.200902E-09  4.113271E-10
        78  12  2.704735E+05  2.440945E+06  1.903347E+05 -3.061266E+04 -4.863014E-10 -3.751863E-09
        78  13  1.936768E+03  1.279146E+06  8.981578E+03 -3.141874E+04 -2.303231E-09  1.253947E-11
        78  14  1.016628E+03  1.278521E+06  8.159736E+03 -2.913309E+04  4.811581E-09 -8.772892E-10
        78  15  2.690127E+03  1.279165E+06  1.066667E+04 -3.141852E+04 -1.702572E-09  2.275685E-09
        78  16 -2.776498E+05  6.880199E+04 -1.794744E+05 -2.961341E+04  4.337652E-10 -2.840585E-09
        78  17 -2.716412E+05  9.419112E+04 -1.716757E+05 -2.863212E+04  7.773600E-10 -5.708078E-10
        78  18 -2.651588E+05  1.187289E+05 -1.690323E+05 -3.222248E+04 -1.806823E-09  3.115480E-09
        78  19  2.814593E+05  2.490952E+06  1.974166E+05 -3.322666E+04 -8.375539E+04 -1.229634E+04
        78  20  2.736152E+05  2.464257E+06  1.879795E+05 -2.963506E+04 -8.532222E+04  4.032651E+03
        78  21  2.704807E+05  2.440947E+06  1.903478E+05 -3.061399E+04 -8.104642E+04  2.036611E+04
        78  22  1.944311E+03  1.279148E+06  8.994791E+03 -3.141855E+04 -8.377637E+04 -2.912349E+03
        78  23  1.024453E+03  1.278523E+06  8.173431E+03 -2.913317E+04 -8.533578E+04  1.168018E+03
        78  24  2.697192E+03  1.279167E+06  1.067907E+04 -3.141886E+04 -8.104693E+04  5.253463E+03
        78  25 -2.776422E+05  6.880392E+04 -1.794611E+05 -2.961385E+04 -8.379732E+04  6.454078E+03
        78  26 -2.716333E+05  9.419308E+04 -1.716620E+05 -2.863200E+04 -8.534937E+04 -1.691378E+03
        78  27 -2.651517E+05  1.187308E+05 -1.690197E+05 -3.222184E+04 -8.104740E+04 -9.832075E+03
        79   1  2.685193E+05  2.427773E+06  1.938929E+05 -3.273589E+04  7.760406E+04 -2.206179E+04
        79   2  2.753852E+05  2.396014E+06  2.214956E+05 -1.615599E+04  5.885904E+04 -8.224249E+04
        79   3  3.099015E+05  2.379041E+06  2.951081E+05 -5.898740E+03  1.682434E+04 -1.424606E+05
        79   4  3.362330E+03  1.280304E+06  1.310649E+04 -3.181305E+04  7.760217E+04 -7.050844E+03
        79   5  1.227322E+04  1.277129E+06  2.224852E+04 -2.863157E+04  5.879422E+04 -1.843503E+04
        79   6  4.040495E+04  1.280302E+06  4.360348E+04 -3.177612E+04  1.667994E+04 -2.985575E+04
        79   7 -2.618595E+05  1.341420E+05 -1.677117E+05 -3.089163E+04  7.760034E+04  7.933479E+03
        79   8 -2.509050E+05  1.594705E+05 -1.770305E+05 -4.108373E+04  5.872678E+04  4.526111E+04
        79   9 -2.291660E+05  1.827055E+05 -2.079325E+05 -5.760710E+04  1.652606E+04  8.255209E+04
        79  10  2.685127E+05  2.427770E+06  1.938806E+05 -3.273451E+04 -4.186459E-10  2.129208E-09
        79  11  2.753797E+05  2.396006E+06  2.214765E+05 -1.615209E+04  8.109834E-10  1.072054E-09
        79  12  3.098958E+05  2.379019E+06  2.950696E+05 -5.896812E+03  1.739664E-09 -1.974573E-09
        79  13  3.355847E+03  1.280302E+06  1.309507E+04 -3.181261E+04 -1.875420E-09 -1.155144E-11
        79  14  1.226941E+04  1.277128E+06  2.224138E+04 -2.863070E+04  1.735494E-09 -1.144109E-09
        79  15  4.040441E+04  1.280301E+06  4.360128E+04 -3.177572E+04  9.933179E-10  3.331757E-09
        79  16 -2.618660E+05  1.341403E+05 -1.677231E+05 -3.089212E+04 -3.016897E-09 -1.635730E-09
        79  17 -2.509092E+05  1.594674E+05 -1.770408E+05 -4.108587E+04 -1.121953E-09 -9.018430E-10
        79  18 -2.291681E+05  1.826981E+05 -2.079458E+05 -5.760820E+04 -1.004200E-09  8.753803E-10
        79  19  2.685193E+05  2.427773E+06  1.938929E+05 -3.273589E+04 -7.760406E+04  2.206179E+04
        79  20  2.753852E+05  2.396014E+06  2.214956E+05 -1.615599E+04 -5.885904E+04  8.224249E+04
        79  21  3.099015E+05  2.379041E+06  2.951081E+05 -5.898740E+03 -1.682434E+04  1.424606E+05
        79  22  3.362330E+03  1.280304E+06  1.310649E+04 -3.181305E+04 -7.760217E+04  7.050844E+03
        79  23  1.227322E+04  1.277129E+06  2.224852E+04 -2.863157E+04 -5.879422E+04  1.843503E+04
        79  24  4.040495E+04  1.280302E+06  4.360348E+04 -3.177612E+04 -1.667994E+04  2.985575E+04
        79  25 -2.618595E+05  1.341420E+05 -1.677117E+05 -3.089163E+04 -7.760034E+04 -7.933479E+03
        79  26 -2.509050E+05  1.594705E+05 -1.770305E+05 -4.108373E+04 -5.872678E+04 -4.526111E+04
        79  27 -2.291660E+05  1.827055E+05 -2.079325E+05 -5.760710E+04 -1.652606E+04 -8.255209E+04
        80   1 -3.289895E+06 -4.664542E+05 -5.025632E+05 -7.076622E+04 -1.255550E+05  8.963329E+03
        80   2 -3.209825E+06 -2.925200E+05 -3.877203E+05 -1.567692E+04 -7.875236E+04  2.779288E+04
        80   3 -3.175751E+06 -2.990447E+05 -3.475584E+05 -2.837886E+04 -3.185378E+04  2.445363E+04
        80   4 -1.957829E+06 -1.324730E+05 -1.704002E+05 -3.873139E+04 -1.164928E+05  8.997902E+03
        80   5 -1.935414E+06  2.594748E+04 -7.385909E+04 -5.136404E+03 -7.650093E+04  2.779580E+04
        80   6 -1.957702E+06  5.296338E+03 -4.714471E+04 -3.932733E+04 -3.641816E+04  2.444165E+04
        80   7 -6.241426E+05  2.013776E+05  1.616298E+05 -6.629259E+03 -1.074109E+05  9.033383E+03
        80   8 -6.595166E+05  3.442940E+05  2.398820E+05  5.424642E+03 -7.424474E+04  2.779879E+04
        80   9 -7.382965E+05  3.095270E+05  2.531592E+05 -5.029807E+04 -4.099147E+04  2.442985E+04
        80  10 -3.289912E+06 -4.664586E+05 -5.025931E+05 -7.076531E+04 -9.624807E-10  4.369947E-10
        80  11 -3.209832E+06 -2.925225E+05 -3.877335E+05 -1.567515E+04  1.430123E-09  5.953376E-10
        80  12 -3.175752E+06 -2.990457E+05 -3.475614E+05 -2.837823E+04 -4.608794E-10 -8.574598E-10
        80  13 -1.957843E+06 -1.324767E+05 -1.704259E+05 -3.873054E+04  3.426068E-11  3.266085E-10
        80  14 -1.935420E+06  2.594507E+04 -7.387158E+04 -5.134690E+03  5.096266E-09  7.343903E-10
        80  15 -1.957703E+06  5.295340E+03 -4.714833E+04 -3.932661E+04 -5.202024E-10 -8.023019E-10
        80  16 -6.241550E+05  2.013744E+05  1.616079E+05 -6.628477E+03 -3.994463E-10 -3.830298E-11
        80  17 -6.595228E+05  3.442916E+05  2.398702E+05  5.426304E+03  8.626767E-10  1.904382E-10
        80  18 -7.382984E+05  3.095259E+05  2.531549E+05 -5.029727E+04  2.825381E-09 -5.362856E-10
        80  19 -3.289895E+06 -4.664542E+05 -5.025632E+05 -7.076622E+04  1.255550E+05 -8.963329E+03
        80  20 -3.209825E+06 -2.925200E+05 -3.877203E+05 -1.567692E+04  7.875236E+04 -2.779288E+04
        80  21 -3.175751E+06 -2.990447E+05 -3.475584E+05 -2.837886E+04  3.185378E+04 -2.445363E+04
        80  22 -1.957829E+06 -1.324730E+05 -1.704002E+05 -3.873139E+04  1.164928E+05 -8.997902E+03
        80  23 -1.935414E+06  2.594748E+04 -7.385909E+04 -5.136404E+03  7.650093E+04 -2.779580E+04
        80  24 -1.957702E+06  5.296338E+03 -4.714471E+04 -3.932733E+04  3.641816E+04 -2.444165E+04
        80  25 -6.241426E+05  2.013776E+05  1.616298E+05 -6.629259E+03  1.074109E+05 -9.033383E+03
        80  26 -6.595166E+05  3.442940E+05  2.398820E+05  5.424642E+03  7.424474E+04 -2.779879E+04
        80  27 -7.382965E+05  3.095270E+05  2.531592E+05 -5.029807E+04  4.099147E+04 -2.442985E+04
        81   1 -2.994710E+06 -2.795095E+05 -2.971358E+05 -4.878805E+04 -2.923979E+04  1.982651E+04
        81   2 -2.917465E+06 -2.392853E+05 -2.586773E+05 -2.305548E+02 -1.838114E+04  1.977736E+04
        81   3 -2.844793E+06 -2.231894E+05 -2.327573E+05 -4.204366E+04 -7.525162E+03  1.681117E+04
        81   4 -1.948658E+06 -1.805397E+04 -3.891830E+04 -4.414942E+04 -2.883892E+04  1.982477E+04
        81   5 -1.946446E+06  3.335475E+03 -1.927071E+04  1.020036E+03 -1.887184E+04  1.977508E+04
        81   6 -1.948642E+06  7.751750E+02 -1.152456E+04 -4.417269E+04 -8.908756E+03  1.681026E+04
        81   7 -9.016056E+05  2.433197E+05  2.192180E+05 -3.950325E+04 -2.843734E+04  1.982303E+04
        81   8 -9.745650E+05  2.458857E+05  2.200660E+05  2.272479E+03 -1.936329E+04  1.977280E+04
        81   9 -1.051757E+06  2.246796E+05  2.096485E+05 -4.630470E+04 -1.029434E+04  1.680936E+04
        81  10 -2.994711E+06 -2.795102E+05 -2.971382E+05 -4.878758E+04  2.963054E-09 -5.611262E-10
        81  11 -2.917465E+06 -2.392858E+05 -2.586787E+05 -2.302616E+02 -1.120725E-09  4.934241E-11
        81  12 -2.844793E+06 -2.231897E+05 -2.327579E+05 -4.204356E+04 -1.552214E-09  3.990637E-10
        81  13 -1.948659E+06 -1.805462E+04 -3.892060E+04 -4.414896E+04 -2.245628E-09 -1.022676E-09
        81  14 -1.946446E+06  3.334960E+03 -1.927211E+04  1.020336E+03  7.026411E-11  1.277067E-10
        81  15 -1.948642E+06  7.748504E+02 -1.152524E+04 -4.417257E+04  2.721684E-10  4.010621E-10
        81  16 -9.016065E+05  2.433191E+05  2.192157E+05 -3.950280E+04 -2.032584E-09 -8.917081E-10
        81  17 -9.745655E+05  2.458852E+05  2.200646E+05  2.272787E+03 -1.394486E-09 -4.388292E-10
        81  18 -1.051757E+06  2.246793E+05  2.096478E+05 -4.630456E+04  3.835793E-09  2.224033E-10
        81  19 -2.994710E+06 -2.795095E+05 -2.971358E+05 -4.878805E+04  2.923979E+04 -1.982651E+04
        81  20 -2.917465E+06 -2.392853E+05 -2.586773E+05 -2.305548E+02  1.838114E+04 -1.977736E+04
        81  21 -2.844793E+06 -2.231894E+05 -2.327573E+05 -4.204366E+04  7.525162E+03 -1.681117E+04
        81  22 -1.948658E+06 -1.805397E+04 -3.891830E+04 -4.414942E+04  2.883892E+04 -1.982477E+04
        81  23 -1.946446E+06  3.335475E+03 -1.927071E+04  1.020036E+03  1.887184E+04 -1.977508E+04
        81  24 -1.948642E+06  7.751750E+02 -1.152456E+04 -4.417269E+04  8.908756E+03 -1.681026E+04
        81  25 -9.016056E+05  2.433197E+05  2.192180E+05 -3.950325E+04  2.843734E+04 -1.982303E+04
        81  26 -9.745650E+05  2.458857E+05  2.200660E+05  2.272479E+03  1.936329E+04 -1.977280E+04
        81  27 -1.051757E+06  2.246796E+05  2.096485E+05 -4.630470E+04  1.029434E+04 -1.680936E+04
        82   1 -2.632332E+06 -1.734914E+05 -1.778815E+05 -4.751904E+04 -6.315365E+03  1.471824E+04
        82   2 -2.544640E+06 -1.487846E+05 -1.522211E+05  5.773974E+03 -3.639728E+03  1.202863E+04
        82   3 -2.457372E+06 -1.270705E+05 -1.289206E+05 -4.646279E+04 -9.699372E+02  8.810387E+03
        82   4 -1.947649E+06 -2.476578E+03 -9.256565E+03 -4.753779E+04 -7.073994E+03  1.471788E+04
        82   5 -1.947450E+06  4.028526E+02 -4.987716E+03  5.225449E+03 -4.560288E+03  1.202922E+04
        82   6 -1.947650E+06  3.210249E+02 -2.963031E+03 -4.753481E+04 -2.052801E+03  8.812167E+03
        82   7 -1.262537E+06  1.685032E+05  1.593337E+05 -4.755646E+04 -7.833458E+03  1.471752E+04
        82   8 -1.349934E+06  1.495636E+05  1.422192E+05  4.676510E+03 -5.481734E+03  1.202980E+04
        82   9 -1.437691E+06  1.276931E+05  1.229752E+05 -4.860758E+04 -3.136556E+03  8.813950E+03
        82  10 -2.632332E+06 -1.734916E+05 -1.778820E+05 -4.751897E+04 -4.965802E-09 -3.024201E-10
        82  11 -2.544640E+06 -1.487848E+05 -1.522214E+05  5.774009E+03  2.577189E-09 -2.460341E-10
        82  12 -2.457372E+06 -1.270706E+05 -1.289207E+05 -4.646278E+04  1.603887E-09 -2.751659E-10
        82  13 -1.947649E+06 -2.476824E+03 -9.257066E+03 -4.753771E+04 -2.175402E-09  8.686560E-11
        82  14 -1.947450E+06  4.026917E+02 -4.988027E+03  5.225493E+03  7.626276E-09  2.776513E-10
        82  15 -1.947650E+06  3.209404E+02 -2.963185E+03 -4.753479E+04 -2.184761E-09  1.605443E-10
        82  16 -1.262538E+06  1.685030E+05  1.593332E+05 -4.755636E+04  2.448950E-09  4.838636E-10
        82  17 -1.349934E+06  1.495635E+05  1.422189E+05  4.676563E+03 -1.067734E-09  6.919810E-10
        82  18 -1.437691E+06  1.276930E+05  1.229750E+05 -4.860756E+04  1.284820E-09  4.225919E-10
        82  19 -2.632332E+06 -1.734914E+05 -1.778815E+05 -4.751904E+04  6.315365E+03 -1.471824E+04
        82  20 -2.544640E+06 -1.487846E+05 -1.522211E+05  5.773974E+03  3.639728E+03 -1.202863E+04
        82  21 -2.457372E+06 -1.270705E+05 -1.289206E+05 -4.646279E+04  9.699372E+02 -8.810387E+03
        82  22 -1.947649E+06 -2.476578E+03 -9.256565E+03 -4.753779E+04  7.073994E+03 -1.471788E+04
        82  23 -1.947450E+06  4.028526E+02 -4.987716E+03  5.225449E+03  4.560288E+03 -1.202922E+04
        82  24 -1.947650E+06  3.210249E+02 -2.963031E+03 -4.753481E+04  2.052801E+03 -8.812167E+03
        82  25 -1.262537E+06  1.685032E+05  1.593337E+05 -4.755646E+04  7.833458E+03 -1.471752E+04
        82  26 -1.349934E+06  1.495636E+05  1.422192E+05  4.676510E+03  5.481734E+03 -1.202980E+04
        82  27 -1.437691E+06  1.276931E+05  1.229752E+05 -4.860758E+04  3.136556E+03 -8.813950E+03
        83   1 -2.221473E+06 -6.851164E+04 -6.966388E+04 -4.879955E+04 -5.876614E+02  6.853237E+03
        83   2 -2.127416E+06 -4.491745E+04 -4.596561E+04  7.624276E+03  2.235692E+02  3.618119E+03
        83   3 -2.034064E+06 -2.142274E+04 -2.294410E+04 -4.897266E+04  1.032895E+03  2.825583E+02
        83   4 -1.947660E+06 -1.761417E+02 -2.442520E+03 -4.920216E+04 -1.578543E+03  6.855317E+03
        83   5 -1.947307E+06  6.625217E+01 -1.570646E+03  7.307641E+03 -7.983445E+02  3.620531E+03
        83   6 -1.947661E+06  2.150094E+02 -1.353453E+03 -4.920126E+04 -2.017404E+01  2.853435E+02
        83   7 -1.673779E+06  6.815377E+04  6.477333E+04 -4.960490E+04 -2.569863E+03  6.857397E+03
        83   8 -1.767168E+06  4.504753E+04  4.282192E+04  6.990932E+03 -1.820555E+03  3.622944E+03
        83   9 -1.861253E+06  2.185219E+04  2.023663E+04 -4.942990E+04 -1.073390E+03  2.881293E+02
        83  10 -2.221473E+06 -6.851169E+04 -6.966397E+04 -4.879955E+04 -1.170823E-09 -1.731131E-10
        83  11 -2.127416E+06 -4.491747E+04 -4.596564E+04  7.624275E+03  2.176481E-10 -4.433097E-10
        83  12 -2.034064E+06 -2.142274E+04 -2.294410E+04 -4.897266E+04 -1.622221E-09  8.795270E-10
        83  13 -1.947660E+06 -1.761928E+02 -2.442613E+03 -4.920215E+04  2.097530E-09 -3.705831E-10
        83  14 -1.947307E+06  6.623793E+01 -1.570672E+03  7.307643E+03  3.475652E-09  5.383313E-10
        83  15 -1.947661E+06  2.150093E+02 -1.353453E+03 -4.920126E+04 -1.824687E-09  1.104107E-09
        83  16 -1.673779E+06  6.815372E+04  6.477323E+04 -4.960489E+04  7.252648E-10  3.570209E-12
        83  17 -1.767168E+06  4.504752E+04  4.282189E+04  6.990937E+03 -2.674001E-09 -3.265645E-10
        83  18 -1.861253E+06  2.185219E+04  2.023663E+04 -4.942990E+04  7.182502E-10  5.735716E-10
        83  19 -2.221473E+06 -6.851164E+04 -6.966388E+04 -4.879955E+04  5.876614E+02 -6.853237E+03
        83  20 -2.127416E+06 -4.491745E+04 -4.596561E+04  7.624276E+03 -2.235692E+02 -3.618119E+03
        83  21 -2.034064E+06 -2.142274E+04 -2.294410E+04 -4.897266E+04 -1.032895E+03 -2.825583E+02
        83  22 -1.947660E+06 -1.761417E+02 -2.442520E+03 -4.920216E+04  1.578543E+03 -6.855317E+03
        83  23 -1.947307E+06  6.625217E+01 -1.570646E+03  7.307641E+03  7.983445E+02 -3.620531E+03
        83  24 -1.947661E+06  2.150094E+02 -1.353453E+03 -4.920126E+04  2.017404E+01 -2.853435E+02
        83  25 -1.673779E+06  6.815377E+04  6.477333E+04 -4.960490E+04  2.569863E+03 -6.857397E+03
        83  26 -1.767168E+06  4.504753E+04  4.282192E+04  6.990932E+03  1.820555E+03 -3.622944E+03
        83  27 -1.861253E+06  2.185219E+04  2.023663E+04 -4.942990E+04  1.073390E+03 -2.881293E+02
        84   1 -1.790697E+06  3.948698E+04  3.759400E+04 -4.942550E+04  1.273742E+03 -1.699132E+03
        84   2 -1.697205E+06  6.252727E+04  5.987306E+04  6.695170E+03  2.108576E+03 -5.027960E+03
        84   3 -1.604324E+06  8.538919E+04  8.146282E+04 -4.952483E+04  2.946316E+03 -8.228376E+03
        84   4 -1.947649E+06  2.352872E+02 -1.381003E+03 -4.905112E+04  2.179583E+02 -1.696386E+03
        84   5 -1.947335E+06  7.172174E+01 -1.765343E+03  7.120066E+03  1.092409E+03 -5.025714E+03
        84   6 -1.947647E+06 -2.766907E+02 -2.866234E+03 -4.905224E+04  1.969639E+03 -8.226580E+03
        84   7 -2.104578E+06 -3.901826E+04 -4.035784E+04 -4.867683E+04 -8.375577E+02 -1.693640E+03
        84   8 -2.197408E+06 -6.238850E+04 -6.340838E+04  7.544822E+03  7.665121E+01 -5.023469E+03
        84   9 -2.290863E+06 -8.595135E+04 -8.720397E+04 -4.857985E+04  9.935027E+02 -8.224785E+03
        84  10 -1.790697E+06  3.948698E+04  3.759399E+04 -4.942550E+04 -3.325070E-09  2.819806E-10
        84  11 -1.697205E+06  6.252724E+04  5.987300E+04  6.695179E+03  4.586293E-11  2.956351E-11
        84  12 -1.604324E+06  8.538912E+04  8.146267E+04 -4.952481E+04  1.397479E-09 -3.162767E-11
        84  13 -1.947649E+06  2.352841E+02 -1.381008E+03 -4.905112E+04  2.195527E-09  1.090243E-09
        84  14 -1.947335E+06  7.169432E+01 -1.765393E+03  7.120070E+03 -8.363050E-10  2.105966E-11
        84  15 -1.947647E+06 -2.767644E+02 -2.866368E+03 -4.905222E+04 -7.097602E-10 -1.968665E-11
        84  16 -2.104578E+06 -3.901826E+04 -4.035785E+04 -4.867683E+04  2.864881E-09 -8.373070E-11
        84  17 -2.197408E+06 -6.238853E+04 -6.340842E+04  7.544823E+03 -6.365261E-10 -5.393846E-10
        84  18 -2.290863E+06 -8.595143E+04 -8.720409E+04 -4.857984E+04  2.027756E-10 -5.776357E-10
        84  19 -1.790697E+06  3.948698E+04  3.759400E+04 -4.942550E+04 -1.273742E+03  1.699132E+03
        84  20 -1.697205E+06  6.252727E+04  5.987306E+04  6.695170E+03 -2.108576E+03  5.027960E+03
        84  21 -1.604324E+06  8.538919E+04  8.146282E+04 -4.952483E+04 -2.946316E+03  8.228376E+03
        84  22 -1.947649E+06  2.352872E+02 -1.381003E+03 -4.905112E+04 -2.179583E+02  1.696386E+03
        84  23 -1.947335E+06  7.172174E+01 -1.765343E+03  7.120066E+03 -1.092409E+03  5.025714E+03
        84  24 -1.947647E+06 -2.766907E+02 -2.866234E+03 -4.905224E+04 -1.969639E+03  8.226580E+03
        84  25 -2.104578E+06 -3.901826E+04 -4.035784E+04 -4.867683E+04  8.375577E+02  1.693640E+03
        84  26 -2.197408E+06 -6.238850E+04 -6.340838E+04  7.544822E+03 -7.665121E+01  5.023469E+03
        84  27 -2.290863E+06 -8.595135E+04 -8.720397E+04 -4.857985E+04 -9.935027E+02  8.224785E+03
        85   1 -1.371082E+06  1.443156E+05  1.388244E+05 -4.824825E+04  3.605693E+03 -1.016269E+04
        85   2 -1.285004E+06  1.658553E+05  1.572162E+05  4.209283E+03  6.446409E+03 -1.333329E+04
        85   3 -1.199215E+06  1.837681E+05  1.730452E+05 -4.689646E+04  9.294028E+03 -1.594267E+04
        85   4 -1.947648E+06  3.216027E+02 -3.516739E+03 -4.710087E+04  2.530429E+03 -1.016127E+04
        85   5 -1.947484E+06  4.839720E+02 -5.989722E+03  4.682991E+03  5.543083E+03 -1.333313E+04
        85   6 -1.947648E+06 -3.012552E+03 -1.114682E+04 -4.710342E+04  8.562246E+03 -1.594349E+04
        85   7 -2.523911E+06 -1.436973E+05 -1.458825E+05 -4.595440E+04  1.456164E+03 -1.015986E+04
        85   8 -2.609564E+06 -1.649201E+05 -1.692281E+05  5.156309E+03  4.640719E+03 -1.333297E+04
        85   9 -2.695569E+06 -1.898350E+05 -1.953802E+05 -4.731004E+04  7.831341E+03 -1.594430E+04
        85  10 -1.371082E+06  1.443155E+05  1.388242E+05 -4.824823E+04 -8.510343E-10 -1.494420E-10
        85  11 -1.285004E+06  1.658551E+05  1.572158E+05  4.209352E+03 -3.689204E-09  4.865463E-10
        85  12 -1.199215E+06  1.837678E+05  1.730445E+05 -4.689634E+04 -3.430598E-10 -1.486234E-09
        85  13 -1.947648E+06  3.214902E+02 -3.516945E+03 -4.710085E+04 -1.422821E-10 -1.884315E-10
        85  14 -1.947484E+06  4.837730E+02 -5.990113E+03  4.683051E+03  1.009380E-09 -4.479645E-10
        85  15 -1.947648E+06 -3.012845E+03 -1.114743E+04 -4.710331E+04  6.127130E-11 -1.017419E-09
        85  16 -2.523911E+06 -1.436974E+05 -1.458827E+05 -4.595438E+04  1.469217E-09 -7.459869E-11
        85  17 -2.609564E+06 -1.649203E+05 -1.692285E+05  5.156359E+03  1.832508E-09 -5.447285E-10
        85  18 -2.695569E+06 -1.898353E+05 -1.953808E+05 -4.730994E+04 -1.019547E-09 -2.787426E-10
        85  19 -1.371082E+06  1.443156E+05  1.388244E+05 -4.824825E+04 -3.605693E+03  1.016269E+04
        85  20 -1.285004E+06  1.658553E+05  1.572162E+05  4.209283E+03 -6.446409E+03  1.333329E+04
        85  21 -1.199215E+06  1.837681E+05  1.730452E+05 -4.689646E+04 -9.294028E+03  1.594267E+04
        85  22 -1.947648E+06  3.216027E+02 -3.516739E+03 -4.710087E+04 -2.530429E+03  1.016127E+04
        85  23 -1.947484E+06  4.839720E+02 -5.989722E+03  4.682991E+03 -5.543083E+03  1.333313E+04
        85  24 -1.947648E+06 -3.012552E+03 -1.114682E+04 -4.710342E+04 -8.562246E+03  1.594349E+04
        85  25 -2.523911E+06 -1.436973E+05 -1.458825E+05 -4.595440E+04 -1.456164E+03  1.015986E+04
        85  26 -2.609564E+06 -1.649201E+05 -1.692281E+05  5.156309E+03 -4.640719E+03  1.333297E+04
        85  27 -2.695569E+06 -1.898350E+05 -1.953802E+05 -4.731004E+04 -7.831341E+03  1.594430E+04
        86   1 -9.941895E+05  2.392118E+05  2.214961E+05 -4.574227E+04  1.215335E+04 -1.799732E+04
        86   2 -9.190345E+05  2.603739E+05  2.297027E+05  1.908046E+03  2.325250E+04 -2.087596E+04
        86   3 -8.492165E+05  2.527683E+05  2.241566E+05 -3.763114E+04  3.435580E+04 -2.075464E+04
        86   4 -1.948908E+06  8.838807E+02 -1.390857E+04 -4.347422E+04  1.077699E+04 -1.799892E+04
        86   5 -1.946158E+06  4.043354E+03 -2.323228E+04  1.444354E+02  2.279358E+04 -2.087865E+04
        86   6 -1.948929E+06 -2.175279E+04 -4.696494E+04 -4.343599E+04  3.481304E+04 -2.075637E+04
        86   7 -2.902795E+06 -2.375121E+05 -2.493807E+05 -4.120962E+04  9.402730E+03 -1.800053E+04
        86   8 -2.972319E+06 -2.523659E+05 -2.762453E+05 -1.616473E+03  2.233540E+04 -2.088134E+04
        86   9 -3.047538E+06 -2.963642E+05 -3.181761E+05 -4.923102E+04  3.526942E+04 -2.075811E+04
        86  10 -9.941898E+05  2.392114E+05  2.214952E+05 -4.574209E+04 -1.405811E-09 -1.394912E-09
        86  11 -9.190352E+05  2.603732E+05  2.297008E+05  1.908437E+03 -3.847849E-09  3.342954E-10
        86  12 -8.492179E+05  2.527675E+05  2.241536E+05 -3.763057E+04  2.117233E-09 -1.361368E-09
        86  13 -1.948908E+06  8.835019E+02 -1.390940E+04 -4.347406E+04 -1.909330E-09 -7.717203E-10
        86  14 -1.946159E+06  4.042746E+03 -2.323408E+04  1.448189E+02  9.206424E-10  2.664227E-10
        86  15 -1.948930E+06 -2.175358E+04 -4.696803E+04 -4.343541E+04 -3.940893E-09 -1.514671E-09
        86  16 -2.902795E+06 -2.375125E+05 -2.493815E+05 -4.120948E+04 -1.780668E-09  2.816702E-11
        86  17 -2.972320E+06 -2.523665E+05 -2.762470E+05 -1.616097E+03 -3.389680E-10  2.180325E-10
        86  18 -3.047540E+06 -2.963650E+05 -3.181792E+05 -4.923043E+04  2.348164E-10 -8.681503E-10
        86  19 -9.941895E+05  2.392118E+05  2.214961E+05 -4.574227E+04 -1.215335E+04  1.799732E+04
        86  20 -9.190345E+05  2.603739E+05  2.297027E+05  1.908046E+03 -2.325250E+04  2.087596E+04
        86  21 -8.492165E+05  2.527683E+05  2.241566E+05 -3.763114E+04 -3.435580E+04  2.075464E+04
        86  22 -1.948908E+06  8.838807E+02 -1.390857E+04 -4.347422E+04 -1.077699E+04  1.799892E+04
        86  23 -1.946158E+06  4.043354E+03 -2.323228E+04  1.444354E+02 -2.279358E+04  2.087865E+04
        86  24 -1.948929E+06 -2.175279E+04 -4.696494E+04 -4.343599E+04 -3.481304E+04  2.075637E+04
        86  25 -2.902795E+06 -2.375121E+05 -2.493807E+05 -4.120962E+04 -9.402730E+03  1.800053E+04
        86  26 -2.972319E+06 -2.523659E+05 -2.762453E+05 -1.616473E+03 -2.233540E+04  2.088134E+04
        86  27 -3.047538E+06 -2.963642E+05 -3.181761E+05 -4.923102E+04 -3.526942E+04  2.075811E+04
        87   1 -6.955881E+05  3.218003E+05  2.544250E+05 -5.152471E+04  4.860878E+04 -2.536250E+04
        87   2 -6.152659E+05  3.600983E+05  2.348716E+05  6.412730E+03  8.997970E+04 -2.859061E+04
        87   3 -5.883027E+05  1.836568E+05  1.358727E+05  8.968083E+02  1.312494E+05 -9.125530E+03
        87   4 -1.959942E+06  6.394057E+03 -5.692231E+04 -3.843327E+04  4.396772E+04 -2.537660E+04
        87   5 -1.932664E+06  3.137890E+04 -8.907667E+04 -6.295690E+03  9.232465E+04 -2.858673E+04
        87   6 -1.960096E+06 -1.598408E+05 -2.056623E+05 -3.762062E+04  1.405760E+05 -9.085922E+03
        87   7 -3.222836E+06 -3.091307E+05 -3.683876E+05 -2.536946E+04  3.933603E+04 -2.539091E+04
        87   8 -3.248478E+06 -2.974694E+05 -4.131530E+05 -1.897859E+04  9.466446E+04 -2.858293E+04
        87   9 -3.330175E+06 -5.034754E+05 -5.473380E+05 -7.605493E+04  1.498818E+05 -9.047437E+03
        87  10 -6.955908E+05  3.217990E+05  2.544193E+05 -5.152372E+04  8.753629E-10  1.177078E-10
        87  11 -6.152749E+05  3.600952E+05  2.348548E+05  6.414802E+03  3.187118E-09  2.238496E-09
        87  12 -5.883212E+05  1.836521E+05  1.358401E+05  8.977729E+02  1.793951E-09  3.948846E-11
        87  13 -1.959944E+06  6.392845E+03 -5.692717E+04 -3.843237E+04 -3.200462E-11 -5.997178E-10
        87  14 -1.932673E+06  3.137573E+04 -8.909428E+04 -6.293563E+03 -2.335032E-09  1.110943E-09
        87  15 -1.960117E+06 -1.598462E+05 -2.056998E+05 -3.761959E+04 -1.283352E-09  9.099493E-10
        87  16 -3.222838E+06 -3.091318E+05 -3.683918E+05 -2.536866E+04 -3.355132E-10 -5.446471E-10
        87  17 -3.248488E+06 -2.974727E+05 -4.131714E+05 -1.897641E+04 -9.605258E-10  2.687970E-09
        87  18 -3.330199E+06 -5.034815E+05 -5.473806E+05 -7.605384E+04 -3.137463E-10  5.216777E-10
        87  19 -6.955881E+05  3.218003E+05  2.544250E+05 -5.152471E+04 -4.860878E+04  2.536250E+04
        87  20 -6.152659E+05  3.600983E+05  2.348716E+05  6.412730E+03 -8.997970E+04  2.859061E+04
        87  21 -5.883027E+05  1.836568E+05  1.358727E+05  8.968083E+02 -1.312494E+05  9.125530E+03
        87  22 -1.959942E+06  6.394057E+03 -5.692231E+04 -3.843327E+04 -4.396772E+04  2.537660E+04
        87  23 -1.932664E+06  3.137890E+04 -8.907667E+04 -6.295690E+03 -9.232465E+04  2.858673E+04
        87  24 -1.960096E+06 -1.598408E+05 -2.056623E+05 -3.762062E+04 -1.405760E+05  9.085922E+03
        87  25 -3.222836E+06 -3.091307E+05 -3.683876E+05 -2.536946E+04 -3.933603E+04  2.539091E+04
        87  26 -3.248478E+06 -2.974694E+05 -4.131530E+05 -1.897859E+04 -9.466446E+04  2.858293E+04
        87  27 -3.330175E+06 -5.034754E+05 -5.473380E+05 -7.605493E+04 -1.498818E+05  9.047437E+03
        88   1  7.848429E+05  2.258092E+06  8.110263E+05 -3.008319E+05  1.785238E+04  1.179324E+05
        88   2  5.275738E+05  1.762684E+06  6.024016E+05 -3.418881E+03  4.937111E+04  6.964891E+04
        88   3  4.351024E+05  1.317961E+06  4.670331E+05 -2.691982E+05  3.068070E+04  2.099647E+04
        88   4  1.145271E+05 -4.275896E+05  1.441002E+05 -2.651439E+05  1.797288E+04  1.000427E+05
        88   5 -2.377520E+04 -4.516131E+05  5.939431E+04  1.614698E+04  4.939980E+04  6.760635E+04
        88   6  2.799491E+02 -4.277320E+05  3.716621E+04 -2.658670E+05  3.054128E+04  3.476324E+04
        88   7 -5.563262E+05 -3.106735E+06 -5.233640E+05 -2.295984E+05  1.809162E+04  8.222941E+04
        88   8 -5.754870E+05 -2.661452E+06 -4.839728E+05  3.565204E+04  4.942843E+04  6.557070E+04
        88   9 -4.347691E+05 -2.170655E+06 -3.929250E+05 -2.625374E+05  3.040182E+04  4.849131E+04
        88  10  7.848389E+05  2.258077E+06  8.109997E+05 -3.008336E+05  4.233047E-09  9.906271E-10
        88  11  5.275699E+05  1.762679E+06  6.023879E+05 -3.421646E+03  4.185926E-09 -5.749296E-10
        88  12  4.351013E+05  1.317960E+06  4.670305E+05 -2.691987E+05 -1.115973E-09 -1.020075E-09
        88  13  1.145240E+05 -4.276004E+05  1.440807E+05 -2.651453E+05  2.600633E-10  3.304800E-11
        88  14 -2.377904E+04 -4.516187E+05  5.938113E+04  1.614429E+04  6.823485E-09  7.927359E-11
        88  15  2.786223E+02 -4.277335E+05  3.716218E+04 -2.658678E+05 -1.104421E-09 -1.682810E-10
        88  16 -5.563284E+05 -3.106742E+06 -5.233773E+05 -2.295996E+05 -1.932383E-10 -1.004659E-09
        88  17 -5.754908E+05 -2.661457E+06 -4.839855E+05  3.564942E+04 -1.262087E-09  7.269860E-10
        88  18 -4.347708E+05 -2.170657E+06 -3.929312E+05 -2.625386E+05 -3.660637E-09  9.831921E-10
        88  19  7.848429E+05  2.258092E+06  8.110263E+05 -3.008319E+05 -1.785238E+04 -1.179324E+05
        88  20  5.275738E+05  1.762684E+06  6.024016E+05 -3.418881E+03 -4.937111E+04 -6.964891E+04
        88  21  4.351024E+05  1.317961E+06  4.670331E+05 -2.691982E+05 -3.068070E+04 -2.099647E+04
        88  22  1.145271E+05 -4.275896E+05  1.441002E+05 -2.651439E+05 -1.797288E+04 -1.000427E+05
        88  23 -2.377520E+04 -4.516131E+05  5.939431E+04  1.614698E+04 -4.939980E+04 -6.760635E+04
        88  24  2.799491E+02 -4.277320E+05  3.716621E+04 -2.658670E+05 -3.054128E+04 -3.476324E+04
        88  25 -5.563262E+05 -3.106735E+06 -5.233640E+05 -2.295984E+05 -1.809162E+04 -8.222941E+04
        88  26 -5.754870E+05 -2.661452E+06 -4.839728E+05  3.565204E+04 -4.942843E+04 -6.557070E+04
        88  27 -4.347691E+05 -2.170655E+06 -3.929250E+05 -2.625374E+05 -3.040182E+04 -4.849131E+04
        89   1  1.520320E+05  8.970392E+04  1.578475E+05 -2.729709E+05  1.232398E+04  2.515072E+04
        89   2  1.268505E+04 -3.782781E+05  2.208985E+04  1.615354E+04  9.257538E+02  2.075545E+04
        89   3 -1.067935E+05 -8.559198E+05 -1.090608E+05 -2.637834E+05 -1.069281E+04  1.635880E+04
        89   4  2.006574E+04 -4.396808E+05  2.801990E+04 -2.667394E+05  1.228542E+04  2.867777E+04
        89   5 -1.428697E+03 -4.347548E+05  8.191930E+03  1.766476E+04  8.862666E+02  2.435782E+04
        89   6 -3.046173E+03 -4.396934E+05 -7.053598E+03 -2.669927E+05 -1.073371E+04  2.003326E+04
        89   7 -1.119213E+05 -9.688102E+05 -1.018282E+05 -2.605125E+05  1.224692E+04  3.220180E+04
        89   8 -1.554266E+04 -4.912285E+05 -5.706179E+03  1.917585E+04  8.467951E+02  2.795986E+04
        89   9  1.006883E+05 -2.330888E+04  9.494098E+04 -2.702037E+05 -1.077463E+04  2.371018E+04
        89  10  1.520317E+05  8.970320E+04  1.578461E+05 -2.729711E+05 -3.260820E-09  4.114440E-09
        89  11  1.268493E+04 -3.782786E+05  2.208904E+04  1.615352E+04 -1.866204E-09  9.053933E-10
        89  12 -1.067937E+05 -8.559201E+05 -1.090615E+05 -2.637832E+05  1.763638E-09 -1.498622E-09
        89  13  2.006535E+04 -4.396817E+05  2.801807E+04 -2.667397E+05 -3.216812E-10 -1.518102E-11
        89  14 -1.428857E+03 -4.347554E+05  8.190813E+03  1.766474E+04  3.089029E-09  8.950891E-11
        89  15 -3.046404E+03 -4.396938E+05 -7.054568E+03 -2.669925E+05 -3.954934E-10  3.647592E-11
        89  16 -1.119217E+05 -9.688113E+05 -1.018305E+05 -2.605128E+05 -7.708575E-10 -4.258408E-09
        89  17 -1.554287E+04 -4.912294E+05 -5.707651E+03  1.917583E+04  2.326012E-09 -8.722555E-10
        89  18  1.006880E+05 -2.330951E+04  9.493971E+04 -2.702035E+05 -8.058945E-10  1.497431E-09
        89  19  1.520320E+05  8.970392E+04  1.578475E+05 -2.729709E+05 -1.232398E+04 -2.515072E+04
        89  20  1.268505E+04 -3.782781E+05  2.208985E+04  1.615354E+04 -9.257538E+02 -2.075545E+04
        89  21 -1.067935E+05 -8.559198E+05 -1.090608E+05 -2.637834E+05  1.069281E+04 -1.635880E+04
        89  22  2.006574E+04 -4.396808E+05  2.801990E+04 -2.667394E+05 -1.228542E+04 -2.867777E+04
        89  23 -1.428697E+03 -4.347548E+05  8.191930E+03  1.766476E+04 -8.862666E+02 -2.435782E+04
        89  24 -3.046173E+03 -4.396934E+05 -7.053598E+03 -2.669927E+05  1.073371E+04 -2.003326E+04
        89  25 -1.119213E+05 -9.688102E+05 -1.018282E+05 -2.605125E+05 -1.224692E+04 -3.220180E+04
        89  26 -1.554266E+04 -4.912285E+05 -5.706179E+03  1.917585E+04 -8.467951E+02 -2.795986E+04
        89  27  1.006883E+05 -2.330888E+04  9.494098E+04 -2.702037E+05  1.077463E+04 -2.371018E+04
        90   1 -3.971051E+05 -2.072500E+06 -4.144208E+05 -2.472965E+05 -2.868192E+04  7.885370E+03
        90   2 -5.143107E+05 -2.531942E+06 -5.446792E+05  2.624870E+04 -4.785991E+04  3.835729E+04
        90   3 -6.957282E+05 -3.010073E+06 -7.107918E+05 -2.648859E+05 -1.825506E+04  6.921639E+04
        90   4  1.030444E+04 -4.418761E+05 -1.190839E+04 -2.657105E+05 -2.882135E+04  2.138771E+04
        90   5  9.290687E+03 -4.337573E+05 -2.884916E+04  1.635029E+04 -4.783575E+04  3.673926E+04
        90   6 -5.313574E+04 -4.417893E+05 -7.102337E+04 -2.661569E+05 -1.813876E+04  5.250122E+04
        90   7  4.175161E+05  1.191172E+06  3.904077E+05 -2.841661E+05 -2.896139E+04  3.492549E+04
        90   8  5.325646E+05  1.668446E+06  4.866566E+05  6.426657E+03 -4.781160E+04  3.511558E+04
        90   9  5.889599E+05  2.132499E+06  5.682505E+05 -2.674222E+05 -1.802266E+04  3.571631E+04
        90  10 -3.971060E+05 -2.072500E+06 -4.144225E+05 -2.472963E+05 -1.985976E-09 -2.152325E-09
        90  11 -5.143136E+05 -2.531944E+06 -5.446863E+05  2.625018E+04 -3.065375E-09 -1.022413E-09
        90  12 -6.957298E+05 -3.010079E+06 -7.108015E+05 -2.648849E+05  9.714306E-10  8.118807E-10
        90  13  1.030343E+04 -4.418768E+05 -1.191081E+04 -2.657100E+05 -5.290446E-09 -7.617691E-11
        90  14  9.287867E+03 -4.337594E+05 -2.885600E+04  1.635171E+04 -5.332312E-09 -1.830049E-10
        90  15 -5.313683E+04 -4.417923E+05 -7.102917E+04 -2.661562E+05 -1.533719E-09  2.487778E-11
        90  16  4.175148E+05  1.191171E+06  3.904038E+05 -2.841653E+05 -2.021570E-09  2.145063E-09
        90  17  5.325618E+05  1.668444E+06  4.866500E+05  6.428008E+03 -1.545702E-09  1.020281E-09
        90  18  5.889592E+05  2.132498E+06  5.682475E+05 -2.674216E+05 -1.141466E-10 -7.601310E-10
        90  19 -3.971051E+05 -2.072500E+06 -4.144208E+05 -2.472965E+05  2.868192E+04 -7.885370E+03
        90  20 -5.143107E+05 -2.531942E+06 -5.446792E+05  2.624870E+04  4.785991E+04 -3.835729E+04
        90  21 -6.957282E+05 -3.010073E+06 -7.107918E+05 -2.648859E+05  1.825506E+04 -6.921639E+04
        90  22  1.030444E+04 -4.418761E+05 -1.190839E+04 -2.657105E+05  2.882135E+04 -2.138771E+04
        90  23  9.290687E+03 -4.337573E+05 -2.884916E+04  1.635029E+04  4.783575E+04 -3.673926E+04
        90  24 -5.313574E+04 -4.417893E+05 -7.102337E+04 -2.661569E+05  1.813876E+04 -5.250122E+04
        90  25  4.175161E+05  1.191172E+06  3.904077E+05 -2.841661E+05  2.896139E+04 -3.492549E+04
        90  26  5.325646E+05  1.668446E+06  4.866566E+05  6.426657E+03  4.781160E+04 -3.511558E+04
        90  27  5.889599E+05  2.132499E+06  5.682505E+05 -2.674222E+05  1.802266E+04 -3.571631E+04
        91   1 -7.025575E+06 -2.145027E+06 -1.442689E+06 -2.390426E+06 -7.836582E+05 -2.912026E+05
        91   2 -6.819632E+06 -1.037771E+06 -7.195820E+05 -2.630586E+06 -5.070022E+05 -1.718909E+05
        91   3 -7.127291E+06 -1.105824E+06 -5.365527E+05 -2.529365E+06 -2.254403E+05 -6.553880E+04
        91   4 -6.389039E+06 -1.730248E+06 -1.232130E+06 -2.042443E+06 -7.788092E+05 -2.896299E+05
        91   5 -6.068164E+06 -7.060467E+05 -5.051735E+05 -2.378678E+06 -5.056777E+05 -1.714362E+05
        91   6 -6.259684E+06 -8.556378E+05 -3.150389E+05 -2.373716E+06 -2.275854E+05 -6.631650E+04
        91   7 -5.752032E+06 -1.315142E+06 -1.021607E+06 -1.694057E+06 -7.739545E+05 -2.880514E+05
        91   8 -5.316140E+06 -3.742302E+05 -2.908201E+05 -2.126471E+06 -5.043510E+05 -1.709805E+05
        91   9 -5.391337E+06 -6.054689E+05 -9.358045E+04 -2.217903E+06 -2.297335E+05 -6.709473E+04
        91  10 -7.026265E+06 -2.145286E+06 -1.444020E+06 -2.390611E+06 -1.205682E-09  9.660950E-11
        91  11 -6.819919E+06 -1.037873E+06 -7.201276E+05 -2.630657E+06 -1.777161E-09  4.070743E-10
        91  12 -7.127347E+06 -1.105843E+06 -5.366576E+05 -2.529377E+06  1.157543E-09 -1.101116E-09
        91  13 -6.389719E+06 -1.730504E+06 -1.233443E+06 -2.042626E+06 -5.069811E-09  2.454783E-11
        91  14 -6.068449E+06 -7.061482E+05 -5.057155E+05 -2.378748E+06 -7.285174E-09  7.844723E-11
        91  15 -6.259741E+06 -8.556567E+05 -3.151457E+05 -2.373729E+06 -2.330011E-09 -4.813810E-10
        91  16 -5.752703E+06 -1.315395E+06 -1.022901E+06 -1.694237E+06  5.266850E-10 -2.642513E-11
        91  17 -5.316423E+06 -3.743310E+05 -2.913584E+05 -2.126541E+06  2.785333E-10 -3.475247E-10
        91  18 -5.391396E+06 -6.054881E+05 -9.368919E+04 -2.217916E+06  3.613658E-10 -3.791584E-10
        91  19 -7.025575E+06 -2.145027E+06 -1.442689E+06 -2.390426E+06  7.836582E+05  2.912026E+05
        91  20 -6.819632E+06 -1.037771E+06 -7.195820E+05 -2.630586E+06  5.070022E+05  1.718909E+05
        91  21 -7.127291E+06 -1.105824E+06 -5.365527E+05 -2.529365E+06  2.254403E+05  6.553880E+04
        91  22 -6.389039E+06 -1.730248E+06 -1.232130E+06 -2.042443E+06  7.788092E+05  2.896299E+05
        91  23 -6.068164E+06 -7.060467E+05 -5.051735E+05 -2.378678E+06  5.056777E+05  1.714362E+05
        91  24 -6.259684E+06 -8.556378E+05 -3.150389E+05 -2.373716E+06  2.275854E+05  6.631650E+04
        91  25 -5.752032E+06 -1.315142E+06 -1.021607E+06 -1.694057E+06  7.739545E+05  2.880514E+05
        91  26 -5.316140E+06 -3.742302E+05 -2.908201E+05 -2.126471E+06  5.043510E+05  1.709805E+05
        91  27 -5.391337E+06 -6.054689E+05 -9.358045E+04 -2.217903E+06  2.297335E+05  6.709473E+04
        92   1 -7.000553E+06 -1.328854E+06 -4.797023E+05 -2.544748E+06 -1.810752E+05 -5.056120E+04
        92   2 -6.956676E+06 -1.153398E+06 -3.325575E+05 -2.553527E+06 -1.181162E+05 -2.555117E+04
        92   3 -6.956770E+06 -1.165482E+06 -2.773017E+05 -2.547470E+06 -5.408785E+04 -3.368684E+03
        92   4 -6.209488E+06 -1.005944E+06 -2.586271E+05 -2.306378E+06 -1.805216E+05 -5.036162E+04
        92   5 -6.178869E+06 -8.527102E+05 -1.188486E+05 -2.336175E+06 -1.183036E+05 -2.562472E+04
        92   6 -6.191989E+06 -8.867367E+05 -7.027488E+04 -2.351157E+06 -5.501829E+04 -3.718580E+03
        92   7 -5.417814E+06 -6.829708E+05 -3.761167E+04 -2.067720E+06 -1.799671E+05 -5.016163E+04
        92   8 -5.400474E+06 -5.519806E+05  9.480456E+04 -2.118573E+06 -1.184912E+05 -2.569833E+04
        92   9 -5.426640E+06 -6.079684E+05  1.367001E+05 -2.154627E+06 -5.594997E+04 -4.068899E+03
        92  10 -7.000589E+06 -1.328866E+06 -4.797695E+05 -2.544756E+06  2.698013E-09 -9.190467E-10
        92  11 -6.956691E+06 -1.153403E+06 -3.325853E+05 -2.553529E+06  1.208405E-09 -5.081783E-10
        92  12 -6.956773E+06 -1.165483E+06 -2.773073E+05 -2.547470E+06 -1.214605E-10 -6.416078E-10
        92  13 -6.209524E+06 -1.005956E+06 -2.586939E+05 -2.306385E+06 -5.539002E-10 -9.266869E-10
        92  14 -6.178884E+06 -8.527148E+05 -1.188765E+05 -2.336178E+06  1.627895E-09 -6.999827E-10
        92  15 -6.191992E+06 -8.867375E+05 -7.028065E+04 -2.351157E+06 -3.577966E-09 -6.488682E-10
        92  16 -5.417850E+06 -6.829823E+05 -3.767791E+04 -2.067728E+06 -1.994677E-09 -9.703153E-10
        92  17 -5.400490E+06 -5.519852E+05  9.477667E+04 -2.118575E+06 -1.284909E-10 -3.326380E-10
        92  18 -5.426644E+06 -6.079692E+05  1.366941E+05 -2.154627E+06  3.978667E-10  2.910549E-10
        92  19 -7.000553E+06 -1.328854E+06 -4.797023E+05 -2.544748E+06  1.810752E+05  5.056120E+04
        92  20 -6.956676E+06 -1.153398E+06 -3.325575E+05 -2.553527E+06  1.181162E+05  2.555117E+04
        92  21 -6.956770E+06 -1.165482E+06 -2.773017E+05 -2.547470E+06  5.408785E+04  3.368684E+03
        92  22 -6.209488E+06 -1.005944E+06 -2.586271E+05 -2.306378E+06  1.805216E+05  5.036162E+04
        92  23 -6.178869E+06 -8.527102E+05 -1.188486E+05 -2.336175E+06  1.183036E+05  2.562472E+04
        92  24 -6.191989E+06 -8.867367E+05 -7.027488E+04 -2.351157E+06  5.501829E+04  3.718580E+03
        92  25 -5.417814E+06 -6.829708E+05 -3.761167E+04 -2.067720E+06  1.799671E+05  5.016163E+04
        92  26 -5.400474E+06 -5.519806E+05  9.480456E+04 -2.118573E+06  1.184912E+05  2.569833E+04
        92  27 -5.426640E+06 -6.079684E+05  1.367001E+05 -2.154627E+06  5.594997E+04  4.068899E+03
        93   1 -6.793011E+06 -1.150210E+06 -2.244160E+05 -2.520202E+06 -4.381473E+04 -1.046661E+03
        93   2 -6.752922E+06 -1.071897E+06 -1.779892E+05 -2.469364E+06 -2.850012E+04  2.517696E+03
        93   3 -6.658659E+06 -1.079230E+06 -1.483508E+05 -2.485566E+06 -1.276222E+04  4.942219E+03
        93   4 -6.177390E+06 -9.144521E+05 -5.580994E+04 -2.350407E+06 -4.423101E+04 -1.204122E+03
        93   5 -6.203319E+06 -8.635053E+05 -2.779182E+04 -2.319931E+06 -2.923200E+04  2.242811E+03
        93   6 -6.175009E+06 -8.981227E+05 -1.629559E+04 -2.356493E+06 -1.381161E+04  4.549629E+03
        93   7 -5.561402E+06 -6.786696E+05  1.127614E+05 -2.180458E+06 -4.464773E+04 -1.361751E+03
        93   8 -5.653425E+06 -6.550957E+05  1.223779E+05 -2.170377E+06 -2.996459E+04  1.967658E+03
        93   9 -5.691133E+06 -7.170037E+05  1.157382E+05 -2.227329E+06 -1.486190E+04  4.156709E+03
        93  10 -6.793013E+06 -1.150211E+06 -2.244196E+05 -2.520202E+06 -1.152031E-09 -1.065854E-09
        93  11 -6.752922E+06 -1.071898E+06 -1.779908E+05 -2.469364E+06 -2.483054E-09 -1.246227E-09
        93  12 -6.658659E+06 -1.079230E+06 -1.483512E+05 -2.485566E+06 -4.203760E-10 -7.937428E-10
        93  13 -6.177392E+06 -9.144526E+05 -5.581365E+04 -2.350407E+06  1.568571E-10 -8.756283E-10
        93  14 -6.203320E+06 -8.635055E+05 -2.779344E+04 -2.319931E+06 -4.500933E-12 -1.105300E-09
        93  15 -6.175009E+06 -8.981227E+05 -1.629599E+04 -2.356493E+06  4.635883E-10 -1.089175E-09
        93  16 -5.561404E+06 -6.786701E+05  1.127576E+05 -2.180458E+06 -9.057172E-10  2.820447E-10
        93  17 -5.653426E+06 -6.550960E+05  1.223762E+05 -2.170377E+06 -2.763715E-10 -2.929266E-09
        93  18 -5.691133E+06 -7.170038E+05  1.157377E+05 -2.227329E+06  1.406951E-09 -1.982567E-10
        93  19 -6.793011E+06 -1.150210E+06 -2.244160E+05 -2.520202E+06  4.381473E+04  1.046661E+03
        93  20 -6.752922E+06 -1.071897E+06 -1.779892E+05 -2.469364E+06  2.850012E+04 -2.517696E+03
        93  21 -6.658659E+06 -1.079230E+06 -1.483508E+05 -2.485566E+06  1.276222E+04 -4.942219E+03
        93  22 -6.177390E+06 -9.144521E+05 -5.580994E+04 -2.350407E+06  4.423101E+04  1.204122E+03
        93  23 -6.203319E+06 -8.635053E+05 -2.779182E+04 -2.319931E+06  2.923200E+04 -2.242811E+03
        93  24 -6.175009E+06 -8.981227E+05 -1.629559E+04 -2.356493E+06  1.381161E+04 -4.549629E+03
        93  25 -5.561402E+06 -6.786696E+05  1.127614E+05 -2.180458E+06  4.464773E+04  1.361751E+03
        93  26 -5.653425E+06 -6.550957E+05  1.223779E+05 -2.170377E+06  2.996459E+04 -1.967658E+03
        93  27 -5.691133E+06 -7.170037E+05  1.157382E+05 -2.227329E+06  1.486190E+04 -4.156709E+03
        94   1 -6.415976E+06 -9.985896E+05 -8.003170E+04 -2.427337E+06 -9.768693E+03  3.796390E+03
        94   2 -6.367056E+06 -9.195505E+05 -5.045823E+04 -2.354971E+06 -4.526732E+03  2.052091E+03
        94   3 -6.235816E+06 -9.282307E+05 -2.486337E+04 -2.378769E+06  8.229364E+02  1.568178E+01
        94   4 -6.169668E+06 -9.053368E+05 -1.303959E+04 -2.360423E+06 -1.066913E+04  3.460007E+03
        94   5 -6.210690E+06 -8.605126E+05 -7.784344E+03 -2.312701E+06 -5.510284E+03  1.684975E+03
        94   6 -6.169385E+06 -9.033897E+05 -6.439874E+03 -2.361146E+06 -2.444149E+02 -3.823466E+02
        94   7 -5.923301E+06 -8.120802E+05  5.394723E+04 -2.293485E+06 -1.156997E+04  3.123475E+03
        94   8 -6.054301E+06 -8.014734E+05  3.488728E+04 -2.270422E+06 -6.494110E+03  1.317757E+03
        94   9 -6.102951E+06 -8.785485E+05  1.198313E+04 -2.343520E+06 -1.311888E+03 -7.804193E+02
        94  10 -6.415976E+06 -9.985897E+05 -8.003191E+04 -2.427337E+06  1.580443E-11 -6.914540E-10
        94  11 -6.367056E+06 -9.195505E+05 -5.045828E+04 -2.354971E+06 -1.891782E-09  1.304926E-10
        94  12 -6.235816E+06 -9.282307E+05 -2.486337E+04 -2.378769E+06 -5.178674E-10 -5.147825E-10
        94  13 -6.169668E+06 -9.053369E+05 -1.303983E+04 -2.360423E+06  2.241574E-09 -5.662841E-10
        94  14 -6.210690E+06 -8.605127E+05 -7.784407E+03 -2.312701E+06 -1.429078E-09  2.297018E-10
        94  15 -6.169385E+06 -9.033897E+05 -6.439874E+03 -2.361146E+06  9.019721E-11 -8.750385E-10
        94  16 -5.923301E+06 -8.120803E+05  5.394695E+04 -2.293485E+06  8.193468E-10 -2.902992E-10
        94  17 -6.054301E+06 -8.014735E+05  3.488719E+04 -2.270422E+06 -4.835888E-10  7.148658E-10
        94  18 -6.102951E+06 -8.785485E+05  1.198313E+04 -2.343520E+06  2.928119E-09  4.522172E-10
        94  19 -6.415976E+06 -9.985896E+05 -8.003170E+04 -2.427337E+06  9.768693E+03 -3.796390E+03
        94  20 -6.367056E+06 -9.195505E+05 -5.045823E+04 -2.354971E+06  4.526732E+03 -2.052091E+03
        94  21 -6.235816E+06 -9.282307E+05 -2.486337E+04 -2.378769E+06 -8.229364E+02 -1.568178E+01
        94  22 -6.169668E+06 -9.053368E+05 -1.303959E+04 -2.360423E+06  1.066913E+04 -3.460007E+03
        94  23 -6.210690E+06 -8.605126E+05 -7.784344E+03 -2.312701E+06  5.510284E+03 -1.684975E+03
        94  24 -6.169385E+06 -9.033897E+05 -6.439874E+03 -2.361146E+06  2.444149E+02  3.823466E+02
        94  25 -5.923301E+06 -8.120802E+05  5.394723E+04 -2.293485E+06  1.156997E+04 -3.123475E+03
        94  26 -6.054301E+06 -8.014734E+05  3.488728E+04 -2.270422E+06  6.494110E+03 -1.317757E+03
        94  27 -6.102951E+06 -8.785485E+05  1.198313E+04 -2.343520E+06  1.311888E+03  7.804193E+02
        95   1 -5.972462E+06 -8.281796E+05  4.774160E+04 -2.307161E+06  2.724466E+03 -1.780202E+03
        95   2 -5.926094E+06 -7.544673E+05  6.916441E+04 -2.237236E+06  8.043470E+03 -3.779708E+03
        95   3 -5.800945E+06 -7.648862E+05  8.663206E+04 -2.259028E+06  1.317403E+04 -5.262805E+03
        95   4 -6.170179E+06 -9.025057E+05 -6.494678E+03 -2.360200E+06  1.636390E+03 -2.186079E+03
        95   5 -6.209713E+06 -8.615408E+05 -8.218117E+03 -2.313923E+06  7.102968E+03 -4.131118E+03
        95   6 -6.170501E+06 -9.047408E+05 -1.401521E+04 -2.359369E+06  1.238044E+04 -5.559838E+03
        95   7 -6.367858E+06 -9.768298E+05 -6.073465E+04 -2.413224E+06  5.486952E+02 -2.591814E+03
        95   8 -6.493255E+06 -9.686101E+05 -8.560825E+04 -2.390578E+06  6.162939E+03 -4.482351E+03
        95   9 -6.539927E+06 -1.044588E+06 -1.146754E+05 -2.459655E+06  1.158737E+04 -5.856677E+03
        95  10 -5.972462E+06 -8.281797E+05  4.774158E+04 -2.307161E+06 -3.570546E-09 -1.186715E-09
        95  11 -5.926094E+06 -7.544673E+05  6.916426E+04 -2.237236E+06 -3.094001E-09 -5.537474E-12
        95  12 -5.800945E+06 -7.648862E+05  8.663168E+04 -2.259028E+06  7.733565E-11  8.434272E-10
        95  13 -6.170179E+06 -9.025057E+05 -6.494692E+03 -2.360200E+06  1.009159E-09 -1.257865E-09
        95  14 -6.209713E+06 -8.615408E+05 -8.218244E+03 -2.313923E+06  8.217376E-10 -6.481934E-10
        95  15 -6.170501E+06 -9.047409E+05 -1.401556E+04 -2.359368E+06 -6.722473E-10 -4.712220E-10
        95  16 -6.367858E+06 -9.768298E+05 -6.073467E+04 -2.413224E+06  1.576527E-09 -1.222060E-09
        95  17 -6.493255E+06 -9.686101E+05 -8.560836E+04 -2.390578E+06 -1.523980E-09 -6.568487E-10
        95  18 -6.539927E+06 -1.044588E+06 -1.146757E+05 -2.459655E+06 -7.529732E-10 -2.066782E-09
        95  19 -5.972462E+06 -8.281796E+05  4.774160E+04 -2.307161E+06 -2.724466E+03  1.780202E+03
        95  20 -5.926094E+06 -7.544673E+05  6.916441E+04 -2.237236E+06 -8.043470E+03  3.779708E+03
        95  21 -5.800945E+06 -7.648862E+05  8.663206E+04 -2.259028E+06 -1.317403E+04  5.262805E+03
        95  22 -6.170179E+06 -9.025057E+05 -6.494678E+03 -2.360200E+06 -1.636390E+03  2.186079E+03
        95  23 -6.209713E+06 -8.615408E+05 -8.218117E+03 -2.313923E+06 -7.102968E+03  4.131118E+03
        95  24 -6.170501E+06 -9.047408E+05 -1.401521E+04 -2.359369E+06 -1.238044E+04  5.559838E+03
        95  25 -6.367858E+06 -9.768298E+05 -6.073465E+04 -2.413224E+06 -5.486952E+02  2.591814E+03
        95  26 -6.493255E+06 -9.686101E+05 -8.560825E+04 -2.390578E+06 -6.162939E+03  4.482351E+03
        95  27 -6.539927E+06 -1.044588E+06 -1.146754E+05 -2.459655E+06 -1.158737E+04  5.856677E+03
        96   1 -5.592915E+06 -6.767504E+05  1.418559E+05 -2.197523E+06  1.660777E+04 -6.022676E+03
        96   2 -5.561104E+06 -6.235882E+05  1.444729E+05 -2.149173E+06  3.275220E+04 -3.048099E+03
        96   3 -5.485631E+06 -6.475832E+05  1.295318E+05 -2.155550E+06  4.842384E+04  1.205048E+03
        96   4 -6.177337E+06 -8.958558E+05 -1.758312E+04 -2.353928E+06  1.563445E+04 -6.387591E+03
        96   5 -6.200422E+06 -8.660829E+05 -3.014854E+04 -2.323258E+06  3.213361E+04 -3.281241E+03
        96   6 -6.179928E+06 -9.135586E+05 -6.056979E+04 -2.347319E+06  4.815827E+04  1.103616E+03
        96   7 -6.761425E+06 -1.114942E+06 -1.770524E+05 -2.510198E+06  1.466214E+04 -6.752132E+03
        96   8 -6.839342E+06 -1.108553E+06 -2.048068E+05 -2.497179E+06  3.151570E+04 -3.514121E+03
        96   9 -6.873757E+06 -1.179503E+06 -2.507154E+05 -2.538890E+06  4.789301E+04  1.002301E+03
        96  10 -5.592915E+06 -6.767505E+05  1.418554E+05 -2.197523E+06  2.082270E-10  9.994696E-10
        96  11 -5.561105E+06 -6.235885E+05  1.444709E+05 -2.149173E+06 -2.019485E-10  7.671222E-10
        96  12 -5.485634E+06 -6.475839E+05  1.295273E+05 -2.155550E+06 -1.839477E-09 -4.019888E-10
        96  13 -6.177337E+06 -8.958559E+05 -1.758366E+04 -2.353928E+06  1.754150E-09  2.664503E-10
        96  14 -6.200423E+06 -8.660832E+05 -3.015052E+04 -2.323258E+06  2.071286E-09 -6.059715E-10
        96  15 -6.179931E+06 -9.135593E+05 -6.057419E+04 -2.347319E+06  6.324064E-10 -5.139498E-11
        96  16 -6.761426E+06 -1.114942E+06 -1.770529E+05 -2.510198E+06  7.360042E-10 -3.695537E-10
        96  17 -6.839343E+06 -1.108553E+06 -2.048087E+05 -2.497179E+06 -4.365095E-10 -5.275687E-10
        96  18 -6.873760E+06 -1.179504E+06 -2.507197E+05 -2.538890E+06 -2.589117E-10  2.271797E-10
        96  19 -5.592915E+06 -6.767504E+05  1.418559E+05 -2.197523E+06 -1.660777E+04  6.022676E+03
        96  20 -5.561104E+06 -6.235882E+05  1.444729E+05 -2.149173E+06 -3.275220E+04  3.048099E+03
        96  21 -5.485631E+06 -6.475832E+05  1.295318E+05 -2.155550E+06 -4.842384E+04 -1.205048E+03
        96  22 -6.177337E+06 -8.958558E+05 -1.758312E+04 -2.353928E+06 -1.563445E+04  6.387591E+03
        96  23 -6.200422E+06 -8.660829E+05 -3.014854E+04 -2.323258E+06 -3.213361E+04  3.281241E+03
        96  24 -6.179928E+06 -9.135586E+05 -6.056979E+04 -2.347319E+06 -4.815827E+04 -1.103616E+03
        96  25 -6.761425E+06 -1.114942E+06 -1.770524E+05 -2.510198E+06 -1.466214E+04  6.752132E+03
        96  26 -6.839342E+06 -1.108553E+06 -2.048068E+05 -2.497179E+06 -3.151570E+04  3.514121E+03
        96  27 -6.873757E+06 -1.179503E+06 -2.507154E+05 -2.538890E+06 -4.789301E+04 -1.002301E+03
        97   1 -5.389305E+06 -5.896863E+05  1.417514E+05 -2.140980E+06  6.046295E+04  4.586261E+03
        97   2 -5.369739E+06 -5.430451E+05  9.174993E+04 -2.115416E+06  1.282042E+05  2.884579E+04
        97   3 -5.413376E+06 -6.836672E+05 -5.665469E+04 -2.055743E+06  1.949088E+05  5.585245E+04
        97   4 -6.195874E+06 -8.834810E+05 -7.631339E+04 -2.348154E+06  5.969664E+04  4.297484E+03
        97   5 -6.173688E+06 -8.543592E+05 -1.290605E+05 -2.340881E+06  1.281477E+05  2.882115E+04
        97   6 -6.214939E+06 -1.012792E+06 -2.808774E+05 -2.299476E+06  1.955616E+05  5.608867E+04
        97   7 -7.001815E+06 -1.177251E+06 -2.944365E+05 -2.555090E+06  5.893139E+04  4.009069E+03
        97   8 -6.977010E+06 -1.165628E+06 -3.499307E+05 -2.566077E+06  1.280911E+05  2.879651E+04
        97   9 -7.015878E+06 -1.341848E+06 -5.051611E+05 -2.542911E+06  1.962133E+05  5.632440E+04
        97  10 -5.389309E+06 -5.896873E+05  1.417444E+05 -2.140980E+06 -4.195753E-10  1.900731E-09
        97  11 -5.369757E+06 -5.430505E+05  9.171716E+04 -2.115419E+06 -1.169241E-09  3.010994E-10
        97  12 -5.413418E+06 -6.836809E+05 -5.673271E+04 -2.055752E+06  8.870773E-10  5.836352E-10
        97  13 -6.195878E+06 -8.834820E+05 -7.632019E+04 -2.348155E+06 -7.308030E-10 -1.741614E-10
        97  14 -6.173706E+06 -8.543645E+05 -1.290933E+05 -2.340884E+06 -1.908923E-09  1.380923E-09
        97  15 -6.214982E+06 -1.012805E+06 -2.809560E+05 -2.299485E+06  2.397750E-09 -1.008666E-09
        97  16 -7.001818E+06 -1.177252E+06 -2.944431E+05 -2.555090E+06 -1.088285E-09  2.421584E-11
        97  17 -6.977028E+06 -1.165634E+06 -3.499635E+05 -2.566080E+06 -1.471209E-09  9.903926E-10
        97  18 -7.015920E+06 -1.341862E+06 -5.052404E+05 -2.542920E+06 -7.999560E-10 -4.377129E-10
        97  19 -5.389305E+06 -5.896863E+05  1.417514E+05 -2.140980E+06 -6.046295E+04 -4.586261E+03
        97  20 -5.369739E+06 -5.430451E+05  9.174993E+04 -2.115416E+06 -1.282042E+05 -2.884579E+04
        97  21 -5.413376E+06 -6.836672E+05 -5.665469E+04 -2.055743E+06 -1.949088E+05 -5.585245E+04
        97  22 -6.195874E+06 -8.834810E+05 -7.631339E+04 -2.348154E+06 -5.969664E+04 -4.297484E+03
        97  23 -6.173688E+06 -8.543592E+05 -1.290605E+05 -2.340881E+06 -1.281477E+05 -2.882115E+04
        97  24 -6.214939E+06 -1.012792E+06 -2.808774E+05 -2.299476E+06 -1.955616E+05 -5.608867E+04
        97  25 -7.001815E+06 -1.177251E+06 -2.944365E+05 -2.555090E+06 -5.893139E+04 -4.009069E+03
        97  26 -6.977010E+06 -1.165628E+06 -3.499307E+05 -2.566077E+06 -1.280911E+05 -2.879651E+04
        97  27 -7.015878E+06 -1.341848E+06 -5.051611E+05 -2.542911E+06 -1.962133E+05 -5.632440E+04
        98   1 -5.426207E+06 -6.171460E+05 -1.292134E+05 -2.231844E+06  2.481871E+05  7.477439E+04
        98   2 -5.350467E+06 -3.758738E+05 -3.464340E+05 -2.142195E+06  5.467832E+05  1.887408E+05
        98   3 -5.842146E+06 -1.396435E+06 -1.143826E+06 -1.669333E+06  8.408342E+05  3.146358E+05
        98   4 -6.268398E+06 -8.507412E+05 -3.421730E+05 -2.373968E+06  2.464056E+05  7.413997E+04
        98   5 -6.054525E+06 -6.937555E+05 -5.485660E+05 -2.385540E+06  5.481025E+05  1.891867E+05
        98   6 -6.409316E+06 -1.800192E+06 -1.338110E+06 -2.013670E+06  8.453251E+05  3.160305E+05
        98   7 -7.109889E+06 -1.084355E+06 -5.551828E+05 -2.515953E+06  2.446265E+05  7.350591E+04
        98   8 -6.758094E+06 -1.011546E+06 -7.507463E+05 -2.628613E+06  5.494198E+05  1.896316E+05
        98   9 -6.976084E+06 -2.203601E+06 -1.532417E+06 -2.357641E+06  8.498112E+05  3.174198E+05
        98  10 -5.426275E+06 -6.171688E+05 -1.293409E+05 -2.231859E+06 -3.402274E-09  3.591967E-10
        98  11 -5.350800E+06 -3.759937E+05 -3.470692E+05 -2.142278E+06 -3.835468E-09  3.250224E-09
        98  12 -5.842938E+06 -1.396735E+06 -1.145356E+06 -1.669547E+06  1.721084E-10  1.655462E-09
        98  13 -6.268465E+06 -8.507637E+05 -3.422989E+05 -2.373983E+06 -1.549170E-10  5.908348E-10
        98  14 -6.054860E+06 -6.938761E+05 -5.492051E+05 -2.385624E+06 -2.199986E-09  7.095354E-09
        98  15 -6.410117E+06 -1.800494E+06 -1.339658E+06 -2.013887E+06  7.481100E-10 -6.139643E-10
        98  16 -7.109956E+06 -1.084377E+06 -5.553070E+05 -2.515968E+06  2.542952E-09  6.505321E-10
        98  17 -6.758431E+06 -1.011667E+06 -7.513893E+05 -2.628698E+06 -2.842687E-09  5.009439E-09
        98  18 -6.976895E+06 -2.203908E+06 -1.533983E+06 -2.357861E+06 -1.299940E-09 -1.228627E-10
        98  19 -5.426207E+06 -6.171460E+05 -1.292134E+05 -2.231844E+06 -2.481871E+05 -7.477439E+04
        98  20 -5.350467E+06 -3.758738E+05 -3.464340E+05 -2.142195E+06 -5.467832E+05 -1.887408E+05
        98  21 -5.842146E+06 -1.396435E+06 -1.143826E+06 -1.669333E+06 -8.408342E+05 -3.146358E+05
        98  22 -6.268398E+06 -8.507412E+05 -3.421730E+05 -2.373968E+06 -2.464056E+05 -7.413997E+04
        98  23 -6.054525E+06 -6.937555E+05 -5.485660E+05 -2.385540E+06 -5.481025E+05 -1.891867E+05
        98  24 -6.409316E+06 -1.800192E+06 -1.338110E+06 -2.013670E+06 -8.453251E+05 -3.160305E+05
        98  25 -7.109889E+06 -1.084355E+06 -5.551828E+05 -2.515953E+06 -2.446265E+05 -7.350591E+04
        98  26 -6.758094E+06 -1.011546E+06 -7.507463E+05 -2.628613E+06 -5.494198E+05 -1.896316E+05
        98  27 -6.976084E+06 -2.203601E+06 -1.532417E+06 -2.357641E+06 -8.498112E+05 -3.174198E+05
        99   1 -2.390050E+06 -3.444218E+05 -3.497194E+05 -4.217655E+04 -3.081586E+04  8.953415E+03
        99   2 -2.338853E+06 -3.017719E+05 -3.160583E+05 -8.312921E+03 -1.679535E+04  2.687582E+04
        99   3 -2.293150E+06 -2.936126E+05 -2.992184E+05 -3.218162E+04 -2.674058E+03  2.387274E+04
        99   4 -1.114038E+06 -2.504535E+04 -3.190275E+04 -3.204918E+04 -2.203831E+04  8.997422E+03
        99   5 -1.111863E+06  4.519777E+03 -1.416828E+04 -3.249722E+03 -1.451152E+04  2.688151E+04
        99   6 -1.114029E+06  7.643177E+02 -8.713856E+03 -3.217594E+04 -6.885123E+03  2.385809E+04
        99   7  1.634557E+05  2.942086E+05  2.857918E+05 -2.190279E+04 -1.324264E+04  9.041671E+03
        99   8  1.165007E+05  3.106993E+05  2.876106E+05  1.822163E+03 -1.222315E+04  2.688723E+04
        99   9  6.636009E+04  2.950375E+05  2.816879E+05 -3.217109E+04 -1.110419E+04  2.384345E+04
        99  10 -2.390051E+06 -3.444222E+05 -3.497214E+05 -4.217632E+04  1.957499E-09  3.404366E-10
        99  11 -2.338853E+06 -3.017728E+05 -3.160602E+05 -8.312557E+03  3.199558E-10 -1.964299E-09
        99  12 -2.293150E+06 -2.936132E+05 -2.992194E+05 -3.218157E+04 -2.145424E-09 -6.103495E-10
        99  13 -1.114039E+06 -2.504556E+04 -3.190381E+04 -3.204902E+04 -2.047981E-09 -1.751138E-09
        99  14 -1.111864E+06  4.518945E+03 -1.417003E+04 -3.249407E+03  8.250374E-10 -1.002699E-09
        99  15 -1.114030E+06  7.636941E+02 -8.715015E+03 -3.217580E+04 -6.913082E-10 -4.087330E-10
        99  16  1.634555E+05  2.942085E+05  2.857914E+05 -2.190270E+04 -7.635848E-10  1.638399E-09
        99  17  1.165004E+05  3.106985E+05  2.876090E+05  1.822428E+03  7.940727E-11 -1.718335E-09
        99  18  6.635980E+04  2.950368E+05  2.816866E+05 -3.217088E+04 -5.085241E-10 -1.658533E-11
        99  19 -2.390050E+06 -3.444218E+05 -3.497194E+05 -4.217655E+04  3.081586E+04 -8.953415E+03
        99  20 -2.338853E+06 -3.017719E+05 -3.160583E+05 -8.312921E+03  1.679535E+04 -2.687582E+04
        99  21 -2.293150E+06 -2.936126E+05 -2.992184E+05 -3.218162E+04  2.674058E+03 -2.387274E+04
        99  22 -1.114038E+06 -2.504535E+04 -3.190275E+04 -3.204918E+04  2.203831E+04 -8.997422E+03
        99  23 -1.111863E+06  4.519777E+03 -1.416828E+04 -3.249722E+03  1.451152E+04 -2.688151E+04
        99  24 -1.114029E+06  7.643177E+02 -8.713856E+03 -3.217594E+04  6.885123E+03 -2.385809E+04
        99  25  1.634557E+05  2.942086E+05  2.857918E+05 -2.190279E+04  1.324264E+04 -9.041671E+03
        99  26  1.165007E+05  3.106993E+05  2.876106E+05  1.822163E+03  1.222315E+04 -2.688723E+04
        99  27  6.636009E+04  2.950375E+05  2.816879E+05 -3.217109E+04  1.110419E+04 -2.384345E+04
       100   1 -2.153571E+06 -2.636538E+05 -2.639787E+05 -3.733432E+04 -6.006415E+03  1.963790E+04
       100   2 -2.095997E+06 -2.448364E+05 -2.457831E+05 -8.618549E+02 -3.286332E+03  1.996465E+04
       100   3 -2.036898E+06 -2.306706E+05 -2.299051E+05 -3.471593E+04 -5.667346E+02  1.765580E+04
       100   4 -1.112600E+06 -3.714695E+03 -7.239133E+03 -3.493109E+04 -5.502602E+03  1.963686E+04
       100   5 -1.113436E+06  4.446938E+02 -3.748027E+03  2.252811E+02 -3.599640E+03  1.996223E+04
       100   6 -1.112604E+06  1.005502E+02 -2.002675E+03 -3.493810E+04 -1.697435E+03  1.765383E+04
       100   7 -7.064081E+04  2.561435E+05  2.494201E+05 -3.252432E+04 -4.997936E+03  1.963584E+04
       100   8 -1.299943E+05  2.456537E+05  2.382157E+05  1.313875E+03 -3.913441E+03  1.995982E+04
       100   9 -1.875300E+05  2.308079E+05  2.258365E+05 -3.516064E+04 -2.829819E+03  1.765187E+04
       100  10 -2.153571E+06 -2.636543E+05 -2.639795E+05 -3.733423E+04 -1.265902E-09 -3.143080E-10
       100  11 -2.095997E+06 -2.448368E+05 -2.457839E+05 -8.618020E+02  5.677533E-10 -5.956918E-10
       100  12 -2.036898E+06 -2.306709E+05 -2.299057E+05 -3.471592E+04 -2.425594E-09 -8.306551E-10
       100  13 -1.112600E+06 -3.715117E+03 -7.239915E+03 -3.493101E+04  1.674139E-10 -1.229964E-09
       100  14 -1.113436E+06  4.442626E+02 -3.748800E+03  2.253390E+02 -2.658123E-09  1.396942E-09
       100  15 -1.112604E+06  1.002149E+02 -2.003266E+03 -3.493808E+04 -5.578770E-10 -1.068883E-09
       100  16 -7.064095E+04  2.561431E+05  2.494194E+05 -3.252424E+04  4.699527E-11  3.623110E-10
       100  17 -1.299945E+05  2.456533E+05  2.382149E+05  1.313938E+03 -6.055514E-09 -6.760458E-10
       100  18 -1.875301E+05  2.308076E+05  2.258359E+05 -3.516060E+04 -1.190026E-10 -1.159546E-10
       100  19 -2.153571E+06 -2.636538E+05 -2.639787E+05 -3.733432E+04  6.006415E+03 -1.963790E+04
       100  20 -2.095997E+06 -2.448364E+05 -2.457831E+05 -8.618549E+02  3.286332E+03 -1.996465E+04
       100  21 -2.036898E+06 -2.306706E+05 -2.299051E+05 -3.471593E+04  5.667346E+02 -1.765580E+04
       100  22 -1.112600E+06 -3.714695E+03 -7.239133E+03 -3.493109E+04  5.502602E+03 -1.963686E+04
       100  23 -1.113436E+06  4.446938E+02 -3.748027E+03  2.252811E+02  3.599640E+03 -1.996223E+04
       100  24 -1.112604E+06  1.005502E+02 -2.002675E+03 -3.493810E+04  1.697435E+03 -1.765383E+04
       100  25 -7.064081E+04  2.561435E+05  2.494201E+05 -3.252432E+04  4.997936E+03 -1.963584E+04
       100  26 -1.299943E+05  2.456537E+05  2.382157E+05  1.313875E+03  3.913441E+03 -1.995982E+04
       100  27 -1.875300E+05  2.308079E+05  2.258365E+05 -3.516064E+04  2.829819E+03 -1.765187E+04
       101   1 -1.875851E+06 -1.911156E+05 -1.895129E+05 -3.698126E+04 -8.432973E+02  1.599242E+04
       101   2 -1.810402E+06 -1.740401E+05 -1.726230E+05  3.217756E+03 -2.814858E+02  1.400475E+04
       101   3 -1.743889E+06 -1.574329E+05 -1.559611E+05 -3.615271E+04  2.752487E+02  1.157971E+04
       101   4 -1.112648E+06 -6.401603E+02 -1.636081E+03 -3.699058E+04 -1.395054E+03  1.599129E+04
       101   5 -1.113192E+06 -1.689855E+01 -8.758558E+02  2.791660E+03 -9.689320E+02  1.400435E+04
       101   6 -1.112652E+06  1.630253E+02 -2.483571E+02 -3.699005E+04 -5.479456E+02  1.158027E+04
       101   7 -3.489123E+05  1.897918E+05  1.861977E+05 -3.699987E+04 -1.947489E+03  1.599015E+04
       101   8 -4.155385E+05  1.739700E+05  1.708354E+05  2.365179E+03 -1.657150E+03  1.400395E+04
       101   9 -4.810518E+05  1.577292E+05  1.554349E+05 -3.782809E+04 -1.371977E+03  1.158082E+04
       101  10 -1.875851E+06 -1.911158E+05 -1.895133E+05 -3.698125E+04 -8.636246E-10  3.283820E-10
       101  11 -1.810402E+06 -1.740403E+05 -1.726234E+05  3.217759E+03 -1.275465E-09  2.655125E-10
       101  12 -1.743889E+06 -1.574331E+05 -1.559613E+05 -3.615271E+04 -5.656488E-10 -2.108256E-09
       101  13 -1.112648E+06 -6.404353E+02 -1.636565E+03 -3.699056E+04  2.169785E-09 -3.781340E-10
       101  14 -1.113192E+06 -1.710929E+01 -8.762259E+02  2.791671E+03  3.579741E-10  7.154859E-10
       101  15 -1.112652E+06  1.628813E+02 -2.486095E+02 -3.699004E+04  1.419208E-09  5.983250E-10
       101  16 -3.489124E+05  1.897915E+05  1.861972E+05 -3.699985E+04 -2.895054E-10 -8.689259E-11
       101  17 -4.155386E+05  1.739698E+05  1.708350E+05  2.365198E+03 -1.443633E-09 -1.211371E-12
       101  18 -4.810518E+05  1.577291E+05  1.554346E+05 -3.782807E+04  8.923670E-10 -3.919449E-10
       101  19 -1.875851E+06 -1.911156E+05 -1.895129E+05 -3.698126E+04  8.432973E+02 -1.599242E+04
       101  20 -1.810402E+06 -1.740401E+05 -1.726230E+05  3.217756E+03  2.814858E+02 -1.400475E+04
       101  21 -1.743889E+06 -1.574329E+05 -1.559611E+05 -3.615271E+04 -2.752487E+02 -1.157971E+04
       101  22 -1.112648E+06 -6.401603E+02 -1.636081E+03 -3.699058E+04  1.395054E+03 -1.599129E+04
       101  23 -1.113192E+06 -1.689855E+01 -8.758558E+02  2.791660E+03  9.689320E+02 -1.400435E+04
       101  24 -1.112652E+06  1.630253E+02 -2.483571E+02 -3.699005E+04  5.479456E+02 -1.158027E+04
       101  25 -3.489123E+05  1.897918E+05  1.861977E+05 -3.699987E+04  1.947489E+03 -1.599015E+04
       101  26 -4.155385E+05  1.739700E+05  1.708354E+05  2.365179E+03  1.657150E+03 -1.400395E+04
       101  27 -4.810518E+05  1.577292E+05  1.554349E+05 -3.782809E+04  1.371977E+03 -1.158082E+04
       102   1 -1.566673E+06 -1.132656E+05 -1.117171E+05 -3.768445E+04  2.125001E+02  1.010646E+04
       102   2 -1.495784E+06 -9.560001E+04 -9.407419E+04  5.069100E+03  1.207969E+02  7.676075E+03
       102   3 -1.424846E+06 -7.762268E+04 -7.630458E+04 -3.766350E+04  2.593067E+01  5.130679E+03
       102   4 -1.112820E+06 -3.998059E+01 -1.349616E+02 -3.830591E+04 -5.267523E+02  1.010739E+04
       102   5 -1.112847E+06 -3.542457E+01  2.415816E+02  4.435885E+03 -6.543534E+02  7.677504E+03
       102   6 -1.112823E+06  2.879022E+02  7.704785E+02 -3.830517E+04 -7.851068E+02  5.132658E+03
       102   7 -6.587792E+05  1.131703E+05  1.114320E+05 -3.892774E+04 -1.266545E+03  1.010832E+04
       102   8 -7.297770E+05  9.551822E+04  9.454652E+04  3.802352E+03 -1.429982E+03  7.678935E+03
       102   9 -8.007113E+05  7.819120E+04  7.783831E+04 -3.894711E+04 -1.596552E+03  5.134639E+03
       102  10 -1.566673E+06 -1.132657E+05 -1.117173E+05 -3.768445E+04  5.597358E-10 -3.689498E-10
       102  11 -1.495784E+06 -9.560007E+04 -9.407430E+04  5.069100E+03 -6.840978E-09  1.810621E-09
       102  12 -1.424846E+06 -7.762270E+04 -7.630463E+04 -3.766350E+04 -4.001992E-09 -8.673032E-10
       102  13 -1.112820E+06 -4.009030E+01 -1.351540E+02 -3.830591E+04 -2.393115E-09 -1.804408E-09
       102  14 -1.112847E+06 -3.548795E+01  2.414701E+02  4.435889E+03  3.569839E-09  8.366774E-10
       102  15 -1.112823E+06  2.878738E+02  7.704279E+02 -3.830517E+04  3.371233E-09 -2.493426E-09
       102  16 -6.587792E+05  1.131702E+05  1.114318E+05 -3.892773E+04 -2.646259E-10  4.478721E-10
       102  17 -7.297770E+05  9.551816E+04  9.454641E+04  3.802360E+03  2.886359E-09 -7.484657E-10
       102  18 -8.007113E+05  7.819117E+04  7.783825E+04 -3.894711E+04  2.250587E-09 -3.500472E-09
       102  19 -1.566673E+06 -1.132656E+05 -1.117171E+05 -3.768445E+04 -2.125001E+02 -1.010646E+04
       102  20 -1.495784E+06 -9.560001E+04 -9.407419E+04  5.069100E+03 -1.207969E+02 -7.676075E+03
       102  21 -1.424846E+06 -7.762268E+04 -7.630458E+04 -3.766350E+04 -2.593067E+01 -5.130679E+03
       102  22 -1.112820E+06 -3.998059E+01 -1.349616E+02 -3.830591E+04  5.267523E+02 -1.010739E+04
       102  23 -1.112847E+06 -3.542457E+01  2.415816E+02  4.435885E+03  6.543534E+02 -7.677504E+03
       102  24 -1.112823E+06  2.879022E+02  7.704785E+02 -3.830517E+04  7.851068E+02 -5.132658E+03
       102  25 -6.587792E+05  1.131703E+05  1.114320E+05 -3.892774E+04  1.266545E+03 -1.010832E+04
       102  26 -7.297770E+05  9.551822E+04  9.454652E+04  3.802352E+03  1.429982E+03 -7.678935E+03
       102  27 -8.007113E+05  7.819120E+04  7.783831E+04 -3.894711E+04  1.596552E+03 -5.134639E+03
       103   1 -1.238505E+06 -3.115909E+04 -2.968342E+04 -3.853254E+04 -1.544260E+02  3.620232E+03
       103   2 -1.165490E+06 -1.326573E+04 -1.107950E+04  5.208274E+03 -1.118224E+03  1.057199E+03
       103   3 -1.092679E+06  5.682057E+03  8.291139E+03 -3.892687E+04 -2.082533E+03 -1.495544E+03
       103   4 -1.112855E+06  1.488735E+02  1.035353E+03 -3.883773E+04 -9.554165E+02  3.622401E+03
       103   5 -1.112750E+06 -1.063049E+02  1.908338E+03  5.100782E+03 -1.916113E+03  1.059415E+03
       103   6 -1.112855E+06  6.925186E+02  3.546006E+03 -3.883618E+04 -2.877207E+03 -1.493266E+03
       103   7 -9.871904E+05  3.145567E+04  3.175297E+04 -3.914297E+04 -1.756569E+03  3.624571E+03
       103   8 -1.060007E+06  1.305291E+04  1.489597E+04  4.993282E+03 -2.714069E+03  1.061630E+03
       103   9 -1.133030E+06 -4.297049E+03 -1.199153E+03 -3.874549E+04 -3.671856E+03 -1.490989E+03
       103  10 -1.238505E+06 -3.115911E+04 -2.968344E+04 -3.853254E+04 -1.317339E-09  4.803460E-10
       103  11 -1.165490E+06 -1.326573E+04 -1.107951E+04  5.208275E+03 -4.723730E-10  4.306516E-09
       103  12 -1.092679E+06  5.682054E+03  8.291127E+03 -3.892687E+04  5.813396E-09 -2.651571E-09
       103  13 -1.112855E+06  1.488592E+02  1.035327E+03 -3.883773E+04  2.183729E-09 -1.216505E-09
       103  14 -1.112750E+06 -1.063071E+02  1.908329E+03  5.100783E+03 -1.194515E-09 -1.175017E-09
       103  15 -1.112855E+06  6.925140E+02  3.545986E+03 -3.883618E+04 -3.135415E-09 -1.713139E-10
       103  16 -9.871904E+05  3.145566E+04  3.175294E+04 -3.914296E+04  2.851638E-09 -1.004468E-09
       103  17 -1.060007E+06  1.305291E+04  1.489596E+04  4.993284E+03 -7.294080E-10 -6.961373E-10
       103  18 -1.133030E+06 -4.297055E+03 -1.199183E+03 -3.874550E+04 -4.459491E-09 -3.333439E-10
       103  19 -1.238505E+06 -3.115909E+04 -2.968342E+04 -3.853254E+04  1.544260E+02 -3.620232E+03
       103  20 -1.165490E+06 -1.326573E+04 -1.107950E+04  5.208274E+03  1.118224E+03 -1.057199E+03
       103  21 -1.092679E+06  5.682057E+03  8.291139E+03 -3.892687E+04  2.082533E+03  1.495544E+03
       103  22 -1.112855E+06  1.488735E+02  1.035353E+03 -3.883773E+04  9.554165E+02 -3.622401E+03
       103  23 -1.112750E+06 -1.063049E+02  1.908338E+03  5.100782E+03  1.916113E+03 -1.059415E+03
       103  24 -1.112855E+06  6.925186E+02  3.546006E+03 -3.883618E+04  2.877207E+03  1.493266E+03
       103  25 -9.871904E+05  3.145567E+04  3.175297E+04 -3.914297E+04  1.756569E+03 -3.624571E+03
       103  26 -1.060007E+06  1.305291E+04  1.489597E+04  4.993282E+03  2.714069E+03 -1.061630E+03
       103  27 -1.133030E+06 -4.297049E+03 -1.199153E+03 -3.874549E+04  3.671856E+03  1.490989E+03
       104   1 -9.046346E+05  5.197215E+04  5.599912E+04 -3.861410E+04 -2.769256E+03 -3.039189E+03
       104   2 -8.335270E+05  6.899448E+04  7.662698E+04  4.118255E+03 -6.804397E+03 -5.610625E+03
       104   3 -7.608219E+05  9.151614E+04  1.011926E+05 -3.977020E+04 -1.083723E+04 -7.903055E+03
       104   4 -1.112471E+06  8.034145E+01  4.601615E+03 -3.856181E+04 -3.616638E+03 -3.036875E+03
       104   5 -1.113257E+06 -7.864091E+02  7.762710E+03  4.754074E+03 -7.563243E+03 -5.608893E+03
       104   6 -1.112465E+06  3.832554E+03  1.480185E+04 -3.855322E+04 -1.150708E+04 -7.901840E+03
       104   7 -1.320268E+06 -5.181470E+04 -4.679910E+04 -3.850951E+04 -4.463736E+03 -3.034560E+03
       104   8 -1.392916E+06 -7.057313E+04 -6.110734E+04  5.389650E+03 -8.321747E+03 -5.607162E+03
       104   9 -1.463995E+06 -8.386023E+04 -7.159802E+04 -3.733687E+04 -1.217654E+04 -7.900627E+03
       104  10 -9.046346E+05  5.197214E+04  5.599909E+04 -3.861411E+04  9.197534E-10 -3.147128E-09
       104  11 -8.335270E+05  6.899444E+04  7.662684E+04  4.118224E+03  2.316620E-09  1.078798E-09
       104  12 -7.608221E+05  9.151604E+04  1.011923E+05 -3.977027E+04 -5.152157E-09  1.153405E-09
       104  13 -1.112471E+06  8.032803E+01  4.601573E+03 -3.856182E+04  2.368493E-09 -1.835665E-10
       104  14 -1.113257E+06 -7.864582E+02  7.762544E+03  4.754040E+03  1.039727E-09 -4.353939E-10
       104  15 -1.112465E+06  3.832452E+03  1.480148E+04 -3.855329E+04 -3.628073E-10 -1.278282E-10
       104  16 -1.320268E+06 -5.181472E+04 -4.679915E+04 -3.850952E+04  3.920433E-10 -1.312234E-10
       104  17 -1.392916E+06 -7.057319E+04 -6.110753E+04  5.389612E+03  1.086005E-09  3.355565E-09
       104  18 -1.463995E+06 -8.386034E+04 -7.159842E+04 -3.733694E+04  2.938144E-09  1.184975E-09
       104  19 -9.046346E+05  5.197215E+04  5.599912E+04 -3.861410E+04  2.769256E+03  3.039189E+03
       104  20 -8.335270E+05  6.899448E+04  7.662698E+04  4.118255E+03  6.804397E+03  5.610625E+03
       104  21 -7.608219E+05  9.151614E+04  1.011926E+05 -3.977020E+04  1.083723E+04  7.903055E+03
       104  22 -1.112471E+06  8.034145E+01  4.601615E+03 -3.856181E+04  3.616638E+03  3.036875E+03
       104  23 -1.113257E+06 -7.864091E+02  7.762710E+03  4.754074E+03  7.563243E+03  5.608893E+03
       104  24 -1.112465E+06  3.832554E+03  1.480185E+04 -3.855322E+04  1.150708E+04  7.901840E+03
       104  25 -1.320268E+06 -5.181470E+04 -4.679910E+04 -3.850951E+04  4.463736E+03  3.034560E+03
       104  26 -1.392916E+06 -7.057313E+04 -6.110734E+04  5.389650E+03  8.321747E+03  5.607162E+03
       104  27 -1.463995E+06 -8.386023E+04 -7.159802E+04 -3.733687E+04  1.217654E+04  7.900627E+03
       105   1 -5.772453E+05  1.319361E+05  1.500940E+05 -3.548036E+04 -1.340955E+04 -9.641834E+03
       105   2 -5.156383E+05  1.440265E+05  1.783898E+05  1.452193E+03 -2.994585E+04 -1.219935E+04
       105   3 -4.413671E+05  1.950500E+05  2.273452E+05 -4.338732E+04 -4.647780E+04 -1.277150E+04
       105   4 -1.110078E+06 -9.885305E+02  1.873194E+04 -3.749277E+04 -1.451742E+04 -9.640077E+03
       105   5 -1.116346E+06 -5.790845E+03  3.056851E+04  3.409135E+03 -3.042092E+04 -1.219951E+04
       105   6 -1.110051E+06  2.825105E+04  6.264007E+04 -3.746557E+04 -4.631827E+04 -1.277293E+04
       105   7 -1.642652E+06 -1.339343E+05 -1.126511E+05 -3.950332E+04 -1.562434E+04 -9.638313E+03
       105   8 -1.716725E+06 -1.556351E+05 -1.172794E+05  5.364292E+03 -3.089552E+04 -1.219967E+04
       105   9 -1.778328E+06 -1.385812E+05 -1.020981E+05 -3.155012E+04 -4.615889E+04 -1.277436E+04
       105  10 -5.772455E+05  1.319360E+05  1.500935E+05 -3.548046E+04 -2.426985E-10  1.294320E-09
       105  11 -5.156393E+05  1.440261E+05  1.783878E+05  1.451899E+03  3.297762E-12 -1.718348E-09
       105  12 -4.413694E+05  1.950493E+05  2.273408E+05 -4.338780E+04 -1.750731E-09 -9.428928E-10
       105  13 -1.110078E+06 -9.886870E+02  1.873137E+04 -3.749289E+04 -6.546210E-11  1.071696E-09
       105  14 -1.116347E+06 -5.791253E+03  3.056649E+04  3.408836E+03  4.956030E-10  1.020570E-09
       105  15 -1.110053E+06  2.825030E+04  6.263573E+04 -3.746605E+04 -3.412022E-10 -6.146224E-10
       105  16 -1.642652E+06 -1.339345E+05 -1.126517E+05 -3.950345E+04  1.892262E-09  5.514022E-10
       105  17 -1.716726E+06 -1.556355E+05 -1.172815E+05  5.363988E+03 -2.974054E-09 -4.721591E-10
       105  18 -1.778330E+06 -1.385819E+05 -1.021024E+05 -3.155059E+04 -2.671013E-10 -1.021819E-10
       105  19 -5.772453E+05  1.319361E+05  1.500940E+05 -3.548036E+04  1.340955E+04  9.641834E+03
       105  20 -5.156383E+05  1.440265E+05  1.783898E+05  1.452193E+03  2.994585E+04  1.219935E+04
       105  21 -4.413671E+05  1.950500E+05  2.273452E+05 -4.338732E+04  4.647780E+04  1.277150E+04
       105  22 -1.110078E+06 -9.885305E+02  1.873194E+04 -3.749277E+04  1.451742E+04  9.640077E+03
       105  23 -1.116346E+06 -5.790845E+03  3.056851E+04  3.409135E+03  3.042092E+04  1.219951E+04
       105  24 -1.110051E+06  2.825105E+04  6.264007E+04 -3.746557E+04  4.631827E+04  1.277293E+04
       105  25 -1.642652E+06 -1.339343E+05 -1.126511E+05 -3.950332E+04  1.562434E+04  9.638313E+03
       105  26 -1.716725E+06 -1.556351E+05 -1.172794E+05  5.364292E+03  3.089552E+04  1.219967E+04
       105  27 -1.778328E+06 -1.385812E+05 -1.020981E+05 -3.155012E+04  4.615889E+04  1.277436E+04
       106   1 -2.587576E+05  1.995030E+05  2.818717E+05 -1.529663E+04 -5.515566E+04 -1.654343E+04
       106   2 -2.392104E+05  1.808395E+05  3.382131E+05 -1.037333E+04 -1.243933E+05 -1.981944E+04
       106   3 -1.358181E+05  4.517434E+05  5.125299E+05 -7.916402E+04 -1.936531E+05 -7.049747E+03
       106   4 -1.094492E+06 -8.886763E+03  7.616554E+04 -3.562667E+04 -5.863131E+04 -1.654159E+04
       106   5 -1.135956E+06 -4.269531E+04  1.178929E+05  1.100691E+03 -1.227830E+05 -1.982285E+04
       106   6 -1.094348E+06  2.123992E+05  2.741805E+05 -3.588703E+04 -1.869495E+05 -7.055302E+03
       106   7 -1.929588E+06 -2.173270E+05 -1.295919E+05 -5.592921E+04 -6.210225E+04 -1.653952E+04
       106   8 -2.031969E+06 -2.662894E+05 -1.024865E+05  1.255801E+04 -1.211750E+05 -1.982621E+04
       106   9 -2.052039E+06 -2.700695E+04  3.576351E+04  7.322820E+03 -1.802560E+05 -7.059934E+03
       106  10 -2.587609E+05  1.995018E+05  2.818655E+05 -1.529736E+04 -2.151370E-09 -3.430887E-10
       106  11 -2.392272E+05  1.808349E+05  3.381833E+05 -1.037532E+04 -1.566759E-09  6.419947E-10
       106  12 -1.358583E+05  4.517333E+05  5.124593E+05 -7.916512E+04 -7.929529E-11 -6.085851E-10
       106  13 -1.094495E+06 -8.887981E+03  7.615855E+04 -3.562746E+04 -6.808401E-09 -2.847300E-10
       106  14 -1.135973E+06 -4.269979E+04  1.178638E+05  1.098730E+03 -2.813520E-09  3.801249E-10
       106  15 -1.094386E+06  2.123897E+05  2.741146E+05 -3.588809E+04  2.784078E-09 -6.805673E-11
       106  16 -1.929592E+06 -2.173283E+05 -1.295997E+05 -5.593004E+04  2.350428E-09  3.447955E-12
       106  17 -2.031985E+06 -2.662938E+05 -1.025149E+05  1.255608E+04 -2.686815E-09 -3.573506E-11
       106  18 -2.052074E+06 -2.701576E+04  3.570216E+04  7.321795E+03  1.522085E-10 -5.788138E-10
       106  19 -2.587576E+05  1.995030E+05  2.818717E+05 -1.529663E+04  5.515566E+04  1.654343E+04
       106  20 -2.392104E+05  1.808395E+05  3.382131E+05 -1.037333E+04  1.243933E+05  1.981944E+04
       106  21 -1.358181E+05  4.517434E+05  5.125299E+05 -7.916402E+04  1.936531E+05  7.049747E+03
       106  22 -1.094492E+06 -8.886763E+03  7.616554E+04 -3.562667E+04  5.863131E+04  1.654159E+04
       106  23 -1.135956E+06 -4.269531E+04  1.178929E+05  1.100691E+03  1.227830E+05  1.982285E+04
       106  24 -1.094348E+06  2.123992E+05  2.741805E+05 -3.588703E+04  1.869495E+05  7.055302E+03
       106  25 -1.929588E+06 -2.173270E+05 -1.295919E+05 -5.592921E+04  6.210225E+04  1.653952E+04
       106  26 -2.031969E+06 -2.662894E+05 -1.024865E+05  1.255801E+04  1.211750E+05  1.982621E+04
       106  27 -2.052039E+06 -2.700695E+04  3.576351E+04  7.322820E+03  1.802560E+05  7.059934E+03
       107   1  2.493368E+05  2.740857E+05  2.637608E+05 -1.809087E+05  8.236262E+01  1.705083E+05
       107   2  8.786731E+04  2.291903E+05  1.369216E+05 -1.057272E+05  2.636798E+03  1.033065E+05
       107   3  3.176608E+04  2.193254E+05  8.017180E+04 -3.516509E+04  2.731085E+03  3.609387E+04
       107   4  2.208832E+05  1.674498E+05  2.381723E+05 -3.407934E+04  1.623644E+02  1.634545E+05
       107   5  6.800877E+04  1.503869E+05  1.214150E+05 -3.234019E+04  2.659942E+03  1.013674E+05
       107   6  1.960361E+04  1.674623E+05  7.120073E+04 -3.521415E+04  2.713117E+03  3.926619E+04
       107   7  1.925096E+05  6.087051E+04  2.125946E+05  1.127245E+05  2.390401E+02  1.564019E+05
       107   8  4.817000E+04  7.160091E+04  1.059111E+05  4.103728E+04  2.682629E+03  9.942859E+04
       107   9  7.441001E+03  1.156018E+05  6.222961E+04 -3.526319E+04  2.695146E+03  4.243825E+04
       107  10  2.493290E+05  2.740545E+05  2.637062E+05 -1.809087E+05  2.145951E-09  3.821221E-09
       107  11  8.786444E+04  2.291788E+05  1.369015E+05 -1.057274E+05 -2.095416E-10  3.219742E-10
       107  12  3.176573E+04  2.193240E+05  8.016934E+04 -3.516517E+04 -2.589190E-09 -9.724699E-10
       107  13  2.208760E+05  1.674211E+05  2.381221E+05 -3.407936E+04  1.838581E-09  4.652845E-09
       107  14  6.800600E+04  1.503758E+05  1.213957E+05 -3.234041E+04  3.866155E-09 -1.942660E-09
       107  15  1.960319E+04  1.674606E+05  7.119782E+04 -3.521423E+04  1.542905E-09  1.747772E-09
       107  16  1.925031E+05  6.084425E+04  2.125487E+05  1.127244E+05  1.677649E-09 -2.334362E-09
       107  17  4.816734E+04  7.159029E+04  1.058925E+05  4.103706E+04 -1.412722E-09  1.916526E-09
       107  18  7.440510E+03  1.155998E+05  6.222621E+04 -3.526328E+04  8.565716E-10  1.430301E-09
       107  19  2.493368E+05  2.740857E+05  2.637608E+05 -1.809087E+05 -8.236262E+01 -1.705083E+05
       107  20  8.786731E+04  2.291903E+05  1.369216E+05 -1.057272E+05 -2.636798E+03 -1.033065E+05
       107  21  3.176608E+04  2.193254E+05  8.017180E+04 -3.516509E+04 -2.731085E+03 -3.609387E+04
       107  22  2.208832E+05  1.674498E+05  2.381723E+05 -3.407934E+04 -1.623644E+02 -1.634545E+05
       107  23  6.800877E+04  1.503869E+05  1.214150E+05 -3.234019E+04 -2.659942E+03 -1.013674E+05
       107  24  1.960361E+04  1.674623E+05  7.120073E+04 -3.521415E+04 -2.713117E+03 -3.926619E+04
       107  25  1.925096E+05  6.087051E+04  2.125946E+05  1.127245E+05 -2.390401E+02 -1.564019E+05
       107  26  4.817000E+04  7.160091E+04  1.059111E+05  4.103728E+04 -2.682629E+03 -9.942859E+04
       107  27  7.441001E+03  1.156018E+05  6.222961E+04 -3.526319E+04 -2.695146E+03 -4.243825E+04
       108   1  2.412674E+04  1.951564E+05  6.365400E+04 -4.408254E+04  1.799896E+03  2.636912E+04
       108   2  8.366707E+03  1.639542E+05  4.465133E+04 -3.372097E+04  3.940640E+02  4.403022E+03
       108   3  6.298624E+03  1.389627E+05  4.335154E+04 -2.847988E+04 -1.041102E+03 -1.756222E+04
       108   4  1.605835E+04  1.612525E+05  5.780611E+04 -3.523368E+04  1.782324E+03  2.953501E+04
       108   5  7.016098E+03  1.581529E+05  4.376810E+04 -3.268607E+04  3.757804E+02  7.629725E+03
       108   6  1.165527E+04  1.612528E+05  4.739132E+04 -3.525860E+04 -1.059550E+03 -1.427562E+04
       108   7  7.990195E+03  1.273499E+05  5.195827E+04 -2.638531E+04  1.764843E+03  3.270073E+04
       108   8  5.665497E+03  1.523516E+05  4.288492E+04 -3.165118E+04  3.575074E+02  1.085640E+04
       108   9  1.701207E+04  1.835434E+05  5.143115E+04 -4.203757E+04 -1.078069E+03 -1.098891E+04
       108  10  2.412655E+04  1.951556E+05  6.365268E+04 -4.408258E+04  6.690453E-10  5.213718E-09
       108  11  8.366702E+03  1.639542E+05  4.465129E+04 -3.372097E+04  1.555255E-09  5.150463E-10
       108  12  6.298540E+03  1.389624E+05  4.335096E+04 -2.847989E+04  1.426369E-09 -1.359361E-09
       108  13  1.605811E+04  1.612515E+05  5.780447E+04 -3.523372E+04  3.805561E-09  4.893999E-09
       108  14  7.016082E+03  1.581528E+05  4.376800E+04 -3.268607E+04  2.582190E-09 -1.545766E-09
       108  15  1.165522E+04  1.612526E+05  4.739094E+04 -3.525861E+04  1.241098E-09  1.600400E-09
       108  16  7.989905E+03  1.273487E+05  5.195625E+04 -2.638535E+04  3.247938E-10 -3.323823E-09
       108  17  5.665465E+03  1.523515E+05  4.288470E+04 -3.165118E+04 -1.779093E-09  1.625001E-09
       108  18  1.701204E+04  1.835433E+05  5.143092E+04 -4.203758E+04 -1.171690E-09  1.173858E-09
       108  19  2.412674E+04  1.951564E+05  6.365400E+04 -4.408254E+04 -1.799896E+03 -2.636912E+04
       108  20  8.366707E+03  1.639542E+05  4.465133E+04 -3.372097E+04 -3.940640E+02 -4.403022E+03
       108  21  6.298624E+03  1.389627E+05  4.335154E+04 -2.847988E+04  1.041102E+03  1.756222E+04
       108  22  1.605835E+04  1.612525E+05  5.780611E+04 -3.523368E+04 -1.782324E+03 -2.953501E+04
       108  23  7.016098E+03  1.581529E+05  4.376810E+04 -3.268607E+04 -3.757804E+02 -7.629725E+03
       108  24  1.165527E+04  1.612528E+05  4.739132E+04 -3.525860E+04  1.059550E+03  1.427562E+04
       108  25  7.990195E+03  1.273499E+05  5.195827E+04 -2.638531E+04 -1.764843E+03 -3.270073E+04
       108  26  5.665497E+03  1.523516E+05  4.288492E+04 -3.165118E+04 -3.575074E+02 -1.085640E+04
       108  27  1.701207E+04  1.835434E+05  5.143115E+04 -4.203757E+04  1.078069E+03  1.098891E+04
       109   1  4.572325E+03  1.249686E+05  4.754834E+04 -3.503859E+04 -2.007741E+03 -2.539280E+04
       109   2  3.037885E+04  8.581154E+04  7.313726E+04  1.868218E+04 -2.267942E+03 -6.504421E+04
       109   3  1.280633E+05  6.972619E+04  1.424994E+05  6.764998E+04 -3.384760E+02 -1.046809E+05
       109   4  1.403943E+04  1.651773E+05  5.467374E+04 -3.523690E+04 -2.026393E+03 -2.210014E+04
       109   5  4.723524E+04  1.532443E+05  8.655994E+04 -3.246874E+04 -2.255254E+03 -6.634143E+04
       109   6  1.530910E+05  1.651688E+05  1.654018E+05 -3.445259E+04 -2.880540E+02 -1.105699E+05
       109   7  2.350645E+04  2.053877E+05  6.179911E+04 -3.543523E+04 -2.045047E+03 -1.880726E+04
       109   8  6.410115E+04  2.206870E+05  9.998378E+04 -8.362535E+04 -2.242353E+03 -6.763878E+04
       109   9  1.781571E+05  2.606421E+05  1.883093E+05 -1.365710E+05 -2.357001E+02 -1.164598E+05
       109  10  4.572148E+03  1.249679E+05  4.754713E+04 -3.503863E+04 -1.342440E-09  6.170624E-09
       109  11  3.037770E+04  8.580700E+04  7.312930E+04  1.868206E+04  7.253388E-10  5.866769E-10
       109  12  1.280603E+05  6.971442E+04  1.424788E+05  6.764995E+04  1.700811E-10 -1.097790E-09
       109  13  1.403929E+04  1.651768E+05  5.467281E+04 -3.523694E+04 -5.170010E-09  4.418655E-09
       109  14  4.723406E+04  1.532396E+05  8.655166E+04 -3.246886E+04 -2.021747E-09 -1.564336E-09
       109  15  1.530877E+05  1.651557E+05  1.653789E+05 -3.445261E+04 -1.288738E-11  1.553018E-09
       109  16  2.350635E+04  2.053873E+05  6.179844E+04 -3.543526E+04 -1.308927E-09 -4.493899E-09
       109  17  6.409992E+04  2.206821E+05  9.997517E+04 -8.362547E+04  2.275847E-10  1.297946E-09
       109  18  1.781534E+05  2.606276E+05  1.882839E+05 -1.365710E+05 -1.255430E-09  9.748590E-10
       109  19  4.572325E+03  1.249686E+05  4.754834E+04 -3.503859E+04  2.007741E+03  2.539280E+04
       109  20  3.037885E+04  8.581154E+04  7.313726E+04  1.868218E+04  2.267942E+03  6.504421E+04
       109  21  1.280633E+05  6.972619E+04  1.424994E+05  6.764998E+04  3.384760E+02  1.046809E+05
       109  22  1.403943E+04  1.651773E+05  5.467374E+04 -3.523690E+04  2.026393E+03  2.210014E+04
       109  23  4.723524E+04  1.532443E+05  8.655994E+04 -3.246874E+04  2.255254E+03  6.634143E+04
       109  24  1.530910E+05  1.651688E+05  1.654018E+05 -3.445259E+04  2.880540E+02  1.105699E+05
       109  25  2.350645E+04  2.053877E+05  6.179911E+04 -3.543523E+04  2.045047E+03  1.880726E+04
       109  26  6.410115E+04  2.206870E+05  9.998378E+04 -8.362535E+04  2.242353E+03  6.763878E+04
       109  27  1.781571E+05  2.606421E+05  1.883093E+05 -1.365710E+05  2.357001E+02  1.164598E+05
       110   1 -6.442071E+06 -1.963434E+06 -1.334204E+06 -2.176699E+06 -7.307560E+05 -2.724277E+05
       110   2 -6.265687E+06 -9.568603E+05 -6.682317E+05 -2.425434E+06 -4.730461E+05 -1.612213E+05
       110   3 -6.597132E+06 -1.017456E+06 -5.055919E+05 -2.323423E+06 -2.113070E+05 -6.069283E+04
       110   4 -5.889542E+06 -1.591772E+06 -1.149221E+06 -1.863050E+06 -7.264104E+05 -2.710079E+05
       110   5 -5.575722E+06 -6.512671E+05 -4.712476E+05 -2.193054E+06 -4.716140E+05 -1.607184E+05
       110   6 -5.768749E+06 -7.766638E+05 -2.939276E+05 -2.172470E+06 -2.127269E+05 -6.120187E+04
       110   7 -5.336648E+06 -1.219834E+06 -9.642633E+05 -1.549081E+06 -7.220602E+05 -2.695834E+05
       110   8 -4.885288E+06 -3.455950E+05 -2.743099E+05 -1.960421E+06 -4.701799E+05 -1.602144E+05
       110   9 -4.939695E+06 -5.358877E+05 -8.231479E+04 -2.021366E+06 -2.141487E+05 -6.171124E+04
       110  10 -6.442670E+06 -1.963660E+06 -1.335360E+06 -2.176860E+06 -1.438037E-09  7.203289E-10
       110  11 -6.265937E+06 -9.569495E+05 -6.687066E+05 -2.425496E+06 -1.629342E-09  2.929749E-09
       110  12 -6.597181E+06 -1.017472E+06 -5.056839E+05 -2.323433E+06 -2.515743E-09  5.306616E-10
       110  13 -5.890133E+06 -1.591995E+06 -1.150363E+06 -1.863210E+06 -3.909705E-10 -1.340882E-09
       110  14 -5.575969E+06 -6.513556E+05 -4.717191E+05 -2.193115E+06 -5.671604E-09 -1.962305E-10
       110  15 -5.768799E+06 -7.766802E+05 -2.940207E+05 -2.172481E+06 -3.089948E-09 -6.715327E-10
       110  16 -5.337232E+06 -1.220055E+06 -9.653901E+05 -1.549239E+06  2.686697E-09 -4.273900E-10
       110  17 -4.885534E+06 -3.456828E+05 -2.747779E+05 -1.960482E+06  1.038939E-10 -2.490803E-10
       110  18 -4.939745E+06 -5.359043E+05 -8.240899E+04 -2.021376E+06 -2.068080E-09  1.289265E-09
       110  19 -6.442071E+06 -1.963434E+06 -1.334204E+06 -2.176699E+06  7.307560E+05  2.724277E+05
       110  20 -6.265687E+06 -9.568603E+05 -6.682317E+05 -2.425434E+06  4.730461E+05  1.612213E+05
       110  21 -6.597132E+06 -1.017456E+06 -5.055919E+05 -2.323423E+06  2.113070E+05  6.069283E+04
       110  22 -5.889542E+06 -1.591772E+06 -1.149221E+06 -1.863050E+06  7.264104E+05  2.710079E+05
       110  23 -5.575722E+06 -6.512671E+05 -4.712476E+05 -2.193054E+06  4.716140E+05  1.607184E+05
       110  24 -5.768749E+06 -7.766638E+05 -2.939276E+05 -2.172470E+06  2.127269E+05  6.120187E+04
       110  25 -5.336648E+06 -1.219834E+06 -9.642633E+05 -1.549081E+06  7.220602E+05  2.695834E+05
       110  26 -4.885288E+06 -3.455950E+05 -2.743099E+05 -1.960421E+06  4.701799E+05  1.602144E+05
       110  27 -4.939695E+06 -5.358877E+05 -8.231479E+04 -2.021366E+06  2.141487E+05  6.171124E+04
       111   1 -6.568146E+06 -1.259508E+06 -4.771851E+05 -2.361970E+06 -1.699730E+05 -4.563320E+04
       111   2 -6.543665E+06 -1.121613E+06 -3.481942E+05 -2.394568E+06 -1.116362E+05 -2.117716E+04
       111   3 -6.587963E+06 -1.129997E+06 -3.047320E+05 -2.380714E+06 -5.230554E+04  6.582404E+02
       111   4 -5.721821E+06 -9.165999E+05 -2.412332E+05 -2.109452E+06 -1.691635E+05 -4.533541E+04
       111   5 -5.679382E+06 -7.881356E+05 -1.109496E+05 -2.153554E+06 -1.115086E+05 -2.113219E+04
       111   6 -5.705499E+06 -8.056804E+05 -6.555989E+04 -2.151226E+06 -5.285883E+04  4.489397E+02
       111   7 -4.874799E+06 -5.736221E+05 -5.348484E+03 -1.856609E+06 -1.683525E+05 -4.503702E+04
       111   8 -4.814373E+06 -4.546071E+05  1.262266E+05 -1.912231E+06 -1.113808E+05 -2.108711E+04
       111   9 -4.822281E+06 -4.813306E+05  1.735425E+05 -1.921446E+06 -5.341294E+04  2.393514E+02
       111  10 -6.568178E+06 -1.259518E+06 -4.772440E+05 -2.361977E+06 -2.512198E-09  1.122912E-09
       111  11 -6.543679E+06 -1.121617E+06 -3.482188E+05 -2.394570E+06 -5.068967E-09 -1.870818E-10
       111  12 -6.587966E+06 -1.129998E+06 -3.047372E+05 -2.380714E+06 -2.180711E-09 -1.063095E-09
       111  13 -5.721853E+06 -9.166099E+05 -2.412914E+05 -2.109458E+06 -7.435578E-09  7.161569E-10
       111  14 -5.679395E+06 -7.881395E+05 -1.109740E+05 -2.153556E+06 -1.599826E-09  2.854647E-10
       111  15 -5.705502E+06 -8.056812E+05 -6.556519E+04 -2.151226E+06 -3.496944E-09 -9.245664E-10
       111  16 -4.874830E+06 -5.736320E+05 -5.406067E+03 -1.856615E+06 -9.544543E-10  1.300293E-09
       111  17 -4.814386E+06 -4.546110E+05  1.262022E+05 -1.912233E+06  1.084566E-09 -7.505549E-10
       111  18 -4.822284E+06 -4.813314E+05  1.735371E+05 -1.921446E+06  8.385982E-10 -1.268071E-09
       111  19 -6.568146E+06 -1.259508E+06 -4.771851E+05 -2.361970E+06  1.699730E+05  4.563320E+04
       111  20 -6.543665E+06 -1.121613E+06 -3.481942E+05 -2.394568E+06  1.116362E+05  2.117716E+04
       111  21 -6.587963E+06 -1.129997E+06 -3.047320E+05 -2.380714E+06  5.230554E+04 -6.582404E+02
       111  22 -5.721821E+06 -9.165999E+05 -2.412332E+05 -2.109452E+06  1.691635E+05  4.533541E+04
       111  23 -5.679382E+06 -7.881356E+05 -1.109496E+05 -2.153554E+06  1.115086E+05  2.113219E+04
       111  24 -5.705499E+06 -8.056804E+05 -6.555989E+04 -2.151226E+06  5.285883E+04 -4.489397E+02
       111  25 -4.874799E+06 -5.736221E+05 -5.348484E+03 -1.856609E+06  1.683525E+05  4.503702E+04
       111  26 -4.814373E+06 -4.546071E+05  1.262266E+05 -1.912231E+06  1.113808E+05  2.108711E+04
       111  27 -4.822281E+06 -4.813306E+05  1.735425E+05 -1.921446E+06  5.341294E+04 -2.393514E+02
       112   1 -6.510756E+06 -1.146757E+06 -2.767169E+05 -2.378160E+06 -4.299549E+04  3.496869E+03
       112   2 -6.485664E+06 -1.091859E+06 -2.393217E+05 -2.348091E+06 -2.895347E+04  7.854623E+03
       112   3 -6.428952E+06 -1.096390E+06 -2.173543E+05 -2.357015E+06 -1.438552E+04  1.079932E+04
       112   4 -5.689946E+06 -8.332668E+05 -5.201677E+04 -2.152549E+06 -4.305938E+04  3.470808E+03
       112   5 -5.704692E+06 -7.959966E+05 -2.602279E+04 -2.135891E+06 -2.940878E+04  7.682337E+03
       112   6 -5.687730E+06 -8.180557E+05 -1.512751E+04 -2.158228E+06 -1.523354E+04  1.048117E+04
       112   7 -4.868485E+06 -5.197357E+05  1.726213E+05 -1.926665E+06 -4.312333E+04  3.444724E+03
       112   8 -4.923129E+06 -5.000992E+05  1.872206E+05 -1.923448E+06 -2.986471E+04  7.509819E+03
       112   9 -4.945975E+06 -5.396920E+05  1.870497E+05 -1.959224E+06 -1.608267E+04  1.016262E+04
       112  10 -6.510758E+06 -1.146757E+06 -2.767204E+05 -2.378160E+06 -4.159494E-10 -1.752716E-09
       112  11 -6.485664E+06 -1.091859E+06 -2.393234E+05 -2.348090E+06  2.113472E-09 -1.078913E-09
       112  12 -6.428952E+06 -1.096390E+06 -2.173549E+05 -2.357015E+06 -8.794164E-10  3.411936E-11
       112  13 -5.689948E+06 -8.332673E+05 -5.202030E+04 -2.152549E+06 -2.949415E-09 -1.842444E-09
       112  14 -5.704693E+06 -7.959969E+05 -2.602453E+04 -2.135891E+06  1.250412E-09 -3.572660E-10
       112  15 -5.687730E+06 -8.180559E+05 -1.512815E+04 -2.158228E+06 -9.932284E-10 -1.455671E-09
       112  16 -4.868487E+06 -5.197363E+05  1.726178E+05 -1.926665E+06  1.499250E-09 -2.144615E-09
       112  17 -4.923130E+06 -5.000995E+05  1.872188E+05 -1.923448E+06 -2.865788E-09 -1.496102E-09
       112  18 -4.945976E+06 -5.396922E+05  1.870491E+05 -1.959224E+06 -8.508785E-10 -8.662926E-10
       112  19 -6.510756E+06 -1.146757E+06 -2.767169E+05 -2.378160E+06  4.299549E+04 -3.496869E+03
       112  20 -6.485664E+06 -1.091859E+06 -2.393217E+05 -2.348091E+06  2.895347E+04 -7.854623E+03
       112  21 -6.428952E+06 -1.096390E+06 -2.173543E+05 -2.357015E+06  1.438552E+04 -1.079932E+04
       112  22 -5.689946E+06 -8.332668E+05 -5.201677E+04 -2.152549E+06  4.305938E+04 -3.470808E+03
       112  23 -5.704692E+06 -7.959966E+05 -2.602279E+04 -2.135891E+06  2.940878E+04 -7.682337E+03
       112  24 -5.687730E+06 -8.180557E+05 -1.512751E+04 -2.158228E+06  1.523354E+04 -1.048117E+04
       112  25 -4.868485E+06 -5.197357E+05  1.726213E+05 -1.926665E+06  4.312333E+04 -3.444724E+03
       112  26 -4.923129E+06 -5.000992E+05  1.872206E+05 -1.923448E+06  2.986471E+04 -7.509819E+03
       112  27 -4.945975E+06 -5.396920E+05  1.870497E+05 -1.959224E+06  1.608267E+04 -1.016262E+04
       113   1 -6.240930E+06 -1.040118E+06 -1.650915E+05 -2.317605E+06 -1.182340E+04  1.004799E+04
       113   2 -6.198769E+06 -9.711342E+05 -1.390312E+05 -2.254682E+06 -6.973440E+03  8.937807E+03
       113   3 -6.084442E+06 -9.783469E+05 -1.165711E+05 -2.275185E+06 -1.831907E+03  7.030900E+03
       113   4 -5.679554E+06 -8.281288E+05 -1.211168E+04 -2.165698E+06 -1.245526E+04  9.811332E+03
       113   5 -5.715513E+06 -7.890463E+05 -7.260419E+03 -2.124363E+06 -7.832572E+03  8.617177E+03
       113   6 -5.679268E+06 -8.261082E+05 -5.824823E+03 -2.166449E+06 -2.918991E+03  6.626413E+03
       113   7 -5.117873E+06 -6.161213E+05  1.408397E+05 -2.013666E+06 -1.308775E+04  9.574441E+03
       113   8 -5.232032E+06 -6.069459E+05  1.244888E+05 -1.993951E+06 -8.692444E+03  8.296271E+03
       113   9 -5.273939E+06 -6.738616E+05  1.049058E+05 -2.057650E+06 -4.006855E+03  6.221637E+03
       113  10 -6.240930E+06 -1.040118E+06 -1.650919E+05 -2.317604E+06 -1.947887E-09 -8.542409E-10
       113  11 -6.198769E+06 -9.711343E+05 -1.390314E+05 -2.254682E+06 -2.383987E-10  2.413368E-09
       113  12 -6.084442E+06 -9.783470E+05 -1.165712E+05 -2.275185E+06 -9.007716E-10 -6.033233E-11
       113  13 -5.679554E+06 -8.281290E+05 -1.211216E+04 -2.165698E+06 -2.977903E-09 -1.545091E-09
       113  14 -5.715513E+06 -7.890464E+05 -7.260673E+03 -2.124363E+06  5.250196E-10  3.362107E-09
       113  15 -5.679268E+06 -8.261082E+05 -5.824921E+03 -2.166449E+06 -2.690516E-09  1.449328E-10
       113  16 -5.117873E+06 -6.161215E+05  1.408392E+05 -2.013666E+06  3.525347E-10  5.753585E-10
       113  17 -5.232032E+06 -6.069460E+05  1.244885E+05 -1.993951E+06  1.817026E-09  1.636466E-09
       113  18 -5.273939E+06 -6.738616E+05  1.049056E+05 -2.057650E+06 -1.545427E-09 -5.466282E-10
       113  19 -6.240930E+06 -1.040118E+06 -1.650915E+05 -2.317605E+06  1.182340E+04 -1.004799E+04
       113  20 -6.198769E+06 -9.711342E+05 -1.390312E+05 -2.254682E+06  6.973440E+03 -8.937807E+03
       113  21 -6.084442E+06 -9.783469E+05 -1.165711E+05 -2.275185E+06  1.831907E+03 -7.030900E+03
       113  22 -5.679554E+06 -8.281288E+05 -1.211168E+04 -2.165698E+06  1.245526E+04 -9.811332E+03
       113  23 -5.715513E+06 -7.890463E+05 -7.260419E+03 -2.124363E+06  7.832572E+03 -8.617177E+03
       113  24 -5.679268E+06 -8.261082E+05 -5.824823E+03 -2.166449E+06  2.918991E+03 -6.626413E+03
       113  25 -5.117873E+06 -6.161213E+05  1.408397E+05 -2.013666E+06  1.308775E+04 -9.574441E+03
       113  26 -5.232032E+06 -6.069459E+05  1.244888E+05 -1.993951E+06  8.692444E+03 -8.296271E+03
       113  27 -5.273939E+06 -6.738616E+05  1.049058E+05 -2.057650E+06  4.006855E+03 -6.221637E+03
       114   1 -5.823802E+06 -8.851187E+05 -4.584142E+04 -2.210205E+06 -1.526837E+02  5.221057E+03
       114   2 -5.772813E+06 -8.050134E+05 -2.193532E+04 -2.133977E+06  4.893851E+03  3.092120E+03
       114   3 -5.636192E+06 -8.157715E+05 -1.763044E+03 -2.158366E+06  9.962465E+03  9.038791E+02
       114   4 -5.676249E+06 -8.294341E+05 -5.918363E+03 -2.170231E+06 -1.163668E+03  4.845354E+03
       114   5 -5.719190E+06 -7.848886E+05 -7.332361E+03 -2.119594E+06  3.865956E+03  2.710216E+03
       114   6 -5.676506E+06 -8.312039E+05 -1.246620E+04 -2.169579E+06  8.917020E+03  5.155729E+02
       114   7 -5.528674E+06 -7.737479E+05  3.400297E+04 -2.130247E+06 -2.174925E+03  4.469550E+03
       114   8 -5.665564E+06 -7.647636E+05  7.270411E+03 -2.105210E+06  2.837959E+03  2.328274E+03
       114   9 -5.716819E+06 -8.466363E+05 -2.316954E+04 -2.180791E+06  7.871647E+03  1.272945E+02
       114  10 -5.823802E+06 -8.851187E+05 -4.584147E+04 -2.210205E+06 -1.258835E-09  5.437544E-10
       114  11 -5.772813E+06 -8.050134E+05 -2.193538E+04 -2.133977E+06 -2.545936E-09  3.086254E-09
       114  12 -5.636192E+06 -8.157715E+05 -1.763233E+03 -2.158366E+06  2.499146E-09 -5.743623E-10
       114  13 -5.676249E+06 -8.294341E+05 -5.918410E+03 -2.170231E+06  4.218170E-10 -2.222763E-09
       114  14 -5.719190E+06 -7.848886E+05 -7.332404E+03 -2.119594E+06 -4.968024E-09 -3.659877E-09
       114  15 -5.676506E+06 -8.312039E+05 -1.246635E+04 -2.169579E+06  2.054307E-09 -1.045324E-10
       114  16 -5.528674E+06 -7.737479E+05  3.400293E+04 -2.130247E+06  8.433865E-10  2.761464E-11
       114  17 -5.665564E+06 -7.647636E+05  7.270386E+03 -2.105210E+06 -2.558643E-09 -2.224588E-09
       114  18 -5.716819E+06 -8.466363E+05 -2.316966E+04 -2.180791E+06 -1.486606E-09 -3.989686E-10
       114  19 -5.823802E+06 -8.851187E+05 -4.584142E+04 -2.210205E+06  1.526837E+02 -5.221057E+03
       114  20 -5.772813E+06 -8.050134E+05 -2.193532E+04 -2.133977E+06 -4.893851E+03 -3.092120E+03
       114  21 -5.636192E+06 -8.157715E+05 -1.763044E+03 -2.158366E+06 -9.962465E+03 -9.038791E+02
       114  22 -5.676249E+06 -8.294341E+05 -5.918363E+03 -2.170231E+06  1.163668E+03 -4.845354E+03
       114  23 -5.719190E+06 -7.848886E+05 -7.332361E+03 -2.119594E+06 -3.865956E+03 -2.710216E+03
       114  24 -5.676506E+06 -8.312039E+05 -1.246620E+04 -2.169579E+06 -8.917020E+03 -5.155729E+02
       114  25 -5.528674E+06 -7.737479E+05  3.400297E+04 -2.130247E+06  2.174925E+03 -4.469550E+03
       114  26 -5.665564E+06 -7.647636E+05  7.270411E+03 -2.105210E+06 -2.837959E+03 -2.328274E+03
       114  27 -5.716819E+06 -8.466363E+05 -2.316954E+04 -2.180791E+06 -7.871647E+03 -1.272945E+02
       115   1 -5.372220E+06 -7.127524E+05  6.806087E+04 -2.087614E+06  1.319375E+04 -4.312682E+02
       115   2 -5.325097E+06 -6.373532E+05  7.964184E+04 -2.017379E+06  2.800546E+04  1.087108E+03
       115   3 -5.208838E+06 -6.618853E+05  7.537688E+04 -2.032605E+06  4.251238E+04  3.443161E+03
       115   4 -5.679308E+06 -8.267633E+05 -1.566078E+04 -2.168628E+06  1.205253E+04 -8.554367E+02
       115   5 -5.714975E+06 -7.846290E+05 -2.668698E+04 -2.122982E+06  2.709815E+04  7.490438E+02
       115   6 -5.681565E+06 -8.424855E+05 -5.375392E+04 -2.162804E+06  4.183697E+04  3.190638E+03
       115   7 -5.986303E+06 -9.407691E+05 -9.939041E+04 -2.249605E+06  1.091193E+04 -1.279377E+03
       115   8 -6.104705E+06 -9.318959E+05 -1.330294E+05 -2.228525E+06  2.619148E+04  4.112152E+02
       115   9 -6.154076E+06 -1.023072E+06 -1.829054E+05 -2.292912E+06  4.116212E+04  2.938330E+03
       115  10 -5.372220E+06 -7.127524E+05  6.806054E+04 -2.087614E+06  9.154641E-10 -8.151329E-10
       115  11 -5.325098E+06 -6.373534E+05  7.964035E+04 -2.017379E+06 -2.894484E-09  1.451027E-09
       115  12 -5.208840E+06 -6.618858E+05  7.537343E+04 -2.032605E+06  4.455921E-10  1.835808E-09
       115  13 -5.679308E+06 -8.267634E+05 -1.566105E+04 -2.168628E+06  1.314921E-09  2.545435E-09
       115  14 -5.714976E+06 -7.846292E+05 -2.668837E+04 -2.122982E+06  2.491117E-09  1.220102E-09
       115  15 -5.681567E+06 -8.424860E+05 -5.375726E+04 -2.162804E+06 -1.417839E-09  5.793174E-10
       115  16 -5.986303E+06 -9.407691E+05 -9.939063E+04 -2.249605E+06  5.811561E-10  1.627305E-09
       115  17 -6.104706E+06 -9.318961E+05 -1.330307E+05 -2.228525E+06  8.741964E-10 -7.169805E-10
       115  18 -6.154078E+06 -1.023072E+06 -1.829087E+05 -2.292912E+06  1.470462E-09  4.995448E-10
       115  19 -5.372220E+06 -7.127524E+05  6.806087E+04 -2.087614E+06 -1.319375E+04  4.312682E+02
       115  20 -5.325097E+06 -6.373532E+05  7.964184E+04 -2.017379E+06 -2.800546E+04 -1.087108E+03
       115  21 -5.208838E+06 -6.618853E+05  7.537688E+04 -2.032605E+06 -4.251238E+04 -3.443161E+03
       115  22 -5.679308E+06 -8.267633E+05 -1.566078E+04 -2.168628E+06 -1.205253E+04  8.554367E+02
       115  23 -5.714975E+06 -7.846290E+05 -2.668698E+04 -2.122982E+06 -2.709815E+04 -7.490438E+02
       115  24 -5.681565E+06 -8.424855E+05 -5.375392E+04 -2.162804E+06 -4.183697E+04 -3.190638E+03
       115  25 -5.986303E+06 -9.407691E+05 -9.939041E+04 -2.249605E+06 -1.091193E+04  1.279377E+03
       115  26 -6.104705E+06 -9.318959E+05 -1.330294E+05 -2.228525E+06 -2.619148E+04 -4.112152E+02
       115  27 -6.154076E+06 -1.023072E+06 -1.829054E+05 -2.292912E+06 -4.116212E+04 -2.938330E+03
       116   1 -5.008944E+06 -5.698920E+05  1.171900E+05 -1.991430E+06  5.368067E+04  5.425919E+03
       116   2 -4.968921E+06 -4.933265E+05  8.417719E+04 -1.934712E+06  1.142567E+05  2.510709E+04
       116   3 -4.945658E+06 -6.221950E+05 -3.598521E+04 -1.893281E+06  1.737449E+05  4.771773E+04
       116   4 -5.693891E+06 -8.174457E+05 -6.766750E+04 -2.165356E+06  5.247110E+04  4.974640E+03
       116   5 -5.693700E+06 -7.721158E+05 -1.144138E+05 -2.136255E+06  1.138271E+05  2.494374E+04
       116   6 -5.710500E+06 -9.324998E+05 -2.490141E+05 -2.122431E+06  1.740902E+05  4.783840E+04
       116   7 -6.378384E+06 -1.064983E+06 -2.525667E+05 -2.339112E+06  5.126299E+04  4.523849E+03
       116   8 -6.417969E+06 -1.050870E+06 -3.130529E+05 -2.337582E+06  1.133979E+05  2.478058E+04
       116   9 -6.474773E+06 -1.242746E+06 -4.620978E+05 -2.351314E+06  1.744349E+05  4.795880E+04
       116  10 -5.008947E+06 -5.698928E+05  1.171845E+05 -1.991431E+06 -7.988304E-10  6.031940E-11
       116  11 -4.968936E+06 -4.933308E+05  8.415125E+04 -1.934715E+06 -1.642739E-09 -1.640288E-09
       116  12 -4.945691E+06 -6.222056E+05 -3.604677E+04 -1.893288E+06 -1.316293E-09 -2.542898E-09
       116  13 -5.693893E+06 -8.174465E+05 -6.767277E+04 -2.165356E+06  1.410699E-10  3.490668E-09
       116  14 -5.693714E+06 -7.721199E+05 -1.144396E+05 -2.136257E+06 -2.095237E-09 -6.624689E-10
       116  15 -5.710534E+06 -9.325106E+05 -2.490760E+05 -2.122438E+06  1.940742E-09 -4.501127E-10
       116  16 -6.378387E+06 -1.064983E+06 -2.525717E+05 -2.339112E+06  2.716558E-10  1.242898E-09
       116  17 -6.417983E+06 -1.050874E+06 -3.130785E+05 -2.337584E+06  1.324045E-09  1.527175E-09
       116  18 -6.474807E+06 -1.242757E+06 -4.621600E+05 -2.351321E+06  1.111652E-10  1.607625E-10
       116  19 -5.008944E+06 -5.698920E+05  1.171900E+05 -1.991430E+06 -5.368067E+04 -5.425919E+03
       116  20 -4.968921E+06 -4.933265E+05  8.417719E+04 -1.934712E+06 -1.142567E+05 -2.510709E+04
       116  21 -4.945658E+06 -6.221950E+05 -3.598521E+04 -1.893281E+06 -1.737449E+05 -4.771773E+04
       116  22 -5.693891E+06 -8.174457E+05 -6.766750E+04 -2.165356E+06 -5.247110E+04 -4.974640E+03
       116  23 -5.693700E+06 -7.721158E+05 -1.144138E+05 -2.136255E+06 -1.138271E+05 -2.494374E+04
       116  24 -5.710500E+06 -9.324998E+05 -2.490141E+05 -2.122431E+06 -1.740902E+05 -4.783840E+04
       116  25 -6.378384E+06 -1.064983E+06 -2.525667E+05 -2.339112E+06 -5.126299E+04 -4.523849E+03
       116  26 -6.417969E+06 -1.050870E+06 -3.130529E+05 -2.337582E+06 -1.133979E+05 -2.478058E+04
       116  27 -6.474773E+06 -1.242746E+06 -4.620978E+05 -2.351314E+06 -1.744349E+05 -4.795880E+04
       117   1 -4.837387E+06 -5.157103E+05 -6.703399E+04 -2.015488E+06  2.227783E+05  6.302923E+04
       117   2 -4.749925E+06 -2.695030E+05 -2.493812E+05 -1.904023E+06  4.870610E+05  1.608364E+05
       117   3 -5.125281E+06 -1.179008E+06 -9.442711E+05 -1.496010E+06  7.454426E+05  2.743499E+05
       117   4 -5.758691E+06 -7.877228E+05 -3.032592E+05 -2.187064E+06  2.198855E+05  6.197446E+04
       117   5 -5.587967E+06 -6.305595E+05 -4.863683E+05 -2.176760E+06  4.883536E+05  1.612788E+05
       117   6 -5.881543E+06 -1.630969E+06 -1.185905E+06 -1.869708E+06  7.509533E+05  2.761839E+05
       117   7 -6.679170E+06 -1.059754E+06 -5.395492E+05 -2.358446E+06  2.169973E+05  6.092054E+04
       117   8 -6.425320E+06 -9.915143E+05 -7.234227E+05 -2.449141E+06  4.896438E+05  1.617200E+05
       117   9 -6.637175E+06 -2.082581E+06 -1.427591E+06 -2.242904E+06  7.564562E+05  2.780110E+05
       117  10 -4.837442E+06 -5.157280E+05 -6.713564E+04 -2.015499E+06  1.636492E-10 -1.105427E-09
       117  11 -4.750188E+06 -2.695954E+05 -2.498801E+05 -1.904087E+06 -1.447134E-09 -1.075151E-09
       117  12 -5.125902E+06 -1.179240E+06 -9.454676E+05 -1.496176E+06 -1.688710E-09  5.117425E-10
       117  13 -5.758745E+06 -7.877401E+05 -3.033583E+05 -2.187075E+06 -1.267820E-09 -1.741396E-09
       117  14 -5.588232E+06 -6.306525E+05 -4.868706E+05 -2.176824E+06  1.112824E-10 -8.930265E-10
       117  15 -5.882175E+06 -1.631205E+06 -1.187121E+06 -1.869876E+06  1.512677E-09  3.140078E-10
       117  16 -6.679222E+06 -1.059770E+06 -5.396459E+05 -2.358456E+06 -1.065747E-09 -7.721065E-10
       117  17 -6.425587E+06 -9.916081E+05 -7.239284E+05 -2.449205E+06 -2.236776E-09  9.249019E-10
       117  18 -6.637817E+06 -2.082821E+06 -1.428826E+06 -2.243075E+06  1.792570E-09 -3.534789E-10
       117  19 -4.837387E+06 -5.157103E+05 -6.703399E+04 -2.015488E+06 -2.227783E+05 -6.302923E+04
       117  20 -4.749925E+06 -2.695030E+05 -2.493812E+05 -1.904023E+06 -4.870610E+05 -1.608364E+05
       117  21 -5.125281E+06 -1.179008E+06 -9.442711E+05 -1.496010E+06 -7.454426E+05 -2.743499E+05
       117  22 -5.758691E+06 -7.877228E+05 -3.032592E+05 -2.187064E+06 -2.198855E+05 -6.197446E+04
       117  23 -5.587967E+06 -6.305595E+05 -4.863683E+05 -2.176760E+06 -4.883536E+05 -1.612788E+05
       117  24 -5.881543E+06 -1.630969E+06 -1.185905E+06 -1.869708E+06 -7.509533E+05 -2.761839E+05
       117  25 -6.679170E+06 -1.059754E+06 -5.395492E+05 -2.358446E+06 -2.169973E+05 -6.092054E+04
       117  26 -6.425320E+06 -9.915143E+05 -7.234227E+05 -2.449141E+06 -4.896438E+05 -1.617200E+05
       117  27 -6.637175E+06 -2.082581E+06 -1.427591E+06 -2.242904E+06 -7.564562E+05 -2.780110E+05
       118   1 -1.068439E+06  1.863350E+05  2.649580E+05  4.504563E+04  2.353766E+05  2.772655E+03
       118   2 -1.103131E+06 -1.334845E+05  7.170645E+04  1.422986E+04  1.555061E+05  7.203801E+03
       118   3 -1.035370E+06 -8.684495E+04  2.224160E+04 -3.672888E+04  7.563899E+04  6.144996E+03
       118   4 -7.327665E+05  2.700102E+05  3.484226E+05 -1.075077E+04  2.377450E+05  2.754899E+03
       118   5 -7.841815E+05 -5.399181E+04  1.500914E+05 -4.692678E+02  1.561213E+05  7.200572E+03
       118   6 -7.328954E+05 -1.133751E+04  9.671001E+04 -1.033204E+04  7.450343E+04  6.146950E+03
       118   7 -3.969852E+05  3.536887E+05  4.318805E+05 -6.657743E+04  2.401146E+05  2.736725E+03
       118   8 -4.651390E+05  2.549413E+04  2.284689E+05 -1.517600E+04  1.567368E+05  7.197316E+03
       118   9 -4.303362E+05  6.416571E+04  1.711720E+05  1.607768E+04  7.336730E+04  6.148805E+03
       118  10 -1.068498E+06  1.863201E+05  2.648537E+05  4.504511E+04  1.879018E-10  7.061743E-10
       118  11 -1.103157E+06 -1.334911E+05  7.166084E+04  1.422896E+04 -2.657912E-09  1.057561E-10
       118  12 -1.035376E+06 -8.684653E+04  2.223076E+04 -3.672925E+04  5.346567E-10 -7.740239E-11
       118  13 -7.328273E+05  2.699950E+05  3.483163E+05 -1.075129E+04 -3.415598E-11  3.310438E-10
       118  14 -7.842077E+05 -5.399842E+04  1.500454E+05 -4.701733E+02  3.177276E-10 -1.442543E-09
       118  15 -7.329013E+05 -1.133905E+04  9.669950E+04 -1.033241E+04  2.332411E-10  2.026542E-10
       118  16 -3.970471E+05  3.536732E+05  4.317721E+05 -6.657796E+04  5.974738E-10  1.108422E-10
       118  17 -4.651654E+05  2.548747E+04  2.284226E+05 -1.517691E+04  1.016080E-09 -4.236304E-10
       118  18 -4.303420E+05  6.416422E+04  1.711619E+05  1.607732E+04 -4.701721E-10 -2.963072E-10
       118  19 -1.068439E+06  1.863350E+05  2.649580E+05  4.504563E+04 -2.353766E+05 -2.772655E+03
       118  20 -1.103131E+06 -1.334845E+05  7.170645E+04  1.422986E+04 -1.555061E+05 -7.203801E+03
       118  21 -1.035370E+06 -8.684495E+04  2.224160E+04 -3.672888E+04 -7.563899E+04 -6.144996E+03
       118  22 -7.327665E+05  2.700102E+05  3.484226E+05 -1.075077E+04 -2.377450E+05 -2.754899E+03
       118  23 -7.841815E+05 -5.399181E+04  1.500914E+05 -4.692678E+02 -1.561213E+05 -7.200572E+03
       118  24 -7.328954E+05 -1.133751E+04  9.671001E+04 -1.033204E+04 -7.450343E+04 -6.146950E+03
       118  25 -3.969852E+05  3.536887E+05  4.318805E+05 -6.657743E+04 -2.401146E+05 -2.736725E+03
       118  26 -4.651390E+05  2.549413E+04  2.284689E+05 -1.517600E+04 -1.567368E+05 -7.197316E+03
       118  27 -4.303362E+05  6.416571E+04  1.711720E+05  1.607768E+04 -7.336730E+04 -6.148805E+03
       119   1 -1.010282E+06 -2.835406E+04  1.606570E+04 -3.986524E+03  5.877040E+04  4.934979E+03
       119   2 -9.996748E+05 -6.706942E+04 -2.006471E+04  1.695879E+03  3.874694E+04  4.894138E+03
       119   3 -9.740008E+05 -5.678382E+04 -3.084990E+04 -1.449364E+04  1.872348E+04  4.181616E+03
       119   4 -7.523294E+05  3.598503E+04  7.961990E+04 -1.086318E+04  5.888372E+04  4.934270E+03
       119   5 -7.598888E+05 -7.263696E+03  3.894980E+04  8.606550E+01  3.864332E+04  4.893855E+03
       119   6 -7.523502E+05 -1.484322E+03  2.376821E+04 -1.083599E+04  1.840350E+04  4.181533E+03
       119   7 -4.943159E+05  1.003193E+05  1.431692E+05 -1.774272E+04  5.899709E+04  4.933559E+03
       119   8 -5.200504E+05  5.253776E+04  9.796006E+04 -1.524379E+03  3.853965E+04  4.893572E+03
       119   9 -5.306548E+05  5.381156E+04  7.838269E+04 -7.177046E+03  1.808341E+04  4.181446E+03
       119  10 -1.010286E+06 -2.835502E+04  1.605915E+04 -3.986758E+03  1.025612E-09 -6.191658E-10
       119  11 -9.996764E+05 -6.706985E+04 -2.006758E+04  1.695726E+03 -1.821587E-09  6.393450E-10
       119  12 -9.740011E+05 -5.678393E+04 -3.085059E+04 -1.449370E+04  3.050249E-09 -6.320395E-10
       119  13 -7.523331E+05  3.598407E+04  7.961333E+04 -1.086342E+04  2.204003E-09 -1.861747E-10
       119  14 -7.598904E+05 -7.264124E+03  3.894694E+04  8.591316E+01  3.192570E-09 -8.591943E-11
       119  15 -7.523506E+05 -1.484432E+03  2.376754E+04 -1.083606E+04  1.760185E-09 -5.643160E-10
       119  16 -4.943197E+05  1.003184E+05  1.431626E+05 -1.774296E+04 -6.056555E-10  2.614043E-10
       119  17 -5.200520E+05  5.253733E+04  9.795722E+04 -1.524531E+03 -3.758869E-10 -1.072618E-09
       119  18 -5.306552E+05  5.381145E+04  7.838204E+04 -7.177107E+03 -1.161387E-09 -3.846598E-10
       119  19 -1.010282E+06 -2.835406E+04  1.606570E+04 -3.986524E+03 -5.877040E+04 -4.934979E+03
       119  20 -9.996748E+05 -6.706942E+04 -2.006471E+04  1.695879E+03 -3.874694E+04 -4.894138E+03
       119  21 -9.740008E+05 -5.678382E+04 -3.084990E+04 -1.449364E+04 -1.872348E+04 -4.181616E+03
       119  22 -7.523294E+05  3.598503E+04  7.961990E+04 -1.086318E+04 -5.888372E+04 -4.934270E+03
       119  23 -7.598888E+05 -7.263696E+03  3.894980E+04  8.606550E+01 -3.864332E+04 -4.893855E+03
       119  24 -7.523502E+05 -1.484322E+03  2.376821E+04 -1.083599E+04 -1.840350E+04 -4.181533E+03
       119  25 -4.943159E+05  1.003193E+05  1.431692E+05 -1.774272E+04 -5.899709E+04 -4.933559E+03
       119  26 -5.200504E+05  5.253776E+04  9.796006E+04 -1.524379E+03 -3.853965E+04 -4.893572E+03
       119  27 -5.306548E+05  5.381156E+04  7.838269E+04 -7.177046E+03 -1.808341E+04 -4.181446E+03
       120   1 -9.283606E+05 -3.843973E+04 -2.374240E+04 -1.038033E+04  1.475971E+04  3.691876E+03
       120   2 -9.101904E+05 -3.934705E+04 -2.795762E+04  6.400348E+02  9.763579E+03  3.088538E+03
       120   3 -8.896659E+05 -3.373894E+04 -2.727247E+04 -1.165978E+04  4.766941E+03  2.387818E+03
       120   4 -7.551720E+05  4.747915E+03  1.884582E+04 -1.116651E+04  1.458983E+04  3.691758E+03
       120   5 -7.563532E+05 -9.773457E+02  9.910108E+03  4.937949E+02  9.562071E+03  3.088477E+03
       120   6 -7.551760E+05 -1.827174E+02  5.895669E+03 -1.116570E+04  4.533965E+03  2.387814E+03
       120   7 -5.819561E+05  4.793333E+04  6.143183E+04 -1.195290E+04  1.441990E+04  3.691641E+03
       120   8 -6.024945E+05  3.739060E+04  4.777609E+04  3.475185E+02  9.360514E+03  3.088415E+03
       120   9 -6.206697E+05  3.337216E+04  3.906247E+04 -1.067150E+04  4.300938E+03  2.387810E+03
       120  10 -9.283608E+05 -3.843981E+04 -2.374283E+04 -1.038038E+04  2.516521E-09  1.152081E-10
       120  11 -9.101905E+05 -3.934709E+04 -2.795782E+04  6.400105E+02  1.014107E-11  9.735495E-10
       120  12 -8.896659E+05 -3.373896E+04 -2.727253E+04 -1.165979E+04  1.346092E-09  2.608067E-11
       120  13 -7.551722E+05  4.747843E+03  1.884540E+04 -1.116655E+04 -2.522065E-11  3.812265E-11
       120  14 -7.563533E+05 -9.773805E+02  9.909918E+03  4.937711E+02  2.011891E-09  9.920034E-10
       120  15 -7.551761E+05 -1.827290E+02  5.895620E+03 -1.116571E+04 -1.129777E-09 -5.880718E-11
       120  16 -5.819563E+05  4.793326E+04  6.143141E+04 -1.195294E+04 -3.206581E-09  2.942355E-10
       120  17 -6.024946E+05  3.739056E+04  4.777591E+04  3.474952E+02 -1.414162E-09  6.855422E-10
       120  18 -6.206697E+05  3.337215E+04  3.906243E+04 -1.067151E+04  2.779499E-10 -7.108919E-11
       120  19 -9.283606E+05 -3.843973E+04 -2.374240E+04 -1.038033E+04 -1.475971E+04 -3.691876E+03
       120  20 -9.101904E+05 -3.934705E+04 -2.795762E+04  6.400348E+02 -9.763579E+03 -3.088538E+03
       120  21 -8.896659E+05 -3.373894E+04 -2.727247E+04 -1.165978E+04 -4.766941E+03 -2.387818E+03
       120  22 -7.551720E+05  4.747915E+03  1.884582E+04 -1.116651E+04 -1.458983E+04 -3.691758E+03
       120  23 -7.563532E+05 -9.773457E+02  9.910108E+03  4.937949E+02 -9.562071E+03 -3.088477E+03
       120  24 -7.551760E+05 -1.827174E+02  5.895669E+03 -1.116570E+04 -4.533965E+03 -2.387814E+03
       120  25 -5.819561E+05  4.793333E+04  6.143183E+04 -1.195290E+04 -1.441990E+04 -3.691641E+03
       120  26 -6.024945E+05  3.739060E+04  4.777609E+04  3.475185E+02 -9.360514E+03 -3.088415E+03
       120  27 -6.206697E+05  3.337216E+04  3.906247E+04 -1.067150E+04 -4.300938E+03 -2.387810E+03
       121   1 -8.391847E+05 -2.021449E+04 -1.592318E+04 -1.125778E+04  3.803550E+03  1.966754E+03
       121   2 -8.193546E+05 -1.598209E+04 -1.308768E+04  7.298682E+02  2.529405E+03  1.272451E+03
       121   3 -7.991408E+05 -1.087607E+04 -9.203735E+03 -1.140809E+04  1.255083E+03  5.607560E+02
       121   4 -7.556109E+05  6.176456E+02  4.589189E+03 -1.134485E+04  3.590086E+03  1.966773E+03
       121   5 -7.558035E+05 -1.320696E+02  2.555451E+03  7.178182E+02  2.310359E+03  1.272492E+03
       121   6 -7.556118E+05 -7.236868E+00  1.573949E+03 -1.134497E+04  1.030494E+03  5.608197E+02
       121   7 -6.720307E+05  2.144926E+04  2.510104E+04 -1.143194E+04  3.376594E+03  1.966792E+03
       121   8 -6.922486E+05  1.571765E+04  1.819829E+04  7.057671E+02  2.091290E+03  1.272532E+03
       121   9 -7.120810E+05  1.086146E+04  1.235149E+04 -1.128183E+04  8.058904E+02  5.608834E+02
       121  10 -8.391847E+05 -2.021450E+04 -1.592321E+04 -1.125779E+04  4.013567E-10 -5.003071E-10
       121  11 -8.193546E+05 -1.598209E+04 -1.308770E+04  7.298656E+02 -1.058682E-09  1.350457E-10
       121  12 -7.991408E+05 -1.087607E+04 -9.203738E+03 -1.140810E+04 -5.129073E-10  4.204930E-10
       121  13 -7.556109E+05  6.176380E+02  4.589158E+03 -1.134486E+04  2.901474E-10 -3.031777E-10
       121  14 -7.558035E+05 -1.320727E+02  2.555438E+03  7.178158E+02  3.107231E-09  8.486631E-11
       121  15 -7.556118E+05 -7.237491E+00  1.573946E+03 -1.134497E+04 -3.766810E-10  2.970359E-10
       121  16 -6.720308E+05  2.144925E+04  2.510101E+04 -1.143194E+04  1.086210E-09 -7.638475E-10
       121  17 -6.922486E+05  1.571765E+04  1.819828E+04  7.057650E+02  1.594352E-09  1.703677E-10
       121  18 -7.120810E+05  1.086146E+04  1.235149E+04 -1.128183E+04  7.056348E-10  2.800979E-10
       121  19 -8.391847E+05 -2.021449E+04 -1.592318E+04 -1.125778E+04 -3.803550E+03 -1.966754E+03
       121  20 -8.193546E+05 -1.598209E+04 -1.308768E+04  7.298682E+02 -2.529405E+03 -1.272451E+03
       121  21 -7.991408E+05 -1.087607E+04 -9.203735E+03 -1.140809E+04 -1.255083E+03 -5.607560E+02
       121  22 -7.556109E+05  6.176456E+02  4.589189E+03 -1.134485E+04 -3.590086E+03 -1.966773E+03
       121  23 -7.558035E+05 -1.320696E+02  2.555451E+03  7.178182E+02 -2.310359E+03 -1.272492E+03
       121  24 -7.556118E+05 -7.236868E+00  1.573949E+03 -1.134497E+04 -1.030494E+03 -5.608197E+02
       121  25 -6.720307E+05  2.144926E+04  2.510104E+04 -1.143194E+04 -3.376594E+03 -1.966792E+03
       121  26 -6.922486E+05  1.571765E+04  1.819829E+04  7.057671E+02 -2.091290E+03 -1.272532E+03
       121  27 -7.120810E+05  1.086146E+04  1.235149E+04 -1.128183E+04 -8.058904E+02 -5.608834E+02
       122   1 -7.472771E+05  2.188326E+03  3.402639E+03 -1.136651E+04  9.973135E+02  1.407733E+02
       122   2 -7.271944E+05  7.083896E+03  7.918654E+03  7.439259E+02  5.467384E+02 -5.720016E+02
       122   3 -7.070134E+05  1.219086E+04  1.277816E+04 -1.140155E+04  9.621981E+01 -1.273395E+03
       122   4 -7.556749E+05  8.140713E+01  1.272790E+03 -1.137392E+04  7.732933E+02  1.408415E+02
       122   5 -7.557237E+05 -3.106142E+01  8.966293E+02  7.540664E+02  3.262722E+02 -5.719445E+02
       122   6 -7.556749E+05  6.735363E+01  8.615929E+02 -1.137393E+04 -1.206779E+02 -1.273347E+03
       122   7 -7.640726E+05 -2.025517E+03 -8.570640E+02 -1.138133E+04  5.492761E+02  1.409098E+02
       122   8 -7.842522E+05 -7.146079E+03 -6.125455E+03  7.642065E+02  1.058160E+02 -5.718874E+02
       122   9 -8.043342E+05 -1.205633E+04 -1.105515E+04 -1.134631E+04 -3.375587E+02 -1.273300E+03
       122  10 -7.472771E+05  2.188326E+03  3.402637E+03 -1.136651E+04 -2.954304E-10 -1.809209E-10
       122  11 -7.271944E+05  7.083895E+03  7.918653E+03  7.439262E+02 -5.270887E-09 -5.608923E-10
       122  12 -7.070134E+05  1.219086E+04  1.277816E+04 -1.140155E+04  2.761381E-10 -8.504858E-10
       122  13 -7.556749E+05  8.140695E+01  1.272789E+03 -1.137392E+04  2.901051E-10  2.874297E-10
       122  14 -7.557237E+05 -3.106180E+01  8.966285E+02  7.540666E+02  2.985122E-10 -2.052840E-10
       122  15 -7.556749E+05  6.735188E+01  8.615898E+02 -1.137393E+04 -2.819351E-09 -9.032177E-10
       122  16 -7.640726E+05 -2.025517E+03 -8.570646E+02 -1.138133E+04  8.142912E-10  1.837007E-10
       122  17 -7.842522E+05 -7.146080E+03 -6.125456E+03  7.642066E+02  1.361395E-09 -8.783830E-11
       122  18 -8.043342E+05 -1.205633E+04 -1.105515E+04 -1.134631E+04 -2.067757E-09 -2.401751E-10
       122  19 -7.472771E+05  2.188326E+03  3.402639E+03 -1.136651E+04 -9.973135E+02 -1.407733E+02
       122  20 -7.271944E+05  7.083896E+03  7.918654E+03  7.439259E+02 -5.467384E+02  5.720016E+02
       122  21 -7.070134E+05  1.219086E+04  1.277816E+04 -1.140155E+04 -9.621981E+01  1.273395E+03
       122  22 -7.556749E+05  8.140713E+01  1.272790E+03 -1.137392E+04 -7.732933E+02 -1.408415E+02
       122  23 -7.557237E+05 -3.106142E+01  8.966293E+02  7.540664E+02 -3.262722E+02  5.719445E+02
       122  24 -7.556749E+05  6.735363E+01  8.615929E+02 -1.137393E+04  1.206779E+02  1.273347E+03
       122  25 -7.640726E+05 -2.025517E+03 -8.570640E+02 -1.138133E+04 -5.492761E+02 -1.409098E+02
       122  26 -7.842522E+05 -7.146079E+03 -6.125455E+03  7.642065E+02 -1.058160E+02  5.718874E+02
       122  27 -8.043342E+05 -1.205633E+04 -1.105515E+04 -1.134631E+04  3.375587E+02  1.273300E+03
       123   1 -6.554915E+05  2.498004E+04  2.563363E+04 -1.121342E+04 -4.763716E+01 -1.697854E+03
       123   2 -6.359676E+05  2.976695E+04  3.073410E+04  5.751327E+02 -7.059329E+02 -2.405966E+03
       123   3 -6.161352E+05  3.529232E+04  3.645562E+04 -1.133746E+04 -1.364008E+03 -3.026714E+03
       123   4 -7.556317E+05 -5.480196E+00  9.240038E+02 -1.125070E+04 -2.820177E+02 -1.697823E+03
       123   5 -7.557830E+05 -1.121080E+02  1.246041E+03  6.000083E+02 -9.129748E+02 -2.405979E+03
       123   6 -7.556311E+05  5.150007E+02  2.170160E+03 -1.125071E+04 -1.543690E+03 -3.026763E+03
       123   7 -8.557627E+05 -2.499174E+04 -2.378636E+04 -1.128798E+04 -5.163604E+02 -1.697792E+03
       123   8 -8.755853E+05 -2.999224E+04 -2.824308E+04  6.248794E+02 -1.119977E+03 -2.405992E+03
       123   9 -8.951092E+05 -3.426377E+04 -3.211674E+04 -1.116398E+04 -1.723332E+03 -3.026811E+03
       123  10 -6.554915E+05  2.498003E+04  2.563362E+04 -1.121342E+04  3.232214E-09 -8.675072E-11
       123  11 -6.359676E+05  2.976695E+04  3.073409E+04  5.751313E+02  4.556779E-10  6.610954E-10
       123  12 -6.161352E+05  3.529231E+04  3.645560E+04 -1.133747E+04  5.811179E-10 -6.441149E-10
       123  13 -7.556317E+05 -5.483312E+00  9.239983E+02 -1.125070E+04 -1.349902E-09 -2.732682E-10
       123  14 -7.557830E+05 -1.121144E+02  1.246028E+03  6.000065E+02 -1.482116E-09  8.580404E-11
       123  15 -7.556311E+05  5.149902E+02  2.170139E+03 -1.125071E+04  2.290272E-09 -4.594387E-10
       123  16 -8.557627E+05 -2.499175E+04 -2.378637E+04 -1.128798E+04 -1.268739E-09  2.314354E-10
       123  17 -8.755853E+05 -2.999224E+04 -2.824309E+04  6.248772E+02 -1.230204E-09 -7.597117E-11
       123  18 -8.951092E+05 -3.426378E+04 -3.211676E+04 -1.116398E+04 -1.799003E-10  5.378112E-11
       123  19 -6.554915E+05  2.498004E+04  2.563363E+04 -1.121342E+04  4.763716E+01  1.697854E+03
       123  20 -6.359676E+05  2.976695E+04  3.073410E+04  5.751327E+02  7.059329E+02  2.405966E+03
       123  21 -6.161352E+05  3.529232E+04  3.645562E+04 -1.133746E+04  1.364008E+03  3.026714E+03
       123  22 -7.556317E+05 -5.480196E+00  9.240038E+02 -1.125070E+04  2.820177E+02  1.697823E+03
       123  23 -7.557830E+05 -1.121080E+02  1.246041E+03  6.000083E+02  9.129748E+02  2.405979E+03
       123  24 -7.556311E+05  5.150007E+02  2.170160E+03 -1.125071E+04  1.543690E+03  3.026763E+03
       123  25 -8.557627E+05 -2.499174E+04 -2.378636E+04 -1.128798E+04  5.163604E+02  1.697792E+03
       123  26 -8.755853E+05 -2.999224E+04 -2.824308E+04  6.248794E+02  1.119977E+03  2.405992E+03
       123  27 -8.951092E+05 -3.426377E+04 -3.211674E+04 -1.116398E+04  1.723332E+03  3.026811E+03
       124   1 -5.662284E+05  4.699702E+04  4.928773E+04 -1.056616E+04 -1.661677E+03 -3.515163E+03
       124   2 -5.484663E+05  5.098794E+04  5.544603E+04  1.237837E+02 -4.110025E+03 -4.226480E+03
       124   3 -5.288786E+05  6.042320E+04  6.458986E+04 -1.166553E+04 -6.558353E+03 -4.313312E+03
       124   4 -7.553058E+05 -1.638860E+02  2.698157E+03 -1.097863E+04 -1.980274E+03 -3.515268E+03
       124   5 -7.562005E+05 -8.109189E+02  4.333761E+03  2.602140E+02 -4.233234E+03 -4.226613E+03
       124   6 -7.553033E+05  3.953459E+03  8.819836E+03 -1.098065E+04 -6.486102E+03 -4.313383E+03
       124   7 -9.443506E+05 -4.732746E+04 -4.389405E+04 -1.139099E+04 -2.298774E+03 -3.515373E+03
       124   8 -9.638953E+05 -5.261299E+04 -4.678169E+04  3.965952E+02 -4.356403E+03 -4.226745E+03
       124   9 -9.816812E+05 -5.252010E+04 -4.695398E+04 -1.029602E+04 -6.413877E+03 -4.313454E+03
       124  10 -5.662284E+05  4.699701E+04  4.928770E+04 -1.056616E+04  9.718514E-10 -4.364995E-10
       124  11 -5.484663E+05  5.098791E+04  5.544596E+04  1.237697E+02  3.951324E-10 -5.907116E-10
       124  12 -5.288787E+05  6.042316E+04  6.458975E+04 -1.166556E+04 -1.050577E-09 -1.146996E-09
       124  13 -7.553058E+05 -1.639004E+02  2.698126E+03 -1.097864E+04 -8.260171E-12 -2.605972E-10
       124  14 -7.562005E+05 -8.109429E+02  4.333694E+03  2.601996E+02 -2.312784E-09  8.132961E-10
       124  15 -7.553033E+05  3.953428E+03  8.819722E+03 -1.098067E+04  2.256389E-09  1.081456E-09
       124  16 -9.443506E+05 -4.732747E+04 -4.389409E+04 -1.139099E+04 -7.373139E-10 -5.677354E-10
       124  17 -9.638954E+05 -5.261301E+04 -4.678176E+04  3.965804E+02 -3.406345E-09 -1.243647E-09
       124  18 -9.816813E+05 -5.252013E+04 -4.695409E+04 -1.029604E+04  9.421280E-10 -4.503900E-10
       124  19 -5.662284E+05  4.699702E+04  4.928773E+04 -1.056616E+04  1.661677E+03  3.515163E+03
       124  20 -5.484663E+05  5.098794E+04  5.544603E+04  1.237837E+02  4.110025E+03  4.226480E+03
       124  21 -5.288786E+05  6.042320E+04  6.458986E+04 -1.166553E+04  6.558353E+03  4.313312E+03
       124  22 -7.553058E+05 -1.638860E+02  2.698157E+03 -1.097863E+04  1.980274E+03  3.515268E+03
       124  23 -7.562005E+05 -8.109189E+02  4.333761E+03  2.602140E+02  4.233234E+03  4.226613E+03
       124  24 -7.553033E+05  3.953459E+03  8.819836E+03 -1.098065E+04  6.486102E+03  4.313383E+03
       124  25 -9.443506E+05 -4.732746E+04 -4.389405E+04 -1.139099E+04  2.298774E+03  3.515373E+03
       124  26 -9.638953E+05 -5.261299E+04 -4.678169E+04  3.965952E+02  4.356403E+03  4.226745E+03
       124  27 -9.816812E+05 -5.252010E+04 -4.695398E+04 -1.029602E+04  6.413877E+03  4.313454E+03
       125   1 -4.804277E+05  6.673869E+04  7.782488E+04 -7.522178E+03 -7.131368E+03 -5.453502E+03
       125   2 -4.691654E+05  6.623918E+04  8.776162E+04 -1.719308E+03 -1.774728E+04 -6.392794E+03
       125   3 -4.460256E+05  1.065330E+05  1.148719E+05 -1.651596E+04 -2.836899E+04 -2.216830E+03
       125   4 -7.531328E+05 -1.266984E+03  1.070894E+04 -1.055044E+04 -8.216978E+03 -5.454343E+03
       125   5 -7.589289E+05 -5.987486E+03  1.656872E+04 -2.687059E+02 -1.723402E+04 -6.392543E+03
       125   6 -7.531201E+05  2.981769E+04  3.849644E+04 -1.058700E+04 -2.625657E+04 -2.214590E+03
       125   7 -1.025770E+06 -6.927816E+04 -5.641248E+04 -1.357737E+04 -9.302110E+03 -5.455175E+03
       125   8 -1.048616E+06 -7.822039E+04 -5.463035E+04  1.181199E+03 -1.672100E+04 -6.392289E+03
       125   9 -1.060129E+06 -4.690455E+04 -3.788601E+04 -4.661001E+03 -2.414519E+04 -2.212308E+03
       125  10 -4.804277E+05  6.673864E+04  7.782473E+04 -7.522209E+03  1.471054E-09 -1.141128E-09
       125  11 -4.691657E+05  6.623906E+04  8.776095E+04 -1.719399E+03 -1.059783E-09 -7.167208E-11
       125  12 -4.460265E+05  1.065328E+05  1.148703E+05 -1.651601E+04 -1.813504E-09  7.038125E-10
       125  13 -7.531329E+05 -1.267034E+03  1.070876E+04 -1.055047E+04 -1.619540E-09  2.118630E-10
       125  14 -7.589292E+05 -5.987610E+03  1.656809E+04 -2.687946E+02 -6.431568E-11  1.273569E-09
       125  15 -7.531208E+05  2.981750E+04  3.849514E+04 -1.058705E+04  1.184758E-09 -2.558099E-10
       125  16 -1.025770E+06 -6.927822E+04 -5.641270E+04 -1.357741E+04 -8.637840E-10 -2.890381E-10
       125  17 -1.048616E+06 -7.822051E+04 -5.463095E+04  1.181113E+03 -8.291957E-10 -6.646775E-10
       125  18 -1.060129E+06 -4.690471E+04 -3.788711E+04 -4.661044E+03  4.696513E-10  9.964823E-10
       125  19 -4.804277E+05  6.673869E+04  7.782488E+04 -7.522178E+03  7.131368E+03  5.453502E+03
       125  20 -4.691654E+05  6.623918E+04  8.776162E+04 -1.719308E+03  1.774728E+04  6.392794E+03
       125  21 -4.460256E+05  1.065330E+05  1.148719E+05 -1.651596E+04  2.836899E+04  2.216830E+03
       125  22 -7.531328E+05 -1.266984E+03  1.070894E+04 -1.055044E+04  8.216978E+03  5.454343E+03
       125  23 -7.589289E+05 -5.987486E+03  1.656872E+04 -2.687059E+02  1.723402E+04  6.392543E+03
       125  24 -7.531201E+05  2.981769E+04  3.849644E+04 -1.058700E+04  2.625657E+04  2.214590E+03
       125  25 -1.025770E+06 -6.927816E+04 -5.641248E+04 -1.357737E+04  9.302110E+03  5.455175E+03
       125  26 -1.048616E+06 -7.822039E+04 -5.463035E+04  1.181199E+03  1.672100E+04  6.392289E+03
       125  27 -1.060129E+06 -4.690455E+04 -3.788601E+04 -4.661001E+03  2.414519E+04  2.212308E+03
       126   1  3.230975E+05 -1.421057E+06  2.826440E+05 -1.245512E+05  1.258222E+04 -8.357537E+04
       126   2  3.972812E+05 -1.676695E+06  2.885878E+05  2.182100E+04  3.384624E+04 -5.151909E+04
       126   3  3.041750E+05 -1.974770E+06  2.325763E+05 -1.647189E+05  2.203709E+04 -1.959743E+04
       126   4 -1.198211E+05 -3.190849E+06 -1.583820E+05 -1.472217E+05  1.261604E+04 -9.519477E+04
       126   5  2.474656E+04 -3.168573E+06 -7.852769E+04  1.941092E+04  3.385733E+04 -5.294072E+04
       126   6  2.096108E+01 -3.190716E+06 -6.785860E+04 -1.469270E+05  2.199257E+04 -1.080658E+04
       126   7 -5.629741E+05 -4.957787E+06 -5.996431E+05 -1.698253E+05  1.265078E+04 -1.067807E+05
       126   8 -3.479543E+05 -4.658416E+06 -4.458078E+05  1.700853E+04  3.386845E+04 -5.435882E+04
       126   9 -3.042430E+05 -4.405311E+06 -3.684031E+05 -1.291682E+05  2.194852E+04 -2.032968E+03
       126  10  3.230955E+05 -1.421065E+06  2.826306E+05 -1.245503E+05  5.747387E-10 -3.097590E-10
       126  11  3.972793E+05 -1.676699E+06  2.885807E+05  2.182240E+04  2.082474E-10 -6.246247E-09
       126  12  3.041743E+05 -1.974770E+06  2.325747E+05 -1.647186E+05 -5.408429E-10 -1.829819E-09
       126  13 -1.198237E+05 -3.190859E+06 -1.583994E+05 -1.472207E+05  2.794298E-13  3.615807E-10
       126  14  2.474457E+04 -3.168576E+06 -7.853514E+04  1.941237E+04  2.265392E-09 -1.482122E-09
       126  15  2.041098E+01 -3.190716E+06 -6.785973E+04 -1.469268E+05 -5.807054E-10  6.249400E-10
       126  16 -5.629774E+05 -4.957799E+06 -5.996650E+05 -1.698242E+05  1.026323E-09 -1.300897E-09
       126  17 -3.479563E+05 -4.658419E+06 -4.458155E+05  1.701002E+04  5.509419E-09  3.812670E-09
       126  18 -3.042435E+05 -4.405311E+06 -3.684041E+05 -1.291682E+05 -1.834027E-09  1.009850E-09
       126  19  3.230975E+05 -1.421057E+06  2.826440E+05 -1.245512E+05 -1.258222E+04  8.357537E+04
       126  20  3.972812E+05 -1.676695E+06  2.885878E+05  2.182100E+04 -3.384624E+04  5.151909E+04
       126  21  3.041750E+05 -1.974770E+06  2.325763E+05 -1.647189E+05 -2.203709E+04  1.959743E+04
       126  22 -1.198211E+05 -3.190849E+06 -1.583820E+05 -1.472217E+05 -1.261604E+04  9.519477E+04
       126  23  2.474656E+04 -3.168573E+06 -7.852769E+04  1.941092E+04 -3.385733E+04  5.294072E+04
       126  24  2.096108E+01 -3.190716E+06 -6.785860E+04 -1.469270E+05 -2.199257E+04  1.080658E+04
       126  25 -5.629741E+05 -4.957787E+06 -5.996431E+05 -1.698253E+05 -1.265078E+04  1.067807E+05
       126  26 -3.479543E+05 -4.658416E+06 -4.458078E+05  1.700853E+04 -3.386845E+04  5.435882E+04
       126  27 -3.042430E+05 -4.405311E+06 -3.684031E+05 -1.291682E+05 -2.194852E+04  2.032968E+03
       127   1  1.029427E+05 -2.724828E+06  4.585618E+04 -1.464786E+05  1.040401E+04 -9.459301E+02
       127   2  5.481221E+04 -3.006801E+06 -3.140028E+04  2.441425E+04  3.164067E+03  3.628908E+04
       127   3 -8.241924E+04 -3.320952E+06 -1.563220E+05 -1.643341E+05 -4.724831E+03  7.349792E+04
       127   4 -1.261289E+04 -3.187654E+06 -6.809892E+04 -1.529218E+05  1.039239E+04  1.139983E+03
       127   5  1.359136E+04 -3.171550E+06 -7.205022E+04  2.679264E+04  3.150948E+03  3.856411E+04
       127   6 -4.934252E+04 -3.187736E+06 -1.237964E+05 -1.531446E+05 -4.738606E+03  7.597988E+04
       127   7 -1.281843E+05 -3.650283E+06 -1.820698E+05 -1.593598E+05  1.038072E+04  3.224337E+03
       127   8 -2.763151E+04 -3.336275E+06 -1.127022E+05  2.917043E+04  3.137844E+03  4.083854E+04
       127   9 -1.626662E+04 -3.054505E+06 -9.127201E+04 -1.419526E+05 -4.752291E+03  7.846236E+04
       127  10  1.029426E+05 -2.724828E+06  4.585597E+04 -1.464786E+05  2.373275E-09  6.889931E-11
       127  11  5.481185E+04 -3.006802E+06 -3.140278E+04  2.441416E+04 -3.292906E-10 -8.175066E-09
       127  12 -8.242072E+04 -3.320958E+06 -1.563322E+05 -1.643338E+05 -1.584253E-10 -1.247132E-09
       127  13 -1.261300E+04 -3.187654E+06 -6.809913E+04 -1.529218E+05  1.289918E-09 -1.541213E-10
       127  14  1.359095E+04 -3.171552E+06 -7.205305E+04  2.679254E+04  3.951619E-09 -3.643204E-09
       127  15 -4.934410E+04 -3.187743E+06 -1.238073E+05 -1.531443E+05  9.411839E-10  2.828079E-10
       127  16 -1.281844E+05 -3.650283E+06 -1.820700E+05 -1.593598E+05 -1.616405E-09 -3.352943E-09
       127  17 -2.763197E+04 -3.336276E+06 -1.127053E+05  2.917032E+04  4.665112E-09  4.927206E-09
       127  18 -1.626830E+04 -3.054511E+06 -9.128368E+04 -1.419523E+05 -1.541061E-09 -5.575968E-11
       127  19  1.029427E+05 -2.724828E+06  4.585618E+04 -1.464786E+05 -1.040401E+04  9.459301E+02
       127  20  5.481221E+04 -3.006801E+06 -3.140028E+04  2.441425E+04 -3.164067E+03 -3.628908E+04
       127  21 -8.241924E+04 -3.320952E+06 -1.563220E+05 -1.643341E+05  4.724831E+03 -7.349792E+04
       127  22 -1.261289E+04 -3.187654E+06 -6.809892E+04 -1.529218E+05 -1.039239E+04 -1.139983E+03
       127  23  1.359136E+04 -3.171550E+06 -7.205022E+04  2.679264E+04 -3.150948E+03 -3.856411E+04
       127  24 -4.934252E+04 -3.187736E+06 -1.237964E+05 -1.531446E+05  4.738606E+03 -7.597988E+04
       127  25 -1.281843E+05 -3.650283E+06 -1.820698E+05 -1.593598E+05 -1.038072E+04 -3.224337E+03
       127  26 -2.763151E+04 -3.336275E+06 -1.127022E+05  2.917043E+04 -3.137844E+03 -4.083854E+04
       127  27 -1.626662E+04 -3.054505E+06 -9.127201E+04 -1.419526E+05  4.752291E+03 -7.846236E+04
       128   1 -2.089510E+05 -4.109546E+06 -3.678030E+05 -1.071198E+05 -1.584627E+04  9.162965E+04
       128   2 -2.176347E+05 -4.320460E+06 -5.094258E+05  4.882248E+03 -2.792798E+04  2.189411E+05
       128   3 -7.534845E+05 -4.679848E+06 -8.661713E+05 -2.270807E+05 -1.145680E+04  3.463268E+05
       128   4  1.599792E+04 -3.213253E+06 -1.457889E+05 -1.489477E+05 -1.589765E+04  9.970674E+04
       128   5  7.735206E+04 -3.140192E+06 -2.186002E+05  2.230534E+04 -2.791437E+04  2.183535E+05
       128   6 -3.863934E+05 -3.213828E+06 -5.001631E+05 -1.503996E+05 -1.137749E+04  3.371347E+05
       128   7  2.408925E+05 -2.316222E+06  7.616628E+04 -1.908354E+05 -1.595009E+04  1.077955E+05
       128   8  3.722360E+05 -1.958646E+06  7.212247E+04  3.976324E+04 -2.790082E+04  2.177645E+05
       128   9 -1.944193E+04 -1.745831E+06 -1.343135E+05 -7.353420E+04 -1.130059E+04  3.279200E+05
       128  10 -2.089536E+05 -4.109555E+06 -3.678194E+05 -1.071186E+05 -4.260670E-09  1.532781E-10
       128  11 -2.176485E+05 -4.320512E+06 -5.095179E+05  4.887183E+03 -1.728706E-09 -5.031203E-09
       128  12 -7.535172E+05 -4.679978E+06 -8.663986E+05 -2.270776E+05 -3.679009E-10  7.706681E-10
       128  13  1.599497E+04 -3.213264E+06 -1.458081E+05 -1.489465E+05 -3.428141E-09 -2.288149E-10
       128  14  7.733834E+04 -3.140244E+06 -2.186917E+05  2.231026E+04 -3.446017E-09 -2.186235E-09
       128  15 -3.864243E+05 -3.213951E+06 -5.003781E+05 -1.503965E+05 -1.952301E-09 -6.835999E-11
       128  16  2.408891E+05 -2.316234E+06  7.614388E+04 -1.908340E+05 -2.729521E-09 -3.066970E-09
       128  17  3.722223E+05 -1.958697E+06  7.203160E+04  3.976814E+04 -3.692256E-10  2.183011E-09
       128  18 -1.947103E+04 -1.745947E+06 -1.345164E+05 -7.353122E+04  3.670127E-10 -5.750958E-10
       128  19 -2.089510E+05 -4.109546E+06 -3.678030E+05 -1.071198E+05  1.584627E+04 -9.162965E+04
       128  20 -2.176347E+05 -4.320460E+06 -5.094258E+05  4.882248E+03  2.792798E+04 -2.189411E+05
       128  21 -7.534845E+05 -4.679848E+06 -8.661713E+05 -2.270807E+05  1.145680E+04 -3.463268E+05
       128  22  1.599792E+04 -3.213253E+06 -1.457889E+05 -1.489477E+05  1.589765E+04 -9.970674E+04
       128  23  7.735206E+04 -3.140192E+06 -2.186002E+05  2.230534E+04  2.791437E+04 -2.183535E+05
       128  24 -3.863934E+05 -3.213828E+06 -5.001631E+05 -1.503996E+05  1.137749E+04 -3.371347E+05
       128  25  2.408925E+05 -2.316222E+06  7.616628E+04 -1.908354E+05  1.595009E+04 -1.077955E+05
       128  26  3.722360E+05 -1.958646E+06  7.212247E+04  3.976324E+04  2.790082E+04 -2.177645E+05
       128  27 -1.944193E+04 -1.745831E+06 -1.343135E+05 -7.353420E+04  1.130059E+04 -3.279200E+05
       129   1 -3.076913E+06 -6.198869E+05 -2.287931E+05 -1.116124E+06 -1.169409E+05 -4.261100E+04
       129   2 -3.044182E+06 -4.518117E+05 -1.203225E+05 -1.147336E+06 -7.585744E+04 -2.422378E+04
       129   3 -3.082724E+06 -4.623479E+05 -9.192357E+04 -1.133607E+06 -3.370166E+04 -8.682721E+03
       129   4 -2.926605E+06 -5.377026E+05 -1.824148E+05 -1.049364E+06 -1.158069E+05 -4.218967E+04
       129   5 -2.881751E+06 -3.836770E+05 -7.486098E+04 -1.096207E+06 -7.554281E+04 -2.410638E+04
       129   6 -2.907991E+06 -4.080732E+05 -4.671178E+04 -1.098114E+06 -3.420560E+04 -8.871691E+03
       129   7 -2.776273E+06 -4.555086E+05 -1.360387E+05 -9.825871E+05 -1.146726E+05 -4.176811E+04
       129   8 -2.719295E+06 -3.155391E+05 -2.940196E+04 -1.045065E+06 -7.522808E+04 -2.398894E+04
       129   9 -2.733228E+06 -3.537987E+05 -1.502315E+03 -1.062612E+06 -3.470968E+04 -9.060695E+03
       129  10 -3.076928E+06 -6.198925E+05 -2.288224E+05 -1.116128E+06  2.518296E-10  6.911387E-10
       129  11 -3.044188E+06 -4.518139E+05 -1.203345E+05 -1.147338E+06  2.775224E-09  7.333672E-10
       129  12 -3.082725E+06 -4.623483E+05 -9.192585E+04 -1.133607E+06 -1.016116E-09  8.583546E-11
       129  13 -2.926620E+06 -5.377082E+05 -1.824435E+05 -1.049368E+06 -2.764294E-09  8.594118E-10
       129  14 -2.881757E+06 -3.836792E+05 -7.487286E+04 -1.096208E+06 -9.801115E-10 -1.288592E-09
       129  15 -2.907992E+06 -4.080736E+05 -4.671414E+04 -1.098114E+06 -1.595366E-10  1.096945E-11
       129  16 -2.776288E+06 -4.555141E+05 -1.360669E+05 -9.825910E+05  1.090660E-09 -2.560338E-10
       129  17 -2.719301E+06 -3.155412E+05 -2.941373E+04 -1.045066E+06  1.397456E-09 -1.120207E-09
       129  18 -2.733229E+06 -3.537991E+05 -1.504745E+03 -1.062613E+06  1.572985E-09 -7.005034E-10
       129  19 -3.076913E+06 -6.198869E+05 -2.287931E+05 -1.116124E+06  1.169409E+05  4.261100E+04
       129  20 -3.044182E+06 -4.518117E+05 -1.203225E+05 -1.147336E+06  7.585744E+04  2.422378E+04
       129  21 -3.082724E+06 -4.623479E+05 -9.192357E+04 -1.133607E+06  3.370166E+04  8.682721E+03
       129  22 -2.926605E+06 -5.377026E+05 -1.824148E+05 -1.049364E+06  1.158069E+05  4.218967E+04
       129  23 -2.881751E+06 -3.836770E+05 -7.486098E+04 -1.096207E+06  7.554281E+04  2.410638E+04
       129  24 -2.907991E+06 -4.080732E+05 -4.671178E+04 -1.098114E+06  3.420560E+04  8.871691E+03
       129  25 -2.776273E+06 -4.555086E+05 -1.360387E+05 -9.825871E+05  1.146726E+05  4.176811E+04
       129  26 -2.719295E+06 -3.155391E+05 -2.940196E+04 -1.045065E+06  7.522808E+04  2.398894E+04
       129  27 -2.733228E+06 -3.537987E+05 -1.502315E+03 -1.062612E+06  3.470968E+04  9.060695E+03
       130   1 -3.054600E+06 -4.910930E+05 -8.083461E+04 -1.132697E+06 -2.720078E+04 -6.792726E+03
       130   2 -3.046882E+06 -4.634284E+05 -5.847564E+04 -1.132316E+06 -1.780842E+04 -3.089806E+03
       130   3 -3.043965E+06 -4.654739E+05 -4.978255E+04 -1.132042E+06 -8.244223E+03  1.562267E+02
       130   4 -2.901067E+06 -4.297539E+05 -3.835730E+04 -1.087532E+06 -2.709606E+04 -6.753557E+03
       130   5 -2.897416E+06 -4.061052E+05 -1.765060E+04 -1.090785E+06 -1.783436E+04 -3.099651E+03
       130   6 -2.898538E+06 -4.121369E+05 -1.050315E+04 -1.094144E+06 -8.400924E+03  9.729874E+01
       130   7 -2.747512E+06 -3.684126E+05  4.117805E+03 -1.042358E+06 -2.699131E+04 -6.714375E+03
       130   8 -2.747928E+06 -3.487806E+05  2.317238E+04 -1.049244E+06 -1.786031E+04 -3.109498E+03
       130   9 -2.753090E+06 -3.587991E+05  2.877431E+04 -1.056239E+06 -8.557665E+03  3.835669E+01
       130  10 -3.054601E+06 -4.910933E+05 -8.083609E+04 -1.132697E+06 -8.448628E-11 -1.404747E-09
       130  11 -3.046882E+06 -4.634285E+05 -5.847626E+04 -1.132316E+06 -1.086598E-09 -2.710160E-11
       130  12 -3.043965E+06 -4.654739E+05 -4.978268E+04 -1.132042E+06  1.575295E-09  2.082033E-11
       130  13 -2.901068E+06 -4.297541E+05 -3.835878E+04 -1.087532E+06  1.493158E-09 -1.438179E-09
       130  14 -2.897416E+06 -4.061053E+05 -1.765122E+04 -1.090785E+06 -2.980003E-09 -1.301867E-09
       130  15 -2.898538E+06 -4.121369E+05 -1.050328E+04 -1.094144E+06  3.086443E-10  4.930191E-11
       130  16 -2.747513E+06 -3.684128E+05  4.116344E+03 -1.042358E+06  2.489284E-09 -5.978794E-10
       130  17 -2.747929E+06 -3.487807E+05  2.317176E+04 -1.049244E+06 -2.395557E-10 -5.452846E-10
       130  18 -2.753090E+06 -3.587991E+05  2.877417E+04 -1.056239E+06 -3.684216E-12 -2.895470E-10
       130  19 -3.054600E+06 -4.910930E+05 -8.083461E+04 -1.132697E+06  2.720078E+04  6.792726E+03
       130  20 -3.046882E+06 -4.634284E+05 -5.847564E+04 -1.132316E+06  1.780842E+04  3.089806E+03
       130  21 -3.043965E+06 -4.654739E+05 -4.978255E+04 -1.132042E+06  8.244223E+03 -1.562267E+02
       130  22 -2.901067E+06 -4.297539E+05 -3.835730E+04 -1.087532E+06  2.709606E+04  6.753557E+03
       130  23 -2.897416E+06 -4.061052E+05 -1.765060E+04 -1.090785E+06  1.783436E+04  3.099651E+03
       130  24 -2.898538E+06 -4.121369E+05 -1.050315E+04 -1.094144E+06  8.400924E+03 -9.729874E+01
       130  25 -2.747512E+06 -3.684126E+05  4.117805E+03 -1.042358E+06  2.699131E+04  6.714375E+03
       130  26 -2.747928E+06 -3.487806E+05  2.317238E+04 -1.049244E+06  1.786031E+04  3.109498E+03
       130  27 -2.753090E+06 -3.587991E+05  2.877431E+04 -1.056239E+06  8.557665E+03 -3.835669E+01
       131   1 -3.018122E+06 -4.619509E+05 -4.142142E+04 -1.126874E+06 -6.701921E+03  4.699305E+02
       131   2 -3.012297E+06 -4.506882E+05 -3.470041E+04 -1.119637E+06 -4.365942E+03  1.020784E+03
       131   3 -2.998909E+06 -4.518098E+05 -3.053854E+04 -1.121947E+06 -1.980016E+03  1.438491E+03
       131   4 -2.896849E+06 -4.157138E+05 -8.363749E+03 -1.093453E+06 -6.766714E+03  4.455377E+02
       131   5 -2.900465E+06 -4.083433E+05 -4.257716E+03 -1.089122E+06 -4.469048E+03  9.820206E+02
       131   6 -2.896509E+06 -4.133491E+05 -2.679997E+03 -1.094339E+06 -2.121481E+03  1.385350E+03
       131   7 -2.775562E+06 -3.694757E+05  2.469265E+04 -1.060026E+06 -6.831520E+03  4.211394E+02
       131   8 -2.788620E+06 -3.659977E+05  2.618388E+04 -1.058603E+06 -4.572176E+03  9.432489E+02
       131   9 -2.794099E+06 -3.748879E+05  2.517761E+04 -1.066726E+06 -2.262972E+03  1.332199E+03
       131  10 -3.018122E+06 -4.619509E+05 -4.142151E+04 -1.126874E+06 -1.406519E-10  6.168981E-10
       131  11 -3.012297E+06 -4.506882E+05 -3.470045E+04 -1.119637E+06 -3.066400E-09  4.655091E-10
       131  12 -2.998909E+06 -4.518098E+05 -3.053856E+04 -1.121947E+06  5.355801E-10 -1.480379E-09
       131  13 -2.896849E+06 -4.157138E+05 -8.363836E+03 -1.093453E+06  7.644970E-10  4.894868E-10
       131  14 -2.900465E+06 -4.083434E+05 -4.257755E+03 -1.089122E+06  4.661866E-09  2.506619E-10
       131  15 -2.896509E+06 -4.133491E+05 -2.680009E+03 -1.094339E+06  3.582707E-09 -1.207019E-09
       131  16 -2.775562E+06 -3.694757E+05  2.469256E+04 -1.060026E+06  7.928643E-12  3.100015E-10
       131  17 -2.788620E+06 -3.659978E+05  2.618384E+04 -1.058603E+06  2.459650E-09  4.521429E-11
       131  18 -2.794099E+06 -3.748879E+05  2.517759E+04 -1.066726E+06  2.083078E-10 -4.383526E-10
       131  19 -3.018122E+06 -4.619509E+05 -4.142142E+04 -1.126874E+06  6.701921E+03 -4.699305E+02
       131  20 -3.012297E+06 -4.506882E+05 -3.470041E+04 -1.119637E+06  4.365942E+03 -1.020784E+03
       131  21 -2.998909E+06 -4.518098E+05 -3.053854E+04 -1.121947E+06  1.980016E+03 -1.438491E+03
       131  22 -2.896849E+06 -4.157138E+05 -8.363749E+03 -1.093453E+06  6.766714E+03 -4.455377E+02
       131  23 -2.900465E+06 -4.083433E+05 -4.257716E+03 -1.089122E+06  4.469048E+03 -9.820206E+02
       131  24 -2.896509E+06 -4.133491E+05 -2.679997E+03 -1.094339E+06  2.121481E+03 -1.385350E+03
       131  25 -2.775562E+06 -3.694757E+05  2.469265E+04 -1.060026E+06  6.831520E+03 -4.211394E+02
       131  26 -2.788620E+06 -3.659977E+05  2.618388E+04 -1.058603E+06  4.572176E+03 -9.432489E+02
       131  27 -2.794099E+06 -3.748879E+05  2.517761E+04 -1.066726E+06  2.262972E+03 -1.332199E+03
       132   1 -2.966209E+06 -4.408440E+05 -2.137317E+04 -1.113925E+06 -1.495577E+03  1.319015E+03
       132   2 -2.959575E+06 -4.300898E+05 -1.757938E+04 -1.104144E+06 -4.328796E+02  1.219025E+03
       132   3 -2.941904E+06 -4.314075E+05 -1.463568E+04 -1.107258E+06  6.498881E+02  1.065330E+03
       132   4 -2.895869E+06 -4.142183E+05 -2.265476E+03 -1.094730E+06 -1.615073E+03  1.274141E+03
       132   5 -2.901378E+06 -4.081019E+05 -1.746757E+03 -1.088313E+06 -5.679068E+02  1.168336E+03
       132   6 -2.895846E+06 -4.140542E+05 -2.065722E+03 -1.094792E+06  4.993086E+02  1.008822E+03
       132   7 -2.825525E+06 -3.875923E+05  1.684176E+04 -1.075533E+06 -1.734585E+03  1.229261E+03
       132   8 -2.843177E+06 -3.861139E+05  1.408553E+04 -1.072481E+06 -7.029477E+02  1.117642E+03
       132   9 -2.849786E+06 -3.967008E+05  1.050401E+04 -1.082324E+06  3.487172E+02  9.523098E+02
       132  10 -2.966209E+06 -4.408440E+05 -2.137318E+04 -1.113925E+06  2.160351E-09 -1.299899E-09
       132  11 -2.959575E+06 -4.300898E+05 -1.757938E+04 -1.104144E+06  8.719113E-10 -1.467418E-10
       132  12 -2.941904E+06 -4.314075E+05 -1.463569E+04 -1.107258E+06 -3.576452E-09  3.294998E-10
       132  13 -2.895869E+06 -4.142183E+05 -2.265483E+03 -1.094730E+06  3.951904E-10 -1.383948E-09
       132  14 -2.901378E+06 -4.081019E+05 -1.746760E+03 -1.088313E+06  4.513494E-10 -5.034605E-10
       132  15 -2.895846E+06 -4.140542E+05 -2.065724E+03 -1.094792E+06 -1.588239E-10  6.490389E-10
       132  16 -2.825525E+06 -3.875923E+05  1.684175E+04 -1.075533E+06  1.655111E-11 -1.064494E-09
       132  17 -2.843177E+06 -3.861139E+05  1.408553E+04 -1.072481E+06 -1.187145E-09 -8.216810E-10
       132  18 -2.849786E+06 -3.967008E+05  1.050400E+04 -1.082324E+06 -2.679075E-09  5.995301E-10
       132  19 -2.966209E+06 -4.408440E+05 -2.137317E+04 -1.113925E+06  1.495577E+03 -1.319015E+03
       132  20 -2.959575E+06 -4.300898E+05 -1.757938E+04 -1.104144E+06  4.328796E+02 -1.219025E+03
       132  21 -2.941904E+06 -4.314075E+05 -1.463568E+04 -1.107258E+06 -6.498881E+02 -1.065330E+03
       132  22 -2.895869E+06 -4.142183E+05 -2.265476E+03 -1.094730E+06  1.615073E+03 -1.274141E+03
       132  23 -2.901378E+06 -4.081019E+05 -1.746757E+03 -1.088313E+06  5.679068E+02 -1.168336E+03
       132  24 -2.895846E+06 -4.140542E+05 -2.065722E+03 -1.094792E+06 -4.993086E+02 -1.008822E+03
       132  25 -2.825525E+06 -3.875923E+05  1.684176E+04 -1.075533E+06  1.734585E+03 -1.229261E+03
       132  26 -2.843177E+06 -3.861139E+05  1.408553E+04 -1.072481E+06  7.029477E+02 -1.117642E+03
       132  27 -2.849786E+06 -3.967008E+05  1.050401E+04 -1.082324E+06 -3.487172E+02 -9.523098E+02
       133   1 -2.904900E+06 -4.176610E+05 -4.884088E+03 -1.097688E+06  1.128533E+03  9.030378E+02
       133   2 -2.897734E+06 -4.062998E+05 -2.775508E+03 -1.087066E+06  3.236038E+03  1.125080E+03
       133   3 -2.879358E+06 -4.088379E+05 -2.579253E+03 -1.089940E+06  5.340200E+03  1.356081E+03
       133   4 -2.895755E+06 -4.140861E+05 -2.420087E+03 -1.095066E+06  9.821639E+02  8.481170E+02
       133   5 -2.901445E+06 -4.077234E+05 -3.789108E+03 -1.088098E+06  3.092260E+03  1.071129E+03
       133   6 -2.895925E+06 -4.152606E+05 -7.072473E+03 -1.094627E+06  5.198969E+03  1.303082E+03
       133   7 -2.886609E+06 -4.105112E+05  4.391661E+01 -1.092443E+06  8.357919E+02  7.931951E+02
       133   8 -2.905155E+06 -4.091471E+05 -4.802712E+03 -1.089130E+06  2.948484E+03  1.017178E+03
       133   9 -2.912491E+06 -4.216832E+05 -1.156573E+04 -1.099313E+06  5.057742E+03  1.250085E+03
       133  10 -2.904900E+06 -4.176610E+05 -4.884092E+03 -1.097688E+06  7.143689E-10  1.200246E-09
       133  11 -2.897734E+06 -4.062998E+05 -2.775531E+03 -1.087066E+06  5.960466E-10  1.057180E-10
       133  12 -2.879358E+06 -4.088380E+05 -2.579310E+03 -1.089940E+06  2.375945E-10 -8.320956E-11
       133  13 -2.895755E+06 -4.140861E+05 -2.420090E+03 -1.095066E+06 -1.265839E-09  8.479688E-10
       133  14 -2.901445E+06 -4.077234E+05 -3.789128E+03 -1.088098E+06 -4.338156E-11  4.065410E-10
       133  15 -2.895925E+06 -4.152606E+05 -7.072527E+03 -1.094627E+06  3.273160E-09  3.642918E-10
       133  16 -2.886609E+06 -4.105112E+05  4.391410E+01 -1.092443E+06  1.414965E-09  1.126875E-09
       133  17 -2.905155E+06 -4.091471E+05 -4.802730E+03 -1.089130E+06  1.067704E-09  1.020171E-09
       133  18 -2.912491E+06 -4.216832E+05 -1.156578E+04 -1.099313E+06 -1.130627E-09  3.954903E-10
       133  19 -2.904900E+06 -4.176610E+05 -4.884088E+03 -1.097688E+06 -1.128533E+03 -9.030378E+02
       133  20 -2.897734E+06 -4.062998E+05 -2.775508E+03 -1.087066E+06 -3.236038E+03 -1.125080E+03
       133  21 -2.879358E+06 -4.088379E+05 -2.579253E+03 -1.089940E+06 -5.340200E+03 -1.356081E+03
       133  22 -2.895755E+06 -4.140861E+05 -2.420087E+03 -1.095066E+06 -9.821639E+02 -8.481170E+02
       133  23 -2.901445E+06 -4.077234E+05 -3.789108E+03 -1.088098E+06 -3.092260E+03 -1.071129E+03
       133  24 -2.895925E+06 -4.152606E+05 -7.072473E+03 -1.094627E+06 -5.198969E+03 -1.303082E+03
       133  25 -2.886609E+06 -4.105112E+05  4.391661E+01 -1.092443E+06 -8.357919E+02 -7.931951E+02
       133  26 -2.905155E+06 -4.091471E+05 -4.802712E+03 -1.089130E+06 -2.948484E+03 -1.017178E+03
       133  27 -2.912491E+06 -4.216832E+05 -1.156573E+04 -1.099313E+06 -5.057742E+03 -1.250085E+03
       134   1 -2.843072E+06 -3.942878E+05  5.386228E+03 -1.081578E+06  6.796701E+03  1.560715E+03
       134   2 -2.835348E+06 -3.815317E+05  1.982592E+03 -1.070718E+06  1.502866E+04  4.095763E+03
       134   3 -2.822216E+06 -3.926313E+05 -1.087047E+04 -1.069639E+06  2.322584E+04  6.724468E+03
       134   4 -2.896675E+06 -4.136520E+05 -9.069008E+03 -1.095235E+06  6.641264E+03  1.502390E+03
       134   5 -2.900031E+06 -4.062833E+05 -1.567433E+04 -1.088637E+06  1.489960E+04  4.047300E+03
       134   6 -2.897985E+06 -4.227764E+05 -3.175096E+04 -1.091820E+06  2.312302E+04  6.685779E+03
       134   7 -2.950274E+06 -4.330161E+05 -2.352445E+04 -1.108891E+06  6.485843E+03  1.444071E+03
       134   8 -2.964709E+06 -4.310345E+05 -3.333162E+04 -1.106555E+06  1.477056E+04  3.998842E+03
       134   9 -2.973749E+06 -4.529211E+05 -5.263200E+04 -1.113999E+06  2.302022E+04  6.647096E+03
       134  10 -2.843073E+06 -3.942878E+05  5.386136E+03 -1.081578E+06 -1.029511E-09 -2.286627E-10
       134  11 -2.835349E+06 -3.815318E+05  1.982134E+03 -1.070718E+06  4.307183E-10  4.806971E-10
       134  12 -2.822217E+06 -3.926315E+05 -1.087158E+04 -1.069639E+06 -1.408260E-09  3.603061E-10
       134  13 -2.896675E+06 -4.136520E+05 -9.069095E+03 -1.095235E+06  4.279636E-09  2.663834E-11
       134  14 -2.900031E+06 -4.062834E+05 -1.567478E+04 -1.088637E+06  1.585930E-09  7.438173E-11
       134  15 -2.897986E+06 -4.227766E+05 -3.175206E+04 -1.091820E+06 -9.680560E-10  2.908409E-10
       134  16 -2.950274E+06 -4.330161E+05 -2.352453E+04 -1.108891E+06  1.674490E-09  2.826105E-10
       134  17 -2.964709E+06 -4.310346E+05 -3.333206E+04 -1.106555E+06 -4.894298E-09  5.953140E-10
       134  18 -2.973749E+06 -4.529213E+05 -5.263309E+04 -1.113999E+06 -3.142019E-10  1.686169E-10
       134  19 -2.843072E+06 -3.942878E+05  5.386228E+03 -1.081578E+06 -6.796701E+03 -1.560715E+03
       134  20 -2.835348E+06 -3.815317E+05  1.982592E+03 -1.070718E+06 -1.502866E+04 -4.095763E+03
       134  21 -2.822216E+06 -3.926313E+05 -1.087047E+04 -1.069639E+06 -2.322584E+04 -6.724468E+03
       134  22 -2.896675E+06 -4.136520E+05 -9.069008E+03 -1.095235E+06 -6.641264E+03 -1.502390E+03
       134  23 -2.900031E+06 -4.062833E+05 -1.567433E+04 -1.088637E+06 -1.489960E+04 -4.047300E+03
       134  24 -2.897985E+06 -4.227764E+05 -3.175096E+04 -1.091820E+06 -2.312302E+04 -6.685779E+03
       134  25 -2.950274E+06 -4.330161E+05 -2.352445E+04 -1.108891E+06 -6.485843E+03 -1.444071E+03
       134  26 -2.964709E+06 -4.310345E+05 -3.333162E+04 -1.106555E+06 -1.477056E+04 -3.998842E+03
       134  27 -2.973749E+06 -4.529211E+05 -5.263200E+04 -1.113999E+06 -2.302022E+04 -6.647096E+03
       135   1 -2.789538E+06 -3.753858E+05 -1.067806E+04 -1.073262E+06  2.931271E+04  8.668915E+03
       135   2 -2.776469E+06 -3.480136E+05 -3.572606E+04 -1.056982E+06  6.505595E+04  2.161483E+04
       135   3 -2.794239E+06 -4.223643E+05 -1.127420E+05 -1.027245E+06  1.006383E+05  3.498924E+04
       135   4 -2.901996E+06 -4.115635E+05 -4.006510E+04 -1.097361E+06  2.912487E+04  8.598718E+03
       135   5 -2.891406E+06 -3.945103E+05 -6.759113E+04 -1.091409E+06  6.498608E+04  2.158815E+04
       135   6 -2.911686E+06 -4.792151E+05 -1.471867E+05 -1.071998E+06  1.006863E+05  3.500471E+04
       135   7 -3.014442E+06 -4.477412E+05 -6.945312E+04 -1.121457E+06  2.893706E+04  8.528529E+03
       135   8 -3.006331E+06 -4.410057E+05 -9.945743E+04 -1.125830E+06  6.491622E+04  2.156146E+04
       135   9 -3.029120E+06 -5.360623E+05 -1.816328E+05 -1.116743E+06  1.007343E+05  3.502017E+04
       135  10 -2.789539E+06 -3.753861E+05 -1.067982E+04 -1.073262E+06 -2.604658E-09  4.901562E-10
       135  11 -2.776474E+06 -3.480153E+05 -3.573493E+04 -1.056983E+06 -2.446025E-09  1.167316E-09
       135  12 -2.794250E+06 -4.223684E+05 -1.127634E+05 -1.027248E+06  2.028796E-09  5.400926E-10
       135  13 -2.901997E+06 -4.115638E+05 -4.006684E+04 -1.097361E+06 -1.248089E-09  6.830790E-10
       135  14 -2.891411E+06 -3.945119E+05 -6.759999E+04 -1.091410E+06 -1.563570E-09  1.143473E-09
       135  15 -2.911697E+06 -4.792191E+05 -1.472081E+05 -1.072001E+06 -2.592763E-09  5.953888E-10
       135  16 -3.014443E+06 -4.477415E+05 -6.945484E+04 -1.121457E+06  9.924431E-10  7.786048E-10
       135  17 -3.006336E+06 -4.410073E+05 -9.946627E+04 -1.125831E+06  2.971480E-09  7.073368E-10
       135  18 -3.029131E+06 -5.360663E+05 -1.816543E+05 -1.116745E+06 -1.242407E-09  1.158708E-09
       135  19 -2.789538E+06 -3.753858E+05 -1.067806E+04 -1.073262E+06 -2.931271E+04 -8.668915E+03
       135  20 -2.776469E+06 -3.480136E+05 -3.572606E+04 -1.056982E+06 -6.505595E+04 -2.161483E+04
       135  21 -2.794239E+06 -4.223643E+05 -1.127420E+05 -1.027245E+06 -1.006383E+05 -3.498924E+04
       135  22 -2.901996E+06 -4.115635E+05 -4.006510E+04 -1.097361E+06 -2.912487E+04 -8.598718E+03
       135  23 -2.891406E+06 -3.945103E+05 -6.759113E+04 -1.091409E+06 -6.498608E+04 -2.158815E+04
       135  24 -2.911686E+06 -4.792151E+05 -1.471867E+05 -1.071998E+06 -1.006863E+05 -3.500471E+04
       135  25 -3.014442E+06 -4.477412E+05 -6.945312E+04 -1.121457E+06 -2.893706E+04 -8.528529E+03
       135  26 -3.006331E+06 -4.410057E+05 -9.945743E+04 -1.125830E+06 -6.491622E+04 -2.156146E+04
       135  27 -3.029120E+06 -5.360623E+05 -1.816328E+05 -1.116743E+06 -1.007343E+05 -3.502017E+04
       136   1 -2.754570E+06 -3.758742E+05 -1.390255E+05 -1.113262E+06  1.280255E+05  4.462762E+04
       136   2 -2.700307E+06 -2.283193E+05 -2.456282E+05 -1.045199E+06  2.857110E+05  1.034790E+05
       136   3 -2.918199E+06 -7.665584E+05 -6.564282E+05 -8.057629E+05  4.423303E+05  1.651832E+05
       136   4 -2.935416E+06 -3.988278E+05 -1.792699E+05 -1.115886E+06  1.274732E+05  4.443168E+04
       136   5 -2.834847E+06 -3.047458E+05 -2.872156E+05 -1.108079E+06  2.859481E+05  1.035533E+05
       136   6 -3.006673E+06 -8.967285E+05 -7.000412E+05 -9.288705E+05  4.433693E+05  1.654874E+05
       136   7 -3.116227E+06 -4.217799E+05 -2.195150E+05 -1.118512E+06  1.269212E+05  4.423571E+04
       136   8 -2.969368E+06 -3.811627E+05 -3.288045E+05 -1.170943E+06  2.861851E+05  1.036276E+05
       136   9 -3.095116E+06 -1.026836E+06 -7.436501E+05 -1.051951E+06  4.444081E+05  1.657911E+05
       136  10 -2.754588E+06 -3.758808E+05 -1.390602E+05 -1.113267E+06  9.599591E-10  1.137414E-09
       136  11 -2.700398E+06 -2.283529E+05 -2.458026E+05 -1.045223E+06 -5.740191E-10  4.617874E-09
       136  12 -2.918418E+06 -7.666407E+05 -6.568493E+05 -8.058220E+05  5.601509E-11  2.074999E-09
       136  13 -2.935434E+06 -3.988343E+05 -1.793043E+05 -1.115890E+06  4.922390E-10  1.054538E-09
       136  14 -2.834938E+06 -3.047794E+05 -2.873903E+05 -1.108103E+06  1.887848E-09  2.695086E-09
       136  15 -3.006893E+06 -8.968112E+05 -7.004643E+05 -9.289298E+05  2.386183E-09  1.329518E-09
       136  16 -3.116245E+06 -4.217863E+05 -2.195491E+05 -1.118517E+06  1.978164E-10  2.097471E-09
       136  17 -2.969459E+06 -3.811965E+05 -3.289796E+05 -1.170967E+06 -3.825004E-10  2.747649E-09
       136  18 -3.095336E+06 -1.026919E+06 -7.440753E+05 -1.052010E+06 -9.834241E-10  3.543725E-10
       136  19 -2.754570E+06 -3.758742E+05 -1.390255E+05 -1.113262E+06 -1.280255E+05 -4.462762E+04
       136  20 -2.700307E+06 -2.283193E+05 -2.456282E+05 -1.045199E+06 -2.857110E+05 -1.034790E+05
       136  21 -2.918199E+06 -7.665584E+05 -6.564282E+05 -8.057629E+05 -4.423303E+05 -1.651832E+05
       136  22 -2.935416E+06 -3.988278E+05 -1.792699E+05 -1.115886E+06 -1.274732E+05 -4.443168E+04
       136  23 -2.834847E+06 -3.047458E+05 -2.872156E+05 -1.108079E+06 -2.859481E+05 -1.035533E+05
       136  24 -3.006673E+06 -8.967285E+05 -7.000412E+05 -9.288705E+05 -4.433693E+05 -1.654874E+05
       136  25 -3.116227E+06 -4.217799E+05 -2.195150E+05 -1.118512E+06 -1.269212E+05 -4.423571E+04
       136  26 -2.969368E+06 -3.811627E+05 -3.288045E+05 -1.170943E+06 -2.861851E+05 -1.036276E+05
       136  27 -3.095116E+06 -1.026836E+06 -7.436501E+05 -1.051951E+06 -4.444081E+05 -1.657911E+05
       137   1 -6.549192E+05  1.820017E+04  4.557627E+04  9.039657E+03  8.008325E+04  2.235546E+03
       137   2 -6.557266E+05 -8.935660E+04 -1.786080E+04  5.082449E+03  5.344886E+04  6.290951E+03
       137   3 -6.211587E+05 -7.048704E+04 -3.227646E+04 -1.917332E+04  2.681857E+04  5.357717E+03
       137   4 -3.542353E+05  9.326479E+04  1.203417E+05 -1.010253E+04  8.216294E+04  2.235530E+03
       137   5 -3.720610E+05 -1.866393E+04  5.182583E+04  1.036541E+02  5.396087E+04  6.290814E+03
       137   6 -3.542562E+05 -3.925820E+03  3.340365E+04 -9.987912E+03  2.576370E+04  5.357246E+03
       137   7 -5.346848E+04  1.683240E+05  1.951006E+05 -2.925403E+04  8.424362E+04  2.235386E+03
       137   8 -8.832191E+04  5.202286E+04  1.215066E+05 -4.877440E+03  5.447312E+04  6.290669E+03
       137   9 -8.728860E+04  6.263041E+04  9.907855E+04 -7.985587E+02  2.470839E+04  5.356743E+03
       137  10 -6.549261E+05  1.819844E+04  4.556420E+04  9.039512E+03  1.442232E-09 -1.723056E-09
       137  11 -6.557297E+05 -8.935741E+04 -1.786625E+04  5.082178E+03  5.957850E-10 -5.691567E-10
       137  12 -6.211595E+05 -7.048726E+04 -3.227786E+04 -1.917343E+04 -4.374401E-10 -4.817360E-10
       137  13 -3.542426E+05  9.326297E+04  1.203290E+05 -1.010268E+04 -1.238444E-09  4.212882E-10
       137  14 -3.720641E+05 -1.866475E+04  5.182028E+04  1.033807E+02 -2.012563E-10 -8.280898E-10
       137  15 -3.542569E+05 -3.926029E+03  3.340235E+04 -9.988023E+03 -6.940047E-11 -5.989995E-10
       137  16 -5.347610E+04  1.683221E+05  1.950873E+05 -2.925418E+04 -3.621469E-09  5.040871E-10
       137  17 -8.832511E+04  5.202202E+04  1.215009E+05 -4.877716E+03 -2.295468E-09 -6.670531E-10
       137  18 -8.728926E+04  6.263021E+04  9.907735E+04 -7.986653E+02 -5.343215E-10  1.639629E-09
       137  19 -6.549192E+05  1.820017E+04  4.557627E+04  9.039657E+03 -8.008325E+04 -2.235546E+03
       137  20 -6.557266E+05 -8.935660E+04 -1.786080E+04  5.082449E+03 -5.344886E+04 -6.290951E+03
       137  21 -6.211587E+05 -7.048704E+04 -3.227646E+04 -1.917332E+04 -2.681857E+04 -5.357717E+03
       137  22 -3.542353E+05  9.326479E+04  1.203417E+05 -1.010253E+04 -8.216294E+04 -2.235530E+03
       137  23 -3.720610E+05 -1.866393E+04  5.182583E+04  1.036541E+02 -5.396087E+04 -6.290814E+03
       137  24 -3.542562E+05 -3.925820E+03  3.340365E+04 -9.987912E+03 -2.576370E+04 -5.357246E+03
       137  25 -5.346848E+04  1.683240E+05  1.951006E+05 -2.925403E+04 -8.424362E+04 -2.235386E+03
       137  26 -8.832191E+04  5.202286E+04  1.215066E+05 -4.877440E+03 -5.447312E+04 -6.290669E+03
       137  27 -8.728860E+04  6.263041E+04  9.907855E+04 -7.985587E+02 -2.470839E+04 -5.356743E+03
       138   1 -5.836356E+05 -4.309906E+04 -2.733934E+04 -7.873668E+03  2.029087E+04  4.243211E+03
       138   2 -5.687283E+05 -5.364475E+04 -3.703295E+04  8.868967E+02  1.350149E+04  4.173008E+03
       138   3 -5.485675E+05 -4.728952E+04 -3.804865E+04 -1.146845E+04  6.711873E+03  3.507272E+03
       138   4 -3.609887E+05  1.241701E+04  2.749124E+04 -1.020904E+04  2.036786E+04  4.243076E+03
       138   5 -3.636325E+05 -2.513533E+03  1.342098E+04  3.519456E+02  1.339055E+04  4.172868E+03
       138   6 -3.609924E+05 -5.136091E+02  8.156950E+03 -1.020250E+04  6.413201E+03  3.507175E+03
       138   7 -1.382966E+05  6.792940E+04  8.231816E+04 -1.254525E+04  2.044487E+04  4.242941E+03
       138   8 -1.584984E+05  4.861456E+04  6.387180E+04 -1.831861E+02  1.327957E+04  4.172729E+03
       138   9 -1.733852E+05  4.625969E+04  5.435996E+04 -8.936162E+03  6.114438E+03  3.507078E+03
       138  10 -5.836360E+05 -4.309919E+04 -2.734015E+04 -7.873737E+03  7.497674E-10  7.131561E-13
       138  11 -5.687285E+05 -5.364482E+04 -3.703332E+04  8.868514E+02 -2.511611E-09  6.411473E-11
       138  12 -5.485676E+05 -4.728955E+04 -3.804876E+04 -1.146847E+04 -4.674029E-09 -3.885962E-11
       138  13 -3.609891E+05  1.241687E+04  2.749043E+04 -1.020911E+04 -1.192723E-09  1.347751E-09
       138  14 -3.636327E+05 -2.513600E+03  1.342061E+04  3.519006E+02  4.084597E-09  1.471438E-10
       138  15 -3.609924E+05 -5.136333E+02  8.156850E+03 -1.020252E+04 -2.565441E-09 -5.841074E-11
       138  16 -1.382971E+05  6.792927E+04  8.231734E+04 -1.254532E+04 -1.780864E-09  1.254817E-09
       138  17 -1.584986E+05  4.861449E+04  6.387144E+04 -1.832307E+02 -2.553428E-09 -3.995448E-10
       138  18 -1.733852E+05  4.625967E+04  5.435986E+04 -8.936179E+03  1.173808E-09  2.583958E-10
       138  19 -5.836356E+05 -4.309906E+04 -2.733934E+04 -7.873668E+03 -2.029087E+04 -4.243211E+03
       138  20 -5.687283E+05 -5.364475E+04 -3.703295E+04  8.868967E+02 -1.350149E+04 -4.173008E+03
       138  21 -5.485675E+05 -4.728952E+04 -3.804865E+04 -1.146845E+04 -6.711873E+03 -3.507272E+03
       138  22 -3.609887E+05  1.241701E+04  2.749124E+04 -1.020904E+04 -2.036786E+04 -4.243076E+03
       138  23 -3.636325E+05 -2.513533E+03  1.342098E+04  3.519456E+02 -1.339055E+04 -4.172868E+03
       138  24 -3.609924E+05 -5.136091E+02  8.156950E+03 -1.020250E+04 -6.413201E+03 -3.507175E+03
       138  25 -1.382966E+05  6.792940E+04  8.231816E+04 -1.254525E+04 -2.044487E+04 -4.242941E+03
       138  26 -1.584984E+05  4.861456E+04  6.387180E+04 -1.831861E+02 -1.327957E+04 -4.172729E+03
       138  27 -1.733852E+05  4.625969E+04  5.435996E+04 -8.936162E+03 -6.114438E+03 -3.507078E+03
       139   1 -5.037002E+05 -3.368857E+04 -2.839432E+04 -1.006197E+04  5.271467E+03  3.050658E+03
       139   2 -4.860917E+05 -3.117623E+04 -2.715027E+04  5.715300E+02  3.626611E+03  2.481591E+03
       139   3 -4.676678E+05 -2.642717E+04 -2.426706E+04 -1.049429E+04  1.981500E+03  1.835721E+03
       139   4 -3.619792E+05  1.634969E+03  6.433484E+03 -1.033412E+04  5.106782E+03  3.050603E+03
       139   5 -3.623893E+05 -3.367027E+02  3.285908E+03  5.154280E+02  3.437629E+03  2.481571E+03
       139   6 -3.619800E+05 -6.761179E+01  1.794174E+03 -1.033407E+04  1.768269E+03  1.835742E+03
       139   7 -2.202399E+05  3.695702E+04  4.125981E+04 -1.060633E+04  4.942060E+03  3.050548E+03
       139   8 -2.386730E+05  3.050169E+04  3.372096E+04  4.593151E+02  3.248610E+03  2.481551E+03
       139   9 -2.562822E+05  2.629111E+04  2.785458E+04 -1.017383E+04  1.555002E+03  1.835763E+03
       139  10 -5.037002E+05 -3.368859E+04 -2.839439E+04 -1.006198E+04 -6.799412E-10  5.608127E-11
       139  11 -4.860917E+05 -3.117624E+04 -2.715031E+04  5.715227E+02 -4.419414E-10 -2.986263E-11
       139  12 -4.676678E+05 -2.642717E+04 -2.426707E+04 -1.049429E+04 -2.819994E-09 -1.098769E-10
       139  13 -3.619792E+05  1.634952E+03  6.433418E+03 -1.033413E+04  1.353808E-10  1.907140E-10
       139  14 -3.623893E+05 -3.367125E+02  3.285874E+03  5.154212E+02 -1.073587E-09 -3.750769E-10
       139  15 -3.619800E+05 -6.761625E+01  1.794162E+03 -1.033407E+04  1.466745E-09  2.397542E-10
       139  16 -2.202399E+05  3.695700E+04  4.125975E+04 -1.060634E+04  8.539118E-10  4.953301E-10
       139  17 -2.386730E+05  3.050168E+04  3.372093E+04  4.593086E+02  1.417359E-09 -2.939480E-10
       139  18 -2.562822E+05  2.629111E+04  2.785457E+04 -1.017383E+04 -4.854222E-10 -4.681110E-11
       139  19 -5.037002E+05 -3.368857E+04 -2.839432E+04 -1.006197E+04 -5.271467E+03 -3.050658E+03
       139  20 -4.860917E+05 -3.117623E+04 -2.715027E+04  5.715300E+02 -3.626611E+03 -2.481591E+03
       139  21 -4.676678E+05 -2.642717E+04 -2.426706E+04 -1.049429E+04 -1.981500E+03 -1.835721E+03
       139  22 -3.619792E+05  1.634969E+03  6.433484E+03 -1.033412E+04 -5.106782E+03 -3.050603E+03
       139  23 -3.623893E+05 -3.367027E+02  3.285908E+03  5.154280E+02 -3.437629E+03 -2.481571E+03
       139  24 -3.619800E+05 -6.761179E+01  1.794174E+03 -1.033407E+04 -1.768269E+03 -1.835742E+03
       139  25 -2.202399E+05  3.695702E+04  4.125981E+04 -1.060633E+04 -4.942060E+03 -3.050548E+03
       139  26 -2.386730E+05  3.050169E+04  3.372096E+04  4.593151E+02 -3.248610E+03 -2.481551E+03
       139  27 -2.562822E+05  2.629111E+04  2.785458E+04 -1.017383E+04 -1.555002E+03 -1.835763E+03
       140   1 -4.210316E+05 -1.445237E+04 -1.316888E+04 -1.037342E+04  1.689795E+03  1.449845E+03
       140   2 -4.028051E+05 -1.015803E+04 -9.668572E+03  6.020001E+02  1.527035E+03  8.129219E+02
       140   3 -3.845148E+05 -5.656925E+03 -6.012535E+03 -1.041727E+04  1.364186E+03  1.659689E+02
       140   4 -3.621454E+05  2.167024E+02  1.264503E+03 -1.039970E+04  1.492810E+03  1.449883E+03
       140   5 -3.621775E+05 -2.982679E+01  3.274622E+02  5.975585E+02  1.326894E+03  8.129721E+02
       140   6 -3.621457E+05 -6.909713E+01 -4.517349E+02 -1.039978E+04  1.160894E+03  1.660329E+02
       140   7 -3.032561E+05  1.488551E+04  1.569763E+04 -1.042599E+04  1.295806E+03  1.449921E+03
       140   8 -3.215483E+05  1.009825E+04  1.032337E+04  5.931166E+02  1.126740E+03  8.130224E+02
       140   9 -3.397761E+05  5.518693E+03  5.109028E+03 -1.038228E+04  9.575942E+02  1.660968E+02
       140  10 -4.210316E+05 -1.445237E+04 -1.316889E+04 -1.037342E+04  1.027764E-09 -1.222208E-10
       140  11 -4.028051E+05 -1.015803E+04 -9.668578E+03  6.019991E+02  2.946154E-10  3.175331E-10
       140  12 -3.845148E+05 -5.656925E+03 -6.012539E+03 -1.041727E+04  4.807614E-10  6.411893E-10
       140  13 -3.621454E+05  2.166995E+02  1.264495E+03 -1.039970E+04  1.085246E-09  7.552106E-11
       140  14 -3.621775E+05 -2.982797E+01  3.274577E+02  5.975576E+02 -9.941762E-10  3.885626E-10
       140  15 -3.621457E+05 -6.909753E+01 -4.517375E+02 -1.039978E+04 -8.209074E-10  1.771286E-10
       140  16 -3.032562E+05  1.488551E+04  1.569763E+04 -1.042599E+04  5.283184E-10  7.149652E-11
       140  17 -3.215483E+05  1.009825E+04  1.032337E+04  5.931159E+02  9.134897E-10  4.893654E-10
       140  18 -3.397761E+05  5.518692E+03  5.109026E+03 -1.038228E+04  1.763465E-10  5.896359E-10
       140  19 -4.210316E+05 -1.445237E+04 -1.316888E+04 -1.037342E+04 -1.689795E+03 -1.449845E+03
       140  20 -4.028051E+05 -1.015803E+04 -9.668572E+03  6.020001E+02 -1.527035E+03 -8.129219E+02
       140  21 -3.845148E+05 -5.656925E+03 -6.012535E+03 -1.041727E+04 -1.364186E+03 -1.659689E+02
       140  22 -3.621454E+05  2.167024E+02  1.264503E+03 -1.039970E+04 -1.492810E+03 -1.449883E+03
       140  23 -3.621775E+05 -2.982679E+01  3.274622E+02  5.975585E+02 -1.326894E+03 -8.129721E+02
       140  24 -3.621457E+05 -6.909713E+01 -4.517349E+02 -1.039978E+04 -1.160894E+03 -1.660329E+02
       140  25 -3.032561E+05  1.488551E+04  1.569763E+04 -1.042599E+04 -1.295806E+03 -1.449921E+03
       140  26 -3.215483E+05  1.009825E+04  1.032337E+04  5.931166E+02 -1.126740E+03 -8.130224E+02
       140  27 -3.397761E+05  5.518693E+03  5.109028E+03 -1.038228E+04 -9.575942E+02 -1.660968E+02
       141   1 -3.374829E+05  6.232433E+03  5.287249E+03 -1.046763E+04  1.482260E+03 -2.143535E+02
       141   2 -3.190731E+05  1.082520E+04  8.662920E+03  5.877949E+02  2.439824E+03 -8.614221E+02
       141   3 -3.009694E+05  1.472670E+04  1.124018E+04 -1.034665E+04  3.397502E+03 -1.498283E+03
       141   4 -3.622281E+05  5.236109E+01 -8.580280E+02 -1.039866E+04  1.278903E+03 -2.142897E+02
       141   5 -3.620748E+05  1.057036E+02 -1.916706E+03  5.962491E+02  2.239583E+03 -8.613729E+02
       141   6 -3.622284E+05 -5.327744E+02 -3.775998E+03 -1.039881E+04  3.200348E+03 -1.498247E+03
       141   7 -3.869729E+05 -6.127757E+03 -7.003351E+03 -1.032970E+04  1.075555E+03 -2.142260E+02
       141   8 -4.050748E+05 -1.061393E+04 -1.249647E+04  6.047027E+02  2.039356E+03 -8.613236E+02
       141   9 -4.234840E+05 -1.579253E+04 -1.879245E+04 -1.045096E+04  3.003215E+03 -1.498212E+03
       141  10 -3.374829E+05  6.232432E+03  5.287245E+03 -1.046763E+04 -1.203363E-09  4.998041E-10
       141  11 -3.190731E+05  1.082520E+04  8.662908E+03  5.877966E+02 -1.814324E-09 -5.473874E-10
       141  12 -3.009694E+05  1.472669E+04  1.124016E+04 -1.034665E+04 -7.620998E-10 -6.991229E-10
       141  13 -3.622281E+05  5.236060E+01 -8.580312E+02 -1.039866E+04  2.964810E-09 -2.902651E-10
       141  14 -3.620748E+05  1.057014E+02 -1.916717E+03  5.962506E+02  1.913113E-09 -8.623193E-10
       141  15 -3.622284E+05 -5.327795E+02 -3.776021E+03 -1.039880E+04 -2.488078E-09 -4.285232E-10
       141  16 -3.869729E+05 -6.127757E+03 -7.003353E+03 -1.032970E+04 -1.581774E-09  4.796110E-11
       141  17 -4.050748E+05 -1.061393E+04 -1.249648E+04  6.047042E+02 -1.462157E-10 -1.425885E-10
       141  18 -4.234840E+05 -1.579253E+04 -1.879247E+04 -1.045096E+04  7.981674E-11  1.709120E-10
       141  19 -3.374829E+05  6.232433E+03  5.287249E+03 -1.046763E+04 -1.482260E+03  2.143535E+02
       141  20 -3.190731E+05  1.082520E+04  8.662920E+03  5.877949E+02 -2.439824E+03  8.614221E+02
       141  21 -3.009694E+05  1.472670E+04  1.124018E+04 -1.034665E+04 -3.397502E+03  1.498283E+03
       141  22 -3.622281E+05  5.236109E+01 -8.580280E+02 -1.039866E+04 -1.278903E+03  2.142897E+02
       141  23 -3.620748E+05  1.057036E+02 -1.916706E+03  5.962491E+02 -2.239583E+03  8.613729E+02
       141  24 -3.622284E+05 -5.327744E+02 -3.775998E+03 -1.039881E+04 -3.200348E+03  1.498247E+03
       141  25 -3.869729E+05 -6.127757E+03 -7.003351E+03 -1.032970E+04 -1.075555E+03  2.142260E+02
       141  26 -4.050748E+05 -1.061393E+04 -1.249647E+04  6.047027E+02 -2.039356E+03  8.613236E+02
       141  27 -4.234840E+05 -1.579253E+04 -1.879245E+04 -1.045096E+04 -3.003215E+03  1.498212E+03
       142   1 -2.545355E+05  2.711492E+04  2.171289E+04 -1.078387E+04  4.196791E+03 -1.884016E+03
       142   2 -2.355756E+05  3.225139E+04  2.257959E+04  6.395430E+02  8.450879E+03 -2.529122E+03
       142   3 -2.185208E+05  3.180817E+04  1.928988E+04 -9.626195E+03  1.270525E+04 -3.095794E+03
       142   4 -3.625870E+05  1.692583E+02 -4.926638E+03 -1.033193E+04  3.983045E+03 -1.883995E+03
       142   5 -3.616326E+05  8.296267E+02 -8.431401E+03  5.128660E+02  8.260817E+03 -2.529146E+03
       142   6 -3.625882E+05 -4.094403E+03 -1.610960E+04 -1.033177E+04  1.253875E+04 -3.095864E+03
       142   7 -4.706278E+05 -2.677727E+04 -3.156703E+04 -9.880077E+03  3.769336E+03 -1.883974E+03
       142   8 -4.876753E+05 -3.059332E+04 -3.944356E+04  3.862151E+02  8.070794E+03 -2.529171E+03
       142   9 -5.066366E+05 -3.999851E+04 -5.151061E+04 -1.103718E+04  1.237228E+04 -3.095934E+03
       142  10 -2.545355E+05  2.711491E+04  2.171285E+04 -1.078386E+04 -5.238421E-10 -6.710694E-10
       142  11 -2.355756E+05  3.225136E+04  2.257944E+04  6.395602E+02 -1.734307E-09  1.209152E-10
       142  12 -2.185210E+05  3.180811E+04  1.928956E+04 -9.626164E+03  7.511372E-10 -3.005028E-11
       142  13 -3.625870E+05  1.692502E+02 -4.926674E+03 -1.033193E+04  1.085178E-09 -2.917253E-10
       142  14 -3.616327E+05  8.296015E+02 -8.431541E+03  5.128829E+02  2.286418E-09 -1.872884E-10
       142  15 -3.625883E+05 -4.094455E+03 -1.610992E+04 -1.033174E+04  2.178777E-10  1.498143E-10
       142  16 -4.706278E+05 -2.677728E+04 -3.156706E+04 -9.880071E+03  1.375689E-10  1.685484E-10
       142  17 -4.876753E+05 -3.059334E+04 -3.944370E+04  3.862315E+02  2.850734E-09 -3.677803E-10
       142  18 -5.066368E+05 -3.999857E+04 -5.151092E+04 -1.103715E+04  1.863295E-09  4.058488E-10
       142  19 -2.545355E+05  2.711492E+04  2.171289E+04 -1.078387E+04 -4.196791E+03  1.884016E+03
       142  20 -2.355756E+05  3.225139E+04  2.257959E+04  6.395430E+02 -8.450879E+03  2.529122E+03
       142  21 -2.185208E+05  3.180817E+04  1.928988E+04 -9.626195E+03 -1.270525E+04  3.095794E+03
       142  22 -3.625870E+05  1.692583E+02 -4.926638E+03 -1.033193E+04 -3.983045E+03  1.883995E+03
       142  23 -3.616326E+05  8.296267E+02 -8.431401E+03  5.128660E+02 -8.260817E+03  2.529146E+03
       142  24 -3.625882E+05 -4.094403E+03 -1.610960E+04 -1.033177E+04 -1.253875E+04  3.095864E+03
       142  25 -4.706278E+05 -2.677727E+04 -3.156703E+04 -9.880077E+03 -3.769336E+03  1.883974E+03
       142  26 -4.876753E+05 -3.059332E+04 -3.944356E+04  3.862151E+02 -8.070794E+03  2.529171E+03
       142  27 -5.066366E+05 -3.999851E+04 -5.151061E+04 -1.103718E+04 -1.237228E+04  3.095934E+03
       143   1 -1.750610E+05  4.861043E+04  2.644545E+04 -1.327461E+04  1.610092E+04 -3.550420E+03
       143   2 -1.512523E+05  5.789902E+04  1.763923E+04  1.865874E+03  3.326010E+04 -4.202494E+03
       143   3 -1.400266E+05  2.520808E+04 -1.280339E+04 -4.056138E+03  5.041990E+04 -4.246477E+03
       143   4 -3.649718E+05  1.264520E+03 -2.032452E+04 -1.019758E+04  1.579826E+04 -3.550455E+03
       143   5 -3.586649E+05  6.201721E+03 -3.337296E+04  3.423724E+02  3.314190E+04 -4.202706E+03
       143   6 -3.649782E+05 -3.088055E+04 -6.819136E+04 -1.018081E+04  5.048568E+04 -4.247029E+03
       143   7 -5.548498E+05 -4.608404E+04 -6.709713E+04 -7.121489E+03  1.549570E+04 -3.550494E+03
       143   8 -5.660383E+05 -4.549877E+04 -8.438831E+04 -1.180622E+03  3.302375E+04 -4.202917E+03
       143   9 -5.898838E+05 -8.697281E+04 -1.235830E+05 -1.630327E+04  5.055144E+04 -4.247583E+03
       143  10 -1.750613E+05  4.861035E+04  2.644493E+04 -1.327456E+04  3.113704E-09 -2.521443E-10
       143  11 -1.512535E+05  5.789870E+04  1.763711E+04  1.865986E+03  1.630963E-09 -5.162449E-10
       143  12 -1.400293E+05  2.520738E+04 -1.280820E+04 -4.055965E+03  1.711256E-09 -3.415782E-10
       143  13 -3.649721E+05  1.264439E+03 -2.032501E+04 -1.019753E+04  3.234615E-09 -8.883396E-11
       143  14 -3.586661E+05  6.201407E+03 -3.337506E+04  3.424846E+02 -1.101894E-09 -8.878269E-10
       143  15 -3.649810E+05 -3.088126E+04 -6.819618E+04 -1.018064E+04 -4.365181E-09 -1.306247E-10
       143  16 -5.548501E+05 -4.608412E+04 -6.709761E+04 -7.121445E+03 -9.942576E-10  1.089861E-10
       143  17 -5.660395E+05 -4.549908E+04 -8.439040E+04 -1.180511E+03 -6.041637E-09 -2.951061E-10
       143  18 -5.898865E+05 -8.697351E+04 -1.235879E+05 -1.630309E+04 -3.109611E-09  3.796023E-10
       143  19 -1.750610E+05  4.861043E+04  2.644545E+04 -1.327461E+04 -1.610092E+04  3.550420E+03
       143  20 -1.512523E+05  5.789902E+04  1.763923E+04  1.865874E+03 -3.326010E+04  4.202494E+03
       143  21 -1.400266E+05  2.520808E+04 -1.280339E+04 -4.056138E+03 -5.041990E+04  4.246477E+03
       143  22 -3.649718E+05  1.264520E+03 -2.032452E+04 -1.019758E+04 -1.579826E+04  3.550455E+03
       143  23 -3.586649E+05  6.201721E+03 -3.337296E+04  3.423724E+02 -3.314190E+04  4.202706E+03
       143  24 -3.649782E+05 -3.088055E+04 -6.819136E+04 -1.018081E+04 -5.048568E+04  4.247029E+03
       143  25 -5.548498E+05 -4.608404E+04 -6.709713E+04 -7.121489E+03 -1.549570E+04  3.550494E+03
       143  26 -5.660383E+05 -4.549877E+04 -8.438831E+04 -1.180622E+03 -3.302375E+04  4.202917E+03
       143  27 -5.898838E+05 -8.697281E+04 -1.235830E+05 -1.630327E+04 -5.055144E+04  4.247583E+03
       144   1 -1.122704E+05  7.676595E+04 -1.656438E+04 -3.232217E+04  6.493905E+04 -5.346148E+03
       144   2 -5.201876E+04  1.174684E+05 -5.831387E+04  1.312373E+04  1.333397E+05 -6.156831E+03
       144   3 -7.880144E+04 -1.555457E+05 -2.229445E+05  3.875269E+04  2.017382E+05 -1.882589E+03
       144   4 -3.815802E+05  9.678518E+03 -8.280931E+04 -1.000352E+04  6.385770E+04 -5.344701E+03
       144   5 -3.379210E+05  4.620319E+04 -1.285362E+05  4.932979E+01  1.338140E+05 -6.159314E+03
       144   6 -3.816101E+05 -2.313410E+05 -2.982663E+05 -9.714005E+03  2.037660E+05 -1.895775E+03
       144   7 -6.508230E+05 -5.741243E+04 -1.490593E+05  1.230543E+04  6.277682E+04 -5.343332E+03
       144   8 -6.237485E+05 -2.506750E+04 -1.987644E+05 -1.301906E+04  1.342880E+05 -6.161818E+03
       144   9 -6.843305E+05 -3.071344E+05 -3.735937E+05 -5.815706E+04  2.057928E+05 -1.909284E+03
       144  10 -1.122749E+05  7.676479E+04 -1.657236E+04 -3.232189E+04  2.258198E-10 -1.248346E-09
       144  11 -5.203787E+04  1.174636E+05 -5.834736E+04  1.312439E+04 -3.707116E-09 -3.642798E-09
       144  12 -7.884516E+04 -1.555567E+05 -2.230210E+05  3.875299E+04 -2.788920E-09 -1.238625E-09
       144  13 -3.815846E+05  9.677392E+03 -8.281703E+04 -1.000324E+04 -2.844992E-09 -3.111269E-09
       144  14 -3.379403E+05  4.619834E+04 -1.285699E+05  4.999374E+01 -3.643618E-09  1.221773E-09
       144  15 -3.816547E+05 -2.313522E+05 -2.983444E+05 -9.713694E+03 -2.309498E-09 -3.711111E-10
       144  16 -6.508272E+05 -5.741352E+04 -1.490668E+05  1.230570E+04 -3.815075E-10 -2.339664E-12
       144  17 -6.237679E+05 -2.507239E+04 -1.987984E+05 -1.301839E+04  8.761928E-10  7.186715E-10
       144  18 -6.843760E+05 -3.071458E+05 -3.736734E+05 -5.815675E+04  3.052663E-09 -1.381063E-09
       144  19 -1.122704E+05  7.676595E+04 -1.656438E+04 -3.232217E+04 -6.493905E+04  5.346148E+03
       144  20 -5.201876E+04  1.174684E+05 -5.831387E+04  1.312373E+04 -1.333397E+05  6.156831E+03
       144  21 -7.880144E+04 -1.555457E+05 -2.229445E+05  3.875269E+04 -2.017382E+05  1.882589E+03
       144  22 -3.815802E+05  9.678518E+03 -8.280931E+04 -1.000352E+04 -6.385770E+04  5.344701E+03
       144  23 -3.379210E+05  4.620319E+04 -1.285362E+05  4.932979E+01 -1.338140E+05  6.159314E+03
       144  24 -3.816101E+05 -2.313410E+05 -2.982663E+05 -9.714005E+03 -2.037660E+05  1.895775E+03
       144  25 -6.508230E+05 -5.741243E+04 -1.490593E+05  1.230543E+04 -6.277682E+04  5.343332E+03
       144  26 -6.237485E+05 -2.506750E+04 -1.987644E+05 -1.301906E+04 -1.342880E+05  6.161818E+03
       144  27 -6.843305E+05 -3.071344E+05 -3.735937E+05 -5.815706E+04 -2.057928E+05  1.909284E+03
       145   1  3.260633E+05  4.898470E+05  3.399407E+05 -1.233145E+05  7.355941E+03  5.973092E+04
       145   2  2.088912E+05  2.832322E+05  2.446907E+05  1.928905E+03  1.986503E+04  3.801748E+04
       145   3  1.681717E+05  9.937822E+04  1.828490E+05 -1.071980E+05  1.202129E+04  1.625808E+04
       145   4  5.662335E+04 -5.889302E+05  7.175916E+04 -1.103520E+05  7.370842E+03  5.260451E+04
       145   5 -1.110634E+04 -5.997779E+05  2.796143E+04  6.784386E+03  1.986897E+04  3.727142E+04
       145   6 -3.428727E+03 -5.889683E+05  1.318340E+04 -1.104677E+05  1.200212E+04  2.188544E+04
       145   7 -2.129035E+05 -1.666651E+06 -1.965093E+05 -9.741147E+04  7.385461E+03  4.549041E+04
       145   8 -2.311617E+05 -1.482078E+06 -1.888251E+05  1.163340E+04  1.987291E+04  3.652639E+04
       145   9 -1.750644E+05 -1.276884E+06 -1.565172E+05 -1.137334E+05  1.198287E+04  2.750656E+04
       145  10  3.260623E+05  4.898431E+05  3.399339E+05 -1.233148E+05 -5.509961E-10  1.352883E-09
       145  11  2.088904E+05  2.832306E+05  2.446872E+05  1.928297E+03  1.291813E-09  4.622056E-09
       145  12  1.681715E+05  9.937790E+04  1.828483E+05 -1.071981E+05 -2.247936E-09  2.772614E-09
       145  13  5.662254E+04 -5.889332E+05  7.175385E+04 -1.103523E+05 -1.360117E-09 -1.769897E-09
       145  14 -1.110713E+04 -5.997795E+05  2.795808E+04  6.783790E+03  1.245664E-09 -1.283767E-09
       145  15 -3.429010E+03 -5.889688E+05  1.318223E+04 -1.104679E+05 -6.926066E-10 -1.307764E-09
       145  16 -2.129041E+05 -1.666653E+06 -1.965133E+05 -9.741174E+04  4.952733E-10 -5.666632E-10
       145  17 -2.311625E+05 -1.482079E+06 -1.888284E+05  1.163282E+04  1.077832E-09 -3.955984E-09
       145  18 -1.750648E+05 -1.276884E+06 -1.565189E+05 -1.137337E+05  7.778512E-11 -6.234598E-10
       145  19  3.260633E+05  4.898470E+05  3.399407E+05 -1.233145E+05 -7.355941E+03 -5.973092E+04
       145  20  2.088912E+05  2.832322E+05  2.446907E+05  1.928905E+03 -1.986503E+04 -3.801748E+04
       145  21  1.681717E+05  9.937822E+04  1.828490E+05 -1.071980E+05 -1.202129E+04 -1.625808E+04
       145  22  5.662335E+04 -5.889302E+05  7.175916E+04 -1.103520E+05 -7.370842E+03 -5.260451E+04
       145  23 -1.110634E+04 -5.997779E+05  2.796143E+04  6.784386E+03 -1.986897E+04 -3.727142E+04
       145  24 -3.428727E+03 -5.889683E+05  1.318340E+04 -1.104677E+05 -1.200212E+04 -2.188544E+04
       145  25 -2.129035E+05 -1.666651E+06 -1.965093E+05 -9.741147E+04 -7.385461E+03 -4.549041E+04
       145  26 -2.311617E+05 -1.482078E+06 -1.888251E+05  1.163340E+04 -1.987291E+04 -3.652639E+04
       145  27 -1.750644E+05 -1.276884E+06 -1.565172E+05 -1.137334E+05 -1.198287E+04 -2.750656E+04
       146   1  5.408051E+04 -4.127571E+05  5.195079E+04 -1.114859E+05  4.466011E+03  1.851583E+04
       146   2 -2.345602E+03 -6.074667E+05 -1.106512E+04  6.565475E+03 -3.904714E+02  2.234290E+04
       146   3 -6.694163E+04 -8.068269E+05 -7.906924E+04 -1.126269E+05 -5.198010E+03  2.616917E+04
       146   4  8.758410E+03 -5.946753E+05  7.367451E+03 -1.110190E+05  4.460362E+03  2.003178E+04
       146   5  1.416643E+03 -5.923403E+05 -7.345394E+03  7.560900E+03 -3.959500E+02  2.384525E+04
       146   6 -1.408798E+04 -5.946843E+05 -2.703019E+04 -1.111028E+05 -5.203400E+03  2.765913E+04
       146   7 -3.656614E+04 -7.765634E+05 -3.721830E+04 -1.105522E+05  4.454713E+03  2.154728E+04
       146   8  5.178876E+03 -5.772137E+05 -3.625679E+03  8.556349E+03 -4.014238E+02  2.534764E+04
       146   9  3.876235E+04 -3.825006E+05  2.500556E+04 -1.095781E+05 -5.208781E+03  2.914960E+04
       146  10  5.408039E+04 -4.127575E+05  5.195010E+04 -1.114859E+05 -6.143203E-10  3.231594E-09
       146  11 -2.345736E+03 -6.074672E+05 -1.106606E+04  6.565482E+03  8.783499E-10  7.069017E-09
       146  12 -6.694184E+04 -8.068277E+05 -7.907057E+04 -1.126268E+05  7.939477E-10  5.014451E-09
       146  13  8.758281E+03 -5.946758E+05  7.366659E+03 -1.110190E+05  3.800295E-10 -3.888186E-09
       146  14  1.416490E+03 -5.923409E+05 -7.346463E+03  7.560908E+03  1.381545E-09 -1.910369E-09
       146  15 -1.408821E+04 -5.946851E+05 -2.703168E+04 -1.111026E+05  2.159625E-09 -1.477182E-09
       146  16 -3.656628E+04 -7.765639E+05 -3.721921E+04 -1.105523E+05 -8.145604E-10 -1.335470E-09
       146  17  5.178703E+03 -5.772144E+05 -3.626888E+03  8.556358E+03  8.579481E-11 -5.921920E-09
       146  18  3.876209E+04 -3.825015E+05  2.500391E+04 -1.095780E+05 -9.483928E-10 -2.596443E-09
       146  19  5.408051E+04 -4.127571E+05  5.195079E+04 -1.114859E+05 -4.466011E+03 -1.851583E+04
       146  20 -2.345602E+03 -6.074667E+05 -1.106512E+04  6.565475E+03  3.904714E+02 -2.234290E+04
       146  21 -6.694163E+04 -8.068269E+05 -7.906924E+04 -1.126269E+05  5.198010E+03 -2.616917E+04
       146  22  8.758410E+03 -5.946753E+05  7.367451E+03 -1.110190E+05 -4.460362E+03 -2.003178E+04
       146  23  1.416643E+03 -5.923403E+05 -7.345394E+03  7.560900E+03  3.959500E+02 -2.384525E+04
       146  24 -1.408798E+04 -5.946843E+05 -2.703019E+04 -1.111028E+05  5.203400E+03 -2.765913E+04
       146  25 -3.656614E+04 -7.765634E+05 -3.721830E+04 -1.105522E+05 -4.454713E+03 -2.154728E+04
       146  26  5.178876E+03 -5.772137E+05 -3.625679E+03  8.556349E+03  4.014238E+02 -2.534764E+04
       146  27  3.876235E+04 -3.825006E+05  2.500556E+04 -1.095781E+05  5.208781E+03 -2.914960E+04
       147   1 -1.729201E+05 -1.320466E+06 -2.119592E+05 -9.809014E+04 -1.280149E+04  2.734530E+04
       147   2 -2.063146E+05 -1.495159E+06 -2.827725E+05  2.399178E+03 -2.079026E+04  6.569857E+04
       147   3 -3.848184E+05 -1.710145E+06 -4.147053E+05 -1.315068E+05 -7.865486E+03  1.040914E+05
       147   4  6.355134E+03 -6.024810E+05 -3.482391E+04 -1.103393E+05 -1.282102E+04  3.308100E+04
       147   5  2.114574E+04 -5.829219E+05 -5.862996E+04  6.746859E+03 -2.078582E+04  6.496386E+04
       147   6 -1.079270E+05 -6.024943E+05 -1.389860E+05 -1.105467E+05 -7.848500E+03  9.689874E+04
       147   7  1.855924E+05  1.159744E+05  1.422733E+05 -1.226022E+05 -1.284076E+04  3.882331E+04
       147   8  2.485443E+05  3.300747E+05  1.654513E+05  1.110142E+04 -2.078140E+04  6.422802E+04
       147   9  1.688739E+05  5.062735E+05  1.366417E+05 -8.954859E+04 -7.832018E+03  8.969309E+04
       147  10 -1.729204E+05 -1.320467E+06 -2.119609E+05 -9.808985E+04 -6.660557E-10  1.664100E-09
       147  11 -2.063162E+05 -1.495164E+06 -2.827814E+05  2.400279E+03  5.167133E-10  4.090272E-09
       147  12 -3.848214E+05 -1.710157E+06 -4.147259E+05 -1.315062E+05 -1.212762E-09  2.470207E-09
       147  13  6.354663E+03 -6.024822E+05 -3.482628E+04 -1.103389E+05 -1.349910E-10 -3.619799E-09
       147  14  2.114414E+04 -5.829266E+05 -5.863871E+04  6.747947E+03 -1.908761E-09 -1.560235E-09
       147  15 -1.079296E+05 -6.025044E+05 -1.390038E+05 -1.105461E+05 -8.635031E-10 -6.208094E-10
       147  16  1.855918E+05  1.159727E+05  1.422702E+05 -1.226018E+05 -1.533254E-10  1.500519E-10
       147  17  2.485427E+05  3.300701E+05  1.654427E+05  1.110250E+04 -2.844941E-09 -3.477053E-09
       147  18  1.688717E+05  5.062648E+05  1.366265E+05 -8.954803E+04 -1.614999E-09 -1.564920E-09
       147  19 -1.729201E+05 -1.320466E+06 -2.119592E+05 -9.809014E+04  1.280149E+04 -2.734530E+04
       147  20 -2.063146E+05 -1.495159E+06 -2.827725E+05  2.399178E+03  2.079026E+04 -6.569857E+04
       147  21 -3.848184E+05 -1.710145E+06 -4.147053E+05 -1.315068E+05  7.865486E+03 -1.040914E+05
       147  22  6.355134E+03 -6.024810E+05 -3.482391E+04 -1.103393E+05  1.282102E+04 -3.308100E+04
       147  23  2.114574E+04 -5.829219E+05 -5.862996E+04  6.746859E+03  2.078582E+04 -6.496386E+04
       147  24 -1.079270E+05 -6.024943E+05 -1.389860E+05 -1.105467E+05  7.848500E+03 -9.689874E+04
       147  25  1.855924E+05  1.159744E+05  1.422733E+05 -1.226022E+05  1.284076E+04 -3.882331E+04
       147  26  2.485443E+05  3.300747E+05  1.654513E+05  1.110142E+04  2.078140E+04 -6.422802E+04
       147  27  1.688739E+05  5.062735E+05  1.366417E+05 -8.954859E+04  7.832018E+03 -8.969309E+04
       148   1 -1.773762E+06 -4.410216E+05 -2.306937E+05 -6.276889E+05 -1.123689E+05 -4.054850E+04
       148   2 -1.737993E+06 -2.729881E+05 -1.245182E+05 -6.505612E+05 -7.297944E+04 -2.235781E+04
       148   3 -1.762286E+06 -2.838121E+05 -9.506787E+04 -6.396409E+05 -3.223177E+04 -7.772565E+03
       148   4 -1.586344E+06 -3.459796E+05 -1.744206E+05 -5.519099E+05 -1.110088E+05 -4.004204E+04
       148   5 -1.547592E+06 -1.946842E+05 -7.161508E+04 -5.921100E+05 -7.265947E+04 -2.223848E+04
       148   6 -1.568675E+06 -2.220093E+05 -4.469044E+04 -5.985234E+05 -3.295200E+04 -8.042696E+03
       148   7 -1.398890E+06 -2.509262E+05 -1.181509E+05 -4.761073E+05 -1.096483E+05 -3.953527E+04
       148   8 -1.357156E+06 -1.163762E+05 -1.871529E+04 -5.336418E+05 -7.233939E+04 -2.211910E+04
       148   9 -1.375028E+06 -1.602067E+05  5.683980E+03 -5.573954E+05 -3.367247E+04 -8.312888E+03
       148  10 -1.773776E+06 -4.410268E+05 -2.307206E+05 -6.276926E+05  2.697351E-10 -3.056730E-10
       148  11 -1.737999E+06 -2.729901E+05 -1.245292E+05 -6.505625E+05 -1.520133E-09  2.455228E-10
       148  12 -1.762287E+06 -2.838124E+05 -9.506994E+04 -6.396411E+05 -9.157102E-10 -4.881894E-10
       148  13 -1.586358E+06 -3.459847E+05 -1.744469E+05 -5.519135E+05 -2.378685E-09  4.917296E-11
       148  14 -1.547598E+06 -1.946861E+05 -7.162596E+04 -5.921113E+05 -1.960963E-09 -6.340057E-11
       148  15 -1.568676E+06 -2.220097E+05 -4.469261E+04 -5.985236E+05 -1.034436E-09 -1.481855E-09
       148  16 -1.398904E+06 -2.509312E+05 -1.181765E+05 -4.761108E+05 -1.518120E-09 -8.434347E-11
       148  17 -1.357161E+06 -1.163781E+05 -1.872607E+04 -5.336431E+05 -1.144672E-09 -1.351770E-09
       148  18 -1.375029E+06 -1.602071E+05  5.681714E+03 -5.573956E+05  2.159928E-09 -2.751582E-10
       148  19 -1.773762E+06 -4.410216E+05 -2.306937E+05 -6.276889E+05  1.123689E+05  4.054850E+04
       148  20 -1.737993E+06 -2.729881E+05 -1.245182E+05 -6.505612E+05  7.297944E+04  2.235781E+04
       148  21 -1.762286E+06 -2.838121E+05 -9.506787E+04 -6.396409E+05  3.223177E+04  7.772565E+03
       148  22 -1.586344E+06 -3.459796E+05 -1.744206E+05 -5.519099E+05  1.110088E+05  4.004204E+04
       148  23 -1.547592E+06 -1.946842E+05 -7.161508E+04 -5.921100E+05  7.265947E+04  2.223848E+04
       148  24 -1.568675E+06 -2.220093E+05 -4.469044E+04 -5.985234E+05  3.295200E+04  8.042696E+03
       148  25 -1.398890E+06 -2.509262E+05 -1.181509E+05 -4.761073E+05  1.096483E+05  3.953527E+04
       148  26 -1.357156E+06 -1.163762E+05 -1.871529E+04 -5.336418E+05  7.233939E+04  2.211910E+04
       148  27 -1.375028E+06 -1.602067E+05  5.683980E+03 -5.573954E+05  3.367247E+04  8.312888E+03
       149   1 -1.713576E+06 -3.025754E+05 -7.841478E+04 -6.323494E+05 -2.607537E+04 -6.352592E+03
       149   2 -1.702571E+06 -2.703712E+05 -5.518412E+04 -6.264844E+05 -1.699549E+04 -2.991277E+03
       149   3 -1.689800E+06 -2.729387E+05 -4.503076E+04 -6.280090E+05 -7.730016E+03 -1.237571E+02
       149   4 -1.562410E+06 -2.423821E+05 -3.670086E+04 -5.879921E+05 -2.602078E+04 -6.332295E+03
       149   5 -1.562110E+06 -2.165854E+05 -1.688916E+04 -5.874595E+05 -1.708271E+04 -3.024117E+03
       149   6 -1.560013E+06 -2.255288E+05 -1.003962E+04 -5.943170E+05 -7.959224E+03 -2.098250E+02
       149   7 -1.411223E+06 -1.821869E+05  5.010873E+03 -5.436249E+05 -2.596618E+04 -6.311993E+03
       149   8 -1.421630E+06 -1.627982E+05  2.140403E+04 -5.484265E+05 -1.716995E+04 -3.056966E+03
       149   9 -1.430209E+06 -1.781180E+05  2.495008E+04 -5.606186E+05 -8.188485E+03 -2.959115E+02
       149  10 -1.713576E+06 -3.025756E+05 -7.841613E+04 -6.323495E+05 -1.092122E-09  6.934512E-11
       149  11 -1.702571E+06 -2.703713E+05 -5.518469E+04 -6.264845E+05 -2.246284E-09  6.939616E-10
       149  12 -1.689800E+06 -2.729388E+05 -4.503087E+04 -6.280091E+05  4.366410E-10  5.613834E-10
       149  13 -1.562411E+06 -2.423823E+05 -3.670221E+04 -5.879922E+05 -2.815729E-09  2.148224E-10
       149  14 -1.562110E+06 -2.165855E+05 -1.688972E+04 -5.874595E+05  2.741761E-09 -6.869946E-10
       149  15 -1.560013E+06 -2.255288E+05 -1.003974E+04 -5.943170E+05 -1.135458E-09  1.194783E-09
       149  16 -1.411224E+06 -1.821872E+05  5.009528E+03 -5.436250E+05 -4.961024E-10 -5.298726E-12
       149  17 -1.421630E+06 -1.627983E+05  2.140345E+04 -5.484266E+05 -1.779986E-09  8.139295E-10
       149  18 -1.430209E+06 -1.781180E+05  2.494996E+04 -5.606186E+05  1.249595E-09  1.578276E-09
       149  19 -1.713576E+06 -3.025754E+05 -7.841478E+04 -6.323494E+05  2.607537E+04  6.352592E+03
       149  20 -1.702571E+06 -2.703712E+05 -5.518412E+04 -6.264844E+05  1.699549E+04  2.991277E+03
       149  21 -1.689800E+06 -2.729387E+05 -4.503076E+04 -6.280090E+05  7.730016E+03  1.237571E+02
       149  22 -1.562410E+06 -2.423821E+05 -3.670086E+04 -5.879921E+05  2.602078E+04  6.332295E+03
       149  23 -1.562110E+06 -2.165854E+05 -1.688916E+04 -5.874595E+05  1.708271E+04  3.024117E+03
       149  24 -1.560013E+06 -2.255288E+05 -1.003962E+04 -5.943170E+05  7.959224E+03  2.098250E+02
       149  25 -1.411223E+06 -1.821869E+05  5.010873E+03 -5.436249E+05  2.596618E+04  6.311993E+03
       149  26 -1.421630E+06 -1.627982E+05  2.140403E+04 -5.484265E+05  1.716995E+04  3.056966E+03
       149  27 -1.430209E+06 -1.781180E+05  2.495008E+04 -5.606186E+05  8.188485E+03  2.959115E+02
       150   1 -1.648926E+06 -2.629211E+05 -3.249622E+04 -6.181019E+05 -6.213142E+03  2.250722E+01
       150   2 -1.640753E+06 -2.480808E+05 -2.475206E+04 -6.072777E+05 -3.932999E+03  3.344327E+02
       150   3 -1.620853E+06 -2.495861E+05 -1.943291E+04 -6.107631E+05 -1.620284E+03  5.592276E+02
       150   4 -1.558807E+06 -2.285419E+05 -7.985636E+03 -5.931872E+05 -6.339969E+03 -2.512422E+01
       150   5 -1.564512E+06 -2.192384E+05 -4.031685E+03 -5.864572E+05 -4.084916E+03  2.774102E+02
       150   6 -1.558485E+06 -2.262751E+05 -2.482477E+03 -5.940367E+05 -1.797347E+03  4.927977E+02
       150   7 -1.468681E+06 -1.941622E+05  1.652421E+04 -5.682693E+05 -6.466817E+03 -7.276345E+01
       150   8 -1.488266E+06 -1.903958E+05  1.668815E+04 -5.656344E+05 -4.236854E+03  2.203799E+02
       150   9 -1.496114E+06 -2.029640E+05  1.446758E+04 -5.773087E+05 -1.974430E+03  4.263608E+02
       150  10 -1.648926E+06 -2.629211E+05 -3.249629E+04 -6.181019E+05  4.358208E-10  9.833816E-10
       150  11 -1.640753E+06 -2.480808E+05 -2.475209E+04 -6.072777E+05 -4.665951E-10  4.667101E-10
       150  12 -1.620853E+06 -2.495861E+05 -1.943292E+04 -6.107631E+05 -1.566450E-09  1.241155E-09
       150  13 -1.558807E+06 -2.285419E+05 -7.985711E+03 -5.931872E+05 -1.376908E-09  7.595597E-10
       150  14 -1.564512E+06 -2.192384E+05 -4.031716E+03 -5.864572E+05 -2.649447E-09 -7.487672E-11
       150  15 -1.558485E+06 -2.262751E+05 -2.482484E+03 -5.940367E+05 -1.314212E-09  1.279003E-09
       150  16 -1.468681E+06 -1.941622E+05  1.652413E+04 -5.682693E+05 -7.825479E-10  1.142707E-09
       150  17 -1.488266E+06 -1.903958E+05  1.668812E+04 -5.656344E+05  1.221562E-09 -6.987932E-10
       150  18 -1.496114E+06 -2.029640E+05  1.446757E+04 -5.773087E+05  1.475292E-09  1.879695E-09
       150  19 -1.648926E+06 -2.629211E+05 -3.249622E+04 -6.181019E+05  6.213142E+03 -2.250722E+01
       150  20 -1.640753E+06 -2.480808E+05 -2.475206E+04 -6.072777E+05  3.932999E+03 -3.344327E+02
       150  21 -1.620853E+06 -2.495861E+05 -1.943291E+04 -6.107631E+05  1.620284E+03 -5.592276E+02
       150  22 -1.558807E+06 -2.285419E+05 -7.985636E+03 -5.931872E+05  6.339969E+03  2.512422E+01
       150  23 -1.564512E+06 -2.192384E+05 -4.031685E+03 -5.864572E+05  4.084916E+03 -2.774102E+02
       150  24 -1.558485E+06 -2.262751E+05 -2.482477E+03 -5.940367E+05  1.797347E+03 -4.927977E+02
       150  25 -1.468681E+06 -1.941622E+05  1.652421E+04 -5.682693E+05  6.466817E+03  7.276345E+01
       150  26 -1.488266E+06 -1.903958E+05  1.668815E+04 -5.656344E+05  4.236854E+03 -2.203799E+02
       150  27 -1.496114E+06 -2.029640E+05  1.446758E+04 -5.773087E+05  1.974430E+03 -4.263608E+02
       151   1 -1.578716E+06 -2.345188E+05 -7.574912E+03 -5.996214E+05 -1.132340E+03  3.522195E+02
       151   2 -1.570717E+06 -2.216567E+05 -3.035868E+03 -5.877820E+05 -1.771135E+02  7.092317E+01
       151   3 -1.549270E+06 -2.231529E+05  7.888990E+02 -5.915862E+05  7.812745E+02 -2.187425E+02
       151   4 -1.558231E+06 -2.267468E+05 -2.056435E+03 -5.939905E+05 -1.294584E+03  2.913593E+02
       151   5 -1.564942E+06 -2.194718E+05 -1.466404E+03 -5.862047E+05 -3.417832E+02  9.154611E+00
       151   6 -1.558204E+06 -2.265546E+05 -1.588780E+03 -5.940625E+05  6.141568E+02 -2.814260E+02
       151   7 -1.537746E+06 -2.189749E+05  3.462022E+03 -5.883594E+05 -1.456835E+03  2.304967E+02
       151   8 -1.559167E+06 -2.172869E+05  1.030555E+02 -5.846273E+05 -5.064544E+02 -5.261452E+01
       151   9 -1.567138E+06 -2.299563E+05 -3.966453E+03 -5.965388E+05  4.470427E+02 -3.441081E+02
       151  10 -1.578716E+06 -2.345188E+05 -7.574915E+03 -5.996214E+05  1.088324E-09  1.101154E-09
       151  11 -1.570717E+06 -2.216567E+05 -3.035868E+03 -5.877820E+05  2.715175E-09 -4.257547E-10
       151  12 -1.549270E+06 -2.231529E+05  7.888978E+02 -5.915862E+05 -6.374409E-10 -4.278867E-10
       151  13 -1.558231E+06 -2.267468E+05 -2.056438E+03 -5.939905E+05 -9.580524E-10  1.267343E-09
       151  14 -1.564942E+06 -2.194718E+05 -1.466404E+03 -5.862047E+05  8.393110E-09 -1.538600E-10
       151  15 -1.558204E+06 -2.265546E+05 -1.588780E+03 -5.940625E+05 -1.991934E-09 -1.117018E-10
       151  16 -1.537746E+06 -2.189749E+05  3.462018E+03 -5.883594E+05 -1.210069E-10  1.683952E-09
       151  17 -1.559167E+06 -2.172869E+05  1.030550E+02 -5.846273E+05 -2.673959E-09 -5.183515E-10
       151  18 -1.567138E+06 -2.299563E+05 -3.966454E+03 -5.965388E+05 -7.188643E-11  1.358884E-10
       151  19 -1.578716E+06 -2.345188E+05 -7.574912E+03 -5.996214E+05  1.132340E+03 -3.522195E+02
       151  20 -1.570717E+06 -2.216567E+05 -3.035868E+03 -5.877820E+05  1.771135E+02 -7.092317E+01
       151  21 -1.549270E+06 -2.231529E+05  7.888990E+02 -5.915862E+05 -7.812745E+02  2.187425E+02
       151  22 -1.558231E+06 -2.267468E+05 -2.056435E+03 -5.939905E+05  1.294584E+03 -2.913593E+02
       151  23 -1.564942E+06 -2.194718E+05 -1.466404E+03 -5.862047E+05  3.417832E+02 -9.154611E+00
       151  24 -1.558204E+06 -2.265546E+05 -1.588780E+03 -5.940625E+05 -6.141568E+02  2.814260E+02
       151  25 -1.537746E+06 -2.189749E+05  3.462022E+03 -5.883594E+05  1.456835E+03 -2.304967E+02
       151  26 -1.559167E+06 -2.172869E+05  1.030555E+02 -5.846273E+05  5.064544E+02  5.261452E+01
       151  27 -1.567138E+06 -2.299563E+05 -3.966453E+03 -5.965388E+05 -4.470427E+02  3.441081E+02
       152   1 -1.507318E+06 -2.072186E+05  1.208912E+04 -5.802341E+05  1.191743E+03 -4.508989E+02
       152   2 -1.499528E+06 -1.948693E+05  1.499353E+04 -5.685991E+05  2.773780E+03 -5.016835E+02
       152   3 -1.479026E+06 -1.971170E+05  1.654189E+04 -5.719611E+05  4.342030E+03 -5.152502E+02
       152   4 -1.558336E+06 -2.263759E+05 -1.803922E+03 -5.940063E+05  1.021631E+03 -5.147138E+02
       152   5 -1.564749E+06 -2.194865E+05 -2.720543E+03 -5.863541E+05  2.614363E+03 -5.615091E+02
       152   6 -1.558453E+06 -2.271964E+05 -5.001776E+03 -5.936990E+05  4.193275E+03 -5.710966E+02
       152   7 -1.609352E+06 -2.455331E+05 -1.569723E+04 -6.077776E+05  8.515329E+02 -5.785232E+02
       152   8 -1.629967E+06 -2.441036E+05 -2.043507E+04 -6.041075E+05  2.454963E+03 -6.213279E+02
       152   9 -1.637875E+06 -2.572757E+05 -2.654613E+04 -6.154345E+05  4.044540E+03 -6.269354E+02
       152  10 -1.507318E+06 -2.072186E+05  1.208912E+04 -5.802341E+05  1.189106E-09  2.081937E-10
       152  11 -1.499528E+06 -1.948693E+05  1.499351E+04 -5.685991E+05 -8.231705E-10  7.587464E-10
       152  12 -1.479026E+06 -1.971170E+05  1.654185E+04 -5.719611E+05 -1.133509E-10  9.256166E-11
       152  13 -1.558336E+06 -2.263759E+05 -1.803925E+03 -5.940063E+05 -1.145188E-10  6.027535E-10
       152  14 -1.564749E+06 -2.194865E+05 -2.720556E+03 -5.863541E+05 -2.067653E-09  7.739041E-10
       152  15 -1.558453E+06 -2.271964E+05 -5.001809E+03 -5.936990E+05  1.189165E-09  2.414850E-10
       152  16 -1.609352E+06 -2.455331E+05 -1.569723E+04 -6.077776E+05  8.725627E-10  3.386904E-10
       152  17 -1.629967E+06 -2.441036E+05 -2.043508E+04 -6.041075E+05 -1.243428E-09  8.657922E-10
       152  18 -1.637875E+06 -2.572757E+05 -2.654616E+04 -6.154345E+05  3.040300E-11  4.851813E-10
       152  19 -1.507318E+06 -2.072186E+05  1.208912E+04 -5.802341E+05 -1.191743E+03  4.508989E+02
       152  20 -1.499528E+06 -1.948693E+05  1.499353E+04 -5.685991E+05 -2.773780E+03  5.016835E+02
       152  21 -1.479026E+06 -1.971170E+05  1.654189E+04 -5.719611E+05 -4.342030E+03  5.152502E+02
       152  22 -1.558336E+06 -2.263759E+05 -1.803922E+03 -5.940063E+05 -1.021631E+03  5.147138E+02
       152  23 -1.564749E+06 -2.194865E+05 -2.720543E+03 -5.863541E+05 -2.614363E+03  5.615091E+02
       152  24 -1.558453E+06 -2.271964E+05 -5.001776E+03 -5.936990E+05 -4.193275E+03  5.710966E+02
       152  25 -1.609352E+06 -2.455331E+05 -1.569723E+04 -6.077776E+05 -8.515329E+02  5.785232E+02
       152  26 -1.629967E+06 -2.441036E+05 -2.043507E+04 -6.041075E+05 -2.454963E+03  6.213279E+02
       152  27 -1.637875E+06 -2.572757E+05 -2.654613E+04 -6.154345E+05 -4.044540E+03  6.269354E+02
       153   1 -1.440244E+06 -1.816427E+05  2.582664E+04 -5.622163E+05  5.423591E+03 -4.751446E+02
       153   2 -1.432542E+06 -1.690331E+05  2.459222E+04 -5.510919E+05  1.127083E+04  1.124461E+03
       153   3 -1.416944E+06 -1.771942E+05  1.674652E+04 -5.514424E+05  1.707378E+04  2.842718E+03
       153   4 -1.559148E+06 -2.258901E+05 -6.395172E+03 -5.939233E+05  5.253507E+03 -5.390166E+02
       153   5 -1.563549E+06 -2.187019E+05 -1.103051E+04 -5.869853E+05  1.113415E+04  1.073082E+03
       153   6 -1.560061E+06 -2.322922E+05 -2.230473E+04 -5.915221E+05  1.697040E+04  2.803783E+03
       153   7 -1.678038E+06 -2.701366E+05 -3.861809E+04 -6.256246E+05  5.083459E+03 -6.028753E+02
       153   8 -1.694539E+06 -2.683695E+05 -4.665468E+04 -6.228717E+05  1.099750E+04  1.021715E+03
       153   9 -1.703158E+06 -2.873888E+05 -6.135781E+04 -6.315934E+05  1.686704E+04  2.764858E+03
       153  10 -1.440244E+06 -1.816427E+05  2.582658E+04 -5.622163E+05 -3.138864E-09  3.019611E-10
       153  11 -1.432542E+06 -1.690332E+05  2.459198E+04 -5.510919E+05 -2.185958E-11  6.081431E-10
       153  12 -1.416944E+06 -1.771943E+05  1.674595E+04 -5.514424E+05 -2.044408E-10  2.497570E-10
       153  13 -1.559148E+06 -2.258901E+05 -6.395225E+03 -5.939233E+05 -3.350157E-09  1.475705E-10
       153  14 -1.563549E+06 -2.187019E+05 -1.103074E+04 -5.869853E+05 -1.403867E-09  1.001130E-09
       153  15 -1.560061E+06 -2.322923E+05 -2.230529E+04 -5.915222E+05  4.419261E-10  4.342130E-10
       153  16 -1.678038E+06 -2.701366E+05 -3.861813E+04 -6.256246E+05 -4.445702E-11  4.990250E-10
       153  17 -1.694539E+06 -2.683695E+05 -4.665491E+04 -6.228717E+05  2.922476E-09  4.679186E-10
       153  18 -1.703158E+06 -2.873889E+05 -6.135836E+04 -6.315935E+05  2.424123E-09  1.348370E-09
       153  19 -1.440244E+06 -1.816427E+05  2.582664E+04 -5.622163E+05 -5.423591E+03  4.751446E+02
       153  20 -1.432542E+06 -1.690331E+05  2.459222E+04 -5.510919E+05 -1.127083E+04 -1.124461E+03
       153  21 -1.416944E+06 -1.771942E+05  1.674652E+04 -5.514424E+05 -1.707378E+04 -2.842718E+03
       153  22 -1.559148E+06 -2.258901E+05 -6.395172E+03 -5.939233E+05 -5.253507E+03  5.390166E+02
       153  23 -1.563549E+06 -2.187019E+05 -1.103051E+04 -5.869853E+05 -1.113415E+04 -1.073082E+03
       153  24 -1.560061E+06 -2.322922E+05 -2.230473E+04 -5.915221E+05 -1.697040E+04 -2.803783E+03
       153  25 -1.678038E+06 -2.701366E+05 -3.861809E+04 -6.256246E+05 -5.083459E+03  6.028753E+02
       153  26 -1.694539E+06 -2.683695E+05 -4.665468E+04 -6.228717E+05 -1.099750E+04 -1.021715E+03
       153  27 -1.703158E+06 -2.873888E+05 -6.135781E+04 -6.315934E+05 -1.686704E+04 -2.764858E+03
       154   1 -1.382693E+06 -1.606432E+05  2.000463E+04 -5.507016E+05  2.146149E+04  4.106643E+03
       154   2 -1.371622E+06 -1.383192E+05  3.392558E+03 -5.362883E+05  4.655306E+04  1.301303E+04
       154   3 -1.378605E+06 -1.907013E+05 -4.956737E+04 -5.163269E+05  7.142864E+04  2.249594E+04
       154   4 -1.563001E+06 -2.242935E+05 -2.813793E+04 -5.952551E+05  2.123913E+04  4.023177E+03
       154   5 -1.557335E+06 -2.106245E+05 -4.746837E+04 -5.891208E+05  4.649131E+04  1.298952E+04
       154   6 -1.569764E+06 -2.717066E+05 -1.032829E+05 -5.774371E+05  7.152722E+04  2.253169E+04
       154   7 -1.743277E+06 -2.879429E+05 -7.628338E+04 -6.397975E+05  2.101684E+04  3.939732E+03
       154   8 -1.743016E+06 -2.829273E+05 -9.833249E+04 -6.419389E+05  4.642958E+04  1.296601E+04
       154   9 -1.760888E+06 -3.527072E+05 -1.570019E+05 -6.385294E+05  7.162576E+04  2.256743E+04
       154  10 -1.382693E+06 -1.606434E+05  2.000373E+04 -5.507017E+05 -3.915722E-10 -4.250231E-10
       154  11 -1.371624E+06 -1.383200E+05  3.388156E+03 -5.362888E+05 -4.838609E-09  1.546188E-09
       154  12 -1.378611E+06 -1.907032E+05 -4.957794E+04 -5.163282E+05 -1.719548E-09  2.302125E-09
       154  13 -1.563001E+06 -2.242936E+05 -2.813881E+04 -5.952552E+05  4.430036E-09 -4.197100E-10
       154  14 -1.557338E+06 -2.106253E+05 -4.747276E+04 -5.891213E+05 -2.871924E-09  2.058033E-09
       154  15 -1.569770E+06 -2.717086E+05 -1.032935E+05 -5.774384E+05 -5.265647E-09  2.700516E-09
       154  16 -1.743278E+06 -2.879431E+05 -7.628424E+04 -6.397976E+05  2.069952E-09  1.296289E-09
       154  17 -1.743018E+06 -2.829280E+05 -9.833687E+04 -6.419394E+05  2.833080E-09  2.805091E-10
       154  18 -1.760893E+06 -3.527091E+05 -1.570125E+05 -6.385307E+05 -7.570521E-10  3.543658E-10
       154  19 -1.382693E+06 -1.606432E+05  2.000463E+04 -5.507016E+05 -2.146149E+04 -4.106643E+03
       154  20 -1.371622E+06 -1.383192E+05  3.392558E+03 -5.362883E+05 -4.655306E+04 -1.301303E+04
       154  21 -1.378605E+06 -1.907013E+05 -4.956737E+04 -5.163269E+05 -7.142864E+04 -2.249594E+04
       154  22 -1.563001E+06 -2.242935E+05 -2.813793E+04 -5.952551E+05 -2.123913E+04 -4.023177E+03
       154  23 -1.557335E+06 -2.106245E+05 -4.746837E+04 -5.891208E+05 -4.649131E+04 -1.298952E+04
       154  24 -1.569764E+06 -2.717066E+05 -1.032829E+05 -5.774371E+05 -7.152722E+04 -2.253169E+04
       154  25 -1.743277E+06 -2.879429E+05 -7.628338E+04 -6.397975E+05 -2.101684E+04 -3.939732E+03
       154  26 -1.743016E+06 -2.829273E+05 -9.833249E+04 -6.419389E+05 -4.642958E+04 -1.296601E+04
       154  27 -1.760888E+06 -3.527072E+05 -1.570019E+05 -6.385294E+05 -7.162576E+04 -2.256743E+04
       155   1 -1.340953E+06 -1.543852E+05 -6.537017E+04 -5.738798E+05  9.127695E+04  2.906240E+04
       155   2 -1.301359E+06 -4.815050E+04 -1.393544E+05 -5.235122E+05  2.014076E+05  6.992644E+04
       155   3 -1.449384E+06 -4.252985E+05 -4.260154E+05 -3.561355E+05  3.099898E+05  1.149134E+05
       155   4 -1.586518E+06 -2.152744E+05 -1.257894E+05 -6.081372E+05  9.049609E+04  2.877410E+04
       155   5 -1.517490E+06 -1.478488E+05 -2.015270E+05 -6.009489E+05  2.017877E+05  7.006224E+04
       155   6 -1.636387E+06 -5.641498E+05 -4.909226E+05 -4.767293E+05  3.115361E+05  1.154538E+05
       155   7 -1.832022E+06 -2.761654E+05 -1.862123E+05 -6.423862E+05  8.971557E+04  2.848581E+04
       155   8 -1.733574E+06 -2.475370E+05 -2.637040E+05 -6.783588E+05  2.021676E+05  7.019795E+04
       155   9 -1.823342E+06 -7.029565E+05 -5.558317E+05 -5.972799E+05  3.130818E+05  1.159936E+05
       155  10 -1.340962E+06 -1.543884E+05 -6.538746E+04 -5.738819E+05 -2.161590E-09  1.789853E-09
       155  11 -1.301404E+06 -4.816669E+04 -1.394400E+05 -5.235235E+05  2.115093E-09 -1.179889E-09
       155  12 -1.449491E+06 -4.253386E+05 -4.262213E+05 -3.561642E+05  1.505848E-09  5.176680E-10
       155  13 -1.586527E+06 -2.152775E+05 -1.258064E+05 -6.081393E+05  1.345409E-09 -1.931390E-09
       155  14 -1.517535E+06 -1.478650E+05 -2.016130E+05 -6.009603E+05 -9.125329E-10  2.508658E-10
       155  15 -1.636495E+06 -5.641903E+05 -4.911306E+05 -4.767584E+05  6.391179E-10  5.806469E-10
       155  16 -1.832031E+06 -2.761685E+05 -1.862290E+05 -6.423882E+05 -9.124068E-10  2.365320E-10
       155  17 -1.733619E+06 -2.475533E+05 -2.637904E+05 -6.783703E+05 -3.130629E-09  1.064746E-09
       155  18 -1.823452E+06 -7.029975E+05 -5.560418E+05 -5.973092E+05  7.253486E-10 -4.202149E-10
       155  19 -1.340953E+06 -1.543852E+05 -6.537017E+04 -5.738798E+05 -9.127695E+04 -2.906240E+04
       155  20 -1.301359E+06 -4.815050E+04 -1.393544E+05 -5.235122E+05 -2.014076E+05 -6.992644E+04
       155  21 -1.449384E+06 -4.252985E+05 -4.260154E+05 -3.561355E+05 -3.099898E+05 -1.149134E+05
       155  22 -1.586518E+06 -2.152744E+05 -1.257894E+05 -6.081372E+05 -9.049609E+04 -2.877410E+04
       155  23 -1.517490E+06 -1.478488E+05 -2.015270E+05 -6.009489E+05 -2.017877E+05 -7.006224E+04
       155  24 -1.636387E+06 -5.641498E+05 -4.909226E+05 -4.767293E+05 -3.115361E+05 -1.154538E+05
       155  25 -1.832022E+06 -2.761654E+05 -1.862123E+05 -6.423862E+05 -8.971557E+04 -2.848581E+04
       155  26 -1.733574E+06 -2.475370E+05 -2.637040E+05 -6.783588E+05 -2.021676E+05 -7.019795E+04
       155  27 -1.823342E+06 -7.029565E+05 -5.558317E+05 -5.972799E+05 -3.130818E+05 -1.159936E+05
       156   1  2.925237E+05  2.293246E+06  2.811629E+05 -2.159360E+05  1.248411E+04  1.059074E+05
       156   2  2.219421E+05  2.129836E+06  1.867532E+05 -1.913777E+05  4.115133E+04  4.710406E+04
       156   3  1.756406E+05  1.980102E+06  1.366172E+05 -1.937981E+05  4.664974E+04 -1.171252E+04
       156   4  3.320821E+04  1.240451E+06  3.568561E+04 -1.925362E+05  1.263268E+04  2.182902E+04
       156   5  1.054350E+04  1.237871E+06  2.024154E+04 -1.790744E+05  4.122202E+04  1.156206E+04
       156   6  3.772579E+03  1.240559E+06  1.545911E+04 -1.925896E+05  4.662934E+04  1.265704E+03
       156   7 -2.261798E+05  1.886915E+05 -2.098399E+05 -1.691757E+05  1.277508E+04 -6.210818E+04
       156   8 -2.008997E+05  3.466768E+05 -1.462995E+05 -1.667887E+05  4.129137E+04 -2.393031E+04
       156   9 -1.681233E+05  5.015553E+05 -1.057142E+05 -1.913823E+05  4.660897E+04  1.422904E+04
       156  10  2.925206E+05  2.293234E+06  2.811416E+05 -2.159371E+05  1.247854E-09  2.678350E-08
       156  11  2.219397E+05  2.129833E+06  1.867459E+05 -1.913793E+05  2.610175E-09 -6.937123E-09
       156  12  1.756382E+05  1.980101E+06  1.366129E+05 -1.937977E+05  7.939663E-09 -4.444564E-08
       156  13  3.320791E+04  1.240451E+06  3.568442E+04 -1.925364E+05 -1.462447E-09  2.780860E-11
       156  14  1.054164E+04  1.237871E+06  2.023809E+04 -1.790748E+05 -6.743276E-09 -1.648465E-09
       156  15  3.770242E+03  1.240558E+06  1.545502E+04 -1.925897E+05 -1.428303E-08  4.627455E-09
       156  16 -2.261810E+05  1.886873E+05 -2.098474E+05 -1.691750E+05  2.813821E-10 -2.594076E-08
       156  17 -2.009016E+05  3.466758E+05 -1.463037E+05 -1.667879E+05  3.477625E-09  7.136770E-09
       156  18 -1.681257E+05  5.015545E+05 -1.057186E+05 -1.913828E+05  3.619342E-09  4.277951E-08
       156  19  2.925237E+05  2.293246E+06  2.811629E+05 -2.159360E+05 -1.248411E+04 -1.059074E+05
       156  20  2.219421E+05  2.129836E+06  1.867532E+05 -1.913777E+05 -4.115133E+04 -4.710406E+04
       156  21  1.756406E+05  1.980102E+06  1.366172E+05 -1.937981E+05 -4.664974E+04  1.171252E+04
       156  22  3.320821E+04  1.240451E+06  3.568561E+04 -1.925362E+05 -1.263268E+04 -2.182902E+04
       156  23  1.054350E+04  1.237871E+06  2.024154E+04 -1.790744E+05 -4.122202E+04 -1.156206E+04
       156  24  3.772579E+03  1.240559E+06  1.545911E+04 -1.925896E+05 -4.662934E+04 -1.265704E+03
       156  25 -2.261798E+05  1.886915E+05 -2.098399E+05 -1.691757E+05 -1.277508E+04  6.210818E+04
       156  26 -2.008997E+05  3.466768E+05 -1.462995E+05 -1.667887E+05 -4.129137E+04  2.393031E+04
       156  27 -1.681233E+05  5.015553E+05 -1.057142E+05 -1.913823E+05 -4.660897E+04 -1.422904E+04
       157   1  1.516040E+05  1.879959E+06  1.177022E+05 -1.957694E+05  4.217731E+04 -1.407423E+04
       157   2  1.146615E+05  1.722047E+06  9.210807E+04 -1.779658E+05  3.485413E+04 -2.847718E+04
       157   3  8.453669E+04  1.567626E+06  7.754851E+04 -1.887267E+05  2.514816E+04 -4.288359E+04
       157   4  3.348301E+03  1.239991E+06  1.529335E+04 -1.929403E+05  4.215520E+04 -1.180012E+03
       157   5  3.499769E+03  1.238711E+06  1.878107E+04 -1.786519E+05  3.481949E+04 -1.059144E+04
       157   6  9.607383E+03  1.240035E+06  2.984642E+04 -1.929286E+05  2.510017E+04 -2.000966E+04
       157   7 -1.449277E+05  6.004296E+05 -8.712566E+04 -1.901139E+05  4.213320E+04  1.170143E+04
       157   8 -1.076730E+05  7.556097E+05 -5.454961E+04 -1.793374E+05  3.478480E+04  7.280961E+03
       157   9 -6.532650E+04  9.125533E+05 -1.785550E+04 -1.971282E+05  2.505186E+04  2.852727E+03
       157  10  1.516020E+05  1.879958E+06  1.176985E+05 -1.957690E+05  5.436188E-09  3.899696E-08
       157  11  1.146600E+05  1.722045E+06  9.210426E+04 -1.779650E+05  6.373657E-10  8.214273E-09
       157  12  8.453552E+04  1.567624E+06  7.754387E+04 -1.887258E+05  1.370297E-09 -2.485209E-08
       157  13  3.346391E+03  1.239991E+06  1.529001E+04 -1.929402E+05 -1.384605E-08 -6.645293E-11
       157  14  3.498437E+03  1.238711E+06  1.877858E+04 -1.786516E+05 -6.539104E-09 -2.014066E-09
       157  15  9.606599E+03  1.240035E+06  2.984448E+04 -1.929282E+05 -8.233740E-10  4.847776E-09
       157  16 -1.449297E+05  6.004290E+05 -8.712926E+04 -1.901143E+05  2.265002E-09 -3.775368E-08
       157  17 -1.076743E+05  7.556093E+05 -5.455198E+04 -1.793376E+05 -1.005928E-10 -7.900518E-09
       157  18 -6.532718E+04  9.125531E+05 -1.785669E+04 -1.971283E+05  2.770298E-09  2.327769E-08
       157  19  1.516040E+05  1.879959E+06  1.177022E+05 -1.957694E+05 -4.217731E+04  1.407423E+04
       157  20  1.146615E+05  1.722047E+06  9.210807E+04 -1.779658E+05 -3.485413E+04  2.847718E+04
       157  21  8.453669E+04  1.567626E+06  7.754851E+04 -1.887267E+05 -2.514816E+04  4.288359E+04
       157  22  3.348301E+03  1.239991E+06  1.529335E+04 -1.929403E+05 -4.215520E+04  1.180012E+03
       157  23  3.499769E+03  1.238711E+06  1.878107E+04 -1.786519E+05 -3.481949E+04  1.059144E+04
       157  24  9.607383E+03  1.240035E+06  2.984642E+04 -1.929286E+05 -2.510017E+04  2.000966E+04
       157  25 -1.449277E+05  6.004296E+05 -8.712566E+04 -1.901139E+05 -4.213320E+04 -1.170143E+04
       157  26 -1.076730E+05  7.556097E+05 -5.454961E+04 -1.793374E+05 -3.478480E+04 -7.280961E+03
       157  27 -6.532650E+04  9.125533E+05 -1.785550E+04 -1.971282E+05 -2.505186E+04 -2.852727E+03
       158   1  6.392056E+04  1.473095E+06  7.065083E+04 -1.935362E+05  1.859220E+04 -4.799226E+04
       158   2  5.562638E+04  1.307888E+06  7.536954E+04 -1.365882E+05  8.971682E+03 -7.807705E+04
       158   3  1.066703E+05  1.161327E+06  1.144510E+05 -1.081167E+05  1.846522E+03 -1.081510E+05
       158   4  1.171224E+04  1.243806E+06  3.854728E+04 -1.929266E+05  1.854271E+04 -2.512570E+04
       158   5  3.980219E+04  1.234018E+06  6.893657E+04 -1.785751E+05  8.938412E+03 -6.043860E+04
       158   6  1.281303E+05  1.243742E+06  1.373073E+05 -1.926898E+05  1.833711E+03 -9.574737E+04
       158   7 -4.049813E+04  1.014571E+06  6.445015E+03 -1.923173E+05  1.849326E+04 -2.267201E+03
       158   8  2.398464E+04  1.160158E+06  6.250587E+04 -2.205567E+05  8.902758E+03 -4.280211E+04
       158   9  1.496165E+05  1.326178E+06  1.601673E+05 -2.772739E+05  1.817528E+03 -8.334209E+04
       158  10  6.391957E+04  1.473092E+06  7.064587E+04 -1.935354E+05  1.649142E-09 -1.564338E-10
       158  11  5.562466E+04  1.307882E+06  7.535795E+04 -1.365876E+05  2.700169E-09 -1.469072E-09
       158  12  1.066672E+05  1.161315E+06  1.144290E+05 -1.081166E+05  8.792810E-11 -5.590492E-09
       158  13  1.171170E+04  1.243805E+06  3.854545E+04 -1.929263E+05 -1.952993E-09 -5.112312E-12
       158  14  3.980113E+04  1.234014E+06  6.892957E+04 -1.785746E+05  3.139297E-09 -2.328641E-09
       158  15  1.281278E+05  1.243732E+06  1.372901E+05 -1.926896E+05  1.757253E-09  4.982871E-09
       158  16 -4.049850E+04  1.014571E+06  6.444362E+03 -1.923173E+05  1.711680E-09  1.238433E-09
       158  17  2.398406E+04  1.160156E+06  6.250229E+04 -2.205563E+05 -3.322094E-10  1.367548E-09
       158  18  1.496147E+05  1.326171E+06  1.601543E+05 -2.772738E+05  4.976075E-10  3.616871E-09
       158  19  6.392056E+04  1.473095E+06  7.065083E+04 -1.935362E+05 -1.859220E+04  4.799226E+04
       158  20  5.562638E+04  1.307888E+06  7.536954E+04 -1.365882E+05 -8.971682E+03  7.807705E+04
       158  21  1.066703E+05  1.161327E+06  1.144510E+05 -1.081167E+05 -1.846522E+03  1.081510E+05
       158  22  1.171224E+04  1.243806E+06  3.854728E+04 -1.929266E+05 -1.854271E+04  2.512570E+04
       158  23  3.980219E+04  1.234018E+06  6.893657E+04 -1.785751E+05 -8.938412E+03  6.043860E+04
       158  24  1.281303E+05  1.243742E+06  1.373073E+05 -1.926898E+05 -1.833711E+03  9.574737E+04
       158  25 -4.049813E+04  1.014571E+06  6.445015E+03 -1.923173E+05 -1.849326E+04  2.267201E+03
       158  26  2.398464E+04  1.160158E+06  6.250587E+04 -2.205567E+05 -8.902758E+03  4.280211E+04
       158  27  1.496165E+05  1.326178E+06  1.601673E+05 -2.772739E+05 -1.817528E+03  8.334209E+04
       159   1  5.339993E+05 -4.044233E+04  6.118510E+04  5.435943E+03  2.921407E+05  1.229067E+04
       159   2  5.822814E+05 -4.232754E+05 -1.584678E+05  2.579016E+04  1.964108E+05  3.203793E+04
       159   3  7.666532E+05 -3.404514E+05 -1.979314E+05 -9.429360E+04  1.007650E+05  2.616488E+04
       159   4  2.074837E+06  3.428978E+05  4.434384E+05 -6.054957E+04  3.029613E+05  1.230806E+04
       159   5  2.006399E+06 -6.914760E+04  1.906543E+05  1.048910E+04  1.990005E+05  3.203651E+04
       159   6  2.075153E+06 -1.468956E+04  1.234478E+05 -5.888462E+04  9.514301E+04  2.615484E+04
       159   7  3.617836E+06  7.260782E+05  8.255180E+05 -1.267013E+05  3.138081E+05  1.232317E+04
       159   8  3.432360E+06  2.848312E+05  5.396281E+05 -4.848749E+03  2.015958E+05  3.203498E+04
       159   9  3.385209E+06  3.109500E+05  4.447019E+05 -2.340174E+04  8.950905E+04  2.614418E+04
       159  10  5.339077E+05 -4.046537E+04  6.102458E+04  5.433052E+03  1.394392E-10  1.212759E-10
       159  11  5.822398E+05 -4.232868E+05 -1.585422E+05  2.578509E+04 -1.570896E-09  1.767151E-10
       159  12  7.666422E+05 -3.404549E+05 -1.979517E+05 -9.429573E+04 -1.145282E-10  5.464012E-10
       159  13  2.074739E+06  3.428731E+05  4.432662E+05 -6.055257E+04  1.060354E-09 -3.094666E-11
       159  14  2.006357E+06 -6.915929E+04  1.905782E+05  1.048397E+04 -4.245830E-09  1.820970E-11
       159  15  2.075143E+06 -1.469271E+04  1.234295E+05 -5.888662E+04 -1.716761E-10  3.605831E-10
       159  16  3.617731E+06  7.260517E+05  8.253337E+05 -1.267044E+05 -2.491928E-10 -3.388335E-11
       159  17  3.432317E+06  2.848193E+05  5.395502E+05 -4.853941E+03 -1.961971E-10 -2.299416E-10
       159  18  3.385201E+06  3.109471E+05  4.446857E+05 -2.340362E+04  1.503525E-10  3.856757E-10
       159  19  5.339993E+05 -4.044233E+04  6.118510E+04  5.435943E+03 -2.921407E+05 -1.229067E+04
       159  20  5.822814E+05 -4.232754E+05 -1.584678E+05  2.579016E+04 -1.964108E+05 -3.203793E+04
       159  21  7.666532E+05 -3.404514E+05 -1.979314E+05 -9.429360E+04 -1.007650E+05 -2.616488E+04
       159  22  2.074837E+06  3.428978E+05  4.434384E+05 -6.054957E+04 -3.029613E+05 -1.230806E+04
       159  23  2.006399E+06 -6.914760E+04  1.906543E+05  1.048910E+04 -1.990005E+05 -3.203651E+04
       159  24  2.075153E+06 -1.468956E+04  1.234478E+05 -5.888462E+04 -9.514301E+04 -2.615484E+04
       159  25  3.617836E+06  7.260782E+05  8.255180E+05 -1.267013E+05 -3.138081E+05 -1.232317E+04
       159  26  3.432360E+06  2.848312E+05  5.396281E+05 -4.848749E+03 -2.015958E+05 -3.203498E+04
       159  27  3.385209E+06  3.109500E+05  4.447019E+05 -2.340174E+04 -8.950905E+04 -2.614418E+04
       160   1  1.009226E+06 -2.135697E+05 -1.541314E+05 -4.614180E+04  7.486437E+04  1.994973E+04
       160   2  1.094341E+06 -2.443308E+05 -1.822495E+05  5.562014E+03  4.992519E+04  1.917512E+04
       160   3  1.201026E+06 -2.129527E+05 -1.780413E+05 -5.811288E+04  2.497721E+04  1.573270E+04
       160   4  2.049600E+06  4.525519E+04  1.014884E+05 -5.385864E+04  7.513408E+04  1.994695E+04
       160   5  2.038785E+06 -9.397889E+03  4.956899E+04  3.856357E+03  4.932269E+04  1.917273E+04
       160   6  2.049653E+06 -1.811607E+03  3.054189E+04 -5.379553E+04  2.350633E+04  1.573202E+04
       160   7  3.090955E+06  3.040001E+05  3.570288E+05 -6.158874E+04  7.540416E+04  1.994417E+04
       160   8  2.984039E+06  2.254690E+05  2.813220E+05  2.147979E+03  4.871922E+04  1.917034E+04
       160   9  2.898932E+06  2.092762E+05  2.390722E+05 -4.947219E+04  2.203343E+04  1.573133E+04
       160  10  1.009220E+06 -2.135716E+05 -1.541427E+05 -4.614300E+04 -5.789195E-10  4.322457E-10
       160  11  1.094338E+06 -2.443319E+05 -1.822548E+05  5.561243E+03  7.324143E-10 -1.789779E-10
       160  12  1.201025E+06 -2.129531E+05 -1.780430E+05 -5.811320E+04 -6.250088E-10  6.841174E-10
       160  13  2.049593E+06  4.525325E+04  1.014771E+05 -5.385985E+04 -5.852594E-10 -1.507173E-10
       160  14  2.038782E+06 -9.398934E+03  4.956374E+04  3.855596E+03 -1.318648E-09  1.156003E-10
       160  15  2.049652E+06 -1.812021E+03  3.054039E+04 -5.379583E+04 -9.660045E-10  1.390536E-10
       160  16  3.090949E+06  3.039982E+05  3.570174E+05 -6.158995E+04 -6.229751E-10  1.459102E-10
       160  17  2.984036E+06  2.254680E+05  2.813169E+05  2.147228E+03 -2.413835E-09  6.186518E-12
       160  18  2.898932E+06  2.092758E+05  2.390708E+05 -4.947247E+04  1.370787E-10 -1.448846E-11
       160  19  1.009226E+06 -2.135697E+05 -1.541314E+05 -4.614180E+04 -7.486437E+04 -1.994973E+04
       160  20  1.094341E+06 -2.443308E+05 -1.822495E+05  5.562014E+03 -4.992519E+04 -1.917512E+04
       160  21  1.201026E+06 -2.129527E+05 -1.780413E+05 -5.811288E+04 -2.497721E+04 -1.573270E+04
       160  22  2.049600E+06  4.525519E+04  1.014884E+05 -5.385864E+04 -7.513408E+04 -1.994695E+04
       160  23  2.038785E+06 -9.397889E+03  4.956899E+04  3.856357E+03 -4.932269E+04 -1.917273E+04
       160  24  2.049653E+06 -1.811607E+03  3.054189E+04 -5.379553E+04 -2.350633E+04 -1.573202E+04
       160  25  3.090955E+06  3.040001E+05  3.570288E+05 -6.158874E+04 -7.540416E+04 -1.994417E+04
       160  26  2.984039E+06  2.254690E+05  2.813220E+05  2.147979E+03 -4.871922E+04 -1.917034E+04
       160  27  2.898932E+06  2.092762E+05  2.390722E+05 -4.947219E+04 -2.203343E+04 -1.573133E+04
       161   1  1.425366E+06 -1.483469E+05 -1.278819E+05 -4.917954E+04  1.940643E+04  1.345411E+04
       161   2  1.507230E+06 -1.347733E+05 -1.188997E+05  4.299880E+02  1.292475E+04  1.070408E+04
       161   3  1.592587E+06 -1.127609E+05 -1.034865E+05 -5.052865E+04  6.437527E+03  7.819165E+03
       161   4  2.045708E+06  5.900158E+03  2.417350E+04 -5.051874E+04  1.857848E+04  1.345385E+04
       161   5  2.043965E+06 -1.283681E+03  1.284614E+04 -2.398076E+02  1.204871E+04  1.070456E+04
       161   6  2.045715E+06 -2.357652E+01  7.978988E+03 -5.052356E+04  5.514258E+03  7.820457E+03
       161   7  2.666399E+06  1.601188E+05  1.762008E+05 -5.185920E+04  1.774970E+04  1.345359E+04
       161   8  2.580962E+06  1.321847E+05  1.445708E+05 -9.101017E+02  1.117190E+04  1.070505E+04
       161   9  2.499030E+06  1.126985E+05  1.194294E+05 -5.051837E+04  4.590316E+03  7.821749E+03
       161  10  1.425366E+06 -1.483472E+05 -1.278830E+05 -4.917975E+04 -7.258449E-10  3.768704E-11
       161  11  1.507230E+06 -1.347735E+05 -1.189002E+05  4.298766E+02 -3.954987E-10 -4.692067E-10
       161  12  1.592587E+06 -1.127610E+05 -1.034867E+05 -5.052869E+04 -4.663810E-10 -4.632273E-10
       161  13  2.045708E+06  5.899871E+03  2.417252E+04 -5.051894E+04 -1.123842E-09  2.154904E-10
       161  14  2.043965E+06 -1.283843E+03  1.284565E+04 -2.399114E+02 -3.821966E-10  1.841494E-10
       161  15  2.045715E+06 -2.365040E+01  7.978816E+03 -5.052359E+04  9.806504E-10 -1.412448E-10
       161  16  2.666399E+06  1.601185E+05  1.761998E+05 -5.185939E+04  7.322401E-10  5.113911E-10
       161  17  2.580961E+06  1.321845E+05  1.445704E+05 -9.101979E+02  1.294653E-09  3.620815E-10
       161  18  2.499030E+06  1.126984E+05  1.194293E+05 -5.051840E+04  5.511274E-10 -7.746571E-10
       161  19  1.425366E+06 -1.483469E+05 -1.278819E+05 -4.917954E+04 -1.940643E+04 -1.345411E+04
       161  20  1.507230E+06 -1.347733E+05 -1.188997E+05  4.299880E+02 -1.292475E+04 -1.070408E+04
       161  21  1.592587E+06 -1.127609E+05 -1.034865E+05 -5.052865E+04 -6.437527E+03 -7.819165E+03
       161  22  2.045708E+06  5.900158E+03  2.417350E+04 -5.051874E+04 -1.857848E+04 -1.345385E+04
       161  23  2.043965E+06 -1.283681E+03  1.284614E+04 -2.398076E+02 -1.204871E+04 -1.070456E+04
       161  24  2.045715E+06 -2.357652E+01  7.978988E+03 -5.052356E+04 -5.514258E+03 -7.820457E+03
       161  25  2.666399E+06  1.601188E+05  1.762008E+05 -5.185920E+04 -1.774970E+04 -1.345359E+04
       161  26  2.580962E+06  1.321847E+05  1.445708E+05 -9.101017E+02 -1.117190E+04 -1.070505E+04
       161  27  2.499030E+06  1.126985E+05  1.194294E+05 -5.051837E+04 -4.590316E+03 -7.821749E+03
       162   1  1.797271E+06 -6.068585E+04 -5.417985E+04 -4.849834E+04  5.078590E+03  6.142180E+03
       162   2  1.874916E+06 -4.245081E+04 -3.753967E+04 -1.919418E+03  2.973159E+03  3.379664E+03
       162   3  1.952821E+06 -2.268114E+04 -1.923265E+04 -4.888341E+04  8.660918E+02  6.504299E+02
       162   4  2.045040E+06  8.769734E+02  6.381973E+03 -4.896049E+04  4.209294E+03  6.143743E+03
       162   5  2.044915E+06 -1.796805E+02  4.180586E+03 -2.190409E+03  2.113502E+03  3.381415E+03
       162   6  2.045041E+06  2.964959E+02  3.638945E+03 -4.896162E+04  1.633473E+01  6.523841E+02
       162   7  2.292865E+06  6.243527E+04  6.693933E+04 -4.942280E+04  3.339653E+03  6.145307E+03
       162   8  2.214940E+06  4.208931E+04  4.589873E+04 -2.461460E+03  1.253611E+03  3.383166E+03
       162   9  2.137268E+06  2.327350E+04  2.650991E+04 -4.903985E+04 -8.335481E+02  6.543383E+02
       162  10  1.797271E+06 -6.068590E+04 -5.417997E+04 -4.849836E+04 -1.598979E-09  5.570361E-10
       162  11  1.874916E+06 -4.245082E+04 -3.753971E+04 -1.919426E+03 -1.585492E-09  1.079343E-10
       162  12  1.952821E+06 -2.268114E+04 -1.923265E+04 -4.888341E+04  1.212434E-09 -4.688028E-10
       162  13  2.045040E+06  8.769281E+02  6.381869E+03 -4.896051E+04  9.221830E-11 -1.725170E-10
       162  14  2.044915E+06 -1.796940E+02  4.180556E+03 -2.190415E+03 -1.431550E-09  1.037487E-09
       162  15  2.045041E+06  2.964955E+02  3.638944E+03 -4.896162E+04 -1.340796E-09  3.655402E-10
       162  16  2.292865E+06  6.243523E+04  6.693924E+04 -4.942281E+04  1.659538E-09 -3.008330E-10
       162  17  2.214940E+06  4.208930E+04  4.589870E+04 -2.461464E+03  2.097657E-09  7.412546E-10
       162  18  2.137268E+06  2.327350E+04  2.650991E+04 -4.903985E+04 -3.514762E-10 -9.689840E-11
       162  19  1.797271E+06 -6.068585E+04 -5.417985E+04 -4.849834E+04 -5.078590E+03 -6.142180E+03
       162  20  1.874916E+06 -4.245081E+04 -3.753967E+04 -1.919418E+03 -2.973159E+03 -3.379664E+03
       162  21  1.952821E+06 -2.268114E+04 -1.923265E+04 -4.888341E+04 -8.660918E+02 -6.504299E+02
       162  22  2.045040E+06  8.769734E+02  6.381973E+03 -4.896049E+04 -4.209294E+03 -6.143743E+03
       162  23  2.044915E+06 -1.796805E+02  4.180586E+03 -2.190409E+03 -2.113502E+03 -3.381415E+03
       162  24  2.045041E+06  2.964959E+02  3.638945E+03 -4.896162E+04 -1.633473E+01 -6.523841E+02
       162  25  2.292865E+06  6.243527E+04  6.693933E+04 -4.942280E+04 -3.339653E+03 -6.145307E+03
       162  26  2.214940E+06  4.208931E+04  4.589873E+04 -2.461460E+03 -1.253611E+03 -3.383166E+03
       162  27  2.137268E+06  2.327350E+04  2.650991E+04 -4.903985E+04  8.335481E+02 -6.543383E+02
       163   1  2.150973E+06  2.664481E+04  2.997375E+04 -4.907117E+04  1.918731E+02 -9.259739E+02
       163   2  2.228703E+06  4.548248E+04  4.986962E+04 -2.441744E+03 -2.188450E+03 -3.655675E+03
       163   3  2.306803E+06  6.608140E+04  7.166912E+04 -4.948698E+04 -4.567618E+03 -6.423838E+03
       163   4  2.045065E+06  2.670532E+02  3.746377E+03 -4.899180E+04 -6.575785E+02 -9.240276E+02
       163   5  2.044882E+06 -2.160084E+02  4.766631E+03 -2.152839E+03 -3.049392E+03 -3.653946E+03
       163   6  2.045064E+06  1.064896E+03  7.699327E+03 -4.899024E+04 -5.439756E+03 -6.422313E+03
       163   7  1.939168E+06 -2.611154E+04 -2.248182E+04 -4.891244E+04 -1.506886E+03 -9.220814E+02
       163   8  1.861091E+06 -4.591700E+04 -4.033884E+04 -1.864003E+03 -3.910081E+03 -3.652218E+03
       163   9  1.783388E+06 -6.395665E+04 -5.627546E+04 -4.849368E+04 -6.311528E+03 -6.420788E+03
       163  10  2.150973E+06  2.664481E+04  2.997375E+04 -4.907117E+04  7.039943E-11 -2.654992E-10
       163  11  2.228703E+06  4.548246E+04  4.986959E+04 -2.441750E+03  1.196798E-09  3.400553E-10
       163  12  2.306803E+06  6.608135E+04  7.166901E+04 -4.948701E+04  1.851358E-09  5.175184E-10
       163  13  2.045065E+06  2.670522E+02  3.746375E+03 -4.899180E+04  7.921669E-10  3.744257E-10
       163  14  2.044882E+06 -2.160252E+02  4.766588E+03 -2.152848E+03 -3.572852E-10  3.962556E-10
       163  15  2.045064E+06  1.064844E+03  7.699194E+03 -4.899027E+04  1.037833E-09  3.881020E-10
       163  16  1.939168E+06 -2.611154E+04 -2.248183E+04 -4.891244E+04 -3.703377E-10  2.501932E-10
       163  17  1.861091E+06 -4.591701E+04 -4.033889E+04 -1.864015E+03  9.464599E-10  5.895196E-11
       163  18  1.783387E+06 -6.395671E+04 -5.627561E+04 -4.849371E+04 -9.091077E-10 -7.559108E-10
       163  19  2.150973E+06  2.664481E+04  2.997375E+04 -4.907117E+04 -1.918731E+02  9.259739E+02
       163  20  2.228703E+06  4.548248E+04  4.986962E+04 -2.441744E+03  2.188450E+03  3.655675E+03
       163  21  2.306803E+06  6.608140E+04  7.166912E+04 -4.948698E+04  4.567618E+03  6.423838E+03
       163  22  2.045065E+06  2.670532E+02  3.746377E+03 -4.899180E+04  6.575785E+02  9.240276E+02
       163  23  2.044882E+06 -2.160084E+02  4.766631E+03 -2.152839E+03  3.049392E+03  3.653946E+03
       163  24  2.045064E+06  1.064896E+03  7.699327E+03 -4.899024E+04  5.439756E+03  6.422313E+03
       163  25  1.939168E+06 -2.611154E+04 -2.248182E+04 -4.891244E+04  1.506886E+03  9.220814E+02
       163  26  1.861091E+06 -4.591700E+04 -4.033884E+04 -1.864003E+03  3.910081E+03  3.652218E+03
       163  27  1.783388E+06 -6.395665E+04 -5.627546E+04 -4.849368E+04  6.311528E+03  6.420788E+03
       164   1  2.513712E+06  1.162405E+05  1.247485E+05 -5.046353E+04 -6.096064E+03 -8.105545E+03
       164   2  2.595601E+06  1.355695E+05  1.512728E+05 -8.266048E+02 -1.423248E+04 -1.099785E+04
       164   3  2.681762E+06  1.653716E+05  1.858127E+05 -5.218591E+04 -2.236498E+04 -1.375786E+04
       164   4  2.045883E+06 -8.762320E+01  9.738076E+03 -5.062148E+04 -7.022261E+03 -8.104306E+03
       164   5  2.043747E+06 -1.590534E+03  1.590480E+04 -1.178132E+02 -1.511092E+04 -1.099745E+04
       164   6  2.045873E+06  7.377327E+03  3.006004E+04 -5.061585E+04 -2.319458E+04 -1.375823E+04
       164   7  1.578252E+06 -1.164320E+05 -1.052884E+05 -5.077921E+04 -7.947762E+03 -8.103067E+03
       164   8  1.492169E+06 -1.387731E+05 -1.194855E+05  5.904307E+02 -1.598858E+04 -1.099705E+04
       164   9  1.410350E+06 -1.506468E+05 -1.257221E+05 -4.904733E+04 -2.402332E+04 -1.375861E+04
       164  10  2.513712E+06  1.162404E+05  1.247483E+05 -5.046357E+04  1.393077E-09 -6.123083E-10
       164  11  2.595601E+06  1.355693E+05  1.512722E+05 -8.267307E+02 -8.195937E-10  5.210919E-11
       164  12  2.681761E+06  1.653712E+05  1.858114E+05 -5.218616E+04  2.697350E-10 -9.207804E-11
       164  13  2.045883E+06 -8.770698E+01  9.737860E+03 -5.062152E+04  3.186437E-10 -7.981563E-10
       164  14  2.043747E+06 -1.590725E+03  1.590414E+04 -1.179469E+02 -7.777034E-10 -2.678725E-10
       164  15  2.045872E+06  7.376980E+03  3.005868E+04 -5.061611E+04 -4.848027E-10  1.518848E-10
       164  16  1.578252E+06 -1.164321E+05 -1.052886E+05 -5.077927E+04 -1.181575E-09 -6.278270E-10
       164  17  1.492169E+06 -1.387733E+05 -1.194862E+05  5.902891E+02 -3.363246E-10 -2.880207E-10
       164  18  1.410349E+06 -1.506471E+05 -1.257236E+05 -4.904759E+04 -4.484632E-10  5.100982E-10
       164  19  2.513712E+06  1.162405E+05  1.247485E+05 -5.046353E+04  6.096064E+03  8.105545E+03
       164  20  2.595601E+06  1.355695E+05  1.512728E+05 -8.266048E+02  1.423248E+04  1.099785E+04
       164  21  2.681762E+06  1.653716E+05  1.858127E+05 -5.218591E+04  2.236498E+04  1.375786E+04
       164  22  2.045883E+06 -8.762320E+01  9.738076E+03 -5.062148E+04  7.022261E+03  8.104306E+03
       164  23  2.043747E+06 -1.590534E+03  1.590480E+04 -1.178132E+02  1.511092E+04  1.099745E+04
       164  24  2.045873E+06  7.377327E+03  3.006004E+04 -5.061585E+04  2.319458E+04  1.375823E+04
       164  25  1.578252E+06 -1.164320E+05 -1.052884E+05 -5.077921E+04  7.947762E+03  8.103067E+03
       164  26  1.492169E+06 -1.387731E+05 -1.194855E+05  5.904307E+02  1.598858E+04  1.099705E+04
       164  27  1.410350E+06 -1.506468E+05 -1.257221E+05 -4.904733E+04  2.402332E+04  1.375861E+04
       165   1  2.916413E+06  2.128843E+05  2.505391E+05 -4.845562E+04 -2.783779E+04 -1.605375E+04
       165   2  2.999759E+06  2.274308E+05  2.977101E+05  1.890740E+03 -6.088908E+04 -1.952634E+04
       165   3  3.109688E+06  3.196311E+05  3.863217E+05 -6.387239E+04 -9.394138E+04 -2.030926E+04
       165   4  2.050707E+06 -2.283253E+03  3.798230E+04 -5.395685E+04 -2.931848E+04 -1.605452E+04
       165   5  2.037445E+06 -1.167217E+04  6.177729E+04  4.060396E+03 -6.148338E+04 -1.952894E+04
       165   6  2.050640E+06  5.650442E+04  1.264459E+05 -5.404176E+04 -9.364415E+04 -2.031264E+04
       165   7  1.185681E+06 -2.175061E+05 -1.746295E+05 -5.945036E+04 -3.079709E+04 -1.605526E+04
       165   8  1.075970E+06 -2.508435E+05 -1.742233E+05  6.226547E+03 -6.207671E+04 -1.953154E+04
       165   9  9.926080E+05 -2.067048E+05 -1.335120E+05 -4.422821E+04 -9.334733E+04 -2.031601E+04
       165  10  2.916412E+06  2.128838E+05  2.505372E+05 -4.845598E+04 -1.632126E-10  2.299115E-10
       165  11  2.999755E+06  2.274294E+05  2.977025E+05  1.889783E+03 -1.958562E-09  4.651283E-10
       165  12  3.109678E+06  3.196283E+05  3.863044E+05 -6.387393E+04  1.014246E-09  4.036555E-10
       165  13  2.050706E+06 -2.283760E+03  3.798020E+04 -5.395723E+04  9.623191E-10  3.275885E-10
       165  14  2.037441E+06 -1.167359E+04  6.176949E+04  4.059430E+03  1.064423E-09  7.982193E-11
       165  15  2.050630E+06  5.650163E+04  1.264287E+05 -5.404329E+04  1.660309E-09  1.590323E-10
       165  16  1.185680E+06 -2.175066E+05 -1.746317E+05 -5.945076E+04 -1.011786E-09  2.480862E-10
       165  17  1.075965E+06 -2.508450E+05 -1.742313E+05  6.225571E+03 -8.042895E-10 -6.696062E-10
       165  18  9.925985E+05 -2.067076E+05 -1.335292E+05 -4.422973E+04  8.268236E-10  4.034431E-11
       165  19  2.916413E+06  2.128843E+05  2.505391E+05 -4.845562E+04  2.783779E+04  1.605375E+04
       165  20  2.999759E+06  2.274308E+05  2.977101E+05  1.890740E+03  6.088908E+04  1.952634E+04
       165  21  3.109688E+06  3.196311E+05  3.863217E+05 -6.387239E+04  9.394138E+04  2.030926E+04
       165  22  2.050707E+06 -2.283253E+03  3.798230E+04 -5.395685E+04  2.931848E+04  1.605452E+04
       165  23  2.037445E+06 -1.167217E+04  6.177729E+04  4.060396E+03  6.148338E+04  1.952894E+04
       165  24  2.050640E+06  5.650442E+04  1.264459E+05 -5.404176E+04  9.364415E+04  2.031264E+04
       165  25  1.185681E+06 -2.175061E+05 -1.746295E+05 -5.945036E+04  3.079709E+04  1.605526E+04
       165  26  1.075970E+06 -2.508435E+05 -1.742233E+05  6.226547E+03  6.207671E+04  1.953154E+04
       165  27  9.926080E+05 -2.067048E+05 -1.335120E+05 -4.422821E+04  9.334733E+04  2.031601E+04
       166   1  3.411828E+06  3.122748E+05  4.797918E+05 -1.523822E+04 -1.128872E+05 -2.660475E+04
       166   2  3.443962E+06  2.730031E+05  5.917008E+05 -9.002003E+03 -2.507004E+05 -3.268381E+04
       166   3  3.646592E+06  8.157122E+05  9.399631E+05 -1.448066E+05 -3.886496E+05 -1.288054E+04
       166   4  2.082309E+06 -1.825156E+04  1.537668E+05 -5.910386E+04 -1.185631E+05 -2.661354E+04
       166   5  1.997409E+06 -8.604337E+04  2.377025E+05  1.084557E+04 -2.480067E+05 -3.268815E+04
       166   6  2.081922E+06  4.274042E+05  5.525880E+05 -6.124743E+04 -3.775586E+05 -1.288215E+04
       166   7  7.543954E+05 -3.489016E+05 -1.723865E+05 -1.028767E+05 -1.242267E+05 -2.662154E+04
       166   8  5.527534E+05 -4.452425E+05 -1.164483E+05  3.064526E+04 -2.453187E+05 -3.269234E+04
       166   9  5.194817E+05  3.894169E+04  1.650358E+05  2.209942E+04 -3.664943E+05 -1.288083E+04
       166  10  3.411814E+06  3.122706E+05  4.797666E+05 -1.524063E+04 -7.055828E-11  1.534523E-09
       166  11  3.443895E+06  2.729852E+05  5.915814E+05 -9.008590E+03 -1.152623E-09  5.912989E-10
       166  12  3.646430E+06  8.156717E+05  9.396806E+05 -1.448106E+05  3.492095E-10 -6.375417E-10
       166  13  2.082294E+06 -1.825608E+04  1.537392E+05 -5.910640E+04 -1.096572E-09  5.752657E-10
       166  14  1.997343E+06 -8.606096E+04  2.375853E+05  1.083904E+04  2.096070E-09 -4.486979E-10
       166  15  2.081770E+06  4.273659E+05  5.523207E+05 -6.125135E+04  1.449230E-09  2.200999E-10
       166  16  7.543786E+05 -3.489065E+05 -1.724168E+05 -1.028793E+05 -9.534883E-11  2.076308E-10
       166  17  5.526885E+05 -4.452597E+05 -1.165632E+05  3.063880E+04  2.360942E-11  1.340315E-09
       166  18  5.193376E+05  3.890549E+04  1.647833E+05  2.209562E+04  2.721468E-10 -6.263011E-11
       166  19  3.411828E+06  3.122748E+05  4.797918E+05 -1.523822E+04  1.128872E+05  2.660475E+04
       166  20  3.443962E+06  2.730031E+05  5.917008E+05 -9.002003E+03  2.507004E+05  3.268381E+04
       166  21  3.646592E+06  8.157122E+05  9.399631E+05 -1.448066E+05  3.886496E+05  1.288054E+04
       166  22  2.082309E+06 -1.825156E+04  1.537668E+05 -5.910386E+04  1.185631E+05  2.661354E+04
       166  23  1.997409E+06 -8.604337E+04  2.377025E+05  1.084557E+04  2.480067E+05  3.268815E+04
       166  24  2.081922E+06  4.274042E+05  5.525880E+05 -6.124743E+04  3.775586E+05  1.288215E+04
       166  25  7.543954E+05 -3.489016E+05 -1.723865E+05 -1.028767E+05  1.242267E+05  2.662154E+04
       166  26  5.527534E+05 -4.452425E+05 -1.164483E+05  3.064526E+04  2.453187E+05  3.269234E+04
       166  27  5.194817E+05  3.894169E+04  1.650358E+05  2.209942E+04  3.664943E+05  1.288083E+04
       167   1 -8.682622E+04 -2.467937E+05 -6.164510E+04  2.138071E+03 -5.197748E+03  6.791849E+04
       167   2 -1.783827E+05 -2.308183E+05 -1.123588E+05 -5.218204E+03 -1.444536E+04  4.586453E+04
       167   3 -1.569219E+05 -1.820369E+05 -1.201393E+05  2.640895E+04 -1.249305E+04  2.386434E+04
       167   4  8.309204E+04  4.345750E+05  1.076532E+05  1.687544E+04 -5.220062E+03  7.263966E+04
       167   5 -1.683465E+04  4.178899E+05  4.690415E+04 -2.834387E+03 -1.444958E+04  4.706788E+04
       167   6 -3.196908E+03  4.345874E+05  3.149718E+04  1.643609E+04 -1.248345E+04  2.155111E+04
       167   7  2.529764E+05  1.116366E+06  2.769171E+05  3.162953E+04 -5.242140E+03  7.736597E+04
       167   8  1.446822E+05  1.066981E+06  2.061362E+05 -4.476352E+02 -1.445380E+04  4.827247E+04
       167   9  1.505002E+05  1.051558E+06  1.831057E+05  6.453642E+03 -1.247379E+04  1.923558E+04
       167  10 -8.682748E+04 -2.467987E+05 -6.165382E+04  2.138355E+03  1.460042E-09  8.665471E-10
       167  11 -1.783835E+05 -2.308207E+05 -1.123632E+05 -5.217670E+03  2.639568E-10 -3.604897E-10
       167  12 -1.569223E+05 -1.820375E+05 -1.201406E+05  2.640919E+04 -4.497429E-10 -1.934930E-09
       167  13  8.309060E+04  4.345693E+05  1.076433E+05  1.687574E+04  2.701577E-09 -2.107062E-11
       167  14 -1.683547E+04  4.178875E+05  4.689959E+04 -2.833839E+03  8.649525E-10 -7.202638E-12
       167  15 -3.197200E+03  4.345868E+05  3.149601E+04  1.643631E+04  1.064082E-09 -3.769563E-11
       167  16  2.529748E+05  1.116359E+06  2.769058E+05  3.162986E+04  9.301392E-10 -8.841888E-10
       167  17  1.446814E+05  1.066979E+06  2.061315E+05 -4.470736E+02  5.442137E-09  1.711007E-10
       167  18  1.504999E+05  1.051557E+06  1.831047E+05  6.453835E+03  1.596429E-09  1.998599E-09
       167  19 -8.682622E+04 -2.467937E+05 -6.164510E+04  2.138071E+03  5.197748E+03 -6.791849E+04
       167  20 -1.783827E+05 -2.308183E+05 -1.123588E+05 -5.218204E+03  1.444536E+04 -4.586453E+04
       167  21 -1.569219E+05 -1.820369E+05 -1.201393E+05  2.640895E+04  1.249305E+04 -2.386434E+04
       167  22  8.309204E+04  4.345750E+05  1.076532E+05  1.687544E+04  5.220062E+03 -7.263966E+04
       167  23 -1.683465E+04  4.178899E+05  4.690415E+04 -2.834387E+03  1.444958E+04 -4.706788E+04
       167  24 -3.196908E+03  4.345874E+05  3.149718E+04  1.643609E+04  1.248345E+04 -2.155111E+04
       167  25  2.529764E+05  1.116366E+06  2.769171E+05  3.162953E+04  5.242140E+03 -7.736597E+04
       167  26  1.446822E+05  1.066981E+06  2.061362E+05 -4.476352E+02  1.445380E+04 -4.827247E+04
       167  27  1.505002E+05  1.051558E+06  1.831057E+05  6.453642E+03  1.247379E+04 -1.923558E+04
       168   1 -1.229797E+05 -1.080533E+05 -1.054408E+05  1.497056E+04 -1.020899E+04  1.604183E+04
       168   2 -1.291899E+05 -8.135363E+04 -1.090492E+05 -1.327424E+03 -1.035530E+04  8.548797E+03
       168   3 -1.158732E+05 -4.775969E+04 -1.026866E+05  1.869484E+04 -8.683603E+03  1.059865E+03
       168   4  1.077134E+04  4.287478E+05  2.667264E+04  1.600688E+04 -1.020963E+04  1.638912E+04
       168   5 -2.976560E+03  4.252539E+05  1.548327E+04 -2.167577E+03 -1.035404E+04  8.322892E+03
       168   6  2.893536E+03  4.287483E+05  1.465708E+04  1.597626E+04 -8.681074E+03  2.611300E+02
       168   7  1.445010E+05  9.658111E+05  1.587649E+05  1.704434E+04 -1.021026E+04  1.673670E+04
       168   8  1.232178E+05  9.320949E+05  1.399969E+05 -3.008233E+03 -1.035279E+04  8.096801E+03
       168   9  1.216434E+05  9.054627E+05  1.319840E+05  1.325573E+04 -8.678538E+03 -5.382173E+02
       168  10 -1.229799E+05 -1.080536E+05 -1.054415E+05  1.497070E+04 -2.307994E-09 -1.844257E-09
       168  11 -1.291901E+05 -8.135374E+04 -1.090496E+05 -1.327352E+03  5.241381E-11 -7.675558E-11
       168  12 -1.158732E+05 -4.775971E+04 -1.026867E+05  1.869485E+04 -1.814142E-10  1.609396E-09
       168  13  1.077115E+04  4.287475E+05  2.667194E+04  1.600702E+04 -8.567450E-10 -3.848621E-11
       168  14 -2.976694E+03  4.252538E+05  1.548294E+04 -2.167507E+03  1.167525E-09  2.333648E-12
       168  15  2.893455E+03  4.287482E+05  1.465694E+04  1.597627E+04 -8.404226E-10  3.270612E-11
       168  16  1.445008E+05  9.658107E+05  1.587641E+05  1.704447E+04  6.119130E-10  1.969171E-09
       168  17  1.232176E+05  9.320948E+05  1.399966E+05 -3.008166E+03 -1.005774E-09  2.091154E-10
       168  18  1.216433E+05  9.054627E+05  1.319838E+05  1.325573E+04 -2.710210E-10 -1.654873E-09
       168  19 -1.229797E+05 -1.080533E+05 -1.054408E+05  1.497056E+04  1.020899E+04 -1.604183E+04
       168  20 -1.291899E+05 -8.135363E+04 -1.090492E+05 -1.327424E+03  1.035530E+04 -8.548797E+03
       168  21 -1.158732E+05 -4.775969E+04 -1.026866E+05  1.869484E+04  8.683603E+03 -1.059865E+03
       168  22  1.077134E+04  4.287478E+05  2.667264E+04  1.600688E+04  1.020963E+04 -1.638912E+04
       168  23 -2.976560E+03  4.252539E+05  1.548327E+04 -2.167577E+03  1.035404E+04 -8.322892E+03
       168  24  2.893536E+03  4.287483E+05  1.465708E+04  1.597626E+04  8.681074E+03 -2.611300E+02
       168  25  1.445010E+05  9.658111E+05  1.587649E+05  1.704434E+04  1.021026E+04 -1.673670E+04
       168  26  1.232178E+05  9.320949E+05  1.399969E+05 -3.008233E+03  1.035279E+04 -8.096801E+03
       168  27  1.216434E+05  9.054627E+05  1.319840E+05  1.325573E+04  8.678538E+03  5.382173E+02
       169   1 -9.963530E+04  2.855976E+04 -8.384290E+04  1.355719E+04 -8.591456E+03 -2.925498E+03
       169   2 -9.823940E+04  5.176633E+04 -7.476763E+04  2.973404E+02 -7.972155E+03 -1.040877E+04
       169   3 -6.018606E+04  8.569454E+04 -5.153663E+04  2.159264E+04 -2.481677E+03 -1.788477E+04
       169   4  2.520523E+02  4.296575E+05  1.465800E+04  1.557596E+04 -8.592481E+03 -2.354107E+03
       169   5 -5.478679E+03  4.241642E+05  1.668642E+04 -1.678815E+03 -7.969875E+03 -1.136191E+04
       169   6  2.570128E+04  4.296514E+05  3.392327E+04  1.562008E+04 -2.477289E+03 -2.036211E+04
       169   7  1.001275E+05  8.309016E+05  1.131471E+05  1.759612E+04 -8.593501E+03 -1.782348E+03
       169   8  8.727176E+04  7.966882E+05  1.081303E+05 -3.656093E+03 -7.967590E+03 -1.231562E+04
       169   9  1.115799E+05  7.737157E+05  1.193744E+05  9.644259E+03 -2.472855E+03 -2.284081E+04
       169  10 -9.963538E+04  2.855973E+04 -8.384306E+04  1.355717E+04 -1.416786E-10  9.260579E-10
       169  11 -9.823950E+04  5.176620E+04 -7.476796E+04  2.972736E+02  1.717608E-09  1.689132E-10
       169  12 -6.018615E+04  8.569420E+04 -5.153724E+04  2.159260E+04  7.554584E-10 -3.531937E-10
       169  13  2.519715E+02  4.296575E+05  1.465785E+04  1.557594E+04  5.129675E-10 -4.629790E-12
       169  14 -5.478782E+03  4.241640E+05  1.668606E+04 -1.678888E+03  9.379154E-10 -4.912607E-11
       169  15  2.570116E+04  4.296510E+05  3.392248E+04  1.562004E+04  4.508521E-10  1.967966E-11
       169  16  1.001274E+05  8.309016E+05  1.131469E+05  1.759611E+04 -6.907006E-10 -8.902487E-10
       169  17  8.727165E+04  7.966880E+05  1.081299E+05 -3.656172E+03  1.295034E-09 -1.757983E-10
       169  18  1.115797E+05  7.737152E+05  1.193734E+05  9.644214E+03  9.562240E-10  2.522799E-10
       169  19 -9.963530E+04  2.855976E+04 -8.384290E+04  1.355719E+04  8.591456E+03  2.925498E+03
       169  20 -9.823940E+04  5.176633E+04 -7.476763E+04  2.973404E+02  7.972155E+03  1.040877E+04
       169  21 -6.018606E+04  8.569454E+04 -5.153663E+04  2.159264E+04  2.481677E+03  1.788477E+04
       169  22  2.520523E+02  4.296575E+05  1.465800E+04  1.557596E+04  8.592481E+03  2.354107E+03
       169  23 -5.478679E+03  4.241642E+05  1.668642E+04 -1.678815E+03  7.969875E+03  1.136191E+04
       169  24  2.570128E+04  4.296514E+05  3.392327E+04  1.562008E+04  2.477289E+03  2.036211E+04
       169  25  1.001275E+05  8.309016E+05  1.131471E+05  1.759612E+04  8.593501E+03  1.782348E+03
       169  26  8.727176E+04  7.966882E+05  1.081303E+05 -3.656093E+03  7.967590E+03  1.231562E+04
       169  27  1.115799E+05  7.737157E+05  1.193744E+05  9.644259E+03  2.472855E+03  2.284081E+04
       170   1 -2.752227E+06 -9.252373E+05 -6.528519E+05 -9.102813E+05 -3.010421E+05 -1.088062E+05
       170   2 -2.668187E+06 -4.949595E+05 -3.746729E+05 -9.902327E+05 -1.964336E+05 -5.712618E+04
       170   3 -2.764825E+06 -5.214089E+05 -3.017191E+05 -9.551258E+05 -8.745561E+04 -1.691961E+04
       170   4 -2.121136E+06 -6.192400E+05 -4.660067E+05 -6.705893E+05 -2.965869E+05 -1.071487E+05
       170   5 -2.007086E+06 -2.261952E+05 -1.914289E+05 -7.908929E+05 -1.952198E+05 -5.667282E+04
       170   6 -2.072891E+06 -2.889487E+05 -1.193342E+05 -7.961942E+05 -8.947997E+04 -1.768336E+04
       170   7 -1.489650E+06 -3.131408E+05 -2.792016E+05 -4.306522E+05 -2.921266E+05 -1.054880E+05
       170   8 -1.345563E+06  4.261283E+04 -8.225802E+03 -5.913549E+05 -1.940044E+05 -5.621879E+04
       170   9 -1.380494E+06 -5.648361E+04  6.301096E+04 -6.371135E+05 -9.150677E+04 -1.844779E+04
       170  10 -2.752328E+06 -9.252745E+05 -6.530454E+05 -9.103078E+05  5.495326E-10 -2.178681E-10
       170  11 -2.668229E+06 -4.949735E+05 -3.747519E+05 -9.902417E+05 -1.128039E-10 -7.485345E-10
       170  12 -2.764833E+06 -5.214113E+05 -3.017341E+05 -9.551270E+05 -1.508550E-10 -4.531652E-10
       170  13 -2.121234E+06 -6.192761E+05 -4.661943E+05 -6.706150E+05  1.635816E-09 -4.169856E-10
       170  14 -2.007128E+06 -2.262090E+05 -1.915068E+05 -7.909019E+05 -1.025818E-09 -7.182332E-10
       170  15 -2.072899E+06 -2.889512E+05 -1.193499E+05 -7.961955E+05  2.215651E-09  1.877191E-11
       170  16 -1.489745E+06 -3.131757E+05 -2.793834E+05 -4.306771E+05 -1.602326E-09 -5.133884E-10
       170  17 -1.345604E+06  4.259929E+04 -8.302670E+03 -5.913637E+05  4.144201E-10 -7.021165E-10
       170  18 -1.380503E+06 -5.648623E+04  6.299454E+04 -6.371149E+05 -5.310711E-11 -2.924529E-10
       170  19 -2.752227E+06 -9.252373E+05 -6.528519E+05 -9.102813E+05  3.010421E+05  1.088062E+05
       170  20 -2.668187E+06 -4.949595E+05 -3.746729E+05 -9.902327E+05  1.964336E+05  5.712618E+04
       170  21 -2.764825E+06 -5.214089E+05 -3.017191E+05 -9.551258E+05  8.745561E+04  1.691961E+04
       170  22 -2.121136E+06 -6.192400E+05 -4.660067E+05 -6.705893E+05  2.965869E+05  1.071487E+05
       170  23 -2.007086E+06 -2.261952E+05 -1.914289E+05 -7.908929E+05  1.952198E+05  5.667282E+04
       170  24 -2.072891E+06 -2.889487E+05 -1.193342E+05 -7.961942E+05  8.947997E+04  1.768336E+04
       170  25 -1.489650E+06 -3.131408E+05 -2.792016E+05 -4.306522E+05  2.921266E+05  1.054880E+05
       170  26 -1.345563E+06  4.261283E+04 -8.225802E+03 -5.913549E+05  1.940044E+05  5.621879E+04
       170  27 -1.380494E+06 -5.648361E+04  6.301096E+04 -6.371135E+05  9.150677E+04  1.844779E+04
       171   1 -2.686494E+06 -5.927939E+05 -2.717964E+05 -9.510479E+05 -7.151861E+04 -1.303046E+04
       171   2 -2.666035E+06 -5.194894E+05 -2.138493E+05 -9.478091E+05 -4.752472E+04 -3.065711E+03
       171   3 -2.653972E+06 -5.246004E+05 -1.906478E+05 -9.473932E+05 -2.287561E+04  5.166487E+03
       171   4 -2.054998E+06 -3.445900E+05 -9.798392E+04 -7.693828E+05 -7.109311E+04 -1.287150E+04
       171   5 -2.047605E+06 -2.829425E+05 -4.515364E+04 -7.764741E+05 -4.757985E+04 -3.087778E+03
       171   6 -2.048488E+06 -2.995752E+05 -2.665912E+04 -7.863938E+05 -2.341222E+04  4.963379E+03
       171   7 -1.423119E+06 -9.635506E+04  7.579145E+04 -5.875480E+05 -7.066711E+04 -1.271234E+04
       171   8 -1.428807E+06 -4.637111E+04  1.235073E+05 -6.049843E+05 -4.763503E+04 -3.109860E+03
       171   9 -1.442649E+06 -7.453146E+04  1.372971E+05 -6.252538E+05 -2.394940E+04  4.760065E+03
       171  10 -2.686499E+06 -5.927955E+05 -2.718063E+05 -9.510486E+05  1.940464E-10  6.514389E-10
       171  11 -2.666037E+06 -5.194900E+05 -2.138536E+05 -9.478092E+05  8.490540E-10  3.503824E-10
       171  12 -2.653973E+06 -5.246006E+05 -1.906489E+05 -9.473931E+05  1.966391E-10  1.243623E-10
       171  13 -2.055003E+06 -3.445916E+05 -9.799377E+04 -7.693835E+05 -1.594601E-09  1.582408E-10
       171  14 -2.047607E+06 -2.829431E+05 -4.515793E+04 -7.764742E+05  9.269220E-10 -3.672440E-10
       171  15 -2.048488E+06 -2.995753E+05 -2.666020E+04 -7.863937E+05 -1.828639E-09  6.115120E-10
       171  16 -1.423124E+06 -9.635658E+04  7.578174E+04 -5.875487E+05 -2.785806E-10  4.171337E-10
       171  17 -1.428809E+06 -4.637173E+04  1.235030E+05 -6.049844E+05  1.583785E-09 -4.985266E-12
       171  18 -1.442650E+06 -7.453164E+04  1.372960E+05 -6.252537E+05  9.389583E-10  6.950886E-10
       171  19 -2.686494E+06 -5.927939E+05 -2.717964E+05 -9.510479E+05  7.151861E+04  1.303046E+04
       171  20 -2.666035E+06 -5.194894E+05 -2.138493E+05 -9.478091E+05  4.752472E+04  3.065711E+03
       171  21 -2.653972E+06 -5.246004E+05 -1.906478E+05 -9.473932E+05  2.287561E+04 -5.166487E+03
       171  22 -2.054998E+06 -3.445900E+05 -9.798392E+04 -7.693828E+05  7.109311E+04  1.287150E+04
       171  23 -2.047605E+06 -2.829425E+05 -4.515364E+04 -7.764741E+05  4.757985E+04  3.087778E+03
       171  24 -2.048488E+06 -2.995752E+05 -2.665912E+04 -7.863938E+05  2.341222E+04 -4.963379E+03
       171  25 -1.423119E+06 -9.635506E+04  7.579145E+04 -5.875480E+05  7.066711E+04  1.271234E+04
       171  26 -1.428807E+06 -4.637111E+04  1.235073E+05 -6.049843E+05  4.763503E+04  3.109860E+03
       171  27 -1.442649E+06 -7.453146E+04  1.372971E+05 -6.252538E+05  2.394940E+04 -4.760065E+03
       172   1 -2.577113E+06 -5.119342E+05 -1.663627E+05 -9.315994E+05 -1.903911E+04  5.758379E+03
       172   2 -2.560281E+06 -4.790231E+05 -1.478112E+05 -9.092896E+05 -1.316041E+04  7.028227E+03
       172   3 -2.518820E+06 -4.819867E+05 -1.354882E+05 -9.161241E+05 -7.107743E+03  7.830278E+03
       172   4 -2.043869E+06 -3.091507E+05 -2.116557E+04 -7.850536E+05 -1.922108E+04  5.689029E+03
       172   5 -2.055755E+06 -2.881378E+05 -1.058614E+04 -7.716440E+05 -1.347385E+04  6.909696E+03
       172   6 -2.042984E+06 -3.029669E+05 -6.126203E+03 -7.873777E+05 -7.553009E+03  7.662622E+03
       172   7 -1.510351E+06 -1.063497E+05  1.240058E+05 -6.383938E+05 -1.940322E+04  5.619616E+03
       172   8 -1.550984E+06 -9.723784E+04  1.266159E+05 -6.338976E+05 -1.378757E+04  6.791060E+03
       172   9 -1.566930E+06 -1.239348E+05  1.232152E+05 -6.585426E+05 -7.998651E+03  7.494827E+03
       172  10 -2.577113E+06 -5.119344E+05 -1.663634E+05 -9.315994E+05 -2.095620E-10 -5.886707E-10
       172  11 -2.560281E+06 -4.790232E+05 -1.478117E+05 -9.092895E+05  1.262178E-09  1.535318E-10
       172  12 -2.518820E+06 -4.819868E+05 -1.354884E+05 -9.161240E+05 -1.002560E-10  1.614474E-10
       172  13 -2.043869E+06 -3.091508E+05 -2.116632E+04 -7.850535E+05  4.154335E-10  4.398349E-10
       172  14 -2.055755E+06 -2.881379E+05 -1.058657E+04 -7.716440E+05  9.969505E-10  4.045358E-10
       172  15 -2.042984E+06 -3.029670E+05 -6.126420E+03 -7.873776E+05  4.089634E-10  3.969523E-10
       172  16 -1.510352E+06 -1.063498E+05  1.240051E+05 -6.383937E+05  1.058519E-09  8.173592E-10
       172  17 -1.550984E+06 -9.723794E+04  1.266154E+05 -6.338975E+05  2.551820E-09 -3.290289E-10
       172  18 -1.566931E+06 -1.239349E+05  1.232150E+05 -6.585426E+05  1.622592E-09  1.072002E-09
       172  19 -2.577113E+06 -5.119342E+05 -1.663627E+05 -9.315994E+05  1.903911E+04 -5.758379E+03
       172  20 -2.560281E+06 -4.790231E+05 -1.478112E+05 -9.092896E+05  1.316041E+04 -7.028227E+03
       172  21 -2.518820E+06 -4.819867E+05 -1.354882E+05 -9.161241E+05  7.107743E+03 -7.830278E+03
       172  22 -2.043869E+06 -3.091507E+05 -2.116557E+04 -7.850536E+05  1.922108E+04 -5.689029E+03
       172  23 -2.055755E+06 -2.881378E+05 -1.058614E+04 -7.716440E+05  1.347385E+04 -6.909696E+03
       172  24 -2.042984E+06 -3.029669E+05 -6.126203E+03 -7.873777E+05  7.553009E+03 -7.662622E+03
       172  25 -1.510351E+06 -1.063497E+05  1.240058E+05 -6.383938E+05  1.940322E+04 -5.619616E+03
       172  26 -1.550984E+06 -9.723784E+04  1.266159E+05 -6.338976E+05  1.378757E+04 -6.791060E+03
       172  27 -1.566930E+06 -1.239348E+05  1.232152E+05 -6.585426E+05  7.998651E+03 -7.494827E+03
       173   1 -2.418167E+06 -4.481979E+05 -1.073016E+05 -8.915599E+05 -5.986499E+03  7.322302E+03
       173   2 -2.397754E+06 -4.147983E+05 -9.502020E+04 -8.609055E+05 -3.970793E+03  6.538740E+03
       173   3 -2.341941E+06 -4.182824E+05 -8.411354E+04 -8.707471E+05 -1.874574E+03  5.535278E+03
       173   4 -2.040934E+06 -3.057794E+05 -4.879823E+03 -7.889174E+05 -6.348806E+03  7.186048E+03
       173   5 -2.058580E+06 -2.869275E+05 -2.864765E+03 -7.688264E+05 -4.396192E+03  6.379111E+03
       173   6 -2.040817E+06 -3.049450E+05 -2.173814E+03 -7.892305E+05 -2.363192E+03  5.352299E+03
       173   7 -1.663563E+06 -1.633525E+05  9.752938E+04 -6.862185E+05 -6.711357E+03  7.049703E+03
       173   8 -1.719295E+06 -1.590500E+05  8.928040E+04 -6.767019E+05 -4.821847E+03  6.219387E+03
       173   9 -1.739606E+06 -1.916026E+05  7.975774E+04 -7.076784E+05 -2.852072E+03  5.169222E+03
       173  10 -2.418167E+06 -4.481980E+05 -1.073018E+05 -8.915598E+05 -1.673469E-10  8.393895E-10
       173  11 -2.397754E+06 -4.147984E+05 -9.502031E+04 -8.609055E+05  1.623798E-09  1.453760E-10
       173  12 -2.341941E+06 -4.182824E+05 -8.411361E+04 -8.707471E+05  4.816091E-10  2.938811E-11
       173  13 -2.040934E+06 -3.057795E+05 -4.879996E+03 -7.889174E+05 -2.177645E-10  5.476425E-10
       173  14 -2.058580E+06 -2.869275E+05 -2.864877E+03 -7.688264E+05 -9.037087E-10 -9.365772E-10
       173  15 -2.040817E+06 -3.049450E+05 -2.173878E+03 -7.892305E+05  8.241627E-10 -4.279126E-10
       173  16 -1.663563E+06 -1.633525E+05  9.752920E+04 -6.862184E+05  7.679556E-10  2.473156E-10
       173  17 -1.719295E+06 -1.590501E+05  8.928029E+04 -6.767019E+05  2.096954E-10 -6.519572E-10
       173  18 -1.739606E+06 -1.916026E+05  7.975768E+04 -7.076783E+05 -9.802653E-10 -4.662695E-10
       173  19 -2.418167E+06 -4.481979E+05 -1.073016E+05 -8.915599E+05  5.986499E+03 -7.322302E+03
       173  20 -2.397754E+06 -4.147983E+05 -9.502020E+04 -8.609055E+05  3.970793E+03 -6.538740E+03
       173  21 -2.341941E+06 -4.182824E+05 -8.411354E+04 -8.707471E+05  1.874574E+03 -5.535278E+03
       173  22 -2.040934E+06 -3.057794E+05 -4.879823E+03 -7.889174E+05  6.348806E+03 -7.186048E+03
       173  23 -2.058580E+06 -2.869275E+05 -2.864765E+03 -7.688264E+05  4.396192E+03 -6.379111E+03
       173  24 -2.040817E+06 -3.049450E+05 -2.173814E+03 -7.892305E+05  2.363192E+03 -5.352299E+03
       173  25 -1.663563E+06 -1.633525E+05  9.752938E+04 -6.862185E+05  6.711357E+03 -7.049703E+03
       173  26 -1.719295E+06 -1.590500E+05  8.928040E+04 -6.767019E+05  4.821847E+03 -6.219387E+03
       173  27 -1.739606E+06 -1.916026E+05  7.975774E+04 -7.076784E+05  2.852072E+03 -5.169222E+03
       174   1 -2.222866E+06 -3.750047E+05 -5.171233E+04 -8.401025E+05 -1.191293E+03  4.702167E+03
       174   2 -2.199629E+06 -3.382664E+05 -4.051034E+04 -8.051856E+05  7.147133E+02  3.571413E+03
       174   3 -2.136692E+06 -3.428785E+05 -3.056912E+04 -8.162890E+05  2.646155E+03  2.370373E+03
       174   4 -2.039859E+06 -3.060443E+05 -2.148905E+03 -7.904108E+05 -1.652087E+03  4.529787E+03
       174   5 -2.059747E+06 -2.856279E+05 -2.526546E+03 -7.673053E+05  2.337655E+02  3.391629E+03
       174   6 -2.039934E+06 -3.065574E+05 -4.148678E+03 -7.902204E+05  2.144951E+03  2.183162E+03
       174   7 -1.856821E+06 -2.370821E+05  4.741144E+04 -7.407059E+05 -2.113031E+03  4.357352E+03
       174   8 -1.919846E+06 -2.329883E+05  3.545549E+04 -7.294173E+05 -2.473019E+02  3.211801E+03
       174   9 -1.943166E+06 -2.702358E+05  2.227096E+04 -7.641481E+05  1.643660E+03  1.995918E+03
       174  10 -2.222866E+06 -3.750047E+05 -5.171237E+04 -8.401025E+05  1.392060E-10 -4.303731E-10
       174  11 -2.199629E+06 -3.382664E+05 -4.051037E+04 -8.051856E+05 -9.741072E-10 -4.700328E-10
       174  12 -2.136692E+06 -3.428785E+05 -3.056914E+04 -8.162890E+05 -3.245941E-11 -1.423258E-10
       174  13 -2.039859E+06 -3.060443E+05 -2.148948E+03 -7.904108E+05  4.865814E-10  1.157554E-11
       174  14 -2.059747E+06 -2.856279E+05 -2.526568E+03 -7.673053E+05 -1.095218E-09 -7.023067E-10
       174  15 -2.039934E+06 -3.065574E+05 -4.148696E+03 -7.902204E+05  6.920574E-10 -1.740340E-11
       174  16 -1.856821E+06 -2.370821E+05  4.741139E+04 -7.407059E+05 -1.172624E-09 -2.410737E-10
       174  17 -1.919846E+06 -2.329883E+05  3.545547E+04 -7.294173E+05 -3.874596E-10 -4.838080E-10
       174  18 -1.943166E+06 -2.702358E+05  2.227094E+04 -7.641481E+05  2.345437E-10 -8.733251E-11
       174  19 -2.222866E+06 -3.750047E+05 -5.171233E+04 -8.401025E+05  1.191293E+03 -4.702167E+03
       174  20 -2.199629E+06 -3.382664E+05 -4.051034E+04 -8.051856E+05 -7.147133E+02 -3.571413E+03
       174  21 -2.136692E+06 -3.428785E+05 -3.056912E+04 -8.162890E+05 -2.646155E+03 -2.370373E+03
       174  22 -2.039859E+06 -3.060443E+05 -2.148905E+03 -7.904108E+05  1.652087E+03 -4.529787E+03
       174  23 -2.059747E+06 -2.856279E+05 -2.526546E+03 -7.673053E+05 -2.337655E+02 -3.391629E+03
       174  24 -2.039934E+06 -3.065574E+05 -4.148678E+03 -7.902204E+05 -2.144951E+03 -2.183162E+03
       174  25 -1.856821E+06 -2.370821E+05  4.741144E+04 -7.407059E+05  2.113031E+03 -4.357352E+03
       174  26 -1.919846E+06 -2.329883E+05  3.545549E+04 -7.294173E+05  2.473019E+02 -3.211801E+03
       174  27 -1.943166E+06 -2.702358E+05  2.227096E+04 -7.641481E+05 -1.643660E+03 -1.995918E+03
       175   1 -2.010192E+06 -2.951557E+05  2.991034E+03 -7.832658E+05  3.827042E+03  1.631693E+03
       175   2 -1.985961E+06 -2.567577E+05  1.116250E+04 -7.471876E+05  8.942424E+03  1.587858E+03
       175   3 -1.924096E+06 -2.662548E+05  1.408438E+04 -7.564500E+05  1.399474E+04  1.714926E+03
       175   4 -2.040102E+06 -3.059437E+05 -5.202455E+03 -7.908417E+05  3.302255E+03  1.435707E+03
       175   5 -2.059272E+06 -2.845216E+05 -8.773638E+03 -7.672272E+05  8.466828E+03  1.410162E+03
       175   6 -2.040818E+06 -3.110053E+05 -1.763393E+04 -7.889544E+05  1.356798E+04  1.555395E+03
       175   7 -2.070012E+06 -3.167317E+05 -1.339602E+04 -7.984172E+05  2.777497E+03  1.239731E+03
       175   8 -2.132577E+06 -3.122851E+05 -2.871025E+04 -7.872646E+05  7.991294E+03  1.232489E+03
       175   9 -2.157527E+06 -3.557548E+05 -4.935341E+04 -8.214531E+05  1.314131E+04  1.395899E+03
       175  10 -2.010192E+06 -2.951557E+05  2.991002E+03 -7.832658E+05  1.018764E-09  6.885266E-10
       175  11 -1.985961E+06 -2.567577E+05  1.116235E+04 -7.471876E+05 -1.086089E-10  1.536246E-10
       175  12 -1.924096E+06 -2.662548E+05  1.408400E+04 -7.564500E+05  1.179313E-09  1.063670E-10
       175  13 -2.040102E+06 -3.059437E+05 -5.202479E+03 -7.908417E+05  7.391133E-10 -1.248109E-10
       175  14 -2.059272E+06 -2.845216E+05 -8.773777E+03 -7.672272E+05  3.628278E-10 -2.835450E-10
       175  15 -2.040818E+06 -3.110053E+05 -1.763428E+04 -7.889544E+05 -9.990086E-11 -3.886380E-10
       175  16 -2.070012E+06 -3.167317E+05 -1.339604E+04 -7.984172E+05  3.764840E-10  1.566040E-12
       175  17 -2.132577E+06 -3.122851E+05 -2.871037E+04 -7.872646E+05  3.104742E-10  9.928676E-11
       175  18 -2.157527E+06 -3.557549E+05 -4.935374E+04 -8.214531E+05  4.982929E-10 -6.491466E-11
       175  19 -2.010192E+06 -2.951557E+05  2.991034E+03 -7.832658E+05 -3.827042E+03 -1.631693E+03
       175  20 -1.985961E+06 -2.567577E+05  1.116250E+04 -7.471876E+05 -8.942424E+03 -1.587858E+03
       175  21 -1.924096E+06 -2.662548E+05  1.408438E+04 -7.564500E+05 -1.399474E+04 -1.714926E+03
       175  22 -2.040102E+06 -3.059437E+05 -5.202455E+03 -7.908417E+05 -3.302255E+03 -1.435707E+03
       175  23 -2.059272E+06 -2.845216E+05 -8.773638E+03 -7.672272E+05 -8.466828E+03 -1.410162E+03
       175  24 -2.040818E+06 -3.110053E+05 -1.763393E+04 -7.889544E+05 -1.356798E+04 -1.555395E+03
       175  25 -2.070012E+06 -3.167317E+05 -1.339602E+04 -7.984172E+05 -2.777497E+03 -1.239731E+03
       175  26 -2.132577E+06 -3.122851E+05 -2.871025E+04 -7.872646E+05 -7.991294E+03 -1.232489E+03
       175  27 -2.157527E+06 -3.557548E+05 -4.935341E+04 -8.214531E+05 -1.314131E+04 -1.395899E+03
       176   1 -1.801595E+06 -2.167408E+05  4.293091E+04 -7.295519E+05  1.793857E+04  1.891863E+03
       176   2 -1.775778E+06 -1.721206E+05  3.841275E+04 -6.922143E+05  3.801576E+04  7.473991E+03
       176   3 -1.734025E+06 -2.163284E+05  5.430899E+03 -6.849177E+05  5.763846E+04  1.427897E+04
       176   4 -2.043446E+06 -3.043093E+05 -2.220374E+04 -7.914721E+05  1.726369E+04  1.639583E+03
       176   5 -2.054030E+06 -2.786106E+05 -3.745283E+04 -7.694378E+05  3.768826E+04  7.351108E+03
       176   6 -2.048758E+06 -3.418259E+05 -8.145237E+04 -7.774453E+05  5.765699E+04  1.428487E+04
       176   7 -2.285241E+06 -3.918759E+05 -8.734366E+04 -8.533711E+05  1.658910E+04  1.387401E+03
       176   8 -2.332208E+06 -3.850956E+05 -1.133255E+05 -8.466299E+05  3.736093E+04  7.228286E+03
       176   9 -2.363396E+06 -4.673147E+05 -1.683448E+05 -8.699294E+05  5.767550E+04  1.429076E+04
       176  10 -1.801595E+06 -2.167409E+05  4.293030E+04 -7.295519E+05  1.335054E-09  4.982040E-10
       176  11 -1.775780E+06 -1.721211E+05  3.840992E+04 -6.922145E+05  2.961455E-10  2.727024E-12
       176  12 -1.734029E+06 -2.163295E+05  5.424252E+03 -6.849183E+05 -1.531020E-10  3.692142E-10
       176  13 -2.043446E+06 -3.043094E+05 -2.220430E+04 -7.914721E+05  1.878843E-09 -5.564205E-11
       176  14 -2.054032E+06 -2.786110E+05 -3.745561E+04 -7.694380E+05 -7.630559E-10 -6.197697E-11
       176  15 -2.048762E+06 -3.418271E+05 -8.145902E+04 -7.774460E+05  4.157673E-10  6.290256E-10
       176  16 -2.285241E+06 -3.918759E+05 -8.734418E+04 -8.533712E+05  3.174997E-11 -5.498264E-10
       176  17 -2.332209E+06 -3.850960E+05 -1.133282E+05 -8.466301E+05 -3.283763E-10  4.235658E-10
       176  18 -2.363400E+06 -4.673158E+05 -1.683515E+05 -8.699301E+05  7.461339E-11  6.820334E-10
       176  19 -1.801595E+06 -2.167408E+05  4.293091E+04 -7.295519E+05 -1.793857E+04 -1.891863E+03
       176  20 -1.775778E+06 -1.721206E+05  3.841275E+04 -6.922143E+05 -3.801576E+04 -7.473991E+03
       176  21 -1.734025E+06 -2.163284E+05  5.430899E+03 -6.849177E+05 -5.763846E+04 -1.427897E+04
       176  22 -2.043446E+06 -3.043093E+05 -2.220374E+04 -7.914721E+05 -1.726369E+04 -1.639583E+03
       176  23 -2.054030E+06 -2.786106E+05 -3.745283E+04 -7.694378E+05 -3.768826E+04 -7.351108E+03
       176  24 -2.048758E+06 -3.418259E+05 -8.145237E+04 -7.774453E+05 -5.765699E+04 -1.428487E+04
       176  25 -2.285241E+06 -3.918759E+05 -8.734366E+04 -8.533711E+05 -1.658910E+04 -1.387401E+03
       176  26 -2.332208E+06 -3.850956E+05 -1.133255E+05 -8.466299E+05 -3.736093E+04 -7.228286E+03
       176  27 -2.363396E+06 -4.673147E+05 -1.683448E+05 -8.699294E+05 -5.767550E+04 -1.429076E+04
       177   1 -1.619415E+06 -1.539647E+05  1.642389E+04 -7.056662E+05  7.506580E+04  1.837199E+04
       177   2 -1.574175E+06 -4.755865E+04 -3.490887E+04 -6.440754E+05  1.608845E+05  4.839695E+04
       177   3 -1.650545E+06 -3.472123E+05 -2.525216E+05 -5.191116E+05  2.433544E+05  8.735771E+04
       177   4 -2.062993E+06 -2.961318E+05 -9.916835E+04 -8.003314E+05  7.317615E+04  1.766692E+04
       177   5 -2.021490E+06 -2.304715E+05 -1.589996E+05 -7.803295E+05  1.615359E+05  4.863638E+04
       177   6 -2.102215E+06 -5.715533E+05 -3.872261E+05 -6.969272E+05  2.465450E+05  8.853089E+04
       177   7 -2.506380E+06 -4.382994E+05 -2.147762E+05 -8.949414E+05  7.128798E+04  1.696220E+04
       177   8 -2.468612E+06 -4.133631E+05 -2.831090E+05 -9.164913E+05  1.621867E+05  4.887555E+04
       177   9 -2.553680E+06 -7.958347E+05 -5.219509E+05 -8.746112E+05  2.497329E+05  8.970238E+04
       177  10 -1.619421E+06 -1.539666E+05  1.641263E+04 -7.056673E+05  3.455252E-10  9.632805E-10
       177  11 -1.574203E+06 -4.756815E+04 -3.496207E+04 -6.440817E+05 -2.023929E-10  1.748612E-10
       177  12 -1.650611E+06 -3.472365E+05 -2.526476E+05 -5.191288E+05 -2.323518E-10 -6.449364E-11
       177  13 -2.062999E+06 -2.961335E+05 -9.917904E+04 -8.003324E+05 -5.500659E-10  2.642754E-10
       177  14 -2.021519E+06 -2.304811E+05 -1.590533E+05 -7.803358E+05 -6.293658E-10  1.707013E-10
       177  15 -2.102282E+06 -5.715781E+05 -3.873555E+05 -6.969448E+05  2.264182E-09 -8.565566E-11
       177  16 -2.506386E+06 -4.383010E+05 -2.147864E+05 -8.949423E+05  4.977323E-10 -3.483529E-10
       177  17 -2.468640E+06 -4.133727E+05 -2.831632E+05 -9.164978E+05  6.339071E-10 -2.233353E-10
       177  18 -2.553750E+06 -7.958603E+05 -5.220839E+05 -8.746293E+05  5.715377E-10 -2.047098E-13
       177  19 -1.619415E+06 -1.539647E+05  1.642389E+04 -7.056662E+05 -7.506580E+04 -1.837199E+04
       177  20 -1.574175E+06 -4.755865E+04 -3.490887E+04 -6.440754E+05 -1.608845E+05 -4.839695E+04
       177  21 -1.650545E+06 -3.472123E+05 -2.525216E+05 -5.191116E+05 -2.433544E+05 -8.735771E+04
       177  22 -2.062993E+06 -2.961318E+05 -9.916835E+04 -8.003314E+05 -7.317615E+04 -1.766692E+04
       177  23 -2.021490E+06 -2.304715E+05 -1.589996E+05 -7.803295E+05 -1.615359E+05 -4.863638E+04
       177  24 -2.102215E+06 -5.715533E+05 -3.872261E+05 -6.969272E+05 -2.465450E+05 -8.853089E+04
       177  25 -2.506380E+06 -4.382994E+05 -2.147762E+05 -8.949414E+05 -7.128798E+04 -1.696220E+04
       177  26 -2.468612E+06 -4.133631E+05 -2.831090E+05 -9.164913E+05 -1.621867E+05 -4.887555E+04
       177  27 -2.553680E+06 -7.958347E+05 -5.219509E+05 -8.746112E+05 -2.497329E+05 -8.970238E+04
       178   1 -1.636666E+06 -3.054490E+05 -2.780854E+05 -3.624896E+04  6.529200E+04  1.146806E+04
       178   2 -1.572856E+06 -3.879584E+05 -3.170850E+05  2.633904E+03  4.726632E+04  3.280176E+04
       178   3 -1.470075E+06 -3.535095E+05 -3.136422E+05 -5.849455E+04  2.935434E+04  2.820845E+04
       178   4 -6.871207E+04  8.628362E+04  1.119891E+05 -4.830524E+04  7.613032E+04  1.151931E+04
       178   5 -8.887658E+04 -1.794212E+04  4.763978E+04  1.910017E+03  4.997590E+04  3.280633E+04
       178   6 -6.873240E+04 -3.940788E+03  3.130608E+04 -4.787008E+04  2.393801E+04  2.819293E+04
       178   7  1.501477E+06  4.778323E+05  5.018799E+05 -6.039479E+04  8.699585E+04  1.157007E+04
       178   8  1.397111E+06  3.519104E+05  4.122025E+05  1.182550E+03  5.269184E+04  3.281089E+04
       178   9  1.334400E+06  3.454820E+05  3.761096E+05 -3.722246E+04  1.850941E+04  2.817724E+04
       178  10 -1.636671E+06 -3.054503E+05 -2.780936E+05 -3.624956E+04  3.148816E-10  3.786411E-10
       178  11 -1.572859E+06 -3.879602E+05 -3.170913E+05  2.632654E+03 -3.474354E-10 -1.773019E-09
       178  12 -1.470076E+06 -3.535105E+05 -3.136453E+05 -5.849522E+04  1.942636E-10  7.195512E-10
       178  13 -6.871833E+04  8.628192E+04  1.119780E+05 -4.830594E+04  3.546294E-12 -1.519424E-09
       178  14 -8.887955E+04 -1.794395E+04  4.763307E+04  1.908696E+03 -1.577056E-09 -3.078616E-10
       178  15 -6.873323E+04 -3.941796E+03  3.130351E+04 -4.787063E+04  2.169467E-10 -3.281998E-10
       178  16  1.501469E+06  4.778301E+05  5.018655E+05 -6.039560E+04 -6.270741E-10  1.897027E-09
       178  17  1.397107E+06  3.519085E+05  4.121953E+05  1.181159E+03 -5.949734E-10 -1.570499E-09
       178  18  1.334399E+06  3.454811E+05  3.761074E+05 -3.722288E+04 -5.370441E-10 -1.128988E-09
       178  19 -1.636666E+06 -3.054490E+05 -2.780854E+05 -3.624896E+04 -6.529200E+04 -1.146806E+04
       178  20 -1.572856E+06 -3.879584E+05 -3.170850E+05  2.633904E+03 -4.726632E+04 -3.280176E+04
       178  21 -1.470075E+06 -3.535095E+05 -3.136422E+05 -5.849455E+04 -2.935434E+04 -2.820845E+04
       178  22 -6.871207E+04  8.628362E+04  1.119891E+05 -4.830524E+04 -7.613032E+04 -1.151931E+04
       178  23 -8.887658E+04 -1.794212E+04  4.763978E+04  1.910017E+03 -4.997590E+04 -3.280633E+04
       178  24 -6.873240E+04 -3.940788E+03  3.130608E+04 -4.787008E+04 -2.393801E+04 -2.819293E+04
       178  25  1.501477E+06  4.778323E+05  5.018799E+05 -6.039479E+04 -8.699585E+04 -1.157007E+04
       178  26  1.397111E+06  3.519104E+05  4.122025E+05  1.182550E+03 -5.269184E+04 -3.281089E+04
       178  27  1.334400E+06  3.454820E+05  3.761096E+05 -3.722246E+04 -1.850941E+04 -2.817724E+04
       179   1 -1.262537E+06 -2.850185E+05 -2.667512E+05 -4.736095E+04  1.838284E+04  2.253193E+04
       179   2 -1.182939E+06 -2.776642E+05 -2.591393E+05  2.411047E+03  1.290348E+04  2.240961E+04
       179   3 -1.095033E+06 -2.546466E+05 -2.432885E+05 -4.875743E+04  7.417765E+03  1.924382E+04
       179   4 -7.563081E+04  1.102473E+04  2.563767E+04 -4.821754E+04  1.884547E+04  2.252979E+04
       179   5 -7.986721E+04 -2.598033E+03  1.228475E+04  2.254713E+03  1.240720E+04  2.240684E+04
       179   6 -7.564133E+04 -4.035823E+02  7.826853E+03 -4.820225E+04  5.963290E+03  1.924281E+04
       179   7  1.112558E+06  3.069630E+05  3.179224E+05 -4.907620E+04  1.930897E+04  2.252765E+04
       179   8  1.024313E+06  2.723776E+05  2.836191E+05  2.097980E+03  1.191002E+04  2.240407E+04
       179   9  9.446965E+05  2.537620E+05  2.588654E+05 -4.764596E+04  4.506421E+03  1.924179E+04
       179  10 -1.262537E+06 -2.850192E+05 -2.667527E+05 -4.736128E+04 -5.863389E-10  5.628261E-10
       179  11 -1.182940E+06 -2.776648E+05 -2.591406E+05  2.410813E+03  3.185997E-10 -4.152664E-10
       179  12 -1.095033E+06 -2.546470E+05 -2.432893E+05 -4.875754E+04 -7.643772E-10  5.032164E-11
       179  13 -7.563133E+04  1.102409E+04  2.563605E+04 -4.821788E+04 -1.068355E-09 -5.393232E-10
       179  14 -7.986751E+04 -2.598613E+03  1.228352E+04  2.254489E+03  4.428364E-10  1.674109E-10
       179  15 -7.564147E+04 -4.039895E+02  7.826090E+03 -4.820234E+04  6.895407E-10  3.306657E-10
       179  16  1.112558E+06  3.069624E+05  3.179208E+05 -4.907655E+04  1.081140E-10 -1.126256E-10
       179  17  1.024313E+06  2.723770E+05  2.836179E+05  2.097766E+03 -7.521053E-10  1.769922E-10
       179  18  9.446964E+05  2.537616E+05  2.588647E+05 -4.764603E+04 -6.298852E-10  5.849776E-10
       179  19 -1.262537E+06 -2.850185E+05 -2.667512E+05 -4.736095E+04 -1.838284E+04 -2.253193E+04
       179  20 -1.182939E+06 -2.776642E+05 -2.591393E+05  2.411047E+03 -1.290348E+04 -2.240961E+04
       179  21 -1.095033E+06 -2.546466E+05 -2.432885E+05 -4.875743E+04 -7.417765E+03 -1.924382E+04
       179  22 -7.563081E+04  1.102473E+04  2.563767E+04 -4.821754E+04 -1.884547E+04 -2.252979E+04
       179  23 -7.986721E+04 -2.598033E+03  1.228475E+04  2.254713E+03 -1.240720E+04 -2.240684E+04
       179  24 -7.564133E+04 -4.035823E+02  7.826853E+03 -4.820225E+04 -5.963290E+03 -1.924281E+04
       179  25  1.112558E+06  3.069630E+05  3.179224E+05 -4.907620E+04 -1.930897E+04 -2.252765E+04
       179  26  1.024313E+06  2.723776E+05  2.836191E+05  2.097980E+03 -1.191002E+04 -2.240407E+04
       179  27  9.446965E+05  2.537620E+05  2.588654E+05 -4.764596E+04 -4.506421E+03 -1.924179E+04
       180   1 -8.798832E+05 -1.987959E+05 -1.912693E+05 -4.744175E+04  5.451355E+03  1.704848E+04
       180   2 -7.964702E+05 -1.795682E+05 -1.736480E+05  3.472824E+03  3.943424E+03  1.439987E+04
       180   3 -7.112113E+05 -1.579435E+05 -1.542322E+05 -4.724612E+04  2.428347E+03  1.138714E+04
       180   4 -7.698258E+04  1.352550E+03  6.105877E+03 -4.835980E+04  4.686021E+03  1.704799E+04
       180   5 -7.791557E+04 -4.188713E+02  3.158005E+03  2.452712E+03  3.062675E+03  1.440044E+04
       180   6 -7.698910E+04  2.267071E+02  2.083866E+03 -4.836099E+04  1.432387E+03  1.138897E+04
       180   7  7.265053E+05  2.014530E+05  2.034336E+05 -4.927884E+04  3.919694E+03  1.704749E+04
       180   8  6.411093E+05  1.786921E+05  1.799259E+05  1.431632E+03  2.180905E+03  1.440101E+04
       180   9  5.575992E+05  1.583669E+05  1.583702E+05 -4.947675E+04  4.354088E+02  1.139081E+04
       180  10 -8.798833E+05 -1.987962E+05 -1.912699E+05 -4.744183E+04  3.660542E-10  8.932765E-11
       180  11 -7.964703E+05 -1.795685E+05 -1.736484E+05  3.472778E+03  5.258046E-10  3.291820E-11
       180  12 -7.112113E+05 -1.579436E+05 -1.542324E+05 -4.724614E+04 -1.010123E-09 -9.820863E-10
       180  13 -7.698268E+04  1.352232E+03  6.105290E+03 -4.835986E+04  1.048489E-12 -2.947346E-12
       180  14 -7.791563E+04 -4.190965E+02  3.157598E+03  2.452676E+03 -8.152945E-10  7.250625E-10
       180  15 -7.698913E+04  2.265672E+02  2.083618E+03 -4.836100E+04 -2.406470E-09  2.192396E-09
       180  16  7.265052E+05  2.014527E+05  2.034330E+05 -4.927889E+04  1.095614E-09 -1.317440E-10
       180  17  6.411092E+05  1.786919E+05  1.799255E+05  1.431607E+03  1.568472E-09 -1.103609E-09
       180  18  5.575992E+05  1.583668E+05  1.583699E+05 -4.947676E+04 -7.459328E-10 -3.958900E-10
       180  19 -8.798832E+05 -1.987959E+05 -1.912693E+05 -4.744175E+04 -5.451355E+03 -1.704848E+04
       180  20 -7.964702E+05 -1.795682E+05 -1.736480E+05  3.472824E+03 -3.943424E+03 -1.439987E+04
       180  21 -7.112113E+05 -1.579435E+05 -1.542322E+05 -4.724612E+04 -2.428347E+03 -1.138714E+04
       180  22 -7.698258E+04  1.352550E+03  6.105877E+03 -4.835980E+04 -4.686021E+03 -1.704799E+04
       180  23 -7.791557E+04 -4.188713E+02  3.158005E+03  2.452712E+03 -3.062675E+03 -1.440044E+04
       180  24 -7.698910E+04  2.267071E+02  2.083866E+03 -4.836099E+04 -1.432387E+03 -1.138897E+04
       180  25  7.265053E+05  2.014530E+05  2.034336E+05 -4.927884E+04 -3.919694E+03 -1.704749E+04
       180  26  6.411093E+05  1.786921E+05  1.799259E+05  1.431632E+03 -2.180905E+03 -1.440101E+04
       180  27  5.575992E+05  1.583669E+05  1.583702E+05 -4.947675E+04 -4.354088E+02 -1.139081E+04
       181   1 -4.938679E+05 -1.034430E+05 -1.006016E+05 -4.754752E+04  1.999393E+03  9.589032E+03
       181   2 -4.090724E+05 -8.277468E+04 -8.057069E+04  3.339937E+03  1.475965E+03  6.632244E+03
       181   3 -3.244741E+05 -6.126870E+04 -6.009099E+04 -4.779719E+04  9.493368E+02  3.633078E+03
       181   4 -7.737379E+04  3.290635E+02  1.608700E+03 -4.844825E+04  1.083988E+03  9.591261E+03
       181   5 -7.727518E+04 -6.822901E+01  1.054800E+03  2.562440E+03  5.469891E+02  6.634960E+03
       181   6 -7.737676E+04  3.752570E+02  9.597370E+02 -4.844806E+04  6.860431E+00  3.636313E+03
       181   7  3.392784E+05  1.040883E+05  1.038062E+05 -4.934946E+04  1.679706E+02  9.593492E+03
       181   8  2.546222E+05  8.263003E+04  8.267218E+04  1.784605E+03 -3.824825E+02  6.637677E+03
       181   9  1.697761E+05  6.201465E+04  6.200594E+04 -4.909913E+04 -9.359908E+02  3.639549E+03
       181  10 -4.938679E+05 -1.034431E+05 -1.006018E+05 -4.754754E+04 -1.031992E-10  4.619162E-10
       181  11 -4.090724E+05 -8.277473E+04 -8.057077E+04  3.339929E+03 -5.067775E-10  2.739706E-10
       181  12 -3.244741E+05 -6.126871E+04 -6.009102E+04 -4.779720E+04 -1.308420E-10 -1.106272E-09
       181  13 -7.737381E+04  3.289644E+02  1.608525E+03 -4.844826E+04 -1.593482E-11 -1.558504E-09
       181  14 -7.727520E+04 -6.827636E+01  1.054717E+03  2.562437E+03  9.695495E-10  8.141750E-10
       181  15 -7.737677E+04  3.752428E+02  9.597121E+02 -4.844806E+04 -1.513452E-09 -2.537167E-09
       181  16  3.392783E+05  1.040882E+05  1.038061E+05 -4.934946E+04 -3.169601E-10  1.136680E-09
       181  17  2.546222E+05  8.262999E+04  8.267209E+04  1.784607E+03  7.868883E-10 -7.263624E-10
       181  18  1.697761E+05  6.201464E+04  6.200591E+04 -4.909913E+04 -1.438348E-09 -3.940987E-09
       181  19 -4.938679E+05 -1.034430E+05 -1.006016E+05 -4.754752E+04 -1.999393E+03 -9.589032E+03
       181  20 -4.090724E+05 -8.277468E+04 -8.057069E+04  3.339937E+03 -1.475965E+03 -6.632244E+03
       181  21 -3.244741E+05 -6.126870E+04 -6.009099E+04 -4.779719E+04 -9.493368E+02 -3.633078E+03
       181  22 -7.737379E+04  3.290635E+02  1.608700E+03 -4.844825E+04 -1.083988E+03 -9.591261E+03
       181  23 -7.727518E+04 -6.822901E+01  1.054800E+03  2.562440E+03 -5.469891E+02 -6.634960E+03
       181  24 -7.737676E+04  3.752570E+02  9.597370E+02 -4.844806E+04 -6.860431E+00 -3.636313E+03
       181  25  3.392784E+05  1.040883E+05  1.038062E+05 -4.934946E+04 -1.679706E+02 -9.593492E+03
       181  26  2.546222E+05  8.263003E+04  8.267218E+04  1.784605E+03  3.824825E+02 -6.637677E+03
       181  27  1.697761E+05  6.201465E+04  6.200594E+04 -4.909913E+04  9.359908E+02 -3.639549E+03
       182   1 -1.061897E+05 -6.788688E+03 -5.838536E+03 -4.837970E+04  7.639516E+02  1.873664E+03
       182   2 -2.110473E+04  1.391187E+04  1.504632E+04  2.444654E+03  1.158493E+02 -1.124106E+03
       182   3  6.343402E+04  3.558595E+04  3.641197E+04 -4.885869E+04 -5.317344E+02 -4.091006E+03
       182   4 -7.743654E+04  3.245841E+02  9.694304E+02 -4.847220E+04 -1.767836E+02  1.877052E+03
       182   5 -7.715846E+04 -5.728293E+01  1.260292E+03  2.592285E+03 -8.152761E+02 -1.120842E+03
       182   6 -7.743601E+04  5.329323E+02  2.025479E+03 -4.847147E+04 -1.453163E+03 -4.087842E+03
       182   7 -4.868267E+04  7.437797E+03  7.777342E+03 -4.856471E+04 -1.117562E+03  1.880440E+03
       182   8 -1.332093E+05 -1.402667E+04 -1.252597E+04  2.739906E+03 -1.746318E+03 -1.117579E+03
       182   9 -2.182880E+05 -3.452155E+04 -3.236245E+04 -4.808432E+04 -2.374383E+03 -4.084678E+03
       182  10 -1.061897E+05 -6.788692E+03 -5.838543E+03 -4.837970E+04 -1.078129E-09  1.777230E-09
       182  11 -2.110473E+04  1.391187E+04  1.504632E+04  2.444654E+03  3.116805E-10  5.805708E-09
       182  12  6.343402E+04  3.558593E+04  3.641193E+04 -4.885870E+04  1.235085E-09 -3.575552E-09
       182  13 -7.743654E+04  3.245803E+02  9.694238E+02 -4.847220E+04 -2.057802E-12 -2.776654E-10
       182  14 -7.715847E+04 -5.728446E+01  1.260288E+03  2.592285E+03  9.833756E-10 -8.766484E-10
       182  15 -7.743602E+04  5.329138E+02  2.025444E+03 -4.847148E+04 -4.003364E-10 -1.851249E-10
       182  16 -4.868267E+04  7.437793E+03  7.777333E+03 -4.856471E+04  2.109059E-09 -4.026381E-10
       182  17 -1.332093E+05 -1.402667E+04 -1.252597E+04  2.739904E+03  1.158436E-09 -2.125764E-10
       182  18 -2.182880E+05 -3.452157E+04 -3.236249E+04 -4.808433E+04 -3.320583E-09 -4.224019E-10
       182  19 -1.061897E+05 -6.788688E+03 -5.838536E+03 -4.837970E+04 -7.639516E+02 -1.873664E+03
       182  20 -2.110473E+04  1.391187E+04  1.504632E+04  2.444654E+03 -1.158493E+02  1.124106E+03
       182  21  6.343402E+04  3.558595E+04  3.641197E+04 -4.885869E+04  5.317344E+02  4.091006E+03
       182  22 -7.743654E+04  3.245841E+02  9.694304E+02 -4.847220E+04  1.767836E+02 -1.877052E+03
       182  23 -7.715846E+04 -5.728293E+01  1.260292E+03  2.592285E+03  8.152761E+02  1.120842E+03
       182  24 -7.743601E+04  5.329323E+02  2.025479E+03 -4.847147E+04  1.453163E+03  4.087842E+03
       182  25 -4.868267E+04  7.437797E+03  7.777342E+03 -4.856471E+04  1.117562E+03 -1.880440E+03
       182  26 -1.332093E+05 -1.402667E+04 -1.252597E+04  2.739906E+03  1.746318E+03  1.117579E+03
       182  27 -2.182880E+05 -3.452155E+04 -3.236245E+04 -4.808432E+04  2.374383E+03  4.084678E+03
       183   1  2.820602E+05  8.982026E+04  9.118524E+04 -4.914801E+04 -8.910577E+02 -5.883101E+03
       183   2  3.662720E+05  1.101427E+05  1.133275E+05  1.530028E+03 -3.127067E+03 -8.893965E+03
       183   3  4.514369E+05  1.337091E+05  1.376987E+05 -4.972278E+04 -5.358607E+03 -1.160195E+04
       183   4 -7.714053E+04  2.687955E+02  2.592140E+03 -4.843066E+04 -1.879544E+03 -5.879998E+03
       183   5 -7.760382E+04 -4.482246E+02  4.186604E+03  2.539269E+03 -4.019692E+03 -8.891795E+03
       183   6 -7.713640E+04  2.063605E+03  7.945060E+03 -4.842615E+04 -6.155069E+03 -1.160059E+04
       183   7 -4.362240E+05 -8.929228E+04 -8.601050E+04 -4.771363E+04 -2.867458E+03 -5.876897E+03
       183   8 -5.213004E+05 -1.110538E+05 -1.049688E+05  3.547915E+03 -4.911679E+03 -8.889628E+03
       183   9 -6.054555E+05 -1.296026E+05 -1.218291E+05 -4.713046E+04 -6.950853E+03 -1.159924E+04
       183  10  2.820602E+05  8.982022E+04  9.118517E+04 -4.914801E+04  7.666779E-10 -4.166696E-09
       183  11  3.662719E+05  1.101426E+05  1.133273E+05  1.530006E+03  2.613384E-10  3.976013E-10
       183  12  4.514369E+05  1.337089E+05  1.376984E+05 -4.972283E+04 -4.449013E-10  3.853738E-10
       183  13 -7.714055E+04  2.687574E+02  2.592068E+03 -4.843067E+04  6.808760E-12 -5.791141E-11
       183  14 -7.760386E+04 -4.483139E+02  4.186426E+03  2.539240E+03  3.642249E-10 -8.272983E-10
       183  15 -7.713647E+04  2.063451E+03  7.944736E+03 -4.842621E+04 -1.201087E-09 -1.240605E-09
       183  16 -4.362240E+05 -8.929232E+04 -8.601058E+04 -4.771364E+04 -7.249768E-10 -5.329093E-10
       183  17 -5.213004E+05 -1.110539E+05 -1.049690E+05  3.547880E+03  4.439811E-10  3.462293E-09
       183  18 -6.054556E+05 -1.296027E+05 -1.218294E+05 -4.713053E+04  9.373021E-10  5.705558E-10
       183  19  2.820602E+05  8.982026E+04  9.118524E+04 -4.914801E+04  8.910577E+02  5.883101E+03
       183  20  3.662720E+05  1.101427E+05  1.133275E+05  1.530028E+03  3.127067E+03  8.893965E+03
       183  21  4.514369E+05  1.337091E+05  1.376987E+05 -4.972278E+04  5.358607E+03  1.160195E+04
       183  22 -7.714053E+04  2.687955E+02  2.592140E+03 -4.843066E+04  1.879544E+03  5.879998E+03
       183  23 -7.760382E+04 -4.482246E+02  4.186604E+03  2.539269E+03  4.019692E+03  8.891795E+03
       183  24 -7.713640E+04  2.063605E+03  7.945060E+03 -4.842615E+04  6.155069E+03  1.160059E+04
       183  25 -4.362240E+05 -8.929228E+04 -8.601050E+04 -4.771363E+04  2.867458E+03  5.876897E+03
       183  26 -5.213004E+05 -1.110538E+05 -1.049688E+05  3.547915E+03  4.911679E+03  8.889628E+03
       183  27 -6.054555E+05 -1.296026E+05 -1.218291E+05 -4.713046E+04  6.950853E+03  1.159924E+04
       184   1  6.706167E+05  1.855487E+05  1.938161E+05 -4.805025E+04 -6.416296E+03 -1.372785E+04
       184   2  7.508700E+05  2.036630E+05  2.203708E+05  9.030474E+02 -1.570804E+04 -1.685981E+04
       184   3  8.392853E+05  2.428222E+05  2.585690E+05 -5.156976E+04 -2.499213E+04 -1.744454E+04
       184   4 -7.564844E+04 -3.863818E+02  1.011115E+04 -4.832251E+04 -7.791260E+03 -1.372595E+04
       184   5 -7.965672E+04 -3.200965E+03  1.625439E+04  2.399522E+03 -1.627732E+04 -1.686053E+04
       184   6 -7.564001E+04  1.490459E+04  3.349338E+04 -4.831279E+04 -2.475447E+04 -1.744642E+04
       184   7 -8.214073E+05 -1.863629E+05 -1.736348E+05 -4.859415E+04 -9.164569E+03 -1.372404E+04
       184   8 -9.095561E+05 -2.101162E+05 -1.879128E+05  3.894195E+03 -1.684582E+04 -1.686126E+04
       184   9 -9.898042E+05 -2.130752E+05 -1.916440E+05 -4.506049E+04 -2.451713E+04 -1.744830E+04
       184  10  6.706166E+05  1.855484E+05  1.938156E+05 -4.805032E+04 -2.329933E-09  1.219453E-09
       184  11  7.508696E+05  2.036626E+05  2.203698E+05  9.028343E+02 -3.316513E-09 -6.995888E-10
       184  12  8.392845E+05  2.428217E+05  2.585673E+05 -5.157012E+04  7.216133E-10 -3.410736E-10
       184  13 -7.564855E+04 -3.866004E+02  1.011068E+04 -4.832259E+04 -1.079644E-09  7.485970E-10
       184  14 -7.965708E+04 -3.201342E+03  1.625336E+04  2.399301E+03 -1.419256E-09  2.505448E-09
       184  15 -7.564075E+04  1.490410E+04  3.349166E+04 -4.831314E+04  1.297559E-09  6.049308E-10
       184  16 -8.214074E+05 -1.863631E+05 -1.736354E+05 -4.859425E+04 -2.263977E-10  2.870706E-10
       184  17 -9.095565E+05 -2.101165E+05 -1.879138E+05  3.893966E+03  2.871469E-10  3.142112E-10
       184  18 -9.898050E+05 -2.130757E+05 -1.916457E+05 -4.506084E+04 -6.974407E-11 -2.567096E-10
       184  19  6.706167E+05  1.855487E+05  1.938161E+05 -4.805025E+04  6.416296E+03  1.372785E+04
       184  20  7.508700E+05  2.036630E+05  2.203708E+05  9.030474E+02  1.570804E+04  1.685981E+04
       184  21  8.392853E+05  2.428222E+05  2.585690E+05 -5.156976E+04  2.499213E+04  1.744454E+04
       184  22 -7.564844E+04 -3.863818E+02  1.011115E+04 -4.832251E+04  7.791260E+03  1.372595E+04
       184  23 -7.965672E+04 -3.200965E+03  1.625439E+04  2.399522E+03  1.627732E+04  1.686053E+04
       184  24 -7.564001E+04  1.490459E+04  3.349338E+04 -4.831279E+04  2.475447E+04  1.744642E+04
       184  25 -8.214073E+05 -1.863629E+05 -1.736348E+05 -4.859415E+04  9.164569E+03  1.372404E+04
       184  26 -9.095561E+05 -2.101162E+05 -1.879128E+05  3.894195E+03  1.684582E+04  1.686126E+04
       184  27 -9.898042E+05 -2.130752E+05 -1.916440E+05 -4.506049E+04  2.451713E+04  1.744830E+04
       185   1  1.064242E+06  2.769242E+05  3.188779E+05 -3.706200E+04 -2.667577E+04 -2.247632E+04
       185   2  1.123849E+06  2.792805E+05  3.607429E+05 -3.028357E+03 -6.771645E+04 -2.681337E+04
       185   3  1.232315E+06  4.373216E+05  4.691451E+05 -6.964102E+04 -1.088039E+05 -9.453118E+03
       185   4 -6.695482E+04 -4.792316E+03  4.082052E+04 -4.807519E+04 -3.137760E+04 -2.247870E+04
       185   5 -9.081884E+04 -2.309334E+04  6.270842E+04  2.122447E+03 -6.557877E+04 -2.681470E+04
       185   6 -6.693568E+04  1.132628E+05  1.464749E+05 -4.833552E+04 -9.982067E+04 -9.436884E+03
       185   7 -1.196988E+06 -2.866035E+05 -2.373309E+05 -5.906827E+04 -3.607083E+04 -2.248090E+04
       185   8 -1.304145E+06 -3.255765E+05 -2.354343E+05  7.262743E+03 -6.344516E+04 -2.681600E+04
       185   9 -1.364654E+06 -2.109207E+05 -1.763209E+05 -2.707544E+04 -9.085599E+04 -9.420021E+03
       185  10  1.064241E+06  2.769235E+05  3.188756E+05 -3.706249E+04  1.007993E-09  2.289109E-10
       185  11  1.123844E+06  2.792785E+05  3.607329E+05 -3.029818E+03 -2.179595E-11  8.752528E-10
       185  12  1.232302E+06  4.373183E+05  4.691228E+05 -6.964184E+04  1.467851E-09 -3.226071E-11
       185  13 -6.695602E+04 -4.793123E+03  4.081772E+04 -4.807576E+04 -4.497418E-11  9.212292E-10
       185  14 -9.082365E+04 -2.309526E+04  6.269899E+04  2.121030E+03 -2.389161E-09  3.364113E-09
       185  15 -6.694641E+04  1.132600E+05  1.464560E+05 -4.833628E+04  1.247218E-09  7.205929E-10
       185  16 -1.196989E+06 -2.866044E+05 -2.373343E+05 -5.906893E+04 -3.373191E-10  1.673594E-10
       185  17 -1.304149E+06 -3.255783E+05 -2.354433E+05  7.261372E+03  4.765718E-10  6.591346E-10
       185  18 -1.364663E+06 -2.109231E+05 -1.763366E+05 -2.707613E+04 -3.825806E-10 -5.554171E-10
       185  19  1.064242E+06  2.769242E+05  3.188779E+05 -3.706200E+04  2.667577E+04  2.247632E+04
       185  20  1.123849E+06  2.792805E+05  3.607429E+05 -3.028357E+03  6.771645E+04  2.681337E+04
       185  21  1.232315E+06  4.373216E+05  4.691451E+05 -6.964102E+04  1.088039E+05  9.453118E+03
       185  22 -6.695482E+04 -4.792316E+03  4.082052E+04 -4.807519E+04  3.137760E+04  2.247870E+04
       185  23 -9.081884E+04 -2.309334E+04  6.270842E+04  2.122447E+03  6.557877E+04  2.681470E+04
       185  24 -6.693568E+04  1.132628E+05  1.464749E+05 -4.833552E+04  9.982067E+04  9.436884E+03
       185  25 -1.196988E+06 -2.866035E+05 -2.373309E+05 -5.906827E+04  3.607083E+04  2.248090E+04
       185  26 -1.304145E+06 -3.255765E+05 -2.354343E+05  7.262743E+03  6.344516E+04  2.681600E+04
       185  27 -1.364654E+06 -2.109207E+05 -1.763209E+05 -2.707544E+04  9.085599E+04  9.420021E+03
       186   1  1.907667E+05  4.953056E+05  2.348931E+05 -1.104488E+05  8.216393E+01  1.320749E+05
       186   2 -2.787586E+04  3.336233E+05  9.183428E+04 -6.913849E+03  3.058468E+02  8.239525E+04
       186   3 -3.350294E+04  2.293952E+05  3.389824E+04 -6.277299E+04 -4.118043E+03  3.269854E+04
       186   4  1.539681E+05  3.497650E+05  1.986090E+05 -7.763822E+04  9.314137E+01  1.313587E+05
       186   5 -3.107748E+04  3.211715E+05  8.885640E+04  1.608903E+03  3.027196E+02  8.314028E+04
       186   6 -3.353051E+03  3.497802E+05  6.323004E+04 -7.853246E+04 -4.131495E+03  3.489418E+04
       186   7  1.171719E+05  2.042459E+05  1.623237E+05 -4.483531E+04  1.040451E+02  1.306428E+05
       186   8 -3.427885E+04  3.087200E+05  8.587854E+04  1.013148E+04  2.996128E+02  8.388530E+04
       186   9  2.679668E+04  4.701789E+05  9.256093E+04 -9.429498E+04 -4.145056E+03  3.709023E+04
       186  10  1.907620E+05  4.952869E+05  2.348604E+05 -1.104488E+05  3.970113E-10  2.295326E-10
       186  11 -2.787768E+04  3.336160E+05  9.182153E+04 -6.913870E+03 -2.358514E-09 -2.921667E-09
       186  12 -3.350325E+04  2.293940E+05  3.389620E+04 -6.277288E+04 -1.146142E-09 -3.989939E-09
       186  13  1.539635E+05  3.497465E+05  1.985765E+05 -7.763823E+04  2.511286E-09 -1.490788E-09
       186  14 -3.107934E+04  3.211641E+05  8.884341E+04  1.608882E+03  1.432246E-09 -3.761859E-11
       186  15 -3.353396E+03  3.497789E+05  6.322772E+04 -7.853234E+04 -1.219816E-09 -3.033281E-09
       186  16  1.171673E+05  2.042276E+05  1.622917E+05 -4.483532E+04  1.486520E-09 -1.001395E-09
       186  17 -3.428073E+04  3.087125E+05  8.586533E+04  1.013146E+04  9.476531E-09  5.091816E-09
       186  18  2.679629E+04  4.701774E+05  9.255831E+04 -9.429485E+04 -7.493127E-10  3.319601E-09
       186  19  1.907667E+05  4.953056E+05  2.348931E+05 -1.104488E+05 -8.216393E+01 -1.320749E+05
       186  20 -2.787586E+04  3.336233E+05  9.183428E+04 -6.913849E+03 -3.058468E+02 -8.239525E+04
       186  21 -3.350294E+04  2.293952E+05  3.389824E+04 -6.277299E+04  4.118043E+03 -3.269854E+04
       186  22  1.539681E+05  3.497650E+05  1.986090E+05 -7.763822E+04 -9.314137E+01 -1.313587E+05
       186  23 -3.107748E+04  3.211715E+05  8.885640E+04  1.608903E+03 -3.027196E+02 -8.314028E+04
       186  24 -3.353051E+03  3.497802E+05  6.323004E+04 -7.853246E+04  4.131495E+03 -3.489418E+04
       186  25  1.171719E+05  2.042459E+05  1.623237E+05 -4.483531E+04 -1.040451E+02 -1.306428E+05
       186  26 -3.427885E+04  3.087200E+05  8.587854E+04  1.013148E+04 -2.996128E+02 -8.388530E+04
       186  27  2.679668E+04  4.701789E+05  9.256093E+04 -9.429498E+04  4.145056E+03 -3.709023E+04
       187   1 -9.492625E+04 -1.235022E+05 -5.824864E+04 -8.230386E+04 -7.967245E+03  2.256918E+04
       187   2 -1.566189E+05 -2.648489E+05 -1.066531E+05  4.007399E+03 -1.219785E+04  2.254646E+03
       187   3 -1.655158E+05 -3.912784E+05 -1.288333E+05 -7.076859E+04 -1.429680E+04 -1.803823E+04
       187   4  2.063630E+04  3.403350E+05  5.609134E+04 -7.856580E+04 -7.976225E+03  2.427065E+04
       187   5 -7.681764E+03  3.328364E+05  4.029147E+04  1.954162E+03 -1.220218E+04  3.275792E+03
       187   6  1.688956E+04  3.403438E+05  5.117416E+04 -7.860229E+04 -1.429706E+04 -1.770175E+04
       187   7  1.361829E+05  8.043679E+05  1.704154E+05 -7.482466E+04 -7.985181E+03  2.597339E+04
       187   8  1.412289E+05  9.308468E+05  1.872097E+05 -1.006518E+02 -1.220652E+04  4.297919E+03
       187   9  1.992552E+05  1.072453E+06  2.311422E+05 -8.644466E+04 -1.429733E+04 -1.736487E+04
       187  10 -9.492646E+04 -1.235028E+05 -5.824972E+04 -8.230372E+04 -3.493195E-09 -1.256598E-09
       187  11 -1.566191E+05 -2.648489E+05 -1.066534E+05  4.007421E+03  2.497353E-10 -2.180903E-09
       187  12 -1.655161E+05 -3.912788E+05 -1.288343E+05 -7.076880E+04  9.815780E-10 -2.048613E-09
       187  13  2.063607E+04  3.403343E+05  5.609011E+04 -7.856565E+04 -2.528544E-09 -1.455676E-09
       187  14 -7.681927E+03  3.328364E+05  4.029117E+04  1.954195E+03  1.800299E-10  1.814856E-11
       187  15  1.688926E+04  3.403434E+05  5.117318E+04 -7.860249E+04 -1.507589E-09 -2.314286E-09
       187  16  1.361827E+05  8.043671E+05  1.704141E+05 -7.482450E+04 -2.131654E-09  5.824097E-10
       187  17  1.412287E+05  9.308467E+05  1.872094E+05 -1.006095E+02 -2.048507E-09  4.423950E-09
       187  18  1.992549E+05  1.072453E+06  2.311412E+05 -8.644486E+04 -1.561138E-09  1.666028E-09
       187  19 -9.492625E+04 -1.235022E+05 -5.824864E+04 -8.230386E+04  7.967245E+03 -2.256918E+04
       187  20 -1.566189E+05 -2.648489E+05 -1.066531E+05  4.007399E+03  1.219785E+04 -2.254646E+03
       187  21 -1.655158E+05 -3.912784E+05 -1.288333E+05 -7.076859E+04  1.429680E+04  1.803823E+04
       187  22  2.063630E+04  3.403350E+05  5.609134E+04 -7.856580E+04  7.976225E+03 -2.427065E+04
       187  23 -7.681764E+03  3.328364E+05  4.029147E+04  1.954162E+03  1.220218E+04 -3.275792E+03
       187  24  1.688956E+04  3.403438E+05  5.117416E+04 -7.860229E+04  1.429706E+04  1.770175E+04
       187  25  1.361829E+05  8.043679E+05  1.704154E+05 -7.482466E+04  7.985181E+03 -2.597339E+04
       187  26  1.412289E+05  9.308468E+05  1.872097E+05 -1.006518E+02  1.220652E+04 -4.297919E+03
       187  27  1.992552E+05  1.072453E+06  2.311422E+05 -8.644466E+04  1.429733E+04  1.736487E+04
       188   1 -2.709154E+05 -7.300575E+05 -2.088360E+05 -8.914621E+04 -2.069313E+04 -3.290862E+04
       188   2 -3.297760E+05 -8.930547E+05 -2.220329E+05  1.231255E+04 -2.677633E+04 -6.700448E+04
       188   3 -2.076474E+05 -1.003085E+06 -1.670963E+05 -5.008300E+04 -9.351956E+03 -1.010369E+05
       188   4 -2.077133E+03  3.488423E+05  5.670175E+04 -7.931954E+04 -2.071350E+04 -2.734327E+04
       188   5 -2.698896E+04  3.217760E+05  7.631559E+04  2.709840E+03 -2.676721E+04 -6.883565E+04
       188   6  1.301856E+05  3.488422E+05  1.691004E+05 -7.909172E+04 -9.331432E+03 -1.102725E+05
       188   7  2.666750E+05  1.428802E+06  3.221539E+05 -6.947465E+04 -2.073368E+04 -2.176823E+04
       188   8  2.756887E+05  1.537951E+06  3.745557E+05 -6.910813E+03 -2.675806E+04 -7.067029E+04
       188   9  4.678844E+05  1.702431E+06  5.051609E+05 -1.081630E+05 -9.310072E+03 -1.195280E+05
       188  10 -2.709161E+05 -7.300587E+05 -2.088388E+05 -8.914676E+04 -2.941614E-10 -9.826983E-10
       188  11 -3.297780E+05 -8.930597E+05 -2.220427E+05  1.231111E+04  1.402115E-09 -1.116169E-09
       188  12 -2.076503E+05 -1.003096E+06 -1.671157E+05 -5.008376E+04  3.725714E-10 -5.107125E-10
       188  13 -2.077794E+03  3.488414E+05  5.669954E+04 -7.932000E+04  6.667473E-10 -1.036602E-09
       188  14 -2.699100E+04  3.217707E+05  7.630534E+04  2.708356E+03  1.072357E-09 -3.568694E-11
       188  15  1.301823E+05  3.488291E+05  1.690774E+05 -7.909255E+04  9.970469E-10 -8.280785E-10
       188  16  2.666744E+05  1.428801E+06  3.221522E+05 -6.947501E+04 -2.379150E-09  6.357622E-10
       188  17  2.756866E+05  1.537946E+06  3.745449E+05 -6.912334E+03  1.434163E-09  2.129244E-09
       188  18  4.678805E+05  1.702416E+06  5.051339E+05 -1.081639E+05  6.356414E-10  2.104149E-10
       188  19 -2.709154E+05 -7.300575E+05 -2.088360E+05 -8.914621E+04  2.069313E+04  3.290862E+04
       188  20 -3.297760E+05 -8.930547E+05 -2.220329E+05  1.231255E+04  2.677633E+04  6.700448E+04
       188  21 -2.076474E+05 -1.003085E+06 -1.670963E+05 -5.008300E+04  9.351956E+03  1.010369E+05
       188  22 -2.077133E+03  3.488423E+05  5.670175E+04 -7.931954E+04  2.071350E+04  2.734327E+04
       188  23 -2.698896E+04  3.217760E+05  7.631559E+04  2.709840E+03  2.676721E+04  6.883565E+04
       188  24  1.301856E+05  3.488422E+05  1.691004E+05 -7.909172E+04  9.331432E+03  1.102725E+05
       188  25  2.666750E+05  1.428802E+06  3.221539E+05 -6.947465E+04  2.073368E+04  2.176823E+04
       188  26  2.756887E+05  1.537951E+06  3.745557E+05 -6.910813E+03  2.675806E+04  7.067029E+04
       188  27  4.678844E+05  1.702431E+06  5.051609E+05 -1.081630E+05  9.310072E+03  1.195280E+05
       189   1 -5.334962E+06 -1.683981E+06 -1.157094E+06 -1.785803E+06 -5.820079E+05 -2.138123E+05
       189   2 -5.186270E+06 -8.706950E+05 -6.239665E+05 -1.966321E+06 -3.781994E+05 -1.197351E+05
       189   3 -5.418920E+06 -9.199104E+05 -4.898713E+05 -1.890086E+06 -1.686543E+05 -4.076504E+04
       189   4 -4.528402E+06 -1.248731E+06 -9.088484E+05 -1.435793E+06 -5.762157E+05 -2.117543E+05
       189   5 -4.290884E+06 -4.960446E+05 -3.730286E+05 -1.686465E+06 -3.765552E+05 -1.191382E+05
       189   6 -4.433431E+06 -6.042943E+05 -2.325255E+05 -1.680534E+06 -1.711302E+05 -4.168561E+04
       189   7 -3.721167E+06 -8.132171E+05 -6.606667E+05 -1.085303E+06 -5.704148E+05 -2.096898E+05
       189   8 -3.394717E+06 -1.212982E+05 -1.221670E+05 -1.406225E+06 -3.749080E+05 -1.185399E+05
       189   9 -3.447000E+06 -2.886830E+05  2.474134E+04 -1.470711E+06 -1.736102E+05 -4.260720E+04
       189  10 -5.335341E+06 -1.684123E+06 -1.157824E+06 -1.785904E+06  1.932486E-09 -2.426603E-10
       189  11 -5.186429E+06 -8.707494E+05 -6.242651E+05 -1.966358E+06  1.317167E-11  7.685102E-11
       189  12 -5.418952E+06 -9.199199E+05 -4.899284E+05 -1.890092E+06 -6.573353E-10 -2.741244E-10
       189  13 -4.528773E+06 -1.248870E+06 -9.095624E+05 -1.435892E+06  3.253491E-09 -2.532559E-09
       189  14 -4.291041E+06 -4.960984E+05 -3.733241E+05 -1.686502E+06 -1.084911E-09 -2.520622E-09
       189  15 -4.433463E+06 -6.043041E+05 -2.325842E+05 -1.680540E+06  2.468069E-09 -7.321043E-10
       189  16 -3.721531E+06 -8.133526E+05 -6.613653E+05 -1.085400E+06 -2.696861E-09 -1.887174E-09
       189  17 -3.394872E+06 -1.213515E+05 -1.224595E+05 -1.406261E+06  6.795959E-10 -3.591282E-09
       189  18 -3.447033E+06 -2.886931E+05  2.468090E+04 -1.470717E+06 -7.792198E-10  5.264707E-10
       189  19 -5.334962E+06 -1.683981E+06 -1.157094E+06 -1.785803E+06  5.820079E+05  2.138123E+05
       189  20 -5.186270E+06 -8.706950E+05 -6.239665E+05 -1.966321E+06  3.781994E+05  1.197351E+05
       189  21 -5.418920E+06 -9.199104E+05 -4.898713E+05 -1.890086E+06  1.686543E+05  4.076504E+04
       189  22 -4.528402E+06 -1.248731E+06 -9.088484E+05 -1.435793E+06  5.762157E+05  2.117543E+05
       189  23 -4.290884E+06 -4.960446E+05 -3.730286E+05 -1.686465E+06  3.765552E+05  1.191382E+05
       189  24 -4.433431E+06 -6.042943E+05 -2.325255E+05 -1.680534E+06  1.711302E+05  4.168561E+04
       189  25 -3.721167E+06 -8.132171E+05 -6.606667E+05 -1.085303E+06  5.704148E+05  2.096898E+05
       189  26 -3.394717E+06 -1.212982E+05 -1.221670E+05 -1.406225E+06  3.749080E+05  1.185399E+05
       189  27 -3.447000E+06 -2.886830E+05  2.474134E+04 -1.470711E+06  1.736102E+05  4.260720E+04
       190   1 -5.328908E+06 -1.087050E+06 -4.493227E+05 -1.903661E+06 -1.367484E+05 -3.089427E+04
       190   2 -5.297282E+06 -9.570043E+05 -3.406140E+05 -1.909574E+06 -9.020477E+04 -1.164090E+04
       190   3 -5.296017E+06 -9.655153E+05 -2.994950E+05 -1.904700E+06 -4.256507E+04  4.711183E+03
       190   4 -4.395357E+06 -7.160231E+05 -1.908770E+05 -1.631903E+06 -1.360513E+05 -3.063741E+04
       190   5 -4.373890E+06 -6.029379E+05 -8.792042E+04 -1.653824E+06 -9.028128E+04 -1.167278E+04
       190   6 -4.382558E+06 -6.281391E+05 -5.185697E+04 -1.664975E+06 -4.341690E+04  4.389804E+03
       190   7 -3.460960E+06 -3.449213E+05  6.748785E+04 -1.359763E+06 -1.353529E+05 -3.038000E+04
       190   8 -3.449673E+06 -2.488160E+05  1.646955E+05 -1.397727E+06 -9.035784E+04 -1.170468E+04
       190   9 -3.468293E+06 -2.907249E+05  1.957063E+05 -1.424934E+06 -4.427010E+04  4.067947E+03
       190  10 -5.328929E+06 -1.087056E+06 -4.493600E+05 -1.903665E+06 -4.597756E-10  1.195081E-09
       190  11 -5.297291E+06 -9.570066E+05 -3.406297E+05 -1.909575E+06  7.067645E-10 -1.876787E-10
       190  12 -5.296019E+06 -9.655158E+05 -2.994985E+05 -1.904699E+06 -6.728694E-10 -1.460778E-09
       190  13 -4.395377E+06 -7.160291E+05 -1.909139E+05 -1.631906E+06 -2.160004E-09  3.888546E-10
       190  14 -4.373899E+06 -6.029402E+05 -8.793611E+04 -1.653825E+06 -1.386413E-09 -7.095920E-10
       190  15 -4.382560E+06 -6.281396E+05 -5.186057E+04 -1.664975E+06 -1.071993E-09 -8.206334E-10
       190  16 -3.460980E+06 -3.449273E+05  6.745146E+04 -1.359767E+06 -2.792923E-09  6.259803E-10
       190  17 -3.449682E+06 -2.488183E+05  1.646798E+05 -1.397728E+06 -1.922108E-09 -8.112793E-10
       190  18 -3.468296E+06 -2.907255E+05  1.957026E+05 -1.424934E+06  4.062343E-10  2.025839E-10
       190  19 -5.328908E+06 -1.087050E+06 -4.493227E+05 -1.903661E+06  1.367484E+05  3.089427E+04
       190  20 -5.297282E+06 -9.570043E+05 -3.406140E+05 -1.909574E+06  9.020477E+04  1.164090E+04
       190  21 -5.296017E+06 -9.655153E+05 -2.994950E+05 -1.904700E+06  4.256507E+04 -4.711183E+03
       190  22 -4.395357E+06 -7.160231E+05 -1.908770E+05 -1.631903E+06  1.360513E+05  3.063741E+04
       190  23 -4.373890E+06 -6.029379E+05 -8.792042E+04 -1.653824E+06  9.028128E+04  1.167278E+04
       190  24 -4.382558E+06 -6.281391E+05 -5.185697E+04 -1.664975E+06  4.341690E+04 -4.389804E+03
       190  25 -3.460960E+06 -3.449213E+05  6.748785E+04 -1.359763E+06  1.353529E+05  3.038000E+04
       190  26 -3.449673E+06 -2.488160E+05  1.646955E+05 -1.397727E+06  9.035784E+04  1.170468E+04
       190  27 -3.468293E+06 -2.907249E+05  1.957063E+05 -1.424934E+06  4.427010E+04 -4.067947E+03
       191   1 -5.164657E+06 -9.519226E+05 -2.579538E+05 -1.883353E+06 -3.510177E+04  6.195360E+03
       191   2 -5.132283E+06 -8.884738E+05 -2.219916E+05 -1.840452E+06 -2.364992E+04  8.784187E+03
       191   3 -5.052644E+06 -8.940564E+05 -1.981879E+05 -1.853750E+06 -1.177709E+04  1.023396E+04
       191   4 -4.370600E+06 -6.498645E+05 -4.118593E+04 -1.665864E+06 -3.539685E+04  6.082879E+03
       191   5 -4.393393E+06 -6.093047E+05 -2.060567E+04 -1.640036E+06 -2.426175E+04  8.553954E+03
       191   6 -4.368853E+06 -6.376953E+05 -1.191866E+04 -1.670405E+06 -1.270696E+04  9.886156E+03
       191   7 -3.575935E+06 -3.477687E+05  1.755243E+05 -1.448121E+06 -3.569233E+04  5.970250E+03
       191   8 -3.653975E+06 -3.301043E+05  1.807307E+05 -1.439403E+06 -2.487437E+04  8.323423E+03
       191   9 -3.684610E+06 -3.813090E+05  1.743086E+05 -1.486876E+06 -1.363796E+04  9.537936E+03
       191  10 -5.164658E+06 -9.519230E+05 -2.579562E+05 -1.883353E+06 -7.659901E-10 -5.780480E-10
       191  11 -5.132284E+06 -8.884740E+05 -2.219928E+05 -1.840452E+06 -1.385393E-09 -1.742923E-10
       191  12 -5.052645E+06 -8.940566E+05 -1.981884E+05 -1.853750E+06 -1.318484E-09 -2.966589E-10
       191  13 -4.370601E+06 -6.498649E+05 -4.118837E+04 -1.665864E+06 -2.411026E-09 -9.767440E-10
       191  14 -4.393394E+06 -6.093049E+05 -2.060692E+04 -1.640035E+06 -1.331334E-09 -5.891651E-10
       191  15 -4.368853E+06 -6.376955E+05 -1.191915E+04 -1.670405E+06 -5.535476E-10 -1.838792E-09
       191  16 -3.575936E+06 -3.477691E+05  1.755218E+05 -1.448121E+06 -9.509432E-11  2.353227E-10
       191  17 -3.653976E+06 -3.301046E+05  1.807294E+05 -1.439402E+06 -4.948468E-10 -1.263905E-09
       191  18 -3.684610E+06 -3.813091E+05  1.743081E+05 -1.486876E+06  1.612002E-10 -1.486873E-10
       191  19 -5.164657E+06 -9.519226E+05 -2.579538E+05 -1.883353E+06  3.510177E+04 -6.195360E+03
       191  20 -5.132283E+06 -8.884738E+05 -2.219916E+05 -1.840452E+06  2.364992E+04 -8.784187E+03
       191  21 -5.052644E+06 -8.940564E+05 -1.981879E+05 -1.853750E+06  1.177709E+04 -1.023396E+04
       191  22 -4.370600E+06 -6.498645E+05 -4.118593E+04 -1.665864E+06  3.539685E+04 -6.082879E+03
       191  23 -4.393393E+06 -6.093047E+05 -2.060567E+04 -1.640036E+06  2.426175E+04 -8.553954E+03
       191  24 -4.368853E+06 -6.376953E+05 -1.191866E+04 -1.670405E+06  1.270696E+04 -9.886156E+03
       191  25 -3.575935E+06 -3.477687E+05  1.755243E+05 -1.448121E+06  3.569233E+04 -5.970250E+03
       191  26 -3.653975E+06 -3.301043E+05  1.807307E+05 -1.439403E+06  2.487437E+04 -8.323423E+03
       191  27 -3.684610E+06 -3.813090E+05  1.743086E+05 -1.486876E+06  1.363796E+04 -9.537936E+03
       192   1 -4.841797E+06 -8.251930E+05 -1.396088E+05 -1.804756E+06 -9.568069E+03  9.114924E+03
       192   2 -4.797629E+06 -7.539808E+05 -1.136059E+05 -1.738936E+06 -5.517253E+03  7.381095E+03
       192   3 -4.678103E+06 -7.614396E+05 -9.040883E+04 -1.760538E+06 -1.277888E+03  5.128142E+03
       192   4 -4.363258E+06 -6.449193E+05 -9.538981E+03 -1.675416E+06 -1.032239E+04  8.833341E+03
       192   5 -4.400832E+06 -6.047731E+05 -5.617072E+03 -1.632014E+06 -6.419910E+03  7.044975E+03
       192   6 -4.363027E+06 -6.432636E+05 -4.380563E+03 -1.676032E+06 -2.329381E+03  4.737507E+03
       192   7 -3.884496E+06 -4.646328E+05  1.205102E+05 -1.545985E+06 -1.107736E+04  8.551518E+03
       192   8 -4.003883E+06 -4.555570E+05  1.023574E+05 -1.525030E+06 -7.323205E+03  6.708618E+03
       192   9 -4.047856E+06 -5.250825E+05  8.163855E+04 -1.591487E+06 -3.381463E+03  4.346655E+03
       192  10 -4.841797E+06 -8.251931E+05 -1.396091E+05 -1.804756E+06 -3.031754E-09 -5.530290E-10
       192  11 -4.797629E+06 -7.539809E+05 -1.136060E+05 -1.738936E+06 -1.763533E-09  1.227691E-09
       192  12 -4.678103E+06 -7.614397E+05 -9.040889E+04 -1.760538E+06 -8.854865E-10 -5.035776E-10
       192  13 -4.363258E+06 -6.449194E+05 -9.539327E+03 -1.675416E+06 -3.016170E-09 -9.824146E-10
       192  14 -4.400832E+06 -6.047732E+05 -5.617242E+03 -1.632014E+06  1.503084E-09  4.437809E-09
       192  15 -4.363027E+06 -6.432636E+05 -4.380615E+03 -1.676032E+06  4.380118E-10  3.020166E-10
       192  16 -3.884497E+06 -4.646329E+05  1.205098E+05 -1.545985E+06  2.414706E-10  7.557356E-10
       192  17 -4.003883E+06 -4.555570E+05  1.023572E+05 -1.525030E+06 -2.223622E-09  1.595819E-09
       192  18 -4.047856E+06 -5.250825E+05  8.163850E+04 -1.591487E+06 -1.071577E-09 -7.103971E-10
       192  19 -4.841797E+06 -8.251930E+05 -1.396088E+05 -1.804756E+06  9.568069E+03 -9.114924E+03
       192  20 -4.797629E+06 -7.539808E+05 -1.136059E+05 -1.738936E+06  5.517253E+03 -7.381095E+03
       192  21 -4.678103E+06 -7.614396E+05 -9.040883E+04 -1.760538E+06  1.277888E+03 -5.128142E+03
       192  22 -4.363258E+06 -6.449193E+05 -9.538981E+03 -1.675416E+06  1.032239E+04 -8.833341E+03
       192  23 -4.400832E+06 -6.047731E+05 -5.617072E+03 -1.632014E+06  6.419910E+03 -7.044975E+03
       192  24 -4.363027E+06 -6.432636E+05 -4.380563E+03 -1.676032E+06  2.329381E+03 -4.737507E+03
       192  25 -3.884496E+06 -4.646328E+05  1.205102E+05 -1.545985E+06  1.107736E+04 -8.551518E+03
       192  26 -4.003883E+06 -4.555570E+05  1.023574E+05 -1.525030E+06  7.323205E+03 -6.708618E+03
       192  27 -4.047856E+06 -5.250825E+05  8.163855E+04 -1.591487E+06  3.381463E+03 -4.346655E+03
       193   1 -4.422273E+06 -6.680085E+05 -2.061129E+04 -1.694567E+06  1.737500E+02  3.287984E+03
       193   2 -4.373451E+06 -5.915959E+05  2.723257E+03 -1.621591E+06  4.100413E+03  8.231574E+02
       193   3 -4.242268E+06 -6.013006E+05  2.340668E+04 -1.645156E+06  8.005053E+03 -1.579933E+03
       193   4 -4.361465E+06 -6.450522E+05 -4.372054E+03 -1.678000E+06 -8.361964E+02  2.913106E+03
       193   5 -4.402728E+06 -6.026172E+05 -5.244684E+03 -1.629495E+06  3.108197E+03  4.547809E+02
       193   6 -4.361644E+06 -6.463049E+05 -8.782565E+03 -1.677537E+06  7.030131E+03 -1.941933E+03
       193   7 -4.300654E+06 -6.220955E+05  1.186689E+04 -1.661431E+06 -1.846254E+03  2.538186E+03
       193   8 -4.432005E+06 -6.136386E+05 -1.321271E+04 -1.637400E+06  2.116033E+03  8.642338E+01
       193   9 -4.481006E+06 -6.913084E+05 -4.097308E+04 -1.709913E+06  6.055417E+03 -2.303856E+03
       193  10 -4.422273E+06 -6.680085E+05 -2.061131E+04 -1.694567E+06 -9.215690E-10  7.373705E-10
       193  11 -4.373451E+06 -5.915959E+05  2.723224E+03 -1.621591E+06  1.989850E-09  2.757007E-10
       193  12 -4.242268E+06 -6.013006E+05  2.340656E+04 -1.645156E+06 -4.350957E-10 -1.557014E-09
       193  13 -4.361465E+06 -6.450522E+05 -4.372071E+03 -1.678000E+06 -8.719705E-10 -1.718550E-09
       193  14 -4.402728E+06 -6.026172E+05 -5.244703E+03 -1.629495E+06  1.773223E-09  4.841856E-09
       193  15 -4.361644E+06 -6.463049E+05 -8.782665E+03 -1.677537E+06 -7.404557E-11 -1.407084E-09
       193  16 -4.300654E+06 -6.220956E+05  1.186688E+04 -1.661431E+06  1.067360E-09 -4.691882E-10
       193  17 -4.432005E+06 -6.136386E+05 -1.321271E+04 -1.637400E+06  1.766831E-10  1.360502E-09
       193  18 -4.481006E+06 -6.913084E+05 -4.097316E+04 -1.709913E+06  1.672965E-10 -1.299184E-09
       193  19 -4.422273E+06 -6.680085E+05 -2.061129E+04 -1.694567E+06 -1.737500E+02 -3.287984E+03
       193  20 -4.373451E+06 -5.915959E+05  2.723257E+03 -1.621591E+06 -4.100413E+03 -8.231574E+02
       193  21 -4.242268E+06 -6.013006E+05  2.340668E+04 -1.645156E+06 -8.005053E+03  1.579933E+03
       193  22 -4.361465E+06 -6.450522E+05 -4.372054E+03 -1.678000E+06  8.361964E+02 -2.913106E+03
       193  23 -4.402728E+06 -6.026172E+05 -5.244684E+03 -1.629495E+06 -3.108197E+03 -4.547809E+02
       193  24 -4.361644E+06 -6.463049E+05 -8.782565E+03 -1.677537E+06 -7.030131E+03  1.941933E+03
       193  25 -4.300654E+06 -6.220955E+05  1.186689E+04 -1.661431E+06  1.846254E+03 -2.538186E+03
       193  26 -4.432005E+06 -6.136386E+05 -1.321271E+04 -1.637400E+06 -2.116033E+03 -8.642338E+01
       193  27 -4.481006E+06 -6.913084E+05 -4.097308E+04 -1.709913E+06 -6.055417E+03  2.303856E+03
       194   1 -3.993637E+06 -5.041924E+05  8.997142E+04 -1.577327E+06  1.050557E+04 -3.024474E+03
       194   2 -3.949860E+06 -4.342643E+05  1.035405E+05 -1.511588E+06  2.113280E+04 -2.842958E+03
       194   3 -3.838325E+06 -4.531462E+05  1.061740E+05 -1.527552E+06  3.147115E+04 -1.867084E+03
       194   4 -4.364305E+06 -6.423788E+05 -1.096851E+04 -1.675943E+06  9.425265E+03 -3.426015E+03
       194   5 -4.398942E+06 -6.034714E+05 -1.868467E+04 -1.633038E+06  2.027606E+04 -3.162300E+03
       194   6 -4.365875E+06 -6.534302E+05 -3.752072E+04 -1.671842E+06  3.083658E+04 -2.104468E+03
       194   7 -4.734840E+06 -7.805581E+05 -1.119207E+05 -1.774506E+06  8.345674E+03 -3.827295E+03
       194   8 -4.847829E+06 -7.726671E+05 -1.409280E+05 -1.754408E+06  1.942000E+04 -3.481387E+03
       194   9 -4.893156E+06 -8.536978E+05 -1.812409E+05 -1.816020E+06  3.020259E+04 -2.341630E+03
       194  10 -3.993637E+06 -5.041924E+05  8.997119E+04 -1.577327E+06 -1.763648E-09 -3.694907E-09
       194  11 -3.949861E+06 -4.342644E+05  1.035396E+05 -1.511588E+06 -7.810220E-10 -2.825329E-10
       194  12 -3.838327E+06 -4.531465E+05  1.061721E+05 -1.527552E+06  1.263032E-09  1.676436E-09
       194  13 -4.364305E+06 -6.423788E+05 -1.096870E+04 -1.675943E+06  4.326506E-10  1.219318E-09
       194  14 -4.398942E+06 -6.034715E+05 -1.868546E+04 -1.633038E+06  8.217638E-10  1.624486E-09
       194  15 -4.365876E+06 -6.534305E+05 -3.752252E+04 -1.671842E+06  1.160645E-09  8.883741E-10
       194  16 -4.734840E+06 -7.805581E+05 -1.119208E+05 -1.774506E+06  8.297531E-10  9.315253E-10
       194  17 -4.847829E+06 -7.726672E+05 -1.409288E+05 -1.754408E+06  2.053680E-09  2.018179E-09
       194  18 -4.893157E+06 -8.536980E+05 -1.812426E+05 -1.816020E+06  1.420138E-09  2.271901E-09
       194  19 -3.993637E+06 -5.041924E+05  8.997142E+04 -1.577327E+06 -1.050557E+04  3.024474E+03
       194  20 -3.949860E+06 -4.342643E+05  1.035405E+05 -1.511588E+06 -2.113280E+04  2.842958E+03
       194  21 -3.838325E+06 -4.531462E+05  1.061740E+05 -1.527552E+06 -3.147115E+04  1.867084E+03
       194  22 -4.364305E+06 -6.423788E+05 -1.096851E+04 -1.675943E+06 -9.425265E+03  3.426015E+03
       194  23 -4.398942E+06 -6.034714E+05 -1.868467E+04 -1.633038E+06 -2.027606E+04  3.162300E+03
       194  24 -4.365875E+06 -6.534302E+05 -3.752072E+04 -1.671842E+06 -3.083658E+04  2.104468E+03
       194  25 -4.734840E+06 -7.805581E+05 -1.119207E+05 -1.774506E+06 -8.345674E+03  3.827295E+03
       194  26 -4.847829E+06 -7.726671E+05 -1.409280E+05 -1.754408E+06 -1.942000E+04  3.481387E+03
       194  27 -4.893156E+06 -8.536978E+05 -1.812409E+05 -1.816020E+06 -3.020259E+04  2.341630E+03
       195   1 -3.646749E+06 -3.680343E+05  1.498578E+05 -1.483336E+06  3.963917E+04 -9.420500E+02
       195   2 -3.610796E+06 -3.010631E+05  1.310165E+05 -1.430695E+06  8.196545E+04  1.197450E+04
       195   3 -3.570555E+06 -3.920058E+05  5.185364E+04 -1.405705E+06  1.232177E+05  2.778126E+04
       195   4 -4.375308E+06 -6.349748E+05 -4.718608E+04 -1.672511E+06  3.845442E+04 -1.384879E+03
       195   5 -4.383104E+06 -5.960048E+05 -7.989050E+04 -1.643699E+06  8.156903E+04  1.182394E+04
       195   6 -4.386825E+06 -7.151992E+05 -1.736047E+05 -1.642532E+06  1.236057E+05  2.792155E+04
       195   7 -5.103356E+06 -9.018930E+05 -2.442772E+05 -1.861488E+06  3.727119E+04 -1.827179E+03
       195   8 -5.154835E+06 -8.909085E+05 -2.908516E+05 -1.856461E+06  8.117311E+04  1.167358E+04
       195   9 -5.202450E+06 -1.038336E+06 -3.991246E+05 -1.879070E+06  1.239931E+05  2.806156E+04
       195  10 -3.646750E+06 -3.680348E+05  1.498548E+05 -1.483336E+06 -8.685091E-10  5.696750E-13
       195  11 -3.610803E+06 -3.010651E+05  1.310035E+05 -1.430696E+06 -3.688117E-09 -3.283910E-09
       195  12 -3.570571E+06 -3.920108E+05  5.182346E+04 -1.405708E+06 -1.107620E-09 -2.716048E-09
       195  13 -4.375310E+06 -6.349752E+05 -4.718888E+04 -1.672511E+06  9.186826E-10  3.789888E-09
       195  14 -4.383111E+06 -5.960067E+05 -7.990336E+04 -1.643700E+06 -1.618181E-09  1.083348E-09
       195  15 -4.386842E+06 -7.152042E+05 -1.736351E+05 -1.642535E+06 -9.039221E-11 -2.028891E-09
       195  16 -5.103357E+06 -9.018933E+05 -2.442799E+05 -1.861488E+06 -4.181305E-10 -4.796297E-10
       195  17 -5.154843E+06 -8.909104E+05 -2.908643E+05 -1.856462E+06  1.438493E-09  4.464790E-10
       195  18 -5.202466E+06 -1.038341E+06 -3.991552E+05 -1.879073E+06 -1.115773E-09  2.760031E-10
       195  19 -3.646749E+06 -3.680343E+05  1.498578E+05 -1.483336E+06 -3.963917E+04  9.420500E+02
       195  20 -3.610796E+06 -3.010631E+05  1.310165E+05 -1.430695E+06 -8.196545E+04 -1.197450E+04
       195  21 -3.570555E+06 -3.920058E+05  5.185364E+04 -1.405705E+06 -1.232177E+05 -2.778126E+04
       195  22 -4.375308E+06 -6.349748E+05 -4.718608E+04 -1.672511E+06 -3.845442E+04  1.384879E+03
       195  23 -4.383104E+06 -5.960048E+05 -7.989050E+04 -1.643699E+06 -8.156903E+04 -1.182394E+04
       195  24 -4.386825E+06 -7.151992E+05 -1.736047E+05 -1.642532E+06 -1.236057E+05 -2.792155E+04
       195  25 -5.103356E+06 -9.018930E+05 -2.442772E+05 -1.861488E+06 -3.727119E+04  1.827179E+03
       195  26 -5.154835E+06 -8.909085E+05 -2.908516E+05 -1.856461E+06 -8.117311E+04 -1.167358E+04
       195  27 -5.202450E+06 -1.038336E+06 -3.991246E+05 -1.879070E+06 -1.239931E+05 -2.806156E+04
       196   1 -3.457618E+06 -3.020456E+05  4.064466E+04 -1.478923E+06  1.591429E+05  3.779110E+04
       196   2 -3.392169E+06 -1.216775E+05 -8.400693E+04 -1.392747E+06  3.420526E+05  1.045287E+05
       196   3 -3.637741E+06 -7.550119E+05 -5.639051E+05 -1.110393E+06  5.186241E+05  1.880917E+05
       196   4 -4.421564E+06 -6.131216E+05 -2.113919E+05 -1.686200E+06  1.560069E+05  3.662667E+04
       196   5 -4.308015E+06 -4.990152E+05 -3.392256E+05 -1.673662E+06  3.435324E+05  1.050635E+05
       196   6 -4.506881E+06 -1.200294E+06 -8.263962E+05 -1.464810E+06  5.247286E+05  1.902804E+05
       196   7 -5.384614E+06 -9.242008E+05 -4.635048E+05 -1.893214E+06  1.528761E+05  3.546354E+04
       196   8 -5.223045E+06 -8.762601E+05 -5.945231E+05 -1.954186E+06  3.450094E+05  1.055971E+05
       196   9 -5.375249E+06 -1.645324E+06 -1.088961E+06 -1.818711E+06  5.308231E+05  1.924624E+05
       196  10 -3.457646E+06 -3.020540E+05  4.059406E+04 -1.478928E+06 -2.026206E-10 -1.544826E-09
       196  11 -3.392298E+06 -1.217210E+05 -8.424888E+04 -1.392776E+06 -1.904098E-09  9.046862E-10
       196  12 -3.638041E+06 -7.551229E+05 -5.644807E+05 -1.110472E+06 -4.632773E-10  1.023514E-09
       196  13 -4.421591E+06 -6.131297E+05 -2.114406E+05 -1.686205E+06 -1.036847E-09 -1.391137E-09
       196  14 -4.308145E+06 -4.990591E+05 -3.394701E+05 -1.673691E+06 -1.651497E-09  1.807775E-09
       196  15 -4.507188E+06 -1.200408E+06 -8.269864E+05 -1.464890E+06  2.578943E-10  6.107134E-10
       196  16 -5.384639E+06 -9.242085E+05 -4.635515E+05 -1.893218E+06  4.256677E-11  3.663400E-10
       196  17 -5.223177E+06 -8.763045E+05 -5.947701E+05 -1.954215E+06 -5.788156E-10  1.787191E-09
       196  18 -5.375564E+06 -1.645441E+06 -1.089566E+06 -1.818794E+06 -3.332856E-10 -9.277107E-11
       196  19 -3.457618E+06 -3.020456E+05  4.064466E+04 -1.478923E+06 -1.591429E+05 -3.779110E+04
       196  20 -3.392169E+06 -1.216775E+05 -8.400693E+04 -1.392747E+06 -3.420526E+05 -1.045287E+05
       196  21 -3.637741E+06 -7.550119E+05 -5.639051E+05 -1.110393E+06 -5.186241E+05 -1.880917E+05
       196  22 -4.421564E+06 -6.131216E+05 -2.113919E+05 -1.686200E+06 -1.560069E+05 -3.662667E+04
       196  23 -4.308015E+06 -4.990152E+05 -3.392256E+05 -1.673662E+06 -3.435324E+05 -1.050635E+05
       196  24 -4.506881E+06 -1.200294E+06 -8.263962E+05 -1.464810E+06 -5.247286E+05 -1.902804E+05
       196  25 -5.384614E+06 -9.242008E+05 -4.635048E+05 -1.893214E+06 -1.528761E+05 -3.546354E+04
       196  26 -5.223045E+06 -8.762601E+05 -5.945231E+05 -1.954186E+06 -3.450094E+05 -1.055971E+05
       196  27 -5.375249E+06 -1.645324E+06 -1.088961E+06 -1.818711E+06 -5.308231E+05 -1.924624E+05
       197   1  7.737114E+05  2.022237E+05  2.972893E+05  5.154647E+04  2.842334E+05  4.312615E+03
       197   2  7.426022E+05 -1.815889E+05  6.670783E+04  2.105014E+04  1.881082E+05  1.069978E+04
       197   3  8.355071E+05 -1.227389E+05  9.532887E+03 -4.689578E+04  9.199502E+04  8.914091E+03
       197   4  1.272669E+06  3.262051E+05  4.210662E+05 -1.549097E+04  2.877497E+05  4.290739E+03
       197   5  1.210576E+06 -6.523360E+04  1.814624E+05  3.675859E+03  1.889969E+05  1.069578E+04
       197   6  1.272851E+06 -1.374242E+04  1.169882E+05 -1.460708E+04  9.026134E+04  8.915316E+03
       197   7  1.771861E+06  4.501850E+05  5.448270E+05 -8.258238E+04  2.912688E+05  4.268123E+03
       197   8  1.678750E+06  5.110666E+04  2.962011E+05 -1.371164E+04  1.898862E+05  1.069173E+04
       197   9  1.710372E+06  9.524368E+04  2.244300E+05  1.770430E+04  8.852642E+04  8.916359E+03
       197  10  7.736247E+05  2.022021E+05  2.971377E+05  5.154548E+04 -1.708276E-09  1.482940E-09
       197  11  7.425642E+05 -1.815985E+05  6.664121E+04  2.104852E+04 -1.694126E-09 -7.170060E-10
       197  12  8.354980E+05 -1.227412E+05  9.516855E+03 -4.689644E+04  1.333688E-09 -1.400911E-10
       197  13  1.272580E+06  3.261829E+05  4.209109E+05 -1.549196E+04 -1.054076E-09  8.542081E-10
       197  14  1.210538E+06 -6.524329E+04  1.813952E+05  3.674232E+03 -9.643727E-10 -2.415257E-09
       197  15  1.272843E+06 -1.374468E+04  1.169728E+05 -1.460773E+04  2.157851E-09 -1.473098E-11
       197  16  1.771770E+06  4.501622E+05  5.446680E+05 -8.258338E+04  8.135877E-10 -1.343256E-10
       197  17  1.678711E+06  5.109689E+04  2.961334E+05 -1.371327E+04  2.696852E-10 -7.120065E-11
       197  18  1.710363E+06  9.524150E+04  2.244151E+05  1.770366E+04 -2.459941E-09 -4.288322E-10
       197  19  7.737114E+05  2.022237E+05  2.972893E+05  5.154647E+04 -2.842334E+05 -4.312615E+03
       197  20  7.426022E+05 -1.815889E+05  6.670783E+04  2.105014E+04 -1.881082E+05 -1.069978E+04
       197  21  8.355071E+05 -1.227389E+05  9.532887E+03 -4.689578E+04 -9.199502E+04 -8.914091E+03
       197  22  1.272669E+06  3.262051E+05  4.210662E+05 -1.549097E+04 -2.877497E+05 -4.290739E+03
       197  23  1.210576E+06 -6.523360E+04  1.814624E+05  3.675859E+03 -1.889969E+05 -1.069578E+04
       197  24  1.272851E+06 -1.374242E+04  1.169882E+05 -1.460708E+04 -9.026134E+04 -8.915316E+03
       197  25  1.771861E+06  4.501850E+05  5.448270E+05 -8.258238E+04 -2.912688E+05 -4.268123E+03
       197  26  1.678750E+06  5.110666E+04  2.962011E+05 -1.371164E+04 -1.898862E+05 -1.069173E+04
       197  27  1.710372E+06  9.524368E+04  2.244300E+05  1.770430E+04 -8.852642E+04 -8.916359E+03
       198   1  8.842662E+05 -4.740075E+04  6.589715E+03 -5.594639E+03  7.118974E+04  7.024952E+03
       198   2  9.015050E+05 -9.304040E+04 -3.599128E+04  4.010606E+03  4.695619E+04  6.916724E+03
       198   3  9.371113E+05 -7.953714E+04 -4.793429E+04 -1.817740E+04  2.272277E+04  5.926062E+03
       198   4  1.249272E+06  4.342967E+04  9.632051E+04 -1.367059E+04  7.133377E+04  7.023943E+03
       198   5  1.240086E+06 -8.778440E+03  4.715890E+04  2.259199E+03  4.681158E+04  6.916151E+03
       198   6  1.249306E+06 -1.811537E+03  2.882261E+04 -1.360300E+04  2.229054E+04  5.925645E+03
       198   7  1.614398E+06  1.342505E+05  1.860416E+05 -2.175133E+04  7.147788E+04  7.022931E+03
       198   8  1.578770E+06  7.547503E+04  1.303007E+05  5.068047E+02  4.666688E+04  6.915579E+03
       198   9  1.561590E+06  7.590691E+04  1.055723E+05 -9.026324E+03  2.185810E+04  5.925222E+03
       198  10  8.842608E+05 -4.740216E+04  6.580112E+03 -5.595042E+03 -9.313969E-10 -1.429586E-09
       198  11  9.015026E+05 -9.304104E+04 -3.599551E+04  4.010344E+03 -4.911659E-10  9.950938E-10
       198  12  9.371108E+05 -7.953732E+04 -4.793533E+04 -1.817751E+04 -2.990641E-12 -3.894314E-11
       198  13  1.249266E+06  4.342825E+04  9.631088E+04 -1.367099E+04 -4.963440E-11 -8.345060E-10
       198  14  1.240083E+06 -8.779079E+03  4.715470E+04  2.258938E+03  9.254726E-10 -3.439552E-10
       198  15  1.249306E+06 -1.811708E+03  2.882161E+04 -1.360311E+04  1.576228E-09  2.472060E-12
       198  16  1.614392E+06  1.342490E+05  1.860319E+05 -2.175173E+04  9.223431E-10  3.852025E-10
       198  17  1.578768E+06  7.547440E+04  1.302965E+05  5.065450E+02  3.840137E-10 -1.950918E-09
       198  18  1.561589E+06  7.590674E+04  1.055714E+05 -9.026428E+03  1.954752E-09  3.990279E-10
       198  19  8.842662E+05 -4.740075E+04  6.589715E+03 -5.594639E+03 -7.118974E+04 -7.024952E+03
       198  20  9.015050E+05 -9.304040E+04 -3.599128E+04  4.010606E+03 -4.695619E+04 -6.916724E+03
       198  21  9.371113E+05 -7.953714E+04 -4.793429E+04 -1.817740E+04 -2.272277E+04 -5.926062E+03
       198  22  1.249272E+06  4.342967E+04  9.632051E+04 -1.367059E+04 -7.133377E+04 -7.023943E+03
       198  23  1.240086E+06 -8.778440E+03  4.715890E+04  2.259199E+03 -4.681158E+04 -6.916151E+03
       198  24  1.249306E+06 -1.811537E+03  2.882261E+04 -1.360300E+04 -2.229054E+04 -5.925645E+03
       198  25  1.614398E+06  1.342505E+05  1.860416E+05 -2.175133E+04 -7.147788E+04 -7.022931E+03
       198  26  1.578770E+06  7.547503E+04  1.303007E+05  5.068047E+02 -4.666688E+04 -6.915579E+03
       198  27  1.561590E+06  7.590691E+04  1.055723E+05 -9.026324E+03 -2.185810E+04 -5.925222E+03
       199   1  9.974492E+05 -5.610577E+04 -3.809145E+04 -1.201387E+04  1.787920E+04  5.264249E+03
       199   2  1.019508E+06 -5.715641E+04 -4.314909E+04  1.400701E+03  1.176098E+04  4.501197E+03
       199   3  1.044512E+06 -5.035639E+04 -4.222713E+04 -1.350604E+04  5.641976E+03  3.681950E+03
       199   4  1.245876E+06  5.709303E+03  2.287124E+04 -1.285517E+04  1.765570E+04  5.263922E+03
       199   5  1.244406E+06 -1.184611E+03  1.209212E+04  1.307234E+03  1.151772E+04  4.500960E+03
       199   6  1.245882E+06 -2.261833E+02  7.304491E+03 -1.285100E+04  5.379174E+03  3.681800E+03
       199   7  1.494358E+06  6.751981E+04  8.382939E+04 -1.369681E+04  1.743210E+04  5.263595E+03
       199   8  1.469350E+06  5.478344E+04  6.732961E+04  1.213728E+03  1.127436E+04  4.500723E+03
       199   9  1.447289E+06  4.990101E+04  5.683312E+04 -1.219575E+04  5.116286E+03  3.681648E+03
       199  10  9.974489E+05 -5.610589E+04 -3.809210E+04 -1.201395E+04  1.027096E-09  1.763627E-10
       199  11  1.019508E+06 -5.715647E+04 -4.314938E+04  1.400659E+03  3.902752E-10  1.129887E-10
       199  12  1.044512E+06 -5.035641E+04 -4.222721E+04 -1.350605E+04 -1.696689E-09 -1.137732E-10
       199  13  1.245875E+06  5.709190E+03  2.287060E+04 -1.285524E+04  1.026917E-09  2.362343E-10
       199  14  1.244406E+06 -1.184668E+03  1.209183E+04  1.307193E+03  2.288498E-09 -4.226229E-10
       199  15  1.245882E+06 -2.262056E+02  7.304411E+03 -1.285101E+04  1.319130E-09  1.861394E-10
       199  16  1.494358E+06  6.751970E+04  8.382877E+04 -1.369688E+04 -9.095673E-10 -3.309820E-11
       199  17  1.469350E+06  5.478338E+04  6.732933E+04  1.213687E+03  9.389040E-10 -9.656530E-10
       199  18  1.447289E+06  4.990099E+04  5.683305E+04 -1.219576E+04  1.485406E-09 -2.929841E-10
       199  19  9.974492E+05 -5.610577E+04 -3.809145E+04 -1.201387E+04 -1.787920E+04 -5.264249E+03
       199  20  1.019508E+06 -5.715641E+04 -4.314909E+04  1.400701E+03 -1.176098E+04 -4.501197E+03
       199  21  1.044512E+06 -5.035639E+04 -4.222713E+04 -1.350604E+04 -5.641976E+03 -3.681950E+03
       199  22  1.245876E+06  5.709303E+03  2.287124E+04 -1.285517E+04 -1.765570E+04 -5.263922E+03
       199  23  1.244406E+06 -1.184611E+03  1.209212E+04  1.307234E+03 -1.151772E+04 -4.500960E+03
       199  24  1.245882E+06 -2.261833E+02  7.304491E+03 -1.285100E+04 -5.379174E+03 -3.681800E+03
       199  25  1.494358E+06  6.751981E+04  8.382939E+04 -1.369681E+04 -1.743210E+04 -5.263595E+03
       199  26  1.469350E+06  5.478344E+04  6.732961E+04  1.213728E+03 -1.127436E+04 -4.500723E+03
       199  27  1.447289E+06  4.990101E+04  5.683312E+04 -1.219575E+04 -5.116286E+03 -3.681648E+03
       200   1  1.101907E+06 -3.495681E+04 -2.939830E+04 -1.230800E+04  4.444993E+03  3.203665E+03
       200   2  1.123411E+06 -3.044998E+04 -2.643536E+04  7.152341E+02  2.712081E+03  2.426311E+03
       200   3  1.145467E+06 -2.484222E+04 -2.206021E+04 -1.246934E+04  9.788255E+02  1.667362E+03
       200   4  1.245355E+06  7.288746E+02  5.766902E+03 -1.238275E+04  4.199998E+03  3.203565E+03
       200   5  1.245081E+06 -1.707288E+02  3.449613E+03  7.210642E+02  2.472478E+03  2.426256E+03
       200   6  1.245357E+06  2.955306E+01  2.540593E+03 -1.238261E+04  7.446748E+02  1.667351E+03
       200   7  1.388823E+06  3.641304E+04  4.093059E+04 -1.245752E+04  3.954946E+03  3.203466E+03
       200   8  1.366765E+06  3.010743E+04  3.333350E+04  7.268951E+02  2.232828E+03  2.426202E+03
       200   9  1.345255E+06  2.490058E+04  2.714066E+04 -1.229587E+04  5.104865E+02  1.667340E+03
       200  10  1.101907E+06 -3.495683E+04 -2.939835E+04 -1.230802E+04 -2.108120E-09  3.865133E-10
       200  11  1.123411E+06 -3.044999E+04 -2.643539E+04  7.152288E+02 -2.808357E-09  5.723903E-11
       200  12  1.145467E+06 -2.484222E+04 -2.206021E+04 -1.246934E+04 -4.779215E-10 -6.034175E-10
       200  13  1.245355E+06  7.288588E+02  5.766849E+03 -1.238276E+04 -3.823079E-10 -1.386400E-10
       200  14  1.245081E+06 -1.707367E+02  3.449590E+03  7.210594E+02  2.087980E-10 -2.370588E-11
       200  15  1.245357E+06  2.954993E+01  2.540586E+03 -1.238261E+04 -4.986724E-10 -1.758813E-10
       200  16  1.388823E+06  3.641302E+04  4.093055E+04 -1.245753E+04  2.656785E-10  6.019757E-10
       200  17  1.366765E+06  3.010742E+04  3.333348E+04  7.268907E+02 -1.444525E-09  7.971665E-11
       200  18  1.345255E+06  2.490058E+04  2.714065E+04 -1.229587E+04 -9.256106E-10 -7.114904E-10
       200  19  1.101907E+06 -3.495681E+04 -2.939830E+04 -1.230800E+04 -4.444993E+03 -3.203665E+03
       200  20  1.123411E+06 -3.044998E+04 -2.643536E+04  7.152341E+02 -2.712081E+03 -2.426311E+03
       200  21  1.145467E+06 -2.484222E+04 -2.206021E+04 -1.246934E+04 -9.788255E+02 -1.667362E+03
       200  22  1.245355E+06  7.288746E+02  5.766902E+03 -1.238275E+04 -4.199998E+03 -3.203565E+03
       200  23  1.245081E+06 -1.707288E+02  3.449613E+03  7.210642E+02 -2.472478E+03 -2.426256E+03
       200  24  1.245357E+06  2.955306E+01  2.540593E+03 -1.238261E+04 -7.446748E+02 -1.667351E+03
       200  25  1.388823E+06  3.641304E+04  4.093059E+04 -1.245752E+04 -3.954946E+03 -3.203466E+03
       200  26  1.366765E+06  3.010743E+04  3.333350E+04  7.268951E+02 -2.232828E+03 -2.426202E+03
       200  27  1.345255E+06  2.490058E+04  2.714066E+04 -1.229587E+04 -5.104865E+02 -1.667340E+03
       201   1  1.200169E+06 -1.114531E+04 -8.657197E+03 -1.213078E+04  5.372652E+02  1.229328E+03
       201   2  1.221043E+06 -6.107440E+03 -3.425200E+03  4.693983E+02 -7.139366E+02  4.795029E+02
       201   3  1.242258E+06 -3.427250E+02  2.801138E+03 -1.225108E+04 -1.965216E+03 -2.573459E+02
       201   4  1.245313E+06  7.551122E+01  2.363833E+03 -1.218557E+04  3.009422E+02  1.229338E+03
       201   5  1.245142E+06 -1.102946E+02  2.494030E+03  4.747457E+02 -9.462600E+02  4.795201E+02
       201   6  1.245312E+06  4.301478E+02  3.615881E+03 -1.218553E+04 -2.193498E+03 -2.573203E+02
       201   7  1.290459E+06  1.129618E+04  1.338472E+04 -1.224037E+04  6.460205E+01  1.229348E+03
       201   8  1.269242E+06  5.886808E+03  8.413218E+03  4.800934E+02 -1.178592E+03  4.795373E+02
       201   9  1.248366E+06  1.203020E+03  4.430623E+03 -1.211998E+04 -2.421781E+03 -2.572947E+02
       201  10  1.200169E+06 -1.114531E+04 -8.657200E+03 -1.213078E+04 -9.339906E-10  5.446492E-11
       201  11  1.221043E+06 -6.107440E+03 -3.425202E+03  4.693986E+02  9.718758E-10  1.832568E-10
       201  12  1.242258E+06 -3.427261E+02  2.801130E+03 -1.225108E+04 -6.591849E-10  2.165209E-10
       201  13  1.245313E+06  7.550957E+01  2.363830E+03 -1.218557E+04 -1.527212E-09  1.237048E-11
       201  14  1.245142E+06 -1.102951E+02  2.494028E+03  4.747461E+02 -9.798836E-10  5.616512E-10
       201  15  1.245312E+06  4.301465E+02  3.615872E+03 -1.218553E+04  1.091191E-09 -3.733998E-10
       201  16  1.290459E+06  1.129618E+04  1.338471E+04 -1.224037E+04  2.582834E-11 -2.127395E-10
       201  17  1.269242E+06  5.886807E+03  8.413215E+03  4.800938E+02 -1.449029E-09  5.084953E-10
       201  18  1.248366E+06  1.203018E+03  4.430612E+03 -1.211998E+04 -5.215463E-10 -1.246533E-10
       201  19  1.200169E+06 -1.114531E+04 -8.657197E+03 -1.213078E+04 -5.372652E+02 -1.229328E+03
       201  20  1.221043E+06 -6.107440E+03 -3.425200E+03  4.693983E+02  7.139366E+02 -4.795029E+02
       201  21  1.242258E+06 -3.427250E+02  2.801138E+03 -1.225108E+04  1.965216E+03  2.573459E+02
       201  22  1.245313E+06  7.551122E+01  2.363833E+03 -1.218557E+04 -3.009422E+02 -1.229338E+03
       201  23  1.245142E+06 -1.102946E+02  2.494030E+03  4.747457E+02  9.462600E+02 -4.795201E+02
       201  24  1.245312E+06  4.301478E+02  3.615881E+03 -1.218553E+04  2.193498E+03  2.573203E+02
       201  25  1.290459E+06  1.129618E+04  1.338472E+04 -1.224037E+04 -6.460205E+01 -1.229348E+03
       201  26  1.269242E+06  5.886808E+03  8.413218E+03  4.800934E+02  1.178592E+03 -4.795373E+02
       201  27  1.248366E+06  1.203020E+03  4.430623E+03 -1.211998E+04  2.421781E+03  2.572947E+02
       202   1  1.296662E+06  1.260300E+04  1.703610E+04 -1.190336E+04 -2.676049E+03 -6.981115E+02
       202   2  1.317141E+06  1.732486E+04  2.486965E+04  4.466253E+02 -6.295344E+03 -1.449776E+03
       202   3  1.339242E+06  2.660051E+04  3.619706E+04 -1.281578E+04 -9.914667E+03 -2.148163E+03
       202   4  1.245596E+06 -1.172206E+02  4.429323E+03 -1.225043E+04 -2.919150E+03 -6.980895E+02
       202   5  1.244784E+06 -6.797376E+02  7.100733E+03  5.557963E+02 -6.521425E+03 -1.449783E+03
       202   6  1.245592E+06  3.308873E+03  1.325449E+04 -1.225054E+04 -1.012361E+04 -2.148201E+03
       202   7  1.194532E+06 -1.283763E+04 -8.177644E+03 -1.259747E+04 -3.162231E+03 -6.980672E+02
       202   8  1.172432E+06 -1.868472E+04 -1.066857E+04  6.649547E+02 -6.747480E+03 -1.449791E+03
       202   9  1.151950E+06 -1.998341E+04 -9.688715E+03 -1.168538E+04 -1.033251E+04 -2.148240E+03
       202  10  1.296662E+06  1.260299E+04  1.703608E+04 -1.190336E+04 -2.353351E-10 -1.566423E-10
       202  11  1.317141E+06  1.732485E+04  2.486958E+04  4.466179E+02  2.621892E-10  7.065958E-11
       202  12  1.339242E+06  2.660048E+04  3.619687E+04 -1.281580E+04 -1.626972E-09 -2.780670E-10
       202  13  1.245596E+06 -1.172234E+02  4.429306E+03 -1.225043E+04  4.829129E-10 -3.675013E-10
       202  14  1.244784E+06 -6.797512E+02  7.100649E+03  5.557887E+02 -2.019496E-09  1.125530E-10
       202  15  1.245592E+06  3.308840E+03  1.325429E+04 -1.225056E+04  6.520304E-10 -2.056051E-10
       202  16  1.194532E+06 -1.283763E+04 -8.177664E+03 -1.259747E+04  2.247679E-10 -1.171602E-10
       202  17  1.172432E+06 -1.868474E+04 -1.066866E+04  6.649468E+02  1.584619E-09 -2.357860E-11
       202  18  1.151949E+06 -1.998345E+04 -9.688924E+03 -1.168539E+04  1.883113E-09 -6.196211E-11
       202  19  1.296662E+06  1.260300E+04  1.703610E+04 -1.190336E+04  2.676049E+03  6.981115E+02
       202  20  1.317141E+06  1.732486E+04  2.486965E+04  4.466253E+02  6.295344E+03  1.449776E+03
       202  21  1.339242E+06  2.660051E+04  3.619706E+04 -1.281578E+04  9.914667E+03  2.148163E+03
       202  22  1.245596E+06 -1.172206E+02  4.429323E+03 -1.225043E+04  2.919150E+03  6.980895E+02
       202  23  1.244784E+06 -6.797376E+02  7.100733E+03  5.557963E+02  6.521425E+03  1.449783E+03
       202  24  1.245592E+06  3.308873E+03  1.325449E+04 -1.225054E+04  1.012361E+04  2.148201E+03
       202  25  1.194532E+06 -1.283763E+04 -8.177644E+03 -1.259747E+04  3.162231E+03  6.980672E+02
       202  26  1.172432E+06 -1.868472E+04 -1.066857E+04  6.649547E+02  6.747480E+03  1.449791E+03
       202  27  1.151950E+06 -1.998341E+04 -9.688715E+03 -1.168538E+04  1.033251E+04  2.148240E+03
       203   1  1.397220E+06  3.622227E+04  5.347957E+04 -1.004830E+04 -1.246295E+04 -2.686696E+03
       203   2  1.414496E+06  3.778573E+04  6.949280E+04 -1.873757E+02 -2.679714E+04 -3.507858E+03
       203   3  1.442275E+06  7.351061E+04  1.033847E+05 -1.743062E+04 -4.113182E+04 -3.761382E+03
       203   4  1.247559E+06 -1.029693E+03  1.666481E+04 -1.257887E+04 -1.280543E+04 -2.686724E+03
       203   5  1.242311E+06 -5.053858E+03  2.722193E+04  9.679520E+02 -2.695877E+04 -3.508017E+03
       203   6  1.247538E+06  2.505733E+04  5.553607E+04 -1.258973E+04 -4.111207E+04 -3.761772E+03
       203   7  1.097918E+06 -3.828329E+04 -2.015158E+04 -1.510884E+04 -1.314783E+04 -2.686749E+03
       203   8  1.070153E+06 -4.789564E+04 -1.505112E+04  2.122957E+03 -2.712035E+04 -3.508177E+03
       203   9  1.052836E+06 -2.339868E+04  7.684699E+03 -7.750355E+03 -4.109232E+04 -3.762162E+03
       203  10  1.397220E+06  3.622222E+04  5.347926E+04 -1.004832E+04  2.046495E-09  2.540047E-10
       203  11  1.414495E+06  3.778553E+04  6.949143E+04 -1.874514E+02  6.339201E-10  4.794434E-11
       203  12  1.442273E+06  7.351014E+04  1.033815E+05 -1.743075E+04  1.883853E-09  4.350620E-11
       203  13  1.247559E+06 -1.029745E+03  1.666449E+04 -1.257890E+04  1.077193E-09 -7.302440E-11
       203  14  1.242310E+06 -5.054066E+03  2.722054E+04  9.678759E+02 -3.559246E-10  2.974799E-10
       203  15  1.247537E+06  2.505686E+04  5.553287E+04 -1.258985E+04  1.165830E-09  4.303358E-11
       203  16  1.097918E+06 -3.828334E+04 -2.015192E+04 -1.510887E+04 -2.118735E-09 -3.733461E-10
       203  17  1.070152E+06 -4.789585E+04 -1.505252E+04  2.122881E+03 -1.848679E-09 -4.315864E-10
       203  18  1.052834E+06 -2.339914E+04  7.681504E+03 -7.750479E+03 -5.280552E-10  5.580271E-10
       203  19  1.397220E+06  3.622227E+04  5.347957E+04 -1.004830E+04  1.246295E+04  2.686696E+03
       203  20  1.414496E+06  3.778573E+04  6.949280E+04 -1.873757E+02  2.679714E+04  3.507858E+03
       203  21  1.442275E+06  7.351061E+04  1.033847E+05 -1.743062E+04  4.113182E+04  3.761382E+03
       203  22  1.247559E+06 -1.029693E+03  1.666481E+04 -1.257887E+04  1.280543E+04  2.686724E+03
       203  23  1.242311E+06 -5.053858E+03  2.722193E+04  9.679520E+02  2.695877E+04  3.508017E+03
       203  24  1.247538E+06  2.505733E+04  5.553607E+04 -1.258973E+04  4.111207E+04  3.761772E+03
       203  25  1.097918E+06 -3.828329E+04 -2.015158E+04 -1.510884E+04  1.314783E+04  2.686749E+03
       203  26  1.070153E+06 -4.789564E+04 -1.505112E+04  2.122957E+03  2.712035E+04  3.508177E+03
       203  27  1.052836E+06 -2.339868E+04  7.684699E+03 -7.750355E+03  4.109232E+04  3.762162E+03
       204   1  1.516304E+06  5.561920E+04  1.301224E+05  5.234603E+03 -5.086215E+04 -5.047080E+03
       204   2  1.505307E+06  3.202436E+04  1.732326E+05 -8.564069E+03 -1.094226E+05 -6.263769E+03
       204   3  1.566061E+06  2.640037E+05  3.183588E+05 -5.236752E+04 -1.679887E+05 -2.321350E+03
       204   4  1.261121E+06 -7.900946E+03  6.744100E+04 -1.316346E+04 -5.202273E+04 -5.046373E+03
       204   5  1.225314E+06 -3.759564E+04  1.046023E+05  1.734008E+03 -1.089495E+05 -6.265388E+03
       204   6  1.261007E+06  1.880596E+05  2.426799E+05 -1.337194E+04 -1.658793E+05 -2.329676E+03
       204   7  1.005997E+06 -7.142466E+04  4.754975E+03 -3.155398E+04 -5.318283E+04 -5.045598E+03
       204   8  9.453918E+05 -1.072210E+05  3.596618E+04  1.202743E+04 -1.084765E+05 -6.266991E+03
       204   9  9.560403E+05  1.121143E+05  1.669949E+05  2.560448E+04 -1.637710E+05 -2.337742E+03
       204  10  1.516302E+06  5.561848E+04  1.301175E+05  5.234396E+03  2.433421E-10 -3.266591E-10
       204  11  1.505294E+06  3.202112E+04  1.732101E+05 -8.564621E+03  1.291639E-09 -1.357769E-10
       204  12  1.566031E+06  2.639962E+05  3.183059E+05 -5.236783E+04  1.260822E-09  4.286620E-10
       204  13  1.261118E+06 -7.901698E+03  6.743587E+04 -1.316367E+04  2.024347E-10 -9.267785E-10
       204  14  1.225301E+06 -3.759886E+04  1.045799E+05  1.733458E+03 -3.349728E-09  1.759128E-10
       204  15  1.260978E+06  1.880523E+05  2.426283E+05 -1.337226E+04  2.876909E-09 -5.350427E-10
       204  16  1.005994E+06 -7.142544E+04  4.749620E+03 -3.155419E+04  4.891452E-10  6.727160E-10
       204  17  9.453791E+05 -1.072242E+05  3.594403E+04  1.202688E+04 -4.834702E-10 -5.114316E-10
       204  18  9.560115E+05  1.121071E+05  1.669446E+05  2.560417E+04 -1.801825E-09  9.316626E-10
       204  19  1.516304E+06  5.561920E+04  1.301224E+05  5.234603E+03  5.086215E+04  5.047080E+03
       204  20  1.505307E+06  3.202436E+04  1.732326E+05 -8.564069E+03  1.094226E+05  6.263769E+03
       204  21  1.566061E+06  2.640037E+05  3.183588E+05 -5.236752E+04  1.679887E+05  2.321350E+03
       204  22  1.261121E+06 -7.900946E+03  6.744100E+04 -1.316346E+04  5.202273E+04  5.046373E+03
       204  23  1.225314E+06 -3.759564E+04  1.046023E+05  1.734008E+03  1.089495E+05  6.265388E+03
       204  24  1.261007E+06  1.880596E+05  2.426799E+05 -1.337194E+04  1.658793E+05  2.329676E+03
       204  25  1.005997E+06 -7.142466E+04  4.754975E+03 -3.155398E+04  5.318283E+04  5.045598E+03
       204  26  9.453918E+05 -1.072210E+05  3.596618E+04  1.202743E+04  1.084765E+05  6.266991E+03
       204  27  9.560403E+05  1.121143E+05  1.669949E+05  2.560448E+04  1.637710E+05  2.337742E+03
       205   1  6.896113E+05  2.062318E+06  6.622374E+05 -7.705847E+05  2.496134E+04  2.210218E+05
       205   2  4.754693E+05  1.458022E+06  4.038370E+05 -6.931151E+05  7.849024E+04  8.359468E+04
       205   3  3.168724E+05  8.852458E+05  2.485646E+05 -7.196148E+05  7.633101E+04 -5.384350E+04
       205   4  7.679105E+04 -4.177292E+05  7.792419E+04 -7.150928E+05  2.568079E+04  5.183042E+04
       205   5  2.671460E+04 -4.229027E+05  4.106571E+04 -6.632437E+05  7.874126E+04  3.108956E+04
       205   6  1.207395E+04 -4.170153E+05  2.651846E+04 -7.153586E+05  7.604673E+04  1.020096E+04
       205   7 -5.364431E+05 -2.892061E+06 -5.067044E+05 -6.598146E+05  2.637183E+04 -1.166909E+05
       205   8 -4.222461E+05 -2.300423E+06 -3.218594E+05 -6.334596E+05  7.898771E+04 -2.126050E+04
       205   9 -2.928124E+05 -1.717600E+06 -1.955683E+05 -7.111089E+05  7.576294E+04  7.411547E+04
       205  10  6.895976E+05  2.062265E+06  6.621447E+05 -7.705891E+05 -7.025537E-10  2.653409E-09
       205  11  4.754608E+05  1.458013E+06  4.038123E+05 -6.931204E+05 -9.455985E-10 -5.080792E-09
       205  12  3.168654E+05  8.852411E+05  2.485482E+05 -7.196115E+05 -7.854677E-10 -2.275349E-09
       205  13  7.678962E+04 -4.177322E+05  7.791789E+04 -7.150938E+05  1.388082E-09  2.683315E-10
       205  14  2.670768E+04 -4.229054E+05  4.105223E+04 -6.632457E+05  1.494153E-09  1.976690E-09
       205  15  1.206771E+04 -4.170169E+05  2.650740E+04 -7.153592E+05  1.821454E-09 -3.598921E-10
       205  16 -5.364476E+05 -2.892076E+06 -5.067314E+05 -6.598121E+05  9.025077E-10 -1.278254E-09
       205  17 -4.222529E+05 -2.300425E+06 -3.218719E+05 -6.334583E+05  2.904291E-09  2.819485E-09
       205  18 -2.928201E+05 -1.717608E+06 -1.955894E+05 -7.111134E+05 -4.415108E-11  1.019597E-09
       205  19  6.896113E+05  2.062318E+06  6.622374E+05 -7.705847E+05 -2.496134E+04 -2.210218E+05
       205  20  4.754693E+05  1.458022E+06  4.038370E+05 -6.931151E+05 -7.849024E+04 -8.359468E+04
       205  21  3.168724E+05  8.852458E+05  2.485646E+05 -7.196148E+05 -7.633101E+04  5.384350E+04
       205  22  7.679105E+04 -4.177292E+05  7.792419E+04 -7.150928E+05 -2.568079E+04 -5.183042E+04
       205  23  2.671460E+04 -4.229027E+05  4.106571E+04 -6.632437E+05 -7.874126E+04 -3.108956E+04
       205  24  1.207395E+04 -4.170153E+05  2.651846E+04 -7.153586E+05 -7.604673E+04 -1.020096E+04
       205  25 -5.364431E+05 -2.892061E+06 -5.067044E+05 -6.598146E+05 -2.637183E+04  1.166909E+05
       205  26 -4.222461E+05 -2.300423E+06 -3.218594E+05 -6.334596E+05 -7.898771E+04  2.126050E+04
       205  27 -2.928124E+05 -1.717600E+06 -1.955683E+05 -7.111089E+05 -7.576294E+04 -7.411547E+04
       206   1  2.282689E+05  5.103071E+05  1.794854E+05 -7.224557E+05  5.625193E+04 -5.759602E+04
       206   2  8.740939E+04 -7.939839E+04  7.412902E+04 -6.627504E+05  2.491181E+04 -7.240098E+04
       206   3 -4.506101E+04 -6.656338E+05 -1.976123E+04 -7.107442E+05 -8.110822E+03 -8.720567E+04
       206   4  1.119016E+04 -4.187592E+05  2.332180E+04 -7.161721E+05  5.595527E+04  6.252017E+03
       206   5  8.929334E+03 -4.199510E+05  2.235562E+04 -6.623166E+05  2.459205E+04 -5.059808E+03
       206   6  1.446684E+04 -4.186231E+05  3.042491E+04 -7.161589E+05 -8.454349E+03 -1.638437E+04
       206   7 -2.059316E+05 -1.346966E+06 -1.328536E+05 -7.098969E+05  5.565961E+04  7.000769E+04
       206   8 -6.955385E+04 -7.603776E+05 -2.940317E+04 -6.618829E+05  2.427227E+04  6.224587E+04
       206   9  7.399368E+04 -1.715434E+05  8.062676E+04 -7.215757E+05 -8.799028E+03  5.446460E+04
       206  10  2.282646E+05  5.103027E+05  1.794732E+05 -7.224531E+05 -1.412756E-11  4.158039E-09
       206  11  8.740732E+04 -7.940418E+04  7.411801E+04 -6.627490E+05  8.834370E-10 -6.477625E-09
       206  12 -4.506312E+04 -6.656420E+05 -1.977567E+04 -7.107448E+05 -9.252364E-10 -4.759078E-09
       206  13  1.118679E+04 -4.187601E+05  2.331584E+04 -7.161724E+05  5.177732E-10 -3.012797E-10
       206  14  8.928678E+03 -4.199512E+05  2.235444E+04 -6.623165E+05 -2.861050E-09  1.817109E-09
       206  15  1.446669E+04 -4.186234E+05  3.042428E+04 -7.161590E+05 -2.170680E-09 -4.448089E-10
       206  16 -2.059362E+05 -1.346972E+06 -1.328687E+05 -7.099000E+05  7.719657E-10 -3.753675E-09
       206  17 -6.955553E+04 -7.603819E+05 -2.941157E+04 -6.618841E+05 -1.586596E-09  2.437661E-09
       206  18  7.399280E+04 -1.715466E+05  8.062104E+04 -7.215753E+05  1.770068E-09  3.759109E-09
       206  19  2.282689E+05  5.103071E+05  1.794854E+05 -7.224557E+05 -5.625193E+04  5.759602E+04
       206  20  8.740939E+04 -7.939839E+04  7.412902E+04 -6.627504E+05 -2.491181E+04  7.240098E+04
       206  21 -4.506101E+04 -6.656338E+05 -1.976123E+04 -7.107442E+05  8.110822E+03  8.720567E+04
       206  22  1.119016E+04 -4.187592E+05  2.332180E+04 -7.161721E+05 -5.595527E+04 -6.252017E+03
       206  23  8.929334E+03 -4.199510E+05  2.235562E+04 -6.623166E+05 -2.459205E+04  5.059808E+03
       206  24  1.446684E+04 -4.186231E+05  3.042491E+04 -7.161589E+05  8.454349E+03  1.638437E+04
       206  25 -2.059316E+05 -1.346966E+06 -1.328536E+05 -7.098969E+05 -5.565961E+04 -7.000769E+04
       206  26 -6.955385E+04 -7.603776E+05 -2.940317E+04 -6.618829E+05 -2.427227E+04 -6.224587E+04
       206  27  7.399368E+04 -1.715434E+05  8.062676E+04 -7.215757E+05  8.799028E+03 -5.446460E+04
       207   1 -1.303898E+05 -1.034168E+06 -7.611411E+04 -7.136845E+05 -2.967675E+04 -9.255459E+04
       207   2 -2.471615E+05 -1.623097E+06 -1.760513E+05 -6.198591E+05 -4.337083E+04 -3.982771E+04
       207   3 -3.218560E+05 -2.208753E+06 -3.000470E+05 -6.311565E+05 -1.586528E+04  1.297535E+04
       207   4  1.628108E+04 -4.152827E+05  3.777450E+04 -7.156077E+05 -3.001644E+04 -2.163613E+04
       207   5  4.147263E+04 -4.244143E+05  6.484338E+04 -6.628449E+05 -4.329265E+04 -5.480285E+04
       207   6  1.236250E+05 -4.157250E+05  1.275378E+05 -7.151525E+05 -1.541289E+04 -8.784434E+04
       207   7  1.629328E+05  2.039859E+05  1.516662E+05 -7.175323E+05 -3.035635E+04  4.935127E+04
       207   8  3.300245E+05  7.756459E+05  3.056665E+05 -7.059133E+05 -4.321249E+04 -6.980632E+04
       207   9  5.689036E+05  1.380295E+06  5.549383E+05 -7.993881E+05 -1.493395E+04 -1.889544E+05
       207  10 -1.303930E+05 -1.034178E+06 -7.613190E+04 -7.136867E+05  3.727058E-13  5.301243E-09
       207  11 -2.471639E+05 -1.623100E+06 -1.760579E+05 -6.198605E+05  1.636460E-09 -5.291383E-09
       207  12 -3.218563E+05 -2.208753E+06 -3.000478E+05 -6.311564E+05 -1.776166E-10 -4.201331E-09
       207  13  1.627999E+04 -4.152835E+05  3.777192E+04 -7.156083E+05  5.542072E-10 -1.026760E-09
       207  14  4.146981E+04 -4.244181E+05  6.483420E+04 -6.628468E+05 -2.966006E-09  1.837987E-09
       207  15  1.236226E+05 -4.157334E+05  1.275228E+05 -7.151536E+05  9.203457E-10 -1.992340E-10
       207  16  1.629312E+05  2.039830E+05  1.516600E+05 -7.175311E+05  2.466994E-10 -3.867059E-09
       207  17  3.300211E+05  7.756402E+05  3.056539E+05 -7.059158E+05  2.651589E-09  1.692481E-09
       207  18  5.688938E+05  1.380257E+06  5.548709E+05 -7.993904E+05  2.037475E-09  3.644341E-09
       207  19 -1.303898E+05 -1.034168E+06 -7.611411E+04 -7.136845E+05  2.967675E+04  9.255459E+04
       207  20 -2.471615E+05 -1.623097E+06 -1.760513E+05 -6.198591E+05  4.337083E+04  3.982771E+04
       207  21 -3.218560E+05 -2.208753E+06 -3.000470E+05 -6.311565E+05  1.586528E+04 -1.297535E+04
       207  22  1.628108E+04 -4.152827E+05  3.777450E+04 -7.156077E+05  3.001644E+04  2.163613E+04
       207  23  4.147263E+04 -4.244143E+05  6.484338E+04 -6.628449E+05  4.329265E+04  5.480285E+04
       207  24  1.236250E+05 -4.157250E+05  1.275378E+05 -7.151525E+05  1.541289E+04  8.784434E+04
       207  25  1.629328E+05  2.039859E+05  1.516662E+05 -7.175323E+05  3.035635E+04 -4.935127E+04
       207  26  3.300245E+05  7.756459E+05  3.056665E+05 -7.059133E+05  4.321249E+04  6.980632E+04
       207  27  5.689036E+05  1.380295E+06  5.549383E+05 -7.993881E+05  1.493395E+04  1.889544E+05
       208   1 -2.660801E+06 -1.039087E+06 -5.448277E+05 -9.884278E+05 -1.905055E+05 -3.339530E+04
       208   2 -2.470885E+06 -9.724365E+05 -4.010424E+05 -9.305088E+05 -1.232029E+05  8.314439E+04
       208   3 -2.268800E+06 -9.290213E+05 -3.292085E+05 -9.046642E+05 -3.456270E+04  1.434310E+05
       208   4 -3.123607E+05 -1.833908E+05  4.995768E+04 -3.712918E+05  1.969446E+04  4.599381E+04
       208   5 -3.319115E+05 -2.016357E+05  2.358118E+04 -3.480411E+05 -2.253407E+04  1.210835E+05
       208   6 -3.175383E+05 -2.213661E+05  1.234277E+04 -3.568724E+05 -4.350134E+04  1.400110E+05
       208   7  2.041487E+06  6.725911E+05  6.444700E+05  2.479338E+05  2.307617E+05  1.256870E+05
       208   8  1.811801E+06  5.695327E+05  4.480269E+05  2.362752E+05  7.850774E+04  1.591581E+05
       208   9  1.637798E+06  4.866804E+05  3.537867E+05  1.925441E+05 -5.247027E+04  1.365796E+05
       208  10 -2.660841E+06 -1.039098E+06 -5.448983E+05 -9.884330E+05 -5.883629E-08 -2.206148E-08
       208  11 -2.470903E+06 -9.724480E+05 -4.010839E+05 -9.305006E+05 -9.342943E-09 -2.301121E-09
       208  12 -2.268807E+06 -9.290437E+05 -3.292494E+05 -9.046602E+05  5.200486E-08  2.321681E-08
       208  13 -3.123617E+05 -1.833932E+05  4.995297E+04 -3.712925E+05 -3.937403E-09 -1.052383E-09
       208  14 -3.319159E+05 -2.016516E+05  2.355268E+04 -3.480389E+05 -1.013662E-08 -6.048631E-09
       208  15 -3.175455E+05 -2.213876E+05  1.230239E+04 -3.568675E+05 -3.720496E-09 -7.145124E-10
       208  16  2.041425E+06  6.725599E+05  6.443406E+05  2.479105E+05  5.080562E-08  2.130368E-08
       208  17  1.811788E+06  5.695039E+05  4.479678E+05  2.362652E+05 -1.160063E-08 -4.031687E-09
       208  18  1.637790E+06  4.866596E+05  3.537465E+05  1.925498E+05 -6.164161E-08 -2.537109E-08
       208  19 -2.660801E+06 -1.039087E+06 -5.448277E+05 -9.884278E+05  1.905055E+05  3.339530E+04
       208  20 -2.470885E+06 -9.724365E+05 -4.010424E+05 -9.305088E+05  1.232029E+05 -8.314439E+04
       208  21 -2.268800E+06 -9.290213E+05 -3.292085E+05 -9.046642E+05  3.456270E+04 -1.434310E+05
       208  22 -3.123607E+05 -1.833908E+05  4.995768E+04 -3.712918E+05 -1.969446E+04 -4.599381E+04
       208  23 -3.319115E+05 -2.016357E+05  2.358118E+04 -3.480411E+05  2.253407E+04 -1.210835E+05
       208  24 -3.175383E+05 -2.213661E+05  1.234277E+04 -3.568724E+05  4.350134E+04 -1.400110E+05
       208  25  2.041487E+06  6.725911E+05  6.444700E+05  2.479338E+05 -2.307617E+05 -1.256870E+05
       208  26  1.811801E+06  5.695327E+05  4.480269E+05  2.362752E+05 -7.850774E+04 -1.591581E+05
       208  27  1.637798E+06  4.866804E+05  3.537867E+05  1.925441E+05  5.247027E+04 -1.365796E+05
       209   1 -2.149712E+06 -8.832113E+05 -3.049279E+05 -8.702840E+05 -3.793497E+04  1.372718E+05
       209   2 -1.975730E+06 -8.022204E+05 -2.656527E+05 -8.033001E+05 -2.691374E+04  1.349685E+05
       209   3 -1.776265E+06 -7.483907E+05 -2.330557E+05 -7.667352E+05 -1.372387E+04  1.268800E+05
       209   4 -3.182243E+05 -2.223556E+05  9.192701E+03 -3.580546E+05 -4.328089E+04  1.352109E+05
       209   5 -3.320862E+05 -2.108175E+05  4.761810E+03 -3.424468E+05 -4.353483E+04  1.286722E+05
       209   6 -3.182669E+05 -2.242004E+05  2.604971E+03 -3.572651E+05 -4.162623E+04  1.163560E+05
       209   7  1.516834E+06  4.388320E+05  3.232188E+05  1.555920E+05 -4.864374E+04  1.331438E+05
       209   8  1.314444E+06  3.808579E+05  2.751128E+05  1.195517E+05 -6.020272E+04  1.223584E+05
       209   9  1.142000E+06  3.002046E+05  2.382201E+05  5.310665E+04 -6.959793E+04  1.058061E+05
       209  10 -2.149719E+06 -8.832319E+05 -3.049660E+05 -8.702798E+05 -6.900096E-09  3.901995E-09
       209  11 -1.975736E+06 -8.022401E+05 -2.656883E+05 -8.032972E+05  1.351763E-08  8.731084E-09
       209  12 -1.776270E+06 -7.484080E+05 -2.330863E+05 -7.667338E+05  1.925451E-08  6.901310E-09
       209  13 -3.182312E+05 -2.223757E+05  9.154833E+03 -3.580498E+05  4.062428E-09  3.364567E-09
       209  14 -3.320926E+05 -2.108358E+05  4.727143E+03 -3.424423E+05  1.384748E-08  6.563421E-09
       209  15 -3.182724E+05 -2.242154E+05  2.576279E+03 -3.572612E+05  5.342821E-09  4.043089E-09
       209  16  1.516827E+06  4.388123E+05  3.231811E+05  1.555972E+05  1.654992E-08  3.193144E-09
       209  17  1.314436E+06  3.808409E+05  2.750779E+05  1.195576E+05  1.386223E-08  6.104096E-09
       209  18  1.141992E+06  3.001913E+05  2.381900E+05  5.311257E+04 -8.144578E-09  1.292380E-09
       209  19 -2.149712E+06 -8.832113E+05 -3.049279E+05 -8.702840E+05  3.793497E+04 -1.372718E+05
       209  20 -1.975730E+06 -8.022204E+05 -2.656527E+05 -8.033001E+05  2.691374E+04 -1.349685E+05
       209  21 -1.776265E+06 -7.483907E+05 -2.330557E+05 -7.667352E+05  1.372387E+04 -1.268800E+05
       209  22 -3.182243E+05 -2.223556E+05  9.192701E+03 -3.580546E+05  4.328089E+04 -1.352109E+05
       209  23 -3.320862E+05 -2.108175E+05  4.761810E+03 -3.424468E+05  4.353483E+04 -1.286722E+05
       209  24 -3.182669E+05 -2.242004E+05  2.604971E+03 -3.572651E+05  4.162623E+04 -1.163560E+05
       209  25  1.516834E+06  4.388320E+05  3.232188E+05  1.555920E+05  4.864374E+04 -1.331438E+05
       209  26  1.314444E+06  3.808579E+05  2.751128E+05  1.195517E+05  6.020272E+04 -1.223584E+05
       209  27  1.142000E+06  3.002046E+05  2.382201E+05  5.310665E+04  6.959793E+04 -1.058061E+05
       210   1 -1.657874E+06 -7.052756E+05 -2.132029E+05 -7.334537E+05 -1.122994E+04  1.181158E+05
       210   2 -1.484719E+06 -6.244665E+05 -1.833547E+05 -6.657052E+05 -5.131514E+03  1.039350E+05
       210   3 -1.284671E+06 -5.705798E+05 -1.539829E+05 -6.285501E+05  1.180041E+03  8.915133E+04
       210   4 -3.182855E+05 -2.241897E+05  1.935117E+03 -3.574319E+05 -3.878039E+04  1.077337E+05
       210   5 -3.317260E+05 -2.106992E+05  1.021285E+03 -3.421488E+05 -3.385893E+04  9.312394E+04
       210   6 -3.180869E+05 -2.239011E+05  5.569071E+02 -3.574714E+05 -2.872480E+04  7.791200E+04
       210   7  1.023251E+06  2.570893E+05  2.170449E+05  1.935904E+04 -6.639432E+04  9.732769E+04
       210   8  8.227065E+05  2.032098E+05  1.853769E+05 -1.802406E+04 -6.264315E+04  8.229158E+04
       210   9  6.495043E+05  1.228754E+05  1.550825E+05 -8.599460E+04 -5.867906E+04  6.665410E+04
       210  10 -1.657878E+06 -7.052906E+05 -2.132294E+05 -7.334527E+05  9.658123E-11 -1.448643E-09
       210  11 -1.484722E+06 -6.244781E+05 -1.833751E+05 -6.657047E+05 -3.945049E-09  1.733409E-09
       210  12 -1.284673E+06 -5.705884E+05 -1.539979E+05 -6.285502E+05 -3.591570E-09  1.421495E-09
       210  13 -3.182902E+05 -2.242026E+05  1.910485E+03 -3.574286E+05 -1.073620E-09  2.201218E-09
       210  14 -3.317296E+05 -2.107088E+05  1.002839E+03 -3.421463E+05 -2.804422E-09  2.464587E-09
       210  15 -3.180894E+05 -2.239079E+05  5.439525E+02 -3.574696E+05 -1.443767E-09  1.448954E-09
       210  16  1.023244E+06  2.570779E+05  2.170189E+05  1.936424E+04 -1.237325E-09  6.006212E-09
       210  17  8.227004E+05  2.032015E+05  1.853568E+05 -1.801991E+04 -4.928300E-10  4.107272E-09
       210  18  6.494994E+05  1.228697E+05  1.550677E+05 -8.599145E+04  1.270452E-09  1.246459E-09
       210  19 -1.657874E+06 -7.052756E+05 -2.132029E+05 -7.334537E+05  1.122994E+04 -1.181158E+05
       210  20 -1.484719E+06 -6.244665E+05 -1.833547E+05 -6.657052E+05  5.131514E+03 -1.039350E+05
       210  21 -1.284671E+06 -5.705798E+05 -1.539829E+05 -6.285501E+05 -1.180041E+03 -8.915133E+04
       210  22 -3.182855E+05 -2.241897E+05  1.935117E+03 -3.574319E+05  3.878039E+04 -1.077337E+05
       210  23 -3.317260E+05 -2.106992E+05  1.021285E+03 -3.421488E+05  3.385893E+04 -9.312394E+04
       210  24 -3.180869E+05 -2.239011E+05  5.569071E+02 -3.574714E+05  2.872480E+04 -7.791200E+04
       210  25  1.023251E+06  2.570893E+05  2.170449E+05  1.935904E+04  6.639432E+04 -9.732769E+04
       210  26  8.227065E+05  2.032098E+05  1.853769E+05 -1.802406E+04  6.264315E+04 -8.229158E+04
       210  27  6.495043E+05  1.228754E+05  1.550825E+05 -8.599460E+04  5.867906E+04 -6.665410E+04
       211   1 -1.166170E+06 -5.278089E+05 -1.343178E+05 -5.953706E+05  4.434536E+03  8.017216E+04
       211   2 -9.926931E+05 -4.472657E+05 -1.050923E+05 -5.275705E+05  1.024228E+04  6.484641E+04
       211   3 -7.922670E+05 -3.935882E+05 -7.588420E+04 -4.904667E+05  1.606546E+04  4.945750E+04
       211   4 -3.180607E+05 -2.238406E+05  3.961141E+02 -3.575102E+05 -2.544631E+04  6.894839E+04
       211   5 -3.314695E+05 -2.103009E+05  1.599754E+02 -3.421812E+05 -1.976427E+04  5.358362E+04
       211   6 -3.179435E+05 -2.236054E+05  1.087771E+00 -3.575617E+05 -1.406676E+04  3.815559E+04
       211   7  5.308153E+05  8.019969E+04  1.350977E+05 -1.193458E+05 -5.537012E+04  5.770849E+04
       211   8  3.302265E+05  2.671009E+04  1.054078E+05 -1.566056E+05 -4.980470E+04  4.230811E+04
       211   9  1.566292E+05 -5.359653E+04  7.588737E+04 -2.245592E+05 -4.422373E+04  2.684441E+04
       211  10 -1.166172E+06 -5.278159E+05 -1.343299E+05 -5.953708E+05 -8.078325E-09 -9.058920E-10
       211  11 -9.926943E+05 -4.472702E+05 -1.051004E+05 -5.275710E+05 -2.801885E-08 -9.969389E-09
       211  12 -7.922679E+05 -3.935909E+05 -7.588929E+04 -4.904673E+05 -5.627912E-08 -1.899263E-08
       211  13 -3.180627E+05 -2.238459E+05  3.859664E+02 -3.575087E+05  2.348413E-09 -1.080525E-10
       211  14 -3.314707E+05 -2.103040E+05  1.538473E+02 -3.421804E+05  1.012573E-08 -6.351296E-09
       211  15 -3.179441E+05 -2.236070E+05 -2.019124E+00 -3.575613E+05  2.878630E-09 -1.502142E-08
       211  16  5.308111E+05  8.019529E+04  1.350857E+05 -1.193432E+05  1.215399E-08  4.668187E-09
       211  17  3.302233E+05  2.670750E+04  1.053998E+05 -1.566039E+05  4.079566E-08  1.779510E-08
       211  18  1.566269E+05 -5.359783E+04  7.588234E+04 -2.245583E+05  5.216533E-08  2.387326E-08
       211  19 -1.166170E+06 -5.278089E+05 -1.343178E+05 -5.953706E+05 -4.434536E+03 -8.017216E+04
       211  20 -9.926931E+05 -4.472657E+05 -1.050923E+05 -5.275705E+05 -1.024228E+04 -6.484641E+04
       211  21 -7.922670E+05 -3.935882E+05 -7.588420E+04 -4.904667E+05 -1.606546E+04 -4.945750E+04
       211  22 -3.180607E+05 -2.238406E+05  3.961141E+02 -3.575102E+05  2.544631E+04 -6.894839E+04
       211  23 -3.314695E+05 -2.103009E+05  1.599754E+02 -3.421812E+05  1.976427E+04 -5.358362E+04
       211  24 -3.179435E+05 -2.236054E+05  1.087771E+00 -3.575617E+05  1.406676E+04 -3.815559E+04
       211  25  5.308153E+05  8.019969E+04  1.350977E+05 -1.193458E+05  5.537012E+04 -5.770849E+04
       211  26  3.302265E+05  2.671009E+04  1.054078E+05 -1.566056E+05  4.980470E+04 -4.230811E+04
       211  27  1.566292E+05 -5.359653E+04  7.588737E+04 -2.245592E+05  4.422373E+04 -2.684441E+04
       212   1 -6.735948E+05 -3.509012E+05 -5.619568E+04 -4.572984E+05  1.944807E+04  4.047565E+04
       212   2 -4.998886E+05 -2.704881E+05 -2.702974E+04 -3.894849E+05  2.531381E+04  2.509117E+04
       212   3 -2.992703E+05 -2.169325E+05  2.082408E+03 -3.524100E+05  3.116538E+04  9.738165E+03
       212   4 -3.179324E+05 -2.235735E+05 -8.124805E+01 -3.575761E+05 -1.069086E+04  2.917421E+04
       212   5 -3.313473E+05 -2.101006E+05 -2.821695E+02 -3.422087E+05 -4.767536E+03  1.381343E+04
       212   6 -3.179004E+05 -2.235004E+05 -5.861458E+02 -3.575941E+05  1.141586E+03 -1.515884E+03
       212   7  3.786798E+04 -9.623198E+04  5.603477E+04 -2.577994E+05 -4.084805E+04  1.786590E+04
       212   8 -1.627744E+05 -1.497097E+05  2.646847E+04 -2.949203E+05 -3.485735E+04  2.532502E+03
       212   9 -3.365279E+05 -2.300673E+05 -3.250774E+03 -3.627774E+05 -2.888092E+04 -1.276945E+04
       212  10 -6.735956E+05 -3.509030E+05 -5.619947E+04 -4.572991E+05  5.539774E-08  2.292787E-08
       212  11 -4.998895E+05 -2.704890E+05 -2.703213E+04 -3.894854E+05  3.385720E-08  1.494828E-08
       212  12 -2.992714E+05 -2.169329E+05  2.080403E+03 -3.524102E+05  4.418264E-09  3.856385E-09
       212  13 -3.179328E+05 -2.235745E+05 -8.306183E+01 -3.575758E+05  3.189391E-10 -1.606904E-08
       212  14 -3.313474E+05 -2.101008E+05 -2.825707E+02 -3.422087E+05  3.537737E-09 -8.546910E-09
       212  15 -3.179004E+05 -2.235004E+05 -5.861526E+02 -3.575941E+05  9.092800E-10 -1.511268E-09
       212  16  3.786611E+04 -9.623277E+04  5.603104E+04 -2.577988E+05 -6.270999E-08 -2.006549E-08
       212  17 -1.627757E+05 -1.497100E+05  2.646618E+04 -2.949202E+05 -3.437705E-08 -1.173285E-08
       212  18 -3.365289E+05 -2.300677E+05 -3.252649E+03 -3.627777E+05 -3.924085E-09 -2.116438E-09
       212  19 -6.735948E+05 -3.509012E+05 -5.619568E+04 -4.572984E+05 -1.944807E+04 -4.047565E+04
       212  20 -4.998886E+05 -2.704881E+05 -2.702974E+04 -3.894849E+05 -2.531381E+04 -2.509117E+04
       212  21 -2.992703E+05 -2.169325E+05  2.082408E+03 -3.524100E+05 -3.116538E+04 -9.738165E+03
       212  22 -3.179324E+05 -2.235735E+05 -8.124805E+01 -3.575761E+05  1.069086E+04 -2.917421E+04
       212  23 -3.313473E+05 -2.101006E+05 -2.821695E+02 -3.422087E+05  4.767536E+03 -1.381343E+04
       212  24 -3.179004E+05 -2.235004E+05 -5.861458E+02 -3.575941E+05 -1.141586E+03  1.515884E+03
       212  25  3.786798E+04 -9.623198E+04  5.603477E+04 -2.577994E+05  4.084805E+04 -1.786590E+04
       212  26 -1.627744E+05 -1.497097E+05  2.646847E+04 -2.949203E+05  3.485735E+04 -2.532502E+03
       212  27 -3.365279E+05 -2.300673E+05 -3.250774E+03 -3.627774E+05  2.888092E+04  1.276945E+04
       213   1 -1.804984E+05 -1.742772E+05  2.167964E+04 -3.192338E+05  3.466571E+04  8.297219E+02
       213   2 -6.763017E+03 -9.390860E+04  5.065393E+04 -2.513750E+05  4.036058E+04 -1.435045E+04
       213   3  1.938823E+05 -4.036925E+04  7.963781E+04 -2.142187E+05  4.591328E+04 -2.914209E+04
       213   4 -3.179314E+05 -2.234972E+05 -8.040163E+02 -3.575989E+05  4.615537E+03 -1.043477E+04
       213   5 -3.313294E+05 -2.101253E+05 -1.507360E+03 -3.422029E+05  1.106346E+04 -2.533659E+04
       213   6 -3.180086E+05 -2.237393E+05 -2.801784E+03 -3.575270E+05  1.736917E+04 -3.984975E+04
       213   7 -4.553439E+05 -2.727151E+05 -2.328468E+04 -3.959558E+05 -2.542793E+04 -2.169676E+04
       213   8 -6.557829E+05 -3.263312E+05 -5.366765E+04 -4.329862E+05 -1.821762E+04 -3.631672E+04
       213   9 -8.296169E+05 -4.070819E+05 -8.524331E+04 -5.007239E+05 -1.115002E+04 -5.054807E+04
       213  10 -1.804996E+05 -1.742776E+05  2.167738E+04 -3.192339E+05  2.618127E-09  3.898265E-09
       213  11 -6.764821E+03 -9.390926E+04  5.065048E+04 -2.513746E+05  2.944180E-09  4.976699E-09
       213  12  1.938798E+05 -4.037072E+04  7.963226E+04 -2.142176E+05  1.681494E-09  7.010259E-09
       213  13 -3.179315E+05 -2.234973E+05 -8.042609E+02 -3.575988E+05  1.768028E-09  8.026788E-10
       213  14 -3.313297E+05 -2.101260E+05 -1.508796E+03 -3.422027E+05  4.548775E-09  1.911743E-09
       213  15 -3.180094E+05 -2.237411E+05 -2.805334E+03 -3.575264E+05  8.405882E-09  3.823252E-09
       213  16 -4.553447E+05 -2.727157E+05 -2.328678E+04 -3.959562E+05 -3.559625E-09 -1.981766E-09
       213  17 -6.557836E+05 -3.263327E+05 -5.367075E+04 -4.329868E+05  1.289952E-09 -1.119228E-09
       213  18 -8.296177E+05 -4.070847E+05 -8.524835E+04 -5.007244E+05  2.184648E-09  4.277674E-10
       213  19 -1.804984E+05 -1.742772E+05  2.167964E+04 -3.192338E+05 -3.466571E+04 -8.297219E+02
       213  20 -6.763017E+03 -9.390860E+04  5.065393E+04 -2.513750E+05 -4.036058E+04  1.435045E+04
       213  21  1.938823E+05 -4.036925E+04  7.963781E+04 -2.142187E+05 -4.591328E+04  2.914209E+04
       213  22 -3.179314E+05 -2.234972E+05 -8.040163E+02 -3.575989E+05 -4.615537E+03  1.043477E+04
       213  23 -3.313294E+05 -2.101253E+05 -1.507360E+03 -3.422029E+05 -1.106346E+04  2.533659E+04
       213  24 -3.180086E+05 -2.237393E+05 -2.801784E+03 -3.575270E+05 -1.736917E+04  3.984975E+04
       213  25 -4.553439E+05 -2.727151E+05 -2.328468E+04 -3.959558E+05  2.542793E+04  2.169676E+04
       213  26 -6.557829E+05 -3.263312E+05 -5.366765E+04 -4.329862E+05  1.821762E+04  3.631672E+04
       213  27 -8.296169E+05 -4.070819E+05 -8.524331E+04 -5.007239E+05  1.115002E+04  5.054807E+04
       214   1  3.128087E+05  2.264949E+03  9.896131E+04 -1.811606E+05  4.991785E+04 -3.753430E+04
       214   2  4.855420E+05  8.303603E+04  1.286574E+05 -1.124068E+05  5.087522E+04 -5.181240E+04
       214   3  6.852506E+05  1.365048E+05  1.610339E+05 -7.369637E+04  5.042245E+04 -6.232097E+04
       214   4 -3.182605E+05 -2.237598E+05 -3.749493E+03 -3.575345E+05  2.113330E+04 -4.833603E+04
       214   5 -3.313081E+05 -2.111854E+05 -6.943640E+03 -3.418483E+05  2.945701E+04 -5.985918E+04
       214   6 -3.188744E+05 -2.273789E+05 -1.329428E+04 -3.562223E+05  3.637070E+04 -6.760954E+04
       214   7 -9.488944E+05 -4.497408E+05 -1.064634E+05 -5.337378E+05 -7.619923E+03 -5.912605E+04
       214   8 -1.147445E+06 -5.053382E+05 -1.425589E+05 -5.710064E+05  8.068678E+03 -6.789469E+04
       214   9 -1.321942E+06 -5.911655E+05 -1.876547E+05 -6.383233E+05  2.234295E+04 -7.288901E+04
       214  10  3.128057E+05  2.262768E+03  9.895399E+04 -1.811591E+05  6.056130E-08  2.801568E-08
       214  11  4.855385E+05  8.303246E+04  1.286475E+05 -1.124047E+05  1.427585E-08  7.498312E-09
       214  12  6.852468E+05  1.364999E+05  1.610218E+05 -7.369384E+04 -4.838842E-08 -1.881590E-08
       214  13 -3.182616E+05 -2.237624E+05 -3.754721E+03 -3.575336E+05  8.134571E-09  6.232877E-09
       214  14 -3.313099E+05 -2.111894E+05 -6.952002E+03 -3.418469E+05  1.089700E-08  7.360526E-09
       214  15 -3.188771E+05 -2.273842E+05 -1.330536E+04 -3.562203E+05 -8.573924E-10  2.018901E-09
       214  16 -9.488954E+05 -4.497446E+05 -1.064701E+05 -5.337382E+05 -4.646505E-08 -1.591879E-08
       214  17 -1.147446E+06 -5.053432E+05 -1.425676E+05 -5.710059E+05  7.196310E-09  8.415692E-09
       214  18 -1.321944E+06 -5.911713E+05 -1.876656E+05 -6.383220E+05  4.536273E-08  2.302651E-08
       214  19  3.128087E+05  2.264949E+03  9.896131E+04 -1.811606E+05 -4.991785E+04  3.753430E+04
       214  20  4.855420E+05  8.303603E+04  1.286574E+05 -1.124068E+05 -5.087522E+04  5.181240E+04
       214  21  6.852506E+05  1.365048E+05  1.610339E+05 -7.369637E+04 -5.042245E+04  6.232097E+04
       214  22 -3.182605E+05 -2.237598E+05 -3.749493E+03 -3.575345E+05 -2.113330E+04  4.833603E+04
       214  23 -3.313081E+05 -2.111854E+05 -6.943640E+03 -3.418483E+05 -2.945701E+04  5.985918E+04
       214  24 -3.188744E+05 -2.273789E+05 -1.329428E+04 -3.562223E+05 -3.637070E+04  6.760954E+04
       214  25 -9.488944E+05 -4.497408E+05 -1.064634E+05 -5.337378E+05  7.619923E+03  5.912605E+04
       214  26 -1.147445E+06 -5.053382E+05 -1.425589E+05 -5.710064E+05 -8.068678E+03  6.789469E+04
       214  27 -1.321942E+06 -5.911655E+05 -1.876547E+05 -6.383233E+05 -2.234295E+04  7.288901E+04
       215   1  8.059734E+05  1.783236E+05  1.812986E+05 -4.263742E+04  5.701627E+04 -6.660347E+04
       215   2  9.634228E+05  2.646608E+05  2.293189E+05  4.339008E+04 -7.692289E+02 -7.693465E+04
       215   3  1.146118E+06  3.094947E+05  3.125879E+05  1.087204E+05 -7.238740E+04 -5.059826E+04
       215   4 -3.213460E+05 -2.277095E+05 -1.781802E+04 -3.562996E+05  4.059516E+04 -7.278611E+04
       215   5 -3.308018E+05 -2.272571E+05 -3.421326E+04 -3.356789E+05  5.461661E+04 -5.613639E+04
       215   6 -3.292762E+05 -2.825650E+05 -7.224488E+04 -3.357690E+05  5.480741E+04 -2.769051E+03
       215   7 -1.447323E+06 -6.336216E+05 -2.169741E+05 -6.694312E+05  2.420580E+04 -7.895693E+04
       215   8 -1.623282E+06 -7.189869E+05 -2.978139E+05 -7.139996E+05  1.098782E+05 -3.538913E+04
       215   9 -1.802490E+06 -8.743757E+05 -4.571874E+05 -7.792562E+05  1.816703E+05  4.491505E+04
       215  10  8.059687E+05  1.783180E+05  1.812842E+05 -4.263437E+04 -8.216689E-09 -3.843447E-09
       215  11  9.634212E+05  2.646544E+05  2.293077E+05  4.339003E+04 -3.040275E-09 -1.617932E-09
       215  12  1.146112E+06  3.094906E+05  3.125732E+05  1.087174E+05 -9.550633E-11  6.238334E-10
       215  13 -3.213492E+05 -2.277156E+05 -1.783107E+04 -3.562973E+05 -6.716293E-09 -1.052057E-09
       215  14 -3.308059E+05 -2.272613E+05 -3.422478E+04 -3.356764E+05 -1.035875E-09  1.209387E-09
       215  15 -3.292794E+05 -2.825658E+05 -7.225054E+04 -3.357689E+05 -2.888868E-10  3.636572E-11
       215  16 -1.447326E+06 -6.336285E+05 -2.169869E+05 -6.694296E+05 -2.516689E-09  3.123579E-09
       215  17 -1.623296E+06 -7.189915E+05 -2.978390E+05 -7.139964E+05 -7.775128E-10  6.302616E-10
       215  18 -1.802526E+06 -8.743868E+05 -4.572534E+05 -7.792628E+05  1.333803E-09  4.889217E-10
       215  19  8.059734E+05  1.783236E+05  1.812986E+05 -4.263742E+04 -5.701627E+04  6.660347E+04
       215  20  9.634228E+05  2.646608E+05  2.293189E+05  4.339008E+04  7.692289E+02  7.693465E+04
       215  21  1.146118E+06  3.094947E+05  3.125879E+05  1.087204E+05  7.238740E+04  5.059826E+04
       215  22 -3.213460E+05 -2.277095E+05 -1.781802E+04 -3.562996E+05 -4.059516E+04  7.278611E+04
       215  23 -3.308018E+05 -2.272571E+05 -3.421326E+04 -3.356789E+05 -5.461661E+04  5.613639E+04
       215  24 -3.292762E+05 -2.825650E+05 -7.224488E+04 -3.357690E+05 -5.480741E+04  2.769051E+03
       215  25 -1.447323E+06 -6.336216E+05 -2.169741E+05 -6.694312E+05 -2.420580E+04  7.895693E+04
       215  26 -1.623282E+06 -7.189869E+05 -2.978139E+05 -7.139996E+05 -1.098782E+05  3.538913E+04
       215  27 -1.802490E+06 -8.743757E+05 -4.571874E+05 -7.792562E+05 -1.816703E+05 -4.491505E+04
       216   1 -7.263797E+05 -2.355048E+05 -2.029958E+05 -1.159948E+05 -2.189292E+04  1.946704E+04
       216   2 -5.588317E+05 -2.774780E+05 -1.738260E+05 -1.484545E+05  8.919995E+03  6.484663E+04
       216   3 -3.812432E+05 -2.641951E+05 -1.509034E+05 -2.101218E+05  3.978527E+04  7.672728E+04
       216   4  8.055983E+05  1.419607E+05  1.534593E+05 -2.093668E+05  1.078232E+05  1.957259E+04
       216   5  7.946477E+05  4.314837E+04  7.634786E+04 -1.947301E+05  6.871661E+04  6.487135E+04
       216   6  8.058018E+05  1.165148E+04  4.151089E+04 -2.092902E+05  2.965561E+04  7.670943E+04
       216   7  2.339798E+06  5.193027E+05  5.098241E+05 -3.029711E+05  2.378571E+05  1.963902E+04
       216   8  2.149915E+06  3.636801E+05  3.264599E+05 -2.411092E+05  1.286402E+05  6.488715E+04
       216   9  1.994244E+06  2.874267E+05  2.338866E+05 -2.084568E+05  1.950721E+04  7.669158E+04
       216  10 -7.263804E+05 -2.355054E+05 -2.029974E+05 -1.159944E+05  9.279502E-10  4.195827E-10
       216  11 -5.588329E+05 -2.774825E+05 -1.738340E+05 -1.484550E+05 -1.456970E-09  1.151283E-09
       216  12 -3.812465E+05 -2.642019E+05 -1.509175E+05 -2.101243E+05 -3.940705E-09  8.595753E-11
       216  13  8.055857E+05  1.419572E+05  1.534367E+05 -2.093685E+05  5.923472E-10  9.639732E-10
       216  14  7.946415E+05  4.314258E+04  7.633108E+04 -1.947337E+05  2.982948E-09  8.485543E-10
       216  15  8.057993E+05  1.164492E+04  4.149818E+04 -2.092920E+05  2.390221E-09 -9.290350E-11
       216  16  2.339737E+06  5.192871E+05  5.097174E+05 -3.029748E+05 -2.403983E-10  9.219040E-10
       216  17  2.149896E+06  3.636712E+05  3.264209E+05 -2.411159E+05  2.638972E-09  1.001383E-09
       216  18  1.994242E+06  2.874203E+05  2.338749E+05 -2.084580E+05  6.413096E-09  1.683272E-09
       216  19 -7.263797E+05 -2.355048E+05 -2.029958E+05 -1.159948E+05  2.189292E+04 -1.946704E+04
       216  20 -5.588317E+05 -2.774780E+05 -1.738260E+05 -1.484545E+05 -8.919995E+03 -6.484663E+04
       216  21 -3.812432E+05 -2.641951E+05 -1.509034E+05 -2.101218E+05 -3.978527E+04 -7.672728E+04
       216  22  8.055983E+05  1.419607E+05  1.534593E+05 -2.093668E+05 -1.078232E+05 -1.957259E+04
       216  23  7.946477E+05  4.314837E+04  7.634786E+04 -1.947301E+05 -6.871661E+04 -6.487135E+04
       216  24  8.058018E+05  1.165148E+04  4.151089E+04 -2.092902E+05 -2.965561E+04 -7.670943E+04
       216  25  2.339798E+06  5.193027E+05  5.098241E+05 -3.029711E+05 -2.378571E+05 -1.963902E+04
       216  26  2.149915E+06  3.636801E+05  3.264599E+05 -2.411092E+05 -1.286402E+05 -6.488715E+04
       216  27  1.994244E+06  2.874267E+05  2.338866E+05 -2.084568E+05 -1.950721E+04 -7.669158E+04
       217   1 -2.755139E+05 -2.400688E+05 -1.392498E+05 -2.050965E+05  3.429475E+04  7.265386E+04
       217   2 -1.040461E+05 -2.058643E+05 -1.194846E+05 -1.921497E+05  3.400394E+04  6.588061E+04
       217   3  6.854226E+04 -1.678821E+05 -9.855545E+04 -2.106729E+05  3.371009E+04  5.519181E+04
       217   4  8.014899E+05  9.356810E+03  3.117356E+04 -2.098067E+05  2.427445E+04  7.263850E+04
       217   5  8.002917E+05  2.226397E+03  1.696415E+04 -1.940730E+05  1.579662E+04  6.586762E+04
       217   6  8.016008E+05  2.912148E+02  9.594665E+03 -2.098055E+05  7.315886E+03  5.518416E+04
       217   7  1.879648E+06  2.587250E+05  2.015681E+05 -2.145254E+05  1.423738E+04  7.262330E+04
       217   8  1.705450E+06  2.102784E+05  1.533975E+05 -1.959991E+05 -2.436186E+03  6.585475E+04
       217   9  1.535201E+06  1.684398E+05  1.177377E+05 -2.089370E+05 -1.910820E+04  5.517643E+04
       217  10 -2.755166E+05 -2.400748E+05 -1.392619E+05 -2.050985E+05 -1.350779E-09 -6.069037E-10
       217  11 -1.040485E+05 -2.058693E+05 -1.194949E+05 -1.921515E+05  2.582424E-10 -1.657795E-09
       217  12  6.854022E+04 -1.678857E+05 -9.856331E+04 -2.106744E+05 -2.381921E-09 -2.406655E-09
       217  13  8.014878E+05  9.350984E+03  3.116253E+04 -2.098082E+05 -6.026676E-10  7.788091E-10
       217  14  8.002903E+05  2.221670E+03  1.695552E+04 -1.940739E+05 -2.799895E-09 -7.671265E-10
       217  15  8.015999E+05  2.879289E+02  9.588840E+03 -2.098058E+05 -2.540415E-09 -1.973683E-09
       217  16  1.879647E+06  2.587192E+05  2.015578E+05 -2.145262E+05  2.321439E-10  8.248359E-10
       217  17  1.705449E+06  2.102737E+05  1.533894E+05 -1.959990E+05 -1.236975E-10 -3.812210E-10
       217  18  1.535200E+06  1.684365E+05  1.177313E+05 -2.089361E+05 -8.636556E-10 -1.200484E-09
       217  19 -2.755139E+05 -2.400688E+05 -1.392498E+05 -2.050965E+05 -3.429475E+04 -7.265386E+04
       217  20 -1.040461E+05 -2.058643E+05 -1.194846E+05 -1.921497E+05 -3.400394E+04 -6.588061E+04
       217  21  6.854226E+04 -1.678821E+05 -9.855545E+04 -2.106729E+05 -3.371009E+04 -5.519181E+04
       217  22  8.014899E+05  9.356810E+03  3.117356E+04 -2.098067E+05 -2.427445E+04 -7.263850E+04
       217  23  8.002917E+05  2.226397E+03  1.696415E+04 -1.940730E+05 -1.579662E+04 -6.586762E+04
       217  24  8.016008E+05  2.912148E+02  9.594665E+03 -2.098055E+05 -7.315886E+03 -5.518416E+04
       217  25  1.879648E+06  2.587250E+05  2.015681E+05 -2.145254E+05 -1.423738E+04 -7.262330E+04
       217  26  1.705450E+06  2.102784E+05  1.533975E+05 -1.959991E+05  2.436186E+03 -6.585475E+04
       217  27  1.535201E+06  1.684398E+05  1.177377E+05 -2.089370E+05  1.910820E+04 -5.517643E+04
       218   1  1.762112E+05 -1.429491E+05 -8.406323E+04 -2.101273E+05  3.225251E+04  4.768945E+04
       218   2  3.479538E+05 -1.038379E+05 -6.172726E+04 -1.942578E+05  3.117567E+04  3.482986E+04
       218   3  5.199587E+05 -6.452478E+04 -3.862684E+04 -2.100988E+05  3.009523E+04  2.151515E+04
       218   4  8.011601E+05  2.382282E+02  7.258541E+03 -2.098600E+05  5.875011E+03  4.768498E+04
       218   5  8.009872E+05 -1.223752E+02  4.106451E+03 -1.940056E+05  3.842363E+03  3.482911E+04
       218   6  8.012141E+05 -1.142360E+02  2.379638E+03 -2.098602E+05  1.806406E+03  2.151827E+04
       218   7  1.426504E+06  1.434079E+05  9.857626E+04 -2.095924E+05 -2.052793E+04  4.768048E+04
       218   8  1.254229E+06  1.035841E+05  6.993958E+04 -1.937531E+05 -2.351004E+04  3.482833E+04
       218   9  1.082551E+06  6.429309E+04  4.338778E+04 -2.096215E+05 -2.649469E+04  2.152137E+04
       218  10  1.762095E+05 -1.429519E+05 -8.406946E+04 -2.101285E+05 -3.069030E-09 -1.625866E-09
       218  11  3.479524E+05 -1.038395E+05 -6.173137E+04 -1.942587E+05 -2.744319E-09 -1.662504E-10
       218  12  5.199576E+05 -6.452552E+04 -3.862941E+04 -2.100993E+05 -7.533068E-10 -2.596190E-10
       218  13  8.011595E+05  2.357762E+02  7.254201E+03 -2.098602E+05 -1.893582E-10 -1.372898E-09
       218  14  8.009869E+05 -1.236823E+02  4.104143E+03 -1.940057E+05  8.492009E-12 -2.080048E-10
       218  15  8.012139E+05 -1.147343E+02  2.378761E+03 -2.098603E+05 -6.033094E-10 -2.974684E-10
       218  16  1.426503E+06  1.434054E+05  9.857119E+04 -2.095916E+05  1.523589E-09 -1.032140E-09
       218  17  1.254228E+06  1.035827E+05  6.993626E+04 -1.937524E+05 -1.188845E-09 -5.295860E-10
       218  18  1.082550E+06  6.429240E+04  4.338560E+04 -2.096211E+05 -1.682685E-09 -2.812503E-10
       218  19  1.762112E+05 -1.429491E+05 -8.406323E+04 -2.101273E+05 -3.225251E+04 -4.768945E+04
       218  20  3.479538E+05 -1.038379E+05 -6.172726E+04 -1.942578E+05 -3.117567E+04 -3.482986E+04
       218  21  5.199587E+05 -6.452478E+04 -3.862684E+04 -2.100988E+05 -3.009523E+04 -2.151515E+04
       218  22  8.011601E+05  2.382282E+02  7.258541E+03 -2.098600E+05 -5.875011E+03 -4.768498E+04
       218  23  8.009872E+05 -1.223752E+02  4.106451E+03 -1.940056E+05 -3.842363E+03 -3.482911E+04
       218  24  8.012141E+05 -1.142360E+02  2.379638E+03 -2.098602E+05 -1.806406E+03 -2.151827E+04
       218  25  1.426504E+06  1.434079E+05  9.857626E+04 -2.095924E+05  2.052793E+04 -4.768048E+04
       218  26  1.254229E+06  1.035841E+05  6.993958E+04 -1.937531E+05  2.351004E+04 -3.482833E+04
       218  27  1.082551E+06  6.429309E+04  4.338778E+04 -2.096215E+05  2.649469E+04 -2.152137E+04
       219   1  6.277737E+05 -3.969130E+04 -2.296709E+04 -2.100290E+05  2.971608E+04  1.361808E+04
       219   2  7.995817E+05 -4.427389E+02  7.972971E+02 -1.941061E+05  2.927623E+04  5.890059E+01
       219   3  9.715004E+05  3.880046E+04  2.485328E+04 -2.099154E+05  2.883627E+04 -1.354592E+04
       219   4  8.011556E+05 -8.495805E+01  1.822835E+03 -2.098654E+05  1.428824E+03  1.362234E+04
       219   5  8.011084E+05 -7.865060E+01  1.091172E+03 -1.939993E+05  8.894238E+02  6.319264E+01
       219   6  8.011560E+05 -6.051070E+01  7.170115E+02 -2.098654E+05  3.500224E+02 -1.354162E+04
       219   7  9.745694E+05  3.952045E+04  2.661531E+04 -2.097018E+05 -2.686599E+04  1.362658E+04
       219   8  8.026368E+05  2.858696E+02  1.388071E+03 -1.938925E+05 -2.749745E+04  6.747493E+01
       219   9  6.308426E+05 -3.892235E+04 -2.341662E+04 -2.098155E+05 -2.812876E+04 -1.353732E+04
       219  10  6.277728E+05 -3.969174E+04 -2.296909E+04 -2.100293E+05  7.902026E-10 -8.353825E-10
       219  11  7.995808E+05 -4.429687E+02  7.956885E+02 -1.941061E+05 -3.108988E-11 -4.684009E-10
       219  12  9.714995E+05  3.880004E+04  2.485137E+04 -2.099151E+05 -1.240145E-09  1.084742E-09
       219  13  8.011555E+05 -8.515795E+01  1.822483E+03 -2.098654E+05 -2.122077E-09 -5.764297E-10
       219  14  8.011084E+05 -7.865081E+01  1.091170E+03 -1.939993E+05  9.242936E-10 -2.729442E-10
       219  15  8.011559E+05 -6.070772E+01  7.166665E+02 -2.098654E+05  1.278989E-09  1.001094E-09
       219  16  9.745686E+05  3.952006E+04  2.661361E+04 -2.097015E+05 -2.185371E-09 -3.189863E-10
       219  17  8.026360E+05  2.856669E+02  1.386652E+03 -1.938925E+05 -2.007977E-09 -4.313897E-11
       219  18  6.308417E+05 -3.892276E+04 -2.341845E+04 -2.098158E+05  6.036384E-11  8.540992E-10
       219  19  6.277737E+05 -3.969130E+04 -2.296709E+04 -2.100290E+05 -2.971608E+04 -1.361808E+04
       219  20  7.995817E+05 -4.427389E+02  7.972971E+02 -1.941061E+05 -2.927623E+04 -5.890059E+01
       219  21  9.715004E+05  3.880046E+04  2.485328E+04 -2.099154E+05 -2.883627E+04  1.354592E+04
       219  22  8.011556E+05 -8.495805E+01  1.822835E+03 -2.098654E+05 -1.428824E+03 -1.362234E+04
       219  23  8.011084E+05 -7.865060E+01  1.091172E+03 -1.939993E+05 -8.894238E+02 -6.319264E+01
       219  24  8.011560E+05 -6.051070E+01  7.170115E+02 -2.098654E+05 -3.500224E+02  1.354162E+04
       219  25  9.745694E+05  3.952045E+04  2.661531E+04 -2.097018E+05  2.686599E+04 -1.362658E+04
       219  26  8.026368E+05  2.858696E+02  1.388071E+03 -1.938925E+05  2.749745E+04 -6.747493E+01
       219  27  6.308426E+05 -3.892235E+04 -2.341662E+04 -2.098155E+05  2.812876E+04  1.353732E+04
       220   1  1.079384E+06  6.357590E+04  4.090850E+04 -2.099030E+05  2.871930E+04 -2.148082E+04
       220   2  1.251295E+06  1.027626E+05  6.528794E+04 -1.939648E+05  2.832921E+04 -3.507641E+04
       220   3  1.423333E+06  1.419632E+05  8.993579E+04 -2.097674E+05  2.794260E+04 -4.861265E+04
       220   4  8.011427E+05 -6.979942E+01  6.172732E+02 -2.098677E+05  2.279705E+02 -2.147765E+04
       220   5  8.010784E+05 -1.213389E+02  5.460928E+02 -1.939965E+05 -4.165138E+01 -3.507710E+04
       220   6  8.010902E+05 -1.791376E+02  6.576715E+02 -2.098677E+05 -3.076887E+02 -4.861719E+04
       220   7  5.229807E+05 -6.371861E+04 -3.967216E+04 -2.098323E+05 -2.825115E+04 -2.147448E+04
       220   8  3.510676E+05 -1.030140E+05 -6.419588E+04 -1.940283E+05 -2.839285E+04 -3.507778E+04
       220   9  1.792390E+05 -1.423386E+05 -8.862338E+04 -2.099678E+05 -2.853092E+04 -4.862173E+04
       220  10  1.079383E+06  6.357518E+04  4.090608E+04 -2.099025E+05  1.323644E-09  1.659977E-09
       220  11  1.251294E+06  1.027610E+05  6.528412E+04 -1.939640E+05  1.233740E-10  1.169661E-09
       220  12  1.423332E+06  1.419604E+05  8.992989E+04 -2.097663E+05 -2.359628E-09  2.202205E-10
       220  13  8.011426E+05 -7.029496E+01  6.164060E+02 -2.098677E+05  6.242014E-10  1.541065E-09
       220  14  8.010781E+05 -1.226606E+02  5.437798E+02 -1.939965E+05  5.783115E-10  1.417479E-09
       220  15  8.010896E+05 -1.816767E+02  6.532279E+02 -2.098677E+05 -5.803779E-10  7.272840E-10
       220  16  5.229797E+05 -6.371932E+04 -3.967453E+04 -2.098328E+05 -4.448048E-10  1.335750E-09
       220  17  3.510664E+05 -1.030156E+05 -6.419971E+04 -1.940291E+05 -3.147370E-10  1.358661E-09
       220  18  1.792375E+05 -1.423414E+05 -8.862936E+04 -2.099689E+05  9.887372E-11  9.442031E-10
       220  19  1.079384E+06  6.357590E+04  4.090850E+04 -2.099030E+05 -2.871930E+04  2.148082E+04
       220  20  1.251295E+06  1.027626E+05  6.528794E+04 -1.939648E+05 -2.832921E+04  3.507641E+04
       220  21  1.423333E+06  1.419632E+05  8.993579E+04 -2.097674E+05 -2.794260E+04  4.861265E+04
       220  22  8.011427E+05 -6.979942E+01  6.172732E+02 -2.098677E+05 -2.279705E+02  2.147765E+04
       220  23  8.010784E+05 -1.213389E+02  5.460928E+02 -1.939965E+05  4.165138E+01  3.507710E+04
       220  24  8.010902E+05 -1.791376E+02  6.576715E+02 -2.098677E+05  3.076887E+02  4.861719E+04
       220  25  5.229807E+05 -6.371861E+04 -3.967216E+04 -2.098323E+05  2.825115E+04  2.147448E+04
       220  26  3.510676E+05 -1.030140E+05 -6.419588E+04 -1.940283E+05  2.839285E+04  3.507778E+04
       220  27  1.792390E+05 -1.423386E+05 -8.862338E+04 -2.099678E+05  2.853092E+04  4.862173E+04
       221   1  1.531385E+06  1.667396E+05  1.063119E+05 -2.097042E+05  2.782701E+04 -5.649568E+04
       221   2  1.703367E+06  2.060035E+05  1.317319E+05 -1.936990E+05  2.600942E+04 -6.971248E+04
       221   3  1.875793E+06  2.455672E+05  1.584361E+05 -2.094274E+05  2.419801E+04 -8.234766E+04
       221   4  8.010918E+05 -2.245576E+02  7.863518E+02 -2.098664E+05 -4.356249E+02 -5.650361E+04
       221   5  8.009354E+05 -3.187637E+02  1.225505E+03 -1.939981E+05 -1.038600E+03 -6.972777E+04
       221   6  8.009864E+05 -3.220311E+02  2.106385E+03 -2.098663E+05 -1.634934E+03 -8.236988E+04
       221   7  7.133760E+04 -1.672127E+05 -1.047447E+05 -2.100282E+05 -2.866648E+04 -5.651153E+04
       221   8 -1.006744E+05 -2.066779E+05 -1.292912E+05 -1.942967E+05 -2.804904E+04 -6.974305E+04
       221   9 -2.726576E+05 -2.462640E+05 -1.542401E+05 -2.103043E+05 -2.742513E+04 -8.239209E+04
       221  10  1.531383E+06  1.667360E+05  1.063044E+05 -2.097030E+05 -7.566881E-10  1.305649E-10
       221  11  1.703365E+06  2.059981E+05  1.317215E+05 -1.936975E+05 -2.402010E-09 -1.223295E-09
       221  12  1.875791E+06  2.455597E+05  1.584223E+05 -2.094258E+05  6.083387E-10 -1.072248E-09
       221  13  8.010910E+05 -2.279873E+02  7.803495E+02 -2.098664E+05  8.071235E-11  3.109348E-10
       221  14  8.009341E+05 -3.239869E+02  1.216363E+03 -1.939982E+05 -2.443730E-09 -4.595802E-10
       221  15  8.009845E+05 -3.293203E+02  2.093625E+03 -2.098664E+05  5.510840E-10 -7.763579E-10
       221  16  7.133586E+04 -1.672163E+05 -1.047523E+05 -2.100295E+05  2.459189E-11  3.541243E-10
       221  17 -1.006765E+05 -2.066833E+05 -1.293018E+05 -1.942983E+05  1.321880E-09 -5.215799E-11
       221  18 -2.726603E+05 -2.462715E+05 -1.542543E+05 -2.103061E+05 -2.713285E-10  1.348906E-10
       221  19  1.531385E+06  1.667396E+05  1.063119E+05 -2.097042E+05 -2.782701E+04  5.649568E+04
       221  20  1.703367E+06  2.060035E+05  1.317319E+05 -1.936990E+05 -2.600942E+04  6.971248E+04
       221  21  1.875793E+06  2.455672E+05  1.584361E+05 -2.094274E+05 -2.419801E+04  8.234766E+04
       221  22  8.010918E+05 -2.245576E+02  7.863518E+02 -2.098664E+05  4.356249E+02  5.650361E+04
       221  23  8.009354E+05 -3.187637E+02  1.225505E+03 -1.939981E+05  1.038600E+03  6.972777E+04
       221  24  8.009864E+05 -3.220311E+02  2.106385E+03 -2.098663E+05  1.634934E+03  8.236988E+04
       221  25  7.133760E+04 -1.672127E+05 -1.047447E+05 -2.100282E+05  2.866648E+04  5.651153E+04
       221  26 -1.006744E+05 -2.066779E+05 -1.292912E+05 -1.942967E+05  2.804904E+04  6.974305E+04
       221  27 -2.726576E+05 -2.462640E+05 -1.542401E+05 -2.103043E+05  2.742513E+04  8.239209E+04
       222   1  1.984426E+06  2.705881E+05  1.761398E+05 -2.090771E+05  2.381832E+04 -8.972304E+04
       222   2  2.155632E+06  3.111671E+05  2.076559E+05 -1.939047E+05  1.089313E+04 -9.957353E+04
       222   3  2.329580E+06  3.550424E+05  2.484456E+05 -2.101512E+05 -2.033355E+03 -1.044039E+05
       222   4  8.010929E+05 -3.651882E+02  2.769268E+03 -2.097963E+05 -2.046286E+03 -8.975055E+04
       222   5  8.005670E+05  6.406937E+01  4.844890E+03 -1.940855E+05 -4.455165E+03 -9.960426E+04
       222   6  8.009346E+05  1.971498E+03  8.910052E+03 -2.097976E+05 -6.861731E+03 -1.044322E+05
       222   7 -3.808326E+05 -2.713829E+05 -1.706231E+05 -2.105141E+05 -2.786376E+04 -8.977803E+04
       222   8 -5.526589E+05 -3.111254E+05 -1.980011E+05 -1.942659E+05 -1.977139E+04 -9.963503E+04
       222   9 -7.253879E+05 -3.512142E+05 -2.306820E+05 -2.094450E+05 -1.167868E+04 -1.044605E+05
       222  10  1.984423E+06  2.705793E+05  1.761236E+05 -2.090754E+05 -1.319241E-09 -9.226149E-10
       222  11  2.155629E+06  3.111564E+05  2.076370E+05 -1.939038E+05  2.120391E-09 -9.289018E-10
       222  12  2.329577E+06  3.550307E+05  2.484251E+05 -2.101513E+05  2.163539E-09 -2.762151E-09
       222  13  8.010907E+05 -3.738425E+02  2.754117E+03 -2.097965E+05  2.218099E-10 -5.528510E-10
       222  14  8.005643E+05  5.340644E+01  4.826201E+03 -1.940858E+05  5.392784E-10 -6.987890E-10
       222  15  8.009316E+05  1.959770E+03  8.889461E+03 -2.097982E+05  1.388029E-09 -1.420053E-09
       222  16 -3.808356E+05 -2.713918E+05 -1.706397E+05 -2.105161E+05  7.081671E-10  9.464274E-11
       222  17 -5.526619E+05 -3.111362E+05 -1.980205E+05 -1.942674E+05  7.523187E-10  1.697609E-09
       222  18 -7.253909E+05 -3.512260E+05 -2.307028E+05 -2.094460E+05 -3.736813E-09  3.457621E-10
       222  19  1.984426E+06  2.705881E+05  1.761398E+05 -2.090771E+05 -2.381832E+04  8.972304E+04
       222  20  2.155632E+06  3.111671E+05  2.076559E+05 -1.939047E+05 -1.089313E+04  9.957353E+04
       222  21  2.329580E+06  3.550424E+05  2.484456E+05 -2.101512E+05  2.033355E+03  1.044039E+05
       222  22  8.010929E+05 -3.651882E+02  2.769268E+03 -2.097963E+05  2.046286E+03  8.975055E+04
       222  23  8.005670E+05  6.406937E+01  4.844890E+03 -1.940855E+05  4.455165E+03  9.960426E+04
       222  24  8.009346E+05  1.971498E+03  8.910052E+03 -2.097976E+05  6.861731E+03  1.044322E+05
       222  25 -3.808326E+05 -2.713829E+05 -1.706231E+05 -2.105141E+05  2.786376E+04  8.977803E+04
       222  26 -5.526589E+05 -3.111254E+05 -1.980011E+05 -1.942659E+05  1.977139E+04  9.963503E+04
       222  27 -7.253879E+05 -3.512142E+05 -2.306820E+05 -2.094450E+05  1.167868E+04  1.044605E+05
       223   1  2.441949E+06  3.825355E+05  2.750725E+05 -2.076802E+05 -3.412765E+03 -1.073792E+05
       223   2  2.604131E+06  4.379139E+05  3.522509E+05 -2.066906E+05 -1.045561E+05 -8.839060E+04
       223   3  2.788528E+06  5.282542E+05  5.039184E+05 -2.341664E+05 -2.058275E+05 -2.644905E+04
       223   4  8.021468E+05  2.558480E+03  1.186827E+04 -2.091332E+05 -8.399251E+03 -1.074104E+05
       223   5  7.987235E+05  1.150113E+04  2.177889E+04 -1.949246E+05 -1.950858E+04 -8.831038E+04
       223   6  8.019324E+05  3.985994E+04  4.382354E+04 -2.091754E+05 -3.070959E+04 -2.620433E+04
       223   7 -8.349930E+05 -3.775535E+05 -2.514077E+05 -2.105826E+05 -1.337306E+04 -1.074417E+05
       223   8 -1.003514E+06 -4.150915E+05 -3.087987E+05 -1.831940E+05  6.529914E+04 -8.822686E+04
       223   9 -1.180964E+06 -4.487924E+05 -4.164203E+05 -1.842653E+05  1.438541E+05 -2.594524E+04
       223  10  2.441946E+06  3.825231E+05  2.750508E+05 -2.076805E+05  1.515848E-09 -4.067157E-09
       223  11  2.604118E+06  4.379026E+05  3.522157E+05 -2.066981E+05 -5.642305E-11 -5.244222E-09
       223  12  2.788483E+06  5.282421E+05  5.038378E+05 -2.341708E+05 -4.528543E-09 -1.487478E-09
       223  13  8.021436E+05  2.546068E+03  1.184645E+04 -2.091340E+05  5.673273E-10 -6.470850E-09
       223  14  7.987210E+05  1.149265E+04  2.176351E+04 -1.949259E+05 -2.282028E-10  1.834121E-09
       223  15  8.019312E+05  3.985895E+04  4.382048E+04 -2.091760E+05 -7.279929E-11 -3.262582E-10
       223  16 -8.349963E+05 -3.775660E+05 -2.514297E+05 -2.105837E+05 -2.763845E-09 -8.287362E-10
       223  17 -1.003521E+06 -4.151010E+05 -3.088213E+05 -1.831893E+05  2.644423E-09  1.622258E-09
       223  18 -1.180986E+06 -4.487986E+05 -4.164605E+05 -1.842623E+05  5.111407E-09 -1.702596E-09
       223  19  2.441949E+06  3.825355E+05  2.750725E+05 -2.076802E+05  3.412765E+03  1.073792E+05
       223  20  2.604131E+06  4.379139E+05  3.522509E+05 -2.066906E+05  1.045561E+05  8.839060E+04
       223  21  2.788528E+06  5.282542E+05  5.039184E+05 -2.341664E+05  2.058275E+05  2.644905E+04
       223  22  8.021468E+05  2.558480E+03  1.186827E+04 -2.091332E+05  8.399251E+03  1.074104E+05
       223  23  7.987235E+05  1.150113E+04  2.177889E+04 -1.949246E+05  1.950858E+04  8.831038E+04
       223  24  8.019324E+05  3.985994E+04  4.382354E+04 -2.091754E+05  3.070959E+04  2.620433E+04
       223  25 -8.349930E+05 -3.775535E+05 -2.514077E+05 -2.105826E+05  1.337306E+04  1.074417E+05
       223  26 -1.003514E+06 -4.150915E+05 -3.087987E+05 -1.831940E+05 -6.529914E+04  8.822686E+04
       223  27 -1.180964E+06 -4.487924E+05 -4.164203E+05 -1.842653E+05 -1.438541E+05  2.594524E+04
       224   1  6.015169E+05  2.522353E+06  5.752698E+05 -7.644106E+05  2.294414E+04  1.662362E+05
       224   2  4.191542E+05  1.898619E+06  3.472221E+05 -7.021382E+05  6.943739E+04  4.921230E+04
       224   3  2.667956E+05  1.297769E+06  2.026240E+05 -7.484144E+05  6.316550E+04 -6.774740E+04
       224   4  2.370417E+04  1.822623E+05  2.290567E+04 -7.460761E+05  2.333676E+04  1.424007E+04
       224   5  9.118777E+03  1.808918E+05  1.288930E+04 -6.918187E+05  6.956662E+04  7.796644E+03
       224   6  5.449583E+03  1.829551E+05  9.746383E+03 -7.461214E+05  6.296682E+04  1.299626E+03
       224   7 -5.544867E+05 -2.152757E+06 -5.297502E+05 -7.278049E+05  2.372145E+04 -1.371882E+05
       224   8 -4.010921E+05 -1.534006E+06 -3.215772E+05 -6.815252E+05  6.969473E+04 -3.350725E+04
       224   9 -2.559607E+05 -9.306310E+05 -1.831563E+05 -7.438311E+05  6.276840E+04  7.022668E+04
       224  10  6.015089E+05  2.522323E+06  5.752171E+05 -7.644137E+05 -1.751017E-10  6.679683E-10
       224  11  4.191484E+05  1.898615E+06  3.472085E+05 -7.021409E+05  1.225795E-09 -1.014170E-09
       224  12  2.667901E+05  1.297763E+06  2.026079E+05 -7.484110E+05  2.034474E-09 -3.310091E-09
       224  13  2.370353E+04  1.822620E+05  2.290427E+04 -7.460764E+05 -1.254765E-09 -1.019018E-11
       224  14  9.113563E+03  1.808904E+05  1.288009E+04 -6.918192E+05  1.966483E-09  9.831078E-12
       224  15  5.445325E+03  1.829540E+05  9.738928E+03 -7.461214E+05  1.519273E-10 -3.188518E-09
       224  16 -5.544924E+05 -2.152777E+06 -5.297868E+05 -7.278023E+05 -2.131511E-10 -1.499627E-09
       224  17 -4.010976E+05 -1.534008E+06 -3.215884E+05 -6.815233E+05  2.406968E-09 -1.691658E-09
       224  18 -2.559663E+05 -9.306373E+05 -1.831730E+05 -7.438346E+05 -2.148268E-09  7.871680E-10
       224  19  6.015169E+05  2.522353E+06  5.752698E+05 -7.644106E+05 -2.294414E+04 -1.662362E+05
       224  20  4.191542E+05  1.898619E+06  3.472221E+05 -7.021382E+05 -6.943739E+04 -4.921230E+04
       224  21  2.667956E+05  1.297769E+06  2.026240E+05 -7.484144E+05 -6.316550E+04  6.774740E+04
       224  22  2.370417E+04  1.822623E+05  2.290567E+04 -7.460761E+05 -2.333676E+04 -1.424007E+04
       224  23  9.118777E+03  1.808918E+05  1.288930E+04 -6.918187E+05 -6.956662E+04 -7.796644E+03
       224  24  5.449583E+03  1.829551E+05  9.746383E+03 -7.461214E+05 -6.296682E+04 -1.299626E+03
       224  25 -5.544867E+05 -2.152757E+06 -5.297502E+05 -7.278049E+05 -2.372145E+04  1.371882E+05
       224  26 -4.010921E+05 -1.534006E+06 -3.215772E+05 -6.815252E+05 -6.969473E+04  3.350725E+04
       224  27 -2.559607E+05 -9.306310E+05 -1.831563E+05 -7.438311E+05 -6.276840E+04 -7.022668E+04
       225   1  1.757150E+05  9.097159E+05  1.346970E+05 -7.495042E+05  4.176771E+04 -6.916398E+04
       225   2  3.172386E+04  2.974005E+05  2.893795E+04 -6.903075E+05  8.555867E+03 -7.610569E+04
       225   3 -1.080524E+05 -3.130312E+05 -7.139969E+04 -7.430709E+05 -2.522467E+04 -8.304449E+04
       225   4  5.342513E+03  1.826145E+05  9.516789E+03 -7.468747E+05  4.155821E+04 -3.097006E+02
       225   5  5.145329E+03  1.819835E+05  1.139583E+04 -6.908905E+05  8.340711E+03 -6.094029E+03
       225   6  8.976330E+03  1.826614E+05  1.788221E+04 -7.468650E+05 -2.544595E+04 -1.188178E+04
       225   7 -1.650557E+05 -5.439583E+05 -1.156637E+05 -7.442478E+05  4.134912E+04  6.846654E+04
       225   8 -2.143121E+04  6.659030E+04 -6.128158E+03 -6.914734E+05  8.125396E+03  6.390513E+04
       225   9  1.259941E+05  6.786043E+05  1.071736E+05 -7.506618E+05 -2.566797E+04  5.933618E+04
       225  10  1.757118E+05  9.097103E+05  1.346848E+05 -7.495019E+05  7.902775E-10  3.334705E-09
       225  11  3.172223E+04  2.973943E+05  2.892694E+04 -6.903070E+05  4.331945E-09 -9.310062E-10
       225  12 -1.080550E+05 -3.130388E+05 -7.141387E+04 -7.430726E+05 -1.286783E-09 -4.658267E-09
       225  13  5.340658E+03  1.826140E+05  9.513543E+03 -7.468747E+05  9.944469E-10  6.866502E-11
       225  14  5.145245E+03  1.819834E+05  1.139563E+04 -6.908905E+05  1.740005E-09  3.079429E-11
       225  15  8.975596E+03  1.826611E+05  1.788073E+04 -7.468652E+05 -8.334801E-10 -3.465524E-09
       225  16 -1.650588E+05 -5.439638E+05 -1.156757E+05 -7.442500E+05 -1.346472E-09 -4.396350E-09
       225  17 -2.143237E+04  6.658590E+04 -6.135958E+03 -6.914738E+05 -8.812911E-11 -3.314325E-09
       225  18  1.259925E+05  6.786003E+05  1.071658E+05 -7.506606E+05 -4.685836E-10  1.793549E-09
       225  19  1.757150E+05  9.097159E+05  1.346970E+05 -7.495042E+05 -4.176771E+04  6.916398E+04
       225  20  3.172386E+04  2.974005E+05  2.893795E+04 -6.903075E+05 -8.555867E+03  7.610569E+04
       225  21 -1.080524E+05 -3.130312E+05 -7.139969E+04 -7.430709E+05  2.522467E+04  8.304449E+04
       225  22  5.342513E+03  1.826145E+05  9.516789E+03 -7.468747E+05 -4.155821E+04  3.097006E+02
       225  23  5.145329E+03  1.819835E+05  1.139583E+04 -6.908905E+05 -8.340711E+03  6.094029E+03
       225  24  8.976330E+03  1.826614E+05  1.788221E+04 -7.468650E+05  2.544595E+04  1.188178E+04
       225  25 -1.650557E+05 -5.439583E+05 -1.156637E+05 -7.442478E+05 -4.134912E+04 -6.846654E+04
       225  26 -2.143121E+04  6.659030E+04 -6.128158E+03 -6.914734E+05 -8.125396E+03 -6.390513E+04
       225  27  1.259941E+05  6.786043E+05  1.071736E+05 -7.506618E+05  2.566797E+04 -5.933618E+04
       226   1 -1.977543E+05 -6.976736E+05 -1.332369E+05 -7.445642E+05 -4.713546E+04 -8.630649E+04
       226   2 -3.299242E+05 -1.305983E+06 -2.522371E+05 -6.639079E+05 -5.760756E+04 -7.233879E+03
       226   3 -4.430369E+05 -1.919670E+06 -4.180876E+05 -6.922199E+05 -2.014352E+04  7.181501E+04
       226   4  1.006485E+04  1.848504E+05  2.301548E+04 -7.462016E+05 -4.734907E+04 -1.502270E+04
       226   5  2.601549E+04  1.787475E+05  4.088394E+04 -6.916539E+05 -5.751537E+04 -3.589653E+04
       226   6  7.836797E+04  1.842455E+05  8.133792E+04 -7.460323E+05 -1.980498E+04 -5.671526E+04
       226   7  2.178439E+05  1.068147E+06  1.792582E+05 -7.478405E+05 -4.756285E+04  5.635956E+04
       226   8  3.818244E+05  1.665594E+06  3.339004E+05 -7.194653E+05 -5.742077E+04 -6.462632E+04
       226   9  5.994732E+05  2.292274E+06  5.805184E+05 -8.000235E+05 -1.944491E+04 -1.856796E+05
       226  10 -1.977587E+05 -6.976822E+05 -1.332551E+05 -7.445675E+05  1.979872E-10  3.129767E-09
       226  11 -3.299278E+05 -1.305984E+06 -2.522434E+05 -6.639082E+05  1.350039E-09 -1.049807E-10
       226  12 -4.430387E+05 -1.919676E+06 -4.180980E+05 -6.922187E+05 -1.294986E-10 -3.554047E-09
       226  13  1.006239E+04  1.848496E+05  2.301084E+04 -7.462022E+05  4.438416E-10 -1.518362E-10
       226  14  2.601159E+04  1.787452E+05  4.087529E+04 -6.916556E+05 -2.110282E-10 -1.667003E-10
       226  15  7.836668E+04  1.842419E+05  8.133113E+04 -7.460332E+05  8.328378E-10 -2.484912E-09
       226  16  2.178406E+05  1.068143E+06  1.792480E+05 -7.478383E+05 -1.611729E-09 -4.059599E-09
       226  17  3.818197E+05  1.665588E+06  3.338863E+05 -7.194683E+05 -1.509004E-09 -3.094908E-09
       226  18  5.994635E+05  2.292237E+06  5.804531E+05 -8.000265E+05 -2.404806E-11  1.618979E-09
       226  19 -1.977543E+05 -6.976736E+05 -1.332369E+05 -7.445642E+05  4.713546E+04  8.630649E+04
       226  20 -3.299242E+05 -1.305983E+06 -2.522371E+05 -6.639079E+05  5.760756E+04  7.233879E+03
       226  21 -4.430369E+05 -1.919670E+06 -4.180876E+05 -6.922199E+05  2.014352E+04 -7.181501E+04
       226  22  1.006485E+04  1.848504E+05  2.301548E+04 -7.462016E+05  4.734907E+04  1.502270E+04
       226  23  2.601549E+04  1.787475E+05  4.088394E+04 -6.916539E+05  5.751537E+04  3.589653E+04
       226  24  7.836797E+04  1.842455E+05  8.133792E+04 -7.460323E+05  1.980498E+04  5.671526E+04
       226  25  2.178439E+05  1.068147E+06  1.792582E+05 -7.478405E+05  4.756285E+04 -5.635956E+04
       226  26  3.818244E+05  1.665594E+06  3.339004E+05 -7.194653E+05  5.742077E+04  6.462632E+04
       226  27  5.994732E+05  2.292274E+06  5.805184E+05 -8.000235E+05  1.944491E+04  1.856796E+05
       227   1 -1.124285E+06 -5.675263E+05 -3.220878E+05 -4.677736E+05 -1.480369E+05 -4.202701E+04
       227   2 -1.047941E+06 -4.375073E+05 -2.018880E+05 -4.367260E+05 -9.248264E+04  1.065468E+04
       227   3 -9.893602E+05 -3.719648E+05 -1.452872E+05 -4.067559E+05 -2.919853E+04  4.284736E+04
       227   4 -3.212450E+05 -2.086775E+05 -1.061922E+05 -1.884255E+05 -7.371607E+04 -1.408932E+04
       227   5 -3.106234E+05 -1.401638E+05 -5.027778E+04 -2.030045E+05 -5.813605E+04  2.355947E+04
       227   6 -3.098114E+05 -1.281644E+05 -2.621924E+04 -2.186731E+05 -3.484172E+04  4.072027E+04
       227   7  4.824331E+05  1.502927E+05  1.096662E+05  9.127573E+04  7.084269E+02  1.390484E+04
       227   8  4.272584E+05  1.572603E+05  1.013089E+05  3.098570E+04 -2.374586E+04  3.648456E+04
       227   9  3.702313E+05  1.156812E+05  9.283597E+04 -3.039707E+04 -4.049153E+04  3.859074E+04
       227  10 -1.124309E+06 -5.675341E+05 -3.221324E+05 -4.677787E+05 -4.346864E-09 -2.704310E-09
       227  11 -1.047950E+06 -4.375097E+05 -2.019043E+05 -4.367252E+05 -2.369257E-08 -1.062640E-08
       227  12 -9.893616E+05 -3.719670E+05 -1.452923E+05 -4.067549E+05 -5.005847E-08 -1.791847E-08
       227  13 -3.212509E+05 -2.086791E+05 -1.062028E+05 -1.884263E+05  3.319596E-09  8.962940E-10
       227  14 -3.106272E+05 -1.401653E+05 -5.028517E+04 -2.030034E+05  3.714603E-09 -4.361116E-09
       227  15 -3.098132E+05 -1.281665E+05 -2.622464E+04 -2.186719E+05 -2.649964E-09 -1.655251E-08
       227  16  4.824330E+05  1.502924E+05  1.096658E+05  9.127572E+04  9.261489E-09  6.173678E-09
       227  17  4.272575E+05  1.572587E+05  1.013054E+05  3.098640E+04  3.466987E-08  1.861522E-08
       227  18  3.702292E+05  1.156791E+05  9.283009E+04 -3.039582E+04  4.232019E-08  2.168270E-08
       227  19 -1.124285E+06 -5.675263E+05 -3.220878E+05 -4.677736E+05  1.480369E+05  4.202701E+04
       227  20 -1.047941E+06 -4.375073E+05 -2.018880E+05 -4.367260E+05  9.248264E+04 -1.065468E+04
       227  21 -9.893602E+05 -3.719648E+05 -1.452872E+05 -4.067559E+05  2.919853E+04 -4.284736E+04
       227  22 -3.212450E+05 -2.086775E+05 -1.061922E+05 -1.884255E+05  7.371607E+04  1.408932E+04
       227  23 -3.106234E+05 -1.401638E+05 -5.027778E+04 -2.030045E+05  5.813605E+04 -2.355947E+04
       227  24 -3.098114E+05 -1.281644E+05 -2.621924E+04 -2.186731E+05  3.484172E+04 -4.072027E+04
       227  25  4.824331E+05  1.502927E+05  1.096662E+05  9.127573E+04 -7.084269E+02 -1.390484E+04
       227  26  4.272584E+05  1.572603E+05  1.013089E+05  3.098570E+04  2.374586E+04 -3.648456E+04
       227  27  3.702313E+05  1.156812E+05  9.283597E+04 -3.039707E+04  4.049153E+04 -3.859074E+04
       228   1 -9.293351E+05 -3.546536E+05 -1.270958E+05 -3.950077E+05 -2.672265E+04  4.119756E+04
       228   2 -8.520818E+05 -3.129195E+05 -9.955557E+04 -3.652685E+05 -1.623496E+04  4.141582E+04
       228   3 -7.656857E+05 -2.868922E+05 -7.993964E+04 -3.483571E+05 -4.956842E+03  3.952924E+04
       228   4 -3.066025E+05 -1.273802E+05 -1.956066E+04 -2.180902E+05 -3.104487E+04  3.956789E+04
       228   5 -3.112088E+05 -1.174192E+05 -1.022363E+04 -2.126134E+05 -2.466154E+04  3.824572E+04
       228   6 -3.058626E+05 -1.223491E+05 -5.551495E+03 -2.199668E+05 -1.748939E+04  3.481923E+04
       228   7  3.165353E+05  9.993129E+04  8.796139E+04 -4.100747E+04 -3.537166E+04  3.793646E+04
       228   8  2.299774E+05  7.811177E+04  7.910178E+04 -5.983293E+04 -3.309592E+04  3.507266E+04
       228   9  1.541929E+05  4.221754E+04  6.883434E+04 -9.148567E+04 -3.003193E+04  3.010550E+04
       228  10 -9.293364E+05 -3.546556E+05 -1.271003E+05 -3.950069E+05  5.250068E-08  2.307547E-08
       228  11 -8.520825E+05 -3.129214E+05 -9.955928E+04 -3.652680E+05  3.093517E-08  1.562700E-08
       228  12 -7.656862E+05 -2.868939E+05 -7.994263E+04 -3.483569E+05 -1.688687E-10  3.581259E-09
       228  13 -3.066040E+05 -1.273821E+05 -1.956542E+04 -2.180892E+05 -6.908946E-09 -1.817334E-08
       228  14 -3.112099E+05 -1.174209E+05 -1.022752E+04 -2.126126E+05 -1.541549E-09 -1.011975E-08
       228  15 -3.058633E+05 -1.223505E+05 -5.554347E+03 -2.199663E+05 -9.463175E-10 -2.915832E-10
       228  16  3.165335E+05  9.992941E+04  8.795633E+04 -4.100639E+04 -6.707266E-08 -2.214073E-08
       228  17  2.299759E+05  7.811016E+04  7.909741E+04 -5.983199E+04 -3.617008E-08 -1.343072E-08
       228  18  1.541917E+05  4.221633E+04  6.883094E+04 -9.148494E+04 -3.067263E-10 -1.153211E-09
       228  19 -9.293351E+05 -3.546536E+05 -1.270958E+05 -3.950077E+05  2.672265E+04 -4.119756E+04
       228  20 -8.520818E+05 -3.129195E+05 -9.955557E+04 -3.652685E+05  1.623496E+04 -4.141582E+04
       228  21 -7.656857E+05 -2.868922E+05 -7.993964E+04 -3.483571E+05  4.956842E+03 -3.952924E+04
       228  22 -3.066025E+05 -1.273802E+05 -1.956066E+04 -2.180902E+05  3.104487E+04 -3.956789E+04
       228  23 -3.112088E+05 -1.174192E+05 -1.022363E+04 -2.126134E+05  2.466154E+04 -3.824572E+04
       228  24 -3.058626E+05 -1.223491E+05 -5.551495E+03 -2.199668E+05  1.748939E+04 -3.481923E+04
       228  25  3.165353E+05  9.993129E+04  8.796139E+04 -4.100747E+04  3.537166E+04 -3.793646E+04
       228  26  2.299774E+05  7.811177E+04  7.910178E+04 -5.983293E+04  3.309592E+04 -3.507266E+04
       228  27  1.541929E+05  4.221754E+04  6.883434E+04 -9.148567E+04  3.003193E+04 -3.010550E+04
       229   1 -7.126170E+05 -2.682015E+05 -6.954124E+04 -3.339076E+05 -2.908316E+03  3.596820E+04
       229   2 -6.357698E+05 -2.323578E+05 -5.417711E+04 -3.040091E+05  1.080906E+03  3.009777E+04
       229   3 -5.473461E+05 -2.086645E+05 -4.004372E+04 -2.876659E+05  5.150174E+03  2.401003E+04
       229   4 -3.055593E+05 -1.223264E+05 -4.162604E+03 -2.198962E+05 -1.530885E+04  3.130907E+04
       229   5 -3.113583E+05 -1.161674E+05 -2.281537E+03 -2.131604E+05 -1.174366E+04  2.528112E+04
       229   6 -3.055041E+05 -1.220749E+05 -1.295285E+03 -2.199820E+05 -8.098683E+03  1.903585E+04
       229   7  1.016764E+05  2.356587E+04  6.121331E+04 -1.058146E+05 -2.771799E+04  2.664672E+04
       229   8  1.316479E+04  3.324881E+01  4.961212E+04 -1.222675E+05 -2.457526E+04  2.046184E+04
       229   9 -6.360191E+04 -3.548013E+04  3.745195E+04 -1.522739E+05 -2.135286E+04  1.405968E+04
       229  10 -7.126174E+05 -2.682029E+05 -6.954368E+04 -3.339075E+05  2.145373E-09  4.605888E-09
       229  11 -6.357701E+05 -2.323588E+05 -5.417881E+04 -3.040092E+05  2.221488E-09  2.051623E-09
       229  12 -5.473462E+05 -2.086651E+05 -4.004485E+04 -2.876660E+05  5.241173E-10  1.740806E-09
       229  13 -3.055599E+05 -1.223275E+05 -4.164886E+03 -2.198959E+05 -2.188201E-09  1.397952E-09
       229  14 -3.113586E+05 -1.161681E+05 -2.282997E+03 -2.131602E+05 -1.724808E-09  6.257132E-10
       229  15 -3.055043E+05 -1.220753E+05 -1.296089E+03 -2.199818E+05 -2.532857E-10  1.144808E-10
       229  16  1.016754E+05  2.356490E+04  6.121054E+04 -1.058140E+05 -4.273054E-09 -1.910194E-09
       229  17  1.316403E+04  3.263728E+01  4.961020E+04 -1.222671E+05 -3.057297E-09 -2.232839E-10
       229  18 -6.360245E+04 -3.548046E+04  3.745072E+04 -1.522737E+05 -2.240056E-09 -7.611203E-10
       229  19 -7.126170E+05 -2.682015E+05 -6.954124E+04 -3.339076E+05  2.908316E+03 -3.596820E+04
       229  20 -6.357698E+05 -2.323578E+05 -5.417711E+04 -3.040091E+05 -1.080906E+03 -3.009777E+04
       229  21 -5.473461E+05 -2.086645E+05 -4.004372E+04 -2.876659E+05 -5.150174E+03 -2.401003E+04
       229  22 -3.055593E+05 -1.223264E+05 -4.162604E+03 -2.198962E+05  1.530885E+04 -3.130907E+04
       229  23 -3.113583E+05 -1.161674E+05 -2.281537E+03 -2.131604E+05  1.174366E+04 -2.528112E+04
       229  24 -3.055041E+05 -1.220749E+05 -1.295285E+03 -2.199820E+05  8.098683E+03 -1.903585E+04
       229  25  1.016764E+05  2.356587E+04  6.121331E+04 -1.058146E+05  2.771799E+04 -2.664672E+04
       229  26  1.316479E+04  3.324881E+01  4.961212E+04 -1.222675E+05  2.457526E+04 -2.046184E+04
       229  27 -6.360191E+04 -3.548013E+04  3.745195E+04 -1.522739E+05  2.135286E+04 -1.405968E+04
       230   1 -4.948417E+05 -1.898365E+05 -3.099832E+04 -2.730153E+05  6.812358E+03  2.012290E+04
       230   2 -4.180682E+05 -1.543216E+05 -1.764513E+04 -2.430578E+05  9.728451E+03  1.347530E+04
       230   3 -3.294623E+05 -1.306998E+05 -4.567818E+03 -2.266892E+05  1.265165E+04  6.807261E+03
       230   4 -3.054674E+05 -1.220769E+05 -1.007405E+03 -2.199725E+05 -6.424863E+03  1.515377E+04
       230   5 -3.113786E+05 -1.161293E+05 -6.582925E+02 -2.131765E+05 -3.549497E+03  8.491433E+03
       230   6 -3.054590E+05 -1.220682E+05 -5.541368E+02 -2.199726E+05 -6.670822E+02  1.808648E+03
       230   7 -1.160518E+05 -5.431257E+04  2.898422E+04 -1.669138E+05 -1.966651E+04  1.018298E+04
       230   8 -2.046756E+05 -7.793530E+04  1.632926E+04 -1.832901E+05 -1.682994E+04  3.506631E+03
       230   9 -2.814546E+05 -1.134363E+05  3.460294E+03 -2.132557E+05 -1.398637E+04 -3.190173E+03
       230  10 -4.948419E+05 -1.898370E+05 -3.099917E+04 -2.730154E+05 -1.221642E-10  8.378140E-10
       230  11 -4.180684E+05 -1.543219E+05 -1.764564E+04 -2.430579E+05 -4.465228E-10  1.579468E-09
       230  12 -3.294625E+05 -1.306999E+05 -4.568206E+03 -2.266893E+05  4.875313E-10  3.317637E-09
       230  13 -3.054675E+05 -1.220772E+05 -1.007914E+03 -2.199724E+05  9.636084E-10  4.170072E-10
       230  14 -3.113786E+05 -1.161293E+05 -6.584516E+02 -2.131765E+05 -1.337199E-09  3.780678E-10
       230  15 -3.054590E+05 -1.220682E+05 -5.541438E+02 -2.199726E+05 -6.566785E-11  1.694245E-09
       230  16 -1.160523E+05 -5.431279E+04  2.898330E+04 -1.669136E+05  1.145370E-12 -2.743796E-10
       230  17 -2.046759E+05 -7.793538E+04  1.632871E+04 -1.832900E+05 -1.570383E-10  7.622727E-10
       230  18 -2.814548E+05 -1.134364E+05  3.459907E+03 -2.132558E+05 -9.280827E-10 -3.493044E-11
       230  19 -4.948417E+05 -1.898365E+05 -3.099832E+04 -2.730153E+05 -6.812358E+03 -2.012290E+04
       230  20 -4.180682E+05 -1.543216E+05 -1.764513E+04 -2.430578E+05 -9.728451E+03 -1.347530E+04
       230  21 -3.294623E+05 -1.306998E+05 -4.567818E+03 -2.266892E+05 -1.265165E+04 -6.807261E+03
       230  22 -3.054674E+05 -1.220769E+05 -1.007405E+03 -2.199725E+05  6.424863E+03 -1.515377E+04
       230  23 -3.113786E+05 -1.161293E+05 -6.582925E+02 -2.131765E+05  3.549497E+03 -8.491433E+03
       230  24 -3.054590E+05 -1.220682E+05 -5.541368E+02 -2.199726E+05  6.670822E+02 -1.808648E+03
       230  25 -1.160518E+05 -5.431257E+04  2.898422E+04 -1.669138E+05  1.966651E+04 -1.018298E+04
       230  26 -2.046756E+05 -7.793530E+04  1.632926E+04 -1.832901E+05  1.682994E+04 -3.506631E+03
       230  27 -2.814546E+05 -1.134363E+05  3.460294E+03 -2.132557E+05  1.398637E+04  3.190173E+03
       231   1 -2.770071E+05 -1.118577E+05  4.143561E+03 -2.120257E+05  1.423632E+04  2.874374E+03
       231   2 -2.002179E+05 -7.635479E+04  1.691073E+04 -1.820651E+05  1.714151E+04 -3.799282E+03
       231   3 -1.115940E+05 -5.273416E+04  2.941717E+04 -1.656958E+05  2.003949E+04 -1.045227E+04
       231   4 -3.054616E+05 -1.220677E+05 -5.765628E+02 -2.199738E+05  9.169271E+02 -2.124479E+03
       231   5 -3.113746E+05 -1.161225E+05 -7.822760E+02 -2.131779E+05  3.861295E+03 -8.784004E+03
       231   6 -3.054676E+05 -1.220681E+05 -1.280135E+03 -2.199763E+05  6.798423E+03 -1.542292E+04
       231   7 -3.339146E+05 -1.322773E+05 -5.295856E+03 -2.279214E+05 -1.240167E+04 -7.123034E+03
       231   8 -4.225177E+05 -1.558889E+05 -1.847476E+04 -2.442855E+05 -9.416402E+03 -1.376778E+04
       231   9 -4.993027E+05 -1.913989E+05 -3.197799E+04 -2.742413E+05 -6.438410E+03 -2.039199E+04
       231  10 -2.770073E+05 -1.118577E+05  4.143165E+03 -2.120258E+05  5.514929E-08  2.594025E-08
       231  11 -2.002182E+05 -7.635488E+04  1.691015E+04 -1.820650E+05  8.425682E-09  6.891266E-09
       231  12 -1.115944E+05 -5.273438E+04  2.941621E+04 -1.656957E+05 -4.808685E-08 -1.840949E-08
       231  13 -3.054616E+05 -1.220677E+05 -5.765729E+02 -2.199738E+05  3.518510E-09  3.769109E-09
       231  14 -3.113747E+05 -1.161226E+05 -7.824490E+02 -2.131779E+05  8.563022E-09  6.117612E-09
       231  15 -3.054677E+05 -1.220684E+05 -1.280668E+03 -2.199762E+05  4.639689E-09  3.119869E-09
       231  16 -3.339148E+05 -1.322774E+05 -5.296241E+03 -2.279215E+05 -4.875641E-08 -1.815908E-08
       231  17 -4.225179E+05 -1.558891E+05 -1.847529E+04 -2.442856E+05  9.914196E-09  6.343081E-09
       231  18 -4.993029E+05 -1.913993E+05 -3.197885E+04 -2.742414E+05  5.637166E-08  2.591106E-08
       231  19 -2.770071E+05 -1.118577E+05  4.143561E+03 -2.120257E+05 -1.423632E+04 -2.874374E+03
       231  20 -2.002179E+05 -7.635479E+04  1.691073E+04 -1.820651E+05 -1.714151E+04  3.799282E+03
       231  21 -1.115940E+05 -5.273416E+04  2.941717E+04 -1.656958E+05 -2.003949E+04  1.045227E+04
       231  22 -3.054616E+05 -1.220677E+05 -5.765628E+02 -2.199738E+05 -9.169271E+02  2.124479E+03
       231  23 -3.113746E+05 -1.161225E+05 -7.822760E+02 -2.131779E+05 -3.861295E+03  8.784004E+03
       231  24 -3.054676E+05 -1.220681E+05 -1.280135E+03 -2.199763E+05 -6.798423E+03  1.542292E+04
       231  25 -3.339146E+05 -1.322773E+05 -5.295856E+03 -2.279214E+05  1.240167E+04  7.123034E+03
       231  26 -4.225177E+05 -1.558889E+05 -1.847476E+04 -2.442855E+05  9.416402E+03  1.376778E+04
       231  27 -4.993027E+05 -1.913989E+05 -3.197799E+04 -2.742413E+05  6.438410E+03  2.039199E+04
       232   1 -5.914757E+04 -3.390976E+04  3.778134E+04 -1.510731E+05  2.177935E+04 -1.430867E+04
       232   2  1.765197E+04  1.607085E+03  4.961639E+04 -1.210544E+05  2.535082E+04 -2.057887E+04
       232   3  1.061215E+05  2.507118E+04  6.061368E+04 -1.045925E+05  2.884204E+04 -2.663082E+04
       232   4 -3.055179E+05 -1.220652E+05 -1.671948E+03 -2.199926E+05  8.525496E+03 -1.928484E+04
       232   5 -3.113402E+05 -1.161537E+05 -2.984489E+03 -2.131580E+05  1.252146E+04 -2.539740E+04
       232   6 -3.055836E+05 -1.223805E+05 -5.471839E+03 -2.198836E+05  1.643700E+04 -3.129169E+04
       232   7 -5.518227E+05 -2.102142E+05 -4.112565E+04 -2.888863E+05 -4.722780E+03 -2.425892E+04
       232   8 -6.402137E+05 -2.339026E+05 -5.558622E+04 -3.052151E+05 -3.006162E+02 -3.021320E+04
       232   9 -7.171015E+05 -2.698128E+05 -7.155875E+04 -3.351016E+05  4.040819E+03 -3.594925E+04
       232  10 -5.914814E+04 -3.391011E+04  3.778006E+04 -1.510729E+05  2.463689E-09 -1.599869E-10
       232  11  1.765116E+04  1.606458E+03  4.961438E+04 -1.210540E+05 -2.215129E-09 -1.520363E-09
       232  12  1.061204E+05  2.507020E+04  6.061079E+04 -1.045919E+05 -2.684426E-09 -7.899166E-10
       232  13 -3.055181E+05 -1.220656E+05 -1.672783E+03 -2.199925E+05 -2.579573E-09  1.570133E-09
       232  14 -3.113405E+05 -1.161545E+05 -2.985995E+03 -2.131577E+05 -1.431897E-09 -1.423603E-09
       232  15 -3.055841E+05 -1.223816E+05 -5.474186E+03 -2.198832E+05  1.167850E-09 -1.153514E-09
       232  16 -5.518228E+05 -2.102149E+05 -4.112680E+04 -2.888864E+05 -2.549091E-09  2.475232E-09
       232  17 -6.402140E+05 -2.339035E+05 -5.558794E+04 -3.052151E+05  1.582873E-09 -1.620685E-09
       232  18 -7.171019E+05 -2.698142E+05 -7.156121E+04 -3.351014E+05  1.973171E-09 -1.376862E-10
       232  19 -5.914757E+04 -3.390976E+04  3.778134E+04 -1.510731E+05 -2.177935E+04  1.430867E+04
       232  20  1.765197E+04  1.607085E+03  4.961639E+04 -1.210544E+05 -2.535082E+04  2.057887E+04
       232  21  1.061215E+05  2.507118E+04  6.061368E+04 -1.045925E+05 -2.884204E+04  2.663082E+04
       232  22 -3.055179E+05 -1.220652E+05 -1.671948E+03 -2.199926E+05 -8.525496E+03  1.928484E+04
       232  23 -3.113402E+05 -1.161537E+05 -2.984489E+03 -2.131580E+05 -1.252146E+04  2.539740E+04
       232  24 -3.055836E+05 -1.223805E+05 -5.471839E+03 -2.198836E+05 -1.643700E+04  3.129169E+04
       232  25 -5.518227E+05 -2.102142E+05 -4.112565E+04 -2.888863E+05  4.722780E+03  2.425892E+04
       232  26 -6.402137E+05 -2.339026E+05 -5.558622E+04 -3.052151E+05  3.006162E+02  3.021320E+04
       232  27 -7.171015E+05 -2.698128E+05 -7.155875E+04 -3.351016E+05 -4.040819E+03  3.594925E+04
       233   1  1.586363E+05  4.362693E+04  6.779270E+04 -9.039253E+04  3.139460E+04 -2.999897E+04
       233   2  2.342403E+05  7.959612E+04  7.658875E+04 -5.812809E+04  3.606674E+04 -3.435349E+04
       233   3  3.200371E+05  1.004998E+05  8.251442E+04 -3.850219E+04  3.994673E+04 -3.659373E+04
       233   4 -3.059688E+05 -1.224120E+05 -7.302499E+03 -2.199841E+05  1.885551E+04 -3.471149E+04
       233   5 -3.111345E+05 -1.177690E+05 -1.345636E+04 -2.124301E+05  2.765538E+04 -3.751805E+04
       233   6 -3.069355E+05 -1.290144E+05 -2.575541E+04 -2.175195E+05  3.566237E+04 -3.820939E+04
       233   7 -7.703477E+05 -2.884312E+05 -8.240307E+04 -3.494861E+05  6.326215E+03 -3.942037E+04
       233   8 -8.561945E+05 -3.151040E+05 -1.035090E+05 -3.666055E+05  1.925181E+04 -4.067965E+04
       233   9 -9.334909E+05 -3.584866E+05 -1.340366E+05 -3.963666E+05  3.138260E+04 -3.982327E+04
       233  10  1.586350E+05  4.362570E+04  6.778916E+04 -9.039177E+04  7.714440E-10 -5.532356E-10
       233  11  2.342385E+05  7.959450E+04  7.658409E+04 -5.812709E+04  5.373807E-09  1.208144E-09
       233  12  3.200350E+05  1.004980E+05  8.250891E+04 -3.850101E+04  6.244066E-09  2.896943E-10
       233  13 -3.059695E+05 -1.224134E+05 -7.305431E+03 -2.199835E+05  2.076132E-09 -4.054909E-10
       233  14 -3.111357E+05 -1.177707E+05 -1.346044E+04 -2.124293E+05  5.802101E-09  2.496052E-09
       233  15 -3.069373E+05 -1.290163E+05 -2.576054E+04 -2.175184E+05  2.011708E-09 -2.679591E-10
       233  16 -7.703481E+05 -2.884329E+05 -8.240607E+04 -3.494859E+05  4.464143E-09  1.230466E-09
       233  17 -8.561954E+05 -3.151059E+05 -1.035128E+05 -3.666049E+05  6.179350E-09  1.437404E-09
       233  18 -9.334924E+05 -3.584886E+05 -1.340414E+05 -3.963656E+05 -1.926505E-09 -5.031047E-10
       233  19  1.586363E+05  4.362693E+04  6.779270E+04 -9.039253E+04 -3.139460E+04  2.999897E+04
       233  20  2.342403E+05  7.959612E+04  7.658875E+04 -5.812809E+04 -3.606674E+04  3.435349E+04
       233  21  3.200371E+05  1.004998E+05  8.251442E+04 -3.850219E+04 -3.994673E+04  3.659373E+04
       233  22 -3.059688E+05 -1.224120E+05 -7.302499E+03 -2.199841E+05 -1.885551E+04  3.471149E+04
       233  23 -3.111345E+05 -1.177690E+05 -1.345636E+04 -2.124301E+05 -2.765538E+04  3.751805E+04
       233  24 -3.069355E+05 -1.290144E+05 -2.575541E+04 -2.175195E+05 -3.566237E+04  3.820939E+04
       233  25 -7.703477E+05 -2.884312E+05 -8.240307E+04 -3.494861E+05 -6.326215E+03  3.942037E+04
       233  26 -8.561945E+05 -3.151040E+05 -1.035090E+05 -3.666055E+05 -1.925181E+04  4.067965E+04
       233  27 -9.334909E+05 -3.584866E+05 -1.340366E+05 -3.963666E+05 -3.138260E+04  3.982327E+04
       234   1  3.738215E+05  1.149134E+05  8.529174E+04 -2.933270E+04  4.600621E+04 -3.688535E+04
       234   2  4.254256E+05  1.578986E+05  8.624864E+04  4.291570E+04  3.728107E+04 -3.167897E+04
       234   3  4.686921E+05  1.378592E+05  7.715936E+04  1.176033E+05  2.080800E+04 -5.889873E+03
       234   4 -3.110818E+05 -1.301123E+05 -3.452351E+04 -2.183718E+05  4.038975E+04 -3.900242E+04
       234   5 -3.104377E+05 -1.475981E+05 -6.619998E+04 -1.996777E+05  7.190716E+04 -1.866619E+04
       234   6 -3.261389E+05 -2.361336E+05 -1.398310E+05 -1.785442E+05  9.567062E+04  2.226567E+04
       234   7 -9.954878E+05 -3.750943E+05 -1.543527E+05 -4.072168E+05  3.477988E+04 -4.111707E+04
       234   8 -1.045719E+06 -4.529946E+05 -2.186670E+05 -4.419840E+05  1.064887E+05 -5.675349E+03
       234   9 -1.120297E+06 -6.099542E+05 -3.568452E+05 -4.742987E+05  1.704263E+05  5.035786E+04
       234  10  3.738189E+05  1.149113E+05  8.528521E+04 -2.933134E+04  1.753056E-09 -1.671220E-09
       234  11  4.254239E+05  1.578971E+05  8.624415E+04  4.291665E+04  1.748760E-10 -7.715725E-10
       234  12  4.686916E+05  1.378591E+05  7.715848E+04  1.176034E+05 -9.245396E-10 -4.761863E-10
       234  13 -3.110839E+05 -1.301144E+05 -3.452944E+04 -2.183705E+05  4.354131E-10 -2.055522E-09
       234  14 -3.104433E+05 -1.475999E+05 -6.621035E+04 -1.996766E+05 -3.106902E-09  1.615079E-09
       234  15 -3.261489E+05 -2.361366E+05 -1.398492E+05 -1.785459E+05  3.351765E-09  6.707822E-10
       234  16 -9.954896E+05 -3.750964E+05 -1.543582E+05 -4.072156E+05 -6.432616E-10  8.222346E-10
       234  17 -1.045732E+06 -4.529977E+05 -2.186884E+05 -4.419835E+05 -2.732383E-09  2.367977E-09
       234  18 -1.120329E+06 -6.099648E+05 -3.569047E+05 -4.743056E+05  1.780001E-10  9.841068E-10
       234  19  3.738215E+05  1.149134E+05  8.529174E+04 -2.933270E+04 -4.600621E+04  3.688535E+04
       234  20  4.254256E+05  1.578986E+05  8.624864E+04  4.291570E+04 -3.728107E+04  3.167897E+04
       234  21  4.686921E+05  1.378592E+05  7.715936E+04  1.176033E+05 -2.080800E+04  5.889873E+03
       234  22 -3.110818E+05 -1.301123E+05 -3.452351E+04 -2.183718E+05 -4.038975E+04  3.900242E+04
       234  23 -3.104377E+05 -1.475981E+05 -6.619998E+04 -1.996777E+05 -7.190716E+04  1.866619E+04
       234  24 -3.261389E+05 -2.361336E+05 -1.398310E+05 -1.785442E+05 -9.567062E+04 -2.226567E+04
       234  25 -9.954878E+05 -3.750943E+05 -1.543527E+05 -4.072168E+05 -3.477988E+04  4.111707E+04
       234  26 -1.045719E+06 -4.529946E+05 -2.186670E+05 -4.419840E+05 -1.064887E+05  5.675349E+03
       234  27 -1.120297E+06 -6.099542E+05 -3.568452E+05 -4.742987E+05 -1.704263E+05 -5.035786E+04
       235   1  1.235296E+06  1.789429E+05  1.566891E+05  1.003767E+04  3.724139E+04 -1.463298E+04
       235   2  1.186336E+06  2.117368E+05  1.380606E+05  3.315080E+04  1.227282E+04 -5.059319E+04
       235   3  1.133182E+06  2.145813E+05  1.282356E+05  6.384548E+04 -1.273383E+04 -6.390466E+04
       235   4  1.775517E+05 -8.101830E+04 -8.748836E+04  6.212174E+04 -6.147199E+04 -1.483376E+04
       235   5  1.837755E+05 -2.479853E+04 -4.354007E+04  5.824600E+04 -3.908800E+04 -5.071239E+04
       235   6  1.775769E+05 -6.773284E+03 -2.365409E+04  6.195136E+04 -1.674404E+04 -6.392332E+04
       235   7 -8.791330E+05 -3.410421E+05 -3.317022E+05  1.141160E+05 -1.600187E+05 -1.505126E+04
       235   8 -8.178010E+05 -2.613863E+05 -2.251702E+05  8.329907E+04 -9.036825E+04 -5.083584E+04
       235   9 -7.771213E+05 -2.281733E+05 -1.755671E+05  6.005971E+04 -2.074831E+04 -6.394197E+04
       235  10  1.235295E+06  1.789422E+05  1.566861E+05  1.003811E+04 -6.664265E-08 -1.256504E-09
       235  11  1.186335E+06  2.117340E+05  1.380555E+05  3.315130E+04 -1.144814E-08 -4.404971E-09
       235  12  1.133181E+06  2.145768E+05  1.282276E+05  6.384483E+04  5.117178E-08  1.003499E-09
       235  13  1.775476E+05 -8.101955E+04 -8.749587E+04  6.212101E+04 -4.955608E-10 -8.551868E-10
       235  14  1.837731E+05 -2.480170E+04 -4.354777E+04  5.824440E+04 -1.137955E-09 -1.239550E-08
       235  15  1.775755E+05 -6.777748E+03 -2.366230E+04  6.195050E+04  4.622235E-09 -1.269663E-08
       235  16 -8.791606E+05 -3.410493E+05 -3.317508E+05  1.141141E+05  6.471407E-08  1.829948E-10
       235  17 -8.178105E+05 -2.613913E+05 -2.251904E+05  8.329537E+04  8.713967E-09 -6.145440E-09
       235  18 -7.771228E+05 -2.281778E+05 -1.755756E+05  6.005864E+04 -5.115963E-08 -1.268588E-09
       235  19  1.235296E+06  1.789429E+05  1.566891E+05  1.003767E+04 -3.724139E+04  1.463298E+04
       235  20  1.186336E+06  2.117368E+05  1.380606E+05  3.315080E+04 -1.227282E+04  5.059319E+04
       235  21  1.133182E+06  2.145813E+05  1.282356E+05  6.384548E+04  1.273383E+04  6.390466E+04
       235  22  1.775517E+05 -8.101830E+04 -8.748836E+04  6.212174E+04  6.147199E+04  1.483376E+04
       235  23  1.837755E+05 -2.479853E+04 -4.354007E+04  5.824600E+04  3.908800E+04  5.071239E+04
       235  24  1.775769E+05 -6.773284E+03 -2.365409E+04  6.195136E+04  1.674404E+04  6.392332E+04
       235  25 -8.791330E+05 -3.410421E+05 -3.317022E+05  1.141160E+05  1.600187E+05  1.505126E+04
       235  26 -8.178010E+05 -2.613863E+05 -2.251702E+05  8.329907E+04  9.036825E+04  5.083584E+04
       235  27 -7.771213E+05 -2.281733E+05 -1.755671E+05  6.005971E+04  2.074831E+04  6.394197E+04
       236   1  1.102394E+06  2.075387E+05  1.254264E+05  6.111546E+04 -9.579203E+03 -6.418326E+04
       236   2  1.051863E+06  1.987059E+05  1.198555E+05  5.818482E+04 -1.026585E+04 -6.482861E+04
       236   3  1.000935E+06  1.879333E+05  1.142514E+05  6.440747E+04 -1.095996E+04 -6.282532E+04
       236   4  1.800466E+05 -5.415836E+03 -1.776712E+04  6.231370E+04 -1.367892E+04 -6.420235E+04
       236   5  1.807400E+05 -1.293462E+03 -9.675886E+03  5.772952E+04 -8.832788E+03 -6.483387E+04
       236   6  1.800750E+05 -7.240415E+01 -5.459183E+03  6.229952E+04 -3.994064E+03 -6.281482E+04
       236   7 -7.414529E+05 -2.184119E+05 -1.609803E+05  6.350957E+04 -1.777278E+04 -6.422148E+04
       236   8 -6.896208E+05 -2.013285E+05 -1.392215E+05  5.727439E+04 -7.401650E+03 -6.483913E+04
       236   9 -6.401065E+05 -1.881092E+05 -1.251810E+05  6.019401E+04  2.963016E+03 -6.280436E+04
       236  10  1.102393E+06  2.075343E+05  1.254185E+05  6.111497E+04  7.219419E-08  2.080107E-09
       236  11  1.051861E+06  1.987014E+05  1.198474E+05  5.818429E+04  1.658015E-08  7.777631E-09
       236  12  1.000934E+06  1.879290E+05  1.142438E+05  6.440692E+04 -4.749240E-08  4.895298E-09
       236  13  1.800453E+05 -5.420313E+03 -1.777522E+04  6.231299E+04  6.076839E-10 -1.335546E-08
       236  14  1.807388E+05 -1.297997E+03 -9.683932E+03  5.772906E+04  1.649741E-09 -3.422067E-09
       236  15  1.800740E+05 -7.664577E+01 -5.466628E+03  6.229932E+04  2.154313E-09 -2.467862E-09
       236  16 -7.414543E+05 -2.184164E+05 -1.609887E+05  6.350865E+04 -7.151102E-08  7.619496E-09
       236  17 -6.896220E+05 -2.013330E+05 -1.392295E+05  5.727401E+04 -1.290854E-08  7.626353E-09
       236  18 -6.401076E+05 -1.881134E+05 -1.251884E+05  6.019416E+04  4.669681E-08  3.008119E-09
       236  19  1.102394E+06  2.075387E+05  1.254264E+05  6.111546E+04  9.579203E+03  6.418326E+04
       236  20  1.051863E+06  1.987059E+05  1.198555E+05  5.818482E+04  1.026585E+04  6.482861E+04
       236  21  1.000935E+06  1.879333E+05  1.142514E+05  6.440747E+04  1.095996E+04  6.282532E+04
       236  22  1.800466E+05 -5.415836E+03 -1.776712E+04  6.231370E+04  1.367892E+04  6.420235E+04
       236  23  1.807400E+05 -1.293462E+03 -9.675886E+03  5.772952E+04  8.832788E+03  6.483387E+04
       236  24  1.800750E+05 -7.240415E+01 -5.459183E+03  6.229952E+04  3.994064E+03  6.281482E+04
       236  25 -7.414529E+05 -2.184119E+05 -1.609803E+05  6.350957E+04  1.777278E+04  6.422148E+04
       236  26 -6.896208E+05 -2.013285E+05 -1.392215E+05  5.727439E+04  7.401650E+03  6.483913E+04
       236  27 -6.401065E+05 -1.881092E+05 -1.251810E+05  6.019401E+04 -2.963016E+03  6.280436E+04
       237   1  9.692197E+05  1.805687E+05  1.103636E+05  6.410179E+04 -1.013055E+04 -6.078779E+04
       237   2  9.186184E+05  1.690889E+05  1.042235E+05  5.940396E+04 -9.624780E+03 -5.730780E+04
       237   3  8.679163E+05  1.575652E+05  9.773654E+04  6.403327E+04 -9.121541E+03 -5.351904E+04
       237   4  1.803387E+05 -3.126972E+00 -4.128697E+03  6.233941E+04 -3.177688E+03 -6.077629E+04
       237   5  1.804590E+05  2.368321E+02 -2.332571E+03  5.767506E+04 -2.027906E+03 -5.729284E+04
       237   6  1.803639E+05  3.211310E+02 -1.330943E+03  6.233849E+04 -8.806187E+02 -5.350043E+04
       237   7 -6.079152E+05 -1.806036E+05 -1.186310E+05  6.057892E+04  3.766726E+03 -6.076482E+04
       237   8 -5.571510E+05 -1.686401E+05 -1.088970E+05  5.594790E+04  5.560329E+03 -5.727791E+04
       237   9 -5.067117E+05 -1.569445E+05 -1.004056E+05  6.064530E+04  7.351573E+03 -5.348185E+04
       237  10  9.692186E+05  1.805647E+05  1.103564E+05  6.410130E+04 -2.145332E-09  5.602965E-09
       237  11  9.186174E+05  1.690853E+05  1.042171E+05  5.940352E+04  3.173086E-09  4.151685E-09
       237  12  8.679155E+05  1.575621E+05  9.773100E+04  6.403288E+04  5.285981E-09  9.694451E-10
       237  13  1.803377E+05 -7.096456E+00 -4.135657E+03  6.233926E+04 -4.855917E-10 -2.091033E-09
       237  14  1.804581E+05  2.333059E+02 -2.338747E+03  5.767496E+04  1.611747E-09  4.184864E-09
       237  15  1.803631E+05  3.180569E+02 -1.336324E+03  6.233845E+04  2.902916E-09  6.522060E-09
       237  16 -6.079162E+05 -1.806075E+05 -1.186379E+05  6.057911E+04  1.739550E-09  2.093266E-09
       237  17 -5.571519E+05 -1.686436E+05 -1.089032E+05  5.594815E+04 -4.025004E-09  3.386100E-09
       237  18 -5.067125E+05 -1.569476E+05 -1.004111E+05  6.064561E+04 -2.800365E-09  8.390629E-10
       237  19  9.692197E+05  1.805687E+05  1.103636E+05  6.410179E+04  1.013055E+04  6.078779E+04
       237  20  9.186184E+05  1.690889E+05  1.042235E+05  5.940396E+04  9.624780E+03  5.730780E+04
       237  21  8.679163E+05  1.575652E+05  9.773654E+04  6.403327E+04  9.121541E+03  5.351904E+04
       237  22  1.803387E+05 -3.126972E+00 -4.128697E+03  6.233941E+04  3.177688E+03  6.077629E+04
       237  23  1.804590E+05  2.368321E+02 -2.332571E+03  5.767506E+04  2.027906E+03  5.729284E+04
       237  24  1.803639E+05  3.211310E+02 -1.330943E+03  6.233849E+04  8.806187E+02  5.350043E+04
       237  25 -6.079152E+05 -1.806036E+05 -1.186310E+05  6.057892E+04 -3.766726E+03  6.076482E+04
       237  26 -5.571510E+05 -1.686401E+05 -1.088970E+05  5.594790E+04 -5.560329E+03  5.727791E+04
       237  27 -5.067117E+05 -1.569445E+05 -1.004056E+05  6.064530E+04 -7.351573E+03  5.348185E+04
       238   1  8.361553E+05  1.502532E+05  9.325135E+04  6.394748E+04 -8.914043E+03 -5.121317E+04
       238   2  7.855767E+05  1.386758E+05  8.642300E+04  5.917196E+04 -8.713235E+03 -4.725437E+04
       238   3  7.349454E+05  1.271611E+05  7.946645E+04  6.373585E+04 -8.513976E+03 -4.326028E+04
       238   4  1.804045E+05  3.248899E+02 -1.008090E+03  6.234132E+04 -6.764749E+02 -5.119359E+04
       238   5  1.804493E+05  3.149676E+02 -5.743821E+02  5.767134E+04 -4.025392E+02 -4.723305E+04
       238   6  1.804252E+05  3.549735E+02 -3.201966E+02  6.234128E+04 -1.301388E+02 -4.323720E+04
       238   7 -4.749124E+05 -1.496230E+05 -9.527392E+04  6.073661E+04  7.552772E+03 -5.117403E+04
       238   8 -4.243085E+05 -1.380625E+05 -8.757716E+04  5.617195E+04  7.900408E+03 -4.721175E+04
       238   9 -3.737845E+05 -1.264652E+05 -8.011135E+04  6.094776E+04  8.246535E+03 -4.321415E+04
       238  10  8.361545E+05  1.502504E+05  9.324627E+04  6.394711E+04  1.768277E-09  1.438362E-09
       238  11  7.855760E+05  1.386734E+05  8.641866E+04  5.917163E+04 -8.472814E-11  8.946640E-09
       238  12  7.349448E+05  1.271591E+05  7.946279E+04  6.373555E+04 -5.183308E-09  8.533875E-09
       238  13  1.804038E+05  3.220753E+02 -1.013017E+03  6.234130E+04  7.697075E-10  1.485018E-09
       238  14  1.804487E+05  3.125717E+02 -5.785752E+02  5.767132E+04 -2.036574E-09  9.002910E-09
       238  15  1.804247E+05  3.529659E+02 -3.237100E+02  6.234128E+04 -2.588465E-10  1.318900E-09
       238  16 -4.749132E+05 -1.496258E+05 -9.527894E+04  6.073692E+04 -2.989686E-10  9.423868E-10
       238  17 -4.243092E+05 -1.380649E+05 -8.758147E+04  5.617225E+04  2.496369E-09  3.552002E-09
       238  18 -3.737851E+05 -1.264672E+05 -8.011499E+04  6.094805E+04  3.287904E-09  1.683437E-09
       238  19  8.361553E+05  1.502532E+05  9.325135E+04  6.394748E+04  8.914043E+03  5.121317E+04
       238  20  7.855767E+05  1.386758E+05  8.642300E+04  5.917196E+04  8.713235E+03  4.725437E+04
       238  21  7.349454E+05  1.271611E+05  7.946645E+04  6.373585E+04  8.513976E+03  4.326028E+04
       238  22  1.804045E+05  3.248899E+02 -1.008090E+03  6.234132E+04  6.764749E+02  5.119359E+04
       238  23  1.804493E+05  3.149676E+02 -5.743821E+02  5.767134E+04  4.025392E+02  4.723305E+04
       238  24  1.804252E+05  3.549735E+02 -3.201966E+02  6.234128E+04  1.301388E+02  4.323720E+04
       238  25 -4.749124E+05 -1.496230E+05 -9.527392E+04  6.073661E+04 -7.552772E+03  5.117403E+04
       238  26 -4.243085E+05 -1.380625E+05 -8.757716E+04  5.617195E+04 -7.900408E+03  4.721175E+04
       238  27 -3.737845E+05 -1.264652E+05 -8.011135E+04  6.094776E+04 -8.246535E+03  4.321415E+04
       239   1  7.031966E+05  1.198690E+05  7.479244E+04  6.366806E+04 -8.468021E+03 -4.092451E+04
       239   2  6.526523E+05  1.083058E+05  6.773137E+04  5.888735E+04 -8.428514E+03 -3.691188E+04
       239   3  6.020606E+05  9.680847E+04  6.064262E+04  6.344729E+04 -8.390141E+03 -3.289558E+04
       239   4  1.804357E+05  3.609016E+02 -2.366584E+02  6.234154E+04 -8.605620E+01 -4.090064E+04
       239   5  1.804692E+05  3.412111E+02 -1.186637E+02  5.767100E+04 -3.919064E+01 -3.688679E+04
       239   6  1.804520E+05  3.863004E+02 -3.343417E+01  6.234151E+04  6.545245E+00 -3.286927E+04
       239   7 -3.420492E+05 -1.191596E+05 -7.526967E+04  6.101596E+04  8.289157E+03 -4.087679E+04
       239   8 -2.914889E+05 -1.076335E+05 -6.797186E+04  5.645542E+04  8.344029E+03 -3.686172E+04
       239   9 -2.409771E+05 -9.604394E+04 -6.071199E+04  6.123635E+04  8.397775E+03 -3.284298E+04
       239  10  7.031961E+05  1.198672E+05  7.478915E+04  6.366778E+04  1.523083E-08  3.194978E-09
       239  11  6.526519E+05  1.083043E+05  6.772867E+04  5.888710E+04 -6.244935E-10 -7.352760E-10
       239  12  6.020602E+05  9.680729E+04  6.064046E+04  6.344707E+04 -1.332958E-08 -8.650551E-10
       239  13  1.804353E+05  3.591050E+02 -2.398023E+02  6.234154E+04  2.035129E-09  8.196763E-09
       239  14  1.804688E+05  3.397499E+02 -1.212208E+02  5.767100E+04  1.145928E-09 -1.134592E-09
       239  15  1.804517E+05  3.851402E+02 -3.546460E+01  6.234151E+04  1.642376E-09 -1.895188E-09
       239  16 -3.420497E+05 -1.191614E+05 -7.527294E+04  6.101623E+04 -1.651593E-08  4.074935E-09
       239  17 -2.914893E+05 -1.076350E+05 -6.797455E+04  5.645567E+04 -3.752637E-09 -2.364900E-09
       239  18 -2.409775E+05 -9.604512E+04 -6.071415E+04  6.123658E+04  1.242591E-08 -3.458587E-09
       239  19  7.031966E+05  1.198690E+05  7.479244E+04  6.366806E+04  8.468021E+03  4.092451E+04
       239  20  6.526523E+05  1.083058E+05  6.773137E+04  5.888735E+04  8.428514E+03  3.691188E+04
       239  21  6.020606E+05  9.680847E+04  6.064262E+04  6.344729E+04  8.390141E+03  3.289558E+04
       239  22  1.804357E+05  3.609016E+02 -2.366584E+02  6.234154E+04  8.605620E+01  4.090064E+04
       239  23  1.804692E+05  3.412111E+02 -1.186637E+02  5.767100E+04  3.919064E+01  3.688679E+04
       239  24  1.804520E+05  3.863004E+02 -3.343417E+01  6.234151E+04 -6.545245E+00  3.286927E+04
       239  25 -3.420492E+05 -1.191596E+05 -7.526967E+04  6.101596E+04 -8.289157E+03  4.087679E+04
       239  26 -2.914889E+05 -1.076335E+05 -6.797186E+04  5.645542E+04 -8.344029E+03  3.686172E+04
       239  27 -2.409771E+05 -9.604394E+04 -6.071199E+04  6.123635E+04 -8.397775E+03  3.284298E+04
       240   1  5.703319E+05  8.952202E+04  5.592932E+04  6.337381E+04 -8.393138E+03 -3.055714E+04
       240   2  5.198134E+05  7.796590E+04  4.883960E+04  5.858246E+04 -8.448649E+03 -2.653845E+04
       240   3  4.692520E+05  6.648656E+04  4.178341E+04  6.312608E+04 -8.504968E+03 -2.251768E+04
       240   4  1.804578E+05  3.923264E+02  2.209133E+00  6.234022E+04  2.198464E+00 -3.053023E+04
       240   5  1.804867E+05  3.725819E+02  7.757774E+01  5.767255E+04 -4.929299E+01 -2.651066E+04
       240   6  1.804694E+05  4.289705E+02  1.835078E+02  6.234013E+04 -1.015958E+02 -2.248903E+04
       240   7 -2.092627E+05 -8.874424E+04 -5.592695E+04  6.130717E+04  8.392491E+03 -3.050334E+04
       240   8 -1.587235E+05 -7.722595E+04 -4.868595E+04  5.676306E+04  8.345670E+03 -2.648290E+04
       240   9 -1.082288E+05 -6.563239E+04 -4.141744E+04  6.155449E+04  8.298035E+03 -2.246038E+04
       240  10  5.703315E+05  8.952099E+04  5.592743E+04  6.337361E+04 -6.978661E-09  4.682777E-09
       240  11  5.198131E+05  7.796513E+04  4.883814E+04  5.858228E+04 -4.712809E-09  4.713277E-09
       240  12  4.692517E+05  6.648600E+04  4.178233E+04  6.312593E+04 -1.232000E-08  6.155602E-09
       240  13  1.804575E+05  3.913254E+02  4.573976E-01  6.234022E+04  1.960318E-09  4.233692E-10
       240  14  1.804865E+05  3.718271E+02  7.625690E+01  5.767255E+04 -1.087522E-09  3.049061E-09
       240  15  1.804693E+05  4.284274E+02  1.825573E+02  6.234013E+04  3.895634E-09  4.957179E-09
       240  16 -2.092630E+05 -8.874526E+04 -5.592884E+04  6.130738E+04  4.312352E-09  2.777652E-09
       240  17 -1.587238E+05 -7.722672E+04 -4.868740E+04  5.676323E+04  7.457357E-09 -6.865719E-09
       240  18 -1.082290E+05 -6.563295E+04 -4.141851E+04  6.155464E+04  1.106782E-08  1.097716E-09
       240  19  5.703319E+05  8.952202E+04  5.592932E+04  6.337381E+04  8.393138E+03  3.055714E+04
       240  20  5.198134E+05  7.796590E+04  4.883960E+04  5.858246E+04  8.448649E+03  2.653845E+04
       240  21  4.692520E+05  6.648656E+04  4.178341E+04  6.312608E+04  8.504968E+03  2.251768E+04
       240  22  1.804578E+05  3.923264E+02  2.209133E+00  6.234022E+04 -2.198464E+00  3.053023E+04
       240  23  1.804867E+05  3.725819E+02  7.757774E+01  5.767255E+04  4.929299E+01  2.651066E+04
       240  24  1.804694E+05  4.289705E+02  1.835078E+02  6.234013E+04  1.015958E+02  2.248903E+04
       240  25 -2.092627E+05 -8.874424E+04 -5.592695E+04  6.130717E+04 -8.392491E+03  3.050334E+04
       240  26 -1.587235E+05 -7.722595E+04 -4.868595E+04  5.676306E+04 -8.345670E+03  2.648290E+04
       240  27 -1.082288E+05 -6.563239E+04 -4.141744E+04  6.155449E+04 -8.298035E+03  2.246038E+04
       241   1  4.375505E+05  5.920532E+04  3.711045E+04  6.305956E+04 -8.549198E+03 -2.017779E+04
       241   2  3.870241E+05  4.770659E+04  3.017919E+04  5.817696E+04 -8.835205E+03 -1.614782E+04
       241   3  3.365135E+05  3.642710E+04  2.346485E+04  6.262662E+04 -9.121741E+03 -1.209969E+04
       241   4  1.804843E+05  4.364684E+02  2.541461E+02  6.233959E+04 -1.468211E+02 -2.014873E+04
       241   5  1.804849E+05  4.686083E+02  4.688022E+02  5.767291E+04 -3.952327E+02 -1.611810E+04
       241   6  1.804913E+05  7.133334E+02  8.738795E+02  6.233864E+04 -6.441939E+02 -1.206932E+04
       241   7 -7.651507E+04 -5.833535E+04 -3.660290E+04  6.161988E+04  8.252227E+03 -2.011968E+04
       241   8 -2.601118E+04 -4.677128E+04 -2.924198E+04  5.716900E+04  8.042053E+03 -1.608839E+04
       241   9  2.449384E+04 -3.500151E+04 -2.171721E+04  6.205072E+04  7.831314E+03 -1.203894E+04
       241  10  4.375503E+05  5.920486E+04  3.710955E+04  6.305942E+04 -2.871278E-08  1.017835E-08
       241  11  3.870239E+05  4.770629E+04  3.017855E+04  5.817685E+04  9.558454E-09  2.280931E-09
       241  12  3.365134E+05  3.642692E+04  2.346442E+04  6.262653E+04  4.537906E-08  1.029761E-08
       241  13  1.804842E+05  4.360324E+02  2.533831E+02  6.233959E+04 -1.833369E-10  5.662289E-09
       241  14  1.804848E+05  4.683293E+02  4.683137E+02  5.767291E+04 -5.735625E-10 -1.775906E-09
       241  15  1.804913E+05  7.131768E+02  8.736050E+02  6.233864E+04  4.354663E-09 -1.274219E-08
       241  16 -7.651525E+04 -5.833580E+04 -3.660379E+04  6.162001E+04  2.924017E-08  6.816048E-09
       241  17 -2.601132E+04 -4.677158E+04 -2.924259E+04  5.716910E+04 -7.435726E-09  5.141467E-09
       241  18  2.449374E+04 -3.500168E+04 -2.171760E+04  6.205080E+04 -4.624377E-08 -3.389874E-09
       241  19  4.375505E+05  5.920532E+04  3.711045E+04  6.305956E+04  8.549198E+03  2.017779E+04
       241  20  3.870241E+05  4.770659E+04  3.017919E+04  5.817696E+04  8.835205E+03  1.614782E+04
       241  21  3.365135E+05  3.642710E+04  2.346485E+04  6.262662E+04  9.121741E+03  1.209969E+04
       241  22  1.804843E+05  4.364684E+02  2.541461E+02  6.233959E+04  1.468211E+02  2.014873E+04
       241  23  1.804849E+05  4.686083E+02  4.688022E+02  5.767291E+04  3.952327E+02  1.611810E+04
       241  24  1.804913E+05  7.133334E+02  8.738795E+02  6.233864E+04  6.441939E+02  1.206932E+04
       241  25 -7.651507E+04 -5.833535E+04 -3.660290E+04  6.161988E+04 -8.252227E+03  2.011968E+04
       241  26 -2.601118E+04 -4.677128E+04 -2.924198E+04  5.716900E+04 -8.042053E+03  1.608839E+04
       241  27  2.449384E+04 -3.500151E+04 -2.171721E+04  6.205072E+04 -7.831314E+03  1.203894E+04
       242   1  3.049388E+05  2.921611E+04  1.903866E+04  6.269523E+04 -9.279788E+03 -9.744348E+03
       242   2  2.541376E+05  1.856050E+04  1.301685E+04  5.654535E+04 -1.072435E+04 -5.612717E+03
       242   3  2.039474E+05  9.922686E+03  8.413815E+03  5.973449E+04 -1.216956E+04 -1.323663E+03
       242   4  1.806144E+05  7.822621E+02  1.166248E+03  6.234126E+04 -8.033969E+02 -9.713763E+03
       242   5  1.803395E+05  1.642043E+03  2.150697E+03  5.766517E+04 -1.919347E+03 -5.580770E+03
       242   6  1.806166E+05  4.462920E+03  4.325835E+03  6.232809E+04 -3.036041E+03 -1.290354E+03
       242   7  5.630569E+04 -2.765225E+04 -1.670614E+04  6.198734E+04  7.671370E+03 -9.683183E+03
       242   8  1.065471E+05 -1.527662E+04 -8.715256E+03  5.878486E+04  6.884651E+03 -5.548788E+03
       242   9  1.572866E+05 -9.968054E+02  2.381525E+02  6.492159E+04  6.097144E+03 -1.256968E+03
       242  10  3.049387E+05  2.921598E+04  1.903832E+04  6.269516E+04 -4.421682E-08  9.715628E-09
       242  11  2.541375E+05  1.856044E+04  1.301657E+04  5.654530E+04 -3.603230E-09 -9.622188E-11
       242  12  2.039472E+05  9.922645E+03  8.413534E+03  5.973448E+04  2.580966E-08  5.320541E-10
       242  13  1.806143E+05  7.821606E+02  1.166069E+03  6.234125E+04  2.170426E-09 -6.175387E-09
       242  14  1.803395E+05  1.642009E+03  2.150632E+03  5.766517E+04  3.927673E-10 -1.583342E-08
       242  15  1.806166E+05  4.462916E+03  4.325815E+03  6.232809E+04  1.621783E-09  3.796743E-09
       242  16  5.630560E+04 -2.765236E+04 -1.670642E+04  6.198740E+04  4.543361E-08  7.341860E-09
       242  17  1.065470E+05 -1.527667E+04 -8.715403E+03  5.878489E+04  7.761628E-09  5.455281E-09
       242  18  1.572865E+05 -9.968170E+02  2.380797E+02  6.492160E+04 -2.589052E-08 -1.304832E-09
       242  19  3.049388E+05  2.921611E+04  1.903866E+04  6.269523E+04  9.279788E+03  9.744348E+03
       242  20  2.541376E+05  1.856050E+04  1.301685E+04  5.654535E+04  1.072435E+04  5.612717E+03
       242  21  2.039474E+05  9.922686E+03  8.413815E+03  5.973449E+04  1.216956E+04  1.323663E+03
       242  22  1.806144E+05  7.822621E+02  1.166248E+03  6.234126E+04  8.033969E+02  9.713763E+03
       242  23  1.803395E+05  1.642043E+03  2.150697E+03  5.766517E+04  1.919347E+03  5.580770E+03
       242  24  1.806166E+05  4.462920E+03  4.325835E+03  6.232809E+04  3.036041E+03  1.290354E+03
       242  25  5.630569E+04 -2.765225E+04 -1.670614E+04  6.198734E+04 -7.671370E+03  9.683183E+03
       242  26  1.065471E+05 -1.527662E+04 -8.715256E+03  5.878486E+04 -6.884651E+03  5.548788E+03
       242  27  1.572866E+05 -9.968054E+02  2.381525E+02  6.492159E+04 -6.097144E+03  1.256968E+03
       243   1 -5.434136E+04  3.865267E+05 -4.668576E+04 -1.136608E+05 -5.812685E+03 -2.910723E+04
       243   2 -8.247886E+04  3.036884E+05 -5.277101E+04 -9.984597E+04 -2.218173E+04 -2.249519E+04
       243   3 -1.041996E+05  2.215355E+05 -6.158533E+04 -1.017083E+05 -3.261776E+04 -1.587146E+04
       243   4  1.794125E+04  6.824557E+05  1.925687E+04 -1.022220E+05 -5.895999E+03  1.125587E+04
       243   5  5.734501E+03  6.810331E+05  1.129243E+04 -9.439903E+04 -2.223647E+04  5.472540E+03
       243   6  2.093113E+03  6.824391E+05  9.200038E+03 -1.022513E+05 -3.264571E+04 -2.984169E+02
       243   7  9.021931E+04  9.784701E+05  8.520021E+04 -9.077768E+04 -5.977805E+03  5.163799E+04
       243   8  9.394088E+04  1.058520E+06  7.535420E+04 -8.894859E+04 -2.229071E+04  3.345672E+04
       243   9  1.083757E+05  1.143556E+06  7.998162E+04 -1.027946E+05 -3.267367E+04  1.528574E+04
       243  10 -5.434162E+04  3.865258E+05 -4.668741E+04 -1.136609E+05  1.499928E-09  2.821578E-09
       243  11 -8.247953E+04  3.036877E+05 -5.277289E+04 -9.984637E+04 -2.107124E-09 -3.343837E-08
       243  12 -1.042008E+05  2.215349E+05 -6.158780E+04 -1.017087E+05 -2.682431E-09 -6.661891E-08
       243  13  1.794118E+04  6.824555E+05  1.925657E+04 -1.022220E+05  4.769123E-09  5.019197E-11
       243  14  5.733961E+03  6.810329E+05  1.129144E+04 -9.439893E+04  6.037390E-09 -1.762272E-09
       243  15  2.091968E+03  6.824389E+05  9.198035E+03 -1.022513E+05  1.504572E-08  4.496448E-09
       243  16  9.021856E+04  9.784672E+05  8.519514E+04 -9.077743E+04 -1.121959E-09 -1.839498E-09
       243  17  9.394005E+04  1.058518E+06  7.535116E+04 -8.894799E+04 -3.631477E-10  3.321050E-08
       243  18  1.083745E+05  1.143555E+06  7.997918E+04 -1.027942E+05 -6.475945E-09  6.480636E-08
       243  19 -5.434136E+04  3.865267E+05 -4.668576E+04 -1.136608E+05  5.812685E+03  2.910723E+04
       243  20 -8.247886E+04  3.036884E+05 -5.277101E+04 -9.984597E+04  2.218173E+04  2.249519E+04
       243  21 -1.041996E+05  2.215355E+05 -6.158533E+04 -1.017083E+05  3.261776E+04  1.587146E+04
       243  22  1.794125E+04  6.824557E+05  1.925687E+04 -1.022220E+05  5.895999E+03 -1.125587E+04
       243  23  5.734501E+03  6.810331E+05  1.129243E+04 -9.439903E+04  2.223647E+04 -5.472540E+03
       243  24  2.093113E+03  6.824391E+05  9.200038E+03 -1.022513E+05  3.264571E+04  2.984169E+02
       243  25  9.021931E+04  9.784701E+05  8.520021E+04 -9.077768E+04  5.977805E+03 -5.163799E+04
       243  26  9.394088E+04  1.058520E+06  7.535420E+04 -8.894859E+04  2.229071E+04 -3.345672E+04
       243  27  1.083757E+05  1.143556E+06  7.998162E+04 -1.027946E+05  3.267367E+04 -1.528574E+04
       244   1 -1.162030E+05  1.696617E+05 -6.850703E+04 -1.025317E+05 -3.683247E+04 -1.739738E+04
       244   2 -1.348143E+05  8.665872E+04 -7.798290E+04 -9.271598E+04 -4.283548E+04 -1.743832E+04
       244   3 -1.505874E+05  4.340568E+03 -8.673462E+04 -9.803868E+04 -4.589881E+04 -1.747281E+04
       244   4  1.841884E+03  6.821880E+05  9.447983E+03 -1.021300E+05 -3.685923E+04 -1.794186E+03
       244   5  2.135324E+03  6.812989E+05  1.234182E+04 -9.455707E+04 -4.284858E+04 -7.978729E+03
       244   6  6.331387E+03  6.821522E+05  2.022164E+04 -1.021213E+05 -4.589970E+04 -1.415685E+04
       244   7  1.198743E+05  1.194978E+06  8.739837E+04 -1.017278E+05 -3.688597E+04  1.382138E+04
       244   8  1.390681E+05  1.276293E+06  1.026595E+05 -9.639982E+04 -4.286173E+04  1.489568E+03
       244   9  1.632275E+05  1.360421E+06  1.271665E+05 -1.062084E+05 -4.590063E+04 -1.083739E+04
       244  10 -1.162045E+05  1.696610E+05 -6.851015E+04 -1.025322E+05 -3.879867E-09  1.310568E-07
       244  11 -1.348164E+05  8.665790E+04 -7.798692E+04 -9.271658E+04 -4.407377E-09  3.758666E-08
       244  12 -1.505897E+05  4.339674E+03 -8.673916E+04 -9.803933E+04 -1.127703E-09 -6.272719E-08
       244  13  1.840423E+03  6.821876E+05  9.445423E+03 -1.021301E+05  1.283433E-08 -1.209552E-10
       244  14  2.133335E+03  6.812984E+05  1.233825E+04 -9.455735E+04  4.479567E-09 -1.499849E-09
       244  15  6.329070E+03  6.821514E+05  2.021731E+04 -1.021219E+05 -1.489683E-09  3.992228E-09
       244  16  1.198728E+05  1.194977E+06  8.739546E+04 -1.017274E+05 -5.522856E-09 -1.303090E-07
       244  17  1.390661E+05  1.276293E+06  1.026560E+05 -9.639977E+04 -6.228978E-09 -3.735168E-08
       244  18  1.632252E+05  1.360421E+06  1.271624E+05 -1.062088E+05 -5.913238E-09  6.125020E-08
       244  19 -1.162030E+05  1.696617E+05 -6.850703E+04 -1.025317E+05  3.683247E+04  1.739738E+04
       244  20 -1.348143E+05  8.665872E+04 -7.798290E+04 -9.271598E+04  4.283548E+04  1.743832E+04
       244  21 -1.505874E+05  4.340568E+03 -8.673462E+04 -9.803868E+04  4.589881E+04  1.747281E+04
       244  22  1.841884E+03  6.821880E+05  9.447983E+03 -1.021300E+05  3.685923E+04  1.794186E+03
       244  23  2.135324E+03  6.812989E+05  1.234182E+04 -9.455707E+04  4.284858E+04  7.978729E+03
       244  24  6.331387E+03  6.821522E+05  2.022164E+04 -1.021213E+05  4.589970E+04  1.415685E+04
       244  25  1.198743E+05  1.194978E+06  8.739837E+04 -1.017278E+05  3.688597E+04 -1.382138E+04
       244  26  1.390681E+05  1.276293E+06  1.026595E+05 -9.639982E+04  4.286173E+04 -1.489568E+03
       244  27  1.632275E+05  1.360421E+06  1.271665E+05 -1.062084E+05  4.590063E+04  1.083739E+04
       245   1 -1.619803E+05 -4.613933E+04 -9.169564E+04 -1.010965E+05 -4.753363E+04 -2.100803E+04
       245   2 -1.647963E+05 -1.322325E+05 -1.015807E+05 -6.500544E+04 -3.941647E+04 -4.386974E+03
       245   3 -1.331713E+05 -2.118665E+05 -1.136659E+05 -4.262078E+04 -1.174693E+04  1.225466E+04
       245   4  7.750117E+03  6.847574E+05  2.629999E+04 -1.018117E+05 -4.753404E+04 -1.762225E+04
       245   5  2.708595E+04  6.779615E+05  4.733964E+04 -9.489639E+04 -3.935421E+04 -4.183096E+04
       245   6  8.791952E+04  6.846872E+05  9.451227E+04 -1.016848E+05 -1.163529E+04 -6.601735E+04
       245   7  1.774536E+05  1.416184E+06  1.442811E+05 -1.025276E+05 -4.753446E+04 -1.423261E+04
       245   8  2.189350E+05  1.488797E+06  1.962387E+05 -1.248271E+05 -3.928839E+04 -7.932249E+04
       245   9  3.089700E+05  1.582003E+06  3.026613E+05 -1.608344E+05 -1.150885E+04 -1.444016E+05
       245  10 -1.619829E+05 -4.614041E+04 -9.170072E+04 -1.010974E+05 -3.223716E-09  3.947381E-09
       245  11 -1.647980E+05 -1.322329E+05 -1.015837E+05 -6.500558E+04  1.281309E-09  3.294371E-09
       245  12 -1.331715E+05 -2.118667E+05 -1.136665E+05 -4.262066E+04  3.176837E-10  1.254841E-09
       245  13  7.747607E+03  6.847565E+05  2.629516E+04 -1.018124E+05 -7.022417E-10 -6.285072E-11
       245  14  2.708381E+04  6.779592E+05  4.733345E+04 -9.489772E+04  1.579442E-11 -1.352682E-09
       245  15  8.791821E+04  6.846824E+05  9.450384E+04 -1.016854E+05 -6.072799E-10  3.277990E-09
       245  16  1.774511E+05  1.416183E+06  1.442765E+05 -1.025281E+05 -3.844224E-09 -3.272636E-09
       245  17  2.189316E+05  1.488790E+06  1.962240E+05 -1.248296E+05 -2.303951E-09 -3.313373E-09
       245  18  3.089643E+05  1.581981E+06  3.026220E+05 -1.608357E+05 -3.100954E-11 -2.119902E-09
       245  19 -1.619803E+05 -4.613933E+04 -9.169564E+04 -1.010965E+05  4.753363E+04  2.100803E+04
       245  20 -1.647963E+05 -1.322325E+05 -1.015807E+05 -6.500544E+04  3.941647E+04  4.386974E+03
       245  21 -1.331713E+05 -2.118665E+05 -1.136659E+05 -4.262078E+04  1.174693E+04 -1.225466E+04
       245  22  7.750117E+03  6.847574E+05  2.629999E+04 -1.018117E+05  4.753404E+04  1.762225E+04
       245  23  2.708595E+04  6.779615E+05  4.733964E+04 -9.489639E+04  3.935421E+04  4.183096E+04
       245  24  8.791952E+04  6.846872E+05  9.451227E+04 -1.016848E+05  1.163529E+04  6.601735E+04
       245  25  1.774536E+05  1.416184E+06  1.442811E+05 -1.025276E+05  4.753446E+04  1.423261E+04
       245  26  2.189350E+05  1.488797E+06  1.962387E+05 -1.248271E+05  3.928839E+04  7.932249E+04
       245  27  3.089700E+05  1.582003E+06  3.026613E+05 -1.608344E+05  1.150885E+04  1.444016E+05
       246   1  1.231251E+06  4.049340E+05  1.961639E+05  4.407182E+05  5.986601E+04  6.193934E+03
       246   2  1.155576E+06  4.063871E+05  1.542754E+05  4.202699E+05  3.981660E+04 -4.030088E+04
       246   3  1.069730E+06  4.026027E+05  1.327477E+05  4.156306E+05  1.087194E+04 -6.318848E+04
       246   4  2.258200E+05  5.727505E+04 -5.422120E+04  1.946139E+05 -2.994576E+04 -2.770039E+04
       246   5  2.384373E+05  8.498796E+04 -2.568205E+04  1.789715E+05 -3.764971E+03 -5.676318E+04
       246   6  2.317186E+05  9.829791E+04 -1.338865E+04  1.791414E+05  1.350816E+04 -6.220214E+04
       246   7 -7.785678E+05 -2.903329E+05 -3.046380E+05 -5.113193E+04 -1.195946E+05 -6.154397E+04
       246   8 -6.778100E+05 -2.363454E+05 -2.056643E+05 -6.199870E+04 -4.727645E+04 -7.320155E+04
       246   9 -6.055475E+05 -2.059354E+05 -1.595457E+05 -5.704900E+04  1.614061E+04 -6.121724E+04
       246  10  1.231248E+06  4.049330E+05  1.961571E+05  4.407179E+05 -6.000935E-08 -2.315059E-08
       246  11  1.155574E+06  4.063850E+05  1.542694E+05  4.202712E+05 -7.311968E-09 -4.031613E-09
       246  12  1.069729E+06  4.025984E+05  1.327400E+05  4.156311E+05  6.252495E-08  2.282893E-08
       246  13  2.258189E+05  5.727399E+04 -5.422432E+04  1.946132E+05 -1.980861E-09  4.034258E-09
       246  14  2.384364E+05  8.498450E+04 -2.568813E+04  1.789714E+05 -9.211427E-09 -4.023350E-09
       246  15  2.317174E+05  9.829370E+04 -1.339627E+04  1.791421E+05 -3.255529E-09 -3.606636E-10
       246  16 -7.785842E+05 -2.903408E+05 -3.046721E+05 -5.113786E+04  5.464964E-08  2.428971E-08
       246  17 -6.778138E+05 -2.363518E+05 -2.056786E+05 -6.200149E+04 -5.051314E-09 -6.534147E-09
       246  18 -6.055488E+05 -2.059395E+05 -1.595532E+05 -5.704821E+04 -5.879033E-08 -2.605000E-08
       246  19  1.231251E+06  4.049340E+05  1.961639E+05  4.407182E+05 -5.986601E+04 -6.193934E+03
       246  20  1.155576E+06  4.063871E+05  1.542754E+05  4.202699E+05 -3.981660E+04  4.030088E+04
       246  21  1.069730E+06  4.026027E+05  1.327477E+05  4.156306E+05 -1.087194E+04  6.318848E+04
       246  22  2.258200E+05  5.727505E+04 -5.422120E+04  1.946139E+05  2.994576E+04  2.770039E+04
       246  23  2.384373E+05  8.498796E+04 -2.568205E+04  1.789715E+05  3.764971E+03  5.676318E+04
       246  24  2.317186E+05  9.829791E+04 -1.338865E+04  1.791414E+05 -1.350816E+04  6.220214E+04
       246  25 -7.785678E+05 -2.903329E+05 -3.046380E+05 -5.113193E+04  1.195946E+05  6.154397E+04
       246  26 -6.778100E+05 -2.363454E+05 -2.056643E+05 -6.199870E+04  4.727645E+04  7.320155E+04
       246  27 -6.055475E+05 -2.059354E+05 -1.595457E+05 -5.704900E+04 -1.614061E+04  6.121724E+04
       247   1  1.025874E+06  3.844369E+05  1.253706E+05  4.015922E+05  1.335687E+04 -6.059253E+04
       247   2  9.591556E+05  3.553171E+05  1.129150E+05  3.760732E+05  1.058803E+04 -5.961521E+04
       247   3  8.823557E+05  3.356836E+05  1.018402E+05  3.623652E+05  6.903141E+03 -5.621860E+04
       247   4  2.329715E+05  9.910230E+04 -9.988449E+03  1.798810E+05  1.446566E+04 -6.018246E+04
       247   5  2.386860E+05  9.613218E+04 -5.220874E+03  1.734900E+05  1.643182E+04 -5.741432E+04
       247   6  2.333768E+05  1.017105E+05 -2.824128E+03  1.789092E+05  1.748117E+04 -5.222532E+04
       247   7 -5.592737E+05 -1.861743E+05 -1.453675E+05 -4.156902E+04  1.557297E+04 -5.977296E+04
       247   8 -4.812333E+05 -1.630013E+05 -1.233696E+05 -2.887451E+04  2.226847E+04 -5.521612E+04
       247   9 -4.151507E+05 -1.322183E+05 -1.074968E+05 -4.366919E+03  2.804751E+04 -4.823647E+04
       247  10  1.025873E+06  3.844329E+05  1.253633E+05  4.015929E+05  4.334343E-08  1.761794E-08
       247  11  9.591545E+05  3.553133E+05  1.129081E+05  3.760737E+05 -1.790252E-08  7.091742E-09
       247  12  8.823548E+05  3.356802E+05  1.018342E+05  3.623655E+05 -7.293507E-08 -1.599749E-08
       247  13  2.329703E+05  9.909835E+04 -9.995650E+03  1.798817E+05  3.401166E-10 -3.794404E-09
       247  14  2.386848E+05  9.612857E+04 -5.227577E+03  1.734907E+05 -6.726569E-10 -3.072356E-09
       247  15  2.333757E+05  1.017075E+05 -2.829829E+03  1.789099E+05  2.507873E-09 -7.853768E-09
       247  16 -5.592749E+05 -1.861782E+05 -1.453747E+05 -4.156827E+04 -3.553450E-08 -1.617673E-08
       247  17 -4.812347E+05 -1.630047E+05 -1.233763E+05 -2.887352E+04  1.887408E-08  1.065301E-08
       247  18 -4.151522E+05 -1.322210E+05 -1.075026E+05 -4.365829E+03  7.474004E-08  3.450622E-08
       247  19  1.025874E+06  3.844369E+05  1.253706E+05  4.015922E+05 -1.335687E+04  6.059253E+04
       247  20  9.591556E+05  3.553171E+05  1.129150E+05  3.760732E+05 -1.058803E+04  5.961521E+04
       247  21  8.823557E+05  3.356836E+05  1.018402E+05  3.623652E+05 -6.903141E+03  5.621860E+04
       247  22  2.329715E+05  9.910230E+04 -9.988449E+03  1.798810E+05 -1.446566E+04  6.018246E+04
       247  23  2.386860E+05  9.613218E+04 -5.220874E+03  1.734900E+05 -1.643182E+04  5.741432E+04
       247  24  2.333768E+05  1.017105E+05 -2.824128E+03  1.789092E+05 -1.748117E+04  5.222532E+04
       247  25 -5.592737E+05 -1.861743E+05 -1.453675E+05 -4.156902E+04 -1.557297E+04  5.977296E+04
       247  26 -4.812333E+05 -1.630013E+05 -1.233696E+05 -2.887451E+04 -2.226847E+04  5.521612E+04
       247  27 -4.151507E+05 -1.322183E+05 -1.074968E+05 -4.366919E+03 -2.804751E+04  4.823647E+04
       248   1  8.373150E+05  3.192314E+05  9.471257E+04  3.495632E+05  6.233835E+03 -5.280075E+04
       248   2  7.713148E+05  2.885840E+05  8.393031E+04  3.236763E+05  4.263559E+03 -4.732418E+04
       248   3  6.950741E+05  2.681876E+05  7.308949E+04  3.094179E+05  2.198041E+03 -4.160189E+04
       248   4  2.334954E+05  1.017704E+05 -2.111559E+03  1.789851E+05  1.665105E+04 -4.886669E+04
       248   5  2.386938E+05  9.677677E+04 -1.136963E+03  1.731461E+05  1.516138E+04 -4.320601E+04
       248   6  2.335494E+05  1.019388E+05 -6.031891E+02  1.789346E+05  1.357642E+04 -3.729945E+04
       248   7 -3.699260E+05 -1.156495E+05 -9.894056E+04  8.564725E+03  2.705743E+04 -4.493673E+04
       248   8 -2.936223E+05 -9.500040E+04 -8.620923E+04  2.273737E+04  2.604930E+04 -3.909159E+04
       248   9 -2.277516E+05 -6.428932E+04 -7.430089E+04  4.854102E+04  2.494596E+04 -3.300036E+04
       248  10  8.373142E+05  3.192284E+05  9.470725E+04  3.495635E+05  1.470477E-08  1.862714E-08
       248  11  7.713142E+05  2.885816E+05  8.392607E+04  3.236764E+05  2.063674E-08  1.440097E-08
       248  12  6.950737E+05  2.681857E+05  7.308623E+04  3.094180E+05  1.849591E-08  5.647246E-09
       248  13  2.334944E+05  1.017677E+05 -2.116568E+03  1.789858E+05  8.722578E-09 -1.388573E-08
       248  14  2.386931E+05  9.677470E+04 -1.140903E+03  1.731467E+05  5.554213E-09 -5.840959E-09
       248  15  2.335489E+05  1.019373E+05 -6.061504E+02  1.789350E+05 -1.261740E-09 -2.751266E-09
       248  16 -3.699274E+05 -1.156519E+05 -9.894573E+04  8.565705E+03 -6.800376E-09  2.826364E-09
       248  17 -2.936234E+05 -9.500223E+04 -8.621338E+04  2.273819E+04 -1.362641E-08 -3.797448E-09
       248  18 -2.277525E+05 -6.429066E+04 -7.430411E+04  4.854168E+04 -1.806092E-08 -1.832189E-09
       248  19  8.373150E+05  3.192314E+05  9.471257E+04  3.495632E+05 -6.233835E+03  5.280075E+04
       248  20  7.713148E+05  2.885840E+05  8.393031E+04  3.236763E+05 -4.263559E+03  4.732418E+04
       248  21  6.950741E+05  2.681876E+05  7.308949E+04  3.094179E+05 -2.198041E+03  4.160189E+04
       248  22  2.334954E+05  1.017704E+05 -2.111559E+03  1.789851E+05 -1.665105E+04  4.886669E+04
       248  23  2.386938E+05  9.677677E+04 -1.136963E+03  1.731461E+05 -1.516138E+04  4.320601E+04
       248  24  2.335494E+05  1.019388E+05 -6.031891E+02  1.789346E+05 -1.357642E+04  3.729945E+04
       248  25 -3.699260E+05 -1.156495E+05 -9.894056E+04  8.564725E+03 -2.705743E+04  4.493673E+04
       248  26 -2.936223E+05 -9.500040E+04 -8.620923E+04  2.273737E+04 -2.604930E+04  3.909159E+04
       248  27 -2.277516E+05 -6.428932E+04 -7.430089E+04  4.854102E+04 -2.494596E+04  3.300036E+04
       249   1  6.500181E+05  2.519053E+05  6.572220E+04  2.967026E+05  1.020438E+03 -3.817238E+04
       249   2  5.841225E+05  2.212404E+05  5.477575E+04  2.708061E+05 -1.126667E+03 -3.233683E+04
       249   3  5.079720E+05  2.008449E+05  4.379445E+04  2.565325E+05 -3.283777E+03 -2.647878E+04
       249   4  2.335700E+05  1.019486E+05 -4.368698E+02  1.789409E+05  1.237953E+04 -3.387603E+04
       249   5  2.387153E+05  9.683321E+04 -1.942991E+02  1.731287E+05  1.027607E+04 -2.802236E+04
       249   6  2.335910E+05  1.019778E+05 -2.215506E+01  1.789373E+05  8.162627E+03 -2.214621E+04
       249   7 -1.826913E+05 -4.798948E+04 -6.659859E+04  6.125358E+04  2.373055E+04 -2.958274E+04
       249   8 -1.065613E+05 -2.756041E+04 -5.516546E+04  7.550296E+04  2.167203E+04 -2.371047E+04
       249   9 -4.070558E+04  3.120129E+03 -4.383875E+04  1.013753E+05  1.960354E+04 -1.781572E+04
       249  10  6.500178E+05  2.519038E+05  6.571946E+04  2.967027E+05 -3.880311E-09  6.606378E-09
       249  11  5.841223E+05  2.212393E+05  5.477378E+04  2.708060E+05 -2.091022E-09  1.704440E-08
       249  12  5.079718E+05  2.008441E+05  4.379311E+04  2.565324E+05  5.482148E-09  7.994337E-09
       249  13  2.335695E+05  1.019474E+05 -4.393147E+02  1.789413E+05  2.545623E-09  3.603650E-09
       249  14  2.387150E+05  9.683234E+04 -1.959734E+02  1.731289E+05  6.444612E-10  5.457121E-09
       249  15  2.335908E+05  1.019773E+05 -2.320209E+01  1.789374E+05 -9.012996E-11  5.890712E-09
       249  16 -1.826922E+05 -4.799057E+04 -6.660129E+04  6.125415E+04  1.141243E-09  4.910737E-09
       249  17 -1.065620E+05 -2.756114E+04 -5.516740E+04  7.550337E+04 -4.061015E-10  4.357286E-09
       249  18 -4.070607E+04  3.119685E+03 -4.384007E+04  1.013756E+05 -4.539929E-09 -9.305107E-10
       249  19  6.500181E+05  2.519053E+05  6.572220E+04  2.967026E+05 -1.020438E+03  3.817238E+04
       249  20  5.841225E+05  2.212404E+05  5.477575E+04  2.708061E+05  1.126667E+03  3.233683E+04
       249  21  5.079720E+05  2.008449E+05  4.379445E+04  2.565325E+05  3.283777E+03  2.647878E+04
       249  22  2.335700E+05  1.019486E+05 -4.368698E+02  1.789409E+05 -1.237953E+04  3.387603E+04
       249  23  2.387153E+05  9.683321E+04 -1.942991E+02  1.731287E+05 -1.027607E+04  2.802236E+04
       249  24  2.335910E+05  1.019778E+05 -2.215506E+01  1.789373E+05 -8.162627E+03  2.214621E+04
       249  25 -1.826913E+05 -4.798948E+04 -6.659859E+04  6.125358E+04 -2.373055E+04  2.958274E+04
       249  26 -1.065613E+05 -2.756041E+04 -5.516546E+04  7.550296E+04 -2.167203E+04  2.371047E+04
       249  27 -4.070558E+04  3.120129E+03 -4.383875E+04  1.013753E+05 -1.960354E+04  1.781572E+04
       250   1  4.629456E+05  1.845783E+05  3.636844E+04  2.438280E+05 -4.572765E+03 -2.307305E+04
       250   2  3.970833E+05  1.539189E+05  2.540844E+04  2.179483E+05 -6.878693E+03 -1.726481E+04
       250   3  3.209767E+05  1.335277E+05  1.451938E+04  2.036913E+05 -9.181176E+03 -1.146746E+04
       250   4  2.336031E+05  1.019826E+05  5.405383E+01  1.789393E+05  6.870538E+03 -1.874096E+04
       250   5  2.387290E+05  9.684865E+04  2.320508E+02  1.731293E+05  4.542920E+03 -1.294017E+04
       250   6  2.336108E+05  1.019874E+05  4.980985E+02  1.789406E+05  2.218746E+03 -7.150283E+03
       250   7  4.314699E+03  1.939159E+04 -3.626148E+04  1.140725E+05  1.830950E+04 -1.441052E+04
       250   8  8.040088E+04  3.978084E+04 -2.494452E+04  1.283210E+05  1.596152E+04 -8.616664E+03
       250   9  1.462533E+05  7.044800E+04 -1.352279E+04  1.541933E+05  1.361697E+04 -2.833750E+03
       250  10  4.629454E+05  1.845778E+05  3.636740E+04  2.438279E+05 -1.700867E-09  1.665593E-09
       250  11  3.970832E+05  1.539185E+05  2.540779E+04  2.179482E+05 -4.810305E-09  7.160693E-09
       250  12  3.209766E+05  1.335276E+05  1.451898E+04  2.036912E+05 -5.854884E-09 -4.459932E-09
       250  13  2.336029E+05  1.019822E+05  5.330499E+01  1.789394E+05 -1.491558E-09  2.724866E-09
       250  14  2.387289E+05  9.684847E+04  2.316973E+02  1.731294E+05  6.088365E-09  9.512746E-09
       250  15  2.336107E+05  1.019874E+05  4.979932E+02  1.789406E+05 -2.324255E-09  2.405146E-09
       250  16  4.314283E+03  1.939128E+04 -3.626251E+04  1.140728E+05  1.198674E-09  8.678026E-09
       250  17  8.040059E+04  3.978069E+04 -2.494514E+04  1.283211E+05  1.408771E-09  5.238894E-09
       250  18  1.462530E+05  7.044794E+04 -1.352316E+04  1.541933E+05  2.706302E-09  3.744646E-09
       250  19  4.629456E+05  1.845783E+05  3.636844E+04  2.438280E+05  4.572765E+03  2.307305E+04
       250  20  3.970833E+05  1.539189E+05  2.540844E+04  2.179483E+05  6.878693E+03  1.726481E+04
       250  21  3.209767E+05  1.335277E+05  1.451938E+04  2.036913E+05  9.181176E+03  1.146746E+04
       250  22  2.336031E+05  1.019826E+05  5.405383E+01  1.789393E+05 -6.870538E+03  1.874096E+04
       250  23  2.387290E+05  9.684865E+04  2.320508E+02  1.731293E+05 -4.542920E+03  1.294017E+04
       250  24  2.336108E+05  1.019874E+05  4.980985E+02  1.789406E+05 -2.218746E+03  7.150283E+03
       250  25  4.314699E+03  1.939159E+04 -3.626148E+04  1.140725E+05 -1.830950E+04  1.441052E+04
       250  26  8.040088E+04  3.978084E+04 -2.494452E+04  1.283210E+05 -1.596152E+04  8.616664E+03
       250  27  1.462533E+05  7.044800E+04 -1.352279E+04  1.541933E+05 -1.361697E+04  2.833750E+03
       251   1  2.759706E+05  1.172683E+05  7.193812E+03  1.910137E+05 -1.057182E+04 -8.109198E+03
       251   2  2.101012E+05  8.658995E+04 -3.456008E+03  1.651267E+05 -1.315058E+04 -2.487534E+03
       251   3  1.340591E+05  6.624433E+04 -1.379376E+04  1.508503E+05 -1.568256E+04  3.011237E+03
       251   4  2.336334E+05  1.019841E+05  6.834891E+02  1.789485E+05  8.350300E+02 -3.789232E+03
       251   5  2.387058E+05  9.684934E+04  1.272125E+03  1.731232E+05 -1.984891E+03  1.740957E+03
       251   6  2.336474E+05  1.020942E+05  2.363360E+03  1.789060E+05 -4.758097E+03  7.148263E+03
       251   7  1.912988E+05  8.670039E+04 -5.826167E+03  1.668843E+05  1.224093E+04  5.303723E+02
       251   8  2.673116E+05  1.071089E+05  6.000774E+03  1.811201E+05  9.181342E+03  5.969652E+03
       251   9  3.332478E+05  1.379456E+05  1.852110E+04  2.069664E+05  6.168344E+03  1.128604E+04
       251  10  2.759705E+05  1.172682E+05  7.193478E+03  1.910137E+05 -2.602644E-09 -1.364807E-09
       251  11  2.101010E+05  8.658990E+04 -3.456344E+03  1.651267E+05 -1.493199E-08 -4.848174E-09
       251  12  1.340588E+05  6.624426E+04 -1.379424E+04  1.508503E+05 -8.292161E-09  1.561244E-09
       251  13  2.336334E+05  1.019841E+05  6.834608E+02  1.789485E+05 -4.561192E-09 -6.114495E-09
       251  14  2.387058E+05  9.684933E+04  1.272112E+03  1.731232E+05 -8.248643E-09 -2.465606E-09
       251  15  2.336474E+05  1.020941E+05  2.363222E+03  1.789061E+05  1.046448E-08  5.256684E-09
       251  16  1.912987E+05  8.670035E+04 -5.826449E+03  1.668843E+05 -4.111803E-09  5.631613E-09
       251  17  2.673115E+05  1.071088E+05  6.000549E+03  1.811200E+05 -4.797468E-10 -4.503010E-09
       251  18  3.332477E+05  1.379454E+05  1.852079E+04  2.069663E+05  1.636421E-08  4.861086E-09
       251  19  2.759706E+05  1.172683E+05  7.193812E+03  1.910137E+05  1.057182E+04  8.109198E+03
       251  20  2.101012E+05  8.658995E+04 -3.456008E+03  1.651267E+05  1.315058E+04  2.487534E+03
       251  21  1.340591E+05  6.624433E+04 -1.379376E+04  1.508503E+05  1.568256E+04 -3.011237E+03
       251  22  2.336334E+05  1.019841E+05  6.834891E+02  1.789485E+05 -8.350300E+02  3.789232E+03
       251  23  2.387058E+05  9.684934E+04  1.272125E+03  1.731232E+05  1.984891E+03 -1.740957E+03
       251  24  2.336474E+05  1.020942E+05  2.363360E+03  1.789060E+05  4.758097E+03 -7.148263E+03
       251  25  1.912988E+05  8.670039E+04 -5.826167E+03  1.668843E+05 -1.224093E+04 -5.303723E+02
       251  26  2.673116E+05  1.071089E+05  6.000774E+03  1.811201E+05 -9.181342E+03 -5.969652E+03
       251  27  3.332478E+05  1.379456E+05  1.852110E+04  2.069664E+05 -6.168344E+03 -1.128604E+04
       252   1  8.899300E+04  5.008388E+04 -2.065482E+04  1.383628E+05 -1.744216E+04  6.127874E+03
       252   2  2.362008E+04  1.916506E+04 -3.025925E+04  1.115518E+05 -1.993682E+04  1.093085E+04
       252   3 -5.135459E+04 -2.146749E+02 -3.905474E+04  9.595115E+04 -2.197645E+04  1.453397E+04
       252   4  2.338137E+05  1.020971E+05  3.162552E+03  1.789515E+05 -6.440323E+03  1.029390E+04
       252   5  2.385805E+05  9.749707E+04  5.833686E+03  1.728147E+05 -1.128278E+04  1.420694E+04
       252   6  2.342050E+05  1.049000E+05  1.117432E+04  1.778856E+05 -1.567035E+04  1.692034E+04
       252   7  3.786570E+05  1.541126E+05  2.697995E+04  2.195492E+05  4.564231E+03  1.446094E+04
       252   8  4.535890E+05  1.758336E+05  4.192541E+04  2.340972E+05 -2.625612E+03  1.748424E+04
       252   9  5.198478E+05  2.100221E+05  6.140008E+04  2.598546E+05 -9.361230E+03  1.930790E+04
       252  10  8.899266E+04  5.008376E+04 -2.065546E+04  1.383629E+05 -9.642756E-09  3.899652E-09
       252  11  2.361962E+04  1.916483E+04 -3.026022E+04  1.115520E+05  4.876931E-09  6.848781E-09
       252  12 -5.135517E+04 -2.150315E+02 -3.905604E+04  9.595141E+04  3.584297E-08  2.638995E-08
       252  13  2.338136E+05  1.020970E+05  3.162275E+03  1.789516E+05  7.391632E-09 -5.862567E-09
       252  14  2.385803E+05  9.749682E+04  5.833068E+03  1.728148E+05  7.536547E-09  9.825529E-09
       252  15  2.342047E+05  1.048996E+05  1.117332E+04  1.778858E+05  1.001406E-08 -7.230872E-09
       252  16  3.786569E+05  1.541124E+05  2.697951E+04  2.195491E+05  2.056230E-08  1.005688E-08
       252  17  4.535890E+05  1.758332E+05  4.192482E+04  2.340972E+05 -5.885436E-09 -7.934954E-10
       252  18  5.198476E+05  2.100217E+05  6.139921E+04  2.598548E+05 -2.948169E-08 -2.984500E-09
       252  19  8.899300E+04  5.008388E+04 -2.065482E+04  1.383628E+05  1.744216E+04 -6.127874E+03
       252  20  2.362008E+04  1.916506E+04 -3.025925E+04  1.115518E+05  1.993682E+04 -1.093085E+04
       252  21 -5.135459E+04 -2.146749E+02 -3.905474E+04  9.595115E+04  2.197645E+04 -1.453397E+04
       252  22  2.338137E+05  1.020971E+05  3.162552E+03  1.789515E+05  6.440323E+03 -1.029390E+04
       252  23  2.385805E+05  9.749707E+04  5.833686E+03  1.728147E+05  1.128278E+04 -1.420694E+04
       252  24  2.342050E+05  1.049000E+05  1.117432E+04  1.778856E+05  1.567035E+04 -1.692034E+04
       252  25  3.786570E+05  1.541126E+05  2.697995E+04  2.195492E+05 -4.564231E+03 -1.446094E+04
       252  26  4.535890E+05  1.758336E+05  4.192541E+04  2.340972E+05  2.625612E+03 -1.748424E+04
       252  27  5.198478E+05  2.100221E+05  6.140008E+04  2.598546E+05  9.361230E+03 -1.930790E+04
       253   1 -9.715401E+04 -1.470803E+04 -4.436024E+04  8.560030E+04 -2.533460E+04  1.604600E+04
       253   2 -1.518619E+05 -4.896726E+04 -5.298603E+04  4.182080E+04 -1.647644E+04  1.684286E+04
       253   3 -2.089002E+05 -5.194614E+04 -6.154161E+04  2.540572E+03 -3.193899E+03  5.939277E+03
       253   4  2.360217E+05  1.053333E+05  1.498090E+04  1.782283E+05 -1.827740E+04  1.871625E+04
       253   5  2.381995E+05  1.103741E+05  2.871600E+04  1.672908E+05 -3.229273E+04  1.085494E+04
       253   6  2.425716E+05  1.512182E+05  6.065394E+04  1.608524E+05 -4.188532E+04 -8.702328E+03
       253   7  5.693203E+05  2.253873E+05  7.432014E+04  2.709041E+05 -1.121605E+04  2.138805E+04
       253   8  6.284184E+05  2.697390E+05  1.104108E+05  2.928372E+05 -4.811963E+04  4.861973E+03
       253   9  6.942391E+05  3.544191E+05  1.828350E+05  3.192748E+05 -8.060664E+04 -2.336044E+04
       253  10 -9.715477E+04 -1.470848E+04 -4.436193E+04  8.560063E+04 -2.808601E-08 -2.973452E-09
       253  11 -1.518623E+05 -4.896764E+04 -5.298707E+04  4.182102E+04 -4.268668E-09  7.419339E-09
       253  12 -2.089002E+05 -5.194618E+04 -6.154169E+04  2.540588E+03  2.424689E-08  1.210554E-08
       253  13  2.360213E+05  1.053329E+05  1.497962E+04  1.782286E+05  8.346885E-09 -9.386001E-09
       253  14  2.381983E+05  1.103737E+05  2.871382E+04  1.672911E+05 -4.362363E-09 -5.946280E-09
       253  15  2.425697E+05  1.512176E+05  6.065050E+04  1.608521E+05 -1.488027E-09  1.210805E-09
       253  16  5.693200E+05  2.253867E+05  7.431905E+04  2.709043E+05  3.432517E-08  2.628336E-08
       253  17  6.284159E+05  2.697383E+05  1.104064E+05  2.928374E+05 -8.948394E-10  7.060151E-09
       253  18  6.942319E+05  3.544168E+05  1.828218E+05  3.192733E+05 -2.761387E-08 -1.021094E-08
       253  19 -9.715401E+04 -1.470803E+04 -4.436024E+04  8.560030E+04  2.533460E+04 -1.604600E+04
       253  20 -1.518619E+05 -4.896726E+04 -5.298603E+04  4.182080E+04  1.647644E+04 -1.684286E+04
       253  21 -2.089002E+05 -5.194614E+04 -6.154161E+04  2.540572E+03  3.193899E+03 -5.939277E+03
       253  22  2.360217E+05  1.053333E+05  1.498090E+04  1.782283E+05  1.827740E+04 -1.871625E+04
       253  23  2.381995E+05  1.103741E+05  2.871600E+04  1.672908E+05  3.229273E+04 -1.085494E+04
       253  24  2.425716E+05  1.512182E+05  6.065394E+04  1.608524E+05  4.188532E+04  8.702328E+03
       253  25  5.693203E+05  2.253873E+05  7.432014E+04  2.709041E+05  1.121605E+04 -2.138805E+04
       253  26  6.284184E+05  2.697390E+05  1.104108E+05  2.928372E+05  4.811963E+04 -4.861973E+03
       253  27  6.942391E+05  3.544191E+05  1.828350E+05  3.192748E+05  8.060664E+04  2.336044E+04
       254   1  3.813077E+05  6.877323E+04  6.139583E+04  7.218548E+03 -1.846322E+04 -2.697798E+03
       254   2  3.662255E+05  9.219217E+04  7.294906E+04 -7.249916E+02 -1.313808E+04 -7.766510E+03
       254   3  3.426446E+05  8.385245E+04  7.313777E+04  1.447570E+04 -7.836519E+03 -6.705267E+03
       254   4  1.056272E+04 -2.374433E+04 -3.072718E+04  1.116259E+04 -2.099967E+04 -2.707372E+03
       254   5  1.498022E+04  4.722463E+03 -1.327418E+04 -4.564332E+02 -1.376477E+04 -7.769329E+03
       254   6  1.056205E+04  1.089314E+03 -8.516729E+03  1.106969E+04 -6.553269E+03 -6.699873E+03
       254   7 -3.600575E+05 -1.162721E+05 -1.228604E+05  1.510416E+04 -2.353461E+04 -2.716982E+03
       254   8 -3.361527E+05 -8.275639E+04 -9.950647E+04 -1.881391E+02 -1.439111E+04 -7.772150E+03
       254   9 -3.214202E+05 -8.168199E+04 -9.017934E+04  7.665393E+03 -5.270702E+03 -6.694492E+03
       254  10  3.813073E+05  6.877313E+04  6.139518E+04  7.218508E+03 -3.486041E-09  4.703412E-09
       254  11  3.662253E+05  9.219205E+04  7.294862E+04 -7.250738E+02 -5.603059E-10  1.656540E-08
       254  12  3.426445E+05  8.385239E+04  7.313757E+04  1.447566E+04  2.354733E-09  1.065691E-08
       254  13  1.056224E+04 -2.374446E+04 -3.072802E+04  1.116254E+04 -1.091151E-09 -4.987748E-09
       254  14  1.498000E+04  4.722348E+03 -1.327464E+04 -4.565193E+02 -4.346266E-09 -6.899065E-09
       254  15  1.056199E+04  1.089254E+03 -8.516894E+03  1.106965E+04 -4.234154E-10  2.034202E-09
       254  16 -3.600581E+05 -1.162723E+05 -1.228615E+05  1.510411E+04  4.995109E-09  2.576983E-09
       254  17 -3.361530E+05 -8.275651E+04 -9.950697E+04 -1.882292E+02 -1.546777E-10  1.281665E-08
       254  18 -3.214202E+05 -8.168204E+04 -9.017948E+04  7.665364E+03 -1.643232E-09 -1.937762E-09
       254  19  3.813077E+05  6.877323E+04  6.139583E+04  7.218548E+03  1.846322E+04  2.697798E+03
       254  20  3.662255E+05  9.219217E+04  7.294906E+04 -7.249916E+02  1.313808E+04  7.766510E+03
       254  21  3.426446E+05  8.385245E+04  7.313777E+04  1.447570E+04  7.836519E+03  6.705267E+03
       254  22  1.056272E+04 -2.374433E+04 -3.072718E+04  1.116259E+04  2.099967E+04  2.707372E+03
       254  23  1.498022E+04  4.722463E+03 -1.327418E+04 -4.564332E+02  1.376477E+04  7.769329E+03
       254  24  1.056205E+04  1.089314E+03 -8.516729E+03  1.106969E+04  6.553269E+03  6.699873E+03
       254  25 -3.600575E+05 -1.162721E+05 -1.228604E+05  1.510416E+04  2.353461E+04  2.716982E+03
       254  26 -3.361527E+05 -8.275639E+04 -9.950647E+04 -1.881391E+02  1.439111E+04  7.772150E+03
       254  27 -3.214202E+05 -8.168199E+04 -9.017934E+04  7.665393E+03  5.270702E+03  6.694492E+03
       255   1  2.948476E+05  6.731990E+04  6.253403E+04  1.144100E+04 -5.077233E+03 -5.372544E+03
       255   2  2.762702E+05  6.623624E+04  6.130251E+04  3.293303E+02 -3.513497E+03 -5.360244E+03
       255   3  2.564025E+05  6.109540E+04  5.802529E+04  1.233922E+04 -1.953627E+03 -4.631290E+03
       255   4  1.223948E+04 -3.100219E+03 -7.018231E+03  1.110632E+04 -5.185852E+03 -5.373196E+03
       255   5  1.290435E+04  6.194746E+02 -3.443015E+03 -4.624398E+02 -3.399152E+03 -5.359843E+03
       255   6  1.223898E+04  2.421930E+02 -2.069071E+03  1.109100E+04 -1.616274E+03 -4.629704E+03
       255   7 -2.702960E+05 -7.352628E+04 -7.657638E+04  1.077170E+04 -5.294421E+03 -5.373849E+03
       255   8 -2.503984E+05 -6.500245E+04 -6.819365E+04 -1.253949E+03 -3.284856E+03 -5.359443E+03
       255   9 -2.318703E+05 -6.061544E+04 -6.216783E+04  9.843202E+03 -1.279054E+03 -4.628119E+03
       255  10  2.948476E+05  6.731986E+04  6.253393E+04  1.144098E+04 -3.427590E-09 -2.689412E-09
       255  11  2.762702E+05  6.623621E+04  6.130243E+04  3.293152E+02 -1.015106E-09  2.504330E-09
       255  12  2.564025E+05  6.109537E+04  5.802524E+04  1.233922E+04  2.906534E-09  1.384916E-08
       255  13  1.223945E+04 -3.100257E+03 -7.018335E+03  1.110629E+04  1.047876E-09  1.359055E-08
       255  14  1.290433E+04  6.194407E+02 -3.443090E+03 -4.624545E+02 -2.225337E-09 -2.809206E-08
       255  15  1.223898E+04  2.421693E+02 -2.069117E+03  1.109100E+04  2.980026E-09  1.362346E-08
       255  16 -2.702960E+05 -7.352632E+04 -7.657649E+04  1.077168E+04  2.326285E-09 -1.170918E-08
       255  17 -2.503984E+05 -6.500248E+04 -6.819372E+04 -1.253963E+03  6.885150E-11 -1.828066E-09
       255  18 -2.318703E+05 -6.061547E+04 -6.216787E+04  9.843197E+03 -1.401638E-09  4.935027E-09
       255  19  2.948476E+05  6.731990E+04  6.253403E+04  1.144100E+04  5.077233E+03  5.372544E+03
       255  20  2.762702E+05  6.623624E+04  6.130251E+04  3.293303E+02  3.513497E+03  5.360244E+03
       255  21  2.564025E+05  6.109540E+04  5.802529E+04  1.233922E+04  1.953627E+03  4.631290E+03
       255  22  1.223948E+04 -3.100219E+03 -7.018231E+03  1.110632E+04  5.185852E+03  5.373196E+03
       255  23  1.290435E+04  6.194746E+02 -3.443015E+03 -4.624398E+02  3.399152E+03  5.359843E+03
       255  24  1.223898E+04  2.421930E+02 -2.069071E+03  1.109100E+04  1.616274E+03  4.629704E+03
       255  25 -2.702960E+05 -7.352628E+04 -7.657638E+04  1.077170E+04  5.294421E+03  5.373849E+03
       255  26 -2.503984E+05 -6.500245E+04 -6.819365E+04 -1.253949E+03  3.284856E+03  5.359443E+03
       255  27 -2.318703E+05 -6.061544E+04 -6.216783E+04  9.843202E+03  1.279054E+03  4.628119E+03
       256   1  2.072032E+05  4.819255E+04  4.620614E+04  1.177307E+04 -1.463345E+03 -4.125328E+03
       256   2  1.881946E+05  4.381905E+04  4.233434E+04  2.290464E+02 -1.068986E+03 -3.522954E+03
       256   3  1.688361E+05  3.912181E+04  3.807972E+04  1.178462E+04 -6.754257E+02 -2.837193E+03
       256   4  1.246270E+04 -3.228053E+02 -1.636987E+03  1.109280E+04 -1.288740E+03 -4.124509E+03
       256   5  1.263978E+04  7.402337E+01 -8.355765E+02 -4.584126E+02 -8.684777E+02 -3.521950E+03
       256   6  1.246235E+04  1.426075E+02 -4.349738E+02  1.109038E+04 -4.490012E+02 -2.835992E+03
       256   7 -1.822433E+05 -4.884098E+04 -4.948291E+04  1.041270E+04 -1.114189E+03 -4.123690E+03
       256   8 -1.628870E+05 -4.367330E+04 -4.400776E+04 -1.145714E+03 -6.680255E+02 -3.520946E+03
       256   9 -1.438892E+05 -3.883842E+04 -3.895147E+04  1.039628E+04 -2.226336E+02 -2.834791E+03
       256  10  2.072032E+05  4.819254E+04  4.620611E+04  1.177307E+04  2.333880E-09 -5.187123E-09
       256  11  1.881946E+05  4.381904E+04  4.233432E+04  2.290434E+02  1.027202E-09 -9.097438E-09
       256  12  1.688361E+05  3.912180E+04  3.807970E+04  1.178462E+04  3.761476E-09 -6.905829E-09
       256  13  1.246270E+04 -3.228240E+02 -1.637022E+03  1.109280E+04 -1.076234E-09  8.634224E-12
       256  14  1.263977E+04  7.400985E+01 -8.356012E+02 -4.584151E+02 -3.389039E-09 -6.127570E-09
       256  15  1.246235E+04  1.425988E+02 -4.349893E+02  1.109038E+04  2.680137E-09 -7.442523E-09
       256  16 -1.822433E+05 -4.884100E+04 -4.948294E+04  1.041270E+04 -4.079996E-09 -8.963828E-09
       256  17 -1.628870E+05 -4.367331E+04 -4.400779E+04 -1.145716E+03 -2.990519E-09  6.785212E-09
       256  18 -1.438892E+05 -3.883843E+04 -3.895149E+04  1.039628E+04 -5.094887E-09  1.349664E-08
       256  19  2.072032E+05  4.819255E+04  4.620614E+04  1.177307E+04  1.463345E+03  4.125328E+03
       256  20  1.881946E+05  4.381905E+04  4.233434E+04  2.290464E+02  1.068986E+03  3.522954E+03
       256  21  1.688361E+05  3.912181E+04  3.807972E+04  1.178462E+04  6.754257E+02  2.837193E+03
       256  22  1.246270E+04 -3.228053E+02 -1.636987E+03  1.109280E+04  1.288740E+03  4.124509E+03
       256  23  1.263978E+04  7.402337E+01 -8.355765E+02 -4.584126E+02  8.684777E+02  3.521950E+03
       256  24  1.246235E+04  1.426075E+02 -4.349738E+02  1.109038E+04  4.490012E+02  2.835992E+03
       256  25 -1.822433E+05 -4.884098E+04 -4.948291E+04  1.041270E+04  1.114189E+03  4.123690E+03
       256  26 -1.628870E+05 -4.367330E+04 -4.400776E+04 -1.145714E+03  6.680255E+02  3.520946E+03
       256  27 -1.438892E+05 -3.883842E+04 -3.895147E+04  1.039628E+04  2.226336E+02  2.834791E+03
       257   1  1.194852E+05  2.671067E+04  2.595505E+04  1.153003E+04 -5.934799E+02 -2.428940E+03
       257   2  1.004431E+05  2.188708E+04  2.155570E+04 -7.996680E+01 -5.776204E+02 -1.759243E+03
       257   3  8.114812E+04  1.727442E+04  1.713568E+04  1.138998E+04 -5.619904E+02 -1.080883E+03
       257   4  1.248888E+04  5.917782E+01 -2.998499E+02  1.108707E+04 -3.858486E+02 -2.427808E+03
       257   5  1.261567E+04  3.827338E-01 -4.354407E+01 -4.532634E+02 -3.672953E+02 -1.758069E+03
       257   6  1.248871E+04  1.520657E+02  1.902230E+02  1.108655E+04 -3.489709E+02 -1.079666E+03
       257   7 -9.449703E+04 -2.659316E+04 -2.655559E+04  1.064418E+04 -1.782530E+02 -2.426676E+03
       257   8 -7.520478E+04 -2.188689E+04 -2.164336E+04 -8.265170E+02 -1.569999E+02 -1.756896E+03
       257   9 -5.616643E+04 -1.697064E+04 -1.675558E+04  1.078314E+04 -1.359750E+02 -1.078448E+03
       257  10  1.194852E+05  2.671067E+04  2.595503E+04  1.153003E+04  1.225858E-09 -1.069344E-08
       257  11  1.004431E+05  2.188708E+04  2.155570E+04 -7.996762E+01 -5.890237E-09  2.540314E-10
       257  12  8.114812E+04  1.727442E+04  1.713567E+04  1.138998E+04 -3.035273E-09 -1.684059E-09
       257  13  1.248888E+04  5.917146E+01 -2.998613E+02  1.108707E+04 -2.170192E-09  5.104272E-09
       257  14  1.261567E+04  3.793786E-01 -4.355013E+01 -4.532639E+02  8.556223E-10 -1.514487E-08
       257  15  1.248870E+04  1.520644E+02  1.902205E+02  1.108655E+04  1.454506E-09 -8.365059E-09
       257  16 -9.449703E+04 -2.659317E+04 -2.655560E+04  1.064418E+04 -1.442744E-09  5.481062E-09
       257  17 -7.520478E+04 -2.188690E+04 -2.164337E+04 -8.265172E+02  2.127237E-09  1.963733E-08
       257  18 -5.616643E+04 -1.697064E+04 -1.675558E+04  1.078314E+04  2.873343E-09  9.641924E-10
       257  19  1.194852E+05  2.671067E+04  2.595505E+04  1.153003E+04  5.934799E+02  2.428940E+03
       257  20  1.004431E+05  2.188708E+04  2.155570E+04 -7.996680E+01  5.776204E+02  1.759243E+03
       257  21  8.114812E+04  1.727442E+04  1.713568E+04  1.138998E+04  5.619904E+02  1.080883E+03
       257  22  1.248888E+04  5.917782E+01 -2.998499E+02  1.108707E+04  3.858486E+02  2.427808E+03
       257  23  1.261567E+04  3.827344E-01 -4.354407E+01 -4.532634E+02  3.672953E+02  1.758069E+03
       257  24  1.248871E+04  1.520657E+02  1.902230E+02  1.108655E+04  3.489709E+02  1.079666E+03
       257  25 -9.449703E+04 -2.659316E+04 -2.655559E+04  1.064418E+04  1.782530E+02  2.426676E+03
       257  26 -7.520478E+04 -2.188689E+04 -2.164336E+04 -8.265170E+02  1.569999E+02  1.756896E+03
       257  27 -5.616643E+04 -1.697064E+04 -1.675558E+04  1.078314E+04  1.359750E+02  1.078448E+03
       258   1  3.181981E+04  4.912198E+03  5.004000E+03  1.118930E+04 -6.095656E+02 -6.836678E+02
       258   2  1.274085E+04 -3.051149E+00  6.904523E+02 -4.510102E+02 -9.390284E+02 -7.639976E+00
       258   3 -6.504160E+03 -4.425508E+03 -3.354419E+03  1.098218E+04 -1.268439E+03  6.618867E+02
       258   4  1.250952E+04  1.114880E+02  3.145251E+02  1.108567E+04 -3.970340E+02 -6.824418E+02
       258   5  1.259268E+04 -4.000644E+01  6.538615E+02 -4.516271E+02 -7.285316E+02 -6.426278E+00
       258   6  1.250952E+04  3.015966E+02  1.263231E+03  1.108457E+04 -1.059988E+03  6.630892E+02
       258   7 -6.800436E+03 -4.689250E+03 -4.374976E+03  1.098205E+04 -1.845089E+02 -6.812158E+02
       258   8  1.244451E+04 -7.696171E+01  6.172709E+02 -4.522441E+02 -5.180349E+02 -5.212580E+00
       258   9  3.152353E+04  5.028674E+03  5.880855E+03  1.118696E+04 -8.515292E+02  6.642918E+02
       258  10  3.181981E+04  4.912198E+03  5.003998E+03  1.118930E+04 -1.641395E-09 -2.123578E-10
       258  11  1.274084E+04 -3.051383E+00  6.904506E+02 -4.510102E+02 -1.722110E-09 -1.652159E-09
       258  12 -6.504162E+03 -4.425508E+03 -3.354423E+03  1.098218E+04 -9.370785E-09  9.882379E-10
       258  13  1.250952E+04  1.114875E+02  3.145240E+02  1.108567E+04  1.095097E-09  1.112025E-08
       258  14  1.259268E+04 -4.000658E+01  6.538605E+02 -4.516271E+02  3.640945E-10 -9.474735E-10
       258  15  1.250952E+04  3.015958E+02  1.263228E+03  1.108457E+04  3.759654E-09 -4.805687E-09
       258  16 -6.800436E+03 -4.689250E+03 -4.374977E+03  1.098205E+04  2.019750E-09 -4.884494E-10
       258  17  1.244451E+04 -7.696178E+01  6.172704E+02 -4.522441E+02 -4.711876E-10 -2.210385E-08
       258  18  3.152353E+04  5.028673E+03  5.880853E+03  1.118696E+04  7.918047E-09 -1.516023E-08
       258  19  3.181981E+04  4.912198E+03  5.004000E+03  1.118930E+04  6.095656E+02  6.836678E+02
       258  20  1.274085E+04 -3.051147E+00  6.904523E+02 -4.510102E+02  9.390284E+02  7.639976E+00
       258  21 -6.504160E+03 -4.425508E+03 -3.354419E+03  1.098218E+04  1.268439E+03 -6.618867E+02
       258  22  1.250952E+04  1.114880E+02  3.145251E+02  1.108567E+04  3.970340E+02  6.824418E+02
       258  23  1.259268E+04 -4.000644E+01  6.538615E+02 -4.516271E+02  7.285316E+02  6.426278E+00
       258  24  1.250952E+04  3.015966E+02  1.263231E+03  1.108457E+04  1.059988E+03 -6.630892E+02
       258  25 -6.800436E+03 -4.689250E+03 -4.374976E+03  1.098205E+04  1.845089E+02  6.812158E+02
       258  26  1.244451E+04 -7.696171E+01  6.172709E+02 -4.522441E+02  5.180349E+02  5.212580E+00
       258  27  3.152353E+04  5.028674E+03  5.880855E+03  1.118696E+04  8.515292E+02 -6.642918E+02
       259   1 -5.572441E+04 -1.697344E+04 -1.522661E+04  1.093561E+04 -1.547289E+03  1.065211E+03
       259   2 -7.509154E+04 -2.209605E+04 -1.872337E+04 -8.663714E+02 -2.953056E+03  1.739738E+03
       259   3 -9.405336E+04 -2.511375E+04 -2.084190E+04  1.040282E+04 -4.358264E+03  2.349657E+03
       259   4  1.263590E+04  7.352647E+01  1.645763E+03  1.108732E+04 -1.324385E+03  1.066485E+03
       259   5  1.243167E+04 -2.825107E+02  2.802139E+03 -4.520686E+02 -2.750490E+03  1.740868E+03
       259   6  1.263611E+04  1.469828E+03  5.350800E+03  1.107951E+04 -4.176079E+03  2.350646E+03
       259   7  8.100046E+04  1.712015E+04  1.851778E+04  1.123904E+04 -1.101456E+03  1.067760E+03
       259   8  9.996186E+04  2.153046E+04  2.432708E+04 -3.771699E+01 -2.547895E+03  1.741998E+03
       259   9  1.193359E+05  2.805256E+04  3.154267E+04  1.175631E+04 -3.993863E+03  2.351635E+03
       259  10 -5.572441E+04 -1.697344E+04 -1.522661E+04  1.093561E+04 -1.041136E-08 -3.701638E-09
       259  11 -7.509155E+04 -2.209605E+04 -1.872339E+04 -8.663673E+02 -4.073506E-09 -2.030124E-08
       259  12 -9.405338E+04 -2.511376E+04 -2.084195E+04  1.040283E+04  5.040229E-09 -3.050809E-09
       259  13  1.263590E+04  7.352478E+01  1.645757E+03  1.108732E+04 -3.904043E-12 -3.689980E-09
       259  14  1.243167E+04 -2.825160E+02  2.802119E+03 -4.520647E+02 -2.404194E-09 -1.290521E-09
       259  15  1.263609E+04  1.469817E+03  5.350757E+03  1.107952E+04  1.708796E-09  3.193180E-09
       259  16  8.100046E+04  1.712014E+04  1.851778E+04  1.123904E+04  9.126616E-09  1.173511E-08
       259  17  9.996185E+04  2.153045E+04  2.432706E+04 -3.771341E+01  6.837988E-10 -1.185235E-08
       259  18  1.193359E+05  2.805255E+04  3.154263E+04  1.175631E+04 -3.532547E-09  1.570457E-08
       259  19 -5.572441E+04 -1.697344E+04 -1.522661E+04  1.093561E+04  1.547289E+03 -1.065211E+03
       259  20 -7.509154E+04 -2.209605E+04 -1.872337E+04 -8.663714E+02  2.953056E+03 -1.739738E+03
       259  21 -9.405336E+04 -2.511375E+04 -2.084190E+04  1.040282E+04  4.358264E+03 -2.349657E+03
       259  22  1.263590E+04  7.352647E+01  1.645763E+03  1.108732E+04  1.324385E+03 -1.066485E+03
       259  23  1.243167E+04 -2.825107E+02  2.802139E+03 -4.520686E+02  2.750490E+03 -1.740868E+03
       259  24  1.263611E+04  1.469828E+03  5.350800E+03  1.107951E+04  4.176079E+03 -2.350646E+03
       259  25  8.100046E+04  1.712015E+04  1.851778E+04  1.123904E+04  1.101456E+03 -1.067760E+03
       259  26  9.996186E+04  2.153046E+04  2.432708E+04 -3.771699E+01  2.547895E+03 -1.741998E+03
       259  27  1.193359E+05  2.805256E+04  3.154267E+04  1.175631E+04  3.993863E+03 -2.351635E+03
       260   1 -1.426170E+05 -3.919079E+04 -3.168115E+04  1.147621E+04 -5.571308E+03  2.822441E+03
       260   2 -1.638095E+05 -4.574758E+04 -3.201392E+04 -1.636777E+03 -1.115711E+04  3.505497E+03
       260   3 -1.809513E+05 -3.814419E+04 -2.521465E+04  8.289482E+03 -1.673953E+04  3.634057E+03
       260   4  1.344758E+04 -2.971217E+02  6.756511E+03  1.109602E+04 -5.263159E+03  2.824101E+03
       260   5  1.140822E+04 -2.072719E+03  1.107250E+04 -4.510031E+02 -1.102338E+04  3.506137E+03
       260   6  1.344824E+04  1.033997E+04  2.264016E+04  1.104077E+04 -1.678040E+04  3.633717E+03
       260   7  1.695343E+05  3.859473E+04  4.519238E+04  1.071571E+04 -4.954932E+03  2.825761E+03
       260   8  1.866539E+05  4.159986E+04  5.415666E+04  7.350687E+02 -1.088962E+04  3.506777E+03
       260   9  2.078822E+05  5.882135E+04  7.049219E+04  1.379287E+04 -1.682128E+04  3.633378E+03
       260  10 -1.426170E+05 -3.919081E+04 -3.168122E+04  1.147622E+04  9.048849E-09 -9.867688E-10
       260  11 -1.638097E+05 -4.574763E+04 -3.201418E+04 -1.636745E+03  3.526658E-09  1.028181E-08
       260  12 -1.809516E+05 -3.814428E+04 -2.521521E+04  8.289531E+03 -2.750126E-10 -5.773708E-09
       260  13  1.344755E+04 -2.971377E+02  6.756444E+03  1.109603E+04 -2.140487E-09 -1.357434E-08
       260  14  1.140809E+04 -2.072765E+03  1.107225E+04 -4.509720E+02 -1.592887E-10  7.228857E-09
       260  15  1.344793E+04  1.033988E+04  2.263961E+04  1.104082E+04  3.467865E-09  1.167613E-09
       260  16  1.695343E+05  3.859472E+04  4.519231E+04  1.071572E+04 -1.147836E-08 -2.496275E-09
       260  17  1.866538E+05  4.159982E+04  5.415642E+04  7.350994E+02 -4.329426E-09 -3.134978E-08
       260  18  2.078819E+05  5.882126E+04  7.049163E+04  1.379292E+04  2.347736E-09  2.457382E-09
       260  19 -1.426170E+05 -3.919079E+04 -3.168115E+04  1.147621E+04  5.571308E+03 -2.822441E+03
       260  20 -1.638095E+05 -4.574758E+04 -3.201392E+04 -1.636777E+03  1.115711E+04 -3.505497E+03
       260  21 -1.809513E+05 -3.814419E+04 -2.521465E+04  8.289482E+03  1.673953E+04 -3.634057E+03
       260  22  1.344758E+04 -2.971217E+02  6.756511E+03  1.109602E+04  5.263159E+03 -2.824101E+03
       260  23  1.140822E+04 -2.072719E+03  1.107250E+04 -4.510031E+02  1.102338E+04 -3.506137E+03
       260  24  1.344824E+04  1.033997E+04  2.264016E+04  1.104077E+04  1.678040E+04 -3.633717E+03
       260  25  1.695343E+05  3.859473E+04  4.519238E+04  1.071571E+04  4.954932E+03 -2.825761E+03
       260  26  1.866539E+05  4.159986E+04  5.415666E+04  7.350687E+02  1.088962E+04 -3.506777E+03
       260  27  2.078822E+05  5.882135E+04  7.049219E+04  1.379287E+04  1.682128E+04 -3.633378E+03
       261   1 -2.248860E+05 -6.380052E+04 -3.247380E+04  1.765697E+04 -2.226858E+04  4.721744E+03
       261   2 -2.584397E+05 -8.092068E+04 -2.191096E+04 -5.624986E+03 -4.399677E+04  5.584942E+03
       261   3 -2.631641E+05  6.214944E+03  2.885372E+04 -6.183951E+03 -6.570163E+04  1.702333E+03
       261   4  1.899519E+04 -3.106977E+03  2.750391E+04  1.113031E+04 -2.123118E+04  4.727122E+03
       261   5  4.459649E+03 -1.536413E+04  4.265712E+04 -4.138154E+02 -4.444844E+04  5.582323E+03
       261   6  1.899846E+04  7.686889E+04  9.903377E+04  1.076421E+04 -6.764311E+04  1.691781E+03
       261   7  2.629307E+05  5.758232E+04  8.747726E+04  4.601023E+03 -2.019336E+04  4.732477E+03
       261   8  2.674220E+05  5.018738E+04  1.072201E+05  4.799492E+03 -4.490031E+04  5.579698E+03
       261   9  3.012339E+05  1.475179E+05  1.692080E+05  2.772000E+04 -6.958547E+04  1.681125E+03
       261  10 -2.248866E+05 -6.380067E+04 -3.247477E+04  1.765705E+04  5.781042E-09 -1.062366E-08
       261  11 -2.584418E+05 -8.092123E+04 -2.191466E+04 -5.624788E+03  3.438173E-09 -7.684613E-09
       261  12 -2.631688E+05  6.213781E+03  2.884560E+04 -6.183860E+03  9.619675E-10  1.157390E-08
       261  13  1.899470E+04 -3.107122E+03  2.750302E+04  1.113039E+04 -3.589096E-11  5.538074E-09
       261  14  4.457519E+03 -1.536469E+04  4.265335E+04 -4.136155E+02 -2.788841E-09  9.756224E-10
       261  15  1.899355E+04  7.686766E+04  9.902516E+04  1.076430E+04  3.448120E-09  5.735790E-09
       261  16  2.629302E+05  5.758219E+04  8.747645E+04  4.601100E+03 -9.804360E-09  8.973990E-09
       261  17  2.674198E+05  5.018680E+04  1.072163E+05  4.799694E+03 -7.635908E-09  1.108048E-08
       261  18  3.012287E+05  1.475166E+05  1.691989E+05  2.772009E+04 -9.294692E-10 -9.652869E-10
       261  19 -2.248860E+05 -6.380052E+04 -3.247380E+04  1.765697E+04  2.226858E+04 -4.721744E+03
       261  20 -2.584397E+05 -8.092068E+04 -2.191096E+04 -5.624986E+03  4.399677E+04 -5.584942E+03
       261  21 -2.631641E+05  6.214944E+03  2.885372E+04 -6.183951E+03  6.570163E+04 -1.702333E+03
       261  22  1.899519E+04 -3.106977E+03  2.750391E+04  1.113031E+04  2.123118E+04 -4.727122E+03
       261  23  4.459649E+03 -1.536413E+04  4.265712E+04 -4.138154E+02  4.444844E+04 -5.582323E+03
       261  24  1.899846E+04  7.686889E+04  9.903377E+04  1.076421E+04  6.764311E+04 -1.691781E+03
       261  25  2.629307E+05  5.758232E+04  8.747726E+04  4.601023E+03  2.019336E+04 -4.732477E+03
       261  26  2.674220E+05  5.018738E+04  1.072201E+05  4.799492E+03  4.490031E+04 -5.579698E+03
       261  27  3.012339E+05  1.475179E+05  1.692080E+05  2.772000E+04  6.958547E+04 -1.681125E+03
       262   1 -2.873486E+05 -1.423438E+06 -3.428035E+05  7.266966E+04 -2.174799E+03 -1.648650E+05
       262   2 -4.571340E+04 -1.336070E+06 -1.932439E+05  1.309633E+04 -7.236404E+03 -1.028600E+05
       262   3 -6.666331E+04 -1.321675E+06 -1.496107E+05  1.417503E+04 -5.241884E+03 -4.082764E+04
       262   4 -1.898794E+05 -1.035049E+06 -2.460474E+05  3.184865E+04 -2.172742E+03 -1.623175E+05
       262   5  3.850905E+04 -9.987259E+05 -1.103106E+05  1.848520E+03 -7.235584E+03 -1.024781E+05
       262   6  4.764202E+03 -1.034959E+06 -7.894801E+04  3.250291E+04 -5.238070E+03 -4.261659E+04
       262   7 -9.241535E+04 -6.465189E+05 -1.493018E+05 -8.997863E+03 -2.171023E+03 -1.597684E+05
       262   8  1.227235E+05 -6.612778E+05 -2.738560E+04 -9.405348E+03 -7.234779E+03 -1.020959E+05
       262   9  7.618688E+04 -7.481671E+05 -8.291171E+03  5.083934E+04 -5.234362E+03 -4.440635E+04
       262  10 -2.873559E+05 -1.423467E+06 -3.428547E+05  7.266937E+04  1.592134E-09  6.262707E-09
       262  11 -4.571631E+04 -1.336081E+06 -1.932639E+05  1.309573E+04  1.248533E-09  6.807108E-09
       262  12 -6.666379E+04 -1.321677E+06 -1.496139E+05  1.417486E+04 -9.433281E-10  4.424675E-09
       262  13 -1.898864E+05 -1.035077E+06 -2.460970E+05  3.184836E+04  3.489160E-09 -9.890455E-10
       262  14  3.850617E+04 -9.987372E+05 -1.103304E+05  1.847923E+03  4.777037E-09  1.574898E-08
       262  15  4.763684E+03 -1.034961E+06 -7.895148E+04  3.250273E+04  8.036349E-10 -1.856941E-09
       262  16 -9.242221E+04 -6.465464E+05 -1.493498E+05 -8.998142E+03  1.067967E-09 -2.838285E-09
       262  17  1.227206E+05 -6.612890E+05 -2.740531E+04 -9.405943E+03  6.566963E-09 -5.994811E-09
       262  18  7.618632E+04 -7.481692E+05 -8.294933E+03  5.083915E+04  1.288681E-09 -4.539949E-09
       262  19 -2.873486E+05 -1.423438E+06 -3.428035E+05  7.266966E+04  2.174799E+03  1.648650E+05
       262  20 -4.571340E+04 -1.336070E+06 -1.932439E+05  1.309633E+04  7.236404E+03  1.028600E+05
       262  21 -6.666331E+04 -1.321675E+06 -1.496107E+05  1.417503E+04  5.241884E+03  4.082764E+04
       262  22 -1.898794E+05 -1.035049E+06 -2.460474E+05  3.184865E+04  2.172742E+03  1.623175E+05
       262  23  3.850905E+04 -9.987259E+05 -1.103106E+05  1.848520E+03  7.235584E+03  1.024781E+05
       262  24  4.764202E+03 -1.034959E+06 -7.894801E+04  3.250291E+04  5.238070E+03  4.261659E+04
       262  25 -9.241535E+04 -6.465189E+05 -1.493018E+05 -8.997863E+03  2.171023E+03  1.597684E+05
       262  26  1.227235E+05 -6.612778E+05 -2.738560E+04 -9.405348E+03  7.234779E+03  1.020959E+05
       262  27  7.618688E+04 -7.481671E+05 -8.291171E+03  5.083934E+04  5.234362E+03  4.440635E+04
       263   1 -6.256888E+04 -1.175305E+06 -1.076784E+05  4.044558E+04 -3.064789E+03 -2.909363E+04
       263   2 -1.507732E+04 -1.112742E+06 -7.584987E+04  1.465817E+03 -2.023305E+03 -2.254830E+03
       263   3 -3.358329E+04 -1.069746E+06 -7.792720E+04  2.598332E+04 -6.133880E+02  2.458675E+04
       263   4 -2.457056E+04 -1.023184E+06 -7.022827E+04  3.290211E+04 -3.063633E+03 -2.938685E+04
       263   5  9.704135E+03 -1.013409E+06 -5.139858E+04  1.158648E+03 -2.022258E+03 -2.658080E+03
       263   6 -2.199362E+04 -1.023182E+06 -6.639347E+04  3.291245E+04 -6.118585E+02  2.407121E+04
       263   7  1.342624E+04 -8.710409E+05 -3.277980E+04  2.535679E+04 -3.062469E+03 -2.968014E+04
       263   8  3.448485E+04 -9.140671E+05 -2.694802E+04  8.514353E+02 -2.021210E+03 -3.061395E+03
       263   9 -1.040394E+04 -9.766164E+05 -5.485986E+04  3.984209E+04 -6.103405E+02  2.355563E+04
       263  10 -6.256911E+04 -1.175306E+06 -1.076800E+05  4.044551E+04 -1.715074E-09  9.674426E-09
       263  11 -1.507732E+04 -1.112742E+06 -7.584989E+04  1.465814E+03  5.138907E-10  7.205082E-09
       263  12 -3.358345E+04 -1.069747E+06 -7.792834E+04  2.598333E+04  3.465487E-10  6.724360E-09
       263  13 -2.457080E+04 -1.023184E+06 -7.022991E+04  3.290204E+04 -2.939181E-09 -1.047886E-09
       263  14  9.704129E+03 -1.013409E+06 -5.139860E+04  1.158644E+03 -2.866211E-09  1.197747E-08
       263  15 -2.199378E+04 -1.023183E+06 -6.639456E+04  3.291246E+04 -2.958397E-09 -2.694637E-09
       263  16  1.342599E+04 -8.710418E+05 -3.278147E+04  2.535672E+04 -2.753383E-09 -4.350854E-09
       263  17  3.448484E+04 -9.140671E+05 -2.694804E+04  8.514303E+02 -1.905921E-09 -5.702510E-09
       263  18 -1.040409E+04 -9.766170E+05 -5.486091E+04  3.984211E+04 -1.125268E-09 -4.584799E-09
       263  19 -6.256888E+04 -1.175305E+06 -1.076784E+05  4.044558E+04  3.064789E+03  2.909363E+04
       263  20 -1.507732E+04 -1.112742E+06 -7.584987E+04  1.465817E+03  2.023305E+03  2.254830E+03
       263  21 -3.358329E+04 -1.069746E+06 -7.792720E+04  2.598332E+04  6.133880E+02 -2.458675E+04
       263  22 -2.457056E+04 -1.023184E+06 -7.022827E+04  3.290211E+04  3.063633E+03  2.938685E+04
       263  23  9.704135E+03 -1.013409E+06 -5.139858E+04  1.158648E+03  2.022258E+03  2.658080E+03
       263  24 -2.199362E+04 -1.023182E+06 -6.639347E+04  3.291245E+04  6.118585E+02 -2.407121E+04
       263  25  1.342624E+04 -8.710409E+05 -3.277980E+04  2.535679E+04  3.062469E+03  2.968014E+04
       263  26  3.448485E+04 -9.140671E+05 -2.694802E+04  8.514353E+02  2.021210E+03  3.061395E+03
       263  27 -1.040394E+04 -9.766164E+05 -5.485986E+04  3.984209E+04  6.103405E+02 -2.355563E+04
       264   1  2.607932E+04 -9.433816E+05 -5.134116E+04  4.997657E+04  1.194153E+03  3.774928E+04
       264   2  7.054427E+04 -8.579626E+05 -6.563745E+04 -8.451583E+03  3.070383E+03  9.109984E+04
       264   3 -1.224729E+05 -8.384049E+05 -1.739622E+05 -4.009933E+03  9.279222E+02  1.444448E+05
       264   4  3.679141E+03 -1.033509E+06 -7.361627E+04  3.294130E+04  1.196178E+03  3.649217E+04
       264   5  3.494597E+04 -1.000500E+06 -1.006502E+05  1.267805E+03  3.071863E+03  9.108267E+04
       264   6 -1.715179E+05 -1.033591E+06 -2.225931E+05  3.246554E+04  9.330505E+02  1.456630E+05
       264   7 -1.872054E+04 -1.123629E+06 -9.589181E+04  1.590851E+04  1.198272E+03  3.523523E+04
       264   8 -6.534932E+02 -1.143018E+06 -1.356644E+05  1.098497E+04  3.073344E+03  9.106550E+04
       264   9 -2.205608E+05 -1.228739E+06 -2.712261E+05  6.892954E+04  9.383240E+02  1.468808E+05
       264  10  2.607893E+04 -9.433831E+05 -5.134385E+04  4.997653E+04  1.090887E-10  6.838896E-09
       264  11  7.054203E+04 -8.579716E+05 -6.565309E+04 -8.451808E+03  2.743093E-09  6.963675E-09
       264  12 -1.224785E+05 -8.384274E+05 -1.740015E+05 -4.010041E+03  9.272823E-11  2.591538E-09
       264  13  3.678781E+03 -1.033511E+06 -7.361878E+04  3.294126E+04 -1.355137E-09  2.262363E-09
       264  14  3.494373E+04 -1.000509E+06 -1.006659E+05  1.267579E+03  4.204746E-10  1.635930E-08
       264  15 -1.715236E+05 -1.033614E+06 -2.226330E+05  3.246543E+04  1.615555E-09 -1.844659E-09
       264  16 -1.872088E+04 -1.123630E+06 -9.589415E+04  1.590847E+04 -2.571805E-09 -1.890230E-09
       264  17 -6.557349E+02 -1.143027E+06 -1.356801E+05  1.098474E+04  7.084229E-10 -8.097165E-09
       264  18 -2.205667E+05 -1.228763E+06 -2.712667E+05  6.892943E+04  6.377527E-10 -1.440576E-09
       264  19  2.607932E+04 -9.433816E+05 -5.134116E+04  4.997657E+04 -1.194153E+03 -3.774928E+04
       264  20  7.054427E+04 -8.579626E+05 -6.563745E+04 -8.451583E+03 -3.070383E+03 -9.109984E+04
       264  21 -1.224729E+05 -8.384049E+05 -1.739622E+05 -4.009933E+03 -9.279222E+02 -1.444448E+05
       264  22  3.679141E+03 -1.033509E+06 -7.361627E+04  3.294130E+04 -1.196178E+03 -3.649217E+04
       264  23  3.494597E+04 -1.000500E+06 -1.006502E+05  1.267805E+03 -3.071863E+03 -9.108267E+04
       264  24 -1.715179E+05 -1.033591E+06 -2.225931E+05  3.246554E+04 -9.330505E+02 -1.456630E+05
       264  25 -1.872054E+04 -1.123629E+06 -9.589181E+04  1.590851E+04 -1.198272E+03 -3.523523E+04
       264  26 -6.534932E+02 -1.143018E+06 -1.356644E+05  1.098497E+04 -3.073344E+03 -9.106550E+04
       264  27 -2.205608E+05 -1.228739E+06 -2.712261E+05  6.892954E+04 -9.383240E+02 -1.468808E+05
       265   1  1.430105E+06  4.706127E+05  3.158173E+05  4.904285E+05  1.471703E+05  5.309542E+04
       265   2  1.378623E+06  2.444722E+05  1.749525E+05  5.136336E+05  9.576069E+04  2.846863E+04
       265   3  1.397824E+06  2.593604E+05  1.342890E+05  5.018143E+05  4.220723E+04  9.497000E+03
       265   4  1.130069E+06  3.250391E+05  2.273145E+05  3.756996E+05  1.449799E+05  5.225537E+04
       265   5  1.083331E+06  1.240967E+05  9.336461E+04  4.237936E+05  9.524837E+04  2.827232E+04
       265   6  1.106985E+06  1.639134E+05  5.832511E+04  4.368527E+05  4.337177E+04  9.940514E+03
       265   7  8.301236E+05  1.794900E+05  1.388033E+05  2.610270E+05  1.427907E+05  5.141603E+04
       265   8  7.881243E+05  3.730367E+03  1.176872E+04  3.339936E+05  9.473631E+04  2.807612E+04
       265   9  8.162268E+05  6.846652E+04 -1.764586E+04  3.719159E+05  4.453571E+04  1.038387E+04
       265  10  1.430081E+06  4.706038E+05  3.157714E+05  4.904222E+05 -5.023921E-10  1.102881E-08
       265  11  1.378613E+06  2.444689E+05  1.749338E+05  5.136314E+05 -3.545417E-09  1.179913E-08
       265  12  1.397822E+06  2.593598E+05  1.342855E+05  5.018140E+05  2.095421E-10 -2.614851E-09
       265  13  1.130046E+06  3.250306E+05  2.272699E+05  3.756935E+05 -1.527580E-09 -8.619336E-09
       265  14  1.083321E+06  1.240934E+05  9.334610E+04  4.237915E+05 -9.181159E-09 -1.435097E-08
       265  15  1.106983E+06  1.639128E+05  5.832139E+04  4.368523E+05  7.804080E-10 -6.773717E-09
       265  16  8.301011E+05  1.794817E+05  1.387601E+05  2.610211E+05  2.955815E-09  5.518183E-09
       265  17  7.881144E+05  3.727117E+03  1.175040E+04  3.339914E+05 -3.157204E-09 -1.121350E-09
       265  18  8.162246E+05  6.846587E+04 -1.764979E+04  3.719155E+05 -4.260927E-09  4.902497E-09
       265  19  1.430105E+06  4.706127E+05  3.158173E+05  4.904285E+05 -1.471703E+05 -5.309542E+04
       265  20  1.378623E+06  2.444722E+05  1.749525E+05  5.136336E+05 -9.576069E+04 -2.846863E+04
       265  21  1.397824E+06  2.593604E+05  1.342890E+05  5.018143E+05 -4.220723E+04 -9.497000E+03
       265  22  1.130069E+06  3.250391E+05  2.273145E+05  3.756996E+05 -1.449799E+05 -5.225537E+04
       265  23  1.083331E+06  1.240967E+05  9.336461E+04  4.237936E+05 -9.524837E+04 -2.827232E+04
       265  24  1.106985E+06  1.639134E+05  5.832511E+04  4.368527E+05 -4.337177E+04 -9.940514E+03
       265  25  8.301236E+05  1.794900E+05  1.388033E+05  2.610270E+05 -1.427907E+05 -5.141603E+04
       265  26  7.881243E+05  3.730367E+03  1.176872E+04  3.339936E+05 -9.473631E+04 -2.807612E+04
       265  27  8.162268E+05  6.846652E+04 -1.764586E+04  3.719159E+05 -4.453571E+04 -1.038387E+04
       266   1  1.320665E+06  2.768397E+05  1.085617E+05  4.864535E+05  3.425965E+04  7.992270E+03
       266   2  1.304960E+06  2.328262E+05  7.760404E+04  4.769586E+05  2.239810E+04  3.600723E+03
       266   3  1.284807E+06  2.364839E+05  6.372017E+04  4.795421E+05  1.029532E+04 -1.561642E+02
       266   4  1.100130E+06  1.890032E+05  4.788233E+04  4.215021E+05  3.418861E+04  7.964863E+03
       266   5  1.100800E+06  1.542681E+05  2.202717E+04  4.196170E+05  2.251680E+04  3.645725E+03
       266   6  1.096990E+06  1.671731E+05  1.310026E+04  4.298095E+05  1.060339E+04 -3.892235E+01
       266   7  8.796409E+05  1.011709E+05 -1.280153E+04  3.565718E+05  3.411758E+04  7.937467E+03
       266   8  8.966808E+05  7.571293E+04 -3.355342E+04  3.622925E+05  2.263545E+04  3.690710E+03
       266   9  9.092059E+05  9.786407E+04 -3.752268E+04  3.800904E+05  1.091137E+04  7.828262E+01
       266  10  1.320664E+06  2.768393E+05  1.085594E+05  4.864533E+05  9.992288E-10 -1.307514E-09
       266  11  1.304959E+06  2.328261E+05  7.760308E+04  4.769586E+05  4.022185E-09  2.065855E-08
       266  12  1.284807E+06  2.364839E+05  6.371997E+04  4.795421E+05  3.957163E-09  2.257062E-08
       266  13  1.100128E+06  1.890028E+05  4.788002E+04  4.215018E+05 -1.320487E-09  2.477102E-10
       266  14  1.100800E+06  1.542680E+05  2.202619E+04  4.196170E+05 -3.199086E-10 -1.770512E-08
       266  15  1.096989E+06  1.671731E+05  1.310005E+04  4.298096E+05 -3.574155E-09  2.031384E-08
       266  16  8.796396E+05  1.011705E+05 -1.280384E+04  3.565716E+05 -1.015038E-09 -6.368187E-09
       266  17  8.966802E+05  7.571278E+04 -3.355440E+04  3.622925E+05 -3.307594E-09 -3.960395E-10
       266  18  9.092057E+05  9.786404E+04 -3.752290E+04  3.800904E+05 -4.032821E-09  6.246808E-09
       266  19  1.320665E+06  2.768397E+05  1.085617E+05  4.864535E+05 -3.425965E+04 -7.992270E+03
       266  20  1.304960E+06  2.328262E+05  7.760404E+04  4.769586E+05 -2.239810E+04 -3.600723E+03
       266  21  1.284807E+06  2.364839E+05  6.372017E+04  4.795421E+05 -1.029532E+04  1.561642E+02
       266  22  1.100130E+06  1.890032E+05  4.788233E+04  4.215021E+05 -3.418861E+04 -7.964863E+03
       266  23  1.100800E+06  1.542681E+05  2.202717E+04  4.196170E+05 -2.251680E+04 -3.645725E+03
       266  24  1.096990E+06  1.671731E+05  1.310026E+04  4.298095E+05 -1.060339E+04  3.892235E+01
       266  25  8.796409E+05  1.011709E+05 -1.280153E+04  3.565718E+05 -3.411758E+04 -7.937467E+03
       266  26  8.966808E+05  7.571293E+04 -3.355342E+04  3.622925E+05 -2.263545E+04 -3.690710E+03
       266  27  9.092059E+05  9.786407E+04 -3.752268E+04  3.800904E+05 -1.091137E+04 -7.828262E+01
       267   1  1.232104E+06  2.223650E+05  4.731191E+04  4.653939E+05  8.313893E+03 -3.385978E+02
       267   2  1.222359E+06  2.042828E+05  3.761193E+04  4.525968E+05  5.402113E+03 -7.675348E+02
       267   3  1.198708E+06  2.061614E+05  3.103852E+04  4.566102E+05  2.472443E+03 -1.150177E+03
       267   4  1.096229E+06  1.702201E+05  1.039150E+04  4.273631E+05  8.479755E+03 -2.754924E+02
       267   5  1.102972E+06  1.587823E+05  5.188498E+03  4.195138E+05  5.582112E+03 -6.989969E+02
       267   6  1.095808E+06  1.673034E+05  3.101510E+03  4.284751E+05  2.666501E+03 -1.076235E+03
       267   7  9.603705E+05  1.180763E+05 -2.653063E+04  3.893398E+05  8.645578E+03 -2.124024E+02
       267   8  9.835989E+05  1.132827E+05 -2.723625E+04  3.864365E+05  5.762073E+03 -6.304735E+02
       267   9  9.929182E+05  1.284460E+05 -2.483645E+04  4.003442E+05  2.860523E+03 -1.002305E+03
       267  10  1.232104E+06  2.223650E+05  4.731178E+04  4.653939E+05  5.807049E-09  3.339137E-09
       267  11  1.222359E+06  2.042828E+05  3.761188E+04  4.525968E+05 -1.082087E-09 -1.124638E-08
       267  12  1.198708E+06  2.061614E+05  3.103850E+04  4.566102E+05 -2.248441E-09 -1.417700E-08
       267  13  1.096229E+06  1.702201E+05  1.039137E+04  4.273631E+05 -4.804837E-11  5.269082E-09
       267  14  1.102972E+06  1.587823E+05  5.188439E+03  4.195138E+05  3.496047E-09 -5.662189E-09
       267  15  1.095808E+06  1.673034E+05  3.101494E+03  4.284751E+05  9.616480E-10  6.099366E-11
       267  16  9.603704E+05  1.180763E+05 -2.653077E+04  3.893398E+05 -9.048641E-09  2.479088E-09
       267  17  9.835988E+05  1.132827E+05 -2.723631E+04  3.864365E+05  8.131727E-09 -1.520784E-09
       267  18  9.929182E+05  1.284460E+05 -2.483647E+04  4.003442E+05  6.042473E-09  4.446000E-10
       267  19  1.232104E+06  2.223650E+05  4.731191E+04  4.653939E+05 -8.313893E+03  3.385978E+02
       267  20  1.222359E+06  2.042828E+05  3.761193E+04  4.525968E+05 -5.402113E+03  7.675348E+02
       267  21  1.198708E+06  2.061614E+05  3.103852E+04  4.566102E+05 -2.472443E+03  1.150177E+03
       267  22  1.096229E+06  1.702201E+05  1.039150E+04  4.273631E+05 -8.479755E+03  2.754924E+02
       267  23  1.102972E+06  1.587823E+05  5.188498E+03  4.195138E+05 -5.582112E+03  6.989969E+02
       267  24  1.095808E+06  1.673034E+05  3.101510E+03  4.284751E+05 -2.666501E+03  1.076235E+03
       267  25  9.603705E+05  1.180763E+05 -2.653063E+04  3.893398E+05 -8.645578E+03  2.124024E+02
       267  26  9.835989E+05  1.132827E+05 -2.723625E+04  3.864365E+05 -5.762073E+03  6.304735E+02
       267  27  9.929182E+05  1.284460E+05 -2.483645E+04  4.003442E+05 -2.860523E+03  1.002305E+03
       268   1  1.152198E+06  1.890553E+05  1.774409E+04  4.436467E+05  1.880308E+03 -9.459318E+02
       268   2  1.143665E+06  1.749854E+05  1.256284E+04  4.309131E+05  8.580584E+02 -6.293076E+02
       268   3  1.120455E+06  1.765969E+05  8.143974E+03  4.348862E+05 -1.627229E+02 -3.167124E+02
       268   4  1.095814E+06  1.675539E+05  2.487784E+03  4.279955E+05  2.061250E+03 -8.769652E+02
       268   5  1.103129E+06  1.595568E+05  1.557089E+03  4.197017E+05  1.037890E+03 -5.607506E+02
       268   6  1.095769E+06  1.672416E+05  1.389745E+03  4.281147E+05  1.597372E+01 -2.485727E+02
       268   7  1.039432E+06  1.460526E+05 -1.276878E+04  4.123456E+05  2.242173E+03 -8.080057E+02
       268   8  1.062595E+06  1.441283E+05 -9.448810E+03  4.084910E+05  1.217708E+03 -4.921986E+02
       268   9  1.071083E+06  1.578862E+05 -5.364551E+03  4.213434E+05  1.946628E+02 -1.804359E+02
       268  10  1.152198E+06  1.890553E+05  1.774408E+04  4.436467E+05  3.089058E-09 -9.174377E-09
       268  11  1.143665E+06  1.749854E+05  1.256284E+04  4.309131E+05 -1.277902E-09 -9.842487E-10
       268  12  1.120455E+06  1.765969E+05  8.143974E+03  4.348862E+05 -4.553221E-09 -1.277123E-09
       268  13  1.095814E+06  1.675538E+05  2.487774E+03  4.279955E+05  7.819967E-11 -2.005503E-09
       268  14  1.103129E+06  1.595568E+05  1.557086E+03  4.197017E+05 -1.381178E-09 -1.011991E-08
       268  15  1.095769E+06  1.672416E+05  1.389745E+03  4.281147E+05 -4.485965E-09 -7.120277E-09
       268  16  1.039432E+06  1.460526E+05 -1.276879E+04  4.123456E+05  1.851102E-09 -2.106695E-11
       268  17  1.062595E+06  1.441283E+05 -9.448813E+03  4.084910E+05  2.867423E-09 -2.614552E-09
       268  18  1.071083E+06  1.578862E+05 -5.364551E+03  4.213434E+05  2.822851E-09  1.539346E-08
       268  19  1.152198E+06  1.890553E+05  1.774409E+04  4.436467E+05 -1.880308E+03  9.459318E+02
       268  20  1.143665E+06  1.749854E+05  1.256284E+04  4.309131E+05 -8.580584E+02  6.293076E+02
       268  21  1.120455E+06  1.765969E+05  8.143974E+03  4.348862E+05  1.627229E+02  3.167124E+02
       268  22  1.095814E+06  1.675539E+05  2.487784E+03  4.279955E+05 -2.061250E+03  8.769652E+02
       268  23  1.103129E+06  1.595568E+05  1.557089E+03  4.197017E+05 -1.037890E+03  5.607506E+02
       268  24  1.095769E+06  1.672416E+05  1.389745E+03  4.281147E+05 -1.597372E+01  2.485727E+02
       268  25  1.039432E+06  1.460526E+05 -1.276878E+04  4.123456E+05 -2.242173E+03  8.080057E+02
       268  26  1.062595E+06  1.441283E+05 -9.448810E+03  4.084910E+05 -1.217708E+03  4.921986E+02
       268  27  1.071083E+06  1.578862E+05 -5.364551E+03  4.213434E+05 -1.946628E+02  1.804359E+02
       269   1  1.075427E+06  1.595164E+05 -4.118331E+03  4.225651E+05 -5.342406E+02 -5.152187E+01
       269   2  1.066929E+06  1.457613E+05 -7.865269E+03  4.097072E+05 -1.759490E+03  1.827236E+02
       269   3  1.043892E+06  1.478725E+05 -1.063952E+04  4.134778E+05 -2.985719E+03  4.199084E+02
       269   4  1.095788E+06  1.672103E+05  1.458891E+03  4.281248E+05 -3.555054E+02  1.663342E+01
       269   5  1.103095E+06  1.595310E+05  1.955359E+03  4.197138E+05 -1.579961E+03  2.511676E+02
       269   6  1.095862E+06  1.677177E+05  3.423825E+03  4.279311E+05 -2.805425E+03  4.886315E+02
       269   7  1.116151E+06  1.749043E+05  7.036075E+03  4.336846E+05 -1.767638E+02  8.479112E+01
       269   8  1.139262E+06  1.733008E+05  1.177586E+04  4.297208E+05 -1.400422E+03  3.196161E+02
       269   9  1.147834E+06  1.875631E+05  1.748690E+04  4.423854E+05 -2.625113E+03  5.573607E+02
       269  10  1.075427E+06  1.595164E+05 -4.118332E+03  4.225651E+05  7.949080E-09  1.161331E-08
       269  11  1.066929E+06  1.457613E+05 -7.865275E+03  4.097072E+05  9.732433E-09  1.272387E-08
       269  12  1.043892E+06  1.478725E+05 -1.063954E+04  4.134778E+05  3.861215E-10 -4.814296E-09
       269  13  1.095788E+06  1.672103E+05  1.458891E+03  4.281248E+05 -3.153153E-10  1.397665E-08
       269  14  1.103095E+06  1.595310E+05  1.955354E+03  4.197138E+05  6.732205E-09  2.544588E-08
       269  15  1.095862E+06  1.677177E+05  3.423810E+03  4.279311E+05  4.451997E-09  2.496264E-10
       269  16  1.116151E+06  1.749043E+05  7.036075E+03  4.336846E+05 -9.123431E-09 -3.853895E-09
       269  17  1.139262E+06  1.733008E+05  1.177586E+04  4.297208E+05 -2.827229E-10 -2.411199E-08
       269  18  1.147834E+06  1.875631E+05  1.748689E+04  4.423854E+05  6.719450E-09 -1.420613E-08
       269  19  1.075427E+06  1.595164E+05 -4.118331E+03  4.225651E+05  5.342406E+02  5.152187E+01
       269  20  1.066929E+06  1.457613E+05 -7.865269E+03  4.097072E+05  1.759490E+03 -1.827236E+02
       269  21  1.043892E+06  1.478725E+05 -1.063952E+04  4.134778E+05  2.985719E+03 -4.199084E+02
       269  22  1.095788E+06  1.672103E+05  1.458891E+03  4.281248E+05  3.555054E+02 -1.663342E+01
       269  23  1.103095E+06  1.595310E+05  1.955359E+03  4.197138E+05  1.579961E+03 -2.511676E+02
       269  24  1.095862E+06  1.677177E+05  3.423825E+03  4.279311E+05  2.805425E+03 -4.886315E+02
       269  25  1.116151E+06  1.749043E+05  7.036075E+03  4.336846E+05  1.767638E+02 -8.479112E+01
       269  26  1.139262E+06  1.733008E+05  1.177586E+04  4.297208E+05  1.400422E+03 -3.196161E+02
       269  27  1.147834E+06  1.875631E+05  1.748690E+04  4.423854E+05  2.625113E+03 -5.573607E+02
       270   1  9.974787E+05  1.302087E+05 -2.236638E+04  4.017462E+05 -3.783768E+03  5.444414E+02
       270   2  9.880015E+05  1.147299E+05 -2.376876E+04  3.877239E+05 -7.829095E+03 -2.653900E+02
       270   3  9.655151E+05  1.209373E+05 -2.072341E+04  3.899973E+05 -1.185637E+04 -1.121744E+03
       270   4  1.095946E+06  1.672555E+05  4.345373E+03  4.285253E+05 -3.590343E+03  6.181492E+02
       270   5  1.102753E+06  1.585201E+05  7.410708E+03  4.195735E+05 -7.649989E+03 -1.971864E+02
       270   6  1.096553E+06  1.714729E+05  1.493455E+04  4.269172E+05 -1.169170E+04 -1.059089E+03
       270   7  1.194422E+06  2.043029E+05  3.105631E+04  4.553084E+05 -3.396884E+03  6.918697E+02
       270   8  1.217517E+06  2.023112E+05  3.858902E+04  4.514284E+05 -7.470846E+03 -1.289688E+02
       270   9  1.227608E+06  2.220098E+05  5.059096E+04  4.638441E+05 -1.152698E+04 -9.964186E+02
       270  10  9.974787E+05  1.302087E+05 -2.236641E+04  4.017462E+05 -3.517638E-09 -5.148644E-09
       270  11  9.880014E+05  1.147299E+05 -2.376888E+04  3.877239E+05 -3.898357E-09  4.032854E-09
       270  12  9.655149E+05  1.209373E+05 -2.072368E+04  3.899972E+05 -9.307073E-10 -8.552567E-09
       270  13  1.095946E+06  1.672555E+05  4.345348E+03  4.285253E+05 -3.588898E-10  9.793992E-10
       270  14  1.102753E+06  1.585201E+05  7.410598E+03  4.195735E+05 -2.510024E-09  1.042388E-08
       270  15  1.096553E+06  1.714729E+05  1.493429E+04  4.269172E+05 -2.935722E-09 -2.789474E-09
       270  16  1.194422E+06  2.043029E+05  3.105629E+04  4.553084E+05  1.719008E-09 -4.273293E-09
       270  17  1.217517E+06  2.023112E+05  3.858892E+04  4.514284E+05 -3.033574E-09  1.116682E-08
       270  18  1.227608E+06  2.220097E+05  5.059071E+04  4.638441E+05 -4.924385E-09 -2.047928E-09
       270  19  9.974787E+05  1.302087E+05 -2.236638E+04  4.017462E+05  3.783768E+03 -5.444414E+02
       270  20  9.880015E+05  1.147299E+05 -2.376876E+04  3.877239E+05  7.829095E+03  2.653900E+02
       270  21  9.655151E+05  1.209373E+05 -2.072341E+04  3.899973E+05  1.185637E+04  1.121744E+03
       270  22  1.095946E+06  1.672555E+05  4.345373E+03  4.285253E+05  3.590343E+03 -6.181492E+02
       270  23  1.102753E+06  1.585201E+05  7.410708E+03  4.195735E+05  7.649989E+03  1.971864E+02
       270  24  1.096553E+06  1.714729E+05  1.493455E+04  4.269172E+05  1.169170E+04  1.059089E+03
       270  25  1.194422E+06  2.043029E+05  3.105631E+04  4.553084E+05  3.396884E+03 -6.918697E+02
       270  26  1.217517E+06  2.023112E+05  3.858902E+04  4.514284E+05  7.470846E+03  1.289688E+02
       270  27  1.227608E+06  2.220098E+05  5.059096E+04  4.638441E+05  1.152698E+04  9.964186E+02
       271   1  9.143370E+05  1.001442E+05 -3.043132E+04  3.826421E+05 -1.496416E+04 -1.737636E+03
       271   2  9.007124E+05  7.528772E+04 -2.247659E+04  3.636815E+05 -3.180821E+04 -7.302998E+03
       271   3  8.883765E+05  1.111992E+05  9.707738E+03  3.533023E+05 -4.841500E+04 -1.348991E+04
       271   4  1.097817E+06  1.669036E+05  1.884318E+04  4.302477E+05 -1.465980E+04 -1.621751E+03
       271   5  1.099420E+06  1.522367E+05  3.172364E+04  4.199696E+05 -3.169097E+04 -7.258586E+03
       271   6  1.102343E+06  1.983654E+05  6.897570E+04  4.182733E+05 -4.848538E+04 -1.351734E+04
       271   7  1.281329E+06  2.336642E+05  6.811465E+04  4.778655E+05 -1.435535E+04 -1.505833E+03
       271   8  1.298166E+06  2.291886E+05  8.592029E+04  4.762740E+05 -3.157368E+04 -7.214157E+03
       271   9  1.316354E+06  2.855364E+05  1.282395E+05  4.832651E+05 -4.855578E+04 -1.354479E+04
       271  10  9.143368E+05  1.001441E+05 -3.043174E+04  3.826420E+05 -2.252848E-09  6.695439E-09
       271  11  9.007113E+05  7.528740E+04 -2.247859E+04  3.636813E+05 -1.252918E-09  3.699933E-08
       271  12  8.883740E+05  1.111984E+05  9.702999E+03  3.533018E+05  3.886051E-09  1.905445E-08
       271  13  1.097817E+06  1.669035E+05  1.884277E+04  4.302477E+05 -2.801076E-09 -1.351596E-08
       271  14  1.099419E+06  1.522364E+05  3.172166E+04  4.199694E+05  3.531079E-09  2.197242E-08
       271  15  1.102341E+06  1.983645E+05  6.897095E+04  4.182727E+05 -3.082082E-09  8.803840E-09
       271  16  1.281329E+06  2.336641E+05  6.811426E+04  4.778655E+05  5.978633E-10 -2.732575E-09
       271  17  1.298164E+06  2.291882E+05  8.591832E+04  4.762738E+05 -2.763508E-09 -1.774538E-08
       271  18  1.316352E+06  2.855356E+05  1.282347E+05  4.832646E+05 -5.269966E-09 -2.142622E-09
       271  19  9.143370E+05  1.001442E+05 -3.043132E+04  3.826421E+05  1.496416E+04  1.737636E+03
       271  20  9.007124E+05  7.528772E+04 -2.247659E+04  3.636815E+05  3.180821E+04  7.302998E+03
       271  21  8.883765E+05  1.111992E+05  9.707738E+03  3.533023E+05  4.841500E+04  1.348991E+04
       271  22  1.097817E+06  1.669036E+05  1.884318E+04  4.302477E+05  1.465980E+04  1.621751E+03
       271  23  1.099420E+06  1.522367E+05  3.172364E+04  4.199696E+05  3.169097E+04  7.258586E+03
       271  24  1.102343E+06  1.983654E+05  6.897570E+04  4.182733E+05  4.848538E+04  1.351734E+04
       271  25  1.281329E+06  2.336642E+05  6.811465E+04  4.778655E+05  1.435535E+04  1.505833E+03
       271  26  1.298166E+06  2.291886E+05  8.592029E+04  4.762740E+05  3.157368E+04  7.214157E+03
       271  27  1.316354E+06  2.855364E+05  1.282395E+05  4.832651E+05  4.855578E+04  1.354479E+04
       272   1  8.226210E+05  7.342409E+04  9.589584E+03  3.820733E+05 -6.262587E+04 -1.739989E+04
       272   2  7.872814E+05 -1.172263E+04  5.451897E+04  3.351512E+05 -1.355091E+05 -4.371200E+04
       272   3  8.619790E+05  2.406860E+05  2.406617E+05  2.275283E+05 -2.062911E+05 -7.554819E+04
       272   4  1.112469E+06  1.619494E+05  8.401927E+04  4.400844E+05 -6.148562E+04 -1.696412E+04
       272   5  1.073952E+06  1.091174E+05  1.345308E+05  4.263730E+05 -1.360196E+05 -4.390929E+04
       272   6  1.145737E+06  3.940702E+05  3.275106E+05  3.519771E+05 -2.084522E+05 -7.638679E+04
       272   7  1.402398E+06  2.504738E+05  1.584426E+05  4.981166E+05 -6.034477E+04 -1.652823E+04
       272   8  1.360702E+06  2.299677E+05  2.145346E+05  5.176343E+05 -1.365303E+05 -4.410669E+04
       272   9  1.429577E+06  5.474867E+05  4.143511E+05  4.764846E+05 -2.106144E+05 -7.722618E+04
       272  10  8.226168E+05  7.342272E+04  9.581657E+03  3.820724E+05 -3.712432E-10  9.453263E-09
       272  11  7.872612E+05 -1.172960E+04  5.448093E+04  3.351465E+05 -8.442767E-09 -4.835736E-09
       272  12  8.619318E+05  2.406685E+05  2.405711E+05  2.275158E+05 -1.980809E-09  5.243848E-09
       272  13  1.112465E+06  1.619481E+05  8.401164E+04  4.400835E+05 -3.207105E-09  6.893222E-09
       272  14  1.073932E+06  1.091104E+05  1.344925E+05  4.263682E+05 -5.327852E-09 -7.882668E-09
       272  15  1.145689E+06  3.940523E+05  3.274181E+05  3.519643E+05 -1.030992E-09 -3.615551E-10
       272  16  1.402394E+06  2.504725E+05  1.584352E+05  4.981158E+05 -1.981139E-09 -4.561063E-09
       272  17  1.360682E+06  2.299606E+05  2.144961E+05  5.176294E+05  6.384868E-09  1.393854E-08
       272  18  1.429528E+06  5.474685E+05  4.142568E+05  4.764715E+05  2.762321E-10 -1.764064E-09
       272  19  8.226210E+05  7.342409E+04  9.589584E+03  3.820733E+05  6.262587E+04  1.739989E+04
       272  20  7.872814E+05 -1.172263E+04  5.451897E+04  3.351512E+05  1.355091E+05  4.371200E+04
       272  21  8.619790E+05  2.406860E+05  2.406617E+05  2.275283E+05  2.062911E+05  7.554819E+04
       272  22  1.112469E+06  1.619494E+05  8.401927E+04  4.400844E+05  6.148562E+04  1.696412E+04
       272  23  1.073952E+06  1.091174E+05  1.345308E+05  4.263730E+05  1.360196E+05  4.390929E+04
       272  24  1.145737E+06  3.940702E+05  3.275106E+05  3.519771E+05  2.084522E+05  7.638679E+04
       272  25  1.402398E+06  2.504738E+05  1.584426E+05  4.981166E+05  6.034477E+04  1.652823E+04
       272  26  1.360702E+06  2.299677E+05  2.145346E+05  5.176343E+05  1.365303E+05  4.410669E+04
       272  27  1.429577E+06  5.474867E+05  4.143511E+05  4.764846E+05  2.106144E+05  7.722618E+04
       273   1 -1.471893E+05 -1.233523E+06 -1.703374E+05  3.733074E+04 -1.618004E+03 -6.861140E+04
       273   2 -4.453471E+04 -1.190121E+06 -1.065979E+05  8.306030E+03 -5.236568E+03 -4.176246E+04
       273   3 -5.222346E+04 -1.177305E+06 -8.785559E+04  1.278404E+04 -4.070409E+03 -1.489203E+04
       273   4 -7.916623E+04 -9.622029E+05 -1.027727E+05  1.978697E+04 -1.623982E+03 -6.679360E+04
       273   5  1.614036E+04 -9.470261E+05 -4.683886E+04  3.208840E+03 -5.237524E+03 -4.142556E+04
       273   6  1.384015E+03 -9.621657E+05 -3.485879E+04  2.013368E+04 -4.066088E+03 -1.603733E+04
       273   7 -1.114760E+04 -6.908153E+05 -3.521345E+04  2.235590E+03 -1.630062E+03 -6.497501E+04
       273   8  7.681113E+04 -7.038770E+05  1.291587E+04 -1.890299E+03 -5.238485E+03 -4.108853E+04
       273   9  5.498826E+04 -7.469838E+05  1.813461E+04  2.748592E+04 -4.061794E+03 -1.718302E+04
       273  10 -1.471906E+05 -1.233528E+06 -1.703462E+05  3.733065E+04  1.652633E-09 -7.912340E-09
       273  11 -4.453521E+04 -1.190123E+06 -1.066013E+05  8.305854E+03 -1.331268E-09  2.543007E-09
       273  12 -5.222354E+04 -1.177305E+06 -8.785604E+04  1.278400E+04  8.545996E-10 -1.072637E-08
       273  13 -7.916743E+04 -9.622077E+05 -1.027811E+05  1.978689E+04  2.128972E-09  6.607249E-11
       273  14  1.613987E+04 -9.470279E+05 -4.684215E+04  3.208665E+03 -4.620488E-10  6.557194E-09
       273  15  1.383928E+03 -9.621659E+05 -3.485931E+04  2.013363E+04  1.439501E-09 -1.245397E-08
       273  16 -1.114874E+04 -6.908198E+05 -3.522139E+04  2.235505E+03 -5.440894E-10  2.590095E-09
       273  17  7.681065E+04 -7.038788E+05  1.291264E+04 -1.890472E+03  1.993553E-09  2.250153E-09
       273  18  5.498817E+04 -7.469841E+05  1.813403E+04  2.748586E+04  1.652672E-09  1.254418E-08
       273  19 -1.471893E+05 -1.233523E+06 -1.703374E+05  3.733074E+04  1.618004E+03  6.861140E+04
       273  20 -4.453471E+04 -1.190121E+06 -1.065979E+05  8.306030E+03  5.236568E+03  4.176246E+04
       273  21 -5.222346E+04 -1.177305E+06 -8.785559E+04  1.278404E+04  4.070409E+03  1.489203E+04
       273  22 -7.916623E+04 -9.622029E+05 -1.027727E+05  1.978697E+04  1.623982E+03  6.679360E+04
       273  23  1.614036E+04 -9.470261E+05 -4.683886E+04  3.208840E+03  5.237524E+03  4.142556E+04
       273  24  1.384015E+03 -9.621657E+05 -3.485879E+04  2.013368E+04  4.066088E+03  1.603733E+04
       273  25 -1.114760E+04 -6.908153E+05 -3.521345E+04  2.235590E+03  1.630062E+03  6.497501E+04
       273  26  7.681113E+04 -7.038770E+05  1.291587E+04 -1.890299E+03  5.238485E+03  4.108853E+04
       273  27  5.498826E+04 -7.469838E+05  1.813461E+04  2.748592E+04  4.061794E+03  1.718302E+04
       274   1 -4.519673E+04 -1.097925E+06 -6.637617E+04  2.427574E+04 -2.746086E+03 -1.001890E+04
       274   2 -2.280356E+04 -1.063571E+06 -5.297635E+04  2.866944E+03 -2.276086E+03  3.470489E+03
       274   3 -3.350662E+04 -1.038891E+06 -5.656991E+04  1.695899E+04 -1.397284E+03  1.696173E+04
       274   4 -1.014745E+04 -9.575735E+05 -3.180610E+04  2.045696E+04 -2.745614E+03 -1.011894E+04
       274   5  4.841188E+03 -9.527493E+05 -2.569914E+04  2.702039E+03 -2.275234E+03  3.245396E+03
       274   6 -1.324146E+04 -9.575758E+05 -3.649634E+04  2.044774E+04 -1.395928E+03  1.661094E+04
       274   7  2.490042E+04 -8.172041E+05  2.762509E+03  1.663734E+04 -2.745142E+03 -1.021899E+04
       274   8  3.248502E+04 -8.419162E+05  1.577166E+03  2.537114E+03 -2.274382E+03  3.020263E+03
       274   9  7.023244E+03 -8.762550E+05 -1.642326E+04  2.393695E+04 -1.394577E+03  1.626011E+04
       274  10 -4.519677E+04 -1.097925E+06 -6.637637E+04  2.427572E+04  2.528454E-09 -6.956242E-09
       274  11 -2.280357E+04 -1.063571E+06 -5.297638E+04  2.866950E+03  3.454104E-09 -7.367039E-10
       274  12 -3.350670E+04 -1.038891E+06 -5.657046E+04  1.695901E+04 -1.862041E-09 -1.860714E-08
       274  13 -1.014748E+04 -9.575736E+05 -3.180631E+04  2.045694E+04  3.931459E-10  1.237825E-12
       274  14  4.841179E+03 -9.527493E+05 -2.569917E+04  2.702045E+03 -1.800460E-09  1.531213E-09
       274  15 -1.324154E+04 -9.575761E+05 -3.649687E+04  2.044776E+04  8.665458E-11 -1.525199E-08
       274  16  2.490038E+04 -8.172042E+05  2.762299E+03  1.663731E+04 -1.744591E-10  5.794932E-09
       274  17  3.248501E+04 -8.419163E+05  1.577139E+03  2.537120E+03 -5.410424E-09  8.360655E-09
       274  18  7.023171E+03 -8.762553E+05 -1.642376E+04  2.393697E+04 -4.706455E-10  1.166965E-08
       274  19 -4.519673E+04 -1.097925E+06 -6.637617E+04  2.427574E+04  2.746086E+03  1.001890E+04
       274  20 -2.280356E+04 -1.063571E+06 -5.297635E+04  2.866944E+03  2.276086E+03 -3.470489E+03
       274  21 -3.350662E+04 -1.038891E+06 -5.656991E+04  1.695899E+04  1.397284E+03 -1.696173E+04
       274  22 -1.014745E+04 -9.575735E+05 -3.180610E+04  2.045696E+04  2.745614E+03  1.011894E+04
       274  23  4.841188E+03 -9.527493E+05 -2.569914E+04  2.702039E+03  2.275234E+03 -3.245396E+03
       274  24 -1.324146E+04 -9.575758E+05 -3.649634E+04  2.044774E+04  1.395928E+03 -1.661094E+04
       274  25  2.490042E+04 -8.172041E+05  2.762509E+03  1.663734E+04  2.745142E+03  1.021899E+04
       274  26  3.248502E+04 -8.419162E+05  1.577166E+03  2.537114E+03  2.274382E+03 -3.020263E+03
       274  27  7.023244E+03 -8.762550E+05 -1.642326E+04  2.393695E+04  1.394577E+03 -1.626011E+04
       275   1  1.573307E+03 -9.683486E+05 -4.242922E+04  3.070865E+04 -4.982180E+02  2.407642E+04
       275   2  2.695586E+04 -9.192130E+05 -5.239697E+04 -3.049719E+03  4.707103E+02  5.547494E+04
       275   3 -8.759359E+04 -9.088423E+05 -1.177413E+05 -1.197802E+03  4.095755E+01  8.686986E+04
       275   4  2.721154E+03 -9.640496E+05 -4.141950E+04  2.061352E+04 -4.966566E+02  2.352146E+04
       275   5  2.056670E+04 -9.446513E+05 -5.863754E+04  2.621579E+03  4.716433E+02  5.535416E+04
       275   6 -1.015997E+05 -9.640980E+05 -1.315367E+05  2.024009E+04  4.282979E+01  8.718174E+04
       275   7  3.869383E+03 -9.597504E+05 -4.040972E+04  1.051831E+04 -4.950771E+02  2.296651E+04
       275   8  1.417762E+04 -9.700890E+05 -6.487815E+04  8.292645E+03  4.725740E+02  5.523339E+04
       275   9 -1.156043E+05 -1.019350E+06 -1.453322E+05  4.167607E+04  4.472379E+01  8.749359E+04
       275  10  1.573150E+03 -9.683492E+05 -4.243031E+04  3.070866E+04 -9.765591E-10 -6.000473E-09
       275  11  2.695503E+04 -9.192163E+05 -5.240276E+04 -3.049740E+03  2.989568E-09 -2.560053E-09
       275  12 -8.759562E+04 -9.088504E+05 -1.177555E+05 -1.197805E+03  2.594033E-10 -8.422012E-09
       275  13  2.721005E+03 -9.640502E+05 -4.142054E+04  2.061353E+04  2.143761E-09  2.254376E-09
       275  14  2.056588E+04 -9.446546E+05 -5.864331E+04  2.621558E+03  4.650869E-10  1.031195E-08
       275  15 -1.016017E+05 -9.641062E+05 -1.315510E+05  2.024009E+04  1.051628E-10 -1.092271E-08
       275  16  3.869241E+03 -9.597509E+05 -4.041071E+04  1.051832E+04  1.145117E-09  8.303327E-09
       275  17  1.417680E+04 -9.700923E+05 -6.488389E+04  8.292624E+03 -7.294468E-10 -6.713552E-09
       275  18 -1.156063E+05 -1.019358E+06 -1.453466E+05  4.167607E+04 -1.163390E-09  7.538209E-09
       275  19  1.573307E+03 -9.683486E+05 -4.242922E+04  3.070865E+04  4.982180E+02 -2.407642E+04
       275  20  2.695586E+04 -9.192130E+05 -5.239697E+04 -3.049719E+03 -4.707103E+02 -5.547494E+04
       275  21 -8.759359E+04 -9.088423E+05 -1.177413E+05 -1.197802E+03 -4.095755E+01 -8.686986E+04
       275  22  2.721154E+03 -9.640496E+05 -4.141950E+04  2.061352E+04  4.966566E+02 -2.352146E+04
       275  23  2.056670E+04 -9.446513E+05 -5.863754E+04  2.621579E+03 -4.716433E+02 -5.535416E+04
       275  24 -1.015997E+05 -9.640980E+05 -1.315367E+05  2.024009E+04 -4.282979E+01 -8.718174E+04
       275  25  3.869383E+03 -9.597504E+05 -4.040972E+04  1.051831E+04  4.950771E+02 -2.296651E+04
       275  26  1.417762E+04 -9.700890E+05 -6.487815E+04  8.292645E+03 -4.725740E+02 -5.523339E+04
       275  27 -1.156043E+05 -1.019350E+06 -1.453322E+05  4.167607E+04 -4.472379E+01 -8.749359E+04
       276   1  3.304081E+05 -2.108772E+04 -1.807709E+03  1.924877E+03  5.501396E+04  2.526545E+03
       276   2  3.389847E+05 -9.379619E+04 -4.342159E+04  4.682096E+03  3.711034E+04  7.174824E+03
       276   3  3.723039E+05 -7.838131E+04 -5.127617E+04 -1.768223E+04  1.921341E+04  6.087242E+03
       276   4  6.758989E+05  6.508677E+04  8.400946E+04 -1.126193E+04  5.739004E+04  2.528784E+03
       276   5  6.633891E+05 -1.303840E+04  3.618408E+04  1.346771E+03  3.768633E+04  7.175049E+03
       276   6  6.759200E+05 -2.753017E+03  2.335376E+04 -1.116496E+04  1.798995E+04  6.086201E+03
       276   7  1.021498E+06  1.512530E+05  1.698178E+05 -2.445612E+04  5.976743E+04  2.530922E+03
       276   8  9.878892E+05  6.771163E+04  1.157820E+05 -1.990327E+03  3.826262E+04  7.175268E+03
       276   9  9.796201E+05  7.286859E+04  9.797693E+04 -4.644512E+03  1.676590E+04  6.085133E+03
       276  10  3.304048E+05 -2.108853E+04 -1.813405E+03  1.924765E+03  4.751551E-10 -4.381279E-11
       276  11  3.389832E+05 -9.379661E+04 -4.342427E+04  4.681882E+03 -3.645184E-10 -1.695623E-10
       276  12  3.723035E+05 -7.838145E+04 -5.127693E+04 -1.768233E+04  7.440979E-10  4.689525E-11
       276  13  6.758954E+05  6.508588E+04  8.400326E+04 -1.126205E+04  8.010789E-10 -7.568315E-12
       276  14  6.633875E+05 -1.303884E+04  3.618132E+04  1.346553E+03  5.424146E-10 -4.567631E-11
       276  15  6.759197E+05 -2.753143E+03  2.335308E+04 -1.116505E+04  5.976995E-10 -3.596158E-11
       276  16  1.021495E+06  1.512520E+05  1.698111E+05 -2.445624E+04  1.068411E-10  9.857773E-12
       276  17  9.878876E+05  6.771118E+04  1.157792E+05 -1.990548E+03  8.265102E-11 -9.845422E-12
       276  18  9.796198E+05  7.286847E+04  9.797633E+04 -4.644594E+03 -4.871097E-10  2.835691E-11
       276  19  3.304081E+05 -2.108772E+04 -1.807709E+03  1.924877E+03 -5.501396E+04 -2.526545E+03
       276  20  3.389847E+05 -9.379619E+04 -4.342159E+04  4.682096E+03 -3.711034E+04 -7.174824E+03
       276  21  3.723039E+05 -7.838131E+04 -5.127617E+04 -1.768223E+04 -1.921341E+04 -6.087242E+03
       276  22  6.758989E+05  6.508677E+04  8.400946E+04 -1.126193E+04 -5.739004E+04 -2.528784E+03
       276  23  6.633891E+05 -1.303840E+04  3.618408E+04  1.346771E+03 -3.768633E+04 -7.175049E+03
       276  24  6.759200E+05 -2.753017E+03  2.335376E+04 -1.116496E+04 -1.798995E+04 -6.086201E+03
       276  25  1.021498E+06  1.512530E+05  1.698178E+05 -2.445612E+04 -5.976743E+04 -2.530922E+03
       276  26  9.878892E+05  6.771163E+04  1.157820E+05 -1.990327E+03 -3.826262E+04 -7.175268E+03
       276  27  9.796201E+05  7.286859E+04  9.797693E+04 -4.644512E+03 -1.676590E+04 -6.085133E+03
       277   1  4.190848E+05 -5.414342E+04 -4.278938E+04 -9.227363E+03  1.412922E+04  4.795700E+03
       277   2  4.365574E+05 -5.972084E+04 -4.777372E+04  1.177328E+03  9.433016E+03  4.726045E+03
       277   3  4.577717E+05 -5.352297E+04 -4.672007E+04 -1.168993E+04  4.736649E+03  4.012363E+03
       277   4  6.711980E+05  8.650089E+03  1.922845E+04 -1.078782E+04  1.421289E+04  4.795596E+03
       277   5  6.693122E+05 -1.759353E+03  9.420618E+03  8.508445E+02  9.313863E+03  4.725868E+03
       277   6  6.712014E+05 -3.607269E+02  5.789767E+03 -1.078185E+04  4.414827E+03  4.012202E+03
       277   7  9.233689E+05  7.143888E+04  8.124160E+04 -1.234893E+04  1.429658E+04  4.795492E+03
       277   8  9.021162E+05  5.619812E+04  6.661097E+04  5.242321E+02  9.194664E+03  4.725691E+03
       277   9  8.846726E+05  5.279813E+04  5.829625E+04 -9.873470E+03  4.092894E+03  4.012039E+03
       277  10  4.190845E+05 -5.414349E+04 -4.278979E+04 -9.227418E+03  3.092200E-10  1.763745E-10
       277  11  4.365573E+05 -5.972089E+04 -4.777393E+04  1.177292E+03 -1.105715E-09  1.074140E-10
       277  12  4.577717E+05 -5.352299E+04 -4.672014E+04 -1.168995E+04  1.781260E-10  6.627455E-12
       277  13  6.711977E+05  8.650010E+03  1.922803E+04 -1.078788E+04  1.615067E-10  1.592724E-10
       277  14  6.693121E+05 -1.759400E+03  9.420414E+03  8.508090E+02  9.687798E-11  3.606755E-11
       277  15  6.712014E+05 -3.607494E+02  5.789701E+03 -1.078187E+04 -7.435492E-10 -3.312613E-11
       277  16  9.233687E+05  7.143880E+04  8.124118E+04 -1.234898E+04 -1.886416E-10  1.286778E-10
       277  17  9.021161E+05  5.619807E+04  6.661077E+04  5.241971E+02  5.253398E-11  2.271656E-10
       277  18  8.846725E+05  5.279811E+04  5.829619E+04 -9.873483E+03 -4.295384E-10 -1.431456E-10
       277  19  4.190848E+05 -5.414342E+04 -4.278938E+04 -9.227363E+03 -1.412922E+04 -4.795700E+03
       277  20  4.365574E+05 -5.972084E+04 -4.777372E+04  1.177328E+03 -9.433016E+03 -4.726045E+03
       277  21  4.577717E+05 -5.352297E+04 -4.672007E+04 -1.168993E+04 -4.736649E+03 -4.012363E+03
       277  22  6.711980E+05  8.650089E+03  1.922845E+04 -1.078782E+04 -1.421289E+04 -4.795596E+03
       277  23  6.693122E+05 -1.759353E+03  9.420618E+03  8.508445E+02 -9.313863E+03 -4.725868E+03
       277  24  6.712014E+05 -3.607269E+02  5.789767E+03 -1.078185E+04 -4.414827E+03 -4.012202E+03
       277  25  9.233689E+05  7.143888E+04  8.124160E+04 -1.234893E+04 -1.429658E+04 -4.795492E+03
       277  26  9.021162E+05  5.619812E+04  6.661097E+04  5.242321E+02 -9.194664E+03 -4.725691E+03
       277  27  8.846726E+05  5.279813E+04  5.829625E+04 -9.873470E+03 -4.092894E+03 -4.012039E+03
       278   1  5.053405E+05 -3.998905E+04 -3.593871E+04 -1.033032E+04  3.654913E+03  3.524682E+03
       278   2  5.233332E+05 -3.681185E+04 -3.360064E+04  5.419593E+02  2.408637E+03  2.939505E+03
       278   3  5.419456E+05 -3.206013E+04 -3.004507E+04 -1.061289E+04  1.162068E+03  2.295290E+03
       278   4  6.705061E+05  1.132534E+03  4.610193E+03 -1.050714E+04  3.482104E+03  3.524596E+03
       278   5  6.701950E+05 -2.398437E+02  2.493662E+03  5.063320E+02  2.217094E+03  2.939458E+03
       278   6  6.705066E+05 -3.456507E+01  1.607484E+03 -1.050700E+04  9.518281E+02  2.295289E+03
       278   7  8.356965E+05  4.225209E+04  4.515709E+04 -1.068401E+04  3.309248E+03  3.524510E+03
       278   8  8.170763E+05  3.633057E+04  3.858638E+04  4.706962E+02  2.025506E+03  2.939412E+03
       278   9  7.990825E+05  3.198977E+04  3.325882E+04 -1.040108E+04  7.415448E+02  2.295288E+03
       278  10  5.053405E+05 -3.998906E+04 -3.593875E+04 -1.033033E+04  1.599952E-10 -4.586796E-11
       278  11  5.233332E+05 -3.681187E+04 -3.360067E+04  5.419536E+02 -3.393455E-10  3.795321E-11
       278  12  5.419456E+05 -3.206013E+04 -3.004509E+04 -1.061289E+04  7.525594E-11 -9.872736E-11
       278  13  6.705061E+05  1.132518E+03  4.610147E+03 -1.050715E+04 -1.606335E-10 -3.657677E-11
       278  14  6.701950E+05 -2.398543E+02  2.493636E+03  5.063267E+02 -1.262406E-10  1.686835E-10
       278  15  6.705066E+05 -3.457098E+01  1.607472E+03 -1.050700E+04  2.787843E-11 -7.809763E-11
       278  16  8.356965E+05  4.225208E+04  4.515705E+04 -1.068402E+04 -1.647099E-10 -1.520709E-10
       278  17  8.170763E+05  3.633056E+04  3.858635E+04  4.706914E+02 -5.194776E-10  5.180770E-11
       278  18  7.990825E+05  3.198976E+04  3.325881E+04 -1.040108E+04  2.618742E-10  1.821335E-11
       278  19  5.053405E+05 -3.998905E+04 -3.593871E+04 -1.033032E+04 -3.654913E+03 -3.524682E+03
       278  20  5.233332E+05 -3.681185E+04 -3.360064E+04  5.419593E+02 -2.408637E+03 -2.939505E+03
       278  21  5.419456E+05 -3.206013E+04 -3.004507E+04 -1.061289E+04 -1.162068E+03 -2.295290E+03
       278  22  6.705061E+05  1.132534E+03  4.610193E+03 -1.050714E+04 -3.482104E+03 -3.524596E+03
       278  23  6.701950E+05 -2.398437E+02  2.493662E+03  5.063320E+02 -2.217094E+03 -2.939458E+03
       278  24  6.705066E+05 -3.456507E+01  1.607484E+03 -1.050700E+04 -9.518281E+02 -2.295289E+03
       278  25  8.356965E+05  4.225209E+04  4.515709E+04 -1.068401E+04 -3.309248E+03 -3.524510E+03
       278  26  8.170763E+05  3.633057E+04  3.858638E+04  4.706962E+02 -2.025506E+03 -2.939412E+03
       278  27  7.990825E+05  3.198977E+04  3.325882E+04 -1.040108E+04 -7.415448E+02 -2.295288E+03
       279   1  5.880469E+05 -2.035088E+04 -1.884028E+04 -1.031669E+04  8.801436E+02  1.914908E+03
       279   2  6.057025E+05 -1.613716E+04 -1.485806E+04  3.299627E+02  3.672774E+02  1.290442E+03
       279   3  6.234961E+05 -1.163613E+04 -1.047059E+04 -1.036065E+04 -1.457333E+02  6.663837E+02
       279   4  6.704018E+05  1.457726E+02  1.345142E+03 -1.035375E+04  6.851345E+02  1.914930E+03
       279   5  6.703330E+05 -4.331989E+01  1.026051E+03  3.148042E+02  1.723361E+02  1.290483E+03
       279   6  6.704017E+05  5.482081E+01  1.112083E+03 -1.035376E+04 -3.405924E+02  6.664436E+02
       279   7  7.527628E+05  2.064192E+04  2.153007E+04 -1.039082E+04  4.900997E+02  1.914953E+03
       279   8  7.349673E+05  1.605021E+04  1.690986E+04  2.996444E+02 -2.262549E+01  1.290523E+03
       279   9  7.173093E+05  1.174561E+04  1.269459E+04 -1.034688E+04 -5.354661E+02  6.665035E+02
       279  10  5.880469E+05 -2.035088E+04 -1.884029E+04 -1.031669E+04 -1.006846E-10 -5.063482E-11
       279  11  6.057025E+05 -1.613716E+04 -1.485807E+04  3.299623E+02 -4.455764E-10  5.345600E-11
       279  12  6.234961E+05 -1.163613E+04 -1.047059E+04 -1.036065E+04 -6.915984E-10 -1.715554E-10
       279  13  6.704018E+05  1.457686E+02  1.345134E+03 -1.035375E+04 -8.177840E-11 -7.475148E-11
       279  14  6.703330E+05 -4.332169E+01  1.026048E+03  3.148040E+02  1.128228E-10  4.213614E-11
       279  15  6.704017E+05  5.482030E+01  1.112082E+03 -1.035376E+04 -9.941607E-10 -4.244248E-11
       279  16  7.527628E+05  2.064192E+04  2.153006E+04 -1.039082E+04  7.766099E-11 -1.408398E-10
       279  17  7.349673E+05  1.605021E+04  1.690985E+04  2.996444E+02  1.994570E-10  9.308314E-11
       279  18  7.173093E+05  1.174561E+04  1.269459E+04 -1.034688E+04 -8.839818E-11 -1.468031E-10
       279  19  5.880469E+05 -2.035088E+04 -1.884028E+04 -1.031669E+04 -8.801436E+02 -1.914908E+03
       279  20  6.057025E+05 -1.613716E+04 -1.485806E+04  3.299627E+02 -3.672774E+02 -1.290442E+03
       279  21  6.234961E+05 -1.163613E+04 -1.047059E+04 -1.036065E+04  1.457333E+02 -6.663837E+02
       279  22  6.704018E+05  1.457726E+02  1.345142E+03 -1.035375E+04 -6.851345E+02 -1.914930E+03
       279  23  6.703330E+05 -4.331989E+01  1.026051E+03  3.148042E+02 -1.723361E+02 -1.290483E+03
       279  24  6.704017E+05  5.482081E+01  1.112083E+03 -1.035376E+04  3.405924E+02 -6.664436E+02
       279  25  7.527628E+05  2.064192E+04  2.153007E+04 -1.039082E+04 -4.900997E+02 -1.914953E+03
       279  26  7.349673E+05  1.605021E+04  1.690986E+04  2.996444E+02  2.262549E+01 -1.290523E+03
       279  27  7.173093E+05  1.174561E+04  1.269459E+04 -1.034688E+04  5.354661E+02 -6.665035E+02
       280   1  6.688251E+05 -3.797332E+02  9.210358E+02 -1.026777E+04 -3.601129E+02  3.028662E+02
       280   2  6.862889E+05  3.889171E+03  5.779696E+03  2.645404E+02 -1.288292E+03 -3.193850E+02
       280   3  7.040127E+05  8.776913E+03  1.139353E+04 -1.037978E+04 -2.216466E+03 -9.370464E+02
       280   4  6.704296E+05  8.816142E+00  1.260355E+03 -1.031815E+04 -5.552180E+02  3.029320E+02
       280   5  6.702996E+05 -9.215159E+01  1.850346E+03  2.702468E+02 -1.481945E+03 -3.193248E+02
       280   6  6.704292E+05  4.255054E+02  3.194547E+03 -1.031802E+04 -2.408642E+03 -9.369909E+02
       280   7  6.720340E+05  3.973653E+02  1.599675E+03 -1.036852E+04 -7.503237E+02  3.029979E+02
       280   8  6.543105E+05 -4.073493E+03 -2.079023E+03  2.759530E+02 -1.675594E+03 -3.192646E+02
       280   9  6.368467E+05 -7.925986E+03 -5.004515E+03 -1.025626E+04 -2.600807E+03 -9.369355E+02
       280  10  6.688251E+05 -3.797333E+02  9.210354E+02 -1.026777E+04 -6.090577E-11 -7.813530E-11
       280  11  6.862889E+05  3.889170E+03  5.779692E+03  2.645401E+02 -4.196899E-10  1.214945E-10
       280  12  7.040127E+05  8.776911E+03  1.139352E+04 -1.037978E+04  9.517400E-11  1.502689E-10
       280  13  6.704296E+05  8.815961E+00  1.260355E+03 -1.031815E+04 -2.473655E-10  1.613346E-11
       280  14  6.702996E+05 -9.215229E+01  1.850341E+03  2.702464E+02  9.602592E-11  1.849796E-10
       280  15  6.704292E+05  4.255029E+02  3.194535E+03 -1.031802E+04  9.993714E-11  1.430931E-10
       280  16  6.720340E+05  3.973651E+02  1.599673E+03 -1.036852E+04 -5.521127E-11 -5.497895E-11
       280  17  6.543105E+05 -4.073494E+03 -2.079029E+03  2.759526E+02 -3.795423E-10  2.051145E-10
       280  18  6.368467E+05 -7.925988E+03 -5.004529E+03 -1.025627E+04 -1.359463E-10  8.592207E-11
       280  19  6.688251E+05 -3.797332E+02  9.210358E+02 -1.026777E+04  3.601129E+02 -3.028662E+02
       280  20  6.862889E+05  3.889171E+03  5.779696E+03  2.645404E+02  1.288292E+03  3.193850E+02
       280  21  7.040127E+05  8.776913E+03  1.139353E+04 -1.037978E+04  2.216466E+03  9.370464E+02
       280  22  6.704296E+05  8.816142E+00  1.260355E+03 -1.031815E+04  5.552180E+02 -3.029320E+02
       280  23  6.702996E+05 -9.215159E+01  1.850346E+03  2.702468E+02  1.481945E+03  3.193248E+02
       280  24  6.704292E+05  4.255054E+02  3.194547E+03 -1.031802E+04  2.408642E+03  9.369909E+02
       280  25  6.720340E+05  3.973653E+02  1.599675E+03 -1.036852E+04  7.503237E+02 -3.029979E+02
       280  26  6.543105E+05 -4.073493E+03 -2.079023E+03  2.759530E+02  1.675594E+03  3.192646E+02
       280  27  6.368467E+05 -7.925986E+03 -5.004515E+03 -1.025626E+04  2.600807E+03  9.369355E+02
       281   1  7.498340E+05  1.958994E+04  2.356788E+04 -1.007228E+04 -2.857868E+03 -1.309994E+03
       281   2  7.669449E+05  2.349080E+04  3.063385E+04  2.567747E+02 -6.323300E+03 -1.942037E+03
       281   3  7.856375E+05  3.184426E+04  4.107059E+04 -1.096175E+04 -9.788602E+03 -2.520889E+03
       281   4  6.707210E+05 -1.192097E+02  4.071580E+03 -1.040072E+04 -3.063533E+03 -1.309947E+03
       281   5  6.699304E+05 -6.645071E+02  6.794413E+03  3.733396E+02 -6.511873E+03 -1.942025E+03
       281   6  6.707190E+05  3.240336E+03  1.287667E+04 -1.040038E+04 -9.959985E+03 -2.520912E+03
       281   7  5.916136E+05 -1.982882E+04 -1.542518E+04 -1.072912E+04 -3.269172E+03 -1.309899E+03
       281   8  5.729245E+05 -2.482051E+04 -1.704571E+04  4.898867E+02 -6.700417E+03 -1.942013E+03
       281   9  5.558125E+05 -2.536456E+04 -1.531821E+04 -9.839112E+03 -1.013134E+04 -2.520936E+03
       281  10  7.498340E+05  1.958994E+04  2.356786E+04 -1.007228E+04  2.531429E-10 -4.184984E-11
       281  11  7.669448E+05  2.349079E+04  3.063376E+04  2.567648E+02 -3.365032E-10  2.198688E-11
       281  12  7.856374E+05  3.184423E+04  4.107040E+04 -1.096177E+04 -1.201491E-10 -9.272429E-11
       281  13  6.707210E+05 -1.192141E+02  4.071559E+03 -1.040072E+04 -9.261810E-11 -1.343038E-10
       281  14  6.699303E+05 -6.645225E+02  6.794326E+03  3.733294E+02 -2.089191E-10 -1.054386E-10
       281  15  6.707189E+05  3.240302E+03  1.287648E+04 -1.040040E+04 -3.545857E-11  5.412723E-11
       281  16  5.916136E+05 -1.982883E+04 -1.542520E+04 -1.072912E+04  2.491616E-11 -1.572433E-10
       281  17  5.729244E+05 -2.482053E+04 -1.704580E+04  4.898762E+02 -6.736168E-10 -1.472453E-10
       281  18  5.558124E+05 -2.536460E+04 -1.531842E+04 -9.839132E+03 -3.935680E-10  1.065334E-10
       281  19  7.498340E+05  1.958994E+04  2.356788E+04 -1.007228E+04  2.857868E+03  1.309994E+03
       281  20  7.669449E+05  2.349080E+04  3.063385E+04  2.567747E+02  6.323300E+03  1.942037E+03
       281  21  7.856375E+05  3.184426E+04  4.107059E+04 -1.096175E+04  9.788602E+03  2.520889E+03
       281  22  6.707210E+05 -1.192097E+02  4.071580E+03 -1.040072E+04  3.063533E+03  1.309947E+03
       281  23  6.699304E+05 -6.645071E+02  6.794413E+03  3.733396E+02  6.511873E+03  1.942025E+03
       281  24  6.707190E+05  3.240336E+03  1.287667E+04 -1.040038E+04  9.959985E+03  2.520912E+03
       281  25  5.916136E+05 -1.982882E+04 -1.542518E+04 -1.072912E+04  3.269172E+03  1.309899E+03
       281  26  5.729245E+05 -2.482051E+04 -1.704571E+04  4.898867E+02  6.700417E+03  1.942013E+03
       281  27  5.558125E+05 -2.536456E+04 -1.531821E+04 -9.839112E+03  1.013134E+04  2.520936E+03
       282   1  8.344551E+05  3.929146E+04  5.604457E+04 -8.138335E+03 -1.227083E+04 -2.981589E+03
       282   2  8.479804E+05  3.998285E+04  7.091758E+04 -5.182411E+02 -2.626412E+04 -3.669552E+03
       282   3  8.717861E+05  7.410892E+04  1.032719E+05 -1.535403E+04 -4.025797E+04 -3.814638E+03
       282   4  6.726443E+05 -1.006017E+03  1.623188E+04 -1.060030E+04 -1.256806E+04 -2.981587E+03
       282   5  6.675125E+05 -4.946541E+03  2.658396E+04  6.237947E+02 -2.638826E+04 -3.669691E+03
       282   6  6.726338E+05  2.452290E+04  5.430101E+04 -1.060823E+04 -4.020862E+04 -3.815010E+03
       282   7  5.108572E+05 -4.130542E+04 -2.358274E+04 -1.306163E+04 -1.286520E+04 -2.981583E+03
       282   8  4.870742E+05 -4.987834E+04 -1.775206E+04  1.765497E+03 -2.651237E+04 -3.669830E+03
       282   9  4.735177E+05 -2.506598E+04  5.327198E+03 -5.863967E+03 -4.015928E+04 -3.815381E+03
       282  10  8.344550E+05  3.929141E+04  5.604427E+04 -8.138364E+03  6.024658E-10 -1.019869E-10
       282  11  8.479797E+05  3.998265E+04  7.091626E+04 -5.183187E+02  3.816978E-10 -4.072128E-11
       282  12  8.717843E+05  7.410847E+04  1.032688E+05 -1.535415E+04 -4.338068E-10 -3.219274E-12
       282  13  6.726441E+05 -1.006069E+03  1.623156E+04 -1.060033E+04 -2.750518E-11  3.291203E-11
       282  14  6.675118E+05 -4.946742E+03  2.658262E+04  6.237167E+02 -5.086544E-10 -1.456865E-10
       282  15  6.726321E+05  2.452245E+04  5.429795E+04 -1.060836E+04  5.391729E-10 -2.071200E-11
       282  16  5.108570E+05 -4.130547E+04 -2.358307E+04 -1.306166E+04 -1.050819E-09  9.406036E-11
       282  17  4.870735E+05 -4.987855E+04 -1.775340E+04  1.765419E+03 -1.139925E-09 -3.619286E-10
       282  18  4.735159E+05 -2.506643E+04  5.324143E+03 -5.864090E+03 -4.971888E-10 -5.476328E-11
       282  19  8.344551E+05  3.929146E+04  5.604457E+04 -8.138335E+03  1.227083E+04  2.981589E+03
       282  20  8.479804E+05  3.998285E+04  7.091758E+04 -5.182411E+02  2.626412E+04  3.669552E+03
       282  21  8.717861E+05  7.410892E+04  1.032719E+05 -1.535403E+04  4.025797E+04  3.814638E+03
       282  22  6.726443E+05 -1.006017E+03  1.623188E+04 -1.060030E+04  1.256806E+04  2.981587E+03
       282  23  6.675125E+05 -4.946541E+03  2.658396E+04  6.237947E+02  2.638826E+04  3.669691E+03
       282  24  6.726338E+05  2.452290E+04  5.430101E+04 -1.060823E+04  4.020862E+04  3.815010E+03
       282  25  5.108572E+05 -4.130542E+04 -2.358274E+04 -1.306163E+04  1.286520E+04  2.981583E+03
       282  26  4.870742E+05 -4.987834E+04 -1.775206E+04  1.765497E+03  2.651237E+04  3.669830E+03
       282  27  4.735177E+05 -2.506598E+04  5.327198E+03 -5.863967E+03  4.015928E+04  3.815381E+03
       283   1  9.344275E+05  5.416913E+04  1.270250E+05  7.065396E+03 -4.982172E+04 -4.956397E+03
       283   2  9.193042E+05  2.999623E+04  1.681529E+05 -9.061492E+03 -1.070218E+05 -5.983541E+03
       283   3  9.743634E+05  2.558875E+05  3.090537E+05 -4.924619E+04 -1.642272E+05 -2.188281E+03
       283   4  6.859079E+05 -7.725578E+03  6.595096E+04 -1.090423E+04 -5.087265E+04 -4.955579E+03
       283   5  6.509067E+05 -3.678643E+04  1.023190E+05  1.033736E+03 -1.065468E+05 -5.985119E+03
       283   6  6.858524E+05  1.840072E+05  2.374320E+05 -1.108444E+04 -1.622240E+05 -2.196506E+03
       283   7  4.374452E+05 -6.962366E+04  4.872554E+03 -2.886667E+04 -5.192317E+04 -4.954699E+03
       283   8  3.825749E+05 -1.035740E+05  3.647998E+04  1.112459E+04 -1.060719E+05 -5.986683E+03
       283   9  3.974200E+05  1.121262E+05  1.658049E+05  2.705958E+04 -1.602218E+05 -2.204488E+03
       283  10  9.344248E+05  5.416844E+04  1.270203E+05  7.065197E+03  1.758117E-10  1.352162E-10
       283  11  9.192919E+05  2.999312E+04  1.681313E+05 -9.062008E+03 -2.708262E-10 -9.722370E-11
       283  12  9.743345E+05  2.558803E+05  3.090031E+05 -4.924648E+04  3.025076E-10 -1.252522E-10
       283  13  6.859051E+05 -7.726298E+03  6.594605E+04 -1.090444E+04  2.593208E-10  3.512220E-11
       283  14  6.508945E+05 -3.678951E+04  1.022977E+05  1.033222E+03  2.490820E-10 -7.268961E-11
       283  15  6.858242E+05  1.840002E+05  2.373826E+05 -1.108472E+04  2.838518E-10 -6.206149E-11
       283  16  4.374423E+05 -6.962441E+04  4.867445E+03 -2.886688E+04 -4.520829E-10  6.617114E-11
       283  17  3.825629E+05 -1.035771E+05  3.645879E+04  1.112407E+04  1.024502E-10  2.318018E-10
       283  18  3.973924E+05  1.121193E+05  1.657567E+05  2.705930E+04 -2.965524E-10 -6.609506E-11
       283  19  9.344275E+05  5.416913E+04  1.270250E+05  7.065396E+03  4.982172E+04  4.956397E+03
       283  20  9.193042E+05  2.999623E+04  1.681529E+05 -9.061492E+03  1.070218E+05  5.983541E+03
       283  21  9.743634E+05  2.558875E+05  3.090537E+05 -4.924619E+04  1.642272E+05  2.188281E+03
       283  22  6.859079E+05 -7.725578E+03  6.595096E+04 -1.090423E+04  5.087265E+04  4.955579E+03
       283  23  6.509067E+05 -3.678643E+04  1.023190E+05  1.033736E+03  1.065468E+05  5.985119E+03
       283  24  6.858524E+05  1.840072E+05  2.374320E+05 -1.108444E+04  1.622240E+05  2.196506E+03
       283  25  4.374452E+05 -6.962366E+04  4.872554E+03 -2.886667E+04  5.192317E+04  4.954699E+03
       283  26  3.825749E+05 -1.035740E+05  3.647998E+04  1.112459E+04  1.060719E+05  5.986683E+03
       283  27  3.974200E+05  1.121262E+05  1.658049E+05  2.705958E+04  1.602218E+05  2.204488E+03
       284   1  1.263606E+05  9.233895E+05  1.449830E+05 -4.119639E+04  1.540489E+03  6.124588E+04
       284   2  3.501513E+04  8.657191E+05  8.352054E+04 -4.065857E+03  4.305239E+03  4.018596E+04
       284   3  3.372877E+04  8.331503E+05  5.824247E+04 -2.105622E+04  2.545199E+03  1.911865E+04
       284   4  6.669648E+04  6.844831E+05  8.563485E+04 -2.707360E+04  1.544584E+03  5.967298E+04
       284   5 -1.319777E+04  6.720623E+05  3.603503E+04 -7.354638E+01  4.305854E+03  4.003323E+04
       284   6 -3.263580E+03  6.845052E+05  2.164459E+04 -2.719467E+04  2.542400E+03  2.038454E+04
       284   7  7.028868E+03  4.456289E+05  2.628255E+04 -1.295623E+04  1.548608E+03  5.810068E+04
       284   8 -6.141340E+04  4.784396E+05 -1.145322E+04  3.917534E+03  4.306466E+03  3.988055E+04
       284   9 -4.025742E+04  5.358803E+05 -1.495490E+04 -3.333163E+04  2.539575E+03  2.165014E+04
       284  10  1.263595E+05  9.233855E+05  1.449760E+05 -4.119646E+04  2.928401E-10  7.940808E-11
       284  11  3.501467E+04  8.657174E+05  8.351747E+04 -4.065996E+03 -4.324000E-11  5.532972E-11
       284  12  3.372866E+04  8.331499E+05  5.824177E+04 -2.105626E+04  1.048458E-09  6.758640E-11
       284  13  6.669553E+04  6.844793E+05  8.562817E+04 -2.707368E+04  1.666960E-09 -1.237016E-10
       284  14 -1.319822E+04  6.720606E+05  3.603199E+04 -7.368517E+01 -1.047798E-09  2.232913E-10
       284  15 -3.263698E+03  6.845048E+05  2.164379E+04 -2.719471E+04  1.079200E-09 -1.765418E-11
       284  16  7.027960E+03  4.456253E+05  2.627621E+04 -1.295630E+04  1.585333E-10 -5.354265E-12
       284  17 -6.141384E+04  4.784379E+05 -1.145624E+04  3.917395E+03  5.557529E-10  1.038263E-10
       284  18 -4.025756E+04  5.358798E+05 -1.495579E+04 -3.333167E+04  8.600626E-10 -5.274102E-11
       284  19  1.263606E+05  9.233895E+05  1.449830E+05 -4.119639E+04 -1.540489E+03 -6.124588E+04
       284  20  3.501513E+04  8.657191E+05  8.352054E+04 -4.065857E+03 -4.305239E+03 -4.018596E+04
       284  21  3.372877E+04  8.331503E+05  5.824247E+04 -2.105622E+04 -2.545199E+03 -1.911865E+04
       284  22  6.669648E+04  6.844831E+05  8.563485E+04 -2.707360E+04 -1.544584E+03 -5.967298E+04
       284  23 -1.319777E+04  6.720623E+05  3.603503E+04 -7.354638E+01 -4.305854E+03 -4.003323E+04
       284  24 -3.263580E+03  6.845052E+05  2.164459E+04 -2.719467E+04 -2.542400E+03 -2.038454E+04
       284  25  7.028868E+03  4.456289E+05  2.628255E+04 -1.295623E+04 -1.548608E+03 -5.810068E+04
       284  26 -6.141340E+04  4.784396E+05 -1.145322E+04  3.917534E+03 -4.306466E+03 -3.988055E+04
       284  27 -4.025742E+04  5.358803E+05 -1.495490E+04 -3.333163E+04 -2.539575E+03 -2.165014E+04
       285   1  1.751912E+04  7.128934E+05  2.496789E+04 -2.837459E+04  8.461903E+02  1.662777E+04
       285   2 -3.644826E+03  6.674793E+05  2.045239E+03 -8.302349E+02 -2.550718E+02  1.416103E+04
       285   3 -1.854540E+04  6.236722E+05 -1.776550E+04 -2.694811E+04 -1.317578E+03  1.169460E+04
       285   4  9.165601E+03  6.793380E+05  1.676333E+04 -2.703458E+04  8.454762E+02  1.697914E+04
       285   5 -8.948446E+02  6.785372E+05  4.761247E+03 -2.181364E+02 -2.557727E+02  1.450067E+04
       285   6 -4.689531E+03  6.793442E+05 -4.120007E+03 -2.706382E+04 -1.318265E+03  1.202233E+04
       285   7  8.120099E+02  6.457835E+05  8.558693E+03 -2.569464E+04  8.447636E+02  1.733050E+04
       285   8  1.855129E+03  6.895951E+05  7.477245E+03  3.939730E+02 -2.564729E+02  1.484031E+04
       285   9  9.166106E+03  7.350190E+05  9.525256E+03 -2.717954E+04 -1.318953E+03  1.235008E+04
       285  10  1.751904E+04  7.128931E+05  2.496737E+04 -2.837461E+04 -9.757920E-11 -5.141377E-10
       285  11 -3.644880E+03  6.674791E+05  2.044863E+03 -8.302320E+02  5.308155E-10 -2.449100E-10
       285  12 -1.854544E+04  6.236721E+05 -1.776576E+04 -2.694810E+04 -1.125101E-09  4.236119E-10
       285  13  9.165523E+03  6.793376E+05  1.676279E+04 -2.703459E+04  9.244514E-11  4.789919E-13
       285  14 -8.949011E+02  6.785369E+05  4.760852E+03 -2.181334E+02  1.012651E-09 -1.920395E-10
       285  15 -4.689571E+03  6.793441E+05 -4.120281E+03 -2.706381E+04  1.575121E-09 -1.645804E-10
       285  16  8.119286E+02  6.457832E+05  8.558128E+03 -2.569465E+04  5.201179E-10  5.155913E-10
       285  17  1.855070E+03  6.895949E+05  7.476832E+03  3.939761E+02 -1.757513E-09  2.244971E-10
       285  18  9.166063E+03  7.350188E+05  9.524967E+03 -2.717952E+04 -3.350005E-10 -3.084913E-10
       285  19  1.751912E+04  7.128934E+05  2.496789E+04 -2.837459E+04 -8.461903E+02 -1.662777E+04
       285  20 -3.644826E+03  6.674793E+05  2.045239E+03 -8.302349E+02  2.550718E+02 -1.416103E+04
       285  21 -1.854540E+04  6.236722E+05 -1.776550E+04 -2.694811E+04  1.317578E+03 -1.169460E+04
       285  22  9.165601E+03  6.793380E+05  1.676333E+04 -2.703458E+04 -8.454762E+02 -1.697914E+04
       285  23 -8.948446E+02  6.785372E+05  4.761247E+03 -2.181364E+02  2.557727E+02 -1.450067E+04
       285  24 -4.689531E+03  6.793442E+05 -4.120007E+03 -2.706382E+04  1.318265E+03 -1.202233E+04
       285  25  8.120099E+02  6.457835E+05  8.558693E+03 -2.569464E+04 -8.447636E+02 -1.733050E+04
       285  26  1.855129E+03  6.895951E+05  7.477245E+03  3.939730E+02  2.564729E+02 -1.484031E+04
       285  27  9.166106E+03  7.350190E+05  9.525256E+03 -2.717954E+04  1.318953E+03 -1.235008E+04
       286   1 -3.990550E+04  5.054152E+05 -4.958348E+04 -2.390241E+04 -3.068710E+03  1.170568E+04
       286   2 -4.738984E+04  4.663131E+05 -6.951635E+04 -1.602601E+03 -4.910015E+03  2.228552E+04
       286   3 -9.837999E+04  4.148506E+05 -1.072348E+05 -3.371524E+04 -1.862463E+03  3.287331E+04
       286   4  2.677417E+03  6.762877E+05 -7.508071E+03 -2.719614E+04 -3.071454E+03  1.303978E+04
       286   5  6.377608E+03  6.823415E+05 -1.653335E+04 -2.014949E+01 -4.909494E+03  2.209636E+04
       286   6 -3.315543E+04  6.763018E+05 -4.228234E+04 -2.725589E+04 -1.859256E+03  3.116171E+04
       286   7  4.525821E+04  8.471866E+05  3.456520E+04 -3.049077E+04 -3.074212E+03  1.437424E+04
       286   8  6.014161E+04  8.984123E+05  3.644623E+04  1.562873E+03 -4.908975E+03  2.190713E+04
       286   9  3.206417E+04  9.378150E+05  2.266509E+04 -2.079380E+04 -1.856085E+03  2.944939E+04
       286  10 -3.990555E+04  5.054151E+05 -4.958376E+04 -2.390238E+04 -1.548774E-12 -3.181237E-10
       286  11 -4.738999E+04  4.663126E+05 -6.951732E+04 -1.602513E+03  2.541916E-10 -2.122182E-10
       286  12 -9.838028E+04  4.148495E+05 -1.072369E+05 -3.371519E+04 -2.817635E-10  1.982542E-10
       286  13  2.677361E+03  6.762875E+05 -7.508407E+03 -2.719611E+04 -1.341026E-09  1.054879E-10
       286  14  6.377451E+03  6.823409E+05 -1.653431E+04 -2.006214E+01  3.681585E-10 -1.448474E-10
       286  15 -3.315570E+04  6.763007E+05 -4.228417E+04 -2.725584E+04 -5.777171E-10  6.984457E-11
       286  16  4.525814E+04  8.471864E+05  3.456479E+04 -3.049073E+04  7.368152E-10  1.709566E-10
       286  17  6.014145E+04  8.984118E+05  3.644529E+04  1.562959E+03 -5.676898E-10  6.330480E-11
       286  18  3.206393E+04  9.378141E+05  2.266345E+04 -2.079375E+04 -9.465394E-10 -1.586376E-10
       286  19 -3.990550E+04  5.054152E+05 -4.958348E+04 -2.390241E+04  3.068710E+03 -1.170568E+04
       286  20 -4.738984E+04  4.663131E+05 -6.951635E+04 -1.602601E+03  4.910015E+03 -2.228552E+04
       286  21 -9.837999E+04  4.148506E+05 -1.072348E+05 -3.371524E+04  1.862463E+03 -3.287331E+04
       286  22  2.677417E+03  6.762877E+05 -7.508071E+03 -2.719614E+04  3.071454E+03 -1.303978E+04
       286  23  6.377608E+03  6.823415E+05 -1.653335E+04 -2.014949E+01  4.909494E+03 -2.209636E+04
       286  24 -3.315543E+04  6.763018E+05 -4.228234E+04 -2.725589E+04  1.859256E+03 -3.116171E+04
       286  25  4.525821E+04  8.471866E+05  3.456520E+04 -3.049077E+04  3.074212E+03 -1.437424E+04
       286  26  6.014161E+04  8.984123E+05  3.644623E+04  1.562873E+03  4.908975E+03 -2.190713E+04
       286  27  3.206417E+04  9.378150E+05  2.266509E+04 -2.079380E+04  1.856085E+03 -2.944939E+04
       287   1 -8.156633E+05 -3.215735E+05 -2.530142E+05 -2.626505E+05 -1.272516E+05 -4.622511E+04
       287   2 -7.774480E+05 -1.346725E+05 -1.339001E+05 -2.920834E+05 -8.258943E+04 -2.604054E+04
       287   3 -8.113361E+05 -1.465339E+05 -1.016317E+05 -2.785796E+05 -3.662524E+04 -9.309798E+03
       287   4 -6.343211E+05 -2.255598E+05 -1.978108E+05 -1.851192E+05 -1.259156E+05 -4.572884E+04
       287   5 -5.883853E+05 -5.601857E+04 -8.123919E+04 -2.330476E+05 -8.224994E+04 -2.591402E+04
       287   6 -6.143330E+05 -8.500831E+04 -5.070309E+04 -2.380465E+05 -3.728177E+04 -9.555990E+03
       287   7 -4.529457E+05 -1.295337E+05 -1.426108E+05 -1.075645E+05 -1.245792E+05 -4.523226E+04
       287   8 -3.992882E+05  2.263956E+04 -2.858173E+04 -1.739948E+05 -8.191032E+04 -2.578745E+04
       287   9 -4.172924E+05 -2.348297E+04  2.225073E+02 -1.975030E+05 -3.793854E+04 -9.802235E+03
       287  10 -8.156813E+05 -3.215801E+05 -2.530487E+05 -2.626552E+05 -2.529487E-10 -2.714351E-11
       287  11 -7.774556E+05 -1.346751E+05 -1.339142E+05 -2.920851E+05 -1.835070E-10 -6.342643E-11
       287  12 -8.113375E+05 -1.465344E+05 -1.016344E+05 -2.785799E+05 -1.245565E-10 -4.727867E-11
       287  13 -6.343387E+05 -2.255663E+05 -1.978446E+05 -1.851238E+05  8.603248E-10  1.716149E-11
       287  14 -5.883928E+05 -5.602111E+04 -8.125318E+04 -2.330493E+05 -7.254550E-10 -4.381209E-11
       287  15 -6.143345E+05 -8.500878E+04 -5.070588E+04 -2.380468E+05 -6.597325E-10 -7.217650E-11
       287  16 -4.529629E+05 -1.295401E+05 -1.426439E+05 -1.075691E+05  4.128554E-10 -7.095198E-11
       287  17 -3.992956E+05  2.263704E+04 -2.859560E+04 -1.739965E+05 -2.366816E-10 -1.029798E-10
       287  18 -4.172939E+05 -2.348346E+04  2.196197E+02 -1.975033E+05  3.240753E-10 -8.542616E-12
       287  19 -8.156633E+05 -3.215735E+05 -2.530142E+05 -2.626505E+05  1.272516E+05  4.622511E+04
       287  20 -7.774480E+05 -1.346725E+05 -1.339001E+05 -2.920834E+05  8.258943E+04  2.604054E+04
       287  21 -8.113361E+05 -1.465339E+05 -1.016317E+05 -2.785796E+05  3.662524E+04  9.309798E+03
       287  22 -6.343211E+05 -2.255598E+05 -1.978108E+05 -1.851192E+05  1.259156E+05  4.572884E+04
       287  23 -5.883853E+05 -5.601857E+04 -8.123919E+04 -2.330476E+05  8.224994E+04  2.591402E+04
       287  24 -6.143330E+05 -8.500831E+04 -5.070309E+04 -2.380465E+05  3.728177E+04  9.555990E+03
       287  25 -4.529457E+05 -1.295337E+05 -1.426108E+05 -1.075645E+05  1.245792E+05  4.523226E+04
       287  26 -3.992882E+05  2.263956E+04 -2.858173E+04 -1.739948E+05  8.191032E+04  2.578745E+04
       287  27 -4.172924E+05 -2.348297E+04  2.225073E+02 -1.975030E+05  3.793854E+04  9.802235E+03
       288   1 -7.717588E+05 -1.732065E+05 -8.692333E+04 -2.740055E+05 -2.957973E+04 -7.433034E+03
       288   2 -7.626102E+05 -1.419429E+05 -6.225148E+04 -2.723745E+05 -1.937025E+04 -3.478211E+03
       288   3 -7.572484E+05 -1.442859E+05 -5.237263E+04 -2.724654E+05 -8.992757E+03  3.002464E+01
       288   4 -6.076163E+05 -1.076997E+05 -4.163416E+04 -2.256287E+05 -2.949066E+04 -7.399809E+03
       288   5 -6.043824E+05 -8.136014E+04 -1.915263E+04 -2.283575E+05 -1.940894E+04 -3.492854E+03
       288   6 -6.049073E+05 -8.859775E+04 -1.135973E+04 -2.328089E+05 -9.159311E+03 -3.257724E+01
       288   7 -4.434483E+05 -4.219061E+04  3.652437E+03 -1.772401E+05 -2.940157E+04 -7.366572E+03
       288   8 -4.461306E+05 -2.077576E+04  2.394397E+04 -1.843304E+05 -1.944764E+04 -3.507502E+03
       288   9 -4.525436E+05 -3.290849E+04  2.965118E+04 -1.931438E+05 -9.325909E+03 -9.519484E+01
       288  10 -7.717597E+05 -1.732068E+05 -8.692508E+04 -2.740057E+05 -3.399937E-10 -1.746470E-11
       288  11 -7.626106E+05 -1.419430E+05 -6.225221E+04 -2.723746E+05 -3.672414E-10  1.587847E-10
       288  12 -7.572485E+05 -1.442860E+05 -5.237278E+04 -2.724654E+05  4.451128E-11  9.043090E-11
       288  13 -6.076173E+05 -1.077000E+05 -4.163590E+04 -2.256288E+05 -3.248853E-10  4.745365E-11
       288  14 -6.043828E+05 -8.136025E+04 -1.915336E+04 -2.283576E+05 -6.177812E-10  4.276161E-11
       288  15 -6.049074E+05 -8.859778E+04 -1.135989E+04 -2.328089E+05  4.883563E-10  5.185457E-11
       288  16 -4.434492E+05 -4.219090E+04  3.650709E+03 -1.772402E+05 -1.229570E-10  7.863506E-11
       288  17 -4.461310E+05 -2.077588E+04  2.394323E+04 -1.843304E+05  6.714106E-10 -9.927907E-11
       288  18 -4.525437E+05 -3.290852E+04  2.965102E+04 -1.931438E+05 -3.272723E-10 -8.252514E-11
       288  19 -7.717588E+05 -1.732065E+05 -8.692333E+04 -2.740055E+05  2.957973E+04  7.433034E+03
       288  20 -7.626102E+05 -1.419429E+05 -6.225148E+04 -2.723745E+05  1.937025E+04  3.478211E+03
       288  21 -7.572484E+05 -1.442859E+05 -5.237263E+04 -2.724654E+05  8.992757E+03 -3.002464E+01
       288  22 -6.076163E+05 -1.076997E+05 -4.163416E+04 -2.256287E+05  2.949066E+04  7.399809E+03
       288  23 -6.043824E+05 -8.136014E+04 -1.915263E+04 -2.283575E+05  1.940894E+04  3.492854E+03
       288  24 -6.049073E+05 -8.859775E+04 -1.135973E+04 -2.328089E+05  9.159311E+03  3.257724E+01
       288  25 -4.434483E+05 -4.219061E+04  3.652437E+03 -1.772401E+05  2.940157E+04  7.366572E+03
       288  26 -4.461306E+05 -2.077576E+04  2.394397E+04 -1.843304E+05  1.944764E+04  3.507502E+03
       288  27 -4.525436E+05 -3.290849E+04  2.965118E+04 -1.931438E+05  9.325909E+03  9.519484E+01
       289   1 -7.307906E+05 -1.401330E+05 -4.354287E+04 -2.663092E+05 -7.319586E+03  3.725431E+02
       289   2 -7.254406E+05 -1.294710E+05 -3.668046E+04 -2.599294E+05 -4.882914E+03  9.707962E+02
       289   3 -7.135707E+05 -1.304968E+05 -3.251596E+04 -2.619530E+05 -2.419266E+03  1.496849E+03
       289   4 -6.037595E+05 -9.178641E+04 -9.013076E+03 -2.312657E+05 -7.391058E+03  3.456486E+02
       289   5 -6.068391E+05 -8.465569E+04 -4.486757E+03 -2.275479E+05 -4.974985E+03  9.361913E+02
       289   6 -6.033945E+05 -8.920798E+04 -2.641538E+03 -2.322334E+05 -2.531975E+03  1.454524E+03
       289   7 -4.767129E+05 -4.343882E+04  2.551526E+04 -1.962156E+05 -7.462547E+03  3.187479E+02
       289   8 -4.882242E+05 -3.983959E+04  2.770566E+04 -1.951609E+05 -5.067075E+03  9.015791E+02
       289   9 -4.932069E+05 -4.791863E+04  2.723174E+04 -2.025092E+05 -2.644705E+03  1.412191E+03
       289  10 -7.307906E+05 -1.401330E+05 -4.354297E+04 -2.663092E+05  4.693230E-11 -1.851518E-10
       289  11 -7.254406E+05 -1.294710E+05 -3.668051E+04 -2.599294E+05 -1.056390E-10 -1.296932E-10
       289  12 -7.135707E+05 -1.304968E+05 -3.251597E+04 -2.619530E+05  8.299748E-11 -1.070389E-10
       289  13 -6.037595E+05 -9.178643E+04 -9.013179E+03 -2.312657E+05  6.570876E-11 -2.227602E-11
       289  14 -6.068391E+05 -8.465570E+04 -4.486805E+03 -2.275479E+05 -2.570419E-10 -1.178338E-10
       289  15 -6.033945E+05 -8.920798E+04 -2.641554E+03 -2.322334E+05  4.606443E-12 -2.544851E-10
       289  16 -4.767129E+05 -4.343883E+04  2.551515E+04 -1.962156E+05 -1.850056E-10 -2.009914E-10
       289  17 -4.882242E+05 -3.983960E+04  2.770561E+04 -1.951609E+05  2.702797E-10 -1.309857E-10
       289  18 -4.932069E+05 -4.791863E+04  2.723172E+04 -2.025092E+05 -2.465839E-10 -2.686741E-10
       289  19 -7.307906E+05 -1.401330E+05 -4.354287E+04 -2.663092E+05  7.319586E+03 -3.725431E+02
       289  20 -7.254406E+05 -1.294710E+05 -3.668046E+04 -2.599294E+05  4.882914E+03 -9.707962E+02
       289  21 -7.135707E+05 -1.304968E+05 -3.251596E+04 -2.619530E+05  2.419266E+03 -1.496849E+03
       289  22 -6.037595E+05 -9.178641E+04 -9.013076E+03 -2.312657E+05  7.391058E+03 -3.456486E+02
       289  23 -6.068391E+05 -8.465569E+04 -4.486757E+03 -2.275479E+05  4.974985E+03 -9.361913E+02
       289  24 -6.033945E+05 -8.920798E+04 -2.641538E+03 -2.322334E+05  2.531975E+03 -1.454524E+03
       289  25 -4.767129E+05 -4.343882E+04  2.551526E+04 -1.962156E+05  7.462547E+03 -3.187479E+02
       289  26 -4.882242E+05 -3.983959E+04  2.770566E+04 -1.951609E+05  5.067075E+03 -9.015791E+02
       289  27 -4.932069E+05 -4.791863E+04  2.723174E+04 -2.025092E+05  2.644705E+03 -1.412191E+03
       290   1 -6.873170E+05 -1.215067E+05 -2.491528E+04 -2.551020E+05 -1.962543E+03  1.425888E+03
       290   2 -6.822536E+05 -1.132271E+05 -2.157956E+04 -2.476975E+05 -1.194546E+03  1.318908E+03
       290   3 -6.688021E+05 -1.141484E+05 -1.886164E+04 -2.500801E+05 -4.195255E+02  1.192981E+03
       290   4 -6.031295E+05 -8.972544E+04 -2.100958E+03 -2.321389E+05 -2.060998E+03  1.388927E+03
       290   5 -6.073024E+05 -8.497311E+04 -1.247593E+03 -2.273025E+05 -1.298447E+03  1.279920E+03
       290   6 -6.030864E+05 -8.942053E+04 -1.007694E+03 -2.322532E+05 -5.288833E+02  1.151961E+03
       290   7 -5.189350E+05 -5.794369E+04  2.071277E+04 -2.091730E+05 -2.159468E+03  1.351961E+03
       290   8 -5.323457E+05 -5.671875E+04  1.908389E+04 -2.069053E+05 -1.402361E+03  1.240926E+03
       290   9 -5.373666E+05 -6.469239E+04  1.684586E+04 -2.144246E+05 -6.382539E+02  1.110937E+03
       290  10 -6.873170E+05 -1.215067E+05 -2.491530E+04 -2.551020E+05  2.506022E-09  7.882752E-10
       290  11 -6.822536E+05 -1.132271E+05 -2.157956E+04 -2.476975E+05  1.296629E-09  4.479016E-10
       290  12 -6.688021E+05 -1.141484E+05 -1.886164E+04 -2.500801E+05 -1.000578E-09 -5.906819E-10
       290  13 -6.031295E+05 -8.972544E+04 -2.100969E+03 -2.321389E+05  5.897579E-10  8.317247E-11
       290  14 -6.073024E+05 -8.497311E+04 -1.247599E+03 -2.273025E+05  1.748097E-09  5.878533E-10
       290  15 -6.030864E+05 -8.942054E+04 -1.007697E+03 -2.322532E+05  6.177075E-10  2.008731E-10
       290  16 -5.189351E+05 -5.794370E+04  2.071276E+04 -2.091730E+05 -1.047860E-09 -5.921773E-10
       290  17 -5.323457E+05 -5.671875E+04  1.908388E+04 -2.069053E+05  1.057822E-09  4.373028E-10
       290  18 -5.373666E+05 -6.469239E+04  1.684586E+04 -2.144246E+05  2.020436E-09  7.976395E-10
       290  19 -6.873170E+05 -1.215067E+05 -2.491528E+04 -2.551020E+05  1.962543E+03 -1.425888E+03
       290  20 -6.822536E+05 -1.132271E+05 -2.157956E+04 -2.476975E+05  1.194546E+03 -1.318908E+03
       290  21 -6.688021E+05 -1.141484E+05 -1.886164E+04 -2.500801E+05  4.195255E+02 -1.192981E+03
       290  22 -6.031295E+05 -8.972544E+04 -2.100958E+03 -2.321389E+05  2.060998E+03 -1.388927E+03
       290  23 -6.073024E+05 -8.497311E+04 -1.247593E+03 -2.273025E+05  1.298447E+03 -1.279920E+03
       290  24 -6.030864E+05 -8.942053E+04 -1.007694E+03 -2.322532E+05  5.288833E+02 -1.151961E+03
       290  25 -5.189350E+05 -5.794369E+04  2.071277E+04 -2.091730E+05  2.159468E+03 -1.351961E+03
       290  26 -5.323457E+05 -5.671875E+04  1.908389E+04 -2.069053E+05  1.402361E+03 -1.240926E+03
       290  27 -5.373666E+05 -6.469239E+04  1.684586E+04 -2.144246E+05  6.382539E+02 -1.110937E+03
       291   1 -6.416233E+05 -1.040661E+05 -1.144893E+04 -2.428685E+05 -1.737867E+02  1.038154E+03
       291   2 -6.364164E+05 -9.582269E+04 -9.116961E+03 -2.350945E+05  5.950674E+02  9.066969E+02
       291   3 -6.225439E+05 -9.707404E+04 -7.400949E+03 -2.374573E+05  1.364675E+03  7.731390E+02
       291   4 -6.030245E+05 -8.948954E+04 -1.008525E+03 -2.323292E+05 -2.808905E+02  9.979894E+02
       291   5 -6.073781E+05 -8.488904E+04 -1.242334E+03 -2.272058E+05  4.873801E+02  8.663195E+02
       291   6 -6.030660E+05 -8.978323E+04 -2.091623E+03 -2.322192E+05  1.256395E+03  7.325454E+02
       291   7 -5.644243E+05 -7.491287E+04  9.431728E+03 -2.217893E+05 -3.880015E+02  9.578220E+02
       291   8 -5.783389E+05 -7.395534E+04  6.632217E+03 -2.193167E+05  3.796873E+02  8.259401E+02
       291   9 -5.835878E+05 -8.249238E+04  3.217679E+03 -2.269810E+05  1.148110E+03  6.919503E+02
       291  10 -6.416233E+05 -1.040661E+05 -1.144893E+04 -2.428685E+05 -4.413093E-10 -5.757161E-10
       291  11 -6.364164E+05 -9.582269E+04 -9.116963E+03 -2.350945E+05 -2.340765E-10 -2.353110E-10
       291  12 -6.225439E+05 -9.707404E+04 -7.400954E+03 -2.374573E+05  2.202685E-10 -8.490610E-11
       291  13 -6.030245E+05 -8.948954E+04 -1.008527E+03 -2.323292E+05  6.210891E-11 -1.943638E-10
       291  14 -6.073781E+05 -8.488904E+04 -1.242336E+03 -2.272058E+05  3.854894E-11 -2.459267E-10
       291  15 -6.030660E+05 -8.978323E+04 -2.091627E+03 -2.322192E+05  7.118091E-10  5.192936E-11
       291  16 -5.644243E+05 -7.491287E+04  9.431726E+03 -2.217893E+05  4.657309E-10  6.543122E-11
       291  17 -5.783389E+05 -7.395534E+04  6.632215E+03 -2.193167E+05  1.586106E-10 -1.844065E-10
       291  18 -5.835878E+05 -8.249238E+04  3.217675E+03 -2.269810E+05  4.298796E-10 -7.670976E-12
       291  19 -6.416233E+05 -1.040661E+05 -1.144893E+04 -2.428685E+05  1.737867E+02 -1.038154E+03
       291  20 -6.364164E+05 -9.582269E+04 -9.116961E+03 -2.350945E+05 -5.950674E+02 -9.066969E+02
       291  21 -6.225439E+05 -9.707404E+04 -7.400949E+03 -2.374573E+05 -1.364675E+03 -7.731390E+02
       291  22 -6.030245E+05 -8.948954E+04 -1.008525E+03 -2.323292E+05  2.808905E+02 -9.979894E+02
       291  23 -6.073781E+05 -8.488904E+04 -1.242334E+03 -2.272058E+05 -4.873801E+02 -8.663195E+02
       291  24 -6.030660E+05 -8.978323E+04 -2.091623E+03 -2.322192E+05 -1.256395E+03 -7.325454E+02
       291  25 -5.644243E+05 -7.491287E+04  9.431728E+03 -2.217893E+05  3.880015E+02 -9.578220E+02
       291  26 -5.783389E+05 -7.395534E+04  6.632217E+03 -2.193167E+05 -3.796873E+02 -8.259401E+02
       291  27 -5.835878E+05 -8.249238E+04  3.217679E+03 -2.269810E+05 -1.148110E+03 -6.919503E+02
       292   1 -5.949053E+05 -8.651646E+04 -3.916185E+02 -2.304628E+05  1.845265E+03  6.979912E+02
       292   2 -5.893792E+05 -7.765612E+04  3.526886E+02 -2.223602E+05  4.275976E+03  1.180689E+03
       292   3 -5.765074E+05 -8.133864E+04 -1.576051E+03 -2.236981E+05  6.693888E+03  1.697621E+03
       292   4 -6.032107E+05 -8.940224E+04 -2.632364E+03 -2.324614E+05  1.730559E+03  6.549909E+02
       292   5 -6.070630E+05 -8.440883E+04 -4.460464E+03 -2.272618E+05  4.171196E+03  1.141404E+03
       292   6 -6.035717E+05 -9.196032E+04 -8.969537E+03 -2.315029E+05  6.598994E+03  1.662034E+03
       292   7 -6.115161E+05 -9.228802E+04 -4.873116E+03 -2.344599E+05  1.615855E+03  6.119910E+02
       292   8 -6.247466E+05 -9.116151E+04 -9.273641E+03 -2.321633E+05  4.066419E+03  1.102121E+03
       292   9 -6.306353E+05 -1.025819E+05 -1.636308E+04 -2.393073E+05  6.504105E+03  1.626450E+03
       292  10 -5.949053E+05 -8.651646E+04 -3.916258E+02 -2.304628E+05  1.640364E-10  2.059486E-11
       292  11 -5.893792E+05 -7.765612E+04  3.526515E+02 -2.223602E+05 -6.307642E-11  9.616735E-11
       292  12 -5.765075E+05 -8.133865E+04 -1.576141E+03 -2.236982E+05  3.052032E-10  2.252776E-10
       292  13 -6.032107E+05 -8.940224E+04 -2.632371E+03 -2.324614E+05  7.544812E-10  6.626995E-11
       292  14 -6.070630E+05 -8.440883E+04 -4.460499E+03 -2.272618E+05  3.055176E-10  1.602791E-10
       292  15 -6.035718E+05 -9.196033E+04 -8.969624E+03 -2.315029E+05  4.011680E-10  3.385219E-11
       292  16 -6.115161E+05 -9.228802E+04 -4.873122E+03 -2.344599E+05  2.458011E-10  3.343855E-11
       292  17 -6.247466E+05 -9.116152E+04 -9.273674E+03 -2.321633E+05 -5.784941E-11  2.114399E-10
       292  18 -6.306354E+05 -1.025819E+05 -1.636316E+04 -2.393073E+05 -1.717810E-10  4.319235E-11
       292  19 -5.949053E+05 -8.651646E+04 -3.916185E+02 -2.304628E+05 -1.845265E+03 -6.979912E+02
       292  20 -5.893792E+05 -7.765612E+04  3.526886E+02 -2.223602E+05 -4.275976E+03 -1.180689E+03
       292  21 -5.765074E+05 -8.133864E+04 -1.576051E+03 -2.236981E+05 -6.693888E+03 -1.697621E+03
       292  22 -6.032107E+05 -8.940224E+04 -2.632364E+03 -2.324614E+05 -1.730559E+03 -6.549909E+02
       292  23 -6.070630E+05 -8.440883E+04 -4.460464E+03 -2.272618E+05 -4.171196E+03 -1.141404E+03
       292  24 -6.035717E+05 -9.196032E+04 -8.969537E+03 -2.315029E+05 -6.598994E+03 -1.662034E+03
       292  25 -6.115161E+05 -9.228802E+04 -4.873116E+03 -2.344599E+05 -1.615855E+03 -6.119910E+02
       292  26 -6.247466E+05 -9.116151E+04 -9.273641E+03 -2.321633E+05 -4.066419E+03 -1.102121E+03
       292  27 -6.306353E+05 -1.025819E+05 -1.636308E+04 -2.393073E+05 -6.504105E+03 -1.626450E+03
       293   1 -5.486651E+05 -6.960821E+04  3.548606E+03 -2.197973E+05  8.514254E+03  2.089011E+03
       293   2 -5.413725E+05 -5.622653E+04 -1.693816E+03 -2.097597E+05  1.865149E+04  5.451825E+03
       293   3 -5.364228E+05 -7.771602E+04 -2.150716E+04 -2.031678E+05  2.868835E+04  9.083345E+03
       293   4 -6.046000E+05 -8.891207E+04 -1.130658E+04 -2.331759E+05  8.362276E+03  2.032048E+03
       293   5 -6.047617E+05 -8.097355E+04 -1.904961E+04 -2.278889E+05  1.857689E+04  5.423803E+03
       293   6 -6.072830E+05 -1.079236E+05 -4.142622E+04 -2.260477E+05  2.869098E+04  9.084119E+03
       293   7 -6.605320E+05 -1.082159E+05 -2.616205E+04 -2.465534E+05  8.210313E+03  1.975089E+03
       293   8 -6.681470E+05 -1.057203E+05 -3.640578E+04 -2.460165E+05  1.850229E+04  5.395784E+03
       293   9 -6.781383E+05 -1.381304E+05 -6.134575E+04 -2.489252E+05  2.869362E+04  9.084893E+03
       293  10 -5.486652E+05 -6.960823E+04  3.548461E+03 -2.197973E+05  1.247267E-10  1.818581E-10
       293  11 -5.413729E+05 -5.622666E+04 -1.694526E+03 -2.097598E+05 -1.355093E-10  5.859749E-11
       293  12 -5.364237E+05 -7.771633E+04 -2.150887E+04 -2.031680E+05  8.516726E-11  5.004239E-11
       293  13 -6.046001E+05 -8.891209E+04 -1.130672E+04 -2.331759E+05 -1.492650E-10  1.725815E-11
       293  14 -6.047620E+05 -8.097367E+04 -1.905031E+04 -2.278890E+05 -1.512370E-10  9.480446E-11
       293  15 -6.072839E+05 -1.079239E+05 -4.142792E+04 -2.260480E+05  2.073978E-10 -2.748180E-11
       293  16 -6.605321E+05 -1.082159E+05 -2.616219E+04 -2.465534E+05 -2.817142E-11 -2.610221E-10
       293  17 -6.681474E+05 -1.057204E+05 -3.640648E+04 -2.460166E+05  1.070497E-10  4.645534E-11
       293  18 -6.781392E+05 -1.381307E+05 -6.134745E+04 -2.489254E+05 -1.177311E-12  6.693093E-11
       293  19 -5.486651E+05 -6.960821E+04  3.548606E+03 -2.197973E+05 -8.514254E+03 -2.089011E+03
       293  20 -5.413725E+05 -5.622653E+04 -1.693816E+03 -2.097597E+05 -1.865149E+04 -5.451825E+03
       293  21 -5.364228E+05 -7.771602E+04 -2.150716E+04 -2.031678E+05 -2.868835E+04 -9.083345E+03
       293  22 -6.046000E+05 -8.891207E+04 -1.130658E+04 -2.331759E+05 -8.362276E+03 -2.032048E+03
       293  23 -6.047617E+05 -8.097355E+04 -1.904961E+04 -2.278889E+05 -1.857689E+04 -5.423803E+03
       293  24 -6.072830E+05 -1.079236E+05 -4.142622E+04 -2.260477E+05 -2.869098E+04 -9.084119E+03
       293  25 -6.605320E+05 -1.082159E+05 -2.616205E+04 -2.465534E+05 -8.210313E+03 -1.975089E+03
       293  26 -6.681470E+05 -1.057203E+05 -3.640578E+04 -2.460165E+05 -1.850229E+04 -5.395784E+03
       293  27 -6.781383E+05 -1.381304E+05 -6.134575E+04 -2.489252E+05 -2.869362E+04 -9.084893E+03
       294   1 -5.050414E+05 -5.719380E+04 -2.343347E+04 -2.220450E+05  3.684617E+04  1.154532E+04
       294   2 -4.858536E+05 -9.539211E+03 -5.148067E+04 -1.969041E+05  8.098307E+04  2.755528E+04
       294   3 -5.360620E+05 -1.613938E+05 -1.646558E+05 -1.315131E+05  1.243225E+05  4.569416E+04
       294   4 -6.138748E+05 -8.544548E+04 -5.045080E+04 -2.385120E+05  3.638967E+04  1.137495E+04
       294   5 -5.889949E+05 -5.559934E+04 -8.081935E+04 -2.323746E+05  8.114027E+04  2.761308E+04
       294   6 -6.336469E+05 -2.254056E+05 -1.968139E+05 -1.859836E+05  1.250937E+05  4.597686E+04
       294   7 -7.226965E+05 -1.136975E+05 -7.746891E+04 -2.549771E+05  3.593325E+04  1.120459E+04
       294   8 -6.921254E+05 -1.016574E+05 -1.101590E+05 -2.678392E+05  8.129744E+04  2.767086E+04
       294   9 -7.312202E+05 -2.894091E+05 -2.289727E+05 -2.404442E+05  1.258647E+05  4.625942E+04
       294  10 -5.050429E+05 -5.719430E+04 -2.343627E+04 -2.220453E+05 -4.005766E-11  4.012042E-11
       294  11 -4.858609E+05 -9.541790E+03 -5.149444E+04 -1.969059E+05 -1.034717E-10  2.948685E-10
       294  12 -5.360791E+05 -1.614002E+05 -1.646888E+05 -1.315177E+05 -2.093718E-11  2.040887E-10
       294  13 -6.138762E+05 -8.544597E+04 -5.045354E+04 -2.385123E+05  2.462202E-10  2.108484E-11
       294  14 -5.890021E+05 -5.560193E+04 -8.083317E+04 -2.323764E+05 -2.014240E-10  5.187991E-10
       294  15 -6.336642E+05 -2.254121E+05 -1.968474E+05 -1.859882E+05  2.007907E-10 -4.793521E-11
       294  16 -7.226979E+05 -1.136980E+05 -7.747158E+04 -2.549774E+05  1.400624E-10  1.375888E-10
       294  17 -6.921327E+05 -1.016600E+05 -1.101728E+05 -2.678410E+05  4.648863E-10  2.485699E-10
       294  18 -7.312378E+05 -2.894156E+05 -2.290065E+05 -2.404489E+05 -1.724001E-10  1.251883E-11
       294  19 -5.050414E+05 -5.719380E+04 -2.343347E+04 -2.220450E+05 -3.684617E+04 -1.154532E+04
       294  20 -4.858536E+05 -9.539211E+03 -5.148067E+04 -1.969041E+05 -8.098307E+04 -2.755528E+04
       294  21 -5.360620E+05 -1.613938E+05 -1.646558E+05 -1.315131E+05 -1.243225E+05 -4.569416E+04
       294  22 -6.138748E+05 -8.544548E+04 -5.045080E+04 -2.385120E+05 -3.638967E+04 -1.137495E+04
       294  23 -5.889949E+05 -5.559934E+04 -8.081935E+04 -2.323746E+05 -8.114027E+04 -2.761308E+04
       294  24 -6.336469E+05 -2.254056E+05 -1.968139E+05 -1.859836E+05 -1.250937E+05 -4.597686E+04
       294  25 -7.226965E+05 -1.136975E+05 -7.746891E+04 -2.549771E+05 -3.593325E+04 -1.120459E+04
       294  26 -6.921254E+05 -1.016574E+05 -1.101590E+05 -2.678392E+05 -8.129744E+04 -2.767086E+04
       294  27 -7.312202E+05 -2.894091E+05 -2.289727E+05 -2.404442E+05 -1.258647E+05 -4.625942E+04
       295   1 -3.686424E+05 -5.459637E+04 -1.280666E+04 -2.475366E+03  1.186718E+05  5.636308E+03
       295   2 -3.411454E+05 -2.095887E+05 -1.005000E+05  9.253278E+03  8.023926E+04  1.604847E+04
       295   3 -2.593192E+05 -1.736675E+05 -1.151003E+05 -4.458101E+04  4.180933E+04  1.332653E+04
       295   4  4.141182E+05  1.407995E+05  1.817373E+05 -3.133086E+04  1.240830E+05  5.634649E+03
       295   5  3.866375E+05 -2.829313E+04  7.818393E+04  1.498660E+03  8.150642E+04  1.604642E+04
       295   6  4.141387E+05 -5.874077E+03  5.053545E+04 -3.122932E+04  3.893617E+04  1.332824E+04
       295   7  1.197437E+06  3.361527E+05  3.762360E+05 -6.022286E+04  1.295010E+05  5.632490E+03
       295   8  1.114903E+06  1.529634E+05  2.568290E+05 -6.265084E+03  8.277501E+04  1.604434E+04
       295   9  1.088010E+06  1.618863E+05  2.161379E+05 -1.786304E+04  3.605987E+04  1.332983E+04
       295  10 -3.686575E+05 -5.460018E+04 -1.283319E+04 -2.475905E+03  2.254536E-10  1.608924E-10
       295  11 -3.411523E+05 -2.095907E+05 -1.005126E+05  9.252240E+03  1.867818E-11  5.700605E-11
       295  12 -2.593211E+05 -1.736682E+05 -1.151039E+05 -4.458146E+04 -4.444659E-10 -5.356884E-12
       295  13  4.141017E+05  1.407954E+05  1.817083E+05 -3.133142E+04  7.089710E-10 -1.057050E-10
       295  14  3.866303E+05 -2.829519E+04  7.817097E+04  1.497607E+03 -1.077223E-09 -1.574131E-10
       295  15  4.141370E+05 -5.874674E+03  5.053227E+04 -3.122973E+04 -8.311935E-10  1.593306E-10
       295  16  1.197419E+06  3.361481E+05  3.762045E+05 -6.022345E+04  2.833132E-10  3.140595E-10
       295  17  1.114895E+06  1.529612E+05  2.568157E+05 -6.266153E+03 -1.104560E-09 -1.872130E-10
       295  18  1.088008E+06  1.618858E+05  2.161352E+05 -1.786343E+04  5.714031E-10  2.549288E-10
       295  19 -3.686424E+05 -5.459637E+04 -1.280666E+04 -2.475366E+03 -1.186718E+05 -5.636308E+03
       295  20 -3.411454E+05 -2.095887E+05 -1.005000E+05  9.253278E+03 -8.023926E+04 -1.604847E+04
       295  21 -2.593192E+05 -1.736675E+05 -1.151003E+05 -4.458101E+04 -4.180933E+04 -1.332653E+04
       295  22  4.141182E+05  1.407995E+05  1.817373E+05 -3.133086E+04 -1.240830E+05 -5.634649E+03
       295  23  3.866375E+05 -2.829313E+04  7.818393E+04  1.498660E+03 -8.150642E+04 -1.604642E+04
       295  24  4.141387E+05 -5.874077E+03  5.053545E+04 -3.122932E+04 -3.893617E+04 -1.332824E+04
       295  25  1.197437E+06  3.361527E+05  3.762360E+05 -6.022286E+04 -1.295010E+05 -5.632490E+03
       295  26  1.114903E+06  1.529634E+05  2.568290E+05 -6.265084E+03 -8.277501E+04 -1.604434E+04
       295  27  1.088010E+06  1.618863E+05  2.161379E+05 -1.786304E+04 -3.605987E+04 -1.332983E+04
       296   1 -1.323378E+05 -1.148711E+05 -9.036353E+04 -2.668958E+04  3.063775E+04  1.022694E+04
       296   2 -8.393982E+04 -1.243216E+05 -9.856055E+04  2.258513E+03  2.054050E+04  9.804874E+03
       296   3 -2.733231E+04 -1.080824E+05 -9.366284E+04 -3.199485E+04  1.043822E+04  7.880029E+03
       296   4  4.038068E+05  1.873972E+04  4.157230E+04 -3.071452E+04  3.075511E+04  1.022608E+04
       296   5  3.996667E+05 -3.833585E+03  2.032516E+04  8.747520E+02  2.018085E+04  9.804852E+03
       296   6  4.038089E+05 -6.454728E+02  1.249565E+04 -3.073411E+04  9.602410E+03  7.881278E+03
       296   7  9.402128E+05  1.523292E+05  1.734869E+05 -3.474287E+04  3.087256E+04  1.022523E+04
       296   8  8.834859E+05  1.166370E+05  1.391937E+05 -5.100150E+02  1.982092E+04  9.804832E+03
       296   9  8.351192E+05  1.067776E+05  1.186404E+05 -2.947241E+04  8.766020E+03  7.882523E+03
       296  10 -1.323388E+05 -1.148714E+05 -9.036549E+04 -2.668983E+04 -4.992835E-10 -8.877700E-11
       296  11 -8.394030E+04 -1.243218E+05 -9.856153E+04  2.258350E+03 -5.121345E-10 -2.943709E-10
       296  12 -2.733245E+04 -1.080825E+05 -9.366316E+04 -3.199491E+04 -7.422730E-10  7.747400E-10
       296  13  4.038057E+05  1.873935E+04  4.157033E+04 -3.071477E+04 -1.081901E-09  3.910721E-10
       296  14  3.996662E+05 -3.833798E+03  2.032421E+04  8.745927E+02  9.457736E-10 -1.560057E-09
       296  15  4.038088E+05 -6.455642E+02  1.249536E+04 -3.073417E+04 -9.877879E-10  4.304829E-10
       296  16  9.402118E+05  1.523288E+05  1.734850E+05 -3.474313E+04  5.123523E-10 -7.544110E-12
       296  17  8.834855E+05  1.166368E+05  1.391927E+05 -5.101714E+02 -3.035412E-10 -4.157808E-10
       296  18  8.351191E+05  1.067775E+05  1.186402E+05 -2.947247E+04  4.198653E-10 -5.310360E-11
       296  19 -1.323378E+05 -1.148711E+05 -9.036353E+04 -2.668958E+04 -3.063775E+04 -1.022694E+04
       296  20 -8.393982E+04 -1.243216E+05 -9.856055E+04  2.258513E+03 -2.054050E+04 -9.804874E+03
       296  21 -2.733231E+04 -1.080824E+05 -9.366284E+04 -3.199485E+04 -1.043822E+04 -7.880029E+03
       296  22  4.038068E+05  1.873972E+04  4.157230E+04 -3.071452E+04 -3.075511E+04 -1.022608E+04
       296  23  3.996667E+05 -3.833585E+03  2.032516E+04  8.747520E+02 -2.018085E+04 -9.804852E+03
       296  24  4.038089E+05 -6.454728E+02  1.249565E+04 -3.073411E+04 -9.602410E+03 -7.881278E+03
       296  25  9.402128E+05  1.523292E+05  1.734869E+05 -3.474287E+04 -3.087256E+04 -1.022523E+04
       296  26  8.834859E+05  1.166370E+05  1.391937E+05 -5.100150E+02 -1.982092E+04 -9.804832E+03
       296  27  8.351192E+05  1.067776E+05  1.186404E+05 -2.947241E+04 -8.766020E+03 -7.882523E+03
       297   1  1.044528E+05 -7.161513E+04 -6.317744E+04 -2.953000E+04  8.079035E+03  6.583817E+03
       297   2  1.552240E+05 -6.192029E+04 -5.530160E+04  9.795626E+02  5.440179E+03  4.929454E+03
       297   3  2.070781E+05 -4.857890E+04 -4.483300E+04 -3.029381E+04  2.799432E+03  3.114938E+03
       297   4  4.022406E+05  2.547120E+03  9.909283E+03 -3.040833E+04  7.588394E+03  6.584630E+03
       297   5  4.016960E+05 -5.196552E+02  5.294498E+03  4.797482E+02  4.898372E+03  4.930571E+03
       297   6  4.022402E+05  6.835471E+01  3.307188E+03 -3.041355E+04  2.206675E+03  3.116392E+03
       297   7  7.001091E+05  7.670279E+04  8.298949E+04 -3.128703E+04  7.097517E+03  6.585443E+03
       297   8  6.482233E+05  6.087647E+04  6.588612E+04 -2.023321E+01  4.356349E+03  4.931688E+03
       297   9  5.974369E+05  4.871277E+04  5.144456E+04 -3.053332E+04  1.613732E+03  3.117847E+03
       297  10  1.044527E+05 -7.161519E+04 -6.317764E+04 -2.953005E+04 -1.575624E-10 -3.975236E-11
       297  11  1.552239E+05 -6.192032E+04 -5.530170E+04  9.795410E+02  1.948650E-10  4.058488E-10
       297  12  2.070781E+05 -4.857891E+04 -4.483303E+04 -3.029381E+04 -7.752131E-10 -1.196483E-09
       297  13  4.022405E+05  2.547058E+03  9.909093E+03 -3.040837E+04 -1.329402E-09  9.214992E-11
       297  14  4.016960E+05 -5.196878E+02  5.294407E+03  4.797288E+02 -3.772639E-10  1.188493E-09
       297  15  4.022402E+05  6.834297E+01  3.307161E+03 -3.041356E+04 -9.644636E-10  2.010072E-09
       297  16  7.001090E+05  7.670273E+04  8.298932E+04 -3.128707E+04 -2.698618E-10 -5.699498E-11
       297  17  6.482233E+05  6.087643E+04  6.588604E+04 -2.025051E+01 -1.257886E-09 -1.572377E-09
       297  18  5.974369E+05  4.871276E+04  5.144453E+04 -3.053332E+04  8.074848E-10 -6.030062E-10
       297  19  1.044528E+05 -7.161513E+04 -6.317744E+04 -2.953000E+04 -8.079035E+03 -6.583817E+03
       297  20  1.552240E+05 -6.192029E+04 -5.530160E+04  9.795626E+02 -5.440179E+03 -4.929454E+03
       297  21  2.070781E+05 -4.857890E+04 -4.483300E+04 -3.029381E+04 -2.799432E+03 -3.114938E+03
       297  22  4.022406E+05  2.547120E+03  9.909283E+03 -3.040833E+04 -7.588394E+03 -6.584630E+03
       297  23  4.016960E+05 -5.196552E+02  5.294498E+03  4.797482E+02 -4.898372E+03 -4.930571E+03
       297  24  4.022402E+05  6.835471E+01  3.307188E+03 -3.041355E+04 -2.206675E+03 -3.116392E+03
       297  25  7.001091E+05  7.670279E+04  8.298949E+04 -3.128703E+04 -7.097517E+03 -6.585443E+03
       297  26  6.482233E+05  6.087647E+04  6.588612E+04 -2.023321E+01 -4.356349E+03 -4.931688E+03
       297  27  5.974369E+05  4.871277E+04  5.144456E+04 -3.053332E+04 -1.613732E+03 -3.117847E+03
       298   1  3.381296E+05 -1.541980E+04 -1.286253E+04 -3.012981E+04  2.217368E+03  2.040145E+03
       298   2  3.890664E+05 -3.308426E+03 -1.354573E+03  3.683021E+02  1.303173E+03  2.574687E+02
       298   3  4.399274E+05  9.611674E+03  1.086715E+04 -3.040898E+04  3.888031E+02 -1.542242E+03
       298   4  4.019921E+05  4.568775E+02  2.681104E+03 -3.029881E+04  1.662919E+03  2.041589E+03
       298   5  4.020303E+05 -7.935209E+01  1.832014E+03  3.385014E+02  7.433177E+02  2.589339E+02
       298   6  4.019921E+05  1.944305E+02  1.700741E+03 -3.029950E+04 -1.763839E+02 -1.540747E+03
       298   7  4.658582E+05  1.633326E+04  1.822444E+04 -3.046782E+04  1.108413E+03  2.043034E+03
       298   8  4.149944E+05  3.149710E+03  5.018591E+03  3.087002E+02  1.834512E+02  2.603991E+02
       298   9  3.640581E+05 -9.222918E+03 -7.465771E+03 -3.019002E+04 -7.415366E+02 -1.539253E+03
       298  10  3.381296E+05 -1.541981E+04 -1.286255E+04 -3.012982E+04  8.195493E-11 -1.676299E-10
       298  11  3.890664E+05 -3.308427E+03 -1.354577E+03  3.683018E+02  9.808875E-10  2.617806E-10
       298  12  4.399274E+05  9.611671E+03  1.086715E+04 -3.040898E+04  2.140783E-11 -3.863904E-10
       298  13  4.019920E+05  4.568723E+02  2.681091E+03 -3.029881E+04 -1.039079E-09 -1.874415E-09
       298  14  4.020303E+05 -7.935231E+01  1.832013E+03  3.385013E+02  1.957130E-10  3.916689E-10
       298  15  4.019921E+05  1.944280E+02  1.700737E+03 -3.029950E+04  6.094984E-11 -1.388361E-09
       298  16  4.658582E+05  1.633325E+04  1.822443E+04 -3.046782E+04 -6.670732E-10  3.685081E-10
       298  17  4.149944E+05  3.149710E+03  5.018591E+03  3.087002E+02 -2.029422E-09 -1.025266E-09
       298  18  3.640581E+05 -9.222920E+03 -7.465777E+03 -3.019002E+04 -6.974604E-12 -2.584153E-09
       298  19  3.381296E+05 -1.541980E+04 -1.286253E+04 -3.012981E+04 -2.217368E+03 -2.040145E+03
       298  20  3.890664E+05 -3.308426E+03 -1.354573E+03  3.683021E+02 -1.303173E+03 -2.574687E+02
       298  21  4.399274E+05  9.611674E+03  1.086715E+04 -3.040898E+04 -3.888031E+02  1.542242E+03
       298  22  4.019921E+05  4.568775E+02  2.681104E+03 -3.029881E+04 -1.662919E+03 -2.041589E+03
       298  23  4.020303E+05 -7.935209E+01  1.832014E+03  3.385014E+02 -7.433177E+02 -2.589339E+02
       298  24  4.019921E+05  1.944305E+02  1.700741E+03 -3.029950E+04  1.763839E+02  1.540747E+03
       298  25  4.658582E+05  1.633326E+04  1.822444E+04 -3.046782E+04 -1.108413E+03 -2.043034E+03
       298  26  4.149944E+05  3.149710E+03  5.018591E+03  3.087002E+02 -1.834512E+02 -2.603991E+02
       298  27  3.640581E+05 -9.222918E+03 -7.465771E+03 -3.019002E+04  7.415366E+02  1.539253E+03
       299   1  5.711967E+05  4.234129E+04  4.355908E+04 -3.066426E+04  6.644348E+01 -2.595973E+03
       299   2  6.223489E+05  5.476474E+04  5.660290E+04  6.281471E+01 -1.157155E+03 -4.399778E+03
       299   3  6.737001E+05  6.821536E+04  7.065255E+04 -3.088964E+04 -2.379651E+03 -6.197239E+03
       299   4  4.020439E+05  1.809832E+02  1.821192E+03 -3.038971E+04 -4.986039E+02 -2.594551E+03
       299   5  4.019466E+05 -1.262631E+02  2.428268E+03  4.511769E+02 -1.719873E+03 -4.398550E+03
       299   6  4.020448E+05  5.934109E+02  4.039809E+03 -3.038882E+04 -2.939940E+03 -6.196197E+03
       299   7  2.329170E+05 -4.198146E+04 -3.991881E+04 -3.011521E+04 -1.063498E+03 -2.593129E+03
       299   8  1.815884E+05 -5.502088E+04 -5.174994E+04  8.394272E+02 -2.282392E+03 -4.397323E+03
       299   9  1.304566E+05 -6.703401E+04 -6.257834E+04 -2.988819E+04 -3.499984E+03 -6.195156E+03
       299  10  5.711967E+05  4.234128E+04  4.355907E+04 -3.066426E+04 -8.865989E-10  1.565166E-09
       299  11  6.223489E+05  5.476472E+04  5.660286E+04  6.281061E+01  3.986262E-11  3.773550E-09
       299  12  6.737001E+05  6.821532E+04  7.065247E+04 -3.088965E+04  9.538383E-10 -2.856629E-09
       299  13  4.020439E+05  1.809759E+02  1.821179E+03 -3.038971E+04 -8.249396E-10  2.670882E-10
       299  14  4.019465E+05 -1.262846E+02  2.428226E+03  4.511709E+02 -4.294273E-10 -9.454545E-10
       299  15  4.020447E+05  5.933673E+02  4.039721E+03 -3.038884E+04 -5.792625E-10 -7.095100E-10
       299  16  2.329170E+05 -4.198146E+04 -3.991883E+04 -3.011522E+04  1.270739E-09  9.191454E-12
       299  17  1.815883E+05 -5.502090E+04 -5.174998E+04  8.394191E+02 -5.283498E-10 -1.795281E-10
       299  18  1.304566E+05 -6.703405E+04 -6.257844E+04 -2.988821E+04 -1.561462E-09 -4.639722E-10
       299  19  5.711967E+05  4.234129E+04  4.355908E+04 -3.066426E+04 -6.644348E+01  2.595973E+03
       299  20  6.223489E+05  5.476474E+04  5.660290E+04  6.281471E+01  1.157155E+03  4.399778E+03
       299  21  6.737001E+05  6.821536E+04  7.065255E+04 -3.088964E+04  2.379651E+03  6.197239E+03
       299  22  4.020439E+05  1.809832E+02  1.821192E+03 -3.038971E+04  4.986039E+02  2.594551E+03
       299  23  4.019466E+05 -1.262631E+02  2.428268E+03  4.511769E+02  1.719873E+03  4.398550E+03
       299  24  4.020448E+05  5.934109E+02  4.039809E+03 -3.038882E+04  2.939940E+03  6.196197E+03
       299  25  2.329170E+05 -4.198146E+04 -3.991881E+04 -3.011521E+04  1.063498E+03  2.593129E+03
       299  26  1.815884E+05 -5.502088E+04 -5.174994E+04  8.394272E+02  2.282392E+03  4.397323E+03
       299  27  1.304566E+05 -6.703401E+04 -6.257834E+04 -2.988819E+04  3.499984E+03  6.195156E+03
       300   1  8.072539E+05  1.008010E+05  1.047780E+05 -3.087859E+04 -3.166800E+03 -7.293380E+03
       300   2  8.584424E+05  1.129626E+05  1.207653E+05  1.838889E+02 -7.515974E+03 -9.138593E+03
       300   3  9.119948E+05  1.308180E+05  1.410786E+05 -3.176514E+04 -1.186277E+04 -1.079349E+04
       300   4  4.024954E+05 -2.169933E+01  5.141237E+03 -3.068752E+04 -3.773637E+03 -7.292479E+03
       300   5  4.013199E+05 -8.654750E+02  8.425753E+03  8.219732E+02 -8.060583E+03 -9.138200E+03
       300   6  4.024964E+05  3.976238E+03  1.599539E+04 -3.068290E+04 -1.234479E+04 -1.079354E+04
       300   7 -2.114344E+03 -1.008566E+05 -9.450758E+04 -3.049649E+04 -4.380079E+03 -7.291579E+03
       300   8 -5.561280E+04 -1.147091E+05 -1.039292E+05  1.459659E+03 -8.604790E+03 -9.137809E+03
       300   9 -1.067661E+05 -1.228848E+05 -1.091068E+05 -2.960147E+04 -1.282641E+04 -1.079359E+04
       300  10  8.072539E+05  1.008010E+05  1.047779E+05 -3.087861E+04 -3.607559E-10 -2.875843E-09
       300  11  8.584424E+05  1.129625E+05  1.207651E+05  1.838336E+02  5.207274E-10  5.182320E-10
       300  12  9.119946E+05  1.308179E+05  1.410781E+05 -3.176524E+04  1.150133E-09  5.396789E-10
       300  13  4.024953E+05 -2.176027E+01  5.141110E+03 -3.068754E+04 -1.378951E-09 -1.680707E-10
       300  14  4.013198E+05 -8.655821E+02  8.425474E+03  8.219139E+02 -4.662554E-10 -8.903325E-10
       300  15  4.024962E+05  3.976072E+03  1.599488E+04 -3.068300E+04 -1.427380E-09  4.314046E-10
       300  16 -2.114379E+03 -1.008567E+05 -9.450771E+04 -3.049652E+04  5.156518E-10 -4.806069E-10
       300  17 -5.561290E+04 -1.147092E+05 -1.039295E+05  1.459596E+03 -1.725621E-09  1.604397E-09
       300  18 -1.067663E+05 -1.228850E+05 -1.091074E+05 -2.960158E+04 -2.237413E-09  2.162546E-10
       300  19  8.072539E+05  1.008010E+05  1.047780E+05 -3.087859E+04  3.166800E+03  7.293380E+03
       300  20  8.584424E+05  1.129626E+05  1.207653E+05  1.838889E+02  7.515974E+03  9.138593E+03
       300  21  9.119948E+05  1.308180E+05  1.410786E+05 -3.176514E+04  1.186277E+04  1.079349E+04
       300  22  4.024954E+05 -2.169933E+01  5.141237E+03 -3.068752E+04  3.773637E+03  7.292479E+03
       300  23  4.013199E+05 -8.654750E+02  8.425753E+03  8.219732E+02  8.060583E+03  9.138200E+03
       300  24  4.024964E+05  3.976238E+03  1.599539E+04 -3.068290E+04  1.234479E+04  1.079354E+04
       300  25 -2.114344E+03 -1.008566E+05 -9.450758E+04 -3.049649E+04  4.380079E+03  7.291579E+03
       300  26 -5.561280E+04 -1.147091E+05 -1.039292E+05  1.459659E+03  8.604790E+03  9.137809E+03
       300  27 -1.067661E+05 -1.228848E+05 -1.091068E+05 -2.960147E+04  1.282641E+04  1.079359E+04
       301   1  1.051523E+06  1.597846E+05  1.792109E+05 -2.854248E+04 -1.468020E+04 -1.218557E+04
       301   2  1.098754E+06  1.682176E+05  2.050294E+05 -1.356034E+01 -3.240691E+04 -1.420470E+04
       301   3  1.160106E+06  2.182479E+05  2.530606E+05 -3.678812E+04 -5.013216E+04 -1.433020E+04
       301   4  4.050420E+05 -1.199399E+03  2.020597E+04 -3.119302E+04 -1.559918E+04 -1.218560E+04
       301   5  3.980260E+05 -6.236694E+03  3.288682E+04  1.453454E+03 -3.271711E+04 -1.420577E+04
       301   6  4.050385E+05  3.024330E+04  6.737617E+04 -3.120784E+04 -4.983203E+04 -1.433160E+04
       301   7 -2.410597E+05 -1.622144E+05 -1.388297E+05 -3.384071E+04 -1.651719E+04 -1.218562E+04
       301   8 -3.022560E+05 -1.807274E+05 -1.392919E+05  2.918818E+03 -3.302694E+04 -1.420685E+04
       301   9 -3.495114E+05 -1.578035E+05 -1.183502E+05 -2.563441E+04 -4.953224E+04 -1.433301E+04
       301  10  1.051523E+06  1.597844E+05  1.792102E+05 -2.854262E+04  6.486175E-10  4.993405E-10
       301  11  1.098753E+06  1.682171E+05  2.050271E+05 -1.393083E+01 -8.107260E-10  1.139017E-09
       301  12  1.160104E+06  2.182470E+05  2.530555E+05 -3.678870E+04 -1.518024E-09  7.541198E-10
       301  13  4.050417E+05 -1.199624E+03  2.020523E+04 -3.119317E+04 -9.159553E-10  5.292196E-10
       301  14  3.980248E+05 -6.237198E+03  3.288443E+04  1.453079E+03 -4.156890E-10 -4.471391E-10
       301  15  4.050358E+05  3.024241E+04  6.737112E+04 -3.120842E+04  1.723202E-10  3.896837E-10
       301  16 -2.410601E+05 -1.622147E+05 -1.388305E+05 -3.384088E+04 -1.266117E-09  2.243702E-10
       301  17 -3.022573E+05 -1.807279E+05 -1.392943E+05  2.918440E+03 -6.622866E-11  9.420864E-11
       301  18 -3.495141E+05 -1.578044E+05 -1.183552E+05 -2.563498E+04  1.010131E-09  3.087648E-10
       301  19  1.051523E+06  1.597846E+05  1.792109E+05 -2.854248E+04  1.468020E+04  1.218557E+04
       301  20  1.098754E+06  1.682176E+05  2.050294E+05 -1.356034E+01  3.240691E+04  1.420470E+04
       301  21  1.160106E+06  2.182479E+05  2.530606E+05 -3.678812E+04  5.013216E+04  1.433020E+04
       301  22  4.050420E+05 -1.199399E+03  2.020597E+04 -3.119302E+04  1.559918E+04  1.218560E+04
       301  23  3.980260E+05 -6.236694E+03  3.288682E+04  1.453454E+03  3.271711E+04  1.420577E+04
       301  24  4.050385E+05  3.024330E+04  6.737617E+04 -3.120784E+04  4.983203E+04  1.433160E+04
       301  25 -2.410597E+05 -1.622144E+05 -1.388297E+05 -3.384071E+04  1.651719E+04  1.218562E+04
       301  26 -3.022560E+05 -1.807274E+05 -1.392919E+05  2.918818E+03  3.302694E+04  1.420685E+04
       301  27 -3.495114E+05 -1.578035E+05 -1.183502E+05 -2.563441E+04  4.953224E+04  1.433301E+04
       302   1  1.319479E+06  2.138647E+05  3.024543E+05 -8.971942E+03 -5.958519E+04 -1.804677E+04
       302   2  1.331710E+06  1.916775E+05  3.608790E+05 -8.913046E+03 -1.338592E+05 -2.121993E+04
       302   3  1.434246E+06  4.803221E+05  5.458997E+05 -7.788921E+04 -2.081823E+05 -7.751731E+03
       302   4  4.217494E+05 -9.672190E+03  8.189683E+04 -3.183489E+04 -6.308685E+04 -1.804998E+04
       302   5  3.769786E+05 -4.586165E+04  1.267138E+05  2.358096E+03 -1.320679E+05 -2.122114E+04
       302   6  4.217221E+05  2.281125E+05  2.945906E+05 -3.248487E+04 -2.010905E+05 -7.747846E+03
       302   7 -4.752472E+05 -2.332670E+05 -1.387196E+05 -5.466495E+04 -6.658341E+04 -1.805294E+04
       302   8 -5.769238E+05 -2.834678E+05 -1.075182E+05  1.361149E+04 -1.302792E+05 -2.122229E+04
       302   9 -5.898674E+05 -2.416584E+04  4.320648E+04  1.284487E+04 -1.940100E+05 -7.742931E+03
       302  10  1.319475E+06  2.138634E+05  3.024471E+05 -8.972807E+03 -2.272435E-09  3.131906E-10
       302  11  1.331691E+06  1.916722E+05  3.608446E+05 -8.915332E+03 -1.694546E-09  3.578308E-10
       302  12  1.434199E+06  4.803105E+05  5.458183E+05 -7.789051E+04  9.764443E-10 -7.813171E-10
       302  13  4.217451E+05 -9.673607E+03  8.188875E+04 -3.183580E+04  1.273503E-09  2.217656E-09
       302  14  3.769598E+05 -4.586682E+04  1.266802E+05  2.355840E+03 -3.455055E-10  3.909200E-09
       302  15  4.216787E+05  2.281016E+05  2.945146E+05 -3.248613E+04  1.045583E-09 -3.293302E-10
       302  16 -4.752520E+05 -2.332685E+05 -1.387286E+05 -5.466591E+04  2.167770E-09  8.696247E-10
       302  17 -5.769422E+05 -2.834728E+05 -1.075510E+05  1.360926E+04  1.571048E-09  1.081319E-09
       302  18 -5.899079E+05 -2.417602E+04  4.313557E+04  1.284366E+04 -1.052789E-09 -1.003194E-09
       302  19  1.319479E+06  2.138647E+05  3.024543E+05 -8.971942E+03  5.958519E+04  1.804677E+04
       302  20  1.331710E+06  1.916775E+05  3.608790E+05 -8.913046E+03  1.338592E+05  2.121993E+04
       302  21  1.434246E+06  4.803221E+05  5.458997E+05 -7.788921E+04  2.081823E+05  7.751731E+03
       302  22  4.217494E+05 -9.672190E+03  8.189683E+04 -3.183489E+04  6.308685E+04  1.804998E+04
       302  23  3.769786E+05 -4.586165E+04  1.267138E+05  2.358096E+03  1.320679E+05  2.122114E+04
       302  24  4.217221E+05  2.281125E+05  2.945906E+05 -3.248487E+04  2.010905E+05  7.747846E+03
       302  25 -4.752472E+05 -2.332670E+05 -1.387196E+05 -5.466495E+04  6.658341E+04  1.805294E+04
       302  26 -5.769238E+05 -2.834678E+05 -1.075182E+05  1.361149E+04  1.302792E+05  2.122229E+04
       302  27 -5.898674E+05 -2.416584E+04  4.320648E+04  1.284487E+04  1.940100E+05  7.742931E+03
       303   1  2.234304E+05  6.856879E+05  2.562053E+05 -7.780046E+04  2.825466E+03  1.046447E+05
       303   2  6.145481E+04  5.711391E+05  1.472466E+05 -4.722734E+03  7.626126E+03  6.718582E+04
       303   3  5.686686E+04  5.007057E+05  1.019845E+05 -4.266729E+04  4.046991E+03  2.971814E+04
       303   4  1.154962E+05  2.535289E+05  1.488172E+05 -5.333857E+04  2.833316E+03  1.018099E+05
       303   5 -2.308061E+04  2.316920E+05  6.399175E+04  2.094091E+03  7.627400E+03  6.698968E+04
       303   6 -4.679068E+03  2.535368E+05  4.106412E+04 -5.349638E+04  4.041800E+03  3.215502E+04
       303   7  7.550166E+03 -1.784595E+05  4.141549E+04 -2.889363E+04  2.840947E+03  9.897705E+04
       303   8 -1.076244E+05 -1.076501E+05 -1.927147E+04  8.907227E+03  7.628670E+03  6.679365E+04
       303   9 -6.622909E+04  6.423645E+03 -1.986065E+04 -6.432112E+04  4.036523E+03  3.459094E+04
       303  10  2.234275E+05  6.856761E+05  2.561847E+05 -7.780070E+04 -6.653225E-10 -4.013904E-10
       303  11  6.145354E+04  5.711343E+05  1.472380E+05 -4.723147E+03 -9.862417E-10 -7.705173E-10
       303  12  5.686661E+04  5.007047E+05  1.019828E+05 -4.266739E+04  7.841626E-10 -3.690962E-10
       303  13  1.154934E+05  2.535178E+05  1.487977E+05 -5.333880E+04  9.441616E-11 -4.209533E-10
       303  14 -2.308188E+04  2.316872E+05  6.398321E+04  2.093680E+03 -2.079543E-09  4.937440E-11
       303  15 -4.679363E+03  2.535356E+05  4.106214E+04 -5.349648E+04  5.088299E-10 -9.269652E-10
       303  16  7.547527E+03 -1.784700E+05  4.139706E+04 -2.889386E+04 -2.584656E-10  2.250272E-10
       303  17 -1.076257E+05 -1.076549E+05 -1.927997E+04  8.906816E+03 -5.906948E-11  1.374511E-09
       303  18 -6.622943E+04  6.422356E+03 -1.986293E+04 -6.432123E+04  2.635020E-10  4.085874E-11
       303  19  2.234304E+05  6.856879E+05  2.562053E+05 -7.780046E+04 -2.825466E+03 -1.046447E+05
       303  20  6.145481E+04  5.711391E+05  1.472466E+05 -4.722734E+03 -7.626126E+03 -6.718582E+04
       303  21  5.686686E+04  5.007057E+05  1.019845E+05 -4.266729E+04 -4.046991E+03 -2.971814E+04
       303  22  1.154962E+05  2.535289E+05  1.488172E+05 -5.333857E+04 -2.833316E+03 -1.018099E+05
       303  23 -2.308061E+04  2.316920E+05  6.399175E+04  2.094091E+03 -7.627400E+03 -6.698968E+04
       303  24 -4.679068E+03  2.535368E+05  4.106412E+04 -5.349638E+04 -4.041800E+03 -3.215502E+04
       303  25  7.550166E+03 -1.784595E+05  4.141549E+04 -2.889363E+04 -2.840947E+03 -9.897705E+04
       303  26 -1.076244E+05 -1.076501E+05 -1.927147E+04  8.907227E+03 -7.628670E+03 -6.679365E+04
       303  27 -6.622909E+04  6.423645E+03 -1.986065E+04 -6.432112E+04 -4.036523E+03 -3.459094E+04
       304   1  1.802761E+04  2.549198E+05  3.595692E+04 -5.635909E+04  6.678873E+02  2.472893E+04
       304   2 -2.352843E+04  1.598693E+05 -4.238418E+03  1.411772E+03 -1.710700E+03  1.649052E+04
       304   3 -4.438230E+04  7.057349E+04 -3.400200E+04 -5.172334E+04 -3.795442E+03  8.254553E+03
       304   4  1.559427E+04  2.451265E+05  3.365236E+04 -5.339220E+04  6.663966E+02  2.552324E+04
       304   5 -3.010201E+03  2.422462E+05  1.600942E+04  2.043995E+03 -1.712003E+03  1.719351E+04
       304   6 -8.967738E+02  2.451296E+05  8.863212E+03 -5.342453E+04 -3.796533E+03  8.865020E+03
       304   7  1.316095E+04  2.353332E+05  3.134779E+04 -5.042535E+04  6.649135E+02  2.631755E+04
       304   8  1.750752E+04  3.246292E+05  3.625677E+04  2.676305E+03 -1.713304E+03  1.789660E+04
       304   9  4.258650E+04  4.197135E+05  5.172618E+04 -5.512619E+04 -3.797626E+03  9.475657E+03
       304  10  1.802745E+04  2.549192E+05  3.595578E+04 -5.635911E+04  2.927889E-10 -9.484382E-10
       304  11 -2.352851E+04  1.598690E+05 -4.238934E+03  1.411794E+03  4.379646E-10 -1.165819E-09
       304  12 -4.438233E+04  7.057341E+04 -3.400215E+04 -5.172332E+04 -7.949566E-10 -5.019697E-10
       304  13  1.559409E+04  2.451258E+05  3.365113E+04 -5.339221E+04  2.955727E-10 -4.423832E-10
       304  14 -3.010284E+03  2.422459E+05  1.600886E+04  2.044019E+03  1.297717E-09 -9.916616E-11
       304  15 -8.968103E+02  2.451295E+05  8.863038E+03 -5.342451E+04  1.349647E-09 -1.157659E-09
       304  16  1.316076E+04  2.353325E+05  3.134649E+04 -5.042537E+04  5.624509E-10  6.976563E-10
       304  17  1.750744E+04  3.246289E+05  3.625616E+04  2.676330E+03 -1.171011E-09  1.784113E-09
       304  18  4.258646E+04  4.197134E+05  5.172599E+04 -5.512616E+04 -3.964563E-10  2.564766E-10
       304  19  1.802761E+04  2.549198E+05  3.595692E+04 -5.635909E+04 -6.678873E+02 -2.472893E+04
       304  20 -2.352843E+04  1.598693E+05 -4.238418E+03  1.411772E+03  1.710700E+03 -1.649052E+04
       304  21 -4.438230E+04  7.057349E+04 -3.400200E+04 -5.172334E+04  3.795442E+03 -8.254553E+03
       304  22  1.559427E+04  2.451265E+05  3.365236E+04 -5.339220E+04 -6.663966E+02 -2.552324E+04
       304  23 -3.010201E+03  2.422462E+05  1.600942E+04  2.043995E+03  1.712003E+03 -1.719351E+04
       304  24 -8.967738E+02  2.451296E+05  8.863212E+03 -5.342453E+04  3.796533E+03 -8.865020E+03
       304  25  1.316095E+04  2.353332E+05  3.134779E+04 -5.042535E+04 -6.649135E+02 -2.631755E+04
       304  26  1.750752E+04  3.246292E+05  3.625677E+04  2.676305E+03  1.713304E+03 -1.789660E+04
       304  27  4.258650E+04  4.197135E+05  5.172618E+04 -5.512619E+04  3.797626E+03 -9.475657E+03
       305   1 -1.003945E+05 -1.683831E+05 -9.504608E+04 -5.305084E+04 -7.522588E+03  4.565972E+03
       305   2 -1.256233E+05 -2.610522E+05 -1.223251E+05  2.416087E+03 -1.134570E+04  7.231906E+03
       305   3 -1.523853E+05 -3.540174E+05 -1.516419E+05 -5.361875E+04 -4.163583E+03  9.909705E+03
       305   4  2.361783E+03  2.438687E+05  6.488157E+03 -5.354183E+04 -7.527222E+03  7.477314E+03
       305   5  1.149012E+02  2.437256E+05  1.570766E+03  2.203247E+03 -1.134450E+04  6.710798E+03
       305   6 -3.067753E+03  2.438745E+05 -2.999570E+03 -5.354785E+04 -4.160467E+03  5.956609E+03
       305   7  1.051054E+05  6.562750E+05  1.080099E+05 -5.403308E+04 -7.531858E+03  1.039059E+04
       305   8  1.258342E+05  7.487354E+05  1.254479E+05  1.990301E+03 -1.134330E+04  6.189265E+03
       305   9  1.462229E+05  8.420909E+05  1.456160E+05 -5.347682E+04 -4.157354E+03  1.999705E+03
       305  10 -1.003946E+05 -1.683831E+05 -9.504623E+04 -5.305082E+04 -1.426480E-10 -8.261933E-10
       305  11 -1.256235E+05 -2.610523E+05 -1.223254E+05  2.416153E+03  7.597666E-11 -5.791834E-10
       305  12 -1.523853E+05 -3.540176E+05 -1.516421E+05 -5.361872E+04  2.285748E-10  6.047928E-11
       305  13  2.361707E+03  2.438686E+05  6.487945E+03 -5.354179E+04 -7.270380E-10 -4.614672E-10
       305  14  1.147509E+02  2.437255E+05  1.570440E+03  2.203308E+03  1.960594E-10 -4.395837E-11
       305  15 -3.067781E+03  2.438745E+05 -2.999669E+03 -5.354783E+04  2.220120E-11 -3.926274E-10
       305  16  1.051053E+05  6.562749E+05  1.080096E+05 -5.403302E+04  7.128793E-10  4.108524E-10
       305  17  1.258341E+05  7.487354E+05  1.254476E+05  1.990358E+03 -1.521700E-10  8.716237E-10
       305  18  1.462229E+05  8.420909E+05  1.456160E+05 -5.347681E+04 -5.590547E-10 -4.296528E-11
       305  19 -1.003945E+05 -1.683831E+05 -9.504608E+04 -5.305084E+04  7.522588E+03 -4.565972E+03
       305  20 -1.256233E+05 -2.610522E+05 -1.223251E+05  2.416087E+03  1.134570E+04 -7.231906E+03
       305  21 -1.523853E+05 -3.540174E+05 -1.516419E+05 -5.361875E+04  4.163583E+03 -9.909705E+03
       305  22  2.361783E+03  2.438687E+05  6.488157E+03 -5.354183E+04  7.527222E+03 -7.477314E+03
       305  23  1.149012E+02  2.437256E+05  1.570766E+03  2.203247E+03  1.134450E+04 -6.710798E+03
       305  24 -3.067753E+03  2.438745E+05 -2.999570E+03 -5.354785E+04  4.160467E+03 -5.956609E+03
       305  25  1.051054E+05  6.562750E+05  1.080099E+05 -5.403308E+04  7.531858E+03 -1.039059E+04
       305  26  1.258342E+05  7.487354E+05  1.254479E+05  1.990301E+03  1.134330E+04 -6.189265E+03
       305  27  1.462229E+05  8.420909E+05  1.456160E+05 -5.347682E+04  4.157354E+03 -1.999705E+03
       306   1 -2.119082E+06 -6.293976E+05 -4.096414E+05 -7.234877E+05 -2.119526E+05 -7.723698E+04
       306   2 -2.058154E+06 -3.217905E+05 -2.122745E+05 -7.769873E+05 -1.374008E+05 -4.429158E+04
       306   3 -2.122738E+06 -3.411683E+05 -1.598416E+05 -7.529519E+05 -6.099775E+04 -1.627142E+04
       306   4 -1.863866E+06 -4.872034E+05 -3.304406E+05 -6.072070E+05 -2.100452E+05 -7.653920E+04
       306   5 -1.784549E+06 -2.064207E+05 -1.356603E+05 -6.900916E+05 -1.369016E+05 -4.410757E+04
       306   6 -1.830411E+06 -2.522612E+05 -8.464859E+04 -6.954574E+05 -6.190495E+04 -1.660961E+04
       306   7 -1.608581E+06 -3.449785E+05 -2.512461E+05 -4.908753E+05 -2.081370E+05 -7.584074E+04
       306   8 -1.510871E+06 -9.104143E+04 -5.905329E+04 -6.031595E+05 -1.364023E+05 -4.392345E+04
       306   9 -1.538003E+06 -1.633555E+05 -9.462253E+03 -6.379418E+05 -6.281261E+04 -1.694790E+04
       306  10 -2.119132E+06 -6.294161E+05 -4.097374E+05 -7.235009E+05  7.479482E-10 -5.549124E-11
       306  11 -2.058175E+06 -3.217977E+05 -2.123138E+05 -7.769922E+05 -5.047910E-10  4.995316E-10
       306  12 -2.122742E+06 -3.411696E+05 -1.598492E+05 -7.529527E+05 -9.033689E-11  1.989968E-10
       306  13 -1.863915E+06 -4.872216E+05 -3.305349E+05 -6.072199E+05  1.379011E-09 -2.420455E-10
       306  14 -1.784569E+06 -2.064279E+05 -1.356993E+05 -6.900965E+05 -7.836816E-10  1.260624E-10
       306  15 -1.830415E+06 -2.522625E+05 -8.465633E+04 -6.954582E+05  4.370467E-10  2.114471E-11
       306  16 -1.608629E+06 -3.449964E+05 -2.513385E+05 -4.908881E+05  7.591038E-11  1.219029E-10
       306  17 -1.510891E+06 -9.104852E+04 -5.909199E+04 -6.031644E+05 -6.067247E-10 -4.461274E-10
       306  18 -1.538007E+06 -1.633568E+05 -9.470230E+03 -6.379426E+05  3.117863E-10  1.876747E-11
       306  19 -2.119082E+06 -6.293976E+05 -4.096414E+05 -7.234877E+05  2.119526E+05  7.723698E+04
       306  20 -2.058154E+06 -3.217905E+05 -2.122745E+05 -7.769873E+05  1.374008E+05  4.429158E+04
       306  21 -2.122738E+06 -3.411683E+05 -1.598416E+05 -7.529519E+05  6.099775E+04  1.627142E+04
       306  22 -1.863866E+06 -4.872034E+05 -3.304406E+05 -6.072070E+05  2.100452E+05  7.653920E+04
       306  23 -1.784549E+06 -2.064207E+05 -1.356603E+05 -6.900916E+05  1.369016E+05  4.410757E+04
       306  24 -1.830411E+06 -2.522612E+05 -8.464859E+04 -6.954574E+05  6.190495E+04  1.660961E+04
       306  25 -1.608581E+06 -3.449785E+05 -2.512461E+05 -4.908753E+05  2.081370E+05  7.584074E+04
       306  26 -1.510871E+06 -9.104143E+04 -5.905329E+04 -6.031595E+05  1.364023E+05  4.392345E+04
       306  27 -1.538003E+06 -1.633555E+05 -9.462253E+03 -6.379418E+05  6.281261E+04  1.694790E+04
       307   1 -2.067349E+06 -3.905826E+05 -1.383302E+05 -7.491555E+05 -4.914914E+04 -1.284781E+04
       307   2 -2.053437E+06 -3.404777E+05 -9.781565E+04 -7.484397E+05 -3.213949E+04 -6.234984E+03
       307   3 -2.048166E+06 -3.441558E+05 -8.199673E+04 -7.479265E+05 -1.486193E+04 -3.349829E+02
       307   4 -1.818567E+06 -2.908302E+05 -6.950441E+04 -6.754737E+05 -4.900025E+04 -1.279268E+04
       307   5 -1.812003E+06 -2.479922E+05 -3.196062E+04 -6.813542E+05 -3.219176E+04 -6.254830E+03
       307   6 -1.814032E+06 -2.588864E+05 -1.894506E+04 -6.874388E+05 -1.511566E+04 -4.300743E+02
       307   7 -1.569726E+06 -1.910719E+05 -6.842365E+02 -6.017642E+05 -4.885129E+04 -1.273752E+04
       307   8 -1.570513E+06 -1.555028E+05  3.388917E+04 -6.142450E+05 -3.224405E+04 -6.274684E+03
       307   9 -1.579846E+06 -1.736148E+05  4.410177E+04 -6.269310E+05 -1.536949E+04 -5.252018E+02
       307  10 -2.067351E+06 -3.905835E+05 -1.383351E+05 -7.491561E+05 -3.178520E-10  3.217275E-10
       307  11 -2.053438E+06 -3.404781E+05 -9.781767E+04 -7.484399E+05  7.867397E-10  6.687877E-10
       307  12 -2.048166E+06 -3.441559E+05 -8.199714E+04 -7.479265E+05 -1.720773E-10  6.665229E-11
       307  13 -1.818570E+06 -2.908310E+05 -6.950925E+04 -6.754742E+05  4.035523E-10  1.092203E-10
       307  14 -1.812004E+06 -2.479925E+05 -3.196265E+04 -6.813544E+05  1.631192E-09  1.169895E-10
       307  15 -1.814033E+06 -2.588865E+05 -1.894549E+04 -6.874388E+05 -4.928825E-10 -1.593804E-10
       307  16 -1.569729E+06 -1.910727E+05 -6.890396E+02 -6.017647E+05  6.381944E-10 -4.942659E-11
       307  17 -1.570514E+06 -1.555031E+05  3.388714E+04 -6.142452E+05  2.214511E-09  1.122082E-09
       307  18 -1.579846E+06 -1.736149E+05  4.410132E+04 -6.269310E+05  4.838983E-10  4.262036E-10
       307  19 -2.067349E+06 -3.905826E+05 -1.383302E+05 -7.491555E+05  4.914914E+04  1.284781E+04
       307  20 -2.053437E+06 -3.404777E+05 -9.781565E+04 -7.484397E+05  3.213949E+04  6.234984E+03
       307  21 -2.048166E+06 -3.441558E+05 -8.199673E+04 -7.479265E+05  1.486193E+04  3.349829E+02
       307  22 -1.818567E+06 -2.908302E+05 -6.950441E+04 -6.754737E+05  4.900025E+04  1.279268E+04
       307  23 -1.812003E+06 -2.479922E+05 -3.196062E+04 -6.813542E+05  3.219176E+04  6.254830E+03
       307  24 -1.814032E+06 -2.588864E+05 -1.894506E+04 -6.874388E+05  1.511566E+04  4.300743E+02
       307  25 -1.569726E+06 -1.910719E+05 -6.842365E+02 -6.017642E+05  4.885129E+04  1.273752E+04
       307  26 -1.570513E+06 -1.555028E+05  3.388917E+04 -6.142450E+05  3.224405E+04  6.274684E+03
       307  27 -1.579846E+06 -1.736148E+05  4.410177E+04 -6.269310E+05  1.536949E+04  5.252018E+02
       308   1 -2.006864E+06 -3.390212E+05 -6.816834E+04 -7.391937E+05 -1.207916E+04  2.776973E+02
       308   2 -1.997961E+06 -3.212645E+05 -5.671618E+04 -7.285705E+05 -8.015501E+03  1.295767E+03
       308   3 -1.978214E+06 -3.229560E+05 -4.977011E+04 -7.319591E+05 -3.889720E+03  2.147139E+03
       308   4 -1.811606E+06 -2.647360E+05 -1.503080E+04 -6.854585E+05 -1.218590E+04  2.376123E+02
       308   5 -1.816727E+06 -2.528568E+05 -7.475081E+03 -6.792598E+05 -8.169611E+03  1.238016E+03
       308   6 -1.810994E+06 -2.604151E+05 -4.386736E+03 -6.870731E+05 -4.091297E+03  2.071702E+03
       308   7 -1.616311E+06 -1.904486E+05  3.810321E+04 -6.317081E+05 -1.229268E+04  1.975134E+02
       308   8 -1.635461E+06 -1.844472E+05  4.176306E+04 -6.299361E+05 -8.323770E+03  1.180246E+03
       308   9 -1.643746E+06 -1.978727E+05  4.099421E+04 -6.421761E+05 -4.292933E+03  1.996244E+03
       308  10 -2.006865E+06 -3.390212E+05 -6.816861E+04 -7.391937E+05 -9.098941E-11  3.345878E-10
       308  11 -1.997961E+06 -3.212645E+05 -5.671630E+04 -7.285705E+05 -9.308399E-10 -1.434477E-10
       308  12 -1.978214E+06 -3.229560E+05 -4.977015E+04 -7.319591E+05 -2.098085E-10  3.690450E-10
       308  13 -1.811606E+06 -2.647360E+05 -1.503108E+04 -6.854585E+05 -2.383617E-10 -3.619437E-10
       308  14 -1.816727E+06 -2.528568E+05 -7.475210E+03 -6.792598E+05 -5.235579E-10  2.347283E-10
       308  15 -1.810994E+06 -2.604152E+05 -4.386776E+03 -6.870731E+05 -5.604113E-10 -5.145613E-10
       308  16 -1.616311E+06 -1.904486E+05  3.810293E+04 -6.317081E+05 -8.249049E-10 -2.492366E-10
       308  17 -1.635461E+06 -1.844472E+05  4.176293E+04 -6.299361E+05 -1.535909E-09 -5.851393E-10
       308  18 -1.643746E+06 -1.978727E+05  4.099417E+04 -6.421761E+05  1.180726E-10  2.001905E-10
       308  19 -2.006864E+06 -3.390212E+05 -6.816834E+04 -7.391937E+05  1.207916E+04 -2.776973E+02
       308  20 -1.997961E+06 -3.212645E+05 -5.671618E+04 -7.285705E+05  8.015501E+03 -1.295767E+03
       308  21 -1.978214E+06 -3.229560E+05 -4.977011E+04 -7.319591E+05  3.889720E+03 -2.147139E+03
       308  22 -1.811606E+06 -2.647360E+05 -1.503080E+04 -6.854585E+05  1.218590E+04 -2.376123E+02
       308  23 -1.816727E+06 -2.528568E+05 -7.475081E+03 -6.792598E+05  8.169611E+03 -1.238016E+03
       308  24 -1.810994E+06 -2.604151E+05 -4.386736E+03 -6.870731E+05  4.091297E+03 -2.071702E+03
       308  25 -1.616311E+06 -1.904486E+05  3.810321E+04 -6.317081E+05  1.229268E+04 -1.975134E+02
       308  26 -1.635461E+06 -1.844472E+05  4.176306E+04 -6.299361E+05  8.323770E+03 -1.180246E+03
       308  27 -1.643746E+06 -1.978727E+05  4.099421E+04 -6.421761E+05  4.292933E+03 -1.996244E+03
       309   1 -1.931506E+06 -3.073453E+05 -3.636939E+04 -7.202609E+05 -3.130206E+03  2.001900E+03
       309   2 -1.922194E+06 -2.922236E+05 -3.035734E+04 -7.066297E+05 -1.843384E+03  1.775664E+03
       309   3 -1.897445E+06 -2.938809E+05 -2.536704E+04 -7.110592E+05 -5.333464E+02  1.486616E+03
       309   4 -1.810222E+06 -2.616181E+05 -3.482847E+03 -6.872997E+05 -3.302170E+03  1.937576E+03
       309   5 -1.817906E+06 -2.529697E+05 -2.044506E+03 -6.783668E+05 -2.033440E+03  1.704617E+03
       309   6 -1.810148E+06 -2.610963E+05 -1.613353E+03 -6.874944E+05 -7.415311E+02  1.408839E+03
       309   7 -1.688925E+06 -2.158901E+05  2.940238E+04 -6.543327E+05 -3.474171E+03  1.873238E+03
       309   8 -1.713607E+06 -2.137153E+05  2.626732E+04 -6.500997E+05 -2.223532E+03  1.633556E+03
       309   9 -1.722845E+06 -2.283113E+05  2.213960E+04 -6.639267E+05 -9.497477E+02  1.331049E+03
       309  10 -1.931506E+06 -3.073453E+05 -3.636942E+04 -7.202608E+05 -1.141719E-09  1.226885E-10
       309  11 -1.922194E+06 -2.922236E+05 -3.035735E+04 -7.066297E+05 -2.343732E-10  5.194933E-10
       309  12 -1.897445E+06 -2.938809E+05 -2.536704E+04 -7.110592E+05  2.688233E-10 -8.919233E-10
       309  13 -1.810222E+06 -2.616181E+05 -3.482875E+03 -6.872997E+05 -5.278927E-10 -4.700242E-10
       309  14 -1.817906E+06 -2.529697E+05 -2.044519E+03 -6.783668E+05 -1.158733E-09  1.716233E-09
       309  15 -1.810148E+06 -2.610963E+05 -1.613358E+03 -6.874944E+05 -1.208828E-09 -3.303689E-10
       309  16 -1.688925E+06 -2.158901E+05  2.940235E+04 -6.543327E+05 -3.798270E-10  1.200706E-10
       309  17 -1.713607E+06 -2.137153E+05  2.626731E+04 -6.500997E+05 -3.790140E-10  8.188207E-10
       309  18 -1.722845E+06 -2.283113E+05  2.213960E+04 -6.639267E+05 -1.443807E-09 -1.234894E-09
       309  19 -1.931506E+06 -3.073453E+05 -3.636939E+04 -7.202609E+05  3.130206E+03 -2.001900E+03
       309  20 -1.922194E+06 -2.922236E+05 -3.035734E+04 -7.066297E+05  1.843384E+03 -1.775664E+03
       309  21 -1.897445E+06 -2.938809E+05 -2.536704E+04 -7.110592E+05  5.333464E+02 -1.486616E+03
       309  22 -1.810222E+06 -2.616181E+05 -3.482847E+03 -6.872997E+05  3.302170E+03 -1.937576E+03
       309  23 -1.817906E+06 -2.529697E+05 -2.044506E+03 -6.783668E+05  2.033440E+03 -1.704617E+03
       309  24 -1.810148E+06 -2.610963E+05 -1.613353E+03 -6.874944E+05  7.415311E+02 -1.408839E+03
       309  25 -1.688925E+06 -2.158901E+05  2.940238E+04 -6.543327E+05  3.474171E+03 -1.873238E+03
       309  26 -1.713607E+06 -2.137153E+05  2.626732E+04 -6.500997E+05  2.223532E+03 -1.633556E+03
       309  27 -1.722845E+06 -2.283113E+05  2.213960E+04 -6.639267E+05  9.497477E+02 -1.331049E+03
       310   1 -1.846121E+06 -2.750068E+05 -1.136486E+04 -6.976262E+05 -1.207172E+02  1.171339E+03
       310   2 -1.836260E+06 -2.594746E+05 -6.823375E+03 -6.829112E+05  1.113261E+03  8.414897E+02
       310   3 -1.809936E+06 -2.616947E+05 -3.236258E+03 -6.874891E+05  2.348366E+03  5.086218E+02
       310   4 -1.809923E+06 -2.613414E+05 -1.595854E+03 -6.877570E+05 -3.224798E+02  1.095981E+03
       310   5 -1.818186E+06 -2.526864E+05 -1.919499E+03 -6.780280E+05  9.106448E+02  7.658192E+02
       310   6 -1.809986E+06 -2.617838E+05 -3.196895E+03 -6.875922E+05  2.144863E+03  4.326277E+02
       310   7 -1.773725E+06 -2.476758E+05  8.173055E+03 -6.778872E+05 -5.242557E+02  1.020619E+03
       310   8 -1.800112E+06 -2.458982E+05  2.984352E+03 -6.731447E+05  7.080216E+02  6.901463E+02
       310   9 -1.810036E+06 -2.618728E+05 -3.157531E+03 -6.876953E+05  1.941360E+03  3.566338E+02
       310  10 -1.846121E+06 -2.750068E+05 -1.136486E+04 -6.976262E+05  2.181683E-10  1.805990E-10
       310  11 -1.836260E+06 -2.594746E+05 -6.823379E+03 -6.829112E+05  2.636484E-09  9.234926E-10
       310  12 -1.809936E+06 -2.616947E+05 -3.236269E+03 -6.874891E+05  4.690360E-09  3.724108E-10
       310  13 -1.809923E+06 -2.613414E+05 -1.595856E+03 -6.877570E+05 -1.648400E-09 -1.158422E-09
       310  14 -1.818186E+06 -2.526864E+05 -1.919502E+03 -6.780280E+05  1.456186E-09  2.943496E-09
       310  15 -1.809986E+06 -2.617838E+05 -3.196904E+03 -6.875922E+05  1.984768E-09  1.896002E-09
       310  16 -1.773725E+06 -2.476758E+05  8.173052E+03 -6.778872E+05 -7.131841E-10 -6.740437E-10
       310  17 -1.800112E+06 -2.458982E+05  2.984350E+03 -6.731447E+05 -1.101534E-09 -9.662784E-10
       310  18 -1.810036E+06 -2.618728E+05 -3.157539E+03 -6.876953E+05 -1.307085E-10 -7.117925E-10
       310  19 -1.846121E+06 -2.750068E+05 -1.136486E+04 -6.976262E+05  1.207172E+02 -1.171339E+03
       310  20 -1.836260E+06 -2.594746E+05 -6.823375E+03 -6.829112E+05 -1.113261E+03 -8.414897E+02
       310  21 -1.809936E+06 -2.616947E+05 -3.236258E+03 -6.874891E+05 -2.348366E+03 -5.086218E+02
       310  22 -1.809923E+06 -2.613414E+05 -1.595854E+03 -6.877570E+05  3.224798E+02 -1.095981E+03
       310  23 -1.818186E+06 -2.526864E+05 -1.919499E+03 -6.780280E+05 -9.106448E+02 -7.658192E+02
       310  24 -1.809986E+06 -2.617838E+05 -3.196895E+03 -6.875922E+05 -2.144863E+03 -4.326277E+02
       310  25 -1.773725E+06 -2.476758E+05  8.173055E+03 -6.778872E+05  5.242557E+02 -1.020619E+03
       310  26 -1.800112E+06 -2.458982E+05  2.984352E+03 -6.731447E+05 -7.080216E+02 -6.901463E+02
       310  27 -1.810036E+06 -2.618728E+05 -3.157531E+03 -6.876953E+05 -1.941360E+03 -3.566338E+02
       311   1 -1.758010E+06 -2.417917E+05  1.017790E+04 -6.740742E+05  3.117815E+03  3.106895E+02
       311   2 -1.747953E+06 -2.257582E+05  1.213875E+04 -6.592669E+05  6.851560E+03  9.045323E+02
       311   3 -1.723886E+06 -2.316355E+05  1.004041E+04 -6.621412E+05  1.054962E+04  1.594686E+03
       311   4 -1.810307E+06 -2.610949E+05 -4.012280E+03 -6.878373E+05  2.898845E+03  2.289130E+02
       311   5 -1.817585E+06 -2.520904E+05 -6.786546E+03 -6.782677E+05  6.660245E+03  8.330522E+02
       311   6 -1.810859E+06 -2.650027E+05 -1.364236E+04 -6.863800E+05  1.038586E+04  1.533463E+03
       311   7 -1.862602E+06 -2.803980E+05 -1.820268E+04 -7.015992E+05  2.679895E+03  1.471439E+02
       311   8 -1.887213E+06 -2.784223E+05 -2.571228E+04 -6.972665E+05  6.468954E+03  7.615810E+02
       311   9 -1.897825E+06 -2.983694E+05 -3.732586E+04 -7.106157E+05  1.022213E+04  1.472250E+03
       311  10 -1.758010E+06 -2.417917E+05  1.017788E+04 -6.740742E+05  1.027305E-09 -1.487433E-09
       311  11 -1.747953E+06 -2.257582E+05  1.213866E+04 -6.592669E+05 -1.723034E-09 -1.327654E-09
       311  12 -1.723886E+06 -2.316356E+05  1.004020E+04 -6.621412E+05 -7.827651E-10  4.282884E-10
       311  13 -1.810307E+06 -2.610949E+05 -4.012296E+03 -6.878373E+05  3.323090E-09  3.040052E-09
       311  14 -1.817585E+06 -2.520904E+05 -6.786631E+03 -6.782677E+05  1.284384E-09  2.245168E-09
       311  15 -1.810859E+06 -2.650027E+05 -1.364257E+04 -6.863800E+05 -4.549915E-10  4.169144E-10
       311  16 -1.862602E+06 -2.803980E+05 -1.820269E+04 -7.015992E+05  4.138388E-09  1.340060E-09
       311  17 -1.887213E+06 -2.784223E+05 -2.571236E+04 -6.972666E+05  2.869621E-09  1.800631E-09
       311  18 -1.897825E+06 -2.983694E+05 -3.732606E+04 -7.106157E+05  1.502048E-09  1.715517E-09
       311  19 -1.758010E+06 -2.417917E+05  1.017790E+04 -6.740742E+05 -3.117815E+03 -3.106895E+02
       311  20 -1.747953E+06 -2.257582E+05  1.213875E+04 -6.592669E+05 -6.851560E+03 -9.045323E+02
       311  21 -1.723886E+06 -2.316355E+05  1.004041E+04 -6.621412E+05 -1.054962E+04 -1.594686E+03
       311  22 -1.810307E+06 -2.610949E+05 -4.012280E+03 -6.878373E+05 -2.898845E+03 -2.289130E+02
       311  23 -1.817585E+06 -2.520904E+05 -6.786546E+03 -6.782677E+05 -6.660245E+03 -8.330522E+02
       311  24 -1.810859E+06 -2.650027E+05 -1.364236E+04 -6.863800E+05 -1.038586E+04 -1.533463E+03
       311  25 -1.862602E+06 -2.803980E+05 -1.820268E+04 -7.015992E+05 -2.679895E+03 -1.471439E+02
       311  26 -1.887213E+06 -2.784223E+05 -2.571228E+04 -6.972665E+05 -6.468954E+03 -7.615810E+02
       311  27 -1.897825E+06 -2.983694E+05 -3.732586E+04 -7.106157E+05 -1.022213E+04 -1.472250E+03
       312   1 -1.675045E+06 -2.108716E+05  1.972003E+04 -6.540016E+05  1.337191E+04  2.124065E+03
       312   2 -1.663217E+06 -1.893464E+05  1.211297E+04 -6.375806E+05  2.877797E+04  7.117280E+03
       312   3 -1.653603E+06 -2.222069E+05 -1.763439E+04 -6.279437E+05  4.397102E+04  1.268140E+04
       312   4 -1.812759E+06 -2.600076E+05 -1.719175E+04 -6.885259E+05  1.309103E+04  2.019123E+03
       312   5 -1.813681E+06 -2.472888E+05 -2.897660E+04 -6.797202E+05  2.865982E+04  7.072963E+03
       312   6 -1.816852E+06 -2.889946E+05 -6.303526E+04 -6.776983E+05  4.401521E+04  1.269740E+04
       312   7 -1.950455E+06 -3.091429E+05 -5.410519E+04 -7.230434E+05  1.281023E+04  1.914203E+03
       312   8 -1.964123E+06 -3.052296E+05 -7.006819E+04 -7.218505E+05  2.854169E+04  7.028658E+03
       312   9 -1.980075E+06 -3.557793E+05 -1.084385E+05 -7.274405E+05  4.405938E+04  1.271339E+04
       312  10 -1.675045E+06 -2.108717E+05  1.971968E+04 -6.540016E+05 -2.244374E-09 -9.721007E-10
       312  11 -1.663218E+06 -1.893466E+05  1.211131E+04 -6.375808E+05 -2.166918E-09 -3.217493E-09
       312  12 -1.653605E+06 -2.222076E+05 -1.763834E+04 -6.279442E+05  5.182525E-10 -4.116566E-10
       312  13 -1.812759E+06 -2.600076E+05 -1.719208E+04 -6.885259E+05 -4.919992E-10  1.689642E-09
       312  14 -1.813682E+06 -2.472890E+05 -2.897824E+04 -6.797204E+05  5.860897E-11 -1.338233E-10
       312  15 -1.816854E+06 -2.889953E+05 -6.303922E+04 -6.776988E+05 -1.285980E-09 -1.233849E-09
       312  16 -1.950456E+06 -3.091430E+05 -5.410551E+04 -7.230434E+05  1.045719E-09 -2.372645E-10
       312  17 -1.964124E+06 -3.052298E+05 -7.006982E+04 -7.218506E+05 -3.641651E-10  6.694932E-10
       312  18 -1.980077E+06 -3.557800E+05 -1.084425E+05 -7.274410E+05 -3.075234E-09 -1.698628E-09
       312  19 -1.675045E+06 -2.108716E+05  1.972003E+04 -6.540016E+05 -1.337191E+04 -2.124065E+03
       312  20 -1.663217E+06 -1.893464E+05  1.211297E+04 -6.375806E+05 -2.877797E+04 -7.117280E+03
       312  21 -1.653603E+06 -2.222069E+05 -1.763439E+04 -6.279437E+05 -4.397102E+04 -1.268140E+04
       312  22 -1.812759E+06 -2.600076E+05 -1.719175E+04 -6.885259E+05 -1.309103E+04 -2.019123E+03
       312  23 -1.813681E+06 -2.472888E+05 -2.897660E+04 -6.797202E+05 -2.865982E+04 -7.072963E+03
       312  24 -1.816852E+06 -2.889946E+05 -6.303526E+04 -6.776983E+05 -4.401521E+04 -1.269740E+04
       312  25 -1.950455E+06 -3.091429E+05 -5.410519E+04 -7.230434E+05 -1.281023E+04 -1.914203E+03
       312  26 -1.964123E+06 -3.052296E+05 -7.006819E+04 -7.218505E+05 -2.854169E+04 -7.028658E+03
       312  27 -1.980075E+06 -3.557793E+05 -1.084385E+05 -7.274405E+05 -4.405938E+04 -1.271339E+04
       313   1 -1.605697E+06 -1.900505E+05 -2.037534E+04 -6.558433E+05  5.660698E+04  1.635337E+04
       313   2 -1.577180E+06 -1.185986E+05 -6.343559E+04 -6.185654E+05  1.235453E+05  4.053271E+04
       313   3 -1.655272E+06 -3.498009E+05 -2.359200E+05 -5.187947E+05  1.889348E+05  6.885798E+04
       313   4 -1.827423E+06 -2.541820E+05 -7.676664E+04 -6.960054E+05  5.576436E+04  1.604007E+04
       313   5 -1.789061E+06 -2.093253E+05 -1.230145E+05 -6.873435E+05  1.238873E+05  4.065793E+04
       313   6 -1.857585E+06 -4.674249E+05 -2.996625E+05 -6.161782E+05  1.904619E+05  6.941453E+04
       313   7 -2.049102E+06 -3.183148E+05 -1.331617E+05 -7.361569E+05  5.492206E+04  1.572683E+04
       313   8 -2.000897E+06 -3.000456E+05 -1.825976E+05 -7.560991E+05  1.242291E+05  4.078309E+04
       313   9 -2.059852E+06 -5.850256E+05 -3.634086E+05 -7.135271E+05  1.919885E+05  6.997060E+04
       313  10 -1.605701E+06 -1.900517E+05 -2.038189E+04 -6.558441E+05  5.680894E-11  4.209124E-10
       313  11 -1.577197E+06 -1.186044E+05 -6.346746E+04 -6.185695E+05 -2.941467E-10 -8.689959E-10
       313  12 -1.655312E+06 -3.498156E+05 -2.359962E+05 -5.188052E+05  4.312199E-12 -1.022112E-10
       313  13 -1.827427E+06 -2.541832E+05 -7.677299E+04 -6.960062E+05 -2.130276E-09 -1.474510E-09
       313  14 -1.789078E+06 -2.093312E+05 -1.230465E+05 -6.873476E+05 -2.551736E-10  6.567817E-11
       313  15 -1.857625E+06 -4.674398E+05 -2.997400E+05 -6.161889E+05 -1.418086E-10  2.924221E-10
       313  16 -2.049106E+06 -3.183159E+05 -1.331679E+05 -7.361576E+05 -1.601918E-09 -8.581312E-10
       313  17 -2.000915E+06 -3.000515E+05 -1.826299E+05 -7.561032E+05 -1.498248E-09 -3.067933E-10
       313  18 -2.059894E+06 -5.850408E+05 -3.634874E+05 -7.135380E+05  1.865019E-10  3.593385E-10
       313  19 -1.605697E+06 -1.900505E+05 -2.037534E+04 -6.558433E+05 -5.660698E+04 -1.635337E+04
       313  20 -1.577180E+06 -1.185986E+05 -6.343559E+04 -6.185654E+05 -1.235453E+05 -4.053271E+04
       313  21 -1.655272E+06 -3.498009E+05 -2.359200E+05 -5.187947E+05 -1.889348E+05 -6.885798E+04
       313  22 -1.827423E+06 -2.541820E+05 -7.676664E+04 -6.960054E+05 -5.576436E+04 -1.604007E+04
       313  23 -1.789061E+06 -2.093253E+05 -1.230145E+05 -6.873435E+05 -1.238873E+05 -4.065793E+04
       313  24 -1.857585E+06 -4.674249E+05 -2.996625E+05 -6.161782E+05 -1.904619E+05 -6.941453E+04
       313  25 -2.049102E+06 -3.183148E+05 -1.331617E+05 -7.361569E+05 -5.492206E+04 -1.572683E+04
       313  26 -2.000897E+06 -3.000456E+05 -1.825976E+05 -7.560991E+05 -1.242291E+05 -4.078309E+04
       313  27 -2.059852E+06 -5.850256E+05 -3.634086E+05 -7.135271E+05 -1.919885E+05 -6.997060E+04
       314   1  2.635611E+06  5.248160E+05  7.217604E+05  1.188229E+05  5.932663E+05  6.217582E+03
       314   2  2.555941E+06 -2.753822E+05  2.384065E+05  4.611196E+04  3.915839E+05  1.341054E+04
       314   3  2.733174E+06 -1.572839E+05  1.159830E+05 -8.576696E+04  1.898990E+05  1.061759E+04
       314   4  3.249527E+06  6.764894E+05  8.736132E+05 -2.118915E+04  5.977072E+05  6.096127E+03
       314   5  3.121430E+06 -1.351803E+05  3.767512E+05  9.432481E+03  3.926976E+05  1.338889E+04
       314   6  3.250540E+06 -2.846809E+04  2.428650E+05 -1.912157E+04  1.877023E+05  1.063288E+04
       314   7  3.863826E+06  8.282089E+05  1.025449E+06 -1.613394E+05  6.021523E+05  5.972787E+03
       314   8  3.687212E+06  5.003266E+03  5.150733E+05 -2.728053E+04  3.938122E+05  1.336713E+04
       314   9  3.768158E+06  1.003444E+05  3.697298E+05  4.757912E+04  1.855037E+05  1.064769E+04
       314  10  2.635234E+06  5.247220E+05  7.211017E+05  1.188199E+05  1.030709E-10  1.470417E-09
       314  11  2.555777E+06 -2.754233E+05  2.381193E+05  4.610774E+04 -2.679430E-09  1.008272E-09
       314  12  2.733135E+06 -1.572936E+05  1.159153E+05 -8.576858E+04  7.730396E-10 -1.856279E-10
       314  13  3.249145E+06  6.763941E+05  8.729452E+05 -2.119208E+04  1.556431E-09  7.987060E-10
       314  14  3.121265E+06 -1.352216E+05  3.764626E+05  9.428253E+03 -1.447349E-09 -1.742821E-09
       314  15  3.250503E+06 -2.847761E+04  2.427989E+05 -1.912318E+04  7.553493E-10 -2.020895E-11
       314  16  3.863439E+06  8.281123E+05  1.024772E+06 -1.613423E+05  9.468417E-10  2.695550E-10
       314  17  3.687046E+06  4.961761E+03  5.147833E+05 -2.728476E+04  4.976114E-10  1.699439E-09
       314  18  3.768122E+06  1.003351E+05  3.696653E+05  4.757754E+04 -1.740528E-09 -9.038056E-10
       314  19  2.635611E+06  5.248160E+05  7.217604E+05  1.188229E+05 -5.932663E+05 -6.217582E+03
       314  20  2.555941E+06 -2.753822E+05  2.384065E+05  4.611196E+04 -3.915839E+05 -1.341054E+04
       314  21  2.733174E+06 -1.572839E+05  1.159830E+05 -8.576696E+04 -1.898990E+05 -1.061759E+04
       314  22  3.249527E+06  6.764894E+05  8.736132E+05 -2.118915E+04 -5.977072E+05 -6.096127E+03
       314  23  3.121430E+06 -1.351803E+05  3.767512E+05  9.432481E+03 -3.926976E+05 -1.338889E+04
       314  24  3.250540E+06 -2.846809E+04  2.428650E+05 -1.912157E+04 -1.877023E+05 -1.063288E+04
       314  25  3.863826E+06  8.282089E+05  1.025449E+06 -1.613394E+05 -6.021523E+05 -5.972787E+03
       314  26  3.687212E+06  5.003266E+03  5.150733E+05 -2.728053E+04 -3.938122E+05 -1.336713E+04
       314  27  3.768158E+06  1.003444E+05  3.697298E+05  4.757912E+04 -1.855037E+05 -1.064769E+04
       315   1  2.788298E+06 -1.247642E+04  9.862173E+04  9.527518E+02  1.481971E+05  8.101752E+03
       315   2  2.804949E+06 -1.119839E+05  5.435234E+03  9.128964E+03  9.754511E+04  7.765500E+03
       315   3  2.859373E+06 -8.880107E+04 -2.408327E+04 -2.536353E+04  4.689284E+04  6.463785E+03
       315   4  3.201539E+06  9.009825E+04  1.999751E+05 -1.619604E+04  1.483362E+05  8.097455E+03
       315   5  3.182733E+06 -1.817164E+04  9.801310E+04  5.213127E+03  9.735094E+04  7.764276E+03
       315   6  3.201730E+06 -3.735762E+03  5.991914E+04 -1.604421E+04  4.636828E+04  6.463746E+03
       315   7  3.614936E+06  1.926614E+05  3.013161E+05 -3.335628E+04  1.484754E+05  8.093153E+03
       315   8  3.560646E+06  7.563014E+04  1.905806E+05  1.294870E+03  9.715664E+04  7.763055E+03
       315   9  3.544192E+06  8.132121E+04  1.439130E+05 -6.719786E+03  4.584344E+04  6.463691E+03
       315  10  2.788274E+06 -1.248235E+04  9.858052E+04  9.517858E+02 -1.873601E-09 -1.747992E-09
       315  11  2.804939E+06 -1.119865E+05  5.417321E+03  9.128354E+03 -8.348427E-10  3.089399E-10
       315  12  2.859371E+06 -8.880171E+04 -2.408746E+04 -2.536377E+04  9.549106E-10 -2.263347E-10
       315  13  3.201516E+06  9.009230E+04  1.999338E+05 -1.619701E+04  4.218275E-10 -1.008189E-09
       315  14  3.182723E+06 -1.817423E+04  9.799527E+04  5.212519E+03  8.042336E-10 -3.110809E-10
       315  15  3.201727E+06 -3.736380E+03  5.991505E+04 -1.604445E+04 -4.150662E-10 -6.385156E-10
       315  16  3.614913E+06  1.926555E+05  3.012748E+05 -3.335725E+04  2.534457E-09 -4.935993E-10
       315  17  3.560636E+06  7.562756E+04  1.905628E+05  1.294263E+03 -8.441361E-10 -2.423927E-09
       315  18  3.544190E+06  8.132061E+04  1.439090E+05 -6.720025E+03 -2.257636E-09  3.422655E-10
       315  19  2.788298E+06 -1.247642E+04  9.862173E+04  9.527518E+02 -1.481971E+05 -8.101752E+03
       315  20  2.804949E+06 -1.119839E+05  5.435234E+03  9.128964E+03 -9.754511E+04 -7.765500E+03
       315  21  2.859373E+06 -8.880107E+04 -2.408327E+04 -2.536353E+04 -4.689284E+04 -6.463785E+03
       315  22  3.201539E+06  9.009825E+04  1.999751E+05 -1.619604E+04 -1.483362E+05 -8.097455E+03
       315  23  3.182733E+06 -1.817164E+04  9.801310E+04  5.213127E+03 -9.735094E+04 -7.764276E+03
       315  24  3.201730E+06 -3.735762E+03  5.991914E+04 -1.604421E+04 -4.636828E+04 -6.463746E+03
       315  25  3.614936E+06  1.926614E+05  3.013161E+05 -3.335628E+04 -1.484754E+05 -8.093153E+03
       315  26  3.560646E+06  7.563014E+04  1.905806E+05  1.294870E+03 -9.715664E+04 -7.763055E+03
       315  27  3.544192E+06  8.132121E+04  1.439130E+05 -6.719786E+03 -4.584344E+04 -6.463691E+03
       316   1  2.931708E+06 -5.340442E+04 -1.679095E+04 -1.207482E+04  3.699769E+04  5.638005E+03
       316   2  2.956244E+06 -6.091523E+04 -3.246228E+04  2.851895E+03  2.417966E+04  4.701368E+03
       316   3  2.986725E+06 -5.211544E+04 -3.569612E+04 -1.527006E+04  1.136038E+04  3.776567E+03
       316   4  3.194632E+06  1.187313E+04  4.757724E+04 -1.395945E+04  3.671594E+04  5.637512E+03
       316   5  3.191680E+06 -2.446184E+03  2.524472E+04  2.569058E+03  2.389672E+04  4.701079E+03
       316   6  3.194669E+06 -4.584859E+02  1.534655E+04 -1.395023E+04  1.107681E+04  3.776416E+03
       316   7  3.457619E+06  7.714560E+04  1.119404E+05 -1.584488E+04  3.643406E+04  5.637021E+03
       316   8  3.427166E+06  5.601877E+04  8.294767E+04  2.286107E+03  2.361367E+04  4.700790E+03
       316   9  3.402652E+06  5.119528E+04  6.638605E+04 -1.262996E+04  1.079315E+04  3.776265E+03
       316  10  2.931706E+06 -5.340482E+04 -1.679357E+04 -1.207499E+04  1.736534E-09  7.402018E-10
       316  11  2.956243E+06 -6.091541E+04 -3.246342E+04  2.851803E+03  3.213855E-10  6.060532E-10
       316  12  2.986725E+06 -5.211549E+04 -3.569638E+04 -1.527010E+04 -6.590569E-10  6.505267E-10
       316  13  3.194631E+06  1.187274E+04  4.757466E+04 -1.395961E+04  1.385266E-09  1.823260E-10
       316  14  3.191679E+06 -2.446360E+03  2.524361E+04  2.568968E+03  1.081123E-09 -1.575986E-10
       316  15  3.194669E+06 -4.585340E+02  1.534629E+04 -1.395026E+04  2.196501E-09  6.075648E-10
       316  16  3.457618E+06  7.714521E+04  1.119378E+05 -1.584504E+04 -5.840602E-10 -4.025214E-10
       316  17  3.427165E+06  5.601860E+04  8.294659E+04  2.286018E+03 -8.629310E-10 -6.675863E-10
       316  18  3.402652E+06  5.119524E+04  6.638581E+04 -1.262999E+04 -3.588394E-10 -3.489100E-10
       316  19  2.931708E+06 -5.340442E+04 -1.679095E+04 -1.207482E+04 -3.699769E+04 -5.638005E+03
       316  20  2.956244E+06 -6.091523E+04 -3.246228E+04  2.851895E+03 -2.417966E+04 -4.701368E+03
       316  21  2.986725E+06 -5.211544E+04 -3.569612E+04 -1.527006E+04 -1.136038E+04 -3.776567E+03
       316  22  3.194632E+06  1.187313E+04  4.757724E+04 -1.395945E+04 -3.671594E+04 -5.637512E+03
       316  23  3.191680E+06 -2.446184E+03  2.524472E+04  2.569058E+03 -2.389672E+04 -4.701079E+03
       316  24  3.194669E+06 -4.584859E+02  1.534655E+04 -1.395023E+04 -1.107681E+04 -3.776416E+03
       316  25  3.457619E+06  7.714560E+04  1.119404E+05 -1.584488E+04 -3.643406E+04 -5.637021E+03
       316  26  3.427166E+06  5.601877E+04  8.294767E+04  2.286107E+03 -2.361367E+04 -4.700790E+03
       316  27  3.402652E+06  5.119528E+04  6.638605E+04 -1.262996E+04 -1.079315E+04 -3.776265E+03
       317   1  3.049358E+06 -3.427821E+04 -2.307053E+04 -1.253818E+04  8.860427E+03  3.253219E+03
       317   2  3.071691E+06 -3.049665E+04 -2.219916E+04  1.032915E+03  5.062172E+03  2.410022E+03
       317   3  3.095157E+06 -2.435831E+04 -1.826411E+04 -1.291051E+04  1.263483E+03  1.630325E+03
       317   4  3.193603E+06  1.526937E+03  1.220623E+04 -1.272352E+04  8.587995E+03  3.253104E+03
       317   5  3.193042E+06 -3.614523E+02  7.544420E+03  1.033731E+03  4.808850E+03  2.409960E+03
       317   6  3.193610E+06  1.033589E+02  5.932572E+03 -1.272319E+04  1.029410E+03  1.630309E+03
       317   7  3.337868E+06  3.733055E+04  4.748148E+04 -1.290892E+04  8.315500E+03  3.252989E+03
       317   8  3.314407E+06  2.977266E+04  3.728692E+04  1.034546E+03  4.555478E+03  2.409897E+03
       317   9  3.292071E+06  2.456431E+04  3.012854E+04 -1.253584E+04  7.952999E+02  1.630292E+03
       317  10  3.049358E+06 -3.427824E+04 -2.307069E+04 -1.253820E+04  2.936764E-10 -5.329388E-10
       317  11  3.071691E+06 -3.049667E+04 -2.219922E+04  1.032905E+03 -2.684425E-09 -3.380168E-10
       317  12  3.095157E+06 -2.435831E+04 -1.826411E+04 -1.291051E+04 -2.218418E-09 -1.801182E-10
       317  13  3.193603E+06  1.526906E+03  1.220608E+04 -1.272355E+04 -4.373429E-10  3.567501E-10
       317  14  3.193042E+06 -3.614647E+02  7.544366E+03  1.033721E+03  8.458920E-10 -1.318770E-10
       317  15  3.193610E+06  1.033558E+02  5.932565E+03 -1.272319E+04  8.080453E-11 -2.450404E-10
       317  16  3.337868E+06  3.733052E+04  4.748133E+04 -1.290894E+04  1.194820E-09  7.546253E-10
       317  17  3.314407E+06  2.977265E+04  3.728687E+04  1.034537E+03  4.438397E-10 -3.860974E-10
       317  18  3.292071E+06  2.456430E+04  3.012853E+04 -1.253584E+04  8.575531E-10 -4.574896E-10
       317  19  3.049358E+06 -3.427821E+04 -2.307053E+04 -1.253818E+04 -8.860427E+03 -3.253219E+03
       317  20  3.071691E+06 -3.049665E+04 -2.219916E+04  1.032915E+03 -5.062172E+03 -2.410022E+03
       317  21  3.095157E+06 -2.435831E+04 -1.826411E+04 -1.291051E+04 -1.263483E+03 -1.630325E+03
       317  22  3.193603E+06  1.526937E+03  1.220623E+04 -1.272352E+04 -8.587995E+03 -3.253104E+03
       317  23  3.193042E+06 -3.614523E+02  7.544420E+03  1.033731E+03 -4.808850E+03 -2.409960E+03
       317  24  3.193610E+06  1.033589E+02  5.932572E+03 -1.272319E+04 -1.029410E+03 -1.630309E+03
       317  25  3.337868E+06  3.733055E+04  4.748148E+04 -1.290892E+04 -8.315500E+03 -3.252989E+03
       317  26  3.314407E+06  2.977266E+04  3.728692E+04  1.034546E+03 -4.555478E+03 -2.409897E+03
       317  27  3.292071E+06  2.456431E+04  3.012854E+04 -1.253584E+04 -7.952999E+02 -1.630292E+03
       318   1  3.150678E+06 -1.049012E+04 -4.679122E+03 -1.207652E+04  2.108216E+02  1.190628E+03
       318   2  3.171265E+06 -5.726542E+03  1.281475E+03  4.043061E+02 -3.116959E+03  4.324706E+02
       318   3  3.192782E+06  1.039502E+03  9.900573E+03 -1.241199E+04 -6.444859E+03 -3.036620E+02
       318   4  3.193568E+06  1.462971E+02  5.763784E+03 -1.223061E+04 -3.009516E+01  1.190632E+03
       318   5  3.193101E+06 -3.043318E+02  6.633421E+03  4.179617E+02 -3.351103E+03  4.324807E+02
       318   6  3.193563E+06  1.246410E+03  1.015694E+04 -1.223052E+04 -6.672117E+03 -3.036460E+02
       318   7  3.236459E+06  1.078258E+04  1.620656E+04 -1.238472E+04 -2.710284E+02  1.190635E+03
       318   8  3.214937E+06  5.117843E+03  1.198533E+04  4.316177E+02 -3.585254E+03  4.324908E+02
       318   9  3.194344E+06  1.453317E+03  1.041331E+04 -1.204906E+04 -6.899375E+03 -3.036301E+02
       318  10  3.150678E+06 -1.049013E+04 -4.679124E+03 -1.207652E+04  2.096510E-10 -5.744467E-10
       318  11  3.171265E+06 -5.726544E+03  1.281457E+03  4.043072E+02 -2.644057E-11 -4.913655E-10
       318  12  3.192782E+06  1.039491E+03  9.900495E+03 -1.241199E+04  7.403008E-10  2.906968E-10
       318  13  3.193568E+06  1.462956E+02  5.763782E+03 -1.223061E+04 -1.158321E-09 -6.845108E-10
       318  14  3.193101E+06 -3.043350E+02  6.633399E+03  4.179629E+02 -7.431749E-11 -3.853783E-10
       318  15  3.193563E+06  1.246398E+03  1.015686E+04 -1.223053E+04  1.576384E-09 -7.882847E-11
       318  16  3.236459E+06  1.078258E+04  1.620655E+04 -1.238472E+04 -1.252861E-09 -8.307793E-10
       318  17  3.214937E+06  5.117839E+03  1.198531E+04  4.316190E+02 -1.744072E-09  8.050234E-10
       318  18  3.194344E+06  1.453304E+03  1.041322E+04 -1.204906E+04  5.723270E-10 -2.521496E-10
       318  19  3.150678E+06 -1.049012E+04 -4.679122E+03 -1.207652E+04 -2.108216E+02 -1.190628E+03
       318  20  3.171265E+06 -5.726542E+03  1.281475E+03  4.043061E+02  3.116959E+03 -4.324706E+02
       318  21  3.192782E+06  1.039502E+03  9.900573E+03 -1.241199E+04  6.444859E+03  3.036620E+02
       318  22  3.193568E+06  1.462971E+02  5.763784E+03 -1.223061E+04  3.009516E+01 -1.190632E+03
       318  23  3.193101E+06 -3.043318E+02  6.633421E+03  4.179617E+02  3.351103E+03 -4.324807E+02
       318  24  3.193563E+06  1.246410E+03  1.015694E+04 -1.223052E+04  6.672117E+03  3.036460E+02
       318  25  3.236459E+06  1.078258E+04  1.620656E+04 -1.238472E+04  2.710284E+02 -1.190635E+03
       318  26  3.214937E+06  5.117843E+03  1.198533E+04  4.316177E+02  3.585254E+03 -4.324908E+02
       318  27  3.194344E+06  1.453317E+03  1.041331E+04 -1.204906E+04  6.899375E+03  3.036301E+02
       319   1  3.247715E+06  1.289814E+04  2.573828E+04 -1.139234E+04 -8.485912E+03 -7.405054E+02
       319   2  3.267113E+06  1.667071E+04  3.888522E+04  3.344495E+02 -1.889989E+04 -1.498664E+03
       319   3  3.291171E+06  3.363071E+04  6.208626E+04 -1.405881E+04 -2.931433E+04 -2.224456E+03
       319   4  3.194394E+06 -3.546445E+02  1.260586E+04 -1.241333E+04 -8.727975E+03 -7.404799E+02
       319   5  3.192049E+06 -1.967411E+03  2.049076E+04  6.464021E+02 -1.913070E+04 -1.498690E+03
       319   6  3.194363E+06  9.606272E+03  3.842298E+04 -1.241405E+04 -2.953353E+04 -2.224573E+03
       319   7  3.141074E+06 -1.360764E+04 -5.267721E+02 -1.343424E+04 -8.970017E+03 -7.404536E+02
       319   8  3.116991E+06 -2.060594E+04  2.095889E+03  9.583170E+02 -1.936149E+04 -1.498715E+03
       319   9  3.097564E+06 -1.441885E+04  1.475902E+04 -1.076954E+04 -2.975270E+04 -2.224691E+03
       319  10  3.247715E+06  1.289812E+04  2.573814E+04 -1.139234E+04 -3.999724E-10  3.388222E-10
       319  11  3.267113E+06  1.667061E+04  3.888455E+04  3.344267E+02  1.041792E-09  4.466254E-10
       319  12  3.291170E+06  3.363048E+04  6.208465E+04 -1.405886E+04  9.912442E-11 -6.654995E-10
       319  13  3.194394E+06 -3.546654E+02  1.260571E+04 -1.241334E+04  2.214450E-10  2.230869E-10
       319  14  3.192049E+06 -1.967511E+03  2.049007E+04  6.463790E+02  1.457558E-09 -3.161102E-10
       319  15  3.194362E+06  9.606034E+03  3.842134E+04 -1.241410E+04 -1.932298E-10 -6.451228E-10
       319  16  3.141074E+06 -1.360766E+04 -5.269235E+02 -1.343425E+04  4.475977E-11 -3.241410E-10
       319  17  3.116990E+06 -2.060605E+04  2.095184E+03  9.582937E+02  1.778195E-09  6.140882E-10
       319  18  3.097563E+06 -1.441909E+04  1.475735E+04 -1.076959E+04 -5.227852E-10 -8.699358E-10
       319  19  3.247715E+06  1.289814E+04  2.573828E+04 -1.139234E+04  8.485912E+03  7.405054E+02
       319  20  3.267113E+06  1.667071E+04  3.888522E+04  3.344495E+02  1.889989E+04  1.498664E+03
       319  21  3.291171E+06  3.363071E+04  6.208626E+04 -1.405881E+04  2.931433E+04  2.224456E+03
       319  22  3.194394E+06 -3.546445E+02  1.260586E+04 -1.241333E+04  8.727975E+03  7.404799E+02
       319  23  3.192049E+06 -1.967411E+03  2.049076E+04  6.464021E+02  1.913070E+04  1.498690E+03
       319  24  3.194363E+06  9.606272E+03  3.842298E+04 -1.241405E+04  2.953353E+04  2.224573E+03
       319  25  3.141074E+06 -1.360764E+04 -5.267721E+02 -1.343424E+04  8.970017E+03  7.404536E+02
       319  26  3.116991E+06 -2.060594E+04  2.095889E+03  9.583170E+02  1.936149E+04  1.498715E+03
       319  27  3.097564E+06 -1.441885E+04  1.475902E+04 -1.076954E+04  2.975270E+04  2.224691E+03
       320   1  3.355989E+06  3.574520E+04  8.661667E+04 -5.950908E+03 -3.696062E+04 -2.797620E+03
       320   2  3.365879E+06  3.029551E+04  1.233772E+05 -1.670675E+03 -7.826446E+04 -3.694641E+03
       320   3  3.405952E+06  1.238292E+05  2.116970E+05 -2.750586E+04 -1.195708E+05 -4.017843E+03
       320   4  3.200052E+06 -2.987117E+03  4.834114E+04 -1.329100E+04 -3.732238E+04 -2.797285E+03
       320   5  3.184895E+06 -1.463493E+04  7.904247E+04  1.748900E+03 -7.843622E+04 -3.695201E+03
       320   6  3.199897E+06  7.268351E+04  1.611832E+05 -1.332674E+04 -1.195509E+05 -4.020648E+03
       320   7  3.044138E+06 -4.172103E+04  1.006386E+04 -2.062925E+04 -3.768404E+04 -2.796941E+03
       320   8  3.003940E+06 -5.956774E+04  3.470535E+04  5.167479E+03 -7.860793E+04 -3.695763E+03
       320   9  2.993880E+06  2.153548E+04  1.106663E+05  8.476776E+02 -1.195310E+05 -4.023452E+03
       320  10  3.355987E+06  3.574483E+04  8.661411E+04 -5.950991E+03  1.852444E-09 -5.876013E-10
       320  11  3.365872E+06  3.029386E+04  1.233657E+05 -1.670908E+03 -3.523403E-10 -4.072968E-10
       320  12  3.405937E+06  1.238253E+05  2.116703E+05 -2.750624E+04  2.938619E-10  2.818894E-11
       320  13  3.200051E+06 -2.987497E+03  4.833852E+04 -1.329108E+04 -1.992584E-09 -4.127604E-10
       320  14  3.184888E+06 -1.463659E+04  7.903094E+04  1.748667E+03 -7.751160E-10 -1.895201E-10
       320  15  3.199881E+06  7.267968E+04  1.611564E+05 -1.332713E+04  9.617512E-10  9.056132E-11
       320  16  3.044136E+06 -4.172142E+04  1.006119E+04 -2.062933E+04 -1.086505E-09 -7.472743E-10
       320  17  3.003933E+06 -5.956940E+04  3.469376E+04  5.167245E+03 -5.387128E-10 -7.457408E-10
       320  18  2.993865E+06  2.153165E+04  1.106395E+05  8.472907E+02  4.426096E-10  5.753999E-12
       320  19  3.355989E+06  3.574520E+04  8.661667E+04 -5.950908E+03  3.696062E+04  2.797620E+03
       320  20  3.365879E+06  3.029551E+04  1.233772E+05 -1.670675E+03  7.826446E+04  3.694641E+03
       320  21  3.405952E+06  1.238292E+05  2.116970E+05 -2.750586E+04  1.195708E+05  4.017843E+03
       320  22  3.200052E+06 -2.987117E+03  4.834114E+04 -1.329100E+04  3.732238E+04  2.797285E+03
       320  23  3.184895E+06 -1.463493E+04  7.904247E+04  1.748900E+03  7.843622E+04  3.695201E+03
       320  24  3.199897E+06  7.268351E+04  1.611832E+05 -1.332674E+04  1.195509E+05  4.020648E+03
       320  25  3.044138E+06 -4.172103E+04  1.006386E+04 -2.062925E+04  3.768404E+04  2.796941E+03
       320  26  3.003940E+06 -5.956774E+04  3.470535E+04  5.167479E+03  7.860793E+04  3.695763E+03
       320  27  2.993880E+06  2.153548E+04  1.106663E+05  8.476776E+02  1.195310E+05  4.023452E+03
       321   1  3.516439E+06  4.599550E+04  2.636527E+05  3.835923E+04 -1.499699E+05 -5.529777E+03
       321   2  3.444217E+06 -3.239242E+04  3.791163E+05 -2.632304E+04 -3.170759E+05 -7.076790E+03
       321   3  3.578863E+06  6.296419E+05  7.881838E+05 -1.293397E+05 -4.841856E+05 -2.878747E+03
       321   4  3.239327E+06 -2.289265E+04  1.957241E+05 -1.492303E+04 -1.512730E+05 -5.517979E+03
       321   5  3.135585E+06 -1.089265E+05  3.036434E+05  3.902215E+03 -3.165203E+05 -7.091948E+03
       321   6  3.238485E+06  5.453123E+05  7.039846E+05 -1.559266E+04 -4.817624E+05 -2.964340E+03
       321   7  2.962290E+06 -9.177588E+04  1.277914E+05 -6.818160E+04 -1.525755E+05 -5.505954E+03
       321   8  2.827042E+06 -1.854641E+05  2.281640E+05  3.411247E+04 -3.159649E+05 -7.107060E+03
       321   9  2.898240E+06  4.610226E+05  6.197838E+05  9.809226E+04 -4.793404E+05 -3.049092E+03
       321  10  3.516415E+06  4.598948E+04  2.636106E+05  3.835856E+04 -7.805476E-12  2.689990E-10
       321  11  3.444109E+06 -3.241927E+04  3.789283E+05 -2.632485E+04 -5.596711E-10 -5.900554E-10
       321  12  3.578613E+06  6.295794E+05  7.877458E+05 -1.293408E+05  2.216053E-10  3.060290E-10
       321  13  3.239302E+06 -2.289878E+04  1.956813E+05 -1.492371E+04 -2.416366E-09 -1.094419E-09
       321  14  3.135478E+06 -1.089532E+05  3.034560E+05  3.900409E+03 -5.053620E-10 -3.621569E-10
       321  15  3.238237E+06  5.452504E+05  7.035507E+05 -1.559381E+04 -2.632428E-10 -7.842454E-10
       321  16  2.962265E+06 -9.178212E+04  1.277478E+05 -6.818227E+04 -1.320977E-09  3.695715E-10
       321  17  2.826935E+06 -1.854908E+05  2.279772E+05  3.411066E+04 -1.838040E-10 -5.167708E-10
       321  18  2.897994E+06  4.609612E+05  6.193539E+05  9.809110E+04  9.786861E-11  9.887028E-10
       321  19  3.516439E+06  4.599550E+04  2.636527E+05  3.835923E+04  1.499699E+05  5.529777E+03
       321  20  3.444217E+06 -3.239242E+04  3.791163E+05 -2.632304E+04  3.170759E+05  7.076790E+03
       321  21  3.578863E+06  6.296419E+05  7.881838E+05 -1.293397E+05  4.841856E+05  2.878747E+03
       321  22  3.239327E+06 -2.289265E+04  1.957241E+05 -1.492303E+04  1.512730E+05  5.517979E+03
       321  23  3.135585E+06 -1.089265E+05  3.036434E+05  3.902215E+03  3.165203E+05  7.091948E+03
       321  24  3.238485E+06  5.453123E+05  7.039846E+05 -1.559266E+04  4.817624E+05  2.964340E+03
       321  25  2.962290E+06 -9.177588E+04  1.277914E+05 -6.818160E+04  1.525755E+05  5.505954E+03
       321  26  2.827042E+06 -1.854641E+05  2.281640E+05  3.411247E+04  3.159649E+05  7.107060E+03
       321  27  2.898240E+06  4.610226E+05  6.197838E+05  9.809226E+04  4.793404E+05  3.049092E+03
       322   1  1.605661E+05  2.754012E+05  2.445101E+05 -5.327246E+04 -4.241060E+03  2.390136E+05
       322   2 -1.758029E+05  2.317315E+05  4.595142E+04 -1.693643E+04 -1.080818E+04  1.530001E+05
       322   3 -1.242758E+05  2.969947E+05  5.300401E+02  3.273765E+04 -9.672348E+03  6.700402E+04
       322   4  2.818223E+05  7.631513E+05  3.655675E+05  4.816097E+03 -4.228827E+03  2.424859E+05
       322   5 -5.717621E+04  7.085548E+05  1.629575E+05 -2.289511E+03 -1.080648E+04  1.540035E+05
       322   6 -8.015565E+03  7.632345E+05  1.151134E+05  3.944311E+03 -9.671744E+03  6.554036E+04
       322   7  4.030736E+05  1.251125E+06  4.866091E+05  6.295045E+04 -4.215956E+03  2.459609E+05
       322   8  6.143453E+04  1.185585E+06  2.799470E+05  1.236881E+04 -1.080472E+04  1.550076E+05
       322   9  1.082316E+05  1.229674E+06  2.296812E+05 -2.487057E+04 -9.671003E+03  6.407558E+04
       322  10  1.605507E+05  2.753398E+05  2.444028E+05 -5.327165E+04 -8.799235E-11 -1.958618E-10
       322  11 -1.758094E+05  2.317064E+05  4.590723E+04 -1.693510E+04 -9.529748E-10 -3.003620E-09
       322  12 -1.242771E+05  2.969898E+05  5.214318E+02  3.273817E+04  1.691753E-09 -2.445714E-10
       322  13  2.818065E+05  7.630882E+05  3.654571E+05  4.816922E+03  1.594724E-09 -3.928431E-10
       322  14 -5.718269E+04  7.085293E+05  1.629128E+05 -2.288171E+03 -3.095310E-09 -1.045993E-09
       322  15 -8.016817E+03  7.632299E+05  1.151052E+05  3.944822E+03 -6.658117E-11  2.324283E-10
       322  16  4.030574E+05  1.251060E+06  4.864956E+05  6.295128E+04 -2.524125E-10 -1.086841E-09
       322  17  6.142797E+04  1.185560E+06  2.799017E+05  1.237016E+04 -1.016929E-09  1.913184E-09
       322  18  1.082304E+05  1.229669E+06  2.296733E+05 -2.487007E+04 -1.992687E-10  1.653074E-10
       322  19  1.605661E+05  2.754012E+05  2.445101E+05 -5.327246E+04  4.241060E+03 -2.390136E+05
       322  20 -1.758029E+05  2.317315E+05  4.595142E+04 -1.693643E+04  1.080818E+04 -1.530001E+05
       322  21 -1.242758E+05  2.969947E+05  5.300401E+02  3.273765E+04  9.672348E+03 -6.700402E+04
       322  22  2.818223E+05  7.631513E+05  3.655675E+05  4.816097E+03  4.228827E+03 -2.424859E+05
       322  23 -5.717621E+04  7.085548E+05  1.629575E+05 -2.289511E+03  1.080648E+04 -1.540035E+05
       322  24 -8.015565E+03  7.632345E+05  1.151134E+05  3.944311E+03  9.671744E+03 -6.554036E+04
       322  25  4.030736E+05  1.251125E+06  4.866091E+05  6.295045E+04  4.215956E+03 -2.459609E+05
       322  26  6.143453E+04  1.185585E+06  2.799470E+05  1.236881E+04  1.080472E+04 -1.550076E+05
       322  27  1.082316E+05  1.229674E+06  2.296812E+05 -2.487057E+04  9.671003E+03 -6.407558E+04
       323   1 -7.402548E+04  3.018294E+05 -7.673870E+03 -6.277707E+03 -8.368702E+03  4.586222E+04
       323   2 -1.219603E+05  2.954965E+05 -3.576616E+04 -1.232433E+03 -8.889513E+03  9.276252E+03
       323   3 -7.906459E+04  3.172231E+05 -1.721434E+04  1.313685E+04 -7.878187E+03 -2.730804E+04
       323   4  3.636564E+04  7.451844E+05  1.014070E+05  3.357381E+03 -8.368421E+03  4.630886E+04
       323   5 -1.347402E+04  7.311222E+05  7.127443E+04 -1.322408E+03 -8.889028E+03  9.221251E+03
       323   6  2.756918E+04  7.451878E+05  8.811141E+04  3.321261E+03 -7.876828E+03 -2.786423E+04
       323   7  1.467425E+05  1.188718E+06  2.104735E+05  1.299944E+04 -8.368126E+03  4.675580E+04
       323   8  9.499816E+04  1.166921E+06  1.783011E+05 -1.412382E+03 -8.888542E+03  9.166210E+03
       323   9  1.341897E+05  1.173319E+06  1.934237E+05 -6.501056E+03 -7.875453E+03 -2.842080E+04
       323  10 -7.402612E+04  3.018271E+05 -7.677952E+03 -6.277398E+03  6.058685E-10 -1.198580E-09
       323  11 -1.219604E+05  2.954964E+05 -3.576647E+04 -1.232367E+03 -3.847099E-12 -1.996858E-09
       323  12 -7.906485E+04  3.172222E+05 -1.721586E+04  1.313668E+04 -5.479617E-10 -5.765030E-10
       323  13  3.636499E+04  7.451821E+05  1.014029E+05  3.357693E+03  9.411922E-10  5.410488E-10
       323  14 -1.347413E+04  7.311221E+05  7.127412E+04 -1.322342E+03  1.158922E-09 -1.407388E-09
       323  15  2.756891E+04  7.451869E+05  8.810984E+04  3.321084E+03  3.387437E-10 -1.553485E-11
       323  16  1.467419E+05  1.188716E+06  2.104693E+05  1.299976E+04  1.199257E-10 -9.436161E-11
       323  17  9.499805E+04  1.166920E+06  1.783008E+05 -1.412317E+03 -4.466479E-10  5.815730E-10
       323  18  1.341894E+05  1.173318E+06  1.934221E+05 -6.501237E+03 -7.589781E-10  6.972755E-10
       323  19 -7.402548E+04  3.018294E+05 -7.673870E+03 -6.277707E+03  8.368702E+03 -4.586222E+04
       323  20 -1.219603E+05  2.954965E+05 -3.576616E+04 -1.232433E+03  8.889513E+03 -9.276252E+03
       323  21 -7.906459E+04  3.172231E+05 -1.721434E+04  1.313685E+04  7.878187E+03  2.730804E+04
       323  22  3.636564E+04  7.451844E+05  1.014070E+05  3.357381E+03  8.368421E+03 -4.630886E+04
       323  23 -1.347402E+04  7.311222E+05  7.127443E+04 -1.322408E+03  8.889028E+03 -9.221251E+03
       323  24  2.756918E+04  7.451878E+05  8.811141E+04  3.321261E+03  7.876828E+03  2.786423E+04
       323  25  1.467425E+05  1.188718E+06  2.104735E+05  1.299944E+04  8.368126E+03 -4.675580E+04
       323  26  9.499816E+04  1.166921E+06  1.783011E+05 -1.412382E+03  8.888542E+03 -9.166210E+03
       323  27  1.341897E+05  1.173319E+06  1.934237E+05 -6.501056E+03  7.875453E+03  2.842080E+04
       324   1 -1.066558E+05  3.464073E+05 -4.536701E+03 -1.917634E+04 -8.524292E+03 -4.530610E+04
       324   2 -1.458828E+05  3.088551E+05  2.974713E+04  1.167694E+04 -8.764748E+03 -1.135514E+05
       324   3  1.181197E+05  3.564858E+05  1.843748E+05  4.877584E+04 -2.890607E+03 -1.817941E+05
       324   4 -4.224798E+03  7.579520E+05  9.653562E+04  2.618381E+03 -8.526396E+03 -4.427890E+04
       324   5 -4.469930E+04  7.151837E+05  1.294810E+05 -4.897017E+02 -8.761770E+03 -1.144750E+05
       324   6  2.182853E+05  7.578827E+05  2.840693E+05  2.645570E+03 -2.876853E+03 -1.846682E+05
       324   7  9.819545E+04  1.169652E+06  1.975958E+05  2.442760E+04 -8.528426E+03 -4.325101E+04
       324   8  5.647254E+04  1.121663E+06  2.292028E+05 -1.266430E+04 -8.758757E+03 -1.153992E+05
       324   9  3.184469E+05  1.159430E+06  3.837530E+05 -4.351453E+04 -2.862680E+03 -1.875441E+05
       324  10 -1.066564E+05  3.464051E+05 -4.540692E+03 -1.917665E+04  3.843212E-11 -1.195671E-09
       324  11 -1.458864E+05  3.088413E+05  2.972277E+04  1.167614E+04  6.452414E-10 -1.239718E-09
       324  12  1.181108E+05  3.564503E+05  1.843127E+05  4.877542E+04  3.725731E-11 -2.174714E-10
       324  13 -4.225402E+03  7.579499E+05  9.653180E+04  2.618077E+03 -8.349489E-10  1.258337E-10
       324  14 -4.470290E+04  7.151696E+05  1.294562E+05 -4.905092E+02  1.665469E-10 -9.820224E-11
       324  15  2.182762E+05  7.578461E+05  2.840053E+05  2.645142E+03 -2.206061E-11 -8.370223E-11
       324  16  9.819487E+04  1.169650E+06  1.975921E+05  2.442730E+04  3.964696E-10 -3.186470E-10
       324  17  5.646889E+04  1.121648E+06  2.291776E+05 -1.266511E+04 -3.376487E-10 -1.686399E-10
       324  18  3.184374E+05  1.159393E+06  3.836870E+05 -4.351496E+04 -4.790878E-11  3.277762E-10
       324  19 -1.066558E+05  3.464073E+05 -4.536701E+03 -1.917634E+04  8.524292E+03  4.530610E+04
       324  20 -1.458828E+05  3.088551E+05  2.974713E+04  1.167694E+04  8.764748E+03  1.135514E+05
       324  21  1.181197E+05  3.564858E+05  1.843748E+05  4.877584E+04  2.890607E+03  1.817941E+05
       324  22 -4.224798E+03  7.579520E+05  9.653562E+04  2.618381E+03  8.526396E+03  4.427890E+04
       324  23 -4.469930E+04  7.151837E+05  1.294810E+05 -4.897017E+02  8.761770E+03  1.144750E+05
       324  24  2.182853E+05  7.578827E+05  2.840693E+05  2.645570E+03  2.876853E+03  1.846682E+05
       324  25  9.819545E+04  1.169652E+06  1.975958E+05  2.442760E+04  8.528426E+03  4.325101E+04
       324  26  5.647254E+04  1.121663E+06  2.292028E+05 -1.266430E+04  8.758757E+03  1.153992E+05
       324  27  3.184469E+05  1.159430E+06  3.837530E+05 -4.351453E+04  2.862680E+03  1.875441E+05
       325   1 -3.304501E+06 -1.201255E+06 -6.350847E+05 -1.230119E+06 -3.012676E+05 -8.461200E+04
       325   2 -3.227230E+06 -9.845610E+05 -4.135365E+05 -1.198259E+06 -1.959727E+05  2.600740E+04
       325   3 -3.195126E+06 -8.804987E+05 -3.157517E+05 -1.156070E+06 -7.520631E+04  9.590458E+04
       325   4 -1.686575E+06 -4.815350E+05 -2.021737E+05 -6.721474E+05 -1.412850E+05 -2.414410E+04
       325   5 -1.660897E+06 -3.566923E+05 -9.570374E+04 -7.061474E+05 -1.151459E+05  5.652448E+04
       325   6 -1.664520E+06 -3.285902E+05 -4.988470E+04 -7.298534E+05 -7.357902E+04  9.648716E+04
       325   7 -6.602993E+04  2.386724E+05  2.306053E+05 -1.127457E+05  1.915062E+04  3.656695E+04
       325   8 -9.199180E+04  2.715354E+05  2.220347E+05 -2.128282E+05 -3.409981E+04  8.714204E+04
       325   9 -1.313931E+05  2.235545E+05  2.159198E+05 -3.026441E+05 -7.194738E+04  9.707142E+04
       325  10 -3.304601E+06 -1.201288E+06 -6.352699E+05 -1.230140E+06 -4.636006E-09  1.124781E-10
       325  11 -3.227271E+06 -9.845720E+05 -4.136103E+05 -1.198255E+06 -1.506484E-09  1.926255E-09
       325  12 -3.195135E+06 -8.805101E+05 -3.157796E+05 -1.156065E+06  1.300724E-09  3.233678E-09
       325  13 -1.686597E+06 -4.815410E+05 -2.022124E+05 -6.721501E+05  5.783041E-10  2.188104E-09
       325  14 -1.660913E+06 -3.566992E+05 -9.573469E+04 -7.061422E+05 -5.339368E-10 -1.538953E-09
       325  15 -1.664528E+06 -3.286016E+05 -4.991235E+04 -7.298477E+05 -2.439449E-09  1.983197E-09
       325  16 -6.603068E+04  2.386709E+05  2.306021E+05 -1.127462E+05  3.552556E-09  5.184571E-10
       325  17 -9.199509E+04  2.715270E+05  2.220183E+05 -2.128258E+05  7.739409E-11 -4.108585E-10
       325  18 -1.314011E+05  2.235430E+05  2.158924E+05 -3.026385E+05 -3.643274E-09  6.862325E-10
       325  19 -3.304501E+06 -1.201255E+06 -6.350847E+05 -1.230119E+06  3.012676E+05  8.461200E+04
       325  20 -3.227230E+06 -9.845610E+05 -4.135365E+05 -1.198259E+06  1.959727E+05 -2.600740E+04
       325  21 -3.195126E+06 -8.804987E+05 -3.157517E+05 -1.156070E+06  7.520631E+04 -9.590458E+04
       325  22 -1.686575E+06 -4.815350E+05 -2.021737E+05 -6.721474E+05  1.412850E+05  2.414410E+04
       325  23 -1.660897E+06 -3.566923E+05 -9.570374E+04 -7.061474E+05  1.151459E+05 -5.652448E+04
       325  24 -1.664520E+06 -3.285902E+05 -4.988470E+04 -7.298534E+05  7.357902E+04 -9.648716E+04
       325  25 -6.602993E+04  2.386724E+05  2.306053E+05 -1.127457E+05 -1.915062E+04 -3.656695E+04
       325  26 -9.199180E+04  2.715354E+05  2.220347E+05 -2.128282E+05  3.409981E+04 -8.714204E+04
       325  27 -1.313931E+05  2.235545E+05  2.159198E+05 -3.026441E+05  7.194738E+04 -9.707142E+04
       326   1 -3.127334E+06 -8.641232E+05 -2.886355E+05 -1.146609E+06 -7.197317E+04  9.637567E+04
       326   2 -3.048181E+06 -8.157040E+05 -2.471865E+05 -1.116329E+06 -5.403859E+04  1.032552E+05
       326   3 -2.962021E+06 -7.867618E+05 -2.210884E+05 -1.098428E+06 -3.451827E+04  1.059313E+05
       326   4 -1.658365E+06 -3.271500E+05 -3.721738E+04 -7.287882E+05 -6.773601E+04  9.794390E+04
       326   5 -1.661947E+06 -3.134279E+05 -1.946317E+04 -7.243866E+05 -5.795560E+04  1.017470E+05
       326   6 -1.656897E+06 -3.175474E+05 -1.055259E+04 -7.323642E+05 -4.659423E+04  1.013508E+05
       326   7 -1.870886E+05  2.100526E+05  2.141412E+05 -3.100325E+05 -6.348811E+04  9.951633E+04
       326   8 -2.736548E+05  1.890485E+05  2.082146E+05 -3.316189E+05 -6.188193E+04  1.002353E+05
       326   9 -3.499520E+05  1.518376E+05  1.999448E+05 -3.655784E+05 -5.869710E+04  9.676026E+04
       326  10 -3.127342E+06 -8.641345E+05 -2.886626E+05 -1.146603E+06 -3.872297E-10  2.217971E-09
       326  11 -3.048187E+06 -8.157162E+05 -2.472120E+05 -1.116324E+06 -3.626285E-09  2.149643E-09
       326  12 -2.962025E+06 -7.867742E+05 -2.211117E+05 -1.098425E+06 -1.911648E-09  1.747142E-09
       326  13 -1.658372E+06 -3.271615E+05 -3.724400E+04 -7.287828E+05 -5.191593E-10  9.817589E-10
       326  14 -1.661954E+06 -3.134399E+05 -1.948892E+04 -7.243819E+05 -2.950901E-10 -1.146972E-10
       326  15 -1.656902E+06 -3.175590E+05 -1.057595E+04 -7.323604E+05 -8.364850E-10 -4.785206E-10
       326  16 -1.870956E+05  2.100409E+05  2.141151E+05 -3.100274E+05 -7.650406E-10  1.347614E-09
       326  17 -2.736616E+05  1.890367E+05  2.081885E+05 -3.316139E+05  1.125829E-09  7.322864E-10
       326  18 -3.499583E+05  1.518267E+05  1.999208E+05 -3.655738E+05  4.374765E-10  1.052290E-10
       326  19 -3.127334E+06 -8.641232E+05 -2.886355E+05 -1.146609E+06  7.197317E+04 -9.637567E+04
       326  20 -3.048181E+06 -8.157040E+05 -2.471865E+05 -1.116329E+06  5.403859E+04 -1.032552E+05
       326  21 -2.962021E+06 -7.867618E+05 -2.210884E+05 -1.098428E+06  3.451827E+04 -1.059313E+05
       326  22 -1.658365E+06 -3.271500E+05 -3.721738E+04 -7.287882E+05  6.773601E+04 -9.794390E+04
       326  23 -1.661947E+06 -3.134279E+05 -1.946317E+04 -7.243866E+05  5.795560E+04 -1.017470E+05
       326  24 -1.656897E+06 -3.175474E+05 -1.055259E+04 -7.323642E+05  4.659423E+04 -1.013508E+05
       326  25 -1.870886E+05  2.100526E+05  2.141412E+05 -3.100325E+05  6.348811E+04 -9.951633E+04
       326  26 -2.736548E+05  1.890485E+05  2.082146E+05 -3.316189E+05  6.188193E+04 -1.002353E+05
       326  27 -3.499520E+05  1.518376E+05  1.999448E+05 -3.655784E+05  5.869710E+04 -9.676026E+04
       327   1 -2.907042E+06 -7.675848E+05 -2.089021E+05 -1.083719E+06 -3.190211E+04  1.026524E+05
       327   2 -2.827947E+06 -7.300885E+05 -1.908703E+05 -1.052838E+06 -2.647415E+04  9.748999E+04
       327   3 -2.737042E+06 -7.053896E+05 -1.752056E+05 -1.035883E+06 -2.088069E+04  9.187326E+04
       327   4 -1.656296E+06 -3.175212E+05 -7.913505E+03 -7.322716E+05 -4.374893E+04  9.816212E+04
       327   5 -1.662205E+06 -3.109294E+05 -4.337872E+03 -7.253967E+05 -3.920017E+04  9.267439E+04
       327   6 -1.656139E+06 -3.169592E+05 -2.429622E+03 -7.324490E+05 -3.448656E+04  8.673268E+04
       327   7 -4.038488E+05  1.327116E+05  1.930487E+05 -3.801506E+05 -5.562131E+04  9.366224E+04
       327   8 -4.949892E+05  1.083747E+05  1.821709E+05 -3.973721E+05 -5.195170E+04  8.784923E+04
       327   9 -5.739748E+05  7.159345E+04  1.703247E+05 -4.285157E+05 -4.811764E+04  8.158264E+04
       327  10 -2.907046E+06 -7.675964E+05 -2.089238E+05 -1.083717E+06 -1.025978E-09 -4.434572E-11
       327  11 -2.827950E+06 -7.300989E+05 -1.908895E+05 -1.052836E+06 -1.434054E-09 -6.079016E-11
       327  12 -2.737045E+06 -7.053988E+05 -1.752222E+05 -1.035881E+06  1.500359E-09 -1.461656E-09
       327  13 -1.656301E+06 -3.175321E+05 -7.935189E+03 -7.322681E+05  2.502280E-10  2.500522E-10
       327  14 -1.662209E+06 -3.109390E+05 -4.356881E+03 -7.253938E+05 -3.255093E-10 -7.517328E-10
       327  15 -1.656143E+06 -3.169676E+05 -2.445978E+03 -7.324465E+05  1.085816E-09 -9.111092E-10
       327  16 -4.038545E+05  1.327014E+05  1.930264E+05 -3.801464E+05 -1.616847E-10  1.186206E-09
       327  17 -4.949941E+05  1.083657E+05  1.821513E+05 -3.973685E+05  1.015307E-10 -4.589855E-10
       327  18 -5.739790E+05  7.158569E+04  1.703079E+05 -4.285125E+05 -2.052582E-10 -1.619713E-09
       327  19 -2.907042E+06 -7.675848E+05 -2.089021E+05 -1.083719E+06  3.190211E+04 -1.026524E+05
       327  20 -2.827947E+06 -7.300885E+05 -1.908703E+05 -1.052838E+06  2.647415E+04 -9.748999E+04
       327  21 -2.737042E+06 -7.053896E+05 -1.752056E+05 -1.035883E+06  2.088069E+04 -9.187326E+04
       327  22 -1.656296E+06 -3.175212E+05 -7.913505E+03 -7.322716E+05  4.374893E+04 -9.816212E+04
       327  23 -1.662205E+06 -3.109294E+05 -4.337872E+03 -7.253967E+05  3.920017E+04 -9.267439E+04
       327  24 -1.656139E+06 -3.169592E+05 -2.429622E+03 -7.324490E+05  3.448656E+04 -8.673268E+04
       327  25 -4.038488E+05  1.327116E+05  1.930487E+05 -3.801506E+05  5.562131E+04 -9.366224E+04
       327  26 -4.949892E+05  1.083747E+05  1.821709E+05 -3.973721E+05  5.195170E+04 -8.784923E+04
       327  27 -5.739748E+05  7.159345E+04  1.703247E+05 -4.285157E+05  4.811764E+04 -8.158264E+04
       328   1 -2.682684E+06 -6.858053E+05 -1.655281E+05 -1.020688E+06 -1.897747E+04  8.792520E+04
       328   2 -2.603026E+06 -6.486664E+05 -1.512118E+05 -9.894845E+05 -1.562228E+04  8.116747E+04
       328   3 -2.510997E+06 -6.239262E+05 -1.374011E+05 -9.723953E+05 -1.224770E+04  7.434417E+04
       328   4 -1.656030E+06 -3.169608E+05 -1.868455E+03 -7.324584E+05 -3.259247E+04  8.278468E+04
       328   5 -1.662188E+06 -3.107123E+05 -1.169181E+03 -7.254115E+05 -2.936344E+04  7.598480E+04
       328   6 -1.655960E+06 -3.168377E+05 -8.764604E+02 -7.324817E+05 -2.611511E+04  6.911932E+04
       328   7 -6.282488E+05  5.198959E+04  1.617688E+05 -4.437814E+05 -4.623126E+04  7.763523E+04
       328   8 -7.203955E+05  2.733448E+04  1.488574E+05 -4.609604E+05 -4.312674E+04  7.079382E+04
       328   9 -8.001237E+05 -9.669219E+03  1.356377E+05 -4.922532E+05 -4.000299E+04  6.388679E+04
       328  10 -2.682686E+06 -6.858136E+05 -1.655433E+05 -1.020687E+06 -6.642004E-10 -1.430384E-09
       328  11 -2.603028E+06 -6.486736E+05 -1.512246E+05 -9.894834E+05  2.457896E-10 -6.872024E-10
       328  12 -2.510998E+06 -6.239321E+05 -1.374117E+05 -9.723945E+05 -6.761450E-11  6.472140E-10
       328  13 -1.656033E+06 -3.169684E+05 -1.883316E+03 -7.324563E+05  5.359298E-10 -1.139765E-09
       328  14 -1.662191E+06 -3.107187E+05 -1.181640E+03 -7.254097E+05  4.200273E-10 -8.672608E-10
       328  15 -1.655962E+06 -3.168431E+05 -8.867103E+02 -7.324802E+05  1.510016E-10  1.644165E-10
       328  16 -6.282527E+05  5.198255E+04  1.617535E+05 -4.437785E+05  1.475413E-09 -1.206261E-09
       328  17 -7.203989E+05  2.732861E+04  1.488445E+05 -4.609579E+05  4.844910E-10  2.173579E-10
       328  18 -8.001265E+05 -9.674026E+03  1.356270E+05 -4.922511E+05  7.034855E-10 -2.795096E-10
       328  19 -2.682684E+06 -6.858053E+05 -1.655281E+05 -1.020688E+06  1.897747E+04 -8.792520E+04
       328  20 -2.603026E+06 -6.486664E+05 -1.512118E+05 -9.894845E+05  1.562228E+04 -8.116747E+04
       328  21 -2.510997E+06 -6.239262E+05 -1.374011E+05 -9.723953E+05  1.224770E+04 -7.434417E+04
       328  22 -1.656030E+06 -3.169608E+05 -1.868455E+03 -7.324584E+05  3.259247E+04 -8.278468E+04
       328  23 -1.662188E+06 -3.107123E+05 -1.169181E+03 -7.254115E+05  2.936344E+04 -7.598480E+04
       328  24 -1.655960E+06 -3.168377E+05 -8.764604E+02 -7.324817E+05  2.611511E+04 -6.911932E+04
       328  25 -6.282488E+05  5.198959E+04  1.617688E+05 -4.437814E+05  4.623126E+04 -7.763523E+04
       328  26 -7.203955E+05  2.733448E+04  1.488574E+05 -4.609604E+05  4.312674E+04 -7.079382E+04
       328  27 -8.001237E+05 -9.669219E+03  1.356377E+05 -4.922532E+05  4.000299E+04 -6.388679E+04
       329   1 -2.456291E+06 -6.041829E+05 -1.282461E+05 -9.570880E+05 -1.051472E+04  7.025887E+04
       329   2 -2.376004E+06 -5.668581E+05 -1.148329E+05 -9.257074E+05 -7.267006E+03  6.332779E+04
       329   3 -2.283276E+06 -5.419981E+05 -1.018223E+05 -9.085587E+05 -4.016191E+03  5.637752E+04
       329   4 -1.655923E+06 -3.168278E+05 -8.582907E+02 -7.325089E+05 -2.440870E+04  6.502680E+04
       329   5 -1.662111E+06 -3.105368E+05 -1.054348E+03 -7.254057E+05 -2.119747E+04  5.808610E+04
       329   6 -1.655860E+06 -3.167030E+05 -1.625324E+03 -7.325360E+05 -1.798322E+04  5.112620E+04
       329   7 -8.548637E+05 -2.940580E+04  1.265182E+05 -5.076563E+05 -3.832171E+04  5.978759E+04
       329   8 -9.476715E+05 -5.416370E+04  1.127142E+05 -5.248875E+05 -3.514487E+04  5.283805E+04
       329   9 -1.028026E+06 -9.136954E+04  9.856288E+04 -5.563471E+05 -3.196510E+04  4.586930E+04
       329  10 -2.456293E+06 -6.041882E+05 -1.282555E+05 -9.570874E+05  1.343882E-09  5.816295E-10
       329  11 -2.376005E+06 -5.668625E+05 -1.148405E+05 -9.257071E+05  1.099922E-09 -5.677981E-11
       329  12 -2.283277E+06 -5.420015E+05 -1.018283E+05 -9.085586E+05  2.220267E-10 -1.931433E-10
       329  13 -1.655925E+06 -3.168325E+05 -8.673480E+02 -7.325076E+05 -6.134908E-10  2.766955E-10
       329  14 -1.662112E+06 -3.105405E+05 -1.061526E+03 -7.254047E+05 -8.924949E-10 -5.144047E-10
       329  15 -1.655861E+06 -3.167059E+05 -1.630839E+03 -7.325352E+05  6.963689E-10 -9.860032E-10
       329  16 -8.548662E+05 -2.941003E+04  1.265087E+05 -5.076545E+05 -1.252525E-09 -1.444515E-09
       329  17 -9.476736E+05 -5.416703E+04  1.127066E+05 -5.248860E+05  2.086235E-10 -2.006693E-09
       329  18 -1.028028E+06 -9.137207E+04  9.855701E+04 -5.563459E+05 -4.257184E-10 -8.390332E-10
       329  19 -2.456291E+06 -6.041829E+05 -1.282461E+05 -9.570880E+05  1.051472E+04 -7.025887E+04
       329  20 -2.376004E+06 -5.668581E+05 -1.148329E+05 -9.257074E+05  7.267006E+03 -6.332779E+04
       329  21 -2.283276E+06 -5.419981E+05 -1.018223E+05 -9.085587E+05  4.016191E+03 -5.637752E+04
       329  22 -1.655923E+06 -3.168278E+05 -8.582907E+02 -7.325089E+05  2.440870E+04 -6.502680E+04
       329  23 -1.662111E+06 -3.105368E+05 -1.054348E+03 -7.254057E+05  2.119747E+04 -5.808610E+04
       329  24 -1.655860E+06 -3.167030E+05 -1.625324E+03 -7.325360E+05  1.798322E+04 -5.112620E+04
       329  25 -8.548637E+05 -2.940580E+04  1.265182E+05 -5.076563E+05  3.832171E+04 -5.978759E+04
       329  26 -9.476715E+05 -5.416370E+04  1.127142E+05 -5.248875E+05  3.514487E+04 -5.283805E+04
       329  27 -1.028026E+06 -9.136954E+04  9.856288E+04 -5.563471E+05  3.196510E+04 -4.586930E+04
       330   1 -2.228216E+06 -5.221849E+05 -9.310401E+04 -8.932414E+05 -2.118231E+03  5.232422E+04
       330   2 -2.147370E+06 -4.847043E+05 -8.102914E+04 -8.616375E+05  2.407545E+03  4.583762E+04
       330   3 -2.054331E+06 -4.600701E+05 -7.039253E+04 -8.443373E+05  6.927040E+03  3.936108E+04
       330   4 -1.655894E+06 -3.166891E+05 -2.101742E+03 -7.325862E+05 -1.610755E+04  4.706656E+04
       330   5 -1.661986E+06 -3.103911E+05 -3.709375E+03 -7.253784E+05 -1.156122E+04  4.059042E+04
       330   6 -1.655900E+06 -3.169446E+05 -6.773087E+03 -7.324773E+05 -7.021450E+03  3.412425E+04
       330   7 -1.083211E+06 -1.111562E+05  8.889713E+04 -5.717892E+05 -3.011073E+04  4.180369E+04
       330   8 -1.176344E+06 -1.360519E+05  7.360760E+04 -5.890177E+05 -2.554168E+04  3.533882E+04
       330   9 -1.257298E+06 -1.738022E+05  5.684420E+04 -6.205493E+05 -2.097945E+04  2.888384E+04
       330  10 -2.228217E+06 -5.221878E+05 -9.310916E+04 -8.932413E+05  1.359954E-09  4.146460E-10
       330  11 -2.147371E+06 -4.847066E+05 -8.103310E+04 -8.616376E+05 -2.742332E-10 -5.762239E-11
       330  12 -2.054331E+06 -4.600718E+05 -7.039554E+04 -8.443376E+05 -1.640134E-09  3.237385E-10
       330  13 -1.655895E+06 -3.166915E+05 -2.106388E+03 -7.325856E+05 -5.362610E-10 -1.549015E-10
       330  14 -1.661987E+06 -3.103929E+05 -3.712719E+03 -7.253780E+05 -2.125373E-09  2.023191E-10
       330  15 -1.655900E+06 -3.169459E+05 -6.775366E+03 -7.324771E+05 -1.116283E-09  5.636370E-10
       330  16 -1.083213E+06 -1.111584E+05  8.889214E+04 -5.717882E+05 -1.727483E-09 -1.291236E-09
       330  17 -1.176346E+06 -1.360534E+05  7.360403E+04 -5.890170E+05 -8.208821E-10 -2.605433E-10
       330  18 -1.257298E+06 -1.738033E+05  5.684181E+04 -6.205488E+05  1.109407E-09  6.198696E-10
       330  19 -2.228216E+06 -5.221849E+05 -9.310401E+04 -8.932414E+05  2.118231E+03 -5.232422E+04
       330  20 -2.147370E+06 -4.847043E+05 -8.102914E+04 -8.616375E+05 -2.407545E+03 -4.583762E+04
       330  21 -2.054331E+06 -4.600701E+05 -7.039253E+04 -8.443373E+05 -6.927040E+03 -3.936108E+04
       330  22 -1.655894E+06 -3.166891E+05 -2.101742E+03 -7.325862E+05  1.610755E+04 -4.706656E+04
       330  23 -1.661986E+06 -3.103911E+05 -3.709375E+03 -7.253784E+05  1.156122E+04 -4.059042E+04
       330  24 -1.655900E+06 -3.169446E+05 -6.773087E+03 -7.324773E+05  7.021450E+03 -3.412425E+04
       330  25 -1.083211E+06 -1.111562E+05  8.889713E+04 -5.717892E+05  3.011073E+04 -4.180369E+04
       330  26 -1.176344E+06 -1.360519E+05  7.360760E+04 -5.890177E+05  2.554168E+04 -3.533882E+04
       330  27 -1.257298E+06 -1.738022E+05  5.684420E+04 -6.205493E+05  2.097945E+04 -2.888384E+04
       331   1 -1.999017E+06 -4.406459E+05 -6.340346E+04 -8.295549E+05  9.749920E+03  3.565395E+04
       331   2 -1.918987E+06 -4.026901E+05 -5.710190E+04 -7.947907E+05  2.038271E+04  3.158289E+04
       331   3 -1.829305E+06 -3.823333E+05 -5.809398E+04 -7.734174E+05  3.093655E+04  2.772097E+04
       331   4 -1.656328E+06 -3.169916E+05 -9.037711E+03 -7.326557E+05 -4.225949E+03  3.040814E+04
       331   5 -1.661675E+06 -3.121724E+05 -1.664393E+04 -7.244494E+05  6.816430E+03  2.649210E+04
       331   6 -1.657460E+06 -3.250337E+05 -3.186868E+04 -7.296377E+05  1.777889E+04  2.278464E+04
       331   7 -1.313515E+06 -1.933261E+05  4.532564E+04 -6.357068E+05 -1.820985E+04  2.515927E+04
       331   8 -1.404292E+06 -2.216484E+05  2.381366E+04 -6.540807E+05 -6.755820E+03  2.139917E+04
       331   9 -1.485582E+06 -2.677312E+05 -5.642536E+03 -6.858465E+05  4.617211E+03  1.784704E+04
       331  10 -1.999018E+06 -4.406473E+05 -6.340603E+04 -8.295552E+05  2.303485E-11  1.167025E-09
       331  11 -1.918987E+06 -4.026912E+05 -5.710456E+04 -7.947912E+05 -5.401534E-10  8.476263E-10
       331  12 -1.829306E+06 -3.823344E+05 -5.809724E+04 -7.734181E+05  1.841576E-10  3.606220E-10
       331  13 -1.656328E+06 -3.169926E+05 -9.039481E+03 -7.326556E+05 -2.034450E-10  8.213159E-10
       331  14 -1.661675E+06 -3.121732E+05 -1.664533E+04 -7.244495E+05  2.866352E-10  6.720401E-10
       331  15 -1.657461E+06 -3.250344E+05 -3.187025E+04 -7.296381E+05  3.197355E-10  2.185115E-10
       331  16 -1.313516E+06 -1.933268E+05  4.532383E+04 -6.357064E+05  5.883671E-10  3.795892E-10
       331  17 -1.404292E+06 -2.216489E+05  2.381271E+04 -6.540806E+05 -9.616922E-10  5.112109E-10
       331  18 -1.485582E+06 -2.677316E+05 -5.643175E+03 -6.858465E+05 -1.667555E-10  1.625986E-11
       331  19 -1.999017E+06 -4.406459E+05 -6.340346E+04 -8.295549E+05 -9.749920E+03 -3.565395E+04
       331  20 -1.918987E+06 -4.026901E+05 -5.710190E+04 -7.947907E+05 -2.038271E+04 -3.158289E+04
       331  21 -1.829305E+06 -3.823333E+05 -5.809398E+04 -7.734174E+05 -3.093655E+04 -2.772097E+04
       331  22 -1.656328E+06 -3.169916E+05 -9.037711E+03 -7.326557E+05  4.225949E+03 -3.040814E+04
       331  23 -1.661675E+06 -3.121724E+05 -1.664393E+04 -7.244494E+05 -6.816430E+03 -2.649210E+04
       331  24 -1.657460E+06 -3.250337E+05 -3.186868E+04 -7.296377E+05 -1.777889E+04 -2.278464E+04
       331  25 -1.313515E+06 -1.933261E+05  4.532564E+04 -6.357068E+05  1.820985E+04 -2.515927E+04
       331  26 -1.404292E+06 -2.216484E+05  2.381366E+04 -6.540807E+05  6.755820E+03 -2.139917E+04
       331  27 -1.485582E+06 -2.677312E+05 -5.642536E+03 -6.858465E+05 -4.617211E+03 -1.784704E+04
       332   1 -1.773319E+06 -3.691614E+05 -5.941624E+04 -7.653202E+05  3.738747E+04  2.554289E+04
       332   2 -1.720259E+06 -3.243719E+05 -8.289698E+04 -6.779756E+05  7.788681E+04  3.416128E+04
       332   3 -1.687478E+06 -3.661320E+05 -1.551285E+05 -5.867791E+05  1.175989E+05  4.489378E+04
       332   4 -1.662309E+06 -3.266243E+05 -4.272346E+04 -7.310172E+05  2.408561E+04  2.055349E+04
       332   5 -1.661064E+06 -3.486313E+05 -8.193563E+04 -7.083174E+05  6.869472E+04  3.070598E+04
       332   6 -1.680931E+06 -4.580197E+05 -1.731659E+05 -6.817764E+05  1.125125E+05  4.296348E+04
       332   7 -1.551284E+06 -2.840848E+05 -2.602983E+04 -6.967078E+05  1.078116E+04  1.556294E+04
       332   8 -1.601860E+06 -3.728827E+05 -8.097263E+04 -7.386615E+05  5.950184E+04  2.725209E+04
       332   9 -1.674364E+06 -5.498571E+05 -1.911969E+05 -7.767651E+05  1.074263E+05  4.103519E+04
       332  10 -1.773321E+06 -3.691624E+05 -5.942011E+04 -7.653210E+05 -4.848783E-10 -1.790846E-10
       332  11 -1.720266E+06 -3.243748E+05 -8.291062E+04 -6.779778E+05  5.778743E-10  2.542722E-10
       332  12 -1.687493E+06 -3.661379E+05 -1.551583E+05 -5.867834E+05 -5.380227E-10  1.749355E-10
       332  13 -1.662310E+06 -3.266249E+05 -4.272535E+04 -7.310176E+05  8.139410E-10  1.587152E-10
       332  14 -1.661069E+06 -3.486335E+05 -8.194630E+04 -7.083191E+05  1.999527E-09  3.368532E-10
       332  15 -1.680946E+06 -4.580251E+05 -1.731932E+05 -6.817803E+05  9.290463E-11  7.173024E-11
       332  16 -1.551285E+06 -2.840851E+05 -2.603051E+04 -6.967080E+05  6.974885E-10  2.640420E-10
       332  17 -1.601864E+06 -3.728844E+05 -8.098071E+04 -7.386629E+05  4.641940E-10  1.488694E-10
       332  18 -1.674377E+06 -5.498621E+05 -1.912219E+05 -7.767687E+05 -8.962821E-10 -1.840540E-10
       332  19 -1.773319E+06 -3.691614E+05 -5.941624E+04 -7.653202E+05 -3.738747E+04 -2.554289E+04
       332  20 -1.720259E+06 -3.243719E+05 -8.289698E+04 -6.779756E+05 -7.788681E+04 -3.416128E+04
       332  21 -1.687478E+06 -3.661320E+05 -1.551285E+05 -5.867791E+05 -1.175989E+05 -4.489378E+04
       332  22 -1.662309E+06 -3.266243E+05 -4.272346E+04 -7.310172E+05 -2.408561E+04 -2.055349E+04
       332  23 -1.661064E+06 -3.486313E+05 -8.193563E+04 -7.083174E+05 -6.869472E+04 -3.070598E+04
       332  24 -1.680931E+06 -4.580197E+05 -1.731659E+05 -6.817764E+05 -1.125125E+05 -4.296348E+04
       332  25 -1.551284E+06 -2.840848E+05 -2.602983E+04 -6.967078E+05 -1.078116E+04 -1.556294E+04
       332  26 -1.601860E+06 -3.728827E+05 -8.097263E+04 -7.386615E+05 -5.950184E+04 -2.725209E+04
       332  27 -1.674364E+06 -5.498571E+05 -1.911969E+05 -7.767651E+05 -1.074263E+05 -4.103519E+04
       333   1  1.292510E+06  2.168051E+05  2.960647E+05  4.901333E+04  2.388447E+05  1.903959E+03
       333   2  1.256718E+06 -1.062506E+05  1.005178E+05  1.706315E+04  1.575358E+05  4.754743E+03
       333   3  1.324100E+06 -5.946733E+04  5.035371E+04 -3.390994E+04  7.622583E+04  3.898086E+03
       333   4  1.516706E+06  2.725115E+05  3.516634E+05 -7.634532E+03  2.404122E+05  1.884082E+03
       333   5  1.465133E+06 -5.445064E+04  1.516019E+05  2.053112E+03  1.579149E+05  4.751209E+03
       333   6  1.516901E+06 -1.144124E+04  9.770920E+04 -7.283197E+03  7.541857E+04  3.900556E+03
       333   7  1.740954E+06  3.282262E+05  4.072600E+05 -6.430283E+04  2.419803E+05  1.863926E+03
       333   8  1.673589E+06 -2.653049E+03  2.026830E+05 -1.296197E+04  1.582940E+05  4.747658E+03
       333   9  1.709737E+06  3.658475E+04  1.450624E+05  1.935181E+04  7.461107E+04  3.902957E+03
       333  10  1.292449E+06  2.167899E+05  2.959577E+05  4.901297E+04  4.745149E-10 -1.739377E-09
       333  11  1.256691E+06 -1.062573E+05  1.004713E+05  1.706254E+04 -3.365817E-10 -8.147613E-10
       333  12  1.324094E+06 -5.946890E+04  5.034278E+04 -3.391018E+04 -3.253220E-09 -1.028209E-09
       333  13  1.516644E+06  2.724961E+05  3.515550E+05 -7.634897E+03  1.193044E-09  5.353559E-10
       333  14  1.465106E+06 -5.445734E+04  1.515551E+05  2.052509E+03 -1.716812E-11 -7.907184E-10
       333  15  1.516895E+06 -1.144277E+04  9.769851E+04 -7.283434E+03 -1.363598E-09 -1.213105E-09
       333  16  1.740891E+06  3.282106E+05  4.071503E+05 -6.430320E+04  3.997568E-10  6.145299E-10
       333  17  1.673562E+06 -2.659776E+03  2.026360E+05 -1.296258E+04  2.472779E-09 -1.577330E-10
       333  18  1.709732E+06  3.658325E+04  1.450519E+05  1.935157E+04  3.201567E-09  1.403975E-09
       333  19  1.292510E+06  2.168051E+05  2.960647E+05  4.901333E+04 -2.388447E+05 -1.903959E+03
       333  20  1.256718E+06 -1.062506E+05  1.005178E+05  1.706315E+04 -1.575358E+05 -4.754743E+03
       333  21  1.324100E+06 -5.946733E+04  5.035371E+04 -3.390994E+04 -7.622583E+04 -3.898086E+03
       333  22  1.516706E+06  2.725115E+05  3.516634E+05 -7.634532E+03 -2.404122E+05 -1.884082E+03
       333  23  1.465133E+06 -5.445064E+04  1.516019E+05  2.053112E+03 -1.579149E+05 -4.751209E+03
       333  24  1.516901E+06 -1.144124E+04  9.770920E+04 -7.283197E+03 -7.541857E+04 -3.900556E+03
       333  25  1.740954E+06  3.282262E+05  4.072600E+05 -6.430283E+04 -2.419803E+05 -1.863926E+03
       333  26  1.673589E+06 -2.653049E+03  2.026830E+05 -1.296197E+04 -1.582940E+05 -4.747658E+03
       333  27  1.709737E+06  3.658475E+04  1.450624E+05  1.935181E+04 -7.461107E+04 -3.902957E+03
       334   1  1.341324E+06 -2.459361E+03  4.214745E+04  2.402888E+02  5.956252E+04  3.013437E+03
       334   2  1.347238E+06 -4.275995E+04  4.443611E+03  2.983073E+03  3.919587E+04  2.913124E+03
       334   3  1.368239E+06 -3.361500E+04 -7.640646E+03 -1.045110E+04  1.882913E+04  2.414884E+03
       334   4  1.497245E+06  3.632522E+04  8.046020E+04 -6.779319E+03  5.960841E+04  3.012744E+03
       334   5  1.489710E+06 -7.317346E+03  3.941840E+04  1.323146E+03  3.911267E+04  2.912919E+03
       334   6  1.497282E+06 -1.498477E+03  2.408098E+04 -6.750997E+03  1.861730E+04  2.414858E+03
       334   7  1.653189E+06  7.510820E+04  1.187712E+05 -1.380069E+04  5.965430E+04  3.012051E+03
       334   8  1.632202E+06  2.812376E+04  7.439169E+04 -3.371639E+02  3.902946E+04  2.912716E+03
       334   9  1.626339E+06  3.061687E+04  5.580139E+04 -3.050124E+03  1.840542E+04  2.414829E+03
       334  10  1.341320E+06 -2.460320E+03  4.214078E+04  2.401443E+02 -1.220876E-09 -7.601855E-10
       334  11  1.347236E+06 -4.276037E+04  4.440714E+03  2.982981E+03  7.271769E-11  1.042953E-10
       334  12  1.368239E+06 -3.361511E+04 -7.641322E+03 -1.045114E+04  4.641503E-10  1.642003E-12
       334  13  1.497242E+06  3.632426E+04  8.045352E+04 -6.779464E+03 -1.511148E-10  1.144689E-09
       334  14  1.489709E+06 -7.317765E+03  3.941551E+04  1.323055E+03  7.870753E-10  3.937764E-10
       334  15  1.497281E+06 -1.498576E+03  2.408032E+04 -6.751033E+03 -1.036612E-09 -4.348653E-10
       334  16  1.653185E+06  7.510723E+04  1.187645E+05 -1.380084E+04 -2.186210E-10  7.055400E-10
       334  17  1.632200E+06  2.812334E+04  7.438882E+04 -3.372554E+02 -2.784790E-10 -1.585115E-10
       334  18  1.626339E+06  3.061677E+04  5.580074E+04 -3.050160E+03 -1.299499E-10  1.836175E-11
       334  19  1.341324E+06 -2.459361E+03  4.214745E+04  2.402888E+02 -5.956252E+04 -3.013437E+03
       334  20  1.347238E+06 -4.275995E+04  4.443611E+03  2.983073E+03 -3.919587E+04 -2.913124E+03
       334  21  1.368239E+06 -3.361500E+04 -7.640646E+03 -1.045110E+04 -1.882913E+04 -2.414884E+03
       334  22  1.497245E+06  3.632522E+04  8.046020E+04 -6.779319E+03 -5.960841E+04 -3.012744E+03
       334  23  1.489710E+06 -7.317346E+03  3.941840E+04  1.323146E+03 -3.911267E+04 -2.912919E+03
       334  24  1.497282E+06 -1.498477E+03  2.408098E+04 -6.750997E+03 -1.861730E+04 -2.414858E+03
       334  25  1.653189E+06  7.510820E+04  1.187712E+05 -1.380069E+04 -5.965430E+04 -3.012051E+03
       334  26  1.632202E+06  2.812376E+04  7.439169E+04 -3.371639E+02 -3.902946E+04 -2.912716E+03
       334  27  1.626339E+06  3.061687E+04  5.580139E+04 -3.050124E+03 -1.840542E+04 -2.414829E+03
       335   1  1.397915E+06 -1.921074E+04 -4.548666E+03 -5.597354E+03  1.486195E+04  2.086896E+03
       335   2  1.408801E+06 -2.199876E+04 -1.060540E+04  9.951890E+02  9.726796E+03  1.691724E+03
       335   3  1.422032E+06 -1.820964E+04 -1.167324E+04 -6.912621E+03  4.591552E+03  1.270543E+03
       335   4  1.494442E+06  4.796969E+03  1.912152E+04 -6.388680E+03  1.474470E+04  2.086805E+03
       335   5  1.493273E+06 -9.834260E+02  1.013560E+04  8.624804E+02  9.600695E+03  1.691662E+03
       335   6  1.494449E+06 -1.856422E+02  6.144164E+03 -6.386585E+03  4.456697E+03  1.270501E+03
       335   7  1.590977E+06  2.880399E+04  4.279103E+04 -7.180130E+03  1.462744E+04  2.086714E+03
       335   8  1.577751E+06  2.003138E+04  3.087607E+04  7.297532E+02  9.474577E+03  1.691600E+03
       335   9  1.566871E+06  1.783797E+04  2.396119E+04 -5.860487E+03  4.321826E+03  1.270459E+03
       335  10  1.397915E+06 -1.921080E+04 -4.549088E+03 -5.597379E+03 -4.493774E-10  1.210703E-10
       335  11  1.408801E+06 -2.199879E+04 -1.060558E+04  9.951757E+02 -1.557588E-09 -7.456858E-10
       335  12  1.422032E+06 -1.820965E+04 -1.167329E+04 -6.912626E+03 -1.116504E-09 -7.476177E-11
       335  13  1.494442E+06  4.796906E+03  1.912111E+04 -6.388705E+03 -3.476747E-10 -3.983594E-11
       335  14  1.493273E+06 -9.834538E+02  1.013542E+04  8.624673E+02  4.323797E-14 -8.739116E-11
       335  15  1.494449E+06 -1.856493E+02  6.144124E+03 -6.386589E+03 -2.547329E-09 -4.907155E-10
       335  16  1.590977E+06  2.880393E+04  4.279062E+04 -7.180155E+03 -1.608950E-09 -8.488651E-11
       335  17  1.577751E+06  2.003135E+04  3.087590E+04  7.297403E+02 -1.970888E-09 -2.674462E-10
       335  18  1.566871E+06  1.783796E+04  2.396115E+04 -5.860491E+03 -8.745878E-10  2.639331E-10
       335  19  1.397915E+06 -1.921074E+04 -4.548666E+03 -5.597354E+03 -1.486195E+04 -2.086896E+03
       335  20  1.408801E+06 -2.199876E+04 -1.060540E+04  9.951890E+02 -9.726796E+03 -1.691724E+03
       335  21  1.422032E+06 -1.820964E+04 -1.167324E+04 -6.912621E+03 -4.591552E+03 -1.270543E+03
       335  22  1.494442E+06  4.796969E+03  1.912152E+04 -6.388680E+03 -1.474470E+04 -2.086805E+03
       335  23  1.493273E+06 -9.834260E+02  1.013560E+04  8.624804E+02 -9.600695E+03 -1.691662E+03
       335  24  1.494449E+06 -1.856422E+02  6.144164E+03 -6.386585E+03 -4.456697E+03 -1.270501E+03
       335  25  1.590977E+06  2.880399E+04  4.279103E+04 -7.180130E+03 -1.462744E+04 -2.086714E+03
       335  26  1.577751E+06  2.003138E+04  3.087607E+04  7.297532E+02 -9.474577E+03 -1.691600E+03
       335  27  1.566871E+06  1.783797E+04  2.396119E+04 -5.860487E+03 -4.321826E+03 -1.270459E+03
       336   1  1.451487E+06 -9.956601E+03 -5.530284E+03 -6.122621E+03  3.589056E+03  1.025299E+03
       336   2  1.462620E+06 -7.902533E+03 -4.668905E+03  6.285150E+02  2.091613E+03  6.221768E+02
       336   3  1.474193E+06 -4.907795E+03 -2.596996E+03 -6.278321E+03  5.940840E+02  2.230615E+02
       336   4  1.494026E+06  6.192677E+02  4.879131E+03 -6.200155E+03  3.462692E+03  1.025264E+03
       336   5  1.493807E+06 -1.437553E+02  2.988832E+03  6.288774E+02  1.966409E+03  6.221480E+02
       336   6  1.494027E+06  3.361933E+01  2.308156E+03 -6.200016E+03  4.700663E+02  2.230390E+02
       336   7  1.536567E+06  1.119500E+04  1.528841E+04 -6.277696E+03  3.336319E+03  1.025229E+03
       336   8  1.524995E+06  7.614951E+03  1.064650E+04  6.292398E+02  1.841198E+03  6.221193E+02
       336   9  1.513862E+06  4.975005E+03  7.213279E+03 -6.121709E+03  3.460446E+02  2.230165E+02
       336  10  1.451487E+06 -9.956606E+03 -5.530311E+03 -6.122624E+03 -3.861219E-11 -3.489685E-12
       336  11  1.462620E+06 -7.902535E+03 -4.668914E+03  6.285140E+02 -1.534346E-09 -1.860780E-10
       336  12  1.474193E+06 -4.907795E+03 -2.596996E+03 -6.278321E+03 -7.936294E-10 -5.620703E-10
       336  13  1.494026E+06  6.192633E+02  4.879107E+03 -6.200158E+03 -1.008858E-09  1.882880E-10
       336  14  1.493807E+06 -1.437567E+02  2.988824E+03  6.288765E+02 -1.902950E-09 -4.311729E-10
       336  15  1.494027E+06  3.361922E+01  2.308156E+03 -6.200016E+03 -9.110255E-10 -7.110041E-11
       336  16  1.536567E+06  1.119500E+04  1.528839E+04 -6.277698E+03 -7.302137E-10  2.829664E-10
       336  17  1.524995E+06  7.614949E+03  1.064649E+04  6.292389E+02 -2.643543E-09 -2.860537E-10
       336  18  1.513862E+06  4.975004E+03  7.213279E+03 -6.121709E+03 -3.304028E-10  1.287738E-11
       336  19  1.451487E+06 -9.956601E+03 -5.530284E+03 -6.122621E+03 -3.589056E+03 -1.025299E+03
       336  20  1.462620E+06 -7.902533E+03 -4.668905E+03  6.285150E+02 -2.091613E+03 -6.221768E+02
       336  21  1.474193E+06 -4.907795E+03 -2.596996E+03 -6.278321E+03 -5.940840E+02 -2.230615E+02
       336  22  1.494026E+06  6.192677E+02  4.879131E+03 -6.200155E+03 -3.462692E+03 -1.025264E+03
       336  23  1.493807E+06 -1.437553E+02  2.988832E+03  6.288774E+02 -1.966409E+03 -6.221480E+02
       336  24  1.494027E+06  3.361933E+01  2.308156E+03 -6.200016E+03 -4.700663E+02 -2.230390E+02
       336  25  1.536567E+06  1.119500E+04  1.528841E+04 -6.277696E+03 -3.336319E+03 -1.025229E+03
       336  26  1.524995E+06  7.614951E+03  1.064650E+04  6.292398E+02 -1.841198E+03 -6.221193E+02
       336  27  1.513862E+06  4.975005E+03  7.213279E+03 -6.121709E+03 -3.460446E+02 -2.230165E+02
       337   1  1.503077E+06  2.322595E+03  4.481475E+03 -6.124174E+03  1.848460E+02 -7.917644E+00
       337   2  1.514186E+06  4.949630E+03  7.500014E+03  6.043540E+02 -1.066572E+03 -4.061690E+02
       337   3  1.525652E+06  8.323059E+03  1.152004E+04 -6.245651E+03 -2.317989E+03 -8.055925E+02
       337   4  1.494009E+06  5.963418E+01  2.219828E+03 -6.182397E+03  6.062054E+01 -7.939450E+00
       337   5  1.493830E+06 -1.143570E+02  2.501999E+03  6.068398E+02 -1.191134E+03 -4.061949E+02
       337   6  1.494008E+06  4.581307E+02  3.785928E+03 -6.182484E+03 -2.442864E+03 -8.056222E+02
       337   7  1.484941E+06 -2.203333E+03 -4.182527E+01 -6.240618E+03 -6.360316E+01 -7.961232E+00
       337   8  1.473474E+06 -5.178375E+03 -2.496047E+03  6.093255E+02 -1.315691E+03 -4.062207E+02
       337   9  1.462365E+06 -7.406871E+03 -3.948261E+03 -6.119320E+03 -2.567733E+03 -8.056519E+02
       337  10  1.503077E+06  2.322595E+03  4.481475E+03 -6.124174E+03 -1.235763E-09 -5.252404E-11
       337  11  1.514186E+06  4.949630E+03  7.500011E+03  6.043536E+02 -1.213686E-10  5.103318E-10
       337  12  1.525652E+06  8.323057E+03  1.152003E+04 -6.245653E+03 -8.753517E-10 -3.687568E-10
       337  13  1.494009E+06  5.963418E+01  2.219828E+03 -6.182397E+03 -9.574472E-10  6.515582E-10
       337  14  1.493830E+06 -1.143576E+02  2.501996E+03  6.068394E+02  1.617706E-09  9.583486E-10
       337  15  1.494008E+06  4.581284E+02  3.785915E+03 -6.182485E+03 -8.991975E-10 -3.529513E-10
       337  16  1.484941E+06 -2.203333E+03 -4.182528E+01 -6.240618E+03 -4.555410E-10  5.739438E-10
       337  17  1.473474E+06 -5.178375E+03 -2.496050E+03  6.093251E+02 -4.312926E-10  1.691425E-10
       337  18  1.462365E+06 -7.406874E+03 -3.948275E+03 -6.119321E+03  6.941309E-10 -6.224909E-10
       337  19  1.503077E+06  2.322595E+03  4.481475E+03 -6.124174E+03 -1.848460E+02  7.917644E+00
       337  20  1.514186E+06  4.949630E+03  7.500014E+03  6.043540E+02  1.066572E+03  4.061690E+02
       337  21  1.525652E+06  8.323059E+03  1.152004E+04 -6.245651E+03  2.317989E+03  8.055925E+02
       337  22  1.494009E+06  5.963418E+01  2.219828E+03 -6.182397E+03 -6.062054E+01  7.939450E+00
       337  23  1.493830E+06 -1.143570E+02  2.501999E+03  6.068398E+02  1.191134E+03  4.061949E+02
       337  24  1.494008E+06  4.581307E+02  3.785928E+03 -6.182484E+03  2.442864E+03  8.056222E+02
       337  25  1.484941E+06 -2.203333E+03 -4.182527E+01 -6.240618E+03  6.360316E+01  7.961232E+00
       337  26  1.473474E+06 -5.178375E+03 -2.496047E+03  6.093255E+02  1.315691E+03  4.062207E+02
       337  27  1.462365E+06 -7.406871E+03 -3.948261E+03 -6.119320E+03  2.567733E+03  8.056519E+02
       338   1  1.555503E+06  1.509425E+04  1.974418E+04 -5.943747E+03 -3.073660E+03 -1.047493E+03
       338   2  1.566479E+06  1.743841E+04  2.552733E+04  6.973062E+02 -6.936223E+03 -1.462248E+03
       338   3  1.579206E+06  2.467160E+04  3.504819E+04 -6.922267E+03 -1.079874E+04 -1.850690E+03
       338   4  1.494317E+06 -1.340434E+02  4.686206E+03 -6.333588E+03 -3.206879E+03 -1.047530E+03
       338   5  1.493440E+06 -7.310217E+02  7.595156E+03  7.960918E+02 -7.060816E+03 -1.462300E+03
       338   6  1.494312E+06  3.559930E+03  1.423623E+04 -6.334958E+03 -1.091463E+04 -1.850761E+03
       338   7  1.433135E+06 -1.536261E+04 -1.037205E+04 -6.723391E+03 -3.340085E+03 -1.047566E+03
       338   8  1.420406E+06 -1.890085E+04 -1.033741E+04  8.948655E+02 -7.185393E+03 -1.462352E+03
       338   9  1.409425E+06 -1.755227E+04 -6.576261E+03 -5.747730E+03 -1.103051E+04 -1.850832E+03
       338  10  1.555503E+06  1.509424E+04  1.974416E+04 -5.943750E+03 -6.112527E-10 -3.208952E-10
       338  11  1.566479E+06  1.743840E+04  2.552724E+04  6.972980E+02 -6.281889E-11  8.584417E-12
       338  12  1.579206E+06  2.467157E+04  3.504796E+04 -6.922283E+03  6.134442E-10  6.690596E-10
       338  13  1.494317E+06 -1.340473E+02  4.686185E+03 -6.333591E+03  7.011551E-11 -4.001821E-10
       338  14  1.493440E+06 -7.310374E+02  7.595059E+03  7.960835E+02  1.077204E-09  4.596270E-10
       338  15  1.494312E+06  3.559894E+03  1.423600E+04 -6.334974E+03  1.160412E-09  1.887645E-10
       338  16  1.433135E+06 -1.536261E+04 -1.037207E+04 -6.723394E+03  7.317814E-10 -4.415724E-10
       338  17  1.420406E+06 -1.890087E+04 -1.033751E+04  8.948570E+02 -5.634078E-10  6.931288E-10
       338  18  1.409424E+06 -1.755231E+04 -6.576495E+03 -5.747746E+03 -1.094958E-09  2.916035E-10
       338  19  1.555503E+06  1.509425E+04  1.974418E+04 -5.943747E+03  3.073660E+03  1.047493E+03
       338  20  1.566479E+06  1.743841E+04  2.552733E+04  6.973062E+02  6.936223E+03  1.462248E+03
       338  21  1.579206E+06  2.467160E+04  3.504819E+04 -6.922267E+03  1.079874E+04  1.850690E+03
       338  22  1.494317E+06 -1.340434E+02  4.686206E+03 -6.333588E+03  3.206879E+03  1.047530E+03
       338  23  1.493440E+06 -7.310217E+02  7.595156E+03  7.960918E+02  7.060816E+03  1.462300E+03
       338  24  1.494312E+06  3.559930E+03  1.423623E+04 -6.334958E+03  1.091463E+04  1.850761E+03
       338  25  1.433135E+06 -1.536261E+04 -1.037205E+04 -6.723391E+03  3.340085E+03  1.047566E+03
       338  26  1.420406E+06 -1.890085E+04 -1.033741E+04  8.948655E+02  7.185393E+03  1.462352E+03
       338  27  1.409425E+06 -1.755227E+04 -6.576261E+03 -5.747730E+03  1.103051E+04  1.850832E+03
       339   1  1.613141E+06  2.793243E+04  4.659994E+04 -3.909065E+03 -1.359149E+04 -2.167901E+03
       339   2  1.620601E+06  2.685409E+04  6.114087E+04 -2.224198E+01 -2.893560E+04 -2.648500E+03
       339   3  1.639303E+06  6.251096E+04  9.485115E+04 -1.188342E+04 -4.428049E+04 -2.754172E+03
       339   4  1.496420E+06 -1.112775E+03  1.790869E+04 -6.658733E+03 -1.379630E+04 -2.167957E+03
       339   5  1.490795E+06 -5.432828E+03  2.928072E+04  1.205921E+03 -2.902044E+04 -2.648643E+03
       339   6  1.496393E+06  2.696570E+04  5.974186E+04 -6.677488E+03 -4.424502E+04 -2.754563E+03
       339   7  1.379711E+06 -3.015896E+04 -1.078357E+04 -9.407886E+03 -1.400107E+04 -2.168012E+03
       339   8  1.361003E+06 -3.772099E+04 -2.580671E+03  2.433826E+03 -2.910525E+04 -2.648786E+03
       339   9  1.353501E+06 -8.580972E+03  2.463109E+04 -1.472758E+03 -4.420956E+04 -2.754954E+03
       339  10  1.613141E+06  2.793237E+04  4.659958E+04 -3.909088E+03  1.735894E-09  7.038985E-11
       339  11  1.620600E+06  2.685386E+04  6.113929E+04 -2.230366E+01 -7.940250E-10 -6.972016E-10
       339  12  1.639301E+06  6.251042E+04  9.484746E+04 -1.188352E+04 -3.921380E-10 -8.388576E-10
       339  13  1.496420E+06 -1.112831E+03  1.790832E+04 -6.658757E+03  2.106873E-10 -8.076956E-11
       339  14  1.490794E+06 -5.433060E+03  2.927913E+04  1.205859E+03  5.390536E-10 -7.073197E-10
       339  15  1.496391E+06  2.696517E+04  5.973818E+04 -6.677586E+03 -1.177506E-09 -7.980251E-10
       339  16  1.379711E+06 -3.015902E+04 -1.078394E+04 -9.407911E+03  2.398115E-10 -1.477184E-10
       339  17  1.361002E+06 -3.772122E+04 -2.582272E+03  2.433763E+03  9.770475E-10  1.565413E-09
       339  18  1.353499E+06 -8.581503E+03  2.462741E+04 -1.472856E+03  2.767062E-09  2.650505E-10
       339  19  1.613141E+06  2.793243E+04  4.659994E+04 -3.909065E+03  1.359149E+04  2.167901E+03
       339  20  1.620601E+06  2.685409E+04  6.114087E+04 -2.224198E+01  2.893560E+04  2.648500E+03
       339  21  1.639303E+06  6.251096E+04  9.485115E+04 -1.188342E+04  4.428049E+04  2.754172E+03
       339  22  1.496420E+06 -1.112775E+03  1.790869E+04 -6.658733E+03  1.379630E+04  2.167957E+03
       339  23  1.490795E+06 -5.432828E+03  2.928072E+04  1.205921E+03  2.902044E+04  2.648643E+03
       339  24  1.496393E+06  2.696570E+04  5.974186E+04 -6.677488E+03  4.424502E+04  2.754563E+03
       339  25  1.379711E+06 -3.015896E+04 -1.078357E+04 -9.407886E+03  1.400107E+04  2.168012E+03
       339  26  1.361003E+06 -3.772099E+04 -2.580671E+03  2.433826E+03  2.910525E+04  2.648786E+03
       339  27  1.353501E+06 -8.580972E+03  2.463109E+04 -1.472758E+03  4.420956E+04  2.754954E+03
       340   1  1.689726E+06  3.600447E+04  1.164353E+05  1.262877E+04 -5.521936E+04 -3.591353E+03
       340   2  1.666353E+06  7.742625E+03  1.600356E+05 -9.260992E+03 -1.175737E+05 -4.374498E+03
       340   3  1.719890E+06  2.542974E+05  3.128952E+05 -4.944082E+04 -1.799322E+05 -1.666370E+03
       340   4  1.510987E+06 -8.495810E+03  7.254434E+04 -7.155547E+03 -5.598320E+04 -3.590266E+03
       340   5  1.472543E+06 -4.042598E+04  1.125411E+05  1.870285E+03 -1.172310E+05 -4.376380E+03
       340   6  1.510838E+06  2.023111E+05  2.610543E+05 -7.391841E+03 -1.784814E+05 -1.676938E+03
       340   7  1.332278E+06 -5.299700E+04  2.865120E+04 -2.693418E+04 -5.674681E+04 -3.589130E+03
       340   8  1.278766E+06 -8.859690E+04  6.504381E+04  1.299808E+04 -1.168885E+05 -4.378249E+03
       340   9  1.301830E+06  1.503282E+05  2.092111E+05  3.464300E+04 -1.770311E+05 -1.687313E+03
       340  10  1.689722E+06  3.600364E+04  1.164296E+05  1.262861E+04  3.865330E-10 -1.412335E-09
       340  11  1.666338E+06  7.738906E+03  1.600097E+05 -9.261406E+03 -2.685017E-09 -3.138341E-09
       340  12  1.719855E+06  2.542887E+05  3.128345E+05 -4.944106E+04  5.251439E-10 -8.880598E-10
       340  13  1.510984E+06 -8.496663E+03  7.253844E+04 -7.155709E+03 -1.165900E-09 -3.979544E-09
       340  14  1.472528E+06 -4.042968E+04  1.125153E+05  1.869872E+03 -2.191477E-09  1.135666E-09
       340  15  1.510804E+06  2.023026E+05  2.609946E+05 -7.392082E+03 -3.338166E-10 -2.542715E-10
       340  16  1.332275E+06 -5.299788E+04  2.864514E+04 -2.693435E+04  3.039863E-10 -8.286842E-10
       340  17  1.278752E+06 -8.860058E+04  6.501815E+04  1.299767E+04  1.041182E-09  1.135543E-09
       340  18  1.301797E+06  1.503198E+05  2.091523E+05  3.464276E+04  3.458879E-10 -1.374457E-09
       340  19  1.689726E+06  3.600447E+04  1.164353E+05  1.262877E+04  5.521936E+04  3.591353E+03
       340  20  1.666353E+06  7.742625E+03  1.600356E+05 -9.260992E+03  1.175737E+05  4.374498E+03
       340  21  1.719890E+06  2.542974E+05  3.128952E+05 -4.944082E+04  1.799322E+05  1.666370E+03
       340  22  1.510987E+06 -8.495810E+03  7.254434E+04 -7.155547E+03  5.598320E+04  3.590266E+03
       340  23  1.472543E+06 -4.042598E+04  1.125411E+05  1.870285E+03  1.172310E+05  4.376380E+03
       340  24  1.510838E+06  2.023111E+05  2.610543E+05 -7.391841E+03  1.784814E+05  1.676938E+03
       340  25  1.332278E+06 -5.299700E+04  2.865120E+04 -2.693418E+04  5.674681E+04  3.589130E+03
       340  26  1.278766E+06 -8.859690E+04  6.504381E+04  1.299808E+04  1.168885E+05  4.378249E+03
       340  27  1.301830E+06  1.503282E+05  2.092111E+05  3.464300E+04  1.770311E+05  1.687313E+03
       341   1  1.008567E+06  4.389129E+06  1.075439E+06 -4.002292E+05  2.073067E+04  2.161315E+05
       341   2  5.749404E+05  3.744314E+06  7.553602E+05 -1.235187E+04  5.617538E+04  1.214974E+05
       341   3  4.810915E+05  3.206785E+06  5.834901E+05 -3.321988E+05  3.324589E+04  2.666011E+04
       341   4  2.346718E+05  1.281022E+06  3.053230E+05 -3.440315E+05  2.081257E+04  1.953376E+05
       341   5 -5.002086E+04  1.228923E+06  1.398449E+05  9.579310E+03  5.620303E+04  1.193634E+05
       341   6  2.582265E+03  1.280997E+06  1.101655E+05 -3.446774E+05  3.312572E+04  4.309450E+04
       341   7 -5.399334E+05 -1.818355E+06 -4.655091E+05 -2.881054E+05  2.089100E+04  1.746451E+05
       341   8 -6.754479E+05 -1.280732E+06 -4.761324E+05  3.142891E+04  5.623060E+04  1.172371E+05
       341   9 -4.762005E+05 -6.414304E+05 -3.634305E+05 -3.571102E+05  3.300470E+04  5.947804E+04
       341  10  1.008554E+06  4.389079E+06  1.075351E+06 -4.002328E+05 -8.322248E-10  3.291024E-10
       341  11  5.749331E+05  3.744297E+06  7.553266E+05 -1.235735E+04 -3.667456E-09  1.130065E-08
       341  12  4.810901E+05  3.206784E+06  5.834867E+05 -3.321995E+05  3.152575E-09  1.243405E-08
       341  13  2.346611E+05  1.280981E+06  3.052506E+05 -3.440348E+05 -1.414716E-09 -2.533804E-09
       341  14 -5.002806E+04  1.228907E+06  1.398123E+05  9.573910E+03 -2.835889E-09 -2.668594E-09
       341  15  2.580588E+03  1.280994E+06  1.101599E+05 -3.446786E+05  2.321786E-09 -2.912063E-09
       341  16 -5.399421E+05 -1.818388E+06 -4.655674E+05 -2.881084E+05 -1.379645E-09  7.631537E-10
       341  17 -6.754550E+05 -1.280747E+06 -4.761642E+05  3.142360E+04 -1.191685E-09 -9.521064E-09
       341  18 -4.762027E+05 -6.414345E+05 -3.634392E+05 -3.571118E+05  4.774496E-10 -7.991118E-09
       341  19  1.008567E+06  4.389129E+06  1.075439E+06 -4.002292E+05 -2.073067E+04 -2.161315E+05
       341  20  5.749404E+05  3.744314E+06  7.553602E+05 -1.235187E+04 -5.617538E+04 -1.214974E+05
       341  21  4.810915E+05  3.206785E+06  5.834901E+05 -3.321988E+05 -3.324589E+04 -2.666011E+04
       341  22  2.346718E+05  1.281022E+06  3.053230E+05 -3.440315E+05 -2.081257E+04 -1.953376E+05
       341  23 -5.002086E+04  1.228923E+06  1.398449E+05  9.579310E+03 -5.620303E+04 -1.193634E+05
       341  24  2.582265E+03  1.280997E+06  1.101655E+05 -3.446774E+05 -3.312572E+04 -4.309450E+04
       341  25 -5.399334E+05 -1.818355E+06 -4.655091E+05 -2.881054E+05 -2.089100E+04 -1.746451E+05
       341  26 -6.754479E+05 -1.280732E+06 -4.761324E+05  3.142891E+04 -5.623060E+04 -1.172371E+05
       341  27 -4.762005E+05 -6.414304E+05 -3.634305E+05 -3.571102E+05 -3.300470E+04 -5.947804E+04
       342   1  1.410847E+05  1.697120E+06  2.074062E+05 -3.547016E+05  1.120350E+04  1.938000E+04
       342   2 -5.211234E+04  1.108598E+06  5.362130E+04  7.447993E+03 -2.722393E+03 -2.678318E+04
       342   3 -1.257298E+05  5.429719E+05 -4.306398E+04 -3.240107E+05 -1.613084E+04 -7.289332E+04
       342   4  3.319061E+04  1.263968E+06  1.015644E+05 -3.412095E+05  1.116661E+04  2.392229E+04
       342   5 -1.623504E+04  1.252663E+06  8.899850E+04  5.660317E+03 -2.756892E+03 -2.239979E+04
       342   6  5.395486E+04  1.263962E+06  1.336588E+05 -3.410546E+05 -1.616170E+04 -6.871119E+04
       342   7 -7.471679E+04  8.309862E+05 -4.291043E+03 -3.277264E+05  1.112990E+04  2.846143E+04
       342   8  1.964075E+04  1.396746E+06  1.243743E+05  3.872263E+03 -2.791412E+03 -1.801539E+04
       342   9  2.336020E+05  1.985424E+06  3.103437E+05 -3.581173E+05 -1.619278E+04 -6.452419E+04
       342  10  1.410845E+05  1.697120E+06  2.074053E+05 -3.547018E+05  3.119569E-10  3.534539E-09
       342  11 -5.211254E+04  1.108597E+06  5.361994E+04  7.447935E+03 -1.788857E-09  1.107232E-08
       342  12 -1.257315E+05  5.429662E+05 -4.307445E+04 -3.240116E+05 -3.778415E-09  1.060435E-08
       342  13  3.319032E+04  1.263967E+06  1.015630E+05 -3.412097E+05  9.494600E-10 -8.296502E-09
       342  14 -1.623518E+04  1.252662E+06  8.899755E+04  5.660268E+03  3.215139E-09 -4.668938E-09
       342  15  5.395332E+04  1.263956E+06  1.336495E+05 -3.410555E+05  8.611776E-09 -3.447899E-09
       342  16 -7.471714E+04  8.309853E+05 -4.292797E+03 -3.277267E+05  1.691622E-09  8.139620E-10
       342  17  1.964065E+04  1.396746E+06  1.243736E+05  3.872223E+03 -7.726550E-09 -8.988831E-09
       342  18  2.336006E+05  1.985420E+06  3.103354E+05 -3.581181E+05 -1.363830E-09 -5.581018E-09
       342  19  1.410847E+05  1.697120E+06  2.074062E+05 -3.547016E+05 -1.120350E+04 -1.938000E+04
       342  20 -5.211234E+04  1.108598E+06  5.362130E+04  7.447993E+03  2.722393E+03  2.678318E+04
       342  21 -1.257298E+05  5.429719E+05 -4.306398E+04 -3.240107E+05  1.613084E+04  7.289332E+04
       342  22  3.319061E+04  1.263968E+06  1.015644E+05 -3.412095E+05 -1.116661E+04 -2.392229E+04
       342  23 -1.623504E+04  1.252663E+06  8.899850E+04  5.660317E+03  2.756892E+03  2.239979E+04
       342  24  5.395486E+04  1.263962E+06  1.336588E+05 -3.410546E+05  1.616170E+04  6.871119E+04
       342  25 -7.471679E+04  8.309862E+05 -4.291043E+03 -3.277264E+05 -1.112990E+04 -2.846143E+04
       342  26  1.964075E+04  1.396746E+06  1.243743E+05  3.872263E+03  2.791412E+03  1.801539E+04
       342  27  2.336020E+05  1.985424E+06  3.103437E+05 -3.581173E+05  1.619278E+04  6.452419E+04
       343   1 -5.578374E+05 -9.189106E+05 -3.898458E+05 -3.715539E+05 -3.864589E+04 -1.118765E+05
       343   2 -7.795492E+05 -1.592569E+06 -4.678285E+05  4.057305E+04 -6.231980E+04 -2.121412E+05
       343   3 -4.611206E+05 -2.101682E+06 -3.421099E+05 -2.592487E+05 -2.297655E+04 -3.120432E+05
       343   4 -6.661746E+03  1.294693E+06  1.553366E+05 -3.456310E+05 -3.876733E+04 -9.474503E+04
       343   5 -8.064052E+04  1.211187E+06  2.205082E+05  1.060054E+04 -6.228176E+04 -2.151142E+05
       343   6  3.877418E+05  1.294656E+06  5.026309E+05 -3.448729E+05 -2.288634E+04 -3.352194E+05
       343   7  5.441534E+05  3.512756E+06  7.001595E+05 -3.196062E+05 -3.888712E+04 -7.755205E+04
       343   8  6.176876E+05  4.022105E+06  9.082682E+05 -1.950035E+04 -6.224356E+04 -2.180988E+05
       343   9  1.235765E+06  4.701489E+06  1.346514E+06 -4.309596E+05 -2.279010E+04 -3.585186E+05
       343  10 -5.578424E+05 -9.189245E+05 -3.898722E+05 -3.715574E+05  8.510654E-13  6.931402E-09
       343  11 -7.795655E+05 -1.592619E+06 -4.679206E+05  4.056239E+04 -1.573038E-09  7.440627E-09
       343  12 -4.611475E+05 -2.101787E+06 -3.422945E+05 -2.592545E+05 -1.101002E-09  2.083790E-09
       343  13 -6.665767E+03  1.294683E+06  1.553169E+05 -3.456339E+05 -1.478055E-09 -6.986480E-09
       343  14 -8.065708E+04  1.211136E+06  2.204142E+05  1.058976E+04  4.208817E-10 -2.462708E-09
       343  15  3.877111E+05  1.294535E+06  5.024192E+05 -3.448791E+05 -1.412506E-09 -4.057439E-10
       343  16  5.441502E+05  3.512749E+06  7.001454E+05 -3.196086E+05  2.928825E-09 -3.566269E-09
       343  17  6.176707E+05  4.022053E+06  9.081721E+05 -1.951125E+04 -2.388297E-09 -6.796923E-09
       343  18  1.235730E+06  4.701351E+06  1.346273E+06 -4.309662E+05 -2.423584E-09 -1.165072E-09
       343  19 -5.578374E+05 -9.189106E+05 -3.898458E+05 -3.715539E+05  3.864589E+04  1.118765E+05
       343  20 -7.795492E+05 -1.592569E+06 -4.678285E+05  4.057305E+04  6.231980E+04  2.121412E+05
       343  21 -4.611206E+05 -2.101682E+06 -3.421099E+05 -2.592487E+05  2.297655E+04  3.120432E+05
       343  22 -6.661746E+03  1.294693E+06  1.553366E+05 -3.456310E+05  3.876733E+04  9.474503E+04
       343  23 -8.064052E+04  1.211187E+06  2.205082E+05  1.060054E+04  6.228176E+04  2.151142E+05
       343  24  3.877418E+05  1.294656E+06  5.026309E+05 -3.448729E+05  2.288634E+04  3.352194E+05
       343  25  5.441534E+05  3.512756E+06  7.001595E+05 -3.196062E+05  3.888712E+04  7.755205E+04
       343  26  6.176876E+05  4.022105E+06  9.082682E+05 -1.950035E+04  6.224356E+04  2.180988E+05
       343  27  1.235765E+06  4.701489E+06  1.346514E+06 -4.309596E+05  2.279010E+04  3.585186E+05
       344   1 -1.310430E+06 -5.777265E+05 -3.043548E+05 -5.563233E+05 -1.554350E+05 -4.950172E+04
       344   2 -1.255893E+06 -4.163967E+05 -1.758358E+05 -5.290542E+05 -9.625330E+04 -6.591678E+03
       344   3 -1.229152E+06 -3.376589E+05 -1.165302E+05 -4.946998E+05 -3.185600E+04  2.250692E+04
       344   4 -8.066328E+05 -3.020107E+05 -1.592339E+05 -3.291878E+05 -1.066948E+05 -3.118559E+04
       344   5 -7.868348E+05 -2.030355E+05 -7.536992E+04 -3.554193E+05 -7.446089E+04  1.598379E+03
       344   6 -7.894620E+05 -1.812807E+05 -3.930620E+04 -3.745762E+05 -3.702086E+04  2.056168E+04
       344   7 -3.025534E+05 -2.617237E+04 -1.412236E+04 -1.018517E+05 -5.791095E+04 -1.283580E+04
       344   8 -3.175373E+05  1.038476E+04  2.508782E+04 -1.816490E+05 -5.265068E+04  9.798858E+03
       344   9 -3.495669E+05 -2.488544E+04  3.791186E+04 -2.543738E+05 -4.218963E+04  1.861503E+04
       344  10 -1.310457E+06 -5.777356E+05 -3.044049E+05 -5.563295E+05 -2.828697E-09 -1.988353E-09
       344  11 -1.255903E+06 -4.163992E+05 -1.758534E+05 -5.290547E+05  3.195387E-09 -5.310166E-11
       344  12 -1.229154E+06 -3.376597E+05 -1.165330E+05 -4.946992E+05 -3.412034E-10  2.216887E-09
       344  13 -8.066453E+05 -3.020149E+05 -1.592572E+05 -3.291905E+05  2.393427E-09  2.169427E-09
       344  14 -7.868407E+05 -2.030370E+05 -7.538036E+04 -3.554193E+05 -8.466960E-10  2.412001E-09
       344  15 -7.894636E+05 -1.812816E+05 -3.930957E+04 -3.745756E+05 -5.595359E-09 -2.532779E-09
       344  16 -3.025570E+05 -2.617345E+04 -1.412897E+04 -1.018523E+05  4.745602E-09  3.449971E-09
       344  17 -3.175403E+05  1.038391E+04  2.508243E+04 -1.816485E+05 -2.512511E-09  1.421960E-09
       344  18 -3.495689E+05 -2.488629E+04  3.790786E+04 -2.543731E+05 -1.113702E-08 -5.214635E-09
       344  19 -1.310430E+06 -5.777265E+05 -3.043548E+05 -5.563233E+05  1.554350E+05  4.950172E+04
       344  20 -1.255893E+06 -4.163967E+05 -1.758358E+05 -5.290542E+05  9.625330E+04  6.591678E+03
       344  21 -1.229152E+06 -3.376589E+05 -1.165302E+05 -4.946998E+05  3.185600E+04 -2.250692E+04
       344  22 -8.066328E+05 -3.020107E+05 -1.592339E+05 -3.291878E+05  1.066948E+05  3.118559E+04
       344  23 -7.868348E+05 -2.030355E+05 -7.536992E+04 -3.554193E+05  7.446089E+04 -1.598379E+03
       344  24 -7.894620E+05 -1.812807E+05 -3.930620E+04 -3.745762E+05  3.702086E+04 -2.056168E+04
       344  25 -3.025534E+05 -2.617237E+04 -1.412236E+04 -1.018517E+05  5.791095E+04  1.283580E+04
       344  26 -3.175373E+05  1.038476E+04  2.508782E+04 -1.816490E+05  5.265068E+04 -9.798858E+03
       344  27 -3.495669E+05 -2.488544E+04  3.791186E+04 -2.543738E+05  4.218963E+04 -1.861503E+04
       345   1 -1.178247E+06 -3.259297E+05 -9.788351E+04 -4.876307E+05 -2.760698E+04  2.190346E+04
       345   2 -1.118256E+06 -2.898851E+05 -7.028495E+04 -4.644664E+05 -1.602857E+04  2.295383E+04
       345   3 -1.052406E+06 -2.682568E+05 -5.189011E+04 -4.508498E+05 -3.915775E+03  2.258439E+04
       345   4 -7.848548E+05 -1.799369E+05 -2.932188E+04 -3.734749E+05 -3.187999E+04  2.029403E+04
       345   5 -7.875212E+05 -1.692708E+05 -1.531734E+04 -3.700998E+05 -2.306844E+04  2.030480E+04
       345   6 -7.837798E+05 -1.724702E+05 -8.316945E+03 -3.762741E+05 -1.372368E+04  1.889570E+04
       345   7 -3.913025E+05 -3.392818E+04  3.923399E+04 -2.592517E+05 -3.615583E+04  1.868346E+04
       345   8 -4.566689E+05 -4.864452E+04  3.964787E+04 -2.756857E+05 -3.011229E+04  1.765423E+04
       345   9 -5.150733E+05 -7.667515E+04  3.525594E+04 -3.016673E+05 -2.353621E+04  1.520530E+04
       345  10 -1.178248E+06 -3.259304E+05 -9.788584E+04 -4.876302E+05  1.923846E-08  1.245559E-08
       345  11 -1.118257E+06 -2.898857E+05 -7.028642E+04 -4.644661E+05  6.947795E-09  1.101862E-08
       345  12 -1.052406E+06 -2.682574E+05 -5.189110E+04 -4.508497E+05 -1.171117E-08  2.522065E-09
       345  13 -7.848560E+05 -1.799376E+05 -2.932456E+04 -3.734744E+05 -4.137115E-10 -3.026335E-09
       345  14 -7.875219E+05 -1.692714E+05 -1.531911E+04 -3.700994E+05  1.413120E-08 -2.803476E-09
       345  15 -7.837801E+05 -1.724706E+05 -8.317969E+03 -3.762739E+05  2.082465E-08 -4.573660E-09
       345  16 -3.913040E+05 -3.392891E+04  3.923088E+04 -2.592511E+05 -2.403921E-08 -1.103644E-08
       345  17 -4.566699E+05 -4.864510E+04  3.964558E+04 -2.756853E+05  1.097410E-08  6.817650E-09
       345  18 -5.150739E+05 -7.667555E+04  3.525447E+04 -3.016670E+05  3.506064E-08  2.115775E-08
       345  19 -1.178247E+06 -3.259297E+05 -9.788351E+04 -4.876307E+05  2.760698E+04 -2.190346E+04
       345  20 -1.118256E+06 -2.898851E+05 -7.028495E+04 -4.644664E+05  1.602857E+04 -2.295383E+04
       345  21 -1.052406E+06 -2.682568E+05 -5.189011E+04 -4.508498E+05  3.915775E+03 -2.258439E+04
       345  22 -7.848548E+05 -1.799369E+05 -2.932188E+04 -3.734749E+05  3.187999E+04 -2.029403E+04
       345  23 -7.875212E+05 -1.692708E+05 -1.531734E+04 -3.700998E+05  2.306844E+04 -2.030480E+04
       345  24 -7.837798E+05 -1.724702E+05 -8.316945E+03 -3.762741E+05  1.372368E+04 -1.889570E+04
       345  25 -3.913025E+05 -3.392818E+04  3.923399E+04 -2.592517E+05  3.615583E+04 -1.868346E+04
       345  26 -4.566689E+05 -4.864452E+04  3.964787E+04 -2.756857E+05  3.011229E+04 -1.765423E+04
       345  27 -5.150733E+05 -7.667515E+04  3.525594E+04 -3.016673E+05  2.353621E+04 -1.520530E+04
       346   1 -1.010831E+06 -2.539239E+05 -4.283740E+04 -4.397771E+05 -1.758443E+03  2.001186E+04
       346   2 -9.510879E+05 -2.259457E+05 -2.959262E+04 -4.165817E+05  2.128260E+03  1.570706E+04
       346   3 -8.825037E+05 -2.075611E+05 -1.791770E+04 -4.039124E+05  6.069644E+03  1.125547E+04
       346   4 -7.833529E+05 -1.724318E+05 -6.232832E+03 -3.761418E+05 -1.147868E+04  1.635671E+04
       346   5 -7.877728E+05 -1.675017E+05 -3.406644E+03 -3.709369E+05 -7.878300E+03  1.194494E+04
       346   6 -7.832987E+05 -1.721085E+05 -1.923029E+03 -3.762595E+05 -4.223469E+03  7.386332E+03
       346   7 -5.558195E+05 -9.093437E+04  3.037106E+04 -3.124846E+05 -2.120270E+04  1.270014E+04
       346   8 -6.244298E+05 -1.090553E+05  2.277896E+04 -3.252812E+05 -1.788759E+04  8.181803E+03
       346   9 -6.840842E+05 -1.366553E+05  1.407157E+04 -3.486028E+05 -1.451821E+04  3.516591E+03
       346  10 -1.010831E+06 -2.539243E+05 -4.283815E+04 -4.397770E+05 -2.482569E-08 -2.873097E-09
       346  11 -9.510880E+05 -2.259460E+05 -2.959310E+04 -4.165817E+05 -2.868379E-09 -4.913802E-10
       346  12 -8.825037E+05 -2.075612E+05 -1.791801E+04 -4.039124E+05  2.337605E-08  7.795226E-09
       346  13 -7.833531E+05 -1.724321E+05 -6.233582E+03 -3.761417E+05  1.586912E-08 -7.498138E-09
       346  14 -7.877729E+05 -1.675019E+05 -3.407029E+03 -3.709369E+05  7.487901E-09 -6.738734E-09
       346  15 -7.832988E+05 -1.721086E+05 -1.923165E+03 -3.762595E+05  3.433722E-10 -3.191109E-09
       346  16 -5.558200E+05 -9.093466E+04  3.036991E+04 -3.124844E+05  3.714027E-08  2.271160E-08
       346  17 -6.244302E+05 -1.090555E+05  2.277823E+04 -3.252810E+05  2.082176E-09  7.652304E-09
       346  18 -6.840844E+05 -1.366554E+05  1.407115E+04 -3.486027E+05 -2.434056E-08 -8.080648E-09
       346  19 -1.010831E+06 -2.539239E+05 -4.283740E+04 -4.397771E+05  1.758443E+03 -2.001186E+04
       346  20 -9.510879E+05 -2.259457E+05 -2.959262E+04 -4.165817E+05 -2.128260E+03 -1.570706E+04
       346  21 -8.825037E+05 -2.075611E+05 -1.791770E+04 -4.039124E+05 -6.069644E+03 -1.125547E+04
       346  22 -7.833529E+05 -1.724318E+05 -6.232832E+03 -3.761418E+05  1.147868E+04 -1.635671E+04
       346  23 -7.877728E+05 -1.675017E+05 -3.406644E+03 -3.709369E+05  7.878300E+03 -1.194494E+04
       346  24 -7.832987E+05 -1.721085E+05 -1.923029E+03 -3.762595E+05  4.223469E+03 -7.386332E+03
       346  25 -5.558195E+05 -9.093437E+04  3.037106E+04 -3.124846E+05  2.120270E+04 -1.270014E+04
       346  26 -6.244298E+05 -1.090553E+05  2.277896E+04 -3.252812E+05  1.788759E+04 -8.181803E+03
       346  27 -6.840842E+05 -1.366553E+05  1.407157E+04 -3.486028E+05  1.451821E+04 -3.516591E+03
       347   1 -8.416938E+05 -1.929568E+05 -1.067673E+04 -3.925383E+05  7.497069E+03  8.285395E+03
       347   2 -7.820763E+05 -1.653779E+05 -3.540725E+01 -3.692773E+05  9.972295E+03  3.197080E+03
       347   3 -7.132922E+05 -1.470539E+05  1.023584E+04 -3.565710E+05  1.245236E+04 -1.903961E+03
       347   4 -7.832477E+05 -1.721171E+05 -1.483827E+03 -3.762386E+05 -2.788281E+03  4.419372E+03
       347   5 -7.878315E+05 -1.674990E+05 -9.387899E+02 -3.709572E+05 -3.385507E+02 -6.785738E+02
       347   6 -7.832495E+05 -1.721321E+05 -7.444356E+02 -3.762329E+05  2.115956E+03 -5.789257E+03
       347   7 -7.247970E+05 -1.512766E+05  7.709666E+03 -3.599373E+05 -1.307478E+04  5.529226E+02
       347   8 -7.935864E+05 -1.696201E+05 -1.841726E+03 -3.726372E+05 -1.064936E+04 -4.554211E+03
       347   9 -8.532014E+05 -1.972097E+05 -1.172435E+04 -3.958926E+05 -8.219215E+03 -9.674090E+03
       347  10 -8.416939E+05 -1.929569E+05 -1.067697E+04 -3.925383E+05 -3.011040E-11 -8.702558E-10
       347  11 -7.820764E+05 -1.653779E+05 -3.561365E+01 -3.692773E+05 -2.846405E-11 -1.738548E-10
       347  12 -7.132923E+05 -1.470539E+05  1.023554E+04 -3.565710E+05 -1.560808E-09  1.443546E-10
       347  13 -7.832477E+05 -1.721171E+05 -1.483878E+03 -3.762386E+05  1.518603E-10 -5.732603E-10
       347  14 -7.878315E+05 -1.674990E+05 -9.387910E+02 -3.709572E+05  1.608453E-09 -7.806185E-10
       347  15 -7.832496E+05 -1.721321E+05 -7.445069E+02 -3.762329E+05  1.777686E-10  1.318792E-09
       347  16 -7.247972E+05 -1.512767E+05  7.709344E+03 -3.599373E+05 -5.221926E-10 -7.029244E-13
       347  17 -7.935865E+05 -1.696202E+05 -1.841979E+03 -3.726372E+05 -1.679523E-09  1.947976E-09
       347  18 -8.532015E+05 -1.972098E+05 -1.172465E+04 -3.958926E+05  2.265698E-09  2.504915E-09
       347  19 -8.416938E+05 -1.929568E+05 -1.067673E+04 -3.925383E+05 -7.497069E+03 -8.285395E+03
       347  20 -7.820763E+05 -1.653779E+05 -3.540725E+01 -3.692773E+05 -9.972295E+03 -3.197080E+03
       347  21 -7.132922E+05 -1.470539E+05  1.023584E+04 -3.565710E+05 -1.245236E+04  1.903961E+03
       347  22 -7.832477E+05 -1.721171E+05 -1.483827E+03 -3.762386E+05  2.788281E+03 -4.419372E+03
       347  23 -7.878315E+05 -1.674990E+05 -9.387899E+02 -3.709572E+05  3.385507E+02  6.785738E+02
       347  24 -7.832495E+05 -1.721321E+05 -7.444356E+02 -3.762329E+05 -2.115956E+03  5.789257E+03
       347  25 -7.247970E+05 -1.512766E+05  7.709666E+03 -3.599373E+05  1.307478E+04 -5.529226E+02
       347  26 -7.935864E+05 -1.696201E+05 -1.841726E+03 -3.726372E+05  1.064936E+04  4.554211E+03
       347  27 -8.532014E+05 -1.972097E+05 -1.172435E+04 -3.958926E+05  8.219215E+03  9.674090E+03
       348   1 -6.725744E+05 -1.324167E+05  1.701663E+04 -3.451793E+05  1.373466E+04 -4.938694E+03
       348   2 -6.129863E+05 -1.048449E+05  2.687749E+04 -3.219251E+05  1.616076E+04 -1.005477E+04
       348   3 -5.442250E+05 -8.651271E+04  3.641014E+04 -3.092200E+05  1.858004E+04 -1.515086E+04
       348   4 -7.832528E+05 -1.721335E+05 -7.483950E+02 -3.762315E+05  3.399036E+03 -8.823909E+03
       348   5 -7.878375E+05 -1.675117E+05 -9.609588E+02 -3.709570E+05  5.863243E+03 -1.392638E+04
       348   6 -7.832605E+05 -1.721375E+05 -1.532093E+03 -3.762332E+05  8.320606E+03 -1.900890E+04
       348   7 -8.939166E+05 -2.118485E+05 -1.851286E+04 -4.072781E+05 -6.934515E+03 -1.270835E+04
       348   8 -9.626555E+05 -2.301753E+05 -2.879953E+04 -4.199758E+05 -4.431195E+03 -1.779683E+04
       348   9 -1.022237E+06 -2.577573E+05 -3.947569E+04 -4.432228E+05 -1.934757E+03 -2.286541E+04
       348  10 -6.725746E+05 -1.324168E+05  1.701623E+04 -3.451793E+05 -1.209783E-10  1.826384E-09
       348  11 -6.129866E+05 -1.048451E+05  2.687680E+04 -3.219250E+05  2.322201E-10  1.934531E-10
       348  12 -5.442254E+05 -8.651305E+04  3.640906E+04 -3.092198E+05 -6.656503E-10  2.291392E-09
       348  13 -7.832529E+05 -1.721336E+05 -7.485630E+02 -3.762315E+05  1.216725E-09 -8.591164E-11
       348  14 -7.878376E+05 -1.675120E+05 -9.613877E+02 -3.709569E+05 -6.950649E-10  6.058161E-10
       348  15 -7.832606E+05 -1.721379E+05 -1.532902E+03 -3.762330E+05  2.799512E-09 -2.257379E-09
       348  16 -8.939167E+05 -2.118487E+05 -1.851325E+04 -4.072782E+05 -1.502953E-09  1.491929E-09
       348  17 -9.626556E+05 -2.301757E+05 -2.880016E+04 -4.199758E+05  6.041837E-10  1.430713E-10
       348  18 -1.022237E+06 -2.577579E+05 -3.947668E+04 -4.432228E+05  3.910446E-11 -6.417221E-10
       348  19 -6.725744E+05 -1.324167E+05  1.701663E+04 -3.451793E+05 -1.373466E+04  4.938694E+03
       348  20 -6.129863E+05 -1.048449E+05  2.687749E+04 -3.219251E+05 -1.616076E+04  1.005477E+04
       348  21 -5.442250E+05 -8.651271E+04  3.641014E+04 -3.092200E+05 -1.858004E+04  1.515086E+04
       348  22 -7.832528E+05 -1.721335E+05 -7.483950E+02 -3.762315E+05 -3.399036E+03  8.823909E+03
       348  23 -7.878375E+05 -1.675117E+05 -9.609588E+02 -3.709570E+05 -5.863243E+03  1.392638E+04
       348  24 -7.832605E+05 -1.721375E+05 -1.532093E+03 -3.762332E+05 -8.320606E+03  1.900890E+04
       348  25 -8.939166E+05 -2.118485E+05 -1.851286E+04 -4.072781E+05  6.934515E+03  1.270835E+04
       348  26 -9.626555E+05 -2.301753E+05 -2.879953E+04 -4.199758E+05  4.431195E+03  1.779683E+04
       348  27 -1.022237E+06 -2.577573E+05 -3.947569E+04 -4.432228E+05  1.934757E+03  2.286541E+04
       349   1 -5.035552E+05 -7.190287E+04  4.275261E+04 -2.978875E+05  2.003083E+04 -1.810355E+04
       349   2 -4.439991E+05 -4.433436E+04  5.142826E+04 -2.745840E+05  2.335846E+04 -2.274057E+04
       349   3 -3.754919E+05 -2.622555E+04  5.901207E+04 -2.617847E+05  2.661479E+04 -2.718420E+04
       349   4 -7.833196E+05 -1.721314E+05 -1.989463E+03 -3.762517E+05  9.763130E+03 -2.196535E+04
       349   5 -7.877899E+05 -1.675412E+05 -3.530978E+03 -3.709358E+05  1.346668E+04 -2.646241E+04
       349   6 -7.833879E+05 -1.724863E+05 -6.463093E+03 -3.761263E+05  1.709874E+04 -3.076608E+04
       349   7 -1.063000E+06 -2.723517E+05 -4.673258E+04 -4.545827E+05 -4.996618E+02 -2.582531E+04
       349   8 -1.131451E+06 -2.907350E+05 -5.849151E+04 -4.672369E+05  3.580767E+03 -3.018206E+04
       349   9 -1.191100E+06 -3.187280E+05 -7.193986E+04 -4.903959E+05  7.589436E+03 -3.434543E+04
       349  10 -5.035557E+05 -7.190333E+04  4.275124E+04 -2.978872E+05 -5.920661E-10  1.056546E-09
       349  11 -4.439998E+05 -4.433506E+04  5.142626E+04 -2.745836E+05  1.987595E-10 -9.835920E-10
       349  12 -3.754929E+05 -2.622653E+04  5.900935E+04 -2.617842E+05  8.436798E-10  4.541458E-10
       349  13 -7.833198E+05 -1.721319E+05 -1.990549E+03 -3.762516E+05  1.094515E-10  1.346355E-09
       349  14 -7.877903E+05 -1.675420E+05 -3.532634E+03 -3.709355E+05 -3.461657E-09  2.823470E-09
       349  15 -7.833885E+05 -1.724874E+05 -6.465420E+03 -3.761259E+05 -4.456961E-10  1.460477E-09
       349  16 -1.063000E+06 -2.723524E+05 -4.673383E+04 -4.545827E+05  3.493104E-10  5.720540E-11
       349  17 -1.131452E+06 -2.907360E+05 -5.849325E+04 -4.672368E+05  1.539098E-10 -1.938483E-09
       349  18 -1.191101E+06 -3.187293E+05 -7.194218E+04 -4.903957E+05 -8.325754E-10  1.166869E-09
       349  19 -5.035552E+05 -7.190287E+04  4.275261E+04 -2.978875E+05 -2.003083E+04  1.810355E+04
       349  20 -4.439991E+05 -4.433436E+04  5.142826E+04 -2.745840E+05 -2.335846E+04  2.274057E+04
       349  21 -3.754919E+05 -2.622555E+04  5.901207E+04 -2.617847E+05 -2.661479E+04  2.718420E+04
       349  22 -7.833196E+05 -1.721314E+05 -1.989463E+03 -3.762517E+05 -9.763130E+03  2.196535E+04
       349  23 -7.877899E+05 -1.675412E+05 -3.530978E+03 -3.709358E+05 -1.346668E+04  2.646241E+04
       349  24 -7.833879E+05 -1.724863E+05 -6.463093E+03 -3.761263E+05 -1.709874E+04  3.076608E+04
       349  25 -1.063000E+06 -2.723517E+05 -4.673258E+04 -4.545827E+05  4.996618E+02  2.582531E+04
       349  26 -1.131451E+06 -2.907350E+05 -5.849151E+04 -4.672369E+05 -3.580767E+03  3.018206E+04
       349  27 -1.191100E+06 -3.187280E+05 -7.193986E+04 -4.903959E+05 -7.589436E+03  3.434543E+04
       350   1 -3.348099E+05 -1.197893E+04  6.386606E+04 -2.509829E+05  2.900049E+04 -2.962098E+04
       350   2 -2.766576E+05  1.604513E+04  6.838614E+04 -2.249889E+05  3.489559E+04 -3.196785E+04
       350   3 -2.115096E+05  3.080383E+04  6.852109E+04 -2.084449E+05  4.009424E+04 -3.245908E+04
       350   4 -7.838353E+05 -1.725226E+05 -8.623234E+03 -3.762529E+05  1.937076E+04 -3.324660E+04
       350   5 -7.875349E+05 -1.694077E+05 -1.588435E+04 -3.700736E+05  2.888488E+04 -3.423369E+04
       350   6 -7.849641E+05 -1.802806E+05 -3.040515E+04 -3.733477E+05  3.770177E+04 -3.336444E+04
       350   7 -1.232650E+06 -3.330480E+05 -8.111779E+04 -5.014394E+05  9.748308E+03 -3.686951E+04
       350   8 -1.298136E+06 -3.548337E+05 -1.001616E+05 -5.150467E+05  2.287939E+04 -3.649752E+04
       350   9 -1.358069E+06 -3.913288E+05 -1.293408E+05 -5.381066E+05  3.531164E+04 -3.426889E+04
       350  10 -3.348110E+05 -1.198010E+04  6.386283E+04 -2.509822E+05  1.092236E-09  5.857816E-10
       350  11 -2.766591E+05  1.604371E+04  6.838193E+04 -2.249880E+05 -1.262694E-09  1.221413E-09
       350  12 -2.115116E+05  3.080227E+04  6.851609E+04 -2.084438E+05 -2.202719E-10  1.027151E-09
       350  13 -7.838360E+05 -1.725239E+05 -8.626015E+03 -3.762524E+05  1.969305E-12 -7.355456E-10
       350  14 -7.875361E+05 -1.694092E+05 -1.588811E+04 -3.700729E+05 -5.811332E-10  5.509615E-10
       350  15 -7.849659E+05 -1.802821E+05 -3.040991E+04 -3.733467E+05  1.062809E-09  7.062556E-12
       350  16 -1.232650E+06 -3.330495E+05 -8.112052E+04 -5.014391E+05 -1.189858E-09  4.248026E-10
       350  17 -1.298137E+06 -3.548353E+05 -1.001651E+05 -5.150460E+05  3.784900E-10  3.804757E-10
       350  18 -1.358070E+06 -3.913304E+05 -1.293454E+05 -5.381056E+05  1.087019E-09 -1.366119E-09
       350  19 -3.348099E+05 -1.197893E+04  6.386606E+04 -2.509829E+05 -2.900049E+04  2.962098E+04
       350  20 -2.766576E+05  1.604513E+04  6.838614E+04 -2.249889E+05 -3.489559E+04  3.196785E+04
       350  21 -2.115096E+05  3.080383E+04  6.852109E+04 -2.084449E+05 -4.009424E+04  3.245908E+04
       350  22 -7.838353E+05 -1.725226E+05 -8.623234E+03 -3.762529E+05 -1.937076E+04  3.324660E+04
       350  23 -7.875349E+05 -1.694077E+05 -1.588435E+04 -3.700736E+05 -2.888488E+04  3.423369E+04
       350  24 -7.849641E+05 -1.802806E+05 -3.040515E+04 -3.733477E+05 -3.770177E+04  3.336444E+04
       350  25 -1.232650E+06 -3.330480E+05 -8.111779E+04 -5.014394E+05 -9.748308E+03  3.686951E+04
       350  26 -1.298136E+06 -3.548337E+05 -1.001616E+05 -5.150467E+05 -2.287939E+04  3.649752E+04
       350  27 -1.358069E+06 -3.913288E+05 -1.293408E+05 -5.381066E+05 -3.531164E+04  3.426889E+04
       351   1 -1.696656E+05  3.981569E+04  6.739245E+04 -2.037348E+05  4.642890E+04 -3.186377E+04
       351   2 -1.393232E+05  7.564223E+04  5.725363E+04 -1.297880E+05  4.894915E+04 -2.267159E+04
       351   3 -1.257821E+05  3.905915E+04  2.553564E+04 -4.782182E+04  4.466819E+04  4.570531E+03
       351   4 -7.897861E+05 -1.816334E+05 -4.075735E+04 -3.744386E+05  4.287017E+04 -3.320843E+04
       351   5 -7.867900E+05 -2.044793E+05 -7.815490E+04 -3.549094E+05  8.064255E+04 -1.074363E+04
       351   6 -8.076230E+05 -3.067823E+05 -1.651128E+05 -3.273581E+05  1.116072E+05  2.977876E+04
       351   7 -1.409498E+06 -4.030468E+05 -1.489185E+05 -5.449836E+05  3.931524E+04 -3.455172E+04
       351   8 -1.433801E+06 -4.845071E+05 -2.135768E+05 -5.797915E+05  1.123000E+05  1.165186E+03
       351   9 -1.488953E+06 -6.524504E+05 -3.557759E+05 -6.065653E+05  1.784640E+05  5.493154E+04
       351  10 -1.696682E+05  3.981402E+04  6.738649E+04 -2.037336E+05 -1.427131E-09 -2.862112E-10
       351  11 -1.393260E+05  7.564103E+04  5.724816E+04 -1.297871E+05  7.620098E-09  1.823729E-09
       351  12 -1.257843E+05  3.905859E+04  2.553185E+04 -4.782199E+04  7.460859E-09  1.459878E-09
       351  13 -7.897884E+05 -1.816350E+05 -4.076287E+04 -3.744374E+05  4.536995E-09 -1.965114E-09
       351  14 -7.867970E+05 -2.044812E+05 -7.816735E+04 -3.549087E+05  9.770901E-09 -1.752580E-10
       351  15 -8.076366E+05 -3.067866E+05 -1.651380E+05 -3.273608E+05  2.103948E-09  2.033940E-09
       351  16 -1.409500E+06 -4.030485E+05 -1.489236E+05 -5.449825E+05  7.946867E-09  1.243914E-09
       351  17 -1.433814E+06 -4.845105E+05 -2.136005E+05 -5.797916E+05  7.600600E-09  5.563558E-09
       351  18 -1.488988E+06 -6.524622E+05 -3.558416E+05 -6.065732E+05 -9.799295E-10  9.837461E-10
       351  19 -1.696656E+05  3.981569E+04  6.739245E+04 -2.037348E+05 -4.642890E+04  3.186377E+04
       351  20 -1.393232E+05  7.564223E+04  5.725363E+04 -1.297880E+05 -4.894915E+04  2.267159E+04
       351  21 -1.257821E+05  3.905915E+04  2.553564E+04 -4.782182E+04 -4.466819E+04 -4.570531E+03
       351  22 -7.897861E+05 -1.816334E+05 -4.075735E+04 -3.744386E+05 -4.287017E+04  3.320843E+04
       351  23 -7.867900E+05 -2.044793E+05 -7.815490E+04 -3.549094E+05 -8.064255E+04  1.074363E+04
       351  24 -8.076230E+05 -3.067823E+05 -1.651128E+05 -3.273581E+05 -1.116072E+05 -2.977876E+04
       351  25 -1.409498E+06 -4.030468E+05 -1.489185E+05 -5.449836E+05 -3.931524E+04  3.455172E+04
       351  26 -1.433801E+06 -4.845071E+05 -2.135768E+05 -5.797915E+05 -1.123000E+05 -1.165186E+03
       351  27 -1.488953E+06 -6.524504E+05 -3.557759E+05 -6.065653E+05 -1.784640E+05 -5.493154E+04
       352   1 -7.161526E+05 -1.254528E+05 -1.828437E+05 -3.708188E+04 -1.718553E+05 -2.273408E+03
       352   2 -6.878943E+05  1.090331E+05 -4.105495E+04 -1.244208E+04 -1.136034E+05 -6.297331E+03
       352   3 -7.339684E+05  7.584092E+04 -4.080204E+03  2.297841E+04 -5.536102E+04 -5.611234E+03
       352   4 -1.004570E+06 -1.974152E+05 -2.545770E+05  3.726960E+03 -1.738089E+05 -2.287424E+03
       352   5 -9.672141E+05  3.943218E+04 -1.096996E+05 -1.803855E+03 -1.141150E+05 -6.300326E+03
       352   6 -1.004477E+06  8.283032E+03 -7.067320E+04  3.445594E+03 -5.442970E+04 -5.607947E+03
       352   7 -1.292908E+06 -2.693775E+05 -3.263157E+05  4.451679E+04 -1.757616E+05 -2.301703E+03
       352   8 -1.246463E+06 -3.017409E+04 -1.783499E+05  8.829546E+03 -1.146264E+05 -6.303341E+03
       352   9 -1.274918E+06 -5.927890E+04 -1.372714E+05 -1.607872E+04 -5.349877E+04 -5.604719E+03
       352  10 -7.161844E+05 -1.254608E+05 -1.828992E+05 -3.708220E+04  4.283129E-10  8.265464E-10
       352  11 -6.879082E+05  1.090296E+05 -4.107931E+04 -1.244266E+04  2.268377E-09 -9.030503E-10
       352  12 -7.339717E+05  7.584006E+04 -4.086029E+03  2.297816E+04  2.117407E-09 -4.088870E-09
       352  13 -1.004602E+06 -1.974233E+05 -2.546339E+05  3.726640E+03 -7.338266E-10  1.970329E-09
       352  14 -9.672282E+05  3.942863E+04 -1.097242E+05 -1.804434E+03  1.620270E-09  1.722280E-10
       352  15 -1.004480E+06  8.282201E+03 -7.067884E+04  3.445348E+03  2.481400E-09 -3.803727E-10
       352  16 -1.292941E+06 -2.693858E+05 -3.263738E+05  4.451647E+04 -4.982282E-10  1.279358E-09
       352  17 -1.246477E+06 -3.017767E+04 -1.783747E+05  8.828964E+03 -7.098265E-11 -2.733564E-09
       352  18 -1.274921E+06 -5.927970E+04 -1.372769E+05 -1.607896E+04 -1.168848E-09 -5.002000E-09
       352  19 -7.161526E+05 -1.254528E+05 -1.828437E+05 -3.708188E+04  1.718553E+05  2.273408E+03
       352  20 -6.878943E+05  1.090331E+05 -4.105495E+04 -1.244208E+04  1.136034E+05  6.297331E+03
       352  21 -7.339684E+05  7.584092E+04 -4.080204E+03  2.297841E+04  5.536102E+04  5.611234E+03
       352  22 -1.004570E+06 -1.974152E+05 -2.545770E+05  3.726960E+03  1.738089E+05  2.287424E+03
       352  23 -9.672141E+05  3.943218E+04 -1.096996E+05 -1.803855E+03  1.141150E+05  6.300326E+03
       352  24 -1.004477E+06  8.283032E+03 -7.067320E+04  3.445594E+03  5.442970E+04  5.607947E+03
       352  25 -1.292908E+06 -2.693775E+05 -3.263157E+05  4.451679E+04  1.757616E+05  2.301703E+03
       352  26 -1.246463E+06 -3.017409E+04 -1.783499E+05  8.829546E+03  1.146264E+05  6.303341E+03
       352  27 -1.274918E+06 -5.927890E+04 -1.372714E+05 -1.607872E+04  5.349877E+04  5.604719E+03
       353   1 -7.453076E+05  3.477127E+04  2.171113E+03 -6.627539E+02 -4.289631E+04 -4.688462E+03
       353   2 -7.508380E+05  6.365766E+04  2.910119E+04 -3.361439E+03 -2.826543E+04 -4.811722E+03
       353   3 -7.671283E+05  5.679243E+04  3.757913E+04  7.112899E+03 -1.363595E+04 -4.342530E+03
       353   4 -9.903150E+05 -2.632771E+04 -5.820054E+04  4.113547E+03 -4.302458E+04 -4.689192E+03
       353   5 -9.849088E+05  5.283184E+03 -2.850713E+04 -2.501210E+03 -2.821429E+04 -4.811780E+03
       353   6 -9.902978E+05  1.103786E+03 -1.739573E+04  4.057385E+03 -1.340512E+04 -4.342004E+03
       353   7 -1.235268E+06 -8.743108E+04 -1.185766E+05  8.887931E+03 -4.315280E+04 -4.689923E+03
       353   8 -1.218930E+06 -5.309537E+04 -8.611949E+04 -1.641333E+03 -2.816316E+04 -4.811838E+03
       353   9 -1.213422E+06 -5.458854E+04 -7.237426E+04  1.002944E+03 -1.317437E+04 -4.341479E+03
       353  10 -7.453096E+05  3.477075E+04  2.167610E+03 -6.629159E+02 -9.870237E-10 -6.090017E-09
       353  11 -7.508389E+05  6.365742E+04  2.909964E+04 -3.361549E+03 -6.936825E-10  1.864607E-09
       353  12 -7.671285E+05  5.679236E+04  3.757874E+04  7.112852E+03  4.895272E-12  4.100947E-09
       353  13 -9.903170E+05 -2.632823E+04 -5.820407E+04  4.113385E+03  3.217343E-09 -5.068169E-09
       353  14 -9.849096E+05  5.282945E+03 -2.850867E+04 -2.501319E+03  1.079349E-09 -8.670104E-10
       353  15 -9.902980E+05  1.103717E+03 -1.739610E+04  4.057338E+03 -1.565064E-10 -7.878926E-10
       353  16 -1.235270E+06 -8.743160E+04 -1.185802E+05  8.887768E+03  1.241811E-09 -2.549272E-09
       353  17 -1.218930E+06 -5.309561E+04 -8.612103E+04 -1.641442E+03  2.006082E-09 -1.506536E-09
       353  18 -1.213422E+06 -5.458860E+04 -7.237462E+04  1.002898E+03  1.332377E-10  3.127984E-09
       353  19 -7.453076E+05  3.477127E+04  2.171113E+03 -6.627539E+02  4.289631E+04  4.688462E+03
       353  20 -7.508380E+05  6.365766E+04  2.910119E+04 -3.361439E+03  2.826543E+04  4.811722E+03
       353  21 -7.671283E+05  5.679243E+04  3.757913E+04  7.112899E+03  1.363595E+04  4.342530E+03
       353  22 -9.903150E+05 -2.632771E+04 -5.820054E+04  4.113547E+03  4.302458E+04  4.689192E+03
       353  23 -9.849088E+05  5.283184E+03 -2.850713E+04 -2.501210E+03  2.821429E+04  4.811780E+03
       353  24 -9.902978E+05  1.103786E+03 -1.739573E+04  4.057385E+03  1.340512E+04  4.342004E+03
       353  25 -1.235268E+06 -8.743108E+04 -1.185766E+05  8.887931E+03  4.315280E+04  4.689923E+03
       353  26 -1.218930E+06 -5.309537E+04 -8.611949E+04 -1.641333E+03  2.816316E+04  4.811838E+03
       353  27 -1.213422E+06 -5.458854E+04 -7.237426E+04  1.002944E+03  1.317437E+04  4.341479E+03
       354   1 -7.954834E+05  4.461264E+04  3.361459E+04  4.296710E+03 -1.071601E+04 -4.010277E+03
       354   2 -8.072257E+05  4.564620E+04  3.702718E+04 -2.801262E+03 -7.028728E+03 -3.635225E+03
       354   3 -8.206296E+05  4.199321E+04  3.686335E+04  5.253863E+03 -3.342010E+03 -3.160443E+03
       354   4 -9.882684E+05 -3.466507E+03 -1.381972E+04  4.522915E+03 -1.061540E+04 -4.010108E+03
       354   5 -9.874331E+05  6.962883E+02 -7.334904E+03 -3.058516E+03 -6.898061E+03 -3.634935E+03
       354   6 -9.882653E+05  1.664918E+02 -4.448212E+03  4.513435E+03 -3.181214E+03 -3.160024E+03
       354   7 -1.181020E+06 -5.154842E+04 -6.125676E+04  4.749027E+03 -1.051482E+04 -4.009938E+03
       354   8 -1.167611E+06 -4.425604E+04 -5.169939E+04 -3.315716E+03 -6.767432E+03 -3.634645E+03
       354   9 -1.155875E+06 -4.166232E+04 -4.576185E+04  3.773188E+03 -3.020462E+03 -3.159606E+03
       354  10 -7.954835E+05  4.461259E+04  3.361434E+04  4.296675E+03  1.503126E-09  6.295761E-09
       354  11 -8.072258E+05  4.564617E+04  3.702707E+04 -2.801282E+03 -2.220244E-09  4.632737E-09
       354  12 -8.206296E+05  4.199319E+04  3.686331E+04  5.253855E+03  5.805455E-10  8.195222E-10
       354  13 -9.882686E+05 -3.466555E+03 -1.381996E+04  4.522880E+03  3.155344E-09 -3.853097E-10
       354  14 -9.874332E+05  6.962613E+02 -7.335018E+03 -3.058536E+03  1.619697E-09  4.745042E-09
       354  15 -9.882653E+05  1.664784E+02 -4.448249E+03  4.513427E+03  2.883083E-09  7.582409E-09
       354  16 -1.181020E+06 -5.154847E+04 -6.125700E+04  4.748993E+03  7.881509E-11  5.226842E-09
       354  17 -1.167611E+06 -4.425607E+04 -5.169950E+04 -3.315736E+03 -2.158821E-10  4.445126E-09
       354  18 -1.155875E+06 -4.166233E+04 -4.576189E+04  3.773181E+03 -6.350495E-10  5.632159E-09
       354  19 -7.954834E+05  4.461264E+04  3.361459E+04  4.296710E+03  1.071601E+04  4.010277E+03
       354  20 -8.072257E+05  4.564620E+04  3.702718E+04 -2.801262E+03  7.028728E+03  3.635225E+03
       354  21 -8.206296E+05  4.199321E+04  3.686335E+04  5.253863E+03  3.342010E+03  3.160443E+03
       354  22 -9.882684E+05 -3.466507E+03 -1.381972E+04  4.522915E+03  1.061540E+04  4.010108E+03
       354  23 -9.874331E+05  6.962883E+02 -7.334904E+03 -3.058516E+03  6.898061E+03  3.634935E+03
       354  24 -9.882653E+05  1.664918E+02 -4.448212E+03  4.513435E+03  3.181214E+03  3.160024E+03
       354  25 -1.181020E+06 -5.154842E+04 -6.125676E+04  4.749027E+03  1.051482E+04  4.009938E+03
       354  26 -1.167611E+06 -4.425604E+04 -5.169939E+04 -3.315716E+03  6.767432E+03  3.634645E+03
       354  27 -1.155875E+06 -4.166232E+04 -4.576185E+04  3.773188E+03  3.020462E+03  3.159606E+03
       355   1 -8.544615E+05  3.287438E+04  2.928417E+04  5.077265E+03 -2.604845E+03 -2.874209E+03
       355   2 -8.680553E+05  2.995806E+04  2.727299E+04 -3.186949E+03 -1.513982E+03 -2.403251E+03
       355   3 -8.820268E+05  2.644954E+04  2.438462E+04  5.153056E+03 -4.234297E+02 -1.901557E+03
       355   4 -9.879762E+05 -4.224302E+02 -3.546376E+03  4.840002E+03 -2.463521E+03 -2.873824E+03
       355   5 -9.877861E+05  9.108839E+01 -2.203403E+03 -3.462862E+03 -1.363289E+03 -2.402810E+03
       355   6 -9.879757E+05  1.064438E+01 -1.744317E+03  4.838696E+03 -2.633435E+02 -1.901058E+03
       355   7 -1.121475E+06 -3.372056E+04 -3.637824E+04  4.602778E+03 -2.322227E+03 -2.873438E+03
       355   8 -1.107504E+06 -2.977695E+04 -3.168086E+04 -3.738731E+03 -1.212624E+03 -2.402369E+03
       355   9 -1.093914E+06 -2.642909E+04 -2.787408E+04  4.524381E+03 -1.032845E+02 -1.900559E+03
       355  10 -8.544615E+05  3.287437E+04  2.928414E+04  5.077259E+03  1.568450E-09 -2.003083E-10
       355  11 -8.680553E+05  2.995805E+04  2.727298E+04 -3.186952E+03 -1.890890E-09  7.524724E-09
       355  12 -8.820268E+05  2.644954E+04  2.438461E+04  5.153056E+03  3.957421E-10  4.975048E-09
       355  13 -9.879762E+05 -4.224407E+02 -3.546403E+03  4.839996E+03  5.389090E-10  1.470436E-09
       355  14 -9.877861E+05  9.108169E+01 -2.203417E+03 -3.462865E+03 -1.288025E-09  4.361246E-09
       355  15 -9.879757E+05  1.064048E+01 -1.744324E+03  4.838696E+03 -2.767815E-11  3.770174E-10
       355  16 -1.121475E+06 -3.372057E+04 -3.637827E+04  4.602773E+03 -1.813419E-09  4.042767E-09
       355  17 -1.107504E+06 -2.977696E+04 -3.168087E+04 -3.738733E+03  1.398301E-09 -2.731799E-09
       355  18 -1.093914E+06 -2.642910E+04 -2.787409E+04  4.524381E+03 -2.555051E-09 -2.492543E-09
       355  19 -8.544615E+05  3.287438E+04  2.928417E+04  5.077265E+03  2.604845E+03  2.874209E+03
       355  20 -8.680553E+05  2.995806E+04  2.727299E+04 -3.186949E+03  1.513982E+03  2.403251E+03
       355  21 -8.820268E+05  2.644954E+04  2.438462E+04  5.153056E+03  4.234297E+02  1.901557E+03
       355  22 -9.879762E+05 -4.224302E+02 -3.546376E+03  4.840002E+03  2.463521E+03  2.873824E+03
       355  23 -9.877861E+05  9.108839E+01 -2.203403E+03 -3.462862E+03  1.363289E+03  2.402810E+03
       355  24 -9.879757E+05  1.064438E+01 -1.744317E+03  4.838696E+03  2.633435E+02  1.901058E+03
       355  25 -1.121475E+06 -3.372056E+04 -3.637824E+04  4.602778E+03  2.322227E+03  2.873438E+03
       355  26 -1.107504E+06 -2.977695E+04 -3.168086E+04 -3.738731E+03  1.212624E+03  2.402369E+03
       355  27 -1.093914E+06 -2.642909E+04 -2.787408E+04  4.524381E+03  1.032845E+02  1.900559E+03
       356   1 -9.186288E+05  1.728658E+04  1.532083E+04  5.151734E+03 -1.093743E+02 -1.604126E+03
       356   2 -9.329185E+05  1.376545E+04  1.151687E+04 -3.557950E+03  8.818503E+02 -1.095388E+03
       356   3 -9.475991E+05  9.746055E+03  6.913803E+03  5.188369E+03  1.872956E+03 -5.790832E+02
       356   4 -9.879763E+05 -3.735478E+00 -1.708647E+03  5.028039E+03  4.697669E+01 -1.603622E+03
       356   5 -9.877809E+05  7.927635E+01 -1.990343E+03 -3.699445E+03  1.040478E+03 -1.094864E+03
       356   6 -9.879768E+05 -3.363215E+02 -3.072715E+03  5.029170E+03  2.033883E+03 -5.785383E+02
       356   7 -1.057319E+06 -1.729441E+04 -1.873847E+04  4.904353E+03  2.033102E+02 -1.603119E+03
       356   8 -1.042641E+06 -1.360712E+04 -1.549778E+04 -3.840931E+03  1.199092E+03 -1.094341E+03
       356   9 -1.028353E+06 -1.041882E+04 -1.305935E+04  4.869980E+03  2.194801E+03 -5.779934E+02
       356  10 -9.186288E+05  1.728658E+04  1.532082E+04  5.151734E+03  3.763239E-09  2.389543E-09
       356  11 -9.329185E+05  1.376544E+04  1.151687E+04 -3.557949E+03 -6.727785E-10  3.160008E-10
       356  12 -9.475991E+05  9.746054E+03  6.913796E+03  5.188370E+03  2.370463E-09 -4.780437E-09
       356  13 -9.879763E+05 -3.738239E+00 -1.708652E+03  5.028039E+03  2.123788E-09  1.018180E-08
       356  14 -9.877809E+05  7.927477E+01 -1.990347E+03 -3.699445E+03 -3.569390E-10  2.068873E-09
       356  15 -9.879768E+05 -3.363230E+02 -3.072723E+03  5.029171E+03  7.440861E-11 -5.513129E-09
       356  16 -1.057319E+06 -1.729442E+04 -1.873848E+04  4.904354E+03 -3.242918E-09  4.422246E-09
       356  17 -1.042641E+06 -1.360712E+04 -1.549779E+04 -3.840930E+03 -5.381602E-09 -2.323878E-09
       356  18 -1.028353E+06 -1.041882E+04 -1.305936E+04  4.869981E+03 -1.594278E-09 -5.733608E-09
       356  19 -9.186288E+05  1.728658E+04  1.532083E+04  5.151734E+03  1.093743E+02  1.604126E+03
       356  20 -9.329185E+05  1.376545E+04  1.151687E+04 -3.557950E+03 -8.818503E+02  1.095388E+03
       356  21 -9.475991E+05  9.746055E+03  6.913803E+03  5.188369E+03 -1.872956E+03  5.790832E+02
       356  22 -9.879763E+05 -3.735478E+00 -1.708647E+03  5.028039E+03 -4.697669E+01  1.603622E+03
       356  23 -9.877809E+05  7.927635E+01 -1.990343E+03 -3.699445E+03 -1.040478E+03  1.094864E+03
       356  24 -9.879768E+05 -3.363215E+02 -3.072715E+03  5.029170E+03 -2.033883E+03  5.785383E+02
       356  25 -1.057319E+06 -1.729441E+04 -1.873847E+04  4.904353E+03 -2.033102E+02  1.603119E+03
       356  26 -1.042641E+06 -1.360712E+04 -1.549778E+04 -3.840931E+03 -1.199092E+03  1.094341E+03
       356  27 -1.028353E+06 -1.041882E+04 -1.305935E+04  4.869980E+03 -2.194801E+03  5.779934E+02
       357   1 -9.855886E+05  8.020298E+02 -3.216302E+03  4.766751E+03  2.484750E+03 -2.675298E+02
       357   2 -9.994778E+05 -2.407310E+03 -9.184839E+03 -3.692170E+03  5.652644E+03  2.639594E+02
       357   3 -1.014912E+06 -9.545047E+03 -1.823148E+04  5.519843E+03  8.820603E+03  7.568210E+02
       357   4 -9.882320E+05  1.543198E+02 -3.821273E+03  5.072662E+03  2.653050E+03 -2.669540E+02
       357   5 -9.874619E+05  5.893512E+02 -6.227391E+03 -3.757624E+03  5.808965E+03  2.644890E+02
       357   6 -9.882348E+05 -2.901849E+03 -1.170318E+04  5.083010E+03  8.965018E+03  7.573016E+02
       357   7 -9.908753E+05 -4.933903E+02 -4.426243E+03  5.378572E+03  2.821350E+03 -2.663780E+02
       357   8 -9.754458E+05  3.586002E+03 -3.269954E+03 -3.823080E+03  5.965288E+03  2.650186E+02
       357   9 -9.615571E+05  3.741296E+03 -5.174933E+03  4.646158E+03  9.109439E+03  7.577819E+02
       357  10 -9.855886E+05  8.020281E+02 -3.216314E+03  4.766751E+03 -4.241189E-09  1.817706E-09
       357  11 -9.994778E+05 -2.407319E+03 -9.184899E+03 -3.692171E+03 -4.640642E-09  2.074387E-09
       357  12 -1.014912E+06 -9.545068E+03 -1.823163E+04  5.519838E+03 -7.857106E-10  7.366424E-11
       357  13 -9.882320E+05  1.543178E+02 -3.821286E+03  5.072663E+03  1.811414E-09 -1.220111E-09
       357  14 -9.874619E+05  5.893420E+02 -6.227455E+03 -3.757626E+03 -2.161709E-09  4.693137E-09
       357  15 -9.882349E+05 -2.901872E+03 -1.170333E+04  5.083005E+03 -3.259629E-10  1.137260E-09
       357  16 -9.908753E+05 -4.933925E+02 -4.426258E+03  5.378573E+03  4.215091E-09  4.442660E-10
       357  17 -9.754459E+05  3.585992E+03 -3.270021E+03 -3.823081E+03  2.786791E-09 -9.178753E-09
       357  18 -9.615572E+05  3.741273E+03 -5.175090E+03  4.646153E+03  1.193445E-09 -1.284636E-09
       357  19 -9.855886E+05  8.020298E+02 -3.216302E+03  4.766751E+03 -2.484750E+03  2.675298E+02
       357  20 -9.994778E+05 -2.407310E+03 -9.184839E+03 -3.692170E+03 -5.652644E+03 -2.639594E+02
       357  21 -1.014912E+06 -9.545047E+03 -1.823148E+04  5.519843E+03 -8.820603E+03 -7.568210E+02
       357  22 -9.882320E+05  1.543198E+02 -3.821273E+03  5.072662E+03 -2.653050E+03  2.669540E+02
       357  23 -9.874619E+05  5.893512E+02 -6.227391E+03 -3.757624E+03 -5.808965E+03 -2.644890E+02
       357  24 -9.882348E+05 -2.901849E+03 -1.170318E+04  5.083010E+03 -8.965018E+03 -7.573016E+02
       357  25 -9.908753E+05 -4.933903E+02 -4.426243E+03  5.378572E+03 -2.821350E+03  2.663780E+02
       357  26 -9.754458E+05  3.586002E+03 -3.269954E+03 -3.823080E+03 -5.965288E+03 -2.650186E+02
       357  27 -9.615571E+05  3.741296E+03 -5.174933E+03  4.646158E+03 -9.109439E+03 -7.577819E+02
       358   1 -1.054105E+06 -1.507230E+04 -3.056470E+04  2.571754E+03  1.111052E+04  1.113135E+03
       358   2 -1.063763E+06 -1.509407E+04 -4.340607E+04 -2.775782E+03  2.373106E+04  1.684546E+03
       358   3 -1.082750E+06 -4.533796E+04 -7.205534E+04  9.162139E+03  3.635222E+04  1.927750E+03
       358   4 -9.899592E+05  9.581779E+02 -1.472448E+04  4.965572E+03  1.132742E+04  1.113898E+03
       358   5 -9.853118E+05  4.468006E+03 -2.409851E+04 -3.639818E+03  2.384708E+04  1.684873E+03
       358   6 -9.899741E+05 -2.222464E+04 -4.920876E+04  5.040234E+03  3.636764E+04  1.927528E+03
       358   7 -9.258095E+05  1.698837E+04  1.115435E+03  7.359634E+03  1.154434E+04  1.114663E+03
       358   8 -9.068547E+05  2.402963E+04 -4.791405E+03 -4.503968E+03  2.396311E+04  1.685200E+03
       358   9 -8.971907E+05  8.881071E+02 -2.636280E+04  9.177057E+02  3.638306E+04  1.927305E+03
       358  10 -1.054105E+06 -1.507234E+04 -3.056494E+04  2.571744E+03 -2.040514E-09  3.909238E-09
       358  11 -1.063764E+06 -1.509423E+04 -4.340713E+04 -2.775815E+03 -8.168911E-10  1.476419E-09
       358  12 -1.082751E+06 -4.533832E+04 -7.205784E+04  9.162083E+03  1.157968E-09  5.314463E-09
       358  13 -9.899594E+05  9.581420E+02 -1.472473E+04  4.965561E+03 -3.958308E-10  1.105606E-09
       358  14 -9.853124E+05  4.467850E+03 -2.409958E+04 -3.639851E+03 -2.156869E-09  5.469722E-09
       358  15 -9.899755E+05 -2.222500E+04 -4.921126E+04  5.040178E+03  8.506173E-10  2.470905E-09
       358  16 -9.258096E+05  1.698833E+04  1.115181E+03  7.359624E+03  1.099001E-09  7.992954E-10
       358  17 -9.068553E+05  2.402947E+04 -4.792491E+03 -4.504001E+03  7.728016E-10 -4.031679E-09
       358  18 -8.971921E+05  8.877471E+02 -2.636530E+04  9.176492E+02 -3.924425E-09 -7.467376E-09
       358  19 -1.054105E+06 -1.507230E+04 -3.056470E+04  2.571754E+03 -1.111052E+04 -1.113135E+03
       358  20 -1.063763E+06 -1.509407E+04 -4.340607E+04 -2.775782E+03 -2.373106E+04 -1.684546E+03
       358  21 -1.082750E+06 -4.533796E+04 -7.205534E+04  9.162139E+03 -3.635222E+04 -1.927750E+03
       358  22 -9.899592E+05  9.581779E+02 -1.472448E+04  4.965572E+03 -1.132742E+04 -1.113898E+03
       358  23 -9.853118E+05  4.468006E+03 -2.409851E+04 -3.639818E+03 -2.384708E+04 -1.684873E+03
       358  24 -9.899741E+05 -2.222464E+04 -4.920876E+04  5.040234E+03 -3.636764E+04 -1.927528E+03
       358  25 -9.258095E+05  1.698837E+04  1.115435E+03  7.359634E+03 -1.154434E+04 -1.114663E+03
       358  26 -9.068547E+05  2.402963E+04 -4.791405E+03 -4.503968E+03 -2.396311E+04 -1.685200E+03
       358  27 -8.971907E+05  8.881071E+02 -2.636280E+04  9.177057E+02 -3.638306E+04 -1.927305E+03
       359   1 -1.130474E+06 -2.516181E+04 -9.144010E+04 -1.182932E+04  4.538634E+04  2.643785E+03
       359   2 -1.112364E+06 -2.010205E+03 -1.276237E+05  5.582337E+03  9.666968E+04  3.439053E+03
       359   3 -1.157702E+06 -2.055368E+05 -2.539162E+05  3.955383E+04  1.479613E+05  1.534238E+03
       359   4 -1.001950E+06  7.033699E+03 -5.975268E+04  4.660620E+03  4.601139E+04  2.646906E+03
       359   5 -9.703463E+05  3.333866E+04 -9.272954E+04 -3.368135E+03  9.646241E+04  3.436937E+03
       359   6 -1.002031E+06 -1.668643E+05 -2.152217E+05  5.164019E+03  1.469229E+05  1.522945E+03
       359   7 -8.734113E+05  3.922898E+04 -2.806634E+04  2.115398E+04  4.663657E+04  2.650060E+03
       359   8 -8.283098E+05  6.868633E+04 -5.783679E+04 -1.232067E+04  9.625510E+04  3.434828E+03
       359   9 -8.463355E+05 -1.281891E+05 -1.765284E+05 -2.923444E+04  1.458843E+05  1.511770E+03
       359  10 -1.130476E+06 -2.516237E+04 -9.144399E+04 -1.182942E+04 -2.305378E-09  1.348390E-09
       359  11 -1.112374E+06 -2.012732E+03 -1.276413E+05  5.582069E+03 -9.797728E-10 -1.413721E-09
       359  12 -1.157726E+06 -2.055427E+05 -2.539574E+05  3.955364E+04  2.238390E-09 -9.905603E-10
       359  13 -1.001952E+06  7.033122E+03 -5.975668E+04  4.660521E+03 -1.163629E-09  1.006418E-08
       359  14 -9.703563E+05  3.333614E+04 -9.274707E+04 -3.368402E+03 -3.793456E-10 -3.564892E-09
       359  15 -1.002055E+06 -1.668701E+05 -2.152623E+05  5.163838E+03  7.714000E-10  4.556307E-09
       359  16 -8.734136E+05  3.922839E+04 -2.807045E+04  2.115388E+04 -1.295037E-10  3.639439E-09
       359  17 -8.283198E+05  6.868383E+04 -5.785425E+04 -1.232094E+04 -1.465465E-09  2.883009E-09
       359  18 -8.463584E+05 -1.281948E+05 -1.765684E+05 -2.923462E+04 -2.111062E-09 -1.657327E-09
       359  19 -1.130474E+06 -2.516181E+04 -9.144010E+04 -1.182932E+04 -4.538634E+04 -2.643785E+03
       359  20 -1.112364E+06 -2.010205E+03 -1.276237E+05  5.582337E+03 -9.666968E+04 -3.439053E+03
       359  21 -1.157702E+06 -2.055368E+05 -2.539162E+05  3.955383E+04 -1.479613E+05 -1.534238E+03
       359  22 -1.001950E+06  7.033699E+03 -5.975268E+04  4.660620E+03 -4.601139E+04 -2.646906E+03
       359  23 -9.703463E+05  3.333866E+04 -9.272954E+04 -3.368135E+03 -9.646241E+04 -3.436937E+03
       359  24 -1.002031E+06 -1.668643E+05 -2.152217E+05  5.164019E+03 -1.469229E+05 -1.522945E+03
       359  25 -8.734113E+05  3.922898E+04 -2.806634E+04  2.115398E+04 -4.663657E+04 -2.650060E+03
       359  26 -8.283098E+05  6.868633E+04 -5.783679E+04 -1.232067E+04 -9.625510E+04 -3.434828E+03
       359  27 -8.463355E+05 -1.281891E+05 -1.765284E+05 -2.923444E+04 -1.458843E+05 -1.511770E+03
       360   1  7.713637E+05  4.401750E+06  9.082790E+05 -2.329591E+05  7.735731E+03  4.022125E+05
       360   2  1.587887E+05  4.091585E+06  5.217866E+05 -3.011887E+04  2.223871E+04  2.470351E+05
       360   3  1.895128E+05  3.963339E+06  3.969089E+05 -8.990409E+04  1.393322E+04  9.184438E+04
       360   4  4.625108E+05  3.161265E+06  6.011861E+05 -1.333972E+05  7.814998E+03  3.936992E+05
       360   5 -9.456365E+04  3.071119E+06  2.723374E+05 -2.522094E+03  2.225414E+04  2.459326E+05
       360   6 -9.050057E+03  3.161917E+06  2.003464E+05 -1.342648E+05  1.390407E+04  9.809701E+04
       360   7  1.535799E+05  1.922188E+06  2.939844E+05 -3.403240E+04  7.891679E+03  3.852022E+05
       360   8 -3.479900E+05  2.051597E+06  2.281278E+04  2.503011E+04  2.226949E+04  2.448317E+05
       360   9 -2.076526E+05  2.361080E+06  3.738308E+03 -1.785679E+05  1.387401E+04  1.043416E+05
       360  10  7.713206E+05  4.401578E+06  9.079769E+05 -2.329616E+05  5.167806E-10 -2.736193E-10
       360  11  1.587719E+05  4.091520E+06  5.216717E+05 -3.012329E+04  8.882977E-10 -9.245814E-09
       360  12  1.895104E+05  3.963330E+06  3.968928E+05 -8.990512E+04  1.440847E-09  2.675033E-09
       360  13  4.624694E+05  3.161099E+06  6.008962E+05 -1.333997E+05  1.995069E-09 -2.334774E-09
       360  14 -9.458032E+04  3.071055E+06  2.722234E+05 -2.526496E+03  8.794987E-10  3.222097E-09
       360  15 -9.052833E+03  3.161906E+06  2.003281E+05 -1.342659E+05  1.889205E-09 -2.848332E-10
       360  16  1.535402E+05  1.922029E+06  2.937063E+05 -3.403485E+04 -2.413052E-10  1.199584E-09
       360  17 -3.480065E+05  2.051533E+06  2.269959E+04  2.502573E+04  1.709831E-09 -1.708608E-09
       360  18 -2.076558E+05  2.361068E+06  3.717564E+03 -1.785691E+05 -6.844647E-10 -4.408404E-09
       360  19  7.713637E+05  4.401750E+06  9.082790E+05 -2.329591E+05 -7.735731E+03 -4.022125E+05
       360  20  1.587887E+05  4.091585E+06  5.217866E+05 -3.011887E+04 -2.223871E+04 -2.470351E+05
       360  21  1.895128E+05  3.963339E+06  3.969089E+05 -8.990409E+04 -1.393322E+04 -9.184438E+04
       360  22  4.625108E+05  3.161265E+06  6.011861E+05 -1.333972E+05 -7.814998E+03 -3.936992E+05
       360  23 -9.456365E+04  3.071119E+06  2.723374E+05 -2.522094E+03 -2.225414E+04 -2.459326E+05
       360  24 -9.050057E+03  3.161917E+06  2.003464E+05 -1.342648E+05 -1.390407E+04 -9.809701E+04
       360  25  1.535799E+05  1.922188E+06  2.939844E+05 -3.403240E+04 -7.891679E+03 -3.852022E+05
       360  26 -3.479900E+05  2.051597E+06  2.281278E+04  2.503011E+04 -2.226949E+04 -2.448317E+05
       360  27 -2.076526E+05  2.361080E+06  3.738308E+03 -1.785679E+05 -1.387401E+04 -1.043416E+05
       361   1  1.251389E+05  3.396924E+06  2.454090E+05 -1.502536E+05  5.796370E+03  6.260894E+04
       361   2 -1.212306E+04  3.165057E+06  1.557266E+05 -6.733757E+03  1.219663E+03 -1.115716E+04
       361   3  3.191293E+04  2.985644E+06  1.587200E+05 -1.098337E+05 -3.552802E+03 -8.490114E+04
       361   4  5.954245E+04  3.133379E+06  1.809581E+05 -1.303100E+05  5.792460E+03  6.409136E+04
       361   5 -2.649459E+04  3.107167E+06  1.415443E+05 -6.981260E+03  1.213443E+03 -9.598065E+03
       361   6  6.876499E+04  3.133360E+06  1.947683E+05 -1.302671E+05 -3.556720E+03 -8.328947E+04
       361   7 -6.057709E+03  2.869898E+06  1.165024E+05 -1.103748E+05  5.788644E+03  6.557316E+04
       361   8 -4.086637E+04  3.049279E+06  1.273618E+05 -7.228737E+03  1.207221E+03 -8.039112E+03
       361   9  1.056170E+05  3.281097E+06  2.308152E+05 -1.507053E+05 -3.560742E+03 -8.167740E+04
       361  10  1.251379E+05  3.396919E+06  2.454016E+05 -1.502539E+05  1.051664E-09  2.378862E-09
       361  11 -1.212309E+04  3.165057E+06  1.557264E+05 -6.733746E+03  1.966131E-09 -1.633712E-08
       361  12  3.191099E+04  2.985636E+06  1.587065E+05 -1.098339E+05 -1.146631E-12  1.643849E-09
       361  13  5.954132E+04  3.133374E+06  1.809504E+05 -1.303103E+05 -1.480023E-10 -3.907094E-09
       361  14 -2.649462E+04  3.107167E+06  1.415441E+05 -6.981250E+03  2.156013E-09  3.460130E-09
       361  15  6.876313E+04  3.133352E+06  1.947553E+05 -1.302673E+05  3.788407E-09 -1.619248E-09
       361  16 -6.058893E+03  2.869893E+06  1.164943E+05 -1.103751E+05 -6.588263E-10 -2.761749E-10
       361  17 -4.086639E+04  3.049279E+06  1.273616E+05 -7.228729E+03 -3.742762E-09 -3.404139E-11
       361  18  1.056152E+05  3.281089E+06  2.308027E+05 -1.507055E+05 -1.006269E-09 -3.086116E-09
       361  19  1.251389E+05  3.396924E+06  2.454090E+05 -1.502536E+05 -5.796370E+03 -6.260894E+04
       361  20 -1.212306E+04  3.165057E+06  1.557266E+05 -6.733757E+03 -1.219663E+03  1.115716E+04
       361  21  3.191293E+04  2.985644E+06  1.587200E+05 -1.098337E+05  3.552802E+03  8.490114E+04
       361  22  5.954245E+04  3.133379E+06  1.809581E+05 -1.303100E+05 -5.792460E+03 -6.409136E+04
       361  23 -2.649459E+04  3.107167E+06  1.415443E+05 -6.981260E+03 -1.213443E+03  9.598065E+03
       361  24  6.876499E+04  3.133360E+06  1.947683E+05 -1.302671E+05  3.556720E+03  8.328947E+04
       361  25 -6.057709E+03  2.869898E+06  1.165024E+05 -1.103748E+05 -5.788644E+03 -6.557316E+04
       361  26 -4.086637E+04  3.049279E+06  1.273618E+05 -7.228737E+03 -1.207221E+03  8.039112E+03
       361  27  1.056170E+05  3.281097E+06  2.308152E+05 -1.507053E+05  3.560742E+03  8.167740E+04
       362   1 -1.817998E+05  2.485799E+06  5.226960E+04 -1.842904E+05 -1.131595E+04 -1.260839E+05
       362   2 -3.304336E+05  2.167544E+06  8.762724E+04  2.766840E+04 -1.941152E+04 -2.861744E+05
       362   3  2.507200E+05  2.053012E+06  4.096214E+05 -1.913649E+04 -6.727714E+03 -4.461350E+05
       362   4 -1.296311E+04  3.167198E+06  2.195777E+05 -1.335141E+05 -1.134883E+04 -1.202203E+05
       362   5 -1.074021E+05  3.064586E+06  3.071534E+05 -3.545691E+03 -1.939369E+04 -2.870367E+05
       362   6  5.285099E+05  3.166448E+06  6.856900E+05 -1.323012E+05 -6.630315E+03 -4.537798E+05
       362   7  1.558493E+05  3.849022E+06  3.868535E+05 -8.268176E+04 -1.138074E+04 -1.143503E+05
       362   8  1.155735E+05  3.962360E+06  5.266214E+05 -3.480429E+04 -1.937579E+04 -2.879000E+05
       362   9  8.062547E+05  4.281032E+06  9.616732E+05 -2.456677E+05 -6.530282E+03 -4.614376E+05
       362  10 -1.818042E+05  2.485782E+06  5.223961E+04 -1.842916E+05  1.775999E-09  2.230812E-09
       362  11 -3.304559E+05  2.167456E+06  8.747319E+04  2.766393E+04  4.533840E-10 -1.226840E-08
       362  12  2.506667E+05  2.052799E+06  4.092485E+05 -1.913890E+04 -1.206801E-09 -1.698908E-09
       362  13 -1.296710E+04  3.167182E+06  2.195505E+05 -1.335152E+05 -1.773913E-09 -2.555356E-09
       362  14 -1.074245E+05  3.064498E+06  3.069987E+05 -3.550168E+03 -1.358178E-09  3.049134E-09
       362  15  5.284549E+05  3.166228E+06  6.853049E+05 -1.323036E+05 -1.945700E-09 -5.262720E-10
       362  16  1.558457E+05  3.849008E+06  3.868288E+05 -8.268281E+04 -4.508942E-10 -9.324992E-10
       362  17  1.155511E+05  3.962272E+06  5.264659E+05 -3.480877E+04 -2.989378E-09 -3.850392E-11
       362  18  8.061979E+05  4.280805E+06  9.612757E+05 -2.456702E+05 -2.590991E-09  7.216073E-10
       362  19 -1.817998E+05  2.485799E+06  5.226960E+04 -1.842904E+05  1.131595E+04  1.260839E+05
       362  20 -3.304336E+05  2.167544E+06  8.762724E+04  2.766840E+04  1.941152E+04  2.861744E+05
       362  21  2.507200E+05  2.053012E+06  4.096214E+05 -1.913649E+04  6.727714E+03  4.461350E+05
       362  22 -1.296311E+04  3.167198E+06  2.195777E+05 -1.335141E+05  1.134883E+04  1.202203E+05
       362  23 -1.074021E+05  3.064586E+06  3.071534E+05 -3.545691E+03  1.939369E+04  2.870367E+05
       362  24  5.285099E+05  3.166448E+06  6.856900E+05 -1.323012E+05  6.630315E+03  4.537798E+05
       362  25  1.558493E+05  3.849022E+06  3.868535E+05 -8.268176E+04  1.138074E+04  1.143503E+05
       362  26  1.155735E+05  3.962360E+06  5.266214E+05 -3.480429E+04  1.937579E+04  2.879000E+05
       362  27  8.062547E+05  4.281032E+06  9.616732E+05 -2.456677E+05  6.530282E+03  4.614376E+05
       363   1 -2.401407E+05 -9.460052E+04 -9.134784E+04 -8.924150E+04 -1.042339E+05 -4.163445E+04
       363   2 -2.166767E+05  5.072450E+04  4.201764E+03 -1.272613E+05 -6.590514E+04 -3.189247E+04
       363   3 -2.690775E+05  4.218722E+04  2.757443E+04 -1.115349E+05 -2.940651E+04 -1.729629E+04
       363   4 -5.389684E+05 -1.842771E+05 -1.686448E+05 -1.468343E+05 -1.061029E+05 -4.234324E+04
       363   5 -4.923701E+05 -4.726920E+04 -6.927717E+04 -1.962683E+05 -6.637512E+04 -3.207066E+04
       363   6 -5.219428E+05 -6.444520E+04 -4.322253E+04 -1.919482E+05 -2.847605E+04 -1.694478E+04
       363   7 -8.377081E+05 -2.739547E+05 -2.459481E+05 -2.044055E+05 -1.079710E+05 -4.305183E+04
       363   8 -7.679896E+05 -1.452603E+05 -1.427624E+05 -2.652485E+05 -6.684487E+04 -3.224878E+04
       363   9 -7.747461E+05 -1.710694E+05 -1.140255E+05 -2.723304E+05 -2.754600E+04 -1.659347E+04
       363  10 -2.401529E+05 -9.460530E+04 -9.137152E+04 -8.924500E+04 -2.608572E-09  1.283798E-10
       363  11 -2.166817E+05  5.072224E+04  4.191685E+03 -1.272630E+05 -1.625095E-09  2.424359E-09
       363  12 -2.690785E+05  4.218666E+04  2.757225E+04 -1.115353E+05  1.972361E-09 -2.040480E-09
       363  13 -5.389809E+05 -1.842820E+05 -1.686693E+05 -1.468379E+05  2.076163E-09  2.912297E-09
       363  14 -4.923751E+05 -4.727149E+04 -6.928739E+04 -1.962700E+05 -5.824928E-10  6.085314E-10
       363  15 -5.219437E+05 -6.444573E+04 -4.322460E+04 -1.919486E+05  1.101156E-09  1.581386E-09
       363  16 -8.377211E+05 -2.739598E+05 -2.459735E+05 -2.044092E+05  2.131204E-10  2.448064E-09
       363  17 -7.679947E+05 -1.452626E+05 -1.427728E+05 -2.652502E+05 -1.000155E-09  4.258681E-09
       363  18 -7.747470E+05 -1.710699E+05 -1.140274E+05 -2.723308E+05  2.632503E-09 -3.716876E-09
       363  19 -2.401407E+05 -9.460052E+04 -9.134784E+04 -8.924150E+04  1.042339E+05  4.163445E+04
       363  20 -2.166767E+05  5.072450E+04  4.201764E+03 -1.272613E+05  6.590514E+04  3.189247E+04
       363  21 -2.690775E+05  4.218722E+04  2.757443E+04 -1.115349E+05  2.940651E+04  1.729629E+04
       363  22 -5.389684E+05 -1.842771E+05 -1.686448E+05 -1.468343E+05  1.061029E+05  4.234324E+04
       363  23 -4.923701E+05 -4.726920E+04 -6.927717E+04 -1.962683E+05  6.637512E+04  3.207066E+04
       363  24 -5.219428E+05 -6.444520E+04 -4.322253E+04 -1.919482E+05  2.847605E+04  1.694478E+04
       363  25 -8.377081E+05 -2.739547E+05 -2.459481E+05 -2.044055E+05  1.079710E+05  4.305183E+04
       363  26 -7.679896E+05 -1.452603E+05 -1.427624E+05 -2.652485E+05  6.684487E+04  3.224878E+04
       363  27 -7.747461E+05 -1.710694E+05 -1.140255E+05 -2.723304E+05  2.754600E+04  1.659347E+04
       364   1 -2.853640E+05  1.212196E+03  2.677904E+04 -1.206000E+05 -2.230441E+04 -1.350466E+04
       364   2 -2.874095E+05  1.230518E+04  4.269195E+04 -1.340142E+05 -1.381565E+04 -1.043075E+04
       364   3 -3.097328E+05  1.202637E+04  4.624824E+04 -1.293072E+05 -5.561523E+03 -6.736173E+03
       364   4 -5.167181E+05 -8.330205E+04 -3.549236E+04 -1.808047E+05 -2.242148E+04 -1.354912E+04
       364   5 -5.053975E+05 -6.945590E+04 -1.633125E+04 -1.929373E+05 -1.375462E+04 -1.040785E+04
       364   6 -5.143935E+05 -6.702163E+04 -9.671585E+03 -1.869477E+05 -5.322239E+03 -6.645814E+03
       364   7 -7.480215E+05 -1.678142E+05 -9.776859E+04 -2.409897E+05 -2.253850E+04 -1.359357E+04
       364   8 -7.233403E+05 -1.512145E+05 -7.535874E+04 -2.518419E+05 -1.369362E+04 -1.038496E+04
       364   9 -7.190141E+05 -1.460667E+05 -6.559522E+04 -2.445709E+05 -5.083042E+03 -6.555490E+03
       364  10 -2.853645E+05  1.211866E+03  2.677776E+04 -1.206003E+05 -3.198534E-10 -3.017014E-09
       364  11 -2.874097E+05  1.230501E+04  4.269139E+04 -1.340143E+05 -3.890329E-09  3.188584E-09
       364  12 -3.097328E+05  1.202632E+04  4.624809E+04 -1.293073E+05 -2.991744E-09  1.935773E-09
       364  13 -5.167187E+05 -8.330238E+04 -3.549365E+04 -1.808049E+05  1.169994E-09 -1.937177E-09
       364  14 -5.053978E+05 -6.945607E+04 -1.633181E+04 -1.929374E+05 -8.075641E-10 -1.251404E-08
       364  15 -5.143936E+05 -6.702168E+04 -9.671721E+03 -1.869477E+05  1.699998E-10  4.241163E-10
       364  16 -7.480221E+05 -1.678145E+05 -9.776989E+04 -2.409899E+05  3.122532E-09 -4.094863E-09
       364  17 -7.233405E+05 -1.512146E+05 -7.535930E+04 -2.518420E+05  3.479162E-09  4.297865E-09
       364  18 -7.190141E+05 -1.460668E+05 -6.559535E+04 -2.445709E+05 -1.466501E-09  3.677789E-09
       364  19 -2.853640E+05  1.212196E+03  2.677904E+04 -1.206000E+05  2.230441E+04  1.350466E+04
       364  20 -2.874095E+05  1.230518E+04  4.269195E+04 -1.340142E+05  1.381565E+04  1.043075E+04
       364  21 -3.097328E+05  1.202637E+04  4.624824E+04 -1.293072E+05  5.561523E+03  6.736173E+03
       364  22 -5.167181E+05 -8.330205E+04 -3.549236E+04 -1.808047E+05  2.242148E+04  1.354912E+04
       364  23 -5.053975E+05 -6.945590E+04 -1.633125E+04 -1.929373E+05  1.375462E+04  1.040785E+04
       364  24 -5.143935E+05 -6.702163E+04 -9.671585E+03 -1.869477E+05  5.322239E+03  6.645814E+03
       364  25 -7.480215E+05 -1.678142E+05 -9.776859E+04 -2.409897E+05  2.253850E+04  1.359357E+04
       364  26 -7.233403E+05 -1.512145E+05 -7.535874E+04 -2.518419E+05  1.369362E+04  1.038496E+04
       364  27 -7.190141E+05 -1.460667E+05 -6.559522E+04 -2.445709E+05  5.083042E+03  6.555490E+03
       365   1 -3.425415E+05 -4.906506E+03  3.872465E+04 -1.386753E+05 -4.143259E+03 -5.783921E+03
       365   2 -3.486426E+05 -1.275478E+04  3.919868E+04 -1.493839E+05 -2.367126E+03 -4.644468E+03
       365   3 -3.679058E+05 -1.178135E+04  3.742645E+04 -1.459100E+05 -6.273049E+02 -3.409898E+03
       365   4 -5.137810E+05 -6.939110E+04 -7.671117E+03 -1.852290E+05 -4.036508E+03 -5.743642E+03
       365   5 -5.070386E+05 -7.269589E+04 -3.803893E+03 -1.927375E+05 -2.233115E+03 -4.593837E+03
       365   6 -5.134647E+05 -6.718459E+04 -2.205050E+03 -1.860631E+05 -4.659921E+02 -3.348887E+03
       365   7 -6.849920E+05 -1.338739E+05 -5.406943E+04 -2.317712E+05 -3.929789E+03 -5.703375E+03
       365   8 -6.654106E+05 -1.326355E+05 -4.680872E+04 -2.360812E+05 -2.099142E+03 -4.543220E+03
       365   9 -6.590035E+05 -1.225866E+05 -4.183853E+04 -2.262079E+05 -3.047208E+02 -3.287891E+03
       365  10 -3.425416E+05 -4.906546E+03  3.872455E+04 -1.386753E+05  1.163085E-09  5.391761E-09
       365  11 -3.486426E+05 -1.275480E+04  3.919863E+04 -1.493839E+05  1.772574E-09  2.405256E-09
       365  12 -3.679058E+05 -1.178136E+04  3.742643E+04 -1.459100E+05 -3.629020E-09 -3.898719E-10
       365  13 -5.137810E+05 -6.939114E+04 -7.671210E+03 -1.852291E+05 -5.660530E-10 -2.651988E-09
       365  14 -5.070386E+05 -7.269592E+04 -3.803942E+03 -1.927375E+05  4.141276E-09 -7.990496E-09
       365  15 -5.134647E+05 -6.718460E+04 -2.205071E+03 -1.860631E+05 -1.062042E-09  1.001177E-08
       365  16 -6.849921E+05 -1.338740E+05 -5.406952E+04 -2.317712E+05 -1.301928E-09  2.147456E-09
       365  17 -6.654106E+05 -1.326356E+05 -4.680876E+04 -2.360812E+05 -2.614536E-09 -1.173897E-09
       365  18 -6.590035E+05 -1.225866E+05 -4.183855E+04 -2.262079E+05  5.606948E-10  3.783202E-09
       365  19 -3.425415E+05 -4.906506E+03  3.872465E+04 -1.386753E+05  4.143259E+03  5.783921E+03
       365  20 -3.486426E+05 -1.275478E+04  3.919868E+04 -1.493839E+05  2.367126E+03  4.644468E+03
       365  21 -3.679058E+05 -1.178135E+04  3.742645E+04 -1.459100E+05  6.273049E+02  3.409898E+03
       365  22 -5.137810E+05 -6.939110E+04 -7.671117E+03 -1.852290E+05  4.036508E+03  5.743642E+03
       365  23 -5.070386E+05 -7.269589E+04 -3.803893E+03 -1.927375E+05  2.233115E+03  4.593837E+03
       365  24 -5.134647E+05 -6.718459E+04 -2.205050E+03 -1.860631E+05  4.659921E+02  3.348887E+03
       365  25 -6.849920E+05 -1.338739E+05 -5.406943E+04 -2.317712E+05  3.929789E+03  5.703375E+03
       365  26 -6.654106E+05 -1.326355E+05 -4.680872E+04 -2.360812E+05  2.099142E+03  4.543220E+03
       365  27 -6.590035E+05 -1.225866E+05 -4.183853E+04 -2.262079E+05  3.047208E+02  3.287891E+03
       366   1 -4.048155E+05 -2.624341E+04  2.773033E+04 -1.559278E+05 -3.996998E+02 -2.974792E+03
       366   2 -4.117485E+05 -3.710367E+04  2.495253E+04 -1.666905E+05 -1.095778E+02 -2.295682E+03
       366   3 -4.313529E+05 -3.592617E+04  2.170627E+04 -1.632445E+05  1.719893E+02 -1.594516E+03
       366   4 -5.134837E+05 -6.739166E+04 -1.731805E+03 -1.857070E+05 -2.574001E+02 -2.920947E+03
       366   5 -5.071267E+05 -7.326697E+04 -9.569469E+02 -1.928655E+05  3.908739E+01 -2.239400E+03
       366   6 -5.134428E+05 -6.710579E+04 -6.556940E+02 -1.858153E+05  3.270301E+02 -1.535789E+03
       366   7 -6.221406E+05 -1.085392E+05 -3.119499E+04 -2.154815E+05 -1.151278E+02 -2.867113E+03
       366   8 -6.024962E+05 -1.094297E+05 -2.686722E+04 -2.190368E+05  1.877273E+02 -2.183126E+03
       366   9 -5.955262E+05 -9.828496E+04 -2.301823E+04 -2.083833E+05  4.820479E+02 -1.477071E+03
       366  10 -4.048155E+05 -2.624342E+04  2.773031E+04 -1.559278E+05 -5.528485E-10  1.299479E-08
       366  11 -4.117485E+05 -3.710367E+04  2.495252E+04 -1.666905E+05 -1.044078E-09 -1.664311E-09
       366  12 -4.313529E+05 -3.592617E+04  2.170627E+04 -1.632445E+05 -5.560273E-09  1.587478E-09
       366  13 -5.134837E+05 -6.739167E+04 -1.731821E+03 -1.857070E+05 -3.273680E-09  6.787449E-09
       366  14 -5.071267E+05 -7.326697E+04 -9.569564E+02 -1.928655E+05  1.997053E-09 -3.760909E-10
       366  15 -5.134428E+05 -6.710580E+04 -6.556986E+02 -1.858153E+05 -1.425123E-09  4.229011E-09
       366  16 -6.221406E+05 -1.085392E+05 -3.119501E+04 -2.154815E+05 -1.714372E-09  7.053385E-09
       366  17 -6.024962E+05 -1.094297E+05 -2.686723E+04 -2.190368E+05 -1.702296E-09 -6.697804E-11
       366  18 -5.955262E+05 -9.828496E+04 -2.301823E+04 -2.083833E+05  1.913937E-09  7.541747E-09
       366  19 -4.048155E+05 -2.624341E+04  2.773033E+04 -1.559278E+05  3.996998E+02  2.974792E+03
       366  20 -4.117485E+05 -3.710367E+04  2.495253E+04 -1.666905E+05  1.095778E+02  2.295682E+03
       366  21 -4.313529E+05 -3.592617E+04  2.170627E+04 -1.632445E+05 -1.719893E+02  1.594516E+03
       366  22 -5.134837E+05 -6.739166E+04 -1.731805E+03 -1.857070E+05  2.574001E+02  2.920947E+03
       366  23 -5.071267E+05 -7.326697E+04 -9.569469E+02 -1.928655E+05 -3.908739E+01  2.239400E+03
       366  24 -5.134428E+05 -6.710579E+04 -6.556940E+02 -1.858153E+05 -3.270301E+02  1.535789E+03
       366  25 -6.221406E+05 -1.085392E+05 -3.119499E+04 -2.154815E+05  1.151278E+02  2.867113E+03
       366  26 -6.024962E+05 -1.094297E+05 -2.686722E+04 -2.190368E+05 -1.877273E+02  2.183126E+03
       366  27 -5.955262E+05 -9.828496E+04 -2.301823E+04 -2.083833E+05 -4.820479E+02  1.477071E+03
       367   1 -4.698189E+05 -5.052136E+04  1.121894E+04 -1.737423E+05  1.611663E+02 -1.246994E+03
       367   2 -4.769587E+05 -6.195784E+04  7.590041E+03 -1.846852E+05  2.609583E+02 -6.116892E+02
       367   3 -4.970064E+05 -6.085998E+04  3.673687E+03 -1.811354E+05  3.607279E+02  2.351595E+01
       367   4 -5.135035E+05 -6.706648E+04 -5.944307E+02 -1.857244E+05  3.137178E+02 -1.189194E+03
       367   5 -5.070562E+05 -7.337868E+04 -5.882003E+02 -1.929538E+05  4.134671E+02 -5.538961E+02
       367   6 -5.135166E+05 -6.715641E+04 -8.693173E+02 -1.856904E+05  5.132006E+02  8.130512E+01
       367   7 -5.571864E+05 -8.361151E+04 -1.240799E+04 -1.977058E+05  4.662577E+02 -1.131398E+03
       367   8 -5.371529E+05 -8.479947E+04 -8.766531E+03 -2.012220E+05  5.659678E+02 -4.961060E+02
       367   9 -5.300266E+05 -7.345282E+04 -5.412347E+03 -1.902454E+05  6.656689E+02  1.390926E+02
       367  10 -4.698189E+05 -5.052136E+04  1.121894E+04 -1.737423E+05 -2.799114E-09  5.740573E-10
       367  11 -4.769587E+05 -6.195784E+04  7.590040E+03 -1.846852E+05 -1.911114E-09 -3.891853E-09
       367  12 -4.970064E+05 -6.085998E+04  3.673687E+03 -1.811354E+05 -3.133201E-09 -5.738401E-09
       367  13 -5.135035E+05 -6.706648E+04 -5.944335E+02 -1.857244E+05 -9.976478E-10  6.879478E-10
       367  14 -5.070562E+05 -7.337868E+04 -5.882012E+02 -1.929538E+05 -2.961059E-09  1.967371E-09
       367  15 -5.135166E+05 -6.715641E+04 -8.693179E+02 -1.856904E+05  1.181063E-09 -4.074294E-09
       367  16 -5.571864E+05 -8.361151E+04 -1.240800E+04 -1.977058E+05  5.060155E-10  1.080848E-09
       367  17 -5.371529E+05 -8.479947E+04 -8.766532E+03 -2.012220E+05  3.085135E-09  7.867063E-09
       367  18 -5.300266E+05 -7.345282E+04 -5.412348E+03 -1.902454E+05  2.735570E-09  4.516237E-09
       367  19 -4.698189E+05 -5.052136E+04  1.121894E+04 -1.737423E+05 -1.611663E+02  1.246994E+03
       367  20 -4.769587E+05 -6.195784E+04  7.590041E+03 -1.846852E+05 -2.609583E+02  6.116892E+02
       367  21 -4.970064E+05 -6.085998E+04  3.673687E+03 -1.811354E+05 -3.607279E+02 -2.351595E+01
       367  22 -5.135035E+05 -6.706648E+04 -5.944307E+02 -1.857244E+05 -3.137178E+02  1.189194E+03
       367  23 -5.070562E+05 -7.337868E+04 -5.882003E+02 -1.929538E+05 -4.134671E+02  5.538961E+02
       367  24 -5.135166E+05 -6.715641E+04 -8.693173E+02 -1.856904E+05 -5.132006E+02 -8.130512E+01
       367  25 -5.571864E+05 -8.361151E+04 -1.240799E+04 -1.977058E+05 -4.662577E+02  1.131398E+03
       367  26 -5.371529E+05 -8.479947E+04 -8.766531E+03 -2.012220E+05 -5.659678E+02  4.961060E+02
       367  27 -5.300266E+05 -7.345282E+04 -5.412347E+03 -1.902454E+05 -6.656689E+02 -1.390926E+02
       368   1 -5.358511E+05 -7.557468E+04 -7.190507E+03 -1.920003E+05  3.903925E+02  3.962454E+02
       368   2 -5.428757E+05 -8.679247E+04 -1.150574E+04 -2.028061E+05  1.105266E+03  1.273743E+03
       368   3 -5.632972E+05 -8.663613E+04 -1.687986E+04 -1.988572E+05  1.839870E+03  2.099324E+03
       368   4 -5.135672E+05 -6.701328E+04 -1.063471E+03 -1.857839E+05  5.528234E+02  4.578080E+02
       368   5 -5.069414E+05 -7.319599E+04 -1.750162E+03 -1.929740E+05  1.252589E+03  1.329568E+03
       368   6 -5.137095E+05 -6.800158E+04 -3.483660E+03 -1.854096E+05  1.972110E+03  2.149423E+03
       368   7 -4.912829E+05 -5.845187E+04  5.063510E+03 -1.795674E+05  7.152605E+02  5.193731E+02
       368   8 -4.710058E+05 -5.959944E+04  8.005298E+03 -1.831415E+05  1.399922E+03  1.385397E+03
       368   9 -4.641193E+05 -4.936687E+04  9.912341E+03 -1.719611E+05  2.104360E+03  2.199527E+03
       368  10 -5.358511E+05 -7.557468E+04 -7.190508E+03 -1.920003E+05  4.152906E-10 -4.184857E-09
       368  11 -5.428757E+05 -8.679247E+04 -1.150574E+04 -2.028061E+05  6.714355E-09 -4.776505E-09
       368  12 -5.632972E+05 -8.663613E+04 -1.687987E+04 -1.988572E+05  4.650178E-09 -3.286336E-09
       368  13 -5.135672E+05 -6.701328E+04 -1.063472E+03 -1.857839E+05 -5.572558E-10 -4.803554E-10
       368  14 -5.069414E+05 -7.319599E+04 -1.750168E+03 -1.929740E+05  2.566511E-10  1.868074E-09
       368  15 -5.137095E+05 -6.800159E+04 -3.483676E+03 -1.854096E+05  3.161609E-09 -7.938951E-09
       368  16 -4.912829E+05 -5.845187E+04  5.063508E+03 -1.795674E+05 -1.188002E-09  7.762271E-09
       368  17 -4.710058E+05 -5.959944E+04  8.005291E+03 -1.831415E+05 -3.680881E-09  1.235405E-09
       368  18 -4.641193E+05 -4.936687E+04  9.912324E+03 -1.719611E+05  3.124359E-10  7.146581E-10
       368  19 -5.358511E+05 -7.557468E+04 -7.190507E+03 -1.920003E+05 -3.903925E+02 -3.962454E+02
       368  20 -5.428757E+05 -8.679247E+04 -1.150574E+04 -2.028061E+05 -1.105266E+03 -1.273743E+03
       368  21 -5.632972E+05 -8.663613E+04 -1.687986E+04 -1.988572E+05 -1.839870E+03 -2.099324E+03
       368  22 -5.135672E+05 -6.701328E+04 -1.063471E+03 -1.857839E+05 -5.528234E+02 -4.578080E+02
       368  23 -5.069414E+05 -7.319599E+04 -1.750162E+03 -1.929740E+05 -1.252589E+03 -1.329568E+03
       368  24 -5.137095E+05 -6.800158E+04 -3.483660E+03 -1.854096E+05 -1.972110E+03 -2.149423E+03
       368  25 -4.912829E+05 -5.845187E+04  5.063510E+03 -1.795674E+05 -7.152605E+02 -5.193731E+02
       368  26 -4.710058E+05 -5.959944E+04  8.005298E+03 -1.831415E+05 -1.399922E+03 -1.385397E+03
       368  27 -4.641193E+05 -4.936687E+04  9.912341E+03 -1.719611E+05 -2.104360E+03 -2.199527E+03
       369   1 -6.013262E+05 -1.007431E+05 -2.829444E+04 -2.108462E+05  2.263171E+03  2.674395E+03
       369   2 -6.074582E+05 -1.098255E+05 -3.481808E+04 -2.205443E+05  6.067059E+03  4.737476E+03
       369   3 -6.303143E+05 -1.165976E+05 -4.708887E+04 -2.136159E+05  1.002195E+04  6.401872E+03
       369   4 -5.140017E+05 -6.691617E+04 -4.381787E+03 -1.861664E+05  2.480479E+03  2.756712E+03
       369   5 -5.061790E+05 -7.175602E+04 -7.377304E+03 -1.930894E+05  6.168632E+03  4.775911E+03
       369   6 -5.150569E+05 -7.426169E+04 -1.602735E+04 -1.833862E+05  1.000788E+04  6.396479E+03
       369   7 -4.266698E+05 -3.308869E+04  1.953017E+04 -1.614834E+05  2.697821E+03  2.839042E+03
       369   8 -4.048901E+05 -3.368602E+04  2.006253E+04 -1.656305E+05  6.270224E+03  4.814354E+03
       369   9 -3.997869E+05 -3.192528E+04  1.503295E+04 -1.531517E+05  9.993798E+03  6.391085E+03
       369  10 -6.013262E+05 -1.007431E+05 -2.829447E+04 -2.108462E+05  4.596231E-09 -7.308703E-09
       369  11 -6.074583E+05 -1.098255E+05 -3.481819E+04 -2.205443E+05  3.420369E-09 -4.666478E-09
       369  12 -6.303144E+05 -1.165977E+05 -4.708914E+04 -2.136159E+05 -1.566745E-09 -3.793396E-09
       369  13 -5.140017E+05 -6.691618E+04 -4.381813E+03 -1.861664E+05  4.890156E-09 -8.077725E-09
       369  14 -5.061791E+05 -7.175605E+04 -7.377419E+03 -1.930894E+05 -2.399263E-09  1.041263E-08
       369  15 -5.150570E+05 -7.426176E+04 -1.602761E+04 -1.833863E+05  1.530550E-09  5.760435E-10
       369  16 -4.266698E+05 -3.308870E+04  1.953014E+04 -1.614834E+05  3.658971E-09 -2.004538E-09
       369  17 -4.048901E+05 -3.368605E+04  2.006241E+04 -1.656305E+05  2.548954E-09 -6.709946E-09
       369  18 -3.997871E+05 -3.192535E+04  1.503269E+04 -1.531517E+05  3.704211E-09 -1.099920E-10
       369  19 -6.013262E+05 -1.007431E+05 -2.829444E+04 -2.108462E+05 -2.263171E+03 -2.674395E+03
       369  20 -6.074582E+05 -1.098255E+05 -3.481808E+04 -2.205443E+05 -6.067059E+03 -4.737476E+03
       369  21 -6.303143E+05 -1.165976E+05 -4.708887E+04 -2.136159E+05 -1.002195E+04 -6.401872E+03
       369  22 -5.140017E+05 -6.691617E+04 -4.381787E+03 -1.861664E+05 -2.480479E+03 -2.756712E+03
       369  23 -5.061790E+05 -7.175602E+04 -7.377304E+03 -1.930894E+05 -6.168632E+03 -4.775911E+03
       369  24 -5.150569E+05 -7.426169E+04 -1.602735E+04 -1.833862E+05 -1.000788E+04 -6.396479E+03
       369  25 -4.266698E+05 -3.308869E+04  1.953017E+04 -1.614834E+05 -2.697821E+03 -2.839042E+03
       369  26 -4.048901E+05 -3.368602E+04  2.006253E+04 -1.656305E+05 -6.270224E+03 -4.814354E+03
       369  27 -3.997869E+05 -3.192528E+04  1.503295E+04 -1.531517E+05 -9.993798E+03 -6.391085E+03
       370   1 -6.649257E+05 -1.267013E+05 -6.059779E+04 -2.340089E+05  1.194584E+04  8.007241E+03
       370   2 -6.660234E+05 -1.216894E+05 -7.565088E+04 -2.371399E+05  2.982310E+04  1.557854E+04
       370   3 -7.091308E+05 -1.790500E+05 -1.245392E+05 -2.076247E+05  4.889836E+04  1.998208E+04
       370   4 -5.173740E+05 -6.578222E+04 -1.951393E+04 -1.884568E+05  1.261620E+04  8.261044E+03
       370   5 -5.003345E+05 -6.171616E+04 -3.127456E+04 -1.945648E+05  2.957345E+04  1.548384E+04
       370   6 -5.251146E+05 -1.198279E+05 -7.613309E+04 -1.680284E+05  4.772909E+04  1.953893E+04
       370   7 -3.698008E+05 -4.860504E+03  2.156799E+04 -1.428944E+05  1.328674E+04  8.514927E+03
       370   8 -3.346193E+05 -1.741867E+03  1.309935E+04 -1.519797E+05  2.932372E+04  1.538912E+04
       370   9 -3.410666E+05 -6.060621E+04 -2.772990E+04 -1.284227E+05  4.655943E+04  1.909569E+04
       370  10 -6.649259E+05 -1.267014E+05 -6.059818E+04 -2.340090E+05  1.543365E-10  3.621024E-09
       370  11 -6.660244E+05 -1.216899E+05 -7.565301E+04 -2.371402E+05 -1.836701E-09  1.028944E-08
       370  12 -7.091334E+05 -1.790510E+05 -1.245444E+05 -2.076255E+05 -7.352372E-10  1.571485E-09
       370  13 -5.173742E+05 -6.578233E+04 -1.951436E+04 -1.884569E+05  1.942464E-09  8.332065E-09
       370  14 -5.003355E+05 -6.171665E+04 -3.127665E+04 -1.945651E+05  3.188695E-09 -2.406015E-09
       370  15 -5.251172E+05 -1.198289E+05 -7.613809E+04 -1.680292E+05 -1.387243E-09  2.746236E-09
       370  16 -3.698011E+05 -4.860629E+03  2.156752E+04 -1.428945E+05  1.811095E-09  5.876495E-09
       370  17 -3.346203E+05 -1.742353E+03  1.309728E+04 -1.519800E+05  3.277959E-10  4.181819E-11
       370  18 -3.410690E+05 -6.060718E+04 -2.773466E+04 -1.284234E+05  7.701378E-10 -1.332728E-09
       370  19 -6.649257E+05 -1.267013E+05 -6.059779E+04 -2.340089E+05 -1.194584E+04 -8.007241E+03
       370  20 -6.660234E+05 -1.216894E+05 -7.565088E+04 -2.371399E+05 -2.982310E+04 -1.557854E+04
       370  21 -7.091308E+05 -1.790500E+05 -1.245392E+05 -2.076247E+05 -4.889836E+04 -1.998208E+04
       370  22 -5.173740E+05 -6.578222E+04 -1.951393E+04 -1.884568E+05 -1.261620E+04 -8.261044E+03
       370  23 -5.003345E+05 -6.171616E+04 -3.127456E+04 -1.945648E+05 -2.957345E+04 -1.548384E+04
       370  24 -5.251146E+05 -1.198279E+05 -7.613309E+04 -1.680284E+05 -4.772909E+04 -1.953893E+04
       370  25 -3.698008E+05 -4.860504E+03  2.156799E+04 -1.428944E+05 -1.328674E+04 -8.514927E+03
       370  26 -3.346193E+05 -1.741867E+03  1.309935E+04 -1.519797E+05 -2.932372E+04 -1.538912E+04
       370  27 -3.410666E+05 -6.060621E+04 -2.772990E+04 -1.284227E+05 -4.655943E+04 -1.909569E+04
       371   1 -6.062274E+05 -5.320446E+04 -1.095981E+05 -2.849893E+04 -1.662513E+05 -4.483573E+03
       371   2 -5.947980E+05  1.720248E+05  2.430898E+04 -1.403359E+04 -1.106695E+05 -1.215721E+04
       371   3 -6.553489E+05  1.359600E+05  5.683929E+04  3.012527E+04 -5.512096E+04 -1.053485E+04
       371   4 -1.166975E+06 -1.930802E+05 -2.490603E+05  1.044768E+04 -1.700372E+05 -4.505930E+03
       371   5 -1.130650E+06  3.850504E+04 -1.073760E+05 -4.711262E+03 -1.116054E+05 -1.216306E+04
       371   6 -1.166867E+06  8.176120E+03 -6.911529E+04  9.824676E+03 -5.320438E+04 -1.052599E+04
       371   7 -1.727434E+06 -3.329737E+05 -3.885452E+05  4.935885E+04 -1.738196E+05 -4.528775E+03
       371   8 -1.666240E+06 -9.503574E+04 -2.390821E+05  4.602776E+03 -1.125405E+05 -1.216894E+04
       371   9 -1.678145E+06 -1.196258E+05 -1.950890E+05 -1.045939E+04 -5.128935E+04 -1.051724E+04
       371  10 -6.062571E+05 -5.321191E+04 -1.096502E+05 -2.849953E+04 -1.408288E-09  7.118899E-10
       371  11 -5.948112E+05  1.720214E+05  2.428566E+04 -1.403468E+04 -1.596538E-09  9.441998E-09
       371  12 -6.553522E+05  1.359591E+05  5.683336E+04  3.012481E+04 -1.700720E-09  6.270602E-09
       371  13 -1.167006E+06 -1.930880E+05 -2.491148E+05  1.044707E+04  1.350321E-09 -2.559268E-09
       371  14 -1.130663E+06  3.850153E+04 -1.073998E+05 -4.712356E+03  2.562106E-09 -9.144567E-09
       371  15 -1.166870E+06  8.175239E+03 -6.912083E+04  9.824225E+03  9.104519E-10 -1.328131E-09
       371  16 -1.727466E+06 -3.329819E+05 -3.886022E+05  4.935822E+04  4.237554E-10  2.896013E-09
       371  17 -1.666254E+06 -9.503931E+04 -2.391063E+05  4.601672E+03 -1.363045E-09  1.215432E-08
       371  18 -1.678148E+06 -1.196266E+05 -1.950942E+05 -1.045982E+04  1.720882E-09 -7.503863E-10
       371  19 -6.062274E+05 -5.320446E+04 -1.095981E+05 -2.849893E+04  1.662513E+05  4.483573E+03
       371  20 -5.947980E+05  1.720248E+05  2.430898E+04 -1.403359E+04  1.106695E+05  1.215721E+04
       371  21 -6.553489E+05  1.359600E+05  5.683929E+04  3.012527E+04  5.512096E+04  1.053485E+04
       371  22 -1.166975E+06 -1.930802E+05 -2.490603E+05  1.044768E+04  1.700372E+05  4.505930E+03
       371  23 -1.130650E+06  3.850504E+04 -1.073760E+05 -4.711262E+03  1.116054E+05  1.216306E+04
       371  24 -1.166867E+06  8.176120E+03 -6.911529E+04  9.824676E+03  5.320438E+04  1.052599E+04
       371  25 -1.727434E+06 -3.329737E+05 -3.885452E+05  4.935885E+04  1.738196E+05  4.528775E+03
       371  26 -1.666240E+06 -9.503574E+04 -2.390821E+05  4.602776E+03  1.125405E+05  1.216894E+04
       371  27 -1.678145E+06 -1.196258E+05 -1.950890E+05 -1.045939E+04  5.128935E+04  1.051724E+04
       372   1 -7.103632E+05  8.470719E+04  5.215422E+04  7.641470E+03 -4.188770E+04 -8.558197E+03
       372   2 -7.340105E+05  1.083295E+05  7.394636E+04 -5.970070E+03 -2.775087E+04 -8.540965E+03
       372   3 -7.680704E+05  9.729707E+04  7.788645E+04  1.520631E+04 -1.362117E+04 -7.353010E+03
       372   4 -1.153085E+06 -2.569950E+04 -5.692975E+04  1.125208E+04 -4.206353E+04 -8.559678E+03
       372   5 -1.147833E+06  5.115582E+03 -2.790701E+04 -6.201703E+03 -2.757103E+04 -8.540534E+03
       372   6 -1.153066E+06  1.200776E+03 -1.699296E+04  1.113415E+04 -1.308499E+04 -7.350500E+03
       372   7 -1.595628E+06 -1.361207E+05 -1.660282E+05  1.485991E+04 -4.223923E+04 -8.561163E+03
       372   8 -1.561500E+06 -9.811114E+04 -1.297730E+05 -6.433362E+03 -2.739129E+04 -8.540103E+03
       372   9 -1.537926E+06 -9.490653E+04 -1.118833E+05  7.064351E+03 -1.254915E+04 -7.347995E+03
       372  10 -7.103651E+05  8.470664E+04  5.215078E+04  7.641182E+03 -1.443192E-09 -3.475172E-09
       372  11 -7.340114E+05  1.083293E+05  7.394478E+04 -5.970261E+03  2.976112E-10  2.713753E-09
       372  12 -7.680706E+05  9.729696E+04  7.788600E+04  1.520623E+04  7.449137E-09  1.352744E-08
       372  13 -1.153087E+06 -2.570006E+04 -5.693322E+04  1.125179E+04  2.872754E-10  1.036606E-08
       372  14 -1.147834E+06  5.115299E+03 -2.790858E+04 -6.201892E+03  3.611134E-09 -2.631596E-08
       372  15 -1.153066E+06  1.200672E+03 -1.699339E+04  1.113407E+04  9.655379E-11  1.687883E-08
       372  16 -1.595630E+06 -1.361213E+05 -1.660317E+05  1.485962E+04  3.394302E-09 -1.132388E-08
       372  17 -1.561501E+06 -9.811142E+04 -1.297746E+05 -6.433551E+03 -2.103441E-09 -6.256120E-09
       372  18 -1.537926E+06 -9.490663E+04 -1.118837E+05  7.064277E+03 -8.672248E-09 -1.178191E-09
       372  19 -7.103632E+05  8.470719E+04  5.215422E+04  7.641470E+03  4.188770E+04  8.558197E+03
       372  20 -7.340105E+05  1.083295E+05  7.394636E+04 -5.970070E+03  2.775087E+04  8.540965E+03
       372  21 -7.680704E+05  9.729707E+04  7.788645E+04  1.520631E+04  1.362117E+04  7.353010E+03
       372  22 -1.153085E+06 -2.569950E+04 -5.692975E+04  1.125208E+04  4.206353E+04  8.559678E+03
       372  23 -1.147833E+06  5.115582E+03 -2.790701E+04 -6.201703E+03  2.757103E+04  8.540534E+03
       372  24 -1.153066E+06  1.200776E+03 -1.699296E+04  1.113415E+04  1.308499E+04  7.350500E+03
       372  25 -1.595628E+06 -1.361207E+05 -1.660282E+05  1.485991E+04  4.223923E+04  8.561163E+03
       372  26 -1.561500E+06 -9.811114E+04 -1.297730E+05 -6.433362E+03  2.739129E+04  8.540103E+03
       372  27 -1.537926E+06 -9.490653E+04 -1.118833E+05  7.064351E+03  1.254915E+04  7.347995E+03
       373   1 -8.449973E+05  7.306510E+04  6.179263E+04  1.266903E+04 -1.064477E+04 -6.543301E+03
       373   2 -8.761250E+05  6.901617E+04  6.031522E+04 -6.253972E+03 -7.076829E+03 -5.544007E+03
       373   3 -9.090944E+05  6.072894E+04  5.538710E+04  1.345082E+04 -3.510966E+03 -4.355800E+03
       373   4 -1.151134E+06 -3.289604E+03 -1.350813E+04  1.204023E+04 -1.036529E+04 -6.542032E+03
       373   5 -1.150206E+06  6.370203E+02 -7.164585E+03 -7.283868E+03 -6.740082E+03 -5.542290E+03
       373   6 -1.151131E+06  3.142981E+02 -4.312678E+03  1.202092E+04 -3.116769E+03 -4.353601E+03
       373   7 -1.457185E+06 -7.965129E+04 -8.881579E+04  1.141163E+04 -1.008594E+04 -6.540763E+03
       373   8 -1.424218E+06 -6.774773E+04 -7.464994E+04 -8.313401E+03 -6.403482E+03 -5.540574E+03
       373   9 -1.393114E+06 -6.010472E+04 -6.401680E+04  1.059149E+04 -2.722726E+03 -4.351405E+03
       373  10 -8.449974E+05  7.306502E+04  6.179233E+04  1.266898E+04  1.600107E-09 -5.647118E-09
       373  11 -8.761250E+05  6.901612E+04  6.031506E+04 -6.254004E+03 -3.739466E-09 -5.602688E-09
       373  12 -9.090944E+05  6.072892E+04  5.538704E+04  1.345081E+04  3.296000E-09 -6.934496E-09
       373  13 -1.151134E+06 -3.289679E+03 -1.350841E+04  1.204018E+04  3.939548E-09  1.758918E-09
       373  14 -1.150206E+06  6.369751E+02 -7.164728E+03 -7.283898E+03 -1.004890E-10 -7.018862E-09
       373  15 -1.151131E+06  3.142752E+02 -4.312732E+03  1.202090E+04  2.640218E-09 -9.250749E-09
       373  16 -1.457186E+06 -7.965136E+04 -8.881607E+04  1.141157E+04 -1.433513E-10 -1.208825E-08
       373  17 -1.424219E+06 -6.774777E+04 -7.465007E+04 -8.313430E+03  2.537522E-09  8.157378E-09
       373  18 -1.393114E+06 -6.010474E+04 -6.401685E+04  1.059148E+04 -4.729348E-09  1.363354E-08
       373  19 -8.449973E+05  7.306510E+04  6.179263E+04  1.266903E+04  1.064477E+04  6.543301E+03
       373  20 -8.761250E+05  6.901617E+04  6.031522E+04 -6.253972E+03  7.076829E+03  5.544007E+03
       373  21 -9.090944E+05  6.072894E+04  5.538710E+04  1.345082E+04  3.510966E+03  4.355800E+03
       373  22 -1.151134E+06 -3.289604E+03 -1.350813E+04  1.204023E+04  1.036529E+04  6.542032E+03
       373  23 -1.150206E+06  6.370203E+02 -7.164585E+03 -7.283868E+03  6.740082E+03  5.542290E+03
       373  24 -1.151131E+06  3.142981E+02 -4.312678E+03  1.202092E+04  3.116769E+03  4.353601E+03
       373  25 -1.457185E+06 -7.965129E+04 -8.881579E+04  1.141163E+04  1.008594E+04  6.540763E+03
       373  26 -1.424218E+06 -6.774773E+04 -7.464994E+04 -8.313401E+03  6.403482E+03  5.540574E+03
       373  27 -1.393114E+06 -6.010472E+04 -6.401680E+04  1.059149E+04  2.722726E+03  4.351405E+03
       374   1 -9.943222E+05  3.876745E+04  3.501895E+04  1.316064E+04 -2.784153E+03 -3.644038E+03
       374   2 -1.027853E+06  3.065033E+04  2.811553E+04 -7.353784E+03 -1.761188E+03 -2.469235E+03
       374   3 -1.062138E+06  2.234254E+04  2.037827E+04  1.299184E+04 -7.389723E+02 -1.253082E+03
       374   4 -1.150877E+06 -2.745500E+02 -3.430249E+03  1.252517E+04 -2.426028E+03 -3.641963E+03
       374   5 -1.150498E+06  4.779718E+01 -2.084212E+03 -7.906448E+03 -1.390419E+03 -2.467018E+03
       374   6 -1.150877E+06  1.772476E+02 -1.580898E+03  1.252248E+04 -3.555038E+02 -1.250717E+03
       374   7 -1.307410E+06 -3.931837E+04 -4.188125E+04  1.188984E+04 -2.067993E+03 -3.639889E+03
       374   8 -1.273130E+06 -3.055586E+04 -3.228506E+04 -8.459023E+03 -1.019724E+03 -2.464802E+03
       374   9 -1.239609E+06 -2.198863E+04 -2.354065E+04  1.205317E+04  2.790980E+01 -1.248352E+03
       374  10 -9.943222E+05  3.876743E+04  3.501891E+04  1.316063E+04  4.883289E-11 -1.087008E-08
       374  11 -1.027853E+06  3.065033E+04  2.811551E+04 -7.353787E+03 -6.817117E-09  1.175950E-08
       374  12 -1.062138E+06  2.234254E+04  2.037826E+04  1.299184E+04 -2.126878E-09  2.611086E-09
       374  13 -1.150877E+06 -2.745658E+02 -3.430285E+03  1.252517E+04  2.111229E-09  5.188893E-09
       374  14 -1.150498E+06  4.779013E+01 -2.084227E+03 -7.906451E+03  8.074801E-10 -5.782475E-09
       374  15 -1.150877E+06  1.772459E+02 -1.580901E+03  1.252248E+04  2.241314E-09 -8.668088E-09
       374  16 -1.307410E+06 -3.931839E+04 -4.188129E+04  1.188983E+04  2.144723E-10  1.100570E-08
       374  17 -1.273130E+06 -3.055587E+04 -3.228508E+04 -8.459025E+03  3.226410E-09  2.516714E-08
       374  18 -1.239609E+06 -2.198863E+04 -2.354065E+04  1.205317E+04  1.928205E-09  2.602867E-09
       374  19 -9.943222E+05  3.876745E+04  3.501895E+04  1.316064E+04  2.784153E+03  3.644038E+03
       374  20 -1.027853E+06  3.065033E+04  2.811553E+04 -7.353784E+03  1.761188E+03  2.469235E+03
       374  21 -1.062138E+06  2.234254E+04  2.037827E+04  1.299184E+04  7.389723E+02  1.253082E+03
       374  22 -1.150877E+06 -2.745500E+02 -3.430249E+03  1.252517E+04  2.426028E+03  3.641963E+03
       374  23 -1.150498E+06  4.779718E+01 -2.084212E+03 -7.906448E+03  1.390419E+03  2.467018E+03
       374  24 -1.150877E+06  1.772476E+02 -1.580898E+03  1.252248E+04  3.555038E+02  1.250717E+03
       374  25 -1.307410E+06 -3.931837E+04 -4.188125E+04  1.188984E+04  2.067993E+03  3.639889E+03
       374  26 -1.273130E+06 -3.055586E+04 -3.228506E+04 -8.459023E+03  1.019724E+03  2.464802E+03
       374  27 -1.239609E+06 -2.198863E+04 -2.354065E+04  1.205317E+04 -2.790980E+01  1.248352E+03
       375   1 -1.150561E+06  2.066525E+02 -1.539329E+03  1.259550E+04 -4.629974E+02 -5.345617E+02
       375   2 -1.184508E+06 -8.462570E+03 -1.004223E+04 -8.198987E+03  3.693121E+02  6.849628E+02
       375   3 -1.219200E+06 -1.714710E+04 -1.922346E+04  1.236907E+04  1.201805E+03  1.885263E+03
       375   4 -1.150872E+06  1.510805E+02 -1.508999E+03  1.263440E+04 -8.166524E+01 -5.321887E+02
       375   5 -1.150499E+06  2.408660E+01 -1.667414E+03 -8.045974E+03  7.446731E+02  6.872776E+02
       375   6 -1.150872E+06 -1.171959E+02 -2.500032E+03  1.263605E+04  1.571242E+03  1.887524E+03
       375   7 -1.151183E+06  9.550867E+01 -1.478669E+03  1.267330E+04  2.996667E+02 -5.298157E+02
       375   8 -1.116489E+06  8.510657E+03  6.707315E+03 -7.892954E+03  1.120055E+03  6.895925E+02
       375   9 -1.082540E+06  1.691236E+04  1.422305E+04  1.290305E+04  1.940718E+03  1.889786E+03
       375  10 -1.150561E+06  2.066521E+02 -1.539330E+03  1.259550E+04 -2.183870E-09 -2.821132E-09
       375  11 -1.184508E+06 -8.462570E+03 -1.004223E+04 -8.198987E+03  4.163276E-10 -1.047722E-08
       375  12 -1.219200E+06 -1.714710E+04 -1.922347E+04  1.236907E+04 -3.862086E-09 -2.770472E-09
       375  13 -1.150872E+06  1.510802E+02 -1.509000E+03  1.263440E+04  1.388165E-09  3.943352E-09
       375  14 -1.150499E+06  2.408595E+01 -1.667415E+03 -8.045974E+03  5.616044E-11 -1.289273E-08
       375  15 -1.150872E+06 -1.172004E+02 -2.500043E+03  1.263604E+04  2.351233E-09 -1.042793E-08
       375  16 -1.151183E+06  9.550835E+01 -1.478670E+03  1.267330E+04  2.506011E-09 -4.808156E-09
       375  17 -1.116489E+06  8.510656E+03  6.707311E+03 -7.892955E+03 -5.860398E-10 -2.393959E-08
       375  18 -1.082540E+06  1.691235E+04  1.422304E+04  1.290304E+04  4.539533E-09 -1.497323E-08
       375  19 -1.150561E+06  2.066525E+02 -1.539329E+03  1.259550E+04  4.629974E+02  5.345617E+02
       375  20 -1.184508E+06 -8.462570E+03 -1.004223E+04 -8.198987E+03 -3.693121E+02 -6.849628E+02
       375  21 -1.219200E+06 -1.714710E+04 -1.922346E+04  1.236907E+04 -1.201805E+03 -1.885263E+03
       375  22 -1.150872E+06  1.510805E+02 -1.508999E+03  1.263440E+04  8.166524E+01  5.321887E+02
       375  23 -1.150499E+06  2.408660E+01 -1.667414E+03 -8.045974E+03 -7.446731E+02 -6.872776E+02
       375  24 -1.150872E+06 -1.171959E+02 -2.500032E+03  1.263605E+04 -1.571242E+03 -1.887524E+03
       375  25 -1.151183E+06  9.550867E+01 -1.478669E+03  1.267330E+04 -2.996667E+02  5.298157E+02
       375  26 -1.116489E+06  8.510657E+03  6.707315E+03 -7.892954E+03 -1.120055E+03 -6.895925E+02
       375  27 -1.082540E+06  1.691236E+04  1.422305E+04  1.290305E+04 -1.940718E+03 -1.889786E+03
       376   1 -1.306968E+06 -3.865479E+04 -4.158521E+04  1.138452E+04  1.668934E+03  2.611263E+03
       376   2 -1.339483E+06 -4.678797E+04 -5.158567E+04 -8.451096E+03  4.240096E+03  3.828547E+03
       376   3 -1.373513E+06 -5.769904E+04 -6.405903E+04  1.181710E+04  6.812725E+03  4.890010E+03
       376   4 -1.151047E+06  2.825164E+02 -3.077952E+03  1.235021E+04  2.067917E+03  2.613653E+03
       376   5 -1.150294E+06  4.254139E+02 -4.994233E+03 -7.694176E+03  4.591225E+03  3.830541E+03
       376   6 -1.151049E+06 -2.200445E+03 -9.349333E+03  1.236449E+04  7.116137E+03  4.891631E+03
       376   7 -9.951044E+05  3.921800E+04  3.542751E+04  1.331611E+04  2.467000E+03  2.616044E+03
       376   8 -9.610736E+05  4.763613E+04  4.159456E+04 -6.937072E+03  4.942461E+03  3.832536E+03
       376   9 -9.285402E+05  5.329447E+04  4.535671E+04  1.291202E+04  7.419658E+03  4.893252E+03
       376  10 -1.306968E+06 -3.865479E+04 -4.158523E+04  1.138452E+04 -9.633183E-09  3.710561E-10
       376  11 -1.339483E+06 -4.678799E+04 -5.158573E+04 -8.451109E+03 -3.412005E-09 -2.057166E-08
       376  12 -1.373513E+06 -5.769908E+04 -6.405916E+04  1.181707E+04  2.973786E-09 -3.210355E-10
       376  13 -1.151047E+06  2.825079E+02 -3.077973E+03  1.235021E+04  4.384102E-09 -1.919313E-09
       376  14 -1.150294E+06  4.253924E+02 -4.994300E+03 -7.694190E+03  5.269423E-10 -2.370238E-10
       376  15 -1.151049E+06 -2.200484E+03 -9.349474E+03  1.236446E+04  1.087957E-09  4.007454E-09
       376  16 -9.951044E+05  3.921799E+04  3.542748E+04  1.331610E+04  9.988892E-09  4.500485E-09
       376  17 -9.610736E+05  4.763611E+04  4.159449E+04 -6.937087E+03  5.788959E-09 -1.721710E-08
       376  18 -9.285403E+05  5.329443E+04  4.535657E+04  1.291199E+04 -2.727100E-09  1.366450E-08
       376  19 -1.306968E+06 -3.865479E+04 -4.158521E+04  1.138452E+04 -1.668934E+03 -2.611263E+03
       376  20 -1.339483E+06 -4.678797E+04 -5.158567E+04 -8.451096E+03 -4.240096E+03 -3.828547E+03
       376  21 -1.373513E+06 -5.769904E+04 -6.405903E+04  1.181710E+04 -6.812725E+03 -4.890010E+03
       376  22 -1.151047E+06  2.825164E+02 -3.077952E+03  1.235021E+04 -2.067917E+03 -2.613653E+03
       376  23 -1.150294E+06  4.254139E+02 -4.994233E+03 -7.694176E+03 -4.591225E+03 -3.830541E+03
       376  24 -1.151049E+06 -2.200445E+03 -9.349333E+03  1.236449E+04 -7.116137E+03 -4.891631E+03
       376  25 -9.951044E+05  3.921800E+04  3.542751E+04  1.331611E+04 -2.467000E+03 -2.616044E+03
       376  26 -9.610736E+05  4.763613E+04  4.159456E+04 -6.937072E+03 -4.942461E+03 -3.832536E+03
       376  27 -9.285402E+05  5.329447E+04  4.535671E+04  1.291202E+04 -7.419658E+03 -4.893252E+03
       377   1 -1.457836E+06 -7.538373E+04 -8.707611E+04  8.609782E+03  8.463850E+03  5.712019E+03
       377   2 -1.484935E+06 -8.039736E+04 -1.020543E+05 -7.343433E+03  1.877510E+04  6.945485E+03
       377   3 -1.519502E+06 -1.092629E+05 -1.297548E+05  1.388724E+04  2.909203E+04  7.139578E+03
       377   4 -1.152372E+06  8.977942E+02 -1.174175E+04  1.167489E+04  8.995246E+03  5.714827E+03
       377   5 -1.148674E+06  3.511466E+03 -1.925537E+04 -6.870307E+03  1.898761E+04  6.946333E+03
       377   6 -1.152385E+06 -1.766393E+04 -3.926432E+04  1.176724E+04  2.898618E+04  7.138628E+03
       377   7 -8.468229E+05  7.717237E+04  6.358570E+04  1.474140E+04  9.526902E+03  5.717640E+03
       377   8 -8.123106E+05  8.741186E+04  6.353522E+04 -6.397057E+03  1.920024E+04  6.947182E+03
       377   9 -7.851461E+05  7.392503E+04  5.121619E+04  9.645832E+03  2.888025E+04  7.137680E+03
       377  10 -1.457836E+06 -7.538378E+04 -8.707631E+04  8.609743E+03  5.438860E-09  5.854803E-09
       377  11 -1.484935E+06 -8.039751E+04 -1.020551E+05 -7.343538E+03 -4.967878E-09  8.530837E-09
       377  12 -1.519503E+06 -1.092632E+05 -1.297565E+05  1.388707E+04 -1.595566E-10 -3.287831E-09
       377  13 -1.152372E+06  8.977374E+02 -1.174197E+04  1.167485E+04  3.820244E-09 -7.367203E-09
       377  14 -1.148675E+06  3.511317E+03 -1.925614E+04 -6.870413E+03 -2.085758E-10  1.014398E-08
       377  15 -1.152386E+06 -1.766421E+04 -3.926600E+04  1.176707E+04  1.260759E-09 -5.475004E-09
       377  16 -8.468230E+05  7.717231E+04  6.358547E+04  1.474135E+04 -4.228659E-09 -2.780573E-09
       377  17 -8.123110E+05  8.741171E+04  6.353443E+04 -6.397165E+03  5.823008E-09 -2.569787E-08
       377  18 -7.851470E+05  7.392475E+04  5.121452E+04  9.645666E+03 -8.822933E-10  1.962879E-09
       377  19 -1.457836E+06 -7.538373E+04 -8.707611E+04  8.609782E+03 -8.463850E+03 -5.712019E+03
       377  20 -1.484935E+06 -8.039736E+04 -1.020543E+05 -7.343433E+03 -1.877510E+04 -6.945485E+03
       377  21 -1.519502E+06 -1.092629E+05 -1.297548E+05  1.388724E+04 -2.909203E+04 -7.139578E+03
       377  22 -1.152372E+06  8.977942E+02 -1.174175E+04  1.167489E+04 -8.995246E+03 -5.714827E+03
       377  23 -1.148674E+06  3.511466E+03 -1.925537E+04 -6.870307E+03 -1.898761E+04 -6.946333E+03
       377  24 -1.152385E+06 -1.766393E+04 -3.926432E+04  1.176724E+04 -2.898618E+04 -7.138628E+03
       377  25 -8.468229E+05  7.717237E+04  6.358570E+04  1.474140E+04 -9.526902E+03 -5.717640E+03
       377  26 -8.123106E+05  8.741186E+04  6.353522E+04 -6.397057E+03 -1.920024E+04 -6.947182E+03
       377  27 -7.851461E+05  7.392503E+04  5.121619E+04  9.645832E+03 -2.888025E+04 -7.137680E+03
       378   1 -1.603785E+06 -1.047546E+05 -1.565506E+05 -3.906339E+03  3.489783E+04  8.999267E+03
       378   2 -1.605770E+06 -9.038777E+04 -1.893505E+05  3.015799E+02  7.772998E+04  1.065706E+04
       378   3 -1.658322E+06 -2.569821E+05 -2.952724E+05  3.739632E+04  1.205930E+05  3.994060E+03
       378   4 -1.161867E+06  5.697926E+03 -4.765950E+04  1.056760E+04  3.666585E+04  9.007884E+03
       378   5 -1.136864E+06  2.652895E+04 -7.405111E+04 -5.608117E+03  7.693329E+04  1.065227E+04
       378   6 -1.161945E+06 -1.330833E+05 -1.717418E+05  1.110327E+04  1.172337E+05  3.975794E+03
       378   7 -7.197714E+05  1.161366E+05  6.121727E+04  2.505167E+04  3.843512E+04  9.016581E+03
       378   8 -6.677571E+05  1.434295E+05  4.123214E+04 -1.152251E+04  7.613599E+04  1.064749E+04
       378   9 -6.653412E+05 -9.200242E+03 -4.822919E+04 -1.521107E+04  1.138717E+05  3.957822E+03
       378  10 -1.603786E+06 -1.047550E+05 -1.565531E+05 -3.906592E+03  5.640144E-09 -1.094181E-09
       378  11 -1.605776E+06 -9.038952E+04 -1.893621E+05  3.009123E+02  3.078547E-09  1.798902E-09
       378  12 -1.658338E+06 -2.569860E+05 -2.952998E+05  3.739593E+04  4.771341E-09  5.089066E-09
       378  13 -1.161869E+06  5.697477E+03 -4.766218E+04  1.056733E+04  2.442083E-09  3.226542E-09
       378  14 -1.136870E+06  2.652724E+04 -7.406246E+04 -5.608777E+03  1.023577E-09  6.052728E-09
       378  15 -1.161959E+06 -1.330870E+05 -1.717677E+05  1.110289E+04  1.345371E-09  2.790183E-09
       378  16 -7.197730E+05  1.161361E+05  6.121434E+04  2.505139E+04 -4.904202E-09  1.068319E-08
       378  17 -6.677634E+05  1.434278E+05  4.122102E+04 -1.152316E+04 -5.489020E-09  1.735846E-08
       378  18 -6.653552E+05 -9.203744E+03 -4.825362E+04 -1.521144E+04 -7.404013E-09 -1.568253E-09
       378  19 -1.603785E+06 -1.047546E+05 -1.565506E+05 -3.906339E+03 -3.489783E+04 -8.999267E+03
       378  20 -1.605770E+06 -9.038777E+04 -1.893505E+05  3.015799E+02 -7.772998E+04 -1.065706E+04
       378  21 -1.658322E+06 -2.569821E+05 -2.952724E+05  3.739632E+04 -1.205930E+05 -3.994060E+03
       378  22 -1.161867E+06  5.697926E+03 -4.765950E+04  1.056760E+04 -3.666585E+04 -9.007884E+03
       378  23 -1.136864E+06  2.652895E+04 -7.405111E+04 -5.608117E+03 -7.693329E+04 -1.065227E+04
       378  24 -1.161945E+06 -1.330833E+05 -1.717418E+05  1.110327E+04 -1.172337E+05 -3.975794E+03
       378  25 -7.197714E+05  1.161366E+05  6.121727E+04  2.505167E+04 -3.843512E+04 -9.016581E+03
       378  26 -6.677571E+05  1.434295E+05  4.123214E+04 -1.152251E+04 -7.613599E+04 -1.064749E+04
       378  27 -6.653412E+05 -9.200242E+03 -4.822919E+04 -1.521107E+04 -1.138717E+05 -3.957822E+03
       379   1 -1.490742E+05 -5.681294E+05 -1.426160E+05  1.333809E+05 -6.031531E+03 -5.244860E+04
       379   2 -1.094978E+05 -4.642122E+05 -9.011529E+04  1.195794E+05 -1.951677E+04 -2.371756E+04
       379   3 -8.115059E+04 -3.667063E+05 -5.913634E+04  1.233820E+05 -2.094190E+04  5.053597E+03
       379   4 -1.524618E+04 -2.657206E+04 -1.555076E+04  1.227897E+05 -6.135660E+03 -1.188786E+04
       379   5 -5.084880E+03 -2.553325E+04 -7.018869E+03  1.140047E+05 -1.955453E+04 -8.314916E+03
       379   6 -1.778201E+03 -2.654281E+04 -2.525824E+03  1.228242E+05 -2.091676E+04 -4.707416E+03
       379   7  1.185622E+05  5.152592E+05  1.115007E+05  1.121893E+05 -6.241130E+03  2.870806E+04
       379   8  9.931705E+04  4.133320E+05  7.606990E+04  1.084261E+05 -1.959256E+04  7.098351E+03
       379   9  7.758823E+04  3.137352E+05  5.408153E+04  1.222661E+05 -2.089162E+04 -1.447360E+04
       379  10 -1.490750E+05 -5.681323E+05 -1.426213E+05  1.333806E+05  1.694658E-10  1.476588E-09
       379  11 -1.094984E+05 -4.642129E+05 -9.011706E+04  1.195790E+05  3.710831E-10  1.017921E-08
       379  12 -8.115107E+04 -3.667064E+05 -5.913721E+04  1.233821E+05 -1.598944E-09  2.673563E-09
       379  13 -1.524626E+04 -2.657223E+04 -1.555110E+04  1.227896E+05  1.333039E-09 -7.093623E-09
       379  14 -5.085309E+03 -2.553343E+04 -7.019717E+03  1.140046E+05 -4.605125E-09 -6.189146E-09
       379  15 -1.778677E+03 -2.654295E+04 -2.526687E+03  1.228241E+05  2.334008E-10  1.303631E-12
       379  16  1.185619E+05  5.152584E+05  1.114991E+05  1.121895E+05  4.323981E-10  5.194514E-09
       379  17  9.931662E+04  4.133319E+05  7.606909E+04  1.084262E+05 -2.408367E-09  4.528006E-09
       379  18  7.758770E+04  3.137349E+05  5.408032E+04  1.222659E+05 -6.927447E-10 -1.522520E-09
       379  19 -1.490742E+05 -5.681294E+05 -1.426160E+05  1.333809E+05  6.031531E+03  5.244860E+04
       379  20 -1.094978E+05 -4.642122E+05 -9.011529E+04  1.195794E+05  1.951677E+04  2.371756E+04
       379  21 -8.115059E+04 -3.667063E+05 -5.913634E+04  1.233820E+05  2.094190E+04 -5.053597E+03
       379  22 -1.524618E+04 -2.657206E+04 -1.555076E+04  1.227897E+05  6.135660E+03  1.188786E+04
       379  23 -5.084880E+03 -2.553325E+04 -7.018869E+03  1.140047E+05  1.955453E+04  8.314916E+03
       379  24 -1.778201E+03 -2.654281E+04 -2.525824E+03  1.228242E+05  2.091676E+04  4.707416E+03
       379  25  1.185622E+05  5.152592E+05  1.115007E+05  1.121893E+05  6.241130E+03 -2.870806E+04
       379  26  9.931705E+04  4.133320E+05  7.606990E+04  1.084261E+05  1.959256E+04 -7.098351E+03
       379  27  7.758823E+04  3.137352E+05  5.408153E+04  1.222661E+05  2.089162E+04  1.447360E+04
       380   1 -6.575015E+04 -3.021767E+05 -4.578194E+04  1.238495E+05 -1.775292E+04  5.220718E+03
       380   2 -4.060590E+04 -2.015826E+05 -2.408645E+04  1.148870E+05 -1.266483E+04  5.760917E+03
       380   3 -1.507138E+04 -1.008247E+05 -2.612260E+03  1.243685E+05 -6.709240E+03  6.302892E+03
       380   4 -1.505811E+03 -2.597618E+04 -8.329345E+02  1.230068E+05 -1.772847E+04 -4.497801E+03
       380   5 -1.890930E+02 -2.620458E+04  2.567923E+03  1.137891E+05 -1.263657E+04 -5.769202E+03
       380   6  1.832968E+03 -2.596419E+04  7.005971E+03  1.230151E+05 -6.677305E+03 -7.038919E+03
       380   7  6.273469E+04  2.503002E+05  4.411429E+04  1.221638E+05 -1.770401E+04 -1.422050E+04
       380   8  4.022632E+04  1.492045E+05  2.922216E+04  1.126910E+05 -1.260827E+04 -1.730245E+04
       380   9  1.873719E+04  4.890242E+04  1.662485E+04  1.216615E+05 -6.645313E+03 -2.038226E+04
       380  10 -6.575049E+04 -3.021768E+05 -4.578258E+04  1.238496E+05 -6.518759E-10  2.096475E-09
       380  11 -4.060608E+04 -2.015827E+05 -2.408682E+04  1.148871E+05  2.341833E-09  7.608280E-09
       380  12 -1.507144E+04 -1.008247E+05 -2.612419E+03  1.243686E+05 -8.938288E-10 -1.596354E-09
       380  13 -1.506154E+03 -2.597629E+04 -8.335631E+02  1.230068E+05  1.039610E-09 -7.844370E-09
       380  14 -1.892734E+02 -2.620466E+04  2.567561E+03  1.137891E+05  3.027788E-09 -2.807244E-09
       380  15  1.832907E+03 -2.596425E+04  7.005794E+03  1.230151E+05  8.413867E-10  1.221968E-09
       380  16  6.273430E+04  2.502999E+05  4.411332E+04  1.221636E+05  2.114212E-09  3.787386E-09
       380  17  4.022607E+04  1.492042E+05  2.922129E+04  1.126908E+05 -1.300782E-09  4.873663E-09
       380  18  1.873703E+04  4.890197E+04  1.662398E+04  1.216614E+05 -2.881111E-10  4.064197E-09
       380  19 -6.575015E+04 -3.021767E+05 -4.578194E+04  1.238495E+05  1.775292E+04 -5.220718E+03
       380  20 -4.060590E+04 -2.015826E+05 -2.408645E+04  1.148870E+05  1.266483E+04 -5.760917E+03
       380  21 -1.507138E+04 -1.008247E+05 -2.612260E+03  1.243685E+05  6.709240E+03 -6.302892E+03
       380  22 -1.505811E+03 -2.597618E+04 -8.329345E+02  1.230068E+05  1.772847E+04  4.497801E+03
       380  23 -1.890930E+02 -2.620458E+04  2.567923E+03  1.137891E+05  1.263657E+04  5.769202E+03
       380  24  1.832968E+03 -2.596419E+04  7.005971E+03  1.230151E+05  6.677305E+03  7.038919E+03
       380  25  6.273469E+04  2.503002E+05  4.411429E+04  1.221638E+05  1.770401E+04  1.422050E+04
       380  26  4.022632E+04  1.492045E+05  2.922216E+04  1.126910E+05  1.260827E+04  1.730245E+04
       380  27  1.873719E+04  4.890242E+04  1.662485E+04  1.216615E+05  6.645313E+03  2.038226E+04
       381   1  3.672943E+02 -3.610591E+04  1.081793E+04  1.228655E+05 -2.756769E+03  5.092250E+03
       381   2  3.232049E+04  6.100653E+04  3.947945E+04  1.257008E+05  1.416295E+03 -1.421287E+04
       381   3  8.298877E+04  1.654407E+05  8.541757E+04  1.467767E+05  1.051346E+03 -3.353299E+04
       381   4  2.445268E+03 -2.480709E+04  9.911680E+03  1.229619E+05 -2.724916E+03 -8.261727E+03
       381   5  1.060636E+04 -2.764523E+04  1.921196E+04  1.138839E+05  1.425911E+03 -1.809166E+04
       381   6  3.584000E+04 -2.481233E+04  3.921085E+04  1.230449E+05  1.039169E+03 -2.793360E+04
       381   7  4.523340E+03 -1.350773E+04  9.006125E+03  1.230582E+05 -2.693067E+03 -2.161592E+04
       381   8 -1.110778E+04 -1.162894E+05 -1.055911E+03  1.020687E+05  1.435675E+03 -2.196990E+04
       381   9 -1.130927E+04 -2.150311E+05 -6.998053E+03  9.932046E+04  1.026562E+03 -2.233592E+04
       381  10  3.672792E+02 -3.610594E+04  1.081787E+04  1.228655E+05  4.489854E-10  4.271327E-09
       381  11  3.232043E+04  6.100632E+04  3.947907E+04  1.257009E+05  1.661348E-10  1.029376E-08
       381  12  8.298846E+04  1.654395E+05  8.541545E+04  1.467767E+05 -5.820567E-10  8.874448E-11
       381  13  2.445242E+03 -2.480716E+04  9.911538E+03  1.229619E+05 -2.908756E-09 -3.419115E-09
       381  14  1.060627E+04 -2.764558E+04  1.921134E+04  1.138840E+05  1.558169E-09 -2.254070E-09
       381  15  3.583979E+04 -2.481316E+04  3.920938E+04  1.230450E+05  6.789861E-10  3.093536E-09
       381  16  4.523206E+03 -1.350823E+04  9.005234E+03  1.230582E+05 -8.871479E-10 -8.226831E-11
       381  17 -1.110791E+04 -1.162899E+05 -1.056822E+03  1.020688E+05  5.698928E-10  3.453450E-09
       381  18 -1.130940E+04 -2.150316E+05 -6.998993E+03  9.932048E+04 -6.674349E-10 -1.399605E-10
       381  19  3.672943E+02 -3.610591E+04  1.081793E+04  1.228655E+05  2.756769E+03 -5.092250E+03
       381  20  3.232049E+04  6.100653E+04  3.947945E+04  1.257008E+05 -1.416295E+03  1.421287E+04
       381  21  8.298877E+04  1.654407E+05  8.541757E+04  1.467767E+05 -1.051346E+03  3.353299E+04
       381  22  2.445268E+03 -2.480709E+04  9.911680E+03  1.229619E+05  2.724916E+03  8.261727E+03
       381  23  1.060636E+04 -2.764523E+04  1.921196E+04  1.138839E+05 -1.425911E+03  1.809166E+04
       381  24  3.584000E+04 -2.481233E+04  3.921085E+04  1.230449E+05 -1.039169E+03  2.793360E+04
       381  25  4.523340E+03 -1.350773E+04  9.006125E+03  1.230582E+05  2.693067E+03  2.161592E+04
       381  26 -1.110778E+04 -1.162894E+05 -1.055911E+03  1.020687E+05 -1.435675E+03  2.196990E+04
       381  27 -1.130927E+04 -2.150311E+05 -6.998053E+03  9.932046E+04 -1.026562E+03  2.233592E+04
       382   1  1.649431E+06  5.697993E+05  3.955430E+05  5.577849E+05  1.775774E+05  6.345485E+04
       382   2  1.586078E+06  2.957281E+05  2.252741E+05  5.835746E+05  1.157594E+05  3.296101E+04
       382   3  1.605626E+06  3.139437E+05  1.757616E+05  5.700682E+05  5.100462E+04  1.023022E+04
       382   4  1.230763E+06  3.730935E+05  2.733450E+05  4.041135E+05  1.745388E+05  6.229127E+04
       382   5  1.175683E+06  1.302105E+05  1.122496E+05  4.604812E+05  1.150325E+05  3.268275E+04
       382   6  1.203114E+06  1.792624E+05  7.014460E+04  4.775351E+05  5.258707E+04  1.083210E+04
       382   7  8.122686E+05  1.764284E+05  1.511305E+05  2.505455E+05  1.715024E+05  6.112900E+04
       382   8  7.654504E+05 -3.529045E+04 -7.901268E+02  3.374633E+05  1.143060E+05  3.240471E+04
       382   9  8.007559E+05  4.458231E+04 -3.548602E+04  3.850517E+05  5.416839E+04  1.143367E+04
       382  10  1.649396E+06  5.697865E+05  3.954763E+05  5.577758E+05 -1.262284E-09  8.010405E-09
       382  11  1.586063E+06  2.957233E+05  2.252469E+05  5.835716E+05 -1.655758E-09  1.004043E-08
       382  12  1.605624E+06  3.139429E+05  1.757565E+05  5.700678E+05  5.396172E-09 -3.008098E-09
       382  13  1.230729E+06  3.730812E+05  2.732806E+05  4.041048E+05 -1.377559E-09 -3.068416E-09
       382  14  1.175668E+06  1.302058E+05  1.122228E+05  4.604782E+05 -1.446330E-10 -9.103906E-09
       382  15  1.203111E+06  1.792616E+05  7.013920E+04  4.775347E+05  1.182595E-10 -5.071025E-09
       382  16  8.122360E+05  1.764165E+05  1.510683E+05  2.505371E+05  2.255410E-09  5.851638E-09
       382  17  7.654361E+05 -3.529507E+04 -8.166140E+02  3.374603E+05 -1.479871E-09  4.025807E-09
       382  18  8.007527E+05  4.458139E+04 -3.549177E+04  3.850513E+05 -5.029506E-09  2.627977E-09
       382  19  1.649431E+06  5.697993E+05  3.955430E+05  5.577849E+05 -1.775774E+05 -6.345485E+04
       382  20  1.586078E+06  2.957281E+05  2.252741E+05  5.835746E+05 -1.157594E+05 -3.296101E+04
       382  21  1.605626E+06  3.139437E+05  1.757616E+05  5.700682E+05 -5.100462E+04 -1.023022E+04
       382  22  1.230763E+06  3.730935E+05  2.733450E+05  4.041135E+05 -1.745388E+05 -6.229127E+04
       382  23  1.175683E+06  1.302105E+05  1.122496E+05  4.604812E+05 -1.150325E+05 -3.268275E+04
       382  24  1.203114E+06  1.792624E+05  7.014460E+04  4.775351E+05 -5.258707E+04 -1.083210E+04
       382  25  8.122686E+05  1.764284E+05  1.511305E+05  2.505455E+05 -1.715024E+05 -6.112900E+04
       382  26  7.654504E+05 -3.529045E+04 -7.901268E+02  3.374633E+05 -1.143060E+05 -3.240471E+04
       382  27  8.007559E+05  4.458231E+04 -3.548602E+04  3.850517E+05 -5.416839E+04 -1.143367E+04
       383   1  1.507364E+06  3.326712E+05  1.433182E+05  5.498971E+05  4.157910E+04  8.701978E+03
       383   2  1.487563E+06  2.784489E+05  1.056410E+05  5.372130E+05  2.730244E+04  3.376530E+03
       383   3  1.461076E+06  2.830313E+05  8.854064E+04  5.407671E+05  1.269889E+04 -1.088451E+03
       383   4  1.195013E+06  2.092468E+05  5.757821E+04  4.588764E+05  4.146353E+04  8.657448E+03
       383   5  1.196496E+06  1.667465E+05  2.647472E+04  4.557451E+05  2.744562E+04  3.430666E+03
       383   6  1.191248E+06  1.830109E+05  1.575121E+04  4.688507E+05  1.310022E+04 -9.358599E+02
       383   7  8.827555E+05  8.583045E+04 -2.817074E+04  3.678975E+05  4.134802E+04  8.612942E+03
       383   8  9.055099E+05  5.504994E+04 -5.269916E+04  3.743116E+05  2.758872E+04  3.484772E+03
       383   9  9.214903E+05  8.299429E+04 -5.704453E+04  3.969621E+05  1.350135E+04 -7.833380E+02
       383  10  1.507362E+06  3.326707E+05  1.433148E+05  5.498969E+05  1.681000E-10 -2.527355E-09
       383  11  1.487562E+06  2.784487E+05  1.056396E+05  5.372130E+05 -6.483802E-09  1.803884E-08
       383  12  1.461076E+06  2.830313E+05  8.854034E+04  5.407672E+05 -4.515585E-09  1.909671E-08
       383  13  1.195011E+06  2.092462E+05  5.757484E+04  4.588761E+05 -6.944192E-11  1.385448E-09
       383  14  1.196495E+06  1.667463E+05  2.647328E+04  4.557450E+05 -2.556997E-09 -2.293036E-08
       383  15  1.191248E+06  1.830109E+05  1.575089E+04  4.688507E+05 -5.693537E-09  1.380333E-08
       383  16  8.827536E+05  8.582991E+04 -2.817408E+04  3.678972E+05 -5.571855E-11 -7.008994E-09
       383  17  9.055091E+05  5.504973E+04 -5.270061E+04  3.743115E+05  3.070508E-09 -2.697330E-09
       383  18  9.214901E+05  8.299424E+04 -5.704488E+04  3.969621E+05 -2.859321E-09  5.681880E-09
       383  19  1.507364E+06  3.326712E+05  1.433182E+05  5.498971E+05 -4.157910E+04 -8.701978E+03
       383  20  1.487563E+06  2.784489E+05  1.056410E+05  5.372130E+05 -2.730244E+04 -3.376530E+03
       383  21  1.461076E+06  2.830313E+05  8.854064E+04  5.407671E+05 -1.269889E+04  1.088451E+03
       383  22  1.195013E+06  2.092468E+05  5.757821E+04  4.588764E+05 -4.146353E+04 -8.657448E+03
       383  23  1.196496E+06  1.667465E+05  2.647472E+04  4.557451E+05 -2.744562E+04 -3.430666E+03
       383  24  1.191248E+06  1.830109E+05  1.575121E+04  4.688507E+05 -1.310022E+04  9.358599E+02
       383  25  8.827555E+05  8.583045E+04 -2.817074E+04  3.678975E+05 -4.134802E+04 -8.612942E+03
       383  26  9.055099E+05  5.504994E+04 -5.269916E+04  3.743116E+05 -2.758872E+04 -3.484772E+03
       383  27  9.214903E+05  8.299429E+04 -5.704453E+04  3.969621E+05 -1.350135E+04  7.833380E+02
       384   1  1.394440E+06  2.646247E+05  6.788211E+04  5.226662E+05  1.032103E+04 -1.254090E+03
       384   2  1.382227E+06  2.421663E+05  5.597309E+04  5.065824E+05  6.820691E+03 -1.735496E+03
       384   3  1.352536E+06  2.445240E+05  4.782590E+04  5.116492E+05  3.300006E+03 -2.164778E+03
       384   4  1.190463E+06  1.865199E+05  1.248535E+04  4.657438E+05  1.052893E+04 -1.175071E+03
       384   5  1.198951E+06  1.723650E+05  6.214055E+03  4.558345E+05  7.044904E+03 -1.650175E+03
       384   6  1.189959E+06  1.830244E+05  3.692784E+03  4.670760E+05  3.540417E+03 -2.073196E+03
       384   7  9.865247E+05  1.084177E+05 -4.291524E+04  4.088381E+05  1.073675E+04 -1.096081E+03
       384   8  1.015707E+06  1.025658E+05 -4.354804E+04  4.051001E+05  7.269045E+03 -1.564883E+03
       384   9  1.027408E+06  1.215264E+05 -4.044271E+04  4.225133E+05  3.780759E+03 -1.981640E+03
       384  10  1.394440E+06  2.646247E+05  6.788191E+04  5.226662E+05  4.209409E-09  2.312679E-09
       384  11  1.382227E+06  2.421663E+05  5.597300E+04  5.065824E+05  1.601203E-09 -8.917300E-10
       384  12  1.352536E+06  2.445240E+05  4.782587E+04  5.116492E+05 -7.030748E-09 -1.121904E-08
       384  13  1.190463E+06  1.865199E+05  1.248514E+04  4.657438E+05 -3.939319E-09  3.382892E-09
       384  14  1.198951E+06  1.723650E+05  6.213956E+03  4.558345E+05  5.052454E-09 -7.762836E-09
       384  15  1.189959E+06  1.830244E+05  3.692752E+03  4.670760E+05 -1.352551E-09  3.400568E-09
       384  16  9.865246E+05  1.084176E+05 -4.291546E+04  4.088382E+05 -1.088758E-08  1.857678E-09
       384  17  1.015707E+06  1.025658E+05 -4.354814E+04  4.051001E+05 -1.343442E-09  1.778860E-09
       384  18  1.027408E+06  1.215264E+05 -4.044274E+04  4.225133E+05  5.268106E-09  8.213876E-09
       384  19  1.394440E+06  2.646247E+05  6.788211E+04  5.226662E+05 -1.032103E+04  1.254090E+03
       384  20  1.382227E+06  2.421663E+05  5.597309E+04  5.065824E+05 -6.820691E+03  1.735496E+03
       384  21  1.352536E+06  2.445240E+05  4.782590E+04  5.116492E+05 -3.300006E+03  2.164778E+03
       384  22  1.190463E+06  1.865199E+05  1.248535E+04  4.657438E+05 -1.052893E+04  1.175071E+03
       384  23  1.198951E+06  1.723650E+05  6.214055E+03  4.558345E+05 -7.044904E+03  1.650175E+03
       384  24  1.189959E+06  1.830244E+05  3.692784E+03  4.670760E+05 -3.540417E+03  2.073196E+03
       384  25  9.865247E+05  1.084177E+05 -4.291524E+04  4.088381E+05 -1.073675E+04  1.096081E+03
       384  26  1.015707E+06  1.025658E+05 -4.354804E+04  4.051001E+05 -7.269045E+03  1.564883E+03
       384  27  1.027408E+06  1.215264E+05 -4.044271E+04  4.225133E+05 -3.780759E+03  1.981640E+03
       385   1  1.295090E+06  2.232170E+05  3.138098E+04  4.954767E+05  2.589332E+03 -1.901982E+03
       385   2  1.284662E+06  2.060453E+05  2.502630E+04  4.799173E+05  1.405293E+03 -1.483487E+03
       385   3  1.256288E+06  2.080000E+05  1.954577E+04  4.847822E+05  2.276783E+02 -1.082399E+03
       385   4  1.190070E+06  1.832056E+05  2.938141E+03  4.663664E+05  2.813943E+03 -1.816374E+03
       385   5  1.199015E+06  1.734492E+05  1.775495E+03  4.562276E+05  1.624962E+03 -1.399726E+03
       385   6  1.190015E+06  1.828207E+05  1.491074E+03  4.665132E+05  4.423727E+02 -1.000498E+03
       385   7  1.085061E+06  1.431950E+05 -2.550564E+04  4.372605E+05  3.038512E+03 -1.730782E+03
       385   8  1.113375E+06  1.408537E+05 -2.147597E+04  4.325408E+05  1.844598E+03 -1.315979E+03
       385   9  1.123745E+06  1.576415E+05 -1.656405E+04  4.482460E+05  6.570422E+02 -9.186066E+02
       385  10  1.295090E+06  2.232169E+05  3.138096E+04  4.954767E+05  2.933058E-09 -6.282988E-09
       385  11  1.284662E+06  2.060453E+05  2.502629E+04  4.799173E+05  8.483994E-10 -4.259341E-10
       385  12  1.256288E+06  2.080000E+05  1.954576E+04  4.847822E+05 -7.960360E-09 -4.359648E-09
       385  13  1.190070E+06  1.832056E+05  2.938120E+03  4.663664E+05  7.619790E-10 -9.696328E-09
       385  14  1.199015E+06  1.734492E+05  1.775486E+03  4.562276E+05  5.341499E-09 -1.780673E-08
       385  15  1.190015E+06  1.828207E+05  1.491072E+03  4.665132E+05 -4.863587E-09 -3.630512E-09
       385  16  1.085061E+06  1.431950E+05 -2.550566E+04  4.372605E+05 -6.321225E-09  9.920994E-10
       385  17  1.113375E+06  1.408537E+05 -2.147598E+04  4.325408E+05  6.293290E-09 -9.487112E-09
       385  18  1.123745E+06  1.576415E+05 -1.656405E+04  4.482460E+05  5.810895E-09  1.637618E-08
       385  19  1.295090E+06  2.232170E+05  3.138098E+04  4.954767E+05 -2.589332E+03  1.901982E+03
       385  20  1.284662E+06  2.060453E+05  2.502630E+04  4.799173E+05 -1.405293E+03  1.483487E+03
       385  21  1.256288E+06  2.080000E+05  1.954577E+04  4.847822E+05 -2.276783E+02  1.082399E+03
       385  22  1.190070E+06  1.832056E+05  2.938141E+03  4.663664E+05 -2.813943E+03  1.816374E+03
       385  23  1.199015E+06  1.734492E+05  1.775495E+03  4.562276E+05 -1.624962E+03  1.399726E+03
       385  24  1.190015E+06  1.828207E+05  1.491074E+03  4.665132E+05 -4.423727E+02  1.000498E+03
       385  25  1.085061E+06  1.431950E+05 -2.550564E+04  4.372605E+05 -3.038512E+03  1.730782E+03
       385  26  1.113375E+06  1.408537E+05 -2.147597E+04  4.325408E+05 -1.844598E+03  1.315979E+03
       385  27  1.123745E+06  1.576415E+05 -1.656405E+04  4.482460E+05 -6.570422E+02  9.186066E+02
       386   1  1.202017E+06  1.872858E+05  4.684289E+03  4.697666E+05 -1.869921E+02 -7.497723E+02
       386   2  1.191907E+06  1.708970E+05  3.378468E+01  4.544310E+05 -1.444271E+03 -3.851255E+02
       386   3  1.164320E+06  1.732677E+05 -3.664445E+03  4.589831E+05 -2.698949E+03 -2.708827E+01
       386   4  1.190115E+06  1.827068E+05  1.515726E+03  4.664068E+05  2.965362E+01 -6.671125E+02
       386   5  1.198888E+06  1.735643E+05  1.930834E+03  4.563723E+05 -1.229578E+03 -3.032147E+02
       386   6  1.190183E+06  1.831815E+05  3.299736E+03  4.662254E+05 -2.486240E+03  5.406238E+01
       386   7  1.178213E+06  1.781279E+05 -1.652848E+03  4.630471E+05  2.462948E+02 -5.844545E+02
       386   8  1.205869E+06  1.762316E+05  3.827878E+03  4.583137E+05 -1.014882E+03 -2.213029E+02
       386   9  1.216048E+06  1.930953E+05  1.026384E+04  4.734680E+05 -2.273521E+03  1.352167E+02
       386  10  1.202017E+06  1.872858E+05  4.684288E+03  4.697666E+05  6.015679E-09  1.035529E-08
       386  11  1.191907E+06  1.708970E+05  3.378049E+01  4.544310E+05  1.182823E-08  9.356801E-09
       386  12  1.164320E+06  1.732677E+05 -3.664458E+03  4.589831E+05  5.466889E-09 -5.778209E-09
       386  13  1.190115E+06  1.827068E+05  1.515726E+03  4.664068E+05  8.031066E-11  1.534910E-08
       386  14  1.198888E+06  1.735643E+05  1.930831E+03  4.563723E+05  6.988909E-10  2.489965E-08
       386  15  1.190183E+06  1.831815E+05  3.299724E+03  4.662254E+05  4.411303E-09  3.160387E-10
       386  16  1.178213E+06  1.781279E+05 -1.652849E+03  4.630471E+05 -7.077328E-09  1.572741E-09
       386  17  1.205869E+06  1.762316E+05  3.827876E+03  4.583137E+05 -1.586870E-09 -2.424441E-08
       386  18  1.216048E+06  1.930953E+05  1.026384E+04  4.734680E+05  3.435962E-09 -1.694169E-08
       386  19  1.202017E+06  1.872858E+05  4.684289E+03  4.697666E+05  1.869921E+02  7.497723E+02
       386  20  1.191907E+06  1.708970E+05  3.378468E+01  4.544310E+05  1.444271E+03  3.851255E+02
       386  21  1.164320E+06  1.732677E+05 -3.664445E+03  4.589831E+05  2.698949E+03  2.708827E+01
       386  22  1.190115E+06  1.827068E+05  1.515726E+03  4.664068E+05 -2.965362E+01  6.671125E+02
       386  23  1.198888E+06  1.735643E+05  1.930834E+03  4.563723E+05  1.229578E+03  3.032147E+02
       386  24  1.190183E+06  1.831815E+05  3.299736E+03  4.662254E+05  2.486240E+03 -5.406238E+01
       386  25  1.178213E+06  1.781279E+05 -1.652848E+03  4.630471E+05 -2.462948E+02  5.844545E+02
       386  26  1.205869E+06  1.762316E+05  3.827878E+03  4.583137E+05  1.014882E+03  2.213029E+02
       386  27  1.216048E+06  1.930953E+05  1.026384E+04  4.734680E+05  2.273521E+03 -1.352167E+02
       387   1  1.109535E+06  1.523639E+05 -1.775169E+04  4.448311E+05 -3.499687E+03  1.722690E+02
       387   2  1.098581E+06  1.344722E+05 -2.008202E+04  4.285072E+05 -7.414330E+03 -4.580726E+02
       387   3  1.071737E+06  1.407249E+05 -1.817386E+04  4.315928E+05 -1.130800E+04 -1.142484E+03
       387   4  1.190293E+06  1.827106E+05  4.168421E+03  4.667546E+05 -3.271657E+03  2.592481E+02
       387   5  1.198526E+06  1.726441E+05  7.077452E+03  4.562838E+05 -7.202716E+03 -3.774037E+02
       387   6  1.190872E+06  1.867246E+05  1.423753E+04  4.652225E+05 -1.111293E+04 -1.068173E+03
       387   7  1.271057E+06  2.130576E+05  2.608799E+04  4.886807E+05 -3.043593E+03  3.462395E+02
       387   8  1.298481E+06  2.108166E+05  3.423605E+04  4.840646E+05 -6.991065E+03 -2.967203E+02
       387   9  1.310021E+06  2.327252E+05  4.664764E+04  4.988579E+05 -1.091781E+04 -9.938461E+02
       387  10  1.109535E+06  1.523639E+05 -1.775171E+04  4.448311E+05 -6.852898E-09 -3.048289E-09
       387  11  1.098581E+06  1.344722E+05 -2.008213E+04  4.285072E+05 -6.228954E-09  6.195594E-09
       387  12  1.071737E+06  1.407248E+05 -1.817411E+04  4.315928E+05 -3.282218E-09 -7.277872E-09
       387  13  1.190293E+06  1.827106E+05  4.168401E+03  4.667546E+05 -1.208280E-09  5.488034E-09
       387  14  1.198526E+06  1.726441E+05  7.077354E+03  4.562838E+05 -7.340601E-09  2.306941E-08
       387  15  1.190872E+06  1.867245E+05  1.423729E+04  4.652225E+05 -4.547443E-09 -6.405531E-09
       387  16  1.271057E+06  2.130576E+05  2.608797E+04  4.886807E+05  4.998798E-09  5.500904E-09
       387  17  1.298481E+06  2.108166E+05  3.423596E+04  4.840646E+05 -5.715756E-09  1.637433E-08
       387  18  1.310021E+06  2.327252E+05  4.664742E+04  4.988579E+05 -5.098743E-09  3.979418E-09
       387  19  1.109535E+06  1.523639E+05 -1.775169E+04  4.448311E+05  3.499687E+03 -1.722690E+02
       387  20  1.098581E+06  1.344722E+05 -2.008202E+04  4.285072E+05  7.414330E+03  4.580726E+02
       387  21  1.071737E+06  1.407249E+05 -1.817386E+04  4.315928E+05  1.130800E+04  1.142484E+03
       387  22  1.190293E+06  1.827106E+05  4.168421E+03  4.667546E+05  3.271657E+03 -2.592481E+02
       387  23  1.198526E+06  1.726441E+05  7.077452E+03  4.562838E+05  7.202716E+03  3.774037E+02
       387  24  1.190872E+06  1.867246E+05  1.423753E+04  4.652225E+05  1.111293E+04  1.068173E+03
       387  25  1.271057E+06  2.130576E+05  2.608799E+04  4.886807E+05  3.043593E+03 -3.462395E+02
       387  26  1.298481E+06  2.108166E+05  3.423605E+04  4.840646E+05  6.991065E+03  2.967203E+02
       387  27  1.310021E+06  2.327252E+05  4.664764E+04  4.988579E+05  1.091781E+04  9.938461E+02
       388   1  1.012380E+06  1.169150E+05 -3.032018E+04  4.216871E+05 -1.432226E+04 -1.642813E+03
       388   2  9.973919E+05  8.997003E+04 -2.376488E+04  4.005483E+05 -3.040859E+04 -6.793338E+03
       388   3  9.800218E+05  1.245236E+05  5.859568E+03  3.916177E+05 -4.624213E+04 -1.260513E+04
       388   4  1.192049E+06  1.824051E+05  1.796087E+04  4.684303E+05 -1.397816E+04 -1.511675E+03
       388   5  1.195381E+06  1.666203E+05  3.022900E+04  4.566190E+05 -3.026299E+04 -6.738078E+03
       388   6  1.196365E+06  2.123642E+05  6.571760E+04  4.570160E+05 -4.629562E+04 -1.262611E+04
       388   7  1.371748E+06  2.478965E+05  6.623899E+04  5.151852E+05 -1.363395E+04 -1.380498E+03
       388   8  1.393407E+06  2.432734E+05  8.421934E+04  5.127058E+05 -3.011734E+04 -6.682797E+03
       388   9  1.412753E+06  3.002096E+05  1.255714E+05  5.224356E+05 -4.634912E+04 -1.264710E+04
       388  10  1.012379E+06  1.169149E+05 -3.032057E+04  4.216871E+05 -5.098890E-09  6.303461E-09
       388  11  9.973909E+05  8.996973E+04 -2.376670E+04  4.005482E+05  2.186711E-09  3.713333E-08
       388  12  9.800195E+05  1.245229E+05  5.855259E+03  3.916172E+05  5.754102E-09  1.422049E-08
       388  13  1.192048E+06  1.824051E+05  1.796049E+04  4.684303E+05  2.420170E-09 -7.175245E-09
       388  14  1.195380E+06  1.666200E+05  3.022720E+04  4.566188E+05 -3.685260E-09  2.372082E-08
       388  15  1.196362E+06  2.123635E+05  6.571328E+04  4.570156E+05  4.810346E-09  2.869873E-09
       388  16  1.371748E+06  2.478964E+05  6.623864E+04  5.151852E+05 -2.670755E-10  4.012431E-09
       388  17  1.393406E+06  2.432731E+05  8.421756E+04  5.127057E+05 -7.173724E-09 -1.984280E-08
       388  18  1.412751E+06  3.002089E+05  1.255671E+05  5.224352E+05 -1.379515E-09 -1.022380E-10
       388  19  1.012380E+06  1.169150E+05 -3.032018E+04  4.216871E+05  1.432226E+04  1.642813E+03
       388  20  9.973919E+05  8.997003E+04 -2.376488E+04  4.005483E+05  3.040859E+04  6.793338E+03
       388  21  9.800218E+05  1.245236E+05  5.859568E+03  3.916177E+05  4.624213E+04  1.260513E+04
       388  22  1.192049E+06  1.824051E+05  1.796087E+04  4.684303E+05  1.397816E+04  1.511675E+03
       388  23  1.195381E+06  1.666203E+05  3.022900E+04  4.566190E+05  3.026299E+04  6.738078E+03
       388  24  1.196365E+06  2.123642E+05  6.571760E+04  4.570160E+05  4.629562E+04  1.262611E+04
       388  25  1.371748E+06  2.478965E+05  6.623899E+04  5.151852E+05  1.363395E+04  1.380498E+03
       388  26  1.393407E+06  2.432734E+05  8.421934E+04  5.127058E+05  3.011734E+04  6.682797E+03
       388  27  1.412753E+06  3.002096E+05  1.255714E+05  5.224356E+05  4.634912E+04  1.264710E+04
       389   1  9.058760E+05  8.432178E+04  2.646591E+03  4.159847E+05 -5.998774E+04 -1.620135E+04
       389   2  8.699506E+05 -4.490848E+02  4.431080E+04  3.678598E+05 -1.293146E+05 -4.102023E+04
       389   3  9.348858E+05  2.403321E+05  2.203746E+05  2.663780E+05 -1.964035E+05 -7.171782E+04
       389   4  1.205918E+06  1.777818E+05  8.005249E+04  4.779156E+05 -5.875285E+04 -1.572942E+04
       389   5  1.171210E+06  1.254229E+05  1.281653E+05  4.625884E+05 -1.298342E+05 -4.122089E+04
       389   6  1.237647E+06  3.988661E+05  3.120146E+05  3.939201E+05 -1.986782E+05 -7.259848E+04
       389   7  1.506047E+06  2.712412E+05  1.574514E+05  5.398702E+05 -5.751729E+04 -1.525734E+04
       389   8  1.472555E+06  2.513056E+05  2.120110E+05  5.573601E+05 -1.303541E+05 -4.142168E+04
       389   9  1.540499E+06  5.574325E+05  4.036451E+05  5.215257E+05 -2.009540E+05 -7.347998E+04
       389  10  9.058721E+05  8.432054E+04  2.639348E+03  4.159839E+05 -1.259646E-09  1.078406E-08
       389  11  8.699323E+05 -4.553686E+02  4.427627E+04  3.678555E+05 -7.402970E-09  3.360968E-09
       389  12  9.348431E+05  2.403163E+05  2.202926E+05  2.663666E+05  1.627924E-09  1.188112E-08
       389  13  1.205914E+06  1.777806E+05  8.004555E+04  4.779148E+05  2.042197E-09 -9.401465E-09
       389  14  1.171191E+06  1.254166E+05  1.281305E+05  4.625841E+05 -2.150183E-09 -6.638014E-09
       389  15  1.237603E+06  3.988499E+05  3.119307E+05  3.939085E+05 -3.676935E-09 -1.582752E-09
       389  16  1.506043E+06  2.712400E+05  1.574448E+05  5.398695E+05  4.233306E-09 -5.424407E-09
       389  17  1.472537E+06  2.512992E+05  2.119760E+05  5.573558E+05 -3.757500E-09  1.725865E-08
       389  18  1.540454E+06  5.574159E+05  4.035593E+05  5.215138E+05 -4.913420E-09  1.236891E-09
       389  19  9.058760E+05  8.432178E+04  2.646591E+03  4.159847E+05  5.998774E+04  1.620135E+04
       389  20  8.699506E+05 -4.490848E+02  4.431080E+04  3.678598E+05  1.293146E+05  4.102023E+04
       389  21  9.348858E+05  2.403321E+05  2.203746E+05  2.663780E+05  1.964035E+05  7.171782E+04
       389  22  1.205918E+06  1.777818E+05  8.005249E+04  4.779156E+05  5.875285E+04  1.572942E+04
       389  23  1.171210E+06  1.254229E+05  1.281653E+05  4.625884E+05  1.298342E+05  4.122089E+04
       389  24  1.237647E+06  3.988661E+05  3.120146E+05  3.939201E+05  1.986782E+05  7.259848E+04
       389  25  1.506047E+06  2.712412E+05  1.574514E+05  5.398702E+05  5.751729E+04  1.525734E+04
       389  26  1.472555E+06  2.513056E+05  2.120110E+05  5.573601E+05  1.303541E+05  4.142168E+04
       389  27  1.540499E+06  5.574325E+05  4.036451E+05  5.215257E+05  2.009540E+05  7.347998E+04
       390   1 -1.933604E+05 -1.159930E+06 -2.005493E+05  8.036859E+04 -4.478795E+03 -2.710607E+04
       390   2 -1.279097E+05 -1.030475E+06 -1.486950E+05  7.407617E+02 -1.210665E+04 -1.398559E+04
       390   3 -1.028469E+05 -9.109037E+05 -1.151257E+05  7.076261E+04 -7.142222E+03 -8.265883E+02
       390   4 -2.817223E+04 -4.992951E+05 -3.614753E+04  7.284535E+04 -4.492481E+03 -2.279646E+04
       390   5  5.674229E+03 -4.946916E+05 -1.709551E+04 -1.929894E+03 -1.210707E+04 -1.359001E+04
       390   6 -1.668702E+02 -4.992953E+05 -1.359448E+04  7.293758E+04 -7.133942E+03 -4.347790E+03
       390   7  1.369832E+05  1.617360E+05  1.282216E+05  6.531440E+04 -4.506265E+03 -1.848224E+04
       390   8  1.392369E+05  4.135325E+04  1.144828E+05 -4.602675E+03 -1.210749E+04 -1.319408E+04
       390   9  1.025006E+05 -8.753251E+04  8.792425E+04  7.511407E+04 -7.125690E+03 -7.871325E+03
       390  10 -1.933606E+05 -1.159930E+06 -2.005507E+05  8.036849E+04 -1.558196E-09 -2.221001E-09
       390  11 -1.279099E+05 -1.030475E+06 -1.486956E+05  7.406253E+02 -7.022226E-10  6.321253E-09
       390  12 -1.028470E+05 -9.109037E+05 -1.151258E+05  7.076260E+04  3.042717E-09 -5.422808E-09
       390  13 -2.817239E+04 -4.992957E+05 -3.614855E+04  7.284527E+04  2.464259E-10  2.221071E-09
       390  14  5.674022E+03 -4.946919E+05 -1.709613E+04 -1.930026E+03 -4.669004E-09 -5.631368E-09
       390  15 -1.669299E+02 -4.992953E+05 -1.359461E+04  7.293755E+04  3.794226E-09 -4.709042E-09
       390  16  1.369831E+05  1.617357E+05  1.282209E+05  6.531433E+04 -9.872705E-10  4.443351E-11
       390  17  1.392366E+05  4.135303E+04  1.144822E+05 -4.602804E+03 -4.284842E-10 -2.055529E-09
       390  18  1.025005E+05 -8.753259E+04  8.792404E+04  7.511402E+04  9.380013E-10  1.892352E-09
       390  19 -1.933604E+05 -1.159930E+06 -2.005493E+05  8.036859E+04  4.478795E+03  2.710607E+04
       390  20 -1.279097E+05 -1.030475E+06 -1.486950E+05  7.407617E+02  1.210665E+04  1.398559E+04
       390  21 -1.028469E+05 -9.109037E+05 -1.151257E+05  7.076261E+04  7.142222E+03  8.265883E+02
       390  22 -2.817223E+04 -4.992951E+05 -3.614753E+04  7.284535E+04  4.492481E+03  2.279646E+04
       390  23  5.674229E+03 -4.946916E+05 -1.709551E+04 -1.929894E+03  1.210707E+04  1.359001E+04
       390  24 -1.668702E+02 -4.992953E+05 -1.359448E+04  7.293758E+04  7.133942E+03  4.347790E+03
       390  25  1.369832E+05  1.617360E+05  1.282216E+05  6.531440E+04  4.506265E+03  1.848224E+04
       390  26  1.392369E+05  4.135325E+04  1.144828E+05 -4.602675E+03  1.210749E+04  1.319408E+04
       390  27  1.025006E+05 -8.753251E+04  8.792425E+04  7.511407E+04  7.125690E+03  7.871325E+03
       391   1 -2.590311E+04 -5.869885E+05 -3.475519E+04  7.489268E+04 -2.385913E+03 -9.835849E+02
       391   2  1.145937E+04 -4.594569E+05 -3.106104E+03 -2.570653E+03  7.355609E+02  5.285925E+03
       391   3  3.248569E+04 -3.359522E+05  2.054745E+04  7.106010E+04  3.723958E+03  1.155677E+04
       391   4 -3.755723E+03 -4.980991E+05 -1.300251E+04  7.323264E+04 -2.383767E+03 -1.982023E+03
       391   5  2.329169E+03 -4.960749E+05 -1.211396E+04 -2.319666E+03  7.376910E+02  4.328911E+03
       391   6 -7.928760E+03 -4.981000E+05 -1.924905E+04  7.322304E+04  3.726070E+03  1.063992E+04
       391   7  1.839109E+04 -4.092025E+05  8.749601E+03  7.157237E+04 -2.381616E+03 -2.980604E+03
       391   8 -6.801132E+03 -5.326917E+05 -2.112191E+04 -2.068693E+03  7.398204E+02  3.371952E+03
       391   9 -4.834515E+04 -6.602238E+05 -5.904747E+04  7.538544E+04  3.728175E+03  9.723316E+03
       391  10 -2.590312E+04 -5.869885E+05 -3.475520E+04  7.489267E+04  1.308477E-09 -3.697493E-09
       391  11  1.145936E+04 -4.594569E+05 -3.106158E+03 -2.570656E+03 -2.875592E-09  1.845451E-09
       391  12  3.248564E+04 -3.359523E+05  2.054717E+04  7.106006E+04 -1.811340E-09 -2.065287E-09
       391  13 -3.755730E+03 -4.980991E+05 -1.300253E+04  7.323264E+04  2.257295E-09  2.152068E-09
       391  14  2.329163E+03 -4.960749E+05 -1.211400E+04 -2.319669E+03 -4.065495E-10  2.624761E-09
       391  15 -7.928805E+03 -4.981001E+05 -1.924929E+04  7.322301E+04  2.798543E-09 -3.736914E-09
       391  16  1.839108E+04 -4.092025E+05  8.749574E+03  7.157236E+04  1.118843E-10  5.852339E-09
       391  17 -6.801136E+03 -5.326917E+05 -2.112193E+04 -2.068695E+03 -3.062799E-09  2.816946E-09
       391  18 -4.834519E+04 -6.602239E+05 -5.904767E+04  7.538541E+04  1.101876E-09  5.956680E-09
       391  19 -2.590311E+04 -5.869885E+05 -3.475519E+04  7.489268E+04  2.385913E+03  9.835849E+02
       391  20  1.145937E+04 -4.594569E+05 -3.106104E+03 -2.570653E+03 -7.355609E+02 -5.285925E+03
       391  21  3.248569E+04 -3.359522E+05  2.054745E+04  7.106010E+04 -3.723958E+03 -1.155677E+04
       391  22 -3.755723E+03 -4.980991E+05 -1.300251E+04  7.323264E+04  2.383767E+03  1.982023E+03
       391  23  2.329169E+03 -4.960749E+05 -1.211396E+04 -2.319666E+03 -7.376910E+02 -4.328911E+03
       391  24 -7.928760E+03 -4.981000E+05 -1.924905E+04  7.322304E+04 -3.726070E+03 -1.063992E+04
       391  25  1.839109E+04 -4.092025E+05  8.749601E+03  7.157237E+04  2.381616E+03  2.980604E+03
       391  26 -6.801132E+03 -5.326917E+05 -2.112191E+04 -2.068693E+03 -7.398204E+02 -3.371952E+03
       391  27 -4.834515E+04 -6.602238E+05 -5.904747E+04  7.538544E+04 -3.728175E+03 -9.723316E+03
       392   1  1.224244E+05 -1.701226E+04  9.714577E+04  7.768529E+04  8.607339E+03  1.805240E+04
       392   2  1.631578E+05  1.168991E+05  1.165743E+05 -6.399240E+03  1.362898E+04  3.161206E+04
       392   3  1.252016E+05  2.316230E+05  1.079631E+05  5.865133E+04  4.926642E+03  4.513253E+04
       392   4  1.603560E+03 -5.016997E+05 -2.229577E+04  7.286394E+04  8.616472E+03  1.432503E+04
       392   5  1.150472E+04 -4.917200E+05 -3.282761E+04 -1.813620E+03  1.362837E+04  3.215193E+04
       392   6 -5.806600E+04 -5.017066E+05 -7.438514E+04  7.265459E+04  4.910794E+03  4.993674E+04
       392   7 -1.192347E+05 -9.861733E+05 -1.417546E+05  6.804647E+04  8.625668E+03  1.060057E+04
       392   8 -1.401758E+05 -1.100002E+06 -1.822568E+05  2.767751E+03  1.362777E+04  3.269125E+04
       392   9 -2.413733E+05 -1.234548E+06 -2.567736E+05  8.664171E+04  4.895154E+03  5.473525E+04
       392  10  1.224242E+05 -1.701263E+04  9.714502E+04  7.768516E+04  1.340561E-09 -8.135606E-09
       392  11  1.631573E+05  1.168979E+05  1.165721E+05 -6.399587E+03  1.374799E-09 -3.802024E-10
       392  12  1.252010E+05  2.316208E+05  1.079593E+05  5.865115E+04 -1.113063E-09 -1.378414E-08
       392  13  1.603425E+03 -5.016999E+05 -2.229630E+04  7.286384E+04  1.420954E-09 -8.268724E-11
       392  14  1.150424E+04 -4.917212E+05 -3.282991E+04 -1.813973E+03  1.104092E-09  1.422398E-08
       392  15 -5.806670E+04 -5.017092E+05 -7.438988E+04  7.265439E+04 -1.174412E-09 -1.088563E-08
       392  16 -1.192348E+05 -9.861734E+05 -1.417550E+05  6.804639E+04  2.532665E-09  6.072206E-09
       392  17 -1.401763E+05 -1.100003E+06 -1.822591E+05  2.767392E+03  6.363481E-12  5.830025E-09
       392  18 -2.413742E+05 -1.234551E+06 -2.567793E+05  8.664149E+04 -1.404023E-09  6.885432E-09
       392  19  1.224244E+05 -1.701226E+04  9.714577E+04  7.768529E+04 -8.607339E+03 -1.805240E+04
       392  20  1.631578E+05  1.168991E+05  1.165743E+05 -6.399240E+03 -1.362898E+04 -3.161206E+04
       392  21  1.252016E+05  2.316230E+05  1.079631E+05  5.865133E+04 -4.926642E+03 -4.513253E+04
       392  22  1.603560E+03 -5.016997E+05 -2.229577E+04  7.286394E+04 -8.616472E+03 -1.432503E+04
       392  23  1.150472E+04 -4.917200E+05 -3.282761E+04 -1.813620E+03 -1.362837E+04 -3.215193E+04
       392  24 -5.806600E+04 -5.017066E+05 -7.438514E+04  7.265459E+04 -4.910794E+03 -4.993674E+04
       392  25 -1.192347E+05 -9.861733E+05 -1.417546E+05  6.804647E+04 -8.625668E+03 -1.060057E+04
       392  26 -1.401758E+05 -1.100002E+06 -1.822568E+05  2.767751E+03 -1.362777E+04 -3.269125E+04
       392  27 -2.413733E+05 -1.234548E+06 -2.567736E+05  8.664171E+04 -4.895154E+03 -5.473525E+04
       393   1  8.061876E+05 -3.929789E+04 -2.888604E+04 -1.902148E+03  2.855409E+04  2.136760E+03
       393   2  8.171984E+05 -7.635648E+04 -4.913498E+04  3.423062E+03  1.958919E+04  6.148362E+03
       393   3  8.413722E+05 -6.656766E+04 -5.178482E+04 -1.231431E+04  1.063025E+04  5.249692E+03
       393   4  1.102826E+06  3.467319E+04  4.476449E+04 -8.821886E+03  3.058754E+04  2.139247E+03
       393   5  1.096125E+06 -6.951787E+03  1.927777E+04  1.733801E+03  2.008477E+04  6.148699E+03
       393   6  1.102846E+06 -1.474082E+03  1.245072E+04 -8.772338E+03  9.588201E+03  5.248693E+03
       393   7  1.399545E+06  1.086379E+05  1.184085E+05 -1.574496E+04  3.262196E+04  2.141689E+03
       393   8  1.375121E+06  6.244716E+04  8.768481E+04  4.375942E+01  2.058056E+04  6.149033E+03
       393   9  1.364381E+06  6.361447E+04  7.668126E+04 -5.228883E+03  8.545712E+03  5.247683E+03
       393  10  8.061867E+05 -3.929811E+04 -2.888758E+04 -1.902197E+03 -3.663795E-10  1.396202E-10
       393  11  8.171980E+05 -7.635663E+04 -4.913577E+04  3.422965E+03 -4.891098E-11 -1.122759E-10
       393  12  8.413721E+05 -6.656772E+04 -5.178509E+04 -1.231436E+04 -1.881709E-10 -3.259382E-10
       393  13  1.102825E+06  3.467294E+04  4.476272E+04 -8.821939E+03  2.572103E-11  1.911844E-11
       393  14  1.096124E+06 -6.951935E+03  1.927694E+04  1.733701E+03 -3.746094E-12  7.495817E-11
       393  15  1.102846E+06 -1.474136E+03  1.245050E+04 -8.772379E+03  3.766470E-11 -1.118971E-11
       393  16  1.399544E+06  1.086376E+05  1.184065E+05 -1.574501E+04 -1.262453E-11  1.328924E-10
       393  17  1.375121E+06  6.244701E+04  8.768394E+04  4.365756E+01 -5.963940E-10  3.399069E-11
       393  18  1.364381E+06  6.361442E+04  7.668107E+04 -5.228919E+03 -2.287792E-10 -5.840386E-11
       393  19  8.061876E+05 -3.929789E+04 -2.888604E+04 -1.902148E+03 -2.855409E+04 -2.136760E+03
       393  20  8.171984E+05 -7.635648E+04 -4.913498E+04  3.423062E+03 -1.958919E+04 -6.148362E+03
       393  21  8.413722E+05 -6.656766E+04 -5.178482E+04 -1.231431E+04 -1.063025E+04 -5.249692E+03
       393  22  1.102826E+06  3.467319E+04  4.476449E+04 -8.821886E+03 -3.058754E+04 -2.139247E+03
       393  23  1.096125E+06 -6.951787E+03  1.927777E+04  1.733801E+03 -2.008477E+04 -6.148699E+03
       393  24  1.102846E+06 -1.474082E+03  1.245072E+04 -8.772338E+03 -9.588201E+03 -5.248693E+03
       393  25  1.399545E+06  1.086379E+05  1.184085E+05 -1.574496E+04 -3.262196E+04 -2.141689E+03
       393  26  1.375121E+06  6.244716E+04  8.768481E+04  4.375942E+01 -2.058056E+04 -6.149033E+03
       393  27  1.364381E+06  6.361447E+04  7.668126E+04 -5.228883E+03 -8.545712E+03 -5.247683E+03
       394   1  8.808996E+05 -5.002490E+04 -4.369994E+04 -7.438176E+03  7.494915E+03  4.159992E+03
       394   2  8.952565E+05 -5.172528E+04 -4.508963E+04  1.160622E+03  5.049520E+03  4.136437E+03
       394   3  9.116425E+05 -4.716915E+04 -4.329479E+04 -8.724963E+03  2.604136E+03  3.577007E+03
       394   4  1.100322E+06  4.600585E+03  1.025158E+04 -8.217096E+03  7.573605E+03  4.159946E+03
       394   5  1.099295E+06 -9.397546E+02  5.024252E+03  1.026603E+03  4.960020E+03  4.136299E+03
       394   6  1.100325E+06 -1.955277E+02  3.097309E+03 -8.213689E+03  2.346507E+03  3.576850E+03
       394   7  1.319787E+06  5.922250E+04  6.419955E+04 -8.996299E+03  7.652321E+03  4.159900E+03
       394   8  1.303370E+06  4.984269E+04  5.513507E+04  8.925336E+02  4.870491E+03  4.136161E+03
       394   9  1.289039E+06  4.677545E+04  4.948679E+04 -7.702261E+03  2.088800E+03  3.576692E+03
       394  10  8.808996E+05 -5.002493E+04 -4.370008E+04 -7.438202E+03 -5.798772E-10  2.526501E-11
       394  11  8.952565E+05 -5.172531E+04 -4.508971E+04  1.160605E+03 -8.881879E-11 -5.321232E-11
       394  12  9.116425E+05 -4.716917E+04 -4.329483E+04 -8.724971E+03 -1.210816E-10  2.254532E-10
       394  13  1.100322E+06  4.600551E+03  1.025144E+04 -8.217122E+03 -2.476979E-11 -7.038530E-11
       394  14  1.099295E+06 -9.397795E+02  5.024173E+03  1.026586E+03 -1.125594E-10 -1.437798E-10
       394  15  1.100325E+06 -1.955429E+02  3.097275E+03 -8.213695E+03  3.752528E-11  1.082892E-10
       394  16  1.319787E+06  5.922246E+04  6.419941E+04 -8.996325E+03  2.943173E-10 -8.969220E-11
       394  17  1.303370E+06  4.984266E+04  5.513500E+04  8.925173E+02 -2.646241E-10 -2.383267E-10
       394  18  1.289039E+06  4.677544E+04  4.948676E+04 -7.702267E+03 -1.504764E-10  1.735494E-10
       394  19  8.808996E+05 -5.002490E+04 -4.369994E+04 -7.438176E+03 -7.494915E+03 -4.159992E+03
       394  20  8.952565E+05 -5.172528E+04 -4.508963E+04  1.160622E+03 -5.049520E+03 -4.136437E+03
       394  21  9.116425E+05 -4.716915E+04 -4.329479E+04 -8.724963E+03 -2.604136E+03 -3.577007E+03
       394  22  1.100322E+06  4.600585E+03  1.025158E+04 -8.217096E+03 -7.573605E+03 -4.159946E+03
       394  23  1.099295E+06 -9.397546E+02  5.024252E+03  1.026603E+03 -4.960020E+03 -4.136299E+03
       394  24  1.100325E+06 -1.955277E+02  3.097309E+03 -8.213689E+03 -2.346507E+03 -3.576850E+03
       394  25  1.319787E+06  5.922250E+04  6.419955E+04 -8.996299E+03 -7.652321E+03 -4.159900E+03
       394  26  1.303370E+06  4.984269E+04  5.513507E+04  8.925336E+02 -4.870491E+03 -4.136161E+03
       394  27  1.289039E+06  4.677545E+04  4.948679E+04 -7.702261E+03 -2.088800E+03 -3.576692E+03
       395   1  9.486280E+05 -3.706025E+04 -3.466949E+04 -7.733276E+03  1.978963E+03  3.191715E+03
       395   2  9.622906E+05 -3.434910E+04 -3.242345E+04  5.245760E+02  1.306125E+03  2.748529E+03
       395   3  9.763105E+05 -3.080131E+04 -2.951835E+04 -7.869320E+03  6.330914E+02  2.267959E+03
       395   4  1.099951E+06  5.981551E+02  2.470352E+03 -7.807597E+03  1.846719E+03  3.191631E+03
       395   5  1.099772E+06 -1.295297E+02  1.349492E+03  5.182347E+02  1.162055E+03  2.748472E+03
       395   6  1.099951E+06 -1.855567E+01  8.958432E+02 -7.807451E+03  4.772105E+02  2.267932E+03
       395   7  1.251295E+06  3.825486E+04  3.960852E+04 -7.881937E+03  1.714444E+03  3.191547E+03
       395   8  1.237270E+06  3.408864E+04  3.512105E+04  5.118914E+02  1.017954E+03  2.748414E+03
       395   9  1.223606E+06  3.076306E+04  3.130891E+04 -7.745571E+03  3.212985E+02  2.267905E+03
       395  10  9.486280E+05 -3.706026E+04 -3.466952E+04 -7.733281E+03 -1.564987E-10 -1.559909E-10
       395  11  9.622906E+05 -3.434911E+04 -3.242347E+04  5.245731E+02  1.684554E-10 -1.784583E-10
       395  12  9.763105E+05 -3.080131E+04 -2.951836E+04 -7.869321E+03 -1.142141E-10  2.444392E-10
       395  13  1.099951E+06  5.981433E+02  2.470326E+03 -7.807601E+03 -9.216158E-11 -1.037829E-10
       395  14  1.099772E+06 -1.295382E+02  1.349475E+03  5.182322E+02  1.346781E-10 -7.393667E-12
       395  15  1.099951E+06 -1.856126E+01  8.958331E+02 -7.807452E+03  4.249655E-11  2.784593E-11
       395  16  1.251295E+06  3.825485E+04  3.960849E+04 -7.881941E+03 -1.617130E-12  4.069364E-11
       395  17  1.237270E+06  3.408863E+04  3.512103E+04  5.118892E+02 -2.173914E-10 -3.548724E-10
       395  18  1.223606E+06  3.076306E+04  3.130890E+04 -7.745571E+03  2.145056E-10  1.239415E-10
       395  19  9.486280E+05 -3.706025E+04 -3.466949E+04 -7.733276E+03 -1.978963E+03 -3.191715E+03
       395  20  9.622906E+05 -3.434910E+04 -3.242345E+04  5.245760E+02 -1.306125E+03 -2.748529E+03
       395  21  9.763105E+05 -3.080131E+04 -2.951835E+04 -7.869320E+03 -6.330914E+02 -2.267959E+03
       395  22  1.099951E+06  5.981551E+02  2.470352E+03 -7.807597E+03 -1.846719E+03 -3.191631E+03
       395  23  1.099772E+06 -1.295297E+02  1.349492E+03  5.182347E+02 -1.162055E+03 -2.748472E+03
       395  24  1.099951E+06 -1.855567E+01  8.958432E+02 -7.807451E+03 -4.772105E+02 -2.267932E+03
       395  25  1.251295E+06  3.825486E+04  3.960852E+04 -7.881937E+03 -1.714444E+03 -3.191547E+03
       395  26  1.237270E+06  3.408864E+04  3.512105E+04  5.118914E+02 -1.017954E+03 -2.748414E+03
       395  27  1.223606E+06  3.076306E+04  3.130891E+04 -7.745571E+03 -3.212985E+02 -2.267905E+03
       396   1  1.010445E+06 -2.218142E+04 -2.116625E+04 -7.533748E+03  4.715680E+02  1.985806E+03
       396   2  1.023280E+06 -1.908354E+04 -1.817720E+04  2.098255E+02  1.527890E+02  1.527112E+03
       396   3  1.036211E+06 -1.581815E+04 -1.493656E+04 -7.552189E+03 -1.661056E+02  1.078020E+03
       396   4  1.099895E+06  7.442061E+01  7.668872E+02 -7.552812E+03  3.268059E+02  1.985798E+03
       396   5  1.099848E+06 -2.618915E+01  6.319794E+02  1.999239E+02  1.098646E+01  1.527120E+03
       396   6  1.099895E+06  4.013476E+01  7.465537E+02 -7.552809E+03 -3.049420E+02  1.078044E+03
       396   7  1.189352E+06  2.232967E+04  2.269944E+04 -7.571878E+03  1.820230E+02  1.985789E+03
       396   8  1.176420E+06  1.903072E+04  1.944073E+04  1.900214E+02 -1.308335E+02  1.527127E+03
       396   9  1.163582E+06  1.589812E+04  1.642937E+04 -7.553429E+03 -4.437925E+02  1.078067E+03
       396  10  1.010445E+06 -2.218143E+04 -2.116626E+04 -7.533748E+03 -4.660937E-12 -1.413216E-10
       396  11  1.023280E+06 -1.908354E+04 -1.817721E+04  2.098253E+02  2.082842E-10 -2.969580E-10
       396  12  1.036211E+06 -1.581816E+04 -1.493656E+04 -7.552189E+03  2.086273E-11 -1.820099E-10
       396  13  1.099895E+06  7.441634E+01  7.668795E+02 -7.552812E+03  1.338496E-10 -1.127541E-11
       396  14  1.099848E+06 -2.619166E+01  6.319751E+02  1.999239E+02  8.500707E-11  2.666302E-11
       396  15  1.099895E+06  4.013349E+01  7.465513E+02 -7.552809E+03 -8.634452E-11 -2.158805E-10
       396  16  1.189352E+06  2.232967E+04  2.269943E+04 -7.571879E+03  3.095998E-11  1.813131E-10
       396  17  1.176420E+06  1.903072E+04  1.944073E+04  1.900216E+02  1.215870E-13  1.604044E-10
       396  18  1.163582E+06  1.589812E+04  1.642937E+04 -7.553428E+03  2.474366E-10  4.844325E-11
       396  19  1.010445E+06 -2.218142E+04 -2.116625E+04 -7.533748E+03 -4.715680E+02 -1.985806E+03
       396  20  1.023280E+06 -1.908354E+04 -1.817720E+04  2.098255E+02 -1.527890E+02 -1.527112E+03
       396  21  1.036211E+06 -1.581815E+04 -1.493656E+04 -7.552189E+03  1.661056E+02 -1.078020E+03
       396  22  1.099895E+06  7.442061E+01  7.668872E+02 -7.552812E+03 -3.268059E+02 -1.985798E+03
       396  23  1.099848E+06 -2.618915E+01  6.319794E+02  1.999239E+02 -1.098646E+01 -1.527120E+03
       396  24  1.099895E+06  4.013476E+01  7.465537E+02 -7.552809E+03  3.049420E+02 -1.078044E+03
       396  25  1.189352E+06  2.232967E+04  2.269944E+04 -7.571878E+03 -1.820230E+02 -1.985789E+03
       396  26  1.176420E+06  1.903072E+04  1.944073E+04  1.900214E+02  1.308335E+02 -1.527127E+03
       396  27  1.163582E+06  1.589812E+04  1.642937E+04 -7.553429E+03  4.437925E+02 -1.078067E+03
       397   1  1.068659E+06 -7.771384E+03 -6.767536E+03 -7.396337E+03 -3.113751E+02  8.184234E+02
       397   2  1.081023E+06 -4.745774E+03 -3.289715E+03  5.951501E+01 -9.793218E+02  3.745359E+02
       397   3  1.093577E+06 -1.271931E+03  7.326670E+02 -7.476640E+03 -1.647305E+03 -6.127809E+01
       397   4  1.099917E+06  4.044738E-01  8.712498E+02 -7.438731E+03 -4.513690E+02  8.184551E+02
       397   5  1.099822E+06 -6.693076E+01  1.328304E+03  5.730245E+01 -1.116812E+03  3.745705E+02
       397   6  1.099916E+06  3.135391E+02  2.328191E+03 -7.438643E+03 -1.782278E+03 -6.124023E+01
       397   7  1.131175E+06  7.772121E+03  8.509964E+03 -7.481126E+03 -5.913698E+02  8.184867E+02
       397   8  1.118621E+06  4.611886E+03  5.946298E+03  5.508984E+01 -1.254306E+03  3.746051E+02
       397   9  1.106256E+06  1.899006E+03  3.923713E+03 -7.400646E+03 -1.917253E+03 -6.120239E+01
       397  10  1.068659E+06 -7.771385E+03 -6.767537E+03 -7.396337E+03  2.419509E-11 -7.575990E-11
       397  11  1.081023E+06 -4.745775E+03 -3.289717E+03  5.951530E+01  1.224106E-10 -1.512988E-10
       397  12  1.093577E+06 -1.271932E+03  7.326619E+02 -7.476640E+03 -1.904043E-10  2.750971E-10
       397  13  1.099917E+06  4.036995E-01  8.712482E+02 -7.438730E+03 -1.161557E-10 -3.495155E-12
       397  14  1.099822E+06 -6.693125E+01  1.328302E+03  5.730278E+01  5.135088E-11  8.514642E-11
       397  15  1.099916E+06  3.135382E+02  2.328185E+03 -7.438643E+03  2.370606E-11  1.241325E-10
       397  16  1.131175E+06  7.772120E+03  8.509962E+03 -7.481126E+03 -1.267295E-10 -3.953760E-11
       397  17  1.118621E+06  4.611886E+03  5.946295E+03  5.509022E+01 -1.533169E-10  1.203674E-10
       397  18  1.106256E+06  1.899005E+03  3.923706E+03 -7.400646E+03  2.887500E-10 -2.784046E-11
       397  19  1.068659E+06 -7.771384E+03 -6.767536E+03 -7.396337E+03  3.113751E+02 -8.184234E+02
       397  20  1.081023E+06 -4.745774E+03 -3.289715E+03  5.951501E+01  9.793218E+02 -3.745359E+02
       397  21  1.093577E+06 -1.271931E+03  7.326670E+02 -7.476640E+03  1.647305E+03  6.127809E+01
       397  22  1.099917E+06  4.044738E-01  8.712498E+02 -7.438731E+03  4.513690E+02 -8.184551E+02
       397  23  1.099822E+06 -6.693076E+01  1.328304E+03  5.730245E+01  1.116812E+03 -3.745705E+02
       397  24  1.099916E+06  3.135391E+02  2.328191E+03 -7.438643E+03  1.782278E+03  6.124023E+01
       397  25  1.131175E+06  7.772121E+03  8.509964E+03 -7.481126E+03  5.913698E+02 -8.184867E+02
       397  26  1.118621E+06  4.611886E+03  5.946298E+03  5.508984E+01  1.254306E+03 -3.746051E+02
       397  27  1.106256E+06  1.899006E+03  3.923713E+03 -7.400646E+03  1.917253E+03  6.120239E+01
       398   1  1.125781E+06  6.303410E+03  9.314919E+03 -7.213664E+03 -2.116657E+03 -3.217412E+02
       398   2  1.137755E+06  9.020448E+03  1.436350E+04  2.953382E+00 -4.655217E+03 -7.649585E+02
       398   3  1.150871E+06  1.500535E+04  2.187849E+04 -7.876216E+03 -7.193740E+03 -1.175874E+03
       398   4  1.100128E+06 -8.881481E+01  2.974943E+03 -7.461959E+03 -2.260305E+03 -3.217016E+02
       398   5  1.099556E+06 -4.863453E+02  4.981246E+03  8.621658E+01 -4.788633E+03 -7.649311E+02
       398   6  1.100125E+06  2.382399E+03  9.447060E+03 -7.461450E+03 -7.316872E+03 -1.175860E+03
       398   7  1.074475E+06 -6.481088E+03 -3.365082E+03 -7.710245E+03 -2.403948E+03 -3.216619E+02
       398   8  1.061359E+06 -9.993247E+03 -4.401111E+03  1.694747E+02 -4.922040E+03 -7.649037E+02
       398   9  1.049382E+06 -1.024074E+04 -2.984555E+03 -7.046718E+03 -7.439995E+03 -1.175846E+03
       398  10  1.125781E+06  6.303409E+03  9.314911E+03 -7.213664E+03  1.041325E-10  2.673695E-10
       398  11  1.137755E+06  9.020441E+03  1.436346E+04  2.950515E+00  1.265907E-10  5.176331E-11
       398  12  1.150871E+06  1.500533E+04  2.187839E+04 -7.876222E+03  4.583590E-11 -1.500141E-10
       398  13  1.100128E+06 -8.881629E+01  2.974933E+03 -7.461960E+03  2.339232E-10 -9.618203E-11
       398  14  1.099556E+06 -4.863521E+02  4.981202E+03  8.621363E+01  6.553745E-11 -9.618005E-11
       398  15  1.100125E+06  2.382383E+03  9.446957E+03 -7.461457E+03  1.124103E-10  2.534985E-11
       398  16  1.074475E+06 -6.481090E+03 -3.365093E+03 -7.710245E+03 -7.285661E-11 -1.548260E-11
       398  17  1.061359E+06 -9.993254E+03 -4.401158E+03  1.694717E+02 -5.608029E-11 -1.369151E-10
       398  18  1.049382E+06 -1.024076E+04 -2.984661E+03 -7.046725E+03  5.811960E-11  1.849937E-10
       398  19  1.125781E+06  6.303410E+03  9.314919E+03 -7.213664E+03  2.116657E+03  3.217412E+02
       398  20  1.137755E+06  9.020448E+03  1.436350E+04  2.953382E+00  4.655217E+03  7.649585E+02
       398  21  1.150871E+06  1.500535E+04  2.187849E+04 -7.876216E+03  7.193740E+03  1.175874E+03
       398  22  1.100128E+06 -8.881481E+01  2.974943E+03 -7.461959E+03  2.260305E+03  3.217016E+02
       398  23  1.099556E+06 -4.863453E+02  4.981246E+03  8.621658E+01  4.788633E+03  7.649311E+02
       398  24  1.100125E+06  2.382399E+03  9.447060E+03 -7.461450E+03  7.316872E+03  1.175860E+03
       398  25  1.074475E+06 -6.481088E+03 -3.365082E+03 -7.710245E+03  2.403948E+03  3.216619E+02
       398  26  1.061359E+06 -9.993247E+03 -4.401111E+03  1.694747E+02  4.922040E+03  7.649037E+02
       398  27  1.049382E+06 -1.024074E+04 -2.984555E+03 -7.046718E+03  7.439995E+03  1.175846E+03
       399   1  1.185153E+06  2.008116E+04  3.248411E+04 -5.823304E+03 -9.030921E+03 -1.490018E+03
       399   2  1.194557E+06  2.045529E+04  4.327263E+04 -5.747021E+02 -1.927915E+04 -1.967160E+03
       399   3  1.211448E+06  4.536160E+04  6.686188E+04 -1.114180E+04 -2.952768E+04 -2.117069E+03
       399   4  1.101533E+06 -7.361841E+02  1.190866E+04 -7.621898E+03 -9.230691E+03 -1.489972E+03
       399   5  1.097791E+06 -3.625705E+03  1.951185E+04  2.858983E+02 -1.937529E+04 -1.967200E+03
       399   6  1.101519E+06  1.800106E+04  3.984540E+04 -7.622063E+03 -2.951998E+04 -2.117260E+03
       399   7  1.017918E+06 -2.155403E+04 -8.667304E+03 -9.420249E+03 -9.430434E+03 -1.489924E+03
       399   8  1.001033E+06 -2.770739E+04 -4.249614E+03  1.146365E+03 -1.947142E+04 -1.967240E+03
       399   9  9.916012E+05 -9.360332E+03  1.282802E+04 -4.102950E+03 -2.951228E+04 -2.117451E+03
       399  10  1.185153E+06  2.008113E+04  3.248395E+04 -5.823315E+03  3.341354E-10 -4.761237E-11
       399  11  1.194557E+06  2.045519E+04  4.327192E+04 -5.747326E+02  1.653763E-10  8.700480E-11
       399  12  1.211447E+06  4.536136E+04  6.686024E+04 -1.114185E+04 -1.588658E-10 -1.719549E-10
       399  13  1.101532E+06 -7.362093E+02  1.190849E+04 -7.621909E+03  2.134682E-12  9.030036E-11
       399  14  1.097790E+06 -3.625810E+03  1.951114E+04  2.858676E+02  4.943543E-11 -1.036122E-10
       399  15  1.101518E+06  1.800082E+04  3.984375E+04 -7.622113E+03  1.091962E-10 -7.133227E-11
       399  16  1.017918E+06 -2.155406E+04 -8.667475E+03 -9.420260E+03 -1.300675E-10  2.242624E-10
       399  17  1.001033E+06 -2.770750E+04 -4.250333E+03  1.146334E+03 -3.232573E-10  8.115763E-11
       399  18  9.916002E+05 -9.360570E+03  1.282638E+04 -4.103001E+03  6.453578E-11  1.174126E-10
       399  19  1.185153E+06  2.008116E+04  3.248411E+04 -5.823304E+03  9.030921E+03  1.490018E+03
       399  20  1.194557E+06  2.045529E+04  4.327263E+04 -5.747021E+02  1.927915E+04  1.967160E+03
       399  21  1.211448E+06  4.536160E+04  6.686188E+04 -1.114180E+04  2.952768E+04  2.117069E+03
       399  22  1.101533E+06 -7.361841E+02  1.190866E+04 -7.621898E+03  9.230691E+03  1.489972E+03
       399  23  1.097791E+06 -3.625705E+03  1.951185E+04  2.858983E+02  1.937529E+04  1.967200E+03
       399  24  1.101519E+06  1.800106E+04  3.984540E+04 -7.622063E+03  2.951998E+04  2.117260E+03
       399  25  1.017918E+06 -2.155403E+04 -8.667304E+03 -9.420249E+03  9.430434E+03  1.489924E+03
       399  26  1.001033E+06 -2.770739E+04 -4.249614E+03  1.146365E+03  1.947142E+04  1.967240E+03
       399  27  9.916012E+05 -9.360332E+03  1.282802E+04 -4.102950E+03  2.951228E+04  2.117451E+03
       400   1  1.256269E+06  3.043197E+04  8.401804E+04  5.219271E+03 -3.668084E+04 -2.851589E+03
       400   2  1.244899E+06  1.264219E+04  1.141330E+05 -6.825124E+03 -7.847097E+04 -3.532873E+03
       400   3  1.284882E+06  1.782978E+05  2.172968E+05 -3.608481E+04 -1.202626E+05 -1.265452E+03
       400   4  1.111254E+06 -5.661822E+03  4.839059E+04 -7.917522E+03 -3.734682E+04 -2.850920E+03
       400   5  1.085615E+06 -2.698006E+04  7.507962E+04  6.631218E+02 -7.820712E+04 -3.533812E+03
       400   6  1.111181E+06  1.350096E+05  1.741861E+05 -7.970560E+03 -1.190678E+05 -1.270439E+03
       400   7  9.662588E+05 -4.175652E+04  1.276168E+04 -2.105125E+04 -3.801264E+04 -2.850222E+03
       400   8  9.263543E+05 -6.660398E+04  3.602444E+04  8.149445E+03 -7.794334E+04 -3.534745E+03
       400   9  9.375085E+05  9.172212E+04  1.310737E+05  2.013583E+04 -1.178735E+05 -1.275320E+03
       400  10  1.256268E+06  3.043160E+04  8.401550E+04  5.219187E+03  1.177038E-10 -6.190679E-14
       400  11  1.244892E+06  1.264053E+04  1.141214E+05 -6.825347E+03  1.842476E-11  3.230781E-13
       400  12  1.284866E+06  1.782939E+05  2.172697E+05 -3.608493E+04 -1.345681E-11 -2.255134E-11
       400  13  1.111253E+06 -5.662204E+03  4.838795E+04 -7.917608E+03  9.258289E-11 -2.840254E-11
       400  14  1.085608E+06 -2.698171E+04  7.506813E+04  6.628993E+02  8.611053E-11 -6.209216E-11
       400  15  1.111165E+06  1.350058E+05  1.741595E+05 -7.970682E+03 -2.289585E-10 -8.357502E-11
       400  16  9.662573E+05 -4.175692E+04  1.275895E+04 -2.105133E+04  2.399167E-10  1.191543E-10
       400  17  9.263478E+05 -6.660562E+04  3.601302E+04  8.149223E+03 -4.249158E-10 -1.595694E-10
       400  18  9.374936E+05  9.171839E+04  1.310476E+05  2.013571E+04 -3.427400E-10  6.444873E-11
       400  19  1.256269E+06  3.043197E+04  8.401804E+04  5.219271E+03  3.668084E+04  2.851589E+03
       400  20  1.244899E+06  1.264219E+04  1.141330E+05 -6.825124E+03  7.847097E+04  3.532873E+03
       400  21  1.284882E+06  1.782978E+05  2.172968E+05 -3.608481E+04  1.202626E+05  1.265452E+03
       400  22  1.111254E+06 -5.661822E+03  4.839059E+04 -7.917522E+03  3.734682E+04  2.850920E+03
       400  23  1.085615E+06 -2.698006E+04  7.507962E+04  6.631218E+02  7.820712E+04  3.533812E+03
       400  24  1.111181E+06  1.350096E+05  1.741861E+05 -7.970560E+03  1.190678E+05  1.270439E+03
       400  25  9.662588E+05 -4.175652E+04  1.276168E+04 -2.105125E+04  3.801264E+04  2.850222E+03
       400  26  9.263543E+05 -6.660398E+04  3.602444E+04  8.149445E+03  7.794334E+04  3.534745E+03
       400  27  9.375085E+05  9.172212E+04  1.310737E+05  2.013583E+04  1.178735E+05  1.275320E+03
       401   1  7.073976E+04 -6.248915E+04 -5.447938E+04 -6.501159E+03  2.062894E+04  2.522599E+03
       401   2  8.652549E+04 -8.851507E+04 -6.752295E+04  2.000504E+03  1.455670E+04  7.348927E+03
       401   3  1.122566E+05 -7.923756E+04 -6.772084E+04 -1.432407E+04  8.485533E+03  6.276051E+03
       401   4  4.259400E+05  2.618018E+04  3.378488E+04 -1.186462E+04  2.306484E+04  2.523167E+03
       401   5  4.208124E+05 -5.263943E+03  1.453349E+04  5.519823E+02  1.514799E+04  7.348658E+03
       401   6  4.259449E+05 -1.094584E+03  9.403005E+03 -1.185678E+04  7.232454E+03  6.276262E+03
       401   7  7.812547E+05  1.148402E+05  1.220397E+05 -1.723116E+04  2.550213E+04  2.523691E+03
       401   8  7.552010E+05  7.797890E+04  9.658172E+04 -8.973218E+02  1.573959E+04  7.348386E+03
       401   9  7.397227E+05  7.704111E+04  8.651962E+04 -9.388241E+03  5.978744E+03  6.276464E+03
       401  10  7.073930E+04 -6.248927E+04 -5.448019E+04 -6.501201E+03 -2.622477E-10  1.166950E-10
       401  11  8.652525E+04 -8.851519E+04 -6.752345E+04  2.000418E+03  7.234758E-11 -6.958894E-11
       401  12  1.122565E+05 -7.923762E+04 -6.772105E+04 -1.432411E+04 -1.743476E-11 -1.145896E-10
       401  13  4.259394E+05  2.618003E+04  3.378387E+04 -1.186467E+04 -3.364503E-11 -1.303991E-10
       401  14  4.208121E+05 -5.264063E+03  1.453295E+04  5.518927E+02  6.732361E-11 -4.744413E-11
       401  15  4.259449E+05 -1.094640E+03  9.402832E+03 -1.185682E+04  2.128077E-11 -2.174083E-11
       401  16  7.812540E+05  1.148400E+05  1.220385E+05 -1.723122E+04  1.886786E-10  2.302097E-10
       401  17  7.552007E+05  7.797878E+04  9.658115E+04 -8.974149E+02 -3.104576E-10  5.565808E-11
       401  18  7.397227E+05  7.704106E+04  8.651948E+04 -9.388272E+03 -1.101386E-10  1.887612E-11
       401  19  7.073976E+04 -6.248915E+04 -5.447938E+04 -6.501159E+03 -2.062894E+04 -2.522599E+03
       401  20  8.652549E+04 -8.851507E+04 -6.752295E+04  2.000504E+03 -1.455670E+04 -7.348927E+03
       401  21  1.122566E+05 -7.923756E+04 -6.772084E+04 -1.432407E+04 -8.485533E+03 -6.276051E+03
       401  22  4.259400E+05  2.618018E+04  3.378488E+04 -1.186462E+04 -2.306484E+04 -2.523167E+03
       401  23  4.208124E+05 -5.263943E+03  1.453349E+04  5.519823E+02 -1.514799E+04 -7.348658E+03
       401  24  4.259449E+05 -1.094584E+03  9.403005E+03 -1.185678E+04 -7.232454E+03 -6.276262E+03
       401  25  7.812547E+05  1.148402E+05  1.220397E+05 -1.723116E+04 -2.550213E+04 -2.523691E+03
       401  26  7.552010E+05  7.797890E+04  9.658172E+04 -8.973218E+02 -1.573959E+04 -7.348386E+03
       401  27  7.397227E+05  7.704111E+04  8.651962E+04 -9.388241E+03 -5.978744E+03 -6.276464E+03
       402   1  1.621952E+05 -6.175342E+04 -5.668775E+04 -1.084001E+04  5.620577E+03  4.966154E+03
       402   2  1.811205E+05 -6.102590E+04 -5.571733E+04  5.338194E+02  3.857352E+03  4.910218E+03
       402   3  2.015963E+05 -5.553902E+04 -5.238243E+04 -1.180098E+04  2.093223E+03  4.181872E+03
       402   4  4.240254E+05  3.482619E+03  7.740078E+03 -1.160893E+04  5.709391E+03  4.965973E+03
       402   5  4.232328E+05 -7.165539E+02  3.793244E+03  2.441764E+02  3.735598E+03  4.910178E+03
       402   6  4.240259E+05 -1.208718E+02  2.356287E+03 -1.161075E+04  1.760955E+03  4.182087E+03
       402   7  6.859181E+05  6.871356E+04  7.216285E+04 -1.237817E+04  5.798242E+03  4.965792E+03
       402   8  6.653984E+05  5.958844E+04  6.329951E+04 -4.557059E+01  3.613797E+03  4.910139E+03
       402   9  6.465005E+05  5.529360E+04  5.709136E+04 -1.142044E+04  1.428568E+03  4.182303E+03
       402  10  1.621951E+05 -6.175346E+04 -5.668786E+04 -1.084003E+04  2.590138E-10 -7.411196E-11
       402  11  1.811204E+05 -6.102593E+04 -5.571741E+04  5.338041E+02  2.954788E-10  2.058002E-10
       402  12  2.015963E+05 -5.553904E+04 -5.238247E+04 -1.180098E+04  2.466793E-10  5.061247E-10
       402  13  4.240254E+05  3.482583E+03  7.739971E+03 -1.160895E+04 -6.365081E-11  1.903596E-12
       402  14  4.232327E+05 -7.165836E+02  3.793172E+03  2.441616E+02  1.787014E-11 -5.998616E-10
       402  15  4.240259E+05 -1.208915E+02  2.356248E+03 -1.161075E+04  8.098815E-11  1.682804E-10
       402  16  6.859180E+05  6.871353E+04  7.216274E+04 -1.237819E+04 -1.657937E-11 -1.004080E-10
       402  17  6.653984E+05  5.958841E+04  6.329944E+04 -4.558488E+01 -2.260506E-10 -3.350544E-10
       402  18  6.465005E+05  5.529358E+04  5.709132E+04 -1.142044E+04  3.542496E-10 -4.385954E-11
       402  19  1.621952E+05 -6.175342E+04 -5.668775E+04 -1.084001E+04 -5.620577E+03 -4.966154E+03
       402  20  1.811205E+05 -6.102590E+04 -5.571733E+04  5.338194E+02 -3.857352E+03 -4.910218E+03
       402  21  2.015963E+05 -5.553902E+04 -5.238243E+04 -1.180098E+04 -2.093223E+03 -4.181872E+03
       402  22  4.240254E+05  3.482619E+03  7.740078E+03 -1.160893E+04 -5.709391E+03 -4.965973E+03
       402  23  4.232328E+05 -7.165539E+02  3.793244E+03  2.441764E+02 -3.735598E+03 -4.910178E+03
       402  24  4.240259E+05 -1.208718E+02  2.356287E+03 -1.161075E+04 -1.760955E+03 -4.182087E+03
       402  25  6.859181E+05  6.871356E+04  7.216285E+04 -1.237817E+04 -5.798242E+03 -4.965792E+03
       402  26  6.653984E+05  5.958844E+04  6.329951E+04 -4.557059E+01 -3.613797E+03 -4.910139E+03
       402  27  6.465005E+05  5.529360E+04  5.709136E+04 -1.142044E+04 -1.428568E+03 -4.182303E+03
       403   1  2.510277E+05 -4.254051E+04 -4.052795E+04 -1.121636E+04  1.557097E+03  3.680461E+03
       403   2  2.699235E+05 -3.838343E+04 -3.672841E+04  1.690149E+02  1.043134E+03  3.076410E+03
       403   3  2.890597E+05 -3.353868E+04 -3.242230E+04 -1.133959E+04  5.287732E+02  2.404569E+03
       403   4  4.237338E+05  4.710118E+02  1.884904E+03 -1.142875E+04  1.379239E+03  3.680581E+03
       403   5  4.236118E+05 -1.005997E+02  1.054095E+03  1.782089E+01  8.439847E+02  3.076597E+03
       403   6  4.237337E+05  1.909515E+01  7.445448E+02 -1.142923E+04  3.083479E+02  2.404831E+03
       403   7  5.964671E+05  4.348032E+04  4.429557E+04 -1.164120E+04  1.201332E+03  3.680701E+03
       403   8  5.773217E+05  3.818048E+04  3.883486E+04 -1.334042E+02  6.447860E+02  3.076784E+03
       403   9  5.584241E+05  3.357552E+04  3.391005E+04 -1.151888E+04  8.787494E+01  2.405094E+03
       403  10  2.510277E+05 -4.254053E+04 -4.052798E+04 -1.121636E+04  8.691390E-10 -1.609339E-11
       403  11  2.699235E+05 -3.838344E+04 -3.672843E+04  1.690123E+02  1.373052E-10  1.600384E-10
       403  12  2.890597E+05 -3.353869E+04 -3.242231E+04 -1.133959E+04  6.502294E-11 -5.960871E-10
       403  13  4.237338E+05  4.709967E+02  1.884875E+03 -1.142876E+04 -2.650130E-10  6.724647E-11
       403  14  4.236118E+05 -1.006101E+02  1.054075E+03  1.781880E+01 -3.165810E-10  5.994269E-10
       403  15  4.237337E+05  1.908892E+01  7.445337E+02 -1.142923E+04 -2.137780E-10  1.105966E-09
       403  16  5.964670E+05  4.348031E+04  4.429554E+04 -1.164120E+04 -6.131105E-10  1.711957E-13
       403  17  5.773217E+05  3.818047E+04  3.883484E+04 -1.334058E+02  3.571166E-10 -7.977239E-10
       403  18  5.584241E+05  3.357551E+04  3.391004E+04 -1.151888E+04  6.978065E-10 -1.760116E-10
       403  19  2.510277E+05 -4.254051E+04 -4.052795E+04 -1.121636E+04 -1.557097E+03 -3.680461E+03
       403  20  2.699235E+05 -3.838343E+04 -3.672841E+04  1.690149E+02 -1.043134E+03 -3.076410E+03
       403  21  2.890597E+05 -3.353868E+04 -3.242230E+04 -1.133959E+04 -5.287732E+02 -2.404569E+03
       403  22  4.237338E+05  4.710118E+02  1.884904E+03 -1.142875E+04 -1.379239E+03 -3.680581E+03
       403  23  4.236118E+05 -1.005997E+02  1.054095E+03  1.782089E+01 -8.439847E+02 -3.076597E+03
       403  24  4.237337E+05  1.909515E+01  7.445448E+02 -1.142923E+04 -3.083479E+02 -2.404831E+03
       403  25  5.964671E+05  4.348032E+04  4.429557E+04 -1.164120E+04 -1.201332E+03 -3.680701E+03
       403  26  5.773217E+05  3.818048E+04  3.883486E+04 -1.334042E+02 -6.447860E+02 -3.076784E+03
       403  27  5.584241E+05  3.357552E+04  3.391005E+04 -1.151888E+04 -8.787494E+01 -2.405094E+03
       404   1  3.373734E+05 -2.140573E+04 -2.049578E+04 -1.122304E+04  3.839749E+02  2.006321E+03
       404   2  3.559967E+05 -1.688169E+04 -1.600791E+04 -3.319355E+01  6.962610E+01  1.352045E+03
       404   3  3.746453E+05 -1.214659E+04 -1.127701E+04 -1.127795E+04 -2.448663E+02  6.950302E+02
       404   4  4.236886E+05  8.271577E+01  6.663797E+02 -1.132700E+04  1.800613E+02  2.006589E+03
       404   5  4.236757E+05 -2.395735E+01  6.299762E+02 -1.097762E+02 -1.351768E+02  1.352334E+03
       404   6  4.236884E+05  8.066281E+01  8.372919E+02 -1.132700E+04 -4.505491E+02  6.953425E+02
       404   7  5.100105E+05  2.157061E+04  2.182800E+04 -1.143098E+04 -2.388053E+01  2.006858E+03
       404   8  4.913590E+05  1.683343E+04  1.726753E+04 -1.863657E+02 -3.400019E+02  1.352624E+03
       404   9  4.727338E+05  1.230774E+04  1.295142E+04 -1.137605E+04 -6.562482E+02  6.956548E+02
       404  10  3.373734E+05 -2.140574E+04 -2.049579E+04 -1.122304E+04  6.691290E-10  3.082686E-11
       404  11  3.559967E+05 -1.688169E+04 -1.600792E+04 -3.319363E+01  3.929201E-10  4.885049E-11
       404  12  3.746453E+05 -1.214659E+04 -1.127701E+04 -1.127795E+04  4.824708E-10 -4.472628E-10
       404  13  4.236886E+05  8.271144E+01  6.663721E+02 -1.132700E+04 -1.809014E-10 -9.307603E-10
       404  14  4.236757E+05 -2.395932E+01  6.299727E+02 -1.097760E+02 -1.440149E-10  4.076105E-10
       404  15  4.236884E+05  8.066223E+01  8.372906E+02 -1.132700E+04  1.698259E-10 -1.014220E-09
       404  16  5.100105E+05  2.157061E+04  2.182799E+04 -1.143098E+04 -5.630816E-10  4.345845E-10
       404  17  4.913590E+05  1.683343E+04  1.726752E+04 -1.863653E+02  6.734203E-10 -2.548829E-10
       404  18  4.727338E+05  1.230774E+04  1.295142E+04 -1.137605E+04  2.010648E-10 -1.606239E-09
       404  19  3.373734E+05 -2.140573E+04 -2.049578E+04 -1.122304E+04 -3.839749E+02 -2.006321E+03
       404  20  3.559967E+05 -1.688169E+04 -1.600791E+04 -3.319355E+01 -6.962610E+01 -1.352045E+03
       404  21  3.746453E+05 -1.214659E+04 -1.127701E+04 -1.127795E+04  2.448663E+02 -6.950302E+02
       404  22  4.236886E+05  8.271577E+01  6.663797E+02 -1.132700E+04 -1.800613E+02 -2.006589E+03
       404  23  4.236757E+05 -2.395735E+01  6.299762E+02 -1.097762E+02  1.351768E+02 -1.352334E+03
       404  24  4.236884E+05  8.066281E+01  8.372919E+02 -1.132700E+04  4.505491E+02 -6.953425E+02
       404  25  5.100105E+05  2.157061E+04  2.182800E+04 -1.143098E+04  2.388053E+01 -2.006858E+03
       404  26  4.913590E+05  1.683343E+04  1.726753E+04 -1.863657E+02  3.400019E+02 -1.352624E+03
       404  27  4.727338E+05  1.230774E+04  1.295142E+04 -1.137605E+04  6.562482E+02 -6.956548E+02
       405   1  4.224404E+05 -2.820162E+02  7.574281E+02 -1.125726E+04 -4.128638E+02  3.114245E+02
       405   2  4.409032E+05  4.218542E+03  5.859761E+03 -1.595867E+02 -1.224451E+03 -3.436565E+02
       405   3  4.595400E+05  9.326461E+03  1.162456E+04 -1.139213E+04 -2.036033E+03 -9.932204E+02
       405   4  4.237220E+05  2.578251E+01  1.014582E+03 -1.130407E+04 -6.185969E+02  3.117432E+02
       405   5  4.236353E+05 -8.236030E+01  1.615043E+03 -1.386413E+02 -1.428445E+03 -3.433464E+02
       405   6  4.237218E+05  4.165261E+02  2.876747E+03 -1.130347E+04 -2.238263E+03 -9.929177E+02
       405   7  4.250036E+05  3.335812E+02  1.271736E+03 -1.135087E+04 -8.243304E+02  3.120619E+02
       405   8  4.063677E+05 -4.383285E+03 -2.629696E+03 -1.176963E+02 -1.632433E+03 -3.430362E+02
       405   9  3.879047E+05 -8.493503E+03 -5.871164E+03 -1.121481E+04 -2.440483E+03 -9.926151E+02
       405  10  4.224404E+05 -2.820164E+02  7.574276E+02 -1.125726E+04  6.861044E-11  8.209592E-10
       405  11  4.409032E+05  4.218542E+03  5.859758E+03 -1.595871E+02  3.962395E-11  2.404647E-09
       405  12  4.595400E+05  9.326459E+03  1.162455E+04 -1.139214E+04  1.797846E-09 -1.743399E-09
       405  13  4.237220E+05  2.578230E+01  1.014581E+03 -1.130406E+04 -2.650594E-10 -5.332673E-11
       405  14  4.236353E+05 -8.236098E+01  1.615039E+03 -1.386417E+02  4.756724E-11 -7.141784E-10
       405  15  4.237218E+05  4.165237E+02  2.876735E+03 -1.130347E+04 -4.268157E-10 -2.711577E-10
       405  16  4.250036E+05  3.335809E+02  1.271734E+03 -1.135087E+04  4.494728E-10 -8.134919E-11
       405  17  4.063677E+05 -4.383286E+03 -2.629702E+03 -1.176968E+02  8.615659E-10 -2.744924E-10
       405  18  3.879047E+05 -8.493506E+03 -5.871177E+03 -1.121481E+04 -6.414389E-10 -5.846728E-10
       405  19  4.224404E+05 -2.820162E+02  7.574281E+02 -1.125726E+04  4.128638E+02 -3.114245E+02
       405  20  4.409032E+05  4.218542E+03  5.859761E+03 -1.595867E+02  1.224451E+03  3.436565E+02
       405  21  4.595400E+05  9.326461E+03  1.162456E+04 -1.139213E+04  2.036033E+03  9.932204E+02
       405  22  4.237220E+05  2.578251E+01  1.014582E+03 -1.130407E+04  6.185969E+02 -3.117432E+02
       405  23  4.236353E+05 -8.236030E+01  1.615043E+03 -1.386413E+02  1.428445E+03  3.433464E+02
       405  24  4.237218E+05  4.165261E+02  2.876747E+03 -1.130347E+04  2.238263E+03  9.929177E+02
       405  25  4.250036E+05  3.335812E+02  1.271736E+03 -1.135087E+04  8.243304E+02 -3.120619E+02
       405  26  4.063677E+05 -4.383285E+03 -2.629696E+03 -1.176963E+02  1.632433E+03  3.430362E+02
       405  27  3.879047E+05 -8.493503E+03 -5.871164E+03 -1.121481E+04  2.440483E+03  9.926151E+02
       406   1  5.077287E+05  2.078357E+04  2.433085E+04 -1.113757E+04 -2.613814E+03 -1.385465E+03
       406   2  5.257871E+05  2.491831E+04  3.138676E+04 -2.704800E+02 -5.777550E+03 -2.045897E+03
       406   3  5.452422E+05  3.318012E+04  4.152294E+04 -1.197866E+04 -8.941110E+03 -2.646519E+03
       406   4  4.239912E+05 -8.246770E+01  3.689820E+03 -1.135972E+04 -2.830486E+03 -1.385154E+03
       406   5  4.232940E+05 -6.084272E+02  6.194254E+03 -6.997574E+01 -5.975088E+03 -2.045648E+03
       406   6  4.239902E+05  2.989789E+03  1.176610E+04 -1.135572E+04 -9.119419E+03 -2.646330E+03
       406   7  3.402602E+05 -2.094902E+04 -1.695173E+04 -1.158183E+04 -3.047129E+03 -1.384844E+03
       406   8  3.208105E+05 -2.613595E+04 -1.899903E+04  1.304987E+02 -6.172594E+03 -2.045399E+03
       406   9  3.027516E+05 -2.720163E+04 -1.799182E+04 -1.073291E+04 -9.297694E+03 -2.646142E+03
       406  10  5.077287E+05  2.078356E+04  2.433083E+04 -1.113757E+04  1.010460E-09 -1.949016E-09
       406  11  5.257871E+05  2.491830E+04  3.138669E+04 -2.704895E+02  3.485136E-10  2.811760E-10
       406  12  5.452421E+05  3.318009E+04  4.152278E+04 -1.197868E+04  3.748735E-10  4.414106E-10
       406  13  4.239912E+05 -8.247191E+01  3.689801E+03 -1.135972E+04  1.920802E-10 -2.432906E-10
       406  14  4.232940E+05 -6.084413E+02  6.194179E+03 -6.998558E+01  1.337131E-11 -6.246151E-10
       406  15  4.239901E+05  2.989760E+03  1.176593E+04 -1.135574E+04  5.355738E-10 -8.128013E-11
       406  16  3.402601E+05 -2.094903E+04 -1.695175E+04 -1.158183E+04 -4.588145E-10 -3.957762E-10
       406  17  3.208105E+05 -2.613596E+04 -1.899911E+04  1.304885E+02  2.731546E-10  2.047481E-09
       406  18  3.027515E+05 -2.720166E+04 -1.799199E+04 -1.073293E+04  4.528291E-10  2.204080E-11
       406  19  5.077287E+05  2.078357E+04  2.433085E+04 -1.113757E+04  2.613814E+03  1.385465E+03
       406  20  5.257871E+05  2.491831E+04  3.138676E+04 -2.704800E+02  5.777550E+03  2.045897E+03
       406  21  5.452422E+05  3.318012E+04  4.152294E+04 -1.197866E+04  8.941110E+03  2.646519E+03
       406  22  4.239912E+05 -8.246770E+01  3.689820E+03 -1.135972E+04  2.830486E+03  1.385154E+03
       406  23  4.232940E+05 -6.084272E+02  6.194254E+03 -6.997574E+01  5.975088E+03  2.045648E+03
       406  24  4.239902E+05  2.989789E+03  1.176610E+04 -1.135572E+04  9.119419E+03  2.646330E+03
       406  25  3.402602E+05 -2.094902E+04 -1.695173E+04 -1.158183E+04  3.047129E+03  1.384844E+03
       406  26  3.208105E+05 -2.613595E+04 -1.899903E+04  1.304987E+02  6.172594E+03  2.045399E+03
       406  27  3.027516E+05 -2.720163E+04 -1.799182E+04 -1.073291E+04  9.297694E+03  2.646142E+03
       407   1  5.958434E+05  4.147067E+04  5.669767E+04 -9.397172E+03 -1.119348E+04 -3.123487E+03
       407   2  6.104148E+05  4.262554E+04  7.083429E+04 -1.113635E+03 -2.401317E+04 -3.822062E+03
       407   3  6.343595E+05  7.442692E+04  1.009820E+05 -1.599313E+04 -3.683230E+04 -3.949888E+03
       407   4  4.257538E+05 -8.933774E+02  1.483843E+04 -1.149616E+04 -1.150315E+04 -3.123129E+03
       407   5  4.210785E+05 -4.527741E+03  2.430892E+04  9.565647E+01 -2.414124E+04 -3.822049E+03
       407   6  4.257481E+05  2.245814E+04  4.966816E+04 -1.147594E+04 -3.677837E+04 -3.950278E+03
       407   7  2.556904E+05 -4.325956E+04 -2.702293E+04 -1.359457E+04 -1.181274E+04 -3.122769E+03
       407   8  2.317748E+05 -5.168368E+04 -2.221909E+04  1.304587E+03 -2.426927E+04 -3.822036E+03
       407   9  2.171763E+05 -2.951379E+04 -1.648864E+03 -6.960264E+03 -3.672446E+04 -3.950668E+03
       407  10  5.958432E+05  4.147063E+04  5.669742E+04 -9.397200E+03  2.952220E-10  9.829532E-10
       407  11  6.104141E+05  4.262537E+04  7.083318E+04 -1.113709E+03  1.221284E-10 -1.450840E-09
       407  12  6.343580E+05  7.442654E+04  1.009794E+05 -1.599325E+04 -1.332682E-10  1.515864E-10
       407  13  4.257536E+05 -8.934233E+02  1.483817E+04 -1.149619E+04 -1.428442E-10  4.577414E-10
       407  14  4.210778E+05 -4.527913E+03  2.430779E+04  9.558217E+01 -2.849066E-10  1.151201E-09
       407  15  4.257466E+05  2.245776E+04  4.966559E+04 -1.147606E+04  1.232576E-10 -4.906702E-10
       407  16  2.556903E+05 -4.325961E+04 -2.702321E+04 -1.359460E+04 -4.078884E-10 -2.400983E-11
       407  17  2.317741E+05 -5.168385E+04 -2.222023E+04  1.304512E+03  4.823461E-10 -4.337776E-11
       407  18  2.171748E+05 -2.951417E+04 -1.651427E+03 -6.960381E+03  7.401110E-10  4.549243E-10
       407  19  5.958434E+05  4.147067E+04  5.669767E+04 -9.397172E+03  1.119348E+04  3.123487E+03
       407  20  6.104148E+05  4.262554E+04  7.083429E+04 -1.113635E+03  2.401317E+04  3.822062E+03
       407  21  6.343595E+05  7.442692E+04  1.009820E+05 -1.599313E+04  3.683230E+04  3.949888E+03
       407  22  4.257538E+05 -8.933774E+02  1.483843E+04 -1.149616E+04  1.150315E+04  3.123129E+03
       407  23  4.210785E+05 -4.527741E+03  2.430892E+04  9.565647E+01  2.414124E+04  3.822049E+03
       407  24  4.257481E+05  2.245814E+04  4.966816E+04 -1.147594E+04  3.677837E+04  3.950278E+03
       407  25  2.556904E+05 -4.325956E+04 -2.702293E+04 -1.359457E+04  1.181274E+04  3.122769E+03
       407  26  2.317748E+05 -5.168368E+04 -2.221909E+04  1.304587E+03  2.426927E+04  3.822036E+03
       407  27  2.171763E+05 -2.951379E+04 -1.648864E+03 -6.960264E+03  3.672446E+04  3.950668E+03
       408   1  6.970053E+05  5.745784E+04  1.240116E+05  4.509760E+03 -4.544695E+04 -5.115111E+03
       408   2  6.849984E+05  3.583671E+04  1.620803E+05 -9.111468E+03 -9.795267E+04 -6.100116E+03
       408   3  7.372199E+05  2.430773E+05  2.915651E+05 -4.680560E+04 -1.504588E+05 -2.083045E+03
       408   4  4.378913E+05 -7.042152E+03  6.032731E+04 -1.170831E+04 -4.653300E+04 -5.113288E+03
       408   5  4.058857E+05 -3.365982E+04  9.359377E+04  3.457200E+02 -9.745779E+04 -6.101980E+03
       408   6  4.378617E+05  1.683626E+05  2.172082E+05 -1.167141E+04 -1.483811E+05 -2.091945E+03
       408   7  1.788389E+05 -7.154613E+04 -3.361781E+03 -2.791959E+04 -4.761860E+04 -5.111407E+03
       408   8  1.268441E+05 -1.031618E+05  2.510152E+04  9.798659E+03 -9.696312E+04 -6.103828E+03
       408   9  1.385874E+05  9.364572E+04  1.428452E+05  2.344584E+04 -1.463044E+05 -2.100615E+03
       408  10  6.970030E+05  5.745726E+04  1.240077E+05  4.509573E+03  7.374033E-10 -8.214235E-10
       408  11  6.849881E+05  3.583410E+04  1.620623E+05 -9.111949E+03  1.261709E-10 -7.161778E-10
       408  12  7.371956E+05  2.430713E+05  2.915226E+05 -4.680585E+04 -2.860838E-11 -3.507201E-10
       408  13  4.378889E+05 -7.042760E+03  6.032320E+04 -1.170850E+04 -1.143409E-10 -8.829123E-10
       408  14  4.058755E+05 -3.366241E+04  9.357586E+04  3.452412E+02  2.090032E-10 -1.364058E-09
       408  15  4.378380E+05  1.683567E+05  2.171668E+05 -1.167166E+04  2.484955E-10  6.256959E-11
       408  16  1.788364E+05 -7.154677E+04 -3.366090E+03 -2.791978E+04 -4.501739E-10  3.356046E-11
       408  17  1.268340E+05 -1.031644E+05  2.508378E+04  9.798183E+03 -1.135890E-10 -6.252269E-10
       408  18  1.385644E+05  9.363997E+04  1.428050E+05  2.344559E+04  1.257217E-10 -3.687705E-10
       408  19  6.970053E+05  5.745784E+04  1.240116E+05  4.509760E+03  4.544695E+04  5.115111E+03
       408  20  6.849984E+05  3.583671E+04  1.620803E+05 -9.111468E+03  9.795267E+04  6.100116E+03
       408  21  7.372199E+05  2.430773E+05  2.915651E+05 -4.680560E+04  1.504588E+05  2.083045E+03
       408  22  4.378913E+05 -7.042152E+03  6.032731E+04 -1.170831E+04  4.653300E+04  5.113288E+03
       408  23  4.058857E+05 -3.365982E+04  9.359377E+04  3.457200E+02  9.745779E+04  6.101980E+03
       408  24  4.378617E+05  1.683626E+05  2.172082E+05 -1.167141E+04  1.483811E+05  2.091945E+03
       408  25  1.788389E+05 -7.154613E+04 -3.361781E+03 -2.791959E+04  4.761860E+04  5.111407E+03
       408  26  1.268441E+05 -1.031618E+05  2.510152E+04  9.798659E+03  9.696312E+04  6.103828E+03
       408  27  1.385874E+05  9.364572E+04  1.428452E+05  2.344584E+04  1.463044E+05  2.100615E+03
       409   1 -1.331249E+06 -9.534998E+04 -1.372606E+05 -2.587779E+04 -1.253630E+05 -1.382603E+03
       409   2 -1.311649E+06  7.533601E+04 -3.406964E+04 -8.432587E+03 -8.284289E+04 -4.114020E+03
       409   3 -1.346334E+06  5.076294E+04 -7.389877E+03  1.806736E+04 -4.032418E+04 -3.635090E+03
       409   4 -1.525617E+06 -1.439663E+05 -1.856503E+05  4.065614E+03 -1.266849E+05 -1.388692E+03
       409   5 -1.498325E+06  2.876523E+04 -7.997896E+04 -4.643115E+02 -8.317783E+04 -4.115229E+03
       409   6 -1.525507E+06  6.032737E+03 -5.152255E+04  4.060075E+03 -3.967152E+04 -3.634010E+03
       409   7 -1.719948E+06 -1.925821E+05 -2.340423E+05  3.399962E+04 -1.280064E+05 -1.394910E+03
       409   8 -1.684969E+06 -1.780792E+04 -1.258908E+05  7.501558E+03 -8.351266E+04 -4.116446E+03
       409   9 -1.704650E+06 -3.869912E+04 -9.565750E+04 -9.943157E+03 -3.901904E+04 -3.632960E+03
       409  10 -1.331266E+06 -9.535422E+04 -1.372902E+05 -2.587793E+04 -8.801454E-10  2.469608E-10
       409  11 -1.311656E+06  7.533415E+04 -3.408260E+04 -8.432862E+03  1.006418E-10  6.243529E-10
       409  12 -1.346336E+06  5.076248E+04 -7.392964E+03  1.806724E+04  1.149536E-09  1.390139E-09
       409  13 -1.525634E+06 -1.439706E+05 -1.856805E+05  4.065472E+03 -2.018237E-10  1.131609E-11
       409  14 -1.498332E+06  2.876334E+04 -7.999202E+04 -4.645873E+02  3.863146E-10 -1.348288E-09
       409  15 -1.525509E+06  6.032299E+03 -5.152554E+04  4.059959E+03  1.669193E-10 -1.577924E-09
       409  16 -1.719966E+06 -1.925865E+05 -2.340732E+05  3.399947E+04  6.842509E-10 -3.524027E-11
       409  17 -1.684976E+06 -1.780982E+04 -1.259040E+05  7.501281E+03  9.137983E-11  2.464237E-10
       409  18 -1.704652E+06 -3.869955E+04 -9.566039E+04 -9.943272E+03 -1.229067E-09  3.823076E-10
       409  19 -1.331249E+06 -9.534998E+04 -1.372606E+05 -2.587779E+04  1.253630E+05  1.382603E+03
       409  20 -1.311649E+06  7.533601E+04 -3.406964E+04 -8.432587E+03  8.284289E+04  4.114020E+03
       409  21 -1.346334E+06  5.076294E+04 -7.389877E+03  1.806736E+04  4.032418E+04  3.635090E+03
       409  22 -1.525617E+06 -1.439663E+05 -1.856503E+05  4.065614E+03  1.266849E+05  1.388692E+03
       409  23 -1.498325E+06  2.876523E+04 -7.997896E+04 -4.643115E+02  8.317783E+04  4.115229E+03
       409  24 -1.525507E+06  6.032737E+03 -5.152255E+04  4.060075E+03  3.967152E+04  3.634010E+03
       409  25 -1.719948E+06 -1.925821E+05 -2.340423E+05  3.399962E+04  1.280064E+05  1.394910E+03
       409  26 -1.684969E+06 -1.780792E+04 -1.258908E+05  7.501558E+03  8.351266E+04  4.116446E+03
       409  27 -1.704650E+06 -3.869912E+04 -9.565750E+04 -9.943157E+03  3.901904E+04  3.632960E+03
       410   1 -1.358357E+06  1.993771E+04 -3.759906E+03  9.454723E+02 -3.129073E+04 -2.979288E+03
       410   2 -1.364052E+06  4.058924E+04  1.547759E+04 -2.016396E+03 -2.062967E+04 -3.004847E+03
       410   3 -1.377621E+06  3.513353E+04  2.124664E+04  6.632220E+03 -9.969205E+03 -2.616391E+03
       410   4 -1.515182E+06 -1.920647E+04 -4.242605E+04  4.639333E+03 -3.135931E+04 -2.979557E+03
       410   5 -1.511223E+06  3.860884E+03 -2.076592E+04 -1.170915E+03 -2.057175E+04 -3.004888E+03
       410   6 -1.515163E+06  7.954765E+02 -1.266472E+04  4.629583E+03 -9.784631E+03 -2.616260E+03
       410   7 -1.671985E+06 -5.835244E+04 -8.109401E+04  8.332254E+03 -3.142787E+04 -2.979827E+03
       410   8 -1.658374E+06 -3.286909E+04 -5.701103E+04 -3.256371E+02 -2.051385E+04 -3.004929E+03
       410   9 -1.652687E+06 -3.354397E+04 -4.657748E+04  2.627388E+03 -9.600098E+03 -2.616129E+03
       410  10 -1.358358E+06  1.993744E+04 -3.761767E+03  9.453972E+02  6.516451E-10  1.704271E-09
       410  11 -1.364052E+06  4.058912E+04  1.547678E+04 -2.016446E+03 -2.053297E-09  1.598588E-09
       410  12 -1.377621E+06  3.513349E+04  2.124644E+04  6.632199E+03 -2.643894E-09 -5.267303E-10
       410  13 -1.515183E+06 -1.920674E+04 -4.242792E+04  4.639257E+03 -3.289678E-11 -1.056398E-09
       410  14 -1.511223E+06  3.860760E+03 -2.076673E+04 -1.170964E+03  1.754474E-11 -1.363176E-09
       410  15 -1.515163E+06  7.954433E+02 -1.266492E+04  4.629562E+03  2.700213E-10 -2.687121E-09
       410  16 -1.671986E+06 -5.835271E+04 -8.109589E+04  8.332179E+03 -1.103181E-09  1.758785E-09
       410  17 -1.658375E+06 -3.286921E+04 -5.701184E+04 -3.256868E+02  1.939128E-09  6.559678E-10
       410  18 -1.652687E+06 -3.354401E+04 -4.657767E+04  2.627368E+03  2.338384E-09 -2.883147E-11
       410  19 -1.358357E+06  1.993771E+04 -3.759906E+03  9.454723E+02  3.129073E+04  2.979288E+03
       410  20 -1.364052E+06  4.058924E+04  1.547759E+04 -2.016396E+03  2.062967E+04  3.004847E+03
       410  21 -1.377621E+06  3.513353E+04  2.124664E+04  6.632220E+03  9.969205E+03  2.616391E+03
       410  22 -1.515182E+06 -1.920647E+04 -4.242605E+04  4.639333E+03  3.135931E+04  2.979557E+03
       410  23 -1.511223E+06  3.860884E+03 -2.076592E+04 -1.170915E+03  2.057175E+04  3.004888E+03
       410  24 -1.515163E+06  7.954765E+02 -1.266472E+04  4.629583E+03  9.784631E+03  2.616260E+03
       410  25 -1.671985E+06 -5.835244E+04 -8.109401E+04  8.332254E+03  3.142787E+04  2.979827E+03
       410  26 -1.658374E+06 -3.286909E+04 -5.701103E+04 -3.256371E+02  2.051385E+04  3.004929E+03
       410  27 -1.652687E+06 -3.354397E+04 -4.657748E+04  2.627388E+03  9.600098E+03  2.616129E+03
       411   1 -1.403145E+06  2.504535E+04  1.715146E+04  4.677146E+03 -7.848989E+03 -2.341780E+03
       411   2 -1.413697E+06  2.531730E+04  1.917156E+04 -1.699021E+03 -5.181402E+03 -2.001958E+03
       411   3 -1.425463E+06  2.213586E+04  1.858828E+04  5.379927E+03 -2.513997E+03 -1.588883E+03
       411   4 -1.513679E+06 -2.537093E+03 -1.005224E+04  5.044466E+03 -7.754320E+03 -2.341734E+03
       411   5 -1.513068E+06  5.154568E+02 -5.305876E+03 -1.684265E+03 -5.064350E+03 -2.001872E+03
       411   6 -1.513675E+06  1.104446E+02 -3.178776E+03  5.042255E+03 -2.374513E+03 -1.588756E+03
       411   7 -1.624202E+06 -3.012045E+04 -3.725684E+04  5.411717E+03 -7.659668E+03 -2.341689E+03
       411   8 -1.612431E+06 -2.428712E+04 -2.978405E+04 -1.669514E+03 -4.947316E+03 -2.001787E+03
       411   9 -1.601881E+06 -2.191555E+04 -2.494641E+04  4.704630E+03 -2.235049E+03 -1.588628E+03
       411  10 -1.403145E+06  2.504533E+04  1.715133E+04  4.677132E+03  9.551913E-10  7.993694E-11
       411  11 -1.413697E+06  2.531729E+04  1.917150E+04 -1.699029E+03  1.087442E-09  8.133376E-10
       411  12 -1.425463E+06  2.213586E+04  1.858826E+04  5.379923E+03  1.636933E-10 -8.204901E-11
       411  13 -1.513679E+06 -2.537115E+03 -1.005236E+04  5.044451E+03 -2.387624E-10 -2.391694E-09
       411  14 -1.513068E+06  5.154455E+02 -5.305932E+03 -1.684273E+03 -1.395570E-10 -8.025027E-10
       411  15 -1.513675E+06  1.104404E+02 -3.178792E+03  5.042252E+03 -6.952539E-11  1.170889E-10
       411  16 -1.624202E+06 -3.012047E+04 -3.725696E+04  5.411703E+03 -1.359641E-09 -7.091113E-10
       411  17 -1.612431E+06 -2.428713E+04 -2.978410E+04 -1.669522E+03 -1.861507E-09  2.360541E-10
       411  18 -1.601881E+06 -2.191556E+04 -2.494642E+04  4.704627E+03 -2.304788E-10 -1.171919E-09
       411  19 -1.403145E+06  2.504535E+04  1.715146E+04  4.677146E+03  7.848989E+03  2.341780E+03
       411  20 -1.413697E+06  2.531730E+04  1.917156E+04 -1.699021E+03  5.181402E+03  2.001958E+03
       411  21 -1.425463E+06  2.213586E+04  1.858828E+04  5.379927E+03  2.513997E+03  1.588883E+03
       411  22 -1.513679E+06 -2.537093E+03 -1.005224E+04  5.044466E+03  7.754320E+03  2.341734E+03
       411  23 -1.513068E+06  5.154568E+02 -5.305876E+03 -1.684265E+03  5.064350E+03  2.001872E+03
       411  24 -1.513675E+06  1.104446E+02 -3.178776E+03  5.042255E+03  2.374513E+03  1.588756E+03
       411  25 -1.624202E+06 -3.012045E+04 -3.725684E+04  5.411717E+03  7.659668E+03  2.341689E+03
       411  26 -1.612431E+06 -2.428712E+04 -2.978405E+04 -1.669514E+03  4.947316E+03  2.001787E+03
       411  27 -1.601881E+06 -2.191555E+04 -2.494641E+04  4.704630E+03  2.235049E+03  1.588628E+03
       412   1 -1.455405E+06  1.416198E+04  1.176507E+04  5.285957E+03 -1.990338E+03 -1.338300E+03
       412   2 -1.467345E+06  1.154990E+04  9.871112E+03 -1.949744E+03 -1.266720E+03 -9.240276E+02
       412   3 -1.479525E+06  8.486326E+03  7.385394E+03  5.352696E+03 -5.431947E+02 -4.913533E+02
       412   4 -1.513457E+06 -3.206249E+02 -2.500459E+03  5.283908E+03 -1.864307E+03 -1.338175E+03
       412   5 -1.513336E+06  7.050885E+01 -1.458319E+03 -1.985371E+03 -1.135020E+03 -9.238881E+02
       412   6 -1.513457E+06  9.147619E+00 -1.011920E+03  5.283559E+03 -4.058121E+02 -4.911979E+02
       412   7 -1.571507E+06 -1.480348E+04 -1.676623E+04  5.281858E+03 -1.738288E+03 -1.338050E+03
       412   8 -1.559326E+06 -1.140904E+04 -1.278791E+04 -2.020996E+03 -1.003330E+03 -9.237486E+02
       412   9 -1.547387E+06 -8.468117E+03 -9.409319E+03  5.214426E+03 -2.684371E+02 -4.910425E+02
       412  10 -1.455405E+06  1.416197E+04  1.176506E+04  5.285955E+03 -5.455625E-10  4.742810E-11
       412  11 -1.467345E+06  1.154990E+04  9.871107E+03 -1.949745E+03  5.562499E-10 -1.278702E-09
       412  12 -1.479525E+06  8.486326E+03  7.385393E+03  5.352696E+03  5.989014E-10 -5.192851E-10
       412  13 -1.513458E+06 -3.206278E+02 -2.500469E+03  5.283906E+03  5.978524E-10 -9.634671E-10
       412  14 -1.513336E+06  7.050759E+01 -1.458323E+03 -1.985372E+03 -4.762463E-10  7.403581E-10
       412  15 -1.513457E+06  9.147316E+00 -1.011921E+03  5.283559E+03 -2.487661E-10  8.226803E-10
       412  16 -1.571507E+06 -1.480348E+04 -1.676624E+04  5.281857E+03 -2.060239E-10  8.857800E-10
       412  17 -1.559326E+06 -1.140904E+04 -1.278791E+04 -2.020997E+03 -7.860632E-10  8.300427E-10
       412  18 -1.547387E+06 -8.468117E+03 -9.409320E+03  5.214426E+03 -1.038271E-09  1.219290E-09
       412  19 -1.455405E+06  1.416198E+04  1.176507E+04  5.285957E+03  1.990338E+03  1.338300E+03
       412  20 -1.467345E+06  1.154990E+04  9.871112E+03 -1.949744E+03  1.266720E+03  9.240276E+02
       412  21 -1.479525E+06  8.486326E+03  7.385394E+03  5.352696E+03  5.431947E+02  4.913533E+02
       412  22 -1.513457E+06 -3.206249E+02 -2.500459E+03  5.283908E+03  1.864307E+03  1.338175E+03
       412  23 -1.513336E+06  7.050885E+01 -1.458319E+03 -1.985371E+03  1.135020E+03  9.238881E+02
       412  24 -1.513457E+06  9.147619E+00 -1.011920E+03  5.283559E+03  4.058121E+02  4.911979E+02
       412  25 -1.571507E+06 -1.480348E+04 -1.676623E+04  5.281858E+03  1.738288E+03  1.338050E+03
       412  26 -1.559326E+06 -1.140904E+04 -1.278791E+04 -2.020996E+03  1.003330E+03  9.237486E+02
       412  27 -1.547387E+06 -8.468117E+03 -9.409319E+03  5.214426E+03  2.684371E+02  4.910425E+02
       413   1 -1.511123E+06  5.464964E+02 -3.736889E+02  5.327999E+03 -3.695420E+02 -2.343616E+02
       413   2 -1.523329E+06 -2.453146E+03 -3.323982E+03 -2.065795E+03  6.580969E+01  2.003981E+02
       413   3 -1.535688E+06 -5.667400E+03 -6.620542E+03  5.347511E+03  5.011671E+02  6.282289E+02
       413   4 -1.513436E+06 -2.342060E+01 -9.056297E+02  5.343401E+03 -2.332215E+02 -2.342044E+02
       413   5 -1.513361E+06  3.508640E+01 -8.683046E+02 -2.060088E+03  1.999732E+02  2.005505E+02
       413   6 -1.513437E+06 -1.206749E+02 -1.175779E+03  5.343510E+03  6.331823E+02  6.283771E+02
       413   7 -1.515750E+06 -5.933380E+02 -1.437571E+03  5.358803E+03 -9.690151E+01 -2.340472E+02
       413   8 -1.503392E+06  2.523311E+03  1.587366E+03 -2.054380E+03  3.341389E+02  2.007030E+02
       413   9 -1.491185E+06  5.426013E+03  4.268948E+03  5.339508E+03  7.652022E+02  6.285254E+02
       413  10 -1.511123E+06  5.464963E+02 -3.736893E+02  5.327999E+03 -5.400862E-10  7.969540E-11
       413  11 -1.523329E+06 -2.453146E+03 -3.323982E+03 -2.065795E+03 -3.012852E-10  4.681166E-10
       413  12 -1.535688E+06 -5.667400E+03 -6.620543E+03  5.347511E+03  1.151317E-10  4.692032E-10
       413  13 -1.513436E+06 -2.342068E+01 -9.056299E+02  5.343401E+03  6.146961E-10 -9.680884E-10
       413  14 -1.513361E+06  3.508634E+01 -8.683047E+02 -2.060088E+03  4.804173E-10 -1.293302E-09
       413  15 -1.513437E+06 -1.206755E+02 -1.175781E+03  5.343510E+03 -7.967690E-10  1.641778E-09
       413  16 -1.515750E+06 -5.933381E+02 -1.437571E+03  5.358803E+03  2.520623E-10 -1.428540E-10
       413  17 -1.503392E+06  2.523311E+03  1.587366E+03 -2.054380E+03  5.170613E-11 -8.582756E-10
       413  18 -1.491185E+06  5.426012E+03  4.268946E+03  5.339508E+03 -1.116652E-09  2.618849E-10
       413  19 -1.511123E+06  5.464964E+02 -3.736889E+02  5.327999E+03  3.695420E+02  2.343616E+02
       413  20 -1.523329E+06 -2.453146E+03 -3.323982E+03 -2.065795E+03 -6.580969E+01 -2.003981E+02
       413  21 -1.535688E+06 -5.667400E+03 -6.620542E+03  5.347511E+03 -5.011671E+02 -6.282289E+02
       413  22 -1.513436E+06 -2.342060E+01 -9.056297E+02  5.343401E+03  2.332215E+02  2.342044E+02
       413  23 -1.513361E+06  3.508640E+01 -8.683046E+02 -2.060088E+03 -1.999732E+02 -2.005505E+02
       413  24 -1.513437E+06 -1.206749E+02 -1.175779E+03  5.343510E+03 -6.331823E+02 -6.283771E+02
       413  25 -1.515750E+06 -5.933380E+02 -1.437571E+03  5.358803E+03  9.690151E+01  2.340472E+02
       413  26 -1.503392E+06  2.523311E+03  1.587366E+03 -2.054380E+03 -3.341389E+02 -2.007030E+02
       413  27 -1.491185E+06  5.426013E+03  4.268948E+03  5.339508E+03 -7.652022E+02 -6.285254E+02
       414   1 -1.567070E+06 -1.332537E+04 -1.464392E+04  5.063769E+03  7.231620E+02  8.871728E+02
       414   2 -1.578626E+06 -1.610707E+04 -1.832740E+04 -1.920112E+03  1.867999E+03  1.316996E+03
       414   3 -1.590705E+06 -2.028509E+04 -2.311195E+04  5.339786E+03  3.012971E+03  1.688611E+03
       414   4 -1.513519E+06  4.961113E+01 -1.413263E+03  5.217862E+03  8.657389E+02  8.873267E+02
       414   5 -1.513260E+06  2.090773E+02 -2.224909E+03 -1.903447E+03  1.992555E+03  1.317117E+03
       414   6 -1.513521E+06 -1.024489E+03 -4.124939E+03  5.218929E+03  3.119528E+03  1.688701E+03
       414   7 -1.459966E+06  1.342437E+04  1.181718E+04  5.371967E+03  1.008328E+03  8.874806E+02
       414   8 -1.447890E+06  1.652491E+04  1.387727E+04 -1.886782E+03  2.117125E+03  1.317238E+03
       414   9 -1.436331E+06  1.823567E+04  1.486163E+04  5.098056E+03  3.226098E+03  1.688792E+03
       414  10 -1.567070E+06 -1.332537E+04 -1.464392E+04  5.063769E+03  5.575628E-11 -9.172453E-10
       414  11 -1.578626E+06 -1.610707E+04 -1.832741E+04 -1.920114E+03 -2.338173E-10  3.764052E-10
       414  12 -1.590705E+06 -2.028510E+04 -2.311197E+04  5.339781E+03  4.267736E-10 -4.305457E-10
       414  13 -1.513519E+06  4.961008E+01 -1.413266E+03  5.217861E+03 -7.829047E-10  1.224535E-09
       414  14 -1.513260E+06  2.090744E+02 -2.224920E+03 -1.903449E+03 -8.887343E-10  1.916729E-09
       414  15 -1.513521E+06 -1.024495E+03 -4.124963E+03  5.218925E+03  3.631755E-10 -5.200300E-10
       414  16 -1.459966E+06  1.342437E+04  1.181718E+04  5.371966E+03  3.555901E-10 -7.304531E-10
       414  17 -1.447890E+06  1.652490E+04  1.387725E+04 -1.886784E+03 -1.298707E-09  1.745172E-09
       414  18 -1.436331E+06  1.823566E+04  1.486160E+04  5.098052E+03 -9.865634E-10  5.837657E-10
       414  19 -1.567070E+06 -1.332537E+04 -1.464392E+04  5.063769E+03 -7.231620E+02 -8.871728E+02
       414  20 -1.578626E+06 -1.610707E+04 -1.832740E+04 -1.920112E+03 -1.867999E+03 -1.316996E+03
       414  21 -1.590705E+06 -2.028509E+04 -2.311195E+04  5.339786E+03 -3.012971E+03 -1.688611E+03
       414  22 -1.513519E+06  4.961113E+01 -1.413263E+03  5.217862E+03 -8.657389E+02 -8.873267E+02
       414  23 -1.513260E+06  2.090773E+02 -2.224909E+03 -1.903447E+03 -1.992555E+03 -1.317117E+03
       414  24 -1.513521E+06 -1.024489E+03 -4.124939E+03  5.218929E+03 -3.119528E+03 -1.688701E+03
       414  25 -1.459966E+06  1.342437E+04  1.181718E+04  5.371967E+03 -1.008328E+03 -8.874806E+02
       414  26 -1.447890E+06  1.652491E+04  1.387727E+04 -1.886782E+03 -2.117125E+03 -1.317238E+03
       414  27 -1.436331E+06  1.823567E+04  1.486163E+04  5.098056E+03 -3.226098E+03 -1.688792E+03
       415   1 -1.620526E+06 -2.623939E+04 -3.142438E+04  4.056619E+03  3.764681E+03  1.974864E+03
       415   2 -1.629604E+06 -2.765840E+04 -3.729591E+04 -1.224911E+03  8.269845E+03  2.391969E+03
       415   3 -1.641914E+06 -3.970375E+04 -4.876017E+04  6.375307E+03  1.277532E+04  2.444288E+03
       415   4 -1.514119E+06  3.306576E+02 -5.176142E+03  4.913491E+03  3.950551E+03  1.975020E+03
       415   5 -1.512517E+06  1.567038E+03 -8.457403E+03 -1.524372E+03  8.342863E+03  2.391994E+03
       415   6 -1.514127E+06 -7.802166E+03 -1.725209E+04  4.919380E+03  1.273556E+04  2.444197E+03
       415   7 -1.407702E+06  2.689986E+04  2.107126E+04  5.770509E+03  4.136453E+03  1.975177E+03
       415   8 -1.395417E+06  3.079145E+04  2.038009E+04 -1.823893E+03  8.415894E+03  2.392020E+03
       415   9 -1.386325E+06  2.409820E+04  1.425479E+04  3.463150E+03  1.269579E+04  2.444105E+03
       415  10 -1.620526E+06 -2.623940E+04 -3.142441E+04  4.056613E+03 -5.277928E-10  6.914304E-10
       415  11 -1.629604E+06 -2.765842E+04 -3.729605E+04 -1.224927E+03 -2.924036E-10 -2.193531E-10
       415  12 -1.641915E+06 -3.970380E+04 -4.876049E+04  6.375282E+03 -4.085376E-10  3.751892E-11
       415  13 -1.514119E+06  3.306492E+02 -5.176179E+03  4.913485E+03 -5.003067E-11 -3.805686E-10
       415  14 -1.512517E+06  1.567013E+03 -8.457545E+03 -1.524388E+03 -2.560365E-10 -1.674955E-10
       415  15 -1.514127E+06 -7.802217E+03 -1.725240E+04  4.919355E+03  2.219968E-10 -4.863687E-11
       415  16 -1.407702E+06  2.689985E+04  2.107122E+04  5.770502E+03 -3.410477E-10 -5.151184E-10
       415  17 -1.395418E+06  3.079143E+04  2.037995E+04 -1.823909E+03 -1.524101E-10 -9.388181E-10
       415  18 -1.386325E+06  2.409815E+04  1.425447E+04  3.463125E+03  3.321262E-11  3.262128E-10
       415  19 -1.620526E+06 -2.623939E+04 -3.142438E+04  4.056619E+03 -3.764681E+03 -1.974864E+03
       415  20 -1.629604E+06 -2.765840E+04 -3.729591E+04 -1.224911E+03 -8.269845E+03 -2.391969E+03
       415  21 -1.641914E+06 -3.970375E+04 -4.876017E+04  6.375307E+03 -1.277532E+04 -2.444288E+03
       415  22 -1.514119E+06  3.306576E+02 -5.176142E+03  4.913491E+03 -3.950551E+03 -1.975020E+03
       415  23 -1.512517E+06  1.567038E+03 -8.457403E+03 -1.524372E+03 -8.342863E+03 -2.391994E+03
       415  24 -1.514127E+06 -7.802166E+03 -1.725209E+04  4.919380E+03 -1.273556E+04 -2.444197E+03
       415  25 -1.407702E+06  2.689986E+04  2.107126E+04  5.770509E+03 -4.136453E+03 -1.975177E+03
       415  26 -1.395417E+06  3.079145E+04  2.038009E+04 -1.823893E+03 -8.415894E+03 -2.392020E+03
       415  27 -1.386325E+06  2.409820E+04  1.425479E+04  3.463150E+03 -1.269579E+04 -2.444105E+03
       416   1 -1.671613E+06 -3.581971E+04 -5.871682E+04 -1.305823E+03  1.551008E+04  3.075254E+03
       416   2 -1.669487E+06 -2.878717E+04 -7.241064E+04  2.256228E+03  3.408068E+04  3.588209E+03
       416   3 -1.689633E+06 -1.013415E+05 -1.181026E+05  1.658408E+04  5.265187E+04  1.238221E+03
       416   4 -1.518318E+06  2.456455E+03 -2.094550E+04  4.437516E+03  1.611477E+04  3.075725E+03
       416   5 -1.507285E+06  1.168621E+04 -3.251403E+04 -9.352028E+02  3.379789E+04  3.587840E+03
       416   6 -1.518364E+06 -5.850569E+04 -7.545732E+04  4.458104E+03  5.148191E+04  1.236804E+03
       416   7 -1.365002E+06  4.073099E+04  1.682409E+04  1.018228E+04  1.671960E+04  3.076207E+03
       416   8 -1.345059E+06  5.215767E+04  7.380635E+03 -4.127473E+03  3.351502E+04  3.587473E+03
       416   9 -1.347067E+06 -1.567155E+04 -3.281420E+04 -7.671224E+03  5.031162E+04  1.235433E+03
       416  10 -1.671613E+06 -3.581978E+04 -5.871729E+04 -1.305862E+03 -6.298392E-11  2.132342E-10
       416  11 -1.669489E+06 -2.878749E+04 -7.241285E+04  2.256129E+03  7.932774E-11 -4.054027E-11
       416  12 -1.689636E+06 -1.013422E+05 -1.181078E+05  1.658402E+04 -2.705025E-10  7.238434E-12
       416  13 -1.518318E+06  2.456375E+03 -2.094601E+04  4.437476E+03  1.103567E-09 -8.281113E-10
       416  14 -1.507287E+06  1.168589E+04 -3.251621E+04 -9.353005E+02  1.676882E-11  1.208398E-10
       416  15 -1.518366E+06 -5.850640E+04 -7.546232E+04  4.458053E+03  3.184179E-10 -1.319083E-10
       416  16 -1.365002E+06  4.073090E+04  1.682355E+04  1.018223E+04  2.040663E-10  4.375796E-10
       416  17 -1.345060E+06  5.215736E+04  7.378495E+03 -4.127570E+03  5.721378E-11 -5.671663E-11
       416  18 -1.347070E+06 -1.567223E+04 -3.281897E+04 -7.671274E+03 -5.261433E-10  3.977341E-10
       416  19 -1.671613E+06 -3.581971E+04 -5.871682E+04 -1.305823E+03 -1.551008E+04 -3.075254E+03
       416  20 -1.669487E+06 -2.878717E+04 -7.241064E+04  2.256228E+03 -3.408068E+04 -3.588209E+03
       416  21 -1.689633E+06 -1.013415E+05 -1.181026E+05  1.658408E+04 -5.265187E+04 -1.238221E+03
       416  22 -1.518318E+06  2.456455E+03 -2.094550E+04  4.437516E+03 -1.611477E+04 -3.075725E+03
       416  23 -1.507285E+06  1.168621E+04 -3.251403E+04 -9.352028E+02 -3.379789E+04 -3.587840E+03
       416  24 -1.518364E+06 -5.850569E+04 -7.545732E+04  4.458104E+03 -5.148191E+04 -1.236804E+03
       416  25 -1.365002E+06  4.073099E+04  1.682409E+04  1.018228E+04 -1.671960E+04 -3.076207E+03
       416  26 -1.345059E+06  5.215767E+04  7.380635E+03 -4.127473E+03 -3.351502E+04 -3.587473E+03
       416  27 -1.347067E+06 -1.567155E+04 -3.281420E+04 -7.671224E+03 -5.031162E+04 -1.235433E+03
       417   1  4.433961E+06  8.907595E+05  1.146164E+06  1.864460E+05  7.759370E+05  5.708214E+01
       417   2  4.266201E+06 -1.622897E+05  5.013486E+05  5.033983E+04  5.097481E+05 -9.200324E+02
       417   3  4.430095E+06 -2.478337E+04  3.268535E+05 -8.250118E+04  2.435335E+05 -9.314675E+02
       417   4  4.379598E+06  8.770771E+05  1.132697E+06  2.806919E+03  7.755332E+05 -1.710041E+02
       417   5  4.214699E+06 -1.751031E+05  4.887561E+05  1.317793E+03  5.096319E+05 -9.600534E+02
       417   6  4.381394E+06 -3.679219E+04  3.149556E+05  3.062839E+03  2.437035E+05 -8.980676E+02
       417   7  4.325309E+06  8.635203E+05  1.119248E+06 -1.808161E+05  7.751295E+05 -3.988703E+02
       417   8  4.163205E+06 -1.879076E+05  4.761647E+05 -4.770020E+04  5.095157E+05 -1.000059E+03
       417   9  4.332712E+06 -4.877385E+04  3.030615E+05  8.862018E+04  2.438735E+05 -8.646188E+02
       417  10  4.433319E+06  8.905993E+05  1.145040E+06  1.864460E+05  5.557706E-11 -1.064065E-09
       417  11  4.265924E+06 -1.623588E+05  5.008637E+05  5.034022E+04  1.931934E-09 -1.569468E-09
       417  12  4.430031E+06 -2.479915E+04  3.267428E+05 -8.250100E+04 -2.409914E-09 -7.783619E-10
       417  13  4.378956E+06  8.769170E+05  1.131575E+06  2.807026E+03  1.601587E-09 -5.519488E-10
       417  14  4.214422E+06 -1.751722E+05  4.882714E+05  1.318186E+03  1.550981E-09 -1.722708E-09
       417  15  4.381331E+06 -3.680799E+04  3.148448E+05  3.063015E+03 -1.636928E-09 -8.159968E-10
       417  16  4.324668E+06  8.633603E+05  1.118127E+06 -1.808159E+05  7.128149E-10 -6.712886E-10
       417  17  4.162928E+06 -1.879767E+05  4.756802E+05 -4.769979E+04  1.652234E-09 -2.134526E-09
       417  18  4.332648E+06 -4.878968E+04  3.029505E+05  8.862035E+04  3.856481E-09  6.416379E-10
       417  19  4.433961E+06  8.907595E+05  1.146164E+06  1.864460E+05 -7.759370E+05 -5.708214E+01
       417  20  4.266201E+06 -1.622897E+05  5.013486E+05  5.033983E+04 -5.097481E+05  9.200324E+02
       417  21  4.430095E+06 -2.478337E+04  3.268535E+05 -8.250118E+04 -2.435335E+05  9.314675E+02
       417  22  4.379598E+06  8.770771E+05  1.132697E+06  2.806919E+03 -7.755332E+05  1.710041E+02
       417  23  4.214699E+06 -1.751031E+05  4.887561E+05  1.317793E+03 -5.096319E+05  9.600534E+02
       417  24  4.381394E+06 -3.679219E+04  3.149556E+05  3.062839E+03 -2.437035E+05  8.980676E+02
       417  25  4.325309E+06  8.635203E+05  1.119248E+06 -1.808161E+05 -7.751295E+05  3.988703E+02
       417  26  4.163205E+06 -1.879076E+05  4.761647E+05 -4.770020E+04 -5.095157E+05  1.000059E+03
       417  27  4.332712E+06 -4.877385E+04  3.030615E+05  8.862018E+04 -2.438735E+05  8.646188E+02
       418   1  4.361416E+06  1.277398E+05  2.700280E+05  2.551636E+04  1.926293E+05 -7.260491E+02
       418   2  4.336194E+06 -1.304373E+04  1.375468E+05  7.434299E+03  1.264183E+05 -7.914338E+02
       418   3  4.359269E+06  5.346356E+03  8.776259E+04 -9.184324E+03  6.021001E+04 -7.873024E+02
       418   4  4.317953E+06  1.169361E+05  2.593754E+05  2.547510E+03  1.925994E+05 -7.331397E+02
       418   5  4.293975E+06 -2.352022E+04  1.272136E+05  1.840349E+03  1.264131E+05 -7.925684E+02
       418   6  4.318290E+06 -4.802440E+03  7.773556E+04  2.596633E+03  6.022943E+04 -7.861602E+02
       418   7  4.274494E+06  1.061342E+05  2.487229E+05 -2.041974E+04  1.925695E+05 -7.402285E+02
       418   8  4.251757E+06 -3.399673E+04  1.168802E+05 -3.753223E+03  1.264080E+05 -7.937030E+02
       418   9  4.277313E+06 -1.495084E+04  6.770849E+04  1.437681E+04  6.024885E+04 -7.850173E+02
       418  10  4.361376E+06  1.277299E+05  2.699588E+05  2.551648E+04 -1.803748E-09 -1.620564E-10
       418  11  4.336177E+06 -1.304798E+04  1.375170E+05  7.434380E+03  1.851363E-09 -1.651766E-10
       418  12  4.359265E+06  5.345390E+03  8.775582E+04 -9.184285E+03 -3.573235E-10  3.202172E-10
       418  13  4.317914E+06  1.169262E+05  2.593062E+05  2.547624E+03  1.745320E-09  6.810596E-10
       418  14  4.293958E+06 -2.352447E+04  1.271837E+05  1.840430E+03  2.516785E-09  3.661085E-10
       418  15  4.318286E+06 -4.803407E+03  7.772879E+04  2.596671E+03 -1.561420E-09 -4.692826E-10
       418  16  4.274454E+06  1.061244E+05  2.486537E+05 -2.041963E+04  6.997153E-10  5.241233E-10
       418  17  4.251740E+06 -3.400098E+04  1.168504E+05 -3.753142E+03  2.536149E-10 -5.455783E-10
       418  18  4.277309E+06 -1.495181E+04  6.770171E+04  1.437685E+04 -6.939067E-11 -1.096500E-09
       418  19  4.361416E+06  1.277398E+05  2.700280E+05  2.551636E+04 -1.926293E+05  7.260491E+02
       418  20  4.336194E+06 -1.304373E+04  1.375468E+05  7.434299E+03 -1.264183E+05  7.914338E+02
       418  21  4.359269E+06  5.346356E+03  8.776259E+04 -9.184324E+03 -6.021001E+04  7.873024E+02
       418  22  4.317953E+06  1.169361E+05  2.593754E+05  2.547510E+03 -1.925994E+05  7.331397E+02
       418  23  4.293975E+06 -2.352022E+04  1.272136E+05  1.840349E+03 -1.264131E+05  7.925684E+02
       418  24  4.318290E+06 -4.802440E+03  7.773556E+04  2.596633E+03 -6.022943E+04  7.861602E+02
       418  25  4.274494E+06  1.061342E+05  2.487229E+05 -2.041974E+04 -1.925695E+05  7.402285E+02
       418  26  4.251757E+06 -3.399673E+04  1.168802E+05 -3.753223E+03 -1.264080E+05  7.937030E+02
       418  27  4.277313E+06 -1.495084E+04  6.770849E+04  1.437681E+04 -6.024885E+04  7.850173E+02
       419   1  4.348758E+06  2.529026E+04  7.144068E+04  4.875318E+03  4.769535E+04 -7.639822E+02
       419   2  4.345234E+06  6.704380E+03  4.252817E+04  2.828729E+03  3.104510E+04 -7.716922E+02
       419   3  4.349158E+06  9.316084E+03  2.970068E+04  5.761618E+02  1.439539E+04 -8.027542E+02
       419   4  4.309156E+06  1.546580E+04  6.174711E+04  2.203527E+03  4.769718E+04 -7.641873E+02
       419   5  4.305464E+06 -3.159350E+03  3.279324E+04  2.310593E+03  3.104049E+04 -7.717228E+02
       419   6  4.309222E+06 -5.850688E+02  1.992951E+04  2.211667E+03  1.438436E+04 -8.027258E+02
       419   7  4.269555E+06  5.641261E+03  5.205343E+04 -4.680953E+02  4.769900E+04 -7.643923E+02
       419   8  4.265695E+06 -1.302320E+04  2.305819E+04  1.792490E+03  3.103588E+04 -7.717534E+02
       419   9  4.269287E+06 -1.048633E+04  1.015823E+04  3.847067E+03  1.437332E+04 -8.026974E+02
       419  10  4.348755E+06  2.528965E+04  7.143644E+04  4.875347E+03 -1.845885E-09 -6.957670E-10
       419  11  4.345233E+06  6.704123E+03  4.252637E+04  2.828749E+03 -3.195620E-09 -1.244045E-09
       419  12  4.349158E+06  9.316029E+03  2.970029E+04  5.761711E+02 -3.294226E-10 -8.212392E-11
       419  13  4.309153E+06  1.546520E+04  6.174286E+04  2.203556E+03 -1.282717E-09 -4.996139E-11
       419  14  4.305463E+06 -3.159607E+03  3.279144E+04  2.310612E+03  2.695774E-10  1.592729E-10
       419  15  4.309222E+06 -5.851246E+02  1.992912E+04  2.211676E+03 -2.897277E-09 -1.016540E-09
       419  16  4.269553E+06  5.640655E+03  5.204918E+04 -4.680660E+02 -8.130220E-10  5.384626E-10
       419  17  4.265694E+06 -1.302345E+04  2.305639E+04  1.792509E+03 -2.174721E-09 -6.566412E-10
       419  18  4.269287E+06 -1.048638E+04  1.015784E+04  3.847076E+03 -4.743553E-11  4.236184E-10
       419  19  4.348758E+06  2.529026E+04  7.144068E+04  4.875318E+03 -4.769535E+04  7.639822E+02
       419  20  4.345234E+06  6.704380E+03  4.252817E+04  2.828729E+03 -3.104510E+04  7.716922E+02
       419  21  4.349158E+06  9.316084E+03  2.970068E+04  5.761618E+02 -1.439539E+04  8.027542E+02
       419  22  4.309156E+06  1.546580E+04  6.174711E+04  2.203527E+03 -4.769718E+04  7.641873E+02
       419  23  4.305464E+06 -3.159350E+03  3.279324E+04  2.310593E+03 -3.104049E+04  7.717228E+02
       419  24  4.309222E+06 -5.850688E+02  1.992951E+04  2.211667E+03 -1.438436E+04  8.027258E+02
       419  25  4.269555E+06  5.641261E+03  5.205343E+04 -4.680953E+02 -4.769900E+04  7.643923E+02
       419  26  4.265695E+06 -1.302320E+04  2.305819E+04  1.792490E+03 -3.103588E+04  7.717534E+02
       419  27  4.269287E+06 -1.048633E+04  1.015823E+04  3.847067E+03 -1.437332E+04  8.026974E+02
       420   1  4.350043E+06  1.246674E+04  2.619260E+04  2.120652E+03  1.115600E+04 -8.198813E+02
       420   2  4.350956E+06  1.039193E+04  2.054902E+04  2.829629E+03  6.240798E+03 -8.625795E+02
       420   3  4.353281E+06  1.139107E+04  1.885916E+04  1.602450E+03  1.325559E+03 -9.421326E+02
       420   4  4.307874E+06  2.008113E+03  1.586869E+04  1.823650E+03  1.114878E+04 -8.198941E+02
       420   5  4.307173E+06 -4.663243E+02  9.831655E+03  2.792291E+03  6.222310E+03 -8.625954E+02
       420   6  4.307886E+06  1.352531E+02  7.756305E+03  1.824774E+03  1.295815E+03 -9.421566E+02
       420   7  4.265707E+06 -8.450650E+03  5.544637E+03  1.526668E+03  1.114157E+04 -8.199069E+02
       420   8  4.263392E+06 -1.132472E+04 -8.858460E+02  2.754956E+03  6.203823E+03 -8.626112E+02
       420   9  4.262493E+06 -1.112071E+04 -3.346700E+03  2.047082E+03  1.266072E+03 -9.421807E+02
       420  10  4.350043E+06  1.246671E+04  2.619237E+04  2.120659E+03  8.490712E-12 -1.354260E-09
       420  11  4.350956E+06  1.039192E+04  2.054894E+04  2.829633E+03  3.074798E-10 -4.649084E-10
       420  12  4.353281E+06  1.139107E+04  1.885915E+04  1.602451E+03 -1.674346E-09 -1.410122E-09
       420  13  4.307874E+06  2.008079E+03  1.586845E+04  1.823658E+03 -2.642680E-13 -2.689406E-10
       420  14  4.307173E+06 -4.663354E+02  9.831581E+03  2.792296E+03 -3.719470E-10 -1.336815E-09
       420  15  4.307886E+06  1.352517E+02  7.756300E+03  1.824775E+03  1.996910E-09  5.462007E-10
       420  16  4.265707E+06 -8.450683E+03  5.544404E+03  1.526675E+03  5.837561E-10  6.288298E-10
       420  17  4.263392E+06 -1.132473E+04 -8.859192E+02  2.754961E+03 -2.246187E-09 -1.872607E-09
       420  18  4.262493E+06 -1.112071E+04 -3.346704E+03  2.047083E+03  1.169692E-09  6.193285E-10
       420  19  4.350043E+06  1.246674E+04  2.619260E+04  2.120652E+03 -1.115600E+04  8.198813E+02
       420  20  4.350956E+06  1.039193E+04  2.054902E+04  2.829629E+03 -6.240798E+03  8.625795E+02
       420  21  4.353281E+06  1.139107E+04  1.885916E+04  1.602450E+03 -1.325559E+03  9.421326E+02
       420  22  4.307874E+06  2.008113E+03  1.586869E+04  1.823650E+03 -1.114878E+04  8.198941E+02
       420  23  4.307173E+06 -4.663243E+02  9.831655E+03  2.792291E+03 -6.222310E+03  8.625954E+02
       420  24  4.307886E+06  1.352531E+02  7.756305E+03  1.824774E+03 -1.295815E+03  9.421566E+02
       420  25  4.265707E+06 -8.450650E+03  5.544637E+03  1.526668E+03 -1.114157E+04  8.199069E+02
       420  26  4.263392E+06 -1.132472E+04 -8.858460E+02  2.754956E+03 -6.203823E+03  8.626112E+02
       420  27  4.262493E+06 -1.112071E+04 -3.346700E+03  2.047082E+03 -1.266072E+03  9.421807E+02
       421   1  4.359439E+06  1.299053E+04  2.019237E+04  1.599302E+03 -6.913980E+01 -9.918066E+02
       421   2  4.362139E+06  1.321917E+04  2.217456E+04  3.375632E+03 -4.429438E+03 -1.090541E+03
       421   3  4.366075E+06  1.608140E+04  2.764247E+04  1.163005E+03 -8.789719E+03 -1.233040E+03
       421   4  4.307847E+06  1.939759E+02  7.557318E+03  1.368581E+03 -9.226946E+01 -9.918281E+02
       421   5  4.307223E+06 -3.999410E+02  8.732162E+03  3.362476E+03 -4.465961E+03 -1.090575E+03
       421   6  4.307839E+06  1.642186E+03  1.340218E+04  1.367393E+03 -8.839614E+03 -1.233091E+03
       421   7  4.256257E+06 -1.260278E+04 -5.077927E+03  1.137878E+03 -1.153972E+02 -9.918495E+02
       421   8  4.252310E+06 -1.401928E+04 -4.710458E+03  3.349321E+03 -4.502482E+03 -1.090609E+03
       421   9  4.249605E+06 -1.279728E+04 -8.383537E+02  1.571762E+03 -8.889505E+03 -1.233142E+03
       421  10  4.359439E+06  1.299053E+04  2.019237E+04  1.599302E+03 -2.543388E-09 -6.175619E-10
       421  11  4.362138E+06  1.321917E+04  2.217452E+04  3.375628E+03  1.906424E-09  1.766195E-09
       421  12  4.366075E+06  1.608138E+04  2.764233E+04  1.162996E+03 -1.969870E-10 -4.667900E-10
       421  13  4.307847E+06  1.939748E+02  7.557316E+03  1.368581E+03  3.377305E-09  1.880685E-09
       421  14  4.307223E+06 -3.999476E+02  8.732123E+03  3.362472E+03  3.107673E-09  2.372070E-09
       421  15  4.307838E+06  1.642163E+03  1.340203E+04  1.367384E+03  7.054401E-10 -2.374948E-10
       421  16  4.256257E+06 -1.260278E+04 -5.077929E+03  1.137878E+03  3.201730E-09  1.035390E-09
       421  17  4.252310E+06 -1.401928E+04 -4.710498E+03  3.349317E+03 -1.541149E-09 -5.563887E-10
       421  18  4.249605E+06 -1.279730E+04 -8.385041E+02  1.571753E+03 -1.261661E-09 -1.203239E-09
       421  19  4.359439E+06  1.299053E+04  2.019237E+04  1.599302E+03  6.913980E+01  9.918066E+02
       421  20  4.362139E+06  1.321917E+04  2.217456E+04  3.375632E+03  4.429438E+03  1.090541E+03
       421  21  4.366075E+06  1.608140E+04  2.764247E+04  1.163005E+03  8.789719E+03  1.233040E+03
       421  22  4.307847E+06  1.939759E+02  7.557318E+03  1.368581E+03  9.226946E+01  9.918281E+02
       421  23  4.307223E+06 -3.999410E+02  8.732162E+03  3.362476E+03  4.465961E+03  1.090575E+03
       421  24  4.307839E+06  1.642186E+03  1.340218E+04  1.367393E+03  8.839614E+03  1.233091E+03
       421  25  4.256257E+06 -1.260278E+04 -5.077927E+03  1.137878E+03  1.153972E+02  9.918495E+02
       421  26  4.252310E+06 -1.401928E+04 -4.710458E+03  3.349321E+03  4.502482E+03  1.090609E+03
       421  27  4.249605E+06 -1.279728E+04 -8.383537E+02  1.571762E+03  8.889505E+03  1.233142E+03
       422   1  4.378339E+06  1.674504E+04  3.364210E+04  2.167195E+03 -1.150666E+04 -1.328713E+03
       422   2  4.380813E+06  1.600241E+04  4.541473E+04  3.751981E+03 -2.524347E+04 -1.511363E+03
       422   3  4.389434E+06  3.264653E+04  7.043781E+04 -1.363829E+03 -3.898033E+04 -1.720799E+03
       422   4  4.308934E+06 -4.725002E+02  1.664135E+04  7.697897E+02 -1.155516E+04 -1.328739E+03
       422   5  4.305833E+06 -2.591591E+03  2.706208E+04  4.113682E+03 -2.529894E+04 -1.511442E+03
       422   6  4.308880E+06  1.267850E+04  5.073924E+04  7.569060E+02 -3.904264E+04 -1.721011E+03
       422   7  4.239533E+06 -1.769038E+04 -3.597578E+02 -6.274607E+02 -1.160366E+04 -1.328764E+03
       422   8  4.230857E+06 -2.118601E+04  8.709011E+03  4.475339E+03 -2.535441E+04 -1.511521E+03
       422   9  4.228332E+06 -7.289999E+03  3.104020E+04  2.877366E+03 -3.910495E+04 -1.721222E+03
       422  10  4.378339E+06  1.674500E+04  3.364185E+04  2.167182E+03 -4.376121E-10  5.497051E-10
       422  11  4.380812E+06  1.600224E+04  4.541354E+04  3.751950E+03 -3.336810E-09 -2.586539E-10
       422  12  4.389432E+06  3.264613E+04  7.043497E+04 -1.363883E+03  7.280947E-10  1.369454E-09
       422  13  4.308934E+06 -4.725376E+02  1.664109E+04  7.697774E+02  4.040519E-10 -2.029949E-10
       422  14  4.305832E+06 -2.591764E+03  2.706088E+04  4.113652E+03 -4.754506E-10  1.104449E-09
       422  15  4.308878E+06  1.267809E+04  5.073639E+04  7.568520E+02 -1.698607E-10  4.632522E-11
       422  16  4.239533E+06 -1.769042E+04 -3.600125E+02 -6.274731E+02 -1.774005E-10 -1.125365E-09
       422  17  4.230856E+06 -2.118618E+04  8.707807E+03  4.475309E+03 -1.669343E-09  1.734145E-09
       422  18  4.228331E+06 -7.290409E+03  3.103734E+04  2.877312E+03 -8.929654E-10 -2.182158E-11
       422  19  4.378339E+06  1.674504E+04  3.364210E+04  2.167195E+03  1.150666E+04  1.328713E+03
       422  20  4.380813E+06  1.600241E+04  4.541473E+04  3.751981E+03  2.524347E+04  1.511363E+03
       422  21  4.389434E+06  3.264653E+04  7.043781E+04 -1.363829E+03  3.898033E+04  1.720799E+03
       422  22  4.308934E+06 -4.725002E+02  1.664135E+04  7.697897E+02  1.155516E+04  1.328739E+03
       422  23  4.305833E+06 -2.591591E+03  2.706208E+04  4.113682E+03  2.529894E+04  1.511442E+03
       422  24  4.308880E+06  1.267850E+04  5.073924E+04  7.569060E+02  3.904264E+04  1.721011E+03
       422  25  4.239533E+06 -1.769038E+04 -3.597578E+02 -6.274607E+02  1.160366E+04  1.328764E+03
       422  26  4.230857E+06 -2.118601E+04  8.709011E+03  4.475339E+03  2.535441E+04  1.511521E+03
       422  27  4.228332E+06 -7.289999E+03  3.104020E+04  2.877366E+03  3.910495E+04  1.721222E+03
       423   1  4.414856E+06  2.050697E+04  8.795568E+04  9.691141E+03 -4.921149E+04 -1.926378E+03
       423   2  4.403647E+06  7.293958E+03  1.306121E+05  6.888269E+02 -1.035981E+05 -2.278421E+03
       423   3  4.432111E+06  1.246136E+05  2.411498E+05 -1.890247E+04 -1.579883E+05 -2.384279E+03
       423   4  4.316374E+06 -3.944054E+03  6.383028E+04 -5.912909E+01 -4.933719E+04 -1.925766E+03
       423   5  4.296403E+06 -1.928795E+04  1.043723E+05  5.173902E+03 -1.036391E+05 -2.279250E+03
       423   6  4.316096E+06  9.589784E+04  2.127455E+05 -1.817804E+02 -1.579438E+05 -2.389009E+03
       423   7  4.217902E+06 -2.839544E+04  3.970423E+04 -9.807862E+03 -4.946286E+04 -1.925149E+03
       423   8  4.189169E+06 -4.587063E+04  7.813175E+04  9.658203E+03 -1.036801E+05 -2.280080E+03
       423   9  4.200094E+06  6.718236E+04  1.843405E+05  1.853543E+04 -1.578993E+05 -2.393736E+03
       423  10  4.414853E+06  2.050632E+04  8.795116E+04  9.691064E+03 -5.318309E-10 -1.055274E-09
       423  11  4.403635E+06  7.291096E+03  1.305921E+05  6.886371E+02  8.363158E-10 -1.668028E-09
       423  12  4.432085E+06  1.246070E+05  2.411032E+05 -1.890277E+04 -4.902651E-10 -2.013769E-09
       423  13  4.316372E+06 -3.944706E+03  6.382573E+04 -5.920550E+01 -6.061025E-10 -8.520633E-10
       423  14  4.296391E+06 -1.929082E+04  1.043523E+05  5.173712E+03 -8.080045E-10 -8.420510E-10
       423  15  4.316070E+06  9.589119E+04  2.126990E+05 -1.820838E+02  1.847145E-10 -1.303061E-09
       423  16  4.217899E+06 -2.839609E+04  3.969965E+04 -9.807938E+03  7.204636E-10  1.909638E-11
       423  17  4.189157E+06 -4.587350E+04  7.811168E+04  9.658013E+03  2.101304E-09  2.955537E-09
       423  18  4.200068E+06  6.717571E+04  1.842940E+05  1.853512E+04  2.135684E-09 -4.575923E-12
       423  19  4.414856E+06  2.050697E+04  8.795568E+04  9.691141E+03  4.921149E+04  1.926378E+03
       423  20  4.403647E+06  7.293958E+03  1.306121E+05  6.888269E+02  1.035981E+05  2.278421E+03
       423  21  4.432111E+06  1.246136E+05  2.411498E+05 -1.890247E+04  1.579883E+05  2.384279E+03
       423  22  4.316374E+06 -3.944054E+03  6.383028E+04 -5.912909E+01  4.933719E+04  1.925766E+03
       423  23  4.296403E+06 -1.928795E+04  1.043723E+05  5.173902E+03  1.036391E+05  2.279250E+03
       423  24  4.316096E+06  9.589784E+04  2.127455E+05 -1.817804E+02  1.579438E+05  2.389009E+03
       423  25  4.217902E+06 -2.839544E+04  3.970423E+04 -9.807862E+03  4.946286E+04  1.925149E+03
       423  26  4.189169E+06 -4.587063E+04  7.813175E+04  9.658203E+03  1.036801E+05  2.280080E+03
       423  27  4.200094E+06  6.718236E+04  1.843405E+05  1.853543E+04  1.578993E+05  2.393736E+03
       424   1  4.511490E+06  5.595749E+03  2.934419E+05  6.916508E+04 -1.992504E+05 -3.139016E+03
       424   2  4.388353E+06 -1.048341E+05  4.391151E+05 -3.323612E+04 -4.182887E+05 -4.024524E+03
       424   3  4.537401E+06  7.611975E+05  9.709428E+05 -1.527833E+05 -6.373210E+05 -2.062547E+03
       424   4  4.368137E+06 -3.019020E+04  2.583170E+05 -1.170000E+03 -1.998539E+05 -3.117477E+03
       424   5  4.231349E+06 -1.436161E+05  4.007847E+05  6.794239E+03 -4.179747E+05 -4.051024E+03
       424   6  4.366635E+06  7.193475E+05  9.288375E+05 -2.363734E+03 -6.360843E+05 -2.214142E+03
       424   7  4.224812E+06 -6.595923E+04  2.231932E+05 -7.148891E+04 -2.004572E+05 -3.095797E+03
       424   8  4.074372E+06 -1.823939E+05  3.624534E+05  4.681451E+04 -4.176607E+05 -4.077489E+03
       424   9  4.195944E+06  6.775800E+05  8.867422E+05  1.480148E+05 -6.348480E+05 -2.365177E+03
       424  10  4.511448E+06  5.585177E+03  2.933678E+05  6.916458E+04 -6.423888E-10 -2.748126E-09
       424  11  4.388166E+06 -1.048807E+05  4.387886E+05 -3.323748E+04 -9.531758E-10 -4.523967E-09
       424  12  4.536967E+06  7.610894E+05  9.701849E+05 -1.527844E+05 -3.945639E-10 -1.650732E-09
       424  13  4.368094E+06 -3.020084E+04  2.582424E+05 -1.170501E+03 -5.061933E-09 -6.393236E-09
       424  14  4.231163E+06 -1.436626E+05  4.004586E+05  6.792878E+03  3.483616E-09  1.988485E-09
       424  15  4.366203E+06  7.192398E+05  9.280824E+05 -2.364866E+03  1.712154E-10 -3.870289E-10
       424  16  4.224769E+06 -6.596994E+04  2.231182E+05 -7.148941E+04  3.950740E-10 -1.543603E-09
       424  17  4.074185E+06 -1.824403E+05  3.621277E+05  4.681315E+04  2.435157E-09  1.320385E-09
       424  18  4.195513E+06  6.774727E+05  8.859898E+05  1.480136E+05 -2.049960E-09 -2.009257E-09
       424  19  4.511490E+06  5.595749E+03  2.934419E+05  6.916508E+04  1.992504E+05  3.139016E+03
       424  20  4.388353E+06 -1.048341E+05  4.391151E+05 -3.323612E+04  4.182887E+05  4.024524E+03
       424  21  4.537401E+06  7.611975E+05  9.709428E+05 -1.527833E+05  6.373210E+05  2.062547E+03
       424  22  4.368137E+06 -3.019020E+04  2.583170E+05 -1.170000E+03  1.998539E+05  3.117477E+03
       424  23  4.231349E+06 -1.436161E+05  4.007847E+05  6.794239E+03  4.179747E+05  4.051024E+03
       424  24  4.366635E+06  7.193475E+05  9.288375E+05 -2.363734E+03  6.360843E+05  2.214142E+03
       424  25  4.224812E+06 -6.595923E+04  2.231932E+05 -7.148891E+04  2.004572E+05  3.095797E+03
       424  26  4.074372E+06 -1.823939E+05  3.624534E+05  4.681451E+04  4.176607E+05  4.077489E+03
       424  27  4.195944E+06  6.775800E+05  8.867422E+05  1.480148E+05  6.348480E+05  2.365177E+03
       425   1  5.689981E+05  1.857288E+05  1.726408E+05  5.136969E+04  6.433684E+04 -1.089581E+04
       425   2  5.181623E+05  1.741592E+05  1.302077E+05  5.169666E+04  3.165410E+04 -3.761380E+04
       425   3  4.717094E+05  1.630554E+05  1.091912E+05  5.958647E+04 -1.051999E+03 -4.702559E+04
       425   4 -2.354209E+05 -1.230413E+04 -1.345184E+04  5.849589E+04 -9.440461E+03 -1.102908E+04
       425   5 -2.344604E+05 -3.701397E+03 -6.698178E+03  5.470351E+04 -5.954964E+03 -3.768945E+04
       425   6 -2.353966E+05 -9.110653E+02 -3.635872E+03  5.847339E+04 -2.496686E+03 -4.703356E+04
       425   7 -1.039230E+06 -2.103794E+05 -1.995673E+05  6.561252E+04 -8.312294E+04 -1.116413E+04
       425   8 -9.865295E+05 -1.815931E+05 -1.436214E+05  5.770635E+04 -4.351970E+04 -3.776552E+04
       425   9 -9.420055E+05 -1.649025E+05 -1.164760E+05  5.736136E+04 -3.939786E+03 -4.704153E+04
       425  10  5.689936E+05  1.857276E+05  1.726328E+05  5.137025E+04  2.721390E-09 -2.947147E-09
       425  11  5.181608E+05  1.741574E+05  1.302032E+05  5.169762E+04  5.154145E-10 -4.453903E-09
       425  12  4.717088E+05  1.630530E+05  1.091871E+05  5.958643E+04 -1.011398E-09 -3.346610E-09
       425  13 -2.354210E+05 -1.230429E+04 -1.345224E+04  5.849581E+04  4.496554E-10  1.065851E-09
       425  14 -2.344608E+05 -3.702932E+03 -6.700913E+03  5.470333E+04 -4.817051E-10 -3.428797E-09
       425  15 -2.353972E+05 -9.134422E+02 -3.640040E+03  5.847329E+04  1.754116E-10 -2.623723E-09
       425  16 -1.039238E+06 -2.103814E+05 -1.995805E+05  6.561178E+04 -5.111405E-09  3.233977E-10
       425  17 -9.865319E+05 -1.815952E+05 -1.436276E+05  5.770503E+04 -1.537334E-09 -4.809217E-09
       425  18 -9.420061E+05 -1.649049E+05 -1.164801E+05  5.736121E+04  9.971426E-10 -3.503357E-09
       425  19  5.689981E+05  1.857288E+05  1.726408E+05  5.136969E+04 -6.433684E+04  1.089581E+04
       425  20  5.181623E+05  1.741592E+05  1.302077E+05  5.169666E+04 -3.165410E+04  3.761380E+04
       425  21  4.717094E+05  1.630554E+05  1.091912E+05  5.958647E+04  1.051999E+03  4.702559E+04
       425  22 -2.354209E+05 -1.230413E+04 -1.345184E+04  5.849589E+04  9.440461E+03  1.102908E+04
       425  23 -2.344604E+05 -3.701397E+03 -6.698178E+03  5.470351E+04  5.954964E+03  3.768945E+04
       425  24 -2.353966E+05 -9.110653E+02 -3.635872E+03  5.847339E+04  2.496686E+03  4.703356E+04
       425  25 -1.039230E+06 -2.103794E+05 -1.995673E+05  6.561252E+04  8.312294E+04  1.116413E+04
       425  26 -9.865295E+05 -1.815931E+05 -1.436214E+05  5.770635E+04  4.351970E+04  3.776552E+04
       425  27 -9.420055E+05 -1.649025E+05 -1.164760E+05  5.736136E+04  3.939786E+03  4.704153E+04
       426   1  4.405427E+05  1.554520E+05  1.025321E+05  5.937396E+04 -5.186556E+02 -4.678909E+04
       426   2  3.917203E+05  1.439340E+05  9.193939E+04  5.518965E+04 -4.002472E+03 -4.650628E+04
       426   3  3.434162E+05  1.327411E+05  8.369340E+04  5.981226E+04 -7.491105E+03 -4.419811E+04
       426   4 -2.350157E+05 -6.935929E+02 -2.732054E+03  5.875181E+04 -2.026197E+03 -4.679710E+04
       426   5 -2.348967E+05 -6.291291E+01 -1.490815E+03  5.434714E+04 -1.278721E+03 -4.650494E+04
       426   6 -2.349952E+05  1.588041E+02 -8.402403E+02  5.874994E+04 -5.362627E+02 -4.418637E+04
       426   7 -9.101188E+05 -1.568616E+05 -1.080069E+05  5.813013E+04 -3.532159E+03 -4.680511E+04
       426   8 -8.611193E+05 -1.440783E+05 -9.492848E+04  5.350529E+04  1.442393E+03 -4.650361E+04
       426   9 -8.130695E+05 -1.324390E+05 -8.537941E+04  5.768845E+04  6.412372E+03 -4.417465E+04
       426  10  4.405421E+05  1.554497E+05  1.025280E+05  5.937394E+04 -6.036814E-09 -3.360018E-09
       426  11  3.917197E+05  1.439316E+05  9.193529E+04  5.518950E+04 -2.206759E-09  3.631536E-09
       426  12  3.434156E+05  1.327390E+05  8.368962E+04  5.981199E+04  1.994855E-09  2.747981E-09
       426  13 -2.350163E+05 -6.959453E+02 -2.736176E+03  5.875174E+04  3.754560E-12 -5.740270E-10
       426  14 -2.348973E+05 -6.523546E+01 -1.494882E+03  5.434709E+04 -2.852025E-11  2.239240E-09
       426  15 -2.349957E+05  1.567077E+02 -8.439095E+02  5.874992E+04 -8.870023E-10 -2.570602E-09
       426  16 -9.101194E+05 -1.568639E+05 -1.080111E+05  5.812999E+04  5.693112E-09  2.676638E-09
       426  17 -8.611198E+05 -1.440806E+05 -9.493254E+04  5.350534E+04 -1.970636E-10  3.184203E-09
       426  18 -8.130701E+05 -1.324411E+05 -8.538315E+04  5.768868E+04 -2.350784E-09 -6.565872E-11
       426  19  4.405427E+05  1.554520E+05  1.025321E+05  5.937396E+04  5.186556E+02  4.678909E+04
       426  20  3.917203E+05  1.439340E+05  9.193939E+04  5.518965E+04  4.002472E+03  4.650628E+04
       426  21  3.434162E+05  1.327411E+05  8.369340E+04  5.981226E+04  7.491105E+03  4.419811E+04
       426  22 -2.350157E+05 -6.935929E+02 -2.732054E+03  5.875181E+04  2.026197E+03  4.679710E+04
       426  23 -2.348967E+05 -6.291291E+01 -1.490815E+03  5.434714E+04  1.278721E+03  4.650494E+04
       426  24 -2.349952E+05  1.588041E+02 -8.402403E+02  5.874994E+04  5.362627E+02  4.418637E+04
       426  25 -9.101188E+05 -1.568616E+05 -1.080069E+05  5.813013E+04  3.532159E+03  4.680511E+04
       426  26 -8.611193E+05 -1.440783E+05 -9.492848E+04  5.350529E+04 -1.442393E+03  4.650361E+04
       426  27 -8.130695E+05 -1.324390E+05 -8.537941E+04  5.768845E+04 -6.412372E+03  4.417465E+04
       427   1  3.128400E+05  1.256549E+05  7.898132E+04  5.976320E+04 -7.362606E+03 -4.218550E+04
       427   2  2.642346E+05  1.144690E+05  7.178353E+04  5.522757E+04 -7.685563E+03 -3.874101E+04
       427   3  2.156639E+05  1.033815E+05  6.481082E+04  5.964852E+04 -8.010120E+03 -3.505878E+04
       427   4 -2.349524E+05  1.772803E+02 -6.365913E+02  5.878333E+04 -4.136741E+02 -4.217306E+04
       427   5 -2.349172E+05  2.102895E+02 -3.627230E+02  5.430475E+04 -2.403934E+02 -3.872629E+04
       427   6 -2.349359E+05  2.556514E+02 -2.085290E+02  5.878317E+04 -6.873625E+01 -3.504169E+04
       427   7 -7.824421E+05 -1.253142E+05 -8.025927E+04  5.780418E+04  6.529385E+03 -4.216063E+04
       427   8 -7.338174E+05 -1.140598E+05 -7.251275E+04  5.338256E+04  7.199044E+03 -3.871159E+04
       427   9 -6.853305E+05 -1.028795E+05 -6.523084E+04  5.791835E+04  7.867128E+03 -3.502462E+04
       427  10  3.128395E+05  1.256530E+05  7.897788E+04  5.976295E+04 -3.752857E-09  4.266907E-09
       427  11  2.642341E+05  1.144674E+05  7.178060E+04  5.522733E+04  1.047649E-09  4.057497E-09
       427  12  2.156635E+05  1.033802E+05  6.480839E+04  5.964829E+04  5.362401E-09  1.879725E-10
       427  13 -2.349528E+05  1.753706E+02 -6.399335E+02  5.878332E+04 -3.770273E-10 -3.524265E-09
       427  14 -2.349176E+05  2.086792E+02 -3.655410E+02  5.430474E+04 -1.427888E-09  3.422298E-09
       427  15 -2.349362E+05  2.543330E+02 -2.108362E+02  5.878317E+04  4.790840E-10  4.848934E-09
       427  16 -7.824426E+05 -1.253161E+05 -8.026269E+04  5.780441E+04  3.181841E-09  1.143829E-09
       427  17 -7.338179E+05 -1.140614E+05 -7.251566E+04  5.338278E+04 -2.183638E-09  2.074538E-09
       427  18 -6.853309E+05 -1.028808E+05 -6.523326E+04  5.791857E+04 -7.048472E-09  6.452391E-10
       427  19  3.128400E+05  1.256549E+05  7.898132E+04  5.976320E+04  7.362606E+03  4.218550E+04
       427  20  2.642346E+05  1.144690E+05  7.178353E+04  5.522757E+04  7.685563E+03  3.874101E+04
       427  21  2.156639E+05  1.033815E+05  6.481082E+04  5.964852E+04  8.010120E+03  3.505878E+04
       427  22 -2.349524E+05  1.772803E+02 -6.365913E+02  5.878333E+04  4.136741E+02  4.217306E+04
       427  23 -2.349172E+05  2.102895E+02 -3.627230E+02  5.430475E+04  2.403934E+02  3.872629E+04
       427  24 -2.349359E+05  2.556514E+02 -2.085290E+02  5.878317E+04  6.873625E+01  3.504169E+04
       427  25 -7.824421E+05 -1.253142E+05 -8.025927E+04  5.780418E+04 -6.529385E+03  4.216063E+04
       427  26 -7.338174E+05 -1.140598E+05 -7.251275E+04  5.338256E+04 -7.199044E+03  3.871159E+04
       427  27 -6.853305E+05 -1.028795E+05 -6.523084E+04  5.791835E+04 -7.867128E+03  3.502462E+04
       428   1  1.851448E+05  9.636229E+04  6.024957E+04  5.960040E+04 -7.982398E+03 -3.283699E+04
       428   2  1.365430E+05  8.523598E+04  5.334573E+04  5.502811E+04 -8.000027E+03 -2.902069E+04
       428   3  8.791404E+04  7.416451E+04  4.645339E+04  5.943387E+04 -8.018565E+03 -2.517668E+04
       428   4 -2.349278E+05  2.622320E+02 -1.604755E+02  5.878793E+04 -4.055131E+01 -3.281929E+04
       428   5 -2.349015E+05  2.529134E+02 -9.815996E+01  5.429873E+04 -6.726557E-01 -2.900195E+04
       428   6 -2.349155E+05  2.883107E+02 -6.468242E+01  5.878789E+04  3.829551E+01 -2.515689E+04
       428   7 -6.548221E+05 -9.584584E+04 -6.057301E+04  5.797592E+04  7.896151E+03 -3.280160E+04
       428   8 -6.062066E+05 -8.473642E+04 -5.354394E+04  5.356972E+04  7.994099E+03 -2.898322E+04
       428   9 -5.576398E+05 -7.359262E+04 -4.658414E+04  5.814219E+04  8.091145E+03 -2.513711E+04
       428  10  1.851444E+05  9.636111E+04  6.024743E+04  5.960019E+04 -1.557694E-09  2.892817E-10
       428  11  1.365427E+05  8.523506E+04  5.334402E+04  5.502792E+04 -7.702357E-10  7.636997E-09
       428  12  8.791380E+04  7.416382E+04  4.645208E+04  5.943371E+04 -4.691257E-10  5.366312E-09
       428  13 -2.349281E+05  2.610755E+02 -1.624994E+02  5.878793E+04 -2.159654E-11  3.024236E-11
       428  14 -2.349018E+05  2.520103E+02 -9.974040E+01  5.429873E+04 -1.109499E-09  7.378002E-09
       428  15 -2.349157E+05  2.876312E+02 -6.587157E+01  5.878789E+04 -5.636609E-10 -3.388884E-10
       428  16 -6.548225E+05 -9.584702E+04 -6.057515E+04  5.797613E+04  8.866534E-10  4.002608E-11
       428  17 -6.062069E+05 -8.473734E+04 -5.354564E+04  5.356991E+04 -1.255988E-10  2.514910E-09
       428  18 -5.576400E+05 -7.359332E+04 -4.658545E+04  5.814236E+04 -1.202727E-09 -6.447468E-11
       428  19  1.851448E+05  9.636229E+04  6.024957E+04  5.960040E+04  7.982398E+03  3.283699E+04
       428  20  1.365430E+05  8.523598E+04  5.334573E+04  5.502811E+04  8.000027E+03  2.902069E+04
       428  21  8.791404E+04  7.416451E+04  4.645339E+04  5.943387E+04  8.018565E+03  2.517668E+04
       428  22 -2.349278E+05  2.622320E+02 -1.604755E+02  5.878793E+04  4.055131E+01  3.281929E+04
       428  23 -2.349015E+05  2.529134E+02 -9.815996E+01  5.429873E+04  6.726557E-01  2.900195E+04
       428  24 -2.349155E+05  2.883107E+02 -6.468242E+01  5.878789E+04 -3.829551E+01  2.515689E+04
       428  25 -6.548221E+05 -9.584584E+04 -6.057301E+04  5.797592E+04 -7.896151E+03  3.280160E+04
       428  26 -6.062066E+05 -8.473642E+04 -5.354394E+04  5.356972E+04 -7.994099E+03  2.898322E+04
       428  27 -5.576398E+05 -7.359262E+04 -4.658414E+04  5.814219E+04 -8.091145E+03  2.513711E+04
       429   1  5.738710E+04  6.714887E+04  4.188392E+04  5.937859E+04 -8.013867E+03 -2.292987E+04
       429   2  8.775148E+03  5.602380E+04  3.497111E+04  5.479037E+04 -7.989775E+03 -1.907267E+04
       429   3 -3.988141E+04  4.494413E+04  2.803727E+04  5.918861E+04 -7.966231E+03 -1.521861E+04
       429   4 -2.349131E+05  2.934840E+02 -5.706759E+01  5.878973E+04  4.379710E+01 -2.290963E+04
       429   5 -2.348865E+05  2.789307E+02 -5.446583E+01  5.429640E+04  6.106069E+01 -1.905186E+04
       429   6 -2.349050E+05  3.112088E+02 -6.811115E+01  5.878971E+04  7.777738E+01 -1.519723E+04
       429   7 -5.271268E+05 -6.656576E+04 -4.199911E+04  5.820111E+04  8.097830E+03 -2.288941E+04
       429   8 -4.784880E+05 -5.546861E+04 -3.508072E+04  5.380258E+04  8.108871E+03 -1.903105E+04
       429   9 -4.298901E+05 -4.432342E+04 -2.817385E+04  5.839091E+04  8.119366E+03 -1.517586E+04
       429  10  5.738689E+04  6.714829E+04  4.188281E+04  5.937844E+04  1.205845E-08 -1.566636E-11
       429  11  8.774981E+03  5.602339E+04  3.497031E+04  5.479025E+04  2.463314E-09 -3.551661E-09
       429  12 -3.988154E+04  4.494386E+04  2.803672E+04  5.918851E+04 -8.025863E-09 -1.637142E-09
       429  13 -2.349132E+05  2.929205E+02 -5.805379E+01  5.878973E+04  8.776436E-10  5.694632E-09
       429  14 -2.348866E+05  2.785410E+02 -5.514786E+01  5.429640E+04 -1.854027E-09 -8.583909E-10
       429  15 -2.349051E+05  3.109609E+02 -6.854513E+01  5.878971E+04 -2.883679E-10 -2.994774E-09
       429  16 -5.271270E+05 -6.656634E+04 -4.200022E+04  5.820126E+04 -1.344938E-08  2.830922E-09
       429  17 -4.784882E+05 -5.546902E+04 -3.508152E+04  5.380270E+04 -3.466041E-09 -4.036245E-09
       429  18 -4.298902E+05 -4.432368E+04 -2.817440E+04  5.839101E+04  6.728654E-09 -4.552753E-09
       429  19  5.738710E+04  6.714887E+04  4.188392E+04  5.937859E+04  8.013867E+03  2.292987E+04
       429  20  8.775148E+03  5.602380E+04  3.497111E+04  5.479037E+04  7.989775E+03  1.907267E+04
       429  21 -3.988141E+04  4.494413E+04  2.803727E+04  5.918861E+04  7.966231E+03  1.521861E+04
       429  22 -2.349131E+05  2.934840E+02 -5.706759E+01  5.878973E+04 -4.379710E+01  2.290963E+04
       429  23 -2.348865E+05  2.789307E+02 -5.446583E+01  5.429640E+04 -6.106069E+01  1.905186E+04
       429  24 -2.349050E+05  3.112088E+02 -6.811115E+01  5.878971E+04 -7.777738E+01  1.519723E+04
       429  25 -5.271268E+05 -6.656576E+04 -4.199911E+04  5.820111E+04 -8.097830E+03  2.288941E+04
       429  26 -4.784880E+05 -5.546861E+04 -3.508072E+04  5.380258E+04 -8.108871E+03  1.903105E+04
       429  27 -4.298901E+05 -4.432342E+04 -2.817385E+04  5.839091E+04 -8.119366E+03  1.517586E+04
       430   1 -7.042008E+04  3.792289E+04  2.343883E+04  5.912376E+04 -7.959276E+03 -1.297398E+04
       430   2 -1.190263E+05  2.678050E+04  1.642553E+04  5.453218E+04 -7.780779E+03 -9.149501E+03
       430   3 -1.677091E+05  1.565289E+04  9.281662E+03  5.892482E+04 -7.602406E+03 -5.383376E+03
       430   4 -2.349057E+05  3.147679E+02 -8.305273E+01  5.878917E+04  8.537557E+01 -1.295234E+04
       430   5 -2.348750E+05  2.935005E+02 -1.341716E+02  5.429704E+04  1.417306E+02 -9.127913E+03
       430   6 -2.349019E+05  3.082711E+02 -2.311906E+02  5.878920E+04  1.979749E+02 -5.361848E+03
       430   7 -3.993639E+05 -3.729454E+04 -2.360510E+04  5.845467E+04  8.127987E+03 -1.293070E+04
       430   8 -3.507099E+05 -2.619408E+04 -1.669383E+04  5.406193E+04  8.062825E+03 -9.106328E+03
       430   9 -3.020901E+05 -1.503652E+04 -9.743878E+03  5.865360E+04  7.997548E+03 -5.340322E+03
       430  10 -7.042019E+04  3.792269E+04  2.343840E+04  5.912367E+04  3.483280E-10  3.931708E-09
       430  11 -1.190264E+05  2.678040E+04  1.642526E+04  5.453212E+04 -3.080026E-09  1.813249E-09
       430  12 -1.677091E+05  1.565285E+04  9.281499E+03  5.892478E+04 -7.526325E-09  4.267516E-09
       430  13 -2.349058E+05  3.145877E+02 -8.336797E+01  5.878918E+04 -1.060928E-09 -7.568866E-10
       430  14 -2.348750E+05  2.934110E+02 -1.343282E+02  5.429704E+04 -1.778996E-10  3.605383E-10
       430  15 -2.349019E+05  3.082403E+02 -2.312447E+02  5.878920E+04 -8.574516E-10  3.299419E-09
       430  16 -3.993640E+05 -3.729474E+04 -2.360554E+04  5.845475E+04 -6.435165E-10  2.964409E-09
       430  17 -3.507100E+05 -2.619418E+04 -1.669411E+04  5.406199E+04  3.363790E-09 -6.588110E-09
       430  18 -3.020901E+05 -1.503657E+04 -9.744052E+03  5.865364E+04  6.517787E-09  1.163211E-09
       430  19 -7.042008E+04  3.792289E+04  2.343883E+04  5.912376E+04  7.959276E+03  1.297398E+04
       430  20 -1.190263E+05  2.678050E+04  1.642553E+04  5.453218E+04  7.780779E+03  9.149501E+03
       430  21 -1.677091E+05  1.565289E+04  9.281662E+03  5.892482E+04  7.602406E+03  5.383376E+03
       430  22 -2.349057E+05  3.147679E+02 -8.305273E+01  5.878917E+04 -8.537557E+01  1.295234E+04
       430  23 -2.348750E+05  2.935005E+02 -1.341716E+02  5.429704E+04 -1.417306E+02  9.127913E+03
       430  24 -2.349019E+05  3.082711E+02 -2.311906E+02  5.878920E+04 -1.979749E+02  5.361848E+03
       430  25 -3.993639E+05 -3.729454E+04 -2.360510E+04  5.845467E+04 -8.127987E+03  1.293070E+04
       430  26 -3.507099E+05 -2.619408E+04 -1.669383E+04  5.406193E+04 -8.062825E+03  9.106328E+03
       430  27 -3.020901E+05 -1.503652E+04 -9.743878E+03  5.865360E+04 -7.997548E+03  5.340322E+03
       431   1 -1.982901E+05  8.603532E+03  4.547429E+03  5.883457E+04 -7.564565E+03 -3.189449E+03
       431   2 -2.467867E+05 -2.679915E+03 -3.089651E+03  5.435066E+04 -6.252382E+03  2.996959E+02
       431   3 -2.955863E+05 -1.426238E+04 -1.167381E+04  5.881603E+04 -4.938976E+03  3.284466E+03
       431   4 -2.349159E+05  3.061317E+02 -3.042797E+02  5.878133E+04  2.377271E+02 -3.167842E+03
       431   5 -2.348545E+05  2.173760E+02 -5.368413E+02  5.430711E+04  4.967494E+02  3.183677E+02
       431   6 -2.349163E+05  1.237511E+01 -9.852604E+02  5.878214E+04  7.571083E+02  3.300208E+03
       431   7 -2.715402E+05 -7.991293E+03 -5.155770E+03  5.872809E+04  8.039580E+03 -3.146235E+03
       431   8 -2.229220E+05  3.114682E+03  2.016131E+03  5.426355E+04  7.246009E+03  3.370384E+02
       431   9 -1.742427E+05  1.428695E+04  9.703280E+03  5.874824E+04  6.453733E+03  3.315948E+03
       431  10 -1.982901E+05  8.603506E+03  4.547303E+03  5.883456E+04 -5.051428E-09  7.273653E-09
       431  11 -2.467867E+05 -2.679925E+03 -3.089725E+03  5.435067E+04  1.232114E-09  3.605196E-09
       431  12 -2.955864E+05 -1.426240E+04 -1.167388E+04  5.881604E+04  9.220272E-09  3.999404E-09
       431  13 -2.349159E+05  3.061209E+02 -3.042987E+02  5.878133E+04 -1.087193E-09  3.926914E-09
       431  14 -2.348545E+05  2.173758E+02 -5.368420E+02  5.430711E+04 -4.622199E-10  5.981903E-09
       431  15 -2.349163E+05  1.236326E+01 -9.852820E+02  5.878214E+04  4.586051E-10 -7.380863E-10
       431  16 -2.715403E+05 -7.991321E+03 -5.155910E+03  5.872811E+04  5.057484E-09  3.664001E-09
       431  17 -2.229221E+05  3.114668E+03  2.016032E+03  5.426355E+04 -3.143533E-09  3.566671E-09
       431  18 -1.742427E+05  1.428693E+04  9.703181E+03  5.874822E+04 -9.593289E-09 -6.920849E-09
       431  19 -1.982901E+05  8.603532E+03  4.547429E+03  5.883457E+04  7.564565E+03  3.189449E+03
       431  20 -2.467867E+05 -2.679915E+03 -3.089651E+03  5.435066E+04  6.252382E+03 -2.996959E+02
       431  21 -2.955863E+05 -1.426238E+04 -1.167381E+04  5.881603E+04  4.938976E+03 -3.284466E+03
       431  22 -2.349159E+05  3.061317E+02 -3.042797E+02  5.878133E+04 -2.377271E+02  3.167842E+03
       431  23 -2.348545E+05  2.173760E+02 -5.368413E+02  5.430711E+04 -4.967494E+02 -3.183677E+02
       431  24 -2.349163E+05  1.237511E+01 -9.852604E+02  5.878214E+04 -7.571083E+02 -3.300208E+03
       431  25 -2.715402E+05 -7.991293E+03 -5.155770E+03  5.872809E+04 -8.039580E+03  3.146235E+03
       431  26 -2.229220E+05  3.114682E+03  2.016131E+03  5.426355E+04 -7.246009E+03 -3.370384E+02
       431  27 -1.742427E+05  1.428695E+04  9.703280E+03  5.874824E+04 -6.453733E+03 -3.315948E+03
       432   1 -3.265240E+05 -2.156645E+04 -1.732218E+04  5.851132E+04 -4.789868E+03  5.036626E+03
       432   2 -3.740516E+05 -3.440218E+04 -2.961286E+04  5.559393E+04  5.447587E+03  5.644754E+03
       432   3 -4.238774E+05 -5.087920E+04 -4.949397E+04  6.131983E+04  1.569557E+04  1.939323E+03
       432   4 -2.350533E+05 -6.358682E+01 -1.311627E+03  5.871318E+04  9.219583E+02  5.052334E+03
       432   5 -2.346879E+05 -1.088815E+03 -2.414577E+03  5.439714E+04  2.157112E+03  5.635629E+03
       432   6 -2.350582E+05 -4.191074E+03 -4.853510E+03  5.872436E+04  3.403503E+03  1.905764E+03
       432   7 -1.435743E+05  2.143884E+04  1.469875E+04  5.891507E+04  6.634601E+03  5.068045E+03
       432   8 -9.530561E+04  3.222340E+04  2.478282E+04  5.320007E+04 -1.134085E+03  5.626517E+03
       432   9 -4.620597E+04  4.249461E+04  3.978506E+04  5.612809E+04 -8.892286E+03  1.872314E+03
       432  10 -3.265240E+05 -2.156648E+04 -1.732227E+04  5.851134E+04 -7.233042E-09  3.791050E-09
       432  11 -3.740516E+05 -3.440223E+04 -2.961297E+04  5.559390E+04 -3.442376E-10  1.133668E-09
       432  12 -4.238777E+05 -5.087927E+04 -4.949444E+04  6.131980E+04  3.623969E-09 -1.676634E-10
       432  13 -2.350533E+05 -6.361445E+01 -1.311676E+03  5.871318E+04  3.666834E-10  5.625552E-09
       432  14 -2.346879E+05 -1.088851E+03 -2.414646E+03  5.439713E+04 -1.613869E-09 -3.752456E-09
       432  15 -2.350583E+05 -4.191081E+03 -4.853539E+03  5.872436E+04 -2.948330E-10  6.079472E-09
       432  16 -1.435743E+05  2.143880E+04  1.469862E+04  5.891504E+04  6.080451E-09  5.880424E-10
       432  17 -9.530562E+04  3.222336E+04  2.478276E+04  5.320008E+04  2.208487E-10  2.697936E-09
       432  18 -4.620606E+04  4.249458E+04  3.978490E+04  5.612810E+04 -4.888925E-09  6.175758E-10
       432  19 -3.265240E+05 -2.156645E+04 -1.732218E+04  5.851132E+04  4.789868E+03 -5.036626E+03
       432  20 -3.740516E+05 -3.440218E+04 -2.961286E+04  5.559393E+04 -5.447587E+03 -5.644754E+03
       432  21 -4.238774E+05 -5.087920E+04 -4.949397E+04  6.131983E+04 -1.569557E+04 -1.939323E+03
       432  22 -2.350533E+05 -6.358682E+01 -1.311627E+03  5.871318E+04 -9.219583E+02 -5.052334E+03
       432  23 -2.346879E+05 -1.088815E+03 -2.414577E+03  5.439714E+04 -2.157112E+03 -5.635629E+03
       432  24 -2.350582E+05 -4.191074E+03 -4.853510E+03  5.872436E+04 -3.403503E+03 -1.905764E+03
       432  25 -1.435743E+05  2.143884E+04  1.469875E+04  5.891507E+04 -6.634601E+03 -5.068045E+03
       432  26 -9.530561E+04  3.222340E+04  2.478282E+04  5.320007E+04  1.134085E+03 -5.626517E+03
       432  27 -4.620597E+04  4.249461E+04  3.978506E+04  5.612809E+04  8.892286E+03 -1.872314E+03
       433   1 -7.848427E+05 -4.142760E+04 -9.363557E+04 -2.784995E+04 -1.535337E+05 -4.341821E+03
       433   2 -7.728472E+05  1.672377E+05  3.048644E+04 -1.354643E+04 -1.022709E+05 -1.192724E+04
       433   3 -8.273507E+05  1.342155E+05  6.094045E+04  2.643844E+04 -5.103805E+04 -1.045014E+04
       433   4 -1.334527E+06 -1.786041E+05 -2.303778E+05  8.182917E+03 -1.572575E+05 -4.361642E+03
       433   5 -1.300948E+06  3.561293E+04 -9.932274E+04 -4.927195E+03 -1.032135E+05 -1.193262E+04
       433   6 -1.334411E+06  7.545637E+03 -6.392879E+04  7.645137E+03 -4.919735E+04 -1.044223E+04
       433   7 -1.883935E+06 -3.157984E+05 -3.671420E+05  4.418363E+04 -1.609779E+05 -4.381908E+03
       433   8 -1.828794E+06 -9.603228E+04 -2.291524E+05  3.684483E+03 -1.041552E+05 -1.193803E+04
       433   9 -1.841236E+06 -1.191421E+05 -1.888169E+05 -1.113299E+04 -4.735813E+04 -1.043441E+04
       433  10 -7.848680E+05 -4.143396E+04 -9.367996E+04 -2.785048E+04 -3.493127E-09  2.235746E-09
       433  11 -7.728585E+05  1.672347E+05  3.046649E+04 -1.354742E+04 -2.528566E-09  1.011646E-08
       433  12 -8.273536E+05  1.342147E+05  6.093534E+04  2.643801E+04 -2.104474E-09  4.254950E-09
       433  13 -1.334554E+06 -1.786108E+05 -2.304244E+05  8.182364E+03  3.829349E-10 -6.670778E-09
       433  14 -1.300959E+06  3.560991E+04 -9.934307E+04 -4.928188E+03  2.073931E-09 -9.498355E-09
       433  15 -1.334413E+06  7.544869E+03 -6.393356E+04  7.644723E+03 -5.825544E-10  1.267744E-09
       433  16 -1.883962E+06 -3.158054E+05 -3.671909E+05  4.418306E+04  2.489378E-09  9.203248E-10
       433  17 -1.828806E+06 -9.603536E+04 -2.291731E+05  3.683480E+03 -1.757568E-09  1.248395E-08
       433  18 -1.841238E+06 -1.191429E+05 -1.888213E+05 -1.113339E+04  9.802346E-10  1.834205E-09
       433  19 -7.848427E+05 -4.142760E+04 -9.363557E+04 -2.784995E+04  1.535337E+05  4.341821E+03
       433  20 -7.728472E+05  1.672377E+05  3.048644E+04 -1.354643E+04  1.022709E+05  1.192724E+04
       433  21 -8.273507E+05  1.342155E+05  6.094045E+04  2.643844E+04  5.103805E+04  1.045014E+04
       433  22 -1.334527E+06 -1.786041E+05 -2.303778E+05  8.182917E+03  1.572575E+05  4.361642E+03
       433  23 -1.300948E+06  3.561293E+04 -9.932274E+04 -4.927195E+03  1.032135E+05  1.193262E+04
       433  24 -1.334411E+06  7.545637E+03 -6.392879E+04  7.645137E+03  4.919735E+04  1.044223E+04
       433  25 -1.883935E+06 -3.157984E+05 -3.671420E+05  4.418363E+04  1.609779E+05  4.381908E+03
       433  26 -1.828794E+06 -9.603228E+04 -2.291524E+05  3.684483E+03  1.041552E+05  1.193803E+04
       433  27 -1.841236E+06 -1.191421E+05 -1.888169E+05 -1.113299E+04  4.735813E+04  1.043441E+04
       434   1 -8.758241E+05  8.742687E+04  5.721987E+04  5.923601E+03 -3.869611E+04 -8.576841E+03
       434   2 -8.972660E+05  1.093941E+05  7.746595E+04 -6.362742E+03 -2.563950E+04 -8.640651E+03
       434   3 -9.282653E+05  9.929609E+04  8.122316E+04  1.296455E+04 -1.258950E+04 -7.547328E+03
       434   4 -1.321664E+06 -2.378515E+04 -5.265793E+04  9.220115E+03 -3.889403E+04 -8.578330E+03
       434   5 -1.316841E+06  4.725013E+03 -2.582292E+04 -6.639298E+03 -2.548540E+04 -8.640376E+03
       434   6 -1.321644E+06  1.096371E+03 -1.573023E+04  9.116490E+03 -1.208283E+04 -7.545098E+03
       434   7 -1.767323E+06 -1.350119E+05 -1.625504E+05  1.251407E+04 -3.909181E+04 -8.579821E+03
       434   8 -1.736255E+06 -9.995718E+04 -1.291248E+05 -6.915845E+03 -2.533140E+04 -8.640102E+03
       434   9 -1.714881E+06 -9.711486E+04 -1.126951E+05  5.270700E+03 -1.157648E+04 -7.542873E+03
       434  10 -8.758257E+05  8.742638E+04  5.721692E+04  5.923334E+03 -2.474076E-09 -1.357959E-09
       434  11 -8.972667E+05  1.093938E+05  7.746457E+04 -6.362920E+03  3.652301E-10  5.263812E-09
       434  12 -9.282655E+05  9.929599E+04  8.122275E+04  1.296448E+04  1.445024E-09  1.576009E-08
       434  13 -1.321666E+06 -2.378564E+04 -5.266092E+04  9.219846E+03 -4.447119E-10  1.575196E-08
       434  14 -1.316841E+06  4.724758E+03 -2.582428E+04 -6.639475E+03  2.901376E-09 -2.440416E-08
       434  15 -1.321644E+06  1.096271E+03 -1.573061E+04  9.116417E+03 -7.744738E-10  1.411732E-08
       434  16 -1.767325E+06 -1.350124E+05 -1.625535E+05  1.251380E+04  2.905954E-09 -1.067741E-08
       434  17 -1.736255E+06 -9.995743E+04 -1.291261E+05 -6.916021E+03 -3.646799E-09 -7.688852E-09
       434  18 -1.714881E+06 -9.711496E+04 -1.126954E+05  5.270630E+03 -4.910825E-09  5.020611E-09
       434  19 -8.758241E+05  8.742687E+04  5.721987E+04  5.923601E+03  3.869611E+04  8.576841E+03
       434  20 -8.972660E+05  1.093941E+05  7.746595E+04 -6.362742E+03  2.563950E+04  8.640651E+03
       434  21 -9.282653E+05  9.929609E+04  8.122316E+04  1.296455E+04  1.258950E+04  7.547328E+03
       434  22 -1.321664E+06 -2.378515E+04 -5.265793E+04  9.220115E+03  3.889403E+04  8.578330E+03
       434  23 -1.316841E+06  4.725013E+03 -2.582292E+04 -6.639298E+03  2.548540E+04  8.640376E+03
       434  24 -1.321644E+06  1.096371E+03 -1.573023E+04  9.116490E+03  1.208283E+04  7.545098E+03
       434  25 -1.767323E+06 -1.350119E+05 -1.625504E+05  1.251407E+04  3.909181E+04  8.579821E+03
       434  26 -1.736255E+06 -9.995718E+04 -1.291248E+05 -6.915845E+03  2.533140E+04  8.640102E+03
       434  27 -1.714881E+06 -9.711486E+04 -1.126951E+05  5.270700E+03  1.157648E+04  7.542873E+03
       435   1 -9.993768E+05  7.689442E+04  6.634137E+04  1.085863E+04 -9.819225E+03 -6.790954E+03
       435   2 -1.028567E+06  7.305945E+04  6.485842E+04 -6.856519E+03 -6.507434E+03 -5.869511E+03
       435   3 -1.059410E+06  6.529748E+04  6.018520E+04  1.161116E+04 -3.197713E+03 -4.748936E+03
       435   4 -1.319862E+06 -3.055844E+03 -1.251318E+04  1.017848E+04 -9.565107E+03 -6.789888E+03
       435   5 -1.319028E+06  5.811677E+02 -6.666841E+03 -7.922081E+03 -6.192828E+03 -5.867995E+03
       435   6 -1.319858E+06  2.795894E+02 -4.053914E+03  1.016126E+04 -2.822459E+03 -4.746932E+03
       435   7 -1.640253E+06 -8.301377E+04 -9.137532E+04  9.498560E+03 -9.311119E+03 -6.788822E+03
       435   8 -1.609412E+06 -7.190340E+04 -7.819833E+04 -8.987244E+03 -5.878369E+03 -5.866480E+03
       435   9 -1.580245E+06 -6.474337E+04 -6.829805E+04  8.711888E+03 -2.447364E+03 -4.744929E+03
       435  10 -9.993769E+05  7.689435E+04  6.634110E+04  1.085858E+04  8.280274E-10 -7.071414E-09
       435  11 -1.028567E+06  7.305940E+04  6.485827E+04 -6.856550E+03 -4.640226E-10 -9.110303E-09
       435  12 -1.059410E+06  6.529746E+04  6.018513E+04  1.161115E+04 -1.093692E-09 -4.303789E-09
       435  13 -1.319862E+06 -3.055918E+03 -1.251344E+04  1.017843E+04 -5.352220E-10 -1.744412E-09
       435  14 -1.319028E+06  5.811204E+02 -6.666978E+03 -7.922110E+03 -1.896280E-11 -1.085158E-08
       435  15 -1.319858E+06  2.795631E+02 -4.053971E+03  1.016125E+04  5.199559E-10 -4.777291E-09
       435  16 -1.640253E+06 -8.301384E+04 -9.137557E+04  9.498509E+03 -1.143608E-09 -5.894277E-09
       435  17 -1.609412E+06 -7.190345E+04 -7.819846E+04 -8.987272E+03 -2.712429E-09  6.695612E-09
       435  18 -1.580245E+06 -6.474339E+04 -6.829810E+04  8.711879E+03 -2.468690E-09  1.554630E-08
       435  19 -9.993768E+05  7.689442E+04  6.634137E+04  1.085863E+04  9.819225E+03  6.790954E+03
       435  20 -1.028567E+06  7.305945E+04  6.485842E+04 -6.856519E+03  6.507434E+03  5.869511E+03
       435  21 -1.059410E+06  6.529748E+04  6.018520E+04  1.161116E+04  3.197713E+03  4.748936E+03
       435  22 -1.319862E+06 -3.055844E+03 -1.251318E+04  1.017848E+04  9.565107E+03  6.789888E+03
       435  23 -1.319028E+06  5.811677E+02 -6.666841E+03 -7.922081E+03  6.192828E+03  5.867995E+03
       435  24 -1.319858E+06  2.795894E+02 -4.053914E+03  1.016126E+04  2.822459E+03  4.746932E+03
       435  25 -1.640253E+06 -8.301377E+04 -9.137532E+04  9.498560E+03  9.311119E+03  6.788822E+03
       435  26 -1.609412E+06 -7.190340E+04 -7.819833E+04 -8.987244E+03  5.878369E+03  5.866480E+03
       435  27 -1.580245E+06 -6.474337E+04 -6.829805E+04  8.711888E+03  2.447364E+03  4.744929E+03
       436   1 -1.140122E+06  4.451551E+04  4.085443E+04  1.151574E+04 -2.508038E+03 -4.073993E+03
       436   2 -1.172147E+06  3.675889E+04  3.415374E+04 -8.062546E+03 -1.489343E+03 -2.959074E+03
       436   3 -1.204867E+06  2.880522E+04  2.663280E+04  1.137271E+04 -4.715146E+02 -1.792438E+03
       436   4 -1.319633E+06 -2.629249E+02 -3.260612E+03  1.079763E+04 -2.170170E+03 -4.072109E+03
       436   5 -1.319283E+06  3.930831E+01 -2.082674E+03 -8.710605E+03 -1.135632E+03 -2.957022E+03
       436   6 -1.319633E+06  1.416877E+02 -1.736116E+03  1.079528E+04 -1.019062E+02 -1.790209E+03
       436   7 -1.499114E+06 -4.504375E+04 -4.737803E+04  1.007968E+04 -1.832400E+03 -4.070226E+03
       436   8 -1.466400E+06 -3.668189E+04 -3.832069E+04 -9.358538E+03 -7.820038E+02 -2.954971E+03
       436   9 -1.434386E+06 -2.852283E+04 -3.010601E+04  1.021794E+04  2.676338E+02 -1.787981E+03
       436  10 -1.140122E+06  4.451549E+04  4.085439E+04  1.151573E+04 -3.881646E-10 -1.012920E-08
       436  11 -1.172147E+06  3.675888E+04  3.415372E+04 -8.062550E+03 -2.196976E-09  5.659808E-09
       436  12 -1.204867E+06  2.880522E+04  2.663279E+04  1.137271E+04 -6.839358E-09 -3.436017E-09
       436  13 -1.319633E+06 -2.629439E+02 -3.260652E+03  1.079762E+04 -5.794909E-10  4.253422E-09
       436  14 -1.319283E+06  3.929858E+01 -2.082693E+03 -8.710607E+03  4.352481E-10 -7.568371E-09
       436  15 -1.319633E+06  1.416843E+02 -1.736122E+03  1.079528E+04  5.925398E-10 -1.351502E-08
       436  16 -1.499114E+06 -4.504377E+04 -4.737806E+04  1.007967E+04 -9.512673E-10  7.502591E-09
       436  17 -1.466400E+06 -3.668190E+04 -3.832070E+04 -9.358540E+03 -2.362102E-09  2.151019E-08
       436  18 -1.434386E+06 -2.852283E+04 -3.010602E+04  1.021794E+04  3.617773E-09  1.478607E-09
       436  19 -1.140122E+06  4.451551E+04  4.085443E+04  1.151574E+04  2.508038E+03  4.073993E+03
       436  20 -1.172147E+06  3.675889E+04  3.415374E+04 -8.062546E+03  1.489343E+03  2.959074E+03
       436  21 -1.204867E+06  2.880522E+04  2.663280E+04  1.137271E+04  4.715146E+02  1.792438E+03
       436  22 -1.319633E+06 -2.629249E+02 -3.260612E+03  1.079763E+04  2.170170E+03  4.072109E+03
       436  23 -1.319283E+06  3.930831E+01 -2.082674E+03 -8.710605E+03  1.135632E+03  2.957022E+03
       436  24 -1.319633E+06  1.416877E+02 -1.736116E+03  1.079528E+04  1.019062E+02  1.790209E+03
       436  25 -1.499114E+06 -4.504375E+04 -4.737803E+04  1.007968E+04  1.832400E+03  4.070226E+03
       436  26 -1.466400E+06 -3.668189E+04 -3.832069E+04 -9.358538E+03  7.820038E+02  2.954971E+03
       436  27 -1.434386E+06 -2.852283E+04 -3.010601E+04  1.021794E+04 -2.676338E+02  1.787981E+03
       437   1 -1.289883E+06  7.549208E+03  5.474426E+03  1.108418E+04 -1.575154E+02 -1.100929E+03
       437   2 -1.322626E+06 -7.963839E+02 -2.988948E+03 -8.981500E+03  9.184459E+02  7.441085E+01
       437   3 -1.356170E+06 -9.353487E+03 -1.233345E+04  1.090150E+04  1.994412E+03  1.238645E+03
       437   4 -1.319652E+06  1.406005E+02 -1.755290E+03  1.100294E+04  2.082865E+02 -1.098691E+03
       437   5 -1.319251E+06  4.579722E+01 -2.157989E+03 -8.970168E+03  1.280775E+03  7.662403E+01
       437   6 -1.319653E+06 -2.599467E+02 -3.439429E+03  1.100538E+04  2.353326E+03  1.240837E+03
       437   7 -1.349420E+06 -7.268072E+03 -8.985070E+03  1.092170E+04  5.740709E+02 -1.096453E+03
       437   8 -1.315876E+06  8.879776E+02 -1.327030E+03 -8.958837E+03  1.643107E+03  7.883722E+01
       437   9 -1.283134E+06  8.833495E+03  5.454492E+03  1.110927E+04  2.712262E+03  1.243029E+03
       437  10 -1.289883E+06  7.549207E+03  5.474423E+03  1.108418E+04 -7.760480E-09 -3.773390E-09
       437  11 -1.322626E+06 -7.963842E+02 -2.988950E+03 -8.981500E+03 -1.126015E-09 -1.021613E-08
       437  12 -1.356170E+06 -9.353489E+03 -1.233346E+04  1.090150E+04 -7.593748E-09 -2.973308E-09
       437  13 -1.319652E+06  1.405992E+02 -1.755293E+03  1.100294E+04 -9.439729E-10  7.150852E-09
       437  14 -1.319251E+06  4.579677E+01 -2.157992E+03 -8.970169E+03 -2.028260E-10 -5.464592E-09
       437  15 -1.319653E+06 -2.599498E+02 -3.439442E+03  1.100538E+04  2.678440E-10 -9.258860E-09
       437  16 -1.349420E+06 -7.268074E+03 -8.985073E+03  1.092170E+04  6.288751E-09 -8.009366E-09
       437  17 -1.315876E+06  8.879769E+02 -1.327035E+03 -8.958837E+03 -1.674275E-09 -2.943881E-08
       437  18 -1.283134E+06  8.833491E+03  5.454476E+03  1.110927E+04  4.111656E-09 -1.467193E-08
       437  19 -1.289883E+06  7.549208E+03  5.474426E+03  1.108418E+04  1.575154E+02  1.100929E+03
       437  20 -1.322626E+06 -7.963839E+02 -2.988948E+03 -8.981500E+03 -9.184459E+02 -7.441085E+01
       437  21 -1.356170E+06 -9.353487E+03 -1.233345E+04  1.090150E+04 -1.994412E+03 -1.238645E+03
       437  22 -1.319652E+06  1.406005E+02 -1.755290E+03  1.100294E+04 -2.082865E+02  1.098691E+03
       437  23 -1.319251E+06  4.579722E+01 -2.157989E+03 -8.970168E+03 -1.280775E+03 -7.662403E+01
       437  24 -1.319653E+06 -2.599467E+02 -3.439429E+03  1.100538E+04 -2.353326E+03 -1.240837E+03
       437  25 -1.349420E+06 -7.268072E+03 -8.985070E+03  1.092170E+04 -5.740709E+02  1.096453E+03
       437  26 -1.315876E+06  8.879776E+02 -1.327030E+03 -8.958837E+03 -1.643107E+03 -7.883722E+01
       437  27 -1.283134E+06  8.833495E+03  5.454492E+03  1.110927E+04 -2.712262E+03 -1.243029E+03
       438   1 -1.441331E+06 -3.002167E+04 -3.430961E+04  9.859728E+03  2.659352E+03  1.943192E+03
       438   2 -1.472621E+06 -3.773531E+04 -4.492821E+04 -9.257050E+03  6.280228E+03  3.129577E+03
       438   3 -1.505933E+06 -4.961644E+04 -5.905599E+04  1.056516E+04  9.902317E+03  4.173029E+03
       438   4 -1.319925E+06  3.078042E+02 -4.300941E+03  1.077233E+04  3.044747E+03  1.945511E+03
       438   5 -1.318921E+06  6.274965E+02 -7.070498E+03 -8.686666E+03  6.621897E+03  3.131547E+03
       438   6 -1.319929E+06 -3.211801E+03 -1.331793E+04  1.079273E+04  1.020045E+04  4.174663E+03
       438   7 -1.198506E+06  3.063618E+04  2.570663E+04  1.168510E+04  3.430216E+03  1.947831E+03
       438   8 -1.165199E+06  3.898854E+04  3.078546E+04 -8.116173E+03  6.963652E+03  3.133516E+03
       438   9 -1.133894E+06  4.319026E+04  3.241759E+04  1.102032E+04  1.049867E+04  4.176297E+03
       438  10 -1.441331E+06 -3.002168E+04 -3.430963E+04  9.859723E+03 -1.086275E-08 -1.207337E-10
       438  11 -1.472621E+06 -3.773533E+04 -4.492830E+04 -9.257066E+03 -1.253879E-09 -9.476937E-09
       438  12 -1.505933E+06 -4.961649E+04 -5.905621E+04  1.056512E+04  1.833896E-09 -3.576820E-09
       438  13 -1.319925E+06  3.077977E+02 -4.300966E+03  1.077233E+04  1.031392E-11 -1.813323E-10
       438  14 -1.318921E+06  6.274742E+02 -7.070599E+03 -8.686683E+03  2.647477E-10  9.345988E-09
       438  15 -1.319930E+06 -3.211848E+03 -1.331816E+04  1.079269E+04  5.855673E-10  1.137564E-08
       438  16 -1.198506E+06  3.063617E+04  2.570660E+04  1.168510E+04  7.469113E-09  8.437017E-09
       438  17 -1.165199E+06  3.898852E+04  3.078535E+04 -8.116190E+03 -3.395327E-10 -1.054618E-08
       438  18 -1.133894E+06  4.319022E+04  3.241735E+04  1.102028E+04 -5.132884E-09  1.947937E-08
       438  19 -1.441331E+06 -3.002167E+04 -3.430961E+04  9.859728E+03 -2.659352E+03 -1.943192E+03
       438  20 -1.472621E+06 -3.773531E+04 -4.492821E+04 -9.257050E+03 -6.280228E+03 -3.129577E+03
       438  21 -1.505933E+06 -4.961644E+04 -5.905599E+04  1.056516E+04 -9.902317E+03 -4.173029E+03
       438  22 -1.319925E+06  3.078042E+02 -4.300941E+03  1.077233E+04 -3.044747E+03 -1.945511E+03
       438  23 -1.318921E+06  6.274965E+02 -7.070498E+03 -8.686666E+03 -6.621897E+03 -3.131547E+03
       438  24 -1.319929E+06 -3.211801E+03 -1.331793E+04  1.079273E+04 -1.020045E+04 -4.174663E+03
       438  25 -1.198506E+06  3.063618E+04  2.570663E+04  1.168510E+04 -3.430216E+03 -1.947831E+03
       438  26 -1.165199E+06  3.898854E+04  3.078546E+04 -8.116173E+03 -6.963652E+03 -3.133516E+03
       438  27 -1.133894E+06  4.319026E+04  3.241759E+04  1.102032E+04 -1.049867E+04 -4.176297E+03
       439   1 -1.588455E+06 -6.540397E+04 -8.252546E+04  6.425925E+03  1.237582E+04  4.968084E+03
       439   2 -1.613030E+06 -6.894568E+04 -1.004797E+05 -7.861817E+03  2.692698E+04  6.186573E+03
       439   3 -1.648289E+06 -1.067019E+05 -1.365273E+05  1.395332E+04  4.148313E+04  6.448440E+03
       439   4 -1.321851E+06  1.200515E+03 -1.675156E+04  1.010327E+04  1.288275E+04  4.970863E+03
       439   5 -1.316548E+06  5.042713E+03 -2.746560E+04 -7.880002E+03  2.714206E+04  6.187485E+03
       439   6 -1.321874E+06 -2.526955E+04 -5.606359E+04  1.023869E+04  4.140708E+04  6.447512E+03
       439   7 -1.055183E+06  6.779972E+04  4.901708E+04  1.378210E+04  1.338990E+04  4.973647E+03
       439   8 -1.019986E+06  7.902455E+04  4.554196E+04 -7.898302E+03  2.735725E+04  6.188397E+03
       439   9 -9.953608E+05  5.615489E+04  2.439229E+04  6.521979E+03  4.133098E+04  6.446585E+03
       439  10 -1.588455E+06 -6.540403E+04 -8.252579E+04  6.425875E+03  7.764524E-09  2.056940E-09
       439  11 -1.613031E+06 -6.894591E+04 -1.004811E+05 -7.861951E+03 -4.256601E-10  9.792769E-09
       439  12 -1.648291E+06 -1.067024E+05 -1.365307E+05  1.395310E+04 -1.938295E-09 -7.550071E-09
       439  13 -1.321851E+06  1.200444E+03 -1.675192E+04  1.010322E+04  9.903231E-10 -8.319596E-09
       439  14 -1.316549E+06  5.042474E+03 -2.746706E+04 -7.880137E+03 -1.135643E-09  1.597318E-08
       439  15 -1.321875E+06 -2.527006E+04 -5.606690E+04  1.023847E+04  4.609820E-11 -3.311766E-09
       439  16 -1.055183E+06  6.779965E+04  4.901669E+04  1.378205E+04 -8.676863E-09  6.493493E-10
       439  17 -1.019987E+06  7.902430E+04  4.554048E+04 -7.898438E+03 -3.667730E-09 -3.506745E-08
       439  18 -9.953627E+05  5.615438E+04  2.438899E+04  6.521765E+03 -6.928686E-10 -3.158418E-09
       439  19 -1.588455E+06 -6.540397E+04 -8.252546E+04  6.425925E+03 -1.237582E+04 -4.968084E+03
       439  20 -1.613030E+06 -6.894568E+04 -1.004797E+05 -7.861817E+03 -2.692698E+04 -6.186573E+03
       439  21 -1.648289E+06 -1.067019E+05 -1.365273E+05  1.395332E+04 -4.148313E+04 -6.448440E+03
       439  22 -1.321851E+06  1.200515E+03 -1.675156E+04  1.010327E+04 -1.288275E+04 -4.970863E+03
       439  23 -1.316548E+06  5.042713E+03 -2.746560E+04 -7.880002E+03 -2.714206E+04 -6.187485E+03
       439  24 -1.321874E+06 -2.526955E+04 -5.606359E+04  1.023869E+04 -4.140708E+04 -6.447512E+03
       439  25 -1.055183E+06  6.779972E+04  4.901708E+04  1.378210E+04 -1.338990E+04 -4.973647E+03
       439  26 -1.019986E+06  7.902455E+04  4.554196E+04 -7.898302E+03 -2.735725E+04 -6.188397E+03
       439  27 -9.953608E+05  5.615489E+04  2.439229E+04  6.521979E+03 -4.133098E+04 -6.446585E+03
       440   1 -1.734137E+06 -9.166780E+04 -1.663418E+05 -1.095944E+04  5.074396E+04  8.194567E+03
       440   2 -1.724326E+06 -6.793712E+04 -2.101439E+05  2.538948E+03  1.105716E+05  9.856035E+03
       440   3 -1.786794E+06 -3.025902E+05 -3.575358E+05  4.793583E+04  1.704288E+05  3.909724E+03
       440   4 -1.335456E+06  8.083518E+03 -6.806474E+04  8.937060E+03  5.237923E+04  8.203706E+03
       440   5 -1.299606E+06  3.793197E+04 -1.057025E+05 -6.605731E+03  1.098716E+05  9.850629E+03
       440   6 -1.335581E+06 -1.901053E+05 -2.452554E+05  9.751630E+03  1.673962E+05  3.886443E+03
       440   7 -9.366295E+05  1.078244E+05  3.020078E+04  2.884621E+04  5.401554E+04  8.212946E+03
       440   8 -8.747211E+05  1.437880E+05 -1.274437E+03 -1.575687E+04  1.091710E+05  9.845246E+03
       440   9 -8.841800E+05 -7.763004E+04 -1.329894E+05 -2.846058E+04  1.643614E+05  3.863547E+03
       440  10 -1.734140E+06 -9.166856E+04 -1.663468E+05 -1.095977E+04 -2.367013E-09 -4.448021E-09
       440  11 -1.724339E+06 -6.794052E+04 -2.101671E+05  2.538070E+03  2.381708E-09  5.735399E-09
       440  12 -1.786826E+06 -3.025980E+05 -3.575905E+05  4.793529E+04  2.911248E-09  9.741348E-09
       440  13 -1.335459E+06  8.082707E+03 -6.807003E+04  8.936714E+03 -5.203953E-10  4.117222E-09
       440  14 -1.299619E+06  3.792862E+04 -1.057254E+05 -6.606603E+03  2.365160E-10  1.594273E-08
       440  15 -1.335612E+06 -1.901128E+05 -2.453082E+05  9.751106E+03 -5.062836E-10  7.414203E-09
       440  16 -9.366327E+05  1.078235E+05  3.019516E+04  2.884585E+04  1.130414E-09  3.599292E-09
       440  17 -8.747339E+05  1.437847E+05 -1.297048E+03 -1.575774E+04 -5.398587E-09  1.029924E-08
       440  18 -8.842091E+05 -7.763732E+04 -1.330402E+05 -2.846110E+04 -6.387811E-09 -4.546657E-10
       440  19 -1.734137E+06 -9.166780E+04 -1.663418E+05 -1.095944E+04 -5.074396E+04 -8.194567E+03
       440  20 -1.724326E+06 -6.793712E+04 -2.101439E+05  2.538948E+03 -1.105716E+05 -9.856035E+03
       440  21 -1.786794E+06 -3.025902E+05 -3.575358E+05  4.793583E+04 -1.704288E+05 -3.909724E+03
       440  22 -1.335456E+06  8.083518E+03 -6.806474E+04  8.937060E+03 -5.237923E+04 -8.203706E+03
       440  23 -1.299606E+06  3.793197E+04 -1.057025E+05 -6.605731E+03 -1.098716E+05 -9.850629E+03
       440  24 -1.335581E+06 -1.901053E+05 -2.452554E+05  9.751630E+03 -1.673962E+05 -3.886443E+03
       440  25 -9.366295E+05  1.078244E+05  3.020078E+04  2.884621E+04 -5.401554E+04 -8.212946E+03
       440  26 -8.747211E+05  1.437880E+05 -1.274437E+03 -1.575687E+04 -1.091710E+05 -9.845246E+03
       440  27 -8.841800E+05 -7.763004E+04 -1.329894E+05 -2.846058E+04 -1.643614E+05 -3.863547E+03
